TimeStep;Np;Nbound;Nfixed;Nmoving;Nfloat;Nfluid
0.420005;10047;2448;2448;0;0;7599

Pos.x;Pos.y;Pos.z;Idp;Vel.x;Vel.y;Vel.z;Rhop;Mass;Press;Type;Acec.x;Acec.y;Acec.z;CellOffSpring;GradVel;Qfxx;Qfxy;Qfxz;Qfyy;Qfyz;Qfzz;StrainDot.x;StrainDot.y;StrainDot.z;VonMises3D;
 -1.9000000E-01;  9.9999998E-03; -4.4999999E-01;89;  0.0000000E+00;  0.0000000E+00;  0.0000000E+00;  1.0000000E+03;  1.0000000E-01;  0.0000000E+00;0;  0.0000000E+00;  0.0000000E+00;  0.0000000E+00;0;  0.0000000E+00;  4.0000000E+04;  0.0000000E+00;  0.0000000E+00;  4.0000000E+04;  0.0000000E+00;  4.0000000E+04;  0.0000000E+00;  0.0000000E+00;  0.0000000E+00;  0.0000000E+00;
 -1.8000001E-01;  9.9999998E-03; -4.4999999E-01;180;  0.0000000E+00;  0.0000000E+00;  0.0000000E+00;  1.0000000E+03;  1.0000000E-01;  0.0000000E+00;0;  0.0000000E+00;  0.0000000E+00;  0.0000000E+00;0;  0.0000000E+00;  4.0000000E+04;  0.0000000E+00;  0.0000000E+00;  4.0000000E+04;  0.0000000E+00;  4.0000000E+04;  0.0000000E+00;  0.0000000E+00;  0.0000000E+00;  0.0000000E+00;
 -1.7000000E-01;  9.9999998E-03; -4.4999999E-01;271;  0.0000000E+00;  0.0000000E+00;  0.0000000E+00;  1.0000000E+03;  1.0000000E-01;  0.0000000E+00;0;  0.0000000E+00;  0.0000000E+00;  0.0000000E+00;0;  0.0000000E+00;  4.0000000E+04;  0.0000000E+00;  0.0000000E+00;  4.0000000E+04;  0.0000000E+00;  4.0000000E+04;  0.0000000E+00;  0.0000000E+00;  0.0000000E+00;  0.0000000E+00;
 -1.6000000E-01;  9.9999998E-03; -4.4999999E-01;362;  0.0000000E+00;  0.0000000E+00;  0.0000000E+00;  1.0000000E+03;  1.0000000E-01;  0.0000000E+00;0;  0.0000000E+00;  0.0000000E+00;  0.0000000E+00;0;  0.0000000E+00;  4.0000000E+04;  0.0000000E+00;  0.0000000E+00;  4.0000000E+04;  0.0000000E+00;  4.0000000E+04;  0.0000000E+00;  0.0000000E+00;  0.0000000E+00;  0.0000000E+00;
 -1.5000001E-01;  9.9999998E-03; -4.4999999E-01;453;  0.0000000E+00;  0.0000000E+00;  0.0000000E+00;  1.0000000E+03;  1.0000000E-01;  0.0000000E+00;0;  0.0000000E+00;  0.0000000E+00;  0.0000000E+00;0;  0.0000000E+00;  4.0000000E+04;  0.0000000E+00;  0.0000000E+00;  4.0000000E+04;  0.0000000E+00;  4.0000000E+04;  0.0000000E+00;  0.0000000E+00;  0.0000000E+00;  0.0000000E+00;
 -1.4000000E-01;  9.9999998E-03; -4.4999999E-01;544;  0.0000000E+00;  0.0000000E+00;  0.0000000E+00;  1.0000000E+03;  1.0000000E-01;  0.0000000E+00;0;  0.0000000E+00;  0.0000000E+00;  0.0000000E+00;0;  0.0000000E+00;  4.0000000E+04;  0.0000000E+00;  0.0000000E+00;  4.0000000E+04;  0.0000000E+00;  4.0000000E+04;  0.0000000E+00;  0.0000000E+00;  0.0000000E+00;  0.0000000E+00;
 -1.3000000E-01;  9.9999998E-03; -4.4999999E-01;635;  0.0000000E+00;  0.0000000E+00;  0.0000000E+00;  1.0000000E+03;  1.0000000E-01;  0.0000000E+00;0;  0.0000000E+00;  0.0000000E+00;  0.0000000E+00;0;  0.0000000E+00;  4.0000000E+04;  0.0000000E+00;  0.0000000E+00;  4.0000000E+04;  0.0000000E+00;  4.0000000E+04;  0.0000000E+00;  0.0000000E+00;  0.0000000E+00;  0.0000000E+00;
 -1.2000000E-01;  9.9999998E-03; -4.4999999E-01;726;  0.0000000E+00;  0.0000000E+00;  0.0000000E+00;  1.0000000E+03;  1.0000000E-01;  0.0000000E+00;0;  0.0000000E+00;  0.0000000E+00;  0.0000000E+00;0;  0.0000000E+00;  4.0000000E+04;  0.0000000E+00;  0.0000000E+00;  4.0000000E+04;  0.0000000E+00;  4.0000000E+04;  0.0000000E+00;  0.0000000E+00;  0.0000000E+00;  0.0000000E+00;
 -1.1000000E-01;  9.9999998E-03; -4.4999999E-01;817;  0.0000000E+00;  0.0000000E+00;  0.0000000E+00;  1.0000000E+03;  1.0000000E-01;  0.0000000E+00;0;  0.0000000E+00;  0.0000000E+00;  0.0000000E+00;0;  0.0000000E+00;  4.0000000E+04;  0.0000000E+00;  0.0000000E+00;  4.0000000E+04;  0.0000000E+00;  4.0000000E+04;  0.0000000E+00;  0.0000000E+00;  0.0000000E+00;  0.0000000E+00;
 -1.0000000E-01;  9.9999998E-03; -4.4999999E-01;908;  0.0000000E+00;  0.0000000E+00;  0.0000000E+00;  1.0000000E+03;  1.0000000E-01;  0.0000000E+00;0;  0.0000000E+00;  0.0000000E+00;  0.0000000E+00;0;  0.0000000E+00;  4.0000000E+04;  0.0000000E+00;  0.0000000E+00;  4.0000000E+04;  0.0000000E+00;  4.0000000E+04;  0.0000000E+00;  0.0000000E+00;  0.0000000E+00;  0.0000000E+00;
 -9.0000004E-02;  9.9999998E-03; -4.4999999E-01;999;  0.0000000E+00;  0.0000000E+00;  0.0000000E+00;  1.0000000E+03;  1.0000000E-01;  0.0000000E+00;0;  0.0000000E+00;  0.0000000E+00;  0.0000000E+00;0;  0.0000000E+00;  4.0000000E+04;  0.0000000E+00;  0.0000000E+00;  4.0000000E+04;  0.0000000E+00;  4.0000000E+04;  0.0000000E+00;  0.0000000E+00;  0.0000000E+00;  0.0000000E+00;
 -7.9999998E-02;  9.9999998E-03; -4.4999999E-01;1090;  0.0000000E+00;  0.0000000E+00;  0.0000000E+00;  1.0000000E+03;  1.0000000E-01;  0.0000000E+00;0;  0.0000000E+00;  0.0000000E+00;  0.0000000E+00;0;  0.0000000E+00;  4.0000000E+04;  0.0000000E+00;  0.0000000E+00;  4.0000000E+04;  0.0000000E+00;  4.0000000E+04;  0.0000000E+00;  0.0000000E+00;  0.0000000E+00;  0.0000000E+00;
 -7.0000000E-02;  9.9999998E-03; -4.4999999E-01;1181;  0.0000000E+00;  0.0000000E+00;  0.0000000E+00;  1.0000000E+03;  1.0000000E-01;  0.0000000E+00;0;  0.0000000E+00;  0.0000000E+00;  0.0000000E+00;0;  0.0000000E+00;  4.0000000E+04;  0.0000000E+00;  0.0000000E+00;  4.0000000E+04;  0.0000000E+00;  4.0000000E+04;  0.0000000E+00;  0.0000000E+00;  0.0000000E+00;  8.6648275E-12;
 -5.9999999E-02;  9.9999998E-03; -4.4999999E-01;1272;  0.0000000E+00;  0.0000000E+00;  0.0000000E+00;  1.0000000E+03;  1.0000000E-01;  0.0000000E+00;0;  0.0000000E+00;  0.0000000E+00;  0.0000000E+00;0; -1.5166212E-09;  4.0000000E+04;  0.0000000E+00;  0.0000000E+00;  4.0000000E+04;  0.0000000E+00;  4.0000000E+04; -6.0019945E-10;  0.0000000E+00; -9.1642172E-10;  3.8641792E-02;
 -5.0000001E-02;  9.9999998E-03; -4.4999999E-01;1363;  0.0000000E+00;  0.0000000E+00;  0.0000000E+00;  1.0000000E+03;  1.0000000E-01;  0.0000000E+00;0;  0.0000000E+00;  0.0000000E+00;  0.0000000E+00;0; -8.6834895E-09;  4.0000000E+04;  0.0000000E+00;  0.0000000E+00;  4.0000000E+04;  0.0000000E+00;  4.0000000E+04; -4.5956430E-09;  0.0000000E+00; -4.0878465E-09;  3.2985073E-01;
 -3.9999999E-02;  9.9999998E-03; -4.4999999E-01;1454;  0.0000000E+00;  0.0000000E+00;  0.0000000E+00;  1.0000000E+03;  1.0000000E-01;  0.0000000E+00;0;  0.0000000E+00;  0.0000000E+00;  0.0000000E+00;0; -2.1333282E-09;  4.0000000E+04;  0.0000000E+00;  0.0000000E+00;  4.0000000E+04;  0.0000000E+00;  4.0000000E+04; -1.1859007E-08;  0.0000000E+00;  9.7256789E-09;  1.1960675E+00;
 -2.9999999E-02;  9.9999998E-03; -4.4999999E-01;1545;  0.0000000E+00;  0.0000000E+00;  0.0000000E+00;  1.0000000E+03;  1.0000000E-01;  0.0000000E+00;0;  0.0000000E+00;  0.0000000E+00;  0.0000000E+00;0;  5.7604872E-08;  4.0000000E+04;  0.0000000E+00;  0.0000000E+00;  4.0000000E+04;  0.0000000E+00;  4.0000000E+04; -2.6940540E-08;  0.0000000E+00;  8.4545412E-08;  2.8767815E+00;
 -2.0000000E-02;  9.9999998E-03; -4.4999999E-01;1636;  0.0000000E+00;  0.0000000E+00;  0.0000000E+00;  1.0000000E+03;  1.0000000E-01;  0.0000000E+00;0;  0.0000000E+00;  0.0000000E+00;  0.0000000E+00;0;  1.9037635E-07;  4.0000000E+04;  0.0000000E+00;  0.0000000E+00;  4.0000000E+04;  0.0000000E+00;  4.0000000E+04; -6.2846269E-08;  0.0000000E+00;  2.5322262E-07;  5.3409948E+00;
 -9.9999998E-03;  9.9999998E-03; -4.4999999E-01;1727;  0.0000000E+00;  0.0000000E+00;  0.0000000E+00;  1.0000000E+03;  1.0000000E-01;  0.0000000E+00;0;  0.0000000E+00;  0.0000000E+00;  0.0000000E+00;0;  3.5954119E-07;  4.0000000E+04;  0.0000000E+00;  0.0000000E+00;  4.0000000E+04;  0.0000000E+00;  4.0000000E+04; -1.3138137E-07;  0.0000000E+00;  4.9092256E-07;  8.2144136E+00;
  0.0000000E+00;  9.9999998E-03; -4.4999999E-01;1818;  0.0000000E+00;  0.0000000E+00;  0.0000000E+00;  1.0000000E+03;  1.0000000E-01;  0.0000000E+00;0;  0.0000000E+00;  0.0000000E+00;  0.0000000E+00;0;  4.6587763E-07;  4.0000000E+04;  0.0000000E+00;  0.0000000E+00;  4.0000000E+04;  0.0000000E+00;  4.0000000E+04; -2.2926451E-07;  0.0000000E+00;  6.9514215E-07;  1.0854269E+01;
  9.9999998E-03;  9.9999998E-03; -4.4999999E-01;1850;  0.0000000E+00;  0.0000000E+00;  0.0000000E+00;  1.0000000E+03;  1.0000000E-01;  0.0000000E+00;0;  0.0000000E+00;  0.0000000E+00;  0.0000000E+00;0;  3.8085122E-07;  4.0000000E+04;  0.0000000E+00;  0.0000000E+00;  4.0000000E+04;  0.0000000E+00;  4.0000000E+04; -3.2934847E-07;  0.0000000E+00;  7.1019969E-07;  1.2526732E+01;
  2.0000000E-02;  9.9999998E-03; -4.4999999E-01;1880;  0.0000000E+00;  0.0000000E+00;  0.0000000E+00;  1.0000000E+03;  1.0000000E-01;  0.0000000E+00;0;  0.0000000E+00;  0.0000000E+00;  0.0000000E+00;0; -2.0962432E-09;  4.0000000E+04;  0.0000000E+00;  0.0000000E+00;  4.0000000E+04;  0.0000000E+00;  4.0000000E+04; -3.8456574E-07;  0.0000000E+00;  3.8246949E-07;  1.2624393E+01;
  2.9999999E-02;  9.9999998E-03; -4.4999999E-01;1910;  0.0000000E+00;  0.0000000E+00;  0.0000000E+00;  1.0000000E+03;  1.0000000E-01;  0.0000000E+00;0;  0.0000000E+00;  0.0000000E+00;  0.0000000E+00;0; -7.2654302E-07;  4.0000000E+04;  0.0000000E+00;  0.0000000E+00;  4.0000000E+04;  0.0000000E+00;  4.0000000E+04; -3.4490330E-07;  0.0000000E+00; -3.8163972E-07;  1.0860284E+01;
  3.9999999E-02;  9.9999998E-03; -4.4999999E-01;1940;  0.0000000E+00;  0.0000000E+00;  0.0000000E+00;  1.0000000E+03;  1.0000000E-01;  0.0000000E+00;0;  0.0000000E+00;  0.0000000E+00;  0.0000000E+00;0; -1.7336893E-06;  4.0000000E+04;  0.0000000E+00;  0.0000000E+00;  4.0000000E+04;  0.0000000E+00;  4.0000000E+04; -1.7189687E-07;  0.0000000E+00; -1.5617924E-06;  7.4094286E+00;
  5.0000001E-02;  9.9999998E-03; -4.4999999E-01;1970;  0.0000000E+00;  0.0000000E+00;  0.0000000E+00;  1.0000000E+03;  1.0000000E-01;  0.0000000E+00;0;  0.0000000E+00;  0.0000000E+00;  0.0000000E+00;0; -2.7957440E-06;  4.0000000E+04;  0.0000000E+00;  0.0000000E+00;  4.0000000E+04;  0.0000000E+00;  4.0000000E+04;  1.6705391E-07;  0.0000000E+00; -2.9627979E-06;  2.9959173E+00;
  5.9999999E-02;  9.9999998E-03; -4.4999999E-01;2000;  0.0000000E+00;  0.0000000E+00;  0.0000000E+00;  1.0000000E+03;  1.0000000E-01;  0.0000000E+00;0;  0.0000000E+00;  0.0000000E+00;  0.0000000E+00;0; -3.4804671E-06;  4.0000000E+04;  0.0000000E+00;  0.0000000E+00;  4.0000000E+04;  0.0000000E+00;  4.0000000E+04;  7.0998658E-07;  0.0000000E+00; -4.1904536E-06;  1.1477352E+00;
  7.0000000E-02;  9.9999998E-03; -4.4999999E-01;2030;  0.0000000E+00;  0.0000000E+00;  0.0000000E+00;  1.0000000E+03;  1.0000000E-01;  0.0000000E+00;0;  0.0000000E+00;  0.0000000E+00;  0.0000000E+00;0; -3.2829439E-06;  4.0000000E+04;  0.0000000E+00;  0.0000000E+00;  4.0000000E+04;  0.0000000E+00;  4.0000000E+04;  1.4727399E-06;  0.0000000E+00; -4.7556837E-06;  3.3891871E+00;
  7.9999998E-02;  9.9999998E-03; -4.4999999E-01;2060;  0.0000000E+00;  0.0000000E+00;  0.0000000E+00;  1.0000000E+03;  1.0000000E-01;  0.0000000E+00;0;  0.0000000E+00;  0.0000000E+00;  0.0000000E+00;0; -1.8266976E-06;  4.0000000E+04;  0.0000000E+00;  0.0000000E+00;  4.0000000E+04;  0.0000000E+00;  4.0000000E+04;  2.4067597E-06;  0.0000000E+00; -4.2334573E-06;  2.3627276E+00;
  9.0000004E-02;  9.9999998E-03; -4.4999999E-01;2090;  0.0000000E+00;  0.0000000E+00;  0.0000000E+00;  1.0000000E+03;  1.0000000E-01;  0.0000000E+00;0;  0.0000000E+00;  0.0000000E+00;  0.0000000E+00;0;  9.9215299E-07;  4.0000000E+04;  0.0000000E+00;  0.0000000E+00;  4.0000000E+04;  0.0000000E+00;  4.0000000E+04;  3.3977465E-06;  0.0000000E+00; -2.4055935E-06;  3.7860274E+00;
  1.0000000E-01;  9.9999998E-03; -4.4999999E-01;2120;  0.0000000E+00;  0.0000000E+00;  0.0000000E+00;  1.0000000E+03;  1.0000000E-01;  0.0000000E+00;0;  0.0000000E+00;  0.0000000E+00;  0.0000000E+00;0;  4.9527389E-06;  4.0000000E+04;  0.0000000E+00;  0.0000000E+00;  4.0000000E+04;  0.0000000E+00;  4.0000000E+04;  4.3068098E-06;  0.0000000E+00;  6.4592916E-07;  1.3748087E+01;
  1.1000000E-01;  9.9999998E-03; -4.4999999E-01;2150;  0.0000000E+00;  0.0000000E+00;  0.0000000E+00;  1.0000000E+03;  1.0000000E-01;  0.0000000E+00;0;  0.0000000E+00;  0.0000000E+00;  0.0000000E+00;0;  9.5745545E-06;  4.0000000E+04;  0.0000000E+00;  0.0000000E+00;  4.0000000E+04;  0.0000000E+00;  4.0000000E+04;  5.0137410E-06;  0.0000000E+00;  4.5608131E-06;  2.8158216E+01;
  1.2000000E-01;  9.9999998E-03; -4.4999999E-01;2180;  0.0000000E+00;  0.0000000E+00;  0.0000000E+00;  1.0000000E+03;  1.0000000E-01;  0.0000000E+00;0;  0.0000000E+00;  0.0000000E+00;  0.0000000E+00;0;  1.4165065E-05;  4.0000000E+04;  0.0000000E+00;  0.0000000E+00;  4.0000000E+04;  0.0000000E+00;  4.0000000E+04;  5.3777649E-06;  0.0000000E+00;  8.7873004E-06;  4.8712231E+01;
  1.3000000E-01;  9.9999998E-03; -4.4999999E-01;2210;  0.0000000E+00;  0.0000000E+00;  0.0000000E+00;  1.0000000E+03;  1.0000000E-01;  0.0000000E+00;0;  0.0000000E+00;  0.0000000E+00;  0.0000000E+00;0;  1.7737702E-05;  4.0000000E+04;  0.0000000E+00;  0.0000000E+00;  4.0000000E+04;  0.0000000E+00;  4.0000000E+04;  5.1720140E-06;  0.0000000E+00;  1.2565688E-05;  8.2680534E+01;
  1.4000000E-01;  9.9999998E-03; -4.4999999E-01;2240;  0.0000000E+00;  0.0000000E+00;  0.0000000E+00;  1.0000000E+03;  1.0000000E-01;  0.0000000E+00;0;  0.0000000E+00;  0.0000000E+00;  0.0000000E+00;0;  1.9356439E-05;  4.0000000E+04;  0.0000000E+00;  0.0000000E+00;  4.0000000E+04;  0.0000000E+00;  4.0000000E+04;  4.2608922E-06;  0.0000000E+00;  1.5095547E-05;  1.4526918E+02;
  1.5000001E-01;  9.9999998E-03; -4.4999999E-01;2270;  0.0000000E+00;  0.0000000E+00;  0.0000000E+00;  1.0000000E+03;  1.0000000E-01;  0.0000000E+00;0;  0.0000000E+00;  0.0000000E+00;  0.0000000E+00;0;  1.8703335E-05;  4.0000000E+04;  0.0000000E+00;  0.0000000E+00;  4.0000000E+04;  0.0000000E+00;  4.0000000E+04;  2.8341462E-06;  0.0000000E+00;  1.5869189E-05;  2.5948740E+02;
  1.6000000E-01;  9.9999998E-03; -4.4999999E-01;2300;  0.0000000E+00;  0.0000000E+00;  0.0000000E+00;  1.0000000E+03;  1.0000000E-01;  0.0000000E+00;0;  0.0000000E+00;  0.0000000E+00;  0.0000000E+00;0;  1.6127406E-05;  4.0000000E+04;  0.0000000E+00;  0.0000000E+00;  4.0000000E+04;  0.0000000E+00;  4.0000000E+04;  1.3762042E-06;  0.0000000E+00;  1.4751201E-05;  4.5593842E+02;
  1.7000000E-01;  9.9999998E-03; -4.4999999E-01;2330;  0.0000000E+00;  0.0000000E+00;  0.0000000E+00;  1.0000000E+03;  1.0000000E-01;  0.0000000E+00;0;  0.0000000E+00;  0.0000000E+00;  0.0000000E+00;0;  1.2382606E-05;  4.0000000E+04;  0.0000000E+00;  0.0000000E+00;  4.0000000E+04;  0.0000000E+00;  4.0000000E+04;  5.0482117E-07;  0.0000000E+00;  1.1877784E-05;  7.7203467E+02;
  1.8000001E-01;  9.9999998E-03; -4.4999999E-01;2360;  0.0000000E+00;  0.0000000E+00;  0.0000000E+00;  1.0000000E+03;  1.0000000E-01;  0.0000000E+00;0;  0.0000000E+00;  0.0000000E+00;  0.0000000E+00;0;  8.3019331E-06;  4.0000000E+04;  0.0000000E+00;  0.0000000E+00;  4.0000000E+04;  0.0000000E+00;  4.0000000E+04;  7.3423047E-07;  0.0000000E+00;  7.5677026E-06;  1.2452043E+03;
  1.9000000E-01;  9.9999998E-03; -4.4999999E-01;2390;  0.0000000E+00;  0.0000000E+00;  0.0000000E+00;  1.0000000E+03;  1.0000000E-01;  0.0000000E+00;0;  0.0000000E+00;  0.0000000E+00;  0.0000000E+00;0;  4.5684765E-06;  4.0000000E+04;  0.0000000E+00;  0.0000000E+00;  4.0000000E+04;  0.0000000E+00;  4.0000000E+04;  2.1701399E-06;  0.0000000E+00;  2.3983366E-06;  1.8977086E+03;
 -1.9000000E-01;  9.9999998E-03; -4.4000000E-01;90;  0.0000000E+00;  0.0000000E+00;  0.0000000E+00;  1.0000000E+03;  1.0000000E-01;  0.0000000E+00;0;  0.0000000E+00;  0.0000000E+00;  0.0000000E+00;0;  0.0000000E+00;  4.0000000E+04;  0.0000000E+00;  0.0000000E+00;  4.0000000E+04;  0.0000000E+00;  4.0000000E+04;  0.0000000E+00;  0.0000000E+00;  0.0000000E+00;  0.0000000E+00;
 -1.9000000E-01;  9.9999998E-03; -4.3000001E-01;91;  0.0000000E+00;  0.0000000E+00;  0.0000000E+00;  1.0000000E+03;  1.0000000E-01;  0.0000000E+00;0;  0.0000000E+00;  0.0000000E+00;  0.0000000E+00;0;  0.0000000E+00;  4.0000000E+04;  0.0000000E+00;  0.0000000E+00;  4.0000000E+04;  0.0000000E+00;  4.0000000E+04;  0.0000000E+00;  0.0000000E+00;  0.0000000E+00;  0.0000000E+00;
 -1.9000000E-01;  9.9999998E-03; -4.1999999E-01;92;  0.0000000E+00;  0.0000000E+00;  0.0000000E+00;  1.0000000E+03;  1.0000000E-01;  0.0000000E+00;0;  0.0000000E+00;  0.0000000E+00;  0.0000000E+00;0;  0.0000000E+00;  4.0000000E+04;  0.0000000E+00;  0.0000000E+00;  4.0000000E+04;  0.0000000E+00;  4.0000000E+04;  0.0000000E+00;  0.0000000E+00;  0.0000000E+00;  0.0000000E+00;
 -1.9000000E-01;  9.9999998E-03; -4.1000000E-01;93;  0.0000000E+00;  0.0000000E+00;  0.0000000E+00;  1.0000000E+03;  1.0000000E-01;  0.0000000E+00;0;  0.0000000E+00;  0.0000000E+00;  0.0000000E+00;0;  0.0000000E+00;  4.0000000E+04;  0.0000000E+00;  0.0000000E+00;  4.0000000E+04;  0.0000000E+00;  4.0000000E+04;  0.0000000E+00;  0.0000000E+00;  0.0000000E+00;  0.0000000E+00;
 -1.9000000E-01;  9.9999998E-03; -4.0000001E-01;94;  0.0000000E+00;  0.0000000E+00;  0.0000000E+00;  1.0000000E+03;  1.0000000E-01;  0.0000000E+00;0;  0.0000000E+00;  0.0000000E+00;  0.0000000E+00;0;  0.0000000E+00;  4.0000000E+04;  0.0000000E+00;  0.0000000E+00;  4.0000000E+04;  0.0000000E+00;  4.0000000E+04;  0.0000000E+00;  0.0000000E+00;  0.0000000E+00;  0.0000000E+00;
 -1.9000000E-01;  9.9999998E-03; -3.8999999E-01;95;  0.0000000E+00;  0.0000000E+00;  0.0000000E+00;  1.0000000E+03;  1.0000000E-01;  0.0000000E+00;0;  0.0000000E+00;  0.0000000E+00;  0.0000000E+00;0;  0.0000000E+00;  4.0000000E+04;  0.0000000E+00;  0.0000000E+00;  4.0000000E+04;  0.0000000E+00;  4.0000000E+04;  0.0000000E+00;  0.0000000E+00;  0.0000000E+00;  0.0000000E+00;
 -1.9000000E-01;  9.9999998E-03; -3.8000000E-01;96;  0.0000000E+00;  0.0000000E+00;  0.0000000E+00;  1.0000000E+03;  1.0000000E-01;  0.0000000E+00;0;  0.0000000E+00;  0.0000000E+00;  0.0000000E+00;0;  0.0000000E+00;  4.0000000E+04;  0.0000000E+00;  0.0000000E+00;  4.0000000E+04;  0.0000000E+00;  4.0000000E+04;  0.0000000E+00;  0.0000000E+00;  0.0000000E+00;  0.0000000E+00;
 -1.9000000E-01;  9.9999998E-03; -3.7000000E-01;97;  0.0000000E+00;  0.0000000E+00;  0.0000000E+00;  1.0000000E+03;  1.0000000E-01;  0.0000000E+00;0;  0.0000000E+00;  0.0000000E+00;  0.0000000E+00;0;  0.0000000E+00;  4.0000000E+04;  0.0000000E+00;  0.0000000E+00;  4.0000000E+04;  0.0000000E+00;  4.0000000E+04;  0.0000000E+00;  0.0000000E+00;  0.0000000E+00;  0.0000000E+00;
 -1.9000000E-01;  9.9999998E-03; -3.6000001E-01;98;  0.0000000E+00;  0.0000000E+00;  0.0000000E+00;  1.0000000E+03;  1.0000000E-01;  0.0000000E+00;0;  0.0000000E+00;  0.0000000E+00;  0.0000000E+00;0;  0.0000000E+00;  4.0000000E+04;  0.0000000E+00;  0.0000000E+00;  4.0000000E+04;  0.0000000E+00;  4.0000000E+04;  0.0000000E+00;  0.0000000E+00;  0.0000000E+00;  0.0000000E+00;
 -1.9000000E-01;  9.9999998E-03; -3.4999999E-01;99;  0.0000000E+00;  0.0000000E+00;  0.0000000E+00;  1.0000000E+03;  1.0000000E-01;  0.0000000E+00;0;  0.0000000E+00;  0.0000000E+00;  0.0000000E+00;0;  0.0000000E+00;  4.0000000E+04;  0.0000000E+00;  0.0000000E+00;  4.0000000E+04;  0.0000000E+00;  4.0000000E+04;  0.0000000E+00;  0.0000000E+00;  0.0000000E+00;  0.0000000E+00;
 -1.9000000E-01;  9.9999998E-03; -3.4000000E-01;100;  0.0000000E+00;  0.0000000E+00;  0.0000000E+00;  1.0000000E+03;  1.0000000E-01;  0.0000000E+00;0;  0.0000000E+00;  0.0000000E+00;  0.0000000E+00;0;  0.0000000E+00;  4.0000000E+04;  0.0000000E+00;  0.0000000E+00;  4.0000000E+04;  0.0000000E+00;  4.0000000E+04;  0.0000000E+00;  0.0000000E+00;  0.0000000E+00;  0.0000000E+00;
 -1.9000000E-01;  9.9999998E-03; -3.3000001E-01;101;  0.0000000E+00;  0.0000000E+00;  0.0000000E+00;  1.0000000E+03;  1.0000000E-01;  0.0000000E+00;0;  0.0000000E+00;  0.0000000E+00;  0.0000000E+00;0;  0.0000000E+00;  4.0000000E+04;  0.0000000E+00;  0.0000000E+00;  4.0000000E+04;  0.0000000E+00;  4.0000000E+04;  0.0000000E+00;  0.0000000E+00;  0.0000000E+00;  0.0000000E+00;
 -1.9000000E-01;  9.9999998E-03; -3.1999999E-01;102;  0.0000000E+00;  0.0000000E+00;  0.0000000E+00;  1.0000000E+03;  1.0000000E-01;  0.0000000E+00;0;  0.0000000E+00;  0.0000000E+00;  0.0000000E+00;0;  0.0000000E+00;  4.0000000E+04;  0.0000000E+00;  0.0000000E+00;  4.0000000E+04;  0.0000000E+00;  4.0000000E+04;  0.0000000E+00;  0.0000000E+00;  0.0000000E+00;  0.0000000E+00;
 -1.9000000E-01;  9.9999998E-03; -3.1000000E-01;103;  0.0000000E+00;  0.0000000E+00;  0.0000000E+00;  1.0000000E+03;  1.0000000E-01;  0.0000000E+00;0;  0.0000000E+00;  0.0000000E+00;  0.0000000E+00;0;  0.0000000E+00;  4.0000000E+04;  0.0000000E+00;  0.0000000E+00;  4.0000000E+04;  0.0000000E+00;  4.0000000E+04;  0.0000000E+00;  0.0000000E+00;  0.0000000E+00;  0.0000000E+00;
 -1.9000000E-01;  9.9999998E-03; -3.0000001E-01;104;  0.0000000E+00;  0.0000000E+00;  0.0000000E+00;  1.0000000E+03;  1.0000000E-01;  0.0000000E+00;0;  0.0000000E+00;  0.0000000E+00;  0.0000000E+00;0;  0.0000000E+00;  4.0000000E+04;  0.0000000E+00;  0.0000000E+00;  4.0000000E+04;  0.0000000E+00;  4.0000000E+04;  0.0000000E+00;  0.0000000E+00;  0.0000000E+00;  0.0000000E+00;
 -1.9000000E-01;  9.9999998E-03; -2.8999999E-01;105;  0.0000000E+00;  0.0000000E+00;  0.0000000E+00;  1.0000000E+03;  1.0000000E-01;  0.0000000E+00;0;  0.0000000E+00;  0.0000000E+00;  0.0000000E+00;0;  0.0000000E+00;  4.0000000E+04;  0.0000000E+00;  0.0000000E+00;  4.0000000E+04;  0.0000000E+00;  4.0000000E+04;  0.0000000E+00;  0.0000000E+00;  0.0000000E+00;  0.0000000E+00;
 -1.9000000E-01;  9.9999998E-03; -2.8000000E-01;106;  0.0000000E+00;  0.0000000E+00;  0.0000000E+00;  1.0000000E+03;  1.0000000E-01;  0.0000000E+00;0;  0.0000000E+00;  0.0000000E+00;  0.0000000E+00;0;  0.0000000E+00;  4.0000000E+04;  0.0000000E+00;  0.0000000E+00;  4.0000000E+04;  0.0000000E+00;  4.0000000E+04;  0.0000000E+00;  0.0000000E+00;  0.0000000E+00;  0.0000000E+00;
 -1.8000001E-01;  9.9999998E-03; -4.4000000E-01;181;  0.0000000E+00;  0.0000000E+00;  0.0000000E+00;  1.0000000E+03;  1.0000000E-01;  0.0000000E+00;0;  0.0000000E+00;  0.0000000E+00;  0.0000000E+00;0;  0.0000000E+00;  4.0000000E+04;  0.0000000E+00;  0.0000000E+00;  4.0000000E+04;  0.0000000E+00;  4.0000000E+04;  0.0000000E+00;  0.0000000E+00;  0.0000000E+00;  0.0000000E+00;
 -1.8000001E-01;  9.9999998E-03; -4.3000001E-01;182;  0.0000000E+00;  0.0000000E+00;  0.0000000E+00;  1.0000000E+03;  1.0000000E-01;  0.0000000E+00;0;  0.0000000E+00;  0.0000000E+00;  0.0000000E+00;0;  0.0000000E+00;  4.0000000E+04;  0.0000000E+00;  0.0000000E+00;  4.0000000E+04;  0.0000000E+00;  4.0000000E+04;  0.0000000E+00;  0.0000000E+00;  0.0000000E+00;  0.0000000E+00;
 -1.8000001E-01;  9.9999998E-03; -4.1999999E-01;183;  0.0000000E+00;  0.0000000E+00;  0.0000000E+00;  1.0000000E+03;  1.0000000E-01;  0.0000000E+00;0;  0.0000000E+00;  0.0000000E+00;  0.0000000E+00;0;  0.0000000E+00;  4.0000000E+04;  0.0000000E+00;  0.0000000E+00;  4.0000000E+04;  0.0000000E+00;  4.0000000E+04;  0.0000000E+00;  0.0000000E+00;  0.0000000E+00;  0.0000000E+00;
 -1.8000001E-01;  9.9999998E-03; -4.1000000E-01;184;  0.0000000E+00;  0.0000000E+00;  0.0000000E+00;  1.0000000E+03;  1.0000000E-01;  0.0000000E+00;0;  0.0000000E+00;  0.0000000E+00;  0.0000000E+00;0;  0.0000000E+00;  4.0000000E+04;  0.0000000E+00;  0.0000000E+00;  4.0000000E+04;  0.0000000E+00;  4.0000000E+04;  0.0000000E+00;  0.0000000E+00;  0.0000000E+00;  0.0000000E+00;
 -1.8000001E-01;  9.9999998E-03; -4.0000001E-01;185;  0.0000000E+00;  0.0000000E+00;  0.0000000E+00;  1.0000000E+03;  1.0000000E-01;  0.0000000E+00;0;  0.0000000E+00;  0.0000000E+00;  0.0000000E+00;0;  0.0000000E+00;  4.0000000E+04;  0.0000000E+00;  0.0000000E+00;  4.0000000E+04;  0.0000000E+00;  4.0000000E+04;  0.0000000E+00;  0.0000000E+00;  0.0000000E+00;  0.0000000E+00;
 -1.8000001E-01;  9.9999998E-03; -3.8999999E-01;186;  0.0000000E+00;  0.0000000E+00;  0.0000000E+00;  1.0000000E+03;  1.0000000E-01;  0.0000000E+00;0;  0.0000000E+00;  0.0000000E+00;  0.0000000E+00;0;  0.0000000E+00;  4.0000000E+04;  0.0000000E+00;  0.0000000E+00;  4.0000000E+04;  0.0000000E+00;  4.0000000E+04;  0.0000000E+00;  0.0000000E+00;  0.0000000E+00;  0.0000000E+00;
 -1.8000001E-01;  9.9999998E-03; -3.8000000E-01;187;  0.0000000E+00;  0.0000000E+00;  0.0000000E+00;  1.0000000E+03;  1.0000000E-01;  0.0000000E+00;0;  0.0000000E+00;  0.0000000E+00;  0.0000000E+00;0;  0.0000000E+00;  4.0000000E+04;  0.0000000E+00;  0.0000000E+00;  4.0000000E+04;  0.0000000E+00;  4.0000000E+04;  0.0000000E+00;  0.0000000E+00;  0.0000000E+00;  0.0000000E+00;
 -1.8000001E-01;  9.9999998E-03; -3.7000000E-01;188;  0.0000000E+00;  0.0000000E+00;  0.0000000E+00;  1.0000000E+03;  1.0000000E-01;  0.0000000E+00;0;  0.0000000E+00;  0.0000000E+00;  0.0000000E+00;0;  0.0000000E+00;  4.0000000E+04;  0.0000000E+00;  0.0000000E+00;  4.0000000E+04;  0.0000000E+00;  4.0000000E+04;  0.0000000E+00;  0.0000000E+00;  0.0000000E+00;  0.0000000E+00;
 -1.8000001E-01;  9.9999998E-03; -3.6000001E-01;189;  0.0000000E+00;  0.0000000E+00;  0.0000000E+00;  1.0000000E+03;  1.0000000E-01;  0.0000000E+00;0;  0.0000000E+00;  0.0000000E+00;  0.0000000E+00;0;  0.0000000E+00;  4.0000000E+04;  0.0000000E+00;  0.0000000E+00;  4.0000000E+04;  0.0000000E+00;  4.0000000E+04;  0.0000000E+00;  0.0000000E+00;  0.0000000E+00;  0.0000000E+00;
 -1.8000001E-01;  9.9999998E-03; -3.4999999E-01;190;  0.0000000E+00;  0.0000000E+00;  0.0000000E+00;  1.0000000E+03;  1.0000000E-01;  0.0000000E+00;0;  0.0000000E+00;  0.0000000E+00;  0.0000000E+00;0;  0.0000000E+00;  4.0000000E+04;  0.0000000E+00;  0.0000000E+00;  4.0000000E+04;  0.0000000E+00;  4.0000000E+04;  0.0000000E+00;  0.0000000E+00;  0.0000000E+00;  0.0000000E+00;
 -1.8000001E-01;  9.9999998E-03; -3.4000000E-01;191;  0.0000000E+00;  0.0000000E+00;  0.0000000E+00;  1.0000000E+03;  1.0000000E-01;  0.0000000E+00;0;  0.0000000E+00;  0.0000000E+00;  0.0000000E+00;0;  0.0000000E+00;  4.0000000E+04;  0.0000000E+00;  0.0000000E+00;  4.0000000E+04;  0.0000000E+00;  4.0000000E+04;  0.0000000E+00;  0.0000000E+00;  0.0000000E+00;  0.0000000E+00;
 -1.8000001E-01;  9.9999998E-03; -3.3000001E-01;192;  0.0000000E+00;  0.0000000E+00;  0.0000000E+00;  1.0000000E+03;  1.0000000E-01;  0.0000000E+00;0;  0.0000000E+00;  0.0000000E+00;  0.0000000E+00;0;  0.0000000E+00;  4.0000000E+04;  0.0000000E+00;  0.0000000E+00;  4.0000000E+04;  0.0000000E+00;  4.0000000E+04;  0.0000000E+00;  0.0000000E+00;  0.0000000E+00;  0.0000000E+00;
 -1.8000001E-01;  9.9999998E-03; -3.1999999E-01;193;  0.0000000E+00;  0.0000000E+00;  0.0000000E+00;  1.0000000E+03;  1.0000000E-01;  0.0000000E+00;0;  0.0000000E+00;  0.0000000E+00;  0.0000000E+00;0;  0.0000000E+00;  4.0000000E+04;  0.0000000E+00;  0.0000000E+00;  4.0000000E+04;  0.0000000E+00;  4.0000000E+04;  0.0000000E+00;  0.0000000E+00;  0.0000000E+00;  0.0000000E+00;
 -1.8000001E-01;  9.9999998E-03; -3.1000000E-01;194;  0.0000000E+00;  0.0000000E+00;  0.0000000E+00;  1.0000000E+03;  1.0000000E-01;  0.0000000E+00;0;  0.0000000E+00;  0.0000000E+00;  0.0000000E+00;0;  0.0000000E+00;  4.0000000E+04;  0.0000000E+00;  0.0000000E+00;  4.0000000E+04;  0.0000000E+00;  4.0000000E+04;  0.0000000E+00;  0.0000000E+00;  0.0000000E+00;  0.0000000E+00;
 -1.8000001E-01;  9.9999998E-03; -3.0000001E-01;195;  0.0000000E+00;  0.0000000E+00;  0.0000000E+00;  1.0000000E+03;  1.0000000E-01;  0.0000000E+00;0;  0.0000000E+00;  0.0000000E+00;  0.0000000E+00;0;  0.0000000E+00;  4.0000000E+04;  0.0000000E+00;  0.0000000E+00;  4.0000000E+04;  0.0000000E+00;  4.0000000E+04;  0.0000000E+00;  0.0000000E+00;  0.0000000E+00;  0.0000000E+00;
 -1.8000001E-01;  9.9999998E-03; -2.8999999E-01;196;  0.0000000E+00;  0.0000000E+00;  0.0000000E+00;  1.0000000E+03;  1.0000000E-01;  0.0000000E+00;0;  0.0000000E+00;  0.0000000E+00;  0.0000000E+00;0;  0.0000000E+00;  4.0000000E+04;  0.0000000E+00;  0.0000000E+00;  4.0000000E+04;  0.0000000E+00;  4.0000000E+04;  0.0000000E+00;  0.0000000E+00;  0.0000000E+00;  0.0000000E+00;
 -1.8000001E-01;  9.9999998E-03; -2.8000000E-01;197;  0.0000000E+00;  0.0000000E+00;  0.0000000E+00;  1.0000000E+03;  1.0000000E-01;  0.0000000E+00;0;  0.0000000E+00;  0.0000000E+00;  0.0000000E+00;0;  0.0000000E+00;  4.0000000E+04;  0.0000000E+00;  0.0000000E+00;  4.0000000E+04;  0.0000000E+00;  4.0000000E+04;  0.0000000E+00;  0.0000000E+00;  0.0000000E+00;  0.0000000E+00;
 -1.7000000E-01;  9.9999998E-03; -4.4000000E-01;272;  0.0000000E+00;  0.0000000E+00;  0.0000000E+00;  1.0000000E+03;  1.0000000E-01;  0.0000000E+00;0;  0.0000000E+00;  0.0000000E+00;  0.0000000E+00;0;  0.0000000E+00;  4.0000000E+04;  0.0000000E+00;  0.0000000E+00;  4.0000000E+04;  0.0000000E+00;  4.0000000E+04;  0.0000000E+00;  0.0000000E+00;  0.0000000E+00;  0.0000000E+00;
 -1.7000000E-01;  9.9999998E-03; -4.3000001E-01;273;  0.0000000E+00;  0.0000000E+00;  0.0000000E+00;  1.0000000E+03;  1.0000000E-01;  0.0000000E+00;0;  0.0000000E+00;  0.0000000E+00;  0.0000000E+00;0;  0.0000000E+00;  4.0000000E+04;  0.0000000E+00;  0.0000000E+00;  4.0000000E+04;  0.0000000E+00;  4.0000000E+04;  0.0000000E+00;  0.0000000E+00;  0.0000000E+00;  0.0000000E+00;
 -1.7000000E-01;  9.9999998E-03; -4.1999999E-01;274;  0.0000000E+00;  0.0000000E+00;  0.0000000E+00;  1.0000000E+03;  1.0000000E-01;  0.0000000E+00;0;  0.0000000E+00;  0.0000000E+00;  0.0000000E+00;0;  0.0000000E+00;  4.0000000E+04;  0.0000000E+00;  0.0000000E+00;  4.0000000E+04;  0.0000000E+00;  4.0000000E+04;  0.0000000E+00;  0.0000000E+00;  0.0000000E+00;  0.0000000E+00;
 -1.7000000E-01;  9.9999998E-03; -4.1000000E-01;275;  0.0000000E+00;  0.0000000E+00;  0.0000000E+00;  1.0000000E+03;  1.0000000E-01;  0.0000000E+00;0;  0.0000000E+00;  0.0000000E+00;  0.0000000E+00;0;  0.0000000E+00;  4.0000000E+04;  0.0000000E+00;  0.0000000E+00;  4.0000000E+04;  0.0000000E+00;  4.0000000E+04;  0.0000000E+00;  0.0000000E+00;  0.0000000E+00;  0.0000000E+00;
 -1.7000000E-01;  9.9999998E-03; -4.0000001E-01;276;  0.0000000E+00;  0.0000000E+00;  0.0000000E+00;  1.0000000E+03;  1.0000000E-01;  0.0000000E+00;0;  0.0000000E+00;  0.0000000E+00;  0.0000000E+00;0;  0.0000000E+00;  4.0000000E+04;  0.0000000E+00;  0.0000000E+00;  4.0000000E+04;  0.0000000E+00;  4.0000000E+04;  0.0000000E+00;  0.0000000E+00;  0.0000000E+00;  0.0000000E+00;
 -1.7000000E-01;  9.9999998E-03; -3.8999999E-01;277;  0.0000000E+00;  0.0000000E+00;  0.0000000E+00;  1.0000000E+03;  1.0000000E-01;  0.0000000E+00;0;  0.0000000E+00;  0.0000000E+00;  0.0000000E+00;0;  0.0000000E+00;  4.0000000E+04;  0.0000000E+00;  0.0000000E+00;  4.0000000E+04;  0.0000000E+00;  4.0000000E+04;  0.0000000E+00;  0.0000000E+00;  0.0000000E+00;  0.0000000E+00;
 -1.7000000E-01;  9.9999998E-03; -3.8000000E-01;278;  0.0000000E+00;  0.0000000E+00;  0.0000000E+00;  1.0000000E+03;  1.0000000E-01;  0.0000000E+00;0;  0.0000000E+00;  0.0000000E+00;  0.0000000E+00;0;  0.0000000E+00;  4.0000000E+04;  0.0000000E+00;  0.0000000E+00;  4.0000000E+04;  0.0000000E+00;  4.0000000E+04;  0.0000000E+00;  0.0000000E+00;  0.0000000E+00;  0.0000000E+00;
 -1.7000000E-01;  9.9999998E-03; -3.7000000E-01;279;  0.0000000E+00;  0.0000000E+00;  0.0000000E+00;  1.0000000E+03;  1.0000000E-01;  0.0000000E+00;0;  0.0000000E+00;  0.0000000E+00;  0.0000000E+00;0;  0.0000000E+00;  4.0000000E+04;  0.0000000E+00;  0.0000000E+00;  4.0000000E+04;  0.0000000E+00;  4.0000000E+04;  0.0000000E+00;  0.0000000E+00;  0.0000000E+00;  0.0000000E+00;
 -1.7000000E-01;  9.9999998E-03; -3.6000001E-01;280;  0.0000000E+00;  0.0000000E+00;  0.0000000E+00;  1.0000000E+03;  1.0000000E-01;  0.0000000E+00;0;  0.0000000E+00;  0.0000000E+00;  0.0000000E+00;0;  0.0000000E+00;  4.0000000E+04;  0.0000000E+00;  0.0000000E+00;  4.0000000E+04;  0.0000000E+00;  4.0000000E+04;  0.0000000E+00;  0.0000000E+00;  0.0000000E+00;  0.0000000E+00;
 -1.7000000E-01;  9.9999998E-03; -3.4999999E-01;281;  0.0000000E+00;  0.0000000E+00;  0.0000000E+00;  1.0000000E+03;  1.0000000E-01;  0.0000000E+00;0;  0.0000000E+00;  0.0000000E+00;  0.0000000E+00;0;  0.0000000E+00;  4.0000000E+04;  0.0000000E+00;  0.0000000E+00;  4.0000000E+04;  0.0000000E+00;  4.0000000E+04;  0.0000000E+00;  0.0000000E+00;  0.0000000E+00;  0.0000000E+00;
 -1.7000000E-01;  9.9999998E-03; -3.4000000E-01;282;  0.0000000E+00;  0.0000000E+00;  0.0000000E+00;  1.0000000E+03;  1.0000000E-01;  0.0000000E+00;0;  0.0000000E+00;  0.0000000E+00;  0.0000000E+00;0;  0.0000000E+00;  4.0000000E+04;  0.0000000E+00;  0.0000000E+00;  4.0000000E+04;  0.0000000E+00;  4.0000000E+04;  0.0000000E+00;  0.0000000E+00;  0.0000000E+00;  0.0000000E+00;
 -1.7000000E-01;  9.9999998E-03; -3.3000001E-01;283;  0.0000000E+00;  0.0000000E+00;  0.0000000E+00;  1.0000000E+03;  1.0000000E-01;  0.0000000E+00;0;  0.0000000E+00;  0.0000000E+00;  0.0000000E+00;0;  0.0000000E+00;  4.0000000E+04;  0.0000000E+00;  0.0000000E+00;  4.0000000E+04;  0.0000000E+00;  4.0000000E+04;  0.0000000E+00;  0.0000000E+00;  0.0000000E+00;  0.0000000E+00;
 -1.7000000E-01;  9.9999998E-03; -3.1999999E-01;284;  0.0000000E+00;  0.0000000E+00;  0.0000000E+00;  1.0000000E+03;  1.0000000E-01;  0.0000000E+00;0;  0.0000000E+00;  0.0000000E+00;  0.0000000E+00;0;  0.0000000E+00;  4.0000000E+04;  0.0000000E+00;  0.0000000E+00;  4.0000000E+04;  0.0000000E+00;  4.0000000E+04;  0.0000000E+00;  0.0000000E+00;  0.0000000E+00;  0.0000000E+00;
 -1.7000000E-01;  9.9999998E-03; -3.1000000E-01;285;  0.0000000E+00;  0.0000000E+00;  0.0000000E+00;  1.0000000E+03;  1.0000000E-01;  0.0000000E+00;0;  0.0000000E+00;  0.0000000E+00;  0.0000000E+00;0;  0.0000000E+00;  4.0000000E+04;  0.0000000E+00;  0.0000000E+00;  4.0000000E+04;  0.0000000E+00;  4.0000000E+04;  0.0000000E+00;  0.0000000E+00;  0.0000000E+00;  0.0000000E+00;
 -1.7000000E-01;  9.9999998E-03; -3.0000001E-01;286;  0.0000000E+00;  0.0000000E+00;  0.0000000E+00;  1.0000000E+03;  1.0000000E-01;  0.0000000E+00;0;  0.0000000E+00;  0.0000000E+00;  0.0000000E+00;0;  0.0000000E+00;  4.0000000E+04;  0.0000000E+00;  0.0000000E+00;  4.0000000E+04;  0.0000000E+00;  4.0000000E+04;  0.0000000E+00;  0.0000000E+00;  0.0000000E+00;  0.0000000E+00;
 -1.7000000E-01;  9.9999998E-03; -2.8999999E-01;287;  0.0000000E+00;  0.0000000E+00;  0.0000000E+00;  1.0000000E+03;  1.0000000E-01;  0.0000000E+00;0;  0.0000000E+00;  0.0000000E+00;  0.0000000E+00;0;  0.0000000E+00;  4.0000000E+04;  0.0000000E+00;  0.0000000E+00;  4.0000000E+04;  0.0000000E+00;  4.0000000E+04;  0.0000000E+00;  0.0000000E+00;  0.0000000E+00;  6.8926012E-14;
 -1.7000000E-01;  9.9999998E-03; -2.8000000E-01;288;  0.0000000E+00;  0.0000000E+00;  0.0000000E+00;  1.0000000E+03;  1.0000000E-01;  0.0000000E+00;0;  0.0000000E+00;  0.0000000E+00;  0.0000000E+00;0;  0.0000000E+00;  4.0000000E+04;  0.0000000E+00;  0.0000000E+00;  4.0000000E+04;  0.0000000E+00;  4.0000000E+04;  0.0000000E+00;  0.0000000E+00;  0.0000000E+00;  1.4968563E-11;
 -1.6000000E-01;  9.9999998E-03; -4.4000000E-01;363;  0.0000000E+00;  0.0000000E+00;  0.0000000E+00;  1.0000000E+03;  1.0000000E-01;  0.0000000E+00;0;  0.0000000E+00;  0.0000000E+00;  0.0000000E+00;0;  0.0000000E+00;  4.0000000E+04;  0.0000000E+00;  0.0000000E+00;  4.0000000E+04;  0.0000000E+00;  4.0000000E+04;  0.0000000E+00;  0.0000000E+00;  0.0000000E+00;  0.0000000E+00;
 -1.6000000E-01;  9.9999998E-03; -4.3000001E-01;364;  0.0000000E+00;  0.0000000E+00;  0.0000000E+00;  1.0000000E+03;  1.0000000E-01;  0.0000000E+00;0;  0.0000000E+00;  0.0000000E+00;  0.0000000E+00;0;  0.0000000E+00;  4.0000000E+04;  0.0000000E+00;  0.0000000E+00;  4.0000000E+04;  0.0000000E+00;  4.0000000E+04;  0.0000000E+00;  0.0000000E+00;  0.0000000E+00;  0.0000000E+00;
 -1.6000000E-01;  9.9999998E-03; -4.1999999E-01;365;  0.0000000E+00;  0.0000000E+00;  0.0000000E+00;  1.0000000E+03;  1.0000000E-01;  0.0000000E+00;0;  0.0000000E+00;  0.0000000E+00;  0.0000000E+00;0;  0.0000000E+00;  4.0000000E+04;  0.0000000E+00;  0.0000000E+00;  4.0000000E+04;  0.0000000E+00;  4.0000000E+04;  0.0000000E+00;  0.0000000E+00;  0.0000000E+00;  0.0000000E+00;
 -1.6000000E-01;  9.9999998E-03; -4.1000000E-01;366;  0.0000000E+00;  0.0000000E+00;  0.0000000E+00;  1.0000000E+03;  1.0000000E-01;  0.0000000E+00;0;  0.0000000E+00;  0.0000000E+00;  0.0000000E+00;0;  0.0000000E+00;  4.0000000E+04;  0.0000000E+00;  0.0000000E+00;  4.0000000E+04;  0.0000000E+00;  4.0000000E+04;  0.0000000E+00;  0.0000000E+00;  0.0000000E+00;  0.0000000E+00;
 -1.6000000E-01;  9.9999998E-03; -4.0000001E-01;367;  0.0000000E+00;  0.0000000E+00;  0.0000000E+00;  1.0000000E+03;  1.0000000E-01;  0.0000000E+00;0;  0.0000000E+00;  0.0000000E+00;  0.0000000E+00;0;  0.0000000E+00;  4.0000000E+04;  0.0000000E+00;  0.0000000E+00;  4.0000000E+04;  0.0000000E+00;  4.0000000E+04;  0.0000000E+00;  0.0000000E+00;  0.0000000E+00;  0.0000000E+00;
 -1.6000000E-01;  9.9999998E-03; -3.8999999E-01;368;  0.0000000E+00;  0.0000000E+00;  0.0000000E+00;  1.0000000E+03;  1.0000000E-01;  0.0000000E+00;0;  0.0000000E+00;  0.0000000E+00;  0.0000000E+00;0;  0.0000000E+00;  4.0000000E+04;  0.0000000E+00;  0.0000000E+00;  4.0000000E+04;  0.0000000E+00;  4.0000000E+04;  0.0000000E+00;  0.0000000E+00;  0.0000000E+00;  0.0000000E+00;
 -1.6000000E-01;  9.9999998E-03; -3.8000000E-01;369;  0.0000000E+00;  0.0000000E+00;  0.0000000E+00;  1.0000000E+03;  1.0000000E-01;  0.0000000E+00;0;  0.0000000E+00;  0.0000000E+00;  0.0000000E+00;0;  0.0000000E+00;  4.0000000E+04;  0.0000000E+00;  0.0000000E+00;  4.0000000E+04;  0.0000000E+00;  4.0000000E+04;  0.0000000E+00;  0.0000000E+00;  0.0000000E+00;  0.0000000E+00;
 -1.6000000E-01;  9.9999998E-03; -3.7000000E-01;370;  0.0000000E+00;  0.0000000E+00;  0.0000000E+00;  1.0000000E+03;  1.0000000E-01;  0.0000000E+00;0;  0.0000000E+00;  0.0000000E+00;  0.0000000E+00;0;  0.0000000E+00;  4.0000000E+04;  0.0000000E+00;  0.0000000E+00;  4.0000000E+04;  0.0000000E+00;  4.0000000E+04;  0.0000000E+00;  0.0000000E+00;  0.0000000E+00;  0.0000000E+00;
 -1.6000000E-01;  9.9999998E-03; -3.6000001E-01;371;  0.0000000E+00;  0.0000000E+00;  0.0000000E+00;  1.0000000E+03;  1.0000000E-01;  0.0000000E+00;0;  0.0000000E+00;  0.0000000E+00;  0.0000000E+00;0;  0.0000000E+00;  4.0000000E+04;  0.0000000E+00;  0.0000000E+00;  4.0000000E+04;  0.0000000E+00;  4.0000000E+04;  0.0000000E+00;  0.0000000E+00;  0.0000000E+00;  0.0000000E+00;
 -1.6000000E-01;  9.9999998E-03; -3.4999999E-01;372;  0.0000000E+00;  0.0000000E+00;  0.0000000E+00;  1.0000000E+03;  1.0000000E-01;  0.0000000E+00;0;  0.0000000E+00;  0.0000000E+00;  0.0000000E+00;0;  0.0000000E+00;  4.0000000E+04;  0.0000000E+00;  0.0000000E+00;  4.0000000E+04;  0.0000000E+00;  4.0000000E+04;  0.0000000E+00;  0.0000000E+00;  0.0000000E+00;  0.0000000E+00;
 -1.6000000E-01;  9.9999998E-03; -3.4000000E-01;373;  0.0000000E+00;  0.0000000E+00;  0.0000000E+00;  1.0000000E+03;  1.0000000E-01;  0.0000000E+00;0;  0.0000000E+00;  0.0000000E+00;  0.0000000E+00;0;  2.3434248E-09;  4.0000000E+04;  0.0000000E+00;  0.0000000E+00;  4.0000000E+04;  0.0000000E+00;  4.0000000E+04;  2.2469722E-09;  0.0000000E+00;  9.6452582E-11;  1.0723483E-03;
 -1.6000000E-01;  9.9999998E-03; -3.3000001E-01;374;  0.0000000E+00;  0.0000000E+00;  0.0000000E+00;  1.0000000E+03;  1.0000000E-01;  0.0000000E+00;0;  0.0000000E+00;  0.0000000E+00;  0.0000000E+00;0;  3.7858420E-08;  4.0000000E+04;  0.0000000E+00;  0.0000000E+00;  4.0000000E+04;  0.0000000E+00;  4.0000000E+04;  3.6515445E-08;  0.0000000E+00;  1.3429765E-09;  8.6733429E-03;
 -1.6000000E-01;  9.9999998E-03; -3.1999999E-01;375;  0.0000000E+00;  0.0000000E+00;  0.0000000E+00;  1.0000000E+03;  1.0000000E-01;  0.0000000E+00;0;  0.0000000E+00;  0.0000000E+00;  0.0000000E+00;0;  1.7473948E-07;  4.0000000E+04;  0.0000000E+00;  0.0000000E+00;  4.0000000E+04;  0.0000000E+00;  4.0000000E+04;  1.6821986E-07;  0.0000000E+00;  6.5196293E-09;  2.6280209E-02;
 -1.6000000E-01;  9.9999998E-03; -3.1000000E-01;376;  0.0000000E+00;  0.0000000E+00;  0.0000000E+00;  1.0000000E+03;  1.0000000E-01;  0.0000000E+00;0;  0.0000000E+00;  0.0000000E+00;  0.0000000E+00;0;  4.8096467E-07;  4.0000000E+04;  0.0000000E+00;  0.0000000E+00;  4.0000000E+04;  0.0000000E+00;  4.0000000E+04;  4.6508313E-07;  0.0000000E+00;  1.5881513E-08;  4.8917256E-02;
 -1.6000000E-01;  9.9999998E-03; -3.0000001E-01;377;  0.0000000E+00;  0.0000000E+00;  0.0000000E+00;  1.0000000E+03;  1.0000000E-01;  0.0000000E+00;0;  0.0000000E+00;  0.0000000E+00;  0.0000000E+00;0;  9.7537463E-07;  4.0000000E+04;  0.0000000E+00;  0.0000000E+00;  4.0000000E+04;  0.0000000E+00;  4.0000000E+04;  9.5066486E-07;  0.0000000E+00;  2.4709758E-08;  6.3272215E-02;
 -1.6000000E-01;  9.9999998E-03; -2.8999999E-01;378;  0.0000000E+00;  0.0000000E+00;  0.0000000E+00;  1.0000000E+03;  1.0000000E-01;  0.0000000E+00;0;  0.0000000E+00;  0.0000000E+00;  0.0000000E+00;0;  1.6062777E-06;  4.0000000E+04;  0.0000000E+00;  0.0000000E+00;  4.0000000E+04;  0.0000000E+00;  4.0000000E+04;  1.5797568E-06;  0.0000000E+00;  2.6520837E-08;  5.4929905E-02;
 -1.6000000E-01;  9.9999998E-03; -2.8000000E-01;379;  0.0000000E+00;  0.0000000E+00;  0.0000000E+00;  1.0000000E+03;  1.0000000E-01;  0.0000000E+00;0;  0.0000000E+00;  0.0000000E+00;  0.0000000E+00;0;  2.2632298E-06;  4.0000000E+04;  0.0000000E+00;  0.0000000E+00;  4.0000000E+04;  0.0000000E+00;  4.0000000E+04;  2.2451447E-06;  0.0000000E+00;  1.8085014E-08;  1.7793562E-02;
 -1.5000001E-01;  9.9999998E-03; -4.4000000E-01;454;  0.0000000E+00;  0.0000000E+00;  0.0000000E+00;  1.0000000E+03;  1.0000000E-01;  0.0000000E+00;0;  0.0000000E+00;  0.0000000E+00;  0.0000000E+00;0;  0.0000000E+00;  4.0000000E+04;  0.0000000E+00;  0.0000000E+00;  4.0000000E+04;  0.0000000E+00;  4.0000000E+04;  0.0000000E+00;  0.0000000E+00;  0.0000000E+00;  0.0000000E+00;
 -1.5000001E-01;  9.9999998E-03; -4.3000001E-01;455;  0.0000000E+00;  0.0000000E+00;  0.0000000E+00;  1.0000000E+03;  1.0000000E-01;  0.0000000E+00;0;  0.0000000E+00;  0.0000000E+00;  0.0000000E+00;0;  0.0000000E+00;  4.0000000E+04;  0.0000000E+00;  0.0000000E+00;  4.0000000E+04;  0.0000000E+00;  4.0000000E+04;  0.0000000E+00;  0.0000000E+00;  0.0000000E+00;  0.0000000E+00;
 -1.5000001E-01;  9.9999998E-03; -4.1999999E-01;456;  0.0000000E+00;  0.0000000E+00;  0.0000000E+00;  1.0000000E+03;  1.0000000E-01;  0.0000000E+00;0;  0.0000000E+00;  0.0000000E+00;  0.0000000E+00;0;  0.0000000E+00;  4.0000000E+04;  0.0000000E+00;  0.0000000E+00;  4.0000000E+04;  0.0000000E+00;  4.0000000E+04;  0.0000000E+00;  0.0000000E+00;  0.0000000E+00;  0.0000000E+00;
 -1.5000001E-01;  9.9999998E-03; -4.1000000E-01;457;  0.0000000E+00;  0.0000000E+00;  0.0000000E+00;  1.0000000E+03;  1.0000000E-01;  0.0000000E+00;0;  0.0000000E+00;  0.0000000E+00;  0.0000000E+00;0;  0.0000000E+00;  4.0000000E+04;  0.0000000E+00;  0.0000000E+00;  4.0000000E+04;  0.0000000E+00;  4.0000000E+04;  0.0000000E+00;  0.0000000E+00;  0.0000000E+00;  0.0000000E+00;
 -1.5000001E-01;  9.9999998E-03; -4.0000001E-01;458;  0.0000000E+00;  0.0000000E+00;  0.0000000E+00;  1.0000000E+03;  1.0000000E-01;  0.0000000E+00;0;  0.0000000E+00;  0.0000000E+00;  0.0000000E+00;0;  0.0000000E+00;  4.0000000E+04;  0.0000000E+00;  0.0000000E+00;  4.0000000E+04;  0.0000000E+00;  4.0000000E+04;  0.0000000E+00;  0.0000000E+00;  0.0000000E+00;  0.0000000E+00;
 -1.5000001E-01;  9.9999998E-03; -3.8999999E-01;459;  0.0000000E+00;  0.0000000E+00;  0.0000000E+00;  1.0000000E+03;  1.0000000E-01;  0.0000000E+00;0;  0.0000000E+00;  0.0000000E+00;  0.0000000E+00;0;  0.0000000E+00;  4.0000000E+04;  0.0000000E+00;  0.0000000E+00;  4.0000000E+04;  0.0000000E+00;  4.0000000E+04;  0.0000000E+00;  0.0000000E+00;  0.0000000E+00;  0.0000000E+00;
 -1.5000001E-01;  9.9999998E-03; -3.8000000E-01;460;  0.0000000E+00;  0.0000000E+00;  0.0000000E+00;  1.0000000E+03;  1.0000000E-01;  0.0000000E+00;0;  0.0000000E+00;  0.0000000E+00;  0.0000000E+00;0;  0.0000000E+00;  4.0000000E+04;  0.0000000E+00;  0.0000000E+00;  4.0000000E+04;  0.0000000E+00;  4.0000000E+04;  0.0000000E+00;  0.0000000E+00;  0.0000000E+00;  0.0000000E+00;
 -1.5000001E-01;  9.9999998E-03; -3.7000000E-01;461;  0.0000000E+00;  0.0000000E+00;  0.0000000E+00;  1.0000000E+03;  1.0000000E-01;  0.0000000E+00;0;  0.0000000E+00;  0.0000000E+00;  0.0000000E+00;0;  0.0000000E+00;  4.0000000E+04;  0.0000000E+00;  0.0000000E+00;  4.0000000E+04;  0.0000000E+00;  4.0000000E+04;  0.0000000E+00;  0.0000000E+00;  0.0000000E+00;  3.0836722E-09;
 -1.5000001E-01;  9.9999998E-03; -3.6000001E-01;462;  0.0000000E+00;  0.0000000E+00;  0.0000000E+00;  1.0000000E+03;  1.0000000E-01;  0.0000000E+00;0;  0.0000000E+00;  0.0000000E+00;  0.0000000E+00;0;  2.0895000E-08;  4.0000000E+04;  0.0000000E+00;  0.0000000E+00;  4.0000000E+04;  0.0000000E+00;  4.0000000E+04;  1.9550171E-08;  0.0000000E+00;  1.3448278E-09;  9.6542835E-03;
 -1.5000001E-01;  9.9999998E-03; -3.4999999E-01;463;  0.0000000E+00;  0.0000000E+00;  0.0000000E+00;  1.0000000E+03;  1.0000000E-01;  0.0000000E+00;0;  0.0000000E+00;  0.0000000E+00;  0.0000000E+00;0;  2.0258061E-07;  4.0000000E+04;  0.0000000E+00;  0.0000000E+00;  4.0000000E+04;  0.0000000E+00;  4.0000000E+04;  1.8959521E-07;  0.0000000E+00;  1.2985391E-08;  6.2850274E-02;
 -1.5000001E-01;  9.9999998E-03; -3.4000000E-01;464;  0.0000000E+00;  0.0000000E+00;  0.0000000E+00;  1.0000000E+03;  1.0000000E-01;  0.0000000E+00;0;  0.0000000E+00;  0.0000000E+00;  0.0000000E+00;0;  8.5738628E-07;  4.0000000E+04;  0.0000000E+00;  0.0000000E+00;  4.0000000E+04;  0.0000000E+00;  4.0000000E+04;  8.0088449E-07;  0.0000000E+00;  5.6501783E-08;  2.0000428E-01;
 -1.5000001E-01;  9.9999998E-03; -3.3000001E-01;465;  0.0000000E+00;  0.0000000E+00;  0.0000000E+00;  1.0000000E+03;  1.0000000E-01;  0.0000000E+00;0;  0.0000000E+00;  0.0000000E+00;  0.0000000E+00;0;  2.4135391E-06;  4.0000000E+04;  0.0000000E+00;  0.0000000E+00;  4.0000000E+04;  0.0000000E+00;  4.0000000E+04;  2.2663271E-06;  0.0000000E+00;  1.4721198E-07;  4.2957410E-01;
 -1.5000001E-01;  9.9999998E-03; -3.1999999E-01;466;  0.0000000E+00;  0.0000000E+00;  0.0000000E+00;  1.0000000E+03;  1.0000000E-01;  0.0000000E+00;0;  0.0000000E+00;  0.0000000E+00;  0.0000000E+00;0;  5.2811192E-06;  4.0000000E+04;  0.0000000E+00;  0.0000000E+00;  4.0000000E+04;  0.0000000E+00;  4.0000000E+04;  5.0052963E-06;  0.0000000E+00;  2.7582269E-07;  7.0239347E-01;
 -1.5000001E-01;  9.9999998E-03; -3.1000000E-01;467;  0.0000000E+00;  0.0000000E+00;  0.0000000E+00;  1.0000000E+03;  1.0000000E-01;  0.0000000E+00;0;  0.0000000E+00;  0.0000000E+00;  0.0000000E+00;0;  9.6974845E-06;  4.0000000E+04;  0.0000000E+00;  0.0000000E+00;  4.0000000E+04;  0.0000000E+00;  4.0000000E+04;  9.2920563E-06;  0.0000000E+00;  4.0542861E-07;  9.1855091E-01;
 -1.5000001E-01;  9.9999998E-03; -3.0000001E-01;468;  0.0000000E+00;  0.0000000E+00;  0.0000000E+00;  1.0000000E+03;  1.0000000E-01;  0.0000000E+00;0;  0.0000000E+00;  0.0000000E+00;  0.0000000E+00;0;  1.5616526E-05;  4.0000000E+04;  0.0000000E+00;  0.0000000E+00;  4.0000000E+04;  0.0000000E+00;  4.0000000E+04;  1.5131530E-05;  0.0000000E+00;  4.8499669E-07;  9.6260428E-01;
 -1.5000001E-01;  9.9999998E-03; -2.8999999E-01;469;  0.0000000E+00;  0.0000000E+00;  0.0000000E+00;  1.0000000E+03;  1.0000000E-01;  0.0000000E+00;0;  0.0000000E+00;  0.0000000E+00;  0.0000000E+00;0;  2.2679644E-05;  4.0000000E+04;  0.0000000E+00;  0.0000000E+00;  4.0000000E+04;  0.0000000E+00;  4.0000000E+04;  2.2207492E-05;  0.0000000E+00;  4.7215096E-07;  7.5006890E-01;
 -1.5000001E-01;  9.9999998E-03; -2.8000000E-01;470;  0.0000000E+00;  0.0000000E+00;  0.0000000E+00;  1.0000000E+03;  1.0000000E-01;  0.0000000E+00;0;  0.0000000E+00;  0.0000000E+00;  0.0000000E+00;0;  3.0274497E-05;  4.0000000E+04;  0.0000000E+00;  0.0000000E+00;  4.0000000E+04;  0.0000000E+00;  4.0000000E+04;  2.9920429E-05;  0.0000000E+00;  3.5406893E-07;  2.6479599E-01;
 -1.4000000E-01;  9.9999998E-03; -4.4000000E-01;545;  0.0000000E+00;  0.0000000E+00;  0.0000000E+00;  1.0000000E+03;  1.0000000E-01;  0.0000000E+00;0;  0.0000000E+00;  0.0000000E+00;  0.0000000E+00;0;  0.0000000E+00;  4.0000000E+04;  0.0000000E+00;  0.0000000E+00;  4.0000000E+04;  0.0000000E+00;  4.0000000E+04;  0.0000000E+00;  0.0000000E+00;  0.0000000E+00;  0.0000000E+00;
 -1.4000000E-01;  9.9999998E-03; -4.3000001E-01;546;  0.0000000E+00;  0.0000000E+00;  0.0000000E+00;  1.0000000E+03;  1.0000000E-01;  0.0000000E+00;0;  0.0000000E+00;  0.0000000E+00;  0.0000000E+00;0;  0.0000000E+00;  4.0000000E+04;  0.0000000E+00;  0.0000000E+00;  4.0000000E+04;  0.0000000E+00;  4.0000000E+04;  0.0000000E+00;  0.0000000E+00;  0.0000000E+00;  0.0000000E+00;
 -1.4000000E-01;  9.9999998E-03; -4.1999999E-01;547;  0.0000000E+00;  0.0000000E+00;  0.0000000E+00;  1.0000000E+03;  1.0000000E-01;  0.0000000E+00;0;  0.0000000E+00;  0.0000000E+00;  0.0000000E+00;0;  0.0000000E+00;  4.0000000E+04;  0.0000000E+00;  0.0000000E+00;  4.0000000E+04;  0.0000000E+00;  4.0000000E+04;  0.0000000E+00;  0.0000000E+00;  0.0000000E+00;  0.0000000E+00;
 -1.4000000E-01;  9.9999998E-03; -4.1000000E-01;548;  0.0000000E+00;  0.0000000E+00;  0.0000000E+00;  1.0000000E+03;  1.0000000E-01;  0.0000000E+00;0;  0.0000000E+00;  0.0000000E+00;  0.0000000E+00;0;  0.0000000E+00;  4.0000000E+04;  0.0000000E+00;  0.0000000E+00;  4.0000000E+04;  0.0000000E+00;  4.0000000E+04;  0.0000000E+00;  0.0000000E+00;  0.0000000E+00;  0.0000000E+00;
 -1.4000000E-01;  9.9999998E-03; -4.0000001E-01;549;  0.0000000E+00;  0.0000000E+00;  0.0000000E+00;  1.0000000E+03;  1.0000000E-01;  0.0000000E+00;0;  0.0000000E+00;  0.0000000E+00;  0.0000000E+00;0;  0.0000000E+00;  4.0000000E+04;  0.0000000E+00;  0.0000000E+00;  4.0000000E+04;  0.0000000E+00;  4.0000000E+04;  0.0000000E+00;  0.0000000E+00;  0.0000000E+00;  0.0000000E+00;
 -1.4000000E-01;  9.9999998E-03; -3.8999999E-01;550;  0.0000000E+00;  0.0000000E+00;  0.0000000E+00;  1.0000000E+03;  1.0000000E-01;  0.0000000E+00;0;  0.0000000E+00;  0.0000000E+00;  0.0000000E+00;0;  0.0000000E+00;  4.0000000E+04;  0.0000000E+00;  0.0000000E+00;  4.0000000E+04;  0.0000000E+00;  4.0000000E+04;  0.0000000E+00;  0.0000000E+00;  0.0000000E+00;  0.0000000E+00;
 -1.4000000E-01;  9.9999998E-03; -3.8000000E-01;551;  0.0000000E+00;  0.0000000E+00;  0.0000000E+00;  1.0000000E+03;  1.0000000E-01;  0.0000000E+00;0;  0.0000000E+00;  0.0000000E+00;  0.0000000E+00;0;  8.7912158E-09;  4.0000000E+04;  0.0000000E+00;  0.0000000E+00;  4.0000000E+04;  0.0000000E+00;  4.0000000E+04;  7.9313081E-09;  0.0000000E+00;  8.5990809E-10;  7.2960779E-03;
 -1.4000000E-01;  9.9999998E-03; -3.7000000E-01;552;  0.0000000E+00;  0.0000000E+00;  0.0000000E+00;  1.0000000E+03;  1.0000000E-01;  0.0000000E+00;0;  0.0000000E+00;  0.0000000E+00;  0.0000000E+00;0;  1.8126536E-07;  4.0000000E+04;  0.0000000E+00;  0.0000000E+00;  4.0000000E+04;  0.0000000E+00;  4.0000000E+04;  1.6514595E-07;  0.0000000E+00;  1.6119408E-08;  1.0276111E-01;
 -1.4000000E-01;  9.9999998E-03; -3.6000001E-01;553;  0.0000000E+00;  0.0000000E+00;  0.0000000E+00;  1.0000000E+03;  1.0000000E-01;  0.0000000E+00;0;  0.0000000E+00;  0.0000000E+00;  0.0000000E+00;0;  1.0159380E-06;  4.0000000E+04;  0.0000000E+00;  0.0000000E+00;  4.0000000E+04;  0.0000000E+00;  4.0000000E+04;  9.1637332E-07;  0.0000000E+00;  9.9564701E-08;  4.4041112E-01;
 -1.4000000E-01;  9.9999998E-03; -3.4999999E-01;554;  0.0000000E+00;  0.0000000E+00;  0.0000000E+00;  1.0000000E+03;  1.0000000E-01;  0.0000000E+00;0;  0.0000000E+00;  0.0000000E+00;  0.0000000E+00;0;  3.4484783E-06;  4.0000000E+04;  0.0000000E+00;  0.0000000E+00;  4.0000000E+04;  0.0000000E+00;  4.0000000E+04;  3.1162122E-06;  0.0000000E+00;  3.3226621E-07;  1.1386737E+00;
 -1.4000000E-01;  9.9999998E-03; -3.4000000E-01;555;  0.0000000E+00;  0.0000000E+00;  0.0000000E+00;  1.0000000E+03;  1.0000000E-01;  0.0000000E+00;0;  0.0000000E+00;  0.0000000E+00;  0.0000000E+00;0;  8.6851214E-06;  4.0000000E+04;  0.0000000E+00;  0.0000000E+00;  4.0000000E+04;  0.0000000E+00;  4.0000000E+04;  7.9280280E-06;  0.0000000E+00;  7.5709323E-07;  2.2017453E+00;
 -1.4000000E-01;  9.9999998E-03; -3.3000001E-01;556;  0.0000000E+00;  0.0000000E+00;  0.0000000E+00;  1.0000000E+03;  1.0000000E-01;  0.0000000E+00;0;  0.0000000E+00;  0.0000000E+00;  0.0000000E+00;0;  1.7950726E-05;  4.0000000E+04;  0.0000000E+00;  0.0000000E+00;  4.0000000E+04;  0.0000000E+00;  4.0000000E+04;  1.6608896E-05;  0.0000000E+00;  1.3418306E-06;  3.4692945E+00;
 -1.4000000E-01;  9.9999998E-03; -3.1999999E-01;557;  0.0000000E+00;  0.0000000E+00;  0.0000000E+00;  1.0000000E+03;  1.0000000E-01;  0.0000000E+00;0;  0.0000000E+00;  0.0000000E+00;  0.0000000E+00;0;  3.2190663E-05;  4.0000000E+04;  0.0000000E+00;  0.0000000E+00;  4.0000000E+04;  0.0000000E+00;  4.0000000E+04;  3.0215942E-05;  0.0000000E+00;  1.9747185E-06;  4.6224813E+00;
 -1.4000000E-01;  9.9999998E-03; -3.1000000E-01;558;  0.0000000E+00;  0.0000000E+00;  0.0000000E+00;  1.0000000E+03;  1.0000000E-01;  0.0000000E+00;0;  0.0000000E+00;  0.0000000E+00;  0.0000000E+00;0;  5.1787716E-05;  4.0000000E+04;  0.0000000E+00;  0.0000000E+00;  4.0000000E+04;  0.0000000E+00;  4.0000000E+04;  4.9298647E-05;  0.0000000E+00;  2.4890687E-06;  5.2594762E+00;
 -1.4000000E-01;  9.9999998E-03; -3.0000001E-01;559;  0.0000000E+00;  0.0000000E+00;  0.0000000E+00;  1.0000000E+03;  1.0000000E-01;  0.0000000E+00;0;  0.0000000E+00;  0.0000000E+00;  0.0000000E+00;0;  7.6382181E-05;  4.0000000E+04;  0.0000000E+00;  0.0000000E+00;  4.0000000E+04;  0.0000000E+00;  4.0000000E+04;  7.3670060E-05;  0.0000000E+00;  2.7121180E-06;  5.0123229E+00;
 -1.4000000E-01;  9.9999998E-03; -2.8999999E-01;560;  0.0000000E+00;  0.0000000E+00;  0.0000000E+00;  1.0000000E+03;  1.0000000E-01;  0.0000000E+00;0;  0.0000000E+00;  0.0000000E+00;  0.0000000E+00;0;  1.0485369E-04;  4.0000000E+04;  0.0000000E+00;  0.0000000E+00;  4.0000000E+04;  0.0000000E+00;  4.0000000E+04;  1.0232860E-04;  0.0000000E+00;  2.5250849E-06;  3.6684279E+00;
 -1.4000000E-01;  9.9999998E-03; -2.8000000E-01;561;  0.0000000E+00;  0.0000000E+00;  0.0000000E+00;  1.0000000E+03;  1.0000000E-01;  0.0000000E+00;0;  0.0000000E+00;  0.0000000E+00;  0.0000000E+00;0;  1.3546906E-04;  4.0000000E+04;  0.0000000E+00;  0.0000000E+00;  4.0000000E+04;  0.0000000E+00;  4.0000000E+04;  1.3355701E-04;  0.0000000E+00;  1.9120505E-06;  1.2540107E+00;
 -1.3000000E-01;  9.9999998E-03; -4.4000000E-01;636;  0.0000000E+00;  0.0000000E+00;  0.0000000E+00;  1.0000000E+03;  1.0000000E-01;  0.0000000E+00;0;  0.0000000E+00;  0.0000000E+00;  0.0000000E+00;0;  0.0000000E+00;  4.0000000E+04;  0.0000000E+00;  0.0000000E+00;  4.0000000E+04;  0.0000000E+00;  4.0000000E+04;  0.0000000E+00;  0.0000000E+00;  0.0000000E+00;  0.0000000E+00;
 -1.3000000E-01;  9.9999998E-03; -4.3000001E-01;637;  0.0000000E+00;  0.0000000E+00;  0.0000000E+00;  1.0000000E+03;  1.0000000E-01;  0.0000000E+00;0;  0.0000000E+00;  0.0000000E+00;  0.0000000E+00;0;  0.0000000E+00;  4.0000000E+04;  0.0000000E+00;  0.0000000E+00;  4.0000000E+04;  0.0000000E+00;  4.0000000E+04;  0.0000000E+00;  0.0000000E+00;  0.0000000E+00;  0.0000000E+00;
 -1.3000000E-01;  9.9999998E-03; -4.1999999E-01;638;  0.0000000E+00;  0.0000000E+00;  0.0000000E+00;  1.0000000E+03;  1.0000000E-01;  0.0000000E+00;0;  0.0000000E+00;  0.0000000E+00;  0.0000000E+00;0;  0.0000000E+00;  4.0000000E+04;  0.0000000E+00;  0.0000000E+00;  4.0000000E+04;  0.0000000E+00;  4.0000000E+04;  0.0000000E+00;  0.0000000E+00;  0.0000000E+00;  0.0000000E+00;
 -1.3000000E-01;  9.9999998E-03; -4.1000000E-01;639;  0.0000000E+00;  0.0000000E+00;  0.0000000E+00;  1.0000000E+03;  1.0000000E-01;  0.0000000E+00;0;  0.0000000E+00;  0.0000000E+00;  0.0000000E+00;0;  0.0000000E+00;  4.0000000E+04;  0.0000000E+00;  0.0000000E+00;  4.0000000E+04;  0.0000000E+00;  4.0000000E+04;  0.0000000E+00;  0.0000000E+00;  0.0000000E+00;  0.0000000E+00;
 -1.3000000E-01;  9.9999998E-03; -4.0000001E-01;640;  0.0000000E+00;  0.0000000E+00;  0.0000000E+00;  1.0000000E+03;  1.0000000E-01;  0.0000000E+00;0;  0.0000000E+00;  0.0000000E+00;  0.0000000E+00;0;  0.0000000E+00;  4.0000000E+04;  0.0000000E+00;  0.0000000E+00;  4.0000000E+04;  0.0000000E+00;  4.0000000E+04;  0.0000000E+00;  0.0000000E+00;  0.0000000E+00;  0.0000000E+00;
 -1.3000000E-01;  9.9999998E-03; -3.8999999E-01;641;  0.0000000E+00;  0.0000000E+00;  0.0000000E+00;  1.0000000E+03;  1.0000000E-01;  0.0000000E+00;0;  0.0000000E+00;  0.0000000E+00;  0.0000000E+00;0;  4.5464962E-08;  4.0000000E+04;  0.0000000E+00;  0.0000000E+00;  4.0000000E+04;  0.0000000E+00;  4.0000000E+04;  3.9865167E-08;  0.0000000E+00;  5.5997949E-09;  4.7427747E-02;
 -1.3000000E-01;  9.9999998E-03; -3.8000000E-01;642;  0.0000000E+00;  0.0000000E+00;  0.0000000E+00;  1.0000000E+03;  1.0000000E-01;  0.0000000E+00;0;  0.0000000E+00;  0.0000000E+00;  0.0000000E+00;0;  4.8631432E-07;  4.0000000E+04;  0.0000000E+00;  0.0000000E+00;  4.0000000E+04;  0.0000000E+00;  4.0000000E+04;  4.2424961E-07;  0.0000000E+00;  6.2064728E-08;  4.1582727E-01;
 -1.3000000E-01;  9.9999998E-03; -3.7000000E-01;643;  0.0000000E+00;  0.0000000E+00;  0.0000000E+00;  1.0000000E+03;  1.0000000E-01;  0.0000000E+00;0;  0.0000000E+00;  0.0000000E+00;  0.0000000E+00;0;  2.3737373E-06;  4.0000000E+04;  0.0000000E+00;  0.0000000E+00;  4.0000000E+04;  0.0000000E+00;  4.0000000E+04;  2.0415951E-06;  0.0000000E+00;  3.3214232E-07;  1.4886172E+00;
 -1.3000000E-01;  9.9999998E-03; -3.6000001E-01;644;  0.0000000E+00;  0.0000000E+00;  0.0000000E+00;  1.0000000E+03;  1.0000000E-01;  0.0000000E+00;0;  0.0000000E+00;  0.0000000E+00;  0.0000000E+00;0;  7.5008129E-06;  4.0000000E+04;  0.0000000E+00;  0.0000000E+00;  4.0000000E+04;  0.0000000E+00;  4.0000000E+04;  6.4920437E-06;  0.0000000E+00;  1.0087691E-06;  3.5520003E+00;
 -1.3000000E-01;  9.9999998E-03; -3.4999999E-01;645;  0.0000000E+00;  0.0000000E+00;  0.0000000E+00;  1.0000000E+03;  1.0000000E-01;  0.0000000E+00;0;  0.0000000E+00;  0.0000000E+00;  0.0000000E+00;0;  1.8225384E-05;  4.0000000E+04;  0.0000000E+00;  0.0000000E+00;  4.0000000E+04;  0.0000000E+00;  4.0000000E+04;  1.6026417E-05;  0.0000000E+00;  2.1989679E-06;  6.6235781E+00;
 -1.3000000E-01;  9.9999998E-03; -3.4000000E-01;646;  0.0000000E+00;  0.0000000E+00;  0.0000000E+00;  1.0000000E+03;  1.0000000E-01;  0.0000000E+00;0;  0.0000000E+00;  0.0000000E+00;  0.0000000E+00;0;  3.7110869E-05;  4.0000000E+04;  0.0000000E+00;  0.0000000E+00;  4.0000000E+04;  0.0000000E+00;  4.0000000E+04;  3.3256758E-05;  0.0000000E+00;  3.8541116E-06;  1.0375363E+01;
 -1.3000000E-01;  9.9999998E-03; -3.3000001E-01;647;  0.0000000E+00;  0.0000000E+00;  0.0000000E+00;  1.0000000E+03;  1.0000000E-01;  0.0000000E+00;0;  0.0000000E+00;  0.0000000E+00;  0.0000000E+00;0;  6.6470056E-05;  4.0000000E+04;  0.0000000E+00;  0.0000000E+00;  4.0000000E+04;  0.0000000E+00;  4.0000000E+04;  6.0713966E-05;  0.0000000E+00;  5.7560919E-06;  1.4133736E+01;
 -1.3000000E-01;  9.9999998E-03; -3.1999999E-01;648;  0.0000000E+00;  0.0000000E+00;  0.0000000E+00;  1.0000000E+03;  1.0000000E-01;  0.0000000E+00;0;  0.0000000E+00;  0.0000000E+00;  0.0000000E+00;0;  1.0786474E-04;  4.0000000E+04;  0.0000000E+00;  0.0000000E+00;  4.0000000E+04;  0.0000000E+00;  4.0000000E+04;  1.0031716E-04;  0.0000000E+00;  7.5475859E-06;  1.6978773E+01;
 -1.3000000E-01;  9.9999998E-03; -3.1000000E-01;649;  0.0000000E+00;  0.0000000E+00;  0.0000000E+00;  1.0000000E+03;  1.0000000E-01;  0.0000000E+00;0;  0.0000000E+00;  0.0000000E+00;  0.0000000E+00;0;  1.6166289E-04;  4.0000000E+04;  0.0000000E+00;  0.0000000E+00;  4.0000000E+04;  0.0000000E+00;  4.0000000E+04;  1.5286171E-04;  0.0000000E+00;  8.8011702E-06;  1.7935953E+01;
 -1.3000000E-01;  9.9999998E-03; -3.0000001E-01;650;  0.0000000E+00;  0.0000000E+00;  0.0000000E+00;  1.0000000E+03;  1.0000000E-01;  0.0000000E+00;0;  0.0000000E+00;  0.0000000E+00;  0.0000000E+00;0;  2.2678867E-04;  4.0000000E+04;  0.0000000E+00;  0.0000000E+00;  4.0000000E+04;  0.0000000E+00;  4.0000000E+04;  2.1766455E-04;  0.0000000E+00;  9.1241282E-06;  1.6218796E+01;
 -1.3000000E-01;  9.9999998E-03; -2.8999999E-01;651;  0.0000000E+00;  0.0000000E+00;  0.0000000E+00;  1.0000025E+03;  1.0000000E-01;  2.0740154E+00;0;  0.0000000E+00;  0.0000000E+00;  0.0000000E+00;0;  3.0074891E-04;  4.0000000E+04;  0.0000000E+00;  0.0000000E+00;  4.0000000E+04;  0.0000000E+00;  4.0000000E+04;  2.9246951E-04;  0.0000000E+00;  8.2794013E-06;  1.1468905E+01;
 -1.3000000E-01;  9.9999998E-03; -2.8000000E-01;652;  0.0000000E+00;  0.0000000E+00;  0.0000000E+00;  1.0000000E+03;  1.0000000E-01;  0.0000000E+00;0;  0.0000000E+00;  0.0000000E+00;  0.0000000E+00;0;  3.7992405E-04;  4.0000000E+04;  0.0000000E+00;  0.0000000E+00;  4.0000000E+04;  0.0000000E+00;  4.0000000E+04;  3.7364516E-04;  0.0000000E+00;  6.2788868E-06;  3.9070940E+00;
 -1.2000000E-01;  9.9999998E-03; -4.4000000E-01;727;  0.0000000E+00;  0.0000000E+00;  0.0000000E+00;  1.0000000E+03;  1.0000000E-01;  0.0000000E+00;0;  0.0000000E+00;  0.0000000E+00;  0.0000000E+00;0;  0.0000000E+00;  4.0000000E+04;  0.0000000E+00;  0.0000000E+00;  4.0000000E+04;  0.0000000E+00;  4.0000000E+04;  0.0000000E+00;  0.0000000E+00;  0.0000000E+00;  0.0000000E+00;
 -1.2000000E-01;  9.9999998E-03; -4.3000001E-01;728;  0.0000000E+00;  0.0000000E+00;  0.0000000E+00;  1.0000000E+03;  1.0000000E-01;  0.0000000E+00;0;  0.0000000E+00;  0.0000000E+00;  0.0000000E+00;0;  0.0000000E+00;  4.0000000E+04;  0.0000000E+00;  0.0000000E+00;  4.0000000E+04;  0.0000000E+00;  4.0000000E+04;  0.0000000E+00;  0.0000000E+00;  0.0000000E+00;  0.0000000E+00;
 -1.2000000E-01;  9.9999998E-03; -4.1999999E-01;729;  0.0000000E+00;  0.0000000E+00;  0.0000000E+00;  1.0000000E+03;  1.0000000E-01;  0.0000000E+00;0;  0.0000000E+00;  0.0000000E+00;  0.0000000E+00;0;  0.0000000E+00;  4.0000000E+04;  0.0000000E+00;  0.0000000E+00;  4.0000000E+04;  0.0000000E+00;  4.0000000E+04;  0.0000000E+00;  0.0000000E+00;  0.0000000E+00;  0.0000000E+00;
 -1.2000000E-01;  9.9999998E-03; -4.1000000E-01;730;  0.0000000E+00;  0.0000000E+00;  0.0000000E+00;  1.0000000E+03;  1.0000000E-01;  0.0000000E+00;0;  0.0000000E+00;  0.0000000E+00;  0.0000000E+00;0;  0.0000000E+00;  4.0000000E+04;  0.0000000E+00;  0.0000000E+00;  4.0000000E+04;  0.0000000E+00;  4.0000000E+04;  0.0000000E+00;  0.0000000E+00;  0.0000000E+00;  3.0553806E-06;
 -1.2000000E-01;  9.9999998E-03; -4.0000001E-01;731;  0.0000000E+00;  0.0000000E+00;  0.0000000E+00;  1.0000000E+03;  1.0000000E-01;  0.0000000E+00;0;  0.0000000E+00;  0.0000000E+00;  0.0000000E+00;0;  7.4451023E-08;  4.0000000E+04;  0.0000000E+00;  0.0000000E+00;  4.0000000E+04;  0.0000000E+00;  4.0000000E+04;  6.3271756E-08;  0.0000000E+00;  1.1179271E-08;  1.2867564E-01;
 -1.2000000E-01;  9.9999998E-03; -3.8999999E-01;732;  0.0000000E+00;  0.0000000E+00;  0.0000000E+00;  1.0000000E+03;  1.0000000E-01;  0.0000000E+00;0;  0.0000000E+00;  0.0000000E+00;  0.0000000E+00;0;  7.6771977E-07;  4.0000000E+04;  0.0000000E+00;  0.0000000E+00;  4.0000000E+04;  0.0000000E+00;  4.0000000E+04;  6.3263781E-07;  0.0000000E+00;  1.3508195E-07;  9.6222866E-01;
 -1.2000000E-01;  9.9999998E-03; -3.8000000E-01;733;  0.0000000E+00;  0.0000000E+00;  0.0000000E+00;  1.0000000E+03;  1.0000000E-01;  0.0000000E+00;0;  0.0000000E+00;  0.0000000E+00;  0.0000000E+00;0;  3.6887336E-06;  4.0000000E+04;  0.0000000E+00;  0.0000000E+00;  4.0000000E+04;  0.0000000E+00;  4.0000000E+04;  2.9833600E-06;  0.0000000E+00;  7.0537362E-07;  3.3108072E+00;
 -1.2000000E-01;  9.9999998E-03; -3.7000000E-01;734;  0.0000000E+00;  0.0000000E+00;  0.0000000E+00;  1.0000000E+03;  1.0000000E-01;  0.0000000E+00;0;  0.0000000E+00;  0.0000000E+00;  0.0000000E+00;0;  1.1592286E-05;  4.0000000E+04;  0.0000000E+00;  0.0000000E+00;  4.0000000E+04;  0.0000000E+00;  4.0000000E+04;  9.4770439E-06;  0.0000000E+00;  2.1152416E-06;  7.7735929E+00;
 -1.2000000E-01;  9.9999998E-03; -3.6000001E-01;735;  0.0000000E+00;  0.0000000E+00;  0.0000000E+00;  1.0000000E+03;  1.0000000E-01;  0.0000000E+00;0;  0.0000000E+00;  0.0000000E+00;  0.0000000E+00;0;  2.8160714E-05;  4.0000000E+04;  0.0000000E+00;  0.0000000E+00;  4.0000000E+04;  0.0000000E+00;  4.0000000E+04;  2.3554885E-05;  0.0000000E+00;  4.6058285E-06;  1.4462564E+01;
 -1.2000000E-01;  9.9999998E-03; -3.4999999E-01;736;  0.0000000E+00;  0.0000000E+00;  0.0000000E+00;  1.0000000E+03;  1.0000000E-01;  0.0000000E+00;0;  0.0000000E+00;  0.0000000E+00;  0.0000000E+00;0;  5.7653586E-05;  4.0000000E+04;  0.0000000E+00;  0.0000000E+00;  4.0000000E+04;  0.0000000E+00;  4.0000000E+04;  4.9499176E-05;  0.0000000E+00;  8.1544094E-06;  2.2881687E+01;
 -1.2000000E-01;  9.9999998E-03; -3.4000000E-01;737;  0.0000000E+00;  0.0000000E+00;  0.0000000E+00;  1.0000000E+03;  1.0000000E-01;  0.0000000E+00;0;  0.0000000E+00;  0.0000000E+00;  0.0000000E+00;0;  1.0435506E-04;  4.0000000E+04;  0.0000000E+00;  0.0000000E+00;  4.0000000E+04;  0.0000000E+00;  4.0000000E+04;  9.1910013E-05;  0.0000000E+00;  1.2445046E-05;  3.1921429E+01;
 -1.2000000E-01;  9.9999998E-03; -3.3000001E-01;738;  0.0000000E+00;  0.0000000E+00;  0.0000000E+00;  1.0000000E+03;  1.0000000E-01;  0.0000000E+00;0;  0.0000000E+00;  0.0000000E+00;  0.0000000E+00;0;  1.7186117E-04;  4.0000000E+04;  0.0000000E+00;  0.0000000E+00;  4.0000000E+04;  0.0000000E+00;  4.0000000E+04;  1.5496962E-04;  0.0000000E+00;  1.6891554E-05;  3.9962833E+01;
 -1.2000000E-01;  9.9999998E-03; -3.1999999E-01;739;  0.0000000E+00;  0.0000000E+00;  0.0000000E+00;  1.0000133E+03;  1.0000000E-01;  1.1061416E+01;0;  0.0000000E+00;  0.0000000E+00;  0.0000000E+00;0;  2.6232365E-04;  4.0000000E+04;  0.0000000E+00;  0.0000000E+00;  4.0000000E+04;  0.0000000E+00;  4.0000000E+04;  2.4161259E-04;  0.0000000E+00;  2.0711072E-05;  4.5104427E+01;
 -1.2000000E-01;  9.9999998E-03; -3.1000000E-01;740;  0.0000000E+00;  0.0000000E+00;  0.0000000E+00;  1.0000146E+03;  1.0000000E-01;  1.2049042E+01;0;  0.0000000E+00;  0.0000000E+00;  0.0000000E+00;0;  3.7581724E-04;  4.0000000E+04;  0.0000000E+00;  0.0000000E+00;  4.0000000E+04;  0.0000000E+00;  4.0000000E+04;  3.5276447E-04;  0.0000000E+00;  2.3052751E-05;  4.5505470E+01;
 -1.2000000E-01;  9.9999998E-03; -3.0000001E-01;741;  0.0000000E+00;  0.0000000E+00;  0.0000000E+00;  1.0000095E+03;  1.0000000E-01;  7.9010110E+00;0;  0.0000000E+00;  0.0000000E+00;  0.0000000E+00;0;  5.1002763E-04;  4.0000000E+04;  0.0000000E+00;  0.0000000E+00;  4.0000000E+04;  0.0000000E+00;  4.0000000E+04;  4.8684256E-04;  0.0000000E+00;  2.3185086E-05;  3.9809910E+01;
 -1.2000000E-01;  9.9999998E-03; -2.8999999E-01;742;  0.0000000E+00;  0.0000000E+00;  0.0000000E+00;  1.0000000E+03;  1.0000000E-01;  0.0000000E+00;0;  0.0000000E+00;  0.0000000E+00;  0.0000000E+00;0;  6.6037069E-04;  4.0000000E+04;  0.0000000E+00;  0.0000000E+00;  4.0000000E+04;  0.0000000E+00;  4.0000000E+04;  6.3965924E-04;  0.0000000E+00;  2.0711426E-05;  2.7570707E+01;
 -1.2000000E-01;  9.9999998E-03; -2.8000000E-01;743;  0.0000000E+00;  0.0000000E+00;  0.0000000E+00;  1.0000009E+03;  1.0000000E-01;  7.9010111E-01;0;  0.0000000E+00;  0.0000000E+00;  0.0000000E+00;0;  8.2049682E-04;  4.0000000E+04;  0.0000000E+00;  0.0000000E+00;  4.0000000E+04;  0.0000000E+00;  4.0000000E+04;  8.0476649E-04;  0.0000000E+00;  1.5730344E-05;  9.5063725E+00;
 -1.1000000E-01;  9.9999998E-03; -4.4000000E-01;818;  0.0000000E+00;  0.0000000E+00;  0.0000000E+00;  1.0000000E+03;  1.0000000E-01;  0.0000000E+00;0;  0.0000000E+00;  0.0000000E+00;  0.0000000E+00;0;  0.0000000E+00;  4.0000000E+04;  0.0000000E+00;  0.0000000E+00;  4.0000000E+04;  0.0000000E+00;  4.0000000E+04;  0.0000000E+00;  0.0000000E+00;  0.0000000E+00;  0.0000000E+00;
 -1.1000000E-01;  9.9999998E-03; -4.3000001E-01;819;  0.0000000E+00;  0.0000000E+00;  0.0000000E+00;  1.0000000E+03;  1.0000000E-01;  0.0000000E+00;0;  0.0000000E+00;  0.0000000E+00;  0.0000000E+00;0;  0.0000000E+00;  4.0000000E+04;  0.0000000E+00;  0.0000000E+00;  4.0000000E+04;  0.0000000E+00;  4.0000000E+04;  0.0000000E+00;  0.0000000E+00;  0.0000000E+00;  0.0000000E+00;
 -1.1000000E-01;  9.9999998E-03; -4.1999999E-01;820;  0.0000000E+00;  0.0000000E+00;  0.0000000E+00;  1.0000000E+03;  1.0000000E-01;  0.0000000E+00;0;  0.0000000E+00;  0.0000000E+00;  0.0000000E+00;0;  0.0000000E+00;  4.0000000E+04;  0.0000000E+00;  0.0000000E+00;  4.0000000E+04;  0.0000000E+00;  4.0000000E+04;  0.0000000E+00;  0.0000000E+00;  0.0000000E+00;  2.4097387E-06;
 -1.1000000E-01;  9.9999998E-03; -4.1000000E-01;821;  0.0000000E+00;  0.0000000E+00;  0.0000000E+00;  1.0000000E+03;  1.0000000E-01;  0.0000000E+00;0;  0.0000000E+00;  0.0000000E+00;  0.0000000E+00;0;  6.7324549E-08;  4.0000000E+04;  0.0000000E+00;  0.0000000E+00;  4.0000000E+04;  0.0000000E+00;  4.0000000E+04;  5.5458496E-08;  0.0000000E+00;  1.1866057E-08;  1.9652738E-01;
 -1.1000000E-01;  9.9999998E-03; -4.0000001E-01;822;  0.0000000E+00;  0.0000000E+00;  0.0000000E+00;  1.0000000E+03;  1.0000000E-01;  0.0000000E+00;0;  0.0000000E+00;  0.0000000E+00;  0.0000000E+00;0;  8.3574281E-07;  4.0000000E+04;  0.0000000E+00;  0.0000000E+00;  4.0000000E+04;  0.0000000E+00;  4.0000000E+04;  6.4494458E-07;  0.0000000E+00;  1.9079825E-07;  1.5503557E+00;
 -1.1000000E-01;  9.9999998E-03; -3.8999999E-01;823;  0.0000000E+00;  0.0000000E+00;  0.0000000E+00;  1.0000000E+03;  1.0000000E-01;  0.0000000E+00;0;  0.0000000E+00;  0.0000000E+00;  0.0000000E+00;0;  4.3509999E-06;  4.0000000E+04;  0.0000000E+00;  0.0000000E+00;  4.0000000E+04;  0.0000000E+00;  4.0000000E+04;  3.2580231E-06;  0.0000000E+00;  1.0929766E-06;  5.5276618E+00;
 -1.1000000E-01;  9.9999998E-03; -3.8000000E-01;824;  0.0000000E+00;  0.0000000E+00;  0.0000000E+00;  1.0000000E+03;  1.0000000E-01;  0.0000000E+00;0;  0.0000000E+00;  0.0000000E+00;  0.0000000E+00;0;  1.4228950E-05;  4.0000000E+04;  0.0000000E+00;  0.0000000E+00;  4.0000000E+04;  0.0000000E+00;  4.0000000E+04;  1.0800800E-05;  0.0000000E+00;  3.4281497E-06;  1.3316262E+01;
 -1.1000000E-01;  9.9999998E-03; -3.7000000E-01;825;  0.0000000E+00;  0.0000000E+00;  0.0000000E+00;  1.0000000E+03;  1.0000000E-01;  0.0000000E+00;0;  0.0000000E+00;  0.0000000E+00;  0.0000000E+00;0;  3.5447607E-05;  4.0000000E+04;  0.0000000E+00;  0.0000000E+00;  4.0000000E+04;  0.0000000E+00;  4.0000000E+04;  2.7753582E-05;  0.0000000E+00;  7.6940260E-06;  2.5301777E+01;
 -1.1000000E-01;  9.9999998E-03; -3.6000001E-01;826;  0.0000000E+00;  0.0000000E+00;  0.0000000E+00;  1.0000000E+03;  1.0000000E-01;  0.0000000E+00;0;  0.0000000E+00;  0.0000000E+00;  0.0000000E+00;0;  7.4022944E-05;  4.0000000E+04;  0.0000000E+00;  0.0000000E+00;  4.0000000E+04;  0.0000000E+00;  4.0000000E+04;  6.0037550E-05;  0.0000000E+00;  1.3985392E-05;  4.0904915E+01;
 -1.1000000E-01;  9.9999998E-03; -3.4999999E-01;827;  0.0000000E+00;  0.0000000E+00;  0.0000000E+00;  1.0000000E+03;  1.0000000E-01;  0.0000000E+00;0;  0.0000000E+00;  0.0000000E+00;  0.0000000E+00;0;  1.3651032E-04;  4.0000000E+04;  0.0000000E+00;  0.0000000E+00;  4.0000000E+04;  0.0000000E+00;  4.0000000E+04;  1.1456524E-04;  0.0000000E+00;  2.1945083E-05;  5.8591793E+01;
 -1.1000000E-01;  9.9999998E-03; -3.4000000E-01;828;  0.0000000E+00;  0.0000000E+00;  0.0000000E+00;  1.0000266E+03;  1.0000000E-01;  2.2024069E+01;0;  0.0000000E+00;  0.0000000E+00;  0.0000000E+00;0;  2.2922138E-04;  4.0000000E+04;  0.0000000E+00;  0.0000000E+00;  4.0000000E+04;  0.0000000E+00;  4.0000000E+04;  1.9843364E-04;  0.0000000E+00;  3.0787738E-05;  7.5978516E+01;
 -1.1000000E-01;  9.9999998E-03; -3.3000001E-01;829;  0.0000000E+00;  0.0000000E+00;  0.0000000E+00;  1.0000227E+03;  1.0000000E-01;  1.8764902E+01;0;  0.0000000E+00;  0.0000000E+00;  0.0000000E+00;0;  3.5718307E-04;  4.0000000E+04;  0.0000000E+00;  0.0000000E+00;  4.0000000E+04;  0.0000000E+00;  4.0000000E+04;  3.1782879E-04;  0.0000000E+00;  3.9354294E-05;  9.0048187E+01;
 -1.1000000E-01;  9.9999998E-03; -3.1999999E-01;830;  0.0000000E+00;  0.0000000E+00;  0.0000000E+00;  1.0000237E+03;  1.0000000E-01;  1.9653765E+01;0;  0.0000000E+00;  0.0000000E+00;  0.0000000E+00;0;  5.2305014E-04;  4.0000000E+04;  0.0000000E+00;  0.0000000E+00;  4.0000000E+04;  0.0000000E+00;  4.0000000E+04;  4.7682427E-04;  0.0000000E+00;  4.6225883E-05;  9.7514679E+01;
 -1.1000000E-01;  9.9999998E-03; -3.1000000E-01;831;  0.0000000E+00;  0.0000000E+00;  0.0000000E+00;  1.0000179E+03;  1.0000000E-01;  1.4913158E+01;0;  0.0000000E+00;  0.0000000E+00;  0.0000000E+00;0;  7.2624139E-04;  4.0000000E+04;  0.0000000E+00;  0.0000000E+00;  4.0000000E+04;  0.0000000E+00;  4.0000000E+04;  6.7631179E-04;  0.0000000E+00;  4.9929604E-05;  9.5364021E+01;
 -1.1000000E-01;  9.9999998E-03; -3.0000001E-01;832;  0.0000000E+00;  0.0000000E+00;  0.0000000E+00;  1.0000281E+03;  1.0000000E-01;  2.3307983E+01;0;  0.0000000E+00;  0.0000000E+00;  0.0000000E+00;0;  9.6258771E-04;  4.0000000E+04;  0.0000000E+00;  0.0000000E+00;  4.0000000E+04;  0.0000000E+00;  4.0000000E+04;  9.1333914E-04;  0.0000000E+00;  4.9248560E-05;  8.1554825E+01;
 -1.1000000E-01;  9.9999998E-03; -2.8999999E-01;833;  0.0000000E+00;  0.0000000E+00;  0.0000000E+00;  1.0000298E+03;  1.0000000E-01;  2.4690660E+01;0;  0.0000000E+00;  0.0000000E+00;  0.0000000E+00;0;  1.2246213E-03;  4.0000000E+04;  0.0000000E+00;  0.0000000E+00;  4.0000000E+04;  0.0000000E+00;  4.0000000E+04;  1.1810412E-03;  0.0000000E+00;  4.3580127E-05;  5.5710922E+01;
 -1.1000000E-01;  9.9999998E-03; -2.8000000E-01;834;  0.0000000E+00;  0.0000000E+00;  0.0000000E+00;  1.0000197E+03;  1.0000000E-01;  1.6295835E+01;0;  0.0000000E+00;  0.0000000E+00;  0.0000000E+00;0;  1.5023616E-03;  4.0000000E+04;  0.0000000E+00;  0.0000000E+00;  4.0000000E+04;  0.0000000E+00;  4.0000000E+04;  1.4691678E-03;  0.0000000E+00;  3.3193883E-05;  1.9651426E+01;
 -1.0000000E-01;  9.9999998E-03; -4.4000000E-01;909;  0.0000000E+00;  0.0000000E+00;  0.0000000E+00;  1.0000000E+03;  1.0000000E-01;  0.0000000E+00;0;  0.0000000E+00;  0.0000000E+00;  0.0000000E+00;0;  0.0000000E+00;  4.0000000E+04;  0.0000000E+00;  0.0000000E+00;  4.0000000E+04;  0.0000000E+00;  4.0000000E+04;  0.0000000E+00;  0.0000000E+00;  0.0000000E+00;  0.0000000E+00;
 -1.0000000E-01;  9.9999998E-03; -4.3000001E-01;910;  0.0000000E+00;  0.0000000E+00;  0.0000000E+00;  1.0000000E+03;  1.0000000E-01;  0.0000000E+00;0;  0.0000000E+00;  0.0000000E+00;  0.0000000E+00;0;  0.0000000E+00;  4.0000000E+04;  0.0000000E+00;  0.0000000E+00;  4.0000000E+04;  0.0000000E+00;  4.0000000E+04;  0.0000000E+00;  0.0000000E+00;  0.0000000E+00;  0.0000000E+00;
 -1.0000000E-01;  9.9999998E-03; -4.1999999E-01;911;  0.0000000E+00;  0.0000000E+00;  0.0000000E+00;  1.0000000E+03;  1.0000000E-01;  0.0000000E+00;0;  0.0000000E+00;  0.0000000E+00;  0.0000000E+00;0;  3.2478869E-08;  4.0000000E+04;  0.0000000E+00;  0.0000000E+00;  4.0000000E+04;  0.0000000E+00;  4.0000000E+04;  2.6423216E-08;  0.0000000E+00;  6.0556542E-09;  1.8471943E-01;
 -1.0000000E-01;  9.9999998E-03; -4.1000000E-01;912;  0.0000000E+00;  0.0000000E+00;  0.0000000E+00;  1.0000000E+03;  1.0000000E-01;  0.0000000E+00;0;  0.0000000E+00;  0.0000000E+00;  0.0000000E+00;0;  6.5050926E-07;  4.0000000E+04;  0.0000000E+00;  0.0000000E+00;  4.0000000E+04;  0.0000000E+00;  4.0000000E+04;  4.7068409E-07;  0.0000000E+00;  1.7982518E-07;  1.8470412E+00;
 -1.0000000E-01;  9.9999998E-03; -4.0000001E-01;913;  0.0000000E+00;  0.0000000E+00;  0.0000000E+00;  1.0000000E+03;  1.0000000E-01;  0.0000000E+00;0;  0.0000000E+00;  0.0000000E+00;  0.0000000E+00;0;  4.0762393E-06;  4.0000000E+04;  0.0000000E+00;  0.0000000E+00;  4.0000000E+04;  0.0000000E+00;  4.0000000E+04;  2.7854755E-06;  0.0000000E+00;  1.2907637E-06;  7.3268518E+00;
 -1.0000000E-01;  9.9999998E-03; -3.8999999E-01;914;  0.0000000E+00;  0.0000000E+00;  0.0000000E+00;  1.0000000E+03;  1.0000000E-01;  0.0000000E+00;0;  0.0000000E+00;  0.0000000E+00;  0.0000000E+00;0;  1.4573321E-05;  4.0000000E+04;  0.0000000E+00;  0.0000000E+00;  4.0000000E+04;  0.0000000E+00;  4.0000000E+04;  1.0076978E-05;  0.0000000E+00;  4.4963422E-06;  1.8798086E+01;
 -1.0000000E-01;  9.9999998E-03; -3.8000000E-01;915;  0.0000000E+00;  0.0000000E+00;  0.0000000E+00;  1.0000000E+03;  1.0000000E-01;  0.0000000E+00;0;  0.0000000E+00;  0.0000000E+00;  0.0000000E+00;0;  3.8179202E-05;  4.0000000E+04;  0.0000000E+00;  0.0000000E+00;  4.0000000E+04;  0.0000000E+00;  4.0000000E+04;  2.7445261E-05;  0.0000000E+00;  1.0733939E-05;  3.7274128E+01;
 -1.0000000E-01;  9.9999998E-03; -3.7000000E-01;916;  0.0000000E+00;  0.0000000E+00;  0.0000000E+00;  1.0000000E+03;  1.0000000E-01;  0.0000000E+00;0;  0.0000000E+00;  0.0000000E+00;  0.0000000E+00;0;  8.2442464E-05;  4.0000000E+04;  0.0000000E+00;  0.0000000E+00;  4.0000000E+04;  0.0000000E+00;  4.0000000E+04;  6.2073181E-05;  0.0000000E+00;  2.0369280E-05;  6.2307465E+01;
 -1.0000000E-01;  9.9999998E-03; -3.6000001E-01;917;  0.0000000E+00;  0.0000000E+00;  0.0000000E+00;  1.0000137E+03;  1.0000000E-01;  1.1357703E+01;0;  0.0000000E+00;  0.0000000E+00;  0.0000000E+00;0;  1.5608942E-04;  4.0000000E+04;  0.0000000E+00;  0.0000000E+00;  4.0000000E+04;  0.0000000E+00;  4.0000000E+04;  1.2296507E-04;  0.0000000E+00;  3.3124354E-05;  9.2056053E+01;
 -1.0000000E-01;  9.9999998E-03; -3.4999999E-01;918;  0.0000000E+00;  0.0000000E+00;  0.0000000E+00;  1.0000374E+03;  1.0000000E-01;  3.0912706E+01;0;  0.0000000E+00;  0.0000000E+00;  0.0000000E+00;0;  2.6837000E-04;  4.0000000E+04;  0.0000000E+00;  0.0000000E+00;  4.0000000E+04;  0.0000000E+00;  4.0000000E+04;  2.2026214E-04;  0.0000000E+00;  4.8107857E-05;  1.2343625E+02;
 -1.0000000E-01;  9.9999998E-03; -3.4000000E-01;919;  0.0000000E+00;  0.0000000E+00;  0.0000000E+00;  1.0000366E+03;  1.0000000E-01;  3.0320129E+01;0;  0.0000000E+00;  0.0000000E+00;  0.0000000E+00;0;  4.2793929E-04;  4.0000000E+04;  0.0000000E+00;  0.0000000E+00;  4.0000000E+04;  0.0000000E+00;  4.0000000E+04;  3.6407835E-04;  0.0000000E+00;  6.3860920E-05;  1.5231618E+02;
 -1.0000000E-01;  9.9999998E-03; -3.3000001E-01;920;  0.0000000E+00;  0.0000000E+00;  0.0000000E+00;  1.0000356E+03;  1.0000000E-01;  2.9530029E+01;0;  0.0000000E+00;  0.0000000E+00;  0.0000000E+00;0;  6.4140034E-04;  4.0000000E+04;  0.0000000E+00;  0.0000000E+00;  4.0000000E+04;  0.0000000E+00;  4.0000000E+04;  5.6297373E-04;  0.0000000E+00;  7.8426638E-05;  1.7381673E+02;
 -1.0000000E-01;  9.9999998E-03; -3.1999999E-01;921;  0.0000000E+00;  0.0000000E+00;  0.0000000E+00;  1.0000547E+03;  1.0000000E-01;  4.5332050E+01;0;  0.0000000E+00;  0.0000000E+00;  0.0000000E+00;0;  9.1179338E-04;  4.0000000E+04;  0.0000000E+00;  0.0000000E+00;  4.0000000E+04;  0.0000000E+00;  4.0000000E+04;  8.2229084E-04;  0.0000000E+00;  8.9502530E-05;  1.8283072E+02;
 -1.0000000E-01;  9.9999998E-03; -3.1000000E-01;922;  0.0000000E+00;  0.0000000E+00;  0.0000000E+00;  1.0000640E+03;  1.0000000E-01;  5.3035538E+01;0;  0.0000000E+00;  0.0000000E+00;  0.0000000E+00;0;  1.2374661E-03;  4.0000000E+04;  0.0000000E+00;  0.0000000E+00;  4.0000000E+04;  0.0000000E+00;  4.0000000E+04;  1.1427169E-03;  0.0000000E+00;  9.4749274E-05;  1.7486211E+02;
 -1.0000000E-01;  9.9999998E-03; -3.0000001E-01;923;  0.0000000E+00;  0.0000000E+00;  0.0000000E+00;  1.0000875E+03;  1.0000000E-01;  7.2491776E+01;0;  0.0000000E+00;  0.0000000E+00;  0.0000000E+00;0;  1.6117161E-03;  4.0000000E+04;  0.0000000E+00;  0.0000000E+00;  4.0000000E+04;  0.0000000E+00;  4.0000000E+04;  1.5194369E-03;  0.0000000E+00;  9.2279210E-05;  1.4710944E+02;
 -1.0000000E-01;  9.9999998E-03; -2.8999999E-01;924;  0.0000000E+00;  0.0000000E+00;  0.0000000E+00;  1.0000722E+03;  1.0000000E-01;  5.9850159E+01;0;  0.0000000E+00;  0.0000000E+00;  0.0000000E+00;0;  2.0233162E-03;  4.0000000E+04;  0.0000000E+00;  0.0000000E+00;  4.0000000E+04;  0.0000000E+00;  4.0000000E+04;  1.9420951E-03;  0.0000000E+00;  8.1221180E-05;  9.9579735E+01;
 -1.0000000E-01;  9.9999998E-03; -2.8000000E-01;925;  0.0000000E+00;  0.0000000E+00;  0.0000000E+00;  1.0000870E+03;  1.0000000E-01;  7.2096725E+01;0;  0.0000000E+00;  0.0000000E+00;  0.0000000E+00;0;  2.4576746E-03;  4.0000000E+04;  0.0000000E+00;  0.0000000E+00;  4.0000000E+04;  0.0000000E+00;  4.0000000E+04;  2.3955540E-03;  0.0000000E+00;  6.2120693E-05;  3.6427380E+01;
 -9.0000004E-02;  9.9999998E-03; -4.4000000E-01;1000;  0.0000000E+00;  0.0000000E+00;  0.0000000E+00;  1.0000000E+03;  1.0000000E-01;  0.0000000E+00;0;  0.0000000E+00;  0.0000000E+00;  0.0000000E+00;0;  0.0000000E+00;  4.0000000E+04;  0.0000000E+00;  0.0000000E+00;  4.0000000E+04;  0.0000000E+00;  4.0000000E+04;  0.0000000E+00;  0.0000000E+00;  0.0000000E+00;  0.0000000E+00;
 -9.0000004E-02;  9.9999998E-03; -4.3000001E-01;1001;  0.0000000E+00;  0.0000000E+00;  0.0000000E+00;  1.0000000E+03;  1.0000000E-01;  0.0000000E+00;0;  0.0000000E+00;  0.0000000E+00;  0.0000000E+00;0;  2.9499616E-09;  4.0000000E+04;  0.0000000E+00;  0.0000000E+00;  4.0000000E+04;  0.0000000E+00;  4.0000000E+04;  3.1278542E-09;  0.0000000E+00; -1.7789270E-10;  9.5916085E-02;
 -9.0000004E-02;  9.9999998E-03; -4.1999999E-01;1002;  0.0000000E+00;  0.0000000E+00;  0.0000000E+00;  1.0000000E+03;  1.0000000E-01;  0.0000000E+00;0;  0.0000000E+00;  0.0000000E+00;  0.0000000E+00;0;  3.4169614E-07;  4.0000000E+04;  0.0000000E+00;  0.0000000E+00;  4.0000000E+04;  0.0000000E+00;  4.0000000E+04;  2.3651924E-07;  0.0000000E+00;  1.0517691E-07;  1.6186582E+00;
 -9.0000004E-02;  9.9999998E-03; -4.1000000E-01;1003;  0.0000000E+00;  0.0000000E+00;  0.0000000E+00;  1.0000000E+03;  1.0000000E-01;  0.0000000E+00;0;  0.0000000E+00;  0.0000000E+00;  0.0000000E+00;0;  3.0206591E-06;  4.0000000E+04;  0.0000000E+00;  0.0000000E+00;  4.0000000E+04;  0.0000000E+00;  4.0000000E+04;  1.8676097E-06;  0.0000000E+00;  1.1530493E-06;  7.8009491E+00;
 -9.0000004E-02;  9.9999998E-03; -4.0000001E-01;1004;  0.0000000E+00;  0.0000000E+00;  0.0000000E+00;  1.0000000E+03;  1.0000000E-01;  0.0000000E+00;0;  0.0000000E+00;  0.0000000E+00;  0.0000000E+00;0;  1.2614288E-05;  4.0000000E+04;  0.0000000E+00;  0.0000000E+00;  4.0000000E+04;  0.0000000E+00;  4.0000000E+04;  7.7971135E-06;  0.0000000E+00;  4.8171746E-06;  2.2284548E+01;
 -9.0000004E-02;  9.9999998E-03; -3.8999999E-01;1005;  0.0000000E+00;  0.0000000E+00;  0.0000000E+00;  1.0000000E+03;  1.0000000E-01;  0.0000000E+00;0;  0.0000000E+00;  0.0000000E+00;  0.0000000E+00;0;  3.5916768E-05;  4.0000000E+04;  0.0000000E+00;  0.0000000E+00;  4.0000000E+04;  0.0000000E+00;  4.0000000E+04;  2.3197652E-05;  0.0000000E+00;  1.2719115E-05;  4.7305878E+01;
 -9.0000004E-02;  9.9999998E-03; -3.8000000E-01;1006;  0.0000000E+00;  0.0000000E+00;  0.0000000E+00;  1.0000000E+03;  1.0000000E-01;  0.0000000E+00;0;  0.0000000E+00;  0.0000000E+00;  0.0000000E+00;0;  8.1586390E-05;  4.0000000E+04;  0.0000000E+00;  0.0000000E+00;  4.0000000E+04;  0.0000000E+00;  4.0000000E+04;  5.5842542E-05;  0.0000000E+00;  2.5743848E-05;  8.2976540E+01;
 -9.0000004E-02;  9.9999998E-03; -3.7000000E-01;1007;  0.0000000E+00;  0.0000000E+00;  0.0000000E+00;  1.0000407E+03;  1.0000000E-01;  3.3776821E+01;0;  0.0000000E+00;  0.0000000E+00;  0.0000000E+00;0;  1.6004064E-04;  4.0000000E+04;  0.0000000E+00;  0.0000000E+00;  4.0000000E+04;  0.0000000E+00;  4.0000000E+04;  1.1616101E-04;  0.0000000E+00;  4.3879623E-05;  1.2739721E+02;
 -9.0000004E-02;  9.9999998E-03; -3.6000001E-01;1008;  0.0000000E+00;  0.0000000E+00;  0.0000000E+00;  1.0000438E+03;  1.0000000E-01;  3.6245888E+01;0;  0.0000000E+00;  0.0000000E+00;  0.0000000E+00;0;  2.8311997E-04;  4.0000000E+04;  0.0000000E+00;  0.0000000E+00;  4.0000000E+04;  0.0000000E+00;  4.0000000E+04;  2.1683954E-04;  0.0000000E+00;  6.6280430E-05;  1.7695813E+02;
 -9.0000004E-02;  9.9999998E-03; -3.4999999E-01;1009;  0.0000000E+00;  0.0000000E+00;  0.0000000E+00;  1.0000502E+03;  1.0000000E-01;  4.1579071E+01;0;  0.0000000E+00;  0.0000000E+00;  0.0000000E+00;0;  4.6320166E-04;  4.0000000E+04;  0.0000000E+00;  0.0000000E+00;  4.0000000E+04;  0.0000000E+00;  4.0000000E+04;  3.7186008E-04;  0.0000000E+00;  9.1341579E-05;  2.2657841E+02;
 -9.0000004E-02;  9.9999998E-03; -3.4000000E-01;1010;  0.0000000E+00;  0.0000000E+00;  0.0000000E+00;  1.0000684E+03;  1.0000000E-01;  5.6689754E+01;0;  0.0000000E+00;  0.0000000E+00;  0.0000000E+00;0;  7.1164808E-04;  4.0000000E+04;  0.0000000E+00;  0.0000000E+00;  4.0000000E+04;  0.0000000E+00;  4.0000000E+04;  5.9491571E-04;  0.0000000E+00;  1.1673238E-04;  2.6992194E+02;
 -9.0000004E-02;  9.9999998E-03; -3.3000001E-01;1011;  0.0000000E+00;  0.0000000E+00;  0.0000000E+00;  1.0000964E+03;  1.0000000E-01;  7.9800209E+01;0;  0.0000000E+00;  0.0000000E+00;  0.0000000E+00;0;  1.0368095E-03;  4.0000000E+04;  0.0000000E+00;  0.0000000E+00;  4.0000000E+04;  0.0000000E+00;  4.0000000E+04;  8.9735590E-04;  0.0000000E+00;  1.3945356E-04;  2.9976462E+02;
 -9.0000004E-02;  9.9999998E-03; -3.1999999E-01;1012;  0.0000000E+00;  0.0000000E+00;  0.0000000E+00;  1.0001310E+03;  1.0000000E-01;  1.0854014E+02;0;  0.0000000E+00;  0.0000000E+00;  0.0000000E+00;0;  1.4420038E-03;  4.0000000E+04;  0.0000000E+00;  0.0000000E+00;  4.0000000E+04;  0.0000000E+00;  4.0000000E+04;  1.2859754E-03;  0.0000000E+00;  1.5602836E-04;  3.0872372E+02;
 -9.0000004E-02;  9.9999998E-03; -3.1000000E-01;1013;  0.0000000E+00;  0.0000000E+00;  0.0000000E+00;  1.0001481E+03;  1.0000000E-01;  1.2266320E+02;0;  0.0000000E+00;  0.0000000E+00;  0.0000000E+00;0;  1.9240764E-03;  4.0000000E+04;  0.0000000E+00;  0.0000000E+00;  4.0000000E+04;  0.0000000E+00;  4.0000000E+04;  1.7611268E-03;  0.0000000E+00;  1.6294951E-04;  2.9048740E+02;
 -9.0000004E-02;  9.9999998E-03; -3.0000001E-01;1014;  0.0000000E+00;  0.0000000E+00;  0.0000000E+00;  1.0001776E+03;  1.0000000E-01;  1.4715633E+02;0;  0.0000000E+00;  0.0000000E+00;  0.0000000E+00;0;  2.4730554E-03;  4.0000000E+04;  0.0000000E+00;  0.0000000E+00;  4.0000000E+04;  0.0000000E+00;  4.0000000E+04;  2.3156381E-03;  0.0000000E+00;  1.5741721E-04;  2.4147342E+02;
 -9.0000004E-02;  9.9999998E-03; -2.8999999E-01;1015;  0.0000000E+00;  0.0000000E+00;  0.0000000E+00;  1.0001816E+03;  1.0000000E-01;  1.5051427E+02;0;  0.0000000E+00;  0.0000000E+00;  0.0000000E+00;0;  3.0729866E-03;  4.0000000E+04;  0.0000000E+00;  0.0000000E+00;  4.0000000E+04;  0.0000000E+00;  4.0000000E+04;  2.9347879E-03;  0.0000000E+00;  1.3819881E-04;  1.6257112E+02;
 -9.0000004E-02;  9.9999998E-03; -2.8000000E-01;1016;  0.0000000E+00;  0.0000000E+00;  0.0000000E+00;  1.0001988E+03;  1.0000000E-01;  1.6473608E+02;0;  0.0000000E+00;  0.0000000E+00;  0.0000000E+00;0;  3.7035744E-03;  4.0000000E+04;  0.0000000E+00;  0.0000000E+00;  4.0000000E+04;  0.0000000E+00;  4.0000000E+04;  3.5973391E-03;  0.0000000E+00;  1.0623525E-04;  6.2621964E+01;
 -7.9999998E-02;  9.9999998E-03; -4.4000000E-01;1091;  0.0000000E+00;  0.0000000E+00;  0.0000000E+00;  1.0000000E+03;  1.0000000E-01;  0.0000000E+00;0;  0.0000000E+00;  0.0000000E+00;  0.0000000E+00;0; -7.4373652E-10;  4.0000000E+04;  0.0000000E+00;  0.0000000E+00;  4.0000000E+04;  0.0000000E+00;  4.0000000E+04; -3.3306211E-10;  0.0000000E+00; -4.1067444E-10;  1.7766770E-02;
 -7.9999998E-02;  9.9999998E-03; -4.3000001E-01;1092;  0.0000000E+00;  0.0000000E+00;  0.0000000E+00;  1.0000000E+03;  1.0000000E-01;  0.0000000E+00;0;  0.0000000E+00;  0.0000000E+00;  0.0000000E+00;0;  9.9982472E-08;  4.0000000E+04;  0.0000000E+00;  0.0000000E+00;  4.0000000E+04;  0.0000000E+00;  4.0000000E+04;  6.9857578E-08;  0.0000000E+00;  3.0124898E-08;  9.8134172E-01;
 -7.9999998E-02;  9.9999998E-03; -4.1999999E-01;1093;  0.0000000E+00;  0.0000000E+00;  0.0000000E+00;  1.0000000E+03;  1.0000000E-01;  0.0000000E+00;0;  0.0000000E+00;  0.0000000E+00;  0.0000000E+00;0;  1.6713727E-06;  4.0000000E+04;  0.0000000E+00;  0.0000000E+00;  4.0000000E+04;  0.0000000E+00;  4.0000000E+04;  9.3733001E-07;  0.0000000E+00;  7.3404277E-07;  6.5387082E+00;
 -7.9999998E-02;  9.9999998E-03; -4.1000000E-01;1094;  0.0000000E+00;  0.0000000E+00;  0.0000000E+00;  1.0000000E+03;  1.0000000E-01;  0.0000000E+00;0;  0.0000000E+00;  0.0000000E+00;  0.0000000E+00;0;  9.0617541E-06;  4.0000000E+04;  0.0000000E+00;  0.0000000E+00;  4.0000000E+04;  0.0000000E+00;  4.0000000E+04;  4.9292053E-06;  0.0000000E+00;  4.1325484E-06;  2.2086235E+01;
 -7.9999998E-02;  9.9999998E-03; -4.0000001E-01;1095;  0.0000000E+00;  0.0000000E+00;  0.0000000E+00;  1.0000000E+03;  1.0000000E-01;  0.0000000E+00;0;  0.0000000E+00;  0.0000000E+00;  0.0000000E+00;0;  2.9469986E-05;  4.0000000E+04;  0.0000000E+00;  0.0000000E+00;  4.0000000E+04;  0.0000000E+00;  4.0000000E+04;  1.6719559E-05;  0.0000000E+00;  1.2750426E-05;  5.1938622E+01;
 -7.9999998E-02;  9.9999998E-03; -3.8999999E-01;1096;  0.0000000E+00;  0.0000000E+00;  0.0000000E+00;  1.0000000E+03;  1.0000000E-01;  0.0000000E+00;0;  0.0000000E+00;  0.0000000E+00;  0.0000000E+00;0;  7.2253104E-05;  4.0000000E+04;  0.0000000E+00;  0.0000000E+00;  4.0000000E+04;  0.0000000E+00;  4.0000000E+04;  4.3886637E-05;  0.0000000E+00;  2.8366469E-05;  9.7563820E+01;
 -7.9999998E-02;  9.9999998E-03; -3.8000000E-01;1097;  0.0000000E+00;  0.0000000E+00;  0.0000000E+00;  1.0000444E+03;  1.0000000E-01;  3.6739700E+01;0;  0.0000000E+00;  0.0000000E+00;  0.0000000E+00;0;  1.4882907E-04;  4.0000000E+04;  0.0000000E+00;  0.0000000E+00;  4.0000000E+04;  0.0000000E+00;  4.0000000E+04;  9.7292512E-05;  0.0000000E+00;  5.1536565E-05;  1.5747960E+02;
 -7.9999998E-02;  9.9999998E-03; -3.7000000E-01;1098;  0.0000000E+00;  0.0000000E+00;  0.0000000E+00;  1.0000494E+03;  1.0000000E-01;  4.0986496E+01;0;  0.0000000E+00;  0.0000000E+00;  0.0000000E+00;0;  2.7278831E-04;  4.0000000E+04;  0.0000000E+00;  0.0000000E+00;  4.0000000E+04;  0.0000000E+00;  4.0000000E+04;  1.9111602E-04;  0.0000000E+00;  8.1672290E-05;  2.2782901E+02;
 -7.9999998E-02;  9.9999998E-03; -3.6000001E-01;1099;  0.0000000E+00;  0.0000000E+00;  0.0000000E+00;  1.0000682E+03;  1.0000000E-01;  5.6492229E+01;0;  0.0000000E+00;  0.0000000E+00;  0.0000000E+00;0;  4.5951284E-04;  4.0000000E+04;  0.0000000E+00;  0.0000000E+00;  4.0000000E+04;  0.0000000E+00;  4.0000000E+04;  3.4230121E-04;  0.0000000E+00;  1.1721162E-04;  3.0284106E+02;
 -7.9999998E-02;  9.9999998E-03; -3.4999999E-01;1100;  0.0000000E+00;  0.0000000E+00;  0.0000000E+00;  1.0000985E+03;  1.0000000E-01;  8.1577942E+01;0;  0.0000000E+00;  0.0000000E+00;  0.0000000E+00;0;  7.2498026E-04;  4.0000000E+04;  0.0000000E+00;  0.0000000E+00;  4.0000000E+04;  0.0000000E+00;  4.0000000E+04;  5.6928629E-04;  0.0000000E+00;  1.5569397E-04;  3.7506757E+02;
 -7.9999998E-02;  9.9999998E-03; -3.4000000E-01;1101;  0.0000000E+00;  0.0000000E+00;  0.0000000E+00;  1.0001544E+03;  1.0000000E-01;  1.2789761E+02;0;  0.0000000E+00;  0.0000000E+00;  0.0000000E+00;0;  1.0836750E-03;  4.0000000E+04;  0.0000000E+00;  0.0000000E+00;  4.0000000E+04;  0.0000000E+00;  4.0000000E+04;  8.8994129E-04;  0.0000000E+00;  1.9373366E-04;  4.3553915E+02;
 -7.9999998E-02;  9.9999998E-03; -3.3000001E-01;1102;  0.0000000E+00;  0.0000000E+00;  0.0000000E+00;  1.0002026E+03;  1.0000000E-01;  1.6779773E+02;0;  0.0000000E+00;  0.0000000E+00;  0.0000000E+00;0;  1.5459281E-03;  4.0000000E+04;  0.0000000E+00;  0.0000000E+00;  4.0000000E+04;  0.0000000E+00;  4.0000000E+04;  1.3188982E-03;  0.0000000E+00;  2.2702990E-04;  4.7419559E+02;
 -7.9999998E-02;  9.9999998E-03; -3.1999999E-01;1103;  0.0000000E+00;  0.0000000E+00;  0.0000000E+00;  1.0002407E+03;  1.0000000E-01;  1.9940176E+02;0;  0.0000000E+00;  0.0000000E+00;  0.0000000E+00;0;  2.1152806E-03;  4.0000000E+04;  0.0000000E+00;  0.0000000E+00;  4.0000000E+04;  0.0000000E+00;  4.0000000E+04;  1.8646865E-03;  0.0000000E+00;  2.5059408E-04;  4.8086606E+02;
 -7.9999998E-02;  9.9999998E-03; -3.1000000E-01;1104;  0.0000000E+00;  0.0000000E+00;  0.0000000E+00;  1.0002788E+03;  1.0000000E-01;  2.3100581E+02;0;  0.0000000E+00;  0.0000000E+00;  0.0000000E+00;0;  2.7866727E-03;  4.0000000E+04;  0.0000000E+00;  0.0000000E+00;  4.0000000E+04;  0.0000000E+00;  4.0000000E+04;  2.5272931E-03;  0.0000000E+00;  2.5937974E-04;  4.4706879E+02;
 -7.9999998E-02;  9.9999998E-03; -3.0000001E-01;1105;  0.0000000E+00;  0.0000000E+00;  0.0000000E+00;  1.0003287E+03;  1.0000000E-01;  2.7238736E+02;0;  0.0000000E+00;  0.0000000E+00;  0.0000000E+00;0;  3.5460829E-03;  4.0000000E+04;  0.0000000E+00;  0.0000000E+00;  4.0000000E+04;  0.0000000E+00;  4.0000000E+04;  3.2967241E-03;  0.0000000E+00;  2.4935877E-04;  3.6842822E+02;
 -7.9999998E-02;  9.9999998E-03; -2.8999999E-01;1106;  0.0000000E+00;  0.0000000E+00;  0.0000000E+00;  1.0003688E+03;  1.0000000E-01;  3.0557159E+02;0;  0.0000000E+00;  0.0000000E+00;  0.0000000E+00;0;  4.3717516E-03;  4.0000000E+04;  0.0000000E+00;  0.0000000E+00;  4.0000000E+04;  0.0000000E+00;  4.0000000E+04;  4.1529560E-03;  0.0000000E+00;  2.1879563E-04;  2.4745735E+02;
 -7.9999998E-02;  9.9999998E-03; -2.8000000E-01;1107;  0.0000000E+00;  0.0000000E+00;  0.0000000E+00;  1.0004025E+03;  1.0000000E-01;  3.3352142E+02;0;  0.0000000E+00;  0.0000000E+00;  0.0000000E+00;0;  5.2364594E-03;  4.0000000E+04;  0.0000000E+00;  0.0000000E+00;  4.0000000E+04;  0.0000000E+00;  4.0000000E+04;  5.0673098E-03;  0.0000000E+00;  1.6914938E-04;  1.0134135E+02;
 -7.0000000E-02;  9.9999998E-03; -4.4000000E-01;1182;  0.0000000E+00;  0.0000000E+00;  0.0000000E+00;  1.0000000E+03;  1.0000000E-01;  0.0000000E+00;0;  0.0000000E+00;  0.0000000E+00;  0.0000000E+00;0;  1.2844676E-09;  4.0000000E+04;  0.0000000E+00;  0.0000000E+00;  4.0000000E+04;  0.0000000E+00;  4.0000000E+04;  3.0721887E-09;  0.0000000E+00; -1.7877211E-09;  3.4184560E-01;
 -7.0000000E-02;  9.9999998E-03; -4.3000001E-01;1183;  0.0000000E+00;  0.0000000E+00;  0.0000000E+00;  1.0000000E+03;  1.0000000E-01;  0.0000000E+00;0;  0.0000000E+00;  0.0000000E+00;  0.0000000E+00;0;  5.8680700E-07;  4.0000000E+04;  0.0000000E+00;  0.0000000E+00;  4.0000000E+04;  0.0000000E+00;  4.0000000E+04;  3.0281208E-07;  0.0000000E+00;  2.8399495E-07;  4.0713549E+00;
 -7.0000000E-02;  9.9999998E-03; -4.1999999E-01;1184;  0.0000000E+00;  0.0000000E+00;  0.0000000E+00;  1.0000000E+03;  1.0000000E-01;  0.0000000E+00;0;  0.0000000E+00;  0.0000000E+00;  0.0000000E+00;0;  5.1002198E-06;  4.0000000E+04;  0.0000000E+00;  0.0000000E+00;  4.0000000E+04;  0.0000000E+00;  4.0000000E+04;  2.4127983E-06;  0.0000000E+00;  2.6874216E-06;  1.7824789E+01;
 -7.0000000E-02;  9.9999998E-03; -4.1000000E-01;1185;  0.0000000E+00;  0.0000000E+00;  0.0000000E+00;  1.0000000E+03;  1.0000000E-01;  0.0000000E+00;0;  0.0000000E+00;  0.0000000E+00;  0.0000000E+00;0;  2.0589188E-05;  4.0000000E+04;  0.0000000E+00;  0.0000000E+00;  4.0000000E+04;  0.0000000E+00;  4.0000000E+04;  1.0034530E-05;  0.0000000E+00;  1.0554659E-05;  4.8747643E+01;
 -7.0000000E-02;  9.9999998E-03; -4.0000001E-01;1186;  0.0000000E+00;  0.0000000E+00;  0.0000000E+00;  1.0000000E+03;  1.0000000E-01;  0.0000000E+00;0;  0.0000000E+00;  0.0000000E+00;  0.0000000E+00;0;  5.6781402E-05;  4.0000000E+04;  0.0000000E+00;  0.0000000E+00;  4.0000000E+04;  0.0000000E+00;  4.0000000E+04;  2.9801415E-05;  0.0000000E+00;  2.6979988E-05;  1.0096126E+02;
 -7.0000000E-02;  9.9999998E-03; -3.8999999E-01;1187;  0.0000000E+00;  0.0000000E+00;  0.0000000E+00;  1.0000443E+03;  1.0000000E-01;  3.6739700E+01;0;  0.0000000E+00;  0.0000000E+00;  0.0000000E+00;0;  1.2552635E-04;  4.0000000E+04;  0.0000000E+00;  0.0000000E+00;  4.0000000E+04;  0.0000000E+00;  4.0000000E+04;  7.1939132E-05;  0.0000000E+00;  5.3587217E-05;  1.7437535E+02;
 -7.0000000E-02;  9.9999998E-03; -3.8000000E-01;1188;  0.0000000E+00;  0.0000000E+00;  0.0000000E+00;  1.0000561E+03;  1.0000000E-01;  4.6517204E+01;0;  0.0000000E+00;  0.0000000E+00;  0.0000000E+00;0;  2.4110067E-04;  4.0000000E+04;  0.0000000E+00;  0.0000000E+00;  4.0000000E+04;  0.0000000E+00;  4.0000000E+04;  1.5072185E-04;  0.0000000E+00;  9.0378817E-05;  2.6537335E+02;
 -7.0000000E-02;  9.9999998E-03; -3.7000000E-01;1189;  0.0000000E+00;  0.0000000E+00;  0.0000000E+00;  1.0000927E+03;  1.0000000E-01;  7.6837334E+01;0;  0.0000000E+00;  0.0000000E+00;  0.0000000E+00;0;  4.2054069E-04;  4.0000000E+04;  0.0000000E+00;  0.0000000E+00;  4.0000000E+04;  0.0000000E+00;  4.0000000E+04;  2.8448305E-04;  0.0000000E+00;  1.3605766E-04;  3.6779480E+02;
 -7.0000000E-02;  9.9999998E-03; -3.6000001E-01;1190;  0.0000000E+00;  0.0000000E+00;  0.0000000E+00;  1.0001207E+03;  1.0000000E-01;  1.0004655E+02;0;  0.0000000E+00;  0.0000000E+00;  0.0000000E+00;0;  6.8318925E-04;  4.0000000E+04;  0.0000000E+00;  0.0000000E+00;  4.0000000E+04;  0.0000000E+00;  4.0000000E+04;  4.9492129E-04;  0.0000000E+00;  1.8826799E-04;  4.7345123E+02;
 -7.0000000E-02;  9.9999998E-03; -3.4999999E-01;1191;  0.0000000E+00;  0.0000000E+00;  0.0000000E+00;  1.0001866E+03;  1.0000000E-01;  1.5456352E+02;0;  0.0000000E+00;  0.0000000E+00;  0.0000000E+00;0;  1.0491072E-03;  4.0000000E+04;  0.0000000E+00;  0.0000000E+00;  4.0000000E+04;  0.0000000E+00;  4.0000000E+04;  8.0550142E-04;  0.0000000E+00;  2.4360578E-04;  5.7224194E+02;
 -7.0000000E-02;  9.9999998E-03; -3.4000000E-01;1192;  0.0000000E+00;  0.0000000E+00;  0.0000000E+00;  1.0002681E+03;  1.0000000E-01;  2.2211717E+02;0;  0.0000000E+00;  0.0000000E+00;  0.0000000E+00;0;  1.5363540E-03;  4.0000000E+04;  0.0000000E+00;  0.0000000E+00;  4.0000000E+04;  0.0000000E+00;  4.0000000E+04;  1.2388785E-03;  0.0000000E+00;  2.9747555E-04;  6.5218207E+02;
 -7.0000000E-02;  9.9999998E-03; -3.3000001E-01;1193;  0.0000000E+00;  0.0000000E+00;  0.0000000E+00;  1.0003360E+03;  1.0000000E-01;  2.7841187E+02;0;  0.0000000E+00;  0.0000000E+00;  0.0000000E+00;0;  2.1575547E-03;  4.0000000E+04;  0.0000000E+00;  0.0000000E+00;  4.0000000E+04;  0.0000000E+00;  4.0000000E+04;  1.8135429E-03;  0.0000000E+00;  3.4401173E-04;  6.9987488E+02;
 -7.0000000E-02;  9.9999998E-03; -3.1999999E-01;1194;  0.0000000E+00;  0.0000000E+00;  0.0000000E+00;  1.0004279E+03;  1.0000000E-01;  3.5455786E+02;0;  0.0000000E+00;  0.0000000E+00;  0.0000000E+00;0;  2.9165328E-03;  4.0000000E+04;  0.0000000E+00;  0.0000000E+00;  4.0000000E+04;  0.0000000E+00;  4.0000000E+04;  2.5401958E-03;  0.0000000E+00;  3.7633689E-04;  7.0180573E+02;
 -7.0000000E-02;  9.9999998E-03; -3.1000000E-01;1195;  0.0000000E+00;  0.0000000E+00;  0.0000000E+00;  1.0004946E+03;  1.0000000E-01;  4.0976617E+02;0;  0.0000000E+00;  0.0000000E+00;  0.0000000E+00;0;  3.8059929E-03;  4.0000000E+04;  0.0000000E+00;  0.0000000E+00;  4.0000000E+04;  0.0000000E+00;  4.0000000E+04;  3.4185774E-03;  0.0000000E+00;  3.8741544E-04;  6.4686127E+02;
 -7.0000000E-02;  9.9999998E-03; -3.0000001E-01;1196;  0.0000000E+00;  0.0000000E+00;  0.0000000E+00;  1.0005718E+03;  1.0000000E-01;  4.7366562E+02;0;  0.0000000E+00;  0.0000000E+00;  0.0000000E+00;0;  4.8070853E-03;  4.0000000E+04;  0.0000000E+00;  0.0000000E+00;  4.0000000E+04;  0.0000000E+00;  4.0000000E+04;  4.4355113E-03;  0.0000000E+00;  3.7157407E-04;  5.2980890E+02;
 -7.0000000E-02;  9.9999998E-03; -2.8999999E-01;1197;  0.0000000E+00;  0.0000000E+00;  0.0000000E+00;  1.0006440E+03;  1.0000000E-01;  5.3361456E+02;0;  0.0000000E+00;  0.0000000E+00;  0.0000000E+00;0;  5.8911038E-03;  4.0000000E+04;  0.0000000E+00;  0.0000000E+00;  4.0000000E+04;  0.0000000E+00;  4.0000000E+04;  5.5647530E-03;  0.0000000E+00;  3.2635068E-04;  3.5566907E+02;
 -7.0000000E-02;  9.9999998E-03; -2.8000000E-01;1198;  0.0000000E+00;  0.0000000E+00;  0.0000000E+00;  1.0007167E+03;  1.0000000E-01;  5.9376099E+02;0;  0.0000000E+00;  0.0000000E+00;  0.0000000E+00;0;  7.0225783E-03;  4.0000000E+04;  0.0000000E+00;  0.0000000E+00;  4.0000000E+04;  0.0000000E+00;  4.0000000E+04;  6.7687584E-03;  0.0000000E+00;  2.5381974E-04;  1.5452388E+02;
 -5.9999999E-02;  9.9999998E-03; -4.4000000E-01;1273;  0.0000000E+00;  0.0000000E+00;  0.0000000E+00;  1.0000000E+03;  1.0000000E-01;  0.0000000E+00;0;  0.0000000E+00;  0.0000000E+00;  0.0000000E+00;0;  8.2103981E-08;  4.0000000E+04;  0.0000000E+00;  0.0000000E+00;  4.0000000E+04;  0.0000000E+00;  4.0000000E+04;  3.8971798E-08;  0.0000000E+00;  4.3132179E-08;  1.6724534E+00;
 -5.9999999E-02;  9.9999998E-03; -4.3000001E-01;1274;  0.0000000E+00;  0.0000000E+00;  0.0000000E+00;  1.0000000E+03;  1.0000000E-01;  0.0000000E+00;0;  0.0000000E+00;  0.0000000E+00;  0.0000000E+00;0;  1.9923100E-06;  4.0000000E+04;  0.0000000E+00;  0.0000000E+00;  4.0000000E+04;  0.0000000E+00;  4.0000000E+04;  8.0579122E-07;  0.0000000E+00;  1.1865187E-06;  1.1132357E+01;
 -5.9999999E-02;  9.9999998E-03; -4.1999999E-01;1275;  0.0000000E+00;  0.0000000E+00;  0.0000000E+00;  1.0000000E+03;  1.0000000E-01;  0.0000000E+00;0;  0.0000000E+00;  0.0000000E+00;  0.0000000E+00;0;  1.1608252E-05;  4.0000000E+04;  0.0000000E+00;  0.0000000E+00;  4.0000000E+04;  0.0000000E+00;  4.0000000E+04;  4.7439444E-06;  0.0000000E+00;  6.8643080E-06;  3.8044106E+01;
 -5.9999999E-02;  9.9999998E-03; -4.1000000E-01;1276;  0.0000000E+00;  0.0000000E+00;  0.0000000E+00;  1.0000000E+03;  1.0000000E-01;  0.0000000E+00;0;  0.0000000E+00;  0.0000000E+00;  0.0000000E+00;0;  3.8561608E-05;  4.0000000E+04;  0.0000000E+00;  0.0000000E+00;  4.0000000E+04;  0.0000000E+00;  4.0000000E+04;  1.6980490E-05;  0.0000000E+00;  2.1581120E-05;  9.0557678E+01;
 -5.9999999E-02;  9.9999998E-03; -4.0000001E-01;1277;  0.0000000E+00;  0.0000000E+00;  0.0000000E+00;  1.0000315E+03;  1.0000000E-01;  2.6073338E+01;0;  0.0000000E+00;  0.0000000E+00;  0.0000000E+00;0;  9.4850133E-05;  4.0000000E+04;  0.0000000E+00;  0.0000000E+00;  4.0000000E+04;  0.0000000E+00;  4.0000000E+04;  4.6170982E-05;  0.0000000E+00;  4.8679150E-05;  1.7175331E+02;
 -5.9999999E-02;  9.9999998E-03; -3.8999999E-01;1278;  0.0000000E+00;  0.0000000E+00;  0.0000000E+00;  1.0000620E+03;  1.0000000E-01;  5.1356571E+01;0;  0.0000000E+00;  0.0000000E+00;  0.0000000E+00;0;  1.9465599E-04;  4.0000000E+04;  0.0000000E+00;  0.0000000E+00;  4.0000000E+04;  0.0000000E+00;  4.0000000E+04;  1.0529490E-04;  0.0000000E+00;  8.9361085E-05;  2.7936682E+02;
 -5.9999999E-02;  9.9999998E-03; -3.8000000E-01;1279;  0.0000000E+00;  0.0000000E+00;  0.0000000E+00;  1.0000936E+03;  1.0000000E-01;  7.7528671E+01;0;  0.0000000E+00;  0.0000000E+00;  0.0000000E+00;0;  3.5512340E-04;  4.0000000E+04;  0.0000000E+00;  0.0000000E+00;  4.0000000E+04;  0.0000000E+00;  4.0000000E+04;  2.1219350E-04;  0.0000000E+00;  1.4292990E-04;  4.0730023E+02;
 -5.9999999E-02;  9.9999998E-03; -3.7000000E-01;1280;  0.0000000E+00;  0.0000000E+00;  0.0000000E+00;  1.0001429E+03;  1.0000000E-01;  1.1841640E+02;0;  0.0000000E+00;  0.0000000E+00;  0.0000000E+00;0;  5.9692899E-04;  4.0000000E+04;  0.0000000E+00;  0.0000000E+00;  4.0000000E+04;  0.0000000E+00;  4.0000000E+04;  3.8958481E-04;  0.0000000E+00;  2.0734417E-04;  5.4693341E+02;
 -5.9999999E-02;  9.9999998E-03; -3.6000001E-01;1281;  0.0000000E+00;  0.0000000E+00;  0.0000000E+00;  1.0002258E+03;  1.0000000E-01;  1.8705644E+02;0;  0.0000000E+00;  0.0000000E+00;  0.0000000E+00;0;  9.4370637E-04;  4.0000000E+04;  0.0000000E+00;  0.0000000E+00;  4.0000000E+04;  0.0000000E+00;  4.0000000E+04;  6.6424493E-04;  0.0000000E+00;  2.7946141E-04;  6.8755615E+02;
 -5.9999999E-02;  9.9999998E-03; -3.4999999E-01;1282;  0.0000000E+00;  0.0000000E+00;  0.0000000E+00;  1.0003245E+03;  1.0000000E-01;  2.6883191E+02;0;  0.0000000E+00;  0.0000000E+00;  0.0000000E+00;0;  1.4200197E-03;  4.0000000E+04;  0.0000000E+00;  0.0000000E+00;  4.0000000E+04;  0.0000000E+00;  4.0000000E+04;  1.0651022E-03;  0.0000000E+00;  3.5491749E-04;  8.1625470E+02;
 -5.9999999E-02;  9.9999998E-03; -3.4000000E-01;1283;  0.0000000E+00;  0.0000000E+00;  0.0000000E+00;  1.0004340E+03;  1.0000000E-01;  3.5949600E+02;0;  0.0000000E+00;  0.0000000E+00;  0.0000000E+00;0;  2.0479553E-03;  4.0000000E+04;  0.0000000E+00;  0.0000000E+00;  4.0000000E+04;  0.0000000E+00;  4.0000000E+04;  1.6201505E-03;  0.0000000E+00;  4.2780477E-04;  9.1773920E+02;
 -5.9999999E-02;  9.9999998E-03; -3.3000001E-01;1284;  0.0000000E+00;  0.0000000E+00;  0.0000000E+00;  1.0005474E+03;  1.0000000E-01;  4.5351804E+02;0;  0.0000000E+00;  0.0000000E+00;  0.0000000E+00;0;  2.8428468E-03;  4.0000000E+04;  0.0000000E+00;  0.0000000E+00;  4.0000000E+04;  0.0000000E+00;  4.0000000E+04;  2.3523883E-03;  0.0000000E+00;  4.9045857E-04;  9.7476251E+02;
 -5.9999999E-02;  9.9999998E-03; -3.1999999E-01;1285;  0.0000000E+00;  0.0000000E+00;  0.0000000E+00;  1.0006637E+03;  1.0000000E-01;  5.4981158E+02;0;  0.0000000E+00;  0.0000000E+00;  0.0000000E+00;0;  3.8090143E-03;  4.0000000E+04;  0.0000000E+00;  0.0000000E+00;  4.0000000E+04;  0.0000000E+00;  4.0000000E+04;  3.2753008E-03;  0.0000000E+00;  5.3371355E-04;  9.6983740E+02;
 -5.9999999E-02;  9.9999998E-03; -3.1000000E-01;1286;  0.0000000E+00;  0.0000000E+00;  0.0000000E+00;  1.0007968E+03;  1.0000000E-01;  6.6012946E+02;0;  0.0000000E+00;  0.0000000E+00;  0.0000000E+00;0;  4.9367445E-03;  4.0000000E+04;  0.0000000E+00;  0.0000000E+00;  4.0000000E+04;  0.0000000E+00;  4.0000000E+04;  4.3887384E-03;  0.0000000E+00;  5.4800586E-04;  8.8854999E+02;
 -5.9999999E-02;  9.9999998E-03; -3.0000001E-01;1287;  0.0000000E+00;  0.0000000E+00;  0.0000000E+00;  1.0009208E+03;  1.0000000E-01;  7.6294141E+02;0;  0.0000000E+00;  0.0000000E+00;  0.0000000E+00;0;  6.2016770E-03;  4.0000000E+04;  0.0000000E+00;  0.0000000E+00;  4.0000000E+04;  0.0000000E+00;  4.0000000E+04;  5.6762174E-03;  0.0000000E+00;  5.2545959E-04;  7.2457562E+02;
 -5.9999999E-02;  9.9999998E-03; -2.8999999E-01;1288;  0.0000000E+00;  0.0000000E+00;  0.0000000E+00;  1.0010499E+03;  1.0000000E-01;  8.6980255E+02;0;  0.0000000E+00;  0.0000000E+00;  0.0000000E+00;0;  7.5669750E-03;  4.0000000E+04;  0.0000000E+00;  0.0000000E+00;  4.0000000E+04;  0.0000000E+00;  4.0000000E+04;  7.1044620E-03;  0.0000000E+00;  4.6251275E-04;  4.8622348E+02;
 -5.9999999E-02;  9.9999998E-03; -2.8000000E-01;1289;  0.0000000E+00;  0.0000000E+00;  0.0000000E+00;  1.0011721E+03;  1.0000000E-01;  9.7103424E+02;0;  0.0000000E+00;  0.0000000E+00;  0.0000000E+00;0;  8.9874836E-03;  4.0000000E+04;  0.0000000E+00;  0.0000000E+00;  4.0000000E+04;  0.0000000E+00;  4.0000000E+04;  8.6256005E-03;  0.0000000E+00;  3.6188276E-04;  2.2089412E+02;
 -5.0000001E-02;  9.9999998E-03; -4.4000000E-01;1364;  0.0000000E+00;  0.0000000E+00;  0.0000000E+00;  1.0000000E+03;  1.0000000E-01;  0.0000000E+00;0;  0.0000000E+00;  0.0000000E+00;  0.0000000E+00;0;  3.9874482E-07;  4.0000000E+04;  0.0000000E+00;  0.0000000E+00;  4.0000000E+04;  0.0000000E+00;  4.0000000E+04;  1.2203895E-07;  0.0000000E+00;  2.7670586E-07;  4.8811035E+00;
 -5.0000001E-02;  9.9999998E-03; -4.3000001E-01;1365;  0.0000000E+00;  0.0000000E+00;  0.0000000E+00;  1.0000000E+03;  1.0000000E-01;  0.0000000E+00;0;  0.0000000E+00;  0.0000000E+00;  0.0000000E+00;0;  4.7515850E-06;  4.0000000E+04;  0.0000000E+00;  0.0000000E+00;  4.0000000E+04;  0.0000000E+00;  4.0000000E+04;  1.5530341E-06;  0.0000000E+00;  3.1985508E-06;  2.3522280E+01;
 -5.0000001E-02;  9.9999998E-03; -4.1999999E-01;1366;  0.0000000E+00;  0.0000000E+00;  0.0000000E+00;  1.0000000E+03;  1.0000000E-01;  0.0000000E+00;0;  0.0000000E+00;  0.0000000E+00;  0.0000000E+00;0;  2.1473579E-05;  4.0000000E+04;  0.0000000E+00;  0.0000000E+00;  4.0000000E+04;  0.0000000E+00;  4.0000000E+04;  7.6311881E-06;  0.0000000E+00;  1.3842391E-05;  6.8405548E+01;
 -5.0000001E-02;  9.9999998E-03; -4.1000000E-01;1367;  0.0000000E+00;  0.0000000E+00;  0.0000000E+00;  1.0000088E+03;  1.0000000E-01;  7.3084354E+00;0;  0.0000000E+00;  0.0000000E+00;  0.0000000E+00;0;  6.2414423E-05;  4.0000000E+04;  0.0000000E+00;  0.0000000E+00;  4.0000000E+04;  0.0000000E+00;  4.0000000E+04;  2.4824845E-05;  0.0000000E+00;  3.7589576E-05;  1.4788248E+02;
 -5.0000001E-02;  9.9999998E-03; -4.0000001E-01;1368;  0.0000000E+00;  0.0000000E+00;  0.0000000E+00;  1.0000590E+03;  1.0000000E-01;  4.8887505E+01;0;  0.0000000E+00;  0.0000000E+00;  0.0000000E+00;0;  1.4145981E-04;  4.0000000E+04;  0.0000000E+00;  0.0000000E+00;  4.0000000E+04;  0.0000000E+00;  4.0000000E+04;  6.3725303E-05;  0.0000000E+00;  7.7734498E-05;  2.6330914E+02;
 -5.0000001E-02;  9.9999998E-03; -3.8999999E-01;1369;  0.0000000E+00;  0.0000000E+00;  0.0000000E+00;  1.0000916E+03;  1.0000000E-01;  7.5849709E+01;0;  0.0000000E+00;  0.0000000E+00;  0.0000000E+00;0;  2.7484132E-04;  4.0000000E+04;  0.0000000E+00;  0.0000000E+00;  4.0000000E+04;  0.0000000E+00;  4.0000000E+04;  1.3997030E-04;  0.0000000E+00;  1.3487104E-04;  4.0985718E+02;
 -5.0000001E-02;  9.9999998E-03; -3.8000000E-01;1370;  0.0000000E+00;  0.0000000E+00;  0.0000000E+00;  1.0001483E+03;  1.0000000E-01;  1.2286073E+02;0;  0.0000000E+00;  0.0000000E+00;  0.0000000E+00;0;  4.8245804E-04;  4.0000000E+04;  0.0000000E+00;  0.0000000E+00;  4.0000000E+04;  0.0000000E+00;  4.0000000E+04;  2.7488646E-04;  0.0000000E+00;  2.0757157E-04;  5.7883087E+02;
 -5.0000001E-02;  9.9999998E-03; -3.7000000E-01;1371;  0.0000000E+00;  0.0000000E+00;  0.0000000E+00;  1.0002347E+03;  1.0000000E-01;  1.9446364E+02;0;  0.0000000E+00;  0.0000000E+00;  0.0000000E+00;0;  7.8865082E-04;  4.0000000E+04;  0.0000000E+00;  0.0000000E+00;  4.0000000E+04;  0.0000000E+00;  4.0000000E+04;  4.9553299E-04;  0.0000000E+00;  2.9311783E-04;  7.5917914E+02;
 -5.0000001E-02;  9.9999998E-03; -3.6000001E-01;1372;  0.0000000E+00;  0.0000000E+00;  0.0000000E+00;  1.0003562E+03;  1.0000000E-01;  2.9510275E+02;0;  0.0000000E+00;  0.0000000E+00;  0.0000000E+00;0;  1.2214949E-03;  4.0000000E+04;  0.0000000E+00;  0.0000000E+00;  4.0000000E+04;  0.0000000E+00;  4.0000000E+04;  8.3380821E-04;  0.0000000E+00;  3.8768665E-04;  9.3776141E+02;
 -5.0000001E-02;  9.9999998E-03; -3.4999999E-01;1373;  0.0000000E+00;  0.0000000E+00;  0.0000000E+00;  1.0004910E+03;  1.0000000E-01;  4.0680331E+02;0;  0.0000000E+00;  0.0000000E+00;  0.0000000E+00;0;  1.8103261E-03;  4.0000000E+04;  0.0000000E+00;  0.0000000E+00;  4.0000000E+04;  0.0000000E+00;  4.0000000E+04;  1.3242937E-03;  0.0000000E+00;  4.8603248E-04;  1.0988588E+03;
 -5.0000001E-02;  9.9999998E-03; -3.4000000E-01;1374;  0.0000000E+00;  0.0000000E+00;  0.0000000E+00;  1.0006387E+03;  1.0000000E-01;  5.2917023E+02;0;  0.0000000E+00;  0.0000000E+00;  0.0000000E+00;0;  2.5816662E-03;  4.0000000E+04;  0.0000000E+00;  0.0000000E+00;  4.0000000E+04;  0.0000000E+00;  4.0000000E+04;  2.0007379E-03;  0.0000000E+00;  5.8092817E-04;  1.2237023E+03;
 -5.0000001E-02;  9.9999998E-03; -3.3000001E-01;1375;  0.0000000E+00;  0.0000000E+00;  0.0000000E+00;  1.0008116E+03;  1.0000000E-01;  6.7237604E+02;0;  0.0000000E+00;  0.0000000E+00;  0.0000000E+00;0;  3.5540138E-03;  4.0000000E+04;  0.0000000E+00;  0.0000000E+00;  4.0000000E+04;  0.0000000E+00;  4.0000000E+04;  2.8912697E-03;  0.0000000E+00;  6.6274410E-04;  1.2907871E+03;
 -5.0000001E-02;  9.9999998E-03; -3.1999999E-01;1376;  0.0000000E+00;  0.0000000E+00;  0.0000000E+00;  1.0009973E+03;  1.0000000E-01;  8.2624823E+02;0;  0.0000000E+00;  0.0000000E+00;  0.0000000E+00;0;  4.7325236E-03;  4.0000000E+04;  0.0000000E+00;  0.0000000E+00;  4.0000000E+04;  0.0000000E+00;  4.0000000E+04;  4.0128934E-03;  0.0000000E+00;  7.1963016E-04;  1.2778295E+03;
 -5.0000001E-02;  9.9999998E-03; -3.1000000E-01;1377;  0.0000000E+00;  0.0000000E+00;  0.0000000E+00;  1.0012079E+03;  1.0000000E-01;  1.0006631E+03;0;  0.0000000E+00;  0.0000000E+00;  0.0000000E+00;0;  6.1050626E-03;  4.0000000E+04;  0.0000000E+00;  0.0000000E+00;  4.0000000E+04;  0.0000000E+00;  4.0000000E+04;  5.3662034E-03;  0.0000000E+00;  7.3885894E-04;  1.1662598E+03;
 -5.0000001E-02;  9.9999998E-03; -3.0000001E-01;1378;  0.0000000E+00;  0.0000000E+00;  0.0000000E+00;  1.0014124E+03;  1.0000000E-01;  1.1701398E+03;0;  0.0000000E+00;  0.0000000E+00;  0.0000000E+00;0;  7.6411809E-03;  4.0000000E+04;  0.0000000E+00;  0.0000000E+00;  4.0000000E+04;  0.0000000E+00;  4.0000000E+04;  6.9315983E-03;  0.0000000E+00;  7.0958259E-04;  9.4798364E+02;
 -5.0000001E-02;  9.9999998E-03; -2.8999999E-01;1379;  0.0000000E+00;  0.0000000E+00;  0.0000000E+00;  1.0016059E+03;  1.0000000E-01;  1.3304315E+03;0;  0.0000000E+00;  0.0000000E+00;  0.0000000E+00;0;  9.2947632E-03;  4.0000000E+04;  0.0000000E+00;  0.0000000E+00;  4.0000000E+04;  0.0000000E+00;  4.0000000E+04;  8.6682299E-03;  0.0000000E+00;  6.2653364E-04;  6.3484259E+02;
 -5.0000001E-02;  9.9999998E-03; -2.8000000E-01;1380;  0.0000000E+00;  0.0000000E+00;  0.0000000E+00;  1.0017997E+03;  1.0000000E-01;  1.4910195E+03;0;  0.0000000E+00;  0.0000000E+00;  0.0000000E+00;0;  1.1009580E-02;  4.0000000E+04;  0.0000000E+00;  0.0000000E+00;  4.0000000E+04;  0.0000000E+00;  4.0000000E+04;  1.0516593E-02;  0.0000000E+00;  4.9298757E-04;  2.9471408E+02;
 -3.9999999E-02;  9.9999998E-03; -4.4000000E-01;1455;  0.0000000E+00;  0.0000000E+00;  0.0000000E+00;  1.0000000E+03;  1.0000000E-01;  0.0000000E+00;0;  0.0000000E+00;  0.0000000E+00;  0.0000000E+00;0;  1.1138220E-06;  4.0000000E+04;  0.0000000E+00;  0.0000000E+00;  4.0000000E+04;  0.0000000E+00;  4.0000000E+04;  2.3108564E-07;  0.0000000E+00;  8.8273640E-07;  1.0579955E+01;
 -3.9999999E-02;  9.9999998E-03; -4.3000001E-01;1456;  0.0000000E+00;  0.0000000E+00;  0.0000000E+00;  1.0000000E+03;  1.0000000E-01;  0.0000000E+00;0;  0.0000000E+00;  0.0000000E+00;  0.0000000E+00;0;  8.8974048E-06;  4.0000000E+04;  0.0000000E+00;  0.0000000E+00;  4.0000000E+04;  0.0000000E+00;  4.0000000E+04;  2.3461112E-06;  0.0000000E+00;  6.5512936E-06;  4.1533577E+01;
 -3.9999999E-02;  9.9999998E-03; -4.1999999E-01;1457;  0.0000000E+00;  0.0000000E+00;  0.0000000E+00;  1.0000000E+03;  1.0000000E-01;  0.0000000E+00;0;  0.0000000E+00;  0.0000000E+00;  0.0000000E+00;0;  3.3941684E-05;  4.0000000E+04;  0.0000000E+00;  0.0000000E+00;  4.0000000E+04;  0.0000000E+00;  4.0000000E+04;  1.0405225E-05;  0.0000000E+00;  2.3536459E-05;  1.0806413E+02;
 -3.9999999E-02;  9.9999998E-03; -4.1000000E-01;1458;  0.0000000E+00;  0.0000000E+00;  0.0000000E+00;  1.0000480E+03;  1.0000000E-01;  3.9801342E+01;0;  0.0000000E+00;  0.0000000E+00;  0.0000000E+00;0;  8.9809735E-05;  4.0000000E+04;  0.0000000E+00;  0.0000000E+00;  4.0000000E+04;  0.0000000E+00;  4.0000000E+04;  3.2007836E-05;  0.0000000E+00;  5.7801895E-05;  2.1803441E+02;
 -3.9999999E-02;  9.9999998E-03; -4.0000001E-01;1459;  0.0000000E+00;  0.0000000E+00;  0.0000000E+00;  1.0000756E+03;  1.0000000E-01;  6.2615513E+01;0;  0.0000000E+00;  0.0000000E+00;  0.0000000E+00;0;  1.9176546E-04;  4.0000000E+04;  0.0000000E+00;  0.0000000E+00;  4.0000000E+04;  0.0000000E+00;  4.0000000E+04;  7.9409729E-05;  0.0000000E+00;  1.1235574E-04;  3.7064218E+02;
 -3.9999999E-02;  9.9999998E-03; -3.8999999E-01;1460;  0.0000000E+00;  0.0000000E+00;  0.0000000E+00;  1.0001362E+03;  1.0000000E-01;  1.1278693E+02;0;  0.0000000E+00;  0.0000000E+00;  0.0000000E+00;0;  3.5770590E-04;  4.0000000E+04;  0.0000000E+00;  0.0000000E+00;  4.0000000E+04;  0.0000000E+00;  4.0000000E+04;  1.7058344E-04;  0.0000000E+00;  1.8712245E-04;  5.5836597E+02;
 -3.9999999E-02;  9.9999998E-03; -3.8000000E-01;1461;  0.0000000E+00;  0.0000000E+00;  0.0000000E+00;  1.0002294E+03;  1.0000000E-01;  1.9001932E+02;0;  0.0000000E+00;  0.0000000E+00;  0.0000000E+00;0;  6.1001448E-04;  4.0000000E+04;  0.0000000E+00;  0.0000000E+00;  4.0000000E+04;  0.0000000E+00;  4.0000000E+04;  3.2998048E-04;  0.0000000E+00;  2.8003400E-04;  7.6999725E+02;
 -3.9999999E-02;  9.9999998E-03; -3.7000000E-01;1462;  0.0000000E+00;  0.0000000E+00;  0.0000000E+00;  1.0003622E+03;  1.0000000E-01;  3.0004089E+02;0;  0.0000000E+00;  0.0000000E+00;  0.0000000E+00;0;  9.7652461E-04;  4.0000000E+04;  0.0000000E+00;  0.0000000E+00;  4.0000000E+04;  0.0000000E+00;  4.0000000E+04;  5.8864371E-04;  0.0000000E+00;  3.8788089E-04;  9.9230963E+02;
 -3.9999999E-02;  9.9999998E-03; -3.6000001E-01;1463;  0.0000000E+00;  0.0000000E+00;  0.0000000E+00;  1.0005164E+03;  1.0000000E-01;  4.2783975E+02;0;  0.0000000E+00;  0.0000000E+00;  0.0000000E+00;0;  1.4896931E-03;  4.0000000E+04;  0.0000000E+00;  0.0000000E+00;  4.0000000E+04;  0.0000000E+00;  4.0000000E+04;  9.8331401E-04;  0.0000000E+00;  5.0637912E-04;  1.2100081E+03;
 -3.9999999E-02;  9.9999998E-03; -3.4999999E-01;1464;  0.0000000E+00;  0.0000000E+00;  0.0000000E+00;  1.0006882E+03;  1.0000000E-01;  5.7015674E+02;0;  0.0000000E+00;  0.0000000E+00;  0.0000000E+00;0;  2.1836862E-03;  4.0000000E+04;  0.0000000E+00;  0.0000000E+00;  4.0000000E+04;  0.0000000E+00;  4.0000000E+04;  1.5540903E-03;  0.0000000E+00;  6.2959600E-04;  1.4048406E+03;
 -3.9999999E-02;  9.9999998E-03; -3.4000000E-01;1465;  0.0000000E+00;  0.0000000E+00;  0.0000000E+00;  1.0009073E+03;  1.0000000E-01;  7.5168243E+02;0;  0.0000000E+00;  0.0000000E+00;  0.0000000E+00;0;  3.0895681E-03;  4.0000000E+04;  0.0000000E+00;  0.0000000E+00;  4.0000000E+04;  0.0000000E+00;  4.0000000E+04;  2.3404877E-03;  0.0000000E+00;  7.4908038E-04;  1.5545779E+03;
 -3.9999999E-02;  9.9999998E-03; -3.3000001E-01;1466;  0.0000000E+00;  0.0000000E+00;  0.0000000E+00;  1.0011702E+03;  1.0000000E-01;  9.6945404E+02;0;  0.0000000E+00;  0.0000000E+00;  0.0000000E+00;0;  4.2291544E-03;  4.0000000E+04;  0.0000000E+00;  0.0000000E+00;  4.0000000E+04;  0.0000000E+00;  4.0000000E+04;  3.3759992E-03;  0.0000000E+00;  8.5315510E-04;  1.6331396E+03;
 -3.9999999E-02;  9.9999998E-03; -3.1999999E-01;1467;  0.0000000E+00;  0.0000000E+00;  0.0000000E+00;  1.0014383E+03;  1.0000000E-01;  1.1915713E+03;0;  0.0000000E+00;  0.0000000E+00;  0.0000000E+00;0;  5.6086350E-03;  4.0000000E+04;  0.0000000E+00;  0.0000000E+00;  4.0000000E+04;  0.0000000E+00;  4.0000000E+04;  4.6816901E-03;  0.0000000E+00;  9.2694478E-04;  1.6126859E+03;
 -3.9999999E-02;  9.9999998E-03; -3.1000000E-01;1468;  0.0000000E+00;  0.0000000E+00;  0.0000000E+00;  1.0017278E+03;  1.0000000E-01;  1.4314657E+03;0;  0.0000000E+00;  0.0000000E+00;  0.0000000E+00;0;  7.2135702E-03;  4.0000000E+04;  0.0000000E+00;  0.0000000E+00;  4.0000000E+04;  0.0000000E+00;  4.0000000E+04;  6.2597208E-03;  0.0000000E+00;  9.5384935E-04;  1.4691338E+03;
 -3.9999999E-02;  9.9999998E-03; -3.0000001E-01;1469;  0.0000000E+00;  0.0000000E+00;  0.0000000E+00;  1.0020298E+03;  1.0000000E-01;  1.6817302E+03;0;  0.0000000E+00;  0.0000000E+00;  0.0000000E+00;0;  9.0071643E-03;  4.0000000E+04;  0.0000000E+00;  0.0000000E+00;  4.0000000E+04;  0.0000000E+00;  4.0000000E+04;  8.0881165E-03;  0.0000000E+00;  9.1904803E-04;  1.1913003E+03;
 -3.9999999E-02;  9.9999998E-03; -2.8999999E-01;1470;  0.0000000E+00;  0.0000000E+00;  0.0000000E+00;  1.0023228E+03;  1.0000000E-01;  1.9243900E+03;0;  0.0000000E+00;  0.0000000E+00;  0.0000000E+00;0;  1.0933142E-02;  4.0000000E+04;  0.0000000E+00;  0.0000000E+00;  4.0000000E+04;  0.0000000E+00;  4.0000000E+04;  1.0118508E-02;  0.0000000E+00;  8.1463426E-04;  7.9403961E+02;
 -3.9999999E-02;  9.9999998E-03; -2.8000000E-01;1471;  0.0000000E+00;  0.0000000E+00;  0.0000000E+00;  1.0026156E+03;  1.0000000E-01;  2.1669512E+03;0;  0.0000000E+00;  0.0000000E+00;  0.0000000E+00;0;  1.2923017E-02;  4.0000000E+04;  0.0000000E+00;  0.0000000E+00;  4.0000000E+04;  0.0000000E+00;  4.0000000E+04;  1.2278854E-02;  0.0000000E+00;  6.4416346E-04;  3.6692728E+02;
 -2.9999999E-02;  9.9999998E-03; -4.4000000E-01;1546;  0.0000000E+00;  0.0000000E+00;  0.0000000E+00;  1.0000000E+03;  1.0000000E-01;  0.0000000E+00;0;  0.0000000E+00;  0.0000000E+00;  0.0000000E+00;0;  2.2485847E-06;  4.0000000E+04;  0.0000000E+00;  0.0000000E+00;  4.0000000E+04;  0.0000000E+00;  4.0000000E+04;  2.9415907E-07;  0.0000000E+00;  1.9544257E-06;  1.8741037E+01;
 -2.9999999E-02;  9.9999998E-03; -4.3000001E-01;1547;  0.0000000E+00;  0.0000000E+00;  0.0000000E+00;  1.0000000E+03;  1.0000000E-01;  0.0000000E+00;0;  0.0000000E+00;  0.0000000E+00;  0.0000000E+00;0;  1.3900055E-05;  4.0000000E+04;  0.0000000E+00;  0.0000000E+00;  4.0000000E+04;  0.0000000E+00;  4.0000000E+04;  2.8574570E-06;  0.0000000E+00;  1.1042598E-05;  6.4016052E+01;
 -2.9999999E-02;  9.9999998E-03; -4.1999999E-01;1548;  0.0000000E+00;  0.0000000E+00;  0.0000000E+00;  1.0000106E+03;  1.0000000E-01;  8.7898750E+00;0;  0.0000000E+00;  0.0000000E+00;  0.0000000E+00;0;  4.7226691E-05;  4.0000000E+04;  0.0000000E+00;  0.0000000E+00;  4.0000000E+04;  0.0000000E+00;  4.0000000E+04;  1.2210699E-05;  0.0000000E+00;  3.5015993E-05;  1.5387070E+02;
 -2.9999999E-02;  9.9999998E-03; -4.1000000E-01;1549;  0.0000000E+00;  0.0000000E+00;  0.0000000E+00;  1.0000668E+03;  1.0000000E-01;  5.5307079E+01;0;  0.0000000E+00;  0.0000000E+00;  0.0000000E+00;0;  1.1687860E-04;  4.0000000E+04;  0.0000000E+00;  0.0000000E+00;  4.0000000E+04;  0.0000000E+00;  4.0000000E+04;  3.6747650E-05;  0.0000000E+00;  8.0130943E-05;  2.9520496E+02;
 -2.9999999E-02;  9.9999998E-03; -4.0000001E-01;1550;  0.0000000E+00;  0.0000000E+00;  0.0000000E+00;  1.0001212E+03;  1.0000000E-01;  1.0034284E+02;0;  0.0000000E+00;  0.0000000E+00;  0.0000000E+00;0;  2.3895796E-04;  4.0000000E+04;  0.0000000E+00;  0.0000000E+00;  4.0000000E+04;  0.0000000E+00;  4.0000000E+04;  8.9961235E-05;  0.0000000E+00;  1.4899673E-04;  4.8490732E+02;
 -2.9999999E-02;  9.9999998E-03; -3.8999999E-01;1551;  0.0000000E+00;  0.0000000E+00;  0.0000000E+00;  1.0002195E+03;  1.0000000E-01;  1.8192078E+02;0;  0.0000000E+00;  0.0000000E+00;  0.0000000E+00;0;  4.3261214E-04;  4.0000000E+04;  0.0000000E+00;  0.0000000E+00;  4.0000000E+04;  0.0000000E+00;  4.0000000E+04;  1.9165168E-04;  0.0000000E+00;  2.4096048E-04;  7.1287579E+02;
 -2.9999999E-02;  9.9999998E-03; -3.8000000E-01;1552;  0.0000000E+00;  0.0000000E+00;  0.0000000E+00;  1.0003414E+03;  1.0000000E-01;  2.8285620E+02;0;  0.0000000E+00;  0.0000000E+00;  0.0000000E+00;0;  7.2241121E-04;  4.0000000E+04;  0.0000000E+00;  0.0000000E+00;  4.0000000E+04;  0.0000000E+00;  4.0000000E+04;  3.6885060E-04;  0.0000000E+00;  3.5356061E-04;  9.6572943E+02;
 -2.9999999E-02;  9.9999998E-03; -3.7000000E-01;1553;  0.0000000E+00;  0.0000000E+00;  0.0000000E+00;  1.0005024E+03;  1.0000000E-01;  4.1628452E+02;0;  0.0000000E+00;  0.0000000E+00;  0.0000000E+00;0;  1.1394224E-03;  4.0000000E+04;  0.0000000E+00;  0.0000000E+00;  4.0000000E+04;  0.0000000E+00;  4.0000000E+04;  6.5601617E-04;  0.0000000E+00;  4.8340630E-04;  1.2285028E+03;
 -2.9999999E-02;  9.9999998E-03; -3.6000001E-01;1554;  0.0000000E+00;  0.0000000E+00;  0.0000000E+00;  1.0007084E+03;  1.0000000E-01;  5.8684760E+02;0;  0.0000000E+00;  0.0000000E+00;  0.0000000E+00;0;  1.7201209E-03;  4.0000000E+04;  0.0000000E+00;  0.0000000E+00;  4.0000000E+04;  0.0000000E+00;  4.0000000E+04;  1.0940838E-03;  0.0000000E+00;  6.2603719E-04;  1.4842815E+03;
 -2.9999999E-02;  9.9999998E-03; -3.4999999E-01;1555;  0.0000000E+00;  0.0000000E+00;  0.0000000E+00;  1.0009532E+03;  1.0000000E-01;  7.8970605E+02;0;  0.0000000E+00;  0.0000000E+00;  0.0000000E+00;0;  2.5028624E-03;  4.0000000E+04;  0.0000000E+00;  0.0000000E+00;  4.0000000E+04;  0.0000000E+00;  4.0000000E+04;  1.7278311E-03;  0.0000000E+00;  7.7503122E-04;  1.7127189E+03;
 -2.9999999E-02;  9.9999998E-03; -3.4000000E-01;1556;  0.0000000E+00;  0.0000000E+00;  0.0000000E+00;  1.0012483E+03;  1.0000000E-01;  1.0341436E+03;0;  0.0000000E+00;  0.0000000E+00;  0.0000000E+00;0;  3.5224934E-03;  4.0000000E+04;  0.0000000E+00;  0.0000000E+00;  4.0000000E+04;  0.0000000E+00;  4.0000000E+04;  2.6016207E-03;  0.0000000E+00;  9.2087261E-04;  1.8884800E+03;
 -2.9999999E-02;  9.9999998E-03; -3.3000001E-01;1557;  0.0000000E+00;  0.0000000E+00;  0.0000000E+00;  1.0015914E+03;  1.0000000E-01;  1.3184812E+03;0;  0.0000000E+00;  0.0000000E+00;  0.0000000E+00;0;  4.8035774E-03;  4.0000000E+04;  0.0000000E+00;  0.0000000E+00;  4.0000000E+04;  0.0000000E+00;  4.0000000E+04;  3.7536542E-03;  0.0000000E+00;  1.0499231E-03;  1.9807773E+03;
 -2.9999999E-02;  9.9999998E-03; -3.1999999E-01;1558;  0.0000000E+00;  0.0000000E+00;  0.0000000E+00;  1.0019702E+03;  1.0000000E-01;  1.6322501E+03;0;  0.0000000E+00;  0.0000000E+00;  0.0000000E+00;0;  6.3531911E-03;  4.0000000E+04;  0.0000000E+00;  0.0000000E+00;  4.0000000E+04;  0.0000000E+00;  4.0000000E+04;  5.2090622E-03;  0.0000000E+00;  1.1441290E-03;  1.9554292E+03;
 -2.9999999E-02;  9.9999998E-03; -3.1000000E-01;1559;  0.0000000E+00;  0.0000000E+00;  0.0000000E+00;  1.0023742E+03;  1.0000000E-01;  1.9669567E+03;0;  0.0000000E+00;  0.0000000E+00;  0.0000000E+00;0;  8.1548803E-03;  4.0000000E+04;  0.0000000E+00;  0.0000000E+00;  4.0000000E+04;  0.0000000E+00;  4.0000000E+04;  6.9724745E-03;  0.0000000E+00;  1.1824060E-03;  1.7812941E+03;
 -2.9999999E-02;  9.9999998E-03; -3.0000001E-01;1560;  0.0000000E+00;  0.0000000E+00;  0.0000000E+00;  1.0027916E+03;  1.0000000E-01;  2.3127246E+03;0;  0.0000000E+00;  0.0000000E+00;  0.0000000E+00;0;  1.0165773E-02;  4.0000000E+04;  0.0000000E+00;  0.0000000E+00;  4.0000000E+04;  0.0000000E+00;  4.0000000E+04;  9.0210056E-03;  0.0000000E+00;  1.1447680E-03;  1.4420640E+03;
 -2.9999999E-02;  9.9999998E-03; -2.8999999E-01;1561;  0.0000000E+00;  0.0000000E+00;  0.0000000E+00;  1.0032013E+03;  1.0000000E-01;  2.6521719E+03;0;  0.0000000E+00;  0.0000000E+00;  0.0000000E+00;0;  1.2319161E-02;  4.0000000E+04;  0.0000000E+00;  0.0000000E+00;  4.0000000E+04;  0.0000000E+00;  4.0000000E+04;  1.1299892E-02;  0.0000000E+00;  1.0192682E-03;  9.5409857E+02;
 -2.9999999E-02;  9.9999998E-03; -2.8000000E-01;1562;  0.0000000E+00;  0.0000000E+00;  0.0000000E+00;  1.0036042E+03;  1.0000000E-01;  2.9859895E+03;0;  0.0000000E+00;  0.0000000E+00;  0.0000000E+00;0;  1.4533607E-02;  4.0000000E+04;  0.0000000E+00;  0.0000000E+00;  4.0000000E+04;  0.0000000E+00;  4.0000000E+04;  1.3724486E-02;  0.0000000E+00;  8.0912095E-04;  4.2877936E+02;
 -2.0000000E-02;  9.9999998E-03; -4.4000000E-01;1637;  0.0000000E+00;  0.0000000E+00;  0.0000000E+00;  1.0000000E+03;  1.0000000E-01;  0.0000000E+00;0;  0.0000000E+00;  0.0000000E+00;  0.0000000E+00;0;  3.5757496E-06;  4.0000000E+04;  0.0000000E+00;  0.0000000E+00;  4.0000000E+04;  0.0000000E+00;  4.0000000E+04;  2.0899331E-07;  0.0000000E+00;  3.3667563E-06;  2.8523417E+01;
 -2.0000000E-02;  9.9999998E-03; -4.3000001E-01;1638;  0.0000000E+00;  0.0000000E+00;  0.0000000E+00;  1.0000000E+03;  1.0000000E-01;  0.0000000E+00;0;  0.0000000E+00;  0.0000000E+00;  0.0000000E+00;0;  1.8719358E-05;  4.0000000E+04;  0.0000000E+00;  0.0000000E+00;  4.0000000E+04;  0.0000000E+00;  4.0000000E+04;  2.7585947E-06;  0.0000000E+00;  1.5960763E-05;  8.8372864E+01;
 -2.0000000E-02;  9.9999998E-03; -4.1999999E-01;1639;  0.0000000E+00;  0.0000000E+00;  0.0000000E+00;  1.0000462E+03;  1.0000000E-01;  3.8319904E+01;0;  0.0000000E+00;  0.0000000E+00;  0.0000000E+00;0;  5.8801474E-05;  4.0000000E+04;  0.0000000E+00;  0.0000000E+00;  4.0000000E+04;  0.0000000E+00;  4.0000000E+04;  1.2306697E-05;  0.0000000E+00;  4.6494777E-05;  2.0062004E+02;
 -2.0000000E-02;  9.9999998E-03; -4.1000000E-01;1640;  0.0000000E+00;  0.0000000E+00;  0.0000000E+00;  1.0000828E+03;  1.0000000E-01;  6.8541275E+01;0;  0.0000000E+00;  0.0000000E+00;  0.0000000E+00;0;  1.3894463E-04;  4.0000000E+04;  0.0000000E+00;  0.0000000E+00;  4.0000000E+04;  0.0000000E+00;  4.0000000E+04;  3.7640915E-05;  0.0000000E+00;  1.0130370E-04;  3.7100662E+02;
 -2.0000000E-02;  9.9999998E-03; -4.0000001E-01;1641;  0.0000000E+00;  0.0000000E+00;  0.0000000E+00;  1.0001624E+03;  1.0000000E-01;  1.3451471E+02;0;  0.0000000E+00;  0.0000000E+00;  0.0000000E+00;0;  2.7570137E-04;  4.0000000E+04;  0.0000000E+00;  0.0000000E+00;  4.0000000E+04;  0.0000000E+00;  4.0000000E+04;  9.3027098E-05;  0.0000000E+00;  1.8267428E-04;  5.9428345E+02;
 -2.0000000E-02;  9.9999998E-03; -3.8999999E-01;1642;  0.0000000E+00;  0.0000000E+00;  0.0000000E+00;  1.0002842E+03;  1.0000000E-01;  2.3545013E+02;0;  0.0000000E+00;  0.0000000E+00;  0.0000000E+00;0;  4.8931420E-04;  4.0000000E+04;  0.0000000E+00;  0.0000000E+00;  4.0000000E+04;  0.0000000E+00;  4.0000000E+04;  1.9961677E-04;  0.0000000E+00;  2.8969743E-04;  8.5818494E+02;
 -2.0000000E-02;  9.9999998E-03; -3.8000000E-01;1643;  0.0000000E+00;  0.0000000E+00;  0.0000000E+00;  1.0004437E+03;  1.0000000E-01;  3.6759454E+02;0;  0.0000000E+00;  0.0000000E+00;  0.0000000E+00;0;  8.0641790E-04;  4.0000000E+04;  0.0000000E+00;  0.0000000E+00;  4.0000000E+04;  0.0000000E+00;  4.0000000E+04;  3.8649689E-04;  0.0000000E+00;  4.1992101E-04;  1.1477059E+03;
 -2.0000000E-02;  9.9999998E-03; -3.7000000E-01;1644;  0.0000000E+00;  0.0000000E+00;  0.0000000E+00;  1.0006659E+03;  1.0000000E-01;  5.5168811E+02;0;  0.0000000E+00;  0.0000000E+00;  0.0000000E+00;0;  1.2607402E-03;  4.0000000E+04;  0.0000000E+00;  0.0000000E+00;  4.0000000E+04;  0.0000000E+00;  4.0000000E+04;  6.9071125E-04;  0.0000000E+00;  5.7002902E-04;  1.4466959E+03;
 -2.0000000E-02;  9.9999998E-03; -3.6000001E-01;1645;  0.0000000E+00;  0.0000000E+00;  0.0000000E+00;  1.0009240E+03;  1.0000000E-01;  7.6550922E+02;0;  0.0000000E+00;  0.0000000E+00;  0.0000000E+00;0;  1.8915090E-03;  4.0000000E+04;  0.0000000E+00;  0.0000000E+00;  4.0000000E+04;  0.0000000E+00;  4.0000000E+04;  1.1560143E-03;  0.0000000E+00;  7.3549477E-04;  1.7371985E+03;
 -2.0000000E-02;  9.9999998E-03; -3.4999999E-01;1646;  0.0000000E+00;  0.0000000E+00;  0.0000000E+00;  1.0012531E+03;  1.0000000E-01;  1.0380941E+03;0;  0.0000000E+00;  0.0000000E+00;  0.0000000E+00;0;  2.7396225E-03;  4.0000000E+04;  0.0000000E+00;  0.0000000E+00;  4.0000000E+04;  0.0000000E+00;  4.0000000E+04;  1.8300443E-03;  0.0000000E+00;  9.0957817E-04;  1.9973116E+03;
 -2.0000000E-02;  9.9999998E-03; -3.4000000E-01;1647;  0.0000000E+00;  0.0000000E+00;  0.0000000E+00;  1.0016357E+03;  1.0000000E-01;  1.3552209E+03;0;  0.0000000E+00;  0.0000000E+00;  0.0000000E+00;0;  3.8419783E-03;  4.0000000E+04;  0.0000000E+00;  0.0000000E+00;  4.0000000E+04;  0.0000000E+00;  4.0000000E+04;  2.7599977E-03;  0.0000000E+00;  1.0819805E-03;  2.1991763E+03;
 -2.0000000E-02;  9.9999998E-03; -3.3000001E-01;1648;  0.0000000E+00;  0.0000000E+00;  0.0000000E+00;  1.0020914E+03;  1.0000000E-01;  1.7326918E+03;0;  0.0000000E+00;  0.0000000E+00;  0.0000000E+00;0;  5.2244021E-03;  4.0000000E+04;  0.0000000E+00;  0.0000000E+00;  4.0000000E+04;  0.0000000E+00;  4.0000000E+04;  3.9869477E-03;  0.0000000E+00;  1.2374541E-03;  2.3076624E+03;
 -2.0000000E-02;  9.9999998E-03; -3.1999999E-01;1649;  0.0000000E+00;  0.0000000E+00;  0.0000000E+00;  1.0025920E+03;  1.0000000E-01;  2.1474949E+03;0;  0.0000000E+00;  0.0000000E+00;  0.0000000E+00;0;  6.8939398E-03;  4.0000000E+04;  0.0000000E+00;  0.0000000E+00;  4.0000000E+04;  0.0000000E+00;  4.0000000E+04;  5.5389572E-03;  0.0000000E+00;  1.3549825E-03;  2.2818391E+03;
 -2.0000000E-02;  9.9999998E-03; -3.1000000E-01;1650;  0.0000000E+00;  0.0000000E+00;  0.0000000E+00;  1.0031188E+03;  1.0000000E-01;  2.5838281E+03;0;  0.0000000E+00;  0.0000000E+00;  0.0000000E+00;0;  8.8321483E-03;  4.0000000E+04;  0.0000000E+00;  0.0000000E+00;  4.0000000E+04;  0.0000000E+00;  4.0000000E+04;  7.4234037E-03;  0.0000000E+00;  1.4087448E-03;  2.0819143E+03;
 -2.0000000E-02;  9.9999998E-03; -3.0000001E-01;1651;  0.0000000E+00;  0.0000000E+00;  0.0000000E+00;  1.0036671E+03;  1.0000000E-01;  3.0381362E+03;0;  0.0000000E+00;  0.0000000E+00;  0.0000000E+00;0;  1.0990966E-02;  4.0000000E+04;  0.0000000E+00;  0.0000000E+00;  4.0000000E+04;  0.0000000E+00;  4.0000000E+04;  9.6185356E-03;  0.0000000E+00;  1.3724309E-03;  1.6838810E+03;
 -2.0000000E-02;  9.9999998E-03; -2.8999999E-01;1652;  0.0000000E+00;  0.0000000E+00;  0.0000000E+00;  1.0042159E+03;  1.0000000E-01;  3.4927407E+03;0;  0.0000000E+00;  0.0000000E+00;  0.0000000E+00;0;  1.3293835E-02;  4.0000000E+04;  0.0000000E+00;  0.0000000E+00;  4.0000000E+04;  0.0000000E+00;  4.0000000E+04;  1.2065742E-02;  0.0000000E+00;  1.2280929E-03;  1.1035612E+03;
 -2.0000000E-02;  9.9999998E-03; -2.8000000E-01;1653;  0.0000000E+00;  0.0000000E+00;  0.0000000E+00;  1.0047504E+03;  1.0000000E-01;  3.9355923E+03;0;  0.0000000E+00;  0.0000000E+00;  0.0000000E+00;0;  1.5646769E-02;  4.0000000E+04;  0.0000000E+00;  0.0000000E+00;  4.0000000E+04;  0.0000000E+00;  4.0000000E+04;  1.4669384E-02;  0.0000000E+00;  9.7738532E-04;  4.7608438E+02;
 -9.9999998E-03;  9.9999998E-03; -4.4000000E-01;1728;  0.0000000E+00;  0.0000000E+00;  0.0000000E+00;  1.0000000E+03;  1.0000000E-01;  0.0000000E+00;0;  0.0000000E+00;  0.0000000E+00;  0.0000000E+00;0;  4.6603805E-06;  4.0000000E+04;  0.0000000E+00;  0.0000000E+00;  4.0000000E+04;  0.0000000E+00;  4.0000000E+04; -9.2525745E-08;  0.0000000E+00;  4.7529061E-06;  3.8356907E+01;
 -9.9999998E-03;  9.9999998E-03; -4.3000001E-01;1729;  0.0000000E+00;  0.0000000E+00;  0.0000000E+00;  1.0000000E+03;  1.0000000E-01;  0.0000000E+00;0;  0.0000000E+00;  0.0000000E+00;  0.0000000E+00;0;  2.2038790E-05;  4.0000000E+04;  0.0000000E+00;  0.0000000E+00;  4.0000000E+04;  0.0000000E+00;  4.0000000E+04;  1.8879662E-06;  0.0000000E+00;  2.0150825E-05;  1.1093031E+02;
 -9.9999998E-03;  9.9999998E-03; -4.1999999E-01;1730;  0.0000000E+00;  0.0000000E+00;  0.0000000E+00;  1.0000550E+03;  1.0000000E-01;  4.5529575E+01;0;  0.0000000E+00;  0.0000000E+00;  0.0000000E+00;0;  6.5958011E-05;  4.0000000E+04;  0.0000000E+00;  0.0000000E+00;  4.0000000E+04;  0.0000000E+00;  4.0000000E+04;  1.0407985E-05;  0.0000000E+00;  5.5550026E-05;  2.4179962E+02;
 -9.9999998E-03;  9.9999998E-03; -4.1000000E-01;1731;  0.0000000E+00;  0.0000000E+00;  0.0000000E+00;  1.0001279E+03;  1.0000000E-01;  1.0597231E+02;0;  0.0000000E+00;  0.0000000E+00;  0.0000000E+00;0;  1.5167108E-04;  4.0000000E+04;  0.0000000E+00;  0.0000000E+00;  4.0000000E+04;  0.0000000E+00;  4.0000000E+04;  3.4331806E-05;  0.0000000E+00;  1.1733927E-04;  4.3572311E+02;
 -9.9999998E-03;  9.9999998E-03; -4.0000001E-01;1732;  0.0000000E+00;  0.0000000E+00;  0.0000000E+00;  1.0002291E+03;  1.0000000E-01;  1.8982179E+02;0;  0.0000000E+00;  0.0000000E+00;  0.0000000E+00;0;  2.9632673E-04;  4.0000000E+04;  0.0000000E+00;  0.0000000E+00;  4.0000000E+04;  0.0000000E+00;  4.0000000E+04;  8.8449931E-05;  0.0000000E+00;  2.0787680E-04;  6.8589380E+02;
 -9.9999998E-03;  9.9999998E-03; -3.8999999E-01;1733;  0.0000000E+00;  0.0000000E+00;  0.0000000E+00;  1.0003796E+03;  1.0000000E-01;  3.1446024E+02;0;  0.0000000E+00;  0.0000000E+00;  0.0000000E+00;0;  5.2157254E-04;  4.0000000E+04;  0.0000000E+00;  0.0000000E+00;  4.0000000E+04;  0.0000000E+00;  4.0000000E+04;  1.9503089E-04;  0.0000000E+00;  3.2654166E-04;  9.7863330E+02;
 -9.9999998E-03;  9.9999998E-03; -3.8000000E-01;1734;  0.0000000E+00;  0.0000000E+00;  0.0000000E+00;  1.0005748E+03;  1.0000000E-01;  4.7623346E+02;0;  0.0000000E+00;  0.0000000E+00;  0.0000000E+00;0;  8.5563096E-04;  4.0000000E+04;  0.0000000E+00;  0.0000000E+00;  4.0000000E+04;  0.0000000E+00;  4.0000000E+04;  3.8453730E-04;  0.0000000E+00;  4.7109363E-04;  1.2978496E+03;
 -9.9999998E-03;  9.9999998E-03; -3.7000000E-01;1735;  0.0000000E+00;  0.0000000E+00;  0.0000000E+00;  1.0008322E+03;  1.0000000E-01;  6.8946198E+02;0;  0.0000000E+00;  0.0000000E+00;  0.0000000E+00;0;  1.3335121E-03;  4.0000000E+04;  0.0000000E+00;  0.0000000E+00;  4.0000000E+04;  0.0000000E+00;  4.0000000E+04;  6.9526350E-04;  0.0000000E+00;  6.3824869E-04;  1.6266072E+03;
 -9.9999998E-03;  9.9999998E-03; -3.6000001E-01;1736;  0.0000000E+00;  0.0000000E+00;  0.0000000E+00;  1.0011640E+03;  1.0000000E-01;  9.6431842E+02;0;  0.0000000E+00;  0.0000000E+00;  0.0000000E+00;0;  1.9952301E-03;  4.0000000E+04;  0.0000000E+00;  0.0000000E+00;  4.0000000E+04;  0.0000000E+00;  4.0000000E+04;  1.1718189E-03;  0.0000000E+00;  8.2341122E-04;  1.9461720E+03;
 -9.9999998E-03;  9.9999998E-03; -3.4999999E-01;1737;  0.0000000E+00;  0.0000000E+00;  0.0000000E+00;  1.0015740E+03;  1.0000000E-01;  1.3040619E+03;0;  0.0000000E+00;  0.0000000E+00;  0.0000000E+00;0;  2.8818543E-03;  4.0000000E+04;  0.0000000E+00;  0.0000000E+00;  4.0000000E+04;  0.0000000E+00;  4.0000000E+04;  1.8621722E-03;  0.0000000E+00;  1.0196823E-03;  2.2337368E+03;
 -9.9999998E-03;  9.9999998E-03; -3.4000000E-01;1738;  0.0000000E+00;  0.0000000E+00;  0.0000000E+00;  1.0020699E+03;  1.0000000E-01;  1.7149144E+03;0;  0.0000000E+00;  0.0000000E+00;  0.0000000E+00;0;  4.0297387E-03;  4.0000000E+04;  0.0000000E+00;  0.0000000E+00;  4.0000000E+04;  0.0000000E+00;  4.0000000E+04;  2.8133772E-03;  0.0000000E+00;  1.2163614E-03;  2.4596672E+03;
 -9.9999998E-03;  9.9999998E-03; -3.3000001E-01;1739;  0.0000000E+00;  0.0000000E+00;  0.0000000E+00;  1.0026284E+03;  1.0000000E-01;  2.1776174E+03;0;  0.0000000E+00;  0.0000000E+00;  0.0000000E+00;0;  5.4633142E-03;  4.0000000E+04;  0.0000000E+00;  0.0000000E+00;  4.0000000E+04;  0.0000000E+00;  4.0000000E+04;  4.0661409E-03;  0.0000000E+00;  1.3971735E-03;  2.5854355E+03;
 -9.9999998E-03;  9.9999998E-03; -3.1999999E-01;1740;  0.0000000E+00;  0.0000000E+00;  0.0000000E+00;  1.0032617E+03;  1.0000000E-01;  2.7022446E+03;0;  0.0000000E+00;  0.0000000E+00;  0.0000000E+00;0;  7.1873385E-03;  4.0000000E+04;  0.0000000E+00;  0.0000000E+00;  4.0000000E+04;  0.0000000E+00;  4.0000000E+04;  5.6485170E-03;  0.0000000E+00;  1.5388213E-03;  2.5637974E+03;
 -9.9999998E-03;  9.9999998E-03; -3.1000000E-01;1741;  0.0000000E+00;  0.0000000E+00;  0.0000000E+00;  1.0039424E+03;  1.0000000E-01;  3.2661792E+03;0;  0.0000000E+00;  0.0000000E+00;  0.0000000E+00;0;  9.1800429E-03;  4.0000000E+04;  0.0000000E+00;  0.0000000E+00;  4.0000000E+04;  0.0000000E+00;  4.0000000E+04;  7.5688646E-03;  0.0000000E+00;  1.6111778E-03;  2.3451609E+03;
 -9.9999998E-03;  9.9999998E-03; -3.0000001E-01;1742;  0.0000000E+00;  0.0000000E+00;  0.0000000E+00;  1.0046359E+03;  1.0000000E-01;  3.8406814E+03;0;  0.0000000E+00;  0.0000000E+00;  0.0000000E+00;0;  1.1388652E-02;  4.0000000E+04;  0.0000000E+00;  0.0000000E+00;  4.0000000E+04;  0.0000000E+00;  4.0000000E+04;  9.8075848E-03;  0.0000000E+00;  1.5810670E-03;  1.8952195E+03;
 -9.9999998E-03;  9.9999998E-03; -2.8999999E-01;1743;  0.0000000E+00;  0.0000000E+00;  0.0000000E+00;  1.0053261E+03;  1.0000000E-01;  4.4126157E+03;0;  0.0000000E+00;  0.0000000E+00;  0.0000000E+00;0;  1.3728709E-02;  4.0000000E+04;  0.0000000E+00;  0.0000000E+00;  4.0000000E+04;  0.0000000E+00;  4.0000000E+04;  1.2306386E-02;  0.0000000E+00;  1.4223233E-03;  1.2278816E+03;
 -9.9999998E-03;  9.9999998E-03; -2.8000000E-01;1744;  0.0000000E+00;  0.0000000E+00;  0.0000000E+00;  1.0060047E+03;  1.0000000E-01;  4.9747729E+03;0;  0.0000000E+00;  0.0000000E+00;  0.0000000E+00;0;  1.6095757E-02;  4.0000000E+04;  0.0000000E+00;  0.0000000E+00;  4.0000000E+04;  0.0000000E+00;  4.0000000E+04;  1.4962779E-02;  0.0000000E+00;  1.1329789E-03;  5.1179199E+02;
  0.0000000E+00;  9.9999998E-03; -4.4000000E-01;1819;  0.0000000E+00;  0.0000000E+00;  0.0000000E+00;  1.0000000E+03;  1.0000000E-01;  0.0000000E+00;0;  0.0000000E+00;  0.0000000E+00;  0.0000000E+00;0;  4.9943842E-06;  4.0000000E+04;  0.0000000E+00;  0.0000000E+00;  4.0000000E+04;  0.0000000E+00;  4.0000000E+04; -5.8260997E-07;  0.0000000E+00;  5.5769942E-06;  4.6261848E+01;
  0.0000000E+00;  9.9999998E-03; -4.3000001E-01;1820;  0.0000000E+00;  0.0000000E+00;  0.0000000E+00;  1.0000084E+03;  1.0000000E-01;  6.9133849E+00;0;  0.0000000E+00;  0.0000000E+00;  0.0000000E+00;0;  2.2594553E-05;  4.0000000E+04;  0.0000000E+00;  0.0000000E+00;  4.0000000E+04;  0.0000000E+00;  4.0000000E+04;  3.7710768E-07;  0.0000000E+00;  2.2217446E-05;  1.2761538E+02;
  0.0000000E+00;  9.9999998E-03; -4.1999999E-01;1821;  0.0000000E+00;  0.0000000E+00;  0.0000000E+00;  1.0000707E+03;  1.0000000E-01;  5.8566246E+01;0;  0.0000000E+00;  0.0000000E+00;  0.0000000E+00;0;  6.6557397E-05;  4.0000000E+04;  0.0000000E+00;  0.0000000E+00;  4.0000000E+04;  0.0000000E+00;  4.0000000E+04;  6.9610901E-06;  0.0000000E+00;  5.9596307E-05;  2.7079843E+02;
  0.0000000E+00;  9.9999998E-03; -4.1000000E-01;1822;  0.0000000E+00;  0.0000000E+00;  0.0000000E+00;  1.0001492E+03;  1.0000000E-01;  1.2355206E+02;0;  0.0000000E+00;  0.0000000E+00;  0.0000000E+00;0;  1.5261697E-04;  4.0000000E+04;  0.0000000E+00;  0.0000000E+00;  4.0000000E+04;  0.0000000E+00;  4.0000000E+04;  2.8110173E-05;  0.0000000E+00;  1.2450680E-04;  4.8029245E+02;
  0.0000000E+00;  9.9999998E-03; -4.0000001E-01;1823;  0.0000000E+00;  0.0000000E+00;  0.0000000E+00;  1.0002874E+03;  1.0000000E-01;  2.3811673E+02;0;  0.0000000E+00;  0.0000000E+00;  0.0000000E+00;0;  2.9934483E-04;  4.0000000E+04;  0.0000000E+00;  0.0000000E+00;  4.0000000E+04;  0.0000000E+00;  4.0000000E+04;  7.9257297E-05;  0.0000000E+00;  2.2008753E-04;  7.4885498E+02;
  0.0000000E+00;  9.9999998E-03; -3.8999999E-01;1824;  0.0000000E+00;  0.0000000E+00;  0.0000000E+00;  1.0004694E+03;  1.0000000E-01;  3.8882852E+02;0;  0.0000000E+00;  0.0000000E+00;  0.0000000E+00;0;  5.2971579E-04;  4.0000000E+04;  0.0000000E+00;  0.0000000E+00;  4.0000000E+04;  0.0000000E+00;  4.0000000E+04;  1.8346409E-04;  0.0000000E+00;  3.4625173E-04;  1.0620822E+03;
  0.0000000E+00;  9.9999998E-03; -3.8000000E-01;1825;  0.0000000E+00;  0.0000000E+00;  0.0000000E+00;  1.0007108E+03;  1.0000000E-01;  5.8892163E+02;0;  0.0000000E+00;  0.0000000E+00;  0.0000000E+00;0;  8.7246334E-04;  4.0000000E+04;  0.0000000E+00;  0.0000000E+00;  4.0000000E+04;  0.0000000E+00;  4.0000000E+04;  3.7163604E-04;  0.0000000E+00;  5.0082727E-04;  1.4029897E+03;
  0.0000000E+00;  9.9999998E-03; -3.7000000E-01;1826;  0.0000000E+00;  0.0000000E+00;  0.0000000E+00;  1.0010168E+03;  1.0000000E-01;  8.4234656E+02;0;  0.0000000E+00;  0.0000000E+00;  0.0000000E+00;0;  1.3621286E-03;  4.0000000E+04;  0.0000000E+00;  0.0000000E+00;  4.0000000E+04;  0.0000000E+00;  4.0000000E+04;  6.8177545E-04;  0.0000000E+00;  6.8035314E-04;  1.7537651E+03;
  0.0000000E+00;  9.9999998E-03; -3.6000001E-01;1827;  0.0000000E+00;  0.0000000E+00;  0.0000000E+00;  1.0014221E+03;  1.0000000E-01;  1.1781395E+03;0;  0.0000000E+00;  0.0000000E+00;  0.0000000E+00;0;  2.0372341E-03;  4.0000000E+04;  0.0000000E+00;  0.0000000E+00;  4.0000000E+04;  0.0000000E+00;  4.0000000E+04;  1.1571788E-03;  0.0000000E+00;  8.8005542E-04;  2.0949338E+03;
  0.0000000E+00;  9.9999998E-03; -3.4999999E-01;1828;  0.0000000E+00;  0.0000000E+00;  0.0000000E+00;  1.0019057E+03;  1.0000000E-01;  1.5788196E+03;0;  0.0000000E+00;  0.0000000E+00;  0.0000000E+00;0;  2.9362887E-03;  4.0000000E+04;  0.0000000E+00;  0.0000000E+00;  4.0000000E+04;  0.0000000E+00;  4.0000000E+04;  1.8433200E-03;  0.0000000E+00;  1.0929687E-03;  2.4030774E+03;
  0.0000000E+00;  9.9999998E-03; -3.4000000E-01;1829;  0.0000000E+00;  0.0000000E+00;  0.0000000E+00;  1.0024946E+03;  1.0000000E-01;  2.0667070E+03;0;  0.0000000E+00;  0.0000000E+00;  0.0000000E+00;0;  4.0919385E-03;  4.0000000E+04;  0.0000000E+00;  0.0000000E+00;  4.0000000E+04;  0.0000000E+00;  4.0000000E+04;  2.7835921E-03;  0.0000000E+00;  1.3083465E-03;  2.6475815E+03;
  0.0000000E+00;  9.9999998E-03; -3.3000001E-01;1830;  0.0000000E+00;  0.0000000E+00;  0.0000000E+00;  1.0031808E+03;  1.0000000E-01;  2.6351848E+03;0;  0.0000000E+00;  0.0000000E+00;  0.0000000E+00;0;  5.5237608E-03;  4.0000000E+04;  0.0000000E+00;  0.0000000E+00;  4.0000000E+04;  0.0000000E+00;  4.0000000E+04;  4.0141940E-03;  0.0000000E+00;  1.5095667E-03;  2.7878853E+03;
  0.0000000E+00;  9.9999998E-03; -3.1999999E-01;1831;  0.0000000E+00;  0.0000000E+00;  0.0000000E+00;  1.0039531E+03;  1.0000000E-01;  3.2750679E+03;0;  0.0000000E+00;  0.0000000E+00;  0.0000000E+00;0;  7.2305715E-03;  4.0000000E+04;  0.0000000E+00;  0.0000000E+00;  4.0000000E+04;  0.0000000E+00;  4.0000000E+04;  5.5584763E-03;  0.0000000E+00;  1.6720950E-03;  2.7720732E+03;
  0.0000000E+00;  9.9999998E-03; -3.1000000E-01;1832;  0.0000000E+00;  0.0000000E+00;  0.0000000E+00;  1.0047864E+03;  1.0000000E-01;  3.9655176E+03;0;  0.0000000E+00;  0.0000000E+00;  0.0000000E+00;0;  9.1837160E-03;  4.0000000E+04;  0.0000000E+00;  0.0000000E+00;  4.0000000E+04;  0.0000000E+00;  4.0000000E+04;  7.4210395E-03;  0.0000000E+00;  1.7626761E-03;  2.5410918E+03;
  0.0000000E+00;  9.9999998E-03; -3.0000001E-01;1833;  0.0000000E+00;  0.0000000E+00;  0.0000000E+00;  1.0056440E+03;  1.0000000E-01;  4.6760161E+03;0;  0.0000000E+00;  0.0000000E+00;  0.0000000E+00;0;  1.1322891E-02;  4.0000000E+04;  0.0000000E+00;  0.0000000E+00;  4.0000000E+04;  0.0000000E+00;  4.0000000E+04;  9.5809167E-03;  0.0000000E+00;  1.7419744E-03;  2.0473374E+03;
  9.9999998E-03;  9.9999998E-03; -4.4000000E-01;1851;  0.0000000E+00;  0.0000000E+00;  0.0000000E+00;  1.0000000E+03;  1.0000000E-01;  0.0000000E+00;0;  0.0000000E+00;  0.0000000E+00;  0.0000000E+00;0;  4.1468879E-06;  4.0000000E+04;  0.0000000E+00;  0.0000000E+00;  4.0000000E+04;  0.0000000E+00;  4.0000000E+04; -1.1160165E-06;  0.0000000E+00;  5.2629043E-06;  5.0306667E+01;
  9.9999998E-03;  9.9999998E-03; -4.3000001E-01;1852;  0.0000000E+00;  0.0000000E+00;  0.0000000E+00;  1.0000317E+03;  1.0000000E-01;  2.6270863E+01;0;  0.0000000E+00;  0.0000000E+00;  0.0000000E+00;0;  1.9579382E-05;  4.0000000E+04;  0.0000000E+00;  0.0000000E+00;  4.0000000E+04;  0.0000000E+00;  4.0000000E+04; -1.2861151E-06;  0.0000000E+00;  2.0865496E-05;  1.3487065E+02;
  9.9999998E-03;  9.9999998E-03; -4.1999999E-01;1853;  0.0000000E+00;  0.0000000E+00;  0.0000000E+00;  1.0000889E+03;  1.0000000E-01;  7.3676926E+01;0;  0.0000000E+00;  0.0000000E+00;  0.0000000E+00;0;  6.0029004E-05;  4.0000000E+04;  0.0000000E+00;  0.0000000E+00;  4.0000000E+04;  0.0000000E+00;  4.0000000E+04;  3.3564982E-06;  0.0000000E+00;  5.6672507E-05;  2.8260132E+02;
  9.9999998E-03;  9.9999998E-03; -4.1000000E-01;1854;  0.0000000E+00;  0.0000000E+00;  0.0000000E+00;  1.0001854E+03;  1.0000000E-01;  1.5357590E+02;0;  0.0000000E+00;  0.0000000E+00;  0.0000000E+00;0;  1.4289525E-04;  4.0000000E+04;  0.0000000E+00;  0.0000000E+00;  4.0000000E+04;  0.0000000E+00;  4.0000000E+04;  2.2247677E-05;  0.0000000E+00;  1.2064758E-04;  4.9913303E+02;
  9.9999998E-03;  9.9999998E-03; -4.0000001E-01;1855;  0.0000000E+00;  0.0000000E+00;  0.0000000E+00;  1.0003432E+03;  1.0000000E-01;  2.8433765E+02;0;  0.0000000E+00;  0.0000000E+00;  0.0000000E+00;0;  2.8864382E-04;  4.0000000E+04;  0.0000000E+00;  0.0000000E+00;  4.0000000E+04;  0.0000000E+00;  4.0000000E+04;  7.1537201E-05;  0.0000000E+00;  2.1710660E-04;  7.7790173E+02;
  9.9999998E-03;  9.9999998E-03; -3.8999999E-01;1856;  0.0000000E+00;  0.0000000E+00;  0.0000000E+00;  1.0005525E+03;  1.0000000E-01;  4.5776483E+02;0;  0.0000000E+00;  0.0000000E+00;  0.0000000E+00;0;  5.2101584E-04;  4.0000000E+04;  0.0000000E+00;  0.0000000E+00;  4.0000000E+04;  0.0000000E+00;  4.0000000E+04;  1.7464536E-04;  0.0000000E+00;  3.4637051E-04;  1.1041042E+03;
  9.9999998E-03;  9.9999998E-03; -3.8000000E-01;1857;  0.0000000E+00;  0.0000000E+00;  0.0000000E+00;  1.0008315E+03;  1.0000000E-01;  6.8886938E+02;0;  0.0000000E+00;  0.0000000E+00;  0.0000000E+00;0;  8.6798612E-04;  4.0000000E+04;  0.0000000E+00;  0.0000000E+00;  4.0000000E+04;  0.0000000E+00;  4.0000000E+04;  3.6199088E-04;  0.0000000E+00;  5.0599524E-04;  1.4594857E+03;
  9.9999998E-03;  9.9999998E-03; -3.7000000E-01;1858;  0.0000000E+00;  0.0000000E+00;  0.0000000E+00;  1.0011901E+03;  1.0000000E-01;  9.8594745E+02;0;  0.0000000E+00;  0.0000000E+00;  0.0000000E+00;0;  1.3618704E-03;  4.0000000E+04;  0.0000000E+00;  0.0000000E+00;  4.0000000E+04;  0.0000000E+00;  4.0000000E+04;  6.6985993E-04;  0.0000000E+00;  6.9201045E-04;  1.8247711E+03;
  9.9999998E-03;  9.9999998E-03; -3.6000001E-01;1859;  0.0000000E+00;  0.0000000E+00;  0.0000000E+00;  1.0016595E+03;  1.0000000E-01;  1.3748748E+03;0;  0.0000000E+00;  0.0000000E+00;  0.0000000E+00;0;  2.0375284E-03;  4.0000000E+04;  0.0000000E+00;  0.0000000E+00;  4.0000000E+04;  0.0000000E+00;  4.0000000E+04;  1.1382834E-03;  0.0000000E+00;  8.9924497E-04;  2.1792932E+03;
  9.9999998E-03;  9.9999998E-03; -3.4999999E-01;1860;  0.0000000E+00;  0.0000000E+00;  0.0000000E+00;  1.0022188E+03;  1.0000000E-01;  1.8381703E+03;0;  0.0000000E+00;  0.0000000E+00;  0.0000000E+00;0;  2.9283185E-03;  4.0000000E+04;  0.0000000E+00;  0.0000000E+00;  4.0000000E+04;  0.0000000E+00;  4.0000000E+04;  1.8076970E-03;  0.0000000E+00;  1.1206213E-03;  2.4988359E+03;
  9.9999998E-03;  9.9999998E-03; -3.4000000E-01;1861;  0.0000000E+00;  0.0000000E+00;  0.0000000E+00;  1.0029099E+03;  1.0000000E-01;  2.4107959E+03;0;  0.0000000E+00;  0.0000000E+00;  0.0000000E+00;0;  4.0601790E-03;  4.0000000E+04;  0.0000000E+00;  0.0000000E+00;  4.0000000E+04;  0.0000000E+00;  4.0000000E+04;  2.7146093E-03;  0.0000000E+00;  1.3455695E-03;  2.7522881E+03;
  9.9999998E-03;  9.9999998E-03; -3.3000001E-01;1862;  0.0000000E+00;  0.0000000E+00;  0.0000000E+00;  1.0037172E+03;  1.0000000E-01;  3.0796167E+03;0;  0.0000000E+00;  0.0000000E+00;  0.0000000E+00;0;  5.4445108E-03;  4.0000000E+04;  0.0000000E+00;  0.0000000E+00;  4.0000000E+04;  0.0000000E+00;  4.0000000E+04;  3.8867677E-03;  0.0000000E+00;  1.5577431E-03;  2.8982751E+03;
  9.9999998E-03;  9.9999998E-03; -3.1999999E-01;1863;  0.0000000E+00;  0.0000000E+00;  0.0000000E+00;  1.0046213E+03;  1.0000000E-01;  3.8286326E+03;0;  0.0000000E+00;  0.0000000E+00;  0.0000000E+00;0;  7.0706690E-03;  4.0000000E+04;  0.0000000E+00;  0.0000000E+00;  4.0000000E+04;  0.0000000E+00;  4.0000000E+04;  5.3381645E-03;  0.0000000E+00;  1.7325045E-03;  2.8826201E+03;
  9.9999998E-03;  9.9999998E-03; -3.1000000E-01;1864;  0.0000000E+00;  0.0000000E+00;  0.0000000E+00;  1.0056027E+03;  1.0000000E-01;  4.6417451E+03;0;  0.0000000E+00;  0.0000000E+00;  0.0000000E+00;0;  8.8995993E-03;  4.0000000E+04;  0.0000000E+00;  0.0000000E+00;  4.0000000E+04;  0.0000000E+00;  4.0000000E+04;  7.0644468E-03;  0.0000000E+00;  1.8351520E-03;  2.6400361E+03;
  2.0000000E-02;  9.9999998E-03; -4.4000000E-01;1881;  0.0000000E+00;  0.0000000E+00;  0.0000000E+00;  1.0000000E+03;  1.0000000E-01;  0.0000000E+00;0;  0.0000000E+00;  0.0000000E+00;  0.0000000E+00;0;  1.9112249E-06;  4.0000000E+04;  0.0000000E+00;  0.0000000E+00;  4.0000000E+04;  0.0000000E+00;  4.0000000E+04; -1.4502224E-06;  0.0000000E+00;  3.3614472E-06;  4.9116753E+01;
  2.0000000E-02;  9.9999998E-03; -4.3000001E-01;1882;  0.0000000E+00;  0.0000000E+00;  0.0000000E+00;  1.0000461E+03;  1.0000000E-01;  3.8221142E+01;0;  0.0000000E+00;  0.0000000E+00;  0.0000000E+00;0;  1.3164021E-05;  4.0000000E+04;  0.0000000E+00;  0.0000000E+00;  4.0000000E+04;  0.0000000E+00;  4.0000000E+04; -2.2370220E-06;  0.0000000E+00;  1.5401043E-05;  1.3076625E+02;
  2.0000000E-02;  9.9999998E-03; -4.1999999E-01;1883;  0.0000000E+00;  0.0000000E+00;  0.0000000E+00;  1.0001116E+03;  1.0000000E-01;  9.2441833E+01;0;  0.0000000E+00;  0.0000000E+00;  0.0000000E+00;0;  4.8335900E-05;  4.0000000E+04;  0.0000000E+00;  0.0000000E+00;  4.0000000E+04;  0.0000000E+00;  4.0000000E+04;  1.9362528E-06;  0.0000000E+00;  4.6399648E-05;  2.7582056E+02;
  2.0000000E-02;  9.9999998E-03; -4.1000000E-01;1884;  0.0000000E+00;  0.0000000E+00;  0.0000000E+00;  1.0002181E+03;  1.0000000E-01;  1.8063687E+02;0;  0.0000000E+00;  0.0000000E+00;  0.0000000E+00;0;  1.2745420E-04;  4.0000000E+04;  0.0000000E+00;  0.0000000E+00;  4.0000000E+04;  0.0000000E+00;  4.0000000E+04;  2.1418036E-05;  0.0000000E+00;  1.0603616E-04;  4.9274051E+02;
  2.0000000E-02;  9.9999998E-03; -4.0000001E-01;1885;  0.0000000E+00;  0.0000000E+00;  0.0000000E+00;  1.0004037E+03;  1.0000000E-01;  3.3450906E+02;0;  0.0000000E+00;  0.0000000E+00;  0.0000000E+00;0;  2.7285665E-04;  4.0000000E+04;  0.0000000E+00;  0.0000000E+00;  4.0000000E+04;  0.0000000E+00;  4.0000000E+04;  7.3069459E-05;  0.0000000E+00;  1.9978719E-04;  7.7639172E+02;
  2.0000000E-02;  9.9999998E-03; -3.8999999E-01;1886;  0.0000000E+00;  0.0000000E+00;  0.0000000E+00;  1.0006360E+03;  1.0000000E-01;  5.2699744E+02;0;  0.0000000E+00;  0.0000000E+00;  0.0000000E+00;0;  5.0828210E-04;  4.0000000E+04;  0.0000000E+00;  0.0000000E+00;  4.0000000E+04;  0.0000000E+00;  4.0000000E+04;  1.8027666E-04;  0.0000000E+00;  3.2800541E-04;  1.1111937E+03;
  2.0000000E-02;  9.9999998E-03; -3.8000000E-01;1887;  0.0000000E+00;  0.0000000E+00;  0.0000000E+00;  1.0009442E+03;  1.0000000E-01;  7.8220007E+02;0;  0.0000000E+00;  0.0000000E+00;  0.0000000E+00;0;  8.5978059E-04;  4.0000000E+04;  0.0000000E+00;  0.0000000E+00;  4.0000000E+04;  0.0000000E+00;  4.0000000E+04;  3.7226093E-04;  0.0000000E+00;  4.8751966E-04;  1.4766554E+03;
  2.0000000E-02;  9.9999998E-03; -3.7000000E-01;1888;  0.0000000E+00;  0.0000000E+00;  0.0000000E+00;  1.0013497E+03;  1.0000000E-01;  1.1181906E+03;0;  0.0000000E+00;  0.0000000E+00;  0.0000000E+00;0;  1.3560203E-03;  4.0000000E+04;  0.0000000E+00;  0.0000000E+00;  4.0000000E+04;  0.0000000E+00;  4.0000000E+04;  6.8256905E-04;  0.0000000E+00;  6.7345134E-04;  1.8509825E+03;
  2.0000000E-02;  9.9999998E-03; -3.6000001E-01;1889;  0.0000000E+00;  0.0000000E+00;  0.0000000E+00;  1.0018658E+03;  1.0000000E-01;  1.5457340E+03;0;  0.0000000E+00;  0.0000000E+00;  0.0000000E+00;0;  2.0265393E-03;  4.0000000E+04;  0.0000000E+00;  0.0000000E+00;  4.0000000E+04;  0.0000000E+00;  4.0000000E+04;  1.1466031E-03;  0.0000000E+00;  8.7993627E-04;  2.2113779E+03;
  2.0000000E-02;  9.9999998E-03; -3.4999999E-01;1890;  0.0000000E+00;  0.0000000E+00;  0.0000000E+00;  1.0025031E+03;  1.0000000E-01;  2.0738179E+03;0;  0.0000000E+00;  0.0000000E+00;  0.0000000E+00;0;  2.8976686E-03;  4.0000000E+04;  0.0000000E+00;  0.0000000E+00;  4.0000000E+04;  0.0000000E+00;  4.0000000E+04;  1.7980454E-03;  0.0000000E+00;  1.0996234E-03;  2.5322449E+03;
  2.0000000E-02;  9.9999998E-03; -3.4000000E-01;1891;  0.0000000E+00;  0.0000000E+00;  0.0000000E+00;  1.0032791E+03;  1.0000000E-01;  2.7166638E+03;0;  0.0000000E+00;  0.0000000E+00;  0.0000000E+00;0;  3.9865589E-03;  4.0000000E+04;  0.0000000E+00;  0.0000000E+00;  4.0000000E+04;  0.0000000E+00;  4.0000000E+04;  2.6643984E-03;  0.0000000E+00;  1.3221605E-03;  2.7819302E+03;
  2.0000000E-02;  9.9999998E-03; -3.3000001E-01;1892;  0.0000000E+00;  0.0000000E+00;  0.0000000E+00;  1.0041836E+03;  1.0000000E-01;  3.4660747E+03;0;  0.0000000E+00;  0.0000000E+00;  0.0000000E+00;0;  5.2943337E-03;  4.0000000E+04;  0.0000000E+00;  0.0000000E+00;  4.0000000E+04;  0.0000000E+00;  4.0000000E+04;  3.7624110E-03;  0.0000000E+00;  1.5319226E-03;  2.9190640E+03;
  2.0000000E-02;  9.9999998E-03; -3.1999999E-01;1893;  0.0000000E+00;  0.0000000E+00;  0.0000000E+00;  1.0052076E+03;  1.0000000E-01;  4.3144458E+03;0;  0.0000000E+00;  0.0000000E+00;  0.0000000E+00;0;  6.7992471E-03;  4.0000000E+04;  0.0000000E+00;  0.0000000E+00;  4.0000000E+04;  0.0000000E+00;  4.0000000E+04;  5.0939498E-03;  0.0000000E+00;  1.7052970E-03;  2.8895369E+03;
  2.0000000E-02;  9.9999998E-03; -3.1000000E-01;1894;  0.0000000E+00;  0.0000000E+00;  0.0000000E+00;  1.0063135E+03;  1.0000000E-01;  5.2306670E+03;0;  0.0000000E+00;  0.0000000E+00;  0.0000000E+00;0;  8.4514916E-03;  4.0000000E+04;  0.0000000E+00;  0.0000000E+00;  4.0000000E+04;  0.0000000E+00;  4.0000000E+04;  6.6431775E-03;  0.0000000E+00;  1.8083142E-03;  2.6273997E+03;
  2.9999999E-02;  9.9999998E-03; -4.4000000E-01;1911;  0.0000000E+00;  0.0000000E+00;  0.0000000E+00;  1.0000000E+03;  1.0000000E-01;  0.0000000E+00;0;  0.0000000E+00;  0.0000000E+00;  0.0000000E+00;0; -1.4978580E-06;  4.0000000E+04;  0.0000000E+00;  0.0000000E+00;  4.0000000E+04;  0.0000000E+00;  4.0000000E+04; -1.2723382E-06;  0.0000000E+00; -2.2551974E-07;  4.2399616E+01;
  2.9999999E-02;  9.9999998E-03; -4.3000001E-01;1912;  0.0000000E+00;  0.0000000E+00;  0.0000000E+00;  1.0000506E+03;  1.0000000E-01;  4.1875359E+01;0;  0.0000000E+00;  0.0000000E+00;  0.0000000E+00;0;  4.9910268E-06;  4.0000000E+04;  0.0000000E+00;  0.0000000E+00;  4.0000000E+04;  0.0000000E+00;  4.0000000E+04; -1.3035208E-06;  0.0000000E+00;  6.2945473E-06;  1.1618385E+02;
  2.9999999E-02;  9.9999998E-03; -4.1999999E-01;1913;  0.0000000E+00;  0.0000000E+00;  0.0000000E+00;  1.0001301E+03;  1.0000000E-01;  1.0775004E+02;0;  0.0000000E+00;  0.0000000E+00;  0.0000000E+00;0;  3.5818357E-05;  4.0000000E+04;  0.0000000E+00;  0.0000000E+00;  4.0000000E+04;  0.0000000E+00;  4.0000000E+04;  5.4059947E-06;  0.0000000E+00;  3.0412362E-05;  2.5430385E+02;
  2.9999999E-02;  9.9999998E-03; -4.1000000E-01;1914;  0.0000000E+00;  0.0000000E+00;  0.0000000E+00;  1.0002547E+03;  1.0000000E-01;  2.1105576E+02;0;  0.0000000E+00;  0.0000000E+00;  0.0000000E+00;0;  1.1403520E-04;  4.0000000E+04;  0.0000000E+00;  0.0000000E+00;  4.0000000E+04;  0.0000000E+00;  4.0000000E+04;  3.0419060E-05;  0.0000000E+00;  8.3616134E-05;  4.6940326E+02;
  2.9999999E-02;  9.9999998E-03; -4.0000001E-01;1915;  0.0000000E+00;  0.0000000E+00;  0.0000000E+00;  1.0004472E+03;  1.0000000E-01;  3.7045865E+02;0;  0.0000000E+00;  0.0000000E+00;  0.0000000E+00;0;  2.6345489E-04;  4.0000000E+04;  0.0000000E+00;  0.0000000E+00;  4.0000000E+04;  0.0000000E+00;  4.0000000E+04;  9.1285809E-05;  0.0000000E+00;  1.7216908E-04;  7.5773102E+02;
  2.9999999E-02;  9.9999998E-03; -3.8999999E-01;1916;  0.0000000E+00;  0.0000000E+00;  0.0000000E+00;  1.0007010E+03;  1.0000000E-01;  5.8082306E+02;0;  0.0000000E+00;  0.0000000E+00;  0.0000000E+00;0;  5.0707295E-04;  4.0000000E+04;  0.0000000E+00;  0.0000000E+00;  4.0000000E+04;  0.0000000E+00;  4.0000000E+04;  2.1114021E-04;  0.0000000E+00;  2.9593275E-04;  1.1017767E+03;
  2.9999999E-02;  9.9999998E-03; -3.8000000E-01;1917;  0.0000000E+00;  0.0000000E+00;  0.0000000E+00;  1.0010353E+03;  1.0000000E-01;  8.5775354E+02;0;  0.0000000E+00;  0.0000000E+00;  0.0000000E+00;0;  8.6819811E-04;  4.0000000E+04;  0.0000000E+00;  0.0000000E+00;  4.0000000E+04;  0.0000000E+00;  4.0000000E+04;  4.1764407E-04;  0.0000000E+00;  4.5055407E-04;  1.4774224E+03;
  2.9999999E-02;  9.9999998E-03; -3.7000000E-01;1918;  0.0000000E+00;  0.0000000E+00;  0.0000000E+00;  1.0014785E+03;  1.0000000E-01;  1.2249530E+03;0;  0.0000000E+00;  0.0000000E+00;  0.0000000E+00;0;  1.3710412E-03;  4.0000000E+04;  0.0000000E+00;  0.0000000E+00;  4.0000000E+04;  0.0000000E+00;  4.0000000E+04;  7.4115547E-04;  0.0000000E+00;  6.2988576E-04;  1.8590096E+03;
  2.9999999E-02;  9.9999998E-03; -3.6000001E-01;1919;  0.0000000E+00;  0.0000000E+00;  0.0000000E+00;  1.0020287E+03;  1.0000000E-01;  1.6807426E+03;0;  0.0000000E+00;  0.0000000E+00;  0.0000000E+00;0;  2.0389159E-03;  4.0000000E+04;  0.0000000E+00;  0.0000000E+00;  4.0000000E+04;  0.0000000E+00;  4.0000000E+04;  1.2118430E-03;  0.0000000E+00;  8.2707283E-04;  2.2206101E+03;
  2.9999999E-02;  9.9999998E-03; -3.4999999E-01;1920;  0.0000000E+00;  0.0000000E+00;  0.0000000E+00;  1.0027268E+03;  1.0000000E-01;  2.2590967E+03;0;  0.0000000E+00;  0.0000000E+00;  0.0000000E+00;0;  2.8901906E-03;  4.0000000E+04;  0.0000000E+00;  0.0000000E+00;  4.0000000E+04;  0.0000000E+00;  4.0000000E+04;  1.8559350E-03;  0.0000000E+00;  1.0342555E-03;  2.5343892E+03;
  2.9999999E-02;  9.9999998E-03; -3.4000000E-01;1921;  0.0000000E+00;  0.0000000E+00;  0.0000000E+00;  1.0035694E+03;  1.0000000E-01;  2.9571509E+03;0;  0.0000000E+00;  0.0000000E+00;  0.0000000E+00;0;  3.9324630E-03;  4.0000000E+04;  0.0000000E+00;  0.0000000E+00;  4.0000000E+04;  0.0000000E+00;  4.0000000E+04;  2.6912456E-03;  0.0000000E+00;  1.2412176E-03;  2.7678120E+03;
  2.9999999E-02;  9.9999998E-03; -3.3000001E-01;1922;  0.0000000E+00;  0.0000000E+00;  0.0000000E+00;  1.0045634E+03;  1.0000000E-01;  3.7806338E+03;0;  0.0000000E+00;  0.0000000E+00;  0.0000000E+00;0;  5.1562171E-03;  4.0000000E+04;  0.0000000E+00;  0.0000000E+00;  4.0000000E+04;  0.0000000E+00;  4.0000000E+04;  3.7228754E-03;  0.0000000E+00;  1.4333418E-03;  2.8801692E+03;
  2.9999999E-02;  9.9999998E-03; -3.1999999E-01;1923;  0.0000000E+00;  0.0000000E+00;  0.0000000E+00;  1.0056782E+03;  1.0000000E-01;  4.7042622E+03;0;  0.0000000E+00;  0.0000000E+00;  0.0000000E+00;0;  6.5292618E-03;  4.0000000E+04;  0.0000000E+00;  0.0000000E+00;  4.0000000E+04;  0.0000000E+00;  4.0000000E+04;  4.9401089E-03;  0.0000000E+00;  1.5891530E-03;  2.8203613E+03;
  2.9999999E-02;  9.9999998E-03; -3.1000000E-01;1924;  0.0000000E+00;  0.0000000E+00;  0.0000000E+00;  1.0068843E+03;  1.0000000E-01;  5.7035425E+03;0;  0.0000000E+00;  0.0000000E+00;  0.0000000E+00;0;  7.9935919E-03;  4.0000000E+04;  0.0000000E+00;  0.0000000E+00;  4.0000000E+04;  0.0000000E+00;  4.0000000E+04;  6.3155456E-03;  0.0000000E+00;  1.6780465E-03;  2.5299670E+03;
  3.9999999E-02;  9.9999998E-03; -4.4000000E-01;1941;  0.0000000E+00;  0.0000000E+00;  0.0000000E+00;  1.0000000E+03;  1.0000000E-01;  0.0000000E+00;0;  0.0000000E+00;  0.0000000E+00;  0.0000000E+00;0; -5.2370870E-06;  4.0000000E+04;  0.0000000E+00;  0.0000000E+00;  4.0000000E+04;  0.0000000E+00;  4.0000000E+04; -2.3412684E-07;  0.0000000E+00; -5.0029603E-06;  3.1444338E+01;
  3.9999999E-02;  9.9999998E-03; -4.3000001E-01;1942;  0.0000000E+00;  0.0000000E+00;  0.0000000E+00;  1.0000569E+03;  1.0000000E-01;  4.7109779E+01;0;  0.0000000E+00;  0.0000000E+00;  0.0000000E+00;0; -2.0351549E-06;  4.0000000E+04;  0.0000000E+00;  0.0000000E+00;  4.0000000E+04;  0.0000000E+00;  4.0000000E+04;  2.6292419E-06;  0.0000000E+00; -4.6643968E-06;  9.5533081E+01;
  3.9999999E-02;  9.9999998E-03; -4.1999999E-01;1943;  0.0000000E+00;  0.0000000E+00;  0.0000000E+00;  1.0001376E+03;  1.0000000E-01;  1.1407085E+02;0;  0.0000000E+00;  0.0000000E+00;  0.0000000E+00;0;  2.8178732E-05;  4.0000000E+04;  0.0000000E+00;  0.0000000E+00;  4.0000000E+04;  0.0000000E+00;  4.0000000E+04;  1.5946805E-05;  0.0000000E+00;  1.2231926E-05;  2.2761789E+02;
  3.9999999E-02;  9.9999998E-03; -4.1000000E-01;1944;  0.0000000E+00;  0.0000000E+00;  0.0000000E+00;  1.0002783E+03;  1.0000000E-01;  2.3061076E+02;0;  0.0000000E+00;  0.0000000E+00;  0.0000000E+00;0;  1.1132297E-04;  4.0000000E+04;  0.0000000E+00;  0.0000000E+00;  4.0000000E+04;  0.0000000E+00;  4.0000000E+04;  5.2704712E-05;  0.0000000E+00;  5.8618261E-05;  4.4503131E+02;
  3.9999999E-02;  9.9999998E-03; -4.0000001E-01;1945;  0.0000000E+00;  0.0000000E+00;  0.0000000E+00;  1.0004854E+03;  1.0000000E-01;  4.0216147E+02;0;  0.0000000E+00;  0.0000000E+00;  0.0000000E+00;0;  2.7209657E-04;  4.0000000E+04;  0.0000000E+00;  0.0000000E+00;  4.0000000E+04;  0.0000000E+00;  4.0000000E+04;  1.3118825E-04;  0.0000000E+00;  1.4090832E-04;  7.4420654E+02;
  3.9999999E-02;  9.9999998E-03; -3.8999999E-01;1946;  0.0000000E+00;  0.0000000E+00;  0.0000000E+00;  1.0007458E+03;  1.0000000E-01;  6.1795782E+02;0;  0.0000000E+00;  0.0000000E+00;  0.0000000E+00;0;  5.3223578E-04;  4.0000000E+04;  0.0000000E+00;  0.0000000E+00;  4.0000000E+04;  0.0000000E+00;  4.0000000E+04;  2.7428212E-04;  0.0000000E+00;  2.5795365E-04;  1.1040129E+03;
  3.9999999E-02;  9.9999998E-03; -3.8000000E-01;1947;  0.0000000E+00;  0.0000000E+00;  0.0000000E+00;  1.0010983E+03;  1.0000000E-01;  9.0990021E+02;0;  0.0000000E+00;  0.0000000E+00;  0.0000000E+00;0;  9.1192499E-04;  4.0000000E+04;  0.0000000E+00;  0.0000000E+00;  4.0000000E+04;  0.0000000E+00;  4.0000000E+04;  5.0805497E-04;  0.0000000E+00;  4.0386998E-04;  1.4953276E+03;
  3.9999999E-02;  9.9999998E-03; -3.7000000E-01;1948;  0.0000000E+00;  0.0000000E+00;  0.0000000E+00;  1.0015631E+03;  1.0000000E-01;  1.2949757E+03;0;  0.0000000E+00;  0.0000000E+00;  0.0000000E+00;0;  1.4306281E-03;  4.0000000E+04;  0.0000000E+00;  0.0000000E+00;  4.0000000E+04;  0.0000000E+00;  4.0000000E+04;  8.5963076E-04;  0.0000000E+00;  5.7099730E-04;  1.8875924E+03;
  3.9999999E-02;  9.9999998E-03; -3.6000001E-01;1949;  0.0000000E+00;  0.0000000E+00;  0.0000000E+00;  1.0021616E+03;  1.0000000E-01;  1.7908629E+03;0;  0.0000000E+00;  0.0000000E+00;  0.0000000E+00;0;  2.1052901E-03;  4.0000000E+04;  0.0000000E+00;  0.0000000E+00;  4.0000000E+04;  0.0000000E+00;  4.0000000E+04;  1.3540371E-03;  0.0000000E+00;  7.5125298E-04;  2.2506631E+03;
  3.9999999E-02;  9.9999998E-03; -3.4999999E-01;1950;  0.0000000E+00;  0.0000000E+00;  0.0000000E+00;  1.0028988E+03;  1.0000000E-01;  2.4016111E+03;0;  0.0000000E+00;  0.0000000E+00;  0.0000000E+00;0;  2.9463656E-03;  4.0000000E+04;  0.0000000E+00;  0.0000000E+00;  4.0000000E+04;  0.0000000E+00;  4.0000000E+04;  2.0103143E-03;  0.0000000E+00;  9.3605142E-04;  2.5536282E+03;
  3.9999999E-02;  9.9999998E-03; -3.4000000E-01;1951;  0.0000000E+00;  0.0000000E+00;  0.0000000E+00;  1.0037937E+03;  1.0000000E-01;  3.1430222E+03;0;  0.0000000E+00;  0.0000000E+00;  0.0000000E+00;0;  3.9524650E-03;  4.0000000E+04;  0.0000000E+00;  0.0000000E+00;  4.0000000E+04;  0.0000000E+00;  4.0000000E+04;  2.8372274E-03;  0.0000000E+00;  1.1152375E-03;  2.7625110E+03;
  3.9999999E-02;  9.9999998E-03; -3.3000001E-01;1952;  0.0000000E+00;  0.0000000E+00;  0.0000000E+00;  1.0048378E+03;  1.0000000E-01;  4.0080842E+03;0;  0.0000000E+00;  0.0000000E+00;  0.0000000E+00;0;  5.1047616E-03;  4.0000000E+04;  0.0000000E+00;  0.0000000E+00;  4.0000000E+04;  0.0000000E+00;  4.0000000E+04;  3.8292934E-03;  0.0000000E+00;  1.2754684E-03;  2.8380081E+03;
  3.9999999E-02;  9.9999998E-03; -3.1999999E-01;1953;  0.0000000E+00;  0.0000000E+00;  0.0000000E+00;  1.0060134E+03;  1.0000000E-01;  4.9819824E+03;0;  0.0000000E+00;  0.0000000E+00;  0.0000000E+00;0;  6.3628955E-03;  4.0000000E+04;  0.0000000E+00;  0.0000000E+00;  4.0000000E+04;  0.0000000E+00;  4.0000000E+04;  4.9644224E-03;  0.0000000E+00;  1.3984733E-03;  2.7351082E+03;
  3.9999999E-02;  9.9999998E-03; -3.1000000E-01;1954;  0.0000000E+00;  0.0000000E+00;  0.0000000E+00;  1.0072936E+03;  1.0000000E-01;  6.0425947E+03;0;  0.0000000E+00;  0.0000000E+00;  0.0000000E+00;0;  7.6642428E-03;  4.0000000E+04;  0.0000000E+00;  0.0000000E+00;  4.0000000E+04;  0.0000000E+00;  4.0000000E+04;  6.2045730E-03;  0.0000000E+00;  1.4596699E-03;  2.4099998E+03;
  5.0000001E-02;  9.9999998E-03; -4.4000000E-01;1971;  0.0000000E+00;  0.0000000E+00;  0.0000000E+00;  1.0000000E+03;  1.0000000E-01;  0.0000000E+00;0;  0.0000000E+00;  0.0000000E+00;  0.0000000E+00;0; -7.8926478E-06;  4.0000000E+04;  0.0000000E+00;  0.0000000E+00;  4.0000000E+04;  0.0000000E+00;  4.0000000E+04;  1.9361444E-06;  0.0000000E+00; -9.8287919E-06;  1.9318613E+01;
  5.0000001E-02;  9.9999998E-03; -4.3000001E-01;1972;  0.0000000E+00;  0.0000000E+00;  0.0000000E+00;  1.0000646E+03;  1.0000000E-01;  5.3529350E+01;0;  0.0000000E+00;  0.0000000E+00;  0.0000000E+00;0; -4.5087245E-06;  4.0000000E+04;  0.0000000E+00;  0.0000000E+00;  4.0000000E+04;  0.0000000E+00;  4.0000000E+04;  1.0152472E-05;  0.0000000E+00; -1.4661196E-05;  7.6598694E+01;
  5.0000001E-02;  9.9999998E-03; -4.1999999E-01;1973;  0.0000000E+00;  0.0000000E+00;  0.0000000E+00;  1.0001482E+03;  1.0000000E-01;  1.2276196E+02;0;  0.0000000E+00;  0.0000000E+00;  0.0000000E+00;0;  3.1012078E-05;  4.0000000E+04;  0.0000000E+00;  0.0000000E+00;  4.0000000E+04;  0.0000000E+00;  4.0000000E+04;  3.4394401E-05;  0.0000000E+00; -3.3823235E-06;  2.1000928E+02;
  5.0000001E-02;  9.9999998E-03; -4.1000000E-01;1974;  0.0000000E+00;  0.0000000E+00;  0.0000000E+00;  1.0002839E+03;  1.0000000E-01;  2.3525261E+02;0;  0.0000000E+00;  0.0000000E+00;  0.0000000E+00;0;  1.2684536E-04;  4.0000000E+04;  0.0000000E+00;  0.0000000E+00;  4.0000000E+04;  0.0000000E+00;  4.0000000E+04;  8.9243062E-05;  0.0000000E+00;  3.7602302E-05;  4.4059491E+02;
  5.0000001E-02;  9.9999998E-03; -4.0000001E-01;1975;  0.0000000E+00;  0.0000000E+00;  0.0000000E+00;  1.0005006E+03;  1.0000000E-01;  4.1470432E+02;0;  0.0000000E+00;  0.0000000E+00;  0.0000000E+00;0;  3.0797557E-04;  4.0000000E+04;  0.0000000E+00;  0.0000000E+00;  4.0000000E+04;  0.0000000E+00;  4.0000000E+04;  1.9384026E-04;  0.0000000E+00;  1.1413533E-04;  7.6295648E+02;
  5.0000001E-02;  9.9999998E-03; -3.8999999E-01;1976;  0.0000000E+00;  0.0000000E+00;  0.0000000E+00;  1.0007650E+03;  1.0000000E-01;  6.3375983E+02;0;  0.0000000E+00;  0.0000000E+00;  0.0000000E+00;0;  5.9446215E-04;  4.0000000E+04;  0.0000000E+00;  0.0000000E+00;  4.0000000E+04;  0.0000000E+00;  4.0000000E+04;  3.7084566E-04;  0.0000000E+00;  2.2361652E-04;  1.1508241E+03;
  5.0000001E-02;  9.9999998E-03; -3.8000000E-01;1977;  0.0000000E+00;  0.0000000E+00;  0.0000000E+00;  1.0011415E+03;  1.0000000E-01;  9.4575104E+02;0;  0.0000000E+00;  0.0000000E+00;  0.0000000E+00;0;  1.0032046E-03;  4.0000000E+04;  0.0000000E+00;  0.0000000E+00;  4.0000000E+04;  0.0000000E+00;  4.0000000E+04;  6.4479501E-04;  0.0000000E+00;  3.5840957E-04;  1.5690072E+03;
  5.0000001E-02;  9.9999998E-03; -3.7000000E-01;1978;  0.0000000E+00;  0.0000000E+00;  0.0000000E+00;  1.0016164E+03;  1.0000000E-01;  1.3391227E+03;0;  0.0000000E+00;  0.0000000E+00;  0.0000000E+00;0;  1.5490002E-03;  4.0000000E+04;  0.0000000E+00;  0.0000000E+00;  4.0000000E+04;  0.0000000E+00;  4.0000000E+04;  1.0397690E-03;  0.0000000E+00;  5.0923118E-04;  1.9812285E+03;
  5.0000001E-02;  9.9999998E-03; -3.6000001E-01;1979;  0.0000000E+00;  0.0000000E+00;  0.0000000E+00;  1.0022327E+03;  1.0000000E-01;  1.8497255E+03;0;  0.0000000E+00;  0.0000000E+00;  0.0000000E+00;0;  2.2431449E-03;  4.0000000E+04;  0.0000000E+00;  0.0000000E+00;  4.0000000E+04;  0.0000000E+00;  4.0000000E+04;  1.5763749E-03;  0.0000000E+00;  6.6676998E-04;  2.3522629E+03;
  5.0000001E-02;  9.9999998E-03; -3.4999999E-01;1980;  0.0000000E+00;  0.0000000E+00;  0.0000000E+00;  1.0030012E+03;  1.0000000E-01;  2.4864482E+03;0;  0.0000000E+00;  0.0000000E+00;  0.0000000E+00;0;  3.0895027E-03;  4.0000000E+04;  0.0000000E+00;  0.0000000E+00;  4.0000000E+04;  0.0000000E+00;  4.0000000E+04;  2.2677842E-03;  0.0000000E+00;  8.2171848E-04;  2.6472766E+03;
  5.0000001E-02;  9.9999998E-03; -3.4000000E-01;1981;  0.0000000E+00;  0.0000000E+00;  0.0000000E+00;  1.0039259E+03;  1.0000000E-01;  3.2525500E+03;0;  0.0000000E+00;  0.0000000E+00;  0.0000000E+00;0;  4.0793722E-03;  4.0000000E+04;  0.0000000E+00;  0.0000000E+00;  4.0000000E+04;  0.0000000E+00;  4.0000000E+04;  3.1153928E-03;  0.0000000E+00;  9.6397940E-04;  2.8302935E+03;
  5.0000001E-02;  9.9999998E-03; -3.3000001E-01;1982;  0.0000000E+00;  0.0000000E+00;  0.0000000E+00;  1.0050046E+03;  1.0000000E-01;  4.1462529E+03;0;  0.0000000E+00;  0.0000000E+00;  0.0000000E+00;0;  5.1867031E-03;  4.0000000E+04;  0.0000000E+00;  0.0000000E+00;  4.0000000E+04;  0.0000000E+00;  4.0000000E+04;  4.1050292E-03;  0.0000000E+00;  1.0816737E-03;  2.8633545E+03;
  5.0000001E-02;  9.9999998E-03; -3.1999999E-01;1983;  0.0000000E+00;  0.0000000E+00;  0.0000000E+00;  1.0062224E+03;  1.0000000E-01;  5.1551133E+03;0;  0.0000000E+00;  0.0000000E+00;  0.0000000E+00;0;  6.3654655E-03;  4.0000000E+04;  0.0000000E+00;  0.0000000E+00;  4.0000000E+04;  0.0000000E+00;  4.0000000E+04;  5.2049868E-03;  0.0000000E+00;  1.1604786E-03;  2.7087991E+03;
  5.0000001E-02;  9.9999998E-03; -3.1000000E-01;1984;  0.0000000E+00;  0.0000000E+00;  0.0000000E+00;  1.0075319E+03;  1.0000000E-01;  6.2400210E+03;0;  0.0000000E+00;  0.0000000E+00;  0.0000000E+00;0;  7.5511280E-03;  4.0000000E+04;  0.0000000E+00;  0.0000000E+00;  4.0000000E+04;  0.0000000E+00;  4.0000000E+04;  6.3675228E-03;  0.0000000E+00;  1.1836054E-03;  2.3397422E+03;
  5.9999999E-02;  9.9999998E-03; -4.4000000E-01;2001;  0.0000000E+00;  0.0000000E+00;  0.0000000E+00;  1.0000000E+03;  1.0000000E-01;  0.0000000E+00;0;  0.0000000E+00;  0.0000000E+00;  0.0000000E+00;0; -7.9087768E-06;  4.0000000E+04;  0.0000000E+00;  0.0000000E+00;  4.0000000E+04;  0.0000000E+00;  4.0000000E+04;  5.2767859E-06;  0.0000000E+00; -1.3185562E-05;  1.0531056E+01;
  5.9999999E-02;  9.9999998E-03; -4.3000001E-01;2002;  0.0000000E+00;  0.0000000E+00;  0.0000000E+00;  1.0000660E+03;  1.0000000E-01;  5.4615738E+01;0;  0.0000000E+00;  0.0000000E+00;  0.0000000E+00;0;  5.4149496E-07;  4.0000000E+04;  0.0000000E+00;  0.0000000E+00;  4.0000000E+04;  0.0000000E+00;  4.0000000E+04;  2.1041364E-05;  0.0000000E+00; -2.0499869E-05;  6.9261566E+01;
  5.9999999E-02;  9.9999998E-03; -4.1999999E-01;2003;  0.0000000E+00;  0.0000000E+00;  0.0000000E+00;  1.0001510E+03;  1.0000000E-01;  1.2513226E+02;0;  0.0000000E+00;  0.0000000E+00;  0.0000000E+00;0;  4.8440561E-05;  4.0000000E+04;  0.0000000E+00;  0.0000000E+00;  4.0000000E+04;  0.0000000E+00;  4.0000000E+04;  5.9899830E-05;  0.0000000E+00; -1.1459269E-05;  2.1744576E+02;
  5.9999999E-02;  9.9999998E-03; -4.1000000E-01;2004;  0.0000000E+00;  0.0000000E+00;  0.0000000E+00;  1.0002894E+03;  1.0000000E-01;  2.3979568E+02;0;  0.0000000E+00;  0.0000000E+00;  0.0000000E+00;0;  1.6535645E-04;  4.0000000E+04;  0.0000000E+00;  0.0000000E+00;  4.0000000E+04;  0.0000000E+00;  4.0000000E+04;  1.3817020E-04;  0.0000000E+00;  2.7186252E-05;  4.7763480E+02;
  5.9999999E-02;  9.9999998E-03; -4.0000001E-01;2005;  0.0000000E+00;  0.0000000E+00;  0.0000000E+00;  1.0004927E+03;  1.0000000E-01;  4.0818597E+02;0;  0.0000000E+00;  0.0000000E+00;  0.0000000E+00;0;  3.7571436E-04;  4.0000000E+04;  0.0000000E+00;  0.0000000E+00;  4.0000000E+04;  0.0000000E+00;  4.0000000E+04;  2.7578443E-04;  0.0000000E+00;  9.9929915E-05;  8.4057043E+02;
  5.9999999E-02;  9.9999998E-03; -3.8999999E-01;2006;  0.0000000E+00;  0.0000000E+00;  0.0000000E+00;  1.0007842E+03;  1.0000000E-01;  6.4966064E+02;0;  0.0000000E+00;  0.0000000E+00;  0.0000000E+00;0;  6.9727842E-04;  4.0000000E+04;  0.0000000E+00;  0.0000000E+00;  4.0000000E+04;  0.0000000E+00;  4.0000000E+04;  4.9500895E-04;  0.0000000E+00;  2.0226947E-04;  1.2735471E+03;
  5.9999999E-02;  9.9999998E-03; -3.8000000E-01;2007;  0.0000000E+00;  0.0000000E+00;  0.0000000E+00;  1.0011605E+03;  1.0000000E-01;  9.6145428E+02;0;  0.0000000E+00;  0.0000000E+00;  0.0000000E+00;0;  1.1438162E-03;  4.0000000E+04;  0.0000000E+00;  0.0000000E+00;  4.0000000E+04;  0.0000000E+00;  4.0000000E+04;  8.1897847E-04;  0.0000000E+00;  3.2483763E-04;  1.7345437E+03;
  5.9999999E-02;  9.9999998E-03; -3.7000000E-01;2008;  0.0000000E+00;  0.0000000E+00;  0.0000000E+00;  1.0016475E+03;  1.0000000E-01;  1.3648997E+03;0;  0.0000000E+00;  0.0000000E+00;  0.0000000E+00;0;  1.7266328E-03;  4.0000000E+04;  0.0000000E+00;  0.0000000E+00;  4.0000000E+04;  0.0000000E+00;  4.0000000E+04;  1.2695735E-03;  0.0000000E+00;  4.5705933E-04;  2.1810405E+03;
  5.9999999E-02;  9.9999998E-03; -3.6000001E-01;2009;  0.0000000E+00;  0.0000000E+00;  0.0000000E+00;  1.0022689E+03;  1.0000000E-01;  1.8797493E+03;0;  0.0000000E+00;  0.0000000E+00;  0.0000000E+00;0;  2.4530538E-03;  4.0000000E+04;  0.0000000E+00;  0.0000000E+00;  4.0000000E+04;  0.0000000E+00;  4.0000000E+04;  1.8643350E-03;  0.0000000E+00;  5.8871874E-04;  2.5725090E+03;
  5.9999999E-02;  9.9999998E-03; -3.4999999E-01;2010;  0.0000000E+00;  0.0000000E+00;  0.0000000E+00;  1.0030462E+03;  1.0000000E-01;  2.5236816E+03;0;  0.0000000E+00;  0.0000000E+00;  0.0000000E+00;0;  3.3222048E-03;  4.0000000E+04;  0.0000000E+00;  0.0000000E+00;  4.0000000E+04;  0.0000000E+00;  4.0000000E+04;  2.6122606E-03;  0.0000000E+00;  7.0994417E-04;  2.8693933E+03;
  5.9999999E-02;  9.9999998E-03; -3.4000000E-01;2011;  0.0000000E+00;  0.0000000E+00;  0.0000000E+00;  1.0039899E+03;  1.0000000E-01;  3.3055854E+03;0;  0.0000000E+00;  0.0000000E+00;  0.0000000E+00;0;  4.3199016E-03;  4.0000000E+04;  0.0000000E+00;  0.0000000E+00;  4.0000000E+04;  0.0000000E+00;  4.0000000E+04;  3.5092130E-03;  0.0000000E+00;  8.1068848E-04;  3.0319956E+03;
  5.9999999E-02;  9.9999998E-03; -3.3000001E-01;2012;  0.0000000E+00;  0.0000000E+00;  0.0000000E+00;  1.0050856E+03;  1.0000000E-01;  4.2133130E+03;0;  0.0000000E+00;  0.0000000E+00;  0.0000000E+00;0;  5.4146028E-03;  4.0000000E+04;  0.0000000E+00;  0.0000000E+00;  4.0000000E+04;  0.0000000E+00;  4.0000000E+04;  4.5341435E-03;  0.0000000E+00;  8.8045932E-04;  3.0212759E+03;
  5.9999999E-02;  9.9999998E-03; -3.1999999E-01;2013;  0.0000000E+00;  0.0000000E+00;  0.0000000E+00;  1.0063188E+03;  1.0000000E-01;  5.2350122E+03;0;  0.0000000E+00;  0.0000000E+00;  0.0000000E+00;0;  6.5560769E-03;  4.0000000E+04;  0.0000000E+00;  0.0000000E+00;  4.0000000E+04;  0.0000000E+00;  4.0000000E+04;  5.6471778E-03;  0.0000000E+00;  9.0889930E-04;  2.8035647E+03;
  5.9999999E-02;  9.9999998E-03; -3.1000000E-01;2014;  0.0000000E+00;  0.0000000E+00;  0.0000000E+00;  1.0076353E+03;  1.0000000E-01;  6.3257471E+03;0;  0.0000000E+00;  0.0000000E+00;  0.0000000E+00;0;  7.6786275E-03;  4.0000000E+04;  0.0000000E+00;  0.0000000E+00;  4.0000000E+04;  0.0000000E+00;  4.0000000E+04;  6.7913583E-03;  0.0000000E+00;  8.8726910E-04;  2.3647061E+03;
  7.0000000E-02;  9.9999998E-03; -4.4000000E-01;2031;  0.0000000E+00;  0.0000000E+00;  0.0000000E+00;  1.0000000E+03;  1.0000000E-01;  0.0000000E+00;0;  0.0000000E+00;  0.0000000E+00;  0.0000000E+00;0; -4.0562381E-06;  4.0000000E+04;  0.0000000E+00;  0.0000000E+00;  4.0000000E+04;  0.0000000E+00;  4.0000000E+04;  9.5419182E-06;  0.0000000E+00; -1.3598156E-05;  1.0133998E+01;
  7.0000000E-02;  9.9999998E-03; -4.3000001E-01;2032;  0.0000000E+00;  0.0000000E+00;  0.0000000E+00;  1.0000672E+03;  1.0000000E-01;  5.5702129E+01;0;  0.0000000E+00;  0.0000000E+00;  0.0000000E+00;0;  1.4894867E-05;  4.0000000E+04;  0.0000000E+00;  0.0000000E+00;  4.0000000E+04;  0.0000000E+00;  4.0000000E+04;  3.4312889E-05;  0.0000000E+00; -1.9418021E-05;  8.3085274E+01;
  7.0000000E-02;  9.9999998E-03; -4.1999999E-01;2033;  0.0000000E+00;  0.0000000E+00;  0.0000000E+00;  1.0001518E+03;  1.0000000E-01;  1.2572484E+02;0;  0.0000000E+00;  0.0000000E+00;  0.0000000E+00;0;  8.2273837E-05;  4.0000000E+04;  0.0000000E+00;  0.0000000E+00;  4.0000000E+04;  0.0000000E+00;  4.0000000E+04;  9.0180678E-05;  0.0000000E+00; -7.9068432E-06;  2.6363730E+02;
  7.0000000E-02;  9.9999998E-03; -4.1000000E-01;2034;  0.0000000E+00;  0.0000000E+00;  0.0000000E+00;  1.0002913E+03;  1.0000000E-01;  2.4137589E+02;0;  0.0000000E+00;  0.0000000E+00;  0.0000000E+00;0;  2.2766691E-04;  4.0000000E+04;  0.0000000E+00;  0.0000000E+00;  4.0000000E+04;  0.0000000E+00;  4.0000000E+04;  1.9504630E-04;  0.0000000E+00;  3.2620606E-05;  5.7335657E+02;
  7.0000000E-02;  9.9999998E-03; -4.0000001E-01;2035;  0.0000000E+00;  0.0000000E+00;  0.0000000E+00;  1.0004800E+03;  1.0000000E-01;  3.9761838E+02;0;  0.0000000E+00;  0.0000000E+00;  0.0000000E+00;0;  4.7353687E-04;  4.0000000E+04;  0.0000000E+00;  0.0000000E+00;  4.0000000E+04;  0.0000000E+00;  4.0000000E+04;  3.6923582E-04;  0.0000000E+00;  1.0430105E-04;  9.9715881E+02;
  7.0000000E-02;  9.9999998E-03; -3.8999999E-01;2036;  0.0000000E+00;  0.0000000E+00;  0.0000000E+00;  1.0007794E+03;  1.0000000E-01;  6.4571014E+02;0;  0.0000000E+00;  0.0000000E+00;  0.0000000E+00;0;  8.3534588E-04;  4.0000000E+04;  0.0000000E+00;  0.0000000E+00;  4.0000000E+04;  0.0000000E+00;  4.0000000E+04;  6.3469465E-04;  0.0000000E+00;  2.0065125E-04;  1.4946815E+03;
  7.0000000E-02;  9.9999998E-03; -3.8000000E-01;2037;  0.0000000E+00;  0.0000000E+00;  0.0000000E+00;  1.0011502E+03;  1.0000000E-01;  9.5296069E+02;0;  0.0000000E+00;  0.0000000E+00;  0.0000000E+00;0;  1.3250045E-03;  4.0000000E+04;  0.0000000E+00;  0.0000000E+00;  4.0000000E+04;  0.0000000E+00;  4.0000000E+04;  1.0138695E-03;  0.0000000E+00;  3.1113494E-04;  2.0168105E+03;
  7.0000000E-02;  9.9999998E-03; -3.7000000E-01;2038;  0.0000000E+00;  0.0000000E+00;  0.0000000E+00;  1.0016387E+03;  1.0000000E-01;  1.3576899E+03;0;  0.0000000E+00;  0.0000000E+00;  0.0000000E+00;0;  1.9520991E-03;  4.0000000E+04;  0.0000000E+00;  0.0000000E+00;  4.0000000E+04;  0.0000000E+00;  4.0000000E+04;  1.5275470E-03;  0.0000000E+00;  4.2455207E-04;  2.5151208E+03;
  7.0000000E-02;  9.9999998E-03; -3.6000001E-01;2039;  0.0000000E+00;  0.0000000E+00;  0.0000000E+00;  1.0022717E+03;  1.0000000E-01;  1.8820209E+03;0;  0.0000000E+00;  0.0000000E+00;  0.0000000E+00;0;  2.7216161E-03;  4.0000000E+04;  0.0000000E+00;  0.0000000E+00;  4.0000000E+04;  0.0000000E+00;  4.0000000E+04;  2.1913806E-03;  0.0000000E+00;  5.3023553E-04;  2.9436785E+03;
  7.0000000E-02;  9.9999998E-03; -3.4999999E-01;2040;  0.0000000E+00;  0.0000000E+00;  0.0000000E+00;  1.0030640E+03;  1.0000000E-01;  2.5384961E+03;0;  0.0000000E+00;  0.0000000E+00;  0.0000000E+00;0;  3.6293925E-03;  4.0000000E+04;  0.0000000E+00;  0.0000000E+00;  4.0000000E+04;  0.0000000E+00;  4.0000000E+04;  3.0114413E-03;  0.0000000E+00;  6.1795115E-04;  3.2569465E+03;
  7.0000000E-02;  9.9999998E-03; -3.4000000E-01;2041;  0.0000000E+00;  0.0000000E+00;  0.0000000E+00;  1.0040085E+03;  1.0000000E-01;  3.3209924E+03;0;  0.0000000E+00;  0.0000000E+00;  0.0000000E+00;0;  4.6570399E-03;  4.0000000E+04;  0.0000000E+00;  0.0000000E+00;  4.0000000E+04;  0.0000000E+00;  4.0000000E+04;  3.9794282E-03;  0.0000000E+00;  6.7761185E-04;  3.4079258E+03;
  7.0000000E-02;  9.9999998E-03; -3.3000001E-01;2042;  0.0000000E+00;  0.0000000E+00;  0.0000000E+00;  1.0051148E+03;  1.0000000E-01;  4.2375098E+03;0;  0.0000000E+00;  0.0000000E+00;  0.0000000E+00;0;  5.7683080E-03;  4.0000000E+04;  0.0000000E+00;  0.0000000E+00;  4.0000000E+04;  0.0000000E+00;  4.0000000E+04;  5.0686318E-03;  0.0000000E+00;  6.9967628E-04;  3.3498989E+03;
  7.0000000E-02;  9.9999998E-03; -3.1999999E-01;2043;  0.0000000E+00;  0.0000000E+00;  0.0000000E+00;  1.0063460E+03;  1.0000000E-01;  5.2575303E+03;0;  0.0000000E+00;  0.0000000E+00;  0.0000000E+00;0;  6.9088852E-03;  4.0000000E+04;  0.0000000E+00;  0.0000000E+00;  4.0000000E+04;  0.0000000E+00;  4.0000000E+04;  6.2319902E-03;  0.0000000E+00;  6.7689526E-04;  3.0441873E+03;
  7.0000000E-02;  9.9999998E-03; -3.1000000E-01;2044;  0.0000000E+00;  0.0000000E+00;  0.0000000E+00;  1.0076490E+03;  1.0000000E-01;  6.3371045E+03;0;  0.0000000E+00;  0.0000000E+00;  0.0000000E+00;0;  8.0107078E-03;  4.0000000E+04;  0.0000000E+00;  0.0000000E+00;  4.0000000E+04;  0.0000000E+00;  4.0000000E+04;  7.4034831E-03;  0.0000000E+00;  6.0722476E-04;  2.4781250E+03;
  7.9999998E-02;  9.9999998E-03; -4.4000000E-01;2061;  0.0000000E+00;  0.0000000E+00;  0.0000000E+00;  1.0000000E+03;  1.0000000E-01;  0.0000000E+00;0;  0.0000000E+00;  0.0000000E+00;  0.0000000E+00;0;  4.2030997E-06;  4.0000000E+04;  0.0000000E+00;  0.0000000E+00;  4.0000000E+04;  0.0000000E+00;  4.0000000E+04;  1.4266922E-05;  0.0000000E+00; -1.0063823E-05;  2.2140818E+01;
  7.9999998E-02;  9.9999998E-03; -4.3000001E-01;2062;  0.0000000E+00;  0.0000000E+00;  0.0000000E+00;  1.0000687E+03;  1.0000000E-01;  5.6887280E+01;0;  0.0000000E+00;  0.0000000E+00;  0.0000000E+00;0;  3.8755708E-05;  4.0000000E+04;  0.0000000E+00;  0.0000000E+00;  4.0000000E+04;  0.0000000E+00;  4.0000000E+04;  4.8529670E-05;  0.0000000E+00; -9.7739594E-06;  1.2445686E+02;
  7.9999998E-02;  9.9999998E-03; -4.1999999E-01;2063;  0.0000000E+00;  0.0000000E+00;  0.0000000E+00;  1.0001441E+03;  1.0000000E-01;  1.1940403E+02;0;  0.0000000E+00;  0.0000000E+00;  0.0000000E+00;0;  1.3136644E-04;  4.0000000E+04;  0.0000000E+00;  0.0000000E+00;  4.0000000E+04;  0.0000000E+00;  4.0000000E+04;  1.2189835E-04;  0.0000000E+00;  9.4681009E-06;  3.5650958E+02;
  7.9999998E-02;  9.9999998E-03; -4.1000000E-01;2064;  0.0000000E+00;  0.0000000E+00;  0.0000000E+00;  1.0002765E+03;  1.0000000E-01;  2.2903056E+02;0;  0.0000000E+00;  0.0000000E+00;  0.0000000E+00;0;  3.0946796E-04;  4.0000000E+04;  0.0000000E+00;  0.0000000E+00;  4.0000000E+04;  0.0000000E+00;  4.0000000E+04;  2.5333394E-04;  0.0000000E+00;  5.6134002E-05;  7.3630304E+02;
  7.9999998E-02;  9.9999998E-03; -4.0000001E-01;2065;  0.0000000E+00;  0.0000000E+00;  0.0000000E+00;  1.0004809E+03;  1.0000000E-01;  3.9840848E+02;0;  0.0000000E+00;  0.0000000E+00;  0.0000000E+00;0;  5.9301441E-04;  4.0000000E+04;  0.0000000E+00;  0.0000000E+00;  4.0000000E+04;  0.0000000E+00;  4.0000000E+04;  4.6358269E-04;  0.0000000E+00;  1.2943173E-04;  1.2408735E+03;
  7.9999998E-02;  9.9999998E-03; -3.8999999E-01;2066;  0.0000000E+00;  0.0000000E+00;  0.0000000E+00;  1.0007659E+03;  1.0000000E-01;  6.3454993E+02;0;  0.0000000E+00;  0.0000000E+00;  0.0000000E+00;0;  9.9634414E-04;  4.0000000E+04;  0.0000000E+00;  0.0000000E+00;  4.0000000E+04;  0.0000000E+00;  4.0000000E+04;  7.7492691E-04;  0.0000000E+00;  2.2141718E-04;  1.8216984E+03;
  7.9999998E-02;  9.9999998E-03; -3.8000000E-01;2067;  0.0000000E+00;  0.0000000E+00;  0.0000000E+00;  1.0011366E+03;  1.0000000E-01;  9.4160303E+02;0;  0.0000000E+00;  0.0000000E+00;  0.0000000E+00;0;  1.5311072E-03;  4.0000000E+04;  0.0000000E+00;  0.0000000E+00;  4.0000000E+04;  0.0000000E+00;  4.0000000E+04;  1.2099101E-03;  0.0000000E+00;  3.2119709E-04;  2.4230757E+03;
  7.9999998E-02;  9.9999998E-03; -3.7000000E-01;2068;  0.0000000E+00;  0.0000000E+00;  0.0000000E+00;  1.0016349E+03;  1.0000000E-01;  1.3544308E+03;0;  0.0000000E+00;  0.0000000E+00;  0.0000000E+00;0;  2.2063868E-03;  4.0000000E+04;  0.0000000E+00;  0.0000000E+00;  4.0000000E+04;  0.0000000E+00;  4.0000000E+04;  1.7887711E-03;  0.0000000E+00;  4.1761555E-04;  2.9911538E+03;
  7.9999998E-02;  9.9999998E-03; -3.6000001E-01;2069;  0.0000000E+00;  0.0000000E+00;  0.0000000E+00;  1.0022692E+03;  1.0000000E-01;  1.8800457E+03;0;  0.0000000E+00;  0.0000000E+00;  0.0000000E+00;0;  3.0257618E-03;  4.0000000E+04;  0.0000000E+00;  0.0000000E+00;  4.0000000E+04;  0.0000000E+00;  4.0000000E+04;  2.5257468E-03;  0.0000000E+00;  5.0001510E-04;  3.4744019E+03;
  7.9999998E-02;  9.9999998E-03; -3.4999999E-01;2070;  0.0000000E+00;  0.0000000E+00;  0.0000000E+00;  1.0030667E+03;  1.0000000E-01;  2.5406689E+03;0;  0.0000000E+00;  0.0000000E+00;  0.0000000E+00;0;  3.9824685E-03;  4.0000000E+04;  0.0000000E+00;  0.0000000E+00;  4.0000000E+04;  0.0000000E+00;  4.0000000E+04;  3.4244496E-03;  0.0000000E+00;  5.5801898E-04;  3.8195742E+03;
  7.9999998E-02;  9.9999998E-03; -3.4000000E-01;2071;  0.0000000E+00;  0.0000000E+00;  0.0000000E+00;  1.0040228E+03;  1.0000000E-01;  3.3328440E+03;0;  0.0000000E+00;  0.0000000E+00;  0.0000000E+00;0;  5.0543454E-03;  4.0000000E+04;  0.0000000E+00;  0.0000000E+00;  4.0000000E+04;  0.0000000E+00;  4.0000000E+04;  4.4729603E-03;  0.0000000E+00;  5.8138499E-04;  3.9681890E+03;
  7.9999998E-02;  9.9999998E-03; -3.3000001E-01;2072;  0.0000000E+00;  0.0000000E+00;  0.0000000E+00;  1.0051273E+03;  1.0000000E-01;  4.2478799E+03;0;  0.0000000E+00;  0.0000000E+00;  0.0000000E+00;0;  6.2004412E-03;  4.0000000E+04;  0.0000000E+00;  0.0000000E+00;  4.0000000E+04;  0.0000000E+00;  4.0000000E+04;  5.6396136E-03;  0.0000000E+00;  5.6082773E-04;  3.8588215E+03;
  7.9999998E-02;  9.9999998E-03; -3.1999999E-01;2073;  0.0000000E+00;  0.0000000E+00;  0.0000000E+00;  1.0063501E+03;  1.0000000E-01;  5.2608882E+03;0;  0.0000000E+00;  0.0000000E+00;  0.0000000E+00;0;  7.3611583E-03;  4.0000000E+04;  0.0000000E+00;  0.0000000E+00;  4.0000000E+04;  0.0000000E+00;  4.0000000E+04;  6.8705752E-03;  0.0000000E+00;  4.9058313E-04;  3.4392710E+03;
  7.9999998E-02;  9.9999998E-03; -3.1000000E-01;2074;  0.0000000E+00;  0.0000000E+00;  0.0000000E+00;  1.0076345E+03;  1.0000000E-01;  6.3250557E+03;0;  0.0000000E+00;  0.0000000E+00;  0.0000000E+00;0;  8.4635243E-03;  4.0000000E+04;  0.0000000E+00;  0.0000000E+00;  4.0000000E+04;  0.0000000E+00;  4.0000000E+04;  8.0908965E-03;  0.0000000E+00;  3.7262760E-04;  2.6891326E+03;
  9.0000004E-02;  9.9999998E-03; -4.4000000E-01;2091;  0.0000000E+00;  0.0000000E+00;  0.0000000E+00;  1.0000000E+03;  1.0000000E-01;  0.0000000E+00;0;  0.0000000E+00;  0.0000000E+00;  0.0000000E+00;0;  1.6577809E-05;  4.0000000E+04;  0.0000000E+00;  0.0000000E+00;  4.0000000E+04;  0.0000000E+00;  4.0000000E+04;  1.8943741E-05;  0.0000000E+00; -2.3659329E-06;  4.8199959E+01;
  9.0000004E-02;  9.9999998E-03; -4.3000001E-01;2092;  0.0000000E+00;  0.0000000E+00;  0.0000000E+00;  1.0000709E+03;  1.0000000E-01;  5.8763771E+01;0;  0.0000000E+00;  0.0000000E+00;  0.0000000E+00;0;  7.0498550E-05;  4.0000000E+04;  0.0000000E+00;  0.0000000E+00;  4.0000000E+04;  0.0000000E+00;  4.0000000E+04;  6.2053594E-05;  0.0000000E+00;  8.4449593E-06;  1.9465880E+02;
  9.0000004E-02;  9.9999998E-03; -4.1999999E-01;2093;  0.0000000E+00;  0.0000000E+00;  0.0000000E+00;  1.0001380E+03;  1.0000000E-01;  1.1436713E+02;0;  0.0000000E+00;  0.0000000E+00;  0.0000000E+00;0;  1.9090307E-04;  4.0000000E+04;  0.0000000E+00;  0.0000000E+00;  4.0000000E+04;  0.0000000E+00;  4.0000000E+04;  1.5101633E-04;  0.0000000E+00;  3.9886738E-05;  4.9580121E+02;
  9.0000004E-02;  9.9999998E-03; -4.1000000E-01;2094;  0.0000000E+00;  0.0000000E+00;  0.0000000E+00;  1.0002551E+03;  1.0000000E-01;  2.1135205E+02;0;  0.0000000E+00;  0.0000000E+00;  0.0000000E+00;0;  4.0185032E-04;  4.0000000E+04;  0.0000000E+00;  0.0000000E+00;  4.0000000E+04;  0.0000000E+00;  4.0000000E+04;  3.0582093E-04;  0.0000000E+00;  9.6029413E-05;  9.6326910E+02;
  9.0000004E-02;  9.9999998E-03; -4.0000001E-01;2095;  0.0000000E+00;  0.0000000E+00;  0.0000000E+00;  1.0004682E+03;  1.0000000E-01;  3.8793964E+02;0;  0.0000000E+00;  0.0000000E+00;  0.0000000E+00;0;  7.2158466E-04;  4.0000000E+04;  0.0000000E+00;  0.0000000E+00;  4.0000000E+04;  0.0000000E+00;  4.0000000E+04;  5.4830057E-04;  0.0000000E+00;  1.7328410E-04;  1.5648627E+03;
  9.0000004E-02;  9.9999998E-03; -3.8999999E-01;2096;  0.0000000E+00;  0.0000000E+00;  0.0000000E+00;  1.0007440E+03;  1.0000000E-01;  6.1637762E+02;0;  0.0000000E+00;  0.0000000E+00;  0.0000000E+00;0;  1.1645455E-03;  4.0000000E+04;  0.0000000E+00;  0.0000000E+00;  4.0000000E+04;  0.0000000E+00;  4.0000000E+04;  9.0167060E-04;  0.0000000E+00;  2.6287494E-04;  2.2441082E+03;
  9.0000004E-02;  9.9999998E-03; -3.8000000E-01;2097;  0.0000000E+00;  0.0000000E+00;  0.0000000E+00;  1.0011299E+03;  1.0000000E-01;  9.3607227E+02;0;  0.0000000E+00;  0.0000000E+00;  0.0000000E+00;0;  1.7430122E-03;  4.0000000E+04;  0.0000000E+00;  0.0000000E+00;  4.0000000E+04;  0.0000000E+00;  4.0000000E+04;  1.3887928E-03;  0.0000000E+00;  3.5421949E-04;  2.9396235E+03;
  9.0000004E-02;  9.9999998E-03; -3.7000000E-01;2098;  0.0000000E+00;  0.0000000E+00;  0.0000000E+00;  1.0016324E+03;  1.0000000E-01;  1.3523568E+03;0;  0.0000000E+00;  0.0000000E+00;  0.0000000E+00;0;  2.4660863E-03;  4.0000000E+04;  0.0000000E+00;  0.0000000E+00;  4.0000000E+04;  0.0000000E+00;  4.0000000E+04;  2.0293032E-03;  0.0000000E+00;  4.3678301E-04;  3.5929561E+03;
  9.0000004E-02;  9.9999998E-03; -3.6000001E-01;2099;  0.0000000E+00;  0.0000000E+00;  0.0000000E+00;  1.0022775E+03;  1.0000000E-01;  1.8868602E+03;0;  0.0000000E+00;  0.0000000E+00;  0.0000000E+00;0;  3.3360762E-03;  4.0000000E+04;  0.0000000E+00;  0.0000000E+00;  4.0000000E+04;  0.0000000E+00;  4.0000000E+04;  2.8357126E-03;  0.0000000E+00;  5.0036341E-04;  4.1472612E+03;
  9.0000004E-02;  9.9999998E-03; -3.4999999E-01;2100;  0.0000000E+00;  0.0000000E+00;  0.0000000E+00;  1.0030906E+03;  1.0000000E-01;  2.5605203E+03;0;  0.0000000E+00;  0.0000000E+00;  0.0000000E+00;0;  4.3434543E-03;  4.0000000E+04;  0.0000000E+00;  0.0000000E+00;  4.0000000E+04;  0.0000000E+00;  4.0000000E+04;  3.8087515E-03;  0.0000000E+00;  5.3470297E-04;  4.5418945E+03;
  9.0000004E-02;  9.9999998E-03; -3.4000000E-01;2101;  0.0000000E+00;  0.0000000E+00;  0.0000000E+00;  1.0040575E+03;  1.0000000E-01;  3.3615840E+03;0;  0.0000000E+00;  0.0000000E+00;  0.0000000E+00;0;  5.4618367E-03;  4.0000000E+04;  0.0000000E+00;  0.0000000E+00;  4.0000000E+04;  0.0000000E+00;  4.0000000E+04;  4.9325130E-03;  0.0000000E+00;  5.2932376E-04;  4.7094688E+03;
  9.0000004E-02;  9.9999998E-03; -3.3000001E-01;2102;  0.0000000E+00;  0.0000000E+00;  0.0000000E+00;  1.0051718E+03;  1.0000000E-01;  4.2847183E+03;0;  0.0000000E+00;  0.0000000E+00;  0.0000000E+00;0;  6.6446690E-03;  4.0000000E+04;  0.0000000E+00;  0.0000000E+00;  4.0000000E+04;  0.0000000E+00;  4.0000000E+04;  6.1702267E-03;  0.0000000E+00;  4.7444241E-04;  4.5806328E+03;
  9.0000004E-02;  9.9999998E-03; -3.1999999E-01;2103;  0.0000000E+00;  0.0000000E+00;  0.0000000E+00;  1.0063954E+03;  1.0000000E-01;  5.2984180E+03;0;  0.0000000E+00;  0.0000000E+00;  0.0000000E+00;0;  7.8254147E-03;  4.0000000E+04;  0.0000000E+00;  0.0000000E+00;  4.0000000E+04;  0.0000000E+00;  4.0000000E+04;  7.4616103E-03;  0.0000000E+00;  3.6380469E-04;  4.1040825E+03;
  9.0000004E-02;  9.9999998E-03; -3.1000000E-01;2104;  0.0000000E+00;  0.0000000E+00;  0.0000000E+00;  1.0076619E+03;  1.0000000E-01;  6.3476724E+03;0;  0.0000000E+00;  0.0000000E+00;  0.0000000E+00;0;  8.9228833E-03;  4.0000000E+04;  0.0000000E+00;  0.0000000E+00;  4.0000000E+04;  0.0000000E+00;  4.0000000E+04;  8.7231221E-03;  0.0000000E+00;  1.9976111E-04;  3.2872310E+03;
  1.0000000E-01;  9.9999998E-03; -4.4000000E-01;2121;  0.0000000E+00;  0.0000000E+00;  0.0000000E+00;  1.0000000E+03;  1.0000000E-01;  0.0000000E+00;0;  0.0000000E+00;  0.0000000E+00;  0.0000000E+00;0;  3.1900883E-05;  4.0000000E+04;  0.0000000E+00;  0.0000000E+00;  4.0000000E+04;  0.0000000E+00;  4.0000000E+04;  2.3042647E-05;  0.0000000E+00;  8.8582365E-06;  8.7334007E+01;
  1.0000000E-01;  9.9999998E-03; -4.3000001E-01;2122;  0.0000000E+00;  0.0000000E+00;  0.0000000E+00;  1.0000734E+03;  1.0000000E-01;  6.0837784E+01;0;  0.0000000E+00;  0.0000000E+00;  0.0000000E+00;0;  1.0627187E-04;  4.0000000E+04;  0.0000000E+00;  0.0000000E+00;  4.0000000E+04;  0.0000000E+00;  4.0000000E+04;  7.3026014E-05;  0.0000000E+00;  3.3245855E-05;  2.9011755E+02;
  1.0000000E-01;  9.9999998E-03; -4.1999999E-01;2123;  0.0000000E+00;  0.0000000E+00;  0.0000000E+00;  1.0001205E+03;  1.0000000E-01;  9.9849030E+01;0;  0.0000000E+00;  0.0000000E+00;  0.0000000E+00;0;  2.5316223E-04;  4.0000000E+04;  0.0000000E+00;  0.0000000E+00;  4.0000000E+04;  0.0000000E+00;  4.0000000E+04;  1.7365204E-04;  0.0000000E+00;  7.9510210E-05;  6.7347388E+02;
  1.0000000E-01;  9.9999998E-03; -4.1000000E-01;2124;  0.0000000E+00;  0.0000000E+00;  0.0000000E+00;  1.0002378E+03;  1.0000000E-01;  1.9703146E+02;0;  0.0000000E+00;  0.0000000E+00;  0.0000000E+00;0;  4.9375847E-04;  4.0000000E+04;  0.0000000E+00;  0.0000000E+00;  4.0000000E+04;  0.0000000E+00;  4.0000000E+04;  3.4652228E-04;  0.0000000E+00;  1.4723622E-04;  1.2404352E+03;
  1.0000000E-01;  9.9999998E-03; -4.0000001E-01;2125;  0.0000000E+00;  0.0000000E+00;  0.0000000E+00;  1.0004615E+03;  1.0000000E-01;  3.8231018E+02;0;  0.0000000E+00;  0.0000000E+00;  0.0000000E+00;0;  8.4541016E-04;  4.0000000E+04;  0.0000000E+00;  0.0000000E+00;  4.0000000E+04;  0.0000000E+00;  4.0000000E+04;  6.1513897E-04;  0.0000000E+00;  2.3027117E-04;  1.9486486E+03;
  1.0000000E-01;  9.9999998E-03; -3.8999999E-01;2126;  0.0000000E+00;  0.0000000E+00;  0.0000000E+00;  1.0007353E+03;  1.0000000E-01;  6.0916797E+02;0;  0.0000000E+00;  0.0000000E+00;  0.0000000E+00;0;  1.3232211E-03;  4.0000000E+04;  0.0000000E+00;  0.0000000E+00;  4.0000000E+04;  0.0000000E+00;  4.0000000E+04;  1.0038196E-03;  0.0000000E+00;  3.1940153E-04;  2.7342771E+03;
  1.0000000E-01;  9.9999998E-03; -3.8000000E-01;2127;  0.0000000E+00;  0.0000000E+00;  0.0000000E+00;  1.0011354E+03;  1.0000000E-01;  9.4071411E+02;0;  0.0000000E+00;  0.0000000E+00;  0.0000000E+00;0;  1.9403287E-03;  4.0000000E+04;  0.0000000E+00;  0.0000000E+00;  4.0000000E+04;  0.0000000E+00;  4.0000000E+04;  1.5355304E-03;  0.0000000E+00;  4.0479834E-04;  3.5320796E+03;
  1.0000000E-01;  9.9999998E-03; -3.7000000E-01;2128;  0.0000000E+00;  0.0000000E+00;  0.0000000E+00;  1.0016559E+03;  1.0000000E-01;  1.3719119E+03;0;  0.0000000E+00;  0.0000000E+00;  0.0000000E+00;0;  2.7056870E-03;  4.0000000E+04;  0.0000000E+00;  0.0000000E+00;  4.0000000E+04;  0.0000000E+00;  4.0000000E+04;  2.2287143E-03;  0.0000000E+00;  4.7697264E-04;  4.2822627E+03;
  1.0000000E-01;  9.9999998E-03; -3.6000001E-01;2129;  0.0000000E+00;  0.0000000E+00;  0.0000000E+00;  1.0023217E+03;  1.0000000E-01;  1.9234023E+03;0;  0.0000000E+00;  0.0000000E+00;  0.0000000E+00;0;  3.6197840E-03;  4.0000000E+04;  0.0000000E+00;  0.0000000E+00;  4.0000000E+04;  0.0000000E+00;  4.0000000E+04;  3.0932322E-03;  0.0000000E+00;  5.2655174E-04;  4.9283794E+03;
  1.0000000E-01;  9.9999998E-03; -3.4999999E-01;2130;  0.0000000E+00;  0.0000000E+00;  0.0000000E+00;  1.0031616E+03;  1.0000000E-01;  2.6192839E+03;0;  0.0000000E+00;  0.0000000E+00;  0.0000000E+00;0;  4.6693720E-03;  4.0000000E+04;  0.0000000E+00;  0.0000000E+00;  4.0000000E+04;  0.0000000E+00;  4.0000000E+04;  4.1257157E-03;  0.0000000E+00;  5.4365635E-04;  5.4142437E+03;
  1.0000000E-01;  9.9999998E-03; -3.4000000E-01;2131;  0.0000000E+00;  0.0000000E+00;  0.0000000E+00;  1.0041568E+03;  1.0000000E-01;  3.4438533E+03;0;  0.0000000E+00;  0.0000000E+00;  0.0000000E+00;0;  5.8225282E-03;  4.0000000E+04;  0.0000000E+00;  0.0000000E+00;  4.0000000E+04;  0.0000000E+00;  4.0000000E+04;  5.3049452E-03;  0.0000000E+00;  5.1758299E-04;  5.6862329E+03;
  1.0000000E-01;  9.9999998E-03; -3.3000001E-01;2132;  0.0000000E+00;  0.0000000E+00;  0.0000000E+00;  1.0052905E+03;  1.0000000E-01;  4.3830859E+03;0;  0.0000000E+00;  0.0000000E+00;  0.0000000E+00;0;  7.0255678E-03;  4.0000000E+04;  0.0000000E+00;  0.0000000E+00;  4.0000000E+04;  0.0000000E+00;  4.0000000E+04;  6.5880935E-03;  0.0000000E+00;  4.3747452E-04;  5.7056865E+03;
  1.0000000E-01;  9.9999998E-03; -3.1999999E-01;2133;  0.0000000E+00;  0.0000000E+00;  0.0000000E+00;  1.0065242E+03;  1.0000000E-01;  5.4051807E+03;0;  0.0000000E+00;  0.0000000E+00;  0.0000000E+00;0;  8.2031963E-03;  4.0000000E+04;  0.0000000E+00;  0.0000000E+00;  4.0000000E+04;  0.0000000E+00;  4.0000000E+04;  7.9084029E-03;  0.0000000E+00;  2.9479314E-04;  5.4745200E+03;
  1.0000000E-01;  9.9999998E-03; -3.1000000E-01;2134;  0.0000000E+00;  0.0000000E+00;  0.0000000E+00;  1.0077833E+03;  1.0000000E-01;  6.4483115E+03;0;  0.0000000E+00;  0.0000000E+00;  0.0000000E+00;0;  9.2634279E-03;  4.0000000E+04;  0.0000000E+00;  0.0000000E+00;  4.0000000E+04;  0.0000000E+00;  4.0000000E+04;  9.1750557E-03;  0.0000000E+00;  8.8372683E-05;  5.0733496E+03;
  1.1000000E-01;  9.9999998E-03; -4.4000000E-01;2151;  0.0000000E+00;  0.0000000E+00;  0.0000000E+00;  1.0000000E+03;  1.0000000E-01;  0.0000000E+00;0;  0.0000000E+00;  0.0000000E+00;  0.0000000E+00;0;  4.8006077E-05;  4.0000000E+04;  0.0000000E+00;  0.0000000E+00;  4.0000000E+04;  0.0000000E+00;  4.0000000E+04;  2.5885993E-05;  0.0000000E+00;  2.2120086E-05;  1.3836229E+02;
  1.1000000E-01;  9.9999998E-03; -4.3000001E-01;2152;  0.0000000E+00;  0.0000000E+00;  0.0000000E+00;  1.0000651E+03;  1.0000000E-01;  5.3924400E+01;0;  0.0000000E+00;  0.0000000E+00;  0.0000000E+00;0;  1.4063284E-04;  4.0000000E+04;  0.0000000E+00;  0.0000000E+00;  4.0000000E+04;  0.0000000E+00;  4.0000000E+04;  7.9746838E-05;  0.0000000E+00;  6.0886003E-05;  4.0718613E+02;
  1.1000000E-01;  9.9999998E-03; -4.1999999E-01;2153;  0.0000000E+00;  0.0000000E+00;  0.0000000E+00;  1.0001135E+03;  1.0000000E-01;  9.4022034E+01;0;  0.0000000E+00;  0.0000000E+00;  0.0000000E+00;0;  3.0974511E-04;  4.0000000E+04;  0.0000000E+00;  0.0000000E+00;  4.0000000E+04;  0.0000000E+00;  4.0000000E+04;  1.8720566E-04;  0.0000000E+00;  1.2253945E-04;  8.8135327E+02;
  1.1000000E-01;  9.9999998E-03; -4.1000000E-01;2154;  0.0000000E+00;  0.0000000E+00;  0.0000000E+00;  1.0002390E+03;  1.0000000E-01;  1.9801909E+02;0;  0.0000000E+00;  0.0000000E+00;  0.0000000E+00;0;  5.7438121E-04;  4.0000000E+04;  0.0000000E+00;  0.0000000E+00;  4.0000000E+04;  0.0000000E+00;  4.0000000E+04;  3.7183560E-04;  0.0000000E+00;  2.0254563E-04;  1.5522496E+03;
  1.1000000E-01;  9.9999998E-03; -4.0000001E-01;2155;  0.0000000E+00;  0.0000000E+00;  0.0000000E+00;  1.0004688E+03;  1.0000000E-01;  3.8843347E+02;0;  0.0000000E+00;  0.0000000E+00;  0.0000000E+00;0;  9.5136795E-04;  4.0000000E+04;  0.0000000E+00;  0.0000000E+00;  4.0000000E+04;  0.0000000E+00;  4.0000000E+04;  6.5900636E-04;  0.0000000E+00;  2.9236160E-04;  2.3658865E+03;
  1.1000000E-01;  9.9999998E-03; -3.8999999E-01;2156;  0.0000000E+00;  0.0000000E+00;  0.0000000E+00;  1.0007551E+03;  1.0000000E-01;  6.2556256E+02;0;  0.0000000E+00;  0.0000000E+00;  0.0000000E+00;0;  1.4564623E-03;  4.0000000E+04;  0.0000000E+00;  0.0000000E+00;  4.0000000E+04;  0.0000000E+00;  4.0000000E+04;  1.0740139E-03;  0.0000000E+00;  3.8244837E-04;  3.2525806E+03;
  1.1000000E-01;  9.9999998E-03; -3.8000000E-01;2157;  0.0000000E+00;  0.0000000E+00;  0.0000000E+00;  1.0011629E+03;  1.0000000E-01;  9.6342957E+02;0;  0.0000000E+00;  0.0000000E+00;  0.0000000E+00;0;  2.1033471E-03;  4.0000000E+04;  0.0000000E+00;  0.0000000E+00;  4.0000000E+04;  0.0000000E+00;  4.0000000E+04;  1.6394538E-03;  0.0000000E+00;  4.6389323E-04;  4.1493862E+03;
  1.1000000E-01;  9.9999998E-03; -3.7000000E-01;2158;  0.0000000E+00;  0.0000000E+00;  0.0000000E+00;  1.0017170E+03;  1.0000000E-01;  1.4225770E+03;0;  0.0000000E+00;  0.0000000E+00;  0.0000000E+00;0;  2.9001466E-03;  4.0000000E+04;  0.0000000E+00;  0.0000000E+00;  4.0000000E+04;  0.0000000E+00;  4.0000000E+04;  2.3716886E-03;  0.0000000E+00;  5.2845810E-04;  5.0083599E+03;
  1.1000000E-01;  9.9999998E-03; -3.6000001E-01;2159;  0.0000000E+00;  0.0000000E+00;  0.0000000E+00;  1.0024239E+03;  1.0000000E-01;  2.0081407E+03;0;  0.0000000E+00;  0.0000000E+00;  0.0000000E+00;0;  3.8443967E-03;  4.0000000E+04;  0.0000000E+00;  0.0000000E+00;  4.0000000E+04;  0.0000000E+00;  4.0000000E+04;  3.2765870E-03;  0.0000000E+00;  5.6780962E-04;  5.7981245E+03;
  1.1000000E-01;  9.9999998E-03; -3.4999999E-01;2160;  0.0000000E+00;  0.0000000E+00;  0.0000000E+00;  1.0033051E+03;  1.0000000E-01;  2.7381941E+03;0;  0.0000000E+00;  0.0000000E+00;  0.0000000E+00;0;  4.9175620E-03;  4.0000000E+04;  0.0000000E+00;  0.0000000E+00;  4.0000000E+04;  0.0000000E+00;  4.0000000E+04;  4.3449448E-03;  0.0000000E+00;  5.7261740E-04;  6.5065967E+03;
  1.1000000E-01;  9.9999998E-03; -3.4000000E-01;2161;  0.0000000E+00;  0.0000000E+00;  0.0000000E+00;  1.0043432E+03;  1.0000000E-01;  3.5982192E+03;0;  0.0000000E+00;  0.0000000E+00;  0.0000000E+00;0;  6.0803778E-03;  4.0000000E+04;  0.0000000E+00;  0.0000000E+00;  4.0000000E+04;  0.0000000E+00;  4.0000000E+04;  5.5483798E-03;  0.0000000E+00;  5.3199817E-04;  7.1456353E+03;
  1.1000000E-01;  9.9999998E-03; -3.3000001E-01;2162;  0.0000000E+00;  0.0000000E+00;  0.0000000E+00;  1.0055225E+03;  1.0000000E-01;  4.5752778E+03;0;  0.0000000E+00;  0.0000000E+00;  0.0000000E+00;0;  7.2702300E-03;  4.0000000E+04;  0.0000000E+00;  0.0000000E+00;  4.0000000E+04;  0.0000000E+00;  4.0000000E+04;  6.8364972E-03;  0.0000000E+00;  4.3373287E-04;  7.7462979E+03;
  1.1000000E-01;  9.9999998E-03; -3.1999999E-01;2163;  0.0000000E+00;  0.0000000E+00;  0.0000000E+00;  1.0067845E+03;  1.0000000E-01;  5.6208779E+03;0;  0.0000000E+00;  0.0000000E+00;  0.0000000E+00;0;  8.4017087E-03;  4.0000000E+04;  0.0000000E+00;  0.0000000E+00;  4.0000000E+04;  0.0000000E+00;  4.0000000E+04;  8.1357863E-03;  0.0000000E+00;  2.6592196E-04;  8.3310264E+03;
  1.1000000E-01;  9.9999998E-03; -3.1000000E-01;2164;  0.0000000E+00;  0.0000000E+00;  0.0000000E+00;  1.0080598E+03;  1.0000000E-01;  6.6774409E+03;0;  0.0000000E+00;  0.0000000E+00;  0.0000000E+00;0;  9.3716793E-03;  4.0000000E+04;  0.0000000E+00;  0.0000000E+00;  4.0000000E+04;  0.0000000E+00;  4.0000000E+04;  9.3506463E-03;  0.0000000E+00;  2.1033269E-05;  8.8723057E+03;
  1.2000000E-01;  9.9999998E-03; -4.4000000E-01;2181;  0.0000000E+00;  0.0000000E+00;  0.0000000E+00;  1.0000000E+03;  1.0000000E-01;  0.0000000E+00;0;  0.0000000E+00;  0.0000000E+00;  0.0000000E+00;0;  6.1985083E-05;  4.0000000E+04;  0.0000000E+00;  0.0000000E+00;  4.0000000E+04;  0.0000000E+00;  4.0000000E+04;  2.6745305E-05;  0.0000000E+00;  3.5239776E-05;  2.0718706E+02;
  1.2000000E-01;  9.9999998E-03; -4.3000001E-01;2182;  0.0000000E+00;  0.0000000E+00;  0.0000000E+00;  1.0000621E+03;  1.0000000E-01;  5.1455334E+01;0;  0.0000000E+00;  0.0000000E+00;  0.0000000E+00;0;  1.6825419E-04;  4.0000000E+04;  0.0000000E+00;  0.0000000E+00;  4.0000000E+04;  0.0000000E+00;  4.0000000E+04;  8.1253202E-05;  0.0000000E+00;  8.7000990E-05;  5.5734210E+02;
  1.2000000E-01;  9.9999998E-03; -4.1999999E-01;2183;  0.0000000E+00;  0.0000000E+00;  0.0000000E+00;  1.0001095E+03;  1.0000000E-01;  9.0762863E+01;0;  0.0000000E+00;  0.0000000E+00;  0.0000000E+00;0;  3.5343514E-04;  4.0000000E+04;  0.0000000E+00;  0.0000000E+00;  4.0000000E+04;  0.0000000E+00;  4.0000000E+04;  1.9076835E-04;  0.0000000E+00;  1.6266679E-04;  1.1332156E+03;
  1.2000000E-01;  9.9999998E-03; -4.1000000E-01;2184;  0.0000000E+00;  0.0000000E+00;  0.0000000E+00;  1.0002534E+03;  1.0000000E-01;  2.0987061E+02;0;  0.0000000E+00;  0.0000000E+00;  0.0000000E+00;0;  6.3481496E-04;  4.0000000E+04;  0.0000000E+00;  0.0000000E+00;  4.0000000E+04;  0.0000000E+00;  4.0000000E+04;  3.8072711E-04;  0.0000000E+00;  2.5408788E-04;  1.9053472E+03;
  1.2000000E-01;  9.9999998E-03; -4.0000001E-01;2185;  0.0000000E+00;  0.0000000E+00;  0.0000000E+00;  1.0004848E+03;  1.0000000E-01;  4.0166766E+02;0;  0.0000000E+00;  0.0000000E+00;  0.0000000E+00;0;  1.0286637E-03;  4.0000000E+04;  0.0000000E+00;  0.0000000E+00;  4.0000000E+04;  0.0000000E+00;  4.0000000E+04;  6.7811116E-04;  0.0000000E+00;  3.5055255E-04;  2.8035833E+03;
  1.2000000E-01;  9.9999998E-03; -3.8999999E-01;2186;  0.0000000E+00;  0.0000000E+00;  0.0000000E+00;  1.0007910E+03;  1.0000000E-01;  6.5529010E+02;0;  0.0000000E+00;  0.0000000E+00;  0.0000000E+00;0;  1.5509977E-03;  4.0000000E+04;  0.0000000E+00;  0.0000000E+00;  4.0000000E+04;  0.0000000E+00;  4.0000000E+04;  1.1089016E-03;  0.0000000E+00;  4.4209618E-04;  3.7581565E+03;
  1.2000000E-01;  9.9999998E-03; -3.8000000E-01;2187;  0.0000000E+00;  0.0000000E+00;  0.0000000E+00;  1.0012313E+03;  1.0000000E-01;  1.0201193E+03;0;  0.0000000E+00;  0.0000000E+00;  0.0000000E+00;0;  2.2153538E-03;  4.0000000E+04;  0.0000000E+00;  0.0000000E+00;  4.0000000E+04;  0.0000000E+00;  4.0000000E+04;  1.6947666E-03;  0.0000000E+00;  5.2058726E-04;  4.7304492E+03;
  1.2000000E-01;  9.9999998E-03; -3.7000000E-01;2188;  0.0000000E+00;  0.0000000E+00;  0.0000000E+00;  1.0018365E+03;  1.0000000E-01;  1.5215372E+03;0;  0.0000000E+00;  0.0000000E+00;  0.0000000E+00;0;  3.0280203E-03;  4.0000000E+04;  0.0000000E+00;  0.0000000E+00;  4.0000000E+04;  0.0000000E+00;  4.0000000E+04;  2.4490582E-03;  0.0000000E+00;  5.7896215E-04;  5.7284531E+03;
  1.2000000E-01;  9.9999998E-03; -3.6000001E-01;2189;  0.0000000E+00;  0.0000000E+00;  0.0000000E+00;  1.0025992E+03;  1.0000000E-01;  2.1534207E+03;0;  0.0000000E+00;  0.0000000E+00;  0.0000000E+00;0;  3.9821691E-03;  4.0000000E+04;  0.0000000E+00;  0.0000000E+00;  4.0000000E+04;  0.0000000E+00;  4.0000000E+04;  3.3722790E-03;  0.0000000E+00;  6.0988992E-04;  6.8124980E+03;
  1.2000000E-01;  9.9999998E-03; -3.4999999E-01;2190;  0.0000000E+00;  0.0000000E+00;  0.0000000E+00;  1.0035478E+03;  1.0000000E-01;  2.9392749E+03;0;  0.0000000E+00;  0.0000000E+00;  0.0000000E+00;0;  5.0523006E-03;  4.0000000E+04;  0.0000000E+00;  0.0000000E+00;  4.0000000E+04;  0.0000000E+00;  4.0000000E+04;  4.4477293E-03;  0.0000000E+00;  6.0457148E-04;  8.0843872E+03;
  1.2000000E-01;  9.9999998E-03; -3.4000000E-01;2191;  0.0000000E+00;  0.0000000E+00;  0.0000000E+00;  1.0046547E+03;  1.0000000E-01;  3.8562859E+03;0;  0.0000000E+00;  0.0000000E+00;  0.0000000E+00;0;  6.1901226E-03;  4.0000000E+04;  0.0000000E+00;  0.0000000E+00;  4.0000000E+04;  0.0000000E+00;  4.0000000E+04;  5.6381901E-03;  0.0000000E+00;  5.5193249E-04;  9.6401689E+03;
  1.2000000E-01;  9.9999998E-03; -3.3000001E-01;2192;  0.0000000E+00;  0.0000000E+00;  0.0000000E+00;  1.0058933E+03;  1.0000000E-01;  4.8825288E+03;0;  0.0000000E+00;  0.0000000E+00;  0.0000000E+00;0;  7.3230206E-03;  4.0000000E+04;  0.0000000E+00;  0.0000000E+00;  4.0000000E+04;  0.0000000E+00;  4.0000000E+04;  6.8846499E-03;  0.0000000E+00;  4.3837071E-04;  1.1485297E+04;
  1.2000000E-01;  9.9999998E-03; -3.1999999E-01;2193;  0.0000000E+00;  0.0000000E+00;  0.0000000E+00;  1.0072065E+03;  1.0000000E-01;  5.9703989E+03;0;  0.0000000E+00;  0.0000000E+00;  0.0000000E+00;0;  8.3561093E-03;  4.0000000E+04;  0.0000000E+00;  0.0000000E+00;  4.0000000E+04;  0.0000000E+00;  4.0000000E+04;  8.1075868E-03;  0.0000000E+00;  2.4852267E-04;  1.3457423E+04;
  1.2000000E-01;  9.9999998E-03; -3.1000000E-01;2194;  0.0000000E+00;  0.0000000E+00;  0.0000000E+00;  1.0085092E+03;  1.0000000E-01;  7.0496772E+03;0;  0.0000000E+00;  0.0000000E+00;  0.0000000E+00;0;  9.1785444E-03;  4.0000000E+04;  0.0000000E+00;  0.0000000E+00;  4.0000000E+04;  0.0000000E+00;  4.0000000E+04;  9.2105893E-03;  0.0000000E+00; -3.2045376E-05;  1.5219855E+04;
  1.3000000E-01;  9.9999998E-03; -4.4000000E-01;2211;  0.0000000E+00;  0.0000000E+00;  0.0000000E+00;  1.0000000E+03;  1.0000000E-01;  0.0000000E+00;0;  0.0000000E+00;  0.0000000E+00;  0.0000000E+00;0;  7.1262446E-05;  4.0000000E+04;  0.0000000E+00;  0.0000000E+00;  4.0000000E+04;  0.0000000E+00;  4.0000000E+04;  2.5262296E-05;  0.0000000E+00;  4.6000150E-05;  3.2009695E+02;
  1.3000000E-01;  9.9999998E-03; -4.3000001E-01;2212;  0.0000000E+00;  0.0000000E+00;  0.0000000E+00;  1.0000629E+03;  1.0000000E-01;  5.2146675E+01;0;  0.0000000E+00;  0.0000000E+00;  0.0000000E+00;0;  1.8532458E-04;  4.0000000E+04;  0.0000000E+00;  0.0000000E+00;  4.0000000E+04;  0.0000000E+00;  4.0000000E+04;  7.7577912E-05;  0.0000000E+00;  1.0774666E-04;  7.9551483E+02;
  1.3000000E-01;  9.9999998E-03; -4.1999999E-01;2213;  0.0000000E+00;  0.0000000E+00;  0.0000000E+00;  1.0001086E+03;  1.0000000E-01;  8.9972763E+01;0;  0.0000000E+00;  0.0000000E+00;  0.0000000E+00;0;  3.7937379E-04;  4.0000000E+04;  0.0000000E+00;  0.0000000E+00;  4.0000000E+04;  0.0000000E+00;  4.0000000E+04;  1.8502145E-04;  0.0000000E+00;  1.9435235E-04;  1.5079402E+03;
  1.3000000E-01;  9.9999998E-03; -4.1000000E-01;2214;  0.0000000E+00;  0.0000000E+00;  0.0000000E+00;  1.0002820E+03;  1.0000000E-01;  2.3367241E+02;0;  0.0000000E+00;  0.0000000E+00;  0.0000000E+00;0;  6.6926179E-04;  4.0000000E+04;  0.0000000E+00;  0.0000000E+00;  4.0000000E+04;  0.0000000E+00;  4.0000000E+04;  3.7440745E-04;  0.0000000E+00;  2.9485431E-04;  2.3780659E+03;
  1.3000000E-01;  9.9999998E-03; -4.0000001E-01;2215;  0.0000000E+00;  0.0000000E+00;  0.0000000E+00;  1.0005223E+03;  1.0000000E-01;  4.3267911E+02;0;  0.0000000E+00;  0.0000000E+00;  0.0000000E+00;0;  1.0703125E-03;  4.0000000E+04;  0.0000000E+00;  0.0000000E+00;  4.0000000E+04;  0.0000000E+00;  4.0000000E+04;  6.7376380E-04;  0.0000000E+00;  3.9654871E-04;  3.3031162E+03;
  1.3000000E-01;  9.9999998E-03; -3.8999999E-01;2216;  0.0000000E+00;  0.0000000E+00;  0.0000000E+00;  1.0008610E+03;  1.0000000E-01;  7.1336255E+02;0;  0.0000000E+00;  0.0000000E+00;  0.0000000E+00;0;  1.5981434E-03;  4.0000000E+04;  0.0000000E+00;  0.0000000E+00;  4.0000000E+04;  0.0000000E+00;  4.0000000E+04;  1.1092020E-03;  0.0000000E+00;  4.8894132E-04;  4.2296899E+03;
  1.3000000E-01;  9.9999998E-03; -3.8000000E-01;2217;  0.0000000E+00;  0.0000000E+00;  0.0000000E+00;  1.0013558E+03;  1.0000000E-01;  1.1232275E+03;0;  0.0000000E+00;  0.0000000E+00;  0.0000000E+00;0;  2.2652834E-03;  4.0000000E+04;  0.0000000E+00;  0.0000000E+00;  4.0000000E+04;  0.0000000E+00;  4.0000000E+04;  1.7009613E-03;  0.0000000E+00;  5.6432217E-04;  5.2126489E+03;
  1.3000000E-01;  9.9999998E-03; -3.7000000E-01;2218;  0.0000000E+00;  0.0000000E+00;  0.0000000E+00;  1.0020157E+03;  1.0000000E-01;  1.6699774E+03;0;  0.0000000E+00;  0.0000000E+00;  0.0000000E+00;0;  3.0751182E-03;  4.0000000E+04;  0.0000000E+00;  0.0000000E+00;  4.0000000E+04;  0.0000000E+00;  4.0000000E+04;  2.4586953E-03;  0.0000000E+00;  6.1642297E-04;  6.4410908E+03;
  1.3000000E-01;  9.9999998E-03; -3.6000001E-01;2219;  0.0000000E+00;  0.0000000E+00;  0.0000000E+00;  1.0028661E+03;  1.0000000E-01;  2.3744514E+03;0;  0.0000000E+00;  0.0000000E+00;  0.0000000E+00;0;  4.0152888E-03;  4.0000000E+04;  0.0000000E+00;  0.0000000E+00;  4.0000000E+04;  0.0000000E+00;  4.0000000E+04;  3.3766879E-03;  0.0000000E+00;  6.3860085E-04;  8.1901602E+03;
  1.3000000E-01;  9.9999998E-03; -3.4999999E-01;2220;  0.0000000E+00;  0.0000000E+00;  0.0000000E+00;  1.0038938E+03;  1.0000000E-01;  3.2259829E+03;0;  0.0000000E+00;  0.0000000E+00;  0.0000000E+00;0;  5.0521931E-03;  4.0000000E+04;  0.0000000E+00;  0.0000000E+00;  4.0000000E+04;  0.0000000E+00;  4.0000000E+04;  4.4298228E-03;  0.0000000E+00;  6.2237011E-04;  1.0680428E+04;
  1.3000000E-01;  9.9999998E-03; -3.4000000E-01;2221;  0.0000000E+00;  0.0000000E+00;  0.0000000E+00;  1.0050925E+03;  1.0000000E-01;  4.2190410E+03;0;  0.0000000E+00;  0.0000000E+00;  0.0000000E+00;0;  6.1280332E-03;  4.0000000E+04;  0.0000000E+00;  0.0000000E+00;  4.0000000E+04;  0.0000000E+00;  4.0000000E+04;  5.5716215E-03;  0.0000000E+00;  5.5641151E-04;  1.3931632E+04;
  1.3000000E-01;  9.9999998E-03; -3.3000001E-01;2222;  0.0000000E+00;  0.0000000E+00;  0.0000000E+00;  1.0064177E+03;  1.0000000E-01;  5.3169854E+03;0;  0.0000000E+00;  0.0000000E+00;  0.0000000E+00;0;  7.1616173E-03;  4.0000000E+04;  0.0000000E+00;  0.0000000E+00;  4.0000000E+04;  0.0000000E+00;  4.0000000E+04;  6.7355470E-03;  0.0000000E+00;  4.2607047E-04;  1.7697020E+04;
  1.3000000E-01;  9.9999998E-03; -3.1999999E-01;2223;  0.0000000E+00;  0.0000000E+00;  0.0000000E+00;  1.0077980E+03;  1.0000000E-01;  6.4605581E+03;0;  0.0000000E+00;  0.0000000E+00;  0.0000000E+00;0;  8.0527486E-03;  4.0000000E+04;  0.0000000E+00;  0.0000000E+00;  4.0000000E+04;  0.0000000E+00;  4.0000000E+04;  7.8392746E-03;  0.0000000E+00;  2.1347372E-04;  2.1466490E+04;
  1.3000000E-01;  9.9999998E-03; -3.1000000E-01;2224;  0.0000000E+00;  0.0000000E+00;  0.0000000E+00;  1.0091498E+03;  1.0000000E-01;  7.5804277E+03;0;  0.0000000E+00;  0.0000000E+00;  0.0000000E+00;0;  8.6904122E-03;  4.0000000E+04;  0.0000000E+00;  0.0000000E+00;  4.0000000E+04;  0.0000000E+00;  4.0000000E+04;  8.7911543E-03;  0.0000000E+00; -1.0074177E-04;  2.4540920E+04;
  1.4000000E-01;  9.9999998E-03; -4.4000000E-01;2241;  0.0000000E+00;  0.0000000E+00;  0.0000000E+00;  1.0000000E+03;  1.0000000E-01;  0.0000000E+00;0;  0.0000000E+00;  0.0000000E+00;  0.0000000E+00;0;  7.4454103E-05;  4.0000000E+04;  0.0000000E+00;  0.0000000E+00;  4.0000000E+04;  0.0000000E+00;  4.0000000E+04;  2.1701480E-05;  0.0000000E+00;  5.2752621E-05;  5.3195068E+02;
  1.4000000E-01;  9.9999998E-03; -4.3000001E-01;2242;  0.0000000E+00;  0.0000000E+00;  0.0000000E+00;  1.0000658E+03;  1.0000000E-01;  5.4516975E+01;0;  0.0000000E+00;  0.0000000E+00;  0.0000000E+00;0;  1.9029112E-04;  4.0000000E+04;  0.0000000E+00;  0.0000000E+00;  4.0000000E+04;  0.0000000E+00;  4.0000000E+04;  6.9769427E-05;  0.0000000E+00;  1.2052169E-04;  1.2402430E+03;
  1.4000000E-01;  9.9999998E-03; -4.1999999E-01;2243;  0.0000000E+00;  0.0000000E+00;  0.0000000E+00;  1.0001174E+03;  1.0000000E-01;  9.7281197E+01;0;  0.0000000E+00;  0.0000000E+00;  0.0000000E+00;0;  3.8585806E-04;  4.0000000E+04;  0.0000000E+00;  0.0000000E+00;  4.0000000E+04;  0.0000000E+00;  4.0000000E+04;  1.7200544E-04;  0.0000000E+00;  2.1385260E-04;  2.1888713E+03;
  1.4000000E-01;  9.9999998E-03; -4.1000000E-01;2244;  0.0000000E+00;  0.0000000E+00;  0.0000000E+00;  1.0003222E+03;  1.0000000E-01;  2.6695541E+02;0;  0.0000000E+00;  0.0000000E+00;  0.0000000E+00;0;  6.7581888E-04;  4.0000000E+04;  0.0000000E+00;  0.0000000E+00;  4.0000000E+04;  0.0000000E+00;  4.0000000E+04;  3.5590283E-04;  0.0000000E+00;  3.1991606E-04;  3.1811553E+03;
  1.4000000E-01;  9.9999998E-03; -4.0000001E-01;2245;  0.0000000E+00;  0.0000000E+00;  0.0000000E+00;  1.0005716E+03;  1.0000000E-01;  4.7356686E+02;0;  0.0000000E+00;  0.0000000E+00;  0.0000000E+00;0;  1.0742209E-03;  4.0000000E+04;  0.0000000E+00;  0.0000000E+00;  4.0000000E+04;  0.0000000E+00;  4.0000000E+04;  6.4984307E-04;  0.0000000E+00;  4.2437782E-04;  4.0267549E+03;
  1.4000000E-01;  9.9999998E-03; -3.8999999E-01;2246;  0.0000000E+00;  0.0000000E+00;  0.0000000E+00;  1.0009716E+03;  1.0000000E-01;  8.0501428E+02;0;  0.0000000E+00;  0.0000000E+00;  0.0000000E+00;0;  1.5954806E-03;  4.0000000E+04;  0.0000000E+00;  0.0000000E+00;  4.0000000E+04;  0.0000000E+00;  4.0000000E+04;  1.0794514E-03;  0.0000000E+00;  5.1602925E-04;  4.7038643E+03;
  1.4000000E-01;  9.9999998E-03; -3.8000000E-01;2247;  0.0000000E+00;  0.0000000E+00;  0.0000000E+00;  1.0015300E+03;  1.0000000E-01;  1.2676185E+03;0;  0.0000000E+00;  0.0000000E+00;  0.0000000E+00;0;  2.2502404E-03;  4.0000000E+04;  0.0000000E+00;  0.0000000E+00;  4.0000000E+04;  0.0000000E+00;  4.0000000E+04;  1.6630549E-03;  0.0000000E+00;  5.8718544E-04;  5.5404390E+03;
  1.4000000E-01;  9.9999998E-03; -3.7000000E-01;2248;  0.0000000E+00;  0.0000000E+00;  0.0000000E+00;  1.0022685E+03;  1.0000000E-01;  1.8794530E+03;0;  0.0000000E+00;  0.0000000E+00;  0.0000000E+00;0;  3.0382033E-03;  4.0000000E+04;  0.0000000E+00;  0.0000000E+00;  4.0000000E+04;  0.0000000E+00;  4.0000000E+04;  2.4063997E-03;  0.0000000E+00;  6.3180370E-04;  7.2303545E+03;
  1.4000000E-01;  9.9999998E-03; -3.6000001E-01;2249;  0.0000000E+00;  0.0000000E+00;  0.0000000E+00;  1.0032114E+03;  1.0000000E-01;  2.6605667E+03;0;  0.0000000E+00;  0.0000000E+00;  0.0000000E+00;0;  3.9409474E-03;  4.0000000E+04;  0.0000000E+00;  0.0000000E+00;  4.0000000E+04;  0.0000000E+00;  4.0000000E+04;  3.2975504E-03;  0.0000000E+00;  6.4339692E-04;  1.0353493E+04;
  1.4000000E-01;  9.9999998E-03; -3.4999999E-01;2250;  0.0000000E+00;  0.0000000E+00;  0.0000000E+00;  1.0043507E+03;  1.0000000E-01;  3.6044412E+03;0;  0.0000000E+00;  0.0000000E+00;  0.0000000E+00;0;  4.9169860E-03;  4.0000000E+04;  0.0000000E+00;  0.0000000E+00;  4.0000000E+04;  0.0000000E+00;  4.0000000E+04;  4.3035178E-03;  0.0000000E+00;  6.1346841E-04;  1.4971003E+04;
  1.4000000E-01;  9.9999998E-03; -3.4000000E-01;2251;  0.0000000E+00;  0.0000000E+00;  0.0000000E+00;  1.0056608E+03;  1.0000000E-01;  4.6898428E+03;0;  0.0000000E+00;  0.0000000E+00;  0.0000000E+00;0;  5.9010321E-03;  4.0000000E+04;  0.0000000E+00;  0.0000000E+00;  4.0000000E+04;  0.0000000E+00;  4.0000000E+04;  5.3704595E-03;  0.0000000E+00;  5.3057249E-04;  2.0739002E+04;
  1.4000000E-01;  9.9999998E-03; -3.3000001E-01;2252;  0.0000000E+00;  0.0000000E+00;  0.0000000E+00;  1.0070864E+03;  1.0000000E-01;  5.8709448E+03;0;  0.0000000E+00;  0.0000000E+00;  0.0000000E+00;0;  6.8078013E-03;  4.0000000E+04;  0.0000000E+00;  0.0000000E+00;  4.0000000E+04;  0.0000000E+00;  4.0000000E+04;  6.4280359E-03;  0.0000000E+00;  3.7976520E-04;  2.7010406E+04;
  1.4000000E-01;  9.9999998E-03; -3.1999999E-01;2253;  0.0000000E+00;  0.0000000E+00;  0.0000000E+00;  1.0085471E+03;  1.0000000E-01;  7.0810835E+03;0;  0.0000000E+00;  0.0000000E+00;  0.0000000E+00;0;  7.5385440E-03;  4.0000000E+04;  0.0000000E+00;  0.0000000E+00;  4.0000000E+04;  0.0000000E+00;  4.0000000E+04;  7.3961695E-03;  0.0000000E+00;  1.4237469E-04;  3.2853465E+04;
  1.4000000E-01;  9.9999998E-03; -3.1000000E-01;2254;  0.0000000E+00;  0.0000000E+00;  0.0000000E+00;  1.0099470E+03;  1.0000000E-01;  8.2409521E+03;0;  0.0000000E+00;  0.0000000E+00;  0.0000000E+00;0;  7.9919752E-03;  4.0000000E+04;  0.0000000E+00;  0.0000000E+00;  4.0000000E+04;  0.0000000E+00;  4.0000000E+04;  8.1938878E-03;  0.0000000E+00; -2.0191242E-04;  3.7167855E+04;
  1.5000001E-01;  9.9999998E-03; -4.4000000E-01;2271;  0.0000000E+00;  0.0000000E+00;  0.0000000E+00;  1.0000000E+03;  1.0000000E-01;  0.0000000E+00;0;  0.0000000E+00;  0.0000000E+00;  0.0000000E+00;0;  7.1645838E-05;  4.0000000E+04;  0.0000000E+00;  0.0000000E+00;  4.0000000E+04;  0.0000000E+00;  4.0000000E+04;  1.6955941E-05;  0.0000000E+00;  5.4689899E-05;  9.1903699E+02;
  1.5000001E-01;  9.9999998E-03; -4.3000001E-01;2272;  0.0000000E+00;  0.0000000E+00;  0.0000000E+00;  1.0000737E+03;  1.0000000E-01;  6.1035313E+01;0;  0.0000000E+00;  0.0000000E+00;  0.0000000E+00;0;  1.8404683E-04;  4.0000000E+04;  0.0000000E+00;  0.0000000E+00;  4.0000000E+04;  0.0000000E+00;  4.0000000E+04;  5.9767084E-05;  0.0000000E+00;  1.2427974E-04;  2.0526221E+03;
  1.5000001E-01;  9.9999998E-03; -4.1999999E-01;2273;  0.0000000E+00;  0.0000000E+00;  0.0000000E+00;  1.0001301E+03;  1.0000000E-01;  1.0784880E+02;0;  0.0000000E+00;  0.0000000E+00;  0.0000000E+00;0;  3.7460786E-04;  4.0000000E+04;  0.0000000E+00;  0.0000000E+00;  4.0000000E+04;  0.0000000E+00;  4.0000000E+04;  1.5488709E-04;  0.0000000E+00;  2.1972075E-04;  3.4332871E+03;
  1.5000001E-01;  9.9999998E-03; -4.1000000E-01;2274;  0.0000000E+00;  0.0000000E+00;  0.0000000E+00;  1.0003608E+03;  1.0000000E-01;  2.9895450E+02;0;  0.0000000E+00;  0.0000000E+00;  0.0000000E+00;0;  6.5696880E-04;  4.0000000E+04;  0.0000000E+00;  0.0000000E+00;  4.0000000E+04;  0.0000000E+00;  4.0000000E+04;  3.2967897E-04;  0.0000000E+00;  3.2728986E-04;  4.6438164E+03;
  1.5000001E-01;  9.9999998E-03; -4.0000001E-01;2275;  0.0000000E+00;  0.0000000E+00;  0.0000000E+00;  1.0006597E+03;  1.0000000E-01;  5.4655243E+02;0;  0.0000000E+00;  0.0000000E+00;  0.0000000E+00;0;  1.0437509E-03;  4.0000000E+04;  0.0000000E+00;  0.0000000E+00;  4.0000000E+04;  0.0000000E+00;  4.0000000E+04;  6.1221409E-04;  0.0000000E+00;  4.3153681E-04;  5.2942856E+03;
  1.5000001E-01;  9.9999998E-03; -3.8999999E-01;2276;  0.0000000E+00;  0.0000000E+00;  0.0000000E+00;  1.0011061E+03;  1.0000000E-01;  9.1641852E+02;0;  0.0000000E+00;  0.0000000E+00;  0.0000000E+00;0;  1.5477053E-03;  4.0000000E+04;  0.0000000E+00;  0.0000000E+00;  4.0000000E+04;  0.0000000E+00;  4.0000000E+04;  1.0272518E-03;  0.0000000E+00;  5.2045344E-04;  5.3334780E+03;
  1.5000001E-01;  9.9999998E-03; -3.8000000E-01;2277;  0.0000000E+00;  0.0000000E+00;  0.0000000E+00;  1.0017393E+03;  1.0000000E-01;  1.4409469E+03;0;  0.0000000E+00;  0.0000000E+00;  0.0000000E+00;0;  2.1769633E-03;  4.0000000E+04;  0.0000000E+00;  0.0000000E+00;  4.0000000E+04;  0.0000000E+00;  4.0000000E+04;  1.5910794E-03;  0.0000000E+00;  5.8588380E-04;  5.6726045E+03;
  1.5000001E-01;  9.9999998E-03; -3.7000000E-01;2278;  0.0000000E+00;  0.0000000E+00;  0.0000000E+00;  1.0025813E+03;  1.0000000E-01;  2.1386062E+03;0;  0.0000000E+00;  0.0000000E+00;  0.0000000E+00;0;  2.9272018E-03;  4.0000000E+04;  0.0000000E+00;  0.0000000E+00;  4.0000000E+04;  0.0000000E+00;  4.0000000E+04;  2.3057766E-03;  0.0000000E+00;  6.2142534E-04;  8.2906172E+03;
  1.5000001E-01;  9.9999998E-03; -3.6000001E-01;2279;  0.0000000E+00;  0.0000000E+00;  0.0000000E+00;  1.0036372E+03;  1.0000000E-01;  3.0133469E+03;0;  0.0000000E+00;  0.0000000E+00;  0.0000000E+00;0;  3.7745081E-03;  4.0000000E+04;  0.0000000E+00;  0.0000000E+00;  4.0000000E+04;  0.0000000E+00;  4.0000000E+04;  3.1542866E-03;  0.0000000E+00;  6.2022154E-04;  1.3799168E+04;
  1.5000001E-01;  9.9999998E-03; -3.4999999E-01;2280;  0.0000000E+00;  0.0000000E+00;  0.0000000E+00;  1.0049035E+03;  1.0000000E-01;  4.0625024E+03;0;  0.0000000E+00;  0.0000000E+00;  0.0000000E+00;0;  4.6718214E-03;  4.0000000E+04;  0.0000000E+00;  0.0000000E+00;  4.0000000E+04;  0.0000000E+00;  4.0000000E+04;  4.0982543E-03;  0.0000000E+00;  5.7356735E-04;  2.1514707E+04;
  1.5000001E-01;  9.9999998E-03; -3.4000000E-01;2281;  0.0000000E+00;  0.0000000E+00;  0.0000000E+00;  1.0063298E+03;  1.0000000E-01;  5.2440986E+03;0;  0.0000000E+00;  0.0000000E+00;  0.0000000E+00;0;  5.5507571E-03;  4.0000000E+04;  0.0000000E+00;  0.0000000E+00;  4.0000000E+04;  0.0000000E+00;  4.0000000E+04;  5.0805146E-03;  0.0000000E+00;  4.7024267E-04;  3.0584408E+04;
  1.5000001E-01;  9.9999998E-03; -3.3000001E-01;2282;  0.0000000E+00;  0.0000000E+00;  0.0000000E+00;  1.0078621E+03;  1.0000000E-01;  6.5135938E+03;0;  0.0000000E+00;  0.0000000E+00;  0.0000000E+00;0;  6.3276892E-03;  4.0000000E+04;  0.0000000E+00;  0.0000000E+00;  4.0000000E+04;  0.0000000E+00;  4.0000000E+04;  6.0317740E-03;  0.0000000E+00;  2.9591520E-04;  3.9891469E+04;
  1.5000001E-01;  9.9999998E-03; -3.1999999E-01;2283;  0.0000000E+00;  0.0000000E+00;  0.0000000E+00;  1.0094008E+03;  1.0000000E-01;  7.7883228E+03;0;  0.0000000E+00;  0.0000000E+00;  0.0000000E+00;0;  6.9124172E-03;  4.0000000E+04;  0.0000000E+00;  0.0000000E+00;  4.0000000E+04;  0.0000000E+00;  4.0000000E+04;  6.8792892E-03;  0.0000000E+00;  3.3127846E-05;  4.7986320E+04;
  1.5000001E-01;  9.9999998E-03; -3.1000000E-01;2284;  0.0000000E+00;  0.0000000E+00;  0.0000000E+00;  1.0108416E+03;  1.0000000E-01;  8.9820674E+03;0;  0.0000000E+00;  0.0000000E+00;  0.0000000E+00;0;  7.2216536E-03;  4.0000000E+04;  0.0000000E+00;  0.0000000E+00;  4.0000000E+04;  0.0000000E+00;  4.0000000E+04;  7.5570229E-03;  0.0000000E+00; -3.3536917E-04;  5.3298441E+04;
  1.6000000E-01;  9.9999998E-03; -4.4000000E-01;2301;  0.0000000E+00;  0.0000000E+00;  0.0000000E+00;  1.0000000E+03;  1.0000000E-01;  0.0000000E+00;0;  0.0000000E+00;  0.0000000E+00;  0.0000000E+00;0;  6.4250096E-05;  4.0000000E+04;  0.0000000E+00;  0.0000000E+00;  4.0000000E+04;  0.0000000E+00;  4.0000000E+04;  1.2419126E-05;  0.0000000E+00;  5.1830972E-05;  1.5719106E+03;
  1.6000000E-01;  9.9999998E-03; -4.3000001E-01;2302;  0.0000000E+00;  0.0000000E+00;  0.0000000E+00;  1.0000867E+03;  1.0000000E-01;  7.1800438E+01;0;  0.0000000E+00;  0.0000000E+00;  0.0000000E+00;0;  1.6956772E-04;  4.0000000E+04;  0.0000000E+00;  0.0000000E+00;  4.0000000E+04;  0.0000000E+00;  4.0000000E+04;  5.0136648E-05;  0.0000000E+00;  1.1943108E-04;  3.4056838E+03;
  1.6000000E-01;  9.9999998E-03; -4.1999999E-01;2303;  0.0000000E+00;  0.0000000E+00;  0.0000000E+00;  1.0001674E+03;  1.0000000E-01;  1.3866275E+02;0;  0.0000000E+00;  0.0000000E+00;  0.0000000E+00;0;  3.5040692E-04;  4.0000000E+04;  0.0000000E+00;  0.0000000E+00;  4.0000000E+04;  0.0000000E+00;  4.0000000E+04;  1.3755925E-04;  0.0000000E+00;  2.1284765E-04;  5.4959106E+03;
  1.6000000E-01;  9.9999998E-03; -4.1000000E-01;2304;  0.0000000E+00;  0.0000000E+00;  0.0000000E+00;  1.0004258E+03;  1.0000000E-01;  3.5278015E+02;0;  0.0000000E+00;  0.0000000E+00;  0.0000000E+00;0;  6.1939628E-04;  4.0000000E+04;  0.0000000E+00;  0.0000000E+00;  4.0000000E+04;  0.0000000E+00;  4.0000000E+04;  3.0116257E-04;  0.0000000E+00;  3.1823371E-04;  7.0882441E+03;
  1.6000000E-01;  9.9999998E-03; -4.0000001E-01;2305;  0.0000000E+00;  0.0000000E+00;  0.0000000E+00;  1.0007594E+03;  1.0000000E-01;  6.2911798E+02;0;  0.0000000E+00;  0.0000000E+00;  0.0000000E+00;0;  9.8779111E-04;  4.0000000E+04;  0.0000000E+00;  0.0000000E+00;  4.0000000E+04;  0.0000000E+00;  4.0000000E+04;  5.6815613E-04;  0.0000000E+00;  4.1963501E-04;  7.4743350E+03;
  1.6000000E-01;  9.9999998E-03; -3.8999999E-01;2306;  0.0000000E+00;  0.0000000E+00;  0.0000000E+00;  1.0012689E+03;  1.0000000E-01;  1.0512295E+03;0;  0.0000000E+00;  0.0000000E+00;  0.0000000E+00;0;  1.4665297E-03;  4.0000000E+04;  0.0000000E+00;  0.0000000E+00;  4.0000000E+04;  0.0000000E+00;  4.0000000E+04;  9.6229668E-04;  0.0000000E+00;  5.0423306E-04;  6.4112661E+03;
  1.6000000E-01;  9.9999998E-03; -3.8000000E-01;2307;  0.0000000E+00;  0.0000000E+00;  0.0000000E+00;  1.0019800E+03;  1.0000000E-01;  1.6403486E+03;0;  0.0000000E+00;  0.0000000E+00;  0.0000000E+00;0;  2.0612555E-03;  4.0000000E+04;  0.0000000E+00;  0.0000000E+00;  4.0000000E+04;  0.0000000E+00;  4.0000000E+04;  1.4982929E-03;  0.0000000E+00;  5.6296261E-04;  5.5884131E+03;
  1.6000000E-01;  9.9999998E-03; -3.7000000E-01;2308;  0.0000000E+00;  0.0000000E+00;  0.0000000E+00;  1.0029135E+03;  1.0000000E-01;  2.4137588E+03;0;  0.0000000E+00;  0.0000000E+00;  0.0000000E+00;0;  2.7643996E-03;  4.0000000E+04;  0.0000000E+00;  0.0000000E+00;  4.0000000E+04;  0.0000000E+00;  4.0000000E+04;  2.1758974E-03;  0.0000000E+00;  5.8850227E-04;  9.8590625E+03;
  1.6000000E-01;  9.9999998E-03; -3.6000001E-01;2309;  0.0000000E+00;  0.0000000E+00;  0.0000000E+00;  1.0040946E+03;  1.0000000E-01;  3.3922991E+03;0;  0.0000000E+00;  0.0000000E+00;  0.0000000E+00;0;  3.5487758E-03;  4.0000000E+04;  0.0000000E+00;  0.0000000E+00;  4.0000000E+04;  0.0000000E+00;  4.0000000E+04;  2.9754979E-03;  0.0000000E+00;  5.7327800E-04;  1.8828461E+04;
  1.6000000E-01;  9.9999998E-03; -3.4999999E-01;2310;  0.0000000E+00;  0.0000000E+00;  0.0000000E+00;  1.0054868E+03;  1.0000000E-01;  4.5457480E+03;0;  0.0000000E+00;  0.0000000E+00;  0.0000000E+00;0;  4.3659681E-03;  4.0000000E+04;  0.0000000E+00;  0.0000000E+00;  4.0000000E+04;  0.0000000E+00;  4.0000000E+04;  3.8574734E-03;  0.0000000E+00;  5.0849473E-04;  3.0549484E+04;
  1.6000000E-01;  9.9999998E-03; -3.4000000E-01;2311;  0.0000000E+00;  0.0000000E+00;  0.0000000E+00;  1.0070369E+03;  1.0000000E-01;  5.8299585E+03;0;  0.0000000E+00;  0.0000000E+00;  0.0000000E+00;0;  5.1496350E-03;  4.0000000E+04;  0.0000000E+00;  0.0000000E+00;  4.0000000E+04;  0.0000000E+00;  4.0000000E+04;  4.7660782E-03;  0.0000000E+00;  3.8355670E-04;  4.3672855E+04;
  1.6000000E-01;  9.9999998E-03; -3.3000001E-01;2312;  0.0000000E+00;  0.0000000E+00;  0.0000000E+00;  1.0086700E+03;  1.0000000E-01;  7.1830068E+03;0;  0.0000000E+00;  0.0000000E+00;  0.0000000E+00;0;  5.8225822E-03;  4.0000000E+04;  0.0000000E+00;  0.0000000E+00;  4.0000000E+04;  0.0000000E+00;  4.0000000E+04;  5.6369547E-03;  0.0000000E+00;  1.8562756E-04;  5.6516062E+04;
  1.6000000E-01;  9.9999998E-03; -3.1999999E-01;2313;  0.0000000E+00;  0.0000000E+00;  0.0000000E+00;  1.0102799E+03;  1.0000000E-01;  8.5166973E+03;0;  0.0000000E+00;  0.0000000E+00;  0.0000000E+00;0;  6.3079651E-03;  4.0000000E+04;  0.0000000E+00;  0.0000000E+00;  4.0000000E+04;  0.0000000E+00;  4.0000000E+04;  6.4074746E-03;  0.0000000E+00; -9.9509423E-05;  6.6980766E+04;
  1.6000000E-01;  9.9999998E-03; -3.1000000E-01;2314;  0.0000000E+00;  0.0000000E+00;  0.0000000E+00;  1.0117376E+03;  1.0000000E-01;  9.7243672E+03;0;  0.0000000E+00;  0.0000000E+00;  0.0000000E+00;0;  6.5452252E-03;  4.0000000E+04;  0.0000000E+00;  0.0000000E+00;  4.0000000E+04;  0.0000000E+00;  4.0000000E+04;  7.0281303E-03;  0.0000000E+00; -4.8290537E-04;  7.2938805E+04;
  1.7000000E-01;  9.9999998E-03; -4.4000000E-01;2331;  0.0000000E+00;  0.0000000E+00;  0.0000000E+00;  1.0000000E+03;  1.0000000E-01;  0.0000000E+00;0;  0.0000000E+00;  0.0000000E+00;  0.0000000E+00;0;  5.4448781E-05;  4.0000000E+04;  0.0000000E+00;  0.0000000E+00;  4.0000000E+04;  0.0000000E+00;  4.0000000E+04;  9.6448266E-06;  0.0000000E+00;  4.4803954E-05;  2.5900164E+03;
  1.7000000E-01;  9.9999998E-03; -4.3000001E-01;2332;  0.0000000E+00;  0.0000000E+00;  0.0000000E+00;  1.0000942E+03;  1.0000000E-01;  7.8022484E+01;0;  0.0000000E+00;  0.0000000E+00;  0.0000000E+00;0;  1.5107243E-04;  4.0000000E+04;  0.0000000E+00;  0.0000000E+00;  4.0000000E+04;  0.0000000E+00;  4.0000000E+04;  4.3534121E-05;  0.0000000E+00;  1.0753830E-04;  5.4634028E+03;
  1.7000000E-01;  9.9999998E-03; -4.1999999E-01;2333;  0.0000000E+00;  0.0000000E+00;  0.0000000E+00;  1.0002338E+03;  1.0000000E-01;  1.9367354E+02;0;  0.0000000E+00;  0.0000000E+00;  0.0000000E+00;0;  3.2005235E-04;  4.0000000E+04;  0.0000000E+00;  0.0000000E+00;  4.0000000E+04;  0.0000000E+00;  4.0000000E+04;  1.2390903E-04;  0.0000000E+00;  1.9614332E-04;  8.5742520E+03;
  1.7000000E-01;  9.9999998E-03; -4.1000000E-01;2334;  0.0000000E+00;  0.0000000E+00;  0.0000000E+00;  1.0004829E+03;  1.0000000E-01;  4.0008746E+02;0;  0.0000000E+00;  0.0000000E+00;  0.0000000E+00;0;  5.7293731E-04;  4.0000000E+04;  0.0000000E+00;  0.0000000E+00;  4.0000000E+04;  0.0000000E+00;  4.0000000E+04;  2.7579765E-04;  0.0000000E+00;  2.9713969E-04;  1.0713159E+04;
  1.7000000E-01;  9.9999998E-03; -4.0000001E-01;2335;  0.0000000E+00;  0.0000000E+00;  0.0000000E+00;  1.0008544E+03;  1.0000000E-01;  7.0783185E+02;0;  0.0000000E+00;  0.0000000E+00;  0.0000000E+00;0;  9.1957022E-04;  4.0000000E+04;  0.0000000E+00;  0.0000000E+00;  4.0000000E+04;  0.0000000E+00;  4.0000000E+04;  5.2509847E-04;  0.0000000E+00;  3.9447172E-04;  1.0783216E+04;
  1.7000000E-01;  9.9999998E-03; -3.8999999E-01;2336;  0.0000000E+00;  0.0000000E+00;  0.0000000E+00;  1.0014250E+03;  1.0000000E-01;  1.1806086E+03;0;  0.0000000E+00;  0.0000000E+00;  0.0000000E+00;0;  1.3692008E-03;  4.0000000E+04;  0.0000000E+00;  0.0000000E+00;  4.0000000E+04;  0.0000000E+00;  4.0000000E+04;  8.9462806E-04;  0.0000000E+00;  4.7457273E-04;  8.2392344E+03;
  1.7000000E-01;  9.9999998E-03; -3.8000000E-01;2337;  0.0000000E+00;  0.0000000E+00;  0.0000000E+00;  1.0022097E+03;  1.0000000E-01;  1.8306643E+03;0;  0.0000000E+00;  0.0000000E+00;  0.0000000E+00;0;  1.9258006E-03;  4.0000000E+04;  0.0000000E+00;  0.0000000E+00;  4.0000000E+04;  0.0000000E+00;  4.0000000E+04;  1.3986621E-03;  0.0000000E+00;  5.2713847E-04;  5.2972212E+03;
  1.7000000E-01;  9.9999998E-03; -3.7000000E-01;2338;  0.0000000E+00;  0.0000000E+00;  0.0000000E+00;  1.0032460E+03;  1.0000000E-01;  2.6893066E+03;0;  0.0000000E+00;  0.0000000E+00;  0.0000000E+00;0;  2.5807878E-03;  4.0000000E+04;  0.0000000E+00;  0.0000000E+00;  4.0000000E+04;  0.0000000E+00;  4.0000000E+04;  2.0372146E-03;  0.0000000E+00;  5.4357323E-04;  1.2035243E+04;
  1.7000000E-01;  9.9999998E-03; -3.6000001E-01;2339;  0.0000000E+00;  0.0000000E+00;  0.0000000E+00;  1.0045214E+03;  1.0000000E-01;  3.7458694E+03;0;  0.0000000E+00;  0.0000000E+00;  0.0000000E+00;0;  3.3080692E-03;  4.0000000E+04;  0.0000000E+00;  0.0000000E+00;  4.0000000E+04;  0.0000000E+00;  4.0000000E+04;  2.7924776E-03;  0.0000000E+00;  5.1559164E-04;  2.5339133E+04;
  1.7000000E-01;  9.9999998E-03; -3.4999999E-01;2340;  0.0000000E+00;  0.0000000E+00;  0.0000000E+00;  1.0060257E+03;  1.0000000E-01;  4.9921553E+03;0;  0.0000000E+00;  0.0000000E+00;  0.0000000E+00;0;  4.0633082E-03;  4.0000000E+04;  0.0000000E+00;  0.0000000E+00;  4.0000000E+04;  0.0000000E+00;  4.0000000E+04;  3.6287960E-03;  0.0000000E+00;  4.3451251E-04;  4.1821273E+04;
  1.7000000E-01;  9.9999998E-03; -3.4000000E-01;2341;  0.0000000E+00;  0.0000000E+00;  0.0000000E+00;  1.0076852E+03;  1.0000000E-01;  6.3670298E+03;0;  0.0000000E+00;  0.0000000E+00;  0.0000000E+00;0;  4.7867037E-03;  4.0000000E+04;  0.0000000E+00;  0.0000000E+00;  4.0000000E+04;  0.0000000E+00;  4.0000000E+04;  4.4960957E-03;  0.0000000E+00;  2.9060818E-04;  5.9653246E+04;
  1.7000000E-01;  9.9999998E-03; -3.3000001E-01;2342;  0.0000000E+00;  0.0000000E+00;  0.0000000E+00;  1.0094064E+03;  1.0000000E-01;  7.7930635E+03;0;  0.0000000E+00;  0.0000000E+00;  0.0000000E+00;0;  5.4101367E-03;  4.0000000E+04;  0.0000000E+00;  0.0000000E+00;  4.0000000E+04;  0.0000000E+00;  4.0000000E+04;  5.3368686E-03;  0.0000000E+00;  7.3268267E-05;  7.6478008E+04;
  1.7000000E-01;  9.9999998E-03; -3.1999999E-01;2343;  0.0000000E+00;  0.0000000E+00;  0.0000000E+00;  1.0110618E+03;  1.0000000E-01;  9.1644814E+03;0;  0.0000000E+00;  0.0000000E+00;  0.0000000E+00;0;  5.8703120E-03;  4.0000000E+04;  0.0000000E+00;  0.0000000E+00;  4.0000000E+04;  0.0000000E+00;  4.0000000E+04;  6.0969642E-03;  0.0000000E+00; -2.2665226E-04;  8.9421500E+04;
  1.7000000E-01;  9.9999998E-03; -3.1000000E-01;2344;  0.0000000E+00;  0.0000000E+00;  0.0000000E+00;  1.0125225E+03;  1.0000000E-01;  1.0374719E+04;0;  0.0000000E+00;  0.0000000E+00;  0.0000000E+00;0;  6.1280145E-03;  4.0000000E+04;  0.0000000E+00;  0.0000000E+00;  4.0000000E+04;  0.0000000E+00;  4.0000000E+04;  6.7391773E-03;  0.0000000E+00; -6.1116269E-04;  9.5698938E+04;
  1.8000001E-01;  9.9999998E-03; -4.4000000E-01;2361;  0.0000000E+00;  0.0000000E+00;  0.0000000E+00;  1.0000000E+03;  1.0000000E-01;  0.0000000E+00;0;  0.0000000E+00;  0.0000000E+00;  0.0000000E+00;0;  4.4459062E-05;  4.0000000E+04;  0.0000000E+00;  0.0000000E+00;  4.0000000E+04;  0.0000000E+00;  4.0000000E+04;  9.7767188E-06;  0.0000000E+00;  3.4682344E-05;  4.0592458E+03;
  1.8000001E-01;  9.9999998E-03; -4.3000001E-01;2362;  0.0000000E+00;  0.0000000E+00;  0.0000000E+00;  1.0000949E+03;  1.0000000E-01;  7.8615059E+01;0;  0.0000000E+00;  0.0000000E+00;  0.0000000E+00;0;  1.3292988E-04;  4.0000000E+04;  0.0000000E+00;  0.0000000E+00;  4.0000000E+04;  0.0000000E+00;  4.0000000E+04;  4.1794021E-05;  0.0000000E+00;  9.1135858E-05;  8.3323701E+03;
  1.8000001E-01;  9.9999998E-03; -4.1999999E-01;2363;  0.0000000E+00;  0.0000000E+00;  0.0000000E+00;  1.0002802E+03;  1.0000000E-01;  2.3219096E+02;0;  0.0000000E+00;  0.0000000E+00;  0.0000000E+00;0;  2.9093429E-04;  4.0000000E+04;  0.0000000E+00;  0.0000000E+00;  4.0000000E+04;  0.0000000E+00;  4.0000000E+04;  1.1662344E-04;  0.0000000E+00;  1.7431083E-04;  1.2736240E+04;
  1.8000001E-01;  9.9999998E-03; -4.1000000E-01;2364;  0.0000000E+00;  0.0000000E+00;  0.0000000E+00;  1.0005382E+03;  1.0000000E-01;  4.4591330E+02;0;  0.0000000E+00;  0.0000000E+00;  0.0000000E+00;0;  5.2862638E-04;  4.0000000E+04;  0.0000000E+00;  0.0000000E+00;  4.0000000E+04;  0.0000000E+00;  4.0000000E+04;  2.5735516E-04;  0.0000000E+00;  2.7127122E-04;  1.5510495E+04;
  1.8000001E-01;  9.9999998E-03; -4.0000001E-01;2365;  0.0000000E+00;  0.0000000E+00;  0.0000000E+00;  1.0009468E+03;  1.0000000E-01;  7.8437286E+02;0;  0.0000000E+00;  0.0000000E+00;  0.0000000E+00;0;  8.5417047E-04;  4.0000000E+04;  0.0000000E+00;  0.0000000E+00;  4.0000000E+04;  0.0000000E+00;  4.0000000E+04;  4.8832485E-04;  0.0000000E+00;  3.6584563E-04;  1.5169171E+04;
  1.8000001E-01;  9.9999998E-03; -3.8999999E-01;2366;  0.0000000E+00;  0.0000000E+00;  0.0000000E+00;  1.0015591E+03;  1.0000000E-01;  1.2917166E+03;0;  0.0000000E+00;  0.0000000E+00;  0.0000000E+00;0;  1.2755126E-03;  4.0000000E+04;  0.0000000E+00;  0.0000000E+00;  4.0000000E+04;  0.0000000E+00;  4.0000000E+04;  8.3186803E-04;  0.0000000E+00;  4.4364462E-04;  1.0894730E+04;
  1.8000001E-01;  9.9999998E-03; -3.8000000E-01;2367;  0.0000000E+00;  0.0000000E+00;  0.0000000E+00;  1.0023973E+03;  1.0000000E-01;  1.9861167E+03;0;  0.0000000E+00;  0.0000000E+00;  0.0000000E+00;0;  1.7965027E-03;  4.0000000E+04;  0.0000000E+00;  0.0000000E+00;  4.0000000E+04;  0.0000000E+00;  4.0000000E+04;  1.3034991E-03;  0.0000000E+00;  4.9300364E-04;  4.8598608E+03;
  1.8000001E-01;  9.9999998E-03; -3.7000000E-01;2368;  0.0000000E+00;  0.0000000E+00;  0.0000000E+00;  1.0034960E+03;  1.0000000E-01;  2.8963132E+03;0;  0.0000000E+00;  0.0000000E+00;  0.0000000E+00;0;  2.4110444E-03;  4.0000000E+04;  0.0000000E+00;  0.0000000E+00;  4.0000000E+04;  0.0000000E+00;  4.0000000E+04;  1.9069284E-03;  0.0000000E+00;  5.0411612E-04;  1.4636431E+04;
  1.8000001E-01;  9.9999998E-03; -3.6000001E-01;2369;  0.0000000E+00;  0.0000000E+00;  0.0000000E+00;  1.0048526E+03;  1.0000000E-01;  4.0203308E+03;0;  0.0000000E+00;  0.0000000E+00;  0.0000000E+00;0;  3.0995761E-03;  4.0000000E+04;  0.0000000E+00;  0.0000000E+00;  4.0000000E+04;  0.0000000E+00;  4.0000000E+04;  2.6312384E-03;  0.0000000E+00;  4.6833776E-04;  3.2754975E+04;
  1.8000001E-01;  9.9999998E-03; -3.4999999E-01;2370;  0.0000000E+00;  0.0000000E+00;  0.0000000E+00;  1.0064355E+03;  1.0000000E-01;  5.3317012E+03;0;  0.0000000E+00;  0.0000000E+00;  0.0000000E+00;0;  3.8274124E-03;  4.0000000E+04;  0.0000000E+00;  0.0000000E+00;  4.0000000E+04;  0.0000000E+00;  4.0000000E+04;  3.4500889E-03;  0.0000000E+00;  3.7732354E-04;  5.4430031E+04;
  1.8000001E-01;  9.9999998E-03; -3.4000000E-01;2371;  0.0000000E+00;  0.0000000E+00;  0.0000000E+00;  1.0081727E+03;  1.0000000E-01;  6.7708701E+03;0;  0.0000000E+00;  0.0000000E+00;  0.0000000E+00;0;  4.5453515E-03;  4.0000000E+04;  0.0000000E+00;  0.0000000E+00;  4.0000000E+04;  0.0000000E+00;  4.0000000E+04;  4.3231007E-03;  0.0000000E+00;  2.2225082E-04;  7.7357414E+04;
  1.8000001E-01;  9.9999998E-03; -3.3000001E-01;2372;  0.0000000E+00;  0.0000000E+00;  0.0000000E+00;  1.0099498E+03;  1.0000000E-01;  8.2432236E+03;0;  0.0000000E+00;  0.0000000E+00;  0.0000000E+00;0;  5.1955283E-03;  4.0000000E+04;  0.0000000E+00;  0.0000000E+00;  4.0000000E+04;  0.0000000E+00;  4.0000000E+04;  5.2006994E-03;  0.0000000E+00; -5.1712482E-06;  9.8451766E+04;
  1.8000001E-01;  9.9999998E-03; -3.1999999E-01;2373;  0.0000000E+00;  0.0000000E+00;  0.0000000E+00;  1.0116302E+03;  1.0000000E-01;  9.6353818E+03;0;  0.0000000E+00;  0.0000000E+00;  0.0000000E+00;0;  5.7249246E-03;  4.0000000E+04;  0.0000000E+00;  0.0000000E+00;  4.0000000E+04;  0.0000000E+00;  4.0000000E+04;  6.0333703E-03;  0.0000000E+00; -3.0844577E-04;  1.1398638E+05;
  1.8000001E-01;  9.9999998E-03; -3.1000000E-01;2374;  0.0000000E+00;  0.0000000E+00;  0.0000000E+00;  1.0130762E+03;  1.0000000E-01;  1.0833373E+04;0;  0.0000000E+00;  0.0000000E+00;  0.0000000E+00;0;  6.1074123E-03;  4.0000000E+04;  0.0000000E+00;  0.0000000E+00;  4.0000000E+04;  0.0000000E+00;  4.0000000E+04;  6.7858868E-03;  0.0000000E+00; -6.7847467E-04;  1.2042554E+05;
  1.9000000E-01;  9.9999998E-03; -4.4000000E-01;2391;  0.0000000E+00;  0.0000000E+00;  0.0000000E+00;  1.0000082E+03;  1.0000000E-01;  6.8146219E+00;0;  0.0000000E+00;  0.0000000E+00;  0.0000000E+00;0;  3.6092984E-05;  4.0000000E+04;  0.0000000E+00;  0.0000000E+00;  4.0000000E+04;  0.0000000E+00;  4.0000000E+04;  1.2909579E-05;  0.0000000E+00;  2.3183404E-05;  6.0118813E+03;
  1.9000000E-01;  9.9999998E-03; -4.3000001E-01;2392;  0.0000000E+00;  0.0000000E+00;  0.0000000E+00;  1.0001109E+03;  1.0000000E-01;  9.1849251E+01;0;  0.0000000E+00;  0.0000000E+00;  0.0000000E+00;0;  1.1904932E-04;  4.0000000E+04;  0.0000000E+00;  0.0000000E+00;  4.0000000E+04;  0.0000000E+00;  4.0000000E+04;  4.4980017E-05;  0.0000000E+00;  7.4069307E-05;  1.1994482E+04;
  1.9000000E-01;  9.9999998E-03; -4.1999999E-01;2393;  0.0000000E+00;  0.0000000E+00;  0.0000000E+00;  1.0003229E+03;  1.0000000E-01;  2.6754797E+02;0;  0.0000000E+00;  0.0000000E+00;  0.0000000E+00;0;  2.6998337E-04;  4.0000000E+04;  0.0000000E+00;  0.0000000E+00;  4.0000000E+04;  0.0000000E+00;  4.0000000E+04;  1.1579775E-04;  0.0000000E+00;  1.5418562E-04;  1.7845363E+04;
  1.9000000E-01;  9.9999998E-03; -4.1000000E-01;2394;  0.0000000E+00;  0.0000000E+00;  0.0000000E+00;  1.0005859E+03;  1.0000000E-01;  4.8541837E+02;0;  0.0000000E+00;  0.0000000E+00;  0.0000000E+00;0;  4.9701997E-04;  4.0000000E+04;  0.0000000E+00;  0.0000000E+00;  4.0000000E+04;  0.0000000E+00;  4.0000000E+04;  2.4614946E-04;  0.0000000E+00;  2.5087048E-04;  2.1217236E+04;
  1.9000000E-01;  9.9999998E-03; -4.0000001E-01;2395;  0.0000000E+00;  0.0000000E+00;  0.0000000E+00;  1.0010203E+03;  1.0000000E-01;  8.4530945E+02;0;  0.0000000E+00;  0.0000000E+00;  0.0000000E+00;0;  8.0633699E-04;  4.0000000E+04;  0.0000000E+00;  0.0000000E+00;  4.0000000E+04;  0.0000000E+00;  4.0000000E+04;  4.5897174E-04;  0.0000000E+00;  3.4736525E-04;  2.0311396E+04;
  1.9000000E-01;  9.9999998E-03; -3.8999999E-01;2396;  0.0000000E+00;  0.0000000E+00;  0.0000000E+00;  1.0016490E+03;  1.0000000E-01;  1.3661836E+03;0;  0.0000000E+00;  0.0000000E+00;  0.0000000E+00;0;  1.2051266E-03;  4.0000000E+04;  0.0000000E+00;  0.0000000E+00;  4.0000000E+04;  0.0000000E+00;  4.0000000E+04;  7.7696104E-04;  0.0000000E+00;  4.2816560E-04;  1.4164985E+04;
  1.9000000E-01;  9.9999998E-03; -3.8000000E-01;2397;  0.0000000E+00;  0.0000000E+00;  0.0000000E+00;  1.0025192E+03;  1.0000000E-01;  2.0870520E+03;0;  0.0000000E+00;  0.0000000E+00;  0.0000000E+00;0;  1.6990504E-03;  4.0000000E+04;  0.0000000E+00;  0.0000000E+00;  4.0000000E+04;  0.0000000E+00;  4.0000000E+04;  1.2187039E-03;  0.0000000E+00;  4.8034656E-04;  4.4222178E+03;
  1.9000000E-01;  9.9999998E-03; -3.7000000E-01;2398;  0.0000000E+00;  0.0000000E+00;  0.0000000E+00;  1.0036523E+03;  1.0000000E-01;  3.0258896E+03;0;  0.0000000E+00;  0.0000000E+00;  0.0000000E+00;0;  2.2884521E-03;  4.0000000E+04;  0.0000000E+00;  0.0000000E+00;  4.0000000E+04;  0.0000000E+00;  4.0000000E+04;  1.7949390E-03;  0.0000000E+00;  4.9351301E-04;  1.7252279E+04;
  1.9000000E-01;  9.9999998E-03; -3.6000001E-01;2399;  0.0000000E+00;  0.0000000E+00;  0.0000000E+00;  1.0050440E+03;  1.0000000E-01;  4.1788447E+03;0;  0.0000000E+00;  0.0000000E+00;  0.0000000E+00;0;  2.9653513E-03;  4.0000000E+04;  0.0000000E+00;  0.0000000E+00;  4.0000000E+04;  0.0000000E+00;  4.0000000E+04;  2.5059958E-03;  0.0000000E+00;  4.5935548E-04;  4.0131566E+04;
  1.9000000E-01;  9.9999998E-03; -3.4999999E-01;2400;  0.0000000E+00;  0.0000000E+00;  0.0000000E+00;  1.0066679E+03;  1.0000000E-01;  5.5241895E+03;0;  0.0000000E+00;  0.0000000E+00;  0.0000000E+00;0;  3.7091728E-03;  4.0000000E+04;  0.0000000E+00;  0.0000000E+00;  4.0000000E+04;  0.0000000E+00;  4.0000000E+04;  3.3389858E-03;  0.0000000E+00;  3.7018707E-04;  6.6892680E+04;
  1.9000000E-01;  9.9999998E-03; -3.4000000E-01;2401;  0.0000000E+00;  0.0000000E+00;  0.0000000E+00;  1.0084336E+03;  1.0000000E-01;  6.9870615E+03;0;  0.0000000E+00;  0.0000000E+00;  0.0000000E+00;0;  4.4843559E-03;  4.0000000E+04;  0.0000000E+00;  0.0000000E+00;  4.0000000E+04;  0.0000000E+00;  4.0000000E+04;  4.2663175E-03;  0.0000000E+00;  2.1803826E-04;  9.4808391E+04;
  1.9000000E-01;  9.9999998E-03; -3.3000001E-01;2402;  0.0000000E+00;  0.0000000E+00;  0.0000000E+00;  1.0102241E+03;  1.0000000E-01;  8.4704766E+03;0;  0.0000000E+00;  0.0000000E+00;  0.0000000E+00;0;  5.2441922E-03;  4.0000000E+04;  0.0000000E+00;  0.0000000E+00;  4.0000000E+04;  0.0000000E+00;  4.0000000E+04;  5.2478299E-03;  0.0000000E+00; -3.6377160E-06;  1.2012792E+05;
  1.9000000E-01;  9.9999998E-03; -3.1999999E-01;2403;  0.0000000E+00;  0.0000000E+00;  0.0000000E+00;  1.0119014E+03;  1.0000000E-01;  9.8600664E+03;0;  0.0000000E+00;  0.0000000E+00;  0.0000000E+00;0;  5.9430334E-03;  4.0000000E+04;  0.0000000E+00;  0.0000000E+00;  4.0000000E+04;  0.0000000E+00;  4.0000000E+04;  6.2372205E-03;  0.0000000E+00; -2.9418699E-04;  1.3829491E+05;
  1.9000000E-01;  9.9999998E-03; -3.1000000E-01;2404;  0.0000000E+00;  0.0000000E+00;  0.0000000E+00;  1.0133079E+03;  1.0000000E-01;  1.1025269E+04;0;  0.0000000E+00;  0.0000000E+00;  0.0000000E+00;0;  6.5583191E-03;  4.0000000E+04;  0.0000000E+00;  0.0000000E+00;  4.0000000E+04;  0.0000000E+00;  4.0000000E+04;  7.1934909E-03;  0.0000000E+00; -6.3517160E-04;  1.4496803E+05;
  2.0000000E-01;  9.9999998E-03; -4.4000000E-01;2420;  0.0000000E+00;  0.0000000E+00;  0.0000000E+00;  1.0000304E+03;  1.0000000E-01;  2.5184473E+01;0;  0.0000000E+00;  0.0000000E+00;  0.0000000E+00;0;  3.1256008E-05;  4.0000000E+04;  0.0000000E+00;  0.0000000E+00;  4.0000000E+04;  0.0000000E+00;  4.0000000E+04;  1.7859209E-05;  0.0000000E+00;  1.3396801E-05;  8.4018652E+03;
  2.0000000E-01;  9.9999998E-03; -4.3000001E-01;2421;  0.0000000E+00;  0.0000000E+00;  0.0000000E+00;  1.0001252E+03;  1.0000000E-01;  1.0370077E+02;0;  0.0000000E+00;  0.0000000E+00;  0.0000000E+00;0;  1.1359940E-04;  4.0000000E+04;  0.0000000E+00;  0.0000000E+00;  4.0000000E+04;  0.0000000E+00;  4.0000000E+04;  5.1045561E-05;  0.0000000E+00;  6.2553838E-05;  1.6293247E+04;
  2.0000000E-01;  9.9999998E-03; -4.1999999E-01;2422;  0.0000000E+00;  0.0000000E+00;  0.0000000E+00;  1.0003387E+03;  1.0000000E-01;  2.8058466E+02;0;  0.0000000E+00;  0.0000000E+00;  0.0000000E+00;0;  2.6433985E-04;  4.0000000E+04;  0.0000000E+00;  0.0000000E+00;  4.0000000E+04;  0.0000000E+00;  4.0000000E+04;  1.1855303E-04;  0.0000000E+00;  1.4578682E-04;  2.3592814E+04;
  2.0000000E-01;  9.9999998E-03; -4.1000000E-01;2423;  0.0000000E+00;  0.0000000E+00;  0.0000000E+00;  1.0006216E+03;  1.0000000E-01;  5.1504718E+02;0;  0.0000000E+00;  0.0000000E+00;  0.0000000E+00;0;  4.8880174E-04;  4.0000000E+04;  0.0000000E+00;  0.0000000E+00;  4.0000000E+04;  0.0000000E+00;  4.0000000E+04;  2.3894374E-04;  0.0000000E+00;  2.4985801E-04;  2.7403848E+04;
  2.0000000E-01;  9.9999998E-03; -4.0000001E-01;2424;  0.0000000E+00;  0.0000000E+00;  0.0000000E+00;  1.0010710E+03;  1.0000000E-01;  8.8738232E+02;0;  0.0000000E+00;  0.0000000E+00;  0.0000000E+00;0;  7.9088088E-04;  4.0000000E+04;  0.0000000E+00;  0.0000000E+00;  4.0000000E+04;  0.0000000E+00;  4.0000000E+04;  4.3432371E-04;  0.0000000E+00;  3.5655720E-04;  2.5751961E+04;
  2.0000000E-01;  9.9999998E-03; -3.8999999E-01;2425;  0.0000000E+00;  0.0000000E+00;  0.0000000E+00;  1.0017122E+03;  1.0000000E-01;  1.4185278E+03;0;  0.0000000E+00;  0.0000000E+00;  0.0000000E+00;0;  1.1776268E-03;  4.0000000E+04;  0.0000000E+00;  0.0000000E+00;  4.0000000E+04;  0.0000000E+00;  4.0000000E+04;  7.2871486E-04;  0.0000000E+00;  4.4891195E-04;  1.7692869E+04;
  2.0000000E-01;  9.9999998E-03; -3.8000000E-01;2426;  0.0000000E+00;  0.0000000E+00;  0.0000000E+00;  1.0025756E+03;  1.0000000E-01;  2.1338655E+03;0;  0.0000000E+00;  0.0000000E+00;  0.0000000E+00;0;  1.6587819E-03;  4.0000000E+04;  0.0000000E+00;  0.0000000E+00;  4.0000000E+04;  0.0000000E+00;  4.0000000E+04;  1.1455741E-03;  0.0000000E+00;  5.1320775E-04;  4.2182988E+03;
  2.0000000E-01;  9.9999998E-03; -3.7000000E-01;2427;  0.0000000E+00;  0.0000000E+00;  0.0000000E+00;  1.0037114E+03;  1.0000000E-01;  3.0748760E+03;0;  0.0000000E+00;  0.0000000E+00;  0.0000000E+00;0;  2.2447193E-03;  4.0000000E+04;  0.0000000E+00;  0.0000000E+00;  4.0000000E+04;  0.0000000E+00;  4.0000000E+04;  1.7051792E-03;  0.0000000E+00;  5.3953996E-04;  1.9460605E+04;
  2.0000000E-01;  9.9999998E-03; -3.6000001E-01;2428;  0.0000000E+00;  0.0000000E+00;  0.0000000E+00;  1.0051085E+03;  1.0000000E-01;  4.2322754E+03;0;  0.0000000E+00;  0.0000000E+00;  0.0000000E+00;0;  2.9419740E-03;  4.0000000E+04;  0.0000000E+00;  0.0000000E+00;  4.0000000E+04;  0.0000000E+00;  4.0000000E+04;  2.4211672E-03;  0.0000000E+00;  5.2080676E-04;  4.6496109E+04;
  2.0000000E-01;  9.9999998E-03; -3.4999999E-01;2429;  0.0000000E+00;  0.0000000E+00;  0.0000000E+00;  1.0067221E+03;  1.0000000E-01;  5.5691265E+03;0;  0.0000000E+00;  0.0000000E+00;  0.0000000E+00;0;  3.7457221E-03;  4.0000000E+04;  0.0000000E+00;  0.0000000E+00;  4.0000000E+04;  0.0000000E+00;  4.0000000E+04;  3.2952526E-03;  0.0000000E+00;  4.5046961E-04;  7.7607234E+04;
  2.0000000E-01;  9.9999998E-03; -3.4000000E-01;2430;  0.0000000E+00;  0.0000000E+00;  0.0000000E+00;  1.0084688E+03;  1.0000000E-01;  7.0162954E+03;0;  0.0000000E+00;  0.0000000E+00;  0.0000000E+00;0;  4.6346113E-03;  4.0000000E+04;  0.0000000E+00;  0.0000000E+00;  4.0000000E+04;  0.0000000E+00;  4.0000000E+04;  4.3130787E-03;  0.0000000E+00;  3.2153263E-04;  1.0976445E+05;
  2.0000000E-01;  9.9999998E-03; -3.3000001E-01;2431;  0.0000000E+00;  0.0000000E+00;  0.0000000E+00;  1.0102337E+03;  1.0000000E-01;  8.4784766E+03;0;  0.0000000E+00;  0.0000000E+00;  0.0000000E+00;0;  5.5722501E-03;  4.0000000E+04;  0.0000000E+00;  0.0000000E+00;  4.0000000E+04;  0.0000000E+00;  4.0000000E+04;  5.4437262E-03;  0.0000000E+00;  1.2852388E-04;  1.3872488E+05;
  2.0000000E-01;  9.9999998E-03; -3.1999999E-01;2432;  0.0000000E+00;  0.0000000E+00;  0.0000000E+00;  1.0118651E+03;  1.0000000E-01;  9.8300430E+03;0;  0.0000000E+00;  0.0000000E+00;  0.0000000E+00;0;  6.5174168E-03;  4.0000000E+04;  0.0000000E+00;  0.0000000E+00;  4.0000000E+04;  0.0000000E+00;  4.0000000E+04;  6.6436180E-03;  0.0000000E+00; -1.2620134E-04;  1.5928928E+05;
  2.0000000E-01;  9.9999998E-03; -3.1000000E-01;2433;  0.0000000E+00;  0.0000000E+00;  0.0000000E+00;  1.0132115E+03;  1.0000000E-01;  1.0945468E+04;0;  0.0000000E+00;  0.0000000E+00;  0.0000000E+00;0;  7.4432637E-03;  4.0000000E+04;  0.0000000E+00;  0.0000000E+00;  4.0000000E+04;  0.0000000E+00;  4.0000000E+04;  7.8640012E-03;  0.0000000E+00; -4.2073740E-04;  1.6642012E+05;
 -1.9000000E-01;  9.9999998E-03; -2.7000001E-01;107;  0.0000000E+00;  0.0000000E+00;  0.0000000E+00;  1.0000000E+03;  1.0000000E-01;  0.0000000E+00;0;  0.0000000E+00;  0.0000000E+00;  0.0000000E+00;0;  0.0000000E+00;  4.0000000E+04;  0.0000000E+00;  0.0000000E+00;  4.0000000E+04;  0.0000000E+00;  4.0000000E+04;  0.0000000E+00;  0.0000000E+00;  0.0000000E+00;  0.0000000E+00;
 -1.9000000E-01;  9.9999998E-03; -2.5999999E-01;108;  0.0000000E+00;  0.0000000E+00;  0.0000000E+00;  1.0000000E+03;  1.0000000E-01;  0.0000000E+00;0;  0.0000000E+00;  0.0000000E+00;  0.0000000E+00;0;  0.0000000E+00;  4.0000000E+04;  0.0000000E+00;  0.0000000E+00;  4.0000000E+04;  0.0000000E+00;  4.0000000E+04;  0.0000000E+00;  0.0000000E+00;  0.0000000E+00;  0.0000000E+00;
 -1.9000000E-01;  9.9999998E-03; -2.5000000E-01;109;  0.0000000E+00;  0.0000000E+00;  0.0000000E+00;  1.0000000E+03;  1.0000000E-01;  0.0000000E+00;0;  0.0000000E+00;  0.0000000E+00;  0.0000000E+00;0;  0.0000000E+00;  4.0000000E+04;  0.0000000E+00;  0.0000000E+00;  4.0000000E+04;  0.0000000E+00;  4.0000000E+04;  0.0000000E+00;  0.0000000E+00;  0.0000000E+00;  0.0000000E+00;
 -1.9000000E-01;  9.9999998E-03; -2.3999999E-01;110;  0.0000000E+00;  0.0000000E+00;  0.0000000E+00;  1.0000000E+03;  1.0000000E-01;  0.0000000E+00;0;  0.0000000E+00;  0.0000000E+00;  0.0000000E+00;0;  0.0000000E+00;  4.0000000E+04;  0.0000000E+00;  0.0000000E+00;  4.0000000E+04;  0.0000000E+00;  4.0000000E+04;  0.0000000E+00;  0.0000000E+00;  0.0000000E+00;  0.0000000E+00;
 -1.9000000E-01;  9.9999998E-03; -2.3000000E-01;111;  0.0000000E+00;  0.0000000E+00;  0.0000000E+00;  1.0000000E+03;  1.0000000E-01;  0.0000000E+00;0;  0.0000000E+00;  0.0000000E+00;  0.0000000E+00;0;  0.0000000E+00;  4.0000000E+04;  0.0000000E+00;  0.0000000E+00;  4.0000000E+04;  0.0000000E+00;  4.0000000E+04;  0.0000000E+00;  0.0000000E+00;  0.0000000E+00;  0.0000000E+00;
 -1.9000000E-01;  9.9999998E-03; -2.2000000E-01;112;  0.0000000E+00;  0.0000000E+00;  0.0000000E+00;  1.0000000E+03;  1.0000000E-01;  0.0000000E+00;0;  0.0000000E+00;  0.0000000E+00;  0.0000000E+00;0;  0.0000000E+00;  4.0000000E+04;  0.0000000E+00;  0.0000000E+00;  4.0000000E+04;  0.0000000E+00;  4.0000000E+04;  0.0000000E+00;  0.0000000E+00;  0.0000000E+00;  0.0000000E+00;
 -1.9000000E-01;  9.9999998E-03; -2.0999999E-01;113;  0.0000000E+00;  0.0000000E+00;  0.0000000E+00;  1.0000000E+03;  1.0000000E-01;  0.0000000E+00;0;  0.0000000E+00;  0.0000000E+00;  0.0000000E+00;0;  0.0000000E+00;  4.0000000E+04;  0.0000000E+00;  0.0000000E+00;  4.0000000E+04;  0.0000000E+00;  4.0000000E+04;  0.0000000E+00;  0.0000000E+00;  0.0000000E+00;  0.0000000E+00;
 -1.9000000E-01;  9.9999998E-03; -2.0000000E-01;114;  0.0000000E+00;  0.0000000E+00;  0.0000000E+00;  1.0000000E+03;  1.0000000E-01;  0.0000000E+00;0;  0.0000000E+00;  0.0000000E+00;  0.0000000E+00;0;  0.0000000E+00;  4.0000000E+04;  0.0000000E+00;  0.0000000E+00;  4.0000000E+04;  0.0000000E+00;  4.0000000E+04;  0.0000000E+00;  0.0000000E+00;  0.0000000E+00;  0.0000000E+00;
 -1.9000000E-01;  9.9999998E-03; -1.9000000E-01;115;  0.0000000E+00;  0.0000000E+00;  0.0000000E+00;  1.0000000E+03;  1.0000000E-01;  0.0000000E+00;0;  0.0000000E+00;  0.0000000E+00;  0.0000000E+00;0;  0.0000000E+00;  4.0000000E+04;  0.0000000E+00;  0.0000000E+00;  4.0000000E+04;  0.0000000E+00;  4.0000000E+04;  0.0000000E+00;  0.0000000E+00;  0.0000000E+00;  0.0000000E+00;
 -1.9000000E-01;  9.9999998E-03; -1.8000001E-01;116;  0.0000000E+00;  0.0000000E+00;  0.0000000E+00;  1.0000000E+03;  1.0000000E-01;  0.0000000E+00;0;  0.0000000E+00;  0.0000000E+00;  0.0000000E+00;0;  0.0000000E+00;  4.0000000E+04;  0.0000000E+00;  0.0000000E+00;  4.0000000E+04;  0.0000000E+00;  4.0000000E+04;  0.0000000E+00;  0.0000000E+00;  0.0000000E+00;  0.0000000E+00;
 -1.9000000E-01;  9.9999998E-03; -1.7000000E-01;117;  0.0000000E+00;  0.0000000E+00;  0.0000000E+00;  1.0000000E+03;  1.0000000E-01;  0.0000000E+00;0;  0.0000000E+00;  0.0000000E+00;  0.0000000E+00;0;  0.0000000E+00;  4.0000000E+04;  0.0000000E+00;  0.0000000E+00;  4.0000000E+04;  0.0000000E+00;  4.0000000E+04;  0.0000000E+00;  0.0000000E+00;  0.0000000E+00;  0.0000000E+00;
 -1.9000000E-01;  9.9999998E-03; -1.6000000E-01;118;  0.0000000E+00;  0.0000000E+00;  0.0000000E+00;  1.0000000E+03;  1.0000000E-01;  0.0000000E+00;0;  0.0000000E+00;  0.0000000E+00;  0.0000000E+00;0;  0.0000000E+00;  4.0000000E+04;  0.0000000E+00;  0.0000000E+00;  4.0000000E+04;  0.0000000E+00;  4.0000000E+04;  0.0000000E+00;  0.0000000E+00;  0.0000000E+00;  0.0000000E+00;
 -1.9000000E-01;  9.9999998E-03; -1.5000001E-01;119;  0.0000000E+00;  0.0000000E+00;  0.0000000E+00;  1.0000000E+03;  1.0000000E-01;  0.0000000E+00;0;  0.0000000E+00;  0.0000000E+00;  0.0000000E+00;0;  0.0000000E+00;  4.0000000E+04;  0.0000000E+00;  0.0000000E+00;  4.0000000E+04;  0.0000000E+00;  4.0000000E+04;  0.0000000E+00;  0.0000000E+00;  0.0000000E+00;  0.0000000E+00;
 -1.9000000E-01;  9.9999998E-03; -1.4000000E-01;120;  0.0000000E+00;  0.0000000E+00;  0.0000000E+00;  1.0000000E+03;  1.0000000E-01;  0.0000000E+00;0;  0.0000000E+00;  0.0000000E+00;  0.0000000E+00;0;  0.0000000E+00;  4.0000000E+04;  0.0000000E+00;  0.0000000E+00;  4.0000000E+04;  0.0000000E+00;  4.0000000E+04;  0.0000000E+00;  0.0000000E+00;  0.0000000E+00;  0.0000000E+00;
 -1.9000000E-01;  9.9999998E-03; -1.3000000E-01;121;  0.0000000E+00;  0.0000000E+00;  0.0000000E+00;  1.0000000E+03;  1.0000000E-01;  0.0000000E+00;0;  0.0000000E+00;  0.0000000E+00;  0.0000000E+00;0;  0.0000000E+00;  4.0000000E+04;  0.0000000E+00;  0.0000000E+00;  4.0000000E+04;  0.0000000E+00;  4.0000000E+04;  0.0000000E+00;  0.0000000E+00;  0.0000000E+00;  0.0000000E+00;
 -1.9000000E-01;  9.9999998E-03; -1.2000000E-01;122;  0.0000000E+00;  0.0000000E+00;  0.0000000E+00;  1.0000000E+03;  1.0000000E-01;  0.0000000E+00;0;  0.0000000E+00;  0.0000000E+00;  0.0000000E+00;0;  0.0000000E+00;  4.0000000E+04;  0.0000000E+00;  0.0000000E+00;  4.0000000E+04;  0.0000000E+00;  4.0000000E+04;  0.0000000E+00;  0.0000000E+00;  0.0000000E+00;  0.0000000E+00;
 -1.9000000E-01;  9.9999998E-03; -1.1000000E-01;123;  0.0000000E+00;  0.0000000E+00;  0.0000000E+00;  1.0000000E+03;  1.0000000E-01;  0.0000000E+00;0;  0.0000000E+00;  0.0000000E+00;  0.0000000E+00;0;  0.0000000E+00;  4.0000000E+04;  0.0000000E+00;  0.0000000E+00;  4.0000000E+04;  0.0000000E+00;  4.0000000E+04;  0.0000000E+00;  0.0000000E+00;  0.0000000E+00;  0.0000000E+00;
 -1.8000001E-01;  9.9999998E-03; -2.7000001E-01;198;  0.0000000E+00;  0.0000000E+00;  0.0000000E+00;  1.0000000E+03;  1.0000000E-01;  0.0000000E+00;0;  0.0000000E+00;  0.0000000E+00;  0.0000000E+00;0;  0.0000000E+00;  4.0000000E+04;  0.0000000E+00;  0.0000000E+00;  4.0000000E+04;  0.0000000E+00;  4.0000000E+04;  0.0000000E+00;  0.0000000E+00;  0.0000000E+00;  0.0000000E+00;
 -1.8000001E-01;  9.9999998E-03; -2.5999999E-01;199;  0.0000000E+00;  0.0000000E+00;  0.0000000E+00;  1.0000000E+03;  1.0000000E-01;  0.0000000E+00;0;  0.0000000E+00;  0.0000000E+00;  0.0000000E+00;0;  0.0000000E+00;  4.0000000E+04;  0.0000000E+00;  0.0000000E+00;  4.0000000E+04;  0.0000000E+00;  4.0000000E+04;  0.0000000E+00;  0.0000000E+00;  0.0000000E+00;  0.0000000E+00;
 -1.8000001E-01;  9.9999998E-03; -2.5000000E-01;200;  0.0000000E+00;  0.0000000E+00;  0.0000000E+00;  1.0000000E+03;  1.0000000E-01;  0.0000000E+00;0;  0.0000000E+00;  0.0000000E+00;  0.0000000E+00;0;  0.0000000E+00;  4.0000000E+04;  0.0000000E+00;  0.0000000E+00;  4.0000000E+04;  0.0000000E+00;  4.0000000E+04;  0.0000000E+00;  0.0000000E+00;  0.0000000E+00;  0.0000000E+00;
 -1.8000001E-01;  9.9999998E-03; -2.3999999E-01;201;  0.0000000E+00;  0.0000000E+00;  0.0000000E+00;  1.0000000E+03;  1.0000000E-01;  0.0000000E+00;0;  0.0000000E+00;  0.0000000E+00;  0.0000000E+00;0;  0.0000000E+00;  4.0000000E+04;  0.0000000E+00;  0.0000000E+00;  4.0000000E+04;  0.0000000E+00;  4.0000000E+04;  0.0000000E+00;  0.0000000E+00;  0.0000000E+00;  0.0000000E+00;
 -1.8000001E-01;  9.9999998E-03; -2.3000000E-01;202;  0.0000000E+00;  0.0000000E+00;  0.0000000E+00;  1.0000000E+03;  1.0000000E-01;  0.0000000E+00;0;  0.0000000E+00;  0.0000000E+00;  0.0000000E+00;0;  0.0000000E+00;  4.0000000E+04;  0.0000000E+00;  0.0000000E+00;  4.0000000E+04;  0.0000000E+00;  4.0000000E+04;  0.0000000E+00;  0.0000000E+00;  0.0000000E+00;  0.0000000E+00;
 -1.8000001E-01;  9.9999998E-03; -2.2000000E-01;203;  0.0000000E+00;  0.0000000E+00;  0.0000000E+00;  1.0000000E+03;  1.0000000E-01;  0.0000000E+00;0;  0.0000000E+00;  0.0000000E+00;  0.0000000E+00;0;  0.0000000E+00;  4.0000000E+04;  0.0000000E+00;  0.0000000E+00;  4.0000000E+04;  0.0000000E+00;  4.0000000E+04;  0.0000000E+00;  0.0000000E+00;  0.0000000E+00;  0.0000000E+00;
 -1.8000001E-01;  9.9999998E-03; -2.0999999E-01;204;  0.0000000E+00;  0.0000000E+00;  0.0000000E+00;  1.0000000E+03;  1.0000000E-01;  0.0000000E+00;0;  0.0000000E+00;  0.0000000E+00;  0.0000000E+00;0;  0.0000000E+00;  4.0000000E+04;  0.0000000E+00;  0.0000000E+00;  4.0000000E+04;  0.0000000E+00;  4.0000000E+04;  0.0000000E+00;  0.0000000E+00;  0.0000000E+00;  0.0000000E+00;
 -1.8000001E-01;  9.9999998E-03; -2.0000000E-01;205;  0.0000000E+00;  0.0000000E+00;  0.0000000E+00;  1.0000000E+03;  1.0000000E-01;  0.0000000E+00;0;  0.0000000E+00;  0.0000000E+00;  0.0000000E+00;0;  0.0000000E+00;  4.0000000E+04;  0.0000000E+00;  0.0000000E+00;  4.0000000E+04;  0.0000000E+00;  4.0000000E+04;  0.0000000E+00;  0.0000000E+00;  0.0000000E+00;  0.0000000E+00;
 -1.8000001E-01;  9.9999998E-03; -1.9000000E-01;206;  0.0000000E+00;  0.0000000E+00;  0.0000000E+00;  1.0000000E+03;  1.0000000E-01;  0.0000000E+00;0;  0.0000000E+00;  0.0000000E+00;  0.0000000E+00;0;  0.0000000E+00;  4.0000000E+04;  0.0000000E+00;  0.0000000E+00;  4.0000000E+04;  0.0000000E+00;  4.0000000E+04;  0.0000000E+00;  0.0000000E+00;  0.0000000E+00;  0.0000000E+00;
 -1.8000001E-01;  9.9999998E-03; -1.8000001E-01;207;  0.0000000E+00;  0.0000000E+00;  0.0000000E+00;  1.0000000E+03;  1.0000000E-01;  0.0000000E+00;0;  0.0000000E+00;  0.0000000E+00;  0.0000000E+00;0;  0.0000000E+00;  4.0000000E+04;  0.0000000E+00;  0.0000000E+00;  4.0000000E+04;  0.0000000E+00;  4.0000000E+04;  0.0000000E+00;  0.0000000E+00;  0.0000000E+00;  0.0000000E+00;
 -1.8000001E-01;  9.9999998E-03; -1.7000000E-01;208;  0.0000000E+00;  0.0000000E+00;  0.0000000E+00;  1.0000000E+03;  1.0000000E-01;  0.0000000E+00;0;  0.0000000E+00;  0.0000000E+00;  0.0000000E+00;0;  0.0000000E+00;  4.0000000E+04;  0.0000000E+00;  0.0000000E+00;  4.0000000E+04;  0.0000000E+00;  4.0000000E+04;  0.0000000E+00;  0.0000000E+00;  0.0000000E+00;  0.0000000E+00;
 -1.8000001E-01;  9.9999998E-03; -1.6000000E-01;209;  0.0000000E+00;  0.0000000E+00;  0.0000000E+00;  1.0000000E+03;  1.0000000E-01;  0.0000000E+00;0;  0.0000000E+00;  0.0000000E+00;  0.0000000E+00;0;  0.0000000E+00;  4.0000000E+04;  0.0000000E+00;  0.0000000E+00;  4.0000000E+04;  0.0000000E+00;  4.0000000E+04;  0.0000000E+00;  0.0000000E+00;  0.0000000E+00;  0.0000000E+00;
 -1.8000001E-01;  9.9999998E-03; -1.5000001E-01;210;  0.0000000E+00;  0.0000000E+00;  0.0000000E+00;  1.0000000E+03;  1.0000000E-01;  0.0000000E+00;0;  0.0000000E+00;  0.0000000E+00;  0.0000000E+00;0;  0.0000000E+00;  4.0000000E+04;  0.0000000E+00;  0.0000000E+00;  4.0000000E+04;  0.0000000E+00;  4.0000000E+04;  0.0000000E+00;  0.0000000E+00;  0.0000000E+00;  0.0000000E+00;
 -1.8000001E-01;  9.9999998E-03; -1.4000000E-01;211;  0.0000000E+00;  0.0000000E+00;  0.0000000E+00;  1.0000000E+03;  1.0000000E-01;  0.0000000E+00;0;  0.0000000E+00;  0.0000000E+00;  0.0000000E+00;0;  0.0000000E+00;  4.0000000E+04;  0.0000000E+00;  0.0000000E+00;  4.0000000E+04;  0.0000000E+00;  4.0000000E+04;  0.0000000E+00;  0.0000000E+00;  0.0000000E+00;  0.0000000E+00;
 -1.8000001E-01;  9.9999998E-03; -1.3000000E-01;212;  0.0000000E+00;  0.0000000E+00;  0.0000000E+00;  1.0000000E+03;  1.0000000E-01;  0.0000000E+00;0;  0.0000000E+00;  0.0000000E+00;  0.0000000E+00;0;  0.0000000E+00;  4.0000000E+04;  0.0000000E+00;  0.0000000E+00;  4.0000000E+04;  0.0000000E+00;  4.0000000E+04;  0.0000000E+00;  0.0000000E+00;  0.0000000E+00;  0.0000000E+00;
 -1.8000001E-01;  9.9999998E-03; -1.2000000E-01;213;  0.0000000E+00;  0.0000000E+00;  0.0000000E+00;  1.0000000E+03;  1.0000000E-01;  0.0000000E+00;0;  0.0000000E+00;  0.0000000E+00;  0.0000000E+00;0;  0.0000000E+00;  4.0000000E+04;  0.0000000E+00;  0.0000000E+00;  4.0000000E+04;  0.0000000E+00;  4.0000000E+04;  0.0000000E+00;  0.0000000E+00;  0.0000000E+00;  0.0000000E+00;
 -1.8000001E-01;  9.9999998E-03; -1.1000000E-01;214;  0.0000000E+00;  0.0000000E+00;  0.0000000E+00;  1.0000000E+03;  1.0000000E-01;  0.0000000E+00;0;  0.0000000E+00;  0.0000000E+00;  0.0000000E+00;0;  0.0000000E+00;  4.0000000E+04;  0.0000000E+00;  0.0000000E+00;  4.0000000E+04;  0.0000000E+00;  4.0000000E+04;  0.0000000E+00;  0.0000000E+00;  0.0000000E+00;  0.0000000E+00;
 -1.7000000E-01;  9.9999998E-03; -2.7000001E-01;289;  0.0000000E+00;  0.0000000E+00;  0.0000000E+00;  1.0000000E+03;  1.0000000E-01;  0.0000000E+00;0;  0.0000000E+00;  0.0000000E+00;  0.0000000E+00;0;  0.0000000E+00;  4.0000000E+04;  0.0000000E+00;  0.0000000E+00;  4.0000000E+04;  0.0000000E+00;  4.0000000E+04;  0.0000000E+00;  0.0000000E+00;  0.0000000E+00;  9.0627929E-11;
 -1.7000000E-01;  9.9999998E-03; -2.5999999E-01;290;  0.0000000E+00;  0.0000000E+00;  0.0000000E+00;  1.0000000E+03;  1.0000000E-01;  0.0000000E+00;0;  0.0000000E+00;  0.0000000E+00;  0.0000000E+00;0;  0.0000000E+00;  4.0000000E+04;  0.0000000E+00;  0.0000000E+00;  4.0000000E+04;  0.0000000E+00;  4.0000000E+04;  0.0000000E+00;  0.0000000E+00;  0.0000000E+00;  2.4658295E-10;
 -1.7000000E-01;  9.9999998E-03; -2.5000000E-01;291;  0.0000000E+00;  0.0000000E+00;  0.0000000E+00;  1.0000000E+03;  1.0000000E-01;  0.0000000E+00;0;  0.0000000E+00;  0.0000000E+00;  0.0000000E+00;0;  0.0000000E+00;  4.0000000E+04;  0.0000000E+00;  0.0000000E+00;  4.0000000E+04;  0.0000000E+00;  4.0000000E+04;  0.0000000E+00;  0.0000000E+00;  0.0000000E+00;  4.6683907E-10;
 -1.7000000E-01;  9.9999998E-03; -2.3999999E-01;292;  0.0000000E+00;  0.0000000E+00;  0.0000000E+00;  1.0000000E+03;  1.0000000E-01;  0.0000000E+00;0;  0.0000000E+00;  0.0000000E+00;  0.0000000E+00;0;  0.0000000E+00;  4.0000000E+04;  0.0000000E+00;  0.0000000E+00;  4.0000000E+04;  0.0000000E+00;  4.0000000E+04;  0.0000000E+00;  0.0000000E+00;  0.0000000E+00;  7.1558121E-10;
 -1.7000000E-01;  9.9999998E-03; -2.3000000E-01;293;  0.0000000E+00;  0.0000000E+00;  0.0000000E+00;  1.0000000E+03;  1.0000000E-01;  0.0000000E+00;0;  0.0000000E+00;  0.0000000E+00;  0.0000000E+00;0;  0.0000000E+00;  4.0000000E+04;  0.0000000E+00;  0.0000000E+00;  4.0000000E+04;  0.0000000E+00;  4.0000000E+04;  0.0000000E+00;  0.0000000E+00;  0.0000000E+00;  9.6112662E-10;
 -1.7000000E-01;  9.9999998E-03; -2.2000000E-01;294;  0.0000000E+00;  0.0000000E+00;  0.0000000E+00;  1.0000000E+03;  1.0000000E-01;  0.0000000E+00;0;  0.0000000E+00;  0.0000000E+00;  0.0000000E+00;0;  0.0000000E+00;  4.0000000E+04;  0.0000000E+00;  0.0000000E+00;  4.0000000E+04;  0.0000000E+00;  4.0000000E+04;  0.0000000E+00;  0.0000000E+00;  0.0000000E+00;  1.1699183E-09;
 -1.7000000E-01;  9.9999998E-03; -2.0999999E-01;295;  0.0000000E+00;  0.0000000E+00;  0.0000000E+00;  1.0000000E+03;  1.0000000E-01;  0.0000000E+00;0;  0.0000000E+00;  0.0000000E+00;  0.0000000E+00;0;  0.0000000E+00;  4.0000000E+04;  0.0000000E+00;  0.0000000E+00;  4.0000000E+04;  0.0000000E+00;  4.0000000E+04;  0.0000000E+00;  0.0000000E+00;  0.0000000E+00;  1.3086691E-09;
 -1.7000000E-01;  9.9999998E-03; -2.0000000E-01;296;  0.0000000E+00;  0.0000000E+00;  0.0000000E+00;  1.0000000E+03;  1.0000000E-01;  0.0000000E+00;0;  0.0000000E+00;  0.0000000E+00;  0.0000000E+00;0;  0.0000000E+00;  4.0000000E+04;  0.0000000E+00;  0.0000000E+00;  4.0000000E+04;  0.0000000E+00;  4.0000000E+04;  0.0000000E+00;  0.0000000E+00;  0.0000000E+00;  1.3572687E-09;
 -1.7000000E-01;  9.9999998E-03; -1.9000000E-01;297;  0.0000000E+00;  0.0000000E+00;  0.0000000E+00;  1.0000000E+03;  1.0000000E-01;  0.0000000E+00;0;  0.0000000E+00;  0.0000000E+00;  0.0000000E+00;0;  0.0000000E+00;  4.0000000E+04;  0.0000000E+00;  0.0000000E+00;  4.0000000E+04;  0.0000000E+00;  4.0000000E+04;  0.0000000E+00;  0.0000000E+00;  0.0000000E+00;  1.3804570E-09;
 -1.7000000E-01;  9.9999998E-03; -1.8000001E-01;298;  0.0000000E+00;  0.0000000E+00;  0.0000000E+00;  1.0000000E+03;  1.0000000E-01;  0.0000000E+00;0;  0.0000000E+00;  0.0000000E+00;  0.0000000E+00;0;  0.0000000E+00;  4.0000000E+04;  0.0000000E+00;  0.0000000E+00;  4.0000000E+04;  0.0000000E+00;  4.0000000E+04;  0.0000000E+00;  0.0000000E+00;  0.0000000E+00;  1.4541069E-09;
 -1.7000000E-01;  9.9999998E-03; -1.7000000E-01;299;  0.0000000E+00;  0.0000000E+00;  0.0000000E+00;  1.0000000E+03;  1.0000000E-01;  0.0000000E+00;0;  0.0000000E+00;  0.0000000E+00;  0.0000000E+00;0;  0.0000000E+00;  4.0000000E+04;  0.0000000E+00;  0.0000000E+00;  4.0000000E+04;  0.0000000E+00;  4.0000000E+04;  0.0000000E+00;  0.0000000E+00;  0.0000000E+00;  1.5733465E-09;
 -1.7000000E-01;  9.9999998E-03; -1.6000000E-01;300;  0.0000000E+00;  0.0000000E+00;  0.0000000E+00;  1.0000000E+03;  1.0000000E-01;  0.0000000E+00;0;  0.0000000E+00;  0.0000000E+00;  0.0000000E+00;0;  0.0000000E+00;  4.0000000E+04;  0.0000000E+00;  0.0000000E+00;  4.0000000E+04;  0.0000000E+00;  4.0000000E+04;  0.0000000E+00;  0.0000000E+00;  0.0000000E+00;  1.7068523E-09;
 -1.7000000E-01;  9.9999998E-03; -1.5000001E-01;301;  0.0000000E+00;  0.0000000E+00;  0.0000000E+00;  1.0000000E+03;  1.0000000E-01;  0.0000000E+00;0;  0.0000000E+00;  0.0000000E+00;  0.0000000E+00;0;  0.0000000E+00;  4.0000000E+04;  0.0000000E+00;  0.0000000E+00;  4.0000000E+04;  0.0000000E+00;  4.0000000E+04;  0.0000000E+00;  0.0000000E+00;  0.0000000E+00;  1.8278684E-09;
 -1.7000000E-01;  9.9999998E-03; -1.4000000E-01;302;  0.0000000E+00;  0.0000000E+00;  0.0000000E+00;  1.0000000E+03;  1.0000000E-01;  0.0000000E+00;0;  0.0000000E+00;  0.0000000E+00;  0.0000000E+00;0;  0.0000000E+00;  4.0000000E+04;  0.0000000E+00;  0.0000000E+00;  4.0000000E+04;  0.0000000E+00;  4.0000000E+04;  0.0000000E+00;  0.0000000E+00;  0.0000000E+00;  1.9071082E-09;
 -1.7000000E-01;  9.9999998E-03; -1.3000000E-01;303;  0.0000000E+00;  0.0000000E+00;  0.0000000E+00;  1.0000000E+03;  1.0000000E-01;  0.0000000E+00;0;  0.0000000E+00;  0.0000000E+00;  0.0000000E+00;0;  0.0000000E+00;  4.0000000E+04;  0.0000000E+00;  0.0000000E+00;  4.0000000E+04;  0.0000000E+00;  4.0000000E+04;  0.0000000E+00;  0.0000000E+00;  0.0000000E+00;  1.9297872E-09;
 -1.7000000E-01;  9.9999998E-03; -1.2000000E-01;304;  0.0000000E+00;  0.0000000E+00;  0.0000000E+00;  1.0000000E+03;  1.0000000E-01;  0.0000000E+00;0;  0.0000000E+00;  0.0000000E+00;  0.0000000E+00;0;  0.0000000E+00;  4.0000000E+04;  0.0000000E+00;  0.0000000E+00;  4.0000000E+04;  0.0000000E+00;  4.0000000E+04;  0.0000000E+00;  0.0000000E+00;  0.0000000E+00;  1.9547151E-09;
 -1.7000000E-01;  9.9999998E-03; -1.1000000E-01;305;  0.0000000E+00;  0.0000000E+00;  0.0000000E+00;  1.0000000E+03;  1.0000000E-01;  0.0000000E+00;0;  0.0000000E+00;  0.0000000E+00;  0.0000000E+00;0;  0.0000000E+00;  4.0000000E+04;  0.0000000E+00;  0.0000000E+00;  4.0000000E+04;  0.0000000E+00;  4.0000000E+04;  0.0000000E+00;  0.0000000E+00;  0.0000000E+00;  1.9624904E-09;
 -1.6000000E-01;  9.9999998E-03; -2.7000001E-01;380;  0.0000000E+00;  0.0000000E+00;  0.0000000E+00;  1.0000000E+03;  1.0000000E-01;  0.0000000E+00;0;  0.0000000E+00;  0.0000000E+00;  0.0000000E+00;0;  2.8146974E-06;  4.0000000E+04;  0.0000000E+00;  0.0000000E+00;  4.0000000E+04;  0.0000000E+00;  4.0000000E+04;  2.8124255E-06;  0.0000000E+00;  2.2718774E-09;  4.1173041E-02;
 -1.6000000E-01;  9.9999998E-03; -2.5999999E-01;381;  0.0000000E+00;  0.0000000E+00;  0.0000000E+00;  1.0000000E+03;  1.0000000E-01;  0.0000000E+00;0;  0.0000000E+00;  0.0000000E+00;  0.0000000E+00;0;  3.1570764E-06;  4.0000000E+04;  0.0000000E+00;  0.0000000E+00;  4.0000000E+04;  0.0000000E+00;  4.0000000E+04;  3.1704431E-06;  0.0000000E+00; -1.3366700E-08;  1.0486404E-01;
 -1.6000000E-01;  9.9999998E-03; -2.5000000E-01;382;  0.0000000E+00;  0.0000000E+00;  0.0000000E+00;  1.0000000E+03;  1.0000000E-01;  0.0000000E+00;0;  0.0000000E+00;  0.0000000E+00;  0.0000000E+00;0;  3.2559165E-06;  4.0000000E+04;  0.0000000E+00;  0.0000000E+00;  4.0000000E+04;  0.0000000E+00;  4.0000000E+04;  3.2774501E-06;  0.0000000E+00; -2.1533689E-08;  1.5678884E-01;
 -1.6000000E-01;  9.9999998E-03; -2.3999999E-01;383;  0.0000000E+00;  0.0000000E+00;  0.0000000E+00;  1.0000000E+03;  1.0000000E-01;  0.0000000E+00;0;  0.0000000E+00;  0.0000000E+00;  0.0000000E+00;0;  3.1574468E-06;  4.0000000E+04;  0.0000000E+00;  0.0000000E+00;  4.0000000E+04;  0.0000000E+00;  4.0000000E+04;  3.1779384E-06;  0.0000000E+00; -2.0491596E-08;  1.9111495E-01;
 -1.6000000E-01;  9.9999998E-03; -2.3000000E-01;384;  0.0000000E+00;  0.0000000E+00;  0.0000000E+00;  1.0000000E+03;  1.0000000E-01;  0.0000000E+00;0;  0.0000000E+00;  0.0000000E+00;  0.0000000E+00;0;  2.9507212E-06;  4.0000000E+04;  0.0000000E+00;  0.0000000E+00;  4.0000000E+04;  0.0000000E+00;  4.0000000E+04;  2.9656396E-06;  0.0000000E+00; -1.4918339E-08;  2.1384984E-01;
 -1.6000000E-01;  9.9999998E-03; -2.2000000E-01;385;  0.0000000E+00;  0.0000000E+00;  0.0000000E+00;  1.0000000E+03;  1.0000000E-01;  0.0000000E+00;0;  0.0000000E+00;  0.0000000E+00;  0.0000000E+00;0;  2.7079770E-06;  4.0000000E+04;  0.0000000E+00;  0.0000000E+00;  4.0000000E+04;  0.0000000E+00;  4.0000000E+04;  2.7177330E-06;  0.0000000E+00; -9.7558743E-09;  2.3155333E-01;
 -1.6000000E-01;  9.9999998E-03; -2.0999999E-01;386;  0.0000000E+00;  0.0000000E+00;  0.0000000E+00;  1.0000000E+03;  1.0000000E-01;  0.0000000E+00;0;  0.0000000E+00;  0.0000000E+00;  0.0000000E+00;0;  2.4726146E-06;  4.0000000E+04;  0.0000000E+00;  0.0000000E+00;  4.0000000E+04;  0.0000000E+00;  4.0000000E+04;  2.4786234E-06;  0.0000000E+00; -6.0089058E-09;  2.4733521E-01;
 -1.6000000E-01;  9.9999998E-03; -2.0000000E-01;387;  0.0000000E+00;  0.0000000E+00;  0.0000000E+00;  1.0000000E+03;  1.0000000E-01;  0.0000000E+00;0;  0.0000000E+00;  0.0000000E+00;  0.0000000E+00;0;  2.2677336E-06;  4.0000000E+04;  0.0000000E+00;  0.0000000E+00;  4.0000000E+04;  0.0000000E+00;  4.0000000E+04;  2.2712425E-06;  0.0000000E+00; -3.5087928E-09;  2.6164678E-01;
 -1.6000000E-01;  9.9999998E-03; -1.9000000E-01;388;  0.0000000E+00;  0.0000000E+00;  0.0000000E+00;  1.0000000E+03;  1.0000000E-01;  0.0000000E+00;0;  0.0000000E+00;  0.0000000E+00;  0.0000000E+00;0;  2.1021344E-06;  4.0000000E+04;  0.0000000E+00;  0.0000000E+00;  4.0000000E+04;  0.0000000E+00;  4.0000000E+04;  2.1040462E-06;  0.0000000E+00; -1.9117772E-09;  2.7368572E-01;
 -1.6000000E-01;  9.9999998E-03; -1.8000001E-01;389;  0.0000000E+00;  0.0000000E+00;  0.0000000E+00;  1.0000000E+03;  1.0000000E-01;  0.0000000E+00;0;  0.0000000E+00;  0.0000000E+00;  0.0000000E+00;0;  1.9755892E-06;  4.0000000E+04;  0.0000000E+00;  0.0000000E+00;  4.0000000E+04;  0.0000000E+00;  4.0000000E+04;  1.9765250E-06;  0.0000000E+00; -9.3592367E-10;  2.8262401E-01;
 -1.6000000E-01;  9.9999998E-03; -1.7000000E-01;390;  0.0000000E+00;  0.0000000E+00;  0.0000000E+00;  1.0000000E+03;  1.0000000E-01;  0.0000000E+00;0;  0.0000000E+00;  0.0000000E+00;  0.0000000E+00;0;  1.8830640E-06;  4.0000000E+04;  0.0000000E+00;  0.0000000E+00;  4.0000000E+04;  0.0000000E+00;  4.0000000E+04;  1.8834511E-06;  0.0000000E+00; -3.8714706E-10;  2.8810999E-01;
 -1.6000000E-01;  9.9999998E-03; -1.6000000E-01;391;  0.0000000E+00;  0.0000000E+00;  0.0000000E+00;  1.0000000E+03;  1.0000000E-01;  0.0000000E+00;0;  0.0000000E+00;  0.0000000E+00;  0.0000000E+00;0;  1.8177470E-06;  4.0000000E+04;  0.0000000E+00;  0.0000000E+00;  4.0000000E+04;  0.0000000E+00;  4.0000000E+04;  1.8178823E-06;  0.0000000E+00; -1.3523910E-10;  2.9028007E-01;
 -1.6000000E-01;  9.9999998E-03; -1.5000001E-01;392;  0.0000000E+00;  0.0000000E+00;  0.0000000E+00;  1.0000000E+03;  1.0000000E-01;  0.0000000E+00;0;  0.0000000E+00;  0.0000000E+00;  0.0000000E+00;0;  1.7728838E-06;  4.0000000E+04;  0.0000000E+00;  0.0000000E+00;  4.0000000E+04;  0.0000000E+00;  4.0000000E+04;  1.7729706E-06;  0.0000000E+00; -8.6777842E-11;  2.8962749E-01;
 -1.6000000E-01;  9.9999998E-03; -1.4000000E-01;393;  0.0000000E+00;  0.0000000E+00;  0.0000000E+00;  1.0000000E+03;  1.0000000E-01;  0.0000000E+00;0;  0.0000000E+00;  0.0000000E+00;  0.0000000E+00;0;  1.7426145E-06;  4.0000000E+04;  0.0000000E+00;  0.0000000E+00;  4.0000000E+04;  0.0000000E+00;  4.0000000E+04;  1.7427800E-06;  0.0000000E+00; -1.6556485E-10;  2.8681579E-01;
 -1.6000000E-01;  9.9999998E-03; -1.3000000E-01;394;  0.0000000E+00;  0.0000000E+00;  0.0000000E+00;  1.0000000E+03;  1.0000000E-01;  0.0000000E+00;0;  0.0000000E+00;  0.0000000E+00;  0.0000000E+00;0;  1.7222418E-06;  4.0000000E+04;  0.0000000E+00;  0.0000000E+00;  4.0000000E+04;  0.0000000E+00;  4.0000000E+04;  1.7225495E-06;  0.0000000E+00; -3.0779052E-10;  2.8260702E-01;
 -1.6000000E-01;  9.9999998E-03; -1.2000000E-01;395;  0.0000000E+00;  0.0000000E+00;  0.0000000E+00;  1.0000000E+03;  1.0000000E-01;  0.0000000E+00;0;  0.0000000E+00;  0.0000000E+00;  0.0000000E+00;0;  1.7082415E-06;  4.0000000E+04;  0.0000000E+00;  0.0000000E+00;  4.0000000E+04;  0.0000000E+00;  4.0000000E+04;  1.7087068E-06;  0.0000000E+00; -4.6527851E-10;  2.7783328E-01;
 -1.6000000E-01;  9.9999998E-03; -1.1000000E-01;396;  0.0000000E+00;  0.0000000E+00;  0.0000000E+00;  1.0000000E+03;  1.0000000E-01;  0.0000000E+00;0;  0.0000000E+00;  0.0000000E+00;  0.0000000E+00;0;  1.6981097E-06;  4.0000000E+04;  0.0000000E+00;  0.0000000E+00;  4.0000000E+04;  0.0000000E+00;  4.0000000E+04;  1.6987160E-06;  0.0000000E+00; -6.0629590E-10;  2.7333108E-01;
 -1.5000001E-01;  9.9999998E-03; -2.7000001E-01;471;  0.0000000E+00;  0.0000000E+00;  0.0000000E+00;  1.0000000E+03;  1.0000000E-01;  0.0000000E+00;0;  0.0000000E+00;  0.0000000E+00;  0.0000000E+00;0;  3.7660953E-05;  4.0000000E+04;  0.0000000E+00;  0.0000000E+00;  4.0000000E+04;  0.0000000E+00;  4.0000000E+04;  3.7505441E-05;  0.0000000E+00;  1.5551340E-07;  4.3413073E-01;
 -1.5000001E-01;  9.9999998E-03; -2.5999999E-01;472;  0.0000000E+00;  0.0000000E+00;  0.0000000E+00;  1.0000000E+03;  1.0000000E-01;  0.0000000E+00;0;  0.0000000E+00;  0.0000000E+00;  0.0000000E+00;0;  4.4132110E-05;  4.0000000E+04;  0.0000000E+00;  0.0000000E+00;  4.0000000E+04;  0.0000000E+00;  4.0000000E+04;  4.4202268E-05;  0.0000000E+00; -7.0158428E-08;  1.2310364E+00;
 -1.5000001E-01;  9.9999998E-03; -2.5000000E-01;473;  0.0000000E+00;  0.0000000E+00;  0.0000000E+00;  1.0000000E+03;  1.0000000E-01;  0.0000000E+00;0;  0.0000000E+00;  0.0000000E+00;  0.0000000E+00;0;  4.9170438E-05;  4.0000000E+04;  0.0000000E+00;  0.0000000E+00;  4.0000000E+04;  0.0000000E+00;  4.0000000E+04;  4.9432580E-05;  0.0000000E+00; -2.6214042E-07;  2.0030520E+00;
 -1.5000001E-01;  9.9999998E-03; -2.3999999E-01;474;  0.0000000E+00;  0.0000000E+00;  0.0000000E+00;  1.0000000E+03;  1.0000000E-01;  0.0000000E+00;0;  0.0000000E+00;  0.0000000E+00;  0.0000000E+00;0;  5.2553911E-05;  4.0000000E+04;  0.0000000E+00;  0.0000000E+00;  4.0000000E+04;  0.0000000E+00;  4.0000000E+04;  5.2930318E-05;  0.0000000E+00; -3.7640632E-07;  2.6538184E+00;
 -1.5000001E-01;  9.9999998E-03; -2.3000000E-01;475;  0.0000000E+00;  0.0000000E+00;  0.0000000E+00;  1.0000000E+03;  1.0000000E-01;  0.0000000E+00;0;  0.0000000E+00;  0.0000000E+00;  0.0000000E+00;0;  5.4368240E-05;  4.0000000E+04;  0.0000000E+00;  0.0000000E+00;  4.0000000E+04;  0.0000000E+00;  4.0000000E+04;  5.4768348E-05;  0.0000000E+00; -4.0011034E-07;  3.1366622E+00;
 -1.5000001E-01;  9.9999998E-03; -2.2000000E-01;476;  0.0000000E+00;  0.0000000E+00;  0.0000000E+00;  1.0000000E+03;  1.0000000E-01;  0.0000000E+00;0;  0.0000000E+00;  0.0000000E+00;  0.0000000E+00;0;  5.4929355E-05;  4.0000000E+04;  0.0000000E+00;  0.0000000E+00;  4.0000000E+04;  0.0000000E+00;  4.0000000E+04;  5.5280274E-05;  0.0000000E+00; -3.5092052E-07;  3.4662814E+00;
 -1.5000001E-01;  9.9999998E-03; -2.0999999E-01;477;  0.0000000E+00;  0.0000000E+00;  0.0000000E+00;  1.0000000E+03;  1.0000000E-01;  0.0000000E+00;0;  0.0000000E+00;  0.0000000E+00;  0.0000000E+00;0;  5.4659529E-05;  4.0000000E+04;  0.0000000E+00;  0.0000000E+00;  4.0000000E+04;  0.0000000E+00;  4.0000000E+04;  5.4927739E-05;  0.0000000E+00; -2.6820891E-07;  3.6980135E+00;
 -1.5000001E-01;  9.9999998E-03; -2.0000000E-01;478;  0.0000000E+00;  0.0000000E+00;  0.0000000E+00;  1.0000000E+03;  1.0000000E-01;  0.0000000E+00;0;  0.0000000E+00;  0.0000000E+00;  0.0000000E+00;0;  5.3929543E-05;  4.0000000E+04;  0.0000000E+00;  0.0000000E+00;  4.0000000E+04;  0.0000000E+00;  4.0000000E+04;  5.4117223E-05;  0.0000000E+00; -1.8767984E-07;  3.8777230E+00;
 -1.5000001E-01;  9.9999998E-03; -1.9000000E-01;479;  0.0000000E+00;  0.0000000E+00;  0.0000000E+00;  1.0000000E+03;  1.0000000E-01;  0.0000000E+00;0;  0.0000000E+00;  0.0000000E+00;  0.0000000E+00;0;  5.3010892E-05;  4.0000000E+04;  0.0000000E+00;  0.0000000E+00;  4.0000000E+04;  0.0000000E+00;  4.0000000E+04;  5.3132790E-05;  0.0000000E+00; -1.2189889E-07;  4.0244474E+00;
 -1.5000001E-01;  9.9999998E-03; -1.8000001E-01;480;  0.0000000E+00;  0.0000000E+00;  0.0000000E+00;  1.0000000E+03;  1.0000000E-01;  0.0000000E+00;0;  0.0000000E+00;  0.0000000E+00;  0.0000000E+00;0;  5.2090007E-05;  4.0000000E+04;  0.0000000E+00;  0.0000000E+00;  4.0000000E+04;  0.0000000E+00;  4.0000000E+04;  5.2163123E-05;  0.0000000E+00; -7.3115345E-08;  4.1406159E+00;
 -1.5000001E-01;  9.9999998E-03; -1.7000000E-01;481;  0.0000000E+00;  0.0000000E+00;  0.0000000E+00;  1.0000000E+03;  1.0000000E-01;  0.0000000E+00;0;  0.0000000E+00;  0.0000000E+00;  0.0000000E+00;0;  5.1278574E-05;  4.0000000E+04;  0.0000000E+00;  0.0000000E+00;  4.0000000E+04;  0.0000000E+00;  4.0000000E+04;  5.1319181E-05;  0.0000000E+00; -4.0607869E-08;  4.2224498E+00;
 -1.5000001E-01;  9.9999998E-03; -1.6000000E-01;482;  0.0000000E+00;  0.0000000E+00;  0.0000000E+00;  1.0000000E+03;  1.0000000E-01;  0.0000000E+00;0;  0.0000000E+00;  0.0000000E+00;  0.0000000E+00;0;  5.0626579E-05;  4.0000000E+04;  0.0000000E+00;  0.0000000E+00;  4.0000000E+04;  0.0000000E+00;  4.0000000E+04;  5.0648985E-05;  0.0000000E+00; -2.2406509E-08;  4.2670927E+00;
 -1.5000001E-01;  9.9999998E-03; -1.5000001E-01;483;  0.0000000E+00;  0.0000000E+00;  0.0000000E+00;  1.0000000E+03;  1.0000000E-01;  0.0000000E+00;0;  0.0000000E+00;  0.0000000E+00;  0.0000000E+00;0;  5.0136448E-05;  4.0000000E+04;  0.0000000E+00;  0.0000000E+00;  4.0000000E+04;  0.0000000E+00;  4.0000000E+04;  5.0152266E-05;  0.0000000E+00; -1.5819602E-08;  4.2756166E+00;
 -1.5000001E-01;  9.9999998E-03; -1.4000000E-01;484;  0.0000000E+00;  0.0000000E+00;  0.0000000E+00;  1.0000000E+03;  1.0000000E-01;  0.0000000E+00;0;  0.0000000E+00;  0.0000000E+00;  0.0000000E+00;0;  4.9780745E-05;  4.0000000E+04;  0.0000000E+00;  0.0000000E+00;  4.0000000E+04;  0.0000000E+00;  4.0000000E+04;  4.9798473E-05;  0.0000000E+00; -1.7728576E-08;  4.2535348E+00;
 -1.5000001E-01;  9.9999998E-03; -1.3000000E-01;485;  0.0000000E+00;  0.0000000E+00;  0.0000000E+00;  1.0000000E+03;  1.0000000E-01;  0.0000000E+00;0;  0.0000000E+00;  0.0000000E+00;  0.0000000E+00;0;  4.9516606E-05;  4.0000000E+04;  0.0000000E+00;  0.0000000E+00;  4.0000000E+04;  0.0000000E+00;  4.0000000E+04;  4.9541493E-05;  0.0000000E+00; -2.4888648E-08;  4.2102408E+00;
 -1.5000001E-01;  9.9999998E-03; -1.2000000E-01;486;  0.0000000E+00;  0.0000000E+00;  0.0000000E+00;  1.0000000E+03;  1.0000000E-01;  0.0000000E+00;0;  0.0000000E+00;  0.0000000E+00;  0.0000000E+00;0;  4.9298611E-05;  4.0000000E+04;  0.0000000E+00;  0.0000000E+00;  4.0000000E+04;  0.0000000E+00;  4.0000000E+04;  4.9332848E-05;  0.0000000E+00; -3.4237097E-08;  4.1577201E+00;
 -1.5000001E-01;  9.9999998E-03; -1.1000000E-01;487;  0.0000000E+00;  0.0000000E+00;  0.0000000E+00;  1.0000000E+03;  1.0000000E-01;  0.0000000E+00;0;  0.0000000E+00;  0.0000000E+00;  0.0000000E+00;0;  4.9086993E-05;  4.0000000E+04;  0.0000000E+00;  0.0000000E+00;  4.0000000E+04;  0.0000000E+00;  4.0000000E+04;  4.9130136E-05;  0.0000000E+00; -4.3142013E-08;  4.1081982E+00;
 -1.4000000E-01;  9.9999998E-03; -2.7000001E-01;562;  0.0000000E+00;  0.0000000E+00;  0.0000000E+00;  1.0000000E+03;  1.0000000E-01;  0.0000000E+00;0;  0.0000000E+00;  0.0000000E+00;  0.0000000E+00;0;  1.6614655E-04;  4.0000000E+04;  0.0000000E+00;  0.0000000E+00;  4.0000000E+04;  0.0000000E+00;  4.0000000E+04;  1.6517362E-04;  0.0000000E+00;  9.7292775E-07;  1.9686290E+00;
 -1.4000000E-01;  9.9999998E-03; -2.5999999E-01;563;  0.0000000E+00;  0.0000000E+00;  0.0000000E+00;  1.0000000E+03;  1.0000000E-01;  0.0000000E+00;0;  0.0000000E+00;  0.0000000E+00;  0.0000000E+00;0;  1.9478824E-04;  4.0000000E+04;  0.0000000E+00;  0.0000000E+00;  4.0000000E+04;  0.0000000E+00;  4.0000000E+04;  1.9489338E-04;  0.0000000E+00; -1.0513396E-07;  5.5709901E+00;
 -1.4000000E-01;  9.9999998E-03; -2.5000000E-01;564;  0.0000000E+00;  0.0000000E+00;  0.0000000E+00;  1.0000000E+03;  1.0000000E-01;  0.0000000E+00;0;  0.0000000E+00;  0.0000000E+00;  0.0000000E+00;0;  2.1962046E-04;  4.0000000E+04;  0.0000000E+00;  0.0000000E+00;  4.0000000E+04;  0.0000000E+00;  4.0000000E+04;  2.2072316E-04;  0.0000000E+00; -1.1026979E-06;  9.0957890E+00;
 -1.4000000E-01;  9.9999998E-03; -2.3999999E-01;565;  0.0000000E+00;  0.0000000E+00;  0.0000000E+00;  1.0000000E+03;  1.0000000E-01;  0.0000000E+00;0;  0.0000000E+00;  0.0000000E+00;  0.0000000E+00;0;  2.3947231E-04;  4.0000000E+04;  0.0000000E+00;  0.0000000E+00;  4.0000000E+04;  0.0000000E+00;  4.0000000E+04;  2.4130466E-04;  0.0000000E+00; -1.8323552E-06;  1.2163997E+01;
 -1.4000000E-01;  9.9999998E-03; -2.3000000E-01;566;  0.0000000E+00;  0.0000000E+00;  0.0000000E+00;  1.0000000E+03;  1.0000000E-01;  0.0000000E+00;0;  0.0000000E+00;  0.0000000E+00;  0.0000000E+00;0;  2.5391753E-04;  4.0000000E+04;  0.0000000E+00;  0.0000000E+00;  4.0000000E+04;  0.0000000E+00;  4.0000000E+04;  2.5610760E-04;  0.0000000E+00; -2.1900489E-06;  1.4557195E+01;
 -1.4000000E-01;  9.9999998E-03; -2.2000000E-01;567;  0.0000000E+00;  0.0000000E+00;  0.0000000E+00;  1.0000000E+03;  1.0000000E-01;  0.0000000E+00;0;  0.0000000E+00;  0.0000000E+00;  0.0000000E+00;0;  2.6325148E-04;  4.0000000E+04;  0.0000000E+00;  0.0000000E+00;  4.0000000E+04;  0.0000000E+00;  4.0000000E+04;  2.6542964E-04;  0.0000000E+00; -2.1781584E-06;  1.6242678E+01;
 -1.4000000E-01;  9.9999998E-03; -2.0999999E-01;568;  0.0000000E+00;  0.0000000E+00;  0.0000000E+00;  1.0000000E+03;  1.0000000E-01;  0.0000000E+00;0;  0.0000000E+00;  0.0000000E+00;  0.0000000E+00;0;  2.6833618E-04;  4.0000000E+04;  0.0000000E+00;  0.0000000E+00;  4.0000000E+04;  0.0000000E+00;  4.0000000E+04;  2.7022939E-04;  0.0000000E+00; -1.8931910E-06;  1.7323421E+01;
 -1.4000000E-01;  9.9999998E-03; -2.0000000E-01;569;  0.0000000E+00;  0.0000000E+00;  0.0000000E+00;  1.0000000E+03;  1.0000000E-01;  0.0000000E+00;0;  0.0000000E+00;  0.0000000E+00;  0.0000000E+00;0;  2.7031064E-04;  4.0000000E+04;  0.0000000E+00;  0.0000000E+00;  4.0000000E+04;  0.0000000E+00;  4.0000000E+04;  2.7178385E-04;  0.0000000E+00; -1.4732066E-06;  1.7990625E+01;
 -1.4000000E-01;  9.9999998E-03; -1.9000000E-01;570;  0.0000000E+00;  0.0000000E+00;  0.0000000E+00;  1.0000000E+03;  1.0000000E-01;  0.0000000E+00;0;  0.0000000E+00;  0.0000000E+00;  0.0000000E+00;0;  2.7029580E-04;  4.0000000E+04;  0.0000000E+00;  0.0000000E+00;  4.0000000E+04;  0.0000000E+00;  4.0000000E+04;  2.7134639E-04;  0.0000000E+00; -1.0505796E-06;  1.8431805E+01;
 -1.4000000E-01;  9.9999998E-03; -1.8000001E-01;571;  0.0000000E+00;  0.0000000E+00;  0.0000000E+00;  1.0000000E+03;  1.0000000E-01;  0.0000000E+00;0;  0.0000000E+00;  0.0000000E+00;  0.0000000E+00;0;  2.6918683E-04;  4.0000000E+04;  0.0000000E+00;  0.0000000E+00;  4.0000000E+04;  0.0000000E+00;  4.0000000E+04;  2.6989021E-04;  0.0000000E+00; -7.0338712E-07;  1.8747175E+01;
 -1.4000000E-01;  9.9999998E-03; -1.7000000E-01;572;  0.0000000E+00;  0.0000000E+00;  0.0000000E+00;  1.0000000E+03;  1.0000000E-01;  0.0000000E+00;0;  0.0000000E+00;  0.0000000E+00;  0.0000000E+00;0;  2.6762969E-04;  4.0000000E+04;  0.0000000E+00;  0.0000000E+00;  4.0000000E+04;  0.0000000E+00;  4.0000000E+04;  2.6808161E-04;  0.0000000E+00; -4.5191925E-07;  1.8964762E+01;
 -1.4000000E-01;  9.9999998E-03; -1.6000000E-01;573;  0.0000000E+00;  0.0000000E+00;  0.0000000E+00;  1.0000000E+03;  1.0000000E-01;  0.0000000E+00;0;  0.0000000E+00;  0.0000000E+00;  0.0000000E+00;0;  2.6603771E-04;  4.0000000E+04;  0.0000000E+00;  0.0000000E+00;  4.0000000E+04;  0.0000000E+00;  4.0000000E+04;  2.6633264E-04;  0.0000000E+00; -2.9492924E-07;  1.9081697E+01;
 -1.4000000E-01;  9.9999998E-03; -1.5000001E-01;574;  0.0000000E+00;  0.0000000E+00;  0.0000000E+00;  1.0000000E+03;  1.0000000E-01;  0.0000000E+00;0;  0.0000000E+00;  0.0000000E+00;  0.0000000E+00;0;  2.6461674E-04;  4.0000000E+04;  0.0000000E+00;  0.0000000E+00;  4.0000000E+04;  0.0000000E+00;  4.0000000E+04;  2.6483741E-04;  0.0000000E+00; -2.2065427E-07;  1.9095402E+01;
 -1.4000000E-01;  9.9999998E-03; -1.4000000E-01;575;  0.0000000E+00;  0.0000000E+00;  0.0000000E+00;  1.0000000E+03;  1.0000000E-01;  0.0000000E+00;0;  0.0000000E+00;  0.0000000E+00;  0.0000000E+00;0;  2.6341176E-04;  4.0000000E+04;  0.0000000E+00;  0.0000000E+00;  4.0000000E+04;  0.0000000E+00;  4.0000000E+04;  2.6362293E-04;  0.0000000E+00; -2.1116323E-07;  1.9018732E+01;
 -1.4000000E-01;  9.9999998E-03; -1.3000000E-01;576;  0.0000000E+00;  0.0000000E+00;  0.0000000E+00;  1.0000000E+03;  1.0000000E-01;  0.0000000E+00;0;  0.0000000E+00;  0.0000000E+00;  0.0000000E+00;0;  2.6235954E-04;  4.0000000E+04;  0.0000000E+00;  0.0000000E+00;  4.0000000E+04;  0.0000000E+00;  4.0000000E+04;  2.6260474E-04;  0.0000000E+00; -2.4520594E-07;  1.8881781E+01;
 -1.4000000E-01;  9.9999998E-03; -1.2000000E-01;577;  0.0000000E+00;  0.0000000E+00;  0.0000000E+00;  1.0000000E+03;  1.0000000E-01;  0.0000000E+00;0;  0.0000000E+00;  0.0000000E+00;  0.0000000E+00;0;  2.6134256E-04;  4.0000000E+04;  0.0000000E+00;  0.0000000E+00;  4.0000000E+04;  0.0000000E+00;  4.0000000E+04;  2.6164335E-04;  0.0000000E+00; -3.0078320E-07;  1.8725504E+01;
 -1.4000000E-01;  9.9999998E-03; -1.1000000E-01;578;  0.0000000E+00;  0.0000000E+00;  0.0000000E+00;  1.0000000E+03;  1.0000000E-01;  0.0000000E+00;0;  0.0000000E+00;  0.0000000E+00;  0.0000000E+00;0;  2.6023676E-04;  4.0000000E+04;  0.0000000E+00;  0.0000000E+00;  4.0000000E+04;  0.0000000E+00;  4.0000000E+04;  2.6059413E-04;  0.0000000E+00; -3.5736988E-07;  1.8591669E+01;
 -1.3000000E-01;  9.9999998E-03; -2.7000001E-01;653;  0.0000000E+00;  0.0000000E+00;  0.0000000E+00;  1.0000000E+03;  1.0000000E-01;  0.0000000E+00;0;  0.0000000E+00;  0.0000000E+00;  0.0000000E+00;0;  4.6002248E-04;  4.0000000E+04;  0.0000000E+00;  0.0000000E+00;  4.0000000E+04;  0.0000000E+00;  4.0000000E+04;  4.5662432E-04;  0.0000000E+00;  3.3981692E-06;  5.6987405E+00;
 -1.3000000E-01;  9.9999998E-03; -2.5999999E-01;654;  0.0000000E+00;  0.0000000E+00;  0.0000000E+00;  1.0000000E+03;  1.0000000E-01;  0.0000000E+00;0;  0.0000000E+00;  0.0000000E+00;  0.0000000E+00;0;  5.3663633E-04;  4.0000000E+04;  0.0000000E+00;  0.0000000E+00;  4.0000000E+04;  0.0000000E+00;  4.0000000E+04;  5.3652731E-04;  0.0000000E+00;  1.0902470E-07;  1.6229845E+01;
 -1.3000000E-01;  9.9999998E-03; -2.5000000E-01;655;  0.0000000E+00;  0.0000000E+00;  0.0000000E+00;  1.0000000E+03;  1.0000000E-01;  0.0000000E+00;0;  0.0000000E+00;  0.0000000E+00;  0.0000000E+00;0;  6.0583081E-04;  4.0000000E+04;  0.0000000E+00;  0.0000000E+00;  4.0000000E+04;  0.0000000E+00;  4.0000000E+04;  6.0886511E-04;  0.0000000E+00; -3.0342926E-06;  2.6483059E+01;
 -1.3000000E-01;  9.9999998E-03; -2.3999999E-01;656;  0.0000000E+00;  0.0000000E+00;  0.0000000E+00;  1.0000000E+03;  1.0000000E-01;  0.0000000E+00;0;  0.0000000E+00;  0.0000000E+00;  0.0000000E+00;0;  6.6465483E-04;  4.0000000E+04;  0.0000000E+00;  0.0000000E+00;  4.0000000E+04;  0.0000000E+00;  4.0000000E+04;  6.7018397E-04;  0.0000000E+00; -5.5291675E-06;  3.5437595E+01;
 -1.3000000E-01;  9.9999998E-03; -2.3000000E-01;657;  0.0000000E+00;  0.0000000E+00;  0.0000000E+00;  1.0000000E+03;  1.0000000E-01;  0.0000000E+00;0;  0.0000000E+00;  0.0000000E+00;  0.0000000E+00;0;  7.1147230E-04;  4.0000000E+04;  0.0000000E+00;  0.0000000E+00;  4.0000000E+04;  0.0000000E+00;  4.0000000E+04;  7.1851473E-04;  0.0000000E+00; -7.0424107E-06;  4.2456413E+01;
 -1.3000000E-01;  9.9999998E-03; -2.2000000E-01;658;  0.0000000E+00;  0.0000000E+00;  0.0000000E+00;  1.0000000E+03;  1.0000000E-01;  0.0000000E+00;0;  0.0000000E+00;  0.0000000E+00;  0.0000000E+00;0;  7.4605626E-04;  4.0000000E+04;  0.0000000E+00;  0.0000000E+00;  4.0000000E+04;  0.0000000E+00;  4.0000000E+04;  7.5353606E-04;  0.0000000E+00; -7.4797845E-06;  4.7367966E+01;
 -1.3000000E-01;  9.9999998E-03; -2.0999999E-01;659;  0.0000000E+00;  0.0000000E+00;  0.0000000E+00;  1.0000000E+03;  1.0000000E-01;  0.0000000E+00;0;  0.0000000E+00;  0.0000000E+00;  0.0000000E+00;0;  7.6944660E-04;  4.0000000E+04;  0.0000000E+00;  0.0000000E+00;  4.0000000E+04;  0.0000000E+00;  4.0000000E+04;  7.7643408E-04;  0.0000000E+00; -6.9874741E-06;  5.0393398E+01;
 -1.3000000E-01;  9.9999998E-03; -2.0000000E-01;660;  0.0000000E+00;  0.0000000E+00;  0.0000000E+00;  1.0000000E+03;  1.0000000E-01;  0.0000000E+00;0;  0.0000000E+00;  0.0000000E+00;  0.0000000E+00;0;  7.8358862E-04;  4.0000000E+04;  0.0000000E+00;  0.0000000E+00;  4.0000000E+04;  0.0000000E+00;  4.0000000E+04;  7.8947161E-04;  0.0000000E+00; -5.8830174E-06;  5.1995899E+01;
 -1.3000000E-01;  9.9999998E-03; -1.9000000E-01;661;  0.0000000E+00;  0.0000000E+00;  0.0000000E+00;  1.0000000E+03;  1.0000000E-01;  0.0000000E+00;0;  0.0000000E+00;  0.0000000E+00;  0.0000000E+00;0;  7.9084164E-04;  4.0000000E+04;  0.0000000E+00;  0.0000000E+00;  4.0000000E+04;  0.0000000E+00;  4.0000000E+04;  7.9538394E-04;  0.0000000E+00; -4.5423217E-06;  5.2696194E+01;
 -1.3000000E-01;  9.9999998E-03; -1.8000001E-01;662;  0.0000000E+00;  0.0000000E+00;  0.0000000E+00;  1.0000000E+03;  1.0000000E-01;  0.0000000E+00;0;  0.0000000E+00;  0.0000000E+00;  0.0000000E+00;0;  7.9348084E-04;  4.0000000E+04;  0.0000000E+00;  0.0000000E+00;  4.0000000E+04;  0.0000000E+00;  4.0000000E+04;  7.9676311E-04;  0.0000000E+00; -3.2822904E-06;  5.2946136E+01;
 -1.3000000E-01;  9.9999998E-03; -1.7000000E-01;663;  0.0000000E+00;  0.0000000E+00;  0.0000000E+00;  1.0000000E+03;  1.0000000E-01;  0.0000000E+00;0;  0.0000000E+00;  0.0000000E+00;  0.0000000E+00;0;  7.9334318E-04;  4.0000000E+04;  0.0000000E+00;  0.0000000E+00;  4.0000000E+04;  0.0000000E+00;  4.0000000E+04;  7.9563737E-04;  0.0000000E+00; -2.2941908E-06;  5.2998016E+01;
 -1.3000000E-01;  9.9999998E-03; -1.6000000E-01;664;  0.0000000E+00;  0.0000000E+00;  0.0000000E+00;  1.0000000E+03;  1.0000000E-01;  0.0000000E+00;0;  0.0000000E+00;  0.0000000E+00;  0.0000000E+00;0;  7.9174258E-04;  4.0000000E+04;  0.0000000E+00;  0.0000000E+00;  4.0000000E+04;  0.0000000E+00;  4.0000000E+04;  7.9336960E-04;  0.0000000E+00; -1.6270322E-06;  5.2934971E+01;
 -1.3000000E-01;  9.9999998E-03; -1.5000001E-01;665;  0.0000000E+00;  0.0000000E+00;  0.0000000E+00;  1.0000000E+03;  1.0000000E-01;  0.0000000E+00;0;  0.0000000E+00;  0.0000000E+00;  0.0000000E+00;0;  7.8950298E-04;  4.0000000E+04;  0.0000000E+00;  0.0000000E+00;  4.0000000E+04;  0.0000000E+00;  4.0000000E+04;  7.9076324E-04;  0.0000000E+00; -1.2602358E-06;  5.2771816E+01;
 -1.3000000E-01;  9.9999998E-03; -1.4000000E-01;666;  0.0000000E+00;  0.0000000E+00;  0.0000000E+00;  1.0000000E+03;  1.0000000E-01;  0.0000000E+00;0;  0.0000000E+00;  0.0000000E+00;  0.0000000E+00;0;  7.8702194E-04;  4.0000000E+04;  0.0000000E+00;  0.0000000E+00;  4.0000000E+04;  0.0000000E+00;  4.0000000E+04;  7.8816188E-04;  0.0000000E+00; -1.1399388E-06;  5.2525204E+01;
 -1.3000000E-01;  9.9999998E-03; -1.3000000E-01;667;  0.0000000E+00;  0.0000000E+00;  0.0000000E+00;  1.0000000E+03;  1.0000000E-01;  0.0000000E+00;0;  0.0000000E+00;  0.0000000E+00;  0.0000000E+00;0;  7.8437751E-04;  4.0000000E+04;  0.0000000E+00;  0.0000000E+00;  4.0000000E+04;  0.0000000E+00;  4.0000000E+04;  7.8557170E-04;  0.0000000E+00; -1.1941623E-06;  5.2240646E+01;
 -1.3000000E-01;  9.9999998E-03; -1.2000000E-01;668;  0.0000000E+00;  0.0000000E+00;  0.0000000E+00;  1.0000000E+03;  1.0000000E-01;  0.0000000E+00;0;  0.0000000E+00;  0.0000000E+00;  0.0000000E+00;0;  7.8145479E-04;  4.0000000E+04;  0.0000000E+00;  0.0000000E+00;  4.0000000E+04;  0.0000000E+00;  4.0000000E+04;  7.8279810E-04;  0.0000000E+00; -1.3433261E-06;  5.1987572E+01;
 -1.3000000E-01;  9.9999998E-03; -1.1000000E-01;669;  0.0000000E+00;  0.0000000E+00;  0.0000000E+00;  1.0000000E+03;  1.0000000E-01;  0.0000000E+00;0;  0.0000000E+00;  0.0000000E+00;  0.0000000E+00;0;  7.7806454E-04;  4.0000000E+04;  0.0000000E+00;  0.0000000E+00;  4.0000000E+04;  0.0000000E+00;  4.0000000E+04;  7.7957363E-04;  0.0000000E+00; -1.5091057E-06;  5.1837250E+01;
 -1.2000000E-01;  9.9999998E-03; -2.7000001E-01;744;  0.0000000E+00;  0.0000000E+00;  0.0000000E+00;  1.0000000E+03;  1.0000000E-01;  0.0000000E+00;0;  0.0000000E+00;  0.0000000E+00;  0.0000000E+00;0;  9.8298432E-04;  4.0000000E+04;  0.0000000E+00;  0.0000000E+00;  4.0000000E+04;  0.0000000E+00;  4.0000000E+04;  9.7413774E-04;  0.0000000E+00;  8.8465868E-06;  1.2777443E+01;
 -1.2000000E-01;  9.9999998E-03; -2.5999999E-01;745;  0.0000000E+00;  0.0000000E+00;  0.0000000E+00;  1.0000000E+03;  1.0000000E-01;  0.0000000E+00;0;  0.0000000E+00;  0.0000000E+00;  0.0000000E+00;0;  1.1401714E-03;  4.0000000E+04;  0.0000000E+00;  0.0000000E+00;  4.0000000E+04;  0.0000000E+00;  4.0000000E+04;  1.1391336E-03;  0.0000000E+00;  1.0378442E-06;  3.6695206E+01;
 -1.2000000E-01;  9.9999998E-03; -2.5000000E-01;746;  0.0000000E+00;  0.0000000E+00;  0.0000000E+00;  1.0000000E+03;  1.0000000E-01;  0.0000000E+00;0;  0.0000000E+00;  0.0000000E+00;  0.0000000E+00;0;  1.2850513E-03;  4.0000000E+04;  0.0000000E+00;  0.0000000E+00;  4.0000000E+04;  0.0000000E+00;  4.0000000E+04;  1.2916022E-03;  0.0000000E+00; -6.5508602E-06;  5.9831360E+01;
 -1.2000000E-01;  9.9999998E-03; -2.3999999E-01;747;  0.0000000E+00;  0.0000000E+00;  0.0000000E+00;  1.0000000E+03;  1.0000000E-01;  0.0000000E+00;0;  0.0000000E+00;  0.0000000E+00;  0.0000000E+00;0;  1.4120609E-03;  4.0000000E+04;  0.0000000E+00;  0.0000000E+00;  4.0000000E+04;  0.0000000E+00;  4.0000000E+04;  1.4249105E-03;  0.0000000E+00; -1.2849575E-05;  7.9993912E+01;
 -1.2000000E-01;  9.9999998E-03; -2.3000000E-01;748;  0.0000000E+00;  0.0000000E+00;  0.0000000E+00;  1.0000000E+03;  1.0000000E-01;  0.0000000E+00;0;  0.0000000E+00;  0.0000000E+00;  0.0000000E+00;0;  1.5176401E-03;  4.0000000E+04;  0.0000000E+00;  0.0000000E+00;  4.0000000E+04;  0.0000000E+00;  4.0000000E+04;  1.5347266E-03;  0.0000000E+00; -1.7086484E-05;  9.5753250E+01;
 -1.2000000E-01;  9.9999998E-03; -2.2000000E-01;749;  0.0000000E+00;  0.0000000E+00;  0.0000000E+00;  1.0000000E+03;  1.0000000E-01;  0.0000000E+00;0;  0.0000000E+00;  0.0000000E+00;  0.0000000E+00;0;  1.6004766E-03;  4.0000000E+04;  0.0000000E+00;  0.0000000E+00;  4.0000000E+04;  0.0000000E+00;  4.0000000E+04;  1.6194117E-03;  0.0000000E+00; -1.8935227E-05;  1.0661834E+02;
 -1.2000000E-01;  9.9999998E-03; -2.0999999E-01;750;  0.0000000E+00;  0.0000000E+00;  0.0000000E+00;  1.0000000E+03;  1.0000000E-01;  0.0000000E+00;0;  0.0000000E+00;  0.0000000E+00;  0.0000000E+00;0;  1.6614032E-03;  4.0000000E+04;  0.0000000E+00;  0.0000000E+00;  4.0000000E+04;  0.0000000E+00;  4.0000000E+04;  1.6799531E-03;  0.0000000E+00; -1.8549848E-05;  1.1297217E+02;
 -1.2000000E-01;  9.9999998E-03; -2.0000000E-01;751;  0.0000000E+00;  0.0000000E+00;  0.0000000E+00;  1.0000000E+03;  1.0000000E-01;  0.0000000E+00;0;  0.0000000E+00;  0.0000000E+00;  0.0000000E+00;0;  1.7029952E-03;  4.0000000E+04;  0.0000000E+00;  0.0000000E+00;  4.0000000E+04;  0.0000000E+00;  4.0000000E+04;  1.7194771E-03;  0.0000000E+00; -1.6481999E-05;  1.1579757E+02;
 -1.2000000E-01;  9.9999998E-03; -1.9000000E-01;752;  0.0000000E+00;  0.0000000E+00;  0.0000000E+00;  1.0000000E+03;  1.0000000E-01;  0.0000000E+00;0;  0.0000000E+00;  0.0000000E+00;  0.0000000E+00;0;  1.7289211E-03;  4.0000000E+04;  0.0000000E+00;  0.0000000E+00;  4.0000000E+04;  0.0000000E+00;  4.0000000E+04;  1.7424242E-03;  0.0000000E+00; -1.3503095E-05;  1.1629211E+02;
 -1.2000000E-01;  9.9999998E-03; -1.8000001E-01;753;  0.0000000E+00;  0.0000000E+00;  0.0000000E+00;  1.0000000E+03;  1.0000000E-01;  0.0000000E+00;0;  0.0000000E+00;  0.0000000E+00;  0.0000000E+00;0;  1.7431942E-03;  4.0000000E+04;  0.0000000E+00;  0.0000000E+00;  4.0000000E+04;  0.0000000E+00;  4.0000000E+04;  1.7535778E-03;  0.0000000E+00; -1.0383645E-05;  1.1554674E+02;
 -1.2000000E-01;  9.9999998E-03; -1.7000000E-01;754;  0.0000000E+00;  0.0000000E+00;  0.0000000E+00;  1.0000049E+03;  1.0000000E-01;  4.0492682E+00;0;  0.0000000E+00;  0.0000000E+00;  0.0000000E+00;0;  1.7494919E-03;  4.0000000E+04;  0.0000000E+00;  0.0000000E+00;  4.0000000E+04;  0.0000000E+00;  4.0000000E+04;  1.7571894E-03;  0.0000000E+00; -7.6975111E-06;  1.1438985E+02;
 -1.2000000E-01;  9.9999998E-03; -1.6000000E-01;755;  0.0000000E+00;  0.0000000E+00;  0.0000000E+00;  1.0000123E+03;  1.0000000E-01;  1.0172552E+01;0;  0.0000000E+00;  0.0000000E+00;  0.0000000E+00;0;  1.7506939E-03;  4.0000000E+04;  0.0000000E+00;  0.0000000E+00;  4.0000000E+04;  0.0000000E+00;  4.0000000E+04;  1.7564381E-03;  0.0000000E+00; -5.7441835E-06;  1.1326369E+02;
 -1.2000000E-01;  9.9999998E-03; -1.5000001E-01;756;  0.0000000E+00;  0.0000000E+00;  0.0000000E+00;  1.0000220E+03;  1.0000000E-01;  1.8172325E+01;0;  0.0000000E+00;  0.0000000E+00;  0.0000000E+00;0;  1.7488005E-03;  4.0000000E+04;  0.0000000E+00;  0.0000000E+00;  4.0000000E+04;  0.0000000E+00;  4.0000000E+04;  1.7533560E-03;  0.0000000E+00; -4.5554657E-06;  1.1231505E+02;
 -1.2000000E-01;  9.9999998E-03; -1.4000000E-01;757;  0.0000000E+00;  0.0000000E+00;  0.0000000E+00;  1.0000247E+03;  1.0000000E-01;  2.0443867E+01;0;  0.0000000E+00;  0.0000000E+00;  0.0000000E+00;0;  1.7450113E-03;  4.0000000E+04;  0.0000000E+00;  0.0000000E+00;  4.0000000E+04;  0.0000000E+00;  4.0000000E+04;  1.7490345E-03;  0.0000000E+00; -4.0231862E-06;  1.1157331E+02;
 -1.2000000E-01;  9.9999998E-03; -1.3000000E-01;758;  0.0000000E+00;  0.0000000E+00;  0.0000000E+00;  1.0000208E+03;  1.0000000E-01;  1.7283463E+01;0;  0.0000000E+00;  0.0000000E+00;  0.0000000E+00;0;  1.7398637E-03;  4.0000000E+04;  0.0000000E+00;  0.0000000E+00;  4.0000000E+04;  0.0000000E+00;  4.0000000E+04;  1.7438374E-03;  0.0000000E+00; -3.9736906E-06;  1.1106203E+02;
 -1.2000000E-01;  9.9999998E-03; -1.2000000E-01;759;  0.0000000E+00;  0.0000000E+00;  0.0000000E+00;  1.0000168E+03;  1.0000000E-01;  1.3925532E+01;0;  0.0000000E+00;  0.0000000E+00;  0.0000000E+00;0;  1.7334615E-03;  4.0000000E+04;  0.0000000E+00;  0.0000000E+00;  4.0000000E+04;  0.0000000E+00;  4.0000000E+04;  1.7376647E-03;  0.0000000E+00; -4.2031743E-06;  1.1082784E+02;
 -1.2000000E-01;  9.9999998E-03; -1.1000000E-01;760;  0.0000000E+00;  0.0000000E+00;  0.0000000E+00;  1.0000134E+03;  1.0000000E-01;  1.1061416E+01;0;  0.0000000E+00;  0.0000000E+00;  0.0000000E+00;0;  1.7256831E-03;  4.0000000E+04;  0.0000000E+00;  0.0000000E+00;  4.0000000E+04;  0.0000000E+00;  4.0000000E+04;  1.7301872E-03;  0.0000000E+00; -4.5041133E-06;  1.1092305E+02;
 -1.1000000E-01;  9.9999998E-03; -2.7000001E-01;835;  0.0000000E+00;  0.0000000E+00;  0.0000000E+00;  1.0000091E+03;  1.0000000E-01;  7.5059605E+00;0;  0.0000000E+00;  0.0000000E+00;  0.0000000E+00;0;  1.7843068E-03;  4.0000000E+04;  0.0000000E+00;  0.0000000E+00;  4.0000000E+04;  0.0000000E+00;  4.0000000E+04;  1.7650749E-03;  0.0000000E+00;  1.9231949E-05;  2.4663500E+01;
 -1.1000000E-01;  9.9999998E-03; -2.5999999E-01;836;  0.0000000E+00;  0.0000000E+00;  0.0000000E+00;  1.0000120E+03;  1.0000000E-01;  9.9750261E+00;0;  0.0000000E+00;  0.0000000E+00;  0.0000000E+00;0;  2.0585926E-03;  4.0000000E+04;  0.0000000E+00;  0.0000000E+00;  4.0000000E+04;  0.0000000E+00;  4.0000000E+04;  2.0551195E-03;  0.0000000E+00;  3.4732184E-06;  7.0631676E+01;
 -1.1000000E-01;  9.9999998E-03; -2.5000000E-01;837;  0.0000000E+00;  0.0000000E+00;  0.0000000E+00;  1.0000092E+03;  1.0000000E-01;  7.6047230E+00;0;  0.0000000E+00;  0.0000000E+00;  0.0000000E+00;0;  2.3142542E-03;  4.0000000E+04;  0.0000000E+00;  0.0000000E+00;  4.0000000E+04;  0.0000000E+00;  4.0000000E+04;  2.3262606E-03;  0.0000000E+00; -1.2006401E-05;  1.1492191E+02;
 -1.1000000E-01;  9.9999998E-03; -2.3999999E-01;838;  0.0000000E+00;  0.0000000E+00;  0.0000000E+00;  1.0000020E+03;  1.0000000E-01;  1.6789649E+00;0;  0.0000000E+00;  0.0000000E+00;  0.0000000E+00;0;  2.5423267E-03;  4.0000000E+04;  0.0000000E+00;  0.0000000E+00;  4.0000000E+04;  0.0000000E+00;  4.0000000E+04;  2.5675597E-03;  0.0000000E+00; -2.5232943E-05;  1.5339838E+02;
 -1.1000000E-01;  9.9999998E-03; -2.3000000E-01;839;  0.0000000E+00;  0.0000000E+00;  0.0000000E+00;  1.0000149E+03;  1.0000000E-01;  1.2345330E+01;0;  0.0000000E+00;  0.0000000E+00;  0.0000000E+00;0;  2.7366886E-03;  4.0000000E+04;  0.0000000E+00;  0.0000000E+00;  4.0000000E+04;  0.0000000E+00;  4.0000000E+04;  2.7713974E-03;  0.0000000E+00; -3.4708744E-05;  1.8335318E+02;
 -1.1000000E-01;  9.9999998E-03; -2.2000000E-01;840;  0.0000000E+00;  0.0000000E+00;  0.0000000E+00;  1.0000179E+03;  1.0000000E-01;  1.4814396E+01;0;  0.0000000E+00;  0.0000000E+00;  0.0000000E+00;0;  2.8944185E-03;  4.0000000E+04;  0.0000000E+00;  0.0000000E+00;  4.0000000E+04;  0.0000000E+00;  4.0000000E+04;  2.9340950E-03;  0.0000000E+00; -3.9676477E-05;  2.0372113E+02;
 -1.1000000E-01;  9.9999998E-03; -2.0999999E-01;841;  0.0000000E+00;  0.0000000E+00;  0.0000000E+00;  1.0000283E+03;  1.0000000E-01;  2.3406746E+01;0;  0.0000000E+00;  0.0000000E+00;  0.0000000E+00;0;  3.0157869E-03;  4.0000000E+04;  0.0000000E+00;  0.0000000E+00;  4.0000000E+04;  0.0000000E+00;  4.0000000E+04;  3.0560023E-03;  0.0000000E+00; -4.0215513E-05;  2.1503676E+02;
 -1.1000000E-01;  9.9999998E-03; -2.0000000E-01;842;  0.0000000E+00;  0.0000000E+00;  0.0000000E+00;  1.0000357E+03;  1.0000000E-01;  2.9628792E+01;0;  0.0000000E+00;  0.0000000E+00;  0.0000000E+00;0;  3.1037750E-03;  4.0000000E+04;  0.0000000E+00;  0.0000000E+00;  4.0000000E+04;  0.0000000E+00;  4.0000000E+04;  3.1409282E-03;  0.0000000E+00; -3.7153190E-05;  2.1905634E+02;
 -1.1000000E-01;  9.9999998E-03; -1.9000000E-01;843;  0.0000000E+00;  0.0000000E+00;  0.0000000E+00;  1.0000530E+03;  1.0000000E-01;  4.3850613E+01;0;  0.0000000E+00;  0.0000000E+00;  0.0000000E+00;0;  3.1633077E-03;  4.0000000E+04;  0.0000000E+00;  0.0000000E+00;  4.0000000E+04;  0.0000000E+00;  4.0000000E+04;  3.1951156E-03;  0.0000000E+00; -3.1807860E-05;  2.1813522E+02;
 -1.1000000E-01;  9.9999998E-03; -1.8000001E-01;844;  0.0000000E+00;  0.0000000E+00;  0.0000000E+00;  1.0000607E+03;  1.0000000E-01;  5.0270184E+01;0;  0.0000000E+00;  0.0000000E+00;  0.0000000E+00;0;  3.2002579E-03;  4.0000000E+04;  0.0000000E+00;  0.0000000E+00;  4.0000000E+04;  0.0000000E+00;  4.0000000E+04;  3.2259009E-03;  0.0000000E+00; -2.5642947E-05;  2.1458397E+02;
 -1.1000000E-01;  9.9999998E-03; -1.7000000E-01;845;  0.0000000E+00;  0.0000000E+00;  0.0000000E+00;  1.0000768E+03;  1.0000000E-01;  6.3701900E+01;0;  0.0000000E+00;  0.0000000E+00;  0.0000000E+00;0;  3.2205002E-03;  4.0000000E+04;  0.0000000E+00;  0.0000000E+00;  4.0000000E+04;  0.0000000E+00;  4.0000000E+04;  3.2404149E-03;  0.0000000E+00; -1.9914765E-05;  2.1022720E+02;
 -1.1000000E-01;  9.9999998E-03; -1.6000000E-01;846;  0.0000000E+00;  0.0000000E+00;  0.0000000E+00;  1.0000833E+03;  1.0000000E-01;  6.9035088E+01;0;  0.0000000E+00;  0.0000000E+00;  0.0000000E+00;0;  3.2290753E-03;  4.0000000E+04;  0.0000000E+00;  0.0000000E+00;  4.0000000E+04;  0.0000000E+00;  4.0000000E+04;  3.2444957E-03;  0.0000000E+00; -1.5420355E-05;  2.0627815E+02;
 -1.1000000E-01;  9.9999998E-03; -1.5000001E-01;847;  0.0000000E+00;  0.0000000E+00;  0.0000000E+00;  1.0000885E+03;  1.0000000E-01;  7.3281876E+01;0;  0.0000000E+00;  0.0000000E+00;  0.0000000E+00;0;  3.2297703E-03;  4.0000000E+04;  0.0000000E+00;  0.0000000E+00;  4.0000000E+04;  0.0000000E+00;  4.0000000E+04;  3.2422217E-03;  0.0000000E+00; -1.2451212E-05;  2.0328630E+02;
 -1.1000000E-01;  9.9999998E-03; -1.4000000E-01;848;  0.0000000E+00;  0.0000000E+00;  0.0000000E+00;  1.0000928E+03;  1.0000000E-01;  7.6936096E+01;0;  0.0000000E+00;  0.0000000E+00;  0.0000000E+00;0;  3.2251100E-03;  4.0000000E+04;  0.0000000E+00;  0.0000000E+00;  4.0000000E+04;  0.0000000E+00;  4.0000000E+04;  3.2359893E-03;  0.0000000E+00; -1.0879337E-05;  2.0136160E+02;
 -1.1000000E-01;  9.9999998E-03; -1.3000000E-01;849;  0.0000000E+00;  0.0000000E+00;  0.0000000E+00;  1.0001035E+03;  1.0000000E-01;  8.5725967E+01;0;  0.0000000E+00;  0.0000000E+00;  0.0000000E+00;0;  3.2165397E-03;  4.0000000E+04;  0.0000000E+00;  0.0000000E+00;  4.0000000E+04;  0.0000000E+00;  4.0000000E+04;  3.2269114E-03;  0.0000000E+00; -1.0371591E-05;  2.0044211E+02;
 -1.1000000E-01;  9.9999998E-03; -1.2000000E-01;850;  0.0000000E+00;  0.0000000E+00;  0.0000000E+00;  1.0001039E+03;  1.0000000E-01;  8.6121017E+01;0;  0.0000000E+00;  0.0000000E+00;  0.0000000E+00;0;  3.2047099E-03;  4.0000000E+04;  0.0000000E+00;  0.0000000E+00;  4.0000000E+04;  0.0000000E+00;  4.0000000E+04;  3.2152170E-03;  0.0000000E+00; -1.0507214E-05;  2.0043852E+02;
 -1.1000000E-01;  9.9999998E-03; -1.1000000E-01;851;  0.0000000E+00;  0.0000000E+00;  0.0000000E+00;  1.0001011E+03;  1.0000000E-01;  8.3750717E+01;0;  0.0000000E+00;  0.0000000E+00;  0.0000000E+00;0;  3.1898147E-03;  4.0000000E+04;  0.0000000E+00;  0.0000000E+00;  4.0000000E+04;  0.0000000E+00;  4.0000000E+04;  3.2006609E-03;  0.0000000E+00; -1.0846148E-05;  2.0126462E+02;
 -1.0000000E-01;  9.9999998E-03; -2.7000001E-01;926;  0.0000000E+00;  0.0000000E+00;  0.0000000E+00;  1.0000855E+03;  1.0000000E-01;  7.0812813E+01;0;  0.0000000E+00;  0.0000000E+00;  0.0000000E+00;0;  2.8982030E-03;  4.0000000E+04;  0.0000000E+00;  0.0000000E+00;  4.0000000E+04;  0.0000000E+00;  4.0000000E+04;  2.8612812E-03;  0.0000000E+00;  3.6921734E-05;  4.3673283E+01;
 -1.0000000E-01;  9.9999998E-03; -2.5999999E-01;927;  0.0000000E+00;  0.0000000E+00;  0.0000000E+00;  1.0000809E+03;  1.0000000E-01;  6.7059830E+01;0;  0.0000000E+00;  0.0000000E+00;  0.0000000E+00;0;  3.3278547E-03;  4.0000000E+04;  0.0000000E+00;  0.0000000E+00;  4.0000000E+04;  0.0000000E+00;  4.0000000E+04;  3.3192742E-03;  0.0000000E+00;  8.5804913E-06;  1.2194501E+02;
 -1.0000000E-01;  9.9999998E-03; -2.5000000E-01;928;  0.0000000E+00;  0.0000000E+00;  0.0000000E+00;  1.0000895E+03;  1.0000000E-01;  7.4170738E+01;0;  0.0000000E+00;  0.0000000E+00;  0.0000000E+00;0;  3.7308317E-03;  4.0000000E+04;  0.0000000E+00;  0.0000000E+00;  4.0000000E+04;  0.0000000E+00;  4.0000000E+04;  3.7502986E-03;  0.0000000E+00; -1.9467076E-05;  1.9744489E+02;
 -1.0000000E-01;  9.9999998E-03; -2.3999999E-01;929;  0.0000000E+00;  0.0000000E+00;  0.0000000E+00;  1.0000778E+03;  1.0000000E-01;  6.4393242E+01;0;  0.0000000E+00;  0.0000000E+00;  0.0000000E+00;0;  4.0940479E-03;  4.0000000E+04;  0.0000000E+00;  0.0000000E+00;  4.0000000E+04;  0.0000000E+00;  4.0000000E+04;  4.1379714E-03;  0.0000000E+00; -4.3923494E-05;  2.6281995E+02;
 -1.0000000E-01;  9.9999998E-03; -2.3000000E-01;930;  0.0000000E+00;  0.0000000E+00;  0.0000000E+00;  1.0000948E+03;  1.0000000E-01;  7.8516296E+01;0;  0.0000000E+00;  0.0000000E+00;  0.0000000E+00;0;  4.4082487E-03;  4.0000000E+04;  0.0000000E+00;  0.0000000E+00;  4.0000000E+04;  0.0000000E+00;  4.0000000E+04;  4.4704592E-03;  0.0000000E+00; -6.2210282E-05;  3.1348868E+02;
 -1.0000000E-01;  9.9999998E-03; -2.2000000E-01;931;  0.0000000E+00;  0.0000000E+00;  0.0000000E+00;  1.0001000E+03;  1.0000000E-01;  8.2861855E+01;0;  0.0000000E+00;  0.0000000E+00;  0.0000000E+00;0;  4.6685170E-03;  4.0000000E+04;  0.0000000E+00;  0.0000000E+00;  4.0000000E+04;  0.0000000E+00;  4.0000000E+04;  4.7414042E-03;  0.0000000E+00; -7.2887291E-05;  3.4752347E+02;
 -1.0000000E-01;  9.9999998E-03; -2.0999999E-01;932;  0.0000000E+00;  0.0000000E+00;  0.0000000E+00;  1.0001183E+03;  1.0000000E-01;  9.8071297E+01;0;  0.0000000E+00;  0.0000000E+00;  0.0000000E+00;0;  4.8742932E-03;  4.0000000E+04;  0.0000000E+00;  0.0000000E+00;  4.0000000E+04;  0.0000000E+00;  4.0000000E+04;  4.9501266E-03;  0.0000000E+00; -7.5833508E-05;  3.6559125E+02;
 -1.0000000E-01;  9.9999998E-03; -2.0000000E-01;933;  0.0000000E+00;  0.0000000E+00;  0.0000000E+00;  1.0001364E+03;  1.0000000E-01;  1.1298446E+02;0;  0.0000000E+00;  0.0000000E+00;  0.0000000E+00;0;  5.0288336E-03;  4.0000000E+04;  0.0000000E+00;  0.0000000E+00;  4.0000000E+04;  0.0000000E+00;  4.0000000E+04;  5.1009948E-03;  0.0000000E+00; -7.2161252E-05;  3.7046658E+02;
 -1.0000000E-01;  9.9999998E-03; -1.9000000E-01;934;  0.0000000E+00;  0.0000000E+00;  0.0000000E+00;  1.0001614E+03;  1.0000000E-01;  1.3372461E+02;0;  0.0000000E+00;  0.0000000E+00;  0.0000000E+00;0;  5.1382794E-03;  4.0000000E+04;  0.0000000E+00;  0.0000000E+00;  4.0000000E+04;  0.0000000E+00;  4.0000000E+04;  5.2021635E-03;  0.0000000E+00; -6.3883854E-05;  3.6617404E+02;
 -1.0000000E-01;  9.9999998E-03; -1.8000001E-01;935;  0.0000000E+00;  0.0000000E+00;  0.0000000E+00;  1.0001923E+03;  1.0000000E-01;  1.5930414E+02;0;  0.0000000E+00;  0.0000000E+00;  0.0000000E+00;0;  5.2104178E-03;  4.0000000E+04;  0.0000000E+00;  0.0000000E+00;  4.0000000E+04;  0.0000000E+00;  4.0000000E+04;  5.2638324E-03;  0.0000000E+00; -5.3414420E-05;  3.5696255E+02;
 -1.0000000E-01;  9.9999998E-03; -1.7000000E-01;936;  0.0000000E+00;  0.0000000E+00;  0.0000000E+00;  1.0002115E+03;  1.0000000E-01;  1.7520493E+02;0;  0.0000000E+00;  0.0000000E+00;  0.0000000E+00;0;  5.2535110E-03;  4.0000000E+04;  0.0000000E+00;  0.0000000E+00;  4.0000000E+04;  0.0000000E+00;  4.0000000E+04;  5.2965228E-03;  0.0000000E+00; -4.3011692E-05;  3.4639273E+02;
 -1.0000000E-01;  9.9999998E-03; -1.6000000E-01;937;  0.0000000E+00;  0.0000000E+00;  0.0000000E+00;  1.0002252E+03;  1.0000000E-01;  1.8656262E+02;0;  0.0000000E+00;  0.0000000E+00;  0.0000000E+00;0;  5.2751084E-03;  4.0000000E+04;  0.0000000E+00;  0.0000000E+00;  4.0000000E+04;  0.0000000E+00;  4.0000000E+04;  5.3094304E-03;  0.0000000E+00; -3.4321834E-05;  3.3691336E+02;
 -1.0000000E-01;  9.9999998E-03; -1.5000001E-01;938;  0.0000000E+00;  0.0000000E+00;  0.0000000E+00;  1.0002458E+03;  1.0000000E-01;  2.0364856E+02;0;  0.0000000E+00;  0.0000000E+00;  0.0000000E+00;0;  5.2813231E-03;  4.0000000E+04;  0.0000000E+00;  0.0000000E+00;  4.0000000E+04;  0.0000000E+00;  4.0000000E+04;  5.3094644E-03;  0.0000000E+00; -2.8141265E-05;  3.2985062E+02;
 -1.0000000E-01;  9.9999998E-03; -1.4000000E-01;939;  0.0000000E+00;  0.0000000E+00;  0.0000000E+00;  1.0002512E+03;  1.0000000E-01;  2.0809288E+02;0;  0.0000000E+00;  0.0000000E+00;  0.0000000E+00;0;  5.2765361E-03;  4.0000000E+04;  0.0000000E+00;  0.0000000E+00;  4.0000000E+04;  0.0000000E+00;  4.0000000E+04;  5.3010248E-03;  0.0000000E+00; -2.4488500E-05;  3.2556152E+02;
 -1.0000000E-01;  9.9999998E-03; -1.3000000E-01;940;  0.0000000E+00;  0.0000000E+00;  0.0000000E+00;  1.0002529E+03;  1.0000000E-01;  2.0947556E+02;0;  0.0000000E+00;  0.0000000E+00;  0.0000000E+00;0;  5.2635754E-03;  4.0000000E+04;  0.0000000E+00;  0.0000000E+00;  4.0000000E+04;  0.0000000E+00;  4.0000000E+04;  5.2864174E-03;  0.0000000E+00; -2.2842183E-05;  3.2384561E+02;
 -1.0000000E-01;  9.9999998E-03; -1.2000000E-01;941;  0.0000000E+00;  0.0000000E+00;  0.0000000E+00;  1.0002504E+03;  1.0000000E-01;  2.0740154E+02;0;  0.0000000E+00;  0.0000000E+00;  0.0000000E+00;0;  5.2440404E-03;  4.0000000E+04;  0.0000000E+00;  0.0000000E+00;  4.0000000E+04;  0.0000000E+00;  4.0000000E+04;  5.2664983E-03;  0.0000000E+00; -2.2457738E-05;  3.2430704E+02;
 -1.0000000E-01;  9.9999998E-03; -1.1000000E-01;942;  0.0000000E+00;  0.0000000E+00;  0.0000000E+00;  1.0002491E+03;  1.0000000E-01;  2.0641391E+02;0;  0.0000000E+00;  0.0000000E+00;  0.0000000E+00;0;  5.2187550E-03;  4.0000000E+04;  0.0000000E+00;  0.0000000E+00;  4.0000000E+04;  0.0000000E+00;  4.0000000E+04;  5.2412879E-03;  0.0000000E+00; -2.2532669E-05;  3.2653561E+02;
 -9.0000004E-02;  9.9999998E-03; -2.7000001E-01;1017;  0.0000000E+00;  0.0000000E+00;  0.0000000E+00;  1.0002142E+03;  1.0000000E-01;  1.7747646E+02;0;  0.0000000E+00;  0.0000000E+00;  0.0000000E+00;0;  4.3420265E-03;  4.0000000E+04;  0.0000000E+00;  0.0000000E+00;  4.0000000E+04;  0.0000000E+00;  4.0000000E+04;  4.2774286E-03;  0.0000000E+00;  6.4597800E-05;  7.3392273E+01;
 -9.0000004E-02;  9.9999998E-03; -2.5999999E-01;1018;  0.0000000E+00;  0.0000000E+00;  0.0000000E+00;  1.0002201E+03;  1.0000000E-01;  1.8231583E+02;0;  0.0000000E+00;  0.0000000E+00;  0.0000000E+00;0;  4.9650911E-03;  4.0000000E+04;  0.0000000E+00;  0.0000000E+00;  4.0000000E+04;  0.0000000E+00;  4.0000000E+04;  4.9472088E-03;  0.0000000E+00;  1.7882527E-05;  1.9482631E+02;
 -9.0000004E-02;  9.9999998E-03; -2.5000000E-01;1019;  0.0000000E+00;  0.0000000E+00;  0.0000000E+00;  1.0002241E+03;  1.0000000E-01;  1.8567377E+02;0;  0.0000000E+00;  0.0000000E+00;  0.0000000E+00;0;  5.5512669E-03;  4.0000000E+04;  0.0000000E+00;  0.0000000E+00;  4.0000000E+04;  0.0000000E+00;  4.0000000E+04;  5.5798613E-03;  0.0000000E+00; -2.8594526E-05;  3.1278537E+02;
 -9.0000004E-02;  9.9999998E-03; -2.3999999E-01;1020;  0.0000000E+00;  0.0000000E+00;  0.0000000E+00;  1.0002482E+03;  1.0000000E-01;  2.0562381E+02;0;  0.0000000E+00;  0.0000000E+00;  0.0000000E+00;0;  6.0826922E-03;  4.0000000E+04;  0.0000000E+00;  0.0000000E+00;  4.0000000E+04;  0.0000000E+00;  4.0000000E+04;  6.1524073E-03;  0.0000000E+00; -6.9715250E-05;  4.1456741E+02;
 -9.0000004E-02;  9.9999998E-03; -2.3000000E-01;1021;  0.0000000E+00;  0.0000000E+00;  0.0000000E+00;  1.0002675E+03;  1.0000000E-01;  2.2162337E+02;0;  0.0000000E+00;  0.0000000E+00;  0.0000000E+00;0;  6.5465067E-03;  4.0000000E+04;  0.0000000E+00;  0.0000000E+00;  4.0000000E+04;  0.0000000E+00;  4.0000000E+04;  6.6479179E-03;  0.0000000E+00; -1.0141107E-04;  4.9302664E+02;
 -9.0000004E-02;  9.9999998E-03; -2.2000000E-01;1022;  0.0000000E+00;  0.0000000E+00;  0.0000000E+00;  1.0002947E+03;  1.0000000E-01;  2.4414125E+02;0;  0.0000000E+00;  0.0000000E+00;  0.0000000E+00;0;  6.9355527E-03;  4.0000000E+04;  0.0000000E+00;  0.0000000E+00;  4.0000000E+04;  0.0000000E+00;  4.0000000E+04;  7.0568277E-03;  0.0000000E+00; -1.2127495E-04;  5.4509003E+02;
 -9.0000004E-02;  9.9999998E-03; -2.0999999E-01;1023;  0.0000000E+00;  0.0000000E+00;  0.0000000E+00;  1.0003224E+03;  1.0000000E-01;  2.6705417E+02;0;  0.0000000E+00;  0.0000000E+00;  0.0000000E+00;0;  7.2483490E-03;  4.0000000E+04;  0.0000000E+00;  0.0000000E+00;  4.0000000E+04;  0.0000000E+00;  4.0000000E+04;  7.3771891E-03;  0.0000000E+00; -1.2884004E-04;  5.7160284E+02;
 -9.0000004E-02;  9.9999998E-03; -2.0000000E-01;1024;  0.0000000E+00;  0.0000000E+00;  0.0000000E+00;  1.0003609E+03;  1.0000000E-01;  2.9895450E+02;0;  0.0000000E+00;  0.0000000E+00;  0.0000000E+00;0;  7.4884128E-03;  4.0000000E+04;  0.0000000E+00;  0.0000000E+00;  4.0000000E+04;  0.0000000E+00;  4.0000000E+04;  7.6139048E-03;  0.0000000E+00; -1.2549190E-04;  5.7665570E+02;
 -9.0000004E-02;  9.9999998E-03; -1.9000000E-01;1025;  0.0000000E+00;  0.0000000E+00;  0.0000000E+00;  1.0004056E+03;  1.0000000E-01;  3.3608926E+02;0;  0.0000000E+00;  0.0000000E+00;  0.0000000E+00;0;  7.6631908E-03;  4.0000000E+04;  0.0000000E+00;  0.0000000E+00;  4.0000000E+04;  0.0000000E+00;  4.0000000E+04;  7.7772462E-03;  0.0000000E+00; -1.1405550E-04;  5.6643988E+02;
 -9.0000004E-02;  9.9999998E-03; -1.8000001E-01;1026;  0.0000000E+00;  0.0000000E+00;  0.0000000E+00;  1.0004416E+03;  1.0000000E-01;  3.6581680E+02;0;  0.0000000E+00;  0.0000000E+00;  0.0000000E+00;0;  7.7825128E-03;  4.0000000E+04;  0.0000000E+00;  0.0000000E+00;  4.0000000E+04;  0.0000000E+00;  4.0000000E+04;  7.8806467E-03;  0.0000000E+00; -9.8134129E-05;  5.4785657E+02;
 -9.0000004E-02;  9.9999998E-03; -1.7000000E-01;1027;  0.0000000E+00;  0.0000000E+00;  0.0000000E+00;  1.0004748E+03;  1.0000000E-01;  3.9337158E+02;0;  0.0000000E+00;  0.0000000E+00;  0.0000000E+00;0;  7.8571485E-03;  4.0000000E+04;  0.0000000E+00;  0.0000000E+00;  4.0000000E+04;  0.0000000E+00;  4.0000000E+04;  7.9384772E-03;  0.0000000E+00; -8.1328217E-05;  5.2705804E+02;
 -9.0000004E-02;  9.9999998E-03; -1.6000000E-01;1028;  0.0000000E+00;  0.0000000E+00;  0.0000000E+00;  1.0005032E+03;  1.0000000E-01;  4.1687711E+02;0;  0.0000000E+00;  0.0000000E+00;  0.0000000E+00;0;  7.8973863E-03;  4.0000000E+04;  0.0000000E+00;  0.0000000E+00;  4.0000000E+04;  0.0000000E+00;  4.0000000E+04;  7.9638902E-03;  0.0000000E+00; -6.6504341E-05;  5.0845178E+02;
 -9.0000004E-02;  9.9999998E-03; -1.5000001E-01;1029;  0.0000000E+00;  0.0000000E+00;  0.0000000E+00;  1.0005284E+03;  1.0000000E-01;  4.3771600E+02;0;  0.0000000E+00;  0.0000000E+00;  0.0000000E+00;0;  7.9120072E-03;  4.0000000E+04;  0.0000000E+00;  0.0000000E+00;  4.0000000E+04;  0.0000000E+00;  4.0000000E+04;  7.9673231E-03;  0.0000000E+00; -5.5315464E-05;  4.9453018E+02;
 -9.0000004E-02;  9.9999998E-03; -1.4000000E-01;1030;  0.0000000E+00;  0.0000000E+00;  0.0000000E+00;  1.0005438E+03;  1.0000000E-01;  4.5055515E+02;0;  0.0000000E+00;  0.0000000E+00;  0.0000000E+00;0;  7.9077128E-03;  4.0000000E+04;  0.0000000E+00;  0.0000000E+00;  4.0000000E+04;  0.0000000E+00;  4.0000000E+04;  7.9558380E-03;  0.0000000E+00; -4.8125217E-05;  4.8612613E+02;
 -9.0000004E-02;  9.9999998E-03; -1.3000000E-01;1031;  0.0000000E+00;  0.0000000E+00;  0.0000000E+00;  1.0005541E+03;  1.0000000E-01;  4.5904874E+02;0;  0.0000000E+00;  0.0000000E+00;  0.0000000E+00;0;  7.8891246E-03;  4.0000000E+04;  0.0000000E+00;  0.0000000E+00;  4.0000000E+04;  0.0000000E+00;  4.0000000E+04;  7.9334257E-03;  0.0000000E+00; -4.4301272E-05;  4.8289938E+02;
 -9.0000004E-02;  9.9999998E-03; -1.2000000E-01;1032;  0.0000000E+00;  0.0000000E+00;  0.0000000E+00;  1.0005530E+03;  1.0000000E-01;  4.5815988E+02;0;  0.0000000E+00;  0.0000000E+00;  0.0000000E+00;0;  7.8592096E-03;  4.0000000E+04;  0.0000000E+00;  0.0000000E+00;  4.0000000E+04;  0.0000000E+00;  4.0000000E+04;  7.9018855E-03;  0.0000000E+00; -4.2676460E-05;  4.8396323E+02;
 -9.0000004E-02;  9.9999998E-03; -1.1000000E-01;1033;  0.0000000E+00;  0.0000000E+00;  0.0000000E+00;  1.0005454E+03;  1.0000000E-01;  4.5183908E+02;0;  0.0000000E+00;  0.0000000E+00;  0.0000000E+00;0;  7.8197671E-03;  4.0000000E+04;  0.0000000E+00;  0.0000000E+00;  4.0000000E+04;  0.0000000E+00;  4.0000000E+04;  7.8617083E-03;  0.0000000E+00; -4.1941094E-05;  4.8833273E+02;
 -7.9999998E-02;  9.9999998E-03; -2.7000001E-01;1108;  0.0000000E+00;  0.0000000E+00;  0.0000000E+00;  1.0004329E+03;  1.0000000E-01;  3.5860715E+02;0;  0.0000000E+00;  0.0000000E+00;  0.0000000E+00;0;  6.1100051E-03;  4.0000000E+04;  0.0000000E+00;  0.0000000E+00;  4.0000000E+04;  0.0000000E+00;  4.0000000E+04;  6.0050036E-03;  0.0000000E+00;  1.0500146E-04;  1.1810634E+02;
 -7.9999998E-02;  9.9999998E-03; -2.5999999E-01;1109;  0.0000000E+00;  0.0000000E+00;  0.0000000E+00;  1.0004593E+03;  1.0000000E-01;  3.8053244E+02;0;  0.0000000E+00;  0.0000000E+00;  0.0000000E+00;0;  6.9618481E-03;  4.0000000E+04;  0.0000000E+00;  0.0000000E+00;  4.0000000E+04;  0.0000000E+00;  4.0000000E+04;  6.9287084E-03;  0.0000000E+00;  3.3139626E-05;  2.9339392E+02;
 -7.9999998E-02;  9.9999998E-03; -2.5000000E-01;1110;  0.0000000E+00;  0.0000000E+00;  0.0000000E+00;  1.0004913E+03;  1.0000000E-01;  4.0709961E+02;0;  0.0000000E+00;  0.0000000E+00;  0.0000000E+00;0;  7.7639138E-03;  4.0000000E+04;  0.0000000E+00;  0.0000000E+00;  4.0000000E+04;  0.0000000E+00;  4.0000000E+04;  7.8025358E-03;  0.0000000E+00; -3.8621769E-05;  4.6547348E+02;
 -7.9999998E-02;  9.9999998E-03; -2.3999999E-01;1111;  0.0000000E+00;  0.0000000E+00;  0.0000000E+00;  1.0005294E+03;  1.0000000E-01;  4.3860489E+02;0;  0.0000000E+00;  0.0000000E+00;  0.0000000E+00;0;  8.4929857E-03;  4.0000000E+04;  0.0000000E+00;  0.0000000E+00;  4.0000000E+04;  0.0000000E+00;  4.0000000E+04;  8.5957553E-03;  0.0000000E+00; -1.0276980E-04;  6.1333551E+02;
 -7.9999998E-02;  9.9999998E-03; -2.3000000E-01;1112;  0.0000000E+00;  0.0000000E+00;  0.0000000E+00;  1.0005751E+03;  1.0000000E-01;  4.7652972E+02;0;  0.0000000E+00;  0.0000000E+00;  0.0000000E+00;0;  9.1323014E-03;  4.0000000E+04;  0.0000000E+00;  0.0000000E+00;  4.0000000E+04;  0.0000000E+00;  4.0000000E+04;  9.2855962E-03;  0.0000000E+00; -1.5329507E-04;  7.2646381E+02;
 -7.9999998E-02;  9.9999998E-03; -2.2000000E-01;1113;  0.0000000E+00;  0.0000000E+00;  0.0000000E+00;  1.0006226E+03;  1.0000000E-01;  5.1583728E+02;0;  0.0000000E+00;  0.0000000E+00;  0.0000000E+00;0;  9.6723698E-03;  4.0000000E+04;  0.0000000E+00;  0.0000000E+00;  4.0000000E+04;  0.0000000E+00;  4.0000000E+04;  9.8589035E-03;  0.0000000E+00; -1.8653410E-04;  8.0049323E+02;
 -7.9999998E-02;  9.9999998E-03; -2.0999999E-01;1114;  0.0000000E+00;  0.0000000E+00;  0.0000000E+00;  1.0006805E+03;  1.0000000E-01;  5.6383588E+02;0;  0.0000000E+00;  0.0000000E+00;  0.0000000E+00;0;  1.0110849E-02;  4.0000000E+04;  0.0000000E+00;  0.0000000E+00;  4.0000000E+04;  0.0000000E+00;  4.0000000E+04;  1.0312392E-02;  0.0000000E+00; -2.0154339E-04;  8.3662097E+02;
 -7.9999998E-02;  9.9999998E-03; -2.0000000E-01;1115;  0.0000000E+00;  0.0000000E+00;  0.0000000E+00;  1.0007421E+03;  1.0000000E-01;  6.1479742E+02;0;  0.0000000E+00;  0.0000000E+00;  0.0000000E+00;0;  1.0451766E-02;  4.0000000E+04;  0.0000000E+00;  0.0000000E+00;  4.0000000E+04;  0.0000000E+00;  4.0000000E+04;  1.0651751E-02;  0.0000000E+00; -1.9998591E-04;  8.4065118E+02;
 -7.9999998E-02;  9.9999998E-03; -1.9000000E-01;1116;  0.0000000E+00;  0.0000000E+00;  0.0000000E+00;  1.0008085E+03;  1.0000000E-01;  6.6980823E+02;0;  0.0000000E+00;  0.0000000E+00;  0.0000000E+00;0;  1.0704069E-02;  4.0000000E+04;  0.0000000E+00;  0.0000000E+00;  4.0000000E+04;  0.0000000E+00;  4.0000000E+04;  1.0889675E-02;  0.0000000E+00; -1.8560523E-04;  8.2149121E+02;
 -7.9999998E-02;  9.9999998E-03; -1.8000001E-01;1117;  0.0000000E+00;  0.0000000E+00;  0.0000000E+00;  1.0008714E+03;  1.0000000E-01;  7.2195490E+02;0;  0.0000000E+00;  0.0000000E+00;  0.0000000E+00;0;  1.0879894E-02;  4.0000000E+04;  0.0000000E+00;  0.0000000E+00;  4.0000000E+04;  0.0000000E+00;  4.0000000E+04;  1.1043288E-02;  0.0000000E+00; -1.6339374E-04;  7.8928613E+02;
 -7.9999998E-02;  9.9999998E-03; -1.7000000E-01;1118;  0.0000000E+00;  0.0000000E+00;  0.0000000E+00;  1.0009283E+03;  1.0000000E-01;  7.6916345E+02;0;  0.0000000E+00;  0.0000000E+00;  0.0000000E+00;0;  1.0992731E-02;  4.0000000E+04;  0.0000000E+00;  0.0000000E+00;  4.0000000E+04;  0.0000000E+00;  4.0000000E+04;  1.1131316E-02;  0.0000000E+00; -1.3858572E-04;  7.5353912E+02;
 -7.9999998E-02;  9.9999998E-03; -1.6000000E-01;1119;  0.0000000E+00;  0.0000000E+00;  0.0000000E+00;  1.0009772E+03;  1.0000000E-01;  8.0955737E+02;0;  0.0000000E+00;  0.0000000E+00;  0.0000000E+00;0;  1.1055800E-02;  4.0000000E+04;  0.0000000E+00;  0.0000000E+00;  4.0000000E+04;  0.0000000E+00;  4.0000000E+04;  1.1171442E-02;  0.0000000E+00; -1.1564184E-04;  7.2148145E+02;
 -7.9999998E-02;  9.9999998E-03; -1.5000001E-01;1120;  0.0000000E+00;  0.0000000E+00;  0.0000000E+00;  1.0010168E+03;  1.0000000E-01;  8.4234656E+02;0;  0.0000000E+00;  0.0000000E+00;  0.0000000E+00;0;  1.1080731E-02;  4.0000000E+04;  0.0000000E+00;  0.0000000E+00;  4.0000000E+04;  0.0000000E+00;  4.0000000E+04;  1.1178182E-02;  0.0000000E+00; -9.7451855E-05;  6.9728082E+02;
 -7.9999998E-02;  9.9999998E-03; -1.4000000E-01;1121;  0.0000000E+00;  0.0000000E+00;  0.0000000E+00;  1.0010381E+03;  1.0000000E-01;  8.6012384E+02;0;  0.0000000E+00;  0.0000000E+00;  0.0000000E+00;0;  1.1076782E-02;  4.0000000E+04;  0.0000000E+00;  0.0000000E+00;  4.0000000E+04;  0.0000000E+00;  4.0000000E+04;  1.1161788E-02;  0.0000000E+00; -8.5006155E-05;  6.8246417E+02;
 -7.9999998E-02;  9.9999998E-03; -1.3000000E-01;1122;  0.0000000E+00;  0.0000000E+00;  0.0000000E+00;  1.0010540E+03;  1.0000000E-01;  8.7316046E+02;0;  0.0000000E+00;  0.0000000E+00;  0.0000000E+00;0;  1.1050755E-02;  4.0000000E+04;  0.0000000E+00;  0.0000000E+00;  4.0000000E+04;  0.0000000E+00;  4.0000000E+04;  1.1128441E-02;  0.0000000E+00; -7.7685880E-05;  6.7659772E+02;
 -7.9999998E-02;  9.9999998E-03; -1.2000000E-01;1123;  0.0000000E+00;  0.0000000E+00;  0.0000000E+00;  1.0010565E+03;  1.0000000E-01;  8.7523450E+02;0;  0.0000000E+00;  0.0000000E+00;  0.0000000E+00;0;  1.1007267E-02;  4.0000000E+04;  0.0000000E+00;  0.0000000E+00;  4.0000000E+04;  0.0000000E+00;  4.0000000E+04;  1.1081127E-02;  0.0000000E+00; -7.3860669E-05;  6.7813812E+02;
 -7.9999998E-02;  9.9999998E-03; -1.1000000E-01;1124;  0.0000000E+00;  0.0000000E+00;  0.0000000E+00;  1.0010485E+03;  1.0000000E-01;  8.6861743E+02;0;  0.0000000E+00;  0.0000000E+00;  0.0000000E+00;0;  1.0949397E-02;  4.0000000E+04;  0.0000000E+00;  0.0000000E+00;  4.0000000E+04;  0.0000000E+00;  4.0000000E+04;  1.1020967E-02;  0.0000000E+00; -7.1568989E-05;  6.8526917E+02;
 -7.0000000E-02;  9.9999998E-03; -2.7000001E-01;1199;  0.0000000E+00;  0.0000000E+00;  0.0000000E+00;  1.0007816E+03;  1.0000000E-01;  6.4748785E+02;0;  0.0000000E+00;  0.0000000E+00;  0.0000000E+00;0;  8.1625823E-03;  4.0000000E+04;  0.0000000E+00;  0.0000000E+00;  4.0000000E+04;  0.0000000E+00;  4.0000000E+04;  8.0020782E-03;  0.0000000E+00;  1.6050447E-04;  1.8096150E+02;
 -7.0000000E-02;  9.9999998E-03; -2.5999999E-01;1200;  0.0000000E+00;  0.0000000E+00;  0.0000000E+00;  1.0008430E+03;  1.0000000E-01;  6.9844940E+02;0;  0.0000000E+00;  0.0000000E+00;  0.0000000E+00;0;  9.2721777E-03;  4.0000000E+04;  0.0000000E+00;  0.0000000E+00;  4.0000000E+04;  0.0000000E+00;  4.0000000E+04;  9.2161307E-03;  0.0000000E+00;  5.6047324E-05;  4.2062427E+02;
 -7.0000000E-02;  9.9999998E-03; -2.5000000E-01;1201;  0.0000000E+00;  0.0000000E+00;  0.0000000E+00;  1.0009078E+03;  1.0000000E-01;  7.5207751E+02;0;  0.0000000E+00;  0.0000000E+00;  0.0000000E+00;0;  1.0315957E-02;  4.0000000E+04;  0.0000000E+00;  0.0000000E+00;  4.0000000E+04;  0.0000000E+00;  4.0000000E+04;  1.0364460E-02;  0.0000000E+00; -4.8502945E-05;  6.5812189E+02;
 -7.0000000E-02;  9.9999998E-03; -2.3999999E-01;1202;  0.0000000E+00;  0.0000000E+00;  0.0000000E+00;  1.0009843E+03;  1.0000000E-01;  8.1548309E+02;0;  0.0000000E+00;  0.0000000E+00;  0.0000000E+00;0;  1.1264888E-02;  4.0000000E+04;  0.0000000E+00;  0.0000000E+00;  4.0000000E+04;  0.0000000E+00;  4.0000000E+04;  1.1407469E-02;  0.0000000E+00; -1.4258173E-04;  8.6096912E+02;
 -7.0000000E-02;  9.9999998E-03; -2.3000000E-01;1203;  0.0000000E+00;  0.0000000E+00;  0.0000000E+00;  1.0010638E+03;  1.0000000E-01;  8.8135779E+02;0;  0.0000000E+00;  0.0000000E+00;  0.0000000E+00;0;  1.2098236E-02;  4.0000000E+04;  0.0000000E+00;  0.0000000E+00;  4.0000000E+04;  0.0000000E+00;  4.0000000E+04;  1.2316002E-02;  0.0000000E+00; -2.1776535E-04;  1.0145453E+03;
 -7.0000000E-02;  9.9999998E-03; -2.2000000E-01;1204;  0.0000000E+00;  0.0000000E+00;  0.0000000E+00;  1.0011467E+03;  1.0000000E-01;  9.4999780E+02;0;  0.0000000E+00;  0.0000000E+00;  0.0000000E+00;0;  1.2804295E-02;  4.0000000E+04;  0.0000000E+00;  0.0000000E+00;  4.0000000E+04;  0.0000000E+00;  4.0000000E+04;  1.3073171E-02;  0.0000000E+00; -2.6887617E-04;  1.1131992E+03;
 -7.0000000E-02;  9.9999998E-03; -2.0999999E-01;1205;  0.0000000E+00;  0.0000000E+00;  0.0000000E+00;  1.0012414E+03;  1.0000000E-01;  1.0285142E+03;0;  0.0000000E+00;  0.0000000E+00;  0.0000000E+00;0;  1.3380230E-02;  4.0000000E+04;  0.0000000E+00;  0.0000000E+00;  4.0000000E+04;  0.0000000E+00;  4.0000000E+04;  1.3674655E-02;  0.0000000E+00; -2.9442497E-04;  1.1589446E+03;
 -7.0000000E-02;  9.9999998E-03; -2.0000000E-01;1206;  0.0000000E+00;  0.0000000E+00;  0.0000000E+00;  1.0013412E+03;  1.0000000E-01;  1.1111785E+03;0;  0.0000000E+00;  0.0000000E+00;  0.0000000E+00;0;  1.3830923E-02;  4.0000000E+04;  0.0000000E+00;  0.0000000E+00;  4.0000000E+04;  0.0000000E+00;  4.0000000E+04;  1.4127340E-02;  0.0000000E+00; -2.9641797E-04;  1.1598943E+03;
 -7.0000000E-02;  9.9999998E-03; -1.9000000E-01;1207;  0.0000000E+00;  0.0000000E+00;  0.0000000E+00;  1.0014412E+03;  1.0000000E-01;  1.1939415E+03;0;  0.0000000E+00;  0.0000000E+00;  0.0000000E+00;0;  1.4167304E-02;  4.0000000E+04;  0.0000000E+00;  0.0000000E+00;  4.0000000E+04;  0.0000000E+00;  4.0000000E+04;  1.4446966E-02;  0.0000000E+00; -2.7966214E-04;  1.1282325E+03;
 -7.0000000E-02;  9.9999998E-03; -1.8000001E-01;1208;  0.0000000E+00;  0.0000000E+00;  0.0000000E+00;  1.0015367E+03;  1.0000000E-01;  1.2731492E+03;0;  0.0000000E+00;  0.0000000E+00;  0.0000000E+00;0;  1.4404145E-02;  4.0000000E+04;  0.0000000E+00;  0.0000000E+00;  4.0000000E+04;  0.0000000E+00;  4.0000000E+04;  1.4654866E-02;  0.0000000E+00; -2.5072173E-04;  1.0779364E+03;
 -7.0000000E-02;  9.9999998E-03; -1.7000000E-01;1209;  0.0000000E+00;  0.0000000E+00;  0.0000000E+00;  1.0016227E+03;  1.0000000E-01;  1.3443571E+03;0;  0.0000000E+00;  0.0000000E+00;  0.0000000E+00;0;  1.4558008E-02;  4.0000000E+04;  0.0000000E+00;  0.0000000E+00;  4.0000000E+04;  0.0000000E+00;  4.0000000E+04;  1.4774692E-02;  0.0000000E+00; -2.1668473E-04;  1.0223567E+03;
 -7.0000000E-02;  9.9999998E-03; -1.6000000E-01;1210;  0.0000000E+00;  0.0000000E+00;  0.0000000E+00;  1.0017002E+03;  1.0000000E-01;  1.4085527E+03;0;  0.0000000E+00;  0.0000000E+00;  0.0000000E+00;0;  1.4645161E-02;  4.0000000E+04;  0.0000000E+00;  0.0000000E+00;  4.0000000E+04;  0.0000000E+00;  4.0000000E+04;  1.4829053E-02;  0.0000000E+00; -1.8389151E-04;  9.7216345E+02;
 -7.0000000E-02;  9.9999998E-03; -1.5000001E-01;1211;  0.0000000E+00;  0.0000000E+00;  0.0000000E+00;  1.0017524E+03;  1.0000000E-01;  1.4518108E+03;0;  0.0000000E+00;  0.0000000E+00;  0.0000000E+00;0;  1.4680188E-02;  4.0000000E+04;  0.0000000E+00;  0.0000000E+00;  4.0000000E+04;  0.0000000E+00;  4.0000000E+04;  1.4837009E-02;  0.0000000E+00; -1.5682045E-04;  9.3387537E+02;
 -7.0000000E-02;  9.9999998E-03; -1.4000000E-01;1212;  0.0000000E+00;  0.0000000E+00;  0.0000000E+00;  1.0017946E+03;  1.0000000E-01;  1.4867727E+03;0;  0.0000000E+00;  0.0000000E+00;  0.0000000E+00;0;  1.4675058E-02;  4.0000000E+04;  0.0000000E+00;  0.0000000E+00;  4.0000000E+04;  0.0000000E+00;  4.0000000E+04;  1.4812486E-02;  0.0000000E+00; -1.3742752E-04;  9.0992633E+02;
 -7.0000000E-02;  9.9999998E-03; -1.3000000E-01;1213;  0.0000000E+00;  0.0000000E+00;  0.0000000E+00;  1.0018218E+03;  1.0000000E-01;  1.5092906E+03;0;  0.0000000E+00;  0.0000000E+00;  0.0000000E+00;0;  1.4638809E-02;  4.0000000E+04;  0.0000000E+00;  0.0000000E+00;  4.0000000E+04;  0.0000000E+00;  4.0000000E+04;  1.4764062E-02;  0.0000000E+00; -1.2525322E-04;  8.9983484E+02;
 -7.0000000E-02;  9.9999998E-03; -1.2000000E-01;1214;  0.0000000E+00;  0.0000000E+00;  0.0000000E+00;  1.0018262E+03;  1.0000000E-01;  1.5129448E+03;0;  0.0000000E+00;  0.0000000E+00;  0.0000000E+00;0;  1.4577895E-02;  4.0000000E+04;  0.0000000E+00;  0.0000000E+00;  4.0000000E+04;  0.0000000E+00;  4.0000000E+04;  1.4696125E-02;  0.0000000E+00; -1.1822963E-04;  9.0130847E+02;
 -7.0000000E-02;  9.9999998E-03; -1.1000000E-01;1215;  0.0000000E+00;  0.0000000E+00;  0.0000000E+00;  1.0018241E+03;  1.0000000E-01;  1.5112659E+03;0;  0.0000000E+00;  0.0000000E+00;  0.0000000E+00;0;  1.4496839E-02;  4.0000000E+04;  0.0000000E+00;  0.0000000E+00;  4.0000000E+04;  0.0000000E+00;  4.0000000E+04;  1.4610450E-02;  0.0000000E+00; -1.1361157E-04;  9.1147388E+02;
 -5.9999999E-02;  9.9999998E-03; -2.7000001E-01;1290;  0.0000000E+00;  0.0000000E+00;  0.0000000E+00;  1.0012866E+03;  1.0000000E-01;  1.0659452E+03;0;  0.0000000E+00;  0.0000000E+00;  0.0000000E+00;0;  1.0414224E-02;  4.0000000E+04;  0.0000000E+00;  0.0000000E+00;  4.0000000E+04;  0.0000000E+00;  4.0000000E+04;  1.0181697E-02;  0.0000000E+00;  2.3252713E-04;  2.6173291E+02;
 -5.9999999E-02;  9.9999998E-03; -2.5999999E-01;1291;  0.0000000E+00;  0.0000000E+00;  0.0000000E+00;  1.0014053E+03;  1.0000000E-01;  1.1642140E+03;0;  0.0000000E+00;  0.0000000E+00;  0.0000000E+00;0;  1.1798844E-02;  4.0000000E+04;  0.0000000E+00;  0.0000000E+00;  4.0000000E+04;  0.0000000E+00;  4.0000000E+04;  1.1711087E-02;  0.0000000E+00;  8.7756467E-05;  5.7675848E+02;
 -5.9999999E-02;  9.9999998E-03; -2.5000000E-01;1292;  0.0000000E+00;  0.0000000E+00;  0.0000000E+00;  1.0015231E+03;  1.0000000E-01;  1.2618903E+03;0;  0.0000000E+00;  0.0000000E+00;  0.0000000E+00;0;  1.3098081E-02;  4.0000000E+04;  0.0000000E+00;  0.0000000E+00;  4.0000000E+04;  0.0000000E+00;  4.0000000E+04;  1.3155332E-02;  0.0000000E+00; -5.7250822E-05;  8.8994641E+02;
 -5.9999999E-02;  9.9999998E-03; -2.3999999E-01;1293;  0.0000000E+00;  0.0000000E+00;  0.0000000E+00;  1.0016473E+03;  1.0000000E-01;  1.3648009E+03;0;  0.0000000E+00;  0.0000000E+00;  0.0000000E+00;0;  1.4276977E-02;  4.0000000E+04;  0.0000000E+00;  0.0000000E+00;  4.0000000E+04;  0.0000000E+00;  4.0000000E+04;  1.4465111E-02;  0.0000000E+00; -1.8813447E-04;  1.1549342E+03;
 -5.9999999E-02;  9.9999998E-03; -2.3000000E-01;1294;  0.0000000E+00;  0.0000000E+00;  0.0000000E+00;  1.0017792E+03;  1.0000000E-01;  1.4740323E+03;0;  0.0000000E+00;  0.0000000E+00;  0.0000000E+00;0;  1.5311063E-02;  4.0000000E+04;  0.0000000E+00;  0.0000000E+00;  4.0000000E+04;  0.0000000E+00;  4.0000000E+04;  1.5604654E-02;  0.0000000E+00; -2.9359109E-04;  1.3525280E+03;
 -5.9999999E-02;  9.9999998E-03; -2.2000000E-01;1295;  0.0000000E+00;  0.0000000E+00;  0.0000000E+00;  1.0019182E+03;  1.0000000E-01;  1.5891896E+03;0;  0.0000000E+00;  0.0000000E+00;  0.0000000E+00;0;  1.6186893E-02;  4.0000000E+04;  0.0000000E+00;  0.0000000E+00;  4.0000000E+04;  0.0000000E+00;  4.0000000E+04;  1.6553644E-02;  0.0000000E+00; -3.6675105E-04;  1.4762087E+03;
 -5.9999999E-02;  9.9999998E-03; -2.0999999E-01;1296;  0.0000000E+00;  0.0000000E+00;  0.0000000E+00;  1.0020626E+03;  1.0000000E-01;  1.7088899E+03;0;  0.0000000E+00;  0.0000000E+00;  0.0000000E+00;0;  1.6901661E-02;  4.0000000E+04;  0.0000000E+00;  0.0000000E+00;  4.0000000E+04;  0.0000000E+00;  4.0000000E+04;  1.7307291E-02;  0.0000000E+00; -4.0563021E-04;  1.5295902E+03;
 -5.9999999E-02;  9.9999998E-03; -2.0000000E-01;1297;  0.0000000E+00;  0.0000000E+00;  0.0000000E+00;  1.0022139E+03;  1.0000000E-01;  1.8341210E+03;0;  0.0000000E+00;  0.0000000E+00;  0.0000000E+00;0;  1.7461751E-02;  4.0000000E+04;  0.0000000E+00;  0.0000000E+00;  4.0000000E+04;  0.0000000E+00;  4.0000000E+04;  1.7874507E-02;  0.0000000E+00; -4.1275658E-04;  1.5239703E+03;
 -5.9999999E-02;  9.9999998E-03; -1.9000000E-01;1298;  0.0000000E+00;  0.0000000E+00;  0.0000000E+00;  1.0023602E+03;  1.0000000E-01;  1.9554015E+03;0;  0.0000000E+00;  0.0000000E+00;  0.0000000E+00;0;  1.7880671E-02;  4.0000000E+04;  0.0000000E+00;  0.0000000E+00;  4.0000000E+04;  0.0000000E+00;  4.0000000E+04;  1.8274898E-02;  0.0000000E+00; -3.9422780E-04;  1.4755792E+03;
 -5.9999999E-02;  9.9999998E-03; -1.8000001E-01;1299;  0.0000000E+00;  0.0000000E+00;  0.0000000E+00;  1.0025003E+03;  1.0000000E-01;  2.0714475E+03;0;  0.0000000E+00;  0.0000000E+00;  0.0000000E+00;0;  1.8176354E-02;  4.0000000E+04;  0.0000000E+00;  0.0000000E+00;  4.0000000E+04;  0.0000000E+00;  4.0000000E+04;  1.8534748E-02;  0.0000000E+00; -3.5839371E-04;  1.4026453E+03;
 -5.9999999E-02;  9.9999998E-03; -1.7000000E-01;1300;  0.0000000E+00;  0.0000000E+00;  0.0000000E+00;  1.0026251E+03;  1.0000000E-01;  2.1748521E+03;0;  0.0000000E+00;  0.0000000E+00;  0.0000000E+00;0;  1.8368701E-02;  4.0000000E+04;  0.0000000E+00;  0.0000000E+00;  4.0000000E+04;  0.0000000E+00;  4.0000000E+04;  1.8683076E-02;  0.0000000E+00; -3.1437594E-04;  1.3226643E+03;
 -5.9999999E-02;  9.9999998E-03; -1.6000000E-01;1301;  0.0000000E+00;  0.0000000E+00;  0.0000000E+00;  1.0027341E+03;  1.0000000E-01;  2.2651211E+03;0;  0.0000000E+00;  0.0000000E+00;  0.0000000E+00;0;  1.8477198E-02;  4.0000000E+04;  0.0000000E+00;  0.0000000E+00;  4.0000000E+04;  0.0000000E+00;  4.0000000E+04;  1.8747758E-02;  0.0000000E+00; -2.7056099E-04;  1.2499795E+03;
 -5.9999999E-02;  9.9999998E-03; -1.5000001E-01;1302;  0.0000000E+00;  0.0000000E+00;  0.0000000E+00;  1.0028183E+03;  1.0000000E-01;  2.3349463E+03;0;  0.0000000E+00;  0.0000000E+00;  0.0000000E+00;0;  1.8519355E-02;  4.0000000E+04;  0.0000000E+00;  0.0000000E+00;  4.0000000E+04;  0.0000000E+00;  4.0000000E+04;  1.8752597E-02;  0.0000000E+00; -2.3324227E-04;  1.1938251E+03;
 -5.9999999E-02;  9.9999998E-03; -1.4000000E-01;1303;  0.0000000E+00;  0.0000000E+00;  0.0000000E+00;  1.0028799E+03;  1.0000000E-01;  2.3859077E+03;0;  0.0000000E+00;  0.0000000E+00;  0.0000000E+00;0;  1.8509643E-02;  4.0000000E+04;  0.0000000E+00;  0.0000000E+00;  4.0000000E+04;  0.0000000E+00;  4.0000000E+04;  1.8715275E-02;  0.0000000E+00; -2.0563224E-04;  1.1579081E+03;
 -5.9999999E-02;  9.9999998E-03; -1.3000000E-01;1304;  0.0000000E+00;  0.0000000E+00;  0.0000000E+00;  1.0029135E+03;  1.0000000E-01;  2.4137588E+03;0;  0.0000000E+00;  0.0000000E+00;  0.0000000E+00;0;  1.8459279E-02;  4.0000000E+04;  0.0000000E+00;  0.0000000E+00;  4.0000000E+04;  0.0000000E+00;  4.0000000E+04;  1.8646920E-02;  0.0000000E+00; -1.8764040E-04;  1.1416797E+03;
 -5.9999999E-02;  9.9999998E-03; -1.2000000E-01;1305;  0.0000000E+00;  0.0000000E+00;  0.0000000E+00;  1.0029296E+03;  1.0000000E-01;  2.4270918E+03;0;  0.0000000E+00;  0.0000000E+00;  0.0000000E+00;0;  1.8376524E-02;  4.0000000E+04;  0.0000000E+00;  0.0000000E+00;  4.0000000E+04;  0.0000000E+00;  4.0000000E+04;  1.8553289E-02;  0.0000000E+00; -1.7676546E-04;  1.1420392E+03;
 -5.9999999E-02;  9.9999998E-03; -1.1000000E-01;1306;  0.0000000E+00;  0.0000000E+00;  0.0000000E+00;  1.0029301E+03;  1.0000000E-01;  2.4275857E+03;0;  0.0000000E+00;  0.0000000E+00;  0.0000000E+00;0;  1.8267352E-02;  4.0000000E+04;  0.0000000E+00;  0.0000000E+00;  4.0000000E+04;  0.0000000E+00;  4.0000000E+04;  1.8436721E-02;  0.0000000E+00; -1.6936882E-04;  1.1549390E+03;
 -5.0000001E-02;  9.9999998E-03; -2.7000001E-01;1381;  0.0000000E+00;  0.0000000E+00;  0.0000000E+00;  1.0019896E+03;  1.0000000E-01;  1.6483484E+03;0;  0.0000000E+00;  0.0000000E+00;  0.0000000E+00;0;  1.2725387E-02;  4.0000000E+04;  0.0000000E+00;  0.0000000E+00;  4.0000000E+04;  0.0000000E+00;  4.0000000E+04;  1.2404472E-02;  0.0000000E+00;  3.2091475E-04;  3.5583459E+02;
 -5.0000001E-02;  9.9999998E-03; -2.5999999E-01;1382;  0.0000000E+00;  0.0000000E+00;  0.0000000E+00;  1.0021739E+03;  1.0000000E-01;  1.8010355E+03;0;  0.0000000E+00;  0.0000000E+00;  0.0000000E+00;0;  1.4383868E-02;  4.0000000E+04;  0.0000000E+00;  0.0000000E+00;  4.0000000E+04;  0.0000000E+00;  4.0000000E+04;  1.4255538E-02;  0.0000000E+00;  1.2833079E-04;  7.5812561E+02;
 -5.0000001E-02;  9.9999998E-03; -2.5000000E-01;1383;  0.0000000E+00;  0.0000000E+00;  0.0000000E+00;  1.0023671E+03;  1.0000000E-01;  1.9610310E+03;0;  0.0000000E+00;  0.0000000E+00;  0.0000000E+00;0;  1.5933841E-02;  4.0000000E+04;  0.0000000E+00;  0.0000000E+00;  4.0000000E+04;  0.0000000E+00;  4.0000000E+04;  1.5998201E-02;  0.0000000E+00; -6.4359134E-05;  1.1555951E+03;
 -5.0000001E-02;  9.9999998E-03; -2.3999999E-01;1384;  0.0000000E+00;  0.0000000E+00;  0.0000000E+00;  1.0025576E+03;  1.0000000E-01;  2.1189524E+03;0;  0.0000000E+00;  0.0000000E+00;  0.0000000E+00;0;  1.7335029E-02;  4.0000000E+04;  0.0000000E+00;  0.0000000E+00;  4.0000000E+04;  0.0000000E+00;  4.0000000E+04;  1.7573206E-02;  0.0000000E+00; -2.3817708E-04;  1.4870233E+03;
 -5.0000001E-02;  9.9999998E-03; -2.3000000E-01;1385;  0.0000000E+00;  0.0000000E+00;  0.0000000E+00;  1.0027598E+03;  1.0000000E-01;  2.2864539E+03;0;  0.0000000E+00;  0.0000000E+00;  0.0000000E+00;0;  1.8559815E-02;  4.0000000E+04;  0.0000000E+00;  0.0000000E+00;  4.0000000E+04;  0.0000000E+00;  4.0000000E+04;  1.8938346E-02;  0.0000000E+00; -3.7853132E-04;  1.7287726E+03;
 -5.0000001E-02;  9.9999998E-03; -2.2000000E-01;1386;  0.0000000E+00;  0.0000000E+00;  0.0000000E+00;  1.0029693E+03;  1.0000000E-01;  2.4599797E+03;0;  0.0000000E+00;  0.0000000E+00;  0.0000000E+00;0;  1.9593827E-02;  4.0000000E+04;  0.0000000E+00;  0.0000000E+00;  4.0000000E+04;  0.0000000E+00;  4.0000000E+04;  2.0070663E-02;  0.0000000E+00; -4.7683498E-04;  1.8744005E+03;
 -5.0000001E-02;  9.9999998E-03; -2.0999999E-01;1387;  0.0000000E+00;  0.0000000E+00;  0.0000000E+00;  1.0031813E+03;  1.0000000E-01;  2.6356785E+03;0;  0.0000000E+00;  0.0000000E+00;  0.0000000E+00;0;  2.0435205E-02;  4.0000000E+04;  0.0000000E+00;  0.0000000E+00;  4.0000000E+04;  0.0000000E+00;  4.0000000E+04;  2.0966031E-02;  0.0000000E+00; -5.3082570E-04;  1.9304874E+03;
 -5.0000001E-02;  9.9999998E-03; -2.0000000E-01;1388;  0.0000000E+00;  0.0000000E+00;  0.0000000E+00;  1.0033997E+03;  1.0000000E-01;  2.8165129E+03;0;  0.0000000E+00;  0.0000000E+00;  0.0000000E+00;0;  2.1092646E-02;  4.0000000E+04;  0.0000000E+00;  0.0000000E+00;  4.0000000E+04;  0.0000000E+00;  4.0000000E+04;  2.1636534E-02;  0.0000000E+00; -5.4388953E-04;  1.9127728E+03;
 -5.0000001E-02;  9.9999998E-03; -1.9000000E-01;1389;  0.0000000E+00;  0.0000000E+00;  0.0000000E+00;  1.0036102E+03;  1.0000000E-01;  2.9910266E+03;0;  0.0000000E+00;  0.0000000E+00;  0.0000000E+00;0;  2.1582915E-02;  4.0000000E+04;  0.0000000E+00;  0.0000000E+00;  4.0000000E+04;  0.0000000E+00;  4.0000000E+04;  2.2106661E-02;  0.0000000E+00; -5.2374578E-04;  1.8423867E+03;
 -5.0000001E-02;  9.9999998E-03; -1.8000001E-01;1390;  0.0000000E+00;  0.0000000E+00;  0.0000000E+00;  1.0038048E+03;  1.0000000E-01;  3.1522070E+03;0;  0.0000000E+00;  0.0000000E+00;  0.0000000E+00;0;  2.1927526E-02;  4.0000000E+04;  0.0000000E+00;  0.0000000E+00;  4.0000000E+04;  0.0000000E+00;  4.0000000E+04;  2.2408333E-02;  0.0000000E+00; -4.8080663E-04;  1.7422704E+03;
 -5.0000001E-02;  9.9999998E-03; -1.7000000E-01;1391;  0.0000000E+00;  0.0000000E+00;  0.0000000E+00;  1.0039812E+03;  1.0000000E-01;  3.2983757E+03;0;  0.0000000E+00;  0.0000000E+00;  0.0000000E+00;0;  2.2149971E-02;  4.0000000E+04;  0.0000000E+00;  0.0000000E+00;  4.0000000E+04;  0.0000000E+00;  4.0000000E+04;  2.2576379E-02;  0.0000000E+00; -4.2640767E-04;  1.6340669E+03;
 -5.0000001E-02;  9.9999998E-03; -1.6000000E-01;1392;  0.0000000E+00;  0.0000000E+00;  0.0000000E+00;  1.0041317E+03;  1.0000000E-01;  3.4230144E+03;0;  0.0000000E+00;  0.0000000E+00;  0.0000000E+00;0;  2.2272944E-02;  4.0000000E+04;  0.0000000E+00;  0.0000000E+00;  4.0000000E+04;  0.0000000E+00;  4.0000000E+04;  2.2644024E-02;  0.0000000E+00; -3.7107963E-04;  1.5355229E+03;
 -5.0000001E-02;  9.9999998E-03; -1.5000001E-01;1393;  0.0000000E+00;  0.0000000E+00;  0.0000000E+00;  1.0042494E+03;  1.0000000E-01;  3.5204929E+03;0;  0.0000000E+00;  0.0000000E+00;  0.0000000E+00;0;  2.2316590E-02;  4.0000000E+04;  0.0000000E+00;  0.0000000E+00;  4.0000000E+04;  0.0000000E+00;  4.0000000E+04;  2.2639588E-02;  0.0000000E+00; -3.2299841E-04;  1.4585326E+03;
 -5.0000001E-02;  9.9999998E-03; -1.4000000E-01;1394;  0.0000000E+00;  0.0000000E+00;  0.0000000E+00;  1.0043328E+03;  1.0000000E-01;  3.5896270E+03;0;  0.0000000E+00;  0.0000000E+00;  0.0000000E+00;0;  2.2297466E-02;  4.0000000E+04;  0.0000000E+00;  0.0000000E+00;  4.0000000E+04;  0.0000000E+00;  4.0000000E+04;  2.2584230E-02;  0.0000000E+00; -2.8676371E-04;  1.4081816E+03;
 -5.0000001E-02;  9.9999998E-03; -1.3000000E-01;1395;  0.0000000E+00;  0.0000000E+00;  0.0000000E+00;  1.0043880E+03;  1.0000000E-01;  3.6353540E+03;0;  0.0000000E+00;  0.0000000E+00;  0.0000000E+00;0;  2.2228511E-02;  4.0000000E+04;  0.0000000E+00;  0.0000000E+00;  4.0000000E+04;  0.0000000E+00;  4.0000000E+04;  2.2491362E-02;  0.0000000E+00; -2.6285090E-04;  1.3838474E+03;
 -5.0000001E-02;  9.9999998E-03; -1.2000000E-01;1396;  0.0000000E+00;  0.0000000E+00;  0.0000000E+00;  1.0044137E+03;  1.0000000E-01;  3.6566868E+03;0;  0.0000000E+00;  0.0000000E+00;  0.0000000E+00;0;  2.2119535E-02;  4.0000000E+04;  0.0000000E+00;  0.0000000E+00;  4.0000000E+04;  0.0000000E+00;  4.0000000E+04;  2.2367846E-02;  0.0000000E+00; -2.4831164E-04;  1.3816036E+03;
 -5.0000001E-02;  9.9999998E-03; -1.1000000E-01;1397;  0.0000000E+00;  0.0000000E+00;  0.0000000E+00;  1.0044214E+03;  1.0000000E-01;  3.6631062E+03;0;  0.0000000E+00;  0.0000000E+00;  0.0000000E+00;0;  2.1977782E-02;  4.0000000E+04;  0.0000000E+00;  0.0000000E+00;  4.0000000E+04;  0.0000000E+00;  4.0000000E+04;  2.2216272E-02;  0.0000000E+00; -2.3848884E-04;  1.3962251E+03;
 -3.9999999E-02;  9.9999998E-03; -2.7000001E-01;1472;  0.0000000E+00;  0.0000000E+00;  0.0000000E+00;  1.0028925E+03;  1.0000000E-01;  2.3963767E+03;0;  0.0000000E+00;  0.0000000E+00;  0.0000000E+00;0;  1.4904657E-02;  4.0000000E+04;  0.0000000E+00;  0.0000000E+00;  4.0000000E+04;  0.0000000E+00;  4.0000000E+04;  1.4481328E-02;  0.0000000E+00;  4.2332863E-04;  4.5613751E+02;
 -3.9999999E-02;  9.9999998E-03; -2.5999999E-01;1473;  0.0000000E+00;  0.0000000E+00;  0.0000000E+00;  1.0031713E+03;  1.0000000E-01;  2.6272837E+03;0;  0.0000000E+00;  0.0000000E+00;  0.0000000E+00;0;  1.6810048E-02;  4.0000000E+04;  0.0000000E+00;  0.0000000E+00;  4.0000000E+04;  0.0000000E+00;  4.0000000E+04;  1.6633825E-02;  0.0000000E+00;  1.7622267E-04;  9.5785645E+02;
 -3.9999999E-02;  9.9999998E-03; -2.5000000E-01;1474;  0.0000000E+00;  0.0000000E+00;  0.0000000E+00;  1.0034478E+03;  1.0000000E-01;  2.8564131E+03;0;  0.0000000E+00;  0.0000000E+00;  0.0000000E+00;0;  1.8581312E-02;  4.0000000E+04;  0.0000000E+00;  0.0000000E+00;  4.0000000E+04;  0.0000000E+00;  4.0000000E+04;  1.8651485E-02;  0.0000000E+00; -7.0173701E-05;  1.4452347E+03;
 -3.9999999E-02;  9.9999998E-03; -2.3999999E-01;1475;  0.0000000E+00;  0.0000000E+00;  0.0000000E+00;  1.0037311E+03;  1.0000000E-01;  3.0911719E+03;0;  0.0000000E+00;  0.0000000E+00;  0.0000000E+00;0;  2.0174032E-02;  4.0000000E+04;  0.0000000E+00;  0.0000000E+00;  4.0000000E+04;  0.0000000E+00;  4.0000000E+04;  2.0465456E-02;  0.0000000E+00; -2.9142469E-04;  1.8430825E+03;
 -3.9999999E-02;  9.9999998E-03; -2.3000000E-01;1476;  0.0000000E+00;  0.0000000E+00;  0.0000000E+00;  1.0040239E+03;  1.0000000E-01;  3.3337329E+03;0;  0.0000000E+00;  0.0000000E+00;  0.0000000E+00;0;  2.1558838E-02;  4.0000000E+04;  0.0000000E+00;  0.0000000E+00;  4.0000000E+04;  0.0000000E+00;  4.0000000E+04;  2.2028251E-02;  0.0000000E+00; -4.6941210E-04;  2.1242266E+03;
 -3.9999999E-02;  9.9999998E-03; -2.2000000E-01;1477;  0.0000000E+00;  0.0000000E+00;  0.0000000E+00;  1.0043221E+03;  1.0000000E-01;  3.5808369E+03;0;  0.0000000E+00;  0.0000000E+00;  0.0000000E+00;0;  2.2721652E-02;  4.0000000E+04;  0.0000000E+00;  0.0000000E+00;  4.0000000E+04;  0.0000000E+00;  4.0000000E+04;  2.3315690E-02;  0.0000000E+00; -5.9403863E-04;  2.2840547E+03;
 -3.9999999E-02;  9.9999998E-03; -2.0999999E-01;1478;  0.0000000E+00;  0.0000000E+00;  0.0000000E+00;  1.0046218E+03;  1.0000000E-01;  3.8291262E+03;0;  0.0000000E+00;  0.0000000E+00;  0.0000000E+00;0;  2.3662401E-02;  4.0000000E+04;  0.0000000E+00;  0.0000000E+00;  4.0000000E+04;  0.0000000E+00;  4.0000000E+04;  2.4325605E-02;  0.0000000E+00; -6.6320424E-04;  2.3339978E+03;
 -3.9999999E-02;  9.9999998E-03; -2.0000000E-01;1479;  0.0000000E+00;  0.0000000E+00;  0.0000000E+00;  1.0049178E+03;  1.0000000E-01;  4.0743540E+03;0;  0.0000000E+00;  0.0000000E+00;  0.0000000E+00;0;  2.4392910E-02;  4.0000000E+04;  0.0000000E+00;  0.0000000E+00;  4.0000000E+04;  0.0000000E+00;  4.0000000E+04;  2.5074560E-02;  0.0000000E+00; -6.8164960E-04;  2.2959500E+03;
 -3.9999999E-02;  9.9999998E-03; -1.9000000E-01;1480;  0.0000000E+00;  0.0000000E+00;  0.0000000E+00;  1.0052030E+03;  1.0000000E-01;  4.3105942E+03;0;  0.0000000E+00;  0.0000000E+00;  0.0000000E+00;0;  2.4933636E-02;  4.0000000E+04;  0.0000000E+00;  0.0000000E+00;  4.0000000E+04;  0.0000000E+00;  4.0000000E+04;  2.5592811E-02;  0.0000000E+00; -6.5917609E-04;  2.1970408E+03;
 -3.9999999E-02;  9.9999998E-03; -1.8000001E-01;1481;  0.0000000E+00;  0.0000000E+00;  0.0000000E+00;  1.0054706E+03;  1.0000000E-01;  4.5323164E+03;0;  0.0000000E+00;  0.0000000E+00;  0.0000000E+00;0;  2.5310000E-02;  4.0000000E+04;  0.0000000E+00;  0.0000000E+00;  4.0000000E+04;  0.0000000E+00;  4.0000000E+04;  2.5918581E-02;  0.0000000E+00; -6.0858030E-04;  2.0652590E+03;
 -3.9999999E-02;  9.9999998E-03; -1.7000000E-01;1482;  0.0000000E+00;  0.0000000E+00;  0.0000000E+00;  1.0057054E+03;  1.0000000E-01;  4.7267798E+03;0;  0.0000000E+00;  0.0000000E+00;  0.0000000E+00;0;  2.5549039E-02;  4.0000000E+04;  0.0000000E+00;  0.0000000E+00;  4.0000000E+04;  0.0000000E+00;  4.0000000E+04;  2.6092632E-02;  0.0000000E+00; -5.4359285E-04;  1.9260767E+03;
 -3.9999999E-02;  9.9999998E-03; -1.6000000E-01;1483;  0.0000000E+00;  0.0000000E+00;  0.0000000E+00;  1.0059014E+03;  1.0000000E-01;  4.8891455E+03;0;  0.0000000E+00;  0.0000000E+00;  0.0000000E+00;0;  2.5676258E-02;  4.0000000E+04;  0.0000000E+00;  0.0000000E+00;  4.0000000E+04;  0.0000000E+00;  4.0000000E+04;  2.6153190E-02;  0.0000000E+00; -4.7693183E-04;  1.7999945E+03;
 -3.9999999E-02;  9.9999998E-03; -1.5000001E-01;1484;  0.0000000E+00;  0.0000000E+00;  0.0000000E+00;  1.0060600E+03;  1.0000000E-01;  5.0205986E+03;0;  0.0000000E+00;  0.0000000E+00;  0.0000000E+00;0;  2.5713883E-02;  4.0000000E+04;  0.0000000E+00;  0.0000000E+00;  4.0000000E+04;  0.0000000E+00;  4.0000000E+04;  2.6132481E-02;  0.0000000E+00; -4.1859754E-04;  1.7007604E+03;
 -3.9999999E-02;  9.9999998E-03; -1.4000000E-01;1485;  0.0000000E+00;  0.0000000E+00;  0.0000000E+00;  1.0061772E+03;  1.0000000E-01;  5.1176826E+03;0;  0.0000000E+00;  0.0000000E+00;  0.0000000E+00;0;  2.5679884E-02;  4.0000000E+04;  0.0000000E+00;  0.0000000E+00;  4.0000000E+04;  0.0000000E+00;  4.0000000E+04;  2.6054407E-02;  0.0000000E+00; -3.7452180E-04;  1.6345466E+03;
 -3.9999999E-02;  9.9999998E-03; -1.3000000E-01;1486;  0.0000000E+00;  0.0000000E+00;  0.0000000E+00;  1.0062565E+03;  1.0000000E-01;  5.1834585E+03;0;  0.0000000E+00;  0.0000000E+00;  0.0000000E+00;0;  2.5588227E-02;  4.0000000E+04;  0.0000000E+00;  0.0000000E+00;  4.0000000E+04;  0.0000000E+00;  4.0000000E+04;  2.5934022E-02;  0.0000000E+00; -3.4579480E-04;  1.6005485E+03;
 -3.9999999E-02;  9.9999998E-03; -1.2000000E-01;1487;  0.0000000E+00;  0.0000000E+00;  0.0000000E+00;  1.0062949E+03;  1.0000000E-01;  5.2152598E+03;0;  0.0000000E+00;  0.0000000E+00;  0.0000000E+00;0;  2.5449546E-02;  4.0000000E+04;  0.0000000E+00;  0.0000000E+00;  4.0000000E+04;  0.0000000E+00;  4.0000000E+04;  2.5778573E-02;  0.0000000E+00; -3.2902762E-04;  1.5940211E+03;
 -3.9999999E-02;  9.9999998E-03; -1.1000000E-01;1488;  0.0000000E+00;  0.0000000E+00;  0.0000000E+00;  1.0063027E+03;  1.0000000E-01;  5.2216797E+03;0;  0.0000000E+00;  0.0000000E+00;  0.0000000E+00;0;  2.5272088E-02;  4.0000000E+04;  0.0000000E+00;  0.0000000E+00;  4.0000000E+04;  0.0000000E+00;  4.0000000E+04;  2.5590455E-02;  0.0000000E+00; -3.1836636E-04;  1.6086708E+03;
 -2.9999999E-02;  9.9999998E-03; -2.7000001E-01;1563;  0.0000000E+00;  0.0000000E+00;  0.0000000E+00;  1.0039992E+03;  1.0000000E-01;  3.3132891E+03;0;  0.0000000E+00;  0.0000000E+00;  0.0000000E+00;0;  1.6725594E-02;  4.0000000E+04;  0.0000000E+00;  0.0000000E+00;  4.0000000E+04;  0.0000000E+00;  4.0000000E+04;  1.6190935E-02;  0.0000000E+00;  5.3465884E-04;  5.5781927E+02;
 -2.9999999E-02;  9.9999998E-03; -2.5999999E-01;1564;  0.0000000E+00;  0.0000000E+00;  0.0000000E+00;  1.0043863E+03;  1.0000000E-01;  3.6339712E+03;0;  0.0000000E+00;  0.0000000E+00;  0.0000000E+00;0;  1.8819509E-02;  4.0000000E+04;  0.0000000E+00;  0.0000000E+00;  4.0000000E+04;  0.0000000E+00;  4.0000000E+04;  1.8591598E-02;  0.0000000E+00;  2.2791202E-04;  1.1685691E+03;
 -2.9999999E-02;  9.9999998E-03; -2.5000000E-01;1565;  0.0000000E+00;  0.0000000E+00;  0.0000000E+00;  1.0047693E+03;  1.0000000E-01;  3.9512957E+03;0;  0.0000000E+00;  0.0000000E+00;  0.0000000E+00;0;  2.0753408E-02;  4.0000000E+04;  0.0000000E+00;  0.0000000E+00;  4.0000000E+04;  0.0000000E+00;  4.0000000E+04;  2.0829394E-02;  0.0000000E+00; -7.5985699E-05;  1.7461383E+03;
 -2.9999999E-02;  9.9999998E-03; -2.3999999E-01;1566;  0.0000000E+00;  0.0000000E+00;  0.0000000E+00;  1.0051605E+03;  1.0000000E-01;  4.2754346E+03;0;  0.0000000E+00;  0.0000000E+00;  0.0000000E+00;0;  2.2481209E-02;  4.0000000E+04;  0.0000000E+00;  0.0000000E+00;  4.0000000E+04;  0.0000000E+00;  4.0000000E+04;  2.2827653E-02;  0.0000000E+00; -3.4644449E-04;  2.2039563E+03;
 -2.9999999E-02;  9.9999998E-03; -2.3000000E-01;1567;  0.0000000E+00;  0.0000000E+00;  0.0000000E+00;  1.0055610E+03;  1.0000000E-01;  4.6071782E+03;0;  0.0000000E+00;  0.0000000E+00;  0.0000000E+00;0;  2.3973586E-02;  4.0000000E+04;  0.0000000E+00;  0.0000000E+00;  4.0000000E+04;  0.0000000E+00;  4.0000000E+04;  2.4535486E-02;  0.0000000E+00; -5.6190032E-04;  2.5132849E+03;
 -2.9999999E-02;  9.9999998E-03; -2.2000000E-01;1568;  0.0000000E+00;  0.0000000E+00;  0.0000000E+00;  1.0059590E+03;  1.0000000E-01;  4.9369468E+03;0;  0.0000000E+00;  0.0000000E+00;  0.0000000E+00;0;  2.5217848E-02;  4.0000000E+04;  0.0000000E+00;  0.0000000E+00;  4.0000000E+04;  0.0000000E+00;  4.0000000E+04;  2.5929127E-02;  0.0000000E+00; -7.1127975E-04;  2.6737935E+03;
 -2.9999999E-02;  9.9999998E-03; -2.0999999E-01;1569;  0.0000000E+00;  0.0000000E+00;  0.0000000E+00;  1.0063602E+03;  1.0000000E-01;  5.2692832E+03;0;  0.0000000E+00;  0.0000000E+00;  0.0000000E+00;0;  2.6216630E-02;  4.0000000E+04;  0.0000000E+00;  0.0000000E+00;  4.0000000E+04;  0.0000000E+00;  4.0000000E+04;  2.7009979E-02;  0.0000000E+00; -7.9334970E-04;  2.7042812E+03;
 -2.9999999E-02;  9.9999998E-03; -2.0000000E-01;1570;  0.0000000E+00;  0.0000000E+00;  0.0000000E+00;  1.0067527E+03;  1.0000000E-01;  5.5945083E+03;0;  0.0000000E+00;  0.0000000E+00;  0.0000000E+00;0;  2.6985131E-02;  4.0000000E+04;  0.0000000E+00;  0.0000000E+00;  4.0000000E+04;  0.0000000E+00;  4.0000000E+04;  2.7800027E-02;  0.0000000E+00; -8.1489520E-04;  2.6348394E+03;
 -2.9999999E-02;  9.9999998E-03; -1.9000000E-01;1571;  0.0000000E+00;  0.0000000E+00;  0.0000000E+00;  1.0071273E+03;  1.0000000E-01;  5.9048208E+03;0;  0.0000000E+00;  0.0000000E+00;  0.0000000E+00;0;  2.7547581E-02;  4.0000000E+04;  0.0000000E+00;  0.0000000E+00;  4.0000000E+04;  0.0000000E+00;  4.0000000E+04;  2.8335894E-02;  0.0000000E+00; -7.8831299E-04;  2.4997764E+03;
 -2.9999999E-02;  9.9999998E-03; -1.8000001E-01;1572;  0.0000000E+00;  0.0000000E+00;  0.0000000E+00;  1.0074686E+03;  1.0000000E-01;  6.1875781E+03;0;  0.0000000E+00;  0.0000000E+00;  0.0000000E+00;0;  2.7933087E-02;  4.0000000E+04;  0.0000000E+00;  0.0000000E+00;  4.0000000E+04;  0.0000000E+00;  4.0000000E+04;  2.8662201E-02;  0.0000000E+00; -7.2911405E-04;  2.3322141E+03;
 -2.9999999E-02;  9.9999998E-03; -1.7000000E-01;1573;  0.0000000E+00;  0.0000000E+00;  0.0000000E+00;  1.0077740E+03;  1.0000000E-01;  6.4406079E+03;0;  0.0000000E+00;  0.0000000E+00;  0.0000000E+00;0;  2.8171683E-02;  4.0000000E+04;  0.0000000E+00;  0.0000000E+00;  4.0000000E+04;  0.0000000E+00;  4.0000000E+04;  2.8825225E-02;  0.0000000E+00; -6.5354258E-04;  2.1608352E+03;
 -2.9999999E-02;  9.9999998E-03; -1.6000000E-01;1574;  0.0000000E+00;  0.0000000E+00;  0.0000000E+00;  1.0080283E+03;  1.0000000E-01;  6.6512686E+03;0;  0.0000000E+00;  0.0000000E+00;  0.0000000E+00;0;  2.8291056E-02;  4.0000000E+04;  0.0000000E+00;  0.0000000E+00;  4.0000000E+04;  0.0000000E+00;  4.0000000E+04;  2.8867505E-02;  0.0000000E+00; -5.7644886E-04;  2.0076310E+03;
 -2.9999999E-02;  9.9999998E-03; -1.5000001E-01;1575;  0.0000000E+00;  0.0000000E+00;  0.0000000E+00;  1.0082366E+03;  1.0000000E-01;  6.8238071E+03;0;  0.0000000E+00;  0.0000000E+00;  0.0000000E+00;0;  2.8314583E-02;  4.0000000E+04;  0.0000000E+00;  0.0000000E+00;  4.0000000E+04;  0.0000000E+00;  4.0000000E+04;  2.8824069E-02;  0.0000000E+00; -5.0948473E-04;  1.8869407E+03;
 -2.9999999E-02;  9.9999998E-03; -1.4000000E-01;1576;  0.0000000E+00;  0.0000000E+00;  0.0000000E+00;  1.0083897E+03;  1.0000000E-01;  6.9507168E+03;0;  0.0000000E+00;  0.0000000E+00;  0.0000000E+00;0;  2.8260859E-02;  4.0000000E+04;  0.0000000E+00;  0.0000000E+00;  4.0000000E+04;  0.0000000E+00;  4.0000000E+04;  2.8720554E-02;  0.0000000E+00; -4.5969474E-04;  1.8051167E+03;
 -2.9999999E-02;  9.9999998E-03; -1.3000000E-01;1577;  0.0000000E+00;  0.0000000E+00;  0.0000000E+00;  1.0084869E+03;  1.0000000E-01;  7.0313071E+03;0;  0.0000000E+00;  0.0000000E+00;  0.0000000E+00;0;  2.8143657E-02;  4.0000000E+04;  0.0000000E+00;  0.0000000E+00;  4.0000000E+04;  0.0000000E+00;  4.0000000E+04;  2.8572300E-02;  0.0000000E+00; -4.2864282E-04;  1.7608954E+03;
 -2.9999999E-02;  9.9999998E-03; -1.2000000E-01;1578;  0.0000000E+00;  0.0000000E+00;  0.0000000E+00;  1.0085351E+03;  1.0000000E-01;  7.0712075E+03;0;  0.0000000E+00;  0.0000000E+00;  0.0000000E+00;0;  2.7973820E-02;  4.0000000E+04;  0.0000000E+00;  0.0000000E+00;  4.0000000E+04;  0.0000000E+00;  4.0000000E+04;  2.8386308E-02;  0.0000000E+00; -4.1248804E-04;  1.7486577E+03;
 -2.9999999E-02;  9.9999998E-03; -1.1000000E-01;1579;  0.0000000E+00;  0.0000000E+00;  0.0000000E+00;  1.0085380E+03;  1.0000000E-01;  7.0735776E+03;0;  0.0000000E+00;  0.0000000E+00;  0.0000000E+00;0;  2.7759919E-02;  4.0000000E+04;  0.0000000E+00;  0.0000000E+00;  4.0000000E+04;  0.0000000E+00;  4.0000000E+04;  2.8163906E-02;  0.0000000E+00; -4.0398675E-04;  1.7612625E+03;
 -2.0000000E-02;  9.9999998E-03; -2.7000001E-01;1654;  0.0000000E+00;  0.0000000E+00;  0.0000000E+00;  1.0052715E+03;  1.0000000E-01;  4.3673828E+03;0;  0.0000000E+00;  0.0000000E+00;  0.0000000E+00;0;  1.7957330E-02;  4.0000000E+04;  0.0000000E+00;  0.0000000E+00;  4.0000000E+04;  0.0000000E+00;  4.0000000E+04;  1.7310835E-02;  0.0000000E+00;  6.4649427E-04;  6.6378815E+02;
 -2.0000000E-02;  9.9999998E-03; -2.5999999E-01;1655;  0.0000000E+00;  0.0000000E+00;  0.0000000E+00;  1.0057876E+03;  1.0000000E-01;  4.7949263E+03;0;  0.0000000E+00;  0.0000000E+00;  0.0000000E+00;0;  2.0147325E-02;  4.0000000E+04;  0.0000000E+00;  0.0000000E+00;  4.0000000E+04;  0.0000000E+00;  4.0000000E+04;  1.9869432E-02;  0.0000000E+00;  2.7789371E-04;  1.3850948E+03;
 -2.0000000E-02;  9.9999998E-03; -2.5000000E-01;1656;  0.0000000E+00;  0.0000000E+00;  0.0000000E+00;  1.0062964E+03;  1.0000000E-01;  5.2164448E+03;0;  0.0000000E+00;  0.0000000E+00;  0.0000000E+00;0;  2.2155507E-02;  4.0000000E+04;  0.0000000E+00;  0.0000000E+00;  4.0000000E+04;  0.0000000E+00;  4.0000000E+04;  2.2239102E-02;  0.0000000E+00; -8.3596089E-05;  2.0442252E+03;
 -2.0000000E-02;  9.9999998E-03; -2.3999999E-01;1657;  0.0000000E+00;  0.0000000E+00;  0.0000000E+00;  1.0068087E+03;  1.0000000E-01;  5.6409268E+03;0;  0.0000000E+00;  0.0000000E+00;  0.0000000E+00;0;  2.3937168E-02;  4.0000000E+04;  0.0000000E+00;  0.0000000E+00;  4.0000000E+04;  0.0000000E+00;  4.0000000E+04;  2.4338176E-02;  0.0000000E+00; -4.0100922E-04;  2.5468701E+03;
 -2.0000000E-02;  9.9999998E-03; -2.3000000E-01;1658;  0.0000000E+00;  0.0000000E+00;  0.0000000E+00;  1.0073264E+03;  1.0000000E-01;  6.0697544E+03;0;  0.0000000E+00;  0.0000000E+00;  0.0000000E+00;0;  2.5464909E-02;  4.0000000E+04;  0.0000000E+00;  0.0000000E+00;  4.0000000E+04;  0.0000000E+00;  4.0000000E+04;  2.6114812E-02;  0.0000000E+00; -6.4990262E-04;  2.8655293E+03;
 -2.0000000E-02;  9.9999998E-03; -2.2000000E-01;1659;  0.0000000E+00;  0.0000000E+00;  0.0000000E+00;  1.0078407E+03;  1.0000000E-01;  6.4959150E+03;0;  0.0000000E+00;  0.0000000E+00;  0.0000000E+00;0;  2.6728349E-02;  4.0000000E+04;  0.0000000E+00;  0.0000000E+00;  4.0000000E+04;  0.0000000E+00;  4.0000000E+04;  2.7547471E-02;  0.0000000E+00; -8.1912312E-04;  3.0072427E+03;
 -2.0000000E-02;  9.9999998E-03; -2.0999999E-01;1660;  0.0000000E+00;  0.0000000E+00;  0.0000000E+00;  1.0083555E+03;  1.0000000E-01;  6.9223721E+03;0;  0.0000000E+00;  0.0000000E+00;  0.0000000E+00;0;  2.7732866E-02;  4.0000000E+04;  0.0000000E+00;  0.0000000E+00;  4.0000000E+04;  0.0000000E+00;  4.0000000E+04;  2.8642109E-02;  0.0000000E+00; -9.0924208E-04;  3.0010840E+03;
 -2.0000000E-02;  9.9999998E-03; -2.0000000E-01;1661;  0.0000000E+00;  0.0000000E+00;  0.0000000E+00;  1.0088477E+03;  1.0000000E-01;  7.3301631E+03;0;  0.0000000E+00;  0.0000000E+00;  0.0000000E+00;0;  2.8496804E-02;  4.0000000E+04;  0.0000000E+00;  0.0000000E+00;  4.0000000E+04;  0.0000000E+00;  4.0000000E+04;  2.9426657E-02;  0.0000000E+00; -9.2985301E-04;  2.8873040E+03;
 -2.0000000E-02;  9.9999998E-03; -1.9000000E-01;1662;  0.0000000E+00;  0.0000000E+00;  0.0000000E+00;  1.0093192E+03;  1.0000000E-01;  7.7207695E+03;0;  0.0000000E+00;  0.0000000E+00;  0.0000000E+00;0;  2.9047513E-02;  4.0000000E+04;  0.0000000E+00;  0.0000000E+00;  4.0000000E+04;  0.0000000E+00;  4.0000000E+04;  2.9943980E-02;  0.0000000E+00; -8.9646701E-04;  2.7081221E+03;
 -2.0000000E-02;  9.9999998E-03; -1.8000001E-01;1663;  0.0000000E+00;  0.0000000E+00;  0.0000000E+00;  1.0097443E+03;  1.0000000E-01;  8.0729570E+03;0;  0.0000000E+00;  0.0000000E+00;  0.0000000E+00;0;  2.9416870E-02;  4.0000000E+04;  0.0000000E+00;  0.0000000E+00;  4.0000000E+04;  0.0000000E+00;  4.0000000E+04;  3.0244408E-02;  0.0000000E+00; -8.2753698E-04;  2.5017302E+03;
 -2.0000000E-02;  9.9999998E-03; -1.7000000E-01;1664;  0.0000000E+00;  0.0000000E+00;  0.0000000E+00;  1.0101237E+03;  1.0000000E-01;  8.3873184E+03;0;  0.0000000E+00;  0.0000000E+00;  0.0000000E+00;0;  2.9636938E-02;  4.0000000E+04;  0.0000000E+00;  0.0000000E+00;  4.0000000E+04;  0.0000000E+00;  4.0000000E+04;  3.0378735E-02;  0.0000000E+00; -7.4179575E-04;  2.2988521E+03;
 -2.0000000E-02;  9.9999998E-03; -1.6000000E-01;1665;  0.0000000E+00;  0.0000000E+00;  0.0000000E+00;  1.0104466E+03;  1.0000000E-01;  8.6547676E+03;0;  0.0000000E+00;  0.0000000E+00;  0.0000000E+00;0;  2.9736435E-02;  4.0000000E+04;  0.0000000E+00;  0.0000000E+00;  4.0000000E+04;  0.0000000E+00;  4.0000000E+04;  3.0392451E-02;  0.0000000E+00; -6.5601565E-04;  2.1214087E+03;
 -2.0000000E-02;  9.9999998E-03; -1.5000001E-01;1666;  0.0000000E+00;  0.0000000E+00;  0.0000000E+00;  1.0107007E+03;  1.0000000E-01;  8.8653291E+03;0;  0.0000000E+00;  0.0000000E+00;  0.0000000E+00;0;  2.9738907E-02;  4.0000000E+04;  0.0000000E+00;  0.0000000E+00;  4.0000000E+04;  0.0000000E+00;  4.0000000E+04;  3.0322101E-02;  0.0000000E+00; -5.8319344E-04;  1.9826796E+03;
 -2.0000000E-02;  9.9999998E-03; -1.4000000E-01;1667;  0.0000000E+00;  0.0000000E+00;  0.0000000E+00;  1.0108843E+03;  1.0000000E-01;  9.0174238E+03;0;  0.0000000E+00;  0.0000000E+00;  0.0000000E+00;0;  2.9662123E-02;  4.0000000E+04;  0.0000000E+00;  0.0000000E+00;  4.0000000E+04;  0.0000000E+00;  4.0000000E+04;  3.0193258E-02;  0.0000000E+00; -5.3113513E-04;  1.8877686E+03;
 -2.0000000E-02;  9.9999998E-03; -1.3000000E-01;1668;  0.0000000E+00;  0.0000000E+00;  0.0000000E+00;  1.0109959E+03;  1.0000000E-01;  9.1098662E+03;0;  0.0000000E+00;  0.0000000E+00;  0.0000000E+00;0;  2.9518913E-02;  4.0000000E+04;  0.0000000E+00;  0.0000000E+00;  4.0000000E+04;  0.0000000E+00;  4.0000000E+04;  3.0020501E-02;  0.0000000E+00; -5.0158863E-04;  1.8343318E+03;
 -2.0000000E-02;  9.9999998E-03; -1.2000000E-01;1669;  0.0000000E+00;  0.0000000E+00;  0.0000000E+00;  1.0110476E+03;  1.0000000E-01;  9.1527285E+03;0;  0.0000000E+00;  0.0000000E+00;  0.0000000E+00;0;  2.9319189E-02;  4.0000000E+04;  0.0000000E+00;  0.0000000E+00;  4.0000000E+04;  0.0000000E+00;  4.0000000E+04;  2.9809356E-02;  0.0000000E+00; -4.9016537E-04;  1.8156211E+03;
 -2.0000000E-02;  9.9999998E-03; -1.1000000E-01;1670;  0.0000000E+00;  0.0000000E+00;  0.0000000E+00;  1.0110489E+03;  1.0000000E-01;  9.1538154E+03;0;  0.0000000E+00;  0.0000000E+00;  0.0000000E+00;0;  2.9071404E-02;  4.0000000E+04;  0.0000000E+00;  0.0000000E+00;  4.0000000E+04;  0.0000000E+00;  4.0000000E+04;  2.9559489E-02;  0.0000000E+00; -4.8808526E-04;  1.8239551E+03;
 -9.9999998E-03;  9.9999998E-03; -2.7000001E-01;1745;  0.0000000E+00;  0.0000000E+00;  0.0000000E+00;  1.0066705E+03;  1.0000000E-01;  5.5263623E+03;0;  0.0000000E+00;  0.0000000E+00;  0.0000000E+00;0;  1.8395377E-02;  4.0000000E+04;  0.0000000E+00;  0.0000000E+00;  4.0000000E+04;  0.0000000E+00;  4.0000000E+04;  1.7648667E-02;  0.0000000E+00;  7.4670982E-04;  7.8531787E+02;
 -9.9999998E-03;  9.9999998E-03; -2.5999999E-01;1746;  0.0000000E+00;  0.0000000E+00;  0.0000000E+00;  1.0073250E+03;  1.0000000E-01;  6.0685693E+03;0;  0.0000000E+00;  0.0000000E+00;  0.0000000E+00;0;  2.0556115E-02;  4.0000000E+04;  0.0000000E+00;  0.0000000E+00;  4.0000000E+04;  0.0000000E+00;  4.0000000E+04;  2.0236781E-02;  0.0000000E+00;  3.1933465E-04;  1.6036815E+03;
 -9.9999998E-03;  9.9999998E-03; -2.5000000E-01;1747;  0.0000000E+00;  0.0000000E+00;  0.0000000E+00;  1.0079689E+03;  1.0000000E-01;  6.6020850E+03;0;  0.0000000E+00;  0.0000000E+00;  0.0000000E+00;0;  2.2523167E-02;  4.0000000E+04;  0.0000000E+00;  0.0000000E+00;  4.0000000E+04;  0.0000000E+00;  4.0000000E+04;  2.2617234E-02;  0.0000000E+00; -9.4067931E-05;  2.3231951E+03;
 -9.9999998E-03;  9.9999998E-03; -2.3999999E-01;1748;  0.0000000E+00;  0.0000000E+00;  0.0000000E+00;  1.0086114E+03;  1.0000000E-01;  7.1344155E+03;0;  0.0000000E+00;  0.0000000E+00;  0.0000000E+00;0;  2.4256608E-02;  4.0000000E+04;  0.0000000E+00;  0.0000000E+00;  4.0000000E+04;  0.0000000E+00;  4.0000000E+04;  2.4707446E-02;  0.0000000E+00; -4.5083844E-04;  2.8453669E+03;
 -9.9999998E-03;  9.9999998E-03; -2.3000000E-01;1749;  0.0000000E+00;  0.0000000E+00;  0.0000000E+00;  1.0092549E+03;  1.0000000E-01;  7.6675361E+03;0;  0.0000000E+00;  0.0000000E+00;  0.0000000E+00;0;  2.5732130E-02;  4.0000000E+04;  0.0000000E+00;  0.0000000E+00;  4.0000000E+04;  0.0000000E+00;  4.0000000E+04;  2.6456837E-02;  0.0000000E+00; -7.2470744E-04;  3.1473652E+03;
 -9.9999998E-03;  9.9999998E-03; -2.2000000E-01;1750;  0.0000000E+00;  0.0000000E+00;  0.0000000E+00;  1.0098909E+03;  1.0000000E-01;  8.1944346E+03;0;  0.0000000E+00;  0.0000000E+00;  0.0000000E+00;0;  2.6941806E-02;  4.0000000E+04;  0.0000000E+00;  0.0000000E+00;  4.0000000E+04;  0.0000000E+00;  4.0000000E+04;  2.7847318E-02;  0.0000000E+00; -9.0551254E-04;  3.2467690E+03;
 -9.9999998E-03;  9.9999998E-03; -2.0999999E-01;1751;  0.0000000E+00;  0.0000000E+00;  0.0000000E+00;  1.0105197E+03;  1.0000000E-01;  8.7153086E+03;0;  0.0000000E+00;  0.0000000E+00;  0.0000000E+00;0;  2.7893178E-02;  4.0000000E+04;  0.0000000E+00;  0.0000000E+00;  4.0000000E+04;  0.0000000E+00;  4.0000000E+04;  2.8889738E-02;  0.0000000E+00; -9.9655893E-04;  3.1852815E+03;
 -9.9999998E-03;  9.9999998E-03; -2.0000000E-01;1752;  0.0000000E+00;  0.0000000E+00;  0.0000000E+00;  1.0111243E+03;  1.0000000E-01;  9.2163320E+03;0;  0.0000000E+00;  0.0000000E+00;  0.0000000E+00;0;  2.8606486E-02;  4.0000000E+04;  0.0000000E+00;  0.0000000E+00;  4.0000000E+04;  0.0000000E+00;  4.0000000E+04;  2.9617423E-02;  0.0000000E+00; -1.0109374E-03;  3.0144236E+03;
 -9.9999998E-03;  9.9999998E-03; -1.9000000E-01;1753;  0.0000000E+00;  0.0000000E+00;  0.0000000E+00;  1.0116905E+03;  1.0000000E-01;  9.6853555E+03;0;  0.0000000E+00;  0.0000000E+00;  0.0000000E+00;0;  2.9110761E-02;  4.0000000E+04;  0.0000000E+00;  0.0000000E+00;  4.0000000E+04;  0.0000000E+00;  4.0000000E+04;  3.0078415E-02;  0.0000000E+00; -9.6765329E-04;  2.7846465E+03;
 -9.9999998E-03;  9.9999998E-03; -1.8000001E-01;1754;  0.0000000E+00;  0.0000000E+00;  0.0000000E+00;  1.0122089E+03;  1.0000000E-01;  1.0114775E+04;0;  0.0000000E+00;  0.0000000E+00;  0.0000000E+00;0;  2.9439004E-02;  4.0000000E+04;  0.0000000E+00;  0.0000000E+00;  4.0000000E+04;  0.0000000E+00;  4.0000000E+04;  3.0327139E-02;  0.0000000E+00; -8.8813581E-04;  2.5383833E+03;
 -9.9999998E-03;  9.9999998E-03; -1.7000000E-01;1755;  0.0000000E+00;  0.0000000E+00;  0.0000000E+00;  1.0126625E+03;  1.0000000E-01;  1.0490666E+04;0;  0.0000000E+00;  0.0000000E+00;  0.0000000E+00;0;  2.9623695E-02;  4.0000000E+04;  0.0000000E+00;  0.0000000E+00;  4.0000000E+04;  0.0000000E+00;  4.0000000E+04;  3.0417066E-02;  0.0000000E+00; -7.9337123E-04;  2.3070398E+03;
 -9.9999998E-03;  9.9999998E-03; -1.6000000E-01;1756;  0.0000000E+00;  0.0000000E+00;  0.0000000E+00;  1.0130432E+03;  1.0000000E-01;  1.0806016E+04;0;  0.0000000E+00;  0.0000000E+00;  0.0000000E+00;0;  2.9693253E-02;  4.0000000E+04;  0.0000000E+00;  0.0000000E+00;  4.0000000E+04;  0.0000000E+00;  4.0000000E+04;  3.0394895E-02;  0.0000000E+00; -7.0164108E-04;  2.1108445E+03;
 -9.9999998E-03;  9.9999998E-03; -1.5000001E-01;1757;  0.0000000E+00;  0.0000000E+00;  0.0000000E+00;  1.0133370E+03;  1.0000000E-01;  1.1049465E+04;0;  0.0000000E+00;  0.0000000E+00;  0.0000000E+00;0;  2.9669799E-02;  4.0000000E+04;  0.0000000E+00;  0.0000000E+00;  4.0000000E+04;  0.0000000E+00;  4.0000000E+04;  3.0296603E-02;  0.0000000E+00; -6.2680512E-04;  1.9600944E+03;
 -9.9999998E-03;  9.9999998E-03; -1.4000000E-01;1758;  0.0000000E+00;  0.0000000E+00;  0.0000000E+00;  1.0135401E+03;  1.0000000E-01;  1.1217757E+04;0;  0.0000000E+00;  0.0000000E+00;  0.0000000E+00;0;  2.9569231E-02;  4.0000000E+04;  0.0000000E+00;  0.0000000E+00;  4.0000000E+04;  0.0000000E+00;  4.0000000E+04;  3.0146241E-02;  0.0000000E+00; -5.7701033E-04;  1.8569561E+03;
 -9.9999998E-03;  9.9999998E-03; -1.3000000E-01;1759;  0.0000000E+00;  0.0000000E+00;  0.0000000E+00;  1.0136650E+03;  1.0000000E-01;  1.1321161E+04;0;  0.0000000E+00;  0.0000000E+00;  0.0000000E+00;0;  2.9402431E-02;  4.0000000E+04;  0.0000000E+00;  0.0000000E+00;  4.0000000E+04;  0.0000000E+00;  4.0000000E+04;  2.9956257E-02;  0.0000000E+00; -5.5382570E-04;  1.7969290E+03;
 -9.9999998E-03;  9.9999998E-03; -1.2000000E-01;1760;  0.0000000E+00;  0.0000000E+00;  0.0000000E+00;  1.0137123E+03;  1.0000000E-01;  1.1360370E+04;0;  0.0000000E+00;  0.0000000E+00;  0.0000000E+00;0;  2.9177414E-02;  4.0000000E+04;  0.0000000E+00;  0.0000000E+00;  4.0000000E+04;  0.0000000E+00;  4.0000000E+04;  2.9729543E-02;  0.0000000E+00; -5.5212923E-04;  1.7717858E+03;
 -9.9999998E-03;  9.9999998E-03; -1.1000000E-01;1761;  0.0000000E+00;  0.0000000E+00;  0.0000000E+00;  1.0136976E+03;  1.0000000E-01;  1.1348223E+04;0;  0.0000000E+00;  0.0000000E+00;  0.0000000E+00;0;  2.8902119E-02;  4.0000000E+04;  0.0000000E+00;  0.0000000E+00;  4.0000000E+04;  0.0000000E+00;  4.0000000E+04;  2.9463656E-02;  0.0000000E+00; -5.6153635E-04;  1.7734590E+03;
 -1.9000000E-01;  9.9999998E-03; -1.0000000E-01;124;  0.0000000E+00;  0.0000000E+00;  0.0000000E+00;  1.0000000E+03;  1.0000000E-01;  0.0000000E+00;0;  0.0000000E+00;  0.0000000E+00;  0.0000000E+00;0;  0.0000000E+00;  4.0000000E+04;  0.0000000E+00;  0.0000000E+00;  4.0000000E+04;  0.0000000E+00;  4.0000000E+04;  0.0000000E+00;  0.0000000E+00;  0.0000000E+00;  0.0000000E+00;
 -1.9000000E-01;  9.9999998E-03; -9.0000004E-02;125;  0.0000000E+00;  0.0000000E+00;  0.0000000E+00;  1.0000000E+03;  1.0000000E-01;  0.0000000E+00;0;  0.0000000E+00;  0.0000000E+00;  0.0000000E+00;0;  0.0000000E+00;  4.0000000E+04;  0.0000000E+00;  0.0000000E+00;  4.0000000E+04;  0.0000000E+00;  4.0000000E+04;  0.0000000E+00;  0.0000000E+00;  0.0000000E+00;  0.0000000E+00;
 -1.9000000E-01;  9.9999998E-03; -7.9999998E-02;126;  0.0000000E+00;  0.0000000E+00;  0.0000000E+00;  1.0000000E+03;  1.0000000E-01;  0.0000000E+00;0;  0.0000000E+00;  0.0000000E+00;  0.0000000E+00;0;  0.0000000E+00;  4.0000000E+04;  0.0000000E+00;  0.0000000E+00;  4.0000000E+04;  0.0000000E+00;  4.0000000E+04;  0.0000000E+00;  0.0000000E+00;  0.0000000E+00;  0.0000000E+00;
 -1.9000000E-01;  9.9999998E-03; -7.0000000E-02;127;  0.0000000E+00;  0.0000000E+00;  0.0000000E+00;  1.0000000E+03;  1.0000000E-01;  0.0000000E+00;0;  0.0000000E+00;  0.0000000E+00;  0.0000000E+00;0;  0.0000000E+00;  4.0000000E+04;  0.0000000E+00;  0.0000000E+00;  4.0000000E+04;  0.0000000E+00;  4.0000000E+04;  0.0000000E+00;  0.0000000E+00;  0.0000000E+00;  0.0000000E+00;
 -1.9000000E-01;  9.9999998E-03; -5.9999999E-02;128;  0.0000000E+00;  0.0000000E+00;  0.0000000E+00;  1.0000000E+03;  1.0000000E-01;  0.0000000E+00;0;  0.0000000E+00;  0.0000000E+00;  0.0000000E+00;0;  0.0000000E+00;  4.0000000E+04;  0.0000000E+00;  0.0000000E+00;  4.0000000E+04;  0.0000000E+00;  4.0000000E+04;  0.0000000E+00;  0.0000000E+00;  0.0000000E+00;  0.0000000E+00;
 -1.9000000E-01;  9.9999998E-03; -5.0000001E-02;129;  0.0000000E+00;  0.0000000E+00;  0.0000000E+00;  1.0000000E+03;  1.0000000E-01;  0.0000000E+00;0;  0.0000000E+00;  0.0000000E+00;  0.0000000E+00;0;  0.0000000E+00;  4.0000000E+04;  0.0000000E+00;  0.0000000E+00;  4.0000000E+04;  0.0000000E+00;  4.0000000E+04;  0.0000000E+00;  0.0000000E+00;  0.0000000E+00;  0.0000000E+00;
 -1.9000000E-01;  9.9999998E-03; -3.9999999E-02;130;  0.0000000E+00;  0.0000000E+00;  0.0000000E+00;  1.0000000E+03;  1.0000000E-01;  0.0000000E+00;0;  0.0000000E+00;  0.0000000E+00;  0.0000000E+00;0;  0.0000000E+00;  4.0000000E+04;  0.0000000E+00;  0.0000000E+00;  4.0000000E+04;  0.0000000E+00;  4.0000000E+04;  0.0000000E+00;  0.0000000E+00;  0.0000000E+00;  0.0000000E+00;
 -1.9000000E-01;  9.9999998E-03; -2.9999999E-02;131;  0.0000000E+00;  0.0000000E+00;  0.0000000E+00;  1.0000000E+03;  1.0000000E-01;  0.0000000E+00;0;  0.0000000E+00;  0.0000000E+00;  0.0000000E+00;0;  0.0000000E+00;  4.0000000E+04;  0.0000000E+00;  0.0000000E+00;  4.0000000E+04;  0.0000000E+00;  4.0000000E+04;  0.0000000E+00;  0.0000000E+00;  0.0000000E+00;  0.0000000E+00;
 -1.9000000E-01;  9.9999998E-03; -2.0000000E-02;132;  0.0000000E+00;  0.0000000E+00;  0.0000000E+00;  1.0000000E+03;  1.0000000E-01;  0.0000000E+00;0;  0.0000000E+00;  0.0000000E+00;  0.0000000E+00;0;  0.0000000E+00;  4.0000000E+04;  0.0000000E+00;  0.0000000E+00;  4.0000000E+04;  0.0000000E+00;  4.0000000E+04;  0.0000000E+00;  0.0000000E+00;  0.0000000E+00;  0.0000000E+00;
 -1.9000000E-01;  9.9999998E-03; -9.9999998E-03;133;  0.0000000E+00;  0.0000000E+00;  0.0000000E+00;  1.0000000E+03;  1.0000000E-01;  0.0000000E+00;0;  0.0000000E+00;  0.0000000E+00;  0.0000000E+00;0;  0.0000000E+00;  4.0000000E+04;  0.0000000E+00;  0.0000000E+00;  4.0000000E+04;  0.0000000E+00;  4.0000000E+04;  0.0000000E+00;  0.0000000E+00;  0.0000000E+00;  0.0000000E+00;
 -1.9000000E-01;  9.9999998E-03;  0.0000000E+00;134;  0.0000000E+00;  0.0000000E+00;  0.0000000E+00;  1.0000000E+03;  1.0000000E-01;  0.0000000E+00;0;  0.0000000E+00;  0.0000000E+00;  0.0000000E+00;0;  0.0000000E+00;  4.0000000E+04;  0.0000000E+00;  0.0000000E+00;  4.0000000E+04;  0.0000000E+00;  4.0000000E+04;  0.0000000E+00;  0.0000000E+00;  0.0000000E+00;  0.0000000E+00;
 -1.9000000E-01;  9.9999998E-03;  9.9999998E-03;135;  0.0000000E+00;  0.0000000E+00;  0.0000000E+00;  1.0000000E+03;  1.0000000E-01;  0.0000000E+00;0;  0.0000000E+00;  0.0000000E+00;  0.0000000E+00;0;  0.0000000E+00;  4.0000000E+04;  0.0000000E+00;  0.0000000E+00;  4.0000000E+04;  0.0000000E+00;  4.0000000E+04;  0.0000000E+00;  0.0000000E+00;  0.0000000E+00;  0.0000000E+00;
 -1.9000000E-01;  9.9999998E-03;  2.0000000E-02;136;  0.0000000E+00;  0.0000000E+00;  0.0000000E+00;  1.0000000E+03;  1.0000000E-01;  0.0000000E+00;0;  0.0000000E+00;  0.0000000E+00;  0.0000000E+00;0;  0.0000000E+00;  4.0000000E+04;  0.0000000E+00;  0.0000000E+00;  4.0000000E+04;  0.0000000E+00;  4.0000000E+04;  0.0000000E+00;  0.0000000E+00;  0.0000000E+00;  0.0000000E+00;
 -1.9000000E-01;  9.9999998E-03;  2.9999999E-02;137;  0.0000000E+00;  0.0000000E+00;  0.0000000E+00;  1.0000000E+03;  1.0000000E-01;  0.0000000E+00;0;  0.0000000E+00;  0.0000000E+00;  0.0000000E+00;0;  0.0000000E+00;  4.0000000E+04;  0.0000000E+00;  0.0000000E+00;  4.0000000E+04;  0.0000000E+00;  4.0000000E+04;  0.0000000E+00;  0.0000000E+00;  0.0000000E+00;  0.0000000E+00;
 -1.9000000E-01;  9.9999998E-03;  3.9999999E-02;138;  0.0000000E+00;  0.0000000E+00;  0.0000000E+00;  1.0000000E+03;  1.0000000E-01;  0.0000000E+00;0;  0.0000000E+00;  0.0000000E+00;  0.0000000E+00;0;  0.0000000E+00;  4.0000000E+04;  0.0000000E+00;  0.0000000E+00;  4.0000000E+04;  0.0000000E+00;  4.0000000E+04;  0.0000000E+00;  0.0000000E+00;  0.0000000E+00;  0.0000000E+00;
 -1.9000000E-01;  9.9999998E-03;  5.0000001E-02;139;  0.0000000E+00;  0.0000000E+00;  0.0000000E+00;  1.0000000E+03;  1.0000000E-01;  0.0000000E+00;0;  0.0000000E+00;  0.0000000E+00;  0.0000000E+00;0;  0.0000000E+00;  4.0000000E+04;  0.0000000E+00;  0.0000000E+00;  4.0000000E+04;  0.0000000E+00;  4.0000000E+04;  0.0000000E+00;  0.0000000E+00;  0.0000000E+00;  0.0000000E+00;
 -1.9000000E-01;  9.9999998E-03;  5.9999999E-02;140;  0.0000000E+00;  0.0000000E+00;  0.0000000E+00;  1.0000000E+03;  1.0000000E-01;  0.0000000E+00;0;  0.0000000E+00;  0.0000000E+00;  0.0000000E+00;0;  0.0000000E+00;  4.0000000E+04;  0.0000000E+00;  0.0000000E+00;  4.0000000E+04;  0.0000000E+00;  4.0000000E+04;  0.0000000E+00;  0.0000000E+00;  0.0000000E+00;  0.0000000E+00;
 -1.8000001E-01;  9.9999998E-03; -1.0000000E-01;215;  0.0000000E+00;  0.0000000E+00;  0.0000000E+00;  1.0000000E+03;  1.0000000E-01;  0.0000000E+00;0;  0.0000000E+00;  0.0000000E+00;  0.0000000E+00;0;  0.0000000E+00;  4.0000000E+04;  0.0000000E+00;  0.0000000E+00;  4.0000000E+04;  0.0000000E+00;  4.0000000E+04;  0.0000000E+00;  0.0000000E+00;  0.0000000E+00;  0.0000000E+00;
 -1.8000001E-01;  9.9999998E-03; -9.0000004E-02;216;  0.0000000E+00;  0.0000000E+00;  0.0000000E+00;  1.0000000E+03;  1.0000000E-01;  0.0000000E+00;0;  0.0000000E+00;  0.0000000E+00;  0.0000000E+00;0;  0.0000000E+00;  4.0000000E+04;  0.0000000E+00;  0.0000000E+00;  4.0000000E+04;  0.0000000E+00;  4.0000000E+04;  0.0000000E+00;  0.0000000E+00;  0.0000000E+00;  0.0000000E+00;
 -1.8000001E-01;  9.9999998E-03; -7.9999998E-02;217;  0.0000000E+00;  0.0000000E+00;  0.0000000E+00;  1.0000000E+03;  1.0000000E-01;  0.0000000E+00;0;  0.0000000E+00;  0.0000000E+00;  0.0000000E+00;0;  0.0000000E+00;  4.0000000E+04;  0.0000000E+00;  0.0000000E+00;  4.0000000E+04;  0.0000000E+00;  4.0000000E+04;  0.0000000E+00;  0.0000000E+00;  0.0000000E+00;  0.0000000E+00;
 -1.8000001E-01;  9.9999998E-03; -7.0000000E-02;218;  0.0000000E+00;  0.0000000E+00;  0.0000000E+00;  1.0000000E+03;  1.0000000E-01;  0.0000000E+00;0;  0.0000000E+00;  0.0000000E+00;  0.0000000E+00;0;  0.0000000E+00;  4.0000000E+04;  0.0000000E+00;  0.0000000E+00;  4.0000000E+04;  0.0000000E+00;  4.0000000E+04;  0.0000000E+00;  0.0000000E+00;  0.0000000E+00;  0.0000000E+00;
 -1.8000001E-01;  9.9999998E-03; -5.9999999E-02;219;  0.0000000E+00;  0.0000000E+00;  0.0000000E+00;  1.0000000E+03;  1.0000000E-01;  0.0000000E+00;0;  0.0000000E+00;  0.0000000E+00;  0.0000000E+00;0;  0.0000000E+00;  4.0000000E+04;  0.0000000E+00;  0.0000000E+00;  4.0000000E+04;  0.0000000E+00;  4.0000000E+04;  0.0000000E+00;  0.0000000E+00;  0.0000000E+00;  0.0000000E+00;
 -1.8000001E-01;  9.9999998E-03; -5.0000001E-02;220;  0.0000000E+00;  0.0000000E+00;  0.0000000E+00;  1.0000000E+03;  1.0000000E-01;  0.0000000E+00;0;  0.0000000E+00;  0.0000000E+00;  0.0000000E+00;0;  0.0000000E+00;  4.0000000E+04;  0.0000000E+00;  0.0000000E+00;  4.0000000E+04;  0.0000000E+00;  4.0000000E+04;  0.0000000E+00;  0.0000000E+00;  0.0000000E+00;  0.0000000E+00;
 -1.8000001E-01;  9.9999998E-03; -3.9999999E-02;221;  0.0000000E+00;  0.0000000E+00;  0.0000000E+00;  1.0000000E+03;  1.0000000E-01;  0.0000000E+00;0;  0.0000000E+00;  0.0000000E+00;  0.0000000E+00;0;  0.0000000E+00;  4.0000000E+04;  0.0000000E+00;  0.0000000E+00;  4.0000000E+04;  0.0000000E+00;  4.0000000E+04;  0.0000000E+00;  0.0000000E+00;  0.0000000E+00;  0.0000000E+00;
 -1.8000001E-01;  9.9999998E-03; -2.9999999E-02;222;  0.0000000E+00;  0.0000000E+00;  0.0000000E+00;  1.0000000E+03;  1.0000000E-01;  0.0000000E+00;0;  0.0000000E+00;  0.0000000E+00;  0.0000000E+00;0;  0.0000000E+00;  4.0000000E+04;  0.0000000E+00;  0.0000000E+00;  4.0000000E+04;  0.0000000E+00;  4.0000000E+04;  0.0000000E+00;  0.0000000E+00;  0.0000000E+00;  0.0000000E+00;
 -1.8000001E-01;  9.9999998E-03; -2.0000000E-02;223;  0.0000000E+00;  0.0000000E+00;  0.0000000E+00;  1.0000000E+03;  1.0000000E-01;  0.0000000E+00;0;  0.0000000E+00;  0.0000000E+00;  0.0000000E+00;0;  0.0000000E+00;  4.0000000E+04;  0.0000000E+00;  0.0000000E+00;  4.0000000E+04;  0.0000000E+00;  4.0000000E+04;  0.0000000E+00;  0.0000000E+00;  0.0000000E+00;  0.0000000E+00;
 -1.8000001E-01;  9.9999998E-03; -9.9999998E-03;224;  0.0000000E+00;  0.0000000E+00;  0.0000000E+00;  1.0000000E+03;  1.0000000E-01;  0.0000000E+00;0;  0.0000000E+00;  0.0000000E+00;  0.0000000E+00;0;  0.0000000E+00;  4.0000000E+04;  0.0000000E+00;  0.0000000E+00;  4.0000000E+04;  0.0000000E+00;  4.0000000E+04;  0.0000000E+00;  0.0000000E+00;  0.0000000E+00;  0.0000000E+00;
 -1.8000001E-01;  9.9999998E-03;  0.0000000E+00;225;  0.0000000E+00;  0.0000000E+00;  0.0000000E+00;  1.0000000E+03;  1.0000000E-01;  0.0000000E+00;0;  0.0000000E+00;  0.0000000E+00;  0.0000000E+00;0;  0.0000000E+00;  4.0000000E+04;  0.0000000E+00;  0.0000000E+00;  4.0000000E+04;  0.0000000E+00;  4.0000000E+04;  0.0000000E+00;  0.0000000E+00;  0.0000000E+00;  0.0000000E+00;
 -1.8000001E-01;  9.9999998E-03;  9.9999998E-03;226;  0.0000000E+00;  0.0000000E+00;  0.0000000E+00;  1.0000000E+03;  1.0000000E-01;  0.0000000E+00;0;  0.0000000E+00;  0.0000000E+00;  0.0000000E+00;0;  0.0000000E+00;  4.0000000E+04;  0.0000000E+00;  0.0000000E+00;  4.0000000E+04;  0.0000000E+00;  4.0000000E+04;  0.0000000E+00;  0.0000000E+00;  0.0000000E+00;  0.0000000E+00;
 -1.8000001E-01;  9.9999998E-03;  2.0000000E-02;227;  0.0000000E+00;  0.0000000E+00;  0.0000000E+00;  1.0000000E+03;  1.0000000E-01;  0.0000000E+00;0;  0.0000000E+00;  0.0000000E+00;  0.0000000E+00;0;  0.0000000E+00;  4.0000000E+04;  0.0000000E+00;  0.0000000E+00;  4.0000000E+04;  0.0000000E+00;  4.0000000E+04;  0.0000000E+00;  0.0000000E+00;  0.0000000E+00;  0.0000000E+00;
 -1.8000001E-01;  9.9999998E-03;  2.9999999E-02;228;  0.0000000E+00;  0.0000000E+00;  0.0000000E+00;  1.0000000E+03;  1.0000000E-01;  0.0000000E+00;0;  0.0000000E+00;  0.0000000E+00;  0.0000000E+00;0;  0.0000000E+00;  4.0000000E+04;  0.0000000E+00;  0.0000000E+00;  4.0000000E+04;  0.0000000E+00;  4.0000000E+04;  0.0000000E+00;  0.0000000E+00;  0.0000000E+00;  0.0000000E+00;
 -1.8000001E-01;  9.9999998E-03;  3.9999999E-02;229;  0.0000000E+00;  0.0000000E+00;  0.0000000E+00;  1.0000000E+03;  1.0000000E-01;  0.0000000E+00;0;  0.0000000E+00;  0.0000000E+00;  0.0000000E+00;0;  0.0000000E+00;  4.0000000E+04;  0.0000000E+00;  0.0000000E+00;  4.0000000E+04;  0.0000000E+00;  4.0000000E+04;  0.0000000E+00;  0.0000000E+00;  0.0000000E+00;  0.0000000E+00;
 -1.8000001E-01;  9.9999998E-03;  5.0000001E-02;230;  0.0000000E+00;  0.0000000E+00;  0.0000000E+00;  1.0000000E+03;  1.0000000E-01;  0.0000000E+00;0;  0.0000000E+00;  0.0000000E+00;  0.0000000E+00;0;  0.0000000E+00;  4.0000000E+04;  0.0000000E+00;  0.0000000E+00;  4.0000000E+04;  0.0000000E+00;  4.0000000E+04;  0.0000000E+00;  0.0000000E+00;  0.0000000E+00;  0.0000000E+00;
 -1.8000001E-01;  9.9999998E-03;  5.9999999E-02;231;  0.0000000E+00;  0.0000000E+00;  0.0000000E+00;  1.0000000E+03;  1.0000000E-01;  0.0000000E+00;0;  0.0000000E+00;  0.0000000E+00;  0.0000000E+00;0;  0.0000000E+00;  4.0000000E+04;  0.0000000E+00;  0.0000000E+00;  4.0000000E+04;  0.0000000E+00;  4.0000000E+04;  0.0000000E+00;  0.0000000E+00;  0.0000000E+00;  0.0000000E+00;
 -1.7000000E-01;  9.9999998E-03; -1.0000000E-01;306;  0.0000000E+00;  0.0000000E+00;  0.0000000E+00;  1.0000000E+03;  1.0000000E-01;  0.0000000E+00;0;  0.0000000E+00;  0.0000000E+00;  0.0000000E+00;0;  0.0000000E+00;  4.0000000E+04;  0.0000000E+00;  0.0000000E+00;  4.0000000E+04;  0.0000000E+00;  4.0000000E+04;  0.0000000E+00;  0.0000000E+00;  0.0000000E+00;  1.9801023E-09;
 -1.7000000E-01;  9.9999998E-03; -9.0000004E-02;307;  0.0000000E+00;  0.0000000E+00;  0.0000000E+00;  1.0000000E+03;  1.0000000E-01;  0.0000000E+00;0;  0.0000000E+00;  0.0000000E+00;  0.0000000E+00;0;  0.0000000E+00;  4.0000000E+04;  0.0000000E+00;  0.0000000E+00;  4.0000000E+04;  0.0000000E+00;  4.0000000E+04;  0.0000000E+00;  0.0000000E+00;  0.0000000E+00;  1.9974504E-09;
 -1.7000000E-01;  9.9999998E-03; -7.9999998E-02;308;  0.0000000E+00;  0.0000000E+00;  0.0000000E+00;  1.0000000E+03;  1.0000000E-01;  0.0000000E+00;0;  0.0000000E+00;  0.0000000E+00;  0.0000000E+00;0;  0.0000000E+00;  4.0000000E+04;  0.0000000E+00;  0.0000000E+00;  4.0000000E+04;  0.0000000E+00;  4.0000000E+04;  0.0000000E+00;  0.0000000E+00;  0.0000000E+00;  2.0288866E-09;
 -1.7000000E-01;  9.9999998E-03; -7.0000000E-02;309;  0.0000000E+00;  0.0000000E+00;  0.0000000E+00;  1.0000000E+03;  1.0000000E-01;  0.0000000E+00;0;  0.0000000E+00;  0.0000000E+00;  0.0000000E+00;0;  0.0000000E+00;  4.0000000E+04;  0.0000000E+00;  0.0000000E+00;  4.0000000E+04;  0.0000000E+00;  4.0000000E+04;  0.0000000E+00;  0.0000000E+00;  0.0000000E+00;  2.0664868E-09;
 -1.7000000E-01;  9.9999998E-03; -5.9999999E-02;310;  0.0000000E+00;  0.0000000E+00;  0.0000000E+00;  1.0000000E+03;  1.0000000E-01;  0.0000000E+00;0;  0.0000000E+00;  0.0000000E+00;  0.0000000E+00;0;  0.0000000E+00;  4.0000000E+04;  0.0000000E+00;  0.0000000E+00;  4.0000000E+04;  0.0000000E+00;  4.0000000E+04;  0.0000000E+00;  0.0000000E+00;  0.0000000E+00;  2.0963358E-09;
 -1.7000000E-01;  9.9999998E-03; -5.0000001E-02;311;  0.0000000E+00;  0.0000000E+00;  0.0000000E+00;  1.0000000E+03;  1.0000000E-01;  0.0000000E+00;0;  0.0000000E+00;  0.0000000E+00;  0.0000000E+00;0;  0.0000000E+00;  4.0000000E+04;  0.0000000E+00;  0.0000000E+00;  4.0000000E+04;  0.0000000E+00;  4.0000000E+04;  0.0000000E+00;  0.0000000E+00;  0.0000000E+00;  2.0985100E-09;
 -1.7000000E-01;  9.9999998E-03; -3.9999999E-02;312;  0.0000000E+00;  0.0000000E+00;  0.0000000E+00;  1.0000000E+03;  1.0000000E-01;  0.0000000E+00;0;  0.0000000E+00;  0.0000000E+00;  0.0000000E+00;0;  0.0000000E+00;  4.0000000E+04;  0.0000000E+00;  0.0000000E+00;  4.0000000E+04;  0.0000000E+00;  4.0000000E+04;  0.0000000E+00;  0.0000000E+00;  0.0000000E+00;  2.0709305E-09;
 -1.7000000E-01;  9.9999998E-03; -2.9999999E-02;313;  0.0000000E+00;  0.0000000E+00;  0.0000000E+00;  1.0000000E+03;  1.0000000E-01;  0.0000000E+00;0;  0.0000000E+00;  0.0000000E+00;  0.0000000E+00;0;  0.0000000E+00;  4.0000000E+04;  0.0000000E+00;  0.0000000E+00;  4.0000000E+04;  0.0000000E+00;  4.0000000E+04;  0.0000000E+00;  0.0000000E+00;  0.0000000E+00;  2.0022204E-09;
 -1.7000000E-01;  9.9999998E-03; -2.0000000E-02;314;  0.0000000E+00;  0.0000000E+00;  0.0000000E+00;  1.0000000E+03;  1.0000000E-01;  0.0000000E+00;0;  0.0000000E+00;  0.0000000E+00;  0.0000000E+00;0;  0.0000000E+00;  4.0000000E+04;  0.0000000E+00;  0.0000000E+00;  4.0000000E+04;  0.0000000E+00;  4.0000000E+04;  0.0000000E+00;  0.0000000E+00;  0.0000000E+00;  1.8807096E-09;
 -1.7000000E-01;  9.9999998E-03; -9.9999998E-03;315;  0.0000000E+00;  0.0000000E+00;  0.0000000E+00;  1.0000000E+03;  1.0000000E-01;  0.0000000E+00;0;  0.0000000E+00;  0.0000000E+00;  0.0000000E+00;0;  0.0000000E+00;  4.0000000E+04;  0.0000000E+00;  0.0000000E+00;  4.0000000E+04;  0.0000000E+00;  4.0000000E+04;  0.0000000E+00;  0.0000000E+00;  0.0000000E+00;  1.7538491E-09;
 -1.7000000E-01;  9.9999998E-03;  0.0000000E+00;316;  0.0000000E+00;  0.0000000E+00;  0.0000000E+00;  1.0000000E+03;  1.0000000E-01;  0.0000000E+00;0;  0.0000000E+00;  0.0000000E+00;  0.0000000E+00;0;  0.0000000E+00;  4.0000000E+04;  0.0000000E+00;  0.0000000E+00;  4.0000000E+04;  0.0000000E+00;  4.0000000E+04;  0.0000000E+00;  0.0000000E+00;  0.0000000E+00;  1.6940426E-09;
 -1.7000000E-01;  9.9999998E-03;  9.9999998E-03;317;  0.0000000E+00;  0.0000000E+00;  0.0000000E+00;  1.0000000E+03;  1.0000000E-01;  0.0000000E+00;0;  0.0000000E+00;  0.0000000E+00;  0.0000000E+00;0;  0.0000000E+00;  4.0000000E+04;  0.0000000E+00;  0.0000000E+00;  4.0000000E+04;  0.0000000E+00;  4.0000000E+04;  0.0000000E+00;  0.0000000E+00;  0.0000000E+00;  1.7541210E-09;
 -1.7000000E-01;  9.9999998E-03;  2.0000000E-02;318;  0.0000000E+00;  0.0000000E+00;  0.0000000E+00;  1.0000000E+03;  1.0000000E-01;  0.0000000E+00;0;  0.0000000E+00;  0.0000000E+00;  0.0000000E+00;0;  0.0000000E+00;  4.0000000E+04;  0.0000000E+00;  0.0000000E+00;  4.0000000E+04;  0.0000000E+00;  4.0000000E+04;  0.0000000E+00;  0.0000000E+00;  0.0000000E+00;  1.8806892E-09;
 -1.7000000E-01;  9.9999998E-03;  2.9999999E-02;319;  0.0000000E+00;  0.0000000E+00;  0.0000000E+00;  1.0000000E+03;  1.0000000E-01;  0.0000000E+00;0;  0.0000000E+00;  0.0000000E+00;  0.0000000E+00;0;  0.0000000E+00;  4.0000000E+04;  0.0000000E+00;  0.0000000E+00;  4.0000000E+04;  0.0000000E+00;  4.0000000E+04;  0.0000000E+00;  0.0000000E+00;  0.0000000E+00;  2.0024555E-09;
 -1.7000000E-01;  9.9999998E-03;  3.9999999E-02;320;  0.0000000E+00;  0.0000000E+00;  0.0000000E+00;  1.0000000E+03;  1.0000000E-01;  0.0000000E+00;0;  0.0000000E+00;  0.0000000E+00;  0.0000000E+00;0;  0.0000000E+00;  4.0000000E+04;  0.0000000E+00;  0.0000000E+00;  4.0000000E+04;  0.0000000E+00;  4.0000000E+04;  0.0000000E+00;  0.0000000E+00;  0.0000000E+00;  2.0701814E-09;
 -1.7000000E-01;  9.9999998E-03;  5.0000001E-02;321;  0.0000000E+00;  0.0000000E+00;  0.0000000E+00;  1.0000000E+03;  1.0000000E-01;  0.0000000E+00;0;  0.0000000E+00;  0.0000000E+00;  0.0000000E+00;0;  0.0000000E+00;  4.0000000E+04;  0.0000000E+00;  0.0000000E+00;  4.0000000E+04;  0.0000000E+00;  4.0000000E+04;  0.0000000E+00;  0.0000000E+00;  0.0000000E+00;  2.0988598E-09;
 -1.7000000E-01;  9.9999998E-03;  5.9999999E-02;322;  0.0000000E+00;  0.0000000E+00;  0.0000000E+00;  1.0000000E+03;  1.0000000E-01;  0.0000000E+00;0;  0.0000000E+00;  0.0000000E+00;  0.0000000E+00;0;  0.0000000E+00;  4.0000000E+04;  0.0000000E+00;  0.0000000E+00;  4.0000000E+04;  0.0000000E+00;  4.0000000E+04;  0.0000000E+00;  0.0000000E+00;  0.0000000E+00;  2.0959194E-09;
 -1.6000000E-01;  9.9999998E-03; -1.0000000E-01;397;  0.0000000E+00;  0.0000000E+00;  0.0000000E+00;  1.0000000E+03;  1.0000000E-01;  0.0000000E+00;0;  0.0000000E+00;  0.0000000E+00;  0.0000000E+00;0;  1.6901660E-06;  4.0000000E+04;  0.0000000E+00;  0.0000000E+00;  4.0000000E+04;  0.0000000E+00;  4.0000000E+04;  1.6908757E-06;  0.0000000E+00; -7.0971340E-10;  2.6975411E-01;
 -1.6000000E-01;  9.9999998E-03; -9.0000004E-02;398;  0.0000000E+00;  0.0000000E+00;  0.0000000E+00;  1.0000000E+03;  1.0000000E-01;  0.0000000E+00;0;  0.0000000E+00;  0.0000000E+00;  0.0000000E+00;0;  1.6833368E-06;  4.0000000E+04;  0.0000000E+00;  0.0000000E+00;  4.0000000E+04;  0.0000000E+00;  4.0000000E+04;  1.6840961E-06;  0.0000000E+00; -7.5929890E-10;  2.6741353E-01;
 -1.6000000E-01;  9.9999998E-03; -7.9999998E-02;399;  0.0000000E+00;  0.0000000E+00;  0.0000000E+00;  1.0000000E+03;  1.0000000E-01;  0.0000000E+00;0;  0.0000000E+00;  0.0000000E+00;  0.0000000E+00;0;  1.6770222E-06;  4.0000000E+04;  0.0000000E+00;  0.0000000E+00;  4.0000000E+04;  0.0000000E+00;  4.0000000E+04;  1.6777643E-06;  0.0000000E+00; -7.4212286E-10;  2.6623890E-01;
 -1.6000000E-01;  9.9999998E-03; -7.0000000E-02;400;  0.0000000E+00;  0.0000000E+00;  0.0000000E+00;  1.0000000E+03;  1.0000000E-01;  0.0000000E+00;0;  0.0000000E+00;  0.0000000E+00;  0.0000000E+00;0;  1.6709977E-06;  4.0000000E+04;  0.0000000E+00;  0.0000000E+00;  4.0000000E+04;  0.0000000E+00;  4.0000000E+04;  1.6716464E-06;  0.0000000E+00; -6.4870342E-10;  2.6590884E-01;
 -1.6000000E-01;  9.9999998E-03; -5.9999999E-02;401;  0.0000000E+00;  0.0000000E+00;  0.0000000E+00;  1.0000000E+03;  1.0000000E-01;  0.0000000E+00;0;  0.0000000E+00;  0.0000000E+00;  0.0000000E+00;0;  1.6652909E-06;  4.0000000E+04;  0.0000000E+00;  0.0000000E+00;  4.0000000E+04;  0.0000000E+00;  4.0000000E+04;  1.6657646E-06;  0.0000000E+00; -4.7359300E-10;  2.6600465E-01;
 -1.6000000E-01;  9.9999998E-03; -5.0000001E-02;402;  0.0000000E+00;  0.0000000E+00;  0.0000000E+00;  1.0000000E+03;  1.0000000E-01;  0.0000000E+00;0;  0.0000000E+00;  0.0000000E+00;  0.0000000E+00;0;  1.6600803E-06;  4.0000000E+04;  0.0000000E+00;  0.0000000E+00;  4.0000000E+04;  0.0000000E+00;  4.0000000E+04;  1.6602986E-06;  0.0000000E+00; -2.1826507E-10;  2.6615885E-01;
 -1.6000000E-01;  9.9999998E-03; -3.9999999E-02;403;  0.0000000E+00;  0.0000000E+00;  0.0000000E+00;  1.0000000E+03;  1.0000000E-01;  0.0000000E+00;0;  0.0000000E+00;  0.0000000E+00;  0.0000000E+00;0;  1.6555830E-06;  4.0000000E+04;  0.0000000E+00;  0.0000000E+00;  4.0000000E+04;  0.0000000E+00;  4.0000000E+04;  1.6554814E-06;  0.0000000E+00;  1.0168275E-10;  2.6614067E-01;
 -1.6000000E-01;  9.9999998E-03; -2.9999999E-02;404;  0.0000000E+00;  0.0000000E+00;  0.0000000E+00;  1.0000000E+03;  1.0000000E-01;  0.0000000E+00;0;  0.0000000E+00;  0.0000000E+00;  0.0000000E+00;0;  1.6519718E-06;  4.0000000E+04;  0.0000000E+00;  0.0000000E+00;  4.0000000E+04;  0.0000000E+00;  4.0000000E+04;  1.6515243E-06;  0.0000000E+00;  4.4760751E-10;  2.6588839E-01;
 -1.6000000E-01;  9.9999998E-03; -2.0000000E-02;405;  0.0000000E+00;  0.0000000E+00;  0.0000000E+00;  1.0000000E+03;  1.0000000E-01;  0.0000000E+00;0;  0.0000000E+00;  0.0000000E+00;  0.0000000E+00;0;  1.6493440E-06;  4.0000000E+04;  0.0000000E+00;  0.0000000E+00;  4.0000000E+04;  0.0000000E+00;  4.0000000E+04;  1.6485836E-06;  0.0000000E+00;  7.6032852E-10;  2.6549634E-01;
 -1.6000000E-01;  9.9999998E-03; -9.9999998E-03;406;  0.0000000E+00;  0.0000000E+00;  0.0000000E+00;  1.0000000E+03;  1.0000000E-01;  0.0000000E+00;0;  0.0000000E+00;  0.0000000E+00;  0.0000000E+00;0;  1.6477635E-06;  4.0000000E+04;  0.0000000E+00;  0.0000000E+00;  4.0000000E+04;  0.0000000E+00;  4.0000000E+04;  1.6467854E-06;  0.0000000E+00;  9.7807318E-10;  2.6514214E-01;
 -1.6000000E-01;  9.9999998E-03;  0.0000000E+00;407;  0.0000000E+00;  0.0000000E+00;  0.0000000E+00;  1.0000000E+03;  1.0000000E-01;  0.0000000E+00;0;  0.0000000E+00;  0.0000000E+00;  0.0000000E+00;0;  1.6472338E-06;  4.0000000E+04;  0.0000000E+00;  0.0000000E+00;  4.0000000E+04;  0.0000000E+00;  4.0000000E+04;  1.6461778E-06;  0.0000000E+00;  1.0560420E-09;  2.6500198E-01;
 -1.6000000E-01;  9.9999998E-03;  9.9999998E-03;408;  0.0000000E+00;  0.0000000E+00;  0.0000000E+00;  1.0000000E+03;  1.0000000E-01;  0.0000000E+00;0;  0.0000000E+00;  0.0000000E+00;  0.0000000E+00;0;  1.6477636E-06;  4.0000000E+04;  0.0000000E+00;  0.0000000E+00;  4.0000000E+04;  0.0000000E+00;  4.0000000E+04;  1.6467856E-06;  0.0000000E+00;  9.7804087E-10;  2.6514196E-01;
 -1.6000000E-01;  9.9999998E-03;  2.0000000E-02;409;  0.0000000E+00;  0.0000000E+00;  0.0000000E+00;  1.0000000E+03;  1.0000000E-01;  0.0000000E+00;0;  0.0000000E+00;  0.0000000E+00;  0.0000000E+00;0;  1.6493453E-06;  4.0000000E+04;  0.0000000E+00;  0.0000000E+00;  4.0000000E+04;  0.0000000E+00;  4.0000000E+04;  1.6485851E-06;  0.0000000E+00;  7.6027529E-10;  2.6549625E-01;
 -1.6000000E-01;  9.9999998E-03;  2.9999999E-02;410;  0.0000000E+00;  0.0000000E+00;  0.0000000E+00;  1.0000000E+03;  1.0000000E-01;  0.0000000E+00;0;  0.0000000E+00;  0.0000000E+00;  0.0000000E+00;0;  1.6519733E-06;  4.0000000E+04;  0.0000000E+00;  0.0000000E+00;  4.0000000E+04;  0.0000000E+00;  4.0000000E+04;  1.6515257E-06;  0.0000000E+00;  4.4754209E-10;  2.6588830E-01;
 -1.6000000E-01;  9.9999998E-03;  3.9999999E-02;411;  0.0000000E+00;  0.0000000E+00;  0.0000000E+00;  1.0000000E+03;  1.0000000E-01;  0.0000000E+00;0;  0.0000000E+00;  0.0000000E+00;  0.0000000E+00;0;  1.6555842E-06;  4.0000000E+04;  0.0000000E+00;  0.0000000E+00;  4.0000000E+04;  0.0000000E+00;  4.0000000E+04;  1.6554826E-06;  0.0000000E+00;  1.0161880E-10;  2.6614058E-01;
 -1.6000000E-01;  9.9999998E-03;  5.0000001E-02;412;  0.0000000E+00;  0.0000000E+00;  0.0000000E+00;  1.0000000E+03;  1.0000000E-01;  0.0000000E+00;0;  0.0000000E+00;  0.0000000E+00;  0.0000000E+00;0;  1.6600808E-06;  4.0000000E+04;  0.0000000E+00;  0.0000000E+00;  4.0000000E+04;  0.0000000E+00;  4.0000000E+04;  1.6602991E-06;  0.0000000E+00; -2.1830913E-10;  2.6615861E-01;
 -1.6000000E-01;  9.9999998E-03;  5.9999999E-02;413;  0.0000000E+00;  0.0000000E+00;  0.0000000E+00;  1.0000000E+03;  1.0000000E-01;  0.0000000E+00;0;  0.0000000E+00;  0.0000000E+00;  0.0000000E+00;0;  1.6652916E-06;  4.0000000E+04;  0.0000000E+00;  0.0000000E+00;  4.0000000E+04;  0.0000000E+00;  4.0000000E+04;  1.6657652E-06;  0.0000000E+00; -4.7360854E-10;  2.6600456E-01;
 -1.5000001E-01;  9.9999998E-03; -1.0000000E-01;488;  0.0000000E+00;  0.0000000E+00;  0.0000000E+00;  1.0000000E+03;  1.0000000E-01;  0.0000000E+00;0;  0.0000000E+00;  0.0000000E+00;  0.0000000E+00;0;  4.8853322E-05;  4.0000000E+04;  0.0000000E+00;  0.0000000E+00;  4.0000000E+04;  0.0000000E+00;  4.0000000E+04;  4.8902861E-05;  0.0000000E+00; -4.9537231E-08;  4.0714869E+00;
 -1.5000001E-01;  9.9999998E-03; -9.0000004E-02;489;  0.0000000E+00;  0.0000000E+00;  0.0000000E+00;  1.0000000E+03;  1.0000000E-01;  0.0000000E+00;0;  0.0000000E+00;  0.0000000E+00;  0.0000000E+00;0;  4.8582631E-05;  4.0000000E+04;  0.0000000E+00;  0.0000000E+00;  4.0000000E+04;  0.0000000E+00;  4.0000000E+04;  4.8634567E-05;  0.0000000E+00; -5.1935675E-08;  4.0527563E+00;
 -1.5000001E-01;  9.9999998E-03; -7.9999998E-02;490;  0.0000000E+00;  0.0000000E+00;  0.0000000E+00;  1.0000000E+03;  1.0000000E-01;  0.0000000E+00;0;  0.0000000E+00;  0.0000000E+00;  0.0000000E+00;0;  4.8273519E-05;  4.0000000E+04;  0.0000000E+00;  0.0000000E+00;  4.0000000E+04;  0.0000000E+00;  4.0000000E+04;  4.8322887E-05;  0.0000000E+00; -4.9368989E-08;  4.0513935E+00;
 -1.5000001E-01;  9.9999998E-03; -7.0000000E-02;491;  0.0000000E+00;  0.0000000E+00;  0.0000000E+00;  1.0000000E+03;  1.0000000E-01;  0.0000000E+00;0;  0.0000000E+00;  0.0000000E+00;  0.0000000E+00;0;  4.7935206E-05;  4.0000000E+04;  0.0000000E+00;  0.0000000E+00;  4.0000000E+04;  0.0000000E+00;  4.0000000E+04;  4.7976566E-05;  0.0000000E+00; -4.1359161E-08;  4.0617390E+00;
 -1.5000001E-01;  9.9999998E-03; -5.9999999E-02;492;  0.0000000E+00;  0.0000000E+00;  0.0000000E+00;  1.0000000E+03;  1.0000000E-01;  0.0000000E+00;0;  0.0000000E+00;  0.0000000E+00;  0.0000000E+00;0;  4.7584537E-05;  4.0000000E+04;  0.0000000E+00;  0.0000000E+00;  4.0000000E+04;  0.0000000E+00;  4.0000000E+04;  4.7612561E-05;  0.0000000E+00; -2.8021816E-08;  4.0756693E+00;
 -1.5000001E-01;  9.9999998E-03; -5.0000001E-02;493;  0.0000000E+00;  0.0000000E+00;  0.0000000E+00;  1.0000000E+03;  1.0000000E-01;  0.0000000E+00;0;  0.0000000E+00;  0.0000000E+00;  0.0000000E+00;0;  4.7242396E-05;  4.0000000E+04;  0.0000000E+00;  0.0000000E+00;  4.0000000E+04;  0.0000000E+00;  4.0000000E+04;  4.7252644E-05;  0.0000000E+00; -1.0249884E-08;  4.0858765E+00;
 -1.5000001E-01;  9.9999998E-03; -3.9999999E-02;494;  0.0000000E+00;  0.0000000E+00;  0.0000000E+00;  1.0000000E+03;  1.0000000E-01;  0.0000000E+00;0;  0.0000000E+00;  0.0000000E+00;  0.0000000E+00;0;  4.6930061E-05;  4.0000000E+04;  0.0000000E+00;  0.0000000E+00;  4.0000000E+04;  0.0000000E+00;  4.0000000E+04;  4.6919871E-05;  0.0000000E+00;  1.0190996E-08;  4.0883336E+00;
 -1.5000001E-01;  9.9999998E-03; -2.9999999E-02;495;  0.0000000E+00;  0.0000000E+00;  0.0000000E+00;  1.0000000E+03;  1.0000000E-01;  0.0000000E+00;0;  0.0000000E+00;  0.0000000E+00;  0.0000000E+00;0;  4.6666773E-05;  4.0000000E+04;  0.0000000E+00;  0.0000000E+00;  4.0000000E+04;  0.0000000E+00;  4.0000000E+04;  4.6636007E-05;  0.0000000E+00;  3.0765687E-08;  4.0832572E+00;
 -1.5000001E-01;  9.9999998E-03; -2.0000000E-02;496;  0.0000000E+00;  0.0000000E+00;  0.0000000E+00;  1.0000000E+03;  1.0000000E-01;  0.0000000E+00;0;  0.0000000E+00;  0.0000000E+00;  0.0000000E+00;0;  4.6468005E-05;  4.0000000E+04;  0.0000000E+00;  0.0000000E+00;  4.0000000E+04;  0.0000000E+00;  4.0000000E+04;  4.6419504E-05;  0.0000000E+00;  4.8500624E-08;  4.0741019E+00;
 -1.5000001E-01;  9.9999998E-03; -9.9999998E-03;497;  0.0000000E+00;  0.0000000E+00;  0.0000000E+00;  1.0000000E+03;  1.0000000E-01;  0.0000000E+00;0;  0.0000000E+00;  0.0000000E+00;  0.0000000E+00;0;  4.6344459E-05;  4.0000000E+04;  0.0000000E+00;  0.0000000E+00;  4.0000000E+04;  0.0000000E+00;  4.0000000E+04;  4.6283920E-05;  0.0000000E+00;  6.0539669E-08;  4.0658374E+00;
 -1.5000001E-01;  9.9999998E-03;  0.0000000E+00;498;  0.0000000E+00;  0.0000000E+00;  0.0000000E+00;  1.0000000E+03;  1.0000000E-01;  0.0000000E+00;0;  0.0000000E+00;  0.0000000E+00;  0.0000000E+00;0;  4.6302634E-05;  4.0000000E+04;  0.0000000E+00;  0.0000000E+00;  4.0000000E+04;  0.0000000E+00;  4.0000000E+04;  4.6237827E-05;  0.0000000E+00;  6.4805903E-08;  4.0625629E+00;
 -1.5000001E-01;  9.9999998E-03;  9.9999998E-03;499;  0.0000000E+00;  0.0000000E+00;  0.0000000E+00;  1.0000000E+03;  1.0000000E-01;  0.0000000E+00;0;  0.0000000E+00;  0.0000000E+00;  0.0000000E+00;0;  4.6344514E-05;  4.0000000E+04;  0.0000000E+00;  0.0000000E+00;  4.0000000E+04;  0.0000000E+00;  4.0000000E+04;  4.6283974E-05;  0.0000000E+00;  6.0538035E-08;  4.0658402E+00;
 -1.5000001E-01;  9.9999998E-03;  2.0000000E-02;500;  0.0000000E+00;  0.0000000E+00;  0.0000000E+00;  1.0000000E+03;  1.0000000E-01;  0.0000000E+00;0;  0.0000000E+00;  0.0000000E+00;  0.0000000E+00;0;  4.6468016E-05;  4.0000000E+04;  0.0000000E+00;  0.0000000E+00;  4.0000000E+04;  0.0000000E+00;  4.0000000E+04;  4.6419518E-05;  0.0000000E+00;  4.8497725E-08;  4.0741053E+00;
 -1.5000001E-01;  9.9999998E-03;  2.9999999E-02;501;  0.0000000E+00;  0.0000000E+00;  0.0000000E+00;  1.0000000E+03;  1.0000000E-01;  0.0000000E+00;0;  0.0000000E+00;  0.0000000E+00;  0.0000000E+00;0;  4.6666784E-05;  4.0000000E+04;  0.0000000E+00;  0.0000000E+00;  4.0000000E+04;  0.0000000E+00;  4.0000000E+04;  4.6636022E-05;  0.0000000E+00;  3.0762155E-08;  4.0832596E+00;
 -1.5000001E-01;  9.9999998E-03;  3.9999999E-02;502;  0.0000000E+00;  0.0000000E+00;  0.0000000E+00;  1.0000000E+03;  1.0000000E-01;  0.0000000E+00;0;  0.0000000E+00;  0.0000000E+00;  0.0000000E+00;0;  4.6930072E-05;  4.0000000E+04;  0.0000000E+00;  0.0000000E+00;  4.0000000E+04;  0.0000000E+00;  4.0000000E+04;  4.6919886E-05;  0.0000000E+00;  1.0187585E-08;  4.0883336E+00;
 -1.5000001E-01;  9.9999998E-03;  5.0000001E-02;503;  0.0000000E+00;  0.0000000E+00;  0.0000000E+00;  1.0000000E+03;  1.0000000E-01;  0.0000000E+00;0;  0.0000000E+00;  0.0000000E+00;  0.0000000E+00;0;  4.7242411E-05;  4.0000000E+04;  0.0000000E+00;  0.0000000E+00;  4.0000000E+04;  0.0000000E+00;  4.0000000E+04;  4.7252663E-05;  0.0000000E+00; -1.0252553E-08;  4.0858755E+00;
 -1.5000001E-01;  9.9999998E-03;  5.9999999E-02;504;  0.0000000E+00;  0.0000000E+00;  0.0000000E+00;  1.0000000E+03;  1.0000000E-01;  0.0000000E+00;0;  0.0000000E+00;  0.0000000E+00;  0.0000000E+00;0;  4.7584566E-05;  4.0000000E+04;  0.0000000E+00;  0.0000000E+00;  4.0000000E+04;  0.0000000E+00;  4.0000000E+04;  4.7612590E-05;  0.0000000E+00; -2.8023411E-08;  4.0756693E+00;
 -1.4000000E-01;  9.9999998E-03; -1.0000000E-01;579;  0.0000000E+00;  0.0000000E+00;  0.0000000E+00;  1.0000000E+03;  1.0000000E-01;  0.0000000E+00;0;  0.0000000E+00;  0.0000000E+00;  0.0000000E+00;0;  2.5894679E-04;  4.0000000E+04;  0.0000000E+00;  0.0000000E+00;  4.0000000E+04;  0.0000000E+00;  4.0000000E+04;  2.5934435E-04;  0.0000000E+00; -3.9755608E-07;  1.8512514E+01;
 -1.4000000E-01;  9.9999998E-03; -9.0000004E-02;580;  0.0000000E+00;  0.0000000E+00;  0.0000000E+00;  1.0000000E+03;  1.0000000E-01;  0.0000000E+00;0;  0.0000000E+00;  0.0000000E+00;  0.0000000E+00;0;  2.5742498E-04;  4.0000000E+04;  0.0000000E+00;  0.0000000E+00;  4.0000000E+04;  0.0000000E+00;  4.0000000E+04;  2.5783305E-04;  0.0000000E+00; -4.0806793E-07;  1.8502325E+01;
 -1.4000000E-01;  9.9999998E-03; -7.9999998E-02;581;  0.0000000E+00;  0.0000000E+00;  0.0000000E+00;  1.0000000E+03;  1.0000000E-01;  0.0000000E+00;0;  0.0000000E+00;  0.0000000E+00;  0.0000000E+00;0;  2.5567916E-04;  4.0000000E+04;  0.0000000E+00;  0.0000000E+00;  4.0000000E+04;  0.0000000E+00;  4.0000000E+04;  2.5605957E-04;  0.0000000E+00; -3.8042788E-07;  1.8555264E+01;
 -1.4000000E-01;  9.9999998E-03; -7.0000000E-02;582;  0.0000000E+00;  0.0000000E+00;  0.0000000E+00;  1.0000000E+03;  1.0000000E-01;  0.0000000E+00;0;  0.0000000E+00;  0.0000000E+00;  0.0000000E+00;0;  2.5376698E-04;  4.0000000E+04;  0.0000000E+00;  0.0000000E+00;  4.0000000E+04;  0.0000000E+00;  4.0000000E+04;  2.5407854E-04;  0.0000000E+00; -3.1155159E-07;  1.8647987E+01;
 -1.4000000E-01;  9.9999998E-03; -5.9999999E-02;583;  0.0000000E+00;  0.0000000E+00;  0.0000000E+00;  1.0000000E+03;  1.0000000E-01;  0.0000000E+00;0;  0.0000000E+00;  0.0000000E+00;  0.0000000E+00;0;  2.5178338E-04;  4.0000000E+04;  0.0000000E+00;  0.0000000E+00;  4.0000000E+04;  0.0000000E+00;  4.0000000E+04;  2.5198760E-04;  0.0000000E+00; -2.0423421E-07;  1.8748068E+01;
 -1.4000000E-01;  9.9999998E-03; -5.0000001E-02;584;  0.0000000E+00;  0.0000000E+00;  0.0000000E+00;  1.0000000E+03;  1.0000000E-01;  0.0000000E+00;0;  0.0000000E+00;  0.0000000E+00;  0.0000000E+00;0;  2.4984282E-04;  4.0000000E+04;  0.0000000E+00;  0.0000000E+00;  4.0000000E+04;  0.0000000E+00;  4.0000000E+04;  2.4991014E-04;  0.0000000E+00; -6.7322297E-08;  1.8826153E+01;
 -1.4000000E-01;  9.9999998E-03; -3.9999999E-02;585;  0.0000000E+00;  0.0000000E+00;  0.0000000E+00;  1.0000000E+03;  1.0000000E-01;  0.0000000E+00;0;  0.0000000E+00;  0.0000000E+00;  0.0000000E+00;0;  2.4806545E-04;  4.0000000E+04;  0.0000000E+00;  0.0000000E+00;  4.0000000E+04;  0.0000000E+00;  4.0000000E+04;  2.4798073E-04;  0.0000000E+00;  8.4717037E-08;  1.8864647E+01;
 -1.4000000E-01;  9.9999998E-03; -2.9999999E-02;586;  0.0000000E+00;  0.0000000E+00;  0.0000000E+00;  1.0000000E+03;  1.0000000E-01;  0.0000000E+00;0;  0.0000000E+00;  0.0000000E+00;  0.0000000E+00;0;  2.4655997E-04;  4.0000000E+04;  0.0000000E+00;  0.0000000E+00;  4.0000000E+04;  0.0000000E+00;  4.0000000E+04;  2.4632670E-04;  0.0000000E+00;  2.3327952E-07;  1.8863867E+01;
 -1.4000000E-01;  9.9999998E-03; -2.0000000E-02;587;  0.0000000E+00;  0.0000000E+00;  0.0000000E+00;  1.0000000E+03;  1.0000000E-01;  0.0000000E+00;0;  0.0000000E+00;  0.0000000E+00;  0.0000000E+00;0;  2.4541837E-04;  4.0000000E+04;  0.0000000E+00;  0.0000000E+00;  4.0000000E+04;  0.0000000E+00;  4.0000000E+04;  2.4506007E-04;  0.0000000E+00;  3.5831007E-07;  1.8838837E+01;
 -1.4000000E-01;  9.9999998E-03; -9.9999998E-03;588;  0.0000000E+00;  0.0000000E+00;  0.0000000E+00;  1.0000000E+03;  1.0000000E-01;  0.0000000E+00;0;  0.0000000E+00;  0.0000000E+00;  0.0000000E+00;0;  2.4470620E-04;  4.0000000E+04;  0.0000000E+00;  0.0000000E+00;  4.0000000E+04;  0.0000000E+00;  4.0000000E+04;  2.4426443E-04;  0.0000000E+00;  4.4176420E-07;  1.8811359E+01;
 -1.4000000E-01;  9.9999998E-03;  0.0000000E+00;589;  0.0000000E+00;  0.0000000E+00;  0.0000000E+00;  1.0000000E+03;  1.0000000E-01;  0.0000000E+00;0;  0.0000000E+00;  0.0000000E+00;  0.0000000E+00;0;  2.4446443E-04;  4.0000000E+04;  0.0000000E+00;  0.0000000E+00;  4.0000000E+04;  0.0000000E+00;  4.0000000E+04;  2.4399336E-04;  0.0000000E+00;  4.7108071E-07;  1.8799845E+01;
 -1.4000000E-01;  9.9999998E-03;  9.9999998E-03;590;  0.0000000E+00;  0.0000000E+00;  0.0000000E+00;  1.0000000E+03;  1.0000000E-01;  0.0000000E+00;0;  0.0000000E+00;  0.0000000E+00;  0.0000000E+00;0;  2.4470614E-04;  4.0000000E+04;  0.0000000E+00;  0.0000000E+00;  4.0000000E+04;  0.0000000E+00;  4.0000000E+04;  2.4426437E-04;  0.0000000E+00;  4.4175437E-07;  1.8811377E+01;
 -1.4000000E-01;  9.9999998E-03;  2.0000000E-02;591;  0.0000000E+00;  0.0000000E+00;  0.0000000E+00;  1.0000000E+03;  1.0000000E-01;  0.0000000E+00;0;  0.0000000E+00;  0.0000000E+00;  0.0000000E+00;0;  2.4541843E-04;  4.0000000E+04;  0.0000000E+00;  0.0000000E+00;  4.0000000E+04;  0.0000000E+00;  4.0000000E+04;  2.4506013E-04;  0.0000000E+00;  3.5829211E-07;  1.8838852E+01;
 -1.4000000E-01;  9.9999998E-03;  2.9999999E-02;592;  0.0000000E+00;  0.0000000E+00;  0.0000000E+00;  1.0000000E+03;  1.0000000E-01;  0.0000000E+00;0;  0.0000000E+00;  0.0000000E+00;  0.0000000E+00;0;  2.4656032E-04;  4.0000000E+04;  0.0000000E+00;  0.0000000E+00;  4.0000000E+04;  0.0000000E+00;  4.0000000E+04;  2.4632705E-04;  0.0000000E+00;  2.3325724E-07;  1.8863897E+01;
 -1.4000000E-01;  9.9999998E-03;  3.9999999E-02;593;  0.0000000E+00;  0.0000000E+00;  0.0000000E+00;  1.0000000E+03;  1.0000000E-01;  0.0000000E+00;0;  0.0000000E+00;  0.0000000E+00;  0.0000000E+00;0;  2.4806568E-04;  4.0000000E+04;  0.0000000E+00;  0.0000000E+00;  4.0000000E+04;  0.0000000E+00;  4.0000000E+04;  2.4798099E-04;  0.0000000E+00;  8.4694229E-08;  1.8864672E+01;
 -1.4000000E-01;  9.9999998E-03;  5.0000001E-02;594;  0.0000000E+00;  0.0000000E+00;  0.0000000E+00;  1.0000000E+03;  1.0000000E-01;  0.0000000E+00;0;  0.0000000E+00;  0.0000000E+00;  0.0000000E+00;0;  2.4984294E-04;  4.0000000E+04;  0.0000000E+00;  0.0000000E+00;  4.0000000E+04;  0.0000000E+00;  4.0000000E+04;  2.4991028E-04;  0.0000000E+00; -6.7341929E-08;  1.8826174E+01;
 -1.4000000E-01;  9.9999998E-03;  5.9999999E-02;595;  0.0000000E+00;  0.0000000E+00;  0.0000000E+00;  1.0000000E+03;  1.0000000E-01;  0.0000000E+00;0;  0.0000000E+00;  0.0000000E+00;  0.0000000E+00;0;  2.5178335E-04;  4.0000000E+04;  0.0000000E+00;  0.0000000E+00;  4.0000000E+04;  0.0000000E+00;  4.0000000E+04;  2.5198760E-04;  0.0000000E+00; -2.0424812E-07;  1.8748077E+01;
 -1.3000000E-01;  9.9999998E-03; -1.0000000E-01;670;  0.0000000E+00;  0.0000000E+00;  0.0000000E+00;  1.0000000E+03;  1.0000000E-01;  0.0000000E+00;0;  0.0000000E+00;  0.0000000E+00;  0.0000000E+00;0;  7.7404449E-04;  4.0000000E+04;  0.0000000E+00;  0.0000000E+00;  4.0000000E+04;  0.0000000E+00;  4.0000000E+04;  7.7566656E-04;  0.0000000E+00; -1.6220544E-06;  5.1840405E+01;
 -1.3000000E-01;  9.9999998E-03; -9.0000004E-02;671;  0.0000000E+00;  0.0000000E+00;  0.0000000E+00;  1.0000000E+03;  1.0000000E-01;  0.0000000E+00;0;  0.0000000E+00;  0.0000000E+00;  0.0000000E+00;0;  7.6932297E-04;  4.0000000E+04;  0.0000000E+00;  0.0000000E+00;  4.0000000E+04;  0.0000000E+00;  4.0000000E+04;  7.7095092E-04;  0.0000000E+00; -1.6279439E-06;  5.2009991E+01;
 -1.3000000E-01;  9.9999998E-03; -7.9999998E-02;672;  0.0000000E+00;  0.0000000E+00;  0.0000000E+00;  1.0000000E+03;  1.0000000E-01;  0.0000000E+00;0;  0.0000000E+00;  0.0000000E+00;  0.0000000E+00;0;  7.6395599E-04;  4.0000000E+04;  0.0000000E+00;  0.0000000E+00;  4.0000000E+04;  0.0000000E+00;  4.0000000E+04;  7.6544867E-04;  0.0000000E+00; -1.4926594E-06;  5.2317509E+01;
 -1.3000000E-01;  9.9999998E-03; -7.0000000E-02;673;  0.0000000E+00;  0.0000000E+00;  0.0000000E+00;  1.0000000E+03;  1.0000000E-01;  0.0000000E+00;0;  0.0000000E+00;  0.0000000E+00;  0.0000000E+00;0;  7.5811957E-04;  4.0000000E+04;  0.0000000E+00;  0.0000000E+00;  4.0000000E+04;  0.0000000E+00;  4.0000000E+04;  7.5932493E-04;  0.0000000E+00; -1.2053385E-06;  5.2700523E+01;
 -1.3000000E-01;  9.9999998E-03; -5.9999999E-02;674;  0.0000000E+00;  0.0000000E+00;  0.0000000E+00;  1.0000000E+03;  1.0000000E-01;  0.0000000E+00;0;  0.0000000E+00;  0.0000000E+00;  0.0000000E+00;0;  7.5209036E-04;  4.0000000E+04;  0.0000000E+00;  0.0000000E+00;  4.0000000E+04;  0.0000000E+00;  4.0000000E+04;  7.5286994E-04;  0.0000000E+00; -7.7957935E-07;  5.3082623E+01;
 -1.3000000E-01;  9.9999998E-03; -5.0000001E-02;675;  0.0000000E+00;  0.0000000E+00;  0.0000000E+00;  1.0000000E+03;  1.0000000E-01;  0.0000000E+00;0;  0.0000000E+00;  0.0000000E+00;  0.0000000E+00;0;  7.4620196E-04;  4.0000000E+04;  0.0000000E+00;  0.0000000E+00;  4.0000000E+04;  0.0000000E+00;  4.0000000E+04;  7.4645429E-04;  0.0000000E+00; -2.5231046E-07;  5.3395630E+01;
 -1.3000000E-01;  9.9999998E-03; -3.9999999E-02;676;  0.0000000E+00;  0.0000000E+00;  0.0000000E+00;  1.0000000E+03;  1.0000000E-01;  0.0000000E+00;0;  0.0000000E+00;  0.0000000E+00;  0.0000000E+00;0;  7.4080453E-04;  4.0000000E+04;  0.0000000E+00;  0.0000000E+00;  4.0000000E+04;  0.0000000E+00;  4.0000000E+04;  7.4048428E-04;  0.0000000E+00;  3.2028103E-07;  5.3599232E+01;
 -1.3000000E-01;  9.9999998E-03; -2.9999999E-02;677;  0.0000000E+00;  0.0000000E+00;  0.0000000E+00;  1.0000000E+03;  1.0000000E-01;  0.0000000E+00;0;  0.0000000E+00;  0.0000000E+00;  0.0000000E+00;0;  7.3622755E-04;  4.0000000E+04;  0.0000000E+00;  0.0000000E+00;  4.0000000E+04;  0.0000000E+00;  4.0000000E+04;  7.3535758E-04;  0.0000000E+00;  8.6994726E-07;  5.3690243E+01;
 -1.3000000E-01;  9.9999998E-03; -2.0000000E-02;678;  0.0000000E+00;  0.0000000E+00;  0.0000000E+00;  1.0000000E+03;  1.0000000E-01;  0.0000000E+00;0;  0.0000000E+00;  0.0000000E+00;  0.0000000E+00;0;  7.3274836E-04;  4.0000000E+04;  0.0000000E+00;  0.0000000E+00;  4.0000000E+04;  0.0000000E+00;  4.0000000E+04;  7.3142204E-04;  0.0000000E+00;  1.3262990E-06;  5.3700039E+01;
 -1.3000000E-01;  9.9999998E-03; -9.9999998E-03;679;  0.0000000E+00;  0.0000000E+00;  0.0000000E+00;  1.0000000E+03;  1.0000000E-01;  0.0000000E+00;0;  0.0000000E+00;  0.0000000E+00;  0.0000000E+00;0;  7.3057547E-04;  4.0000000E+04;  0.0000000E+00;  0.0000000E+00;  4.0000000E+04;  0.0000000E+00;  4.0000000E+04;  7.2894740E-04;  0.0000000E+00;  1.6280770E-06;  5.3677200E+01;
 -1.3000000E-01;  9.9999998E-03;  0.0000000E+00;680;  0.0000000E+00;  0.0000000E+00;  0.0000000E+00;  1.0000000E+03;  1.0000000E-01;  0.0000000E+00;0;  0.0000000E+00;  0.0000000E+00;  0.0000000E+00;0;  7.2983641E-04;  4.0000000E+04;  0.0000000E+00;  0.0000000E+00;  4.0000000E+04;  0.0000000E+00;  4.0000000E+04;  7.2810281E-04;  0.0000000E+00;  1.7335849E-06;  5.3663975E+01;
 -1.3000000E-01;  9.9999998E-03;  9.9999998E-03;681;  0.0000000E+00;  0.0000000E+00;  0.0000000E+00;  1.0000000E+03;  1.0000000E-01;  0.0000000E+00;0;  0.0000000E+00;  0.0000000E+00;  0.0000000E+00;0;  7.3057570E-04;  4.0000000E+04;  0.0000000E+00;  0.0000000E+00;  4.0000000E+04;  0.0000000E+00;  4.0000000E+04;  7.2894763E-04;  0.0000000E+00;  1.6280461E-06;  5.3677227E+01;
 -1.3000000E-01;  9.9999998E-03;  2.0000000E-02;682;  0.0000000E+00;  0.0000000E+00;  0.0000000E+00;  1.0000000E+03;  1.0000000E-01;  0.0000000E+00;0;  0.0000000E+00;  0.0000000E+00;  0.0000000E+00;0;  7.3274848E-04;  4.0000000E+04;  0.0000000E+00;  0.0000000E+00;  4.0000000E+04;  0.0000000E+00;  4.0000000E+04;  7.3142222E-04;  0.0000000E+00;  1.3262417E-06;  5.3700100E+01;
 -1.3000000E-01;  9.9999998E-03;  2.9999999E-02;683;  0.0000000E+00;  0.0000000E+00;  0.0000000E+00;  1.0000000E+03;  1.0000000E-01;  0.0000000E+00;0;  0.0000000E+00;  0.0000000E+00;  0.0000000E+00;0;  7.3622790E-04;  4.0000000E+04;  0.0000000E+00;  0.0000000E+00;  4.0000000E+04;  0.0000000E+00;  4.0000000E+04;  7.3535804E-04;  0.0000000E+00;  8.6987336E-07;  5.3690327E+01;
 -1.3000000E-01;  9.9999998E-03;  3.9999999E-02;684;  0.0000000E+00;  0.0000000E+00;  0.0000000E+00;  1.0000000E+03;  1.0000000E-01;  0.0000000E+00;0;  0.0000000E+00;  0.0000000E+00;  0.0000000E+00;0;  7.4080587E-04;  4.0000000E+04;  0.0000000E+00;  0.0000000E+00;  4.0000000E+04;  0.0000000E+00;  4.0000000E+04;  7.4048567E-04;  0.0000000E+00;  3.2020264E-07;  5.3599335E+01;
 -1.3000000E-01;  9.9999998E-03;  5.0000001E-02;685;  0.0000000E+00;  0.0000000E+00;  0.0000000E+00;  1.0000000E+03;  1.0000000E-01;  0.0000000E+00;0;  0.0000000E+00;  0.0000000E+00;  0.0000000E+00;0;  7.4620277E-04;  4.0000000E+04;  0.0000000E+00;  0.0000000E+00;  4.0000000E+04;  0.0000000E+00;  4.0000000E+04;  7.4645516E-04;  0.0000000E+00; -2.5238191E-07;  5.3395744E+01;
 -1.3000000E-01;  9.9999998E-03;  5.9999999E-02;686;  0.0000000E+00;  0.0000000E+00;  0.0000000E+00;  1.0000000E+03;  1.0000000E-01;  0.0000000E+00;0;  0.0000000E+00;  0.0000000E+00;  0.0000000E+00;0;  7.5209123E-04;  4.0000000E+04;  0.0000000E+00;  0.0000000E+00;  4.0000000E+04;  0.0000000E+00;  4.0000000E+04;  7.5287087E-04;  0.0000000E+00; -7.7963614E-07;  5.3082703E+01;
 -1.2000000E-01;  9.9999998E-03; -1.0000000E-01;761;  0.0000000E+00;  0.0000000E+00;  0.0000000E+00;  1.0000099E+03;  1.0000000E-01;  8.1972990E+00;0;  0.0000000E+00;  0.0000000E+00;  0.0000000E+00;0;  1.7163876E-03;  4.0000000E+04;  0.0000000E+00;  0.0000000E+00;  4.0000000E+04;  0.0000000E+00;  4.0000000E+04;  1.7210759E-03;  0.0000000E+00; -4.6882806E-06;  1.1137238E+02;
 -1.2000000E-01;  9.9999998E-03; -9.0000004E-02;762;  0.0000000E+00;  0.0000000E+00;  0.0000000E+00;  1.0000079E+03;  1.0000000E-01;  6.6170969E+00;0;  0.0000000E+00;  0.0000000E+00;  0.0000000E+00;0;  1.7055555E-03;  4.0000000E+04;  0.0000000E+00;  0.0000000E+00;  4.0000000E+04;  0.0000000E+00;  4.0000000E+04;  1.7101624E-03;  0.0000000E+00; -4.6069408E-06;  1.1214453E+02;
 -1.2000000E-01;  9.9999998E-03; -7.9999998E-02;763;  0.0000000E+00;  0.0000000E+00;  0.0000000E+00;  1.0000057E+03;  1.0000000E-01;  4.7406068E+00;0;  0.0000000E+00;  0.0000000E+00;  0.0000000E+00;0;  1.6933734E-03;  4.0000000E+04;  0.0000000E+00;  0.0000000E+00;  4.0000000E+04;  0.0000000E+00;  4.0000000E+04;  1.6975399E-03;  0.0000000E+00; -4.1665062E-06;  1.1315141E+02;
 -1.2000000E-01;  9.9999998E-03; -7.0000000E-02;764;  0.0000000E+00;  0.0000000E+00;  0.0000000E+00;  1.0000015E+03;  1.0000000E-01;  1.1851517E+00;0;  0.0000000E+00;  0.0000000E+00;  0.0000000E+00;0;  1.6802443E-03;  4.0000000E+04;  0.0000000E+00;  0.0000000E+00;  4.0000000E+04;  0.0000000E+00;  4.0000000E+04;  1.6835827E-03;  0.0000000E+00; -3.3383283E-06;  1.1425885E+02;
 -1.2000000E-01;  9.9999998E-03; -5.9999999E-02;765;  0.0000000E+00;  0.0000000E+00;  0.0000000E+00;  1.0000001E+03;  1.0000000E-01;  9.8762639E-02;0;  0.0000000E+00;  0.0000000E+00;  0.0000000E+00;0;  1.6667609E-03;  4.0000000E+04;  0.0000000E+00;  0.0000000E+00;  4.0000000E+04;  0.0000000E+00;  4.0000000E+04;  1.6689221E-03;  0.0000000E+00; -2.1612843E-06;  1.1532361E+02;
 -1.2000000E-01;  9.9999998E-03; -5.0000001E-02;766;  0.0000000E+00;  0.0000000E+00;  0.0000000E+00;  1.0000000E+03;  1.0000000E-01;  0.0000000E+00;0;  0.0000000E+00;  0.0000000E+00;  0.0000000E+00;0;  1.6536359E-03;  4.0000000E+04;  0.0000000E+00;  0.0000000E+00;  4.0000000E+04;  0.0000000E+00;  4.0000000E+04;  1.6543722E-03;  0.0000000E+00; -7.3634595E-07;  1.1622294E+02;
 -1.2000000E-01;  9.9999998E-03; -3.9999999E-02;767;  0.0000000E+00;  0.0000000E+00;  0.0000000E+00;  1.0000000E+03;  1.0000000E-01;  0.0000000E+00;0;  0.0000000E+00;  0.0000000E+00;  0.0000000E+00;0;  1.6416200E-03;  4.0000000E+04;  0.0000000E+00;  0.0000000E+00;  4.0000000E+04;  0.0000000E+00;  4.0000000E+04;  1.6408328E-03;  0.0000000E+00;  7.8719751E-07;  1.1688721E+02;
 -1.2000000E-01;  9.9999998E-03; -2.9999999E-02;768;  0.0000000E+00;  0.0000000E+00;  0.0000000E+00;  1.0000000E+03;  1.0000000E-01;  0.0000000E+00;0;  0.0000000E+00;  0.0000000E+00;  0.0000000E+00;0;  1.6314298E-03;  4.0000000E+04;  0.0000000E+00;  0.0000000E+00;  4.0000000E+04;  0.0000000E+00;  4.0000000E+04;  1.6291969E-03;  0.0000000E+00;  2.2328697E-06;  1.1730402E+02;
 -1.2000000E-01;  9.9999998E-03; -2.0000000E-02;769;  0.0000000E+00;  0.0000000E+00;  0.0000000E+00;  1.0000000E+03;  1.0000000E-01;  0.0000000E+00;0;  0.0000000E+00;  0.0000000E+00;  0.0000000E+00;0;  1.6236807E-03;  4.0000000E+04;  0.0000000E+00;  0.0000000E+00;  4.0000000E+04;  0.0000000E+00;  4.0000000E+04;  1.6202577E-03;  0.0000000E+00;  3.4229331E-06;  1.1751865E+02;
 -1.2000000E-01;  9.9999998E-03; -9.9999998E-03;770;  0.0000000E+00;  0.0000000E+00;  0.0000000E+00;  1.0000000E+03;  1.0000000E-01;  0.0000000E+00;0;  0.0000000E+00;  0.0000000E+00;  0.0000000E+00;0;  1.6188356E-03;  4.0000000E+04;  0.0000000E+00;  0.0000000E+00;  4.0000000E+04;  0.0000000E+00;  4.0000000E+04;  1.6146301E-03;  0.0000000E+00;  4.2054667E-06;  1.1760361E+02;
 -1.2000000E-01;  9.9999998E-03;  0.0000000E+00;771;  0.0000000E+00;  0.0000000E+00;  0.0000000E+00;  1.0000000E+03;  1.0000000E-01;  0.0000000E+00;0;  0.0000000E+00;  0.0000000E+00;  0.0000000E+00;0;  1.6171862E-03;  4.0000000E+04;  0.0000000E+00;  0.0000000E+00;  4.0000000E+04;  0.0000000E+00;  4.0000000E+04;  1.6127080E-03;  0.0000000E+00;  4.4782914E-06;  1.1762284E+02;
 -1.2000000E-01;  9.9999998E-03;  9.9999998E-03;772;  0.0000000E+00;  0.0000000E+00;  0.0000000E+00;  1.0000000E+03;  1.0000000E-01;  0.0000000E+00;0;  0.0000000E+00;  0.0000000E+00;  0.0000000E+00;0;  1.6188367E-03;  4.0000000E+04;  0.0000000E+00;  0.0000000E+00;  4.0000000E+04;  0.0000000E+00;  4.0000000E+04;  1.6146313E-03;  0.0000000E+00;  4.2053935E-06;  1.1760366E+02;
 -1.2000000E-01;  9.9999998E-03;  2.0000000E-02;773;  0.0000000E+00;  0.0000000E+00;  0.0000000E+00;  1.0000000E+03;  1.0000000E-01;  0.0000000E+00;0;  0.0000000E+00;  0.0000000E+00;  0.0000000E+00;0;  1.6236816E-03;  4.0000000E+04;  0.0000000E+00;  0.0000000E+00;  4.0000000E+04;  0.0000000E+00;  4.0000000E+04;  1.6202588E-03;  0.0000000E+00;  3.4227951E-06;  1.1751880E+02;
 -1.2000000E-01;  9.9999998E-03;  2.9999999E-02;774;  0.0000000E+00;  0.0000000E+00;  0.0000000E+00;  1.0000000E+03;  1.0000000E-01;  0.0000000E+00;0;  0.0000000E+00;  0.0000000E+00;  0.0000000E+00;0;  1.6314300E-03;  4.0000000E+04;  0.0000000E+00;  0.0000000E+00;  4.0000000E+04;  0.0000000E+00;  4.0000000E+04;  1.6291973E-03;  0.0000000E+00;  2.2326910E-06;  1.1730415E+02;
 -1.2000000E-01;  9.9999998E-03;  3.9999999E-02;775;  0.0000000E+00;  0.0000000E+00;  0.0000000E+00;  1.0000000E+03;  1.0000000E-01;  0.0000000E+00;0;  0.0000000E+00;  0.0000000E+00;  0.0000000E+00;0;  1.6416223E-03;  4.0000000E+04;  0.0000000E+00;  0.0000000E+00;  4.0000000E+04;  0.0000000E+00;  4.0000000E+04;  1.6408353E-03;  0.0000000E+00;  7.8700282E-07;  1.1688744E+02;
 -1.2000000E-01;  9.9999998E-03;  5.0000001E-02;776;  0.0000000E+00;  0.0000000E+00;  0.0000000E+00;  1.0000000E+03;  1.0000000E-01;  0.0000000E+00;0;  0.0000000E+00;  0.0000000E+00;  0.0000000E+00;0;  1.6536383E-03;  4.0000000E+04;  0.0000000E+00;  0.0000000E+00;  4.0000000E+04;  0.0000000E+00;  4.0000000E+04;  1.6543749E-03;  0.0000000E+00; -7.3652990E-07;  1.1622319E+02;
 -1.2000000E-01;  9.9999998E-03;  5.9999999E-02;777;  0.0000000E+00;  0.0000000E+00;  0.0000000E+00;  1.0000001E+03;  1.0000000E-01;  9.8762639E-02;0;  0.0000000E+00;  0.0000000E+00;  0.0000000E+00;0;  1.6667633E-03;  4.0000000E+04;  0.0000000E+00;  0.0000000E+00;  4.0000000E+04;  0.0000000E+00;  4.0000000E+04;  1.6689248E-03;  0.0000000E+00; -2.1614367E-06;  1.1532383E+02;
 -1.1000000E-01;  9.9999998E-03; -1.0000000E-01;852;  0.0000000E+00;  0.0000000E+00;  0.0000000E+00;  1.0000948E+03;  1.0000000E-01;  7.8615059E+01;0;  0.0000000E+00;  0.0000000E+00;  0.0000000E+00;0;  3.1719119E-03;  4.0000000E+04;  0.0000000E+00;  0.0000000E+00;  4.0000000E+04;  0.0000000E+00;  4.0000000E+04;  3.1828957E-03;  0.0000000E+00; -1.0983896E-05;  2.0281647E+02;
 -1.1000000E-01;  9.9999998E-03; -9.0000004E-02;853;  0.0000000E+00;  0.0000000E+00;  0.0000000E+00;  1.0000891E+03;  1.0000000E-01;  7.3874451E+01;0;  0.0000000E+00;  0.0000000E+00;  0.0000000E+00;0;  3.1511912E-03;  4.0000000E+04;  0.0000000E+00;  0.0000000E+00;  4.0000000E+04;  0.0000000E+00;  4.0000000E+04;  3.1617892E-03;  0.0000000E+00; -1.0597889E-05;  2.0493507E+02;
 -1.1000000E-01;  9.9999998E-03; -7.9999998E-02;854;  0.0000000E+00;  0.0000000E+00;  0.0000000E+00;  1.0000837E+03;  1.0000000E-01;  6.9331375E+01;0;  0.0000000E+00;  0.0000000E+00;  0.0000000E+00;0;  3.1281097E-03;  4.0000000E+04;  0.0000000E+00;  0.0000000E+00;  4.0000000E+04;  0.0000000E+00;  4.0000000E+04;  3.1375936E-03;  0.0000000E+00; -9.4839743E-06;  2.0740530E+02;
 -1.1000000E-01;  9.9999998E-03; -7.0000000E-02;855;  0.0000000E+00;  0.0000000E+00;  0.0000000E+00;  1.0000771E+03;  1.0000000E-01;  6.3899426E+01;0;  0.0000000E+00;  0.0000000E+00;  0.0000000E+00;0;  3.1034509E-03;  4.0000000E+04;  0.0000000E+00;  0.0000000E+00;  4.0000000E+04;  0.0000000E+00;  4.0000000E+04;  3.1110302E-03;  0.0000000E+00; -7.5792314E-06;  2.0997795E+02;
 -1.1000000E-01;  9.9999998E-03; -5.9999999E-02;856;  0.0000000E+00;  0.0000000E+00;  0.0000000E+00;  1.0000725E+03;  1.0000000E-01;  6.0047684E+01;0;  0.0000000E+00;  0.0000000E+00;  0.0000000E+00;0;  3.0782837E-03;  4.0000000E+04;  0.0000000E+00;  0.0000000E+00;  4.0000000E+04;  0.0000000E+00;  4.0000000E+04;  3.0832507E-03;  0.0000000E+00; -4.9670530E-06;  2.1240692E+02;
 -1.1000000E-01;  9.9999998E-03; -5.0000001E-02;857;  0.0000000E+00;  0.0000000E+00;  0.0000000E+00;  1.0000688E+03;  1.0000000E-01;  5.7084805E+01;0;  0.0000000E+00;  0.0000000E+00;  0.0000000E+00;0;  3.0538915E-03;  4.0000000E+04;  0.0000000E+00;  0.0000000E+00;  4.0000000E+04;  0.0000000E+00;  4.0000000E+04;  3.0557546E-03;  0.0000000E+00; -1.8631393E-06;  2.1449744E+02;
 -1.1000000E-01;  9.9999998E-03; -3.9999999E-02;858;  0.0000000E+00;  0.0000000E+00;  0.0000000E+00;  1.0000654E+03;  1.0000000E-01;  5.4121925E+01;0;  0.0000000E+00;  0.0000000E+00;  0.0000000E+00;0;  3.0316110E-03;  4.0000000E+04;  0.0000000E+00;  0.0000000E+00;  4.0000000E+04;  0.0000000E+00;  4.0000000E+04;  3.0301942E-03;  0.0000000E+00;  1.4168612E-06;  2.1613805E+02;
 -1.1000000E-01;  9.9999998E-03; -2.9999999E-02;859;  0.0000000E+00;  0.0000000E+00;  0.0000000E+00;  1.0000615E+03;  1.0000000E-01;  5.0961521E+01;0;  0.0000000E+00;  0.0000000E+00;  0.0000000E+00;0;  3.0127417E-03;  4.0000000E+04;  0.0000000E+00;  0.0000000E+00;  4.0000000E+04;  0.0000000E+00;  4.0000000E+04;  3.0082376E-03;  0.0000000E+00;  4.5040319E-06;  2.1730206E+02;
 -1.1000000E-01;  9.9999998E-03; -2.0000000E-02;860;  0.0000000E+00;  0.0000000E+00;  0.0000000E+00;  1.0000603E+03;  1.0000000E-01;  4.9973896E+01;0;  0.0000000E+00;  0.0000000E+00;  0.0000000E+00;0;  2.9983912E-03;  4.0000000E+04;  0.0000000E+00;  0.0000000E+00;  4.0000000E+04;  0.0000000E+00;  4.0000000E+04;  2.9913601E-03;  0.0000000E+00;  7.0309266E-06;  2.1803818E+02;
 -1.1000000E-01;  9.9999998E-03; -9.9999998E-03;861;  0.0000000E+00;  0.0000000E+00;  0.0000000E+00;  1.0000599E+03;  1.0000000E-01;  4.9578846E+01;0;  0.0000000E+00;  0.0000000E+00;  0.0000000E+00;0;  2.9894232E-03;  4.0000000E+04;  0.0000000E+00;  0.0000000E+00;  4.0000000E+04;  0.0000000E+00;  4.0000000E+04;  2.9807368E-03;  0.0000000E+00;  8.6864075E-06;  2.1842975E+02;
 -1.1000000E-01;  9.9999998E-03;  0.0000000E+00;862;  0.0000000E+00;  0.0000000E+00;  0.0000000E+00;  1.0000596E+03;  1.0000000E-01;  4.9381321E+01;0;  0.0000000E+00;  0.0000000E+00;  0.0000000E+00;0;  2.9863750E-03;  4.0000000E+04;  0.0000000E+00;  0.0000000E+00;  4.0000000E+04;  0.0000000E+00;  4.0000000E+04;  2.9771125E-03;  0.0000000E+00;  9.2625451E-06;  2.1854880E+02;
 -1.1000000E-01;  9.9999998E-03;  9.9999998E-03;863;  0.0000000E+00;  0.0000000E+00;  0.0000000E+00;  1.0000599E+03;  1.0000000E-01;  4.9578846E+01;0;  0.0000000E+00;  0.0000000E+00;  0.0000000E+00;0;  2.9894251E-03;  4.0000000E+04;  0.0000000E+00;  0.0000000E+00;  4.0000000E+04;  0.0000000E+00;  4.0000000E+04;  2.9807389E-03;  0.0000000E+00;  8.6862619E-06;  2.1842990E+02;
 -1.1000000E-01;  9.9999998E-03;  2.0000000E-02;864;  0.0000000E+00;  0.0000000E+00;  0.0000000E+00;  1.0000603E+03;  1.0000000E-01;  4.9973896E+01;0;  0.0000000E+00;  0.0000000E+00;  0.0000000E+00;0;  2.9983926E-03;  4.0000000E+04;  0.0000000E+00;  0.0000000E+00;  4.0000000E+04;  0.0000000E+00;  4.0000000E+04;  2.9913620E-03;  0.0000000E+00;  7.0306551E-06;  2.1803850E+02;
 -1.1000000E-01;  9.9999998E-03;  2.9999999E-02;865;  0.0000000E+00;  0.0000000E+00;  0.0000000E+00;  1.0000615E+03;  1.0000000E-01;  5.0961521E+01;0;  0.0000000E+00;  0.0000000E+00;  0.0000000E+00;0;  3.0127428E-03;  4.0000000E+04;  0.0000000E+00;  0.0000000E+00;  4.0000000E+04;  0.0000000E+00;  4.0000000E+04;  3.0082392E-03;  0.0000000E+00;  4.5036736E-06;  2.1730260E+02;
 -1.1000000E-01;  9.9999998E-03;  3.9999999E-02;866;  0.0000000E+00;  0.0000000E+00;  0.0000000E+00;  1.0000654E+03;  1.0000000E-01;  5.4121925E+01;0;  0.0000000E+00;  0.0000000E+00;  0.0000000E+00;0;  3.0316161E-03;  4.0000000E+04;  0.0000000E+00;  0.0000000E+00;  4.0000000E+04;  0.0000000E+00;  4.0000000E+04;  3.0301996E-03;  0.0000000E+00;  1.4164676E-06;  2.1613857E+02;
 -1.1000000E-01;  9.9999998E-03;  5.0000001E-02;867;  0.0000000E+00;  0.0000000E+00;  0.0000000E+00;  1.0000688E+03;  1.0000000E-01;  5.7084805E+01;0;  0.0000000E+00;  0.0000000E+00;  0.0000000E+00;0;  3.0538947E-03;  4.0000000E+04;  0.0000000E+00;  0.0000000E+00;  4.0000000E+04;  0.0000000E+00;  4.0000000E+04;  3.0557583E-03;  0.0000000E+00; -1.8635207E-06;  2.1449809E+02;
 -1.1000000E-01;  9.9999998E-03;  5.9999999E-02;868;  0.0000000E+00;  0.0000000E+00;  0.0000000E+00;  1.0000725E+03;  1.0000000E-01;  6.0047684E+01;0;  0.0000000E+00;  0.0000000E+00;  0.0000000E+00;0;  3.0782882E-03;  4.0000000E+04;  0.0000000E+00;  0.0000000E+00;  4.0000000E+04;  0.0000000E+00;  4.0000000E+04;  3.0832556E-03;  0.0000000E+00; -4.9673808E-06;  2.1240765E+02;
 -1.0000000E-01;  9.9999998E-03; -1.0000000E-01;943;  0.0000000E+00;  0.0000000E+00;  0.0000000E+00;  1.0002438E+03;  1.0000000E-01;  2.0196959E+02;0;  0.0000000E+00;  0.0000000E+00;  0.0000000E+00;0;  5.1882388E-03;  4.0000000E+04;  0.0000000E+00;  0.0000000E+00;  4.0000000E+04;  0.0000000E+00;  4.0000000E+04;  5.2105593E-03;  0.0000000E+00; -2.2320439E-05;  3.3012457E+02;
 -1.0000000E-01;  9.9999998E-03; -9.0000004E-02;944;  0.0000000E+00;  0.0000000E+00;  0.0000000E+00;  1.0002329E+03;  1.0000000E-01;  1.9298219E+02;0;  0.0000000E+00;  0.0000000E+00;  0.0000000E+00;0;  5.1531107E-03;  4.0000000E+04;  0.0000000E+00;  0.0000000E+00;  4.0000000E+04;  0.0000000E+00;  4.0000000E+04;  5.1743323E-03;  0.0000000E+00; -2.1221724E-05;  3.3466183E+02;
 -1.0000000E-01;  9.9999998E-03; -7.9999998E-02;945;  0.0000000E+00;  0.0000000E+00;  0.0000000E+00;  1.0002209E+03;  1.0000000E-01;  1.8300717E+02;0;  0.0000000E+00;  0.0000000E+00;  0.0000000E+00;0;  5.1142708E-03;  4.0000000E+04;  0.0000000E+00;  0.0000000E+00;  4.0000000E+04;  0.0000000E+00;  4.0000000E+04;  5.1331255E-03;  0.0000000E+00; -1.8854700E-05;  3.3970770E+02;
 -1.0000000E-01;  9.9999998E-03; -7.0000000E-02;946;  0.0000000E+00;  0.0000000E+00;  0.0000000E+00;  1.0002117E+03;  1.0000000E-01;  1.7540245E+02;0;  0.0000000E+00;  0.0000000E+00;  0.0000000E+00;0;  5.0730854E-03;  4.0000000E+04;  0.0000000E+00;  0.0000000E+00;  4.0000000E+04;  0.0000000E+00;  4.0000000E+04;  5.0881836E-03;  0.0000000E+00; -1.5098291E-05;  3.4482822E+02;
 -1.0000000E-01;  9.9999998E-03; -5.9999999E-02;947;  0.0000000E+00;  0.0000000E+00;  0.0000000E+00;  1.0002024E+03;  1.0000000E-01;  1.6769896E+02;0;  0.0000000E+00;  0.0000000E+00;  0.0000000E+00;0;  5.0313119E-03;  4.0000000E+04;  0.0000000E+00;  0.0000000E+00;  4.0000000E+04;  0.0000000E+00;  4.0000000E+04;  5.0414135E-03;  0.0000000E+00; -1.0101683E-05;  3.4962891E+02;
 -1.0000000E-01;  9.9999998E-03; -5.0000001E-02;948;  0.0000000E+00;  0.0000000E+00;  0.0000000E+00;  1.0001975E+03;  1.0000000E-01;  1.6364969E+02;0;  0.0000000E+00;  0.0000000E+00;  0.0000000E+00;0;  4.9909959E-03;  4.0000000E+04;  0.0000000E+00;  0.0000000E+00;  4.0000000E+04;  0.0000000E+00;  4.0000000E+04;  4.9952529E-03;  0.0000000E+00; -4.2570027E-06;  3.5381125E+02;
 -1.0000000E-01;  9.9999998E-03; -3.9999999E-02;949;  0.0000000E+00;  0.0000000E+00;  0.0000000E+00;  1.0001926E+03;  1.0000000E-01;  1.5950166E+02;0;  0.0000000E+00;  0.0000000E+00;  0.0000000E+00;0;  4.9542780E-03;  4.0000000E+04;  0.0000000E+00;  0.0000000E+00;  4.0000000E+04;  0.0000000E+00;  4.0000000E+04;  4.9524158E-03;  0.0000000E+00;  1.8621150E-06;  3.5719733E+02;
 -1.0000000E-01;  9.9999998E-03; -2.9999999E-02;950;  0.0000000E+00;  0.0000000E+00;  0.0000000E+00;  1.0001886E+03;  1.0000000E-01;  1.5624249E+02;0;  0.0000000E+00;  0.0000000E+00;  0.0000000E+00;0;  4.9232286E-03;  4.0000000E+04;  0.0000000E+00;  0.0000000E+00;  4.0000000E+04;  0.0000000E+00;  4.0000000E+04;  4.9156412E-03;  0.0000000E+00;  7.5872599E-06;  3.5972946E+02;
 -1.0000000E-01;  9.9999998E-03; -2.0000000E-02;951;  0.0000000E+00;  0.0000000E+00;  0.0000000E+00;  1.0001867E+03;  1.0000000E-01;  1.5466229E+02;0;  0.0000000E+00;  0.0000000E+00;  0.0000000E+00;0;  4.8996466E-03;  4.0000000E+04;  0.0000000E+00;  0.0000000E+00;  4.0000000E+04;  0.0000000E+00;  4.0000000E+04;  4.8873913E-03;  0.0000000E+00;  1.2255044E-05;  3.6144772E+02;
 -1.0000000E-01;  9.9999998E-03; -9.9999998E-03;952;  0.0000000E+00;  0.0000000E+00;  0.0000000E+00;  1.0001855E+03;  1.0000000E-01;  1.5367467E+02;0;  0.0000000E+00;  0.0000000E+00;  0.0000000E+00;0;  4.8849103E-03;  4.0000000E+04;  0.0000000E+00;  0.0000000E+00;  4.0000000E+04;  0.0000000E+00;  4.0000000E+04;  4.8696045E-03;  0.0000000E+00;  1.5305690E-05;  3.6242828E+02;
 -1.0000000E-01;  9.9999998E-03;  0.0000000E+00;953;  0.0000000E+00;  0.0000000E+00;  0.0000000E+00;  1.0001849E+03;  1.0000000E-01;  1.5318085E+02;0;  0.0000000E+00;  0.0000000E+00;  0.0000000E+00;0;  4.8799003E-03;  4.0000000E+04;  0.0000000E+00;  0.0000000E+00;  4.0000000E+04;  0.0000000E+00;  4.0000000E+04;  4.8635341E-03;  0.0000000E+00;  1.6366093E-05;  3.6274655E+02;
 -1.0000000E-01;  9.9999998E-03;  9.9999998E-03;954;  0.0000000E+00;  0.0000000E+00;  0.0000000E+00;  1.0001855E+03;  1.0000000E-01;  1.5367467E+02;0;  0.0000000E+00;  0.0000000E+00;  0.0000000E+00;0;  4.8849117E-03;  4.0000000E+04;  0.0000000E+00;  0.0000000E+00;  4.0000000E+04;  0.0000000E+00;  4.0000000E+04;  4.8696063E-03;  0.0000000E+00;  1.5305437E-05;  3.6242865E+02;
 -1.0000000E-01;  9.9999998E-03;  2.0000000E-02;955;  0.0000000E+00;  0.0000000E+00;  0.0000000E+00;  1.0001867E+03;  1.0000000E-01;  1.5466229E+02;0;  0.0000000E+00;  0.0000000E+00;  0.0000000E+00;0;  4.8996443E-03;  4.0000000E+04;  0.0000000E+00;  0.0000000E+00;  4.0000000E+04;  0.0000000E+00;  4.0000000E+04;  4.8873900E-03;  0.0000000E+00;  1.2254575E-05;  3.6144827E+02;
 -1.0000000E-01;  9.9999998E-03;  2.9999999E-02;956;  0.0000000E+00;  0.0000000E+00;  0.0000000E+00;  1.0001886E+03;  1.0000000E-01;  1.5624249E+02;0;  0.0000000E+00;  0.0000000E+00;  0.0000000E+00;0;  4.9232324E-03;  4.0000000E+04;  0.0000000E+00;  0.0000000E+00;  4.0000000E+04;  0.0000000E+00;  4.0000000E+04;  4.9156458E-03;  0.0000000E+00;  7.5866392E-06;  3.5973035E+02;
 -1.0000000E-01;  9.9999998E-03;  3.9999999E-02;957;  0.0000000E+00;  0.0000000E+00;  0.0000000E+00;  1.0001926E+03;  1.0000000E-01;  1.5950166E+02;0;  0.0000000E+00;  0.0000000E+00;  0.0000000E+00;0;  4.9542850E-03;  4.0000000E+04;  0.0000000E+00;  0.0000000E+00;  4.0000000E+04;  0.0000000E+00;  4.0000000E+04;  4.9524237E-03;  0.0000000E+00;  1.8614235E-06;  3.5719855E+02;
 -1.0000000E-01;  9.9999998E-03;  5.0000001E-02;958;  0.0000000E+00;  0.0000000E+00;  0.0000000E+00;  1.0001975E+03;  1.0000000E-01;  1.6364969E+02;0;  0.0000000E+00;  0.0000000E+00;  0.0000000E+00;0;  4.9910001E-03;  4.0000000E+04;  0.0000000E+00;  0.0000000E+00;  4.0000000E+04;  0.0000000E+00;  4.0000000E+04;  4.9952576E-03;  0.0000000E+00; -4.2576821E-06;  3.5381238E+02;
 -1.0000000E-01;  9.9999998E-03;  5.9999999E-02;959;  0.0000000E+00;  0.0000000E+00;  0.0000000E+00;  1.0002024E+03;  1.0000000E-01;  1.6769896E+02;0;  0.0000000E+00;  0.0000000E+00;  0.0000000E+00;0;  5.0313156E-03;  4.0000000E+04;  0.0000000E+00;  0.0000000E+00;  4.0000000E+04;  0.0000000E+00;  4.0000000E+04;  5.0414177E-03;  0.0000000E+00; -1.0102277E-05;  3.4962994E+02;
 -9.0000004E-02;  9.9999998E-03; -1.0000000E-01;1034;  0.0000000E+00;  0.0000000E+00;  0.0000000E+00;  1.0005372E+03;  1.0000000E-01;  4.4502444E+02;0;  0.0000000E+00;  0.0000000E+00;  0.0000000E+00;0;  7.7720629E-03;  4.0000000E+04;  0.0000000E+00;  0.0000000E+00;  4.0000000E+04;  0.0000000E+00;  4.0000000E+04;  7.8129228E-03;  0.0000000E+00; -4.0859770E-05;  4.9508456E+02;
 -9.0000004E-02;  9.9999998E-03; -9.0000004E-02;1035;  0.0000000E+00;  0.0000000E+00;  0.0000000E+00;  1.0005264E+03;  1.0000000E-01;  4.3603705E+02;0;  0.0000000E+00;  0.0000000E+00;  0.0000000E+00;0;  7.7173500E-03;  4.0000000E+04;  0.0000000E+00;  0.0000000E+00;  4.0000000E+04;  0.0000000E+00;  4.0000000E+04;  7.7557839E-03;  0.0000000E+00; -3.8433922E-05;  5.0336734E+02;
 -9.0000004E-02;  9.9999998E-03; -7.9999998E-02;1036;  0.0000000E+00;  0.0000000E+00;  0.0000000E+00;  1.0005131E+03;  1.0000000E-01;  4.2507440E+02;0;  0.0000000E+00;  0.0000000E+00;  0.0000000E+00;0;  7.6572397E-03;  4.0000000E+04;  0.0000000E+00;  0.0000000E+00;  4.0000000E+04;  0.0000000E+00;  4.0000000E+04;  7.6912618E-03;  0.0000000E+00; -3.4022123E-05;  5.1240009E+02;
 -9.0000004E-02;  9.9999998E-03; -7.0000000E-02;1037;  0.0000000E+00;  0.0000000E+00;  0.0000000E+00;  1.0005007E+03;  1.0000000E-01;  4.1480307E+02;0;  0.0000000E+00;  0.0000000E+00;  0.0000000E+00;0;  7.5938907E-03;  4.0000000E+04;  0.0000000E+00;  0.0000000E+00;  4.0000000E+04;  0.0000000E+00;  4.0000000E+04;  7.6213037E-03;  0.0000000E+00; -2.7413056E-05;  5.2146777E+02;
 -9.0000004E-02;  9.9999998E-03; -5.9999999E-02;1038;  0.0000000E+00;  0.0000000E+00;  0.0000000E+00;  1.0004902E+03;  1.0000000E-01;  4.0611197E+02;0;  0.0000000E+00;  0.0000000E+00;  0.0000000E+00;0;  7.5299693E-03;  4.0000000E+04;  0.0000000E+00;  0.0000000E+00;  4.0000000E+04;  0.0000000E+00;  4.0000000E+04;  7.5488109E-03;  0.0000000E+00; -1.8841574E-05;  5.2996027E+02;
 -9.0000004E-02;  9.9999998E-03; -5.0000001E-02;1039;  0.0000000E+00;  0.0000000E+00;  0.0000000E+00;  1.0004789E+03;  1.0000000E-01;  3.9682828E+02;0;  0.0000000E+00;  0.0000000E+00;  0.0000000E+00;0;  7.4685249E-03;  4.0000000E+04;  0.0000000E+00;  0.0000000E+00;  4.0000000E+04;  0.0000000E+00;  4.0000000E+04;  7.4774688E-03;  0.0000000E+00; -8.9440746E-06;  5.3742633E+02;
 -9.0000004E-02;  9.9999998E-03; -3.9999999E-02;1040;  0.0000000E+00;  0.0000000E+00;  0.0000000E+00;  1.0004706E+03;  1.0000000E-01;  3.8991489E+02;0;  0.0000000E+00;  0.0000000E+00;  0.0000000E+00;0;  7.4127186E-03;  4.0000000E+04;  0.0000000E+00;  0.0000000E+00;  4.0000000E+04;  0.0000000E+00;  4.0000000E+04;  7.4113761E-03;  0.0000000E+00;  1.3427282E-06;  5.4357703E+02;
 -9.0000004E-02;  9.9999998E-03; -2.9999999E-02;1041;  0.0000000E+00;  0.0000000E+00;  0.0000000E+00;  1.0004644E+03;  1.0000000E-01;  3.8477924E+02;0;  0.0000000E+00;  0.0000000E+00;  0.0000000E+00;0;  7.3656319E-03;  4.0000000E+04;  0.0000000E+00;  0.0000000E+00;  4.0000000E+04;  0.0000000E+00;  4.0000000E+04;  7.3547070E-03;  0.0000000E+00;  1.0924965E-05;  5.4829724E+02;
 -9.0000004E-02;  9.9999998E-03; -2.0000000E-02;1042;  0.0000000E+00;  0.0000000E+00;  0.0000000E+00;  1.0004602E+03;  1.0000000E-01;  3.8122379E+02;0;  0.0000000E+00;  0.0000000E+00;  0.0000000E+00;0;  7.3298975E-03;  4.0000000E+04;  0.0000000E+00;  0.0000000E+00;  4.0000000E+04;  0.0000000E+00;  4.0000000E+04;  7.3111812E-03;  0.0000000E+00;  1.8716286E-05;  5.5159192E+02;
 -9.0000004E-02;  9.9999998E-03; -9.9999998E-03;1043;  0.0000000E+00;  0.0000000E+00;  0.0000000E+00;  1.0004573E+03;  1.0000000E-01;  3.7885349E+02;0;  0.0000000E+00;  0.0000000E+00;  0.0000000E+00;0;  7.3075914E-03;  4.0000000E+04;  0.0000000E+00;  0.0000000E+00;  4.0000000E+04;  0.0000000E+00;  4.0000000E+04;  7.2837914E-03;  0.0000000E+00;  2.3800110E-05;  5.5352594E+02;
 -9.0000004E-02;  9.9999998E-03;  0.0000000E+00;1044;  0.0000000E+00;  0.0000000E+00;  0.0000000E+00;  1.0004558E+03;  1.0000000E-01;  3.7766833E+02;0;  0.0000000E+00;  0.0000000E+00;  0.0000000E+00;0;  7.3000030E-03;  4.0000000E+04;  0.0000000E+00;  0.0000000E+00;  4.0000000E+04;  0.0000000E+00;  4.0000000E+04;  7.2744372E-03;  0.0000000E+00;  2.5565920E-05;  5.5416211E+02;
 -9.0000004E-02;  9.9999998E-03;  9.9999998E-03;1045;  0.0000000E+00;  0.0000000E+00;  0.0000000E+00;  1.0004573E+03;  1.0000000E-01;  3.7885349E+02;0;  0.0000000E+00;  0.0000000E+00;  0.0000000E+00;0;  7.3075937E-03;  4.0000000E+04;  0.0000000E+00;  0.0000000E+00;  4.0000000E+04;  0.0000000E+00;  4.0000000E+04;  7.2837938E-03;  0.0000000E+00;  2.3799717E-05;  5.5352667E+02;
 -9.0000004E-02;  9.9999998E-03;  2.0000000E-02;1046;  0.0000000E+00;  0.0000000E+00;  0.0000000E+00;  1.0004602E+03;  1.0000000E-01;  3.8122379E+02;0;  0.0000000E+00;  0.0000000E+00;  0.0000000E+00;0;  7.3299035E-03;  4.0000000E+04;  0.0000000E+00;  0.0000000E+00;  4.0000000E+04;  0.0000000E+00;  4.0000000E+04;  7.3111882E-03;  0.0000000E+00;  1.8715540E-05;  5.5159247E+02;
 -9.0000004E-02;  9.9999998E-03;  2.9999999E-02;1047;  0.0000000E+00;  0.0000000E+00;  0.0000000E+00;  1.0004644E+03;  1.0000000E-01;  3.8477924E+02;0;  0.0000000E+00;  0.0000000E+00;  0.0000000E+00;0;  7.3656365E-03;  4.0000000E+04;  0.0000000E+00;  0.0000000E+00;  4.0000000E+04;  0.0000000E+00;  4.0000000E+04;  7.3547126E-03;  0.0000000E+00;  1.0923987E-05;  5.4829944E+02;
 -9.0000004E-02;  9.9999998E-03;  3.9999999E-02;1048;  0.0000000E+00;  0.0000000E+00;  0.0000000E+00;  1.0004705E+03;  1.0000000E-01;  3.8981613E+02;0;  0.0000000E+00;  0.0000000E+00;  0.0000000E+00;0;  7.4127237E-03;  4.0000000E+04;  0.0000000E+00;  0.0000000E+00;  4.0000000E+04;  0.0000000E+00;  4.0000000E+04;  7.4113822E-03;  0.0000000E+00;  1.3416312E-06;  5.4357843E+02;
 -9.0000004E-02;  9.9999998E-03;  5.0000001E-02;1049;  0.0000000E+00;  0.0000000E+00;  0.0000000E+00;  1.0004789E+03;  1.0000000E-01;  3.9682828E+02;0;  0.0000000E+00;  0.0000000E+00;  0.0000000E+00;0;  7.4685346E-03;  4.0000000E+04;  0.0000000E+00;  0.0000000E+00;  4.0000000E+04;  0.0000000E+00;  4.0000000E+04;  7.4774800E-03;  0.0000000E+00; -8.9451560E-06;  5.3742780E+02;
 -9.0000004E-02;  9.9999998E-03;  5.9999999E-02;1050;  0.0000000E+00;  0.0000000E+00;  0.0000000E+00;  1.0004902E+03;  1.0000000E-01;  4.0611197E+02;0;  0.0000000E+00;  0.0000000E+00;  0.0000000E+00;0;  7.5299800E-03;  4.0000000E+04;  0.0000000E+00;  0.0000000E+00;  4.0000000E+04;  0.0000000E+00;  4.0000000E+04;  7.5488226E-03;  0.0000000E+00; -1.8842531E-05;  5.2996069E+02;
 -7.9999998E-02;  9.9999998E-03; -1.0000000E-01;1125;  0.0000000E+00;  0.0000000E+00;  0.0000000E+00;  1.0010343E+03;  1.0000000E-01;  8.5686469E+02;0;  0.0000000E+00;  0.0000000E+00;  0.0000000E+00;0;  1.0879375E-02;  4.0000000E+04;  0.0000000E+00;  0.0000000E+00;  4.0000000E+04;  0.0000000E+00;  4.0000000E+04;  1.0948305E-02;  0.0000000E+00; -6.8929963E-05;  6.9629749E+02;
 -7.9999998E-02;  9.9999998E-03; -9.0000004E-02;1126;  0.0000000E+00;  0.0000000E+00;  0.0000000E+00;  1.0010181E+03;  1.0000000E-01;  8.4353168E+02;0;  0.0000000E+00;  0.0000000E+00;  0.0000000E+00;0;  1.0799411E-02;  4.0000000E+04;  0.0000000E+00;  0.0000000E+00;  4.0000000E+04;  0.0000000E+00;  4.0000000E+04;  1.0863820E-02;  0.0000000E+00; -6.4409513E-05;  7.0974390E+02;
 -7.9999998E-02;  9.9999998E-03; -7.9999998E-02;1127;  0.0000000E+00;  0.0000000E+00;  0.0000000E+00;  1.0010013E+03;  1.0000000E-01;  8.2950739E+02;0;  0.0000000E+00;  0.0000000E+00;  0.0000000E+00;0;  1.0712001E-02;  4.0000000E+04;  0.0000000E+00;  0.0000000E+00;  4.0000000E+04;  0.0000000E+00;  4.0000000E+04;  1.0769014E-02;  0.0000000E+00; -5.7012367E-05;  7.2432733E+02;
 -7.9999998E-02;  9.9999998E-03; -7.0000000E-02;1128;  0.0000000E+00;  0.0000000E+00;  0.0000000E+00;  1.0009853E+03;  1.0000000E-01;  8.1627319E+02;0;  0.0000000E+00;  0.0000000E+00;  0.0000000E+00;0;  1.0620334E-02;  4.0000000E+04;  0.0000000E+00;  0.0000000E+00;  4.0000000E+04;  0.0000000E+00;  4.0000000E+04;  1.0666729E-02;  0.0000000E+00; -4.6394893E-05;  7.3894849E+02;
 -7.9999998E-02;  9.9999998E-03; -5.9999999E-02;1129;  0.0000000E+00;  0.0000000E+00;  0.0000000E+00;  1.0009686E+03;  1.0000000E-01;  8.0244641E+02;0;  0.0000000E+00;  0.0000000E+00;  0.0000000E+00;0;  1.0528245E-02;  4.0000000E+04;  0.0000000E+00;  0.0000000E+00;  4.0000000E+04;  0.0000000E+00;  4.0000000E+04;  1.0561137E-02;  0.0000000E+00; -3.2892800E-05;  7.5268958E+02;
 -7.9999998E-02;  9.9999998E-03; -5.0000001E-02;1130;  0.0000000E+00;  0.0000000E+00;  0.0000000E+00;  1.0009536E+03;  1.0000000E-01;  7.9000232E+02;0;  0.0000000E+00;  0.0000000E+00;  0.0000000E+00;0;  1.0440026E-02;  4.0000000E+04;  0.0000000E+00;  0.0000000E+00;  4.0000000E+04;  0.0000000E+00;  4.0000000E+04;  1.0457482E-02;  0.0000000E+00; -1.7455914E-05;  7.6486304E+02;
 -7.9999998E-02;  9.9999998E-03; -3.9999999E-02;1131;  0.0000000E+00;  0.0000000E+00;  0.0000000E+00;  1.0009418E+03;  1.0000000E-01;  7.8032361E+02;0;  0.0000000E+00;  0.0000000E+00;  0.0000000E+00;0;  1.0360131E-02;  4.0000000E+04;  0.0000000E+00;  0.0000000E+00;  4.0000000E+04;  0.0000000E+00;  4.0000000E+04;  1.0361629E-02;  0.0000000E+00; -1.4974833E-06;  7.7501215E+02;
 -7.9999998E-02;  9.9999998E-03; -2.9999999E-02;1132;  0.0000000E+00;  0.0000000E+00;  0.0000000E+00;  1.0009331E+03;  1.0000000E-01;  7.7301520E+02;0;  0.0000000E+00;  0.0000000E+00;  0.0000000E+00;0;  1.0292834E-02;  4.0000000E+04;  0.0000000E+00;  0.0000000E+00;  4.0000000E+04;  0.0000000E+00;  4.0000000E+04;  1.0279510E-02;  0.0000000E+00;  1.3323252E-05;  7.8291309E+02;
 -7.9999998E-02;  9.9999998E-03; -2.0000000E-02;1133;  0.0000000E+00;  0.0000000E+00;  0.0000000E+00;  1.0009263E+03;  1.0000000E-01;  7.6748450E+02;0;  0.0000000E+00;  0.0000000E+00;  0.0000000E+00;0;  1.0241844E-02;  4.0000000E+04;  0.0000000E+00;  0.0000000E+00;  4.0000000E+04;  0.0000000E+00;  4.0000000E+04;  1.0216490E-02;  0.0000000E+00;  2.5353273E-05;  7.8850842E+02;
 -7.9999998E-02;  9.9999998E-03; -9.9999998E-03;1134;  0.0000000E+00;  0.0000000E+00;  0.0000000E+00;  1.0009230E+03;  1.0000000E-01;  7.6462036E+02;0;  0.0000000E+00;  0.0000000E+00;  0.0000000E+00;0;  1.0210035E-02;  4.0000000E+04;  0.0000000E+00;  0.0000000E+00;  4.0000000E+04;  0.0000000E+00;  4.0000000E+04;  1.0176840E-02;  0.0000000E+00;  3.3195396E-05;  7.9182483E+02;
 -7.9999998E-02;  9.9999998E-03;  0.0000000E+00;1135;  0.0000000E+00;  0.0000000E+00;  0.0000000E+00;  1.0009219E+03;  1.0000000E-01;  7.6383026E+02;0;  0.0000000E+00;  0.0000000E+00;  0.0000000E+00;0;  1.0199214E-02;  4.0000000E+04;  0.0000000E+00;  0.0000000E+00;  4.0000000E+04;  0.0000000E+00;  4.0000000E+04;  1.0163296E-02;  0.0000000E+00;  3.5918129E-05;  7.9292596E+02;
 -7.9999998E-02;  9.9999998E-03;  9.9999998E-03;1136;  0.0000000E+00;  0.0000000E+00;  0.0000000E+00;  1.0009230E+03;  1.0000000E-01;  7.6462036E+02;0;  0.0000000E+00;  0.0000000E+00;  0.0000000E+00;0;  1.0210044E-02;  4.0000000E+04;  0.0000000E+00;  0.0000000E+00;  4.0000000E+04;  0.0000000E+00;  4.0000000E+04;  1.0176849E-02;  0.0000000E+00;  3.3194843E-05;  7.9182544E+02;
 -7.9999998E-02;  9.9999998E-03;  2.0000000E-02;1137;  0.0000000E+00;  0.0000000E+00;  0.0000000E+00;  1.0009263E+03;  1.0000000E-01;  7.6748450E+02;0;  0.0000000E+00;  0.0000000E+00;  0.0000000E+00;0;  1.0241850E-02;  4.0000000E+04;  0.0000000E+00;  0.0000000E+00;  4.0000000E+04;  0.0000000E+00;  4.0000000E+04;  1.0216498E-02;  0.0000000E+00;  2.5352225E-05;  7.8851031E+02;
 -7.9999998E-02;  9.9999998E-03;  2.9999999E-02;1138;  0.0000000E+00;  0.0000000E+00;  0.0000000E+00;  1.0009331E+03;  1.0000000E-01;  7.7301520E+02;0;  0.0000000E+00;  0.0000000E+00;  0.0000000E+00;0;  1.0292850E-02;  4.0000000E+04;  0.0000000E+00;  0.0000000E+00;  4.0000000E+04;  0.0000000E+00;  4.0000000E+04;  1.0279528E-02;  0.0000000E+00;  1.3321850E-05;  7.8291528E+02;
 -7.9999998E-02;  9.9999998E-03;  3.9999999E-02;1139;  0.0000000E+00;  0.0000000E+00;  0.0000000E+00;  1.0009418E+03;  1.0000000E-01;  7.8032361E+02;0;  0.0000000E+00;  0.0000000E+00;  0.0000000E+00;0;  1.0360141E-02;  4.0000000E+04;  0.0000000E+00;  0.0000000E+00;  4.0000000E+04;  0.0000000E+00;  4.0000000E+04;  1.0361641E-02;  0.0000000E+00; -1.4990808E-06;  7.7501300E+02;
 -7.9999998E-02;  9.9999998E-03;  5.0000001E-02;1140;  0.0000000E+00;  0.0000000E+00;  0.0000000E+00;  1.0009536E+03;  1.0000000E-01;  7.9000232E+02;0;  0.0000000E+00;  0.0000000E+00;  0.0000000E+00;0;  1.0440039E-02;  4.0000000E+04;  0.0000000E+00;  0.0000000E+00;  4.0000000E+04;  0.0000000E+00;  4.0000000E+04;  1.0457496E-02;  0.0000000E+00; -1.7457502E-05;  7.6486487E+02;
 -7.9999998E-02;  9.9999998E-03;  5.9999999E-02;1141;  0.0000000E+00;  0.0000000E+00;  0.0000000E+00;  1.0009686E+03;  1.0000000E-01;  8.0244641E+02;0;  0.0000000E+00;  0.0000000E+00;  0.0000000E+00;0;  1.0528254E-02;  4.0000000E+04;  0.0000000E+00;  0.0000000E+00;  4.0000000E+04;  0.0000000E+00;  4.0000000E+04;  1.0561149E-02;  0.0000000E+00; -3.2894193E-05;  7.5269305E+02;
 -7.0000000E-02;  9.9999998E-03; -1.0000000E-01;1216;  0.0000000E+00;  0.0000000E+00;  0.0000000E+00;  1.0018082E+03;  1.0000000E-01;  1.4980317E+03;0;  0.0000000E+00;  0.0000000E+00;  0.0000000E+00;0;  1.4399090E-02;  4.0000000E+04;  0.0000000E+00;  0.0000000E+00;  4.0000000E+04;  0.0000000E+00;  4.0000000E+04;  1.4507804E-02;  0.0000000E+00; -1.0871425E-04;  9.2762701E+02;
 -7.0000000E-02;  9.9999998E-03; -9.0000004E-02;1217;  0.0000000E+00;  0.0000000E+00;  0.0000000E+00;  1.0017875E+03;  1.0000000E-01;  1.4809458E+03;0;  0.0000000E+00;  0.0000000E+00;  0.0000000E+00;0;  1.4287885E-02;  4.0000000E+04;  0.0000000E+00;  0.0000000E+00;  4.0000000E+04;  0.0000000E+00;  4.0000000E+04;  1.4389212E-02;  0.0000000E+00; -1.0132735E-04;  9.4747040E+02;
 -7.0000000E-02;  9.9999998E-03; -7.9999998E-02;1218;  0.0000000E+00;  0.0000000E+00;  0.0000000E+00;  1.0017611E+03;  1.0000000E-01;  1.4590205E+03;0;  0.0000000E+00;  0.0000000E+00;  0.0000000E+00;0;  1.4166884E-02;  4.0000000E+04;  0.0000000E+00;  0.0000000E+00;  4.0000000E+04;  0.0000000E+00;  4.0000000E+04;  1.4256882E-02;  0.0000000E+00; -8.9998626E-05;  9.6907861E+02;
 -7.0000000E-02;  9.9999998E-03; -7.0000000E-02;1219;  0.0000000E+00;  0.0000000E+00;  0.0000000E+00;  1.0017348E+03;  1.0000000E-01;  1.4372927E+03;0;  0.0000000E+00;  0.0000000E+00;  0.0000000E+00;0;  1.4040523E-02;  4.0000000E+04;  0.0000000E+00;  0.0000000E+00;  4.0000000E+04;  0.0000000E+00;  4.0000000E+04;  1.4114724E-02;  0.0000000E+00; -7.4201613E-05;  9.9085059E+02;
 -7.0000000E-02;  9.9999998E-03; -5.9999999E-02;1220;  0.0000000E+00;  0.0000000E+00;  0.0000000E+00;  1.0017137E+03;  1.0000000E-01;  1.4198116E+03;0;  0.0000000E+00;  0.0000000E+00;  0.0000000E+00;0;  1.3914045E-02;  4.0000000E+04;  0.0000000E+00;  0.0000000E+00;  4.0000000E+04;  0.0000000E+00;  4.0000000E+04;  1.3968427E-02;  0.0000000E+00; -5.4381933E-05;  1.0114553E+03;
 -7.0000000E-02;  9.9999998E-03; -5.0000001E-02;1221;  0.0000000E+00;  0.0000000E+00;  0.0000000E+00;  1.0016935E+03;  1.0000000E-01;  1.4030221E+03;0;  0.0000000E+00;  0.0000000E+00;  0.0000000E+00;0;  1.3793258E-02;  4.0000000E+04;  0.0000000E+00;  0.0000000E+00;  4.0000000E+04;  0.0000000E+00;  4.0000000E+04;  1.3825128E-02;  0.0000000E+00; -3.1870244E-05;  1.0298656E+03;
 -7.0000000E-02;  9.9999998E-03; -3.9999999E-02;1222;  0.0000000E+00;  0.0000000E+00;  0.0000000E+00;  1.0016746E+03;  1.0000000E-01;  1.3873188E+03;0;  0.0000000E+00;  0.0000000E+00;  0.0000000E+00;0;  1.3684140E-02;  4.0000000E+04;  0.0000000E+00;  0.0000000E+00;  4.0000000E+04;  0.0000000E+00;  4.0000000E+04;  1.3692813E-02;  0.0000000E+00; -8.6731206E-06;  1.0453724E+03;
 -7.0000000E-02;  9.9999998E-03; -2.9999999E-02;1223;  0.0000000E+00;  0.0000000E+00;  0.0000000E+00;  1.0016620E+03;  1.0000000E-01;  1.3769487E+03;0;  0.0000000E+00;  0.0000000E+00;  0.0000000E+00;0;  1.3592379E-02;  4.0000000E+04;  0.0000000E+00;  0.0000000E+00;  4.0000000E+04;  0.0000000E+00;  4.0000000E+04;  1.3579543E-02;  0.0000000E+00;  1.2836428E-05;  1.0575671E+03;
 -7.0000000E-02;  9.9999998E-03; -2.0000000E-02;1224;  0.0000000E+00;  0.0000000E+00;  0.0000000E+00;  1.0016526E+03;  1.0000000E-01;  1.3691465E+03;0;  0.0000000E+00;  0.0000000E+00;  0.0000000E+00;0;  1.3522943E-02;  4.0000000E+04;  0.0000000E+00;  0.0000000E+00;  4.0000000E+04;  0.0000000E+00;  4.0000000E+04;  1.3492661E-02;  0.0000000E+00;  3.0282890E-05;  1.0662715E+03;
 -7.0000000E-02;  9.9999998E-03; -9.9999998E-03;1225;  0.0000000E+00;  0.0000000E+00;  0.0000000E+00;  1.0016476E+03;  1.0000000E-01;  1.3649984E+03;0;  0.0000000E+00;  0.0000000E+00;  0.0000000E+00;0;  1.3479683E-02;  4.0000000E+04;  0.0000000E+00;  0.0000000E+00;  4.0000000E+04;  0.0000000E+00;  4.0000000E+04;  1.3438030E-02;  0.0000000E+00;  4.1652154E-05;  1.0714735E+03;
 -7.0000000E-02;  9.9999998E-03;  0.0000000E+00;1226;  0.0000000E+00;  0.0000000E+00;  0.0000000E+00;  1.0016460E+03;  1.0000000E-01;  1.3637145E+03;0;  0.0000000E+00;  0.0000000E+00;  0.0000000E+00;0;  1.3464981E-02;  4.0000000E+04;  0.0000000E+00;  0.0000000E+00;  4.0000000E+04;  0.0000000E+00;  4.0000000E+04;  1.3419381E-02;  0.0000000E+00;  4.5599059E-05;  1.0731990E+03;
 -7.0000000E-02;  9.9999998E-03;  9.9999998E-03;1227;  0.0000000E+00;  0.0000000E+00;  0.0000000E+00;  1.0016476E+03;  1.0000000E-01;  1.3649984E+03;0;  0.0000000E+00;  0.0000000E+00;  0.0000000E+00;0;  1.3479678E-02;  4.0000000E+04;  0.0000000E+00;  0.0000000E+00;  4.0000000E+04;  0.0000000E+00;  4.0000000E+04;  1.3438026E-02;  0.0000000E+00;  4.1651416E-05;  1.0714739E+03;
 -7.0000000E-02;  9.9999998E-03;  2.0000000E-02;1228;  0.0000000E+00;  0.0000000E+00;  0.0000000E+00;  1.0016526E+03;  1.0000000E-01;  1.3691465E+03;0;  0.0000000E+00;  0.0000000E+00;  0.0000000E+00;0;  1.3522952E-02;  4.0000000E+04;  0.0000000E+00;  0.0000000E+00;  4.0000000E+04;  0.0000000E+00;  4.0000000E+04;  1.3492671E-02;  0.0000000E+00;  3.0281451E-05;  1.0662738E+03;
 -7.0000000E-02;  9.9999998E-03;  2.9999999E-02;1229;  0.0000000E+00;  0.0000000E+00;  0.0000000E+00;  1.0016620E+03;  1.0000000E-01;  1.3769487E+03;0;  0.0000000E+00;  0.0000000E+00;  0.0000000E+00;0;  1.3592393E-02;  4.0000000E+04;  0.0000000E+00;  0.0000000E+00;  4.0000000E+04;  0.0000000E+00;  4.0000000E+04;  1.3579559E-02;  0.0000000E+00;  1.2834530E-05;  1.0575684E+03;
 -7.0000000E-02;  9.9999998E-03;  3.9999999E-02;1230;  0.0000000E+00;  0.0000000E+00;  0.0000000E+00;  1.0016746E+03;  1.0000000E-01;  1.3873188E+03;0;  0.0000000E+00;  0.0000000E+00;  0.0000000E+00;0;  1.3684154E-02;  4.0000000E+04;  0.0000000E+00;  0.0000000E+00;  4.0000000E+04;  0.0000000E+00;  4.0000000E+04;  1.3692829E-02;  0.0000000E+00; -8.6752752E-06;  1.0453740E+03;
 -7.0000000E-02;  9.9999998E-03;  5.0000001E-02;1231;  0.0000000E+00;  0.0000000E+00;  0.0000000E+00;  1.0016935E+03;  1.0000000E-01;  1.4030221E+03;0;  0.0000000E+00;  0.0000000E+00;  0.0000000E+00;0;  1.3793276E-02;  4.0000000E+04;  0.0000000E+00;  0.0000000E+00;  4.0000000E+04;  0.0000000E+00;  4.0000000E+04;  1.3825148E-02;  0.0000000E+00; -3.1872412E-05;  1.0298689E+03;
 -7.0000000E-02;  9.9999998E-03;  5.9999999E-02;1232;  0.0000000E+00;  0.0000000E+00;  0.0000000E+00;  1.0017137E+03;  1.0000000E-01;  1.4198116E+03;0;  0.0000000E+00;  0.0000000E+00;  0.0000000E+00;0;  1.3914061E-02;  4.0000000E+04;  0.0000000E+00;  0.0000000E+00;  4.0000000E+04;  0.0000000E+00;  4.0000000E+04;  1.3968444E-02;  0.0000000E+00; -5.4383785E-05;  1.0114565E+03;
 -5.9999999E-02;  9.9999998E-03; -1.0000000E-01;1307;  0.0000000E+00;  0.0000000E+00;  0.0000000E+00;  1.0029147E+03;  1.0000000E-01;  2.4147466E+03;0;  0.0000000E+00;  0.0000000E+00;  0.0000000E+00;0;  1.8136445E-02;  4.0000000E+04;  0.0000000E+00;  0.0000000E+00;  4.0000000E+04;  0.0000000E+00;  4.0000000E+04;  1.8298248E-02;  0.0000000E+00; -1.6180164E-04;  1.1764918E+03;
 -5.9999999E-02;  9.9999998E-03; -9.0000004E-02;1308;  0.0000000E+00;  0.0000000E+00;  0.0000000E+00;  1.0028896E+03;  1.0000000E-01;  2.3940063E+03;0;  0.0000000E+00;  0.0000000E+00;  0.0000000E+00;0;  1.7988194E-02;  4.0000000E+04;  0.0000000E+00;  0.0000000E+00;  4.0000000E+04;  0.0000000E+00;  4.0000000E+04;  1.8139230E-02;  0.0000000E+00; -1.5103629E-04;  1.2034487E+03;
 -5.9999999E-02;  9.9999998E-03; -7.9999998E-02;1309;  0.0000000E+00;  0.0000000E+00;  0.0000000E+00;  1.0028607E+03;  1.0000000E-01;  2.3700071E+03;0;  0.0000000E+00;  0.0000000E+00;  0.0000000E+00;0;  1.7827548E-02;  4.0000000E+04;  0.0000000E+00;  0.0000000E+00;  4.0000000E+04;  0.0000000E+00;  4.0000000E+04;  1.7962608E-02;  0.0000000E+00; -1.3506002E-04;  1.2331438E+03;
 -5.9999999E-02;  9.9999998E-03; -7.0000000E-02;1310;  0.0000000E+00;  0.0000000E+00;  0.0000000E+00;  1.0028258E+03;  1.0000000E-01;  2.3411685E+03;0;  0.0000000E+00;  0.0000000E+00;  0.0000000E+00;0;  1.7660365E-02;  4.0000000E+04;  0.0000000E+00;  0.0000000E+00;  4.0000000E+04;  0.0000000E+00;  4.0000000E+04;  1.7773474E-02;  0.0000000E+00; -1.1310895E-04;  1.2633605E+03;
 -5.9999999E-02;  9.9999998E-03; -5.9999999E-02;1311;  0.0000000E+00;  0.0000000E+00;  0.0000000E+00;  1.0027943E+03;  1.0000000E-01;  2.3149963E+03;0;  0.0000000E+00;  0.0000000E+00;  0.0000000E+00;0;  1.7493540E-02;  4.0000000E+04;  0.0000000E+00;  0.0000000E+00;  4.0000000E+04;  0.0000000E+00;  4.0000000E+04;  1.7579282E-02;  0.0000000E+00; -8.5741965E-05;  1.2922504E+03;
 -5.9999999E-02;  9.9999998E-03; -5.0000001E-02;1312;  0.0000000E+00;  0.0000000E+00;  0.0000000E+00;  1.0027684E+03;  1.0000000E-01;  2.2935647E+03;0;  0.0000000E+00;  0.0000000E+00;  0.0000000E+00;0;  1.7334651E-02;  4.0000000E+04;  0.0000000E+00;  0.0000000E+00;  4.0000000E+04;  0.0000000E+00;  4.0000000E+04;  1.7389387E-02;  0.0000000E+00; -5.4736218E-05;  1.3183391E+03;
 -5.9999999E-02;  9.9999998E-03; -3.9999999E-02;1313;  0.0000000E+00;  0.0000000E+00;  0.0000000E+00;  1.0027434E+03;  1.0000000E-01;  2.2728247E+03;0;  0.0000000E+00;  0.0000000E+00;  0.0000000E+00;0;  1.7191421E-02;  4.0000000E+04;  0.0000000E+00;  0.0000000E+00;  4.0000000E+04;  0.0000000E+00;  4.0000000E+04;  1.7214231E-02;  0.0000000E+00; -2.2809310E-05;  1.3405217E+03;
 -5.9999999E-02;  9.9999998E-03; -2.9999999E-02;1314;  0.0000000E+00;  0.0000000E+00;  0.0000000E+00;  1.0027247E+03;  1.0000000E-01;  2.2574177E+03;0;  0.0000000E+00;  0.0000000E+00;  0.0000000E+00;0;  1.7071180E-02;  4.0000000E+04;  0.0000000E+00;  0.0000000E+00;  4.0000000E+04;  0.0000000E+00;  4.0000000E+04;  1.7064381E-02;  0.0000000E+00;  6.7980709E-06;  1.3581298E+03;
 -5.9999999E-02;  9.9999998E-03; -2.0000000E-02;1315;  0.0000000E+00;  0.0000000E+00;  0.0000000E+00;  1.0027117E+03;  1.0000000E-01;  2.2466526E+03;0;  0.0000000E+00;  0.0000000E+00;  0.0000000E+00;0;  1.6980298E-02;  4.0000000E+04;  0.0000000E+00;  0.0000000E+00;  4.0000000E+04;  0.0000000E+00;  4.0000000E+04;  1.6949475E-02;  0.0000000E+00;  3.0822765E-05;  1.3707808E+03;
 -5.9999999E-02;  9.9999998E-03; -9.9999998E-03;1316;  0.0000000E+00;  0.0000000E+00;  0.0000000E+00;  1.0027039E+03;  1.0000000E-01;  2.2401343E+03;0;  0.0000000E+00;  0.0000000E+00;  0.0000000E+00;0;  1.6923709E-02;  4.0000000E+04;  0.0000000E+00;  0.0000000E+00;  4.0000000E+04;  0.0000000E+00;  4.0000000E+04;  1.6877223E-02;  0.0000000E+00;  4.6485537E-05;  1.3783722E+03;
 -5.9999999E-02;  9.9999998E-03;  0.0000000E+00;1317;  0.0000000E+00;  0.0000000E+00;  0.0000000E+00;  1.0027014E+03;  1.0000000E-01;  2.2380601E+03;0;  0.0000000E+00;  0.0000000E+00;  0.0000000E+00;0;  1.6904483E-02;  4.0000000E+04;  0.0000000E+00;  0.0000000E+00;  4.0000000E+04;  0.0000000E+00;  4.0000000E+04;  1.6852558E-02;  0.0000000E+00;  5.1924366E-05;  1.3809054E+03;
 -5.9999999E-02;  9.9999998E-03;  9.9999998E-03;1318;  0.0000000E+00;  0.0000000E+00;  0.0000000E+00;  1.0027039E+03;  1.0000000E-01;  2.2401343E+03;0;  0.0000000E+00;  0.0000000E+00;  0.0000000E+00;0;  1.6923713E-02;  4.0000000E+04;  0.0000000E+00;  0.0000000E+00;  4.0000000E+04;  0.0000000E+00;  4.0000000E+04;  1.6877228E-02;  0.0000000E+00;  4.6484536E-05;  1.3783745E+03;
 -5.9999999E-02;  9.9999998E-03;  2.0000000E-02;1319;  0.0000000E+00;  0.0000000E+00;  0.0000000E+00;  1.0027117E+03;  1.0000000E-01;  2.2466526E+03;0;  0.0000000E+00;  0.0000000E+00;  0.0000000E+00;0;  1.6980309E-02;  4.0000000E+04;  0.0000000E+00;  0.0000000E+00;  4.0000000E+04;  0.0000000E+00;  4.0000000E+04;  1.6949488E-02;  0.0000000E+00;  3.0820913E-05;  1.3707820E+03;
 -5.9999999E-02;  9.9999998E-03;  2.9999999E-02;1320;  0.0000000E+00;  0.0000000E+00;  0.0000000E+00;  1.0027247E+03;  1.0000000E-01;  2.2574177E+03;0;  0.0000000E+00;  0.0000000E+00;  0.0000000E+00;0;  1.7071178E-02;  4.0000000E+04;  0.0000000E+00;  0.0000000E+00;  4.0000000E+04;  0.0000000E+00;  4.0000000E+04;  1.7064383E-02;  0.0000000E+00;  6.7956457E-06;  1.3581335E+03;
 -5.9999999E-02;  9.9999998E-03;  3.9999999E-02;1321;  0.0000000E+00;  0.0000000E+00;  0.0000000E+00;  1.0027434E+03;  1.0000000E-01;  2.2728247E+03;0;  0.0000000E+00;  0.0000000E+00;  0.0000000E+00;0;  1.7191440E-02;  4.0000000E+04;  0.0000000E+00;  0.0000000E+00;  4.0000000E+04;  0.0000000E+00;  4.0000000E+04;  1.7214252E-02;  0.0000000E+00; -2.2812077E-05;  1.3405264E+03;
 -5.9999999E-02;  9.9999998E-03;  5.0000001E-02;1322;  0.0000000E+00;  0.0000000E+00;  0.0000000E+00;  1.0027684E+03;  1.0000000E-01;  2.2935647E+03;0;  0.0000000E+00;  0.0000000E+00;  0.0000000E+00;0;  1.7334664E-02;  4.0000000E+04;  0.0000000E+00;  0.0000000E+00;  4.0000000E+04;  0.0000000E+00;  4.0000000E+04;  1.7389404E-02;  0.0000000E+00; -5.4738892E-05;  1.3183428E+03;
 -5.9999999E-02;  9.9999998E-03;  5.9999999E-02;1323;  0.0000000E+00;  0.0000000E+00;  0.0000000E+00;  1.0027943E+03;  1.0000000E-01;  2.3149963E+03;0;  0.0000000E+00;  0.0000000E+00;  0.0000000E+00;0;  1.7493557E-02;  4.0000000E+04;  0.0000000E+00;  0.0000000E+00;  4.0000000E+04;  0.0000000E+00;  4.0000000E+04;  1.7579302E-02;  0.0000000E+00; -8.5744286E-05;  1.2922544E+03;
 -5.0000001E-02;  9.9999998E-03; -1.0000000E-01;1398;  0.0000000E+00;  0.0000000E+00;  0.0000000E+00;  1.0044017E+03;  1.0000000E-01;  3.6467117E+03;0;  0.0000000E+00;  0.0000000E+00;  0.0000000E+00;0;  2.1809060E-02;  4.0000000E+04;  0.0000000E+00;  0.0000000E+00;  4.0000000E+04;  0.0000000E+00;  4.0000000E+04;  2.2037635E-02;  0.0000000E+00; -2.2857499E-04;  1.4226327E+03;
 -5.0000001E-02;  9.9999998E-03; -9.0000004E-02;1399;  0.0000000E+00;  0.0000000E+00;  0.0000000E+00;  1.0043709E+03;  1.0000000E-01;  3.6212310E+03;0;  0.0000000E+00;  0.0000000E+00;  0.0000000E+00;0;  2.1618918E-02;  4.0000000E+04;  0.0000000E+00;  0.0000000E+00;  4.0000000E+04;  0.0000000E+00;  4.0000000E+04;  2.1833487E-02;  0.0000000E+00; -2.1456998E-04;  1.4565929E+03;
 -5.0000001E-02;  9.9999998E-03; -7.9999998E-02;1400;  0.0000000E+00;  0.0000000E+00;  0.0000000E+00;  1.0043301E+03;  1.0000000E-01;  3.5873552E+03;0;  0.0000000E+00;  0.0000000E+00;  0.0000000E+00;0;  2.1413581E-02;  4.0000000E+04;  0.0000000E+00;  0.0000000E+00;  4.0000000E+04;  0.0000000E+00;  4.0000000E+04;  2.1607377E-02;  0.0000000E+00; -1.9379542E-04;  1.4946802E+03;
 -5.0000001E-02;  9.9999998E-03; -7.0000000E-02;1401;  0.0000000E+00;  0.0000000E+00;  0.0000000E+00;  1.0042873E+03;  1.0000000E-01;  3.5518997E+03;0;  0.0000000E+00;  0.0000000E+00;  0.0000000E+00;0;  2.1200536E-02;  4.0000000E+04;  0.0000000E+00;  0.0000000E+00;  4.0000000E+04;  0.0000000E+00;  4.0000000E+04;  2.1365734E-02;  0.0000000E+00; -1.6519755E-04;  1.5340212E+03;
 -5.0000001E-02;  9.9999998E-03; -5.9999999E-02;1402;  0.0000000E+00;  0.0000000E+00;  0.0000000E+00;  1.0042491E+03;  1.0000000E-01;  3.5202954E+03;0;  0.0000000E+00;  0.0000000E+00;  0.0000000E+00;0;  2.0988466E-02;  4.0000000E+04;  0.0000000E+00;  0.0000000E+00;  4.0000000E+04;  0.0000000E+00;  4.0000000E+04;  2.1117911E-02;  0.0000000E+00; -1.2944503E-04;  1.5721608E+03;
 -5.0000001E-02;  9.9999998E-03; -5.0000001E-02;1403;  0.0000000E+00;  0.0000000E+00;  0.0000000E+00;  1.0042101E+03;  1.0000000E-01;  3.4880000E+03;0;  0.0000000E+00;  0.0000000E+00;  0.0000000E+00;0;  2.0786904E-02;  4.0000000E+04;  0.0000000E+00;  0.0000000E+00;  4.0000000E+04;  0.0000000E+00;  4.0000000E+04;  2.0875718E-02;  0.0000000E+00; -8.8815061E-05;  1.6070229E+03;
 -5.0000001E-02;  9.9999998E-03; -3.9999999E-02;1404;  0.0000000E+00;  0.0000000E+00;  0.0000000E+00;  1.0041777E+03;  1.0000000E-01;  3.4611367E+03;0;  0.0000000E+00;  0.0000000E+00;  0.0000000E+00;0;  2.0605568E-02;  4.0000000E+04;  0.0000000E+00;  0.0000000E+00;  4.0000000E+04;  0.0000000E+00;  4.0000000E+04;  2.0652421E-02;  0.0000000E+00; -4.6853707E-05;  1.6370016E+03;
 -5.0000001E-02;  9.9999998E-03; -2.9999999E-02;1405;  0.0000000E+00;  0.0000000E+00;  0.0000000E+00;  1.0041526E+03;  1.0000000E-01;  3.4403965E+03;0;  0.0000000E+00;  0.0000000E+00;  0.0000000E+00;0;  2.0453600E-02;  4.0000000E+04;  0.0000000E+00;  0.0000000E+00;  4.0000000E+04;  0.0000000E+00;  4.0000000E+04;  2.0461438E-02;  0.0000000E+00; -7.8378553E-06;  1.6609788E+03;
 -5.0000001E-02;  9.9999998E-03; -2.0000000E-02;1406;  0.0000000E+00;  0.0000000E+00;  0.0000000E+00;  1.0041349E+03;  1.0000000E-01;  3.4256809E+03;0;  0.0000000E+00;  0.0000000E+00;  0.0000000E+00;0;  2.0338899E-02;  4.0000000E+04;  0.0000000E+00;  0.0000000E+00;  4.0000000E+04;  0.0000000E+00;  4.0000000E+04;  2.0315010E-02;  0.0000000E+00;  2.3889106E-05;  1.6783422E+03;
 -5.0000001E-02;  9.9999998E-03; -9.9999998E-03;1407;  0.0000000E+00;  0.0000000E+00;  0.0000000E+00;  1.0041256E+03;  1.0000000E-01;  3.4179773E+03;0;  0.0000000E+00;  0.0000000E+00;  0.0000000E+00;0;  2.0267522E-02;  4.0000000E+04;  0.0000000E+00;  0.0000000E+00;  4.0000000E+04;  0.0000000E+00;  4.0000000E+04;  2.0222917E-02;  0.0000000E+00;  4.4604567E-05;  1.6887991E+03;
 -5.0000001E-02;  9.9999998E-03;  0.0000000E+00;1408;  0.0000000E+00;  0.0000000E+00;  0.0000000E+00;  1.0041224E+03;  1.0000000E-01;  3.4153108E+03;0;  0.0000000E+00;  0.0000000E+00;  0.0000000E+00;0;  2.0243304E-02;  4.0000000E+04;  0.0000000E+00;  0.0000000E+00;  4.0000000E+04;  0.0000000E+00;  4.0000000E+04;  2.0191500E-02;  0.0000000E+00;  5.1803545E-05;  1.6922876E+03;
 -5.0000001E-02;  9.9999998E-03;  9.9999998E-03;1409;  0.0000000E+00;  0.0000000E+00;  0.0000000E+00;  1.0041256E+03;  1.0000000E-01;  3.4179773E+03;0;  0.0000000E+00;  0.0000000E+00;  0.0000000E+00;0;  2.0267524E-02;  4.0000000E+04;  0.0000000E+00;  0.0000000E+00;  4.0000000E+04;  0.0000000E+00;  4.0000000E+04;  2.0222921E-02;  0.0000000E+00;  4.4603414E-05;  1.6887993E+03;
 -5.0000001E-02;  9.9999998E-03;  2.0000000E-02;1410;  0.0000000E+00;  0.0000000E+00;  0.0000000E+00;  1.0041349E+03;  1.0000000E-01;  3.4256809E+03;0;  0.0000000E+00;  0.0000000E+00;  0.0000000E+00;0;  2.0338899E-02;  4.0000000E+04;  0.0000000E+00;  0.0000000E+00;  4.0000000E+04;  0.0000000E+00;  4.0000000E+04;  2.0315012E-02;  0.0000000E+00;  2.3886845E-05;  1.6783425E+03;
 -5.0000001E-02;  9.9999998E-03;  2.9999999E-02;1411;  0.0000000E+00;  0.0000000E+00;  0.0000000E+00;  1.0041526E+03;  1.0000000E-01;  3.4403965E+03;0;  0.0000000E+00;  0.0000000E+00;  0.0000000E+00;0;  2.0453615E-02;  4.0000000E+04;  0.0000000E+00;  0.0000000E+00;  4.0000000E+04;  0.0000000E+00;  4.0000000E+04;  2.0461455E-02;  0.0000000E+00; -7.8407811E-06;  1.6609854E+03;
 -5.0000001E-02;  9.9999998E-03;  3.9999999E-02;1412;  0.0000000E+00;  0.0000000E+00;  0.0000000E+00;  1.0041777E+03;  1.0000000E-01;  3.4611367E+03;0;  0.0000000E+00;  0.0000000E+00;  0.0000000E+00;0;  2.0605575E-02;  4.0000000E+04;  0.0000000E+00;  0.0000000E+00;  4.0000000E+04;  0.0000000E+00;  4.0000000E+04;  2.0652432E-02;  0.0000000E+00; -4.6856949E-05;  1.6370044E+03;
 -5.0000001E-02;  9.9999998E-03;  5.0000001E-02;1413;  0.0000000E+00;  0.0000000E+00;  0.0000000E+00;  1.0042101E+03;  1.0000000E-01;  3.4880000E+03;0;  0.0000000E+00;  0.0000000E+00;  0.0000000E+00;0;  2.0786919E-02;  4.0000000E+04;  0.0000000E+00;  0.0000000E+00;  4.0000000E+04;  0.0000000E+00;  4.0000000E+04;  2.0875737E-02;  0.0000000E+00; -8.8818219E-05;  1.6070273E+03;
 -5.0000001E-02;  9.9999998E-03;  5.9999999E-02;1414;  0.0000000E+00;  0.0000000E+00;  0.0000000E+00;  1.0042491E+03;  1.0000000E-01;  3.5202954E+03;0;  0.0000000E+00;  0.0000000E+00;  0.0000000E+00;0;  2.0988485E-02;  4.0000000E+04;  0.0000000E+00;  0.0000000E+00;  4.0000000E+04;  0.0000000E+00;  4.0000000E+04;  2.1117933E-02;  0.0000000E+00; -1.2944761E-04;  1.5721648E+03;
 -3.9999999E-02;  9.9999998E-03; -1.0000000E-01;1489;  0.0000000E+00;  0.0000000E+00;  0.0000000E+00;  1.0062790E+03;  1.0000000E-01;  5.2020259E+03;0;  0.0000000E+00;  0.0000000E+00;  0.0000000E+00;0;  2.5062639E-02;  4.0000000E+04;  0.0000000E+00;  0.0000000E+00;  4.0000000E+04;  0.0000000E+00;  4.0000000E+04;  2.5370244E-02;  0.0000000E+00; -3.0760517E-04;  1.6384247E+03;
 -3.9999999E-02;  9.9999998E-03; -9.0000004E-02;1490;  0.0000000E+00;  0.0000000E+00;  0.0000000E+00;  1.0062365E+03;  1.0000000E-01;  5.1667676E+03;0;  0.0000000E+00;  0.0000000E+00;  0.0000000E+00;0;  2.4827745E-02;  4.0000000E+04;  0.0000000E+00;  0.0000000E+00;  4.0000000E+04;  0.0000000E+00;  4.0000000E+04;  2.5119308E-02;  0.0000000E+00; -2.9156273E-04;  1.6782651E+03;
 -3.9999999E-02;  9.9999998E-03; -7.9999998E-02;1491;  0.0000000E+00;  0.0000000E+00;  0.0000000E+00;  1.0061865E+03;  1.0000000E-01;  5.1253857E+03;0;  0.0000000E+00;  0.0000000E+00;  0.0000000E+00;0;  2.4574928E-02;  4.0000000E+04;  0.0000000E+00;  0.0000000E+00;  4.0000000E+04;  0.0000000E+00;  4.0000000E+04;  2.4841689E-02;  0.0000000E+00; -2.6676018E-04;  1.7240923E+03;
 -3.9999999E-02;  9.9999998E-03; -7.0000000E-02;1492;  0.0000000E+00;  0.0000000E+00;  0.0000000E+00;  1.0061341E+03;  1.0000000E-01;  5.0820293E+03;0;  0.0000000E+00;  0.0000000E+00;  0.0000000E+00;0;  2.4313305E-02;  4.0000000E+04;  0.0000000E+00;  0.0000000E+00;  4.0000000E+04;  0.0000000E+00;  4.0000000E+04;  2.4545085E-02;  0.0000000E+00; -2.3177981E-04;  1.7724027E+03;
 -3.9999999E-02;  9.9999998E-03; -5.9999999E-02;1493;  0.0000000E+00;  0.0000000E+00;  0.0000000E+00;  1.0060810E+03;  1.0000000E-01;  5.0379810E+03;0;  0.0000000E+00;  0.0000000E+00;  0.0000000E+00;0;  2.4053469E-02;  4.0000000E+04;  0.0000000E+00;  0.0000000E+00;  4.0000000E+04;  0.0000000E+00;  4.0000000E+04;  2.4240861E-02;  0.0000000E+00; -1.8739108E-04;  1.8200543E+03;
 -3.9999999E-02;  9.9999998E-03; -5.0000001E-02;1494;  0.0000000E+00;  0.0000000E+00;  0.0000000E+00;  1.0060328E+03;  1.0000000E-01;  4.9980811E+03;0;  0.0000000E+00;  0.0000000E+00;  0.0000000E+00;0;  2.3807105E-02;  4.0000000E+04;  0.0000000E+00;  0.0000000E+00;  4.0000000E+04;  0.0000000E+00;  4.0000000E+04;  2.3943534E-02;  0.0000000E+00; -1.3642979E-04;  1.8642706E+03;
 -3.9999999E-02;  9.9999998E-03; -3.9999999E-02;1495;  0.0000000E+00;  0.0000000E+00;  0.0000000E+00;  1.0059927E+03;  1.0000000E-01;  4.9648965E+03;0;  0.0000000E+00;  0.0000000E+00;  0.0000000E+00;0;  2.3585945E-02;  4.0000000E+04;  0.0000000E+00;  0.0000000E+00;  4.0000000E+04;  0.0000000E+00;  4.0000000E+04;  2.3669345E-02;  0.0000000E+00; -8.3400679E-05;  1.9027584E+03;
 -3.9999999E-02;  9.9999998E-03; -2.9999999E-02;1496;  0.0000000E+00;  0.0000000E+00;  0.0000000E+00;  1.0059601E+03;  1.0000000E-01;  4.9378354E+03;0;  0.0000000E+00;  0.0000000E+00;  0.0000000E+00;0;  2.3401031E-02;  4.0000000E+04;  0.0000000E+00;  0.0000000E+00;  4.0000000E+04;  0.0000000E+00;  4.0000000E+04;  2.3434844E-02;  0.0000000E+00; -3.3812474E-05;  1.9338691E+03;
 -3.9999999E-02;  9.9999998E-03; -2.0000000E-02;1497;  0.0000000E+00;  0.0000000E+00;  0.0000000E+00;  1.0059391E+03;  1.0000000E-01;  4.9204536E+03;0;  0.0000000E+00;  0.0000000E+00;  0.0000000E+00;0;  2.3261694E-02;  4.0000000E+04;  0.0000000E+00;  0.0000000E+00;  4.0000000E+04;  0.0000000E+00;  4.0000000E+04;  2.3255015E-02;  0.0000000E+00;  6.6802577E-06;  1.9565532E+03;
 -3.9999999E-02;  9.9999998E-03; -9.9999998E-03;1498;  0.0000000E+00;  0.0000000E+00;  0.0000000E+00;  1.0059255E+03;  1.0000000E-01;  4.9091943E+03;0;  0.0000000E+00;  0.0000000E+00;  0.0000000E+00;0;  2.3175152E-02;  4.0000000E+04;  0.0000000E+00;  0.0000000E+00;  4.0000000E+04;  0.0000000E+00;  4.0000000E+04;  2.3141960E-02;  0.0000000E+00;  3.3192340E-05;  1.9703063E+03;
 -3.9999999E-02;  9.9999998E-03;  0.0000000E+00;1499;  0.0000000E+00;  0.0000000E+00;  0.0000000E+00;  1.0059218E+03;  1.0000000E-01;  4.9060342E+03;0;  0.0000000E+00;  0.0000000E+00;  0.0000000E+00;0;  2.3145784E-02;  4.0000000E+04;  0.0000000E+00;  0.0000000E+00;  4.0000000E+04;  0.0000000E+00;  4.0000000E+04;  2.3103366E-02;  0.0000000E+00;  4.2418618E-05;  1.9748884E+03;
 -3.9999999E-02;  9.9999998E-03;  9.9999998E-03;1500;  0.0000000E+00;  0.0000000E+00;  0.0000000E+00;  1.0059255E+03;  1.0000000E-01;  4.9091943E+03;0;  0.0000000E+00;  0.0000000E+00;  0.0000000E+00;0;  2.3175145E-02;  4.0000000E+04;  0.0000000E+00;  0.0000000E+00;  4.0000000E+04;  0.0000000E+00;  4.0000000E+04;  2.3141954E-02;  0.0000000E+00;  3.3190994E-05;  1.9703070E+03;
 -3.9999999E-02;  9.9999998E-03;  2.0000000E-02;1501;  0.0000000E+00;  0.0000000E+00;  0.0000000E+00;  1.0059391E+03;  1.0000000E-01;  4.9204536E+03;0;  0.0000000E+00;  0.0000000E+00;  0.0000000E+00;0;  2.3261709E-02;  4.0000000E+04;  0.0000000E+00;  0.0000000E+00;  4.0000000E+04;  0.0000000E+00;  4.0000000E+04;  2.3255032E-02;  0.0000000E+00;  6.6776433E-06;  1.9565586E+03;
 -3.9999999E-02;  9.9999998E-03;  2.9999999E-02;1502;  0.0000000E+00;  0.0000000E+00;  0.0000000E+00;  1.0059602E+03;  1.0000000E-01;  4.9379346E+03;0;  0.0000000E+00;  0.0000000E+00;  0.0000000E+00;0;  2.3401055E-02;  4.0000000E+04;  0.0000000E+00;  0.0000000E+00;  4.0000000E+04;  0.0000000E+00;  4.0000000E+04;  2.3434872E-02;  0.0000000E+00; -3.3815908E-05;  1.9338757E+03;
 -3.9999999E-02;  9.9999998E-03;  3.9999999E-02;1503;  0.0000000E+00;  0.0000000E+00;  0.0000000E+00;  1.0059927E+03;  1.0000000E-01;  4.9648965E+03;0;  0.0000000E+00;  0.0000000E+00;  0.0000000E+00;0;  2.3585992E-02;  4.0000000E+04;  0.0000000E+00;  0.0000000E+00;  4.0000000E+04;  0.0000000E+00;  4.0000000E+04;  2.3669396E-02;  0.0000000E+00; -8.3404353E-05;  1.9027656E+03;
 -3.9999999E-02;  9.9999998E-03;  5.0000001E-02;1504;  0.0000000E+00;  0.0000000E+00;  0.0000000E+00;  1.0060328E+03;  1.0000000E-01;  4.9980811E+03;0;  0.0000000E+00;  0.0000000E+00;  0.0000000E+00;0;  2.3807133E-02;  4.0000000E+04;  0.0000000E+00;  0.0000000E+00;  4.0000000E+04;  0.0000000E+00;  4.0000000E+04;  2.3943566E-02;  0.0000000E+00; -1.3643321E-04;  1.8642743E+03;
 -3.9999999E-02;  9.9999998E-03;  5.9999999E-02;1505;  0.0000000E+00;  0.0000000E+00;  0.0000000E+00;  1.0060810E+03;  1.0000000E-01;  5.0379810E+03;0;  0.0000000E+00;  0.0000000E+00;  0.0000000E+00;0;  2.4053512E-02;  4.0000000E+04;  0.0000000E+00;  0.0000000E+00;  4.0000000E+04;  0.0000000E+00;  4.0000000E+04;  2.4240905E-02;  0.0000000E+00; -1.8739385E-04;  1.8200599E+03;
 -2.9999999E-02;  9.9999998E-03; -1.0000000E-01;1580;  0.0000000E+00;  0.0000000E+00;  0.0000000E+00;  1.0085080E+03;  1.0000000E-01;  7.0486895E+03;0;  0.0000000E+00;  0.0000000E+00;  0.0000000E+00;0;  2.7509529E-02;  4.0000000E+04;  0.0000000E+00;  0.0000000E+00;  4.0000000E+04;  0.0000000E+00;  4.0000000E+04;  2.7904784E-02;  0.0000000E+00; -3.9525598E-04;  1.7920045E+03;
 -2.9999999E-02;  9.9999998E-03; -9.0000004E-02;1581;  0.0000000E+00;  0.0000000E+00;  0.0000000E+00;  1.0084583E+03;  1.0000000E-01;  7.0075054E+03;0;  0.0000000E+00;  0.0000000E+00;  0.0000000E+00;0;  2.7230164E-02;  4.0000000E+04;  0.0000000E+00;  0.0000000E+00;  4.0000000E+04;  0.0000000E+00;  4.0000000E+04;  2.7609827E-02;  0.0000000E+00; -3.7966340E-04;  1.8354620E+03;
 -2.9999999E-02;  9.9999998E-03; -7.9999998E-02;1582;  0.0000000E+00;  0.0000000E+00;  0.0000000E+00;  1.0083939E+03;  1.0000000E-01;  6.9541738E+03;0;  0.0000000E+00;  0.0000000E+00;  0.0000000E+00;0;  2.6930636E-02;  4.0000000E+04;  0.0000000E+00;  0.0000000E+00;  4.0000000E+04;  0.0000000E+00;  4.0000000E+04;  2.7283357E-02;  0.0000000E+00; -3.5272187E-04;  1.8871678E+03;
 -2.9999999E-02;  9.9999998E-03; -7.0000000E-02;1583;  0.0000000E+00;  0.0000000E+00;  0.0000000E+00;  1.0083239E+03;  1.0000000E-01;  6.8962002E+03;0;  0.0000000E+00;  0.0000000E+00;  0.0000000E+00;0;  2.6621642E-02;  4.0000000E+04;  0.0000000E+00;  0.0000000E+00;  4.0000000E+04;  0.0000000E+00;  4.0000000E+04;  2.6934190E-02;  0.0000000E+00; -3.1254813E-04;  1.9431689E+03;
 -2.9999999E-02;  9.9999998E-03; -5.9999999E-02;1584;  0.0000000E+00;  0.0000000E+00;  0.0000000E+00;  1.0082554E+03;  1.0000000E-01;  6.8394116E+03;0;  0.0000000E+00;  0.0000000E+00;  0.0000000E+00;0;  2.6315697E-02;  4.0000000E+04;  0.0000000E+00;  0.0000000E+00;  4.0000000E+04;  0.0000000E+00;  4.0000000E+04;  2.6575711E-02;  0.0000000E+00; -2.6001470E-04;  1.9996967E+03;
 -2.9999999E-02;  9.9999998E-03; -5.0000001E-02;1585;  0.0000000E+00;  0.0000000E+00;  0.0000000E+00;  1.0081976E+03;  1.0000000E-01;  6.7916104E+03;0;  0.0000000E+00;  0.0000000E+00;  0.0000000E+00;0;  2.6026411E-02;  4.0000000E+04;  0.0000000E+00;  0.0000000E+00;  4.0000000E+04;  0.0000000E+00;  4.0000000E+04;  2.6225010E-02;  0.0000000E+00; -1.9859947E-04;  2.0531819E+03;
 -2.9999999E-02;  9.9999998E-03; -3.9999999E-02;1586;  0.0000000E+00;  0.0000000E+00;  0.0000000E+00;  1.0081465E+03;  1.0000000E-01;  6.7492412E+03;0;  0.0000000E+00;  0.0000000E+00;  0.0000000E+00;0;  2.5767541E-02;  4.0000000E+04;  0.0000000E+00;  0.0000000E+00;  4.0000000E+04;  0.0000000E+00;  4.0000000E+04;  2.5901457E-02;  0.0000000E+00; -1.3391746E-04;  2.1004768E+03;
 -2.9999999E-02;  9.9999998E-03; -2.9999999E-02;1587;  0.0000000E+00;  0.0000000E+00;  0.0000000E+00;  1.0081082E+03;  1.0000000E-01;  6.7174395E+03;0;  0.0000000E+00;  0.0000000E+00;  0.0000000E+00;0;  2.5551662E-02;  4.0000000E+04;  0.0000000E+00;  0.0000000E+00;  4.0000000E+04;  0.0000000E+00;  4.0000000E+04;  2.5624579E-02;  0.0000000E+00; -7.2917886E-05;  2.1391807E+03;
 -2.9999999E-02;  9.9999998E-03; -2.0000000E-02;1588;  0.0000000E+00;  0.0000000E+00;  0.0000000E+00;  1.0080803E+03;  1.0000000E-01;  6.6943291E+03;0;  0.0000000E+00;  0.0000000E+00;  0.0000000E+00;0;  2.5389418E-02;  4.0000000E+04;  0.0000000E+00;  0.0000000E+00;  4.0000000E+04;  0.0000000E+00;  4.0000000E+04;  2.5412228E-02;  0.0000000E+00; -2.2809232E-05;  2.1676545E+03;
 -2.9999999E-02;  9.9999998E-03; -9.9999998E-03;1589;  0.0000000E+00;  0.0000000E+00;  0.0000000E+00;  1.0080640E+03;  1.0000000E-01;  6.6807988E+03;0;  0.0000000E+00;  0.0000000E+00;  0.0000000E+00;0;  2.5288833E-02;  4.0000000E+04;  0.0000000E+00;  0.0000000E+00;  4.0000000E+04;  0.0000000E+00;  4.0000000E+04;  2.5278708E-02;  0.0000000E+00;  1.0125234E-05;  2.1850242E+03;
 -2.9999999E-02;  9.9999998E-03;  0.0000000E+00;1590;  0.0000000E+00;  0.0000000E+00;  0.0000000E+00;  1.0080583E+03;  1.0000000E-01;  6.6761567E+03;0;  0.0000000E+00;  0.0000000E+00;  0.0000000E+00;0;  2.5254767E-02;  4.0000000E+04;  0.0000000E+00;  0.0000000E+00;  4.0000000E+04;  0.0000000E+00;  4.0000000E+04;  2.5233159E-02;  0.0000000E+00;  2.1608084E-05;  2.1908379E+03;
 -2.9999999E-02;  9.9999998E-03;  9.9999998E-03;1591;  0.0000000E+00;  0.0000000E+00;  0.0000000E+00;  1.0080640E+03;  1.0000000E-01;  6.6807988E+03;0;  0.0000000E+00;  0.0000000E+00;  0.0000000E+00;0;  2.5288841E-02;  4.0000000E+04;  0.0000000E+00;  0.0000000E+00;  4.0000000E+04;  0.0000000E+00;  4.0000000E+04;  2.5278717E-02;  0.0000000E+00;  1.0123561E-05;  2.1850254E+03;
 -2.9999999E-02;  9.9999998E-03;  2.0000000E-02;1592;  0.0000000E+00;  0.0000000E+00;  0.0000000E+00;  1.0080803E+03;  1.0000000E-01;  6.6943291E+03;0;  0.0000000E+00;  0.0000000E+00;  0.0000000E+00;0;  2.5389440E-02;  4.0000000E+04;  0.0000000E+00;  0.0000000E+00;  4.0000000E+04;  0.0000000E+00;  4.0000000E+04;  2.5412252E-02;  0.0000000E+00; -2.2812210E-05;  2.1676592E+03;
 -2.9999999E-02;  9.9999998E-03;  2.9999999E-02;1593;  0.0000000E+00;  0.0000000E+00;  0.0000000E+00;  1.0081082E+03;  1.0000000E-01;  6.7174395E+03;0;  0.0000000E+00;  0.0000000E+00;  0.0000000E+00;0;  2.5551669E-02;  4.0000000E+04;  0.0000000E+00;  0.0000000E+00;  4.0000000E+04;  0.0000000E+00;  4.0000000E+04;  2.5624592E-02;  0.0000000E+00; -7.2921677E-05;  2.1391860E+03;
 -2.9999999E-02;  9.9999998E-03;  3.9999999E-02;1594;  0.0000000E+00;  0.0000000E+00;  0.0000000E+00;  1.0081465E+03;  1.0000000E-01;  6.7492412E+03;0;  0.0000000E+00;  0.0000000E+00;  0.0000000E+00;0;  2.5767572E-02;  4.0000000E+04;  0.0000000E+00;  0.0000000E+00;  4.0000000E+04;  0.0000000E+00;  4.0000000E+04;  2.5901493E-02;  0.0000000E+00; -1.3392138E-04;  2.1004827E+03;
 -2.9999999E-02;  9.9999998E-03;  5.0000001E-02;1595;  0.0000000E+00;  0.0000000E+00;  0.0000000E+00;  1.0081976E+03;  1.0000000E-01;  6.7916104E+03;0;  0.0000000E+00;  0.0000000E+00;  0.0000000E+00;0;  2.6026458E-02;  4.0000000E+04;  0.0000000E+00;  0.0000000E+00;  4.0000000E+04;  0.0000000E+00;  4.0000000E+04;  2.6225060E-02;  0.0000000E+00; -1.9860297E-04;  2.0531924E+03;
 -2.9999999E-02;  9.9999998E-03;  5.9999999E-02;1596;  0.0000000E+00;  0.0000000E+00;  0.0000000E+00;  1.0082554E+03;  1.0000000E-01;  6.8395103E+03;0;  0.0000000E+00;  0.0000000E+00;  0.0000000E+00;0;  2.6315724E-02;  4.0000000E+04;  0.0000000E+00;  0.0000000E+00;  4.0000000E+04;  0.0000000E+00;  4.0000000E+04;  2.6575742E-02;  0.0000000E+00; -2.6001723E-04;  1.9996964E+03;
 -2.0000000E-02;  9.9999998E-03; -1.0000000E-01;1671;  0.0000000E+00;  0.0000000E+00;  0.0000000E+00;  1.0110052E+03;  1.0000000E-01;  9.1175693E+03;0;  0.0000000E+00;  0.0000000E+00;  0.0000000E+00;0;  2.8783564E-02;  4.0000000E+04;  0.0000000E+00;  0.0000000E+00;  4.0000000E+04;  0.0000000E+00;  4.0000000E+04;  2.9269077E-02;  0.0000000E+00; -4.8551356E-04;  1.8525111E+03;
 -2.0000000E-02;  9.9999998E-03; -9.0000004E-02;1672;  0.0000000E+00;  0.0000000E+00;  0.0000000E+00;  1.0109365E+03;  1.0000000E-01;  9.0606816E+03;0;  0.0000000E+00;  0.0000000E+00;  0.0000000E+00;0;  2.8464174E-02;  4.0000000E+04;  0.0000000E+00;  0.0000000E+00;  4.0000000E+04;  0.0000000E+00;  4.0000000E+04;  2.8938234E-02;  0.0000000E+00; -4.7405926E-04;  1.8960476E+03;
 -2.0000000E-02;  9.9999998E-03; -7.9999998E-02;1673;  0.0000000E+00;  0.0000000E+00;  0.0000000E+00;  1.0108529E+03;  1.0000000E-01;  8.9914492E+03;0;  0.0000000E+00;  0.0000000E+00;  0.0000000E+00;0;  2.8123325E-02;  4.0000000E+04;  0.0000000E+00;  0.0000000E+00;  4.0000000E+04;  0.0000000E+00;  4.0000000E+04;  2.8571317E-02;  0.0000000E+00; -4.4799244E-04;  1.9503580E+03;
 -2.0000000E-02;  9.9999998E-03; -7.0000000E-02;1674;  0.0000000E+00;  0.0000000E+00;  0.0000000E+00;  1.0107666E+03;  1.0000000E-01;  8.9199453E+03;0;  0.0000000E+00;  0.0000000E+00;  0.0000000E+00;0;  2.7773190E-02;  4.0000000E+04;  0.0000000E+00;  0.0000000E+00;  4.0000000E+04;  0.0000000E+00;  4.0000000E+04;  2.8178032E-02;  0.0000000E+00; -4.0484185E-04;  2.0114309E+03;
 -2.0000000E-02;  9.9999998E-03; -5.9999999E-02;1675;  0.0000000E+00;  0.0000000E+00;  0.0000000E+00;  1.0106833E+03;  1.0000000E-01;  8.8509102E+03;0;  0.0000000E+00;  0.0000000E+00;  0.0000000E+00;0;  2.7427929E-02;  4.0000000E+04;  0.0000000E+00;  0.0000000E+00;  4.0000000E+04;  0.0000000E+00;  4.0000000E+04;  2.7773503E-02;  0.0000000E+00; -3.4557449E-04;  2.0750571E+03;
 -2.0000000E-02;  9.9999998E-03; -5.0000001E-02;1676;  0.0000000E+00;  0.0000000E+00;  0.0000000E+00;  1.0106129E+03;  1.0000000E-01;  8.7925410E+03;0;  0.0000000E+00;  0.0000000E+00;  0.0000000E+00;0;  2.7102789E-02;  4.0000000E+04;  0.0000000E+00;  0.0000000E+00;  4.0000000E+04;  0.0000000E+00;  4.0000000E+04;  2.7377190E-02;  0.0000000E+00; -2.7440055E-04;  2.1368757E+03;
 -2.0000000E-02;  9.9999998E-03; -3.9999999E-02;1677;  0.0000000E+00;  0.0000000E+00;  0.0000000E+00;  1.0105510E+03;  1.0000000E-01;  8.7412832E+03;0;  0.0000000E+00;  0.0000000E+00;  0.0000000E+00;0;  2.6812932E-02;  4.0000000E+04;  0.0000000E+00;  0.0000000E+00;  4.0000000E+04;  0.0000000E+00;  4.0000000E+04;  2.7011130E-02;  0.0000000E+00; -1.9819905E-04;  2.1927397E+03;
 -2.0000000E-02;  9.9999998E-03; -2.9999999E-02;1678;  0.0000000E+00;  0.0000000E+00;  0.0000000E+00;  1.0105046E+03;  1.0000000E-01;  8.7028652E+03;0;  0.0000000E+00;  0.0000000E+00;  0.0000000E+00;0;  2.6572123E-02;  4.0000000E+04;  0.0000000E+00;  0.0000000E+00;  4.0000000E+04;  0.0000000E+00;  4.0000000E+04;  2.6697678E-02;  0.0000000E+00; -1.2555601E-04;  2.2392266E+03;
 -2.0000000E-02;  9.9999998E-03; -2.0000000E-02;1679;  0.0000000E+00;  0.0000000E+00;  0.0000000E+00;  1.0104713E+03;  1.0000000E-01;  8.6752119E+03;0;  0.0000000E+00;  0.0000000E+00;  0.0000000E+00;0;  2.6391724E-02;  4.0000000E+04;  0.0000000E+00;  0.0000000E+00;  4.0000000E+04;  0.0000000E+00;  4.0000000E+04;  2.6457176E-02;  0.0000000E+00; -6.5451844E-05;  2.2738503E+03;
 -2.0000000E-02;  9.9999998E-03; -9.9999998E-03;1680;  0.0000000E+00;  0.0000000E+00;  0.0000000E+00;  1.0104518E+03;  1.0000000E-01;  8.6591133E+03;0;  0.0000000E+00;  0.0000000E+00;  0.0000000E+00;0;  2.6280129E-02;  4.0000000E+04;  0.0000000E+00;  0.0000000E+00;  4.0000000E+04;  0.0000000E+00;  4.0000000E+04;  2.6305899E-02;  0.0000000E+00; -2.5769328E-05;  2.2951333E+03;
 -2.0000000E-02;  9.9999998E-03;  0.0000000E+00;1681;  0.0000000E+00;  0.0000000E+00;  0.0000000E+00;  1.0104449E+03;  1.0000000E-01;  8.6533848E+03;0;  0.0000000E+00;  0.0000000E+00;  0.0000000E+00;0;  2.6242362E-02;  4.0000000E+04;  0.0000000E+00;  0.0000000E+00;  4.0000000E+04;  0.0000000E+00;  4.0000000E+04;  2.6254267E-02;  0.0000000E+00; -1.1903294E-05;  2.3022869E+03;
 -2.0000000E-02;  9.9999998E-03;  9.9999998E-03;1682;  0.0000000E+00;  0.0000000E+00;  0.0000000E+00;  1.0104518E+03;  1.0000000E-01;  8.6591133E+03;0;  0.0000000E+00;  0.0000000E+00;  0.0000000E+00;0;  2.6280129E-02;  4.0000000E+04;  0.0000000E+00;  0.0000000E+00;  4.0000000E+04;  0.0000000E+00;  4.0000000E+04;  2.6305901E-02;  0.0000000E+00; -2.5771124E-05;  2.2951375E+03;
 -2.0000000E-02;  9.9999998E-03;  2.0000000E-02;1683;  0.0000000E+00;  0.0000000E+00;  0.0000000E+00;  1.0104713E+03;  1.0000000E-01;  8.6752119E+03;0;  0.0000000E+00;  0.0000000E+00;  0.0000000E+00;0;  2.6391752E-02;  4.0000000E+04;  0.0000000E+00;  0.0000000E+00;  4.0000000E+04;  0.0000000E+00;  4.0000000E+04;  2.6457207E-02;  0.0000000E+00; -6.5455039E-05;  2.2738550E+03;
 -2.0000000E-02;  9.9999998E-03;  2.9999999E-02;1684;  0.0000000E+00;  0.0000000E+00;  0.0000000E+00;  1.0105045E+03;  1.0000000E-01;  8.7027666E+03;0;  0.0000000E+00;  0.0000000E+00;  0.0000000E+00;0;  2.6572144E-02;  4.0000000E+04;  0.0000000E+00;  0.0000000E+00;  4.0000000E+04;  0.0000000E+00;  4.0000000E+04;  2.6697705E-02;  0.0000000E+00; -1.2556001E-04;  2.2392371E+03;
 -2.0000000E-02;  9.9999998E-03;  3.9999999E-02;1685;  0.0000000E+00;  0.0000000E+00;  0.0000000E+00;  1.0105510E+03;  1.0000000E-01;  8.7412832E+03;0;  0.0000000E+00;  0.0000000E+00;  0.0000000E+00;0;  2.6812980E-02;  4.0000000E+04;  0.0000000E+00;  0.0000000E+00;  4.0000000E+04;  0.0000000E+00;  4.0000000E+04;  2.7011182E-02;  0.0000000E+00; -1.9820298E-04;  2.1927432E+03;
 -2.0000000E-02;  9.9999998E-03;  5.0000001E-02;1686;  0.0000000E+00;  0.0000000E+00;  0.0000000E+00;  1.0106129E+03;  1.0000000E-01;  8.7925410E+03;0;  0.0000000E+00;  0.0000000E+00;  0.0000000E+00;0;  2.7102830E-02;  4.0000000E+04;  0.0000000E+00;  0.0000000E+00;  4.0000000E+04;  0.0000000E+00;  4.0000000E+04;  2.7377233E-02;  0.0000000E+00; -2.7440389E-04;  2.1368826E+03;
 -2.0000000E-02;  9.9999998E-03;  5.9999999E-02;1687;  0.0000000E+00;  0.0000000E+00;  0.0000000E+00;  1.0106833E+03;  1.0000000E-01;  8.8509102E+03;0;  0.0000000E+00;  0.0000000E+00;  0.0000000E+00;0;  2.7427966E-02;  4.0000000E+04;  0.0000000E+00;  0.0000000E+00;  4.0000000E+04;  0.0000000E+00;  4.0000000E+04;  2.7773542E-02;  0.0000000E+00; -3.4557618E-04;  2.0750620E+03;
 -9.9999998E-03;  9.9999998E-03; -1.0000000E-01;1762;  0.0000000E+00;  0.0000000E+00;  0.0000000E+00;  1.0136379E+03;  1.0000000E-01;  1.1298742E+04;0;  0.0000000E+00;  0.0000000E+00;  0.0000000E+00;0;  2.8584819E-02;  4.0000000E+04;  0.0000000E+00;  0.0000000E+00;  4.0000000E+04;  0.0000000E+00;  4.0000000E+04;  2.9154874E-02;  0.0000000E+00; -5.7005452E-04;  1.7957610E+03;
 -9.9999998E-03;  9.9999998E-03; -9.0000004E-02;1763;  0.0000000E+00;  0.0000000E+00;  0.0000000E+00;  1.0135482E+03;  1.0000000E-01;  1.1224374E+04;0;  0.0000000E+00;  0.0000000E+00;  0.0000000E+00;0;  2.8234886E-02;  4.0000000E+04;  0.0000000E+00;  0.0000000E+00;  4.0000000E+04;  0.0000000E+00;  4.0000000E+04;  2.8802188E-02;  0.0000000E+00; -5.6730217E-04;  1.8344777E+03;
 -9.9999998E-03;  9.9999998E-03; -7.9999998E-02;1764;  0.0000000E+00;  0.0000000E+00;  0.0000000E+00;  1.0134451E+03;  1.0000000E-01;  1.1138944E+04;0;  0.0000000E+00;  0.0000000E+00;  0.0000000E+00;0;  2.7863529E-02;  4.0000000E+04;  0.0000000E+00;  0.0000000E+00;  4.0000000E+04;  0.0000000E+00;  4.0000000E+04;  2.8409630E-02;  0.0000000E+00; -5.4610125E-04;  1.8864471E+03;
 -9.9999998E-03;  9.9999998E-03; -7.0000000E-02;1765;  0.0000000E+00;  0.0000000E+00;  0.0000000E+00;  1.0133357E+03;  1.0000000E-01;  1.1048379E+04;0;  0.0000000E+00;  0.0000000E+00;  0.0000000E+00;0;  2.7484341E-02;  4.0000000E+04;  0.0000000E+00;  0.0000000E+00;  4.0000000E+04;  0.0000000E+00;  4.0000000E+04;  2.7987592E-02;  0.0000000E+00; -5.0325133E-04;  1.9483704E+03;
 -9.9999998E-03;  9.9999998E-03; -5.9999999E-02;1766;  0.0000000E+00;  0.0000000E+00;  0.0000000E+00;  1.0132355E+03;  1.0000000E-01;  1.0965418E+04;0;  0.0000000E+00;  0.0000000E+00;  0.0000000E+00;0;  2.7112516E-02;  4.0000000E+04;  0.0000000E+00;  0.0000000E+00;  4.0000000E+04;  0.0000000E+00;  4.0000000E+04;  2.7552282E-02;  0.0000000E+00; -4.3976639E-04;  2.0160110E+03;
 -9.9999998E-03;  9.9999998E-03; -5.0000001E-02;1767;  0.0000000E+00;  0.0000000E+00;  0.0000000E+00;  1.0131476E+03;  1.0000000E-01;  1.0892531E+04;0;  0.0000000E+00;  0.0000000E+00;  0.0000000E+00;0;  2.6764307E-02;  4.0000000E+04;  0.0000000E+00;  0.0000000E+00;  4.0000000E+04;  0.0000000E+00;  4.0000000E+04;  2.7124938E-02;  0.0000000E+00; -3.6063115E-04;  2.0842991E+03;
 -9.9999998E-03;  9.9999998E-03; -3.9999999E-02;1768;  0.0000000E+00;  0.0000000E+00;  0.0000000E+00;  1.0130768E+03;  1.0000000E-01;  1.0833866E+04;0;  0.0000000E+00;  0.0000000E+00;  0.0000000E+00;0;  2.6455559E-02;  4.0000000E+04;  0.0000000E+00;  0.0000000E+00;  4.0000000E+04;  0.0000000E+00;  4.0000000E+04;  2.6729655E-02;  0.0000000E+00; -2.7409621E-04;  2.1479556E+03;
 -9.9999998E-03;  9.9999998E-03; -2.9999999E-02;1769;  0.0000000E+00;  0.0000000E+00;  0.0000000E+00;  1.0130218E+03;  1.0000000E-01;  1.0788337E+04;0;  0.0000000E+00;  0.0000000E+00;  0.0000000E+00;0;  2.6200239E-02;  4.0000000E+04;  0.0000000E+00;  0.0000000E+00;  4.0000000E+04;  0.0000000E+00;  4.0000000E+04;  2.6390763E-02;  0.0000000E+00; -1.9052377E-04;  2.2022324E+03;
 -9.9999998E-03;  9.9999998E-03; -2.0000000E-02;1770;  0.0000000E+00;  0.0000000E+00;  0.0000000E+00;  1.0129818E+03;  1.0000000E-01;  1.0755152E+04;0;  0.0000000E+00;  0.0000000E+00;  0.0000000E+00;0;  2.6009794E-02;  4.0000000E+04;  0.0000000E+00;  0.0000000E+00;  4.0000000E+04;  0.0000000E+00;  4.0000000E+04;  2.6130602E-02;  0.0000000E+00; -1.2080804E-04;  2.2433708E+03;
 -9.9999998E-03;  9.9999998E-03; -9.9999998E-03;1771;  0.0000000E+00;  0.0000000E+00;  0.0000000E+00;  1.0129585E+03;  1.0000000E-01;  1.0735894E+04;0;  0.0000000E+00;  0.0000000E+00;  0.0000000E+00;0;  2.5892338E-02;  4.0000000E+04;  0.0000000E+00;  0.0000000E+00;  4.0000000E+04;  0.0000000E+00;  4.0000000E+04;  2.5966894E-02;  0.0000000E+00; -7.4555282E-05;  2.2689468E+03;
 -9.9999998E-03;  9.9999998E-03;  0.0000000E+00;1772;  0.0000000E+00;  0.0000000E+00;  0.0000000E+00;  1.0129512E+03;  1.0000000E-01;  1.0729869E+04;0;  0.0000000E+00;  0.0000000E+00;  0.0000000E+00;0;  2.5852650E-02;  4.0000000E+04;  0.0000000E+00;  0.0000000E+00;  4.0000000E+04;  0.0000000E+00;  4.0000000E+04;  2.5911007E-02;  0.0000000E+00; -5.8356622E-05;  2.2776091E+03;
 -9.9999998E-03;  9.9999998E-03;  9.9999998E-03;1773;  0.0000000E+00;  0.0000000E+00;  0.0000000E+00;  1.0129584E+03;  1.0000000E-01;  1.0735795E+04;0;  0.0000000E+00;  0.0000000E+00;  0.0000000E+00;0;  2.5892360E-02;  4.0000000E+04;  0.0000000E+00;  0.0000000E+00;  4.0000000E+04;  0.0000000E+00;  4.0000000E+04;  2.5966918E-02;  0.0000000E+00; -7.4557211E-05;  2.2689529E+03;
 -9.9999998E-03;  9.9999998E-03;  2.0000000E-02;1774;  0.0000000E+00;  0.0000000E+00;  0.0000000E+00;  1.0129818E+03;  1.0000000E-01;  1.0755152E+04;0;  0.0000000E+00;  0.0000000E+00;  0.0000000E+00;0;  2.6009822E-02;  4.0000000E+04;  0.0000000E+00;  0.0000000E+00;  4.0000000E+04;  0.0000000E+00;  4.0000000E+04;  2.6130633E-02;  0.0000000E+00; -1.2081135E-04;  2.2433801E+03;
 -9.9999998E-03;  9.9999998E-03;  2.9999999E-02;1775;  0.0000000E+00;  0.0000000E+00;  0.0000000E+00;  1.0130218E+03;  1.0000000E-01;  1.0788337E+04;0;  0.0000000E+00;  0.0000000E+00;  0.0000000E+00;0;  2.6200268E-02;  4.0000000E+04;  0.0000000E+00;  0.0000000E+00;  4.0000000E+04;  0.0000000E+00;  4.0000000E+04;  2.6390797E-02;  0.0000000E+00; -1.9052788E-04;  2.2022419E+03;
 -9.9999998E-03;  9.9999998E-03;  3.9999999E-02;1776;  0.0000000E+00;  0.0000000E+00;  0.0000000E+00;  1.0130768E+03;  1.0000000E-01;  1.0833866E+04;0;  0.0000000E+00;  0.0000000E+00;  0.0000000E+00;0;  2.6455576E-02;  4.0000000E+04;  0.0000000E+00;  0.0000000E+00;  4.0000000E+04;  0.0000000E+00;  4.0000000E+04;  2.6729675E-02;  0.0000000E+00; -2.7410022E-04;  2.1479661E+03;
 -9.9999998E-03;  9.9999998E-03;  5.0000001E-02;1777;  0.0000000E+00;  0.0000000E+00;  0.0000000E+00;  1.0131476E+03;  1.0000000E-01;  1.0892531E+04;0;  0.0000000E+00;  0.0000000E+00;  0.0000000E+00;0;  2.6764350E-02;  4.0000000E+04;  0.0000000E+00;  0.0000000E+00;  4.0000000E+04;  0.0000000E+00;  4.0000000E+04;  2.7124984E-02;  0.0000000E+00; -3.6063377E-04;  2.0843059E+03;
 -9.9999998E-03;  9.9999998E-03;  5.9999999E-02;1778;  0.0000000E+00;  0.0000000E+00;  0.0000000E+00;  1.0132355E+03;  1.0000000E-01;  1.0965418E+04;0;  0.0000000E+00;  0.0000000E+00;  0.0000000E+00;0;  2.7112575E-02;  4.0000000E+04;  0.0000000E+00;  0.0000000E+00;  4.0000000E+04;  0.0000000E+00;  4.0000000E+04;  2.7552342E-02;  0.0000000E+00; -4.3976671E-04;  2.0160167E+03;
 -1.9000000E-01;  9.9999998E-03;  7.0000000E-02;141;  0.0000000E+00;  0.0000000E+00;  0.0000000E+00;  1.0000000E+03;  1.0000000E-01;  0.0000000E+00;0;  0.0000000E+00;  0.0000000E+00;  0.0000000E+00;0;  0.0000000E+00;  4.0000000E+04;  0.0000000E+00;  0.0000000E+00;  4.0000000E+04;  0.0000000E+00;  4.0000000E+04;  0.0000000E+00;  0.0000000E+00;  0.0000000E+00;  0.0000000E+00;
 -1.9000000E-01;  9.9999998E-03;  7.9999998E-02;142;  0.0000000E+00;  0.0000000E+00;  0.0000000E+00;  1.0000000E+03;  1.0000000E-01;  0.0000000E+00;0;  0.0000000E+00;  0.0000000E+00;  0.0000000E+00;0;  0.0000000E+00;  4.0000000E+04;  0.0000000E+00;  0.0000000E+00;  4.0000000E+04;  0.0000000E+00;  4.0000000E+04;  0.0000000E+00;  0.0000000E+00;  0.0000000E+00;  0.0000000E+00;
 -1.9000000E-01;  9.9999998E-03;  9.0000004E-02;143;  0.0000000E+00;  0.0000000E+00;  0.0000000E+00;  1.0000000E+03;  1.0000000E-01;  0.0000000E+00;0;  0.0000000E+00;  0.0000000E+00;  0.0000000E+00;0;  0.0000000E+00;  4.0000000E+04;  0.0000000E+00;  0.0000000E+00;  4.0000000E+04;  0.0000000E+00;  4.0000000E+04;  0.0000000E+00;  0.0000000E+00;  0.0000000E+00;  0.0000000E+00;
 -1.9000000E-01;  9.9999998E-03;  1.0000000E-01;144;  0.0000000E+00;  0.0000000E+00;  0.0000000E+00;  1.0000000E+03;  1.0000000E-01;  0.0000000E+00;0;  0.0000000E+00;  0.0000000E+00;  0.0000000E+00;0;  0.0000000E+00;  4.0000000E+04;  0.0000000E+00;  0.0000000E+00;  4.0000000E+04;  0.0000000E+00;  4.0000000E+04;  0.0000000E+00;  0.0000000E+00;  0.0000000E+00;  0.0000000E+00;
 -1.9000000E-01;  9.9999998E-03;  1.1000000E-01;145;  0.0000000E+00;  0.0000000E+00;  0.0000000E+00;  1.0000000E+03;  1.0000000E-01;  0.0000000E+00;0;  0.0000000E+00;  0.0000000E+00;  0.0000000E+00;0;  0.0000000E+00;  4.0000000E+04;  0.0000000E+00;  0.0000000E+00;  4.0000000E+04;  0.0000000E+00;  4.0000000E+04;  0.0000000E+00;  0.0000000E+00;  0.0000000E+00;  0.0000000E+00;
 -1.9000000E-01;  9.9999998E-03;  1.2000000E-01;146;  0.0000000E+00;  0.0000000E+00;  0.0000000E+00;  1.0000000E+03;  1.0000000E-01;  0.0000000E+00;0;  0.0000000E+00;  0.0000000E+00;  0.0000000E+00;0;  0.0000000E+00;  4.0000000E+04;  0.0000000E+00;  0.0000000E+00;  4.0000000E+04;  0.0000000E+00;  4.0000000E+04;  0.0000000E+00;  0.0000000E+00;  0.0000000E+00;  0.0000000E+00;
 -1.9000000E-01;  9.9999998E-03;  1.3000000E-01;147;  0.0000000E+00;  0.0000000E+00;  0.0000000E+00;  1.0000000E+03;  1.0000000E-01;  0.0000000E+00;0;  0.0000000E+00;  0.0000000E+00;  0.0000000E+00;0;  0.0000000E+00;  4.0000000E+04;  0.0000000E+00;  0.0000000E+00;  4.0000000E+04;  0.0000000E+00;  4.0000000E+04;  0.0000000E+00;  0.0000000E+00;  0.0000000E+00;  0.0000000E+00;
 -1.9000000E-01;  9.9999998E-03;  1.4000000E-01;148;  0.0000000E+00;  0.0000000E+00;  0.0000000E+00;  1.0000000E+03;  1.0000000E-01;  0.0000000E+00;0;  0.0000000E+00;  0.0000000E+00;  0.0000000E+00;0;  0.0000000E+00;  4.0000000E+04;  0.0000000E+00;  0.0000000E+00;  4.0000000E+04;  0.0000000E+00;  4.0000000E+04;  0.0000000E+00;  0.0000000E+00;  0.0000000E+00;  0.0000000E+00;
 -1.9000000E-01;  9.9999998E-03;  1.5000001E-01;149;  0.0000000E+00;  0.0000000E+00;  0.0000000E+00;  1.0000000E+03;  1.0000000E-01;  0.0000000E+00;0;  0.0000000E+00;  0.0000000E+00;  0.0000000E+00;0;  0.0000000E+00;  4.0000000E+04;  0.0000000E+00;  0.0000000E+00;  4.0000000E+04;  0.0000000E+00;  4.0000000E+04;  0.0000000E+00;  0.0000000E+00;  0.0000000E+00;  0.0000000E+00;
 -1.9000000E-01;  9.9999998E-03;  1.6000000E-01;150;  0.0000000E+00;  0.0000000E+00;  0.0000000E+00;  1.0000000E+03;  1.0000000E-01;  0.0000000E+00;0;  0.0000000E+00;  0.0000000E+00;  0.0000000E+00;0;  0.0000000E+00;  4.0000000E+04;  0.0000000E+00;  0.0000000E+00;  4.0000000E+04;  0.0000000E+00;  4.0000000E+04;  0.0000000E+00;  0.0000000E+00;  0.0000000E+00;  0.0000000E+00;
 -1.9000000E-01;  9.9999998E-03;  1.7000000E-01;151;  0.0000000E+00;  0.0000000E+00;  0.0000000E+00;  1.0000000E+03;  1.0000000E-01;  0.0000000E+00;0;  0.0000000E+00;  0.0000000E+00;  0.0000000E+00;0;  0.0000000E+00;  4.0000000E+04;  0.0000000E+00;  0.0000000E+00;  4.0000000E+04;  0.0000000E+00;  4.0000000E+04;  0.0000000E+00;  0.0000000E+00;  0.0000000E+00;  0.0000000E+00;
 -1.9000000E-01;  9.9999998E-03;  1.8000001E-01;152;  0.0000000E+00;  0.0000000E+00;  0.0000000E+00;  1.0000000E+03;  1.0000000E-01;  0.0000000E+00;0;  0.0000000E+00;  0.0000000E+00;  0.0000000E+00;0;  0.0000000E+00;  4.0000000E+04;  0.0000000E+00;  0.0000000E+00;  4.0000000E+04;  0.0000000E+00;  4.0000000E+04;  0.0000000E+00;  0.0000000E+00;  0.0000000E+00;  0.0000000E+00;
 -1.9000000E-01;  9.9999998E-03;  1.9000000E-01;153;  0.0000000E+00;  0.0000000E+00;  0.0000000E+00;  1.0000000E+03;  1.0000000E-01;  0.0000000E+00;0;  0.0000000E+00;  0.0000000E+00;  0.0000000E+00;0;  0.0000000E+00;  4.0000000E+04;  0.0000000E+00;  0.0000000E+00;  4.0000000E+04;  0.0000000E+00;  4.0000000E+04;  0.0000000E+00;  0.0000000E+00;  0.0000000E+00;  0.0000000E+00;
 -1.9000000E-01;  9.9999998E-03;  2.0000000E-01;154;  0.0000000E+00;  0.0000000E+00;  0.0000000E+00;  1.0000000E+03;  1.0000000E-01;  0.0000000E+00;0;  0.0000000E+00;  0.0000000E+00;  0.0000000E+00;0;  0.0000000E+00;  4.0000000E+04;  0.0000000E+00;  0.0000000E+00;  4.0000000E+04;  0.0000000E+00;  4.0000000E+04;  0.0000000E+00;  0.0000000E+00;  0.0000000E+00;  0.0000000E+00;
 -1.9000000E-01;  9.9999998E-03;  2.0999999E-01;155;  0.0000000E+00;  0.0000000E+00;  0.0000000E+00;  1.0000000E+03;  1.0000000E-01;  0.0000000E+00;0;  0.0000000E+00;  0.0000000E+00;  0.0000000E+00;0;  0.0000000E+00;  4.0000000E+04;  0.0000000E+00;  0.0000000E+00;  4.0000000E+04;  0.0000000E+00;  4.0000000E+04;  0.0000000E+00;  0.0000000E+00;  0.0000000E+00;  0.0000000E+00;
 -1.9000000E-01;  9.9999998E-03;  2.2000000E-01;156;  0.0000000E+00;  0.0000000E+00;  0.0000000E+00;  1.0000000E+03;  1.0000000E-01;  0.0000000E+00;0;  0.0000000E+00;  0.0000000E+00;  0.0000000E+00;0;  0.0000000E+00;  4.0000000E+04;  0.0000000E+00;  0.0000000E+00;  4.0000000E+04;  0.0000000E+00;  4.0000000E+04;  0.0000000E+00;  0.0000000E+00;  0.0000000E+00;  0.0000000E+00;
 -1.9000000E-01;  9.9999998E-03;  2.3000000E-01;157;  0.0000000E+00;  0.0000000E+00;  0.0000000E+00;  1.0000000E+03;  1.0000000E-01;  0.0000000E+00;0;  0.0000000E+00;  0.0000000E+00;  0.0000000E+00;0;  0.0000000E+00;  4.0000000E+04;  0.0000000E+00;  0.0000000E+00;  4.0000000E+04;  0.0000000E+00;  4.0000000E+04;  0.0000000E+00;  0.0000000E+00;  0.0000000E+00;  0.0000000E+00;
 -1.8000001E-01;  9.9999998E-03;  7.0000000E-02;232;  0.0000000E+00;  0.0000000E+00;  0.0000000E+00;  1.0000000E+03;  1.0000000E-01;  0.0000000E+00;0;  0.0000000E+00;  0.0000000E+00;  0.0000000E+00;0;  0.0000000E+00;  4.0000000E+04;  0.0000000E+00;  0.0000000E+00;  4.0000000E+04;  0.0000000E+00;  4.0000000E+04;  0.0000000E+00;  0.0000000E+00;  0.0000000E+00;  0.0000000E+00;
 -1.8000001E-01;  9.9999998E-03;  7.9999998E-02;233;  0.0000000E+00;  0.0000000E+00;  0.0000000E+00;  1.0000000E+03;  1.0000000E-01;  0.0000000E+00;0;  0.0000000E+00;  0.0000000E+00;  0.0000000E+00;0;  0.0000000E+00;  4.0000000E+04;  0.0000000E+00;  0.0000000E+00;  4.0000000E+04;  0.0000000E+00;  4.0000000E+04;  0.0000000E+00;  0.0000000E+00;  0.0000000E+00;  0.0000000E+00;
 -1.8000001E-01;  9.9999998E-03;  9.0000004E-02;234;  0.0000000E+00;  0.0000000E+00;  0.0000000E+00;  1.0000000E+03;  1.0000000E-01;  0.0000000E+00;0;  0.0000000E+00;  0.0000000E+00;  0.0000000E+00;0;  0.0000000E+00;  4.0000000E+04;  0.0000000E+00;  0.0000000E+00;  4.0000000E+04;  0.0000000E+00;  4.0000000E+04;  0.0000000E+00;  0.0000000E+00;  0.0000000E+00;  0.0000000E+00;
 -1.8000001E-01;  9.9999998E-03;  1.0000000E-01;235;  0.0000000E+00;  0.0000000E+00;  0.0000000E+00;  1.0000000E+03;  1.0000000E-01;  0.0000000E+00;0;  0.0000000E+00;  0.0000000E+00;  0.0000000E+00;0;  0.0000000E+00;  4.0000000E+04;  0.0000000E+00;  0.0000000E+00;  4.0000000E+04;  0.0000000E+00;  4.0000000E+04;  0.0000000E+00;  0.0000000E+00;  0.0000000E+00;  0.0000000E+00;
 -1.8000001E-01;  9.9999998E-03;  1.1000000E-01;236;  0.0000000E+00;  0.0000000E+00;  0.0000000E+00;  1.0000000E+03;  1.0000000E-01;  0.0000000E+00;0;  0.0000000E+00;  0.0000000E+00;  0.0000000E+00;0;  0.0000000E+00;  4.0000000E+04;  0.0000000E+00;  0.0000000E+00;  4.0000000E+04;  0.0000000E+00;  4.0000000E+04;  0.0000000E+00;  0.0000000E+00;  0.0000000E+00;  0.0000000E+00;
 -1.8000001E-01;  9.9999998E-03;  1.2000000E-01;237;  0.0000000E+00;  0.0000000E+00;  0.0000000E+00;  1.0000000E+03;  1.0000000E-01;  0.0000000E+00;0;  0.0000000E+00;  0.0000000E+00;  0.0000000E+00;0;  0.0000000E+00;  4.0000000E+04;  0.0000000E+00;  0.0000000E+00;  4.0000000E+04;  0.0000000E+00;  4.0000000E+04;  0.0000000E+00;  0.0000000E+00;  0.0000000E+00;  0.0000000E+00;
 -1.8000001E-01;  9.9999998E-03;  1.3000000E-01;238;  0.0000000E+00;  0.0000000E+00;  0.0000000E+00;  1.0000000E+03;  1.0000000E-01;  0.0000000E+00;0;  0.0000000E+00;  0.0000000E+00;  0.0000000E+00;0;  0.0000000E+00;  4.0000000E+04;  0.0000000E+00;  0.0000000E+00;  4.0000000E+04;  0.0000000E+00;  4.0000000E+04;  0.0000000E+00;  0.0000000E+00;  0.0000000E+00;  0.0000000E+00;
 -1.8000001E-01;  9.9999998E-03;  1.4000000E-01;239;  0.0000000E+00;  0.0000000E+00;  0.0000000E+00;  1.0000000E+03;  1.0000000E-01;  0.0000000E+00;0;  0.0000000E+00;  0.0000000E+00;  0.0000000E+00;0;  0.0000000E+00;  4.0000000E+04;  0.0000000E+00;  0.0000000E+00;  4.0000000E+04;  0.0000000E+00;  4.0000000E+04;  0.0000000E+00;  0.0000000E+00;  0.0000000E+00;  0.0000000E+00;
 -1.8000001E-01;  9.9999998E-03;  1.5000001E-01;240;  0.0000000E+00;  0.0000000E+00;  0.0000000E+00;  1.0000000E+03;  1.0000000E-01;  0.0000000E+00;0;  0.0000000E+00;  0.0000000E+00;  0.0000000E+00;0;  0.0000000E+00;  4.0000000E+04;  0.0000000E+00;  0.0000000E+00;  4.0000000E+04;  0.0000000E+00;  4.0000000E+04;  0.0000000E+00;  0.0000000E+00;  0.0000000E+00;  0.0000000E+00;
 -1.8000001E-01;  9.9999998E-03;  1.6000000E-01;241;  0.0000000E+00;  0.0000000E+00;  0.0000000E+00;  1.0000000E+03;  1.0000000E-01;  0.0000000E+00;0;  0.0000000E+00;  0.0000000E+00;  0.0000000E+00;0;  0.0000000E+00;  4.0000000E+04;  0.0000000E+00;  0.0000000E+00;  4.0000000E+04;  0.0000000E+00;  4.0000000E+04;  0.0000000E+00;  0.0000000E+00;  0.0000000E+00;  0.0000000E+00;
 -1.8000001E-01;  9.9999998E-03;  1.7000000E-01;242;  0.0000000E+00;  0.0000000E+00;  0.0000000E+00;  1.0000000E+03;  1.0000000E-01;  0.0000000E+00;0;  0.0000000E+00;  0.0000000E+00;  0.0000000E+00;0;  0.0000000E+00;  4.0000000E+04;  0.0000000E+00;  0.0000000E+00;  4.0000000E+04;  0.0000000E+00;  4.0000000E+04;  0.0000000E+00;  0.0000000E+00;  0.0000000E+00;  0.0000000E+00;
 -1.8000001E-01;  9.9999998E-03;  1.8000001E-01;243;  0.0000000E+00;  0.0000000E+00;  0.0000000E+00;  1.0000000E+03;  1.0000000E-01;  0.0000000E+00;0;  0.0000000E+00;  0.0000000E+00;  0.0000000E+00;0;  0.0000000E+00;  4.0000000E+04;  0.0000000E+00;  0.0000000E+00;  4.0000000E+04;  0.0000000E+00;  4.0000000E+04;  0.0000000E+00;  0.0000000E+00;  0.0000000E+00;  0.0000000E+00;
 -1.8000001E-01;  9.9999998E-03;  1.9000000E-01;244;  0.0000000E+00;  0.0000000E+00;  0.0000000E+00;  1.0000000E+03;  1.0000000E-01;  0.0000000E+00;0;  0.0000000E+00;  0.0000000E+00;  0.0000000E+00;0;  0.0000000E+00;  4.0000000E+04;  0.0000000E+00;  0.0000000E+00;  4.0000000E+04;  0.0000000E+00;  4.0000000E+04;  0.0000000E+00;  0.0000000E+00;  0.0000000E+00;  0.0000000E+00;
 -1.8000001E-01;  9.9999998E-03;  2.0000000E-01;245;  0.0000000E+00;  0.0000000E+00;  0.0000000E+00;  1.0000000E+03;  1.0000000E-01;  0.0000000E+00;0;  0.0000000E+00;  0.0000000E+00;  0.0000000E+00;0;  0.0000000E+00;  4.0000000E+04;  0.0000000E+00;  0.0000000E+00;  4.0000000E+04;  0.0000000E+00;  4.0000000E+04;  0.0000000E+00;  0.0000000E+00;  0.0000000E+00;  0.0000000E+00;
 -1.8000001E-01;  9.9999998E-03;  2.0999999E-01;246;  0.0000000E+00;  0.0000000E+00;  0.0000000E+00;  1.0000000E+03;  1.0000000E-01;  0.0000000E+00;0;  0.0000000E+00;  0.0000000E+00;  0.0000000E+00;0;  0.0000000E+00;  4.0000000E+04;  0.0000000E+00;  0.0000000E+00;  4.0000000E+04;  0.0000000E+00;  4.0000000E+04;  0.0000000E+00;  0.0000000E+00;  0.0000000E+00;  0.0000000E+00;
 -1.8000001E-01;  9.9999998E-03;  2.2000000E-01;247;  0.0000000E+00;  0.0000000E+00;  0.0000000E+00;  1.0000000E+03;  1.0000000E-01;  0.0000000E+00;0;  0.0000000E+00;  0.0000000E+00;  0.0000000E+00;0;  0.0000000E+00;  4.0000000E+04;  0.0000000E+00;  0.0000000E+00;  4.0000000E+04;  0.0000000E+00;  4.0000000E+04;  0.0000000E+00;  0.0000000E+00;  0.0000000E+00;  0.0000000E+00;
 -1.8000001E-01;  9.9999998E-03;  2.3000000E-01;248;  0.0000000E+00;  0.0000000E+00;  0.0000000E+00;  1.0000000E+03;  1.0000000E-01;  0.0000000E+00;0;  0.0000000E+00;  0.0000000E+00;  0.0000000E+00;0;  0.0000000E+00;  4.0000000E+04;  0.0000000E+00;  0.0000000E+00;  4.0000000E+04;  0.0000000E+00;  4.0000000E+04;  0.0000000E+00;  0.0000000E+00;  0.0000000E+00;  0.0000000E+00;
 -1.7000000E-01;  9.9999998E-03;  7.0000000E-02;323;  0.0000000E+00;  0.0000000E+00;  0.0000000E+00;  1.0000000E+03;  1.0000000E-01;  0.0000000E+00;0;  0.0000000E+00;  0.0000000E+00;  0.0000000E+00;0;  0.0000000E+00;  4.0000000E+04;  0.0000000E+00;  0.0000000E+00;  4.0000000E+04;  0.0000000E+00;  4.0000000E+04;  0.0000000E+00;  0.0000000E+00;  0.0000000E+00;  2.0677076E-09;
 -1.7000000E-01;  9.9999998E-03;  7.9999998E-02;324;  0.0000000E+00;  0.0000000E+00;  0.0000000E+00;  1.0000000E+03;  1.0000000E-01;  0.0000000E+00;0;  0.0000000E+00;  0.0000000E+00;  0.0000000E+00;0;  0.0000000E+00;  4.0000000E+04;  0.0000000E+00;  0.0000000E+00;  4.0000000E+04;  0.0000000E+00;  4.0000000E+04;  0.0000000E+00;  0.0000000E+00;  0.0000000E+00;  2.0276110E-09;
 -1.7000000E-01;  9.9999998E-03;  9.0000004E-02;325;  0.0000000E+00;  0.0000000E+00;  0.0000000E+00;  1.0000000E+03;  1.0000000E-01;  0.0000000E+00;0;  0.0000000E+00;  0.0000000E+00;  0.0000000E+00;0;  0.0000000E+00;  4.0000000E+04;  0.0000000E+00;  0.0000000E+00;  4.0000000E+04;  0.0000000E+00;  4.0000000E+04;  0.0000000E+00;  0.0000000E+00;  0.0000000E+00;  1.9964661E-09;
 -1.7000000E-01;  9.9999998E-03;  1.0000000E-01;326;  0.0000000E+00;  0.0000000E+00;  0.0000000E+00;  1.0000000E+03;  1.0000000E-01;  0.0000000E+00;0;  0.0000000E+00;  0.0000000E+00;  0.0000000E+00;0;  0.0000000E+00;  4.0000000E+04;  0.0000000E+00;  0.0000000E+00;  4.0000000E+04;  0.0000000E+00;  4.0000000E+04;  0.0000000E+00;  0.0000000E+00;  0.0000000E+00;  1.9806543E-09;
 -1.7000000E-01;  9.9999998E-03;  1.1000000E-01;327;  0.0000000E+00;  0.0000000E+00;  0.0000000E+00;  1.0000000E+03;  1.0000000E-01;  0.0000000E+00;0;  0.0000000E+00;  0.0000000E+00;  0.0000000E+00;0;  0.0000000E+00;  4.0000000E+04;  0.0000000E+00;  0.0000000E+00;  4.0000000E+04;  0.0000000E+00;  4.0000000E+04;  0.0000000E+00;  0.0000000E+00;  0.0000000E+00;  1.9613826E-09;
 -1.7000000E-01;  9.9999998E-03;  1.2000000E-01;328;  0.0000000E+00;  0.0000000E+00;  0.0000000E+00;  1.0000000E+03;  1.0000000E-01;  0.0000000E+00;0;  0.0000000E+00;  0.0000000E+00;  0.0000000E+00;0;  0.0000000E+00;  4.0000000E+04;  0.0000000E+00;  0.0000000E+00;  4.0000000E+04;  0.0000000E+00;  4.0000000E+04;  0.0000000E+00;  0.0000000E+00;  0.0000000E+00;  1.9547131E-09;
 -1.7000000E-01;  9.9999998E-03;  1.3000000E-01;329;  0.0000000E+00;  0.0000000E+00;  0.0000000E+00;  1.0000000E+03;  1.0000000E-01;  0.0000000E+00;0;  0.0000000E+00;  0.0000000E+00;  0.0000000E+00;0;  0.0000000E+00;  4.0000000E+04;  0.0000000E+00;  0.0000000E+00;  4.0000000E+04;  0.0000000E+00;  4.0000000E+04;  0.0000000E+00;  0.0000000E+00;  0.0000000E+00;  1.9304123E-09;
 -1.7000000E-01;  9.9999998E-03;  1.4000000E-01;330;  0.0000000E+00;  0.0000000E+00;  0.0000000E+00;  1.0000000E+03;  1.0000000E-01;  0.0000000E+00;0;  0.0000000E+00;  0.0000000E+00;  0.0000000E+00;0;  0.0000000E+00;  4.0000000E+04;  0.0000000E+00;  0.0000000E+00;  4.0000000E+04;  0.0000000E+00;  4.0000000E+04;  0.0000000E+00;  0.0000000E+00;  0.0000000E+00;  1.9071280E-09;
 -1.7000000E-01;  9.9999998E-03;  1.5000001E-01;331;  0.0000000E+00;  0.0000000E+00;  0.0000000E+00;  1.0000000E+03;  1.0000000E-01;  0.0000000E+00;0;  0.0000000E+00;  0.0000000E+00;  0.0000000E+00;0;  0.0000000E+00;  4.0000000E+04;  0.0000000E+00;  0.0000000E+00;  4.0000000E+04;  0.0000000E+00;  4.0000000E+04;  0.0000000E+00;  0.0000000E+00;  0.0000000E+00;  1.8279691E-09;
 -1.7000000E-01;  9.9999998E-03;  1.6000000E-01;332;  0.0000000E+00;  0.0000000E+00;  0.0000000E+00;  1.0000000E+03;  1.0000000E-01;  0.0000000E+00;0;  0.0000000E+00;  0.0000000E+00;  0.0000000E+00;0;  0.0000000E+00;  4.0000000E+04;  0.0000000E+00;  0.0000000E+00;  4.0000000E+04;  0.0000000E+00;  4.0000000E+04;  0.0000000E+00;  0.0000000E+00;  0.0000000E+00;  1.7068014E-09;
 -1.7000000E-01;  9.9999998E-03;  1.7000000E-01;333;  0.0000000E+00;  0.0000000E+00;  0.0000000E+00;  1.0000000E+03;  1.0000000E-01;  0.0000000E+00;0;  0.0000000E+00;  0.0000000E+00;  0.0000000E+00;0;  0.0000000E+00;  4.0000000E+04;  0.0000000E+00;  0.0000000E+00;  4.0000000E+04;  0.0000000E+00;  4.0000000E+04;  0.0000000E+00;  0.0000000E+00;  0.0000000E+00;  1.5737418E-09;
 -1.7000000E-01;  9.9999998E-03;  1.8000001E-01;334;  0.0000000E+00;  0.0000000E+00;  0.0000000E+00;  1.0000000E+03;  1.0000000E-01;  0.0000000E+00;0;  0.0000000E+00;  0.0000000E+00;  0.0000000E+00;0;  0.0000000E+00;  4.0000000E+04;  0.0000000E+00;  0.0000000E+00;  4.0000000E+04;  0.0000000E+00;  4.0000000E+04;  0.0000000E+00;  0.0000000E+00;  0.0000000E+00;  1.4536757E-09;
 -1.7000000E-01;  9.9999998E-03;  1.9000000E-01;335;  0.0000000E+00;  0.0000000E+00;  0.0000000E+00;  1.0000000E+03;  1.0000000E-01;  0.0000000E+00;0;  0.0000000E+00;  0.0000000E+00;  0.0000000E+00;0;  0.0000000E+00;  4.0000000E+04;  0.0000000E+00;  0.0000000E+00;  4.0000000E+04;  0.0000000E+00;  4.0000000E+04;  0.0000000E+00;  0.0000000E+00;  0.0000000E+00;  1.3804979E-09;
 -1.7000000E-01;  9.9999998E-03;  2.0000000E-01;336;  0.0000000E+00;  0.0000000E+00;  0.0000000E+00;  1.0000000E+03;  1.0000000E-01;  0.0000000E+00;0;  0.0000000E+00;  0.0000000E+00;  0.0000000E+00;0;  0.0000000E+00;  4.0000000E+04;  0.0000000E+00;  0.0000000E+00;  4.0000000E+04;  0.0000000E+00;  4.0000000E+04;  0.0000000E+00;  0.0000000E+00;  0.0000000E+00;  1.3572699E-09;
 -1.7000000E-01;  9.9999998E-03;  2.0999999E-01;337;  0.0000000E+00;  0.0000000E+00;  0.0000000E+00;  1.0000000E+03;  1.0000000E-01;  0.0000000E+00;0;  0.0000000E+00;  0.0000000E+00;  0.0000000E+00;0;  0.0000000E+00;  4.0000000E+04;  0.0000000E+00;  0.0000000E+00;  4.0000000E+04;  0.0000000E+00;  4.0000000E+04;  0.0000000E+00;  0.0000000E+00;  0.0000000E+00;  1.3090043E-09;
 -1.7000000E-01;  9.9999998E-03;  2.2000000E-01;338;  0.0000000E+00;  0.0000000E+00;  0.0000000E+00;  1.0000000E+03;  1.0000000E-01;  0.0000000E+00;0;  0.0000000E+00;  0.0000000E+00;  0.0000000E+00;0;  0.0000000E+00;  4.0000000E+04;  0.0000000E+00;  0.0000000E+00;  4.0000000E+04;  0.0000000E+00;  4.0000000E+04;  0.0000000E+00;  0.0000000E+00;  0.0000000E+00;  1.1702984E-09;
 -1.7000000E-01;  9.9999998E-03;  2.3000000E-01;339;  0.0000000E+00;  0.0000000E+00;  0.0000000E+00;  1.0000000E+03;  1.0000000E-01;  0.0000000E+00;0;  0.0000000E+00;  0.0000000E+00;  0.0000000E+00;0;  0.0000000E+00;  4.0000000E+04;  0.0000000E+00;  0.0000000E+00;  4.0000000E+04;  0.0000000E+00;  4.0000000E+04;  0.0000000E+00;  0.0000000E+00;  0.0000000E+00;  9.6134622E-10;
 -1.6000000E-01;  9.9999998E-03;  7.0000000E-02;414;  0.0000000E+00;  0.0000000E+00;  0.0000000E+00;  1.0000000E+03;  1.0000000E-01;  0.0000000E+00;0;  0.0000000E+00;  0.0000000E+00;  0.0000000E+00;0;  1.6709987E-06;  4.0000000E+04;  0.0000000E+00;  0.0000000E+00;  4.0000000E+04;  0.0000000E+00;  4.0000000E+04;  1.6716474E-06;  0.0000000E+00; -6.4869576E-10;  2.6590860E-01;
 -1.6000000E-01;  9.9999998E-03;  7.9999998E-02;415;  0.0000000E+00;  0.0000000E+00;  0.0000000E+00;  1.0000000E+03;  1.0000000E-01;  0.0000000E+00;0;  0.0000000E+00;  0.0000000E+00;  0.0000000E+00;0;  1.6770225E-06;  4.0000000E+04;  0.0000000E+00;  0.0000000E+00;  4.0000000E+04;  0.0000000E+00;  4.0000000E+04;  1.6777647E-06;  0.0000000E+00; -7.4210493E-10;  2.6623878E-01;
 -1.6000000E-01;  9.9999998E-03;  9.0000004E-02;416;  0.0000000E+00;  0.0000000E+00;  0.0000000E+00;  1.0000000E+03;  1.0000000E-01;  0.0000000E+00;0;  0.0000000E+00;  0.0000000E+00;  0.0000000E+00;0;  1.6833387E-06;  4.0000000E+04;  0.0000000E+00;  0.0000000E+00;  4.0000000E+04;  0.0000000E+00;  4.0000000E+04;  1.6840980E-06;  0.0000000E+00; -7.5928130E-10;  2.6741350E-01;
 -1.6000000E-01;  9.9999998E-03;  1.0000000E-01;417;  0.0000000E+00;  0.0000000E+00;  0.0000000E+00;  1.0000000E+03;  1.0000000E-01;  0.0000000E+00;0;  0.0000000E+00;  0.0000000E+00;  0.0000000E+00;0;  1.6901718E-06;  4.0000000E+04;  0.0000000E+00;  0.0000000E+00;  4.0000000E+04;  0.0000000E+00;  4.0000000E+04;  1.6908815E-06;  0.0000000E+00; -7.0969913E-10;  2.6975423E-01;
 -1.6000000E-01;  9.9999998E-03;  1.1000000E-01;418;  0.0000000E+00;  0.0000000E+00;  0.0000000E+00;  1.0000000E+03;  1.0000000E-01;  0.0000000E+00;0;  0.0000000E+00;  0.0000000E+00;  0.0000000E+00;0;  1.6981127E-06;  4.0000000E+04;  0.0000000E+00;  0.0000000E+00;  4.0000000E+04;  0.0000000E+00;  4.0000000E+04;  1.6987190E-06;  0.0000000E+00; -6.0628547E-10;  2.7333111E-01;
 -1.6000000E-01;  9.9999998E-03;  1.2000000E-01;419;  0.0000000E+00;  0.0000000E+00;  0.0000000E+00;  1.0000000E+03;  1.0000000E-01;  0.0000000E+00;0;  0.0000000E+00;  0.0000000E+00;  0.0000000E+00;0;  1.7082460E-06;  4.0000000E+04;  0.0000000E+00;  0.0000000E+00;  4.0000000E+04;  0.0000000E+00;  4.0000000E+04;  1.7087114E-06;  0.0000000E+00; -4.6528142E-10;  2.7783328E-01;
 -1.6000000E-01;  9.9999998E-03;  1.3000000E-01;420;  0.0000000E+00;  0.0000000E+00;  0.0000000E+00;  1.0000000E+03;  1.0000000E-01;  0.0000000E+00;0;  0.0000000E+00;  0.0000000E+00;  0.0000000E+00;0;  1.7222472E-06;  4.0000000E+04;  0.0000000E+00;  0.0000000E+00;  4.0000000E+04;  0.0000000E+00;  4.0000000E+04;  1.7225550E-06;  0.0000000E+00; -3.0779140E-10;  2.8260684E-01;
 -1.6000000E-01;  9.9999998E-03;  1.4000000E-01;421;  0.0000000E+00;  0.0000000E+00;  0.0000000E+00;  1.0000000E+03;  1.0000000E-01;  0.0000000E+00;0;  0.0000000E+00;  0.0000000E+00;  0.0000000E+00;0;  1.7426141E-06;  4.0000000E+04;  0.0000000E+00;  0.0000000E+00;  4.0000000E+04;  0.0000000E+00;  4.0000000E+04;  1.7427797E-06;  0.0000000E+00; -1.6556151E-10;  2.8681567E-01;
 -1.6000000E-01;  9.9999998E-03;  1.5000001E-01;422;  0.0000000E+00;  0.0000000E+00;  0.0000000E+00;  1.0000000E+03;  1.0000000E-01;  0.0000000E+00;0;  0.0000000E+00;  0.0000000E+00;  0.0000000E+00;0;  1.7728840E-06;  4.0000000E+04;  0.0000000E+00;  0.0000000E+00;  4.0000000E+04;  0.0000000E+00;  4.0000000E+04;  1.7729708E-06;  0.0000000E+00; -8.6769050E-11;  2.8962746E-01;
 -1.6000000E-01;  9.9999998E-03;  1.6000000E-01;423;  0.0000000E+00;  0.0000000E+00;  0.0000000E+00;  1.0000000E+03;  1.0000000E-01;  0.0000000E+00;0;  0.0000000E+00;  0.0000000E+00;  0.0000000E+00;0;  1.8177436E-06;  4.0000000E+04;  0.0000000E+00;  0.0000000E+00;  4.0000000E+04;  0.0000000E+00;  4.0000000E+04;  1.8178789E-06;  0.0000000E+00; -1.3524101E-10;  2.9028001E-01;
 -1.6000000E-01;  9.9999998E-03;  1.7000000E-01;424;  0.0000000E+00;  0.0000000E+00;  0.0000000E+00;  1.0000000E+03;  1.0000000E-01;  0.0000000E+00;0;  0.0000000E+00;  0.0000000E+00;  0.0000000E+00;0;  1.8830618E-06;  4.0000000E+04;  0.0000000E+00;  0.0000000E+00;  4.0000000E+04;  0.0000000E+00;  4.0000000E+04;  1.8834489E-06;  0.0000000E+00; -3.8714981E-10;  2.8810987E-01;
 -1.6000000E-01;  9.9999998E-03;  1.8000001E-01;425;  0.0000000E+00;  0.0000000E+00;  0.0000000E+00;  1.0000000E+03;  1.0000000E-01;  0.0000000E+00;0;  0.0000000E+00;  0.0000000E+00;  0.0000000E+00;0;  1.9755921E-06;  4.0000000E+04;  0.0000000E+00;  0.0000000E+00;  4.0000000E+04;  0.0000000E+00;  4.0000000E+04;  1.9765280E-06;  0.0000000E+00; -9.3593056E-10;  2.8262407E-01;
 -1.6000000E-01;  9.9999998E-03;  1.9000000E-01;426;  0.0000000E+00;  0.0000000E+00;  0.0000000E+00;  1.0000000E+03;  1.0000000E-01;  0.0000000E+00;0;  0.0000000E+00;  0.0000000E+00;  0.0000000E+00;0;  2.1021381E-06;  4.0000000E+04;  0.0000000E+00;  0.0000000E+00;  4.0000000E+04;  0.0000000E+00;  4.0000000E+04;  2.1040498E-06;  0.0000000E+00; -1.9117925E-09;  2.7368569E-01;
 -1.6000000E-01;  9.9999998E-03;  2.0000000E-01;427;  0.0000000E+00;  0.0000000E+00;  0.0000000E+00;  1.0000000E+03;  1.0000000E-01;  0.0000000E+00;0;  0.0000000E+00;  0.0000000E+00;  0.0000000E+00;0;  2.2677345E-06;  4.0000000E+04;  0.0000000E+00;  0.0000000E+00;  4.0000000E+04;  0.0000000E+00;  4.0000000E+04;  2.2712434E-06;  0.0000000E+00; -3.5088241E-09;  2.6164672E-01;
 -1.6000000E-01;  9.9999998E-03;  2.0999999E-01;428;  0.0000000E+00;  0.0000000E+00;  0.0000000E+00;  1.0000000E+03;  1.0000000E-01;  0.0000000E+00;0;  0.0000000E+00;  0.0000000E+00;  0.0000000E+00;0;  2.4726164E-06;  4.0000000E+04;  0.0000000E+00;  0.0000000E+00;  4.0000000E+04;  0.0000000E+00;  4.0000000E+04;  2.4786254E-06;  0.0000000E+00; -6.0089618E-09;  2.4733526E-01;
 -1.6000000E-01;  9.9999998E-03;  2.2000000E-01;429;  0.0000000E+00;  0.0000000E+00;  0.0000000E+00;  1.0000000E+03;  1.0000000E-01;  0.0000000E+00;0;  0.0000000E+00;  0.0000000E+00;  0.0000000E+00;0;  2.7079816E-06;  4.0000000E+04;  0.0000000E+00;  0.0000000E+00;  4.0000000E+04;  0.0000000E+00;  4.0000000E+04;  2.7177375E-06;  0.0000000E+00; -9.7559472E-09;  2.3155318E-01;
 -1.6000000E-01;  9.9999998E-03;  2.3000000E-01;430;  0.0000000E+00;  0.0000000E+00;  0.0000000E+00;  1.0000000E+03;  1.0000000E-01;  0.0000000E+00;0;  0.0000000E+00;  0.0000000E+00;  0.0000000E+00;0;  2.9507212E-06;  4.0000000E+04;  0.0000000E+00;  0.0000000E+00;  4.0000000E+04;  0.0000000E+00;  4.0000000E+04;  2.9656396E-06;  0.0000000E+00; -1.4918422E-08;  2.1384947E-01;
 -1.5000001E-01;  9.9999998E-03;  7.0000000E-02;505;  0.0000000E+00;  0.0000000E+00;  0.0000000E+00;  1.0000000E+03;  1.0000000E-01;  0.0000000E+00;0;  0.0000000E+00;  0.0000000E+00;  0.0000000E+00;0;  4.7935242E-05;  4.0000000E+04;  0.0000000E+00;  0.0000000E+00;  4.0000000E+04;  0.0000000E+00;  4.0000000E+04;  4.7976602E-05;  0.0000000E+00; -4.1359630E-08;  4.0617390E+00;
 -1.5000001E-01;  9.9999998E-03;  7.9999998E-02;506;  0.0000000E+00;  0.0000000E+00;  0.0000000E+00;  1.0000000E+03;  1.0000000E-01;  0.0000000E+00;0;  0.0000000E+00;  0.0000000E+00;  0.0000000E+00;0;  4.8273505E-05;  4.0000000E+04;  0.0000000E+00;  0.0000000E+00;  4.0000000E+04;  0.0000000E+00;  4.0000000E+04;  4.8322872E-05;  0.0000000E+00; -4.9368548E-08;  4.0513935E+00;
 -1.5000001E-01;  9.9999998E-03;  9.0000004E-02;507;  0.0000000E+00;  0.0000000E+00;  0.0000000E+00;  1.0000000E+03;  1.0000000E-01;  0.0000000E+00;0;  0.0000000E+00;  0.0000000E+00;  0.0000000E+00;0;  4.8582639E-05;  4.0000000E+04;  0.0000000E+00;  0.0000000E+00;  4.0000000E+04;  0.0000000E+00;  4.0000000E+04;  4.8634574E-05;  0.0000000E+00; -5.1934766E-08;  4.0527558E+00;
 -1.5000001E-01;  9.9999998E-03;  1.0000000E-01;508;  0.0000000E+00;  0.0000000E+00;  0.0000000E+00;  1.0000000E+03;  1.0000000E-01;  0.0000000E+00;0;  0.0000000E+00;  0.0000000E+00;  0.0000000E+00;0;  4.8853282E-05;  4.0000000E+04;  0.0000000E+00;  0.0000000E+00;  4.0000000E+04;  0.0000000E+00;  4.0000000E+04;  4.8902817E-05;  0.0000000E+00; -4.9536261E-08;  4.0714827E+00;
 -1.5000001E-01;  9.9999998E-03;  1.1000000E-01;509;  0.0000000E+00;  0.0000000E+00;  0.0000000E+00;  1.0000000E+03;  1.0000000E-01;  0.0000000E+00;0;  0.0000000E+00;  0.0000000E+00;  0.0000000E+00;0;  4.9086968E-05;  4.0000000E+04;  0.0000000E+00;  0.0000000E+00;  4.0000000E+04;  0.0000000E+00;  4.0000000E+04;  4.9130111E-05;  0.0000000E+00; -4.3141199E-08;  4.1082010E+00;
 -1.5000001E-01;  9.9999998E-03;  1.2000000E-01;510;  0.0000000E+00;  0.0000000E+00;  0.0000000E+00;  1.0000000E+03;  1.0000000E-01;  0.0000000E+00;0;  0.0000000E+00;  0.0000000E+00;  0.0000000E+00;0;  4.9298586E-05;  4.0000000E+04;  0.0000000E+00;  0.0000000E+00;  4.0000000E+04;  0.0000000E+00;  4.0000000E+04;  4.9332823E-05;  0.0000000E+00; -3.4236493E-08;  4.1577177E+00;
 -1.5000001E-01;  9.9999998E-03;  1.3000000E-01;511;  0.0000000E+00;  0.0000000E+00;  0.0000000E+00;  1.0000000E+03;  1.0000000E-01;  0.0000000E+00;0;  0.0000000E+00;  0.0000000E+00;  0.0000000E+00;0;  4.9516573E-05;  4.0000000E+04;  0.0000000E+00;  0.0000000E+00;  4.0000000E+04;  0.0000000E+00;  4.0000000E+04;  4.9541461E-05;  0.0000000E+00; -2.4888200E-08;  4.2102351E+00;
 -1.5000001E-01;  9.9999998E-03;  1.4000000E-01;512;  0.0000000E+00;  0.0000000E+00;  0.0000000E+00;  1.0000000E+03;  1.0000000E-01;  0.0000000E+00;0;  0.0000000E+00;  0.0000000E+00;  0.0000000E+00;0;  4.9780734E-05;  4.0000000E+04;  0.0000000E+00;  0.0000000E+00;  4.0000000E+04;  0.0000000E+00;  4.0000000E+04;  4.9798462E-05;  0.0000000E+00; -1.7728256E-08;  4.2535253E+00;
 -1.5000001E-01;  9.9999998E-03;  1.5000001E-01;513;  0.0000000E+00;  0.0000000E+00;  0.0000000E+00;  1.0000000E+03;  1.0000000E-01;  0.0000000E+00;0;  0.0000000E+00;  0.0000000E+00;  0.0000000E+00;0;  5.0136408E-05;  4.0000000E+04;  0.0000000E+00;  0.0000000E+00;  4.0000000E+04;  0.0000000E+00;  4.0000000E+04;  5.0152226E-05;  0.0000000E+00; -1.5819284E-08;  4.2756104E+00;
 -1.5000001E-01;  9.9999998E-03;  1.6000000E-01;514;  0.0000000E+00;  0.0000000E+00;  0.0000000E+00;  1.0000000E+03;  1.0000000E-01;  0.0000000E+00;0;  0.0000000E+00;  0.0000000E+00;  0.0000000E+00;0;  5.0626455E-05;  4.0000000E+04;  0.0000000E+00;  0.0000000E+00;  4.0000000E+04;  0.0000000E+00;  4.0000000E+04;  5.0648861E-05;  0.0000000E+00; -2.2406203E-08;  4.2670841E+00;
 -1.5000001E-01;  9.9999998E-03;  1.7000000E-01;515;  0.0000000E+00;  0.0000000E+00;  0.0000000E+00;  1.0000000E+03;  1.0000000E-01;  0.0000000E+00;0;  0.0000000E+00;  0.0000000E+00;  0.0000000E+00;0;  5.1278555E-05;  4.0000000E+04;  0.0000000E+00;  0.0000000E+00;  4.0000000E+04;  0.0000000E+00;  4.0000000E+04;  5.1319163E-05;  0.0000000E+00; -4.0607553E-08;  4.2224479E+00;
 -1.5000001E-01;  9.9999998E-03;  1.8000001E-01;516;  0.0000000E+00;  0.0000000E+00;  0.0000000E+00;  1.0000000E+03;  1.0000000E-01;  0.0000000E+00;0;  0.0000000E+00;  0.0000000E+00;  0.0000000E+00;0;  5.2090018E-05;  4.0000000E+04;  0.0000000E+00;  0.0000000E+00;  4.0000000E+04;  0.0000000E+00;  4.0000000E+04;  5.2163134E-05;  0.0000000E+00; -7.3115075E-08;  4.1406136E+00;
 -1.5000001E-01;  9.9999998E-03;  1.9000000E-01;517;  0.0000000E+00;  0.0000000E+00;  0.0000000E+00;  1.0000000E+03;  1.0000000E-01;  0.0000000E+00;0;  0.0000000E+00;  0.0000000E+00;  0.0000000E+00;0;  5.3010950E-05;  4.0000000E+04;  0.0000000E+00;  0.0000000E+00;  4.0000000E+04;  0.0000000E+00;  4.0000000E+04;  5.3132848E-05;  0.0000000E+00; -1.2189898E-07;  4.0244493E+00;
 -1.5000001E-01;  9.9999998E-03;  2.0000000E-01;518;  0.0000000E+00;  0.0000000E+00;  0.0000000E+00;  1.0000000E+03;  1.0000000E-01;  0.0000000E+00;0;  0.0000000E+00;  0.0000000E+00;  0.0000000E+00;0;  5.3929562E-05;  4.0000000E+04;  0.0000000E+00;  0.0000000E+00;  4.0000000E+04;  0.0000000E+00;  4.0000000E+04;  5.4117241E-05;  0.0000000E+00; -1.8768036E-07;  3.8777180E+00;
 -1.5000001E-01;  9.9999998E-03;  2.0999999E-01;519;  0.0000000E+00;  0.0000000E+00;  0.0000000E+00;  1.0000000E+03;  1.0000000E-01;  0.0000000E+00;0;  0.0000000E+00;  0.0000000E+00;  0.0000000E+00;0;  5.4659587E-05;  4.0000000E+04;  0.0000000E+00;  0.0000000E+00;  4.0000000E+04;  0.0000000E+00;  4.0000000E+04;  5.4927797E-05;  0.0000000E+00; -2.6820990E-07;  3.6980126E+00;
 -1.5000001E-01;  9.9999998E-03;  2.2000000E-01;520;  0.0000000E+00;  0.0000000E+00;  0.0000000E+00;  1.0000000E+03;  1.0000000E-01;  0.0000000E+00;0;  0.0000000E+00;  0.0000000E+00;  0.0000000E+00;0;  5.4929387E-05;  4.0000000E+04;  0.0000000E+00;  0.0000000E+00;  4.0000000E+04;  0.0000000E+00;  4.0000000E+04;  5.5280310E-05;  0.0000000E+00; -3.5092171E-07;  3.4662762E+00;
 -1.5000001E-01;  9.9999998E-03;  2.3000000E-01;521;  0.0000000E+00;  0.0000000E+00;  0.0000000E+00;  1.0000000E+03;  1.0000000E-01;  0.0000000E+00;0;  0.0000000E+00;  0.0000000E+00;  0.0000000E+00;0;  5.4368218E-05;  4.0000000E+04;  0.0000000E+00;  0.0000000E+00;  4.0000000E+04;  0.0000000E+00;  4.0000000E+04;  5.4768330E-05;  0.0000000E+00; -4.0011096E-07;  3.1366549E+00;
 -1.4000000E-01;  9.9999998E-03;  7.0000000E-02;596;  0.0000000E+00;  0.0000000E+00;  0.0000000E+00;  1.0000000E+03;  1.0000000E-01;  0.0000000E+00;0;  0.0000000E+00;  0.0000000E+00;  0.0000000E+00;0;  2.5376721E-04;  4.0000000E+04;  0.0000000E+00;  0.0000000E+00;  4.0000000E+04;  0.0000000E+00;  4.0000000E+04;  2.5407877E-04;  0.0000000E+00; -3.1155861E-07;  1.8647993E+01;
 -1.4000000E-01;  9.9999998E-03;  7.9999998E-02;597;  0.0000000E+00;  0.0000000E+00;  0.0000000E+00;  1.0000000E+03;  1.0000000E-01;  0.0000000E+00;0;  0.0000000E+00;  0.0000000E+00;  0.0000000E+00;0;  2.5567951E-04;  4.0000000E+04;  0.0000000E+00;  0.0000000E+00;  4.0000000E+04;  0.0000000E+00;  4.0000000E+04;  2.5605992E-04;  0.0000000E+00; -3.8042947E-07;  1.8555262E+01;
 -1.4000000E-01;  9.9999998E-03;  9.0000004E-02;598;  0.0000000E+00;  0.0000000E+00;  0.0000000E+00;  1.0000000E+03;  1.0000000E-01;  0.0000000E+00;0;  0.0000000E+00;  0.0000000E+00;  0.0000000E+00;0;  2.5742524E-04;  4.0000000E+04;  0.0000000E+00;  0.0000000E+00;  4.0000000E+04;  0.0000000E+00;  4.0000000E+04;  2.5783331E-04;  0.0000000E+00; -4.0806492E-07;  1.8502327E+01;
 -1.4000000E-01;  9.9999998E-03;  1.0000000E-01;599;  0.0000000E+00;  0.0000000E+00;  0.0000000E+00;  1.0000000E+03;  1.0000000E-01;  0.0000000E+00;0;  0.0000000E+00;  0.0000000E+00;  0.0000000E+00;0;  2.5894679E-04;  4.0000000E+04;  0.0000000E+00;  0.0000000E+00;  4.0000000E+04;  0.0000000E+00;  4.0000000E+04;  2.5934435E-04;  0.0000000E+00; -3.9755042E-07;  1.8512487E+01;
 -1.4000000E-01;  9.9999998E-03;  1.1000000E-01;600;  0.0000000E+00;  0.0000000E+00;  0.0000000E+00;  1.0000000E+03;  1.0000000E-01;  0.0000000E+00;0;  0.0000000E+00;  0.0000000E+00;  0.0000000E+00;0;  2.6023699E-04;  4.0000000E+04;  0.0000000E+00;  0.0000000E+00;  4.0000000E+04;  0.0000000E+00;  4.0000000E+04;  2.6059436E-04;  0.0000000E+00; -3.5736312E-07;  1.8591656E+01;
 -1.4000000E-01;  9.9999998E-03;  1.2000000E-01;601;  0.0000000E+00;  0.0000000E+00;  0.0000000E+00;  1.0000000E+03;  1.0000000E-01;  0.0000000E+00;0;  0.0000000E+00;  0.0000000E+00;  0.0000000E+00;0;  2.6134244E-04;  4.0000000E+04;  0.0000000E+00;  0.0000000E+00;  4.0000000E+04;  0.0000000E+00;  4.0000000E+04;  2.6164323E-04;  0.0000000E+00; -3.0077666E-07;  1.8725471E+01;
 -1.4000000E-01;  9.9999998E-03;  1.3000000E-01;602;  0.0000000E+00;  0.0000000E+00;  0.0000000E+00;  1.0000000E+03;  1.0000000E-01;  0.0000000E+00;0;  0.0000000E+00;  0.0000000E+00;  0.0000000E+00;0;  2.6235956E-04;  4.0000000E+04;  0.0000000E+00;  0.0000000E+00;  4.0000000E+04;  0.0000000E+00;  4.0000000E+04;  2.6260476E-04;  0.0000000E+00; -2.4520037E-07;  1.8881748E+01;
 -1.4000000E-01;  9.9999998E-03;  1.4000000E-01;603;  0.0000000E+00;  0.0000000E+00;  0.0000000E+00;  1.0000000E+03;  1.0000000E-01;  0.0000000E+00;0;  0.0000000E+00;  0.0000000E+00;  0.0000000E+00;0;  2.6341176E-04;  4.0000000E+04;  0.0000000E+00;  0.0000000E+00;  4.0000000E+04;  0.0000000E+00;  4.0000000E+04;  2.6362290E-04;  0.0000000E+00; -2.1115802E-07;  1.9018690E+01;
 -1.4000000E-01;  9.9999998E-03;  1.5000001E-01;604;  0.0000000E+00;  0.0000000E+00;  0.0000000E+00;  1.0000000E+03;  1.0000000E-01;  0.0000000E+00;0;  0.0000000E+00;  0.0000000E+00;  0.0000000E+00;0;  2.6461645E-04;  4.0000000E+04;  0.0000000E+00;  0.0000000E+00;  4.0000000E+04;  0.0000000E+00;  4.0000000E+04;  2.6483709E-04;  0.0000000E+00; -2.2064931E-07;  1.9095358E+01;
 -1.4000000E-01;  9.9999998E-03;  1.6000000E-01;605;  0.0000000E+00;  0.0000000E+00;  0.0000000E+00;  1.0000000E+03;  1.0000000E-01;  0.0000000E+00;0;  0.0000000E+00;  0.0000000E+00;  0.0000000E+00;0;  2.6603730E-04;  4.0000000E+04;  0.0000000E+00;  0.0000000E+00;  4.0000000E+04;  0.0000000E+00;  4.0000000E+04;  2.6633224E-04;  0.0000000E+00; -2.9492463E-07;  1.9081650E+01;
 -1.4000000E-01;  9.9999998E-03;  1.7000000E-01;606;  0.0000000E+00;  0.0000000E+00;  0.0000000E+00;  1.0000000E+03;  1.0000000E-01;  0.0000000E+00;0;  0.0000000E+00;  0.0000000E+00;  0.0000000E+00;0;  2.6762966E-04;  4.0000000E+04;  0.0000000E+00;  0.0000000E+00;  4.0000000E+04;  0.0000000E+00;  4.0000000E+04;  2.6808158E-04;  0.0000000E+00; -4.5191516E-07;  1.8964737E+01;
 -1.4000000E-01;  9.9999998E-03;  1.8000001E-01;607;  0.0000000E+00;  0.0000000E+00;  0.0000000E+00;  1.0000000E+03;  1.0000000E-01;  0.0000000E+00;0;  0.0000000E+00;  0.0000000E+00;  0.0000000E+00;0;  2.6918674E-04;  4.0000000E+04;  0.0000000E+00;  0.0000000E+00;  4.0000000E+04;  0.0000000E+00;  4.0000000E+04;  2.6989012E-04;  0.0000000E+00; -7.0338467E-07;  1.8747152E+01;
 -1.4000000E-01;  9.9999998E-03;  1.9000000E-01;608;  0.0000000E+00;  0.0000000E+00;  0.0000000E+00;  1.0000000E+03;  1.0000000E-01;  0.0000000E+00;0;  0.0000000E+00;  0.0000000E+00;  0.0000000E+00;0;  2.7029574E-04;  4.0000000E+04;  0.0000000E+00;  0.0000000E+00;  4.0000000E+04;  0.0000000E+00;  4.0000000E+04;  2.7134633E-04;  0.0000000E+00; -1.0505793E-06;  1.8431810E+01;
 -1.4000000E-01;  9.9999998E-03;  2.0000000E-01;609;  0.0000000E+00;  0.0000000E+00;  0.0000000E+00;  1.0000000E+03;  1.0000000E-01;  0.0000000E+00;0;  0.0000000E+00;  0.0000000E+00;  0.0000000E+00;0;  2.7031079E-04;  4.0000000E+04;  0.0000000E+00;  0.0000000E+00;  4.0000000E+04;  0.0000000E+00;  4.0000000E+04;  2.7178400E-04;  0.0000000E+00; -1.4732077E-06;  1.7990629E+01;
 -1.4000000E-01;  9.9999998E-03;  2.0999999E-01;610;  0.0000000E+00;  0.0000000E+00;  0.0000000E+00;  1.0000000E+03;  1.0000000E-01;  0.0000000E+00;0;  0.0000000E+00;  0.0000000E+00;  0.0000000E+00;0;  2.6833624E-04;  4.0000000E+04;  0.0000000E+00;  0.0000000E+00;  4.0000000E+04;  0.0000000E+00;  4.0000000E+04;  2.7022944E-04;  0.0000000E+00; -1.8931931E-06;  1.7323418E+01;
 -1.4000000E-01;  9.9999998E-03;  2.2000000E-01;611;  0.0000000E+00;  0.0000000E+00;  0.0000000E+00;  1.0000000E+03;  1.0000000E-01;  0.0000000E+00;0;  0.0000000E+00;  0.0000000E+00;  0.0000000E+00;0;  2.6325148E-04;  4.0000000E+04;  0.0000000E+00;  0.0000000E+00;  4.0000000E+04;  0.0000000E+00;  4.0000000E+04;  2.6542964E-04;  0.0000000E+00; -2.1781586E-06;  1.6242647E+01;
 -1.4000000E-01;  9.9999998E-03;  2.3000000E-01;612;  0.0000000E+00;  0.0000000E+00;  0.0000000E+00;  1.0000000E+03;  1.0000000E-01;  0.0000000E+00;0;  0.0000000E+00;  0.0000000E+00;  0.0000000E+00;0;  2.5391736E-04;  4.0000000E+04;  0.0000000E+00;  0.0000000E+00;  4.0000000E+04;  0.0000000E+00;  4.0000000E+04;  2.5610742E-04;  0.0000000E+00; -2.1900489E-06;  1.4557171E+01;
 -1.3000000E-01;  9.9999998E-03;  7.0000000E-02;687;  0.0000000E+00;  0.0000000E+00;  0.0000000E+00;  1.0000000E+03;  1.0000000E-01;  0.0000000E+00;0;  0.0000000E+00;  0.0000000E+00;  0.0000000E+00;0;  7.5812009E-04;  4.0000000E+04;  0.0000000E+00;  0.0000000E+00;  4.0000000E+04;  0.0000000E+00;  4.0000000E+04;  7.5932546E-04;  0.0000000E+00; -1.2053749E-06;  5.2700554E+01;
 -1.3000000E-01;  9.9999998E-03;  7.9999998E-02;688;  0.0000000E+00;  0.0000000E+00;  0.0000000E+00;  1.0000000E+03;  1.0000000E-01;  0.0000000E+00;0;  0.0000000E+00;  0.0000000E+00;  0.0000000E+00;0;  7.6395611E-04;  4.0000000E+04;  0.0000000E+00;  0.0000000E+00;  4.0000000E+04;  0.0000000E+00;  4.0000000E+04;  7.6544879E-04;  0.0000000E+00; -1.4926757E-06;  5.2317493E+01;
 -1.3000000E-01;  9.9999998E-03;  9.0000004E-02;689;  0.0000000E+00;  0.0000000E+00;  0.0000000E+00;  1.0000000E+03;  1.0000000E-01;  0.0000000E+00;0;  0.0000000E+00;  0.0000000E+00;  0.0000000E+00;0;  7.6932291E-04;  4.0000000E+04;  0.0000000E+00;  0.0000000E+00;  4.0000000E+04;  0.0000000E+00;  4.0000000E+04;  7.7095086E-04;  0.0000000E+00; -1.6279411E-06;  5.2010006E+01;
 -1.3000000E-01;  9.9999998E-03;  1.0000000E-01;690;  0.0000000E+00;  0.0000000E+00;  0.0000000E+00;  1.0000000E+03;  1.0000000E-01;  0.0000000E+00;0;  0.0000000E+00;  0.0000000E+00;  0.0000000E+00;0;  7.7404408E-04;  4.0000000E+04;  0.0000000E+00;  0.0000000E+00;  4.0000000E+04;  0.0000000E+00;  4.0000000E+04;  7.7566609E-04;  0.0000000E+00; -1.6220392E-06;  5.1840370E+01;
 -1.3000000E-01;  9.9999998E-03;  1.1000000E-01;691;  0.0000000E+00;  0.0000000E+00;  0.0000000E+00;  1.0000000E+03;  1.0000000E-01;  0.0000000E+00;0;  0.0000000E+00;  0.0000000E+00;  0.0000000E+00;0;  7.7806466E-04;  4.0000000E+04;  0.0000000E+00;  0.0000000E+00;  4.0000000E+04;  0.0000000E+00;  4.0000000E+04;  7.7957375E-04;  0.0000000E+00; -1.5090825E-06;  5.1837135E+01;
 -1.3000000E-01;  9.9999998E-03;  1.2000000E-01;692;  0.0000000E+00;  0.0000000E+00;  0.0000000E+00;  1.0000000E+03;  1.0000000E-01;  0.0000000E+00;0;  0.0000000E+00;  0.0000000E+00;  0.0000000E+00;0;  7.8145461E-04;  4.0000000E+04;  0.0000000E+00;  0.0000000E+00;  4.0000000E+04;  0.0000000E+00;  4.0000000E+04;  7.8279793E-04;  0.0000000E+00; -1.3433003E-06;  5.1987415E+01;
 -1.3000000E-01;  9.9999998E-03;  1.3000000E-01;693;  0.0000000E+00;  0.0000000E+00;  0.0000000E+00;  1.0000000E+03;  1.0000000E-01;  0.0000000E+00;0;  0.0000000E+00;  0.0000000E+00;  0.0000000E+00;0;  7.8437658E-04;  4.0000000E+04;  0.0000000E+00;  0.0000000E+00;  4.0000000E+04;  0.0000000E+00;  4.0000000E+04;  7.8557071E-04;  0.0000000E+00; -1.1941358E-06;  5.2240486E+01;
 -1.3000000E-01;  9.9999998E-03;  1.4000000E-01;694;  0.0000000E+00;  0.0000000E+00;  0.0000000E+00;  1.0000000E+03;  1.0000000E-01;  0.0000000E+00;0;  0.0000000E+00;  0.0000000E+00;  0.0000000E+00;0;  7.8702084E-04;  4.0000000E+04;  0.0000000E+00;  0.0000000E+00;  4.0000000E+04;  0.0000000E+00;  4.0000000E+04;  7.8816077E-04;  0.0000000E+00; -1.1399140E-06;  5.2525070E+01;
 -1.3000000E-01;  9.9999998E-03;  1.5000001E-01;695;  0.0000000E+00;  0.0000000E+00;  0.0000000E+00;  1.0000000E+03;  1.0000000E-01;  0.0000000E+00;0;  0.0000000E+00;  0.0000000E+00;  0.0000000E+00;0;  7.8950223E-04;  4.0000000E+04;  0.0000000E+00;  0.0000000E+00;  4.0000000E+04;  0.0000000E+00;  4.0000000E+04;  7.9076242E-04;  0.0000000E+00; -1.2602125E-06;  5.2771725E+01;
 -1.3000000E-01;  9.9999998E-03;  1.6000000E-01;696;  0.0000000E+00;  0.0000000E+00;  0.0000000E+00;  1.0000000E+03;  1.0000000E-01;  0.0000000E+00;0;  0.0000000E+00;  0.0000000E+00;  0.0000000E+00;0;  7.9174136E-04;  4.0000000E+04;  0.0000000E+00;  0.0000000E+00;  4.0000000E+04;  0.0000000E+00;  4.0000000E+04;  7.9336838E-04;  0.0000000E+00; -1.6270133E-06;  5.2934879E+01;
 -1.3000000E-01;  9.9999998E-03;  1.7000000E-01;697;  0.0000000E+00;  0.0000000E+00;  0.0000000E+00;  1.0000000E+03;  1.0000000E-01;  0.0000000E+00;0;  0.0000000E+00;  0.0000000E+00;  0.0000000E+00;0;  7.9334219E-04;  4.0000000E+04;  0.0000000E+00;  0.0000000E+00;  4.0000000E+04;  0.0000000E+00;  4.0000000E+04;  7.9563638E-04;  0.0000000E+00; -2.2941774E-06;  5.2997944E+01;
 -1.3000000E-01;  9.9999998E-03;  1.8000001E-01;698;  0.0000000E+00;  0.0000000E+00;  0.0000000E+00;  1.0000000E+03;  1.0000000E-01;  0.0000000E+00;0;  0.0000000E+00;  0.0000000E+00;  0.0000000E+00;0;  7.9348031E-04;  4.0000000E+04;  0.0000000E+00;  0.0000000E+00;  4.0000000E+04;  0.0000000E+00;  4.0000000E+04;  7.9676259E-04;  0.0000000E+00; -3.2822827E-06;  5.2946129E+01;
 -1.3000000E-01;  9.9999998E-03;  1.9000000E-01;699;  0.0000000E+00;  0.0000000E+00;  0.0000000E+00;  1.0000000E+03;  1.0000000E-01;  0.0000000E+00;0;  0.0000000E+00;  0.0000000E+00;  0.0000000E+00;0;  7.9084182E-04;  4.0000000E+04;  0.0000000E+00;  0.0000000E+00;  4.0000000E+04;  0.0000000E+00;  4.0000000E+04;  7.9538411E-04;  0.0000000E+00; -4.5423194E-06;  5.2696186E+01;
 -1.3000000E-01;  9.9999998E-03;  2.0000000E-01;700;  0.0000000E+00;  0.0000000E+00;  0.0000000E+00;  1.0000000E+03;  1.0000000E-01;  0.0000000E+00;0;  0.0000000E+00;  0.0000000E+00;  0.0000000E+00;0;  7.8358833E-04;  4.0000000E+04;  0.0000000E+00;  0.0000000E+00;  4.0000000E+04;  0.0000000E+00;  4.0000000E+04;  7.8947132E-04;  0.0000000E+00; -5.8830174E-06;  5.1995857E+01;
 -1.3000000E-01;  9.9999998E-03;  2.0999999E-01;701;  0.0000000E+00;  0.0000000E+00;  0.0000000E+00;  1.0000000E+03;  1.0000000E-01;  0.0000000E+00;0;  0.0000000E+00;  0.0000000E+00;  0.0000000E+00;0;  7.6944637E-04;  4.0000000E+04;  0.0000000E+00;  0.0000000E+00;  4.0000000E+04;  0.0000000E+00;  4.0000000E+04;  7.7643385E-04;  0.0000000E+00; -6.9874727E-06;  5.0393417E+01;
 -1.3000000E-01;  9.9999998E-03;  2.2000000E-01;702;  0.0000000E+00;  0.0000000E+00;  0.0000000E+00;  1.0000000E+03;  1.0000000E-01;  0.0000000E+00;0;  0.0000000E+00;  0.0000000E+00;  0.0000000E+00;0;  7.4605620E-04;  4.0000000E+04;  0.0000000E+00;  0.0000000E+00;  4.0000000E+04;  0.0000000E+00;  4.0000000E+04;  7.5353601E-04;  0.0000000E+00; -7.4797786E-06;  4.7367943E+01;
 -1.3000000E-01;  9.9999998E-03;  2.3000000E-01;703;  0.0000000E+00;  0.0000000E+00;  0.0000000E+00;  1.0000000E+03;  1.0000000E-01;  0.0000000E+00;0;  0.0000000E+00;  0.0000000E+00;  0.0000000E+00;0;  7.1147224E-04;  4.0000000E+04;  0.0000000E+00;  0.0000000E+00;  4.0000000E+04;  0.0000000E+00;  4.0000000E+04;  7.1851461E-04;  0.0000000E+00; -7.0423894E-06;  4.2456367E+01;
 -1.2000000E-01;  9.9999998E-03;  7.0000000E-02;778;  0.0000000E+00;  0.0000000E+00;  0.0000000E+00;  1.0000015E+03;  1.0000000E-01;  1.1851517E+00;0;  0.0000000E+00;  0.0000000E+00;  0.0000000E+00;0;  1.6802460E-03;  4.0000000E+04;  0.0000000E+00;  0.0000000E+00;  4.0000000E+04;  0.0000000E+00;  4.0000000E+04;  1.6835844E-03;  0.0000000E+00; -3.3384370E-06;  1.1425896E+02;
 -1.2000000E-01;  9.9999998E-03;  7.9999998E-02;779;  0.0000000E+00;  0.0000000E+00;  0.0000000E+00;  1.0000057E+03;  1.0000000E-01;  4.7406068E+00;0;  0.0000000E+00;  0.0000000E+00;  0.0000000E+00;0;  1.6933735E-03;  4.0000000E+04;  0.0000000E+00;  0.0000000E+00;  4.0000000E+04;  0.0000000E+00;  4.0000000E+04;  1.6975402E-03;  0.0000000E+00; -4.1665667E-06;  1.1315134E+02;
 -1.2000000E-01;  9.9999998E-03;  9.0000004E-02;780;  0.0000000E+00;  0.0000000E+00;  0.0000000E+00;  1.0000079E+03;  1.0000000E-01;  6.6170969E+00;0;  0.0000000E+00;  0.0000000E+00;  0.0000000E+00;0;  1.7055557E-03;  4.0000000E+04;  0.0000000E+00;  0.0000000E+00;  4.0000000E+04;  0.0000000E+00;  4.0000000E+04;  1.7101626E-03;  0.0000000E+00; -4.6069490E-06;  1.1214454E+02;
 -1.2000000E-01;  9.9999998E-03;  1.0000000E-01;781;  0.0000000E+00;  0.0000000E+00;  0.0000000E+00;  1.0000099E+03;  1.0000000E-01;  8.1972990E+00;0;  0.0000000E+00;  0.0000000E+00;  0.0000000E+00;0;  1.7163872E-03;  4.0000000E+04;  0.0000000E+00;  0.0000000E+00;  4.0000000E+04;  0.0000000E+00;  4.0000000E+04;  1.7210755E-03;  0.0000000E+00; -4.6882515E-06;  1.1137213E+02;
 -1.2000000E-01;  9.9999998E-03;  1.1000000E-01;782;  0.0000000E+00;  0.0000000E+00;  0.0000000E+00;  1.0000134E+03;  1.0000000E-01;  1.1061416E+01;0;  0.0000000E+00;  0.0000000E+00;  0.0000000E+00;0;  1.7256815E-03;  4.0000000E+04;  0.0000000E+00;  0.0000000E+00;  4.0000000E+04;  0.0000000E+00;  4.0000000E+04;  1.7301856E-03;  0.0000000E+00; -4.5040574E-06;  1.1092275E+02;
 -1.2000000E-01;  9.9999998E-03;  1.2000000E-01;783;  0.0000000E+00;  0.0000000E+00;  0.0000000E+00;  1.0000168E+03;  1.0000000E-01;  1.3925532E+01;0;  0.0000000E+00;  0.0000000E+00;  0.0000000E+00;0;  1.7334612E-03;  4.0000000E+04;  0.0000000E+00;  0.0000000E+00;  4.0000000E+04;  0.0000000E+00;  4.0000000E+04;  1.7376642E-03;  0.0000000E+00; -4.2031029E-06;  1.1082753E+02;
 -1.2000000E-01;  9.9999998E-03;  1.3000000E-01;784;  0.0000000E+00;  0.0000000E+00;  0.0000000E+00;  1.0000208E+03;  1.0000000E-01;  1.7283463E+01;0;  0.0000000E+00;  0.0000000E+00;  0.0000000E+00;0;  1.7398632E-03;  4.0000000E+04;  0.0000000E+00;  0.0000000E+00;  4.0000000E+04;  0.0000000E+00;  4.0000000E+04;  1.7438368E-03;  0.0000000E+00; -3.9736119E-06;  1.1106165E+02;
 -1.2000000E-01;  9.9999998E-03;  1.4000000E-01;785;  0.0000000E+00;  0.0000000E+00;  0.0000000E+00;  1.0000247E+03;  1.0000000E-01;  2.0443867E+01;0;  0.0000000E+00;  0.0000000E+00;  0.0000000E+00;0;  1.7450100E-03;  4.0000000E+04;  0.0000000E+00;  0.0000000E+00;  4.0000000E+04;  0.0000000E+00;  4.0000000E+04;  1.7490331E-03;  0.0000000E+00; -4.0231071E-06;  1.1157293E+02;
 -1.2000000E-01;  9.9999998E-03;  1.5000001E-01;786;  0.0000000E+00;  0.0000000E+00;  0.0000000E+00;  1.0000220E+03;  1.0000000E-01;  1.8172325E+01;0;  0.0000000E+00;  0.0000000E+00;  0.0000000E+00;0;  1.7487990E-03;  4.0000000E+04;  0.0000000E+00;  0.0000000E+00;  4.0000000E+04;  0.0000000E+00;  4.0000000E+04;  1.7533544E-03;  0.0000000E+00; -4.5553975E-06;  1.1231475E+02;
 -1.2000000E-01;  9.9999998E-03;  1.6000000E-01;787;  0.0000000E+00;  0.0000000E+00;  0.0000000E+00;  1.0000123E+03;  1.0000000E-01;  1.0172552E+01;0;  0.0000000E+00;  0.0000000E+00;  0.0000000E+00;0;  1.7506932E-03;  4.0000000E+04;  0.0000000E+00;  0.0000000E+00;  4.0000000E+04;  0.0000000E+00;  4.0000000E+04;  1.7564374E-03;  0.0000000E+00; -5.7441271E-06;  1.1326341E+02;
 -1.2000000E-01;  9.9999998E-03;  1.7000000E-01;788;  0.0000000E+00;  0.0000000E+00;  0.0000000E+00;  1.0000049E+03;  1.0000000E-01;  4.0492682E+00;0;  0.0000000E+00;  0.0000000E+00;  0.0000000E+00;0;  1.7494917E-03;  4.0000000E+04;  0.0000000E+00;  0.0000000E+00;  4.0000000E+04;  0.0000000E+00;  4.0000000E+04;  1.7571892E-03;  0.0000000E+00; -7.6974648E-06;  1.1438976E+02;
 -1.2000000E-01;  9.9999998E-03;  1.8000001E-01;789;  0.0000000E+00;  0.0000000E+00;  0.0000000E+00;  1.0000000E+03;  1.0000000E-01;  0.0000000E+00;0;  0.0000000E+00;  0.0000000E+00;  0.0000000E+00;0;  1.7431949E-03;  4.0000000E+04;  0.0000000E+00;  0.0000000E+00;  4.0000000E+04;  0.0000000E+00;  4.0000000E+04;  1.7535785E-03;  0.0000000E+00; -1.0383610E-05;  1.1554668E+02;
 -1.2000000E-01;  9.9999998E-03;  1.9000000E-01;790;  0.0000000E+00;  0.0000000E+00;  0.0000000E+00;  1.0000000E+03;  1.0000000E-01;  0.0000000E+00;0;  0.0000000E+00;  0.0000000E+00;  0.0000000E+00;0;  1.7289207E-03;  4.0000000E+04;  0.0000000E+00;  0.0000000E+00;  4.0000000E+04;  0.0000000E+00;  4.0000000E+04;  1.7424239E-03;  0.0000000E+00; -1.3503072E-05;  1.1629190E+02;
 -1.2000000E-01;  9.9999998E-03;  2.0000000E-01;791;  0.0000000E+00;  0.0000000E+00;  0.0000000E+00;  1.0000000E+03;  1.0000000E-01;  0.0000000E+00;0;  0.0000000E+00;  0.0000000E+00;  0.0000000E+00;0;  1.7029950E-03;  4.0000000E+04;  0.0000000E+00;  0.0000000E+00;  4.0000000E+04;  0.0000000E+00;  4.0000000E+04;  1.7194770E-03;  0.0000000E+00; -1.6481985E-05;  1.1579748E+02;
 -1.2000000E-01;  9.9999998E-03;  2.0999999E-01;792;  0.0000000E+00;  0.0000000E+00;  0.0000000E+00;  1.0000000E+03;  1.0000000E-01;  0.0000000E+00;0;  0.0000000E+00;  0.0000000E+00;  0.0000000E+00;0;  1.6614039E-03;  4.0000000E+04;  0.0000000E+00;  0.0000000E+00;  4.0000000E+04;  0.0000000E+00;  4.0000000E+04;  1.6799538E-03;  0.0000000E+00; -1.8549816E-05;  1.1297220E+02;
 -1.2000000E-01;  9.9999998E-03;  2.2000000E-01;793;  0.0000000E+00;  0.0000000E+00;  0.0000000E+00;  1.0000000E+03;  1.0000000E-01;  0.0000000E+00;0;  0.0000000E+00;  0.0000000E+00;  0.0000000E+00;0;  1.6004766E-03;  4.0000000E+04;  0.0000000E+00;  0.0000000E+00;  4.0000000E+04;  0.0000000E+00;  4.0000000E+04;  1.6194117E-03;  0.0000000E+00; -1.8935179E-05;  1.0661825E+02;
 -1.2000000E-01;  9.9999998E-03;  2.3000000E-01;794;  0.0000000E+00;  0.0000000E+00;  0.0000000E+00;  1.0000000E+03;  1.0000000E-01;  0.0000000E+00;0;  0.0000000E+00;  0.0000000E+00;  0.0000000E+00;0;  1.5176417E-03;  4.0000000E+04;  0.0000000E+00;  0.0000000E+00;  4.0000000E+04;  0.0000000E+00;  4.0000000E+04;  1.5347281E-03;  0.0000000E+00; -1.7086420E-05;  9.5753128E+01;
 -1.1000000E-01;  9.9999998E-03;  7.0000000E-02;869;  0.0000000E+00;  0.0000000E+00;  0.0000000E+00;  1.0000771E+03;  1.0000000E-01;  6.3899426E+01;0;  0.0000000E+00;  0.0000000E+00;  0.0000000E+00;0;  3.1034527E-03;  4.0000000E+04;  0.0000000E+00;  0.0000000E+00;  4.0000000E+04;  0.0000000E+00;  4.0000000E+04;  3.1110323E-03;  0.0000000E+00; -7.5794737E-06;  2.0997826E+02;
 -1.1000000E-01;  9.9999998E-03;  7.9999998E-02;870;  0.0000000E+00;  0.0000000E+00;  0.0000000E+00;  1.0000837E+03;  1.0000000E-01;  6.9331375E+01;0;  0.0000000E+00;  0.0000000E+00;  0.0000000E+00;0;  3.1281128E-03;  4.0000000E+04;  0.0000000E+00;  0.0000000E+00;  4.0000000E+04;  0.0000000E+00;  4.0000000E+04;  3.1375969E-03;  0.0000000E+00; -9.4841243E-06;  2.0740552E+02;
 -1.1000000E-01;  9.9999998E-03;  9.0000004E-02;871;  0.0000000E+00;  0.0000000E+00;  0.0000000E+00;  1.0000891E+03;  1.0000000E-01;  7.3874451E+01;0;  0.0000000E+00;  0.0000000E+00;  0.0000000E+00;0;  3.1511926E-03;  4.0000000E+04;  0.0000000E+00;  0.0000000E+00;  4.0000000E+04;  0.0000000E+00;  4.0000000E+04;  3.1617905E-03;  0.0000000E+00; -1.0597935E-05;  2.0493486E+02;
 -1.1000000E-01;  9.9999998E-03;  1.0000000E-01;872;  0.0000000E+00;  0.0000000E+00;  0.0000000E+00;  1.0000948E+03;  1.0000000E-01;  7.8615059E+01;0;  0.0000000E+00;  0.0000000E+00;  0.0000000E+00;0;  3.1719101E-03;  4.0000000E+04;  0.0000000E+00;  0.0000000E+00;  4.0000000E+04;  0.0000000E+00;  4.0000000E+04;  3.1828939E-03;  0.0000000E+00; -1.0983850E-05;  2.0281598E+02;
 -1.1000000E-01;  9.9999998E-03;  1.1000000E-01;873;  0.0000000E+00;  0.0000000E+00;  0.0000000E+00;  1.0001012E+03;  1.0000000E-01;  8.3849480E+01;0;  0.0000000E+00;  0.0000000E+00;  0.0000000E+00;0;  3.1898147E-03;  4.0000000E+04;  0.0000000E+00;  0.0000000E+00;  4.0000000E+04;  0.0000000E+00;  4.0000000E+04;  3.2006607E-03;  0.0000000E+00; -1.0846033E-05;  2.0126393E+02;
 -1.1000000E-01;  9.9999998E-03;  1.2000000E-01;874;  0.0000000E+00;  0.0000000E+00;  0.0000000E+00;  1.0001039E+03;  1.0000000E-01;  8.6121017E+01;0;  0.0000000E+00;  0.0000000E+00;  0.0000000E+00;0;  3.2047103E-03;  4.0000000E+04;  0.0000000E+00;  0.0000000E+00;  4.0000000E+04;  0.0000000E+00;  4.0000000E+04;  3.2152173E-03;  0.0000000E+00; -1.0507057E-05;  2.0043787E+02;
 -1.1000000E-01;  9.9999998E-03;  1.3000000E-01;875;  0.0000000E+00;  0.0000000E+00;  0.0000000E+00;  1.0001035E+03;  1.0000000E-01;  8.5725967E+01;0;  0.0000000E+00;  0.0000000E+00;  0.0000000E+00;0;  3.2165386E-03;  4.0000000E+04;  0.0000000E+00;  0.0000000E+00;  4.0000000E+04;  0.0000000E+00;  4.0000000E+04;  3.2269100E-03;  0.0000000E+00; -1.0371411E-05;  2.0044107E+02;
 -1.1000000E-01;  9.9999998E-03;  1.4000000E-01;876;  0.0000000E+00;  0.0000000E+00;  0.0000000E+00;  1.0000928E+03;  1.0000000E-01;  7.6936096E+01;0;  0.0000000E+00;  0.0000000E+00;  0.0000000E+00;0;  3.2251079E-03;  4.0000000E+04;  0.0000000E+00;  0.0000000E+00;  4.0000000E+04;  0.0000000E+00;  4.0000000E+04;  3.2359872E-03;  0.0000000E+00; -1.0879158E-05;  2.0136076E+02;
 -1.1000000E-01;  9.9999998E-03;  1.5000001E-01;877;  0.0000000E+00;  0.0000000E+00;  0.0000000E+00;  1.0000885E+03;  1.0000000E-01;  7.3281876E+01;0;  0.0000000E+00;  0.0000000E+00;  0.0000000E+00;0;  3.2297692E-03;  4.0000000E+04;  0.0000000E+00;  0.0000000E+00;  4.0000000E+04;  0.0000000E+00;  4.0000000E+04;  3.2422203E-03;  0.0000000E+00; -1.2451043E-05;  2.0328543E+02;
 -1.1000000E-01;  9.9999998E-03;  1.6000000E-01;878;  0.0000000E+00;  0.0000000E+00;  0.0000000E+00;  1.0000833E+03;  1.0000000E-01;  6.9035088E+01;0;  0.0000000E+00;  0.0000000E+00;  0.0000000E+00;0;  3.2290735E-03;  4.0000000E+04;  0.0000000E+00;  0.0000000E+00;  4.0000000E+04;  0.0000000E+00;  4.0000000E+04;  3.2444936E-03;  0.0000000E+00; -1.5420228E-05;  2.0627766E+02;
 -1.1000000E-01;  9.9999998E-03;  1.7000000E-01;879;  0.0000000E+00;  0.0000000E+00;  0.0000000E+00;  1.0000768E+03;  1.0000000E-01;  6.3701900E+01;0;  0.0000000E+00;  0.0000000E+00;  0.0000000E+00;0;  3.2204981E-03;  4.0000000E+04;  0.0000000E+00;  0.0000000E+00;  4.0000000E+04;  0.0000000E+00;  4.0000000E+04;  3.2404128E-03;  0.0000000E+00; -1.9914674E-05;  2.1022687E+02;
 -1.1000000E-01;  9.9999998E-03;  1.8000001E-01;880;  0.0000000E+00;  0.0000000E+00;  0.0000000E+00;  1.0000607E+03;  1.0000000E-01;  5.0270184E+01;0;  0.0000000E+00;  0.0000000E+00;  0.0000000E+00;0;  3.2002586E-03;  4.0000000E+04;  0.0000000E+00;  0.0000000E+00;  4.0000000E+04;  0.0000000E+00;  4.0000000E+04;  3.2259014E-03;  0.0000000E+00; -2.5642879E-05;  2.1458363E+02;
 -1.1000000E-01;  9.9999998E-03;  1.9000000E-01;881;  0.0000000E+00;  0.0000000E+00;  0.0000000E+00;  1.0000530E+03;  1.0000000E-01;  4.3850613E+01;0;  0.0000000E+00;  0.0000000E+00;  0.0000000E+00;0;  3.1633077E-03;  4.0000000E+04;  0.0000000E+00;  0.0000000E+00;  4.0000000E+04;  0.0000000E+00;  4.0000000E+04;  3.1951154E-03;  0.0000000E+00; -3.1807787E-05;  2.1813512E+02;
 -1.1000000E-01;  9.9999998E-03;  2.0000000E-01;882;  0.0000000E+00;  0.0000000E+00;  0.0000000E+00;  1.0000357E+03;  1.0000000E-01;  2.9628792E+01;0;  0.0000000E+00;  0.0000000E+00;  0.0000000E+00;0;  3.1037766E-03;  4.0000000E+04;  0.0000000E+00;  0.0000000E+00;  4.0000000E+04;  0.0000000E+00;  4.0000000E+04;  3.1409299E-03;  0.0000000E+00; -3.7153142E-05;  2.1905629E+02;
 -1.1000000E-01;  9.9999998E-03;  2.0999999E-01;883;  0.0000000E+00;  0.0000000E+00;  0.0000000E+00;  1.0000283E+03;  1.0000000E-01;  2.3406746E+01;0;  0.0000000E+00;  0.0000000E+00;  0.0000000E+00;0;  3.0157869E-03;  4.0000000E+04;  0.0000000E+00;  0.0000000E+00;  4.0000000E+04;  0.0000000E+00;  4.0000000E+04;  3.0560023E-03;  0.0000000E+00; -4.0215418E-05;  2.1503665E+02;
 -1.1000000E-01;  9.9999998E-03;  2.2000000E-01;884;  0.0000000E+00;  0.0000000E+00;  0.0000000E+00;  1.0000179E+03;  1.0000000E-01;  1.4814396E+01;0;  0.0000000E+00;  0.0000000E+00;  0.0000000E+00;0;  2.8944199E-03;  4.0000000E+04;  0.0000000E+00;  0.0000000E+00;  4.0000000E+04;  0.0000000E+00;  4.0000000E+04;  2.9340964E-03;  0.0000000E+00; -3.9676353E-05;  2.0372101E+02;
 -1.1000000E-01;  9.9999998E-03;  2.3000000E-01;885;  0.0000000E+00;  0.0000000E+00;  0.0000000E+00;  1.0000149E+03;  1.0000000E-01;  1.2345330E+01;0;  0.0000000E+00;  0.0000000E+00;  0.0000000E+00;0;  2.7366909E-03;  4.0000000E+04;  0.0000000E+00;  0.0000000E+00;  4.0000000E+04;  0.0000000E+00;  4.0000000E+04;  2.7713994E-03;  0.0000000E+00; -3.4708632E-05;  1.8335294E+02;
 -1.0000000E-01;  9.9999998E-03;  7.0000000E-02;960;  0.0000000E+00;  0.0000000E+00;  0.0000000E+00;  1.0002117E+03;  1.0000000E-01;  1.7540245E+02;0;  0.0000000E+00;  0.0000000E+00;  0.0000000E+00;0;  5.0730910E-03;  4.0000000E+04;  0.0000000E+00;  0.0000000E+00;  4.0000000E+04;  0.0000000E+00;  4.0000000E+04;  5.0881896E-03;  0.0000000E+00; -1.5098744E-05;  3.4482874E+02;
 -1.0000000E-01;  9.9999998E-03;  7.9999998E-02;961;  0.0000000E+00;  0.0000000E+00;  0.0000000E+00;  1.0002209E+03;  1.0000000E-01;  1.8300717E+02;0;  0.0000000E+00;  0.0000000E+00;  0.0000000E+00;0;  5.1142732E-03;  4.0000000E+04;  0.0000000E+00;  0.0000000E+00;  4.0000000E+04;  0.0000000E+00;  4.0000000E+04;  5.1331283E-03;  0.0000000E+00; -1.8854995E-05;  3.3970847E+02;
 -1.0000000E-01;  9.9999998E-03;  9.0000004E-02;962;  0.0000000E+00;  0.0000000E+00;  0.0000000E+00;  1.0002330E+03;  1.0000000E-01;  1.9298219E+02;0;  0.0000000E+00;  0.0000000E+00;  0.0000000E+00;0;  5.1531103E-03;  4.0000000E+04;  0.0000000E+00;  0.0000000E+00;  4.0000000E+04;  0.0000000E+00;  4.0000000E+04;  5.1743323E-03;  0.0000000E+00; -2.1221818E-05;  3.3466190E+02;
 -1.0000000E-01;  9.9999998E-03;  1.0000000E-01;963;  0.0000000E+00;  0.0000000E+00;  0.0000000E+00;  1.0002438E+03;  1.0000000E-01;  2.0196959E+02;0;  0.0000000E+00;  0.0000000E+00;  0.0000000E+00;0;  5.1882393E-03;  4.0000000E+04;  0.0000000E+00;  0.0000000E+00;  4.0000000E+04;  0.0000000E+00;  4.0000000E+04;  5.2105598E-03;  0.0000000E+00; -2.2320373E-05;  3.3012421E+02;
 -1.0000000E-01;  9.9999998E-03;  1.1000000E-01;964;  0.0000000E+00;  0.0000000E+00;  0.0000000E+00;  1.0002491E+03;  1.0000000E-01;  2.0641391E+02;0;  0.0000000E+00;  0.0000000E+00;  0.0000000E+00;0;  5.2187508E-03;  4.0000000E+04;  0.0000000E+00;  0.0000000E+00;  4.0000000E+04;  0.0000000E+00;  4.0000000E+04;  5.2412832E-03;  0.0000000E+00; -2.2532506E-05;  3.2653458E+02;
 -1.0000000E-01;  9.9999998E-03;  1.2000000E-01;965;  0.0000000E+00;  0.0000000E+00;  0.0000000E+00;  1.0002504E+03;  1.0000000E-01;  2.0740154E+02;0;  0.0000000E+00;  0.0000000E+00;  0.0000000E+00;0;  5.2440311E-03;  4.0000000E+04;  0.0000000E+00;  0.0000000E+00;  4.0000000E+04;  0.0000000E+00;  4.0000000E+04;  5.2664885E-03;  0.0000000E+00; -2.2457454E-05;  3.2430612E+02;
 -1.0000000E-01;  9.9999998E-03;  1.3000000E-01;966;  0.0000000E+00;  0.0000000E+00;  0.0000000E+00;  1.0002529E+03;  1.0000000E-01;  2.0947556E+02;0;  0.0000000E+00;  0.0000000E+00;  0.0000000E+00;0;  5.2635684E-03;  4.0000000E+04;  0.0000000E+00;  0.0000000E+00;  4.0000000E+04;  0.0000000E+00;  4.0000000E+04;  5.2864105E-03;  0.0000000E+00; -2.2841856E-05;  3.2384406E+02;
 -1.0000000E-01;  9.9999998E-03;  1.4000000E-01;967;  0.0000000E+00;  0.0000000E+00;  0.0000000E+00;  1.0002512E+03;  1.0000000E-01;  2.0809288E+02;0;  0.0000000E+00;  0.0000000E+00;  0.0000000E+00;0;  5.2765324E-03;  4.0000000E+04;  0.0000000E+00;  0.0000000E+00;  4.0000000E+04;  0.0000000E+00;  4.0000000E+04;  5.3010206E-03;  0.0000000E+00; -2.4488165E-05;  3.2556021E+02;
 -1.0000000E-01;  9.9999998E-03;  1.5000001E-01;968;  0.0000000E+00;  0.0000000E+00;  0.0000000E+00;  1.0002458E+03;  1.0000000E-01;  2.0364856E+02;0;  0.0000000E+00;  0.0000000E+00;  0.0000000E+00;0;  5.2813222E-03;  4.0000000E+04;  0.0000000E+00;  0.0000000E+00;  4.0000000E+04;  0.0000000E+00;  4.0000000E+04;  5.3094630E-03;  0.0000000E+00; -2.8140923E-05;  3.2984943E+02;
 -1.0000000E-01;  9.9999998E-03;  1.6000000E-01;969;  0.0000000E+00;  0.0000000E+00;  0.0000000E+00;  1.0002252E+03;  1.0000000E-01;  1.8656262E+02;0;  0.0000000E+00;  0.0000000E+00;  0.0000000E+00;0;  5.2751047E-03;  4.0000000E+04;  0.0000000E+00;  0.0000000E+00;  4.0000000E+04;  0.0000000E+00;  4.0000000E+04;  5.3094262E-03;  0.0000000E+00; -3.4321583E-05;  3.3691171E+02;
 -1.0000000E-01;  9.9999998E-03;  1.7000000E-01;970;  0.0000000E+00;  0.0000000E+00;  0.0000000E+00;  1.0002115E+03;  1.0000000E-01;  1.7520493E+02;0;  0.0000000E+00;  0.0000000E+00;  0.0000000E+00;0;  5.2535092E-03;  4.0000000E+04;  0.0000000E+00;  0.0000000E+00;  4.0000000E+04;  0.0000000E+00;  4.0000000E+04;  5.2965204E-03;  0.0000000E+00; -4.3011485E-05;  3.4639212E+02;
 -1.0000000E-01;  9.9999998E-03;  1.8000001E-01;971;  0.0000000E+00;  0.0000000E+00;  0.0000000E+00;  1.0001923E+03;  1.0000000E-01;  1.5930414E+02;0;  0.0000000E+00;  0.0000000E+00;  0.0000000E+00;0;  5.2104187E-03;  4.0000000E+04;  0.0000000E+00;  0.0000000E+00;  4.0000000E+04;  0.0000000E+00;  4.0000000E+04;  5.2638329E-03;  0.0000000E+00; -5.3414238E-05;  3.5696213E+02;
 -1.0000000E-01;  9.9999998E-03;  1.9000000E-01;972;  0.0000000E+00;  0.0000000E+00;  0.0000000E+00;  1.0001614E+03;  1.0000000E-01;  1.3372461E+02;0;  0.0000000E+00;  0.0000000E+00;  0.0000000E+00;0;  5.1382761E-03;  4.0000000E+04;  0.0000000E+00;  0.0000000E+00;  4.0000000E+04;  0.0000000E+00;  4.0000000E+04;  5.2021598E-03;  0.0000000E+00; -6.3883774E-05;  3.6617264E+02;
 -1.0000000E-01;  9.9999998E-03;  2.0000000E-01;973;  0.0000000E+00;  0.0000000E+00;  0.0000000E+00;  1.0001364E+03;  1.0000000E-01;  1.1298446E+02;0;  0.0000000E+00;  0.0000000E+00;  0.0000000E+00;0;  5.0288355E-03;  4.0000000E+04;  0.0000000E+00;  0.0000000E+00;  4.0000000E+04;  0.0000000E+00;  4.0000000E+04;  5.1009967E-03;  0.0000000E+00; -7.2161150E-05;  3.7046631E+02;
 -1.0000000E-01;  9.9999998E-03;  2.0999999E-01;974;  0.0000000E+00;  0.0000000E+00;  0.0000000E+00;  1.0001183E+03;  1.0000000E-01;  9.8071297E+01;0;  0.0000000E+00;  0.0000000E+00;  0.0000000E+00;0;  4.8742965E-03;  4.0000000E+04;  0.0000000E+00;  0.0000000E+00;  4.0000000E+04;  0.0000000E+00;  4.0000000E+04;  4.9501299E-03;  0.0000000E+00; -7.5833355E-05;  3.6559097E+02;
 -1.0000000E-01;  9.9999998E-03;  2.2000000E-01;975;  0.0000000E+00;  0.0000000E+00;  0.0000000E+00;  1.0001000E+03;  1.0000000E-01;  8.2861855E+01;0;  0.0000000E+00;  0.0000000E+00;  0.0000000E+00;0;  4.6685152E-03;  4.0000000E+04;  0.0000000E+00;  0.0000000E+00;  4.0000000E+04;  0.0000000E+00;  4.0000000E+04;  4.7414023E-03;  0.0000000E+00; -7.2886956E-05;  3.4752338E+02;
 -1.0000000E-01;  9.9999998E-03;  2.3000000E-01;976;  0.0000000E+00;  0.0000000E+00;  0.0000000E+00;  1.0000948E+03;  1.0000000E-01;  7.8516296E+01;0;  0.0000000E+00;  0.0000000E+00;  0.0000000E+00;0;  4.4082506E-03;  4.0000000E+04;  0.0000000E+00;  0.0000000E+00;  4.0000000E+04;  0.0000000E+00;  4.0000000E+04;  4.4704606E-03;  0.0000000E+00; -6.2209954E-05;  3.1348840E+02;
 -9.0000004E-02;  9.9999998E-03;  7.0000000E-02;1051;  0.0000000E+00;  0.0000000E+00;  0.0000000E+00;  1.0005007E+03;  1.0000000E-01;  4.1480307E+02;0;  0.0000000E+00;  0.0000000E+00;  0.0000000E+00;0;  7.5939000E-03;  4.0000000E+04;  0.0000000E+00;  0.0000000E+00;  4.0000000E+04;  0.0000000E+00;  4.0000000E+04;  7.6213139E-03;  0.0000000E+00; -2.7413802E-05;  5.2146857E+02;
 -9.0000004E-02;  9.9999998E-03;  7.9999998E-02;1052;  0.0000000E+00;  0.0000000E+00;  0.0000000E+00;  1.0005131E+03;  1.0000000E-01;  4.2507440E+02;0;  0.0000000E+00;  0.0000000E+00;  0.0000000E+00;0;  7.6572490E-03;  4.0000000E+04;  0.0000000E+00;  0.0000000E+00;  4.0000000E+04;  0.0000000E+00;  4.0000000E+04;  7.6912716E-03;  0.0000000E+00; -3.4022640E-05;  5.1240076E+02;
 -9.0000004E-02;  9.9999998E-03;  9.0000004E-02;1053;  0.0000000E+00;  0.0000000E+00;  0.0000000E+00;  1.0005264E+03;  1.0000000E-01;  4.3603705E+02;0;  0.0000000E+00;  0.0000000E+00;  0.0000000E+00;0;  7.7173566E-03;  4.0000000E+04;  0.0000000E+00;  0.0000000E+00;  4.0000000E+04;  0.0000000E+00;  4.0000000E+04;  7.7557908E-03;  0.0000000E+00; -3.8434075E-05;  5.0336697E+02;
 -9.0000004E-02;  9.9999998E-03;  1.0000000E-01;1054;  0.0000000E+00;  0.0000000E+00;  0.0000000E+00;  1.0005372E+03;  1.0000000E-01;  4.4502444E+02;0;  0.0000000E+00;  0.0000000E+00;  0.0000000E+00;0;  7.7720643E-03;  4.0000000E+04;  0.0000000E+00;  0.0000000E+00;  4.0000000E+04;  0.0000000E+00;  4.0000000E+04;  7.8129238E-03;  0.0000000E+00; -4.0859639E-05;  4.9508408E+02;
 -9.0000004E-02;  9.9999998E-03;  1.1000000E-01;1055;  0.0000000E+00;  0.0000000E+00;  0.0000000E+00;  1.0005454E+03;  1.0000000E-01;  4.5183908E+02;0;  0.0000000E+00;  0.0000000E+00;  0.0000000E+00;0;  7.8197699E-03;  4.0000000E+04;  0.0000000E+00;  0.0000000E+00;  4.0000000E+04;  0.0000000E+00;  4.0000000E+04;  7.8617111E-03;  0.0000000E+00; -4.1940715E-05;  4.8833130E+02;
 -9.0000004E-02;  9.9999998E-03;  1.2000000E-01;1056;  0.0000000E+00;  0.0000000E+00;  0.0000000E+00;  1.0005530E+03;  1.0000000E-01;  4.5815988E+02;0;  0.0000000E+00;  0.0000000E+00;  0.0000000E+00;0;  7.8592105E-03;  4.0000000E+04;  0.0000000E+00;  0.0000000E+00;  4.0000000E+04;  0.0000000E+00;  4.0000000E+04;  7.9018865E-03;  0.0000000E+00; -4.2675947E-05;  4.8396082E+02;
 -9.0000004E-02;  9.9999998E-03;  1.3000000E-01;1057;  0.0000000E+00;  0.0000000E+00;  0.0000000E+00;  1.0005541E+03;  1.0000000E-01;  4.5904874E+02;0;  0.0000000E+00;  0.0000000E+00;  0.0000000E+00;0;  7.8891274E-03;  4.0000000E+04;  0.0000000E+00;  0.0000000E+00;  4.0000000E+04;  0.0000000E+00;  4.0000000E+04;  7.9334276E-03;  0.0000000E+00; -4.4300683E-05;  4.8289743E+02;
 -9.0000004E-02;  9.9999998E-03;  1.4000000E-01;1058;  0.0000000E+00;  0.0000000E+00;  0.0000000E+00;  1.0005438E+03;  1.0000000E-01;  4.5055515E+02;0;  0.0000000E+00;  0.0000000E+00;  0.0000000E+00;0;  7.9077110E-03;  4.0000000E+04;  0.0000000E+00;  0.0000000E+00;  4.0000000E+04;  0.0000000E+00;  4.0000000E+04;  7.9558352E-03;  0.0000000E+00; -4.8124595E-05;  4.8612381E+02;
 -9.0000004E-02;  9.9999998E-03;  1.5000001E-01;1059;  0.0000000E+00;  0.0000000E+00;  0.0000000E+00;  1.0005284E+03;  1.0000000E-01;  4.3771600E+02;0;  0.0000000E+00;  0.0000000E+00;  0.0000000E+00;0;  7.9120118E-03;  4.0000000E+04;  0.0000000E+00;  0.0000000E+00;  4.0000000E+04;  0.0000000E+00;  4.0000000E+04;  7.9673268E-03;  0.0000000E+00; -5.5314911E-05;  4.9452814E+02;
 -9.0000004E-02;  9.9999998E-03;  1.6000000E-01;1060;  0.0000000E+00;  0.0000000E+00;  0.0000000E+00;  1.0005032E+03;  1.0000000E-01;  4.1687711E+02;0;  0.0000000E+00;  0.0000000E+00;  0.0000000E+00;0;  7.8973845E-03;  4.0000000E+04;  0.0000000E+00;  0.0000000E+00;  4.0000000E+04;  0.0000000E+00;  4.0000000E+04;  7.9638883E-03;  0.0000000E+00; -6.6503824E-05;  5.0844980E+02;
 -9.0000004E-02;  9.9999998E-03;  1.7000000E-01;1061;  0.0000000E+00;  0.0000000E+00;  0.0000000E+00;  1.0004748E+03;  1.0000000E-01;  3.9337158E+02;0;  0.0000000E+00;  0.0000000E+00;  0.0000000E+00;0;  7.8571467E-03;  4.0000000E+04;  0.0000000E+00;  0.0000000E+00;  4.0000000E+04;  0.0000000E+00;  4.0000000E+04;  7.9384744E-03;  0.0000000E+00; -8.1327773E-05;  5.2705597E+02;
 -9.0000004E-02;  9.9999998E-03;  1.8000001E-01;1062;  0.0000000E+00;  0.0000000E+00;  0.0000000E+00;  1.0004416E+03;  1.0000000E-01;  3.6581680E+02;0;  0.0000000E+00;  0.0000000E+00;  0.0000000E+00;0;  7.7825082E-03;  4.0000000E+04;  0.0000000E+00;  0.0000000E+00;  4.0000000E+04;  0.0000000E+00;  4.0000000E+04;  7.8806421E-03;  0.0000000E+00; -9.8133809E-05;  5.4785583E+02;
 -9.0000004E-02;  9.9999998E-03;  1.9000000E-01;1063;  0.0000000E+00;  0.0000000E+00;  0.0000000E+00;  1.0004056E+03;  1.0000000E-01;  3.3608926E+02;0;  0.0000000E+00;  0.0000000E+00;  0.0000000E+00;0;  7.6631899E-03;  4.0000000E+04;  0.0000000E+00;  0.0000000E+00;  4.0000000E+04;  0.0000000E+00;  4.0000000E+04;  7.7772452E-03;  0.0000000E+00; -1.1405522E-04;  5.6643896E+02;
 -9.0000004E-02;  9.9999998E-03;  2.0000000E-01;1064;  0.0000000E+00;  0.0000000E+00;  0.0000000E+00;  1.0003609E+03;  1.0000000E-01;  2.9895450E+02;0;  0.0000000E+00;  0.0000000E+00;  0.0000000E+00;0;  7.4884156E-03;  4.0000000E+04;  0.0000000E+00;  0.0000000E+00;  4.0000000E+04;  0.0000000E+00;  4.0000000E+04;  7.6139071E-03;  0.0000000E+00; -1.2549157E-04;  5.7665503E+02;
 -9.0000004E-02;  9.9999998E-03;  2.0999999E-01;1065;  0.0000000E+00;  0.0000000E+00;  0.0000000E+00;  1.0003224E+03;  1.0000000E-01;  2.6705417E+02;0;  0.0000000E+00;  0.0000000E+00;  0.0000000E+00;0;  7.2483532E-03;  4.0000000E+04;  0.0000000E+00;  0.0000000E+00;  4.0000000E+04;  0.0000000E+00;  4.0000000E+04;  7.3771928E-03;  0.0000000E+00; -1.2883965E-04;  5.7160248E+02;
 -9.0000004E-02;  9.9999998E-03;  2.2000000E-01;1066;  0.0000000E+00;  0.0000000E+00;  0.0000000E+00;  1.0002947E+03;  1.0000000E-01;  2.4414125E+02;0;  0.0000000E+00;  0.0000000E+00;  0.0000000E+00;0;  6.9355546E-03;  4.0000000E+04;  0.0000000E+00;  0.0000000E+00;  4.0000000E+04;  0.0000000E+00;  4.0000000E+04;  7.0568291E-03;  0.0000000E+00; -1.2127440E-04;  5.4508911E+02;
 -9.0000004E-02;  9.9999998E-03;  2.3000000E-01;1067;  0.0000000E+00;  0.0000000E+00;  0.0000000E+00;  1.0002675E+03;  1.0000000E-01;  2.2162337E+02;0;  0.0000000E+00;  0.0000000E+00;  0.0000000E+00;0;  6.5465071E-03;  4.0000000E+04;  0.0000000E+00;  0.0000000E+00;  4.0000000E+04;  0.0000000E+00;  4.0000000E+04;  6.6479174E-03;  0.0000000E+00; -1.0141035E-04;  4.9302554E+02;
 -7.9999998E-02;  9.9999998E-03;  7.0000000E-02;1142;  0.0000000E+00;  0.0000000E+00;  0.0000000E+00;  1.0009853E+03;  1.0000000E-01;  8.1627319E+02;0;  0.0000000E+00;  0.0000000E+00;  0.0000000E+00;0;  1.0620342E-02;  4.0000000E+04;  0.0000000E+00;  0.0000000E+00;  4.0000000E+04;  0.0000000E+00;  4.0000000E+04;  1.0666737E-02;  0.0000000E+00; -4.6395962E-05;  7.3895013E+02;
 -7.9999998E-02;  9.9999998E-03;  7.9999998E-02;1143;  0.0000000E+00;  0.0000000E+00;  0.0000000E+00;  1.0010013E+03;  1.0000000E-01;  8.2950739E+02;0;  0.0000000E+00;  0.0000000E+00;  0.0000000E+00;0;  1.0712003E-02;  4.0000000E+04;  0.0000000E+00;  0.0000000E+00;  4.0000000E+04;  0.0000000E+00;  4.0000000E+04;  1.0769016E-02;  0.0000000E+00; -5.7013000E-05;  7.2432715E+02;
 -7.9999998E-02;  9.9999998E-03;  9.0000004E-02;1144;  0.0000000E+00;  0.0000000E+00;  0.0000000E+00;  1.0010181E+03;  1.0000000E-01;  8.4353168E+02;0;  0.0000000E+00;  0.0000000E+00;  0.0000000E+00;0;  1.0799424E-02;  4.0000000E+04;  0.0000000E+00;  0.0000000E+00;  4.0000000E+04;  0.0000000E+00;  4.0000000E+04;  1.0863833E-02;  0.0000000E+00; -6.4409796E-05;  7.0974255E+02;
 -7.9999998E-02;  9.9999998E-03;  1.0000000E-01;1145;  0.0000000E+00;  0.0000000E+00;  0.0000000E+00;  1.0010343E+03;  1.0000000E-01;  8.5686469E+02;0;  0.0000000E+00;  0.0000000E+00;  0.0000000E+00;0;  1.0879388E-02;  4.0000000E+04;  0.0000000E+00;  0.0000000E+00;  4.0000000E+04;  0.0000000E+00;  4.0000000E+04;  1.0948318E-02;  0.0000000E+00; -6.8929839E-05;  6.9629523E+02;
 -7.9999998E-02;  9.9999998E-03;  1.1000000E-01;1146;  0.0000000E+00;  0.0000000E+00;  0.0000000E+00;  1.0010485E+03;  1.0000000E-01;  8.6861743E+02;0;  0.0000000E+00;  0.0000000E+00;  0.0000000E+00;0;  1.0949395E-02;  4.0000000E+04;  0.0000000E+00;  0.0000000E+00;  4.0000000E+04;  0.0000000E+00;  4.0000000E+04;  1.1020963E-02;  0.0000000E+00; -7.1568495E-05;  6.8526685E+02;
 -7.9999998E-02;  9.9999998E-03;  1.2000000E-01;1147;  0.0000000E+00;  0.0000000E+00;  0.0000000E+00;  1.0010565E+03;  1.0000000E-01;  8.7523450E+02;0;  0.0000000E+00;  0.0000000E+00;  0.0000000E+00;0;  1.1007262E-02;  4.0000000E+04;  0.0000000E+00;  0.0000000E+00;  4.0000000E+04;  0.0000000E+00;  4.0000000E+04;  1.1081122E-02;  0.0000000E+00; -7.3859868E-05;  6.7813464E+02;
 -7.9999998E-02;  9.9999998E-03;  1.3000000E-01;1148;  0.0000000E+00;  0.0000000E+00;  0.0000000E+00;  1.0010540E+03;  1.0000000E-01;  8.7316046E+02;0;  0.0000000E+00;  0.0000000E+00;  0.0000000E+00;0;  1.1050752E-02;  4.0000000E+04;  0.0000000E+00;  0.0000000E+00;  4.0000000E+04;  0.0000000E+00;  4.0000000E+04;  1.1128438E-02;  0.0000000E+00; -7.7684927E-05;  6.7659546E+02;
 -7.9999998E-02;  9.9999998E-03;  1.4000000E-01;1149;  0.0000000E+00;  0.0000000E+00;  0.0000000E+00;  1.0010381E+03;  1.0000000E-01;  8.6012384E+02;0;  0.0000000E+00;  0.0000000E+00;  0.0000000E+00;0;  1.1076775E-02;  4.0000000E+04;  0.0000000E+00;  0.0000000E+00;  4.0000000E+04;  0.0000000E+00;  4.0000000E+04;  1.1161781E-02;  0.0000000E+00; -8.5005100E-05;  6.8246124E+02;
 -7.9999998E-02;  9.9999998E-03;  1.5000001E-01;1150;  0.0000000E+00;  0.0000000E+00;  0.0000000E+00;  1.0010168E+03;  1.0000000E-01;  8.4234656E+02;0;  0.0000000E+00;  0.0000000E+00;  0.0000000E+00;0;  1.1080729E-02;  4.0000000E+04;  0.0000000E+00;  0.0000000E+00;  4.0000000E+04;  0.0000000E+00;  4.0000000E+04;  1.1178180E-02;  0.0000000E+00; -9.7450902E-05;  6.9727716E+02;
 -7.9999998E-02;  9.9999998E-03;  1.6000000E-01;1151;  0.0000000E+00;  0.0000000E+00;  0.0000000E+00;  1.0009772E+03;  1.0000000E-01;  8.0955737E+02;0;  0.0000000E+00;  0.0000000E+00;  0.0000000E+00;0;  1.1055798E-02;  4.0000000E+04;  0.0000000E+00;  0.0000000E+00;  4.0000000E+04;  0.0000000E+00;  4.0000000E+04;  1.1171440E-02;  0.0000000E+00; -1.1564106E-04;  7.2147797E+02;
 -7.9999998E-02;  9.9999998E-03;  1.7000000E-01;1152;  0.0000000E+00;  0.0000000E+00;  0.0000000E+00;  1.0009283E+03;  1.0000000E-01;  7.6916345E+02;0;  0.0000000E+00;  0.0000000E+00;  0.0000000E+00;0;  1.0992724E-02;  4.0000000E+04;  0.0000000E+00;  0.0000000E+00;  4.0000000E+04;  0.0000000E+00;  4.0000000E+04;  1.1131310E-02;  0.0000000E+00; -1.3858505E-04;  7.5353668E+02;
 -7.9999998E-02;  9.9999998E-03;  1.8000001E-01;1153;  0.0000000E+00;  0.0000000E+00;  0.0000000E+00;  1.0008714E+03;  1.0000000E-01;  7.2195490E+02;0;  0.0000000E+00;  0.0000000E+00;  0.0000000E+00;0;  1.0879884E-02;  4.0000000E+04;  0.0000000E+00;  0.0000000E+00;  4.0000000E+04;  0.0000000E+00;  4.0000000E+04;  1.1043278E-02;  0.0000000E+00; -1.6339314E-04;  7.8928271E+02;
 -7.9999998E-02;  9.9999998E-03;  1.9000000E-01;1154;  0.0000000E+00;  0.0000000E+00;  0.0000000E+00;  1.0008085E+03;  1.0000000E-01;  6.6980823E+02;0;  0.0000000E+00;  0.0000000E+00;  0.0000000E+00;0;  1.0704072E-02;  4.0000000E+04;  0.0000000E+00;  0.0000000E+00;  4.0000000E+04;  0.0000000E+00;  4.0000000E+04;  1.0889677E-02;  0.0000000E+00; -1.8560480E-04;  8.2148962E+02;
 -7.9999998E-02;  9.9999998E-03;  2.0000000E-01;1155;  0.0000000E+00;  0.0000000E+00;  0.0000000E+00;  1.0007421E+03;  1.0000000E-01;  6.1479742E+02;0;  0.0000000E+00;  0.0000000E+00;  0.0000000E+00;0;  1.0451765E-02;  4.0000000E+04;  0.0000000E+00;  0.0000000E+00;  4.0000000E+04;  0.0000000E+00;  4.0000000E+04;  1.0651750E-02;  0.0000000E+00; -1.9998536E-04;  8.4065033E+02;
 -7.9999998E-02;  9.9999998E-03;  2.0999999E-01;1156;  0.0000000E+00;  0.0000000E+00;  0.0000000E+00;  1.0006805E+03;  1.0000000E-01;  5.6383588E+02;0;  0.0000000E+00;  0.0000000E+00;  0.0000000E+00;0;  1.0110842E-02;  4.0000000E+04;  0.0000000E+00;  0.0000000E+00;  4.0000000E+04;  0.0000000E+00;  4.0000000E+04;  1.0312385E-02;  0.0000000E+00; -2.0154289E-04;  8.3661969E+02;
 -7.9999998E-02;  9.9999998E-03;  2.2000000E-01;1157;  0.0000000E+00;  0.0000000E+00;  0.0000000E+00;  1.0006226E+03;  1.0000000E-01;  5.1583728E+02;0;  0.0000000E+00;  0.0000000E+00;  0.0000000E+00;0;  9.6723642E-03;  4.0000000E+04;  0.0000000E+00;  0.0000000E+00;  4.0000000E+04;  0.0000000E+00;  4.0000000E+04;  9.8588979E-03;  0.0000000E+00; -1.8653327E-04;  8.0049255E+02;
 -7.9999998E-02;  9.9999998E-03;  2.3000000E-01;1158;  0.0000000E+00;  0.0000000E+00;  0.0000000E+00;  1.0005751E+03;  1.0000000E-01;  4.7652972E+02;0;  0.0000000E+00;  0.0000000E+00;  0.0000000E+00;0;  9.1323042E-03;  4.0000000E+04;  0.0000000E+00;  0.0000000E+00;  4.0000000E+04;  0.0000000E+00;  4.0000000E+04;  9.2855981E-03;  0.0000000E+00; -1.5329393E-04;  7.2646289E+02;
 -7.0000000E-02;  9.9999998E-03;  7.0000000E-02;1233;  0.0000000E+00;  0.0000000E+00;  0.0000000E+00;  1.0017348E+03;  1.0000000E-01;  1.4372927E+03;0;  0.0000000E+00;  0.0000000E+00;  0.0000000E+00;0;  1.4040541E-02;  4.0000000E+04;  0.0000000E+00;  0.0000000E+00;  4.0000000E+04;  0.0000000E+00;  4.0000000E+04;  1.4114744E-02;  0.0000000E+00; -7.4203039E-05;  9.9085284E+02;
 -7.0000000E-02;  9.9999998E-03;  7.9999998E-02;1234;  0.0000000E+00;  0.0000000E+00;  0.0000000E+00;  1.0017611E+03;  1.0000000E-01;  1.4590205E+03;0;  0.0000000E+00;  0.0000000E+00;  0.0000000E+00;0;  1.4166893E-02;  4.0000000E+04;  0.0000000E+00;  0.0000000E+00;  4.0000000E+04;  0.0000000E+00;  4.0000000E+04;  1.4256892E-02;  0.0000000E+00; -8.9999441E-05;  9.6907947E+02;
 -7.0000000E-02;  9.9999998E-03;  9.0000004E-02;1235;  0.0000000E+00;  0.0000000E+00;  0.0000000E+00;  1.0017875E+03;  1.0000000E-01;  1.4809458E+03;0;  0.0000000E+00;  0.0000000E+00;  0.0000000E+00;0;  1.4287895E-02;  4.0000000E+04;  0.0000000E+00;  0.0000000E+00;  4.0000000E+04;  0.0000000E+00;  4.0000000E+04;  1.4389222E-02;  0.0000000E+00; -1.0132760E-04;  9.4746942E+02;
 -7.0000000E-02;  9.9999998E-03;  1.0000000E-01;1236;  0.0000000E+00;  0.0000000E+00;  0.0000000E+00;  1.0018082E+03;  1.0000000E-01;  1.4980317E+03;0;  0.0000000E+00;  0.0000000E+00;  0.0000000E+00;0;  1.4399097E-02;  4.0000000E+04;  0.0000000E+00;  0.0000000E+00;  4.0000000E+04;  0.0000000E+00;  4.0000000E+04;  1.4507812E-02;  0.0000000E+00; -1.0871379E-04;  9.2762488E+02;
 -7.0000000E-02;  9.9999998E-03;  1.1000000E-01;1237;  0.0000000E+00;  0.0000000E+00;  0.0000000E+00;  1.0018241E+03;  1.0000000E-01;  1.5112659E+03;0;  0.0000000E+00;  0.0000000E+00;  0.0000000E+00;0;  1.4496846E-02;  4.0000000E+04;  0.0000000E+00;  0.0000000E+00;  4.0000000E+04;  0.0000000E+00;  4.0000000E+04;  1.4610457E-02;  0.0000000E+00; -1.1361068E-04;  9.1146985E+02;
 -7.0000000E-02;  9.9999998E-03;  1.2000000E-01;1238;  0.0000000E+00;  0.0000000E+00;  0.0000000E+00;  1.0018262E+03;  1.0000000E-01;  1.5129448E+03;0;  0.0000000E+00;  0.0000000E+00;  0.0000000E+00;0;  1.4577908E-02;  4.0000000E+04;  0.0000000E+00;  0.0000000E+00;  4.0000000E+04;  0.0000000E+00;  4.0000000E+04;  1.4696136E-02;  0.0000000E+00; -1.1822846E-04;  9.0130310E+02;
 -7.0000000E-02;  9.9999998E-03;  1.3000000E-01;1239;  0.0000000E+00;  0.0000000E+00;  0.0000000E+00;  1.0018218E+03;  1.0000000E-01;  1.5092906E+03;0;  0.0000000E+00;  0.0000000E+00;  0.0000000E+00;0;  1.4638808E-02;  4.0000000E+04;  0.0000000E+00;  0.0000000E+00;  4.0000000E+04;  0.0000000E+00;  4.0000000E+04;  1.4764059E-02;  0.0000000E+00; -1.2525180E-04;  8.9982996E+02;
 -7.0000000E-02;  9.9999998E-03;  1.4000000E-01;1240;  0.0000000E+00;  0.0000000E+00;  0.0000000E+00;  1.0017946E+03;  1.0000000E-01;  1.4867727E+03;0;  0.0000000E+00;  0.0000000E+00;  0.0000000E+00;0;  1.4675053E-02;  4.0000000E+04;  0.0000000E+00;  0.0000000E+00;  4.0000000E+04;  0.0000000E+00;  4.0000000E+04;  1.4812479E-02;  0.0000000E+00; -1.3742599E-04;  9.0992157E+02;
 -7.0000000E-02;  9.9999998E-03;  1.5000001E-01;1241;  0.0000000E+00;  0.0000000E+00;  0.0000000E+00;  1.0017524E+03;  1.0000000E-01;  1.4518108E+03;0;  0.0000000E+00;  0.0000000E+00;  0.0000000E+00;0;  1.4680192E-02;  4.0000000E+04;  0.0000000E+00;  0.0000000E+00;  4.0000000E+04;  0.0000000E+00;  4.0000000E+04;  1.4837011E-02;  0.0000000E+00; -1.5681909E-04;  9.3387067E+02;
 -7.0000000E-02;  9.9999998E-03;  1.6000000E-01;1242;  0.0000000E+00;  0.0000000E+00;  0.0000000E+00;  1.0017002E+03;  1.0000000E-01;  1.4085527E+03;0;  0.0000000E+00;  0.0000000E+00;  0.0000000E+00;0;  1.4645156E-02;  4.0000000E+04;  0.0000000E+00;  0.0000000E+00;  4.0000000E+04;  0.0000000E+00;  4.0000000E+04;  1.4829047E-02;  0.0000000E+00; -1.8389028E-04;  9.7215735E+02;
 -7.0000000E-02;  9.9999998E-03;  1.7000000E-01;1243;  0.0000000E+00;  0.0000000E+00;  0.0000000E+00;  1.0016227E+03;  1.0000000E-01;  1.3443571E+03;0;  0.0000000E+00;  0.0000000E+00;  0.0000000E+00;0;  1.4558001E-02;  4.0000000E+04;  0.0000000E+00;  0.0000000E+00;  4.0000000E+04;  0.0000000E+00;  4.0000000E+04;  1.4774685E-02;  0.0000000E+00; -2.1668362E-04;  1.0223532E+03;
 -7.0000000E-02;  9.9999998E-03;  1.8000001E-01;1244;  0.0000000E+00;  0.0000000E+00;  0.0000000E+00;  1.0015367E+03;  1.0000000E-01;  1.2731492E+03;0;  0.0000000E+00;  0.0000000E+00;  0.0000000E+00;0;  1.4404144E-02;  4.0000000E+04;  0.0000000E+00;  0.0000000E+00;  4.0000000E+04;  0.0000000E+00;  4.0000000E+04;  1.4654865E-02;  0.0000000E+00; -2.5072059E-04;  1.0779313E+03;
 -7.0000000E-02;  9.9999998E-03;  1.9000000E-01;1245;  0.0000000E+00;  0.0000000E+00;  0.0000000E+00;  1.0014412E+03;  1.0000000E-01;  1.1940403E+03;0;  0.0000000E+00;  0.0000000E+00;  0.0000000E+00;0;  1.4167296E-02;  4.0000000E+04;  0.0000000E+00;  0.0000000E+00;  4.0000000E+04;  0.0000000E+00;  4.0000000E+04;  1.4446957E-02;  0.0000000E+00; -2.7966118E-04;  1.1282289E+03;
 -7.0000000E-02;  9.9999998E-03;  2.0000000E-01;1246;  0.0000000E+00;  0.0000000E+00;  0.0000000E+00;  1.0013412E+03;  1.0000000E-01;  1.1111785E+03;0;  0.0000000E+00;  0.0000000E+00;  0.0000000E+00;0;  1.3830920E-02;  4.0000000E+04;  0.0000000E+00;  0.0000000E+00;  4.0000000E+04;  0.0000000E+00;  4.0000000E+04;  1.4127336E-02;  0.0000000E+00; -2.9641698E-04;  1.1598917E+03;
 -7.0000000E-02;  9.9999998E-03;  2.0999999E-01;1247;  0.0000000E+00;  0.0000000E+00;  0.0000000E+00;  1.0012414E+03;  1.0000000E-01;  1.0285142E+03;0;  0.0000000E+00;  0.0000000E+00;  0.0000000E+00;0;  1.3380235E-02;  4.0000000E+04;  0.0000000E+00;  0.0000000E+00;  4.0000000E+04;  0.0000000E+00;  4.0000000E+04;  1.3674659E-02;  0.0000000E+00; -2.9442395E-04;  1.1589432E+03;
 -7.0000000E-02;  9.9999998E-03;  2.2000000E-01;1248;  0.0000000E+00;  0.0000000E+00;  0.0000000E+00;  1.0011467E+03;  1.0000000E-01;  9.4999780E+02;0;  0.0000000E+00;  0.0000000E+00;  0.0000000E+00;0;  1.2804304E-02;  4.0000000E+04;  0.0000000E+00;  0.0000000E+00;  4.0000000E+04;  0.0000000E+00;  4.0000000E+04;  1.3073179E-02;  0.0000000E+00; -2.6887466E-04;  1.1131978E+03;
 -7.0000000E-02;  9.9999998E-03;  2.3000000E-01;1249;  0.0000000E+00;  0.0000000E+00;  0.0000000E+00;  1.0010638E+03;  1.0000000E-01;  8.8135779E+02;0;  0.0000000E+00;  0.0000000E+00;  0.0000000E+00;0;  1.2098242E-02;  4.0000000E+04;  0.0000000E+00;  0.0000000E+00;  4.0000000E+04;  0.0000000E+00;  4.0000000E+04;  1.2316005E-02;  0.0000000E+00; -2.1776355E-04;  1.0145430E+03;
 -5.9999999E-02;  9.9999998E-03;  7.0000000E-02;1324;  0.0000000E+00;  0.0000000E+00;  0.0000000E+00;  1.0028258E+03;  1.0000000E-01;  2.3411685E+03;0;  0.0000000E+00;  0.0000000E+00;  0.0000000E+00;0;  1.7660374E-02;  4.0000000E+04;  0.0000000E+00;  0.0000000E+00;  4.0000000E+04;  0.0000000E+00;  4.0000000E+04;  1.7773485E-02;  0.0000000E+00; -1.1311060E-04;  1.2633622E+03;
 -5.9999999E-02;  9.9999998E-03;  7.9999998E-02;1325;  0.0000000E+00;  0.0000000E+00;  0.0000000E+00;  1.0028607E+03;  1.0000000E-01;  2.3700071E+03;0;  0.0000000E+00;  0.0000000E+00;  0.0000000E+00;0;  1.7827552E-02;  4.0000000E+04;  0.0000000E+00;  0.0000000E+00;  4.0000000E+04;  0.0000000E+00;  4.0000000E+04;  1.7962612E-02;  0.0000000E+00; -1.3506088E-04;  1.2331434E+03;
 -5.9999999E-02;  9.9999998E-03;  9.0000004E-02;1326;  0.0000000E+00;  0.0000000E+00;  0.0000000E+00;  1.0028896E+03;  1.0000000E-01;  2.3940063E+03;0;  0.0000000E+00;  0.0000000E+00;  0.0000000E+00;0;  1.7988212E-02;  4.0000000E+04;  0.0000000E+00;  0.0000000E+00;  4.0000000E+04;  0.0000000E+00;  4.0000000E+04;  1.8139249E-02;  0.0000000E+00; -1.5103638E-04;  1.2034473E+03;
 -5.9999999E-02;  9.9999998E-03;  1.0000000E-01;1327;  0.0000000E+00;  0.0000000E+00;  0.0000000E+00;  1.0029147E+03;  1.0000000E-01;  2.4147466E+03;0;  0.0000000E+00;  0.0000000E+00;  0.0000000E+00;0;  1.8136468E-02;  4.0000000E+04;  0.0000000E+00;  0.0000000E+00;  4.0000000E+04;  0.0000000E+00;  4.0000000E+04;  1.8298268E-02;  0.0000000E+00; -1.6180088E-04;  1.1764888E+03;
 -5.9999999E-02;  9.9999998E-03;  1.1000000E-01;1328;  0.0000000E+00;  0.0000000E+00;  0.0000000E+00;  1.0029301E+03;  1.0000000E-01;  2.4275857E+03;0;  0.0000000E+00;  0.0000000E+00;  0.0000000E+00;0;  1.8267360E-02;  4.0000000E+04;  0.0000000E+00;  0.0000000E+00;  4.0000000E+04;  0.0000000E+00;  4.0000000E+04;  1.8436726E-02;  0.0000000E+00; -1.6936753E-04;  1.1549332E+03;
 -5.9999999E-02;  9.9999998E-03;  1.2000000E-01;1329;  0.0000000E+00;  0.0000000E+00;  0.0000000E+00;  1.0029296E+03;  1.0000000E-01;  2.4270918E+03;0;  0.0000000E+00;  0.0000000E+00;  0.0000000E+00;0;  1.8376540E-02;  4.0000000E+04;  0.0000000E+00;  0.0000000E+00;  4.0000000E+04;  0.0000000E+00;  4.0000000E+04;  1.8553304E-02;  0.0000000E+00; -1.7676361E-04;  1.1420338E+03;
 -5.9999999E-02;  9.9999998E-03;  1.3000000E-01;1330;  0.0000000E+00;  0.0000000E+00;  0.0000000E+00;  1.0029135E+03;  1.0000000E-01;  2.4137588E+03;0;  0.0000000E+00;  0.0000000E+00;  0.0000000E+00;0;  1.8459288E-02;  4.0000000E+04;  0.0000000E+00;  0.0000000E+00;  4.0000000E+04;  0.0000000E+00;  4.0000000E+04;  1.8646928E-02;  0.0000000E+00; -1.8763830E-04;  1.1416736E+03;
 -5.9999999E-02;  9.9999998E-03;  1.4000000E-01;1331;  0.0000000E+00;  0.0000000E+00;  0.0000000E+00;  1.0028799E+03;  1.0000000E-01;  2.3860066E+03;0;  0.0000000E+00;  0.0000000E+00;  0.0000000E+00;0;  1.8509632E-02;  4.0000000E+04;  0.0000000E+00;  0.0000000E+00;  4.0000000E+04;  0.0000000E+00;  4.0000000E+04;  1.8715262E-02;  0.0000000E+00; -2.0563003E-04;  1.1579025E+03;
 -5.9999999E-02;  9.9999998E-03;  1.5000001E-01;1332;  0.0000000E+00;  0.0000000E+00;  0.0000000E+00;  1.0028183E+03;  1.0000000E-01;  2.3349463E+03;0;  0.0000000E+00;  0.0000000E+00;  0.0000000E+00;0;  1.8519366E-02;  4.0000000E+04;  0.0000000E+00;  0.0000000E+00;  4.0000000E+04;  0.0000000E+00;  4.0000000E+04;  1.8752607E-02;  0.0000000E+00; -2.3324035E-04;  1.1938193E+03;
 -5.9999999E-02;  9.9999998E-03;  1.6000000E-01;1333;  0.0000000E+00;  0.0000000E+00;  0.0000000E+00;  1.0027341E+03;  1.0000000E-01;  2.2652200E+03;0;  0.0000000E+00;  0.0000000E+00;  0.0000000E+00;0;  1.8477203E-02;  4.0000000E+04;  0.0000000E+00;  0.0000000E+00;  4.0000000E+04;  0.0000000E+00;  4.0000000E+04;  1.8747762E-02;  0.0000000E+00; -2.7055902E-04;  1.2499718E+03;
 -5.9999999E-02;  9.9999998E-03;  1.7000000E-01;1334;  0.0000000E+00;  0.0000000E+00;  0.0000000E+00;  1.0026251E+03;  1.0000000E-01;  2.1748521E+03;0;  0.0000000E+00;  0.0000000E+00;  0.0000000E+00;0;  1.8368706E-02;  4.0000000E+04;  0.0000000E+00;  0.0000000E+00;  4.0000000E+04;  0.0000000E+00;  4.0000000E+04;  1.8683080E-02;  0.0000000E+00; -3.1437425E-04;  1.3226577E+03;
 -5.9999999E-02;  9.9999998E-03;  1.8000001E-01;1335;  0.0000000E+00;  0.0000000E+00;  0.0000000E+00;  1.0025003E+03;  1.0000000E-01;  2.0714475E+03;0;  0.0000000E+00;  0.0000000E+00;  0.0000000E+00;0;  1.8176369E-02;  4.0000000E+04;  0.0000000E+00;  0.0000000E+00;  4.0000000E+04;  0.0000000E+00;  4.0000000E+04;  1.8534761E-02;  0.0000000E+00; -3.5839231E-04;  1.4026393E+03;
 -5.9999999E-02;  9.9999998E-03;  1.9000000E-01;1336;  0.0000000E+00;  0.0000000E+00;  0.0000000E+00;  1.0023602E+03;  1.0000000E-01;  1.9554015E+03;0;  0.0000000E+00;  0.0000000E+00;  0.0000000E+00;0;  1.7880680E-02;  4.0000000E+04;  0.0000000E+00;  0.0000000E+00;  4.0000000E+04;  0.0000000E+00;  4.0000000E+04;  1.8274907E-02;  0.0000000E+00; -3.9422628E-04;  1.4755754E+03;
 -5.9999999E-02;  9.9999998E-03;  2.0000000E-01;1337;  0.0000000E+00;  0.0000000E+00;  0.0000000E+00;  1.0022139E+03;  1.0000000E-01;  1.8341210E+03;0;  0.0000000E+00;  0.0000000E+00;  0.0000000E+00;0;  1.7461749E-02;  4.0000000E+04;  0.0000000E+00;  0.0000000E+00;  4.0000000E+04;  0.0000000E+00;  4.0000000E+04;  1.7874504E-02;  0.0000000E+00; -4.1275524E-04;  1.5239680E+03;
 -5.9999999E-02;  9.9999998E-03;  2.0999999E-01;1338;  0.0000000E+00;  0.0000000E+00;  0.0000000E+00;  1.0020626E+03;  1.0000000E-01;  1.7088899E+03;0;  0.0000000E+00;  0.0000000E+00;  0.0000000E+00;0;  1.6901651E-02;  4.0000000E+04;  0.0000000E+00;  0.0000000E+00;  4.0000000E+04;  0.0000000E+00;  4.0000000E+04;  1.7307280E-02;  0.0000000E+00; -4.0562870E-04;  1.5295879E+03;
 -5.9999999E-02;  9.9999998E-03;  2.2000000E-01;1339;  0.0000000E+00;  0.0000000E+00;  0.0000000E+00;  1.0019182E+03;  1.0000000E-01;  1.5891896E+03;0;  0.0000000E+00;  0.0000000E+00;  0.0000000E+00;0;  1.6186900E-02;  4.0000000E+04;  0.0000000E+00;  0.0000000E+00;  4.0000000E+04;  0.0000000E+00;  4.0000000E+04;  1.6553650E-02;  0.0000000E+00; -3.6674918E-04;  1.4762048E+03;
 -5.9999999E-02;  9.9999998E-03;  2.3000000E-01;1340;  0.0000000E+00;  0.0000000E+00;  0.0000000E+00;  1.0017792E+03;  1.0000000E-01;  1.4740323E+03;0;  0.0000000E+00;  0.0000000E+00;  0.0000000E+00;0;  1.5311076E-02;  4.0000000E+04;  0.0000000E+00;  0.0000000E+00;  4.0000000E+04;  0.0000000E+00;  4.0000000E+04;  1.5604665E-02;  0.0000000E+00; -2.9358818E-04;  1.3525270E+03;
 -5.0000001E-02;  9.9999998E-03;  7.0000000E-02;1415;  0.0000000E+00;  0.0000000E+00;  0.0000000E+00;  1.0042873E+03;  1.0000000E-01;  3.5518997E+03;0;  0.0000000E+00;  0.0000000E+00;  0.0000000E+00;0;  2.1200553E-02;  4.0000000E+04;  0.0000000E+00;  0.0000000E+00;  4.0000000E+04;  0.0000000E+00;  4.0000000E+04;  2.1365752E-02;  0.0000000E+00; -1.6519919E-04;  1.5340229E+03;
 -5.0000001E-02;  9.9999998E-03;  7.9999998E-02;1416;  0.0000000E+00;  0.0000000E+00;  0.0000000E+00;  1.0043301E+03;  1.0000000E-01;  3.5873552E+03;0;  0.0000000E+00;  0.0000000E+00;  0.0000000E+00;0;  2.1413613E-02;  4.0000000E+04;  0.0000000E+00;  0.0000000E+00;  4.0000000E+04;  0.0000000E+00;  4.0000000E+04;  2.1607408E-02;  0.0000000E+00; -1.9379606E-04;  1.4946776E+03;
 -5.0000001E-02;  9.9999998E-03;  9.0000004E-02;1417;  0.0000000E+00;  0.0000000E+00;  0.0000000E+00;  1.0043709E+03;  1.0000000E-01;  3.6212310E+03;0;  0.0000000E+00;  0.0000000E+00;  0.0000000E+00;0;  2.1618934E-02;  4.0000000E+04;  0.0000000E+00;  0.0000000E+00;  4.0000000E+04;  0.0000000E+00;  4.0000000E+04;  2.1833504E-02;  0.0000000E+00; -2.1456933E-04;  1.4565931E+03;
 -5.0000001E-02;  9.9999998E-03;  1.0000000E-01;1418;  0.0000000E+00;  0.0000000E+00;  0.0000000E+00;  1.0044017E+03;  1.0000000E-01;  3.6467117E+03;0;  0.0000000E+00;  0.0000000E+00;  0.0000000E+00;0;  2.1809073E-02;  4.0000000E+04;  0.0000000E+00;  0.0000000E+00;  4.0000000E+04;  0.0000000E+00;  4.0000000E+04;  2.2037646E-02;  0.0000000E+00; -2.2857350E-04;  1.4226274E+03;
 -5.0000001E-02;  9.9999998E-03;  1.1000000E-01;1419;  0.0000000E+00;  0.0000000E+00;  0.0000000E+00;  1.0044214E+03;  1.0000000E-01;  3.6631062E+03;0;  0.0000000E+00;  0.0000000E+00;  0.0000000E+00;0;  2.1977797E-02;  4.0000000E+04;  0.0000000E+00;  0.0000000E+00;  4.0000000E+04;  0.0000000E+00;  4.0000000E+04;  2.2216283E-02;  0.0000000E+00; -2.3848636E-04;  1.3962164E+03;
 -5.0000001E-02;  9.9999998E-03;  1.2000000E-01;1420;  0.0000000E+00;  0.0000000E+00;  0.0000000E+00;  1.0044137E+03;  1.0000000E-01;  3.6566868E+03;0;  0.0000000E+00;  0.0000000E+00;  0.0000000E+00;0;  2.2119563E-02;  4.0000000E+04;  0.0000000E+00;  0.0000000E+00;  4.0000000E+04;  0.0000000E+00;  4.0000000E+04;  2.2367872E-02;  0.0000000E+00; -2.4830867E-04;  1.3815972E+03;
 -5.0000001E-02;  9.9999998E-03;  1.3000000E-01;1421;  0.0000000E+00;  0.0000000E+00;  0.0000000E+00;  1.0043880E+03;  1.0000000E-01;  3.6353540E+03;0;  0.0000000E+00;  0.0000000E+00;  0.0000000E+00;0;  2.2228522E-02;  4.0000000E+04;  0.0000000E+00;  0.0000000E+00;  4.0000000E+04;  0.0000000E+00;  4.0000000E+04;  2.2491369E-02;  0.0000000E+00; -2.6284766E-04;  1.3838375E+03;
 -5.0000001E-02;  9.9999998E-03;  1.4000000E-01;1422;  0.0000000E+00;  0.0000000E+00;  0.0000000E+00;  1.0043328E+03;  1.0000000E-01;  3.5896270E+03;0;  0.0000000E+00;  0.0000000E+00;  0.0000000E+00;0;  2.2297461E-02;  4.0000000E+04;  0.0000000E+00;  0.0000000E+00;  4.0000000E+04;  0.0000000E+00;  4.0000000E+04;  2.2584220E-02;  0.0000000E+00; -2.8676045E-04;  1.4081697E+03;
 -5.0000001E-02;  9.9999998E-03;  1.5000001E-01;1423;  0.0000000E+00;  0.0000000E+00;  0.0000000E+00;  1.0042494E+03;  1.0000000E-01;  3.5204929E+03;0;  0.0000000E+00;  0.0000000E+00;  0.0000000E+00;0;  2.2316592E-02;  4.0000000E+04;  0.0000000E+00;  0.0000000E+00;  4.0000000E+04;  0.0000000E+00;  4.0000000E+04;  2.2639588E-02;  0.0000000E+00; -3.2299533E-04;  1.4585260E+03;
 -5.0000001E-02;  9.9999998E-03;  1.6000000E-01;1424;  0.0000000E+00;  0.0000000E+00;  0.0000000E+00;  1.0041317E+03;  1.0000000E-01;  3.4230144E+03;0;  0.0000000E+00;  0.0000000E+00;  0.0000000E+00;0;  2.2272952E-02;  4.0000000E+04;  0.0000000E+00;  0.0000000E+00;  4.0000000E+04;  0.0000000E+00;  4.0000000E+04;  2.2644030E-02;  0.0000000E+00; -3.7107753E-04;  1.5355143E+03;
 -5.0000001E-02;  9.9999998E-03;  1.7000000E-01;1425;  0.0000000E+00;  0.0000000E+00;  0.0000000E+00;  1.0039813E+03;  1.0000000E-01;  3.2983757E+03;0;  0.0000000E+00;  0.0000000E+00;  0.0000000E+00;0;  2.2149974E-02;  4.0000000E+04;  0.0000000E+00;  0.0000000E+00;  4.0000000E+04;  0.0000000E+00;  4.0000000E+04;  2.2576381E-02;  0.0000000E+00; -4.2640558E-04;  1.6340591E+03;
 -5.0000001E-02;  9.9999998E-03;  1.8000001E-01;1426;  0.0000000E+00;  0.0000000E+00;  0.0000000E+00;  1.0038048E+03;  1.0000000E-01;  3.1522070E+03;0;  0.0000000E+00;  0.0000000E+00;  0.0000000E+00;0;  2.1927530E-02;  4.0000000E+04;  0.0000000E+00;  0.0000000E+00;  4.0000000E+04;  0.0000000E+00;  4.0000000E+04;  2.2408335E-02;  0.0000000E+00; -4.8080512E-04;  1.7422660E+03;
 -5.0000001E-02;  9.9999998E-03;  1.9000000E-01;1427;  0.0000000E+00;  0.0000000E+00;  0.0000000E+00;  1.0036103E+03;  1.0000000E-01;  2.9910266E+03;0;  0.0000000E+00;  0.0000000E+00;  0.0000000E+00;0;  2.1582916E-02;  4.0000000E+04;  0.0000000E+00;  0.0000000E+00;  4.0000000E+04;  0.0000000E+00;  4.0000000E+04;  2.2106661E-02;  0.0000000E+00; -5.2374438E-04;  1.8423811E+03;
 -5.0000001E-02;  9.9999998E-03;  2.0000000E-01;1428;  0.0000000E+00;  0.0000000E+00;  0.0000000E+00;  1.0033997E+03;  1.0000000E-01;  2.8165129E+03;0;  0.0000000E+00;  0.0000000E+00;  0.0000000E+00;0;  2.1092657E-02;  4.0000000E+04;  0.0000000E+00;  0.0000000E+00;  4.0000000E+04;  0.0000000E+00;  4.0000000E+04;  2.1636546E-02;  0.0000000E+00; -5.4388784E-04;  1.9127698E+03;
 -5.0000001E-02;  9.9999998E-03;  2.0999999E-01;1429;  0.0000000E+00;  0.0000000E+00;  0.0000000E+00;  1.0031813E+03;  1.0000000E-01;  2.6356785E+03;0;  0.0000000E+00;  0.0000000E+00;  0.0000000E+00;0;  2.0435186E-02;  4.0000000E+04;  0.0000000E+00;  0.0000000E+00;  4.0000000E+04;  0.0000000E+00;  4.0000000E+04;  2.0966010E-02;  0.0000000E+00; -5.3082360E-04;  1.9304812E+03;
 -5.0000001E-02;  9.9999998E-03;  2.2000000E-01;1430;  0.0000000E+00;  0.0000000E+00;  0.0000000E+00;  1.0029693E+03;  1.0000000E-01;  2.4599797E+03;0;  0.0000000E+00;  0.0000000E+00;  0.0000000E+00;0;  1.9593827E-02;  4.0000000E+04;  0.0000000E+00;  0.0000000E+00;  4.0000000E+04;  0.0000000E+00;  4.0000000E+04;  2.0070659E-02;  0.0000000E+00; -4.7683201E-04;  1.8743986E+03;
 -5.0000001E-02;  9.9999998E-03;  2.3000000E-01;1431;  0.0000000E+00;  0.0000000E+00;  0.0000000E+00;  1.0027598E+03;  1.0000000E-01;  2.2864539E+03;0;  0.0000000E+00;  0.0000000E+00;  0.0000000E+00;0;  1.8559821E-02;  4.0000000E+04;  0.0000000E+00;  0.0000000E+00;  4.0000000E+04;  0.0000000E+00;  4.0000000E+04;  1.8938348E-02;  0.0000000E+00; -3.7852742E-04;  1.7287701E+03;
 -3.9999999E-02;  9.9999998E-03;  7.0000000E-02;1506;  0.0000000E+00;  0.0000000E+00;  0.0000000E+00;  1.0061341E+03;  1.0000000E-01;  5.0820293E+03;0;  0.0000000E+00;  0.0000000E+00;  0.0000000E+00;0;  2.4313312E-02;  4.0000000E+04;  0.0000000E+00;  0.0000000E+00;  4.0000000E+04;  0.0000000E+00;  4.0000000E+04;  2.4545094E-02;  0.0000000E+00; -2.3178128E-04;  1.7724064E+03;
 -3.9999999E-02;  9.9999998E-03;  7.9999998E-02;1507;  0.0000000E+00;  0.0000000E+00;  0.0000000E+00;  1.0061865E+03;  1.0000000E-01;  5.1253857E+03;0;  0.0000000E+00;  0.0000000E+00;  0.0000000E+00;0;  2.4574960E-02;  4.0000000E+04;  0.0000000E+00;  0.0000000E+00;  4.0000000E+04;  0.0000000E+00;  4.0000000E+04;  2.4841720E-02;  0.0000000E+00; -2.6676012E-04;  1.7240941E+03;
 -3.9999999E-02;  9.9999998E-03;  9.0000004E-02;1508;  0.0000000E+00;  0.0000000E+00;  0.0000000E+00;  1.0062365E+03;  1.0000000E-01;  5.1667676E+03;0;  0.0000000E+00;  0.0000000E+00;  0.0000000E+00;0;  2.4827767E-02;  4.0000000E+04;  0.0000000E+00;  0.0000000E+00;  4.0000000E+04;  0.0000000E+00;  4.0000000E+04;  2.5119329E-02;  0.0000000E+00; -2.9156148E-04;  1.6782622E+03;
 -3.9999999E-02;  9.9999998E-03;  1.0000000E-01;1509;  0.0000000E+00;  0.0000000E+00;  0.0000000E+00;  1.0062791E+03;  1.0000000E-01;  5.2021245E+03;0;  0.0000000E+00;  0.0000000E+00;  0.0000000E+00;0;  2.5062650E-02;  4.0000000E+04;  0.0000000E+00;  0.0000000E+00;  4.0000000E+04;  0.0000000E+00;  4.0000000E+04;  2.5370253E-02;  0.0000000E+00; -3.0760228E-04;  1.6384196E+03;
 -3.9999999E-02;  9.9999998E-03;  1.1000000E-01;1510;  0.0000000E+00;  0.0000000E+00;  0.0000000E+00;  1.0063027E+03;  1.0000000E-01;  5.2216797E+03;0;  0.0000000E+00;  0.0000000E+00;  0.0000000E+00;0;  2.5272129E-02;  4.0000000E+04;  0.0000000E+00;  0.0000000E+00;  4.0000000E+04;  0.0000000E+00;  4.0000000E+04;  2.5590492E-02;  0.0000000E+00; -3.1836261E-04;  1.6086615E+03;
 -3.9999999E-02;  9.9999998E-03;  1.2000000E-01;1511;  0.0000000E+00;  0.0000000E+00;  0.0000000E+00;  1.0062949E+03;  1.0000000E-01;  5.2152598E+03;0;  0.0000000E+00;  0.0000000E+00;  0.0000000E+00;0;  2.5449559E-02;  4.0000000E+04;  0.0000000E+00;  0.0000000E+00;  4.0000000E+04;  0.0000000E+00;  4.0000000E+04;  2.5778582E-02;  0.0000000E+00; -3.2902314E-04;  1.5940078E+03;
 -3.9999999E-02;  9.9999998E-03;  1.3000000E-01;1512;  0.0000000E+00;  0.0000000E+00;  0.0000000E+00;  1.0062565E+03;  1.0000000E-01;  5.1834585E+03;0;  0.0000000E+00;  0.0000000E+00;  0.0000000E+00;0;  2.5588239E-02;  4.0000000E+04;  0.0000000E+00;  0.0000000E+00;  4.0000000E+04;  0.0000000E+00;  4.0000000E+04;  2.5934029E-02;  0.0000000E+00; -3.4579018E-04;  1.6005361E+03;
 -3.9999999E-02;  9.9999998E-03;  1.4000000E-01;1513;  0.0000000E+00;  0.0000000E+00;  0.0000000E+00;  1.0061772E+03;  1.0000000E-01;  5.1176826E+03;0;  0.0000000E+00;  0.0000000E+00;  0.0000000E+00;0;  2.5679905E-02;  4.0000000E+04;  0.0000000E+00;  0.0000000E+00;  4.0000000E+04;  0.0000000E+00;  4.0000000E+04;  2.6054421E-02;  0.0000000E+00; -3.7451705E-04;  1.6345333E+03;
 -3.9999999E-02;  9.9999998E-03;  1.5000001E-01;1514;  0.0000000E+00;  0.0000000E+00;  0.0000000E+00;  1.0060600E+03;  1.0000000E-01;  5.0205986E+03;0;  0.0000000E+00;  0.0000000E+00;  0.0000000E+00;0;  2.5713867E-02;  4.0000000E+04;  0.0000000E+00;  0.0000000E+00;  4.0000000E+04;  0.0000000E+00;  4.0000000E+04;  2.6132461E-02;  0.0000000E+00; -4.1859358E-04;  1.7007509E+03;
 -3.9999999E-02;  9.9999998E-03;  1.6000000E-01;1515;  0.0000000E+00;  0.0000000E+00;  0.0000000E+00;  1.0059014E+03;  1.0000000E-01;  4.8891455E+03;0;  0.0000000E+00;  0.0000000E+00;  0.0000000E+00;0;  2.5676263E-02;  4.0000000E+04;  0.0000000E+00;  0.0000000E+00;  4.0000000E+04;  0.0000000E+00;  4.0000000E+04;  2.6153192E-02;  0.0000000E+00; -4.7692834E-04;  1.7999849E+03;
 -3.9999999E-02;  9.9999998E-03;  1.7000000E-01;1516;  0.0000000E+00;  0.0000000E+00;  0.0000000E+00;  1.0057054E+03;  1.0000000E-01;  4.7268784E+03;0;  0.0000000E+00;  0.0000000E+00;  0.0000000E+00;0;  2.5549036E-02;  4.0000000E+04;  0.0000000E+00;  0.0000000E+00;  4.0000000E+04;  0.0000000E+00;  4.0000000E+04;  2.6092626E-02;  0.0000000E+00; -5.4358999E-04;  1.9260726E+03;
 -3.9999999E-02;  9.9999998E-03;  1.8000001E-01;1517;  0.0000000E+00;  0.0000000E+00;  0.0000000E+00;  1.0054706E+03;  1.0000000E-01;  4.5323164E+03;0;  0.0000000E+00;  0.0000000E+00;  0.0000000E+00;0;  2.5309991E-02;  4.0000000E+04;  0.0000000E+00;  0.0000000E+00;  4.0000000E+04;  0.0000000E+00;  4.0000000E+04;  2.5918569E-02;  0.0000000E+00; -6.0857821E-04;  2.0652507E+03;
 -3.9999999E-02;  9.9999998E-03;  1.9000000E-01;1518;  0.0000000E+00;  0.0000000E+00;  0.0000000E+00;  1.0052030E+03;  1.0000000E-01;  4.3105942E+03;0;  0.0000000E+00;  0.0000000E+00;  0.0000000E+00;0;  2.4933616E-02;  4.0000000E+04;  0.0000000E+00;  0.0000000E+00;  4.0000000E+04;  0.0000000E+00;  4.0000000E+04;  2.5592789E-02;  0.0000000E+00; -6.5917359E-04;  2.1970339E+03;
 -3.9999999E-02;  9.9999998E-03;  2.0000000E-01;1519;  0.0000000E+00;  0.0000000E+00;  0.0000000E+00;  1.0049178E+03;  1.0000000E-01;  4.0743540E+03;0;  0.0000000E+00;  0.0000000E+00;  0.0000000E+00;0;  2.4392914E-02;  4.0000000E+04;  0.0000000E+00;  0.0000000E+00;  4.0000000E+04;  0.0000000E+00;  4.0000000E+04;  2.5074562E-02;  0.0000000E+00; -6.8164745E-04;  2.2959458E+03;
 -3.9999999E-02;  9.9999998E-03;  2.0999999E-01;1520;  0.0000000E+00;  0.0000000E+00;  0.0000000E+00;  1.0046218E+03;  1.0000000E-01;  3.8291262E+03;0;  0.0000000E+00;  0.0000000E+00;  0.0000000E+00;0;  2.3662381E-02;  4.0000000E+04;  0.0000000E+00;  0.0000000E+00;  4.0000000E+04;  0.0000000E+00;  4.0000000E+04;  2.4325583E-02;  0.0000000E+00; -6.6320185E-04;  2.3339944E+03;
 -3.9999999E-02;  9.9999998E-03;  2.2000000E-01;1521;  0.0000000E+00;  0.0000000E+00;  0.0000000E+00;  1.0043221E+03;  1.0000000E-01;  3.5808369E+03;0;  0.0000000E+00;  0.0000000E+00;  0.0000000E+00;0;  2.2721646E-02;  4.0000000E+04;  0.0000000E+00;  0.0000000E+00;  4.0000000E+04;  0.0000000E+00;  4.0000000E+04;  2.3315681E-02;  0.0000000E+00; -5.9403514E-04;  2.2840515E+03;
 -3.9999999E-02;  9.9999998E-03;  2.3000000E-01;1522;  0.0000000E+00;  0.0000000E+00;  0.0000000E+00;  1.0040239E+03;  1.0000000E-01;  3.3337329E+03;0;  0.0000000E+00;  0.0000000E+00;  0.0000000E+00;0;  2.1558849E-02;  4.0000000E+04;  0.0000000E+00;  0.0000000E+00;  4.0000000E+04;  0.0000000E+00;  4.0000000E+04;  2.2028256E-02;  0.0000000E+00; -4.6940707E-04;  2.1242234E+03;
 -2.9999999E-02;  9.9999998E-03;  7.0000000E-02;1597;  0.0000000E+00;  0.0000000E+00;  0.0000000E+00;  1.0083239E+03;  1.0000000E-01;  6.8962002E+03;0;  0.0000000E+00;  0.0000000E+00;  0.0000000E+00;0;  2.6621681E-02;  4.0000000E+04;  0.0000000E+00;  0.0000000E+00;  4.0000000E+04;  0.0000000E+00;  4.0000000E+04;  2.6934231E-02;  0.0000000E+00; -3.1254927E-04;  1.9431743E+03;
 -2.9999999E-02;  9.9999998E-03;  7.9999998E-02;1598;  0.0000000E+00;  0.0000000E+00;  0.0000000E+00;  1.0083939E+03;  1.0000000E-01;  6.9541738E+03;0;  0.0000000E+00;  0.0000000E+00;  0.0000000E+00;0;  2.6930701E-02;  4.0000000E+04;  0.0000000E+00;  0.0000000E+00;  4.0000000E+04;  0.0000000E+00;  4.0000000E+04;  2.7283423E-02;  0.0000000E+00; -3.5272079E-04;  1.8871669E+03;
 -2.9999999E-02;  9.9999998E-03;  9.0000004E-02;1599;  0.0000000E+00;  0.0000000E+00;  0.0000000E+00;  1.0084583E+03;  1.0000000E-01;  7.0075054E+03;0;  0.0000000E+00;  0.0000000E+00;  0.0000000E+00;0;  2.7230220E-02;  4.0000000E+04;  0.0000000E+00;  0.0000000E+00;  4.0000000E+04;  0.0000000E+00;  4.0000000E+04;  2.7609881E-02;  0.0000000E+00; -3.7966087E-04;  1.8354603E+03;
 -2.9999999E-02;  9.9999998E-03;  1.0000000E-01;1600;  0.0000000E+00;  0.0000000E+00;  0.0000000E+00;  1.0085081E+03;  1.0000000E-01;  7.0487881E+03;0;  0.0000000E+00;  0.0000000E+00;  0.0000000E+00;0;  2.7509581E-02;  4.0000000E+04;  0.0000000E+00;  0.0000000E+00;  4.0000000E+04;  0.0000000E+00;  4.0000000E+04;  2.7904833E-02;  0.0000000E+00; -3.9525164E-04;  1.7919979E+03;
 -2.9999999E-02;  9.9999998E-03;  1.1000000E-01;1601;  0.0000000E+00;  0.0000000E+00;  0.0000000E+00;  1.0085380E+03;  1.0000000E-01;  7.0735776E+03;0;  0.0000000E+00;  0.0000000E+00;  0.0000000E+00;0;  2.7759977E-02;  4.0000000E+04;  0.0000000E+00;  0.0000000E+00;  4.0000000E+04;  0.0000000E+00;  4.0000000E+04;  2.8163958E-02;  0.0000000E+00; -4.0398090E-04;  1.7612538E+03;
 -2.9999999E-02;  9.9999998E-03;  1.2000000E-01;1602;  0.0000000E+00;  0.0000000E+00;  0.0000000E+00;  1.0085351E+03;  1.0000000E-01;  7.0712075E+03;0;  0.0000000E+00;  0.0000000E+00;  0.0000000E+00;0;  2.7973866E-02;  4.0000000E+04;  0.0000000E+00;  0.0000000E+00;  4.0000000E+04;  0.0000000E+00;  4.0000000E+04;  2.8386347E-02;  0.0000000E+00; -4.1248181E-04;  1.7486434E+03;
 -2.9999999E-02;  9.9999998E-03;  1.3000000E-01;1603;  0.0000000E+00;  0.0000000E+00;  0.0000000E+00;  1.0084869E+03;  1.0000000E-01;  7.0313071E+03;0;  0.0000000E+00;  0.0000000E+00;  0.0000000E+00;0;  2.8143687E-02;  4.0000000E+04;  0.0000000E+00;  0.0000000E+00;  4.0000000E+04;  0.0000000E+00;  4.0000000E+04;  2.8572323E-02;  0.0000000E+00; -4.2863635E-04;  1.7608873E+03;
 -2.9999999E-02;  9.9999998E-03;  1.4000000E-01;1604;  0.0000000E+00;  0.0000000E+00;  0.0000000E+00;  1.0083898E+03;  1.0000000E-01;  6.9507168E+03;0;  0.0000000E+00;  0.0000000E+00;  0.0000000E+00;0;  2.8260855E-02;  4.0000000E+04;  0.0000000E+00;  0.0000000E+00;  4.0000000E+04;  0.0000000E+00;  4.0000000E+04;  2.8720543E-02;  0.0000000E+00; -4.5968842E-04;  1.8051035E+03;
 -2.9999999E-02;  9.9999998E-03;  1.5000001E-01;1605;  0.0000000E+00;  0.0000000E+00;  0.0000000E+00;  1.0082366E+03;  1.0000000E-01;  6.8238071E+03;0;  0.0000000E+00;  0.0000000E+00;  0.0000000E+00;0;  2.8314603E-02;  4.0000000E+04;  0.0000000E+00;  0.0000000E+00;  4.0000000E+04;  0.0000000E+00;  4.0000000E+04;  2.8824084E-02;  0.0000000E+00; -5.0947926E-04;  1.8869271E+03;
 -2.9999999E-02;  9.9999998E-03;  1.6000000E-01;1606;  0.0000000E+00;  0.0000000E+00;  0.0000000E+00;  1.0080283E+03;  1.0000000E-01;  6.6512686E+03;0;  0.0000000E+00;  0.0000000E+00;  0.0000000E+00;0;  2.8291052E-02;  4.0000000E+04;  0.0000000E+00;  0.0000000E+00;  4.0000000E+04;  0.0000000E+00;  4.0000000E+04;  2.8867496E-02;  0.0000000E+00; -5.7644374E-04;  2.0076188E+03;
 -2.9999999E-02;  9.9999998E-03;  1.7000000E-01;1607;  0.0000000E+00;  0.0000000E+00;  0.0000000E+00;  1.0077741E+03;  1.0000000E-01;  6.4407065E+03;0;  0.0000000E+00;  0.0000000E+00;  0.0000000E+00;0;  2.8171737E-02;  4.0000000E+04;  0.0000000E+00;  0.0000000E+00;  4.0000000E+04;  0.0000000E+00;  4.0000000E+04;  2.8825276E-02;  0.0000000E+00; -6.5353926E-04;  2.1608242E+03;
 -2.9999999E-02;  9.9999998E-03;  1.8000001E-01;1608;  0.0000000E+00;  0.0000000E+00;  0.0000000E+00;  1.0074686E+03;  1.0000000E-01;  6.1875781E+03;0;  0.0000000E+00;  0.0000000E+00;  0.0000000E+00;0;  2.7933110E-02;  4.0000000E+04;  0.0000000E+00;  0.0000000E+00;  4.0000000E+04;  0.0000000E+00;  4.0000000E+04;  2.8662222E-02;  0.0000000E+00; -7.2911126E-04;  2.3322097E+03;
 -2.9999999E-02;  9.9999998E-03;  1.9000000E-01;1609;  0.0000000E+00;  0.0000000E+00;  0.0000000E+00;  1.0071273E+03;  1.0000000E-01;  5.9048208E+03;0;  0.0000000E+00;  0.0000000E+00;  0.0000000E+00;0;  2.7547607E-02;  4.0000000E+04;  0.0000000E+00;  0.0000000E+00;  4.0000000E+04;  0.0000000E+00;  4.0000000E+04;  2.8335918E-02;  0.0000000E+00; -7.8831112E-04;  2.4997690E+03;
 -2.9999999E-02;  9.9999998E-03;  2.0000000E-01;1610;  0.0000000E+00;  0.0000000E+00;  0.0000000E+00;  1.0067527E+03;  1.0000000E-01;  5.5945083E+03;0;  0.0000000E+00;  0.0000000E+00;  0.0000000E+00;0;  2.6985114E-02;  4.0000000E+04;  0.0000000E+00;  0.0000000E+00;  4.0000000E+04;  0.0000000E+00;  4.0000000E+04;  2.7800007E-02;  0.0000000E+00; -8.1489264E-04;  2.6348340E+03;
 -2.9999999E-02;  9.9999998E-03;  2.0999999E-01;1611;  0.0000000E+00;  0.0000000E+00;  0.0000000E+00;  1.0063602E+03;  1.0000000E-01;  5.2692832E+03;0;  0.0000000E+00;  0.0000000E+00;  0.0000000E+00;0;  2.6216637E-02;  4.0000000E+04;  0.0000000E+00;  0.0000000E+00;  4.0000000E+04;  0.0000000E+00;  4.0000000E+04;  2.7009984E-02;  0.0000000E+00; -7.9334673E-04;  2.7042717E+03;
 -2.9999999E-02;  9.9999998E-03;  2.2000000E-01;1612;  0.0000000E+00;  0.0000000E+00;  0.0000000E+00;  1.0059590E+03;  1.0000000E-01;  4.9369468E+03;0;  0.0000000E+00;  0.0000000E+00;  0.0000000E+00;0;  2.5217852E-02;  4.0000000E+04;  0.0000000E+00;  0.0000000E+00;  4.0000000E+04;  0.0000000E+00;  4.0000000E+04;  2.5929127E-02;  0.0000000E+00; -7.1127538E-04;  2.6737891E+03;
 -2.9999999E-02;  9.9999998E-03;  2.3000000E-01;1613;  0.0000000E+00;  0.0000000E+00;  0.0000000E+00;  1.0055610E+03;  1.0000000E-01;  4.6071782E+03;0;  0.0000000E+00;  0.0000000E+00;  0.0000000E+00;0;  2.3973586E-02;  4.0000000E+04;  0.0000000E+00;  0.0000000E+00;  4.0000000E+04;  0.0000000E+00;  4.0000000E+04;  2.4535481E-02;  0.0000000E+00; -5.6189485E-04;  2.5132844E+03;
 -2.0000000E-02;  9.9999998E-03;  7.0000000E-02;1688;  0.0000000E+00;  0.0000000E+00;  0.0000000E+00;  1.0107665E+03;  1.0000000E-01;  8.9198467E+03;0;  0.0000000E+00;  0.0000000E+00;  0.0000000E+00;0;  2.7773231E-02;  4.0000000E+04;  0.0000000E+00;  0.0000000E+00;  4.0000000E+04;  0.0000000E+00;  4.0000000E+04;  2.8178072E-02;  0.0000000E+00; -4.0484115E-04;  2.0114277E+03;
 -2.0000000E-02;  9.9999998E-03;  7.9999998E-02;1689;  0.0000000E+00;  0.0000000E+00;  0.0000000E+00;  1.0108529E+03;  1.0000000E-01;  8.9914492E+03;0;  0.0000000E+00;  0.0000000E+00;  0.0000000E+00;0;  2.8123369E-02;  4.0000000E+04;  0.0000000E+00;  0.0000000E+00;  4.0000000E+04;  0.0000000E+00;  4.0000000E+04;  2.8571360E-02;  0.0000000E+00; -4.4798950E-04;  1.9503600E+03;
 -2.0000000E-02;  9.9999998E-03;  9.0000004E-02;1690;  0.0000000E+00;  0.0000000E+00;  0.0000000E+00;  1.0109365E+03;  1.0000000E-01;  9.0606816E+03;0;  0.0000000E+00;  0.0000000E+00;  0.0000000E+00;0;  2.8464250E-02;  4.0000000E+04;  0.0000000E+00;  0.0000000E+00;  4.0000000E+04;  0.0000000E+00;  4.0000000E+04;  2.8938305E-02;  0.0000000E+00; -4.7405396E-04;  1.8960455E+03;
 -2.0000000E-02;  9.9999998E-03;  1.0000000E-01;1691;  0.0000000E+00;  0.0000000E+00;  0.0000000E+00;  1.0110052E+03;  1.0000000E-01;  9.1175693E+03;0;  0.0000000E+00;  0.0000000E+00;  0.0000000E+00;0;  2.8783621E-02;  4.0000000E+04;  0.0000000E+00;  0.0000000E+00;  4.0000000E+04;  0.0000000E+00;  4.0000000E+04;  2.9269127E-02;  0.0000000E+00; -4.8550655E-04;  1.8525057E+03;
 -2.0000000E-02;  9.9999998E-03;  1.1000000E-01;1692;  0.0000000E+00;  0.0000000E+00;  0.0000000E+00;  1.0110489E+03;  1.0000000E-01;  9.1538154E+03;0;  0.0000000E+00;  0.0000000E+00;  0.0000000E+00;0;  2.9071469E-02;  4.0000000E+04;  0.0000000E+00;  0.0000000E+00;  4.0000000E+04;  0.0000000E+00;  4.0000000E+04;  2.9559545E-02;  0.0000000E+00; -4.8807723E-04;  1.8239407E+03;
 -2.0000000E-02;  9.9999998E-03;  1.2000000E-01;1693;  0.0000000E+00;  0.0000000E+00;  0.0000000E+00;  1.0110475E+03;  1.0000000E-01;  9.1527285E+03;0;  0.0000000E+00;  0.0000000E+00;  0.0000000E+00;0;  2.9319204E-02;  4.0000000E+04;  0.0000000E+00;  0.0000000E+00;  4.0000000E+04;  0.0000000E+00;  4.0000000E+04;  2.9809361E-02;  0.0000000E+00; -4.9015641E-04;  1.8156025E+03;
 -2.0000000E-02;  9.9999998E-03;  1.3000000E-01;1694;  0.0000000E+00;  0.0000000E+00;  0.0000000E+00;  1.0109959E+03;  1.0000000E-01;  9.1098662E+03;0;  0.0000000E+00;  0.0000000E+00;  0.0000000E+00;0;  2.9518967E-02;  4.0000000E+04;  0.0000000E+00;  0.0000000E+00;  4.0000000E+04;  0.0000000E+00;  4.0000000E+04;  3.0020548E-02;  0.0000000E+00; -5.0158019E-04;  1.8343134E+03;
 -2.0000000E-02;  9.9999998E-03;  1.4000000E-01;1695;  0.0000000E+00;  0.0000000E+00;  0.0000000E+00;  1.0108843E+03;  1.0000000E-01;  9.0174238E+03;0;  0.0000000E+00;  0.0000000E+00;  0.0000000E+00;0;  2.9662156E-02;  4.0000000E+04;  0.0000000E+00;  0.0000000E+00;  4.0000000E+04;  0.0000000E+00;  4.0000000E+04;  3.0193284E-02;  0.0000000E+00; -5.3112733E-04;  1.8877507E+03;
 -2.0000000E-02;  9.9999998E-03;  1.5000001E-01;1696;  0.0000000E+00;  0.0000000E+00;  0.0000000E+00;  1.0107007E+03;  1.0000000E-01;  8.8653291E+03;0;  0.0000000E+00;  0.0000000E+00;  0.0000000E+00;0;  2.9738940E-02;  4.0000000E+04;  0.0000000E+00;  0.0000000E+00;  4.0000000E+04;  0.0000000E+00;  4.0000000E+04;  3.0322125E-02;  0.0000000E+00; -5.8318564E-04;  1.9826570E+03;
 -2.0000000E-02;  9.9999998E-03;  1.6000000E-01;1697;  0.0000000E+00;  0.0000000E+00;  0.0000000E+00;  1.0104466E+03;  1.0000000E-01;  8.6547676E+03;0;  0.0000000E+00;  0.0000000E+00;  0.0000000E+00;0;  2.9736456E-02;  4.0000000E+04;  0.0000000E+00;  0.0000000E+00;  4.0000000E+04;  0.0000000E+00;  4.0000000E+04;  3.0392464E-02;  0.0000000E+00; -6.5600965E-04;  2.1213896E+03;
 -2.0000000E-02;  9.9999998E-03;  1.7000000E-01;1698;  0.0000000E+00;  0.0000000E+00;  0.0000000E+00;  1.0101237E+03;  1.0000000E-01;  8.3873184E+03;0;  0.0000000E+00;  0.0000000E+00;  0.0000000E+00;0;  2.9636959E-02;  4.0000000E+04;  0.0000000E+00;  0.0000000E+00;  4.0000000E+04;  0.0000000E+00;  4.0000000E+04;  3.0378750E-02;  0.0000000E+00; -7.4179104E-04;  2.2988425E+03;
 -2.0000000E-02;  9.9999998E-03;  1.8000001E-01;1699;  0.0000000E+00;  0.0000000E+00;  0.0000000E+00;  1.0097443E+03;  1.0000000E-01;  8.0729570E+03;0;  0.0000000E+00;  0.0000000E+00;  0.0000000E+00;0;  2.9416913E-02;  4.0000000E+04;  0.0000000E+00;  0.0000000E+00;  4.0000000E+04;  0.0000000E+00;  4.0000000E+04;  3.0244447E-02;  0.0000000E+00; -8.2753331E-04;  2.5017256E+03;
 -2.0000000E-02;  9.9999998E-03;  1.9000000E-01;1700;  0.0000000E+00;  0.0000000E+00;  0.0000000E+00;  1.0093192E+03;  1.0000000E-01;  7.7207695E+03;0;  0.0000000E+00;  0.0000000E+00;  0.0000000E+00;0;  2.9047508E-02;  4.0000000E+04;  0.0000000E+00;  0.0000000E+00;  4.0000000E+04;  0.0000000E+00;  4.0000000E+04;  2.9943971E-02;  0.0000000E+00; -8.9646329E-04;  2.7081208E+03;
 -2.0000000E-02;  9.9999998E-03;  2.0000000E-01;1701;  0.0000000E+00;  0.0000000E+00;  0.0000000E+00;  1.0088477E+03;  1.0000000E-01;  7.3301631E+03;0;  0.0000000E+00;  0.0000000E+00;  0.0000000E+00;0;  2.8496796E-02;  4.0000000E+04;  0.0000000E+00;  0.0000000E+00;  4.0000000E+04;  0.0000000E+00;  4.0000000E+04;  2.9426647E-02;  0.0000000E+00; -9.2985027E-04;  2.8873005E+03;
 -2.0000000E-02;  9.9999998E-03;  2.0999999E-01;1702;  0.0000000E+00;  0.0000000E+00;  0.0000000E+00;  1.0083555E+03;  1.0000000E-01;  6.9223721E+03;0;  0.0000000E+00;  0.0000000E+00;  0.0000000E+00;0;  2.7732875E-02;  4.0000000E+04;  0.0000000E+00;  0.0000000E+00;  4.0000000E+04;  0.0000000E+00;  4.0000000E+04;  2.8642114E-02;  0.0000000E+00; -9.0923865E-04;  3.0010764E+03;
 -2.0000000E-02;  9.9999998E-03;  2.2000000E-01;1703;  0.0000000E+00;  0.0000000E+00;  0.0000000E+00;  1.0078407E+03;  1.0000000E-01;  6.4959150E+03;0;  0.0000000E+00;  0.0000000E+00;  0.0000000E+00;0;  2.6728354E-02;  4.0000000E+04;  0.0000000E+00;  0.0000000E+00;  4.0000000E+04;  0.0000000E+00;  4.0000000E+04;  2.7547471E-02;  0.0000000E+00; -8.1911765E-04;  3.0072422E+03;
 -2.0000000E-02;  9.9999998E-03;  2.3000000E-01;1704;  0.0000000E+00;  0.0000000E+00;  0.0000000E+00;  1.0073264E+03;  1.0000000E-01;  6.0697544E+03;0;  0.0000000E+00;  0.0000000E+00;  0.0000000E+00;0;  2.5464907E-02;  4.0000000E+04;  0.0000000E+00;  0.0000000E+00;  4.0000000E+04;  0.0000000E+00;  4.0000000E+04;  2.6114803E-02;  0.0000000E+00; -6.4989552E-04;  2.8655298E+03;
 -9.9999998E-03;  9.9999998E-03;  7.0000000E-02;1779;  0.0000000E+00;  0.0000000E+00;  0.0000000E+00;  1.0133358E+03;  1.0000000E-01;  1.1048379E+04;0;  0.0000000E+00;  0.0000000E+00;  0.0000000E+00;0;  2.7484382E-02;  4.0000000E+04;  0.0000000E+00;  0.0000000E+00;  4.0000000E+04;  0.0000000E+00;  4.0000000E+04;  2.7987631E-02;  0.0000000E+00; -5.0324900E-04;  1.9483688E+03;
 -9.9999998E-03;  9.9999998E-03;  7.9999998E-02;1780;  0.0000000E+00;  0.0000000E+00;  0.0000000E+00;  1.0134451E+03;  1.0000000E-01;  1.1138944E+04;0;  0.0000000E+00;  0.0000000E+00;  0.0000000E+00;0;  2.7863607E-02;  4.0000000E+04;  0.0000000E+00;  0.0000000E+00;  4.0000000E+04;  0.0000000E+00;  4.0000000E+04;  2.8409703E-02;  0.0000000E+00; -5.4609613E-04;  1.8864476E+03;
 -9.9999998E-03;  9.9999998E-03;  9.0000004E-02;1781;  0.0000000E+00;  0.0000000E+00;  0.0000000E+00;  1.0135482E+03;  1.0000000E-01;  1.1224374E+04;0;  0.0000000E+00;  0.0000000E+00;  0.0000000E+00;0;  2.8234927E-02;  4.0000000E+04;  0.0000000E+00;  0.0000000E+00;  4.0000000E+04;  0.0000000E+00;  4.0000000E+04;  2.8802222E-02;  0.0000000E+00; -5.6729437E-04;  1.8344817E+03;
 -9.9999998E-03;  9.9999998E-03;  1.0000000E-01;1782;  0.0000000E+00;  0.0000000E+00;  0.0000000E+00;  1.0136379E+03;  1.0000000E-01;  1.1298742E+04;0;  0.0000000E+00;  0.0000000E+00;  0.0000000E+00;0;  2.8584864E-02;  4.0000000E+04;  0.0000000E+00;  0.0000000E+00;  4.0000000E+04;  0.0000000E+00;  4.0000000E+04;  2.9154910E-02;  0.0000000E+00; -5.7004520E-04;  1.7957478E+03;
 -9.9999998E-03;  9.9999998E-03;  1.1000000E-01;1783;  0.0000000E+00;  0.0000000E+00;  0.0000000E+00;  1.0136976E+03;  1.0000000E-01;  1.1348223E+04;0;  0.0000000E+00;  0.0000000E+00;  0.0000000E+00;0;  2.8902177E-02;  4.0000000E+04;  0.0000000E+00;  0.0000000E+00;  4.0000000E+04;  0.0000000E+00;  4.0000000E+04;  2.9463703E-02;  0.0000000E+00; -5.6152552E-04;  1.7734476E+03;
 -9.9999998E-03;  9.9999998E-03;  1.2000000E-01;1784;  0.0000000E+00;  0.0000000E+00;  0.0000000E+00;  1.0137123E+03;  1.0000000E-01;  1.1360370E+04;0;  0.0000000E+00;  0.0000000E+00;  0.0000000E+00;0;  2.9177455E-02;  4.0000000E+04;  0.0000000E+00;  0.0000000E+00;  4.0000000E+04;  0.0000000E+00;  4.0000000E+04;  2.9729573E-02;  0.0000000E+00; -5.5211870E-04;  1.7717690E+03;
 -9.9999998E-03;  9.9999998E-03;  1.3000000E-01;1785;  0.0000000E+00;  0.0000000E+00;  0.0000000E+00;  1.0136650E+03;  1.0000000E-01;  1.1321161E+04;0;  0.0000000E+00;  0.0000000E+00;  0.0000000E+00;0;  2.9402418E-02;  4.0000000E+04;  0.0000000E+00;  0.0000000E+00;  4.0000000E+04;  0.0000000E+00;  4.0000000E+04;  2.9956233E-02;  0.0000000E+00; -5.5381429E-04;  1.7969076E+03;
 -9.9999998E-03;  9.9999998E-03;  1.4000000E-01;1786;  0.0000000E+00;  0.0000000E+00;  0.0000000E+00;  1.0135401E+03;  1.0000000E-01;  1.1217757E+04;0;  0.0000000E+00;  0.0000000E+00;  0.0000000E+00;0;  2.9569292E-02;  4.0000000E+04;  0.0000000E+00;  0.0000000E+00;  4.0000000E+04;  0.0000000E+00;  4.0000000E+04;  3.0146291E-02;  0.0000000E+00; -5.7699974E-04;  1.8569332E+03;
 -9.9999998E-03;  9.9999998E-03;  1.5000001E-01;1787;  0.0000000E+00;  0.0000000E+00;  0.0000000E+00;  1.0133370E+03;  1.0000000E-01;  1.1049465E+04;0;  0.0000000E+00;  0.0000000E+00;  0.0000000E+00;0;  2.9669840E-02;  4.0000000E+04;  0.0000000E+00;  0.0000000E+00;  4.0000000E+04;  0.0000000E+00;  4.0000000E+04;  3.0296637E-02;  0.0000000E+00; -6.2679598E-04;  1.9600809E+03;
 -9.9999998E-03;  9.9999998E-03;  1.6000000E-01;1788;  0.0000000E+00;  0.0000000E+00;  0.0000000E+00;  1.0130433E+03;  1.0000000E-01;  1.0806114E+04;0;  0.0000000E+00;  0.0000000E+00;  0.0000000E+00;0;  2.9693272E-02;  4.0000000E+04;  0.0000000E+00;  0.0000000E+00;  4.0000000E+04;  0.0000000E+00;  4.0000000E+04;  3.0394906E-02;  0.0000000E+00; -7.0163369E-04;  2.1108237E+03;
 -9.9999998E-03;  9.9999998E-03;  1.7000000E-01;1789;  0.0000000E+00;  0.0000000E+00;  0.0000000E+00;  1.0126625E+03;  1.0000000E-01;  1.0490666E+04;0;  0.0000000E+00;  0.0000000E+00;  0.0000000E+00;0;  2.9623725E-02;  4.0000000E+04;  0.0000000E+00;  0.0000000E+00;  4.0000000E+04;  0.0000000E+00;  4.0000000E+04;  3.0417090E-02;  0.0000000E+00; -7.9336582E-04;  2.3070212E+03;
 -9.9999998E-03;  9.9999998E-03;  1.8000001E-01;1790;  0.0000000E+00;  0.0000000E+00;  0.0000000E+00;  1.0122089E+03;  1.0000000E-01;  1.0114775E+04;0;  0.0000000E+00;  0.0000000E+00;  0.0000000E+00;0;  2.9439019E-02;  4.0000000E+04;  0.0000000E+00;  0.0000000E+00;  4.0000000E+04;  0.0000000E+00;  4.0000000E+04;  3.0327151E-02;  0.0000000E+00; -8.8813197E-04;  2.5383762E+03;
 -9.9999998E-03;  9.9999998E-03;  1.9000000E-01;1791;  0.0000000E+00;  0.0000000E+00;  0.0000000E+00;  1.0116905E+03;  1.0000000E-01;  9.6853555E+03;0;  0.0000000E+00;  0.0000000E+00;  0.0000000E+00;0;  2.9110773E-02;  4.0000000E+04;  0.0000000E+00;  0.0000000E+00;  4.0000000E+04;  0.0000000E+00;  4.0000000E+04;  3.0078422E-02;  0.0000000E+00; -9.6765033E-04;  2.7846440E+03;
 -9.9999998E-03;  9.9999998E-03;  2.0000000E-01;1792;  0.0000000E+00;  0.0000000E+00;  0.0000000E+00;  1.0111244E+03;  1.0000000E-01;  9.2163320E+03;0;  0.0000000E+00;  0.0000000E+00;  0.0000000E+00;0;  2.8606497E-02;  4.0000000E+04;  0.0000000E+00;  0.0000000E+00;  4.0000000E+04;  0.0000000E+00;  4.0000000E+04;  2.9617433E-02;  0.0000000E+00; -1.0109354E-03;  3.0144167E+03;
 -9.9999998E-03;  9.9999998E-03;  2.0999999E-01;1793;  0.0000000E+00;  0.0000000E+00;  0.0000000E+00;  1.0105197E+03;  1.0000000E-01;  8.7153086E+03;0;  0.0000000E+00;  0.0000000E+00;  0.0000000E+00;0;  2.7893195E-02;  4.0000000E+04;  0.0000000E+00;  0.0000000E+00;  4.0000000E+04;  0.0000000E+00;  4.0000000E+04;  2.8889751E-02;  0.0000000E+00; -9.9655590E-04;  3.1852847E+03;
 -9.9999998E-03;  9.9999998E-03;  2.2000000E-01;1794;  0.0000000E+00;  0.0000000E+00;  0.0000000E+00;  1.0098909E+03;  1.0000000E-01;  8.1944346E+03;0;  0.0000000E+00;  0.0000000E+00;  0.0000000E+00;0;  2.6941827E-02;  4.0000000E+04;  0.0000000E+00;  0.0000000E+00;  4.0000000E+04;  0.0000000E+00;  4.0000000E+04;  2.7847333E-02;  0.0000000E+00; -9.0550713E-04;  3.2467673E+03;
 -9.9999998E-03;  9.9999998E-03;  2.3000000E-01;1795;  0.0000000E+00;  0.0000000E+00;  0.0000000E+00;  1.0092549E+03;  1.0000000E-01;  7.6675361E+03;0;  0.0000000E+00;  0.0000000E+00;  0.0000000E+00;0;  2.5732139E-02;  4.0000000E+04;  0.0000000E+00;  0.0000000E+00;  4.0000000E+04;  0.0000000E+00;  4.0000000E+04;  2.6456838E-02;  0.0000000E+00; -7.2469970E-04;  3.1473645E+03;
 -1.9000000E-01;  9.9999998E-03;  2.3999999E-01;158;  0.0000000E+00;  0.0000000E+00;  0.0000000E+00;  1.0000000E+03;  1.0000000E-01;  0.0000000E+00;0;  0.0000000E+00;  0.0000000E+00;  0.0000000E+00;0;  0.0000000E+00;  4.0000000E+04;  0.0000000E+00;  0.0000000E+00;  4.0000000E+04;  0.0000000E+00;  4.0000000E+04;  0.0000000E+00;  0.0000000E+00;  0.0000000E+00;  0.0000000E+00;
 -1.9000000E-01;  9.9999998E-03;  2.5000000E-01;159;  0.0000000E+00;  0.0000000E+00;  0.0000000E+00;  1.0000000E+03;  1.0000000E-01;  0.0000000E+00;0;  0.0000000E+00;  0.0000000E+00;  0.0000000E+00;0;  0.0000000E+00;  4.0000000E+04;  0.0000000E+00;  0.0000000E+00;  4.0000000E+04;  0.0000000E+00;  4.0000000E+04;  0.0000000E+00;  0.0000000E+00;  0.0000000E+00;  0.0000000E+00;
 -1.9000000E-01;  9.9999998E-03;  2.5999999E-01;160;  0.0000000E+00;  0.0000000E+00;  0.0000000E+00;  1.0000000E+03;  1.0000000E-01;  0.0000000E+00;0;  0.0000000E+00;  0.0000000E+00;  0.0000000E+00;0;  0.0000000E+00;  4.0000000E+04;  0.0000000E+00;  0.0000000E+00;  4.0000000E+04;  0.0000000E+00;  4.0000000E+04;  0.0000000E+00;  0.0000000E+00;  0.0000000E+00;  0.0000000E+00;
 -1.9000000E-01;  9.9999998E-03;  2.7000001E-01;161;  0.0000000E+00;  0.0000000E+00;  0.0000000E+00;  1.0000000E+03;  1.0000000E-01;  0.0000000E+00;0;  0.0000000E+00;  0.0000000E+00;  0.0000000E+00;0;  0.0000000E+00;  4.0000000E+04;  0.0000000E+00;  0.0000000E+00;  4.0000000E+04;  0.0000000E+00;  4.0000000E+04;  0.0000000E+00;  0.0000000E+00;  0.0000000E+00;  0.0000000E+00;
 -1.9000000E-01;  9.9999998E-03;  2.8000000E-01;162;  0.0000000E+00;  0.0000000E+00;  0.0000000E+00;  1.0000000E+03;  1.0000000E-01;  0.0000000E+00;0;  0.0000000E+00;  0.0000000E+00;  0.0000000E+00;0;  0.0000000E+00;  4.0000000E+04;  0.0000000E+00;  0.0000000E+00;  4.0000000E+04;  0.0000000E+00;  4.0000000E+04;  0.0000000E+00;  0.0000000E+00;  0.0000000E+00;  0.0000000E+00;
 -1.9000000E-01;  9.9999998E-03;  2.8999999E-01;163;  0.0000000E+00;  0.0000000E+00;  0.0000000E+00;  1.0000000E+03;  1.0000000E-01;  0.0000000E+00;0;  0.0000000E+00;  0.0000000E+00;  0.0000000E+00;0;  0.0000000E+00;  4.0000000E+04;  0.0000000E+00;  0.0000000E+00;  4.0000000E+04;  0.0000000E+00;  4.0000000E+04;  0.0000000E+00;  0.0000000E+00;  0.0000000E+00;  0.0000000E+00;
 -1.9000000E-01;  9.9999998E-03;  3.0000001E-01;164;  0.0000000E+00;  0.0000000E+00;  0.0000000E+00;  1.0000000E+03;  1.0000000E-01;  0.0000000E+00;0;  0.0000000E+00;  0.0000000E+00;  0.0000000E+00;0;  0.0000000E+00;  4.0000000E+04;  0.0000000E+00;  0.0000000E+00;  4.0000000E+04;  0.0000000E+00;  4.0000000E+04;  0.0000000E+00;  0.0000000E+00;  0.0000000E+00;  0.0000000E+00;
 -1.9000000E-01;  9.9999998E-03;  3.1000000E-01;165;  0.0000000E+00;  0.0000000E+00;  0.0000000E+00;  1.0000000E+03;  1.0000000E-01;  0.0000000E+00;0;  0.0000000E+00;  0.0000000E+00;  0.0000000E+00;0;  0.0000000E+00;  4.0000000E+04;  0.0000000E+00;  0.0000000E+00;  4.0000000E+04;  0.0000000E+00;  4.0000000E+04;  0.0000000E+00;  0.0000000E+00;  0.0000000E+00;  0.0000000E+00;
 -1.9000000E-01;  9.9999998E-03;  3.1999999E-01;166;  0.0000000E+00;  0.0000000E+00;  0.0000000E+00;  1.0000000E+03;  1.0000000E-01;  0.0000000E+00;0;  0.0000000E+00;  0.0000000E+00;  0.0000000E+00;0;  0.0000000E+00;  4.0000000E+04;  0.0000000E+00;  0.0000000E+00;  4.0000000E+04;  0.0000000E+00;  4.0000000E+04;  0.0000000E+00;  0.0000000E+00;  0.0000000E+00;  0.0000000E+00;
 -1.9000000E-01;  9.9999998E-03;  3.3000001E-01;167;  0.0000000E+00;  0.0000000E+00;  0.0000000E+00;  1.0000000E+03;  1.0000000E-01;  0.0000000E+00;0;  0.0000000E+00;  0.0000000E+00;  0.0000000E+00;0;  0.0000000E+00;  4.0000000E+04;  0.0000000E+00;  0.0000000E+00;  4.0000000E+04;  0.0000000E+00;  4.0000000E+04;  0.0000000E+00;  0.0000000E+00;  0.0000000E+00;  0.0000000E+00;
 -1.9000000E-01;  9.9999998E-03;  3.4000000E-01;168;  0.0000000E+00;  0.0000000E+00;  0.0000000E+00;  1.0000000E+03;  1.0000000E-01;  0.0000000E+00;0;  0.0000000E+00;  0.0000000E+00;  0.0000000E+00;0;  0.0000000E+00;  4.0000000E+04;  0.0000000E+00;  0.0000000E+00;  4.0000000E+04;  0.0000000E+00;  4.0000000E+04;  0.0000000E+00;  0.0000000E+00;  0.0000000E+00;  0.0000000E+00;
 -1.9000000E-01;  9.9999998E-03;  3.4999999E-01;169;  0.0000000E+00;  0.0000000E+00;  0.0000000E+00;  1.0000000E+03;  1.0000000E-01;  0.0000000E+00;0;  0.0000000E+00;  0.0000000E+00;  0.0000000E+00;0;  0.0000000E+00;  4.0000000E+04;  0.0000000E+00;  0.0000000E+00;  4.0000000E+04;  0.0000000E+00;  4.0000000E+04;  0.0000000E+00;  0.0000000E+00;  0.0000000E+00;  0.0000000E+00;
 -1.9000000E-01;  9.9999998E-03;  3.6000001E-01;170;  0.0000000E+00;  0.0000000E+00;  0.0000000E+00;  1.0000000E+03;  1.0000000E-01;  0.0000000E+00;0;  0.0000000E+00;  0.0000000E+00;  0.0000000E+00;0;  0.0000000E+00;  4.0000000E+04;  0.0000000E+00;  0.0000000E+00;  4.0000000E+04;  0.0000000E+00;  4.0000000E+04;  0.0000000E+00;  0.0000000E+00;  0.0000000E+00;  0.0000000E+00;
 -1.9000000E-01;  9.9999998E-03;  3.7000000E-01;171;  0.0000000E+00;  0.0000000E+00;  0.0000000E+00;  1.0000000E+03;  1.0000000E-01;  0.0000000E+00;0;  0.0000000E+00;  0.0000000E+00;  0.0000000E+00;0;  0.0000000E+00;  4.0000000E+04;  0.0000000E+00;  0.0000000E+00;  4.0000000E+04;  0.0000000E+00;  4.0000000E+04;  0.0000000E+00;  0.0000000E+00;  0.0000000E+00;  0.0000000E+00;
 -1.9000000E-01;  9.9999998E-03;  3.8000000E-01;172;  0.0000000E+00;  0.0000000E+00;  0.0000000E+00;  1.0000000E+03;  1.0000000E-01;  0.0000000E+00;0;  0.0000000E+00;  0.0000000E+00;  0.0000000E+00;0;  0.0000000E+00;  4.0000000E+04;  0.0000000E+00;  0.0000000E+00;  4.0000000E+04;  0.0000000E+00;  4.0000000E+04;  0.0000000E+00;  0.0000000E+00;  0.0000000E+00;  0.0000000E+00;
 -1.9000000E-01;  9.9999998E-03;  3.8999999E-01;173;  0.0000000E+00;  0.0000000E+00;  0.0000000E+00;  1.0000000E+03;  1.0000000E-01;  0.0000000E+00;0;  0.0000000E+00;  0.0000000E+00;  0.0000000E+00;0;  0.0000000E+00;  4.0000000E+04;  0.0000000E+00;  0.0000000E+00;  4.0000000E+04;  0.0000000E+00;  4.0000000E+04;  0.0000000E+00;  0.0000000E+00;  0.0000000E+00;  0.0000000E+00;
 -1.9000000E-01;  9.9999998E-03;  4.0000001E-01;174;  0.0000000E+00;  0.0000000E+00;  0.0000000E+00;  1.0000000E+03;  1.0000000E-01;  0.0000000E+00;0;  0.0000000E+00;  0.0000000E+00;  0.0000000E+00;0;  0.0000000E+00;  4.0000000E+04;  0.0000000E+00;  0.0000000E+00;  4.0000000E+04;  0.0000000E+00;  4.0000000E+04;  0.0000000E+00;  0.0000000E+00;  0.0000000E+00;  0.0000000E+00;
 -1.8000001E-01;  9.9999998E-03;  2.3999999E-01;249;  0.0000000E+00;  0.0000000E+00;  0.0000000E+00;  1.0000000E+03;  1.0000000E-01;  0.0000000E+00;0;  0.0000000E+00;  0.0000000E+00;  0.0000000E+00;0;  0.0000000E+00;  4.0000000E+04;  0.0000000E+00;  0.0000000E+00;  4.0000000E+04;  0.0000000E+00;  4.0000000E+04;  0.0000000E+00;  0.0000000E+00;  0.0000000E+00;  0.0000000E+00;
 -1.8000001E-01;  9.9999998E-03;  2.5000000E-01;250;  0.0000000E+00;  0.0000000E+00;  0.0000000E+00;  1.0000000E+03;  1.0000000E-01;  0.0000000E+00;0;  0.0000000E+00;  0.0000000E+00;  0.0000000E+00;0;  0.0000000E+00;  4.0000000E+04;  0.0000000E+00;  0.0000000E+00;  4.0000000E+04;  0.0000000E+00;  4.0000000E+04;  0.0000000E+00;  0.0000000E+00;  0.0000000E+00;  0.0000000E+00;
 -1.8000001E-01;  9.9999998E-03;  2.5999999E-01;251;  0.0000000E+00;  0.0000000E+00;  0.0000000E+00;  1.0000000E+03;  1.0000000E-01;  0.0000000E+00;0;  0.0000000E+00;  0.0000000E+00;  0.0000000E+00;0;  0.0000000E+00;  4.0000000E+04;  0.0000000E+00;  0.0000000E+00;  4.0000000E+04;  0.0000000E+00;  4.0000000E+04;  0.0000000E+00;  0.0000000E+00;  0.0000000E+00;  0.0000000E+00;
 -1.8000001E-01;  9.9999998E-03;  2.7000001E-01;252;  0.0000000E+00;  0.0000000E+00;  0.0000000E+00;  1.0000000E+03;  1.0000000E-01;  0.0000000E+00;0;  0.0000000E+00;  0.0000000E+00;  0.0000000E+00;0;  0.0000000E+00;  4.0000000E+04;  0.0000000E+00;  0.0000000E+00;  4.0000000E+04;  0.0000000E+00;  4.0000000E+04;  0.0000000E+00;  0.0000000E+00;  0.0000000E+00;  0.0000000E+00;
 -1.8000001E-01;  9.9999998E-03;  2.8000000E-01;253;  0.0000000E+00;  0.0000000E+00;  0.0000000E+00;  1.0000000E+03;  1.0000000E-01;  0.0000000E+00;0;  0.0000000E+00;  0.0000000E+00;  0.0000000E+00;0;  0.0000000E+00;  4.0000000E+04;  0.0000000E+00;  0.0000000E+00;  4.0000000E+04;  0.0000000E+00;  4.0000000E+04;  0.0000000E+00;  0.0000000E+00;  0.0000000E+00;  0.0000000E+00;
 -1.8000001E-01;  9.9999998E-03;  2.8999999E-01;254;  0.0000000E+00;  0.0000000E+00;  0.0000000E+00;  1.0000000E+03;  1.0000000E-01;  0.0000000E+00;0;  0.0000000E+00;  0.0000000E+00;  0.0000000E+00;0;  0.0000000E+00;  4.0000000E+04;  0.0000000E+00;  0.0000000E+00;  4.0000000E+04;  0.0000000E+00;  4.0000000E+04;  0.0000000E+00;  0.0000000E+00;  0.0000000E+00;  0.0000000E+00;
 -1.8000001E-01;  9.9999998E-03;  3.0000001E-01;255;  0.0000000E+00;  0.0000000E+00;  0.0000000E+00;  1.0000000E+03;  1.0000000E-01;  0.0000000E+00;0;  0.0000000E+00;  0.0000000E+00;  0.0000000E+00;0;  0.0000000E+00;  4.0000000E+04;  0.0000000E+00;  0.0000000E+00;  4.0000000E+04;  0.0000000E+00;  4.0000000E+04;  0.0000000E+00;  0.0000000E+00;  0.0000000E+00;  0.0000000E+00;
 -1.8000001E-01;  9.9999998E-03;  3.1000000E-01;256;  0.0000000E+00;  0.0000000E+00;  0.0000000E+00;  1.0000000E+03;  1.0000000E-01;  0.0000000E+00;0;  0.0000000E+00;  0.0000000E+00;  0.0000000E+00;0;  0.0000000E+00;  4.0000000E+04;  0.0000000E+00;  0.0000000E+00;  4.0000000E+04;  0.0000000E+00;  4.0000000E+04;  0.0000000E+00;  0.0000000E+00;  0.0000000E+00;  0.0000000E+00;
 -1.8000001E-01;  9.9999998E-03;  3.1999999E-01;257;  0.0000000E+00;  0.0000000E+00;  0.0000000E+00;  1.0000000E+03;  1.0000000E-01;  0.0000000E+00;0;  0.0000000E+00;  0.0000000E+00;  0.0000000E+00;0;  0.0000000E+00;  4.0000000E+04;  0.0000000E+00;  0.0000000E+00;  4.0000000E+04;  0.0000000E+00;  4.0000000E+04;  0.0000000E+00;  0.0000000E+00;  0.0000000E+00;  0.0000000E+00;
 -1.8000001E-01;  9.9999998E-03;  3.3000001E-01;258;  0.0000000E+00;  0.0000000E+00;  0.0000000E+00;  1.0000000E+03;  1.0000000E-01;  0.0000000E+00;0;  0.0000000E+00;  0.0000000E+00;  0.0000000E+00;0;  0.0000000E+00;  4.0000000E+04;  0.0000000E+00;  0.0000000E+00;  4.0000000E+04;  0.0000000E+00;  4.0000000E+04;  0.0000000E+00;  0.0000000E+00;  0.0000000E+00;  0.0000000E+00;
 -1.8000001E-01;  9.9999998E-03;  3.4000000E-01;259;  0.0000000E+00;  0.0000000E+00;  0.0000000E+00;  1.0000000E+03;  1.0000000E-01;  0.0000000E+00;0;  0.0000000E+00;  0.0000000E+00;  0.0000000E+00;0;  0.0000000E+00;  4.0000000E+04;  0.0000000E+00;  0.0000000E+00;  4.0000000E+04;  0.0000000E+00;  4.0000000E+04;  0.0000000E+00;  0.0000000E+00;  0.0000000E+00;  0.0000000E+00;
 -1.8000001E-01;  9.9999998E-03;  3.4999999E-01;260;  0.0000000E+00;  0.0000000E+00;  0.0000000E+00;  1.0000000E+03;  1.0000000E-01;  0.0000000E+00;0;  0.0000000E+00;  0.0000000E+00;  0.0000000E+00;0;  0.0000000E+00;  4.0000000E+04;  0.0000000E+00;  0.0000000E+00;  4.0000000E+04;  0.0000000E+00;  4.0000000E+04;  0.0000000E+00;  0.0000000E+00;  0.0000000E+00;  0.0000000E+00;
 -1.8000001E-01;  9.9999998E-03;  3.6000001E-01;261;  0.0000000E+00;  0.0000000E+00;  0.0000000E+00;  1.0000000E+03;  1.0000000E-01;  0.0000000E+00;0;  0.0000000E+00;  0.0000000E+00;  0.0000000E+00;0;  0.0000000E+00;  4.0000000E+04;  0.0000000E+00;  0.0000000E+00;  4.0000000E+04;  0.0000000E+00;  4.0000000E+04;  0.0000000E+00;  0.0000000E+00;  0.0000000E+00;  0.0000000E+00;
 -1.8000001E-01;  9.9999998E-03;  3.7000000E-01;262;  0.0000000E+00;  0.0000000E+00;  0.0000000E+00;  1.0000000E+03;  1.0000000E-01;  0.0000000E+00;0;  0.0000000E+00;  0.0000000E+00;  0.0000000E+00;0;  0.0000000E+00;  4.0000000E+04;  0.0000000E+00;  0.0000000E+00;  4.0000000E+04;  0.0000000E+00;  4.0000000E+04;  0.0000000E+00;  0.0000000E+00;  0.0000000E+00;  0.0000000E+00;
 -1.8000001E-01;  9.9999998E-03;  3.8000000E-01;263;  0.0000000E+00;  0.0000000E+00;  0.0000000E+00;  1.0000000E+03;  1.0000000E-01;  0.0000000E+00;0;  0.0000000E+00;  0.0000000E+00;  0.0000000E+00;0;  0.0000000E+00;  4.0000000E+04;  0.0000000E+00;  0.0000000E+00;  4.0000000E+04;  0.0000000E+00;  4.0000000E+04;  0.0000000E+00;  0.0000000E+00;  0.0000000E+00;  0.0000000E+00;
 -1.8000001E-01;  9.9999998E-03;  3.8999999E-01;264;  0.0000000E+00;  0.0000000E+00;  0.0000000E+00;  1.0000000E+03;  1.0000000E-01;  0.0000000E+00;0;  0.0000000E+00;  0.0000000E+00;  0.0000000E+00;0;  0.0000000E+00;  4.0000000E+04;  0.0000000E+00;  0.0000000E+00;  4.0000000E+04;  0.0000000E+00;  4.0000000E+04;  0.0000000E+00;  0.0000000E+00;  0.0000000E+00;  0.0000000E+00;
 -1.8000001E-01;  9.9999998E-03;  4.0000001E-01;265;  0.0000000E+00;  0.0000000E+00;  0.0000000E+00;  1.0000000E+03;  1.0000000E-01;  0.0000000E+00;0;  0.0000000E+00;  0.0000000E+00;  0.0000000E+00;0;  0.0000000E+00;  4.0000000E+04;  0.0000000E+00;  0.0000000E+00;  4.0000000E+04;  0.0000000E+00;  4.0000000E+04;  0.0000000E+00;  0.0000000E+00;  0.0000000E+00;  0.0000000E+00;
 -1.7000000E-01;  9.9999998E-03;  2.3999999E-01;340;  0.0000000E+00;  0.0000000E+00;  0.0000000E+00;  1.0000000E+03;  1.0000000E-01;  0.0000000E+00;0;  0.0000000E+00;  0.0000000E+00;  0.0000000E+00;0;  0.0000000E+00;  4.0000000E+04;  0.0000000E+00;  0.0000000E+00;  4.0000000E+04;  0.0000000E+00;  4.0000000E+04;  0.0000000E+00;  0.0000000E+00;  0.0000000E+00;  7.1569556E-10;
 -1.7000000E-01;  9.9999998E-03;  2.5000000E-01;341;  0.0000000E+00;  0.0000000E+00;  0.0000000E+00;  1.0000000E+03;  1.0000000E-01;  0.0000000E+00;0;  0.0000000E+00;  0.0000000E+00;  0.0000000E+00;0;  0.0000000E+00;  4.0000000E+04;  0.0000000E+00;  0.0000000E+00;  4.0000000E+04;  0.0000000E+00;  4.0000000E+04;  0.0000000E+00;  0.0000000E+00;  0.0000000E+00;  4.6691867E-10;
 -1.7000000E-01;  9.9999998E-03;  2.5999999E-01;342;  0.0000000E+00;  0.0000000E+00;  0.0000000E+00;  1.0000000E+03;  1.0000000E-01;  0.0000000E+00;0;  0.0000000E+00;  0.0000000E+00;  0.0000000E+00;0;  0.0000000E+00;  4.0000000E+04;  0.0000000E+00;  0.0000000E+00;  4.0000000E+04;  0.0000000E+00;  4.0000000E+04;  0.0000000E+00;  0.0000000E+00;  0.0000000E+00;  2.4656574E-10;
 -1.7000000E-01;  9.9999998E-03;  2.7000001E-01;343;  0.0000000E+00;  0.0000000E+00;  0.0000000E+00;  1.0000000E+03;  1.0000000E-01;  0.0000000E+00;0;  0.0000000E+00;  0.0000000E+00;  0.0000000E+00;0;  0.0000000E+00;  4.0000000E+04;  0.0000000E+00;  0.0000000E+00;  4.0000000E+04;  0.0000000E+00;  4.0000000E+04;  0.0000000E+00;  0.0000000E+00;  0.0000000E+00;  9.0626097E-11;
 -1.7000000E-01;  9.9999998E-03;  2.8000000E-01;344;  0.0000000E+00;  0.0000000E+00;  0.0000000E+00;  1.0000000E+03;  1.0000000E-01;  0.0000000E+00;0;  0.0000000E+00;  0.0000000E+00;  0.0000000E+00;0;  0.0000000E+00;  4.0000000E+04;  0.0000000E+00;  0.0000000E+00;  4.0000000E+04;  0.0000000E+00;  4.0000000E+04;  0.0000000E+00;  0.0000000E+00;  0.0000000E+00;  1.4966250E-11;
 -1.7000000E-01;  9.9999998E-03;  2.8999999E-01;345;  0.0000000E+00;  0.0000000E+00;  0.0000000E+00;  1.0000000E+03;  1.0000000E-01;  0.0000000E+00;0;  0.0000000E+00;  0.0000000E+00;  0.0000000E+00;0;  0.0000000E+00;  4.0000000E+04;  0.0000000E+00;  0.0000000E+00;  4.0000000E+04;  0.0000000E+00;  4.0000000E+04;  0.0000000E+00;  0.0000000E+00;  0.0000000E+00;  6.8908875E-14;
 -1.7000000E-01;  9.9999998E-03;  3.0000001E-01;346;  0.0000000E+00;  0.0000000E+00;  0.0000000E+00;  1.0000000E+03;  1.0000000E-01;  0.0000000E+00;0;  0.0000000E+00;  0.0000000E+00;  0.0000000E+00;0;  0.0000000E+00;  4.0000000E+04;  0.0000000E+00;  0.0000000E+00;  4.0000000E+04;  0.0000000E+00;  4.0000000E+04;  0.0000000E+00;  0.0000000E+00;  0.0000000E+00;  0.0000000E+00;
 -1.7000000E-01;  9.9999998E-03;  3.1000000E-01;347;  0.0000000E+00;  0.0000000E+00;  0.0000000E+00;  1.0000000E+03;  1.0000000E-01;  0.0000000E+00;0;  0.0000000E+00;  0.0000000E+00;  0.0000000E+00;0;  0.0000000E+00;  4.0000000E+04;  0.0000000E+00;  0.0000000E+00;  4.0000000E+04;  0.0000000E+00;  4.0000000E+04;  0.0000000E+00;  0.0000000E+00;  0.0000000E+00;  0.0000000E+00;
 -1.7000000E-01;  9.9999998E-03;  3.1999999E-01;348;  0.0000000E+00;  0.0000000E+00;  0.0000000E+00;  1.0000000E+03;  1.0000000E-01;  0.0000000E+00;0;  0.0000000E+00;  0.0000000E+00;  0.0000000E+00;0;  0.0000000E+00;  4.0000000E+04;  0.0000000E+00;  0.0000000E+00;  4.0000000E+04;  0.0000000E+00;  4.0000000E+04;  0.0000000E+00;  0.0000000E+00;  0.0000000E+00;  0.0000000E+00;
 -1.7000000E-01;  9.9999998E-03;  3.3000001E-01;349;  0.0000000E+00;  0.0000000E+00;  0.0000000E+00;  1.0000000E+03;  1.0000000E-01;  0.0000000E+00;0;  0.0000000E+00;  0.0000000E+00;  0.0000000E+00;0;  0.0000000E+00;  4.0000000E+04;  0.0000000E+00;  0.0000000E+00;  4.0000000E+04;  0.0000000E+00;  4.0000000E+04;  0.0000000E+00;  0.0000000E+00;  0.0000000E+00;  0.0000000E+00;
 -1.7000000E-01;  9.9999998E-03;  3.4000000E-01;350;  0.0000000E+00;  0.0000000E+00;  0.0000000E+00;  1.0000000E+03;  1.0000000E-01;  0.0000000E+00;0;  0.0000000E+00;  0.0000000E+00;  0.0000000E+00;0;  0.0000000E+00;  4.0000000E+04;  0.0000000E+00;  0.0000000E+00;  4.0000000E+04;  0.0000000E+00;  4.0000000E+04;  0.0000000E+00;  0.0000000E+00;  0.0000000E+00;  0.0000000E+00;
 -1.7000000E-01;  9.9999998E-03;  3.4999999E-01;351;  0.0000000E+00;  0.0000000E+00;  0.0000000E+00;  1.0000000E+03;  1.0000000E-01;  0.0000000E+00;0;  0.0000000E+00;  0.0000000E+00;  0.0000000E+00;0;  0.0000000E+00;  4.0000000E+04;  0.0000000E+00;  0.0000000E+00;  4.0000000E+04;  0.0000000E+00;  4.0000000E+04;  0.0000000E+00;  0.0000000E+00;  0.0000000E+00;  0.0000000E+00;
 -1.7000000E-01;  9.9999998E-03;  3.6000001E-01;352;  0.0000000E+00;  0.0000000E+00;  0.0000000E+00;  1.0000000E+03;  1.0000000E-01;  0.0000000E+00;0;  0.0000000E+00;  0.0000000E+00;  0.0000000E+00;0;  0.0000000E+00;  4.0000000E+04;  0.0000000E+00;  0.0000000E+00;  4.0000000E+04;  0.0000000E+00;  4.0000000E+04;  0.0000000E+00;  0.0000000E+00;  0.0000000E+00;  0.0000000E+00;
 -1.7000000E-01;  9.9999998E-03;  3.7000000E-01;353;  0.0000000E+00;  0.0000000E+00;  0.0000000E+00;  1.0000000E+03;  1.0000000E-01;  0.0000000E+00;0;  0.0000000E+00;  0.0000000E+00;  0.0000000E+00;0;  0.0000000E+00;  4.0000000E+04;  0.0000000E+00;  0.0000000E+00;  4.0000000E+04;  0.0000000E+00;  4.0000000E+04;  0.0000000E+00;  0.0000000E+00;  0.0000000E+00;  0.0000000E+00;
 -1.7000000E-01;  9.9999998E-03;  3.8000000E-01;354;  0.0000000E+00;  0.0000000E+00;  0.0000000E+00;  1.0000000E+03;  1.0000000E-01;  0.0000000E+00;0;  0.0000000E+00;  0.0000000E+00;  0.0000000E+00;0;  0.0000000E+00;  4.0000000E+04;  0.0000000E+00;  0.0000000E+00;  4.0000000E+04;  0.0000000E+00;  4.0000000E+04;  0.0000000E+00;  0.0000000E+00;  0.0000000E+00;  0.0000000E+00;
 -1.7000000E-01;  9.9999998E-03;  3.8999999E-01;355;  0.0000000E+00;  0.0000000E+00;  0.0000000E+00;  1.0000000E+03;  1.0000000E-01;  0.0000000E+00;0;  0.0000000E+00;  0.0000000E+00;  0.0000000E+00;0;  0.0000000E+00;  4.0000000E+04;  0.0000000E+00;  0.0000000E+00;  4.0000000E+04;  0.0000000E+00;  4.0000000E+04;  0.0000000E+00;  0.0000000E+00;  0.0000000E+00;  0.0000000E+00;
 -1.7000000E-01;  9.9999998E-03;  4.0000001E-01;356;  0.0000000E+00;  0.0000000E+00;  0.0000000E+00;  1.0000000E+03;  1.0000000E-01;  0.0000000E+00;0;  0.0000000E+00;  0.0000000E+00;  0.0000000E+00;0;  0.0000000E+00;  4.0000000E+04;  0.0000000E+00;  0.0000000E+00;  4.0000000E+04;  0.0000000E+00;  4.0000000E+04;  0.0000000E+00;  0.0000000E+00;  0.0000000E+00;  0.0000000E+00;
 -1.6000000E-01;  9.9999998E-03;  2.3999999E-01;431;  0.0000000E+00;  0.0000000E+00;  0.0000000E+00;  1.0000000E+03;  1.0000000E-01;  0.0000000E+00;0;  0.0000000E+00;  0.0000000E+00;  0.0000000E+00;0;  3.1574491E-06;  4.0000000E+04;  0.0000000E+00;  0.0000000E+00;  4.0000000E+04;  0.0000000E+00;  4.0000000E+04;  3.1779407E-06;  0.0000000E+00; -2.0491672E-08;  1.9111463E-01;
 -1.6000000E-01;  9.9999998E-03;  2.5000000E-01;432;  0.0000000E+00;  0.0000000E+00;  0.0000000E+00;  1.0000000E+03;  1.0000000E-01;  0.0000000E+00;0;  0.0000000E+00;  0.0000000E+00;  0.0000000E+00;0;  3.2559190E-06;  4.0000000E+04;  0.0000000E+00;  0.0000000E+00;  4.0000000E+04;  0.0000000E+00;  4.0000000E+04;  3.2774526E-06;  0.0000000E+00; -2.1533694E-08;  1.5678859E-01;
 -1.6000000E-01;  9.9999998E-03;  2.5999999E-01;433;  0.0000000E+00;  0.0000000E+00;  0.0000000E+00;  1.0000000E+03;  1.0000000E-01;  0.0000000E+00;0;  0.0000000E+00;  0.0000000E+00;  0.0000000E+00;0;  3.1570783E-06;  4.0000000E+04;  0.0000000E+00;  0.0000000E+00;  4.0000000E+04;  0.0000000E+00;  4.0000000E+04;  3.1704449E-06;  0.0000000E+00; -1.3366582E-08;  1.0486385E-01;
 -1.6000000E-01;  9.9999998E-03;  2.7000001E-01;434;  0.0000000E+00;  0.0000000E+00;  0.0000000E+00;  1.0000000E+03;  1.0000000E-01;  0.0000000E+00;0;  0.0000000E+00;  0.0000000E+00;  0.0000000E+00;0;  2.8146976E-06;  4.0000000E+04;  0.0000000E+00;  0.0000000E+00;  4.0000000E+04;  0.0000000E+00;  4.0000000E+04;  2.8124255E-06;  0.0000000E+00;  2.2721107E-09;  4.1172914E-02;
 -1.6000000E-01;  9.9999998E-03;  2.8000000E-01;435;  0.0000000E+00;  0.0000000E+00;  0.0000000E+00;  1.0000000E+03;  1.0000000E-01;  0.0000000E+00;0;  0.0000000E+00;  0.0000000E+00;  0.0000000E+00;0;  2.2632291E-06;  4.0000000E+04;  0.0000000E+00;  0.0000000E+00;  4.0000000E+04;  0.0000000E+00;  4.0000000E+04;  2.2451438E-06;  0.0000000E+00;  1.8085268E-08;  1.7793830E-02;
 -1.6000000E-01;  9.9999998E-03;  2.8999999E-01;436;  0.0000000E+00;  0.0000000E+00;  0.0000000E+00;  1.0000000E+03;  1.0000000E-01;  0.0000000E+00;0;  0.0000000E+00;  0.0000000E+00;  0.0000000E+00;0;  1.6062755E-06;  4.0000000E+04;  0.0000000E+00;  0.0000000E+00;  4.0000000E+04;  0.0000000E+00;  4.0000000E+04;  1.5797546E-06;  0.0000000E+00;  2.6520997E-08;  5.4929949E-02;
 -1.6000000E-01;  9.9999998E-03;  3.0000001E-01;437;  0.0000000E+00;  0.0000000E+00;  0.0000000E+00;  1.0000000E+03;  1.0000000E-01;  0.0000000E+00;0;  0.0000000E+00;  0.0000000E+00;  0.0000000E+00;0;  9.7537168E-07;  4.0000000E+04;  0.0000000E+00;  0.0000000E+00;  4.0000000E+04;  0.0000000E+00;  4.0000000E+04;  9.5066184E-07;  0.0000000E+00;  2.4709781E-08;  6.3272275E-02;
 -1.6000000E-01;  9.9999998E-03;  3.1000000E-01;438;  0.0000000E+00;  0.0000000E+00;  0.0000000E+00;  1.0000000E+03;  1.0000000E-01;  0.0000000E+00;0;  0.0000000E+00;  0.0000000E+00;  0.0000000E+00;0;  4.8096223E-07;  4.0000000E+04;  0.0000000E+00;  0.0000000E+00;  4.0000000E+04;  0.0000000E+00;  4.0000000E+04;  4.6508080E-07;  0.0000000E+00;  1.5881437E-08;  4.8917234E-02;
 -1.6000000E-01;  9.9999998E-03;  3.1999999E-01;439;  0.0000000E+00;  0.0000000E+00;  0.0000000E+00;  1.0000000E+03;  1.0000000E-01;  0.0000000E+00;0;  0.0000000E+00;  0.0000000E+00;  0.0000000E+00;0;  1.7473830E-07;  4.0000000E+04;  0.0000000E+00;  0.0000000E+00;  4.0000000E+04;  0.0000000E+00;  4.0000000E+04;  1.6821878E-07;  0.0000000E+00;  6.5195298E-09;  2.6280256E-02;
 -1.6000000E-01;  9.9999998E-03;  3.3000001E-01;440;  0.0000000E+00;  0.0000000E+00;  0.0000000E+00;  1.0000000E+03;  1.0000000E-01;  0.0000000E+00;0;  0.0000000E+00;  0.0000000E+00;  0.0000000E+00;0;  3.7858019E-08;  4.0000000E+04;  0.0000000E+00;  0.0000000E+00;  4.0000000E+04;  0.0000000E+00;  4.0000000E+04;  3.6515093E-08;  0.0000000E+00;  1.3429270E-09;  8.6733438E-03;
 -1.6000000E-01;  9.9999998E-03;  3.4000000E-01;441;  0.0000000E+00;  0.0000000E+00;  0.0000000E+00;  1.0000000E+03;  1.0000000E-01;  0.0000000E+00;0;  0.0000000E+00;  0.0000000E+00;  0.0000000E+00;0;  2.3433964E-09;  4.0000000E+04;  0.0000000E+00;  0.0000000E+00;  4.0000000E+04;  0.0000000E+00;  4.0000000E+04;  2.2469482E-09;  0.0000000E+00;  9.6448266E-11;  1.0723475E-03;
 -1.6000000E-01;  9.9999998E-03;  3.4999999E-01;442;  0.0000000E+00;  0.0000000E+00;  0.0000000E+00;  1.0000000E+03;  1.0000000E-01;  0.0000000E+00;0;  0.0000000E+00;  0.0000000E+00;  0.0000000E+00;0;  0.0000000E+00;  4.0000000E+04;  0.0000000E+00;  0.0000000E+00;  4.0000000E+04;  0.0000000E+00;  4.0000000E+04;  0.0000000E+00;  0.0000000E+00;  0.0000000E+00;  0.0000000E+00;
 -1.6000000E-01;  9.9999998E-03;  3.6000001E-01;443;  0.0000000E+00;  0.0000000E+00;  0.0000000E+00;  1.0000000E+03;  1.0000000E-01;  0.0000000E+00;0;  0.0000000E+00;  0.0000000E+00;  0.0000000E+00;0;  0.0000000E+00;  4.0000000E+04;  0.0000000E+00;  0.0000000E+00;  4.0000000E+04;  0.0000000E+00;  4.0000000E+04;  0.0000000E+00;  0.0000000E+00;  0.0000000E+00;  0.0000000E+00;
 -1.6000000E-01;  9.9999998E-03;  3.7000000E-01;444;  0.0000000E+00;  0.0000000E+00;  0.0000000E+00;  1.0000000E+03;  1.0000000E-01;  0.0000000E+00;0;  0.0000000E+00;  0.0000000E+00;  0.0000000E+00;0;  0.0000000E+00;  4.0000000E+04;  0.0000000E+00;  0.0000000E+00;  4.0000000E+04;  0.0000000E+00;  4.0000000E+04;  0.0000000E+00;  0.0000000E+00;  0.0000000E+00;  0.0000000E+00;
 -1.6000000E-01;  9.9999998E-03;  3.8000000E-01;445;  0.0000000E+00;  0.0000000E+00;  0.0000000E+00;  1.0000000E+03;  1.0000000E-01;  0.0000000E+00;0;  0.0000000E+00;  0.0000000E+00;  0.0000000E+00;0;  0.0000000E+00;  4.0000000E+04;  0.0000000E+00;  0.0000000E+00;  4.0000000E+04;  0.0000000E+00;  4.0000000E+04;  0.0000000E+00;  0.0000000E+00;  0.0000000E+00;  0.0000000E+00;
 -1.6000000E-01;  9.9999998E-03;  3.8999999E-01;446;  0.0000000E+00;  0.0000000E+00;  0.0000000E+00;  1.0000000E+03;  1.0000000E-01;  0.0000000E+00;0;  0.0000000E+00;  0.0000000E+00;  0.0000000E+00;0;  0.0000000E+00;  4.0000000E+04;  0.0000000E+00;  0.0000000E+00;  4.0000000E+04;  0.0000000E+00;  4.0000000E+04;  0.0000000E+00;  0.0000000E+00;  0.0000000E+00;  0.0000000E+00;
 -1.6000000E-01;  9.9999998E-03;  4.0000001E-01;447;  0.0000000E+00;  0.0000000E+00;  0.0000000E+00;  1.0000000E+03;  1.0000000E-01;  0.0000000E+00;0;  0.0000000E+00;  0.0000000E+00;  0.0000000E+00;0;  0.0000000E+00;  4.0000000E+04;  0.0000000E+00;  0.0000000E+00;  4.0000000E+04;  0.0000000E+00;  4.0000000E+04;  0.0000000E+00;  0.0000000E+00;  0.0000000E+00;  0.0000000E+00;
 -1.5000001E-01;  9.9999998E-03;  2.3999999E-01;522;  0.0000000E+00;  0.0000000E+00;  0.0000000E+00;  1.0000000E+03;  1.0000000E-01;  0.0000000E+00;0;  0.0000000E+00;  0.0000000E+00;  0.0000000E+00;0;  5.2553914E-05;  4.0000000E+04;  0.0000000E+00;  0.0000000E+00;  4.0000000E+04;  0.0000000E+00;  4.0000000E+04;  5.2930322E-05;  0.0000000E+00; -3.7640598E-07;  2.6538165E+00;
 -1.5000001E-01;  9.9999998E-03;  2.5000000E-01;523;  0.0000000E+00;  0.0000000E+00;  0.0000000E+00;  1.0000000E+03;  1.0000000E-01;  0.0000000E+00;0;  0.0000000E+00;  0.0000000E+00;  0.0000000E+00;0;  4.9170467E-05;  4.0000000E+04;  0.0000000E+00;  0.0000000E+00;  4.0000000E+04;  0.0000000E+00;  4.0000000E+04;  4.9432605E-05;  0.0000000E+00; -2.6213854E-07;  2.0030479E+00;
 -1.5000001E-01;  9.9999998E-03;  2.5999999E-01;524;  0.0000000E+00;  0.0000000E+00;  0.0000000E+00;  1.0000000E+03;  1.0000000E-01;  0.0000000E+00;0;  0.0000000E+00;  0.0000000E+00;  0.0000000E+00;0;  4.4132092E-05;  4.0000000E+04;  0.0000000E+00;  0.0000000E+00;  4.0000000E+04;  0.0000000E+00;  4.0000000E+04;  4.4202246E-05;  0.0000000E+00; -7.0155188E-08;  1.2310317E+00;
 -1.5000001E-01;  9.9999998E-03;  2.7000001E-01;525;  0.0000000E+00;  0.0000000E+00;  0.0000000E+00;  1.0000000E+03;  1.0000000E-01;  0.0000000E+00;0;  0.0000000E+00;  0.0000000E+00;  0.0000000E+00;0;  3.7660950E-05;  4.0000000E+04;  0.0000000E+00;  0.0000000E+00;  4.0000000E+04;  0.0000000E+00;  4.0000000E+04;  3.7505433E-05;  0.0000000E+00;  1.5551750E-07;  4.3412697E-01;
 -1.5000001E-01;  9.9999998E-03;  2.8000000E-01;526;  0.0000000E+00;  0.0000000E+00;  0.0000000E+00;  1.0000000E+03;  1.0000000E-01;  0.0000000E+00;0;  0.0000000E+00;  0.0000000E+00;  0.0000000E+00;0;  3.0274503E-05;  4.0000000E+04;  0.0000000E+00;  0.0000000E+00;  4.0000000E+04;  0.0000000E+00;  4.0000000E+04;  2.9920429E-05;  0.0000000E+00;  3.5407288E-07;  2.6479876E-01;
 -1.5000001E-01;  9.9999998E-03;  2.8999999E-01;527;  0.0000000E+00;  0.0000000E+00;  0.0000000E+00;  1.0000000E+03;  1.0000000E-01;  0.0000000E+00;0;  0.0000000E+00;  0.0000000E+00;  0.0000000E+00;0;  2.2679647E-05;  4.0000000E+04;  0.0000000E+00;  0.0000000E+00;  4.0000000E+04;  0.0000000E+00;  4.0000000E+04;  2.2207492E-05;  0.0000000E+00;  4.7215443E-07;  7.5007075E-01;
 -1.5000001E-01;  9.9999998E-03;  3.0000001E-01;528;  0.0000000E+00;  0.0000000E+00;  0.0000000E+00;  1.0000000E+03;  1.0000000E-01;  0.0000000E+00;0;  0.0000000E+00;  0.0000000E+00;  0.0000000E+00;0;  1.5616510E-05;  4.0000000E+04;  0.0000000E+00;  0.0000000E+00;  4.0000000E+04;  0.0000000E+00;  4.0000000E+04;  1.5131512E-05;  0.0000000E+00;  4.8499891E-07;  9.6260512E-01;
 -1.5000001E-01;  9.9999998E-03;  3.1000000E-01;529;  0.0000000E+00;  0.0000000E+00;  0.0000000E+00;  1.0000000E+03;  1.0000000E-01;  0.0000000E+00;0;  0.0000000E+00;  0.0000000E+00;  0.0000000E+00;0;  9.6974718E-06;  4.0000000E+04;  0.0000000E+00;  0.0000000E+00;  4.0000000E+04;  0.0000000E+00;  4.0000000E+04;  9.2920418E-06;  0.0000000E+00;  4.0542957E-07;  9.1855139E-01;
 -1.5000001E-01;  9.9999998E-03;  3.1999999E-01;530;  0.0000000E+00;  0.0000000E+00;  0.0000000E+00;  1.0000000E+03;  1.0000000E-01;  0.0000000E+00;0;  0.0000000E+00;  0.0000000E+00;  0.0000000E+00;0;  5.2811024E-06;  4.0000000E+04;  0.0000000E+00;  0.0000000E+00;  4.0000000E+04;  0.0000000E+00;  4.0000000E+04;  5.0052799E-06;  0.0000000E+00;  2.7582240E-07;  7.0239449E-01;
 -1.5000001E-01;  9.9999998E-03;  3.3000001E-01;531;  0.0000000E+00;  0.0000000E+00;  0.0000000E+00;  1.0000000E+03;  1.0000000E-01;  0.0000000E+00;0;  0.0000000E+00;  0.0000000E+00;  0.0000000E+00;0;  2.4135268E-06;  4.0000000E+04;  0.0000000E+00;  0.0000000E+00;  4.0000000E+04;  0.0000000E+00;  4.0000000E+04;  2.2663155E-06;  0.0000000E+00;  1.4721118E-07;  4.2957366E-01;
 -1.5000001E-01;  9.9999998E-03;  3.4000000E-01;532;  0.0000000E+00;  0.0000000E+00;  0.0000000E+00;  1.0000000E+03;  1.0000000E-01;  0.0000000E+00;0;  0.0000000E+00;  0.0000000E+00;  0.0000000E+00;0;  8.5738026E-07;  4.0000000E+04;  0.0000000E+00;  0.0000000E+00;  4.0000000E+04;  0.0000000E+00;  4.0000000E+04;  8.0087921E-07;  0.0000000E+00;  5.6501047E-08;  2.0000422E-01;
 -1.5000001E-01;  9.9999998E-03;  3.4999999E-01;533;  0.0000000E+00;  0.0000000E+00;  0.0000000E+00;  1.0000000E+03;  1.0000000E-01;  0.0000000E+00;0;  0.0000000E+00;  0.0000000E+00;  0.0000000E+00;0;  2.0257852E-07;  4.0000000E+04;  0.0000000E+00;  0.0000000E+00;  4.0000000E+04;  0.0000000E+00;  4.0000000E+04;  1.8959351E-07;  0.0000000E+00;  1.2985019E-08;  6.2850095E-02;
 -1.5000001E-01;  9.9999998E-03;  3.6000001E-01;534;  0.0000000E+00;  0.0000000E+00;  0.0000000E+00;  1.0000000E+03;  1.0000000E-01;  0.0000000E+00;0;  0.0000000E+00;  0.0000000E+00;  0.0000000E+00;0;  2.0894737E-08;  4.0000000E+04;  0.0000000E+00;  0.0000000E+00;  4.0000000E+04;  0.0000000E+00;  4.0000000E+04;  1.9549969E-08;  0.0000000E+00;  1.3447680E-09;  9.6542388E-03;
 -1.5000001E-01;  9.9999998E-03;  3.7000000E-01;535;  0.0000000E+00;  0.0000000E+00;  0.0000000E+00;  1.0000000E+03;  1.0000000E-01;  0.0000000E+00;0;  0.0000000E+00;  0.0000000E+00;  0.0000000E+00;0;  0.0000000E+00;  4.0000000E+04;  0.0000000E+00;  0.0000000E+00;  4.0000000E+04;  0.0000000E+00;  4.0000000E+04;  0.0000000E+00;  0.0000000E+00;  0.0000000E+00;  3.0836869E-09;
 -1.5000001E-01;  9.9999998E-03;  3.8000000E-01;536;  0.0000000E+00;  0.0000000E+00;  0.0000000E+00;  1.0000000E+03;  1.0000000E-01;  0.0000000E+00;0;  0.0000000E+00;  0.0000000E+00;  0.0000000E+00;0;  0.0000000E+00;  4.0000000E+04;  0.0000000E+00;  0.0000000E+00;  4.0000000E+04;  0.0000000E+00;  4.0000000E+04;  0.0000000E+00;  0.0000000E+00;  0.0000000E+00;  0.0000000E+00;
 -1.5000001E-01;  9.9999998E-03;  3.8999999E-01;537;  0.0000000E+00;  0.0000000E+00;  0.0000000E+00;  1.0000000E+03;  1.0000000E-01;  0.0000000E+00;0;  0.0000000E+00;  0.0000000E+00;  0.0000000E+00;0;  0.0000000E+00;  4.0000000E+04;  0.0000000E+00;  0.0000000E+00;  4.0000000E+04;  0.0000000E+00;  4.0000000E+04;  0.0000000E+00;  0.0000000E+00;  0.0000000E+00;  0.0000000E+00;
 -1.5000001E-01;  9.9999998E-03;  4.0000001E-01;538;  0.0000000E+00;  0.0000000E+00;  0.0000000E+00;  1.0000000E+03;  1.0000000E-01;  0.0000000E+00;0;  0.0000000E+00;  0.0000000E+00;  0.0000000E+00;0;  0.0000000E+00;  4.0000000E+04;  0.0000000E+00;  0.0000000E+00;  4.0000000E+04;  0.0000000E+00;  4.0000000E+04;  0.0000000E+00;  0.0000000E+00;  0.0000000E+00;  0.0000000E+00;
 -1.4000000E-01;  9.9999998E-03;  2.3999999E-01;613;  0.0000000E+00;  0.0000000E+00;  0.0000000E+00;  1.0000000E+03;  1.0000000E-01;  0.0000000E+00;0;  0.0000000E+00;  0.0000000E+00;  0.0000000E+00;0;  2.3947241E-04;  4.0000000E+04;  0.0000000E+00;  0.0000000E+00;  4.0000000E+04;  0.0000000E+00;  4.0000000E+04;  2.4130476E-04;  0.0000000E+00; -1.8323472E-06;  1.2163976E+01;
 -1.4000000E-01;  9.9999998E-03;  2.5000000E-01;614;  0.0000000E+00;  0.0000000E+00;  0.0000000E+00;  1.0000000E+03;  1.0000000E-01;  0.0000000E+00;0;  0.0000000E+00;  0.0000000E+00;  0.0000000E+00;0;  2.1962050E-04;  4.0000000E+04;  0.0000000E+00;  0.0000000E+00;  4.0000000E+04;  0.0000000E+00;  4.0000000E+04;  2.2072319E-04;  0.0000000E+00; -1.1026854E-06;  9.0957642E+00;
 -1.4000000E-01;  9.9999998E-03;  2.5999999E-01;615;  0.0000000E+00;  0.0000000E+00;  0.0000000E+00;  1.0000000E+03;  1.0000000E-01;  0.0000000E+00;0;  0.0000000E+00;  0.0000000E+00;  0.0000000E+00;0;  1.9478830E-04;  4.0000000E+04;  0.0000000E+00;  0.0000000E+00;  4.0000000E+04;  0.0000000E+00;  4.0000000E+04;  1.9489341E-04;  0.0000000E+00; -1.0511500E-07;  5.5709634E+00;
 -1.4000000E-01;  9.9999998E-03;  2.7000001E-01;616;  0.0000000E+00;  0.0000000E+00;  0.0000000E+00;  1.0000000E+03;  1.0000000E-01;  0.0000000E+00;0;  0.0000000E+00;  0.0000000E+00;  0.0000000E+00;0;  1.6614654E-04;  4.0000000E+04;  0.0000000E+00;  0.0000000E+00;  4.0000000E+04;  0.0000000E+00;  4.0000000E+04;  1.6517358E-04;  0.0000000E+00;  9.7295060E-07;  1.9686046E+00;
 -1.4000000E-01;  9.9999998E-03;  2.8000000E-01;617;  0.0000000E+00;  0.0000000E+00;  0.0000000E+00;  1.0000000E+03;  1.0000000E-01;  0.0000000E+00;0;  0.0000000E+00;  0.0000000E+00;  0.0000000E+00;0;  1.3546909E-04;  4.0000000E+04;  0.0000000E+00;  0.0000000E+00;  4.0000000E+04;  0.0000000E+00;  4.0000000E+04;  1.3355701E-04;  0.0000000E+00;  1.9120748E-06;  1.2540257E+00;
 -1.4000000E-01;  9.9999998E-03;  2.8999999E-01;618;  0.0000000E+00;  0.0000000E+00;  0.0000000E+00;  1.0000000E+03;  1.0000000E-01;  0.0000000E+00;0;  0.0000000E+00;  0.0000000E+00;  0.0000000E+00;0;  1.0485381E-04;  4.0000000E+04;  0.0000000E+00;  0.0000000E+00;  4.0000000E+04;  0.0000000E+00;  4.0000000E+04;  1.0232870E-04;  0.0000000E+00;  2.5251061E-06;  3.6684375E+00;
 -1.4000000E-01;  9.9999998E-03;  3.0000001E-01;619;  0.0000000E+00;  0.0000000E+00;  0.0000000E+00;  1.0000000E+03;  1.0000000E-01;  0.0000000E+00;0;  0.0000000E+00;  0.0000000E+00;  0.0000000E+00;0;  7.6382123E-05;  4.0000000E+04;  0.0000000E+00;  0.0000000E+00;  4.0000000E+04;  0.0000000E+00;  4.0000000E+04;  7.3669988E-05;  0.0000000E+00;  2.7121346E-06;  5.0123301E+00;
 -1.4000000E-01;  9.9999998E-03;  3.1000000E-01;620;  0.0000000E+00;  0.0000000E+00;  0.0000000E+00;  1.0000000E+03;  1.0000000E-01;  0.0000000E+00;0;  0.0000000E+00;  0.0000000E+00;  0.0000000E+00;0;  5.1787632E-05;  4.0000000E+04;  0.0000000E+00;  0.0000000E+00;  4.0000000E+04;  0.0000000E+00;  4.0000000E+04;  4.9298553E-05;  0.0000000E+00;  2.4890787E-06;  5.2594824E+00;
 -1.4000000E-01;  9.9999998E-03;  3.1999999E-01;621;  0.0000000E+00;  0.0000000E+00;  0.0000000E+00;  1.0000000E+03;  1.0000000E-01;  0.0000000E+00;0;  0.0000000E+00;  0.0000000E+00;  0.0000000E+00;0;  3.2190605E-05;  4.0000000E+04;  0.0000000E+00;  0.0000000E+00;  4.0000000E+04;  0.0000000E+00;  4.0000000E+04;  3.0215881E-05;  0.0000000E+00;  1.9747240E-06;  4.6224847E+00;
 -1.4000000E-01;  9.9999998E-03;  3.3000001E-01;622;  0.0000000E+00;  0.0000000E+00;  0.0000000E+00;  1.0000000E+03;  1.0000000E-01;  0.0000000E+00;0;  0.0000000E+00;  0.0000000E+00;  0.0000000E+00;0;  1.7950668E-05;  4.0000000E+04;  0.0000000E+00;  0.0000000E+00;  4.0000000E+04;  0.0000000E+00;  4.0000000E+04;  1.6608836E-05;  0.0000000E+00;  1.3418316E-06;  3.4692941E+00;
 -1.4000000E-01;  9.9999998E-03;  3.4000000E-01;623;  0.0000000E+00;  0.0000000E+00;  0.0000000E+00;  1.0000000E+03;  1.0000000E-01;  0.0000000E+00;0;  0.0000000E+00;  0.0000000E+00;  0.0000000E+00;0;  8.6850878E-06;  4.0000000E+04;  0.0000000E+00;  0.0000000E+00;  4.0000000E+04;  0.0000000E+00;  4.0000000E+04;  7.9279962E-06;  0.0000000E+00;  7.5709130E-07;  2.2017455E+00;
 -1.4000000E-01;  9.9999998E-03;  3.4999999E-01;624;  0.0000000E+00;  0.0000000E+00;  0.0000000E+00;  1.0000000E+03;  1.0000000E-01;  0.0000000E+00;0;  0.0000000E+00;  0.0000000E+00;  0.0000000E+00;0;  3.4484585E-06;  4.0000000E+04;  0.0000000E+00;  0.0000000E+00;  4.0000000E+04;  0.0000000E+00;  4.0000000E+04;  3.1161949E-06;  0.0000000E+00;  3.3226362E-07;  1.1386734E+00;
 -1.4000000E-01;  9.9999998E-03;  3.6000001E-01;625;  0.0000000E+00;  0.0000000E+00;  0.0000000E+00;  1.0000000E+03;  1.0000000E-01;  0.0000000E+00;0;  0.0000000E+00;  0.0000000E+00;  0.0000000E+00;0;  1.0159292E-06;  4.0000000E+04;  0.0000000E+00;  0.0000000E+00;  4.0000000E+04;  0.0000000E+00;  4.0000000E+04;  9.1636622E-07;  0.0000000E+00;  9.9563060E-08;  4.4041035E-01;
 -1.4000000E-01;  9.9999998E-03;  3.7000000E-01;626;  0.0000000E+00;  0.0000000E+00;  0.0000000E+00;  1.0000000E+03;  1.0000000E-01;  0.0000000E+00;0;  0.0000000E+00;  0.0000000E+00;  0.0000000E+00;0;  1.8126313E-07;  4.0000000E+04;  0.0000000E+00;  0.0000000E+00;  4.0000000E+04;  0.0000000E+00;  4.0000000E+04;  1.6514434E-07;  0.0000000E+00;  1.6118793E-08;  1.0276073E-01;
 -1.4000000E-01;  9.9999998E-03;  3.8000000E-01;627;  0.0000000E+00;  0.0000000E+00;  0.0000000E+00;  1.0000000E+03;  1.0000000E-01;  0.0000000E+00;0;  0.0000000E+00;  0.0000000E+00;  0.0000000E+00;0;  8.7910896E-09;  4.0000000E+04;  0.0000000E+00;  0.0000000E+00;  4.0000000E+04;  0.0000000E+00;  4.0000000E+04;  7.9312201E-09;  0.0000000E+00;  8.5986979E-10;  7.2960565E-03;
 -1.4000000E-01;  9.9999998E-03;  3.8999999E-01;628;  0.0000000E+00;  0.0000000E+00;  0.0000000E+00;  1.0000000E+03;  1.0000000E-01;  0.0000000E+00;0;  0.0000000E+00;  0.0000000E+00;  0.0000000E+00;0;  0.0000000E+00;  4.0000000E+04;  0.0000000E+00;  0.0000000E+00;  4.0000000E+04;  0.0000000E+00;  4.0000000E+04;  0.0000000E+00;  0.0000000E+00;  0.0000000E+00;  0.0000000E+00;
 -1.4000000E-01;  9.9999998E-03;  4.0000001E-01;629;  0.0000000E+00;  0.0000000E+00;  0.0000000E+00;  1.0000000E+03;  1.0000000E-01;  0.0000000E+00;0;  0.0000000E+00;  0.0000000E+00;  0.0000000E+00;0;  0.0000000E+00;  4.0000000E+04;  0.0000000E+00;  0.0000000E+00;  4.0000000E+04;  0.0000000E+00;  4.0000000E+04;  0.0000000E+00;  0.0000000E+00;  0.0000000E+00;  0.0000000E+00;
 -1.3000000E-01;  9.9999998E-03;  2.3999999E-01;704;  0.0000000E+00;  0.0000000E+00;  0.0000000E+00;  1.0000000E+03;  1.0000000E-01;  0.0000000E+00;0;  0.0000000E+00;  0.0000000E+00;  0.0000000E+00;0;  6.6465477E-04;  4.0000000E+04;  0.0000000E+00;  0.0000000E+00;  4.0000000E+04;  0.0000000E+00;  4.0000000E+04;  6.7018392E-04;  0.0000000E+00; -5.5291316E-06;  3.5437553E+01;
 -1.3000000E-01;  9.9999998E-03;  2.5000000E-01;705;  0.0000000E+00;  0.0000000E+00;  0.0000000E+00;  1.0000000E+03;  1.0000000E-01;  0.0000000E+00;0;  0.0000000E+00;  0.0000000E+00;  0.0000000E+00;0;  6.0583127E-04;  4.0000000E+04;  0.0000000E+00;  0.0000000E+00;  4.0000000E+04;  0.0000000E+00;  4.0000000E+04;  6.0886552E-04;  0.0000000E+00; -3.0342419E-06;  2.6482971E+01;
 -1.3000000E-01;  9.9999998E-03;  2.5999999E-01;706;  0.0000000E+00;  0.0000000E+00;  0.0000000E+00;  1.0000000E+03;  1.0000000E-01;  0.0000000E+00;0;  0.0000000E+00;  0.0000000E+00;  0.0000000E+00;0;  5.3663668E-04;  4.0000000E+04;  0.0000000E+00;  0.0000000E+00;  4.0000000E+04;  0.0000000E+00;  4.0000000E+04;  5.3652760E-04;  0.0000000E+00;  1.0909155E-07;  1.6229782E+01;
 -1.3000000E-01;  9.9999998E-03;  2.7000001E-01;707;  0.0000000E+00;  0.0000000E+00;  0.0000000E+00;  1.0000000E+03;  1.0000000E-01;  0.0000000E+00;0;  0.0000000E+00;  0.0000000E+00;  0.0000000E+00;0;  4.6002213E-04;  4.0000000E+04;  0.0000000E+00;  0.0000000E+00;  4.0000000E+04;  0.0000000E+00;  4.0000000E+04;  4.5662388E-04;  0.0000000E+00;  3.3982481E-06;  5.6986732E+00;
 -1.3000000E-01;  9.9999998E-03;  2.8000000E-01;708;  0.0000000E+00;  0.0000000E+00;  0.0000000E+00;  1.0000000E+03;  1.0000000E-01;  0.0000000E+00;0;  0.0000000E+00;  0.0000000E+00;  0.0000000E+00;0;  3.7992399E-04;  4.0000000E+04;  0.0000000E+00;  0.0000000E+00;  4.0000000E+04;  0.0000000E+00;  4.0000000E+04;  3.7364502E-04;  0.0000000E+00;  6.2789723E-06;  3.9071612E+00;
 -1.3000000E-01;  9.9999998E-03;  2.8999999E-01;709;  0.0000000E+00;  0.0000000E+00;  0.0000000E+00;  1.0000025E+03;  1.0000000E-01;  2.0740154E+00;0;  0.0000000E+00;  0.0000000E+00;  0.0000000E+00;0;  3.0074897E-04;  4.0000000E+04;  0.0000000E+00;  0.0000000E+00;  4.0000000E+04;  0.0000000E+00;  4.0000000E+04;  2.9246949E-04;  0.0000000E+00;  8.2794804E-06;  1.1468933E+01;
 -1.3000000E-01;  9.9999998E-03;  3.0000001E-01;710;  0.0000000E+00;  0.0000000E+00;  0.0000000E+00;  1.0000000E+03;  1.0000000E-01;  0.0000000E+00;0;  0.0000000E+00;  0.0000000E+00;  0.0000000E+00;0;  2.2678847E-04;  4.0000000E+04;  0.0000000E+00;  0.0000000E+00;  4.0000000E+04;  0.0000000E+00;  4.0000000E+04;  2.1766427E-04;  0.0000000E+00;  9.1241955E-06;  1.6218828E+01;
 -1.3000000E-01;  9.9999998E-03;  3.1000000E-01;711;  0.0000000E+00;  0.0000000E+00;  0.0000000E+00;  1.0000000E+03;  1.0000000E-01;  0.0000000E+00;0;  0.0000000E+00;  0.0000000E+00;  0.0000000E+00;0;  1.6166263E-04;  4.0000000E+04;  0.0000000E+00;  0.0000000E+00;  4.0000000E+04;  0.0000000E+00;  4.0000000E+04;  1.5286141E-04;  0.0000000E+00;  8.8012193E-06;  1.7935970E+01;
 -1.3000000E-01;  9.9999998E-03;  3.1999999E-01;712;  0.0000000E+00;  0.0000000E+00;  0.0000000E+00;  1.0000000E+03;  1.0000000E-01;  0.0000000E+00;0;  0.0000000E+00;  0.0000000E+00;  0.0000000E+00;0;  1.0786461E-04;  4.0000000E+04;  0.0000000E+00;  0.0000000E+00;  4.0000000E+04;  0.0000000E+00;  4.0000000E+04;  1.0031699E-04;  0.0000000E+00;  7.5476187E-06;  1.6978790E+01;
 -1.3000000E-01;  9.9999998E-03;  3.3000001E-01;713;  0.0000000E+00;  0.0000000E+00;  0.0000000E+00;  1.0000000E+03;  1.0000000E-01;  0.0000000E+00;0;  0.0000000E+00;  0.0000000E+00;  0.0000000E+00;0;  6.6469889E-05;  4.0000000E+04;  0.0000000E+00;  0.0000000E+00;  4.0000000E+04;  0.0000000E+00;  4.0000000E+04;  6.0713781E-05;  0.0000000E+00;  5.7561078E-06;  1.4133739E+01;
 -1.3000000E-01;  9.9999998E-03;  3.4000000E-01;714;  0.0000000E+00;  0.0000000E+00;  0.0000000E+00;  1.0000000E+03;  1.0000000E-01;  0.0000000E+00;0;  0.0000000E+00;  0.0000000E+00;  0.0000000E+00;0;  3.7110753E-05;  4.0000000E+04;  0.0000000E+00;  0.0000000E+00;  4.0000000E+04;  0.0000000E+00;  4.0000000E+04;  3.3256634E-05;  0.0000000E+00;  3.8541166E-06;  1.0375366E+01;
 -1.3000000E-01;  9.9999998E-03;  3.4999999E-01;715;  0.0000000E+00;  0.0000000E+00;  0.0000000E+00;  1.0000000E+03;  1.0000000E-01;  0.0000000E+00;0;  0.0000000E+00;  0.0000000E+00;  0.0000000E+00;0;  1.8225324E-05;  4.0000000E+04;  0.0000000E+00;  0.0000000E+00;  4.0000000E+04;  0.0000000E+00;  4.0000000E+04;  1.6026357E-05;  0.0000000E+00;  2.1989663E-06;  6.6235714E+00;
 -1.3000000E-01;  9.9999998E-03;  3.6000001E-01;716;  0.0000000E+00;  0.0000000E+00;  0.0000000E+00;  1.0000000E+03;  1.0000000E-01;  0.0000000E+00;0;  0.0000000E+00;  0.0000000E+00;  0.0000000E+00;0;  7.5007692E-06;  4.0000000E+04;  0.0000000E+00;  0.0000000E+00;  4.0000000E+04;  0.0000000E+00;  4.0000000E+04;  6.4920046E-06;  0.0000000E+00;  1.0087648E-06;  3.5519991E+00;
 -1.3000000E-01;  9.9999998E-03;  3.7000000E-01;717;  0.0000000E+00;  0.0000000E+00;  0.0000000E+00;  1.0000000E+03;  1.0000000E-01;  0.0000000E+00;0;  0.0000000E+00;  0.0000000E+00;  0.0000000E+00;0;  2.3737180E-06;  4.0000000E+04;  0.0000000E+00;  0.0000000E+00;  4.0000000E+04;  0.0000000E+00;  4.0000000E+04;  2.0415796E-06;  0.0000000E+00;  3.3213834E-07;  1.4886154E+00;
 -1.3000000E-01;  9.9999998E-03;  3.8000000E-01;718;  0.0000000E+00;  0.0000000E+00;  0.0000000E+00;  1.0000000E+03;  1.0000000E-01;  0.0000000E+00;0;  0.0000000E+00;  0.0000000E+00;  0.0000000E+00;0;  4.8630841E-07;  4.0000000E+04;  0.0000000E+00;  0.0000000E+00;  4.0000000E+04;  0.0000000E+00;  4.0000000E+04;  4.2424540E-07;  0.0000000E+00;  6.2063030E-08;  4.1582662E-01;
 -1.3000000E-01;  9.9999998E-03;  3.8999999E-01;719;  0.0000000E+00;  0.0000000E+00;  0.0000000E+00;  1.0000000E+03;  1.0000000E-01;  0.0000000E+00;0;  0.0000000E+00;  0.0000000E+00;  0.0000000E+00;0;  4.5464258E-08;  4.0000000E+04;  0.0000000E+00;  0.0000000E+00;  4.0000000E+04;  0.0000000E+00;  4.0000000E+04;  3.9864716E-08;  0.0000000E+00;  5.5995408E-09;  4.7427636E-02;
 -1.3000000E-01;  9.9999998E-03;  4.0000001E-01;720;  0.0000000E+00;  0.0000000E+00;  0.0000000E+00;  1.0000000E+03;  1.0000000E-01;  0.0000000E+00;0;  0.0000000E+00;  0.0000000E+00;  0.0000000E+00;0;  0.0000000E+00;  4.0000000E+04;  0.0000000E+00;  0.0000000E+00;  4.0000000E+04;  0.0000000E+00;  4.0000000E+04;  0.0000000E+00;  0.0000000E+00;  0.0000000E+00;  0.0000000E+00;
 -1.2000000E-01;  9.9999998E-03;  2.3999999E-01;795;  0.0000000E+00;  0.0000000E+00;  0.0000000E+00;  1.0000000E+03;  1.0000000E-01;  0.0000000E+00;0;  0.0000000E+00;  0.0000000E+00;  0.0000000E+00;0;  1.4120603E-03;  4.0000000E+04;  0.0000000E+00;  0.0000000E+00;  4.0000000E+04;  0.0000000E+00;  4.0000000E+04;  1.4249098E-03;  0.0000000E+00; -1.2849472E-05;  7.9993744E+01;
 -1.2000000E-01;  9.9999998E-03;  2.5000000E-01;796;  0.0000000E+00;  0.0000000E+00;  0.0000000E+00;  1.0000000E+03;  1.0000000E-01;  0.0000000E+00;0;  0.0000000E+00;  0.0000000E+00;  0.0000000E+00;0;  1.2850527E-03;  4.0000000E+04;  0.0000000E+00;  0.0000000E+00;  4.0000000E+04;  0.0000000E+00;  4.0000000E+04;  1.2916034E-03;  0.0000000E+00; -6.5507174E-06;  5.9831245E+01;
 -1.2000000E-01;  9.9999998E-03;  2.5999999E-01;797;  0.0000000E+00;  0.0000000E+00;  0.0000000E+00;  1.0000000E+03;  1.0000000E-01;  0.0000000E+00;0;  0.0000000E+00;  0.0000000E+00;  0.0000000E+00;0;  1.1401728E-03;  4.0000000E+04;  0.0000000E+00;  0.0000000E+00;  4.0000000E+04;  0.0000000E+00;  4.0000000E+04;  1.1391348E-03;  0.0000000E+00;  1.0380228E-06;  3.6695107E+01;
 -1.2000000E-01;  9.9999998E-03;  2.7000001E-01;798;  0.0000000E+00;  0.0000000E+00;  0.0000000E+00;  1.0000000E+03;  1.0000000E-01;  0.0000000E+00;0;  0.0000000E+00;  0.0000000E+00;  0.0000000E+00;0;  9.8298397E-04;  4.0000000E+04;  0.0000000E+00;  0.0000000E+00;  4.0000000E+04;  0.0000000E+00;  4.0000000E+04;  9.7413722E-04;  0.0000000E+00;  8.8467950E-06;  1.2777295E+01;
 -1.2000000E-01;  9.9999998E-03;  2.8000000E-01;799;  0.0000000E+00;  0.0000000E+00;  0.0000000E+00;  1.0000009E+03;  1.0000000E-01;  7.9010111E-01;0;  0.0000000E+00;  0.0000000E+00;  0.0000000E+00;0;  8.2049659E-04;  4.0000000E+04;  0.0000000E+00;  0.0000000E+00;  4.0000000E+04;  0.0000000E+00;  4.0000000E+04;  8.0476602E-04;  0.0000000E+00;  1.5730560E-05;  9.5066271E+00;
 -1.2000000E-01;  9.9999998E-03;  2.8999999E-01;800;  0.0000000E+00;  0.0000000E+00;  0.0000000E+00;  1.0000000E+03;  1.0000000E-01;  0.0000000E+00;0;  0.0000000E+00;  0.0000000E+00;  0.0000000E+00;0;  6.6037080E-04;  4.0000000E+04;  0.0000000E+00;  0.0000000E+00;  4.0000000E+04;  0.0000000E+00;  4.0000000E+04;  6.3965918E-04;  0.0000000E+00;  2.0711643E-05;  2.7570904E+01;
 -1.2000000E-01;  9.9999998E-03;  3.0000001E-01;801;  0.0000000E+00;  0.0000000E+00;  0.0000000E+00;  1.0000095E+03;  1.0000000E-01;  7.9010110E+00;0;  0.0000000E+00;  0.0000000E+00;  0.0000000E+00;0;  5.1002717E-04;  4.0000000E+04;  0.0000000E+00;  0.0000000E+00;  4.0000000E+04;  0.0000000E+00;  4.0000000E+04;  4.8684186E-04;  0.0000000E+00;  2.3185281E-05;  3.9810078E+01;
 -1.2000000E-01;  9.9999998E-03;  3.1000000E-01;802;  0.0000000E+00;  0.0000000E+00;  0.0000000E+00;  1.0000146E+03;  1.0000000E-01;  1.2049042E+01;0;  0.0000000E+00;  0.0000000E+00;  0.0000000E+00;0;  3.7581695E-04;  4.0000000E+04;  0.0000000E+00;  0.0000000E+00;  4.0000000E+04;  0.0000000E+00;  4.0000000E+04;  3.5276404E-04;  0.0000000E+00;  2.3052906E-05;  4.5505531E+01;
 -1.2000000E-01;  9.9999998E-03;  3.1999999E-01;803;  0.0000000E+00;  0.0000000E+00;  0.0000000E+00;  1.0000133E+03;  1.0000000E-01;  1.1061416E+01;0;  0.0000000E+00;  0.0000000E+00;  0.0000000E+00;0;  2.6232339E-04;  4.0000000E+04;  0.0000000E+00;  0.0000000E+00;  4.0000000E+04;  0.0000000E+00;  4.0000000E+04;  2.4161220E-04;  0.0000000E+00;  2.0711197E-05;  4.5104500E+01;
 -1.2000000E-01;  9.9999998E-03;  3.3000001E-01;804;  0.0000000E+00;  0.0000000E+00;  0.0000000E+00;  1.0000000E+03;  1.0000000E-01;  0.0000000E+00;0;  0.0000000E+00;  0.0000000E+00;  0.0000000E+00;0;  1.7186094E-04;  4.0000000E+04;  0.0000000E+00;  0.0000000E+00;  4.0000000E+04;  0.0000000E+00;  4.0000000E+04;  1.5496931E-04;  0.0000000E+00;  1.6891629E-05;  3.9962860E+01;
 -1.2000000E-01;  9.9999998E-03;  3.4000000E-01;805;  0.0000000E+00;  0.0000000E+00;  0.0000000E+00;  1.0000000E+03;  1.0000000E-01;  0.0000000E+00;0;  0.0000000E+00;  0.0000000E+00;  0.0000000E+00;0;  1.0435488E-04;  4.0000000E+04;  0.0000000E+00;  0.0000000E+00;  4.0000000E+04;  0.0000000E+00;  4.0000000E+04;  9.1909795E-05;  0.0000000E+00;  1.2445090E-05;  3.1921410E+01;
 -1.2000000E-01;  9.9999998E-03;  3.4999999E-01;806;  0.0000000E+00;  0.0000000E+00;  0.0000000E+00;  1.0000000E+03;  1.0000000E-01;  0.0000000E+00;0;  0.0000000E+00;  0.0000000E+00;  0.0000000E+00;0;  5.7653448E-05;  4.0000000E+04;  0.0000000E+00;  0.0000000E+00;  4.0000000E+04;  0.0000000E+00;  4.0000000E+04;  4.9499020E-05;  0.0000000E+00;  8.1544267E-06;  2.2881647E+01;
 -1.2000000E-01;  9.9999998E-03;  3.6000001E-01;807;  0.0000000E+00;  0.0000000E+00;  0.0000000E+00;  1.0000000E+03;  1.0000000E-01;  0.0000000E+00;0;  0.0000000E+00;  0.0000000E+00;  0.0000000E+00;0;  2.8160612E-05;  4.0000000E+04;  0.0000000E+00;  0.0000000E+00;  4.0000000E+04;  0.0000000E+00;  4.0000000E+04;  2.3554781E-05;  0.0000000E+00;  4.6058303E-06;  1.4462533E+01;
 -1.2000000E-01;  9.9999998E-03;  3.7000000E-01;808;  0.0000000E+00;  0.0000000E+00;  0.0000000E+00;  1.0000000E+03;  1.0000000E-01;  0.0000000E+00;0;  0.0000000E+00;  0.0000000E+00;  0.0000000E+00;0;  1.1592228E-05;  4.0000000E+04;  0.0000000E+00;  0.0000000E+00;  4.0000000E+04;  0.0000000E+00;  4.0000000E+04;  9.4769921E-06;  0.0000000E+00;  2.1152368E-06;  7.7735844E+00;
 -1.2000000E-01;  9.9999998E-03;  3.8000000E-01;809;  0.0000000E+00;  0.0000000E+00;  0.0000000E+00;  1.0000000E+03;  1.0000000E-01;  0.0000000E+00;0;  0.0000000E+00;  0.0000000E+00;  0.0000000E+00;0;  3.6887072E-06;  4.0000000E+04;  0.0000000E+00;  0.0000000E+00;  4.0000000E+04;  0.0000000E+00;  4.0000000E+04;  2.9833395E-06;  0.0000000E+00;  7.0536777E-07;  3.3107998E+00;
 -1.2000000E-01;  9.9999998E-03;  3.8999999E-01;810;  0.0000000E+00;  0.0000000E+00;  0.0000000E+00;  1.0000000E+03;  1.0000000E-01;  0.0000000E+00;0;  0.0000000E+00;  0.0000000E+00;  0.0000000E+00;0;  7.6771028E-07;  4.0000000E+04;  0.0000000E+00;  0.0000000E+00;  4.0000000E+04;  0.0000000E+00;  4.0000000E+04;  6.3263133E-07;  0.0000000E+00;  1.3507893E-07;  9.6222603E-01;
 -1.2000000E-01;  9.9999998E-03;  4.0000001E-01;811;  0.0000000E+00;  0.0000000E+00;  0.0000000E+00;  1.0000000E+03;  1.0000000E-01;  0.0000000E+00;0;  0.0000000E+00;  0.0000000E+00;  0.0000000E+00;0;  7.4449723E-08;  4.0000000E+04;  0.0000000E+00;  0.0000000E+00;  4.0000000E+04;  0.0000000E+00;  4.0000000E+04;  6.3270967E-08;  0.0000000E+00;  1.1178757E-08;  1.2867543E-01;
 -1.1000000E-01;  9.9999998E-03;  2.3999999E-01;886;  0.0000000E+00;  0.0000000E+00;  0.0000000E+00;  1.0000020E+03;  1.0000000E-01;  1.6789649E+00;0;  0.0000000E+00;  0.0000000E+00;  0.0000000E+00;0;  2.5423304E-03;  4.0000000E+04;  0.0000000E+00;  0.0000000E+00;  4.0000000E+04;  0.0000000E+00;  4.0000000E+04;  2.5675632E-03;  0.0000000E+00; -2.5232692E-05;  1.5339801E+02;
 -1.1000000E-01;  9.9999998E-03;  2.5000000E-01;887;  0.0000000E+00;  0.0000000E+00;  0.0000000E+00;  1.0000092E+03;  1.0000000E-01;  7.6047230E+00;0;  0.0000000E+00;  0.0000000E+00;  0.0000000E+00;0;  2.3142537E-03;  4.0000000E+04;  0.0000000E+00;  0.0000000E+00;  4.0000000E+04;  0.0000000E+00;  4.0000000E+04;  2.3262599E-03;  0.0000000E+00; -1.2006078E-05;  1.1492143E+02;
 -1.1000000E-01;  9.9999998E-03;  2.5999999E-01;888;  0.0000000E+00;  0.0000000E+00;  0.0000000E+00;  1.0000120E+03;  1.0000000E-01;  9.9750261E+00;0;  0.0000000E+00;  0.0000000E+00;  0.0000000E+00;0;  2.0585938E-03;  4.0000000E+04;  0.0000000E+00;  0.0000000E+00;  4.0000000E+04;  0.0000000E+00;  4.0000000E+04;  2.0551202E-03;  0.0000000E+00;  3.4736165E-06;  7.0631371E+01;
 -1.1000000E-01;  9.9999998E-03;  2.7000001E-01;889;  0.0000000E+00;  0.0000000E+00;  0.0000000E+00;  1.0000091E+03;  1.0000000E-01;  7.5059605E+00;0;  0.0000000E+00;  0.0000000E+00;  0.0000000E+00;0;  1.7843058E-03;  4.0000000E+04;  0.0000000E+00;  0.0000000E+00;  4.0000000E+04;  0.0000000E+00;  4.0000000E+04;  1.7650734E-03;  0.0000000E+00;  1.9232424E-05;  2.4662960E+01;
 -1.1000000E-01;  9.9999998E-03;  2.8000000E-01;890;  0.0000000E+00;  0.0000000E+00;  0.0000000E+00;  1.0000197E+03;  1.0000000E-01;  1.6295835E+01;0;  0.0000000E+00;  0.0000000E+00;  0.0000000E+00;0;  1.5023607E-03;  4.0000000E+04;  0.0000000E+00;  0.0000000E+00;  4.0000000E+04;  0.0000000E+00;  4.0000000E+04;  1.4691664E-03;  0.0000000E+00;  3.3194370E-05;  1.9651688E+01;
 -1.1000000E-01;  9.9999998E-03;  2.8999999E-01;891;  0.0000000E+00;  0.0000000E+00;  0.0000000E+00;  1.0000298E+03;  1.0000000E-01;  2.4690660E+01;0;  0.0000000E+00;  0.0000000E+00;  0.0000000E+00;0;  1.2246212E-03;  4.0000000E+04;  0.0000000E+00;  0.0000000E+00;  4.0000000E+04;  0.0000000E+00;  4.0000000E+04;  1.1810405E-03;  0.0000000E+00;  4.3580618E-05;  5.5711365E+01;
 -1.1000000E-01;  9.9999998E-03;  3.0000001E-01;892;  0.0000000E+00;  0.0000000E+00;  0.0000000E+00;  1.0000281E+03;  1.0000000E-01;  2.3307983E+01;0;  0.0000000E+00;  0.0000000E+00;  0.0000000E+00;0;  9.6258783E-04;  4.0000000E+04;  0.0000000E+00;  0.0000000E+00;  4.0000000E+04;  0.0000000E+00;  4.0000000E+04;  9.1333879E-04;  0.0000000E+00;  4.9249011E-05;  8.1555046E+01;
 -1.1000000E-01;  9.9999998E-03;  3.1000000E-01;893;  0.0000000E+00;  0.0000000E+00;  0.0000000E+00;  1.0000179E+03;  1.0000000E-01;  1.4913158E+01;0;  0.0000000E+00;  0.0000000E+00;  0.0000000E+00;0;  7.2624133E-04;  4.0000000E+04;  0.0000000E+00;  0.0000000E+00;  4.0000000E+04;  0.0000000E+00;  4.0000000E+04;  6.7631132E-04;  0.0000000E+00;  4.9929993E-05;  9.5364105E+01;
 -1.1000000E-01;  9.9999998E-03;  3.1999999E-01;894;  0.0000000E+00;  0.0000000E+00;  0.0000000E+00;  1.0000237E+03;  1.0000000E-01;  1.9653765E+01;0;  0.0000000E+00;  0.0000000E+00;  0.0000000E+00;0;  5.2305008E-04;  4.0000000E+04;  0.0000000E+00;  0.0000000E+00;  4.0000000E+04;  0.0000000E+00;  4.0000000E+04;  4.7682386E-04;  0.0000000E+00;  4.6226207E-05;  9.7514725E+01;
 -1.1000000E-01;  9.9999998E-03;  3.3000001E-01;895;  0.0000000E+00;  0.0000000E+00;  0.0000000E+00;  1.0000227E+03;  1.0000000E-01;  1.8764902E+01;0;  0.0000000E+00;  0.0000000E+00;  0.0000000E+00;0;  3.5718284E-04;  4.0000000E+04;  0.0000000E+00;  0.0000000E+00;  4.0000000E+04;  0.0000000E+00;  4.0000000E+04;  3.1782832E-04;  0.0000000E+00;  3.9354531E-05;  9.0048264E+01;
 -1.1000000E-01;  9.9999998E-03;  3.4000000E-01;896;  0.0000000E+00;  0.0000000E+00;  0.0000000E+00;  1.0000266E+03;  1.0000000E-01;  2.2024069E+01;0;  0.0000000E+00;  0.0000000E+00;  0.0000000E+00;0;  2.2922113E-04;  4.0000000E+04;  0.0000000E+00;  0.0000000E+00;  4.0000000E+04;  0.0000000E+00;  4.0000000E+04;  1.9843325E-04;  0.0000000E+00;  3.0787880E-05;  7.5978455E+01;
 -1.1000000E-01;  9.9999998E-03;  3.4999999E-01;897;  0.0000000E+00;  0.0000000E+00;  0.0000000E+00;  1.0000000E+03;  1.0000000E-01;  0.0000000E+00;0;  0.0000000E+00;  0.0000000E+00;  0.0000000E+00;0;  1.3651016E-04;  4.0000000E+04;  0.0000000E+00;  0.0000000E+00;  4.0000000E+04;  0.0000000E+00;  4.0000000E+04;  1.1456499E-04;  0.0000000E+00;  2.1945172E-05;  5.8591793E+01;
 -1.1000000E-01;  9.9999998E-03;  3.6000001E-01;898;  0.0000000E+00;  0.0000000E+00;  0.0000000E+00;  1.0000000E+03;  1.0000000E-01;  0.0000000E+00;0;  0.0000000E+00;  0.0000000E+00;  0.0000000E+00;0;  7.4022770E-05;  4.0000000E+04;  0.0000000E+00;  0.0000000E+00;  4.0000000E+04;  0.0000000E+00;  4.0000000E+04;  6.0037339E-05;  0.0000000E+00;  1.3985429E-05;  4.0904892E+01;
 -1.1000000E-01;  9.9999998E-03;  3.7000000E-01;899;  0.0000000E+00;  0.0000000E+00;  0.0000000E+00;  1.0000000E+03;  1.0000000E-01;  0.0000000E+00;0;  0.0000000E+00;  0.0000000E+00;  0.0000000E+00;0;  3.5447498E-05;  4.0000000E+04;  0.0000000E+00;  0.0000000E+00;  4.0000000E+04;  0.0000000E+00;  4.0000000E+04;  2.7753464E-05;  0.0000000E+00;  7.6940332E-06;  2.5301750E+01;
 -1.1000000E-01;  9.9999998E-03;  3.8000000E-01;900;  0.0000000E+00;  0.0000000E+00;  0.0000000E+00;  1.0000000E+03;  1.0000000E-01;  0.0000000E+00;0;  0.0000000E+00;  0.0000000E+00;  0.0000000E+00;0;  1.4228879E-05;  4.0000000E+04;  0.0000000E+00;  0.0000000E+00;  4.0000000E+04;  0.0000000E+00;  4.0000000E+04;  1.0800734E-05;  0.0000000E+00;  3.4281445E-06;  1.3316257E+01;
 -1.1000000E-01;  9.9999998E-03;  3.8999999E-01;901;  0.0000000E+00;  0.0000000E+00;  0.0000000E+00;  1.0000000E+03;  1.0000000E-01;  0.0000000E+00;0;  0.0000000E+00;  0.0000000E+00;  0.0000000E+00;0;  4.3509672E-06;  4.0000000E+04;  0.0000000E+00;  0.0000000E+00;  4.0000000E+04;  0.0000000E+00;  4.0000000E+04;  3.2579974E-06;  0.0000000E+00;  1.0929698E-06;  5.5276575E+00;
 -1.1000000E-01;  9.9999998E-03;  4.0000001E-01;902;  0.0000000E+00;  0.0000000E+00;  0.0000000E+00;  1.0000000E+03;  1.0000000E-01;  0.0000000E+00;0;  0.0000000E+00;  0.0000000E+00;  0.0000000E+00;0;  8.3573229E-07;  4.0000000E+04;  0.0000000E+00;  0.0000000E+00;  4.0000000E+04;  0.0000000E+00;  4.0000000E+04;  6.4493787E-07;  0.0000000E+00;  1.9079440E-07;  1.5503533E+00;
 -1.0000000E-01;  9.9999998E-03;  2.3999999E-01;977;  0.0000000E+00;  0.0000000E+00;  0.0000000E+00;  1.0000778E+03;  1.0000000E-01;  6.4393242E+01;0;  0.0000000E+00;  0.0000000E+00;  0.0000000E+00;0;  4.0940507E-03;  4.0000000E+04;  0.0000000E+00;  0.0000000E+00;  4.0000000E+04;  0.0000000E+00;  4.0000000E+04;  4.1379738E-03;  0.0000000E+00; -4.3922988E-05;  2.6281924E+02;
 -1.0000000E-01;  9.9999998E-03;  2.5000000E-01;978;  0.0000000E+00;  0.0000000E+00;  0.0000000E+00;  1.0000895E+03;  1.0000000E-01;  7.4170738E+01;0;  0.0000000E+00;  0.0000000E+00;  0.0000000E+00;0;  3.7308321E-03;  4.0000000E+04;  0.0000000E+00;  0.0000000E+00;  4.0000000E+04;  0.0000000E+00;  4.0000000E+04;  3.7502986E-03;  0.0000000E+00; -1.9466401E-05;  1.9744443E+02;
 -1.0000000E-01;  9.9999998E-03;  2.5999999E-01;979;  0.0000000E+00;  0.0000000E+00;  0.0000000E+00;  1.0000809E+03;  1.0000000E-01;  6.7059830E+01;0;  0.0000000E+00;  0.0000000E+00;  0.0000000E+00;0;  3.3278547E-03;  4.0000000E+04;  0.0000000E+00;  0.0000000E+00;  4.0000000E+04;  0.0000000E+00;  4.0000000E+04;  3.3192735E-03;  0.0000000E+00;  8.5812871E-06;  1.2194440E+02;
 -1.0000000E-01;  9.9999998E-03;  2.7000001E-01;980;  0.0000000E+00;  0.0000000E+00;  0.0000000E+00;  1.0000855E+03;  1.0000000E-01;  7.0812813E+01;0;  0.0000000E+00;  0.0000000E+00;  0.0000000E+00;0;  2.8982058E-03;  4.0000000E+04;  0.0000000E+00;  0.0000000E+00;  4.0000000E+04;  0.0000000E+00;  4.0000000E+04;  2.8612833E-03;  0.0000000E+00;  3.6922611E-05;  4.3672264E+01;
 -1.0000000E-01;  9.9999998E-03;  2.8000000E-01;981;  0.0000000E+00;  0.0000000E+00;  0.0000000E+00;  1.0000870E+03;  1.0000000E-01;  7.2096725E+01;0;  0.0000000E+00;  0.0000000E+00;  0.0000000E+00;0;  2.4576751E-03;  4.0000000E+04;  0.0000000E+00;  0.0000000E+00;  4.0000000E+04;  0.0000000E+00;  4.0000000E+04;  2.3955535E-03;  0.0000000E+00;  6.2121559E-05;  3.6427769E+01;
 -1.0000000E-01;  9.9999998E-03;  2.8999999E-01;982;  0.0000000E+00;  0.0000000E+00;  0.0000000E+00;  1.0000722E+03;  1.0000000E-01;  5.9850159E+01;0;  0.0000000E+00;  0.0000000E+00;  0.0000000E+00;0;  2.0233162E-03;  4.0000000E+04;  0.0000000E+00;  0.0000000E+00;  4.0000000E+04;  0.0000000E+00;  4.0000000E+04;  1.9420941E-03;  0.0000000E+00;  8.1222126E-05;  9.9580269E+01;
 -1.0000000E-01;  9.9999998E-03;  3.0000001E-01;983;  0.0000000E+00;  0.0000000E+00;  0.0000000E+00;  1.0000875E+03;  1.0000000E-01;  7.2491776E+01;0;  0.0000000E+00;  0.0000000E+00;  0.0000000E+00;0;  1.6117151E-03;  4.0000000E+04;  0.0000000E+00;  0.0000000E+00;  4.0000000E+04;  0.0000000E+00;  4.0000000E+04;  1.5194350E-03;  0.0000000E+00;  9.2280083E-05;  1.4710995E+02;
 -1.0000000E-01;  9.9999998E-03;  3.1000000E-01;984;  0.0000000E+00;  0.0000000E+00;  0.0000000E+00;  1.0000640E+03;  1.0000000E-01;  5.3035538E+01;0;  0.0000000E+00;  0.0000000E+00;  0.0000000E+00;0;  1.2374667E-03;  4.0000000E+04;  0.0000000E+00;  0.0000000E+00;  4.0000000E+04;  0.0000000E+00;  4.0000000E+04;  1.1427166E-03;  0.0000000E+00;  9.4750059E-05;  1.7486211E+02;
 -1.0000000E-01;  9.9999998E-03;  3.1999999E-01;985;  0.0000000E+00;  0.0000000E+00;  0.0000000E+00;  1.0000547E+03;  1.0000000E-01;  4.5332050E+01;0;  0.0000000E+00;  0.0000000E+00;  0.0000000E+00;0;  9.1179367E-04;  4.0000000E+04;  0.0000000E+00;  0.0000000E+00;  4.0000000E+04;  0.0000000E+00;  4.0000000E+04;  8.2229049E-04;  0.0000000E+00;  8.9503177E-05;  1.8283061E+02;
 -1.0000000E-01;  9.9999998E-03;  3.3000001E-01;986;  0.0000000E+00;  0.0000000E+00;  0.0000000E+00;  1.0000356E+03;  1.0000000E-01;  2.9530029E+01;0;  0.0000000E+00;  0.0000000E+00;  0.0000000E+00;0;  6.4139965E-04;  4.0000000E+04;  0.0000000E+00;  0.0000000E+00;  4.0000000E+04;  0.0000000E+00;  4.0000000E+04;  5.6297251E-04;  0.0000000E+00;  7.8427140E-05;  1.7381668E+02;
 -1.0000000E-01;  9.9999998E-03;  3.4000000E-01;987;  0.0000000E+00;  0.0000000E+00;  0.0000000E+00;  1.0000366E+03;  1.0000000E-01;  3.0320129E+01;0;  0.0000000E+00;  0.0000000E+00;  0.0000000E+00;0;  4.2793911E-04;  4.0000000E+04;  0.0000000E+00;  0.0000000E+00;  4.0000000E+04;  0.0000000E+00;  4.0000000E+04;  3.6407780E-04;  0.0000000E+00;  6.3861313E-05;  1.5231616E+02;
 -1.0000000E-01;  9.9999998E-03;  3.4999999E-01;988;  0.0000000E+00;  0.0000000E+00;  0.0000000E+00;  1.0000374E+03;  1.0000000E-01;  3.0912706E+01;0;  0.0000000E+00;  0.0000000E+00;  0.0000000E+00;0;  2.6836974E-04;  4.0000000E+04;  0.0000000E+00;  0.0000000E+00;  4.0000000E+04;  0.0000000E+00;  4.0000000E+04;  2.2026165E-04;  0.0000000E+00;  4.8108090E-05;  1.2343633E+02;
 -1.0000000E-01;  9.9999998E-03;  3.6000001E-01;989;  0.0000000E+00;  0.0000000E+00;  0.0000000E+00;  1.0000137E+03;  1.0000000E-01;  1.1357703E+01;0;  0.0000000E+00;  0.0000000E+00;  0.0000000E+00;0;  1.5608921E-04;  4.0000000E+04;  0.0000000E+00;  0.0000000E+00;  4.0000000E+04;  0.0000000E+00;  4.0000000E+04;  1.2296472E-04;  0.0000000E+00;  3.3124496E-05;  9.2056046E+01;
 -1.0000000E-01;  9.9999998E-03;  3.7000000E-01;990;  0.0000000E+00;  0.0000000E+00;  0.0000000E+00;  1.0000000E+03;  1.0000000E-01;  0.0000000E+00;0;  0.0000000E+00;  0.0000000E+00;  0.0000000E+00;0;  8.2442311E-05;  4.0000000E+04;  0.0000000E+00;  0.0000000E+00;  4.0000000E+04;  0.0000000E+00;  4.0000000E+04;  6.2072955E-05;  0.0000000E+00;  2.0369356E-05;  6.2307442E+01;
 -1.0000000E-01;  9.9999998E-03;  3.8000000E-01;991;  0.0000000E+00;  0.0000000E+00;  0.0000000E+00;  1.0000000E+03;  1.0000000E-01;  0.0000000E+00;0;  0.0000000E+00;  0.0000000E+00;  0.0000000E+00;0;  3.8179096E-05;  4.0000000E+04;  0.0000000E+00;  0.0000000E+00;  4.0000000E+04;  0.0000000E+00;  4.0000000E+04;  2.7445136E-05;  0.0000000E+00;  1.0733958E-05;  3.7274200E+01;
 -1.0000000E-01;  9.9999998E-03;  3.8999999E-01;992;  0.0000000E+00;  0.0000000E+00;  0.0000000E+00;  1.0000000E+03;  1.0000000E-01;  0.0000000E+00;0;  0.0000000E+00;  0.0000000E+00;  0.0000000E+00;0;  1.4573261E-05;  4.0000000E+04;  0.0000000E+00;  0.0000000E+00;  4.0000000E+04;  0.0000000E+00;  4.0000000E+04;  1.0076918E-05;  0.0000000E+00;  4.4963422E-06;  1.8798059E+01;
 -1.0000000E-01;  9.9999998E-03;  4.0000001E-01;993;  0.0000000E+00;  0.0000000E+00;  0.0000000E+00;  1.0000000E+03;  1.0000000E-01;  0.0000000E+00;0;  0.0000000E+00;  0.0000000E+00;  0.0000000E+00;0;  4.0762075E-06;  4.0000000E+04;  0.0000000E+00;  0.0000000E+00;  4.0000000E+04;  0.0000000E+00;  4.0000000E+04;  2.7854512E-06;  0.0000000E+00;  1.2907561E-06;  7.3268356E+00;
 -9.0000004E-02;  9.9999998E-03;  2.3999999E-01;1068;  0.0000000E+00;  0.0000000E+00;  0.0000000E+00;  1.0002482E+03;  1.0000000E-01;  2.0562381E+02;0;  0.0000000E+00;  0.0000000E+00;  0.0000000E+00;0;  6.0826950E-03;  4.0000000E+04;  0.0000000E+00;  0.0000000E+00;  4.0000000E+04;  0.0000000E+00;  4.0000000E+04;  6.1524091E-03;  0.0000000E+00; -6.9714333E-05;  4.1456656E+02;
 -9.0000004E-02;  9.9999998E-03;  2.5000000E-01;1069;  0.0000000E+00;  0.0000000E+00;  0.0000000E+00;  1.0002241E+03;  1.0000000E-01;  1.8567377E+02;0;  0.0000000E+00;  0.0000000E+00;  0.0000000E+00;0;  5.5512637E-03;  4.0000000E+04;  0.0000000E+00;  0.0000000E+00;  4.0000000E+04;  0.0000000E+00;  4.0000000E+04;  5.5798572E-03;  0.0000000E+00; -2.8593360E-05;  3.1278427E+02;
 -9.0000004E-02;  9.9999998E-03;  2.5999999E-01;1070;  0.0000000E+00;  0.0000000E+00;  0.0000000E+00;  1.0002201E+03;  1.0000000E-01;  1.8231583E+02;0;  0.0000000E+00;  0.0000000E+00;  0.0000000E+00;0;  4.9650935E-03;  4.0000000E+04;  0.0000000E+00;  0.0000000E+00;  4.0000000E+04;  0.0000000E+00;  4.0000000E+04;  4.9472097E-03;  0.0000000E+00;  1.7883925E-05;  1.9482526E+02;
 -9.0000004E-02;  9.9999998E-03;  2.7000001E-01;1071;  0.0000000E+00;  0.0000000E+00;  0.0000000E+00;  1.0002142E+03;  1.0000000E-01;  1.7747646E+02;0;  0.0000000E+00;  0.0000000E+00;  0.0000000E+00;0;  4.3420256E-03;  4.0000000E+04;  0.0000000E+00;  0.0000000E+00;  4.0000000E+04;  0.0000000E+00;  4.0000000E+04;  4.2774263E-03;  0.0000000E+00;  6.4599364E-05;  7.3391571E+01;
 -9.0000004E-02;  9.9999998E-03;  2.8000000E-01;1072;  0.0000000E+00;  0.0000000E+00;  0.0000000E+00;  1.0001988E+03;  1.0000000E-01;  1.6473608E+02;0;  0.0000000E+00;  0.0000000E+00;  0.0000000E+00;0;  3.7035756E-03;  4.0000000E+04;  0.0000000E+00;  0.0000000E+00;  4.0000000E+04;  0.0000000E+00;  4.0000000E+04;  3.5973387E-03;  0.0000000E+00;  1.0623686E-04;  6.2623661E+01;
 -9.0000004E-02;  9.9999998E-03;  2.8999999E-01;1073;  0.0000000E+00;  0.0000000E+00;  0.0000000E+00;  1.0001816E+03;  1.0000000E-01;  1.5051427E+02;0;  0.0000000E+00;  0.0000000E+00;  0.0000000E+00;0;  3.0729875E-03;  4.0000000E+04;  0.0000000E+00;  0.0000000E+00;  4.0000000E+04;  0.0000000E+00;  4.0000000E+04;  2.9347870E-03;  0.0000000E+00;  1.3820063E-04;  1.6257199E+02;
 -9.0000004E-02;  9.9999998E-03;  3.0000001E-01;1074;  0.0000000E+00;  0.0000000E+00;  0.0000000E+00;  1.0001776E+03;  1.0000000E-01;  1.4715633E+02;0;  0.0000000E+00;  0.0000000E+00;  0.0000000E+00;0;  2.4730563E-03;  4.0000000E+04;  0.0000000E+00;  0.0000000E+00;  4.0000000E+04;  0.0000000E+00;  4.0000000E+04;  2.3156374E-03;  0.0000000E+00;  1.5741879E-04;  2.4147412E+02;
 -9.0000004E-02;  9.9999998E-03;  3.1000000E-01;1075;  0.0000000E+00;  0.0000000E+00;  0.0000000E+00;  1.0001481E+03;  1.0000000E-01;  1.2266320E+02;0;  0.0000000E+00;  0.0000000E+00;  0.0000000E+00;0;  1.9240766E-03;  4.0000000E+04;  0.0000000E+00;  0.0000000E+00;  4.0000000E+04;  0.0000000E+00;  4.0000000E+04;  1.7611255E-03;  0.0000000E+00;  1.6295104E-04;  2.9048853E+02;
 -9.0000004E-02;  9.9999998E-03;  3.1999999E-01;1076;  0.0000000E+00;  0.0000000E+00;  0.0000000E+00;  1.0001310E+03;  1.0000000E-01;  1.0854014E+02;0;  0.0000000E+00;  0.0000000E+00;  0.0000000E+00;0;  1.4420040E-03;  4.0000000E+04;  0.0000000E+00;  0.0000000E+00;  4.0000000E+04;  0.0000000E+00;  4.0000000E+04;  1.2859744E-03;  0.0000000E+00;  1.5602959E-04;  3.0872412E+02;
 -9.0000004E-02;  9.9999998E-03;  3.3000001E-01;1077;  0.0000000E+00;  0.0000000E+00;  0.0000000E+00;  1.0000964E+03;  1.0000000E-01;  7.9800209E+01;0;  0.0000000E+00;  0.0000000E+00;  0.0000000E+00;0;  1.0368091E-03;  4.0000000E+04;  0.0000000E+00;  0.0000000E+00;  4.0000000E+04;  0.0000000E+00;  4.0000000E+04;  8.9735456E-04;  0.0000000E+00;  1.3945454E-04;  2.9976505E+02;
 -9.0000004E-02;  9.9999998E-03;  3.4000000E-01;1078;  0.0000000E+00;  0.0000000E+00;  0.0000000E+00;  1.0000684E+03;  1.0000000E-01;  5.6689754E+01;0;  0.0000000E+00;  0.0000000E+00;  0.0000000E+00;0;  7.1164785E-04;  4.0000000E+04;  0.0000000E+00;  0.0000000E+00;  4.0000000E+04;  0.0000000E+00;  4.0000000E+04;  5.9491472E-04;  0.0000000E+00;  1.1673313E-04;  2.6992230E+02;
 -9.0000004E-02;  9.9999998E-03;  3.4999999E-01;1079;  0.0000000E+00;  0.0000000E+00;  0.0000000E+00;  1.0000502E+03;  1.0000000E-01;  4.1579071E+01;0;  0.0000000E+00;  0.0000000E+00;  0.0000000E+00;0;  4.6320143E-04;  4.0000000E+04;  0.0000000E+00;  0.0000000E+00;  4.0000000E+04;  0.0000000E+00;  4.0000000E+04;  3.7185926E-04;  0.0000000E+00;  9.1342154E-05;  2.2657860E+02;
 -9.0000004E-02;  9.9999998E-03;  3.6000001E-01;1080;  0.0000000E+00;  0.0000000E+00;  0.0000000E+00;  1.0000438E+03;  1.0000000E-01;  3.6245888E+01;0;  0.0000000E+00;  0.0000000E+00;  0.0000000E+00;0;  2.8311985E-04;  4.0000000E+04;  0.0000000E+00;  0.0000000E+00;  4.0000000E+04;  0.0000000E+00;  4.0000000E+04;  2.1683905E-04;  0.0000000E+00;  6.6280794E-05;  1.7695805E+02;
 -9.0000004E-02;  9.9999998E-03;  3.7000000E-01;1081;  0.0000000E+00;  0.0000000E+00;  0.0000000E+00;  1.0000407E+03;  1.0000000E-01;  3.3776821E+01;0;  0.0000000E+00;  0.0000000E+00;  0.0000000E+00;0;  1.6004051E-04;  4.0000000E+04;  0.0000000E+00;  0.0000000E+00;  4.0000000E+04;  0.0000000E+00;  4.0000000E+04;  1.1616066E-04;  0.0000000E+00;  4.3879852E-05;  1.2739732E+02;
 -9.0000004E-02;  9.9999998E-03;  3.8000000E-01;1082;  0.0000000E+00;  0.0000000E+00;  0.0000000E+00;  1.0000000E+03;  1.0000000E-01;  0.0000000E+00;0;  0.0000000E+00;  0.0000000E+00;  0.0000000E+00;0;  8.1586266E-05;  4.0000000E+04;  0.0000000E+00;  0.0000000E+00;  4.0000000E+04;  0.0000000E+00;  4.0000000E+04;  5.5842338E-05;  0.0000000E+00;  2.5743926E-05;  8.2976570E+01;
 -9.0000004E-02;  9.9999998E-03;  3.8999999E-01;1083;  0.0000000E+00;  0.0000000E+00;  0.0000000E+00;  1.0000000E+03;  1.0000000E-01;  0.0000000E+00;0;  0.0000000E+00;  0.0000000E+00;  0.0000000E+00;0;  3.5916684E-05;  4.0000000E+04;  0.0000000E+00;  0.0000000E+00;  4.0000000E+04;  0.0000000E+00;  4.0000000E+04;  2.3197539E-05;  0.0000000E+00;  1.2719144E-05;  4.7305874E+01;
 -9.0000004E-02;  9.9999998E-03;  4.0000001E-01;1084;  0.0000000E+00;  0.0000000E+00;  0.0000000E+00;  1.0000000E+03;  1.0000000E-01;  0.0000000E+00;0;  0.0000000E+00;  0.0000000E+00;  0.0000000E+00;0;  1.2614232E-05;  4.0000000E+04;  0.0000000E+00;  0.0000000E+00;  4.0000000E+04;  0.0000000E+00;  4.0000000E+04;  7.7970562E-06;  0.0000000E+00;  4.8171760E-06;  2.2284519E+01;
 -7.9999998E-02;  9.9999998E-03;  2.3999999E-01;1159;  0.0000000E+00;  0.0000000E+00;  0.0000000E+00;  1.0005294E+03;  1.0000000E-01;  4.3860489E+02;0;  0.0000000E+00;  0.0000000E+00;  0.0000000E+00;0;  8.4929764E-03;  4.0000000E+04;  0.0000000E+00;  0.0000000E+00;  4.0000000E+04;  0.0000000E+00;  4.0000000E+04;  8.5957451E-03;  0.0000000E+00; -1.0276824E-04;  6.1333545E+02;
 -7.9999998E-02;  9.9999998E-03;  2.5000000E-01;1160;  0.0000000E+00;  0.0000000E+00;  0.0000000E+00;  1.0004913E+03;  1.0000000E-01;  4.0709961E+02;0;  0.0000000E+00;  0.0000000E+00;  0.0000000E+00;0;  7.7639129E-03;  4.0000000E+04;  0.0000000E+00;  0.0000000E+00;  4.0000000E+04;  0.0000000E+00;  4.0000000E+04;  7.8025325E-03;  0.0000000E+00; -3.8619793E-05;  4.6547208E+02;
 -7.9999998E-02;  9.9999998E-03;  2.5999999E-01;1161;  0.0000000E+00;  0.0000000E+00;  0.0000000E+00;  1.0004593E+03;  1.0000000E-01;  3.8053244E+02;0;  0.0000000E+00;  0.0000000E+00;  0.0000000E+00;0;  6.9618430E-03;  4.0000000E+04;  0.0000000E+00;  0.0000000E+00;  4.0000000E+04;  0.0000000E+00;  4.0000000E+04;  6.9287010E-03;  0.0000000E+00;  3.3141914E-05;  2.9339240E+02;
 -7.9999998E-02;  9.9999998E-03;  2.7000001E-01;1162;  0.0000000E+00;  0.0000000E+00;  0.0000000E+00;  1.0004329E+03;  1.0000000E-01;  3.5860715E+02;0;  0.0000000E+00;  0.0000000E+00;  0.0000000E+00;0;  6.1100014E-03;  4.0000000E+04;  0.0000000E+00;  0.0000000E+00;  4.0000000E+04;  0.0000000E+00;  4.0000000E+04;  6.0049975E-03;  0.0000000E+00;  1.0500391E-04;  1.1810568E+02;
 -7.9999998E-02;  9.9999998E-03;  2.8000000E-01;1163;  0.0000000E+00;  0.0000000E+00;  0.0000000E+00;  1.0004025E+03;  1.0000000E-01;  3.3352142E+02;0;  0.0000000E+00;  0.0000000E+00;  0.0000000E+00;0;  5.2364599E-03;  4.0000000E+04;  0.0000000E+00;  0.0000000E+00;  4.0000000E+04;  0.0000000E+00;  4.0000000E+04;  5.0673080E-03;  0.0000000E+00;  1.6915207E-04;  1.0134344E+02;
 -7.9999998E-02;  9.9999998E-03;  2.8999999E-01;1164;  0.0000000E+00;  0.0000000E+00;  0.0000000E+00;  1.0003688E+03;  1.0000000E-01;  3.0557159E+02;0;  0.0000000E+00;  0.0000000E+00;  0.0000000E+00;0;  4.3717539E-03;  4.0000000E+04;  0.0000000E+00;  0.0000000E+00;  4.0000000E+04;  0.0000000E+00;  4.0000000E+04;  4.1529555E-03;  0.0000000E+00;  2.1879835E-04;  2.4745831E+02;
 -7.9999998E-02;  9.9999998E-03;  3.0000001E-01;1165;  0.0000000E+00;  0.0000000E+00;  0.0000000E+00;  1.0003287E+03;  1.0000000E-01;  2.7238736E+02;0;  0.0000000E+00;  0.0000000E+00;  0.0000000E+00;0;  3.5460819E-03;  4.0000000E+04;  0.0000000E+00;  0.0000000E+00;  4.0000000E+04;  0.0000000E+00;  4.0000000E+04;  3.2967206E-03;  0.0000000E+00;  2.4936139E-04;  3.6842953E+02;
 -7.9999998E-02;  9.9999998E-03;  3.1000000E-01;1166;  0.0000000E+00;  0.0000000E+00;  0.0000000E+00;  1.0002788E+03;  1.0000000E-01;  2.3100581E+02;0;  0.0000000E+00;  0.0000000E+00;  0.0000000E+00;0;  2.7866734E-03;  4.0000000E+04;  0.0000000E+00;  0.0000000E+00;  4.0000000E+04;  0.0000000E+00;  4.0000000E+04;  2.5272912E-03;  0.0000000E+00;  2.5938227E-04;  4.4706931E+02;
 -7.9999998E-02;  9.9999998E-03;  3.1999999E-01;1167;  0.0000000E+00;  0.0000000E+00;  0.0000000E+00;  1.0002407E+03;  1.0000000E-01;  1.9940176E+02;0;  0.0000000E+00;  0.0000000E+00;  0.0000000E+00;0;  2.1152815E-03;  4.0000000E+04;  0.0000000E+00;  0.0000000E+00;  4.0000000E+04;  0.0000000E+00;  4.0000000E+04;  1.8646854E-03;  0.0000000E+00;  2.5059615E-04;  4.8086752E+02;
 -7.9999998E-02;  9.9999998E-03;  3.3000001E-01;1168;  0.0000000E+00;  0.0000000E+00;  0.0000000E+00;  1.0002026E+03;  1.0000000E-01;  1.6779773E+02;0;  0.0000000E+00;  0.0000000E+00;  0.0000000E+00;0;  1.5459292E-03;  4.0000000E+04;  0.0000000E+00;  0.0000000E+00;  4.0000000E+04;  0.0000000E+00;  4.0000000E+04;  1.3188975E-03;  0.0000000E+00;  2.2703172E-04;  4.7419608E+02;
 -7.9999998E-02;  9.9999998E-03;  3.4000000E-01;1169;  0.0000000E+00;  0.0000000E+00;  0.0000000E+00;  1.0001544E+03;  1.0000000E-01;  1.2789761E+02;0;  0.0000000E+00;  0.0000000E+00;  0.0000000E+00;0;  1.0836748E-03;  4.0000000E+04;  0.0000000E+00;  0.0000000E+00;  4.0000000E+04;  0.0000000E+00;  4.0000000E+04;  8.8993978E-04;  0.0000000E+00;  1.9373500E-04;  4.3553946E+02;
 -7.9999998E-02;  9.9999998E-03;  3.4999999E-01;1170;  0.0000000E+00;  0.0000000E+00;  0.0000000E+00;  1.0000985E+03;  1.0000000E-01;  8.1577942E+01;0;  0.0000000E+00;  0.0000000E+00;  0.0000000E+00;0;  7.2498049E-04;  4.0000000E+04;  0.0000000E+00;  0.0000000E+00;  4.0000000E+04;  0.0000000E+00;  4.0000000E+04;  5.6928548E-04;  0.0000000E+00;  1.5569499E-04;  3.7506760E+02;
 -7.9999998E-02;  9.9999998E-03;  3.6000001E-01;1171;  0.0000000E+00;  0.0000000E+00;  0.0000000E+00;  1.0000682E+03;  1.0000000E-01;  5.6492229E+01;0;  0.0000000E+00;  0.0000000E+00;  0.0000000E+00;0;  4.5951264E-04;  4.0000000E+04;  0.0000000E+00;  0.0000000E+00;  4.0000000E+04;  0.0000000E+00;  4.0000000E+04;  3.4230028E-04;  0.0000000E+00;  1.1721234E-04;  3.0284106E+02;
 -7.9999998E-02;  9.9999998E-03;  3.7000000E-01;1172;  0.0000000E+00;  0.0000000E+00;  0.0000000E+00;  1.0000494E+03;  1.0000000E-01;  4.0986496E+01;0;  0.0000000E+00;  0.0000000E+00;  0.0000000E+00;0;  2.7278822E-04;  4.0000000E+04;  0.0000000E+00;  0.0000000E+00;  4.0000000E+04;  0.0000000E+00;  4.0000000E+04;  1.9111544E-04;  0.0000000E+00;  8.1672784E-05;  2.2782938E+02;
 -7.9999998E-02;  9.9999998E-03;  3.8000000E-01;1173;  0.0000000E+00;  0.0000000E+00;  0.0000000E+00;  1.0000444E+03;  1.0000000E-01;  3.6739700E+01;0;  0.0000000E+00;  0.0000000E+00;  0.0000000E+00;0;  1.4882904E-04;  4.0000000E+04;  0.0000000E+00;  0.0000000E+00;  4.0000000E+04;  0.0000000E+00;  4.0000000E+04;  9.7292192E-05;  0.0000000E+00;  5.1536845E-05;  1.5747964E+02;
 -7.9999998E-02;  9.9999998E-03;  3.8999999E-01;1174;  0.0000000E+00;  0.0000000E+00;  0.0000000E+00;  1.0000000E+03;  1.0000000E-01;  0.0000000E+00;0;  0.0000000E+00;  0.0000000E+00;  0.0000000E+00;0;  7.2253009E-05;  4.0000000E+04;  0.0000000E+00;  0.0000000E+00;  4.0000000E+04;  0.0000000E+00;  4.0000000E+04;  4.3886426E-05;  0.0000000E+00;  2.8366587E-05;  9.7563705E+01;
 -7.9999998E-02;  9.9999998E-03;  4.0000001E-01;1175;  0.0000000E+00;  0.0000000E+00;  0.0000000E+00;  1.0000000E+03;  1.0000000E-01;  0.0000000E+00;0;  0.0000000E+00;  0.0000000E+00;  0.0000000E+00;0;  2.9469922E-05;  4.0000000E+04;  0.0000000E+00;  0.0000000E+00;  4.0000000E+04;  0.0000000E+00;  4.0000000E+04;  1.6719467E-05;  0.0000000E+00;  1.2750455E-05;  5.1938564E+01;
 -7.0000000E-02;  9.9999998E-03;  2.3999999E-01;1250;  0.0000000E+00;  0.0000000E+00;  0.0000000E+00;  1.0009843E+03;  1.0000000E-01;  8.1548309E+02;0;  0.0000000E+00;  0.0000000E+00;  0.0000000E+00;0;  1.1264891E-02;  4.0000000E+04;  0.0000000E+00;  0.0000000E+00;  4.0000000E+04;  0.0000000E+00;  4.0000000E+04;  1.1407470E-02;  0.0000000E+00; -1.4257930E-04;  8.6096692E+02;
 -7.0000000E-02;  9.9999998E-03;  2.5000000E-01;1251;  0.0000000E+00;  0.0000000E+00;  0.0000000E+00;  1.0009078E+03;  1.0000000E-01;  7.5207751E+02;0;  0.0000000E+00;  0.0000000E+00;  0.0000000E+00;0;  1.0315951E-02;  4.0000000E+04;  0.0000000E+00;  0.0000000E+00;  4.0000000E+04;  0.0000000E+00;  4.0000000E+04;  1.0364451E-02;  0.0000000E+00; -4.8499918E-05;  6.5812018E+02;
 -7.0000000E-02;  9.9999998E-03;  2.5999999E-01;1252;  0.0000000E+00;  0.0000000E+00;  0.0000000E+00;  1.0008430E+03;  1.0000000E-01;  6.9844940E+02;0;  0.0000000E+00;  0.0000000E+00;  0.0000000E+00;0;  9.2721861E-03;  4.0000000E+04;  0.0000000E+00;  0.0000000E+00;  4.0000000E+04;  0.0000000E+00;  4.0000000E+04;  9.2161354E-03;  0.0000000E+00;  5.6050780E-05;  4.2062360E+02;
 -7.0000000E-02;  9.9999998E-03;  2.7000001E-01;1253;  0.0000000E+00;  0.0000000E+00;  0.0000000E+00;  1.0007816E+03;  1.0000000E-01;  6.4748785E+02;0;  0.0000000E+00;  0.0000000E+00;  0.0000000E+00;0;  8.1625897E-03;  4.0000000E+04;  0.0000000E+00;  0.0000000E+00;  4.0000000E+04;  0.0000000E+00;  4.0000000E+04;  8.0020810E-03;  0.0000000E+00;  1.6050854E-04;  1.8095833E+02;
 -7.0000000E-02;  9.9999998E-03;  2.8000000E-01;1254;  0.0000000E+00;  0.0000000E+00;  0.0000000E+00;  1.0007167E+03;  1.0000000E-01;  5.9376099E+02;0;  0.0000000E+00;  0.0000000E+00;  0.0000000E+00;0;  7.0225820E-03;  4.0000000E+04;  0.0000000E+00;  0.0000000E+00;  4.0000000E+04;  0.0000000E+00;  4.0000000E+04;  6.7687579E-03;  0.0000000E+00;  2.5382391E-04;  1.5452669E+02;
 -7.0000000E-02;  9.9999998E-03;  2.8999999E-01;1255;  0.0000000E+00;  0.0000000E+00;  0.0000000E+00;  1.0006440E+03;  1.0000000E-01;  5.3361456E+02;0;  0.0000000E+00;  0.0000000E+00;  0.0000000E+00;0;  5.8911084E-03;  4.0000000E+04;  0.0000000E+00;  0.0000000E+00;  4.0000000E+04;  0.0000000E+00;  4.0000000E+04;  5.5647534E-03;  0.0000000E+00;  3.2635496E-04;  3.5567172E+02;
 -7.0000000E-02;  9.9999998E-03;  3.0000001E-01;1256;  0.0000000E+00;  0.0000000E+00;  0.0000000E+00;  1.0005718E+03;  1.0000000E-01;  4.7366562E+02;0;  0.0000000E+00;  0.0000000E+00;  0.0000000E+00;0;  4.8070885E-03;  4.0000000E+04;  0.0000000E+00;  0.0000000E+00;  4.0000000E+04;  0.0000000E+00;  4.0000000E+04;  4.4355099E-03;  0.0000000E+00;  3.7157862E-04;  5.2981024E+02;
 -7.0000000E-02;  9.9999998E-03;  3.1000000E-01;1257;  0.0000000E+00;  0.0000000E+00;  0.0000000E+00;  1.0004946E+03;  1.0000000E-01;  4.0976617E+02;0;  0.0000000E+00;  0.0000000E+00;  0.0000000E+00;0;  3.8059948E-03;  4.0000000E+04;  0.0000000E+00;  0.0000000E+00;  4.0000000E+04;  0.0000000E+00;  4.0000000E+04;  3.4185755E-03;  0.0000000E+00;  3.8741922E-04;  6.4686188E+02;
 -7.0000000E-02;  9.9999998E-03;  3.1999999E-01;1258;  0.0000000E+00;  0.0000000E+00;  0.0000000E+00;  1.0004279E+03;  1.0000000E-01;  3.5455786E+02;0;  0.0000000E+00;  0.0000000E+00;  0.0000000E+00;0;  2.9165344E-03;  4.0000000E+04;  0.0000000E+00;  0.0000000E+00;  4.0000000E+04;  0.0000000E+00;  4.0000000E+04;  2.5401940E-03;  0.0000000E+00;  3.7634038E-04;  7.0180780E+02;
 -7.0000000E-02;  9.9999998E-03;  3.3000001E-01;1259;  0.0000000E+00;  0.0000000E+00;  0.0000000E+00;  1.0003360E+03;  1.0000000E-01;  2.7841187E+02;0;  0.0000000E+00;  0.0000000E+00;  0.0000000E+00;0;  2.1575552E-03;  4.0000000E+04;  0.0000000E+00;  0.0000000E+00;  4.0000000E+04;  0.0000000E+00;  4.0000000E+04;  1.8135405E-03;  0.0000000E+00;  3.4401473E-04;  6.9987604E+02;
 -7.0000000E-02;  9.9999998E-03;  3.4000000E-01;1260;  0.0000000E+00;  0.0000000E+00;  0.0000000E+00;  1.0002681E+03;  1.0000000E-01;  2.2211717E+02;0;  0.0000000E+00;  0.0000000E+00;  0.0000000E+00;0;  1.5363544E-03;  4.0000000E+04;  0.0000000E+00;  0.0000000E+00;  4.0000000E+04;  0.0000000E+00;  4.0000000E+04;  1.2388765E-03;  0.0000000E+00;  2.9747788E-04;  6.5218219E+02;
 -7.0000000E-02;  9.9999998E-03;  3.4999999E-01;1261;  0.0000000E+00;  0.0000000E+00;  0.0000000E+00;  1.0001866E+03;  1.0000000E-01;  1.5456352E+02;0;  0.0000000E+00;  0.0000000E+00;  0.0000000E+00;0;  1.0491075E-03;  4.0000000E+04;  0.0000000E+00;  0.0000000E+00;  4.0000000E+04;  0.0000000E+00;  4.0000000E+04;  8.0550002E-04;  0.0000000E+00;  2.4360749E-04;  5.7224298E+02;
 -7.0000000E-02;  9.9999998E-03;  3.6000001E-01;1262;  0.0000000E+00;  0.0000000E+00;  0.0000000E+00;  1.0001207E+03;  1.0000000E-01;  1.0004655E+02;0;  0.0000000E+00;  0.0000000E+00;  0.0000000E+00;0;  6.8318966E-04;  4.0000000E+04;  0.0000000E+00;  0.0000000E+00;  4.0000000E+04;  0.0000000E+00;  4.0000000E+04;  4.9492030E-04;  0.0000000E+00;  1.8826938E-04;  4.7345132E+02;
 -7.0000000E-02;  9.9999998E-03;  3.7000000E-01;1263;  0.0000000E+00;  0.0000000E+00;  0.0000000E+00;  1.0000927E+03;  1.0000000E-01;  7.6837334E+01;0;  0.0000000E+00;  0.0000000E+00;  0.0000000E+00;0;  4.2054086E-04;  4.0000000E+04;  0.0000000E+00;  0.0000000E+00;  4.0000000E+04;  0.0000000E+00;  4.0000000E+04;  2.8448235E-04;  0.0000000E+00;  1.3605853E-04;  3.6779492E+02;
 -7.0000000E-02;  9.9999998E-03;  3.8000000E-01;1264;  0.0000000E+00;  0.0000000E+00;  0.0000000E+00;  1.0000561E+03;  1.0000000E-01;  4.6517204E+01;0;  0.0000000E+00;  0.0000000E+00;  0.0000000E+00;0;  2.4110079E-04;  4.0000000E+04;  0.0000000E+00;  0.0000000E+00;  4.0000000E+04;  0.0000000E+00;  4.0000000E+04;  1.5072140E-04;  0.0000000E+00;  9.0379392E-05;  2.6537363E+02;
 -7.0000000E-02;  9.9999998E-03;  3.8999999E-01;1265;  0.0000000E+00;  0.0000000E+00;  0.0000000E+00;  1.0000443E+03;  1.0000000E-01;  3.6739700E+01;0;  0.0000000E+00;  0.0000000E+00;  0.0000000E+00;0;  1.2552633E-04;  4.0000000E+04;  0.0000000E+00;  0.0000000E+00;  4.0000000E+04;  0.0000000E+00;  4.0000000E+04;  7.1938819E-05;  0.0000000E+00;  5.3587508E-05;  1.7437521E+02;
 -7.0000000E-02;  9.9999998E-03;  4.0000001E-01;1266;  0.0000000E+00;  0.0000000E+00;  0.0000000E+00;  1.0000000E+03;  1.0000000E-01;  0.0000000E+00;0;  0.0000000E+00;  0.0000000E+00;  0.0000000E+00;0;  5.6781333E-05;  4.0000000E+04;  0.0000000E+00;  0.0000000E+00;  4.0000000E+04;  0.0000000E+00;  4.0000000E+04;  2.9801227E-05;  0.0000000E+00;  2.6980106E-05;  1.0096104E+02;
 -5.9999999E-02;  9.9999998E-03;  2.3999999E-01;1341;  0.0000000E+00;  0.0000000E+00;  0.0000000E+00;  1.0016473E+03;  1.0000000E-01;  1.3648009E+03;0;  0.0000000E+00;  0.0000000E+00;  0.0000000E+00;0;  1.4276989E-02;  4.0000000E+04;  0.0000000E+00;  0.0000000E+00;  4.0000000E+04;  0.0000000E+00;  4.0000000E+04;  1.4465120E-02;  0.0000000E+00; -1.8813097E-04;  1.1549333E+03;
 -5.9999999E-02;  9.9999998E-03;  2.5000000E-01;1342;  0.0000000E+00;  0.0000000E+00;  0.0000000E+00;  1.0015231E+03;  1.0000000E-01;  1.2618903E+03;0;  0.0000000E+00;  0.0000000E+00;  0.0000000E+00;0;  1.3098075E-02;  4.0000000E+04;  0.0000000E+00;  0.0000000E+00;  4.0000000E+04;  0.0000000E+00;  4.0000000E+04;  1.3155322E-02;  0.0000000E+00; -5.7246318E-05;  8.8994598E+02;
 -5.9999999E-02;  9.9999998E-03;  2.5999999E-01;1343;  0.0000000E+00;  0.0000000E+00;  0.0000000E+00;  1.0014053E+03;  1.0000000E-01;  1.1642140E+03;0;  0.0000000E+00;  0.0000000E+00;  0.0000000E+00;0;  1.1798852E-02;  4.0000000E+04;  0.0000000E+00;  0.0000000E+00;  4.0000000E+04;  0.0000000E+00;  4.0000000E+04;  1.1711091E-02;  0.0000000E+00;  8.7761771E-05;  5.7675531E+02;
 -5.9999999E-02;  9.9999998E-03;  2.7000001E-01;1344;  0.0000000E+00;  0.0000000E+00;  0.0000000E+00;  1.0012866E+03;  1.0000000E-01;  1.0659452E+03;0;  0.0000000E+00;  0.0000000E+00;  0.0000000E+00;0;  1.0414231E-02;  4.0000000E+04;  0.0000000E+00;  0.0000000E+00;  4.0000000E+04;  0.0000000E+00;  4.0000000E+04;  1.0181698E-02;  0.0000000E+00;  2.3253285E-04;  2.6173102E+02;
 -5.9999999E-02;  9.9999998E-03;  2.8000000E-01;1345;  0.0000000E+00;  0.0000000E+00;  0.0000000E+00;  1.0011721E+03;  1.0000000E-01;  9.7103424E+02;0;  0.0000000E+00;  0.0000000E+00;  0.0000000E+00;0;  8.9874938E-03;  4.0000000E+04;  0.0000000E+00;  0.0000000E+00;  4.0000000E+04;  0.0000000E+00;  4.0000000E+04;  8.6256051E-03;  0.0000000E+00;  3.6188908E-04;  2.2089891E+02;
 -5.9999999E-02;  9.9999998E-03;  2.8999999E-01;1346;  0.0000000E+00;  0.0000000E+00;  0.0000000E+00;  1.0010499E+03;  1.0000000E-01;  8.6980255E+02;0;  0.0000000E+00;  0.0000000E+00;  0.0000000E+00;0;  7.5669829E-03;  4.0000000E+04;  0.0000000E+00;  0.0000000E+00;  4.0000000E+04;  0.0000000E+00;  4.0000000E+04;  7.1044639E-03;  0.0000000E+00;  4.6251909E-04;  4.8622949E+02;
 -5.9999999E-02;  9.9999998E-03;  3.0000001E-01;1347;  0.0000000E+00;  0.0000000E+00;  0.0000000E+00;  1.0009208E+03;  1.0000000E-01;  7.6294141E+02;0;  0.0000000E+00;  0.0000000E+00;  0.0000000E+00;0;  6.2016831E-03;  4.0000000E+04;  0.0000000E+00;  0.0000000E+00;  4.0000000E+04;  0.0000000E+00;  4.0000000E+04;  5.6762174E-03;  0.0000000E+00;  5.2546570E-04;  7.2457886E+02;
 -5.9999999E-02;  9.9999998E-03;  3.1000000E-01;1348;  0.0000000E+00;  0.0000000E+00;  0.0000000E+00;  1.0007968E+03;  1.0000000E-01;  6.6012946E+02;0;  0.0000000E+00;  0.0000000E+00;  0.0000000E+00;0;  4.9367477E-03;  4.0000000E+04;  0.0000000E+00;  0.0000000E+00;  4.0000000E+04;  0.0000000E+00;  4.0000000E+04;  4.3887361E-03;  0.0000000E+00;  5.4801174E-04;  8.8855212E+02;
 -5.9999999E-02;  9.9999998E-03;  3.1999999E-01;1349;  0.0000000E+00;  0.0000000E+00;  0.0000000E+00;  1.0006637E+03;  1.0000000E-01;  5.4981158E+02;0;  0.0000000E+00;  0.0000000E+00;  0.0000000E+00;0;  3.8090178E-03;  4.0000000E+04;  0.0000000E+00;  0.0000000E+00;  4.0000000E+04;  0.0000000E+00;  4.0000000E+04;  3.2752987E-03;  0.0000000E+00;  5.3371908E-04;  9.6983960E+02;
 -5.9999999E-02;  9.9999998E-03;  3.3000001E-01;1350;  0.0000000E+00;  0.0000000E+00;  0.0000000E+00;  1.0005474E+03;  1.0000000E-01;  4.5351804E+02;0;  0.0000000E+00;  0.0000000E+00;  0.0000000E+00;0;  2.8428484E-03;  4.0000000E+04;  0.0000000E+00;  0.0000000E+00;  4.0000000E+04;  0.0000000E+00;  4.0000000E+04;  2.3523853E-03;  0.0000000E+00;  4.9046316E-04;  9.7476324E+02;
 -5.9999999E-02;  9.9999998E-03;  3.4000000E-01;1351;  0.0000000E+00;  0.0000000E+00;  0.0000000E+00;  1.0004340E+03;  1.0000000E-01;  3.5949600E+02;0;  0.0000000E+00;  0.0000000E+00;  0.0000000E+00;0;  2.0479572E-03;  4.0000000E+04;  0.0000000E+00;  0.0000000E+00;  4.0000000E+04;  0.0000000E+00;  4.0000000E+04;  1.6201485E-03;  0.0000000E+00;  4.2780855E-04;  9.1773920E+02;
 -5.9999999E-02;  9.9999998E-03;  3.4999999E-01;1352;  0.0000000E+00;  0.0000000E+00;  0.0000000E+00;  1.0003245E+03;  1.0000000E-01;  2.6883191E+02;0;  0.0000000E+00;  0.0000000E+00;  0.0000000E+00;0;  1.4200215E-03;  4.0000000E+04;  0.0000000E+00;  0.0000000E+00;  4.0000000E+04;  0.0000000E+00;  4.0000000E+04;  1.0651012E-03;  0.0000000E+00;  3.5492034E-04;  8.1625543E+02;
 -5.9999999E-02;  9.9999998E-03;  3.6000001E-01;1353;  0.0000000E+00;  0.0000000E+00;  0.0000000E+00;  1.0002258E+03;  1.0000000E-01;  1.8705644E+02;0;  0.0000000E+00;  0.0000000E+00;  0.0000000E+00;0;  9.4370719E-04;  4.0000000E+04;  0.0000000E+00;  0.0000000E+00;  4.0000000E+04;  0.0000000E+00;  4.0000000E+04;  6.6424359E-04;  0.0000000E+00;  2.7946359E-04;  6.8755609E+02;
 -5.9999999E-02;  9.9999998E-03;  3.7000000E-01;1354;  0.0000000E+00;  0.0000000E+00;  0.0000000E+00;  1.0001429E+03;  1.0000000E-01;  1.1841640E+02;0;  0.0000000E+00;  0.0000000E+00;  0.0000000E+00;0;  5.9692940E-04;  4.0000000E+04;  0.0000000E+00;  0.0000000E+00;  4.0000000E+04;  0.0000000E+00;  4.0000000E+04;  3.8958370E-04;  0.0000000E+00;  2.0734569E-04;  5.4693292E+02;
 -5.9999999E-02;  9.9999998E-03;  3.8000000E-01;1355;  0.0000000E+00;  0.0000000E+00;  0.0000000E+00;  1.0000936E+03;  1.0000000E-01;  7.7528671E+01;0;  0.0000000E+00;  0.0000000E+00;  0.0000000E+00;0;  3.5512395E-04;  4.0000000E+04;  0.0000000E+00;  0.0000000E+00;  4.0000000E+04;  0.0000000E+00;  4.0000000E+04;  2.1219288E-04;  0.0000000E+00;  1.4293105E-04;  4.0730011E+02;
 -5.9999999E-02;  9.9999998E-03;  3.8999999E-01;1356;  0.0000000E+00;  0.0000000E+00;  0.0000000E+00;  1.0000620E+03;  1.0000000E-01;  5.1356571E+01;0;  0.0000000E+00;  0.0000000E+00;  0.0000000E+00;0;  1.9465611E-04;  4.0000000E+04;  0.0000000E+00;  0.0000000E+00;  4.0000000E+04;  0.0000000E+00;  4.0000000E+04;  1.0529447E-04;  0.0000000E+00;  8.9361631E-05;  2.7936679E+02;
 -5.9999999E-02;  9.9999998E-03;  4.0000001E-01;1357;  0.0000000E+00;  0.0000000E+00;  0.0000000E+00;  1.0000315E+03;  1.0000000E-01;  2.6073338E+01;0;  0.0000000E+00;  0.0000000E+00;  0.0000000E+00;0;  9.4850169E-05;  4.0000000E+04;  0.0000000E+00;  0.0000000E+00;  4.0000000E+04;  0.0000000E+00;  4.0000000E+04;  4.6170750E-05;  0.0000000E+00;  4.8679416E-05;  1.7175320E+02;
 -5.0000001E-02;  9.9999998E-03;  2.3999999E-01;1432;  0.0000000E+00;  0.0000000E+00;  0.0000000E+00;  1.0025576E+03;  1.0000000E-01;  2.1189524E+03;0;  0.0000000E+00;  0.0000000E+00;  0.0000000E+00;0;  1.7335016E-02;  4.0000000E+04;  0.0000000E+00;  0.0000000E+00;  4.0000000E+04;  0.0000000E+00;  4.0000000E+04;  1.7573189E-02;  0.0000000E+00; -2.3817216E-04;  1.4870206E+03;
 -5.0000001E-02;  9.9999998E-03;  2.5000000E-01;1433;  0.0000000E+00;  0.0000000E+00;  0.0000000E+00;  1.0023671E+03;  1.0000000E-01;  1.9610310E+03;0;  0.0000000E+00;  0.0000000E+00;  0.0000000E+00;0;  1.5933855E-02;  4.0000000E+04;  0.0000000E+00;  0.0000000E+00;  4.0000000E+04;  0.0000000E+00;  4.0000000E+04;  1.5998207E-02;  0.0000000E+00; -6.4352869E-05;  1.1555908E+03;
 -5.0000001E-02;  9.9999998E-03;  2.5999999E-01;1434;  0.0000000E+00;  0.0000000E+00;  0.0000000E+00;  1.0021739E+03;  1.0000000E-01;  1.8010355E+03;0;  0.0000000E+00;  0.0000000E+00;  0.0000000E+00;0;  1.4383872E-02;  4.0000000E+04;  0.0000000E+00;  0.0000000E+00;  4.0000000E+04;  0.0000000E+00;  4.0000000E+04;  1.4255534E-02;  0.0000000E+00;  1.2833806E-04;  7.5812390E+02;
 -5.0000001E-02;  9.9999998E-03;  2.7000001E-01;1435;  0.0000000E+00;  0.0000000E+00;  0.0000000E+00;  1.0019896E+03;  1.0000000E-01;  1.6483484E+03;0;  0.0000000E+00;  0.0000000E+00;  0.0000000E+00;0;  1.2725392E-02;  4.0000000E+04;  0.0000000E+00;  0.0000000E+00;  4.0000000E+04;  0.0000000E+00;  4.0000000E+04;  1.2404469E-02;  0.0000000E+00;  3.2092319E-04;  3.5583319E+02;
 -5.0000001E-02;  9.9999998E-03;  2.8000000E-01;1436;  0.0000000E+00;  0.0000000E+00;  0.0000000E+00;  1.0017997E+03;  1.0000000E-01;  1.4910195E+03;0;  0.0000000E+00;  0.0000000E+00;  0.0000000E+00;0;  1.1009579E-02;  4.0000000E+04;  0.0000000E+00;  0.0000000E+00;  4.0000000E+04;  0.0000000E+00;  4.0000000E+04;  1.0516582E-02;  0.0000000E+00;  4.9299665E-04;  2.9472812E+02;
 -5.0000001E-02;  9.9999998E-03;  2.8999999E-01;1437;  0.0000000E+00;  0.0000000E+00;  0.0000000E+00;  1.0016059E+03;  1.0000000E-01;  1.3304315E+03;0;  0.0000000E+00;  0.0000000E+00;  0.0000000E+00;0;  9.2947735E-03;  4.0000000E+04;  0.0000000E+00;  0.0000000E+00;  4.0000000E+04;  0.0000000E+00;  4.0000000E+04;  8.6682308E-03;  0.0000000E+00;  6.2654278E-04;  6.3485425E+02;
 -5.0000001E-02;  9.9999998E-03;  3.0000001E-01;1438;  0.0000000E+00;  0.0000000E+00;  0.0000000E+00;  1.0014124E+03;  1.0000000E-01;  1.1701398E+03;0;  0.0000000E+00;  0.0000000E+00;  0.0000000E+00;0;  7.6411879E-03;  4.0000000E+04;  0.0000000E+00;  0.0000000E+00;  4.0000000E+04;  0.0000000E+00;  4.0000000E+04;  6.9315969E-03;  0.0000000E+00;  7.0959120E-04;  9.4798657E+02;
 -5.0000001E-02;  9.9999998E-03;  3.1000000E-01;1439;  0.0000000E+00;  0.0000000E+00;  0.0000000E+00;  1.0012079E+03;  1.0000000E-01;  1.0006631E+03;0;  0.0000000E+00;  0.0000000E+00;  0.0000000E+00;0;  6.1050672E-03;  4.0000000E+04;  0.0000000E+00;  0.0000000E+00;  4.0000000E+04;  0.0000000E+00;  4.0000000E+04;  5.3662001E-03;  0.0000000E+00;  7.3886727E-04;  1.1662631E+03;
 -5.0000001E-02;  9.9999998E-03;  3.1999999E-01;1440;  0.0000000E+00;  0.0000000E+00;  0.0000000E+00;  1.0009973E+03;  1.0000000E-01;  8.2624823E+02;0;  0.0000000E+00;  0.0000000E+00;  0.0000000E+00;0;  4.7325306E-03;  4.0000000E+04;  0.0000000E+00;  0.0000000E+00;  4.0000000E+04;  0.0000000E+00;  4.0000000E+04;  4.0128925E-03;  0.0000000E+00;  7.1963790E-04;  1.2778300E+03;
 -5.0000001E-02;  9.9999998E-03;  3.3000001E-01;1441;  0.0000000E+00;  0.0000000E+00;  0.0000000E+00;  1.0008116E+03;  1.0000000E-01;  6.7237604E+02;0;  0.0000000E+00;  0.0000000E+00;  0.0000000E+00;0;  3.5540182E-03;  4.0000000E+04;  0.0000000E+00;  0.0000000E+00;  4.0000000E+04;  0.0000000E+00;  4.0000000E+04;  2.8912679E-03;  0.0000000E+00;  6.6275022E-04;  1.2907899E+03;
 -5.0000001E-02;  9.9999998E-03;  3.4000000E-01;1442;  0.0000000E+00;  0.0000000E+00;  0.0000000E+00;  1.0006387E+03;  1.0000000E-01;  5.2917023E+02;0;  0.0000000E+00;  0.0000000E+00;  0.0000000E+00;0;  2.5816690E-03;  4.0000000E+04;  0.0000000E+00;  0.0000000E+00;  4.0000000E+04;  0.0000000E+00;  4.0000000E+04;  2.0007356E-03;  0.0000000E+00;  5.8093341E-04;  1.2237032E+03;
 -5.0000001E-02;  9.9999998E-03;  3.4999999E-01;1443;  0.0000000E+00;  0.0000000E+00;  0.0000000E+00;  1.0004910E+03;  1.0000000E-01;  4.0680331E+02;0;  0.0000000E+00;  0.0000000E+00;  0.0000000E+00;0;  1.8103283E-03;  4.0000000E+04;  0.0000000E+00;  0.0000000E+00;  4.0000000E+04;  0.0000000E+00;  4.0000000E+04;  1.3242915E-03;  0.0000000E+00;  4.8603694E-04;  1.0988596E+03;
 -5.0000001E-02;  9.9999998E-03;  3.6000001E-01;1444;  0.0000000E+00;  0.0000000E+00;  0.0000000E+00;  1.0003562E+03;  1.0000000E-01;  2.9510275E+02;0;  0.0000000E+00;  0.0000000E+00;  0.0000000E+00;0;  1.2214968E-03;  4.0000000E+04;  0.0000000E+00;  0.0000000E+00;  4.0000000E+04;  0.0000000E+00;  4.0000000E+04;  8.3380699E-04;  0.0000000E+00;  3.8768991E-04;  9.3776141E+02;
 -5.0000001E-02;  9.9999998E-03;  3.7000000E-01;1445;  0.0000000E+00;  0.0000000E+00;  0.0000000E+00;  1.0002347E+03;  1.0000000E-01;  1.9446364E+02;0;  0.0000000E+00;  0.0000000E+00;  0.0000000E+00;0;  7.8865193E-04;  4.0000000E+04;  0.0000000E+00;  0.0000000E+00;  4.0000000E+04;  0.0000000E+00;  4.0000000E+04;  4.9553177E-04;  0.0000000E+00;  2.9312016E-04;  7.5917914E+02;
 -5.0000001E-02;  9.9999998E-03;  3.8000000E-01;1446;  0.0000000E+00;  0.0000000E+00;  0.0000000E+00;  1.0001483E+03;  1.0000000E-01;  1.2286073E+02;0;  0.0000000E+00;  0.0000000E+00;  0.0000000E+00;0;  4.8245894E-04;  4.0000000E+04;  0.0000000E+00;  0.0000000E+00;  4.0000000E+04;  0.0000000E+00;  4.0000000E+04;  2.7488571E-04;  0.0000000E+00;  2.0757323E-04;  5.7883051E+02;
 -5.0000001E-02;  9.9999998E-03;  3.8999999E-01;1447;  0.0000000E+00;  0.0000000E+00;  0.0000000E+00;  1.0000916E+03;  1.0000000E-01;  7.5849709E+01;0;  0.0000000E+00;  0.0000000E+00;  0.0000000E+00;0;  2.7484208E-04;  4.0000000E+04;  0.0000000E+00;  0.0000000E+00;  4.0000000E+04;  0.0000000E+00;  4.0000000E+04;  1.3996992E-04;  0.0000000E+00;  1.3487216E-04;  4.0985748E+02;
 -5.0000001E-02;  9.9999998E-03;  4.0000001E-01;1448;  0.0000000E+00;  0.0000000E+00;  0.0000000E+00;  1.0000590E+03;  1.0000000E-01;  4.8887505E+01;0;  0.0000000E+00;  0.0000000E+00;  0.0000000E+00;0;  1.4146004E-04;  4.0000000E+04;  0.0000000E+00;  0.0000000E+00;  4.0000000E+04;  0.0000000E+00;  4.0000000E+04;  6.3724954E-05;  0.0000000E+00;  7.7735087E-05;  2.6330920E+02;
 -3.9999999E-02;  9.9999998E-03;  2.3999999E-01;1523;  0.0000000E+00;  0.0000000E+00;  0.0000000E+00;  1.0037311E+03;  1.0000000E-01;  3.0911719E+03;0;  0.0000000E+00;  0.0000000E+00;  0.0000000E+00;0;  2.0174013E-02;  4.0000000E+04;  0.0000000E+00;  0.0000000E+00;  4.0000000E+04;  0.0000000E+00;  4.0000000E+04;  2.0465432E-02;  0.0000000E+00; -2.9141799E-04;  1.8430763E+03;
 -3.9999999E-02;  9.9999998E-03;  2.5000000E-01;1524;  0.0000000E+00;  0.0000000E+00;  0.0000000E+00;  1.0034478E+03;  1.0000000E-01;  2.8564131E+03;0;  0.0000000E+00;  0.0000000E+00;  0.0000000E+00;0;  1.8581301E-02;  4.0000000E+04;  0.0000000E+00;  0.0000000E+00;  4.0000000E+04;  0.0000000E+00;  4.0000000E+04;  1.8651467E-02;  0.0000000E+00; -7.0165559E-05;  1.4452271E+03;
 -3.9999999E-02;  9.9999998E-03;  2.5999999E-01;1525;  0.0000000E+00;  0.0000000E+00;  0.0000000E+00;  1.0031713E+03;  1.0000000E-01;  2.6273826E+03;0;  0.0000000E+00;  0.0000000E+00;  0.0000000E+00;0;  1.6810054E-02;  4.0000000E+04;  0.0000000E+00;  0.0000000E+00;  4.0000000E+04;  0.0000000E+00;  4.0000000E+04;  1.6633822E-02;  0.0000000E+00;  1.7623240E-04;  9.5785626E+02;
 -3.9999999E-02;  9.9999998E-03;  2.7000001E-01;1526;  0.0000000E+00;  0.0000000E+00;  0.0000000E+00;  1.0028925E+03;  1.0000000E-01;  2.3963767E+03;0;  0.0000000E+00;  0.0000000E+00;  0.0000000E+00;0;  1.4904658E-02;  4.0000000E+04;  0.0000000E+00;  0.0000000E+00;  4.0000000E+04;  0.0000000E+00;  4.0000000E+04;  1.4481319E-02;  0.0000000E+00;  4.2333960E-04;  4.5613190E+02;
 -3.9999999E-02;  9.9999998E-03;  2.8000000E-01;1527;  0.0000000E+00;  0.0000000E+00;  0.0000000E+00;  1.0026156E+03;  1.0000000E-01;  2.1669512E+03;0;  0.0000000E+00;  0.0000000E+00;  0.0000000E+00;0;  1.2923030E-02;  4.0000000E+04;  0.0000000E+00;  0.0000000E+00;  4.0000000E+04;  0.0000000E+00;  4.0000000E+04;  1.2278855E-02;  0.0000000E+00;  6.4417563E-04;  3.6693823E+02;
 -3.9999999E-02;  9.9999998E-03;  2.8999999E-01;1528;  0.0000000E+00;  0.0000000E+00;  0.0000000E+00;  1.0023228E+03;  1.0000000E-01;  1.9243900E+03;0;  0.0000000E+00;  0.0000000E+00;  0.0000000E+00;0;  1.0933151E-02;  4.0000000E+04;  0.0000000E+00;  0.0000000E+00;  4.0000000E+04;  0.0000000E+00;  4.0000000E+04;  1.0118505E-02;  0.0000000E+00;  8.1464637E-04;  7.9405353E+02;
 -3.9999999E-02;  9.9999998E-03;  3.0000001E-01;1529;  0.0000000E+00;  0.0000000E+00;  0.0000000E+00;  1.0020298E+03;  1.0000000E-01;  1.6817302E+03;0;  0.0000000E+00;  0.0000000E+00;  0.0000000E+00;0;  9.0071699E-03;  4.0000000E+04;  0.0000000E+00;  0.0000000E+00;  4.0000000E+04;  0.0000000E+00;  4.0000000E+04;  8.0881100E-03;  0.0000000E+00;  9.1905985E-04;  1.1913059E+03;
 -3.9999999E-02;  9.9999998E-03;  3.1000000E-01;1530;  0.0000000E+00;  0.0000000E+00;  0.0000000E+00;  1.0017278E+03;  1.0000000E-01;  1.4314657E+03;0;  0.0000000E+00;  0.0000000E+00;  0.0000000E+00;0;  7.2135781E-03;  4.0000000E+04;  0.0000000E+00;  0.0000000E+00;  4.0000000E+04;  0.0000000E+00;  4.0000000E+04;  6.2597170E-03;  0.0000000E+00;  9.5386087E-04;  1.4691329E+03;
 -3.9999999E-02;  9.9999998E-03;  3.1999999E-01;1531;  0.0000000E+00;  0.0000000E+00;  0.0000000E+00;  1.0014383E+03;  1.0000000E-01;  1.1915713E+03;0;  0.0000000E+00;  0.0000000E+00;  0.0000000E+00;0;  5.6086406E-03;  4.0000000E+04;  0.0000000E+00;  0.0000000E+00;  4.0000000E+04;  0.0000000E+00;  4.0000000E+04;  4.6816855E-03;  0.0000000E+00;  9.2695531E-04;  1.6126893E+03;
 -3.9999999E-02;  9.9999998E-03;  3.3000001E-01;1532;  0.0000000E+00;  0.0000000E+00;  0.0000000E+00;  1.0011702E+03;  1.0000000E-01;  9.6945404E+02;0;  0.0000000E+00;  0.0000000E+00;  0.0000000E+00;0;  4.2291605E-03;  4.0000000E+04;  0.0000000E+00;  0.0000000E+00;  4.0000000E+04;  0.0000000E+00;  4.0000000E+04;  3.3759961E-03;  0.0000000E+00;  8.5316424E-04;  1.6331429E+03;
 -3.9999999E-02;  9.9999998E-03;  3.4000000E-01;1533;  0.0000000E+00;  0.0000000E+00;  0.0000000E+00;  1.0009073E+03;  1.0000000E-01;  7.5168243E+02;0;  0.0000000E+00;  0.0000000E+00;  0.0000000E+00;0;  3.0895742E-03;  4.0000000E+04;  0.0000000E+00;  0.0000000E+00;  4.0000000E+04;  0.0000000E+00;  4.0000000E+04;  2.3404860E-03;  0.0000000E+00;  7.4908813E-04;  1.5545797E+03;
 -3.9999999E-02;  9.9999998E-03;  3.4999999E-01;1534;  0.0000000E+00;  0.0000000E+00;  0.0000000E+00;  1.0006882E+03;  1.0000000E-01;  5.7015674E+02;0;  0.0000000E+00;  0.0000000E+00;  0.0000000E+00;0;  2.1836890E-03;  4.0000000E+04;  0.0000000E+00;  0.0000000E+00;  4.0000000E+04;  0.0000000E+00;  4.0000000E+04;  1.5540873E-03;  0.0000000E+00;  6.2960183E-04;  1.4048414E+03;
 -3.9999999E-02;  9.9999998E-03;  3.6000001E-01;1535;  0.0000000E+00;  0.0000000E+00;  0.0000000E+00;  1.0005164E+03;  1.0000000E-01;  4.2783975E+02;0;  0.0000000E+00;  0.0000000E+00;  0.0000000E+00;0;  1.4896964E-03;  4.0000000E+04;  0.0000000E+00;  0.0000000E+00;  4.0000000E+04;  0.0000000E+00;  4.0000000E+04;  9.8331226E-04;  0.0000000E+00;  5.0638418E-04;  1.2100067E+03;
 -3.9999999E-02;  9.9999998E-03;  3.7000000E-01;1536;  0.0000000E+00;  0.0000000E+00;  0.0000000E+00;  1.0003622E+03;  1.0000000E-01;  3.0004089E+02;0;  0.0000000E+00;  0.0000000E+00;  0.0000000E+00;0;  9.7652699E-04;  4.0000000E+04;  0.0000000E+00;  0.0000000E+00;  4.0000000E+04;  0.0000000E+00;  4.0000000E+04;  5.8864243E-04;  0.0000000E+00;  3.8788453E-04;  9.9230963E+02;
 -3.9999999E-02;  9.9999998E-03;  3.8000000E-01;1537;  0.0000000E+00;  0.0000000E+00;  0.0000000E+00;  1.0002294E+03;  1.0000000E-01;  1.9001932E+02;0;  0.0000000E+00;  0.0000000E+00;  0.0000000E+00;0;  6.1001605E-04;  4.0000000E+04;  0.0000000E+00;  0.0000000E+00;  4.0000000E+04;  0.0000000E+00;  4.0000000E+04;  3.2997955E-04;  0.0000000E+00;  2.8003653E-04;  7.6999670E+02;
 -3.9999999E-02;  9.9999998E-03;  3.8999999E-01;1538;  0.0000000E+00;  0.0000000E+00;  0.0000000E+00;  1.0001362E+03;  1.0000000E-01;  1.1278693E+02;0;  0.0000000E+00;  0.0000000E+00;  0.0000000E+00;0;  3.5770700E-04;  4.0000000E+04;  0.0000000E+00;  0.0000000E+00;  4.0000000E+04;  0.0000000E+00;  4.0000000E+04;  1.7058289E-04;  0.0000000E+00;  1.8712411E-04;  5.5836499E+02;
 -3.9999999E-02;  9.9999998E-03;  4.0000001E-01;1539;  0.0000000E+00;  0.0000000E+00;  0.0000000E+00;  1.0000756E+03;  1.0000000E-01;  6.2615513E+01;0;  0.0000000E+00;  0.0000000E+00;  0.0000000E+00;0;  1.9176592E-04;  4.0000000E+04;  0.0000000E+00;  0.0000000E+00;  4.0000000E+04;  0.0000000E+00;  4.0000000E+04;  7.9409328E-05;  0.0000000E+00;  1.1235659E-04;  3.7064163E+02;
 -2.9999999E-02;  9.9999998E-03;  2.3999999E-01;1614;  0.0000000E+00;  0.0000000E+00;  0.0000000E+00;  1.0051606E+03;  1.0000000E-01;  4.2754346E+03;0;  0.0000000E+00;  0.0000000E+00;  0.0000000E+00;0;  2.2481227E-02;  4.0000000E+04;  0.0000000E+00;  0.0000000E+00;  4.0000000E+04;  0.0000000E+00;  4.0000000E+04;  2.2827664E-02;  0.0000000E+00; -3.4643678E-04;  2.2039509E+03;
 -2.9999999E-02;  9.9999998E-03;  2.5000000E-01;1615;  0.0000000E+00;  0.0000000E+00;  0.0000000E+00;  1.0047693E+03;  1.0000000E-01;  3.9512957E+03;0;  0.0000000E+00;  0.0000000E+00;  0.0000000E+00;0;  2.0753419E-02;  4.0000000E+04;  0.0000000E+00;  0.0000000E+00;  4.0000000E+04;  0.0000000E+00;  4.0000000E+04;  2.0829394E-02;  0.0000000E+00; -7.5975331E-05;  1.7461360E+03;
 -2.9999999E-02;  9.9999998E-03;  2.5999999E-01;1616;  0.0000000E+00;  0.0000000E+00;  0.0000000E+00;  1.0043863E+03;  1.0000000E-01;  3.6339712E+03;0;  0.0000000E+00;  0.0000000E+00;  0.0000000E+00;0;  1.8819505E-02;  4.0000000E+04;  0.0000000E+00;  0.0000000E+00;  4.0000000E+04;  0.0000000E+00;  4.0000000E+04;  1.8591581E-02;  0.0000000E+00;  2.2792457E-04;  1.1685663E+03;
 -2.9999999E-02;  9.9999998E-03;  2.7000001E-01;1617;  0.0000000E+00;  0.0000000E+00;  0.0000000E+00;  1.0039992E+03;  1.0000000E-01;  3.3132891E+03;0;  0.0000000E+00;  0.0000000E+00;  0.0000000E+00;0;  1.6725605E-02;  4.0000000E+04;  0.0000000E+00;  0.0000000E+00;  4.0000000E+04;  0.0000000E+00;  4.0000000E+04;  1.6190933E-02;  0.0000000E+00;  5.3467293E-04;  5.5782202E+02;
 -2.9999999E-02;  9.9999998E-03;  2.8000000E-01;1618;  0.0000000E+00;  0.0000000E+00;  0.0000000E+00;  1.0036042E+03;  1.0000000E-01;  2.9859895E+03;0;  0.0000000E+00;  0.0000000E+00;  0.0000000E+00;0;  1.4533618E-02;  4.0000000E+04;  0.0000000E+00;  0.0000000E+00;  4.0000000E+04;  0.0000000E+00;  4.0000000E+04;  1.3724481E-02;  0.0000000E+00;  8.0913666E-04;  4.2879764E+02;
 -2.9999999E-02;  9.9999998E-03;  2.8999999E-01;1619;  0.0000000E+00;  0.0000000E+00;  0.0000000E+00;  1.0032013E+03;  1.0000000E-01;  2.6521719E+03;0;  0.0000000E+00;  0.0000000E+00;  0.0000000E+00;0;  1.2319174E-02;  4.0000000E+04;  0.0000000E+00;  0.0000000E+00;  4.0000000E+04;  0.0000000E+00;  4.0000000E+04;  1.1299890E-02;  0.0000000E+00;  1.0192842E-03;  9.5410583E+02;
 -2.9999999E-02;  9.9999998E-03;  3.0000001E-01;1620;  0.0000000E+00;  0.0000000E+00;  0.0000000E+00;  1.0027916E+03;  1.0000000E-01;  2.3127246E+03;0;  0.0000000E+00;  0.0000000E+00;  0.0000000E+00;0;  1.0165788E-02;  4.0000000E+04;  0.0000000E+00;  0.0000000E+00;  4.0000000E+04;  0.0000000E+00;  4.0000000E+04;  9.0210037E-03;  0.0000000E+00;  1.1447847E-03;  1.4420709E+03;
 -2.9999999E-02;  9.9999998E-03;  3.1000000E-01;1621;  0.0000000E+00;  0.0000000E+00;  0.0000000E+00;  1.0023742E+03;  1.0000000E-01;  1.9669567E+03;0;  0.0000000E+00;  0.0000000E+00;  0.0000000E+00;0;  8.1548942E-03;  4.0000000E+04;  0.0000000E+00;  0.0000000E+00;  4.0000000E+04;  0.0000000E+00;  4.0000000E+04;  6.9724736E-03;  0.0000000E+00;  1.1824203E-03;  1.7813004E+03;
 -2.9999999E-02;  9.9999998E-03;  3.1999999E-01;1622;  0.0000000E+00;  0.0000000E+00;  0.0000000E+00;  1.0019702E+03;  1.0000000E-01;  1.6322501E+03;0;  0.0000000E+00;  0.0000000E+00;  0.0000000E+00;0;  6.3532051E-03;  4.0000000E+04;  0.0000000E+00;  0.0000000E+00;  4.0000000E+04;  0.0000000E+00;  4.0000000E+04;  5.2090613E-03;  0.0000000E+00;  1.1441435E-03;  1.9554359E+03;
 -2.9999999E-02;  9.9999998E-03;  3.3000001E-01;1623;  0.0000000E+00;  0.0000000E+00;  0.0000000E+00;  1.0015914E+03;  1.0000000E-01;  1.3184812E+03;0;  0.0000000E+00;  0.0000000E+00;  0.0000000E+00;0;  4.8035844E-03;  4.0000000E+04;  0.0000000E+00;  0.0000000E+00;  4.0000000E+04;  0.0000000E+00;  4.0000000E+04;  3.7536488E-03;  0.0000000E+00;  1.0499357E-03;  1.9807811E+03;
 -2.9999999E-02;  9.9999998E-03;  3.4000000E-01;1624;  0.0000000E+00;  0.0000000E+00;  0.0000000E+00;  1.0012483E+03;  1.0000000E-01;  1.0341436E+03;0;  0.0000000E+00;  0.0000000E+00;  0.0000000E+00;0;  3.5224999E-03;  4.0000000E+04;  0.0000000E+00;  0.0000000E+00;  4.0000000E+04;  0.0000000E+00;  4.0000000E+04;  2.6016175E-03;  0.0000000E+00;  9.2088239E-04;  1.8884829E+03;
 -2.9999999E-02;  9.9999998E-03;  3.4999999E-01;1625;  0.0000000E+00;  0.0000000E+00;  0.0000000E+00;  1.0009532E+03;  1.0000000E-01;  7.8970605E+02;0;  0.0000000E+00;  0.0000000E+00;  0.0000000E+00;0;  2.5028675E-03;  4.0000000E+04;  0.0000000E+00;  0.0000000E+00;  4.0000000E+04;  0.0000000E+00;  4.0000000E+04;  1.7278279E-03;  0.0000000E+00;  7.7503955E-04;  1.7127208E+03;
 -2.9999999E-02;  9.9999998E-03;  3.6000001E-01;1626;  0.0000000E+00;  0.0000000E+00;  0.0000000E+00;  1.0007084E+03;  1.0000000E-01;  5.8684760E+02;0;  0.0000000E+00;  0.0000000E+00;  0.0000000E+00;0;  1.7201249E-03;  4.0000000E+04;  0.0000000E+00;  0.0000000E+00;  4.0000000E+04;  0.0000000E+00;  4.0000000E+04;  1.0940812E-03;  0.0000000E+00;  6.2604365E-04;  1.4842797E+03;
 -2.9999999E-02;  9.9999998E-03;  3.7000000E-01;1627;  0.0000000E+00;  0.0000000E+00;  0.0000000E+00;  1.0005024E+03;  1.0000000E-01;  4.1628452E+02;0;  0.0000000E+00;  0.0000000E+00;  0.0000000E+00;0;  1.1394257E-03;  4.0000000E+04;  0.0000000E+00;  0.0000000E+00;  4.0000000E+04;  0.0000000E+00;  4.0000000E+04;  6.5601419E-04;  0.0000000E+00;  4.8341142E-04;  1.2285010E+03;
 -2.9999999E-02;  9.9999998E-03;  3.8000000E-01;1628;  0.0000000E+00;  0.0000000E+00;  0.0000000E+00;  1.0003414E+03;  1.0000000E-01;  2.8285620E+02;0;  0.0000000E+00;  0.0000000E+00;  0.0000000E+00;0;  7.2241342E-04;  4.0000000E+04;  0.0000000E+00;  0.0000000E+00;  4.0000000E+04;  0.0000000E+00;  4.0000000E+04;  3.6884949E-04;  0.0000000E+00;  3.5356393E-04;  9.6572827E+02;
 -2.9999999E-02;  9.9999998E-03;  3.8999999E-01;1629;  0.0000000E+00;  0.0000000E+00;  0.0000000E+00;  1.0002195E+03;  1.0000000E-01;  1.8192078E+02;0;  0.0000000E+00;  0.0000000E+00;  0.0000000E+00;0;  4.3261377E-04;  4.0000000E+04;  0.0000000E+00;  0.0000000E+00;  4.0000000E+04;  0.0000000E+00;  4.0000000E+04;  1.9165098E-04;  0.0000000E+00;  2.4096278E-04;  7.1287646E+02;
 -2.9999999E-02;  9.9999998E-03;  4.0000001E-01;1630;  0.0000000E+00;  0.0000000E+00;  0.0000000E+00;  1.0001212E+03;  1.0000000E-01;  1.0034284E+02;0;  0.0000000E+00;  0.0000000E+00;  0.0000000E+00;0;  2.3895894E-04;  4.0000000E+04;  0.0000000E+00;  0.0000000E+00;  4.0000000E+04;  0.0000000E+00;  4.0000000E+04;  8.9960799E-05;  0.0000000E+00;  1.4899814E-04;  4.8490717E+02;
 -2.0000000E-02;  9.9999998E-03;  2.3999999E-01;1705;  0.0000000E+00;  0.0000000E+00;  0.0000000E+00;  1.0068088E+03;  1.0000000E-01;  5.6409268E+03;0;  0.0000000E+00;  0.0000000E+00;  0.0000000E+00;0;  2.3937183E-02;  4.0000000E+04;  0.0000000E+00;  0.0000000E+00;  4.0000000E+04;  0.0000000E+00;  4.0000000E+04;  2.4338182E-02;  0.0000000E+00; -4.0099915E-04;  2.5468667E+03;
 -2.0000000E-02;  9.9999998E-03;  2.5000000E-01;1706;  0.0000000E+00;  0.0000000E+00;  0.0000000E+00;  1.0062964E+03;  1.0000000E-01;  5.2164448E+03;0;  0.0000000E+00;  0.0000000E+00;  0.0000000E+00;0;  2.2155499E-02;  4.0000000E+04;  0.0000000E+00;  0.0000000E+00;  4.0000000E+04;  0.0000000E+00;  4.0000000E+04;  2.2239083E-02;  0.0000000E+00; -8.3583443E-05;  2.0442239E+03;
 -2.0000000E-02;  9.9999998E-03;  2.5999999E-01;1707;  0.0000000E+00;  0.0000000E+00;  0.0000000E+00;  1.0057876E+03;  1.0000000E-01;  4.7949263E+03;0;  0.0000000E+00;  0.0000000E+00;  0.0000000E+00;0;  2.0147353E-02;  4.0000000E+04;  0.0000000E+00;  0.0000000E+00;  4.0000000E+04;  0.0000000E+00;  4.0000000E+04;  1.9869445E-02;  0.0000000E+00;  2.7790910E-04;  1.3850994E+03;
 -2.0000000E-02;  9.9999998E-03;  2.7000001E-01;1708;  0.0000000E+00;  0.0000000E+00;  0.0000000E+00;  1.0052715E+03;  1.0000000E-01;  4.3673828E+03;0;  0.0000000E+00;  0.0000000E+00;  0.0000000E+00;0;  1.7957360E-02;  4.0000000E+04;  0.0000000E+00;  0.0000000E+00;  4.0000000E+04;  0.0000000E+00;  4.0000000E+04;  1.7310847E-02;  0.0000000E+00;  6.4651208E-04;  6.6379187E+02;
 -2.0000000E-02;  9.9999998E-03;  2.8000000E-01;1709;  0.0000000E+00;  0.0000000E+00;  0.0000000E+00;  1.0047504E+03;  1.0000000E-01;  3.9355923E+03;0;  0.0000000E+00;  0.0000000E+00;  0.0000000E+00;0;  1.5646795E-02;  4.0000000E+04;  0.0000000E+00;  0.0000000E+00;  4.0000000E+04;  0.0000000E+00;  4.0000000E+04;  1.4669389E-02;  0.0000000E+00;  9.7740546E-04;  4.7607593E+02;
 -2.0000000E-02;  9.9999998E-03;  2.8999999E-01;1710;  0.0000000E+00;  0.0000000E+00;  0.0000000E+00;  1.0042159E+03;  1.0000000E-01;  3.4927407E+03;0;  0.0000000E+00;  0.0000000E+00;  0.0000000E+00;0;  1.3293850E-02;  4.0000000E+04;  0.0000000E+00;  0.0000000E+00;  4.0000000E+04;  0.0000000E+00;  4.0000000E+04;  1.2065737E-02;  0.0000000E+00;  1.2281137E-03;  1.1035688E+03;
 -2.0000000E-02;  9.9999998E-03;  3.0000001E-01;1711;  0.0000000E+00;  0.0000000E+00;  0.0000000E+00;  1.0036671E+03;  1.0000000E-01;  3.0381362E+03;0;  0.0000000E+00;  0.0000000E+00;  0.0000000E+00;0;  1.0990981E-02;  4.0000000E+04;  0.0000000E+00;  0.0000000E+00;  4.0000000E+04;  0.0000000E+00;  4.0000000E+04;  9.6185310E-03;  0.0000000E+00;  1.3724501E-03;  1.6838832E+03;
 -2.0000000E-02;  9.9999998E-03;  3.1000000E-01;1712;  0.0000000E+00;  0.0000000E+00;  0.0000000E+00;  1.0031188E+03;  1.0000000E-01;  2.5838281E+03;0;  0.0000000E+00;  0.0000000E+00;  0.0000000E+00;0;  8.8321613E-03;  4.0000000E+04;  0.0000000E+00;  0.0000000E+00;  4.0000000E+04;  0.0000000E+00;  4.0000000E+04;  7.4233981E-03;  0.0000000E+00;  1.4087630E-03;  2.0819165E+03;
 -2.0000000E-02;  9.9999998E-03;  3.1999999E-01;1713;  0.0000000E+00;  0.0000000E+00;  0.0000000E+00;  1.0025920E+03;  1.0000000E-01;  2.1474949E+03;0;  0.0000000E+00;  0.0000000E+00;  0.0000000E+00;0;  6.8939552E-03;  4.0000000E+04;  0.0000000E+00;  0.0000000E+00;  4.0000000E+04;  0.0000000E+00;  4.0000000E+04;  5.5389544E-03;  0.0000000E+00;  1.3550010E-03;  2.2818457E+03;
 -2.0000000E-02;  9.9999998E-03;  3.3000001E-01;1714;  0.0000000E+00;  0.0000000E+00;  0.0000000E+00;  1.0020914E+03;  1.0000000E-01;  1.7326918E+03;0;  0.0000000E+00;  0.0000000E+00;  0.0000000E+00;0;  5.2244104E-03;  4.0000000E+04;  0.0000000E+00;  0.0000000E+00;  4.0000000E+04;  0.0000000E+00;  4.0000000E+04;  3.9869412E-03;  0.0000000E+00;  1.2374695E-03;  2.3076604E+03;
 -2.0000000E-02;  9.9999998E-03;  3.4000000E-01;1715;  0.0000000E+00;  0.0000000E+00;  0.0000000E+00;  1.0016357E+03;  1.0000000E-01;  1.3552209E+03;0;  0.0000000E+00;  0.0000000E+00;  0.0000000E+00;0;  3.8419864E-03;  4.0000000E+04;  0.0000000E+00;  0.0000000E+00;  4.0000000E+04;  0.0000000E+00;  4.0000000E+04;  2.7599931E-03;  0.0000000E+00;  1.0819932E-03;  2.1991787E+03;
 -2.0000000E-02;  9.9999998E-03;  3.4999999E-01;1716;  0.0000000E+00;  0.0000000E+00;  0.0000000E+00;  1.0012531E+03;  1.0000000E-01;  1.0380941E+03;0;  0.0000000E+00;  0.0000000E+00;  0.0000000E+00;0;  2.7396297E-03;  4.0000000E+04;  0.0000000E+00;  0.0000000E+00;  4.0000000E+04;  0.0000000E+00;  4.0000000E+04;  1.8300409E-03;  0.0000000E+00;  9.0958882E-04;  1.9973154E+03;
 -2.0000000E-02;  9.9999998E-03;  3.6000001E-01;1717;  0.0000000E+00;  0.0000000E+00;  0.0000000E+00;  1.0009240E+03;  1.0000000E-01;  7.6550922E+02;0;  0.0000000E+00;  0.0000000E+00;  0.0000000E+00;0;  1.8915151E-03;  4.0000000E+04;  0.0000000E+00;  0.0000000E+00;  4.0000000E+04;  0.0000000E+00;  4.0000000E+04;  1.1560118E-03;  0.0000000E+00;  7.3550327E-04;  1.7371979E+03;
 -2.0000000E-02;  9.9999998E-03;  3.7000000E-01;1718;  0.0000000E+00;  0.0000000E+00;  0.0000000E+00;  1.0006659E+03;  1.0000000E-01;  5.5168811E+02;0;  0.0000000E+00;  0.0000000E+00;  0.0000000E+00;0;  1.2607446E-03;  4.0000000E+04;  0.0000000E+00;  0.0000000E+00;  4.0000000E+04;  0.0000000E+00;  4.0000000E+04;  6.9070922E-04;  0.0000000E+00;  5.7003536E-04;  1.4466948E+03;
 -2.0000000E-02;  9.9999998E-03;  3.8000000E-01;1719;  0.0000000E+00;  0.0000000E+00;  0.0000000E+00;  1.0004437E+03;  1.0000000E-01;  3.6759454E+02;0;  0.0000000E+00;  0.0000000E+00;  0.0000000E+00;0;  8.0642110E-04;  4.0000000E+04;  0.0000000E+00;  0.0000000E+00;  4.0000000E+04;  0.0000000E+00;  4.0000000E+04;  3.8649555E-04;  0.0000000E+00;  4.1992555E-04;  1.1477058E+03;
 -2.0000000E-02;  9.9999998E-03;  3.8999999E-01;1720;  0.0000000E+00;  0.0000000E+00;  0.0000000E+00;  1.0002842E+03;  1.0000000E-01;  2.3545013E+02;0;  0.0000000E+00;  0.0000000E+00;  0.0000000E+00;0;  4.8931630E-04;  4.0000000E+04;  0.0000000E+00;  0.0000000E+00;  4.0000000E+04;  0.0000000E+00;  4.0000000E+04;  1.9961587E-04;  0.0000000E+00;  2.8970046E-04;  8.5818457E+02;
 -2.0000000E-02;  9.9999998E-03;  4.0000001E-01;1721;  0.0000000E+00;  0.0000000E+00;  0.0000000E+00;  1.0001624E+03;  1.0000000E-01;  1.3451471E+02;0;  0.0000000E+00;  0.0000000E+00;  0.0000000E+00;0;  2.7570268E-04;  4.0000000E+04;  0.0000000E+00;  0.0000000E+00;  4.0000000E+04;  0.0000000E+00;  4.0000000E+04;  9.3026567E-05;  0.0000000E+00;  1.8267611E-04;  5.9428204E+02;
 -9.9999998E-03;  9.9999998E-03;  2.3999999E-01;1796;  0.0000000E+00;  0.0000000E+00;  0.0000000E+00;  1.0086114E+03;  1.0000000E-01;  7.1344155E+03;0;  0.0000000E+00;  0.0000000E+00;  0.0000000E+00;0;  2.4256626E-02;  4.0000000E+04;  0.0000000E+00;  0.0000000E+00;  4.0000000E+04;  0.0000000E+00;  4.0000000E+04;  2.4707453E-02;  0.0000000E+00; -4.5082747E-04;  2.8453635E+03;
 -9.9999998E-03;  9.9999998E-03;  2.5000000E-01;1797;  0.0000000E+00;  0.0000000E+00;  0.0000000E+00;  1.0079689E+03;  1.0000000E-01;  6.6020850E+03;0;  0.0000000E+00;  0.0000000E+00;  0.0000000E+00;0;  2.2523196E-02;  4.0000000E+04;  0.0000000E+00;  0.0000000E+00;  4.0000000E+04;  0.0000000E+00;  4.0000000E+04;  2.2617251E-02;  0.0000000E+00; -9.4053510E-05;  2.3231963E+03;
 -9.9999998E-03;  9.9999998E-03;  2.5999999E-01;1798;  0.0000000E+00;  0.0000000E+00;  0.0000000E+00;  1.0073250E+03;  1.0000000E-01;  6.0685693E+03;0;  0.0000000E+00;  0.0000000E+00;  0.0000000E+00;0;  2.0556148E-02;  4.0000000E+04;  0.0000000E+00;  0.0000000E+00;  4.0000000E+04;  0.0000000E+00;  4.0000000E+04;  2.0236794E-02;  0.0000000E+00;  3.1935330E-04;  1.6036942E+03;
 -9.9999998E-03;  9.9999998E-03;  2.7000001E-01;1799;  0.0000000E+00;  0.0000000E+00;  0.0000000E+00;  1.0066705E+03;  1.0000000E-01;  5.5263623E+03;0;  0.0000000E+00;  0.0000000E+00;  0.0000000E+00;0;  1.8395413E-02;  4.0000000E+04;  0.0000000E+00;  0.0000000E+00;  4.0000000E+04;  0.0000000E+00;  4.0000000E+04;  1.7648680E-02;  0.0000000E+00;  7.4673176E-04;  7.8532391E+02;
 -9.9999998E-03;  9.9999998E-03;  2.8000000E-01;1800;  0.0000000E+00;  0.0000000E+00;  0.0000000E+00;  1.0060047E+03;  1.0000000E-01;  4.9747729E+03;0;  0.0000000E+00;  0.0000000E+00;  0.0000000E+00;0;  1.6095774E-02;  4.0000000E+04;  0.0000000E+00;  0.0000000E+00;  4.0000000E+04;  0.0000000E+00;  4.0000000E+04;  1.4962771E-02;  0.0000000E+00;  1.1330028E-03;  5.1177109E+02;
 -9.9999998E-03;  9.9999998E-03;  2.8999999E-01;1801;  0.0000000E+00;  0.0000000E+00;  0.0000000E+00;  1.0053261E+03;  1.0000000E-01;  4.4126157E+03;0;  0.0000000E+00;  0.0000000E+00;  0.0000000E+00;0;  1.3728738E-02;  4.0000000E+04;  0.0000000E+00;  0.0000000E+00;  4.0000000E+04;  0.0000000E+00;  4.0000000E+04;  1.2306389E-02;  0.0000000E+00;  1.4223484E-03;  1.2278878E+03;
 -9.9999998E-03;  9.9999998E-03;  3.0000001E-01;1802;  0.0000000E+00;  0.0000000E+00;  0.0000000E+00;  1.0046359E+03;  1.0000000E-01;  3.8406814E+03;0;  0.0000000E+00;  0.0000000E+00;  0.0000000E+00;0;  1.1388675E-02;  4.0000000E+04;  0.0000000E+00;  0.0000000E+00;  4.0000000E+04;  0.0000000E+00;  4.0000000E+04;  9.8075848E-03;  0.0000000E+00;  1.5810906E-03;  1.8952263E+03;
 -9.9999998E-03;  9.9999998E-03;  3.1000000E-01;1803;  0.0000000E+00;  0.0000000E+00;  0.0000000E+00;  1.0039424E+03;  1.0000000E-01;  3.2661792E+03;0;  0.0000000E+00;  0.0000000E+00;  0.0000000E+00;0;  9.1800587E-03;  4.0000000E+04;  0.0000000E+00;  0.0000000E+00;  4.0000000E+04;  0.0000000E+00;  4.0000000E+04;  7.5688586E-03;  0.0000000E+00;  1.6112000E-03;  2.3451699E+03;
 -9.9999998E-03;  9.9999998E-03;  3.1999999E-01;1804;  0.0000000E+00;  0.0000000E+00;  0.0000000E+00;  1.0032618E+03;  1.0000000E-01;  2.7023433E+03;0;  0.0000000E+00;  0.0000000E+00;  0.0000000E+00;0;  7.1873600E-03;  4.0000000E+04;  0.0000000E+00;  0.0000000E+00;  4.0000000E+04;  0.0000000E+00;  4.0000000E+04;  5.6485170E-03;  0.0000000E+00;  1.5388431E-03;  2.5638052E+03;
 -9.9999998E-03;  9.9999998E-03;  3.3000001E-01;1805;  0.0000000E+00;  0.0000000E+00;  0.0000000E+00;  1.0026284E+03;  1.0000000E-01;  2.1776174E+03;0;  0.0000000E+00;  0.0000000E+00;  0.0000000E+00;0;  5.4633282E-03;  4.0000000E+04;  0.0000000E+00;  0.0000000E+00;  4.0000000E+04;  0.0000000E+00;  4.0000000E+04;  4.0661371E-03;  0.0000000E+00;  1.3971913E-03;  2.5854307E+03;
 -9.9999998E-03;  9.9999998E-03;  3.4000000E-01;1806;  0.0000000E+00;  0.0000000E+00;  0.0000000E+00;  1.0020700E+03;  1.0000000E-01;  1.7149144E+03;0;  0.0000000E+00;  0.0000000E+00;  0.0000000E+00;0;  4.0297499E-03;  4.0000000E+04;  0.0000000E+00;  0.0000000E+00;  4.0000000E+04;  0.0000000E+00;  4.0000000E+04;  2.8133723E-03;  0.0000000E+00;  1.2163777E-03;  2.4596775E+03;
 -9.9999998E-03;  9.9999998E-03;  3.4999999E-01;1807;  0.0000000E+00;  0.0000000E+00;  0.0000000E+00;  1.0015740E+03;  1.0000000E-01;  1.3040619E+03;0;  0.0000000E+00;  0.0000000E+00;  0.0000000E+00;0;  2.8818641E-03;  4.0000000E+04;  0.0000000E+00;  0.0000000E+00;  4.0000000E+04;  0.0000000E+00;  4.0000000E+04;  1.8621688E-03;  0.0000000E+00;  1.0196953E-03;  2.2337417E+03;
 -9.9999998E-03;  9.9999998E-03;  3.6000001E-01;1808;  0.0000000E+00;  0.0000000E+00;  0.0000000E+00;  1.0011640E+03;  1.0000000E-01;  9.6431842E+02;0;  0.0000000E+00;  0.0000000E+00;  0.0000000E+00;0;  1.9952378E-03;  4.0000000E+04;  0.0000000E+00;  0.0000000E+00;  4.0000000E+04;  0.0000000E+00;  4.0000000E+04;  1.1718163E-03;  0.0000000E+00;  8.2342152E-04;  1.9461720E+03;
 -9.9999998E-03;  9.9999998E-03;  3.7000000E-01;1809;  0.0000000E+00;  0.0000000E+00;  0.0000000E+00;  1.0008322E+03;  1.0000000E-01;  6.8946198E+02;0;  0.0000000E+00;  0.0000000E+00;  0.0000000E+00;0;  1.3335184E-03;  4.0000000E+04;  0.0000000E+00;  0.0000000E+00;  4.0000000E+04;  0.0000000E+00;  4.0000000E+04;  6.9526129E-04;  0.0000000E+00;  6.3825713E-04;  1.6266082E+03;
 -9.9999998E-03;  9.9999998E-03;  3.8000000E-01;1810;  0.0000000E+00;  0.0000000E+00;  0.0000000E+00;  1.0005748E+03;  1.0000000E-01;  4.7623346E+02;0;  0.0000000E+00;  0.0000000E+00;  0.0000000E+00;0;  8.5563515E-04;  4.0000000E+04;  0.0000000E+00;  0.0000000E+00;  4.0000000E+04;  0.0000000E+00;  4.0000000E+04;  3.8453576E-04;  0.0000000E+00;  4.7109943E-04;  1.2978490E+03;
 -9.9999998E-03;  9.9999998E-03;  3.8999999E-01;1811;  0.0000000E+00;  0.0000000E+00;  0.0000000E+00;  1.0003796E+03;  1.0000000E-01;  3.1446024E+02;0;  0.0000000E+00;  0.0000000E+00;  0.0000000E+00;0;  5.2157562E-04;  4.0000000E+04;  0.0000000E+00;  0.0000000E+00;  4.0000000E+04;  0.0000000E+00;  4.0000000E+04;  1.9503002E-04;  0.0000000E+00;  3.2654559E-04;  9.7863086E+02;
 -9.9999998E-03;  9.9999998E-03;  4.0000001E-01;1812;  0.0000000E+00;  0.0000000E+00;  0.0000000E+00;  1.0002291E+03;  1.0000000E-01;  1.8982179E+02;0;  0.0000000E+00;  0.0000000E+00;  0.0000000E+00;0;  2.9632874E-04;  4.0000000E+04;  0.0000000E+00;  0.0000000E+00;  4.0000000E+04;  0.0000000E+00;  4.0000000E+04;  8.8449335E-05;  0.0000000E+00;  2.0787939E-04;  6.8589374E+02;
  0.0000000E+00;  9.9999998E-03;  3.0000001E-01;1834;  0.0000000E+00;  0.0000000E+00;  0.0000000E+00;  1.0056440E+03;  1.0000000E-01;  4.6760161E+03;0;  0.0000000E+00;  0.0000000E+00;  0.0000000E+00;0;  1.1322916E-02;  4.0000000E+04;  0.0000000E+00;  0.0000000E+00;  4.0000000E+04;  0.0000000E+00;  4.0000000E+04;  9.5809130E-03;  0.0000000E+00;  1.7420026E-03;  2.0473491E+03;
  0.0000000E+00;  9.9999998E-03;  3.1000000E-01;1835;  0.0000000E+00;  0.0000000E+00;  0.0000000E+00;  1.0047864E+03;  1.0000000E-01;  3.9655176E+03;0;  0.0000000E+00;  0.0000000E+00;  0.0000000E+00;0;  9.1837402E-03;  4.0000000E+04;  0.0000000E+00;  0.0000000E+00;  4.0000000E+04;  0.0000000E+00;  4.0000000E+04;  7.4210367E-03;  0.0000000E+00;  1.7627034E-03;  2.5411094E+03;
  0.0000000E+00;  9.9999998E-03;  3.1999999E-01;1836;  0.0000000E+00;  0.0000000E+00;  0.0000000E+00;  1.0039531E+03;  1.0000000E-01;  3.2750679E+03;0;  0.0000000E+00;  0.0000000E+00;  0.0000000E+00;0;  7.2305938E-03;  4.0000000E+04;  0.0000000E+00;  0.0000000E+00;  4.0000000E+04;  0.0000000E+00;  4.0000000E+04;  5.5584721E-03;  0.0000000E+00;  1.6721215E-03;  2.7720806E+03;
  0.0000000E+00;  9.9999998E-03;  3.3000001E-01;1837;  0.0000000E+00;  0.0000000E+00;  0.0000000E+00;  1.0031808E+03;  1.0000000E-01;  2.6351848E+03;0;  0.0000000E+00;  0.0000000E+00;  0.0000000E+00;0;  5.5237813E-03;  4.0000000E+04;  0.0000000E+00;  0.0000000E+00;  4.0000000E+04;  0.0000000E+00;  4.0000000E+04;  4.0141903E-03;  0.0000000E+00;  1.5095910E-03;  2.7878801E+03;
  0.0000000E+00;  9.9999998E-03;  3.4000000E-01;1838;  0.0000000E+00;  0.0000000E+00;  0.0000000E+00;  1.0024946E+03;  1.0000000E-01;  2.0667070E+03;0;  0.0000000E+00;  0.0000000E+00;  0.0000000E+00;0;  4.0919539E-03;  4.0000000E+04;  0.0000000E+00;  0.0000000E+00;  4.0000000E+04;  0.0000000E+00;  4.0000000E+04;  2.7835884E-03;  0.0000000E+00;  1.3083656E-03;  2.6475691E+03;
  0.0000000E+00;  9.9999998E-03;  3.4999999E-01;1839;  0.0000000E+00;  0.0000000E+00;  0.0000000E+00;  1.0019057E+03;  1.0000000E-01;  1.5788196E+03;0;  0.0000000E+00;  0.0000000E+00;  0.0000000E+00;0;  2.9363008E-03;  4.0000000E+04;  0.0000000E+00;  0.0000000E+00;  4.0000000E+04;  0.0000000E+00;  4.0000000E+04;  1.8433160E-03;  0.0000000E+00;  1.0929848E-03;  2.4030776E+03;
  0.0000000E+00;  9.9999998E-03;  3.6000001E-01;1840;  0.0000000E+00;  0.0000000E+00;  0.0000000E+00;  1.0014221E+03;  1.0000000E-01;  1.1781395E+03;0;  0.0000000E+00;  0.0000000E+00;  0.0000000E+00;0;  2.0372448E-03;  4.0000000E+04;  0.0000000E+00;  0.0000000E+00;  4.0000000E+04;  0.0000000E+00;  4.0000000E+04;  1.1571767E-03;  0.0000000E+00;  8.8006823E-04;  2.0949280E+03;
  0.0000000E+00;  9.9999998E-03;  3.7000000E-01;1841;  0.0000000E+00;  0.0000000E+00;  0.0000000E+00;  1.0010168E+03;  1.0000000E-01;  8.4234656E+02;0;  0.0000000E+00;  0.0000000E+00;  0.0000000E+00;0;  1.3621359E-03;  4.0000000E+04;  0.0000000E+00;  0.0000000E+00;  4.0000000E+04;  0.0000000E+00;  4.0000000E+04;  6.8177329E-04;  0.0000000E+00;  6.8036251E-04;  1.7537631E+03;
  0.0000000E+00;  9.9999998E-03;  3.8000000E-01;1842;  0.0000000E+00;  0.0000000E+00;  0.0000000E+00;  1.0007108E+03;  1.0000000E-01;  5.8892163E+02;0;  0.0000000E+00;  0.0000000E+00;  0.0000000E+00;0;  8.7246893E-04;  4.0000000E+04;  0.0000000E+00;  0.0000000E+00;  4.0000000E+04;  0.0000000E+00;  4.0000000E+04;  3.7163458E-04;  0.0000000E+00;  5.0083431E-04;  1.4029921E+03;
  0.0000000E+00;  9.9999998E-03;  3.8999999E-01;1843;  0.0000000E+00;  0.0000000E+00;  0.0000000E+00;  1.0004694E+03;  1.0000000E-01;  3.8882852E+02;0;  0.0000000E+00;  0.0000000E+00;  0.0000000E+00;0;  5.2971998E-04;  4.0000000E+04;  0.0000000E+00;  0.0000000E+00;  4.0000000E+04;  0.0000000E+00;  4.0000000E+04;  1.8346302E-04;  0.0000000E+00;  3.4625697E-04;  1.0620835E+03;
  0.0000000E+00;  9.9999998E-03;  4.0000001E-01;1844;  0.0000000E+00;  0.0000000E+00;  0.0000000E+00;  1.0002874E+03;  1.0000000E-01;  2.3811673E+02;0;  0.0000000E+00;  0.0000000E+00;  0.0000000E+00;0;  2.9934733E-04;  4.0000000E+04;  0.0000000E+00;  0.0000000E+00;  4.0000000E+04;  0.0000000E+00;  4.0000000E+04;  7.9256635E-05;  0.0000000E+00;  2.2009069E-04;  7.4885474E+02;
  9.9999998E-03;  9.9999998E-03;  3.1000000E-01;1865;  0.0000000E+00;  0.0000000E+00;  0.0000000E+00;  1.0056027E+03;  1.0000000E-01;  4.6417451E+03;0;  0.0000000E+00;  0.0000000E+00;  0.0000000E+00;0;  8.8996273E-03;  4.0000000E+04;  0.0000000E+00;  0.0000000E+00;  4.0000000E+04;  0.0000000E+00;  4.0000000E+04;  7.0644417E-03;  0.0000000E+00;  1.8351859E-03;  2.6400608E+03;
  9.9999998E-03;  9.9999998E-03;  3.1999999E-01;1866;  0.0000000E+00;  0.0000000E+00;  0.0000000E+00;  1.0046213E+03;  1.0000000E-01;  3.8286326E+03;0;  0.0000000E+00;  0.0000000E+00;  0.0000000E+00;0;  7.0706923E-03;  4.0000000E+04;  0.0000000E+00;  0.0000000E+00;  4.0000000E+04;  0.0000000E+00;  4.0000000E+04;  5.3381580E-03;  0.0000000E+00;  1.7325344E-03;  2.8826279E+03;
  9.9999998E-03;  9.9999998E-03;  3.3000001E-01;1867;  0.0000000E+00;  0.0000000E+00;  0.0000000E+00;  1.0037172E+03;  1.0000000E-01;  3.0796167E+03;0;  0.0000000E+00;  0.0000000E+00;  0.0000000E+00;0;  5.4445341E-03;  4.0000000E+04;  0.0000000E+00;  0.0000000E+00;  4.0000000E+04;  0.0000000E+00;  4.0000000E+04;  3.8867642E-03;  0.0000000E+00;  1.5577702E-03;  2.8982869E+03;
  9.9999998E-03;  9.9999998E-03;  3.4000000E-01;1868;  0.0000000E+00;  0.0000000E+00;  0.0000000E+00;  1.0029099E+03;  1.0000000E-01;  2.4107959E+03;0;  0.0000000E+00;  0.0000000E+00;  0.0000000E+00;0;  4.0601953E-03;  4.0000000E+04;  0.0000000E+00;  0.0000000E+00;  4.0000000E+04;  0.0000000E+00;  4.0000000E+04;  2.7146053E-03;  0.0000000E+00;  1.3455900E-03;  2.7522930E+03;
  9.9999998E-03;  9.9999998E-03;  3.4999999E-01;1869;  0.0000000E+00;  0.0000000E+00;  0.0000000E+00;  1.0022188E+03;  1.0000000E-01;  1.8381703E+03;0;  0.0000000E+00;  0.0000000E+00;  0.0000000E+00;0;  2.9283343E-03;  4.0000000E+04;  0.0000000E+00;  0.0000000E+00;  4.0000000E+04;  0.0000000E+00;  4.0000000E+04;  1.8076940E-03;  0.0000000E+00;  1.1206404E-03;  2.4988284E+03;
  9.9999998E-03;  9.9999998E-03;  3.6000001E-01;1870;  0.0000000E+00;  0.0000000E+00;  0.0000000E+00;  1.0016595E+03;  1.0000000E-01;  1.3748748E+03;0;  0.0000000E+00;  0.0000000E+00;  0.0000000E+00;0;  2.0375410E-03;  4.0000000E+04;  0.0000000E+00;  0.0000000E+00;  4.0000000E+04;  0.0000000E+00;  4.0000000E+04;  1.1382811E-03;  0.0000000E+00;  8.9925999E-04;  2.1792859E+03;
  9.9999998E-03;  9.9999998E-03;  3.7000000E-01;1871;  0.0000000E+00;  0.0000000E+00;  0.0000000E+00;  1.0011901E+03;  1.0000000E-01;  9.8594745E+02;0;  0.0000000E+00;  0.0000000E+00;  0.0000000E+00;0;  1.3618807E-03;  4.0000000E+04;  0.0000000E+00;  0.0000000E+00;  4.0000000E+04;  0.0000000E+00;  4.0000000E+04;  6.6985813E-04;  0.0000000E+00;  6.9202250E-04;  1.8247710E+03;
  9.9999998E-03;  9.9999998E-03;  3.8000000E-01;1872;  0.0000000E+00;  0.0000000E+00;  0.0000000E+00;  1.0008315E+03;  1.0000000E-01;  6.8886938E+02;0;  0.0000000E+00;  0.0000000E+00;  0.0000000E+00;0;  8.6799322E-04;  4.0000000E+04;  0.0000000E+00;  0.0000000E+00;  4.0000000E+04;  0.0000000E+00;  4.0000000E+04;  3.6198957E-04;  0.0000000E+00;  5.0600368E-04;  1.4594865E+03;
  9.9999998E-03;  9.9999998E-03;  3.8999999E-01;1873;  0.0000000E+00;  0.0000000E+00;  0.0000000E+00;  1.0005525E+03;  1.0000000E-01;  4.5776483E+02;0;  0.0000000E+00;  0.0000000E+00;  0.0000000E+00;0;  5.2102131E-04;  4.0000000E+04;  0.0000000E+00;  0.0000000E+00;  4.0000000E+04;  0.0000000E+00;  4.0000000E+04;  1.7464453E-04;  0.0000000E+00;  3.4637679E-04;  1.1041068E+03;
  9.9999998E-03;  9.9999998E-03;  4.0000001E-01;1874;  0.0000000E+00;  0.0000000E+00;  0.0000000E+00;  1.0003432E+03;  1.0000000E-01;  2.8433765E+02;0;  0.0000000E+00;  0.0000000E+00;  0.0000000E+00;0;  2.8864705E-04;  4.0000000E+04;  0.0000000E+00;  0.0000000E+00;  4.0000000E+04;  0.0000000E+00;  4.0000000E+04;  7.1536611E-05;  0.0000000E+00;  2.1711043E-04;  7.7790149E+02;
  2.0000000E-02;  9.9999998E-03;  3.1000000E-01;1895;  0.0000000E+00;  0.0000000E+00;  0.0000000E+00;  1.0063135E+03;  1.0000000E-01;  5.2306670E+03;0;  0.0000000E+00;  0.0000000E+00;  0.0000000E+00;0;  8.4515261E-03;  4.0000000E+04;  0.0000000E+00;  0.0000000E+00;  4.0000000E+04;  0.0000000E+00;  4.0000000E+04;  6.6431738E-03;  0.0000000E+00;  1.8083524E-03;  2.6274216E+03;
  2.0000000E-02;  9.9999998E-03;  3.1999999E-01;1896;  0.0000000E+00;  0.0000000E+00;  0.0000000E+00;  1.0052076E+03;  1.0000000E-01;  4.3144458E+03;0;  0.0000000E+00;  0.0000000E+00;  0.0000000E+00;0;  6.7992765E-03;  4.0000000E+04;  0.0000000E+00;  0.0000000E+00;  4.0000000E+04;  0.0000000E+00;  4.0000000E+04;  5.0939461E-03;  0.0000000E+00;  1.7053304E-03;  2.8895515E+03;
  2.0000000E-02;  9.9999998E-03;  3.3000001E-01;1897;  0.0000000E+00;  0.0000000E+00;  0.0000000E+00;  1.0041836E+03;  1.0000000E-01;  3.4660747E+03;0;  0.0000000E+00;  0.0000000E+00;  0.0000000E+00;0;  5.2943616E-03;  4.0000000E+04;  0.0000000E+00;  0.0000000E+00;  4.0000000E+04;  0.0000000E+00;  4.0000000E+04;  3.7624096E-03;  0.0000000E+00;  1.5319522E-03;  2.9190769E+03;
  2.0000000E-02;  9.9999998E-03;  3.4000000E-01;1898;  0.0000000E+00;  0.0000000E+00;  0.0000000E+00;  1.0032791E+03;  1.0000000E-01;  2.7166638E+03;0;  0.0000000E+00;  0.0000000E+00;  0.0000000E+00;0;  3.9865831E-03;  4.0000000E+04;  0.0000000E+00;  0.0000000E+00;  4.0000000E+04;  0.0000000E+00;  4.0000000E+04;  2.6643963E-03;  0.0000000E+00;  1.3221870E-03;  2.7819336E+03;
  2.0000000E-02;  9.9999998E-03;  3.4999999E-01;1899;  0.0000000E+00;  0.0000000E+00;  0.0000000E+00;  1.0025031E+03;  1.0000000E-01;  2.0738179E+03;0;  0.0000000E+00;  0.0000000E+00;  0.0000000E+00;0;  2.8976873E-03;  4.0000000E+04;  0.0000000E+00;  0.0000000E+00;  4.0000000E+04;  0.0000000E+00;  4.0000000E+04;  1.7980431E-03;  0.0000000E+00;  1.0996442E-03;  2.5322329E+03;
  2.0000000E-02;  9.9999998E-03;  3.6000001E-01;1900;  0.0000000E+00;  0.0000000E+00;  0.0000000E+00;  1.0018658E+03;  1.0000000E-01;  1.5457340E+03;0;  0.0000000E+00;  0.0000000E+00;  0.0000000E+00;0;  2.0265547E-03;  4.0000000E+04;  0.0000000E+00;  0.0000000E+00;  4.0000000E+04;  0.0000000E+00;  4.0000000E+04;  1.1466010E-03;  0.0000000E+00;  8.7995350E-04;  2.2113774E+03;
  2.0000000E-02;  9.9999998E-03;  3.7000000E-01;1901;  0.0000000E+00;  0.0000000E+00;  0.0000000E+00;  1.0013497E+03;  1.0000000E-01;  1.1181906E+03;0;  0.0000000E+00;  0.0000000E+00;  0.0000000E+00;0;  1.3560320E-03;  4.0000000E+04;  0.0000000E+00;  0.0000000E+00;  4.0000000E+04;  0.0000000E+00;  4.0000000E+04;  6.8256736E-04;  0.0000000E+00;  6.7346462E-04;  1.8509821E+03;
  2.0000000E-02;  9.9999998E-03;  3.8000000E-01;1902;  0.0000000E+00;  0.0000000E+00;  0.0000000E+00;  1.0009442E+03;  1.0000000E-01;  7.8220007E+02;0;  0.0000000E+00;  0.0000000E+00;  0.0000000E+00;0;  8.5978949E-04;  4.0000000E+04;  0.0000000E+00;  0.0000000E+00;  4.0000000E+04;  0.0000000E+00;  4.0000000E+04;  3.7225970E-04;  0.0000000E+00;  4.8752979E-04;  1.4766600E+03;
  2.0000000E-02;  9.9999998E-03;  3.8999999E-01;1903;  0.0000000E+00;  0.0000000E+00;  0.0000000E+00;  1.0006360E+03;  1.0000000E-01;  5.2699744E+02;0;  0.0000000E+00;  0.0000000E+00;  0.0000000E+00;0;  5.0828804E-04;  4.0000000E+04;  0.0000000E+00;  0.0000000E+00;  4.0000000E+04;  0.0000000E+00;  4.0000000E+04;  1.8027576E-04;  0.0000000E+00;  3.2801228E-04;  1.1111979E+03;
  2.0000000E-02;  9.9999998E-03;  4.0000001E-01;1904;  0.0000000E+00;  0.0000000E+00;  0.0000000E+00;  1.0004037E+03;  1.0000000E-01;  3.3450906E+02;0;  0.0000000E+00;  0.0000000E+00;  0.0000000E+00;0;  2.7286058E-04;  4.0000000E+04;  0.0000000E+00;  0.0000000E+00;  4.0000000E+04;  0.0000000E+00;  4.0000000E+04;  7.3068935E-05;  0.0000000E+00;  1.9979163E-04;  7.7639032E+02;
  2.9999999E-02;  9.9999998E-03;  3.1000000E-01;1925;  0.0000000E+00;  0.0000000E+00;  0.0000000E+00;  1.0068843E+03;  1.0000000E-01;  5.7035425E+03;0;  0.0000000E+00;  0.0000000E+00;  0.0000000E+00;0;  7.9936385E-03;  4.0000000E+04;  0.0000000E+00;  0.0000000E+00;  4.0000000E+04;  0.0000000E+00;  4.0000000E+04;  6.3155526E-03;  0.0000000E+00;  1.6780860E-03;  2.5299697E+03;
  2.9999999E-02;  9.9999998E-03;  3.1999999E-01;1926;  0.0000000E+00;  0.0000000E+00;  0.0000000E+00;  1.0056782E+03;  1.0000000E-01;  4.7042622E+03;0;  0.0000000E+00;  0.0000000E+00;  0.0000000E+00;0;  6.5293047E-03;  4.0000000E+04;  0.0000000E+00;  0.0000000E+00;  4.0000000E+04;  0.0000000E+00;  4.0000000E+04;  4.9401135E-03;  0.0000000E+00;  1.5891911E-03;  2.8203765E+03;
  2.9999999E-02;  9.9999998E-03;  3.3000001E-01;1927;  0.0000000E+00;  0.0000000E+00;  0.0000000E+00;  1.0045634E+03;  1.0000000E-01;  3.7806338E+03;0;  0.0000000E+00;  0.0000000E+00;  0.0000000E+00;0;  5.1562525E-03;  4.0000000E+04;  0.0000000E+00;  0.0000000E+00;  4.0000000E+04;  0.0000000E+00;  4.0000000E+04;  3.7228772E-03;  0.0000000E+00;  1.4333752E-03;  2.8801743E+03;
  2.9999999E-02;  9.9999998E-03;  3.4000000E-01;1928;  0.0000000E+00;  0.0000000E+00;  0.0000000E+00;  1.0035694E+03;  1.0000000E-01;  2.9571509E+03;0;  0.0000000E+00;  0.0000000E+00;  0.0000000E+00;0;  3.9324914E-03;  4.0000000E+04;  0.0000000E+00;  0.0000000E+00;  4.0000000E+04;  0.0000000E+00;  4.0000000E+04;  2.6912454E-03;  0.0000000E+00;  1.2412460E-03;  2.7678101E+03;
  2.9999999E-02;  9.9999998E-03;  3.4999999E-01;1929;  0.0000000E+00;  0.0000000E+00;  0.0000000E+00;  1.0027269E+03;  1.0000000E-01;  2.2591953E+03;0;  0.0000000E+00;  0.0000000E+00;  0.0000000E+00;0;  2.8902143E-03;  4.0000000E+04;  0.0000000E+00;  0.0000000E+00;  4.0000000E+04;  0.0000000E+00;  4.0000000E+04;  1.8559352E-03;  0.0000000E+00;  1.0342791E-03;  2.5343936E+03;
  2.9999999E-02;  9.9999998E-03;  3.6000001E-01;1930;  0.0000000E+00;  0.0000000E+00;  0.0000000E+00;  1.0020287E+03;  1.0000000E-01;  1.6807426E+03;0;  0.0000000E+00;  0.0000000E+00;  0.0000000E+00;0;  2.0389343E-03;  4.0000000E+04;  0.0000000E+00;  0.0000000E+00;  4.0000000E+04;  0.0000000E+00;  4.0000000E+04;  1.2118425E-03;  0.0000000E+00;  8.2709169E-04;  2.2206079E+03;
  2.9999999E-02;  9.9999998E-03;  3.7000000E-01;1931;  0.0000000E+00;  0.0000000E+00;  0.0000000E+00;  1.0014785E+03;  1.0000000E-01;  1.2249530E+03;0;  0.0000000E+00;  0.0000000E+00;  0.0000000E+00;0;  1.3710551E-03;  4.0000000E+04;  0.0000000E+00;  0.0000000E+00;  4.0000000E+04;  0.0000000E+00;  4.0000000E+04;  7.4115471E-04;  0.0000000E+00;  6.2990043E-04;  1.8590072E+03;
  2.9999999E-02;  9.9999998E-03;  3.8000000E-01;1932;  0.0000000E+00;  0.0000000E+00;  0.0000000E+00;  1.0010353E+03;  1.0000000E-01;  8.5775354E+02;0;  0.0000000E+00;  0.0000000E+00;  0.0000000E+00;0;  8.6820871E-04;  4.0000000E+04;  0.0000000E+00;  0.0000000E+00;  4.0000000E+04;  0.0000000E+00;  4.0000000E+04;  4.1764349E-04;  0.0000000E+00;  4.5056525E-04;  1.4774263E+03;
  2.9999999E-02;  9.9999998E-03;  3.8999999E-01;1933;  0.0000000E+00;  0.0000000E+00;  0.0000000E+00;  1.0007010E+03;  1.0000000E-01;  5.8082306E+02;0;  0.0000000E+00;  0.0000000E+00;  0.0000000E+00;0;  5.0708035E-04;  4.0000000E+04;  0.0000000E+00;  0.0000000E+00;  4.0000000E+04;  0.0000000E+00;  4.0000000E+04;  2.1113962E-04;  0.0000000E+00;  2.9594070E-04;  1.1017756E+03;
  2.9999999E-02;  9.9999998E-03;  4.0000001E-01;1934;  0.0000000E+00;  0.0000000E+00;  0.0000000E+00;  1.0004472E+03;  1.0000000E-01;  3.7045865E+02;0;  0.0000000E+00;  0.0000000E+00;  0.0000000E+00;0;  2.6345963E-04;  4.0000000E+04;  0.0000000E+00;  0.0000000E+00;  4.0000000E+04;  0.0000000E+00;  4.0000000E+04;  9.1285423E-05;  0.0000000E+00;  1.7217422E-04;  7.5773328E+02;
  3.9999999E-02;  9.9999998E-03;  3.1000000E-01;1955;  0.0000000E+00;  0.0000000E+00;  0.0000000E+00;  1.0072936E+03;  1.0000000E-01;  6.0425947E+03;0;  0.0000000E+00;  0.0000000E+00;  0.0000000E+00;0;  7.6642944E-03;  4.0000000E+04;  0.0000000E+00;  0.0000000E+00;  4.0000000E+04;  0.0000000E+00;  4.0000000E+04;  6.2045809E-03;  0.0000000E+00;  1.4597136E-03;  2.4100183E+03;
  3.9999999E-02;  9.9999998E-03;  3.1999999E-01;1956;  0.0000000E+00;  0.0000000E+00;  0.0000000E+00;  1.0060134E+03;  1.0000000E-01;  4.9819824E+03;0;  0.0000000E+00;  0.0000000E+00;  0.0000000E+00;0;  6.3629420E-03;  4.0000000E+04;  0.0000000E+00;  0.0000000E+00;  4.0000000E+04;  0.0000000E+00;  4.0000000E+04;  4.9644276E-03;  0.0000000E+00;  1.3985145E-03;  2.7351396E+03;
  3.9999999E-02;  9.9999998E-03;  3.3000001E-01;1957;  0.0000000E+00;  0.0000000E+00;  0.0000000E+00;  1.0048378E+03;  1.0000000E-01;  4.0080842E+03;0;  0.0000000E+00;  0.0000000E+00;  0.0000000E+00;0;  5.1048021E-03;  4.0000000E+04;  0.0000000E+00;  0.0000000E+00;  4.0000000E+04;  0.0000000E+00;  4.0000000E+04;  3.8292964E-03;  0.0000000E+00;  1.2755056E-03;  2.8380144E+03;
  3.9999999E-02;  9.9999998E-03;  3.4000000E-01;1958;  0.0000000E+00;  0.0000000E+00;  0.0000000E+00;  1.0037937E+03;  1.0000000E-01;  3.1430222E+03;0;  0.0000000E+00;  0.0000000E+00;  0.0000000E+00;0;  3.9524985E-03;  4.0000000E+04;  0.0000000E+00;  0.0000000E+00;  4.0000000E+04;  0.0000000E+00;  4.0000000E+04;  2.8372302E-03;  0.0000000E+00;  1.1152683E-03;  2.7625098E+03;
  3.9999999E-02;  9.9999998E-03;  3.4999999E-01;1959;  0.0000000E+00;  0.0000000E+00;  0.0000000E+00;  1.0028988E+03;  1.0000000E-01;  2.4016111E+03;0;  0.0000000E+00;  0.0000000E+00;  0.0000000E+00;0;  2.9463950E-03;  4.0000000E+04;  0.0000000E+00;  0.0000000E+00;  4.0000000E+04;  0.0000000E+00;  4.0000000E+04;  2.0103171E-03;  0.0000000E+00;  9.3607779E-04;  2.5536321E+03;
  3.9999999E-02;  9.9999998E-03;  3.6000001E-01;1960;  0.0000000E+00;  0.0000000E+00;  0.0000000E+00;  1.0021616E+03;  1.0000000E-01;  1.7908629E+03;0;  0.0000000E+00;  0.0000000E+00;  0.0000000E+00;0;  2.1053120E-03;  4.0000000E+04;  0.0000000E+00;  0.0000000E+00;  4.0000000E+04;  0.0000000E+00;  4.0000000E+04;  1.3540374E-03;  0.0000000E+00;  7.5127464E-04;  2.2506646E+03;
  3.9999999E-02;  9.9999998E-03;  3.7000000E-01;1961;  0.0000000E+00;  0.0000000E+00;  0.0000000E+00;  1.0015631E+03;  1.0000000E-01;  1.2949757E+03;0;  0.0000000E+00;  0.0000000E+00;  0.0000000E+00;0;  1.4306455E-03;  4.0000000E+04;  0.0000000E+00;  0.0000000E+00;  4.0000000E+04;  0.0000000E+00;  4.0000000E+04;  8.5963082E-04;  0.0000000E+00;  5.7101465E-04;  1.8875961E+03;
  3.9999999E-02;  9.9999998E-03;  3.8000000E-01;1962;  0.0000000E+00;  0.0000000E+00;  0.0000000E+00;  1.0010983E+03;  1.0000000E-01;  9.0990021E+02;0;  0.0000000E+00;  0.0000000E+00;  0.0000000E+00;0;  9.1193733E-04;  4.0000000E+04;  0.0000000E+00;  0.0000000E+00;  4.0000000E+04;  0.0000000E+00;  4.0000000E+04;  5.0805486E-04;  0.0000000E+00;  4.0388247E-04;  1.4953269E+03;
  3.9999999E-02;  9.9999998E-03;  3.8999999E-01;1963;  0.0000000E+00;  0.0000000E+00;  0.0000000E+00;  1.0007458E+03;  1.0000000E-01;  6.1795782E+02;0;  0.0000000E+00;  0.0000000E+00;  0.0000000E+00;0;  5.3224456E-04;  4.0000000E+04;  0.0000000E+00;  0.0000000E+00;  4.0000000E+04;  0.0000000E+00;  4.0000000E+04;  2.7428198E-04;  0.0000000E+00;  2.5796259E-04;  1.1040150E+03;
  3.9999999E-02;  9.9999998E-03;  4.0000001E-01;1964;  0.0000000E+00;  0.0000000E+00;  0.0000000E+00;  1.0004854E+03;  1.0000000E-01;  4.0216147E+02;0;  0.0000000E+00;  0.0000000E+00;  0.0000000E+00;0;  2.7210230E-04;  4.0000000E+04;  0.0000000E+00;  0.0000000E+00;  4.0000000E+04;  0.0000000E+00;  4.0000000E+04;  1.3118812E-04;  0.0000000E+00;  1.4091420E-04;  7.4420673E+02;
  5.0000001E-02;  9.9999998E-03;  3.1000000E-01;1985;  0.0000000E+00;  0.0000000E+00;  0.0000000E+00;  1.0075319E+03;  1.0000000E-01;  6.2400210E+03;0;  0.0000000E+00;  0.0000000E+00;  0.0000000E+00;0;  7.5511914E-03;  4.0000000E+04;  0.0000000E+00;  0.0000000E+00;  4.0000000E+04;  0.0000000E+00;  4.0000000E+04;  6.3675377E-03;  0.0000000E+00;  1.1836539E-03;  2.3397424E+03;
  5.0000001E-02;  9.9999998E-03;  3.1999999E-01;1986;  0.0000000E+00;  0.0000000E+00;  0.0000000E+00;  1.0062224E+03;  1.0000000E-01;  5.1551133E+03;0;  0.0000000E+00;  0.0000000E+00;  0.0000000E+00;0;  6.3655246E-03;  4.0000000E+04;  0.0000000E+00;  0.0000000E+00;  4.0000000E+04;  0.0000000E+00;  4.0000000E+04;  5.2049998E-03;  0.0000000E+00;  1.1605247E-03;  2.7087896E+03;
  5.0000001E-02;  9.9999998E-03;  3.3000001E-01;1987;  0.0000000E+00;  0.0000000E+00;  0.0000000E+00;  1.0050046E+03;  1.0000000E-01;  4.1462529E+03;0;  0.0000000E+00;  0.0000000E+00;  0.0000000E+00;0;  5.1867510E-03;  4.0000000E+04;  0.0000000E+00;  0.0000000E+00;  4.0000000E+04;  0.0000000E+00;  4.0000000E+04;  4.1050371E-03;  0.0000000E+00;  1.0817138E-03;  2.8633594E+03;
  5.0000001E-02;  9.9999998E-03;  3.4000000E-01;1988;  0.0000000E+00;  0.0000000E+00;  0.0000000E+00;  1.0039259E+03;  1.0000000E-01;  3.2525500E+03;0;  0.0000000E+00;  0.0000000E+00;  0.0000000E+00;0;  4.0794117E-03;  4.0000000E+04;  0.0000000E+00;  0.0000000E+00;  4.0000000E+04;  0.0000000E+00;  4.0000000E+04;  3.1153986E-03;  0.0000000E+00;  9.6401328E-04;  2.8302996E+03;
  5.0000001E-02;  9.9999998E-03;  3.4999999E-01;1989;  0.0000000E+00;  0.0000000E+00;  0.0000000E+00;  1.0030012E+03;  1.0000000E-01;  2.4864482E+03;0;  0.0000000E+00;  0.0000000E+00;  0.0000000E+00;0;  3.0895364E-03;  4.0000000E+04;  0.0000000E+00;  0.0000000E+00;  4.0000000E+04;  0.0000000E+00;  4.0000000E+04;  2.2677886E-03;  0.0000000E+00;  8.2174793E-04;  2.6472776E+03;
  5.0000001E-02;  9.9999998E-03;  3.6000001E-01;1990;  0.0000000E+00;  0.0000000E+00;  0.0000000E+00;  1.0022327E+03;  1.0000000E-01;  1.8497255E+03;0;  0.0000000E+00;  0.0000000E+00;  0.0000000E+00;0;  2.2431710E-03;  4.0000000E+04;  0.0000000E+00;  0.0000000E+00;  4.0000000E+04;  0.0000000E+00;  4.0000000E+04;  1.5763778E-03;  0.0000000E+00;  6.6679314E-04;  2.3522610E+03;
  5.0000001E-02;  9.9999998E-03;  3.7000000E-01;1991;  0.0000000E+00;  0.0000000E+00;  0.0000000E+00;  1.0016164E+03;  1.0000000E-01;  1.3391227E+03;0;  0.0000000E+00;  0.0000000E+00;  0.0000000E+00;0;  1.5490192E-03;  4.0000000E+04;  0.0000000E+00;  0.0000000E+00;  4.0000000E+04;  0.0000000E+00;  4.0000000E+04;  1.0397700E-03;  0.0000000E+00;  5.0924928E-04;  1.9812283E+03;
  5.0000001E-02;  9.9999998E-03;  3.8000000E-01;1992;  0.0000000E+00;  0.0000000E+00;  0.0000000E+00;  1.0011415E+03;  1.0000000E-01;  9.4575104E+02;0;  0.0000000E+00;  0.0000000E+00;  0.0000000E+00;0;  1.0032200E-03;  4.0000000E+04;  0.0000000E+00;  0.0000000E+00;  4.0000000E+04;  0.0000000E+00;  4.0000000E+04;  6.4479624E-04;  0.0000000E+00;  3.5842368E-04;  1.5690112E+03;
  5.0000001E-02;  9.9999998E-03;  3.8999999E-01;1993;  0.0000000E+00;  0.0000000E+00;  0.0000000E+00;  1.0007650E+03;  1.0000000E-01;  6.3375983E+02;0;  0.0000000E+00;  0.0000000E+00;  0.0000000E+00;0;  5.9447292E-04;  4.0000000E+04;  0.0000000E+00;  0.0000000E+00;  4.0000000E+04;  0.0000000E+00;  4.0000000E+04;  3.7084628E-04;  0.0000000E+00;  2.2362666E-04;  1.1508240E+03;
  5.0000001E-02;  9.9999998E-03;  4.0000001E-01;1994;  0.0000000E+00;  0.0000000E+00;  0.0000000E+00;  1.0005006E+03;  1.0000000E-01;  4.1470432E+02;0;  0.0000000E+00;  0.0000000E+00;  0.0000000E+00;0;  3.0798244E-04;  4.0000000E+04;  0.0000000E+00;  0.0000000E+00;  4.0000000E+04;  0.0000000E+00;  4.0000000E+04;  1.9384053E-04;  0.0000000E+00;  1.1414190E-04;  7.6295575E+02;
  5.9999999E-02;  9.9999998E-03;  3.1000000E-01;2015;  0.0000000E+00;  0.0000000E+00;  0.0000000E+00;  1.0076354E+03;  1.0000000E-01;  6.3257471E+03;0;  0.0000000E+00;  0.0000000E+00;  0.0000000E+00;0;  7.6786978E-03;  4.0000000E+04;  0.0000000E+00;  0.0000000E+00;  4.0000000E+04;  0.0000000E+00;  4.0000000E+04;  6.7913774E-03;  0.0000000E+00;  8.8732032E-04;  2.3647014E+03;
  5.9999999E-02;  9.9999998E-03;  3.1999999E-01;2016;  0.0000000E+00;  0.0000000E+00;  0.0000000E+00;  1.0063188E+03;  1.0000000E-01;  5.2350122E+03;0;  0.0000000E+00;  0.0000000E+00;  0.0000000E+00;0;  6.5561398E-03;  4.0000000E+04;  0.0000000E+00;  0.0000000E+00;  4.0000000E+04;  0.0000000E+00;  4.0000000E+04;  5.6471918E-03;  0.0000000E+00;  9.0894790E-04;  2.8035774E+03;
  5.9999999E-02;  9.9999998E-03;  3.3000001E-01;2017;  0.0000000E+00;  0.0000000E+00;  0.0000000E+00;  1.0050856E+03;  1.0000000E-01;  4.2133130E+03;0;  0.0000000E+00;  0.0000000E+00;  0.0000000E+00;0;  5.4146592E-03;  4.0000000E+04;  0.0000000E+00;  0.0000000E+00;  4.0000000E+04;  0.0000000E+00;  4.0000000E+04;  4.5341561E-03;  0.0000000E+00;  8.8050315E-04;  3.0212888E+03;
  5.9999999E-02;  9.9999998E-03;  3.4000000E-01;2018;  0.0000000E+00;  0.0000000E+00;  0.0000000E+00;  1.0039899E+03;  1.0000000E-01;  3.3054868E+03;0;  0.0000000E+00;  0.0000000E+00;  0.0000000E+00;0;  4.3199481E-03;  4.0000000E+04;  0.0000000E+00;  0.0000000E+00;  4.0000000E+04;  0.0000000E+00;  4.0000000E+04;  3.5092221E-03;  0.0000000E+00;  8.1072620E-04;  3.0319951E+03;
  5.9999999E-02;  9.9999998E-03;  3.4999999E-01;2019;  0.0000000E+00;  0.0000000E+00;  0.0000000E+00;  1.0030462E+03;  1.0000000E-01;  2.5236816E+03;0;  0.0000000E+00;  0.0000000E+00;  0.0000000E+00;0;  3.3222442E-03;  4.0000000E+04;  0.0000000E+00;  0.0000000E+00;  4.0000000E+04;  0.0000000E+00;  4.0000000E+04;  2.6122679E-03;  0.0000000E+00;  7.0997619E-04;  2.8693972E+03;
  5.9999999E-02;  9.9999998E-03;  3.6000001E-01;2020;  0.0000000E+00;  0.0000000E+00;  0.0000000E+00;  1.0022689E+03;  1.0000000E-01;  1.8797493E+03;0;  0.0000000E+00;  0.0000000E+00;  0.0000000E+00;0;  2.4530850E-03;  4.0000000E+04;  0.0000000E+00;  0.0000000E+00;  4.0000000E+04;  0.0000000E+00;  4.0000000E+04;  1.8643407E-03;  0.0000000E+00;  5.8874441E-04;  2.5725103E+03;
  5.9999999E-02;  9.9999998E-03;  3.7000000E-01;2021;  0.0000000E+00;  0.0000000E+00;  0.0000000E+00;  1.0016475E+03;  1.0000000E-01;  1.3648997E+03;0;  0.0000000E+00;  0.0000000E+00;  0.0000000E+00;0;  1.7266568E-03;  4.0000000E+04;  0.0000000E+00;  0.0000000E+00;  4.0000000E+04;  0.0000000E+00;  4.0000000E+04;  1.2695768E-03;  0.0000000E+00;  4.5707999E-04;  2.1810454E+03;
  5.9999999E-02;  9.9999998E-03;  3.8000000E-01;2022;  0.0000000E+00;  0.0000000E+00;  0.0000000E+00;  1.0011605E+03;  1.0000000E-01;  9.6145428E+02;0;  0.0000000E+00;  0.0000000E+00;  0.0000000E+00;0;  1.1438342E-03;  4.0000000E+04;  0.0000000E+00;  0.0000000E+00;  4.0000000E+04;  0.0000000E+00;  4.0000000E+04;  8.1898103E-04;  0.0000000E+00;  3.2485320E-04;  1.7345442E+03;
  5.9999999E-02;  9.9999998E-03;  3.8999999E-01;2023;  0.0000000E+00;  0.0000000E+00;  0.0000000E+00;  1.0007842E+03;  1.0000000E-01;  6.4966064E+02;0;  0.0000000E+00;  0.0000000E+00;  0.0000000E+00;0;  6.9729076E-04;  4.0000000E+04;  0.0000000E+00;  0.0000000E+00;  4.0000000E+04;  0.0000000E+00;  4.0000000E+04;  4.9501035E-04;  0.0000000E+00;  2.0228038E-04;  1.2735494E+03;
  5.9999999E-02;  9.9999998E-03;  4.0000001E-01;2024;  0.0000000E+00;  0.0000000E+00;  0.0000000E+00;  1.0004927E+03;  1.0000000E-01;  4.0818597E+02;0;  0.0000000E+00;  0.0000000E+00;  0.0000000E+00;0;  3.7572242E-04;  4.0000000E+04;  0.0000000E+00;  0.0000000E+00;  4.0000000E+04;  0.0000000E+00;  4.0000000E+04;  2.7578519E-04;  0.0000000E+00;  9.9937242E-05;  8.4057385E+02;
  7.0000000E-02;  9.9999998E-03;  3.1000000E-01;2045;  0.0000000E+00;  0.0000000E+00;  0.0000000E+00;  1.0076490E+03;  1.0000000E-01;  6.3371045E+03;0;  0.0000000E+00;  0.0000000E+00;  0.0000000E+00;0;  8.0107907E-03;  4.0000000E+04;  0.0000000E+00;  0.0000000E+00;  4.0000000E+04;  0.0000000E+00;  4.0000000E+04;  7.4035106E-03;  0.0000000E+00;  6.0727983E-04;  2.4781218E+03;
  7.0000000E-02;  9.9999998E-03;  3.1999999E-01;2046;  0.0000000E+00;  0.0000000E+00;  0.0000000E+00;  1.0063460E+03;  1.0000000E-01;  5.2575303E+03;0;  0.0000000E+00;  0.0000000E+00;  0.0000000E+00;0;  6.9089606E-03;  4.0000000E+04;  0.0000000E+00;  0.0000000E+00;  4.0000000E+04;  0.0000000E+00;  4.0000000E+04;  6.2320139E-03;  0.0000000E+00;  6.7694654E-04;  3.0441775E+03;
  7.0000000E-02;  9.9999998E-03;  3.3000001E-01;2047;  0.0000000E+00;  0.0000000E+00;  0.0000000E+00;  1.0051147E+03;  1.0000000E-01;  4.2375098E+03;0;  0.0000000E+00;  0.0000000E+00;  0.0000000E+00;0;  5.7683727E-03;  4.0000000E+04;  0.0000000E+00;  0.0000000E+00;  4.0000000E+04;  0.0000000E+00;  4.0000000E+04;  5.0686486E-03;  0.0000000E+00;  6.9972413E-04;  3.3499019E+03;
  7.0000000E-02;  9.9999998E-03;  3.4000000E-01;2048;  0.0000000E+00;  0.0000000E+00;  0.0000000E+00;  1.0040085E+03;  1.0000000E-01;  3.3209924E+03;0;  0.0000000E+00;  0.0000000E+00;  0.0000000E+00;0;  4.6570925E-03;  4.0000000E+04;  0.0000000E+00;  0.0000000E+00;  4.0000000E+04;  0.0000000E+00;  4.0000000E+04;  3.9794394E-03;  0.0000000E+00;  6.7765289E-04;  3.4079387E+03;
  7.0000000E-02;  9.9999998E-03;  3.4999999E-01;2049;  0.0000000E+00;  0.0000000E+00;  0.0000000E+00;  1.0030640E+03;  1.0000000E-01;  2.5384961E+03;0;  0.0000000E+00;  0.0000000E+00;  0.0000000E+00;0;  3.6294365E-03;  4.0000000E+04;  0.0000000E+00;  0.0000000E+00;  4.0000000E+04;  0.0000000E+00;  4.0000000E+04;  3.0114504E-03;  0.0000000E+00;  6.1798608E-04;  3.2569526E+03;
  7.0000000E-02;  9.9999998E-03;  3.6000001E-01;2050;  0.0000000E+00;  0.0000000E+00;  0.0000000E+00;  1.0022717E+03;  1.0000000E-01;  1.8820209E+03;0;  0.0000000E+00;  0.0000000E+00;  0.0000000E+00;0;  2.7216519E-03;  4.0000000E+04;  0.0000000E+00;  0.0000000E+00;  4.0000000E+04;  0.0000000E+00;  4.0000000E+04;  2.1913880E-03;  0.0000000E+00;  5.3026399E-04;  2.9436755E+03;
  7.0000000E-02;  9.9999998E-03;  3.7000000E-01;2051;  0.0000000E+00;  0.0000000E+00;  0.0000000E+00;  1.0016387E+03;  1.0000000E-01;  1.3576899E+03;0;  0.0000000E+00;  0.0000000E+00;  0.0000000E+00;0;  1.9521271E-03;  4.0000000E+04;  0.0000000E+00;  0.0000000E+00;  4.0000000E+04;  0.0000000E+00;  4.0000000E+04;  1.5275525E-03;  0.0000000E+00;  4.2457459E-04;  2.5151243E+03;
  7.0000000E-02;  9.9999998E-03;  3.8000000E-01;2052;  0.0000000E+00;  0.0000000E+00;  0.0000000E+00;  1.0011502E+03;  1.0000000E-01;  9.5296069E+02;0;  0.0000000E+00;  0.0000000E+00;  0.0000000E+00;0;  1.3250252E-03;  4.0000000E+04;  0.0000000E+00;  0.0000000E+00;  4.0000000E+04;  0.0000000E+00;  4.0000000E+04;  1.0138735E-03;  0.0000000E+00;  3.1115173E-04;  2.0168097E+03;
  7.0000000E-02;  9.9999998E-03;  3.8999999E-01;2053;  0.0000000E+00;  0.0000000E+00;  0.0000000E+00;  1.0007794E+03;  1.0000000E-01;  6.4571014E+02;0;  0.0000000E+00;  0.0000000E+00;  0.0000000E+00;0;  8.3535991E-04;  4.0000000E+04;  0.0000000E+00;  0.0000000E+00;  4.0000000E+04;  0.0000000E+00;  4.0000000E+04;  6.3469651E-04;  0.0000000E+00;  2.0066339E-04;  1.4946855E+03;
  7.0000000E-02;  9.9999998E-03;  4.0000001E-01;2054;  0.0000000E+00;  0.0000000E+00;  0.0000000E+00;  1.0004800E+03;  1.0000000E-01;  3.9761838E+02;0;  0.0000000E+00;  0.0000000E+00;  0.0000000E+00;0;  4.7354584E-04;  4.0000000E+04;  0.0000000E+00;  0.0000000E+00;  4.0000000E+04;  0.0000000E+00;  4.0000000E+04;  3.6923686E-04;  0.0000000E+00;  1.0430898E-04;  9.9715967E+02;
  7.9999998E-02;  9.9999998E-03;  3.1000000E-01;2075;  0.0000000E+00;  0.0000000E+00;  0.0000000E+00;  1.0076345E+03;  1.0000000E-01;  6.3250557E+03;0;  0.0000000E+00;  0.0000000E+00;  0.0000000E+00;0;  8.4636183E-03;  4.0000000E+04;  0.0000000E+00;  0.0000000E+00;  4.0000000E+04;  0.0000000E+00;  4.0000000E+04;  8.0909319E-03;  0.0000000E+00;  3.7268639E-04;  2.6891575E+03;
  7.9999998E-02;  9.9999998E-03;  3.1999999E-01;2076;  0.0000000E+00;  0.0000000E+00;  0.0000000E+00;  1.0063501E+03;  1.0000000E-01;  5.2608882E+03;0;  0.0000000E+00;  0.0000000E+00;  0.0000000E+00;0;  7.3612486E-03;  4.0000000E+04;  0.0000000E+00;  0.0000000E+00;  4.0000000E+04;  0.0000000E+00;  4.0000000E+04;  6.8706097E-03;  0.0000000E+00;  4.9063907E-04;  3.4392795E+03;
  7.9999998E-02;  9.9999998E-03;  3.3000001E-01;2077;  0.0000000E+00;  0.0000000E+00;  0.0000000E+00;  1.0051273E+03;  1.0000000E-01;  4.2478799E+03;0;  0.0000000E+00;  0.0000000E+00;  0.0000000E+00;0;  6.2005129E-03;  4.0000000E+04;  0.0000000E+00;  0.0000000E+00;  4.0000000E+04;  0.0000000E+00;  4.0000000E+04;  5.6396341E-03;  0.0000000E+00;  5.6087860E-04;  3.8588423E+03;
  7.9999998E-02;  9.9999998E-03;  3.4000000E-01;2078;  0.0000000E+00;  0.0000000E+00;  0.0000000E+00;  1.0040228E+03;  1.0000000E-01;  3.3328440E+03;0;  0.0000000E+00;  0.0000000E+00;  0.0000000E+00;0;  5.0544064E-03;  4.0000000E+04;  0.0000000E+00;  0.0000000E+00;  4.0000000E+04;  0.0000000E+00;  4.0000000E+04;  4.4729770E-03;  0.0000000E+00;  5.8142917E-04;  3.9681938E+03;
  7.9999998E-02;  9.9999998E-03;  3.4999999E-01;2079;  0.0000000E+00;  0.0000000E+00;  0.0000000E+00;  1.0030667E+03;  1.0000000E-01;  2.5406689E+03;0;  0.0000000E+00;  0.0000000E+00;  0.0000000E+00;0;  3.9825174E-03;  4.0000000E+04;  0.0000000E+00;  0.0000000E+00;  4.0000000E+04;  0.0000000E+00;  4.0000000E+04;  3.4244605E-03;  0.0000000E+00;  5.5805687E-04;  3.8195828E+03;
  7.9999998E-02;  9.9999998E-03;  3.6000001E-01;2080;  0.0000000E+00;  0.0000000E+00;  0.0000000E+00;  1.0022692E+03;  1.0000000E-01;  1.8800457E+03;0;  0.0000000E+00;  0.0000000E+00;  0.0000000E+00;0;  3.0258023E-03;  4.0000000E+04;  0.0000000E+00;  0.0000000E+00;  4.0000000E+04;  0.0000000E+00;  4.0000000E+04;  2.5257564E-03;  0.0000000E+00;  5.0004583E-04;  3.4744119E+03;
  7.9999998E-02;  9.9999998E-03;  3.7000000E-01;2081;  0.0000000E+00;  0.0000000E+00;  0.0000000E+00;  1.0016349E+03;  1.0000000E-01;  1.3544308E+03;0;  0.0000000E+00;  0.0000000E+00;  0.0000000E+00;0;  2.2064177E-03;  4.0000000E+04;  0.0000000E+00;  0.0000000E+00;  4.0000000E+04;  0.0000000E+00;  4.0000000E+04;  1.7887779E-03;  0.0000000E+00;  4.1763994E-04;  2.9911604E+03;
  7.9999998E-02;  9.9999998E-03;  3.8000000E-01;2082;  0.0000000E+00;  0.0000000E+00;  0.0000000E+00;  1.0011366E+03;  1.0000000E-01;  9.4160303E+02;0;  0.0000000E+00;  0.0000000E+00;  0.0000000E+00;0;  1.5311304E-03;  4.0000000E+04;  0.0000000E+00;  0.0000000E+00;  4.0000000E+04;  0.0000000E+00;  4.0000000E+04;  1.2099147E-03;  0.0000000E+00;  3.2121566E-04;  2.4230786E+03;
  7.9999998E-02;  9.9999998E-03;  3.8999999E-01;2083;  0.0000000E+00;  0.0000000E+00;  0.0000000E+00;  1.0007659E+03;  1.0000000E-01;  6.3454993E+02;0;  0.0000000E+00;  0.0000000E+00;  0.0000000E+00;0;  9.9636021E-04;  4.0000000E+04;  0.0000000E+00;  0.0000000E+00;  4.0000000E+04;  0.0000000E+00;  4.0000000E+04;  7.7492977E-04;  0.0000000E+00;  2.2143044E-04;  1.8216943E+03;
  7.9999998E-02;  9.9999998E-03;  4.0000001E-01;2084;  0.0000000E+00;  0.0000000E+00;  0.0000000E+00;  1.0004809E+03;  1.0000000E-01;  3.9840848E+02;0;  0.0000000E+00;  0.0000000E+00;  0.0000000E+00;0;  5.9302530E-04;  4.0000000E+04;  0.0000000E+00;  0.0000000E+00;  4.0000000E+04;  0.0000000E+00;  4.0000000E+04;  4.6358476E-04;  0.0000000E+00;  1.2944054E-04;  1.2408741E+03;
  9.0000004E-02;  9.9999998E-03;  3.1000000E-01;2105;  0.0000000E+00;  0.0000000E+00;  0.0000000E+00;  1.0076619E+03;  1.0000000E-01;  6.3476724E+03;0;  0.0000000E+00;  0.0000000E+00;  0.0000000E+00;0;  8.9229885E-03;  4.0000000E+04;  0.0000000E+00;  0.0000000E+00;  4.0000000E+04;  0.0000000E+00;  4.0000000E+04;  8.7231640E-03;  0.0000000E+00;  1.9982418E-04;  3.2872148E+03;
  9.0000004E-02;  9.9999998E-03;  3.1999999E-01;2106;  0.0000000E+00;  0.0000000E+00;  0.0000000E+00;  1.0063954E+03;  1.0000000E-01;  5.2984180E+03;0;  0.0000000E+00;  0.0000000E+00;  0.0000000E+00;0;  7.8255124E-03;  4.0000000E+04;  0.0000000E+00;  0.0000000E+00;  4.0000000E+04;  0.0000000E+00;  4.0000000E+04;  7.4616470E-03;  0.0000000E+00;  3.6386497E-04;  4.1040854E+03;
  9.0000004E-02;  9.9999998E-03;  3.3000001E-01;2107;  0.0000000E+00;  0.0000000E+00;  0.0000000E+00;  1.0051718E+03;  1.0000000E-01;  4.2847183E+03;0;  0.0000000E+00;  0.0000000E+00;  0.0000000E+00;0;  6.6447509E-03;  4.0000000E+04;  0.0000000E+00;  0.0000000E+00;  4.0000000E+04;  0.0000000E+00;  4.0000000E+04;  6.1702542E-03;  0.0000000E+00;  4.7449695E-04;  4.5806299E+03;
  9.0000004E-02;  9.9999998E-03;  3.4000000E-01;2108;  0.0000000E+00;  0.0000000E+00;  0.0000000E+00;  1.0040575E+03;  1.0000000E-01;  3.3615840E+03;0;  0.0000000E+00;  0.0000000E+00;  0.0000000E+00;0;  5.4619056E-03;  4.0000000E+04;  0.0000000E+00;  0.0000000E+00;  4.0000000E+04;  0.0000000E+00;  4.0000000E+04;  4.9325339E-03;  0.0000000E+00;  5.2937161E-04;  4.7094619E+03;
  9.0000004E-02;  9.9999998E-03;  3.4999999E-01;2109;  0.0000000E+00;  0.0000000E+00;  0.0000000E+00;  1.0030906E+03;  1.0000000E-01;  2.5605203E+03;0;  0.0000000E+00;  0.0000000E+00;  0.0000000E+00;0;  4.3435125E-03;  4.0000000E+04;  0.0000000E+00;  0.0000000E+00;  4.0000000E+04;  0.0000000E+00;  4.0000000E+04;  3.8087687E-03;  0.0000000E+00;  5.3474354E-04;  4.5419189E+03;
  9.0000004E-02;  9.9999998E-03;  3.6000001E-01;2110;  0.0000000E+00;  0.0000000E+00;  0.0000000E+00;  1.0022775E+03;  1.0000000E-01;  1.8868602E+03;0;  0.0000000E+00;  0.0000000E+00;  0.0000000E+00;0;  3.3361192E-03;  4.0000000E+04;  0.0000000E+00;  0.0000000E+00;  4.0000000E+04;  0.0000000E+00;  4.0000000E+04;  2.8357219E-03;  0.0000000E+00;  5.0039729E-04;  4.1472705E+03;
  9.0000004E-02;  9.9999998E-03;  3.7000000E-01;2111;  0.0000000E+00;  0.0000000E+00;  0.0000000E+00;  1.0016324E+03;  1.0000000E-01;  1.3523568E+03;0;  0.0000000E+00;  0.0000000E+00;  0.0000000E+00;0;  2.4661208E-03;  4.0000000E+04;  0.0000000E+00;  0.0000000E+00;  4.0000000E+04;  0.0000000E+00;  4.0000000E+04;  2.0293114E-03;  0.0000000E+00;  4.3680950E-04;  3.5929666E+03;
  9.0000004E-02;  9.9999998E-03;  3.8000000E-01;2112;  0.0000000E+00;  0.0000000E+00;  0.0000000E+00;  1.0011299E+03;  1.0000000E-01;  9.3607227E+02;0;  0.0000000E+00;  0.0000000E+00;  0.0000000E+00;0;  1.7430384E-03;  4.0000000E+04;  0.0000000E+00;  0.0000000E+00;  4.0000000E+04;  0.0000000E+00;  4.0000000E+04;  1.3887986E-03;  0.0000000E+00;  3.5423978E-04;  2.9396216E+03;
  9.0000004E-02;  9.9999998E-03;  3.8999999E-01;2113;  0.0000000E+00;  0.0000000E+00;  0.0000000E+00;  1.0007440E+03;  1.0000000E-01;  6.1637762E+02;0;  0.0000000E+00;  0.0000000E+00;  0.0000000E+00;0;  1.1645635E-03;  4.0000000E+04;  0.0000000E+00;  0.0000000E+00;  4.0000000E+04;  0.0000000E+00;  4.0000000E+04;  9.0167404E-04;  0.0000000E+00;  2.6288949E-04;  2.2441108E+03;
  9.0000004E-02;  9.9999998E-03;  4.0000001E-01;2114;  0.0000000E+00;  0.0000000E+00;  0.0000000E+00;  1.0004682E+03;  1.0000000E-01;  3.8793964E+02;0;  0.0000000E+00;  0.0000000E+00;  0.0000000E+00;0;  7.2159688E-04;  4.0000000E+04;  0.0000000E+00;  0.0000000E+00;  4.0000000E+04;  0.0000000E+00;  4.0000000E+04;  5.4830313E-04;  0.0000000E+00;  1.7329375E-04;  1.5648632E+03;
  1.0000000E-01;  9.9999998E-03;  3.1000000E-01;2135;  0.0000000E+00;  0.0000000E+00;  0.0000000E+00;  1.0077833E+03;  1.0000000E-01;  6.4483115E+03;0;  0.0000000E+00;  0.0000000E+00;  0.0000000E+00;0;  9.2635490E-03;  4.0000000E+04;  0.0000000E+00;  0.0000000E+00;  4.0000000E+04;  0.0000000E+00;  4.0000000E+04;  9.1751078E-03;  0.0000000E+00;  8.8440807E-05;  5.0733447E+03;
  1.0000000E-01;  9.9999998E-03;  3.1999999E-01;2136;  0.0000000E+00;  0.0000000E+00;  0.0000000E+00;  1.0065242E+03;  1.0000000E-01;  5.4051807E+03;0;  0.0000000E+00;  0.0000000E+00;  0.0000000E+00;0;  8.2033016E-03;  4.0000000E+04;  0.0000000E+00;  0.0000000E+00;  4.0000000E+04;  0.0000000E+00;  4.0000000E+04;  7.9084439E-03;  0.0000000E+00;  2.9485772E-04;  5.4745210E+03;
  1.0000000E-01;  9.9999998E-03;  3.3000001E-01;2137;  0.0000000E+00;  0.0000000E+00;  0.0000000E+00;  1.0052905E+03;  1.0000000E-01;  4.3830859E+03;0;  0.0000000E+00;  0.0000000E+00;  0.0000000E+00;0;  7.0256586E-03;  4.0000000E+04;  0.0000000E+00;  0.0000000E+00;  4.0000000E+04;  0.0000000E+00;  4.0000000E+04;  6.5881256E-03;  0.0000000E+00;  4.3753284E-04;  5.7056948E+03;
  1.0000000E-01;  9.9999998E-03;  3.4000000E-01;2138;  0.0000000E+00;  0.0000000E+00;  0.0000000E+00;  1.0041568E+03;  1.0000000E-01;  3.4438533E+03;0;  0.0000000E+00;  0.0000000E+00;  0.0000000E+00;0;  5.8226031E-03;  4.0000000E+04;  0.0000000E+00;  0.0000000E+00;  4.0000000E+04;  0.0000000E+00;  4.0000000E+04;  5.3049685E-03;  0.0000000E+00;  5.1763450E-04;  5.6862524E+03;
  1.0000000E-01;  9.9999998E-03;  3.4999999E-01;2139;  0.0000000E+00;  0.0000000E+00;  0.0000000E+00;  1.0031616E+03;  1.0000000E-01;  2.6193828E+03;0;  0.0000000E+00;  0.0000000E+00;  0.0000000E+00;0;  4.6694325E-03;  4.0000000E+04;  0.0000000E+00;  0.0000000E+00;  4.0000000E+04;  0.0000000E+00;  4.0000000E+04;  4.1257325E-03;  0.0000000E+00;  5.4369995E-04;  5.4142539E+03;
  1.0000000E-01;  9.9999998E-03;  3.6000001E-01;2140;  0.0000000E+00;  0.0000000E+00;  0.0000000E+00;  1.0023218E+03;  1.0000000E-01;  1.9235011E+03;0;  0.0000000E+00;  0.0000000E+00;  0.0000000E+00;0;  3.6198318E-03;  4.0000000E+04;  0.0000000E+00;  0.0000000E+00;  4.0000000E+04;  0.0000000E+00;  4.0000000E+04;  3.0932443E-03;  0.0000000E+00;  5.2658748E-04;  4.9283906E+03;
  1.0000000E-01;  9.9999998E-03;  3.7000000E-01;2141;  0.0000000E+00;  0.0000000E+00;  0.0000000E+00;  1.0016559E+03;  1.0000000E-01;  1.3719119E+03;0;  0.0000000E+00;  0.0000000E+00;  0.0000000E+00;0;  2.7057249E-03;  4.0000000E+04;  0.0000000E+00;  0.0000000E+00;  4.0000000E+04;  0.0000000E+00;  4.0000000E+04;  2.2287236E-03;  0.0000000E+00;  4.7700133E-04;  4.2822686E+03;
  1.0000000E-01;  9.9999998E-03;  3.8000000E-01;2142;  0.0000000E+00;  0.0000000E+00;  0.0000000E+00;  1.0011354E+03;  1.0000000E-01;  9.4071411E+02;0;  0.0000000E+00;  0.0000000E+00;  0.0000000E+00;0;  1.9403573E-03;  4.0000000E+04;  0.0000000E+00;  0.0000000E+00;  4.0000000E+04;  0.0000000E+00;  4.0000000E+04;  1.5355371E-03;  0.0000000E+00;  4.0482022E-04;  3.5320796E+03;
  1.0000000E-01;  9.9999998E-03;  3.8999999E-01;2143;  0.0000000E+00;  0.0000000E+00;  0.0000000E+00;  1.0007353E+03;  1.0000000E-01;  6.0916797E+02;0;  0.0000000E+00;  0.0000000E+00;  0.0000000E+00;0;  1.3232409E-03;  4.0000000E+04;  0.0000000E+00;  0.0000000E+00;  4.0000000E+04;  0.0000000E+00;  4.0000000E+04;  1.0038236E-03;  0.0000000E+00;  3.1941730E-04;  2.7342815E+03;
  1.0000000E-01;  9.9999998E-03;  4.0000001E-01;2144;  0.0000000E+00;  0.0000000E+00;  0.0000000E+00;  1.0004615E+03;  1.0000000E-01;  3.8231018E+02;0;  0.0000000E+00;  0.0000000E+00;  0.0000000E+00;0;  8.4542355E-04;  4.0000000E+04;  0.0000000E+00;  0.0000000E+00;  4.0000000E+04;  0.0000000E+00;  4.0000000E+04;  6.1514165E-04;  0.0000000E+00;  2.3028189E-04;  1.9486501E+03;
  1.1000000E-01;  9.9999998E-03;  3.1000000E-01;2165;  0.0000000E+00;  0.0000000E+00;  0.0000000E+00;  1.0080598E+03;  1.0000000E-01;  6.6774409E+03;0;  0.0000000E+00;  0.0000000E+00;  0.0000000E+00;0;  9.3717985E-03;  4.0000000E+04;  0.0000000E+00;  0.0000000E+00;  4.0000000E+04;  0.0000000E+00;  4.0000000E+04;  9.3506919E-03;  0.0000000E+00;  2.1106849E-05;  8.8723027E+03;
  1.1000000E-01;  9.9999998E-03;  3.1999999E-01;2166;  0.0000000E+00;  0.0000000E+00;  0.0000000E+00;  1.0067845E+03;  1.0000000E-01;  5.6207793E+03;0;  0.0000000E+00;  0.0000000E+00;  0.0000000E+00;0;  8.4018204E-03;  4.0000000E+04;  0.0000000E+00;  0.0000000E+00;  4.0000000E+04;  0.0000000E+00;  4.0000000E+04;  8.1358291E-03;  0.0000000E+00;  2.6599152E-04;  8.3310361E+03;
  1.1000000E-01;  9.9999998E-03;  3.3000001E-01;2167;  0.0000000E+00;  0.0000000E+00;  0.0000000E+00;  1.0055225E+03;  1.0000000E-01;  4.5752778E+03;0;  0.0000000E+00;  0.0000000E+00;  0.0000000E+00;0;  7.2703254E-03;  4.0000000E+04;  0.0000000E+00;  0.0000000E+00;  4.0000000E+04;  0.0000000E+00;  4.0000000E+04;  6.8365298E-03;  0.0000000E+00;  4.3379553E-04;  7.7462852E+03;
  1.1000000E-01;  9.9999998E-03;  3.4000000E-01;2168;  0.0000000E+00;  0.0000000E+00;  0.0000000E+00;  1.0043433E+03;  1.0000000E-01;  3.5983179E+03;0;  0.0000000E+00;  0.0000000E+00;  0.0000000E+00;0;  6.0804547E-03;  4.0000000E+04;  0.0000000E+00;  0.0000000E+00;  4.0000000E+04;  0.0000000E+00;  4.0000000E+04;  5.5484017E-03;  0.0000000E+00;  5.3205300E-04;  7.1456416E+03;
  1.1000000E-01;  9.9999998E-03;  3.4999999E-01;2169;  0.0000000E+00;  0.0000000E+00;  0.0000000E+00;  1.0033051E+03;  1.0000000E-01;  2.7381941E+03;0;  0.0000000E+00;  0.0000000E+00;  0.0000000E+00;0;  4.9176258E-03;  4.0000000E+04;  0.0000000E+00;  0.0000000E+00;  4.0000000E+04;  0.0000000E+00;  4.0000000E+04;  4.3449621E-03;  0.0000000E+00;  5.7266367E-04;  6.5066045E+03;
  1.1000000E-01;  9.9999998E-03;  3.6000001E-01;2170;  0.0000000E+00;  0.0000000E+00;  0.0000000E+00;  1.0024239E+03;  1.0000000E-01;  2.0081407E+03;0;  0.0000000E+00;  0.0000000E+00;  0.0000000E+00;0;  3.8444493E-03;  4.0000000E+04;  0.0000000E+00;  0.0000000E+00;  4.0000000E+04;  0.0000000E+00;  4.0000000E+04;  3.2766010E-03;  0.0000000E+00;  5.6784827E-04;  5.7981289E+03;
  1.1000000E-01;  9.9999998E-03;  3.7000000E-01;2171;  0.0000000E+00;  0.0000000E+00;  0.0000000E+00;  1.0017170E+03;  1.0000000E-01;  1.4225770E+03;0;  0.0000000E+00;  0.0000000E+00;  0.0000000E+00;0;  2.9001841E-03;  4.0000000E+04;  0.0000000E+00;  0.0000000E+00;  4.0000000E+04;  0.0000000E+00;  4.0000000E+04;  2.3716958E-03;  0.0000000E+00;  5.2848842E-04;  5.0083652E+03;
  1.1000000E-01;  9.9999998E-03;  3.8000000E-01;2172;  0.0000000E+00;  0.0000000E+00;  0.0000000E+00;  1.0011629E+03;  1.0000000E-01;  9.6342957E+02;0;  0.0000000E+00;  0.0000000E+00;  0.0000000E+00;0;  2.1033771E-03;  4.0000000E+04;  0.0000000E+00;  0.0000000E+00;  4.0000000E+04;  0.0000000E+00;  4.0000000E+04;  1.6394607E-03;  0.0000000E+00;  4.6391648E-04;  4.1493940E+03;
  1.1000000E-01;  9.9999998E-03;  3.8999999E-01;2173;  0.0000000E+00;  0.0000000E+00;  0.0000000E+00;  1.0007551E+03;  1.0000000E-01;  6.2556256E+02;0;  0.0000000E+00;  0.0000000E+00;  0.0000000E+00;0;  1.4564828E-03;  4.0000000E+04;  0.0000000E+00;  0.0000000E+00;  4.0000000E+04;  0.0000000E+00;  4.0000000E+04;  1.0740175E-03;  0.0000000E+00;  3.8246531E-04;  3.2525852E+03;
  1.1000000E-01;  9.9999998E-03;  4.0000001E-01;2174;  0.0000000E+00;  0.0000000E+00;  0.0000000E+00;  1.0004688E+03;  1.0000000E-01;  3.8843347E+02;0;  0.0000000E+00;  0.0000000E+00;  0.0000000E+00;0;  9.5138163E-04;  4.0000000E+04;  0.0000000E+00;  0.0000000E+00;  4.0000000E+04;  0.0000000E+00;  4.0000000E+04;  6.5900857E-04;  0.0000000E+00;  2.9237304E-04;  2.3658855E+03;
  1.2000000E-01;  9.9999998E-03;  3.1000000E-01;2195;  0.0000000E+00;  0.0000000E+00;  0.0000000E+00;  1.0085092E+03;  1.0000000E-01;  7.0496772E+03;0;  0.0000000E+00;  0.0000000E+00;  0.0000000E+00;0;  9.1786757E-03;  4.0000000E+04;  0.0000000E+00;  0.0000000E+00;  4.0000000E+04;  0.0000000E+00;  4.0000000E+04;  9.2106424E-03;  0.0000000E+00; -3.1966429E-05;  1.5219803E+04;
  1.2000000E-01;  9.9999998E-03;  3.1999999E-01;2196;  0.0000000E+00;  0.0000000E+00;  0.0000000E+00;  1.0072065E+03;  1.0000000E-01;  5.9704980E+03;0;  0.0000000E+00;  0.0000000E+00;  0.0000000E+00;0;  8.3562294E-03;  4.0000000E+04;  0.0000000E+00;  0.0000000E+00;  4.0000000E+04;  0.0000000E+00;  4.0000000E+04;  8.1076333E-03;  0.0000000E+00;  2.4859613E-04;  1.3457414E+04;
  1.2000000E-01;  9.9999998E-03;  3.3000001E-01;2197;  0.0000000E+00;  0.0000000E+00;  0.0000000E+00;  1.0058933E+03;  1.0000000E-01;  4.8825288E+03;0;  0.0000000E+00;  0.0000000E+00;  0.0000000E+00;0;  7.3231212E-03;  4.0000000E+04;  0.0000000E+00;  0.0000000E+00;  4.0000000E+04;  0.0000000E+00;  4.0000000E+04;  6.8846839E-03;  0.0000000E+00;  4.3843716E-04;  1.1485265E+04;
  1.2000000E-01;  9.9999998E-03;  3.4000000E-01;2198;  0.0000000E+00;  0.0000000E+00;  0.0000000E+00;  1.0046547E+03;  1.0000000E-01;  3.8562859E+03;0;  0.0000000E+00;  0.0000000E+00;  0.0000000E+00;0;  6.1902055E-03;  4.0000000E+04;  0.0000000E+00;  0.0000000E+00;  4.0000000E+04;  0.0000000E+00;  4.0000000E+04;  5.6382143E-03;  0.0000000E+00;  5.5199099E-04;  9.6401748E+03;
  1.2000000E-01;  9.9999998E-03;  3.4999999E-01;2199;  0.0000000E+00;  0.0000000E+00;  0.0000000E+00;  1.0035478E+03;  1.0000000E-01;  2.9392749E+03;0;  0.0000000E+00;  0.0000000E+00;  0.0000000E+00;0;  5.0523696E-03;  4.0000000E+04;  0.0000000E+00;  0.0000000E+00;  4.0000000E+04;  0.0000000E+00;  4.0000000E+04;  4.4477484E-03;  0.0000000E+00;  6.0462119E-04;  8.0843945E+03;
  1.2000000E-01;  9.9999998E-03;  3.6000001E-01;2200;  0.0000000E+00;  0.0000000E+00;  0.0000000E+00;  1.0025992E+03;  1.0000000E-01;  2.1534207E+03;0;  0.0000000E+00;  0.0000000E+00;  0.0000000E+00;0;  3.9822245E-03;  4.0000000E+04;  0.0000000E+00;  0.0000000E+00;  4.0000000E+04;  0.0000000E+00;  4.0000000E+04;  3.3722934E-03;  0.0000000E+00;  6.0993084E-04;  6.8125054E+03;
  1.2000000E-01;  9.9999998E-03;  3.7000000E-01;2201;  0.0000000E+00;  0.0000000E+00;  0.0000000E+00;  1.0018365E+03;  1.0000000E-01;  1.5215372E+03;0;  0.0000000E+00;  0.0000000E+00;  0.0000000E+00;0;  3.0280605E-03;  4.0000000E+04;  0.0000000E+00;  0.0000000E+00;  4.0000000E+04;  0.0000000E+00;  4.0000000E+04;  2.4490657E-03;  0.0000000E+00;  5.7899492E-04;  5.7284600E+03;
  1.2000000E-01;  9.9999998E-03;  3.8000000E-01;2202;  0.0000000E+00;  0.0000000E+00;  0.0000000E+00;  1.0012313E+03;  1.0000000E-01;  1.0201193E+03;0;  0.0000000E+00;  0.0000000E+00;  0.0000000E+00;0;  2.2153864E-03;  4.0000000E+04;  0.0000000E+00;  0.0000000E+00;  4.0000000E+04;  0.0000000E+00;  4.0000000E+04;  1.6947740E-03;  0.0000000E+00;  5.2061240E-04;  4.7304502E+03;
  1.2000000E-01;  9.9999998E-03;  3.8999999E-01;2203;  0.0000000E+00;  0.0000000E+00;  0.0000000E+00;  1.0007910E+03;  1.0000000E-01;  6.5529010E+02;0;  0.0000000E+00;  0.0000000E+00;  0.0000000E+00;0;  1.5510198E-03;  4.0000000E+04;  0.0000000E+00;  0.0000000E+00;  4.0000000E+04;  0.0000000E+00;  4.0000000E+04;  1.1089056E-03;  0.0000000E+00;  4.4211419E-04;  3.7581604E+03;
  1.2000000E-01;  9.9999998E-03;  4.0000001E-01;2204;  0.0000000E+00;  0.0000000E+00;  0.0000000E+00;  1.0004848E+03;  1.0000000E-01;  4.0166766E+02;0;  0.0000000E+00;  0.0000000E+00;  0.0000000E+00;0;  1.0286783E-03;  4.0000000E+04;  0.0000000E+00;  0.0000000E+00;  4.0000000E+04;  0.0000000E+00;  4.0000000E+04;  6.7811337E-04;  0.0000000E+00;  3.5056489E-04;  2.8035840E+03;
  1.3000000E-01;  9.9999998E-03;  3.1000000E-01;2225;  0.0000000E+00;  0.0000000E+00;  0.0000000E+00;  1.0091498E+03;  1.0000000E-01;  7.5804277E+03;0;  0.0000000E+00;  0.0000000E+00;  0.0000000E+00;0;  8.6905481E-03;  4.0000000E+04;  0.0000000E+00;  0.0000000E+00;  4.0000000E+04;  0.0000000E+00;  4.0000000E+04;  8.7912055E-03;  0.0000000E+00; -1.0065769E-04;  2.4540848E+04;
  1.3000000E-01;  9.9999998E-03;  3.1999999E-01;2226;  0.0000000E+00;  0.0000000E+00;  0.0000000E+00;  1.0077980E+03;  1.0000000E-01;  6.4605581E+03;0;  0.0000000E+00;  0.0000000E+00;  0.0000000E+00;0;  8.0528669E-03;  4.0000000E+04;  0.0000000E+00;  0.0000000E+00;  4.0000000E+04;  0.0000000E+00;  4.0000000E+04;  7.8393146E-03;  0.0000000E+00;  2.1355240E-04;  2.1466361E+04;
  1.3000000E-01;  9.9999998E-03;  3.3000001E-01;2227;  0.0000000E+00;  0.0000000E+00;  0.0000000E+00;  1.0064177E+03;  1.0000000E-01;  5.3169854E+03;0;  0.0000000E+00;  0.0000000E+00;  0.0000000E+00;0;  7.1617244E-03;  4.0000000E+04;  0.0000000E+00;  0.0000000E+00;  4.0000000E+04;  0.0000000E+00;  4.0000000E+04;  6.7355828E-03;  0.0000000E+00;  4.2614149E-04;  1.7696941E+04;
  1.3000000E-01;  9.9999998E-03;  3.4000000E-01;2228;  0.0000000E+00;  0.0000000E+00;  0.0000000E+00;  1.0050925E+03;  1.0000000E-01;  4.2190410E+03;0;  0.0000000E+00;  0.0000000E+00;  0.0000000E+00;0;  6.1281174E-03;  4.0000000E+04;  0.0000000E+00;  0.0000000E+00;  4.0000000E+04;  0.0000000E+00;  4.0000000E+04;  5.5716448E-03;  0.0000000E+00;  5.5647292E-04;  1.3931639E+04;
  1.3000000E-01;  9.9999998E-03;  3.4999999E-01;2229;  0.0000000E+00;  0.0000000E+00;  0.0000000E+00;  1.0038938E+03;  1.0000000E-01;  3.2259829E+03;0;  0.0000000E+00;  0.0000000E+00;  0.0000000E+00;0;  5.0522592E-03;  4.0000000E+04;  0.0000000E+00;  0.0000000E+00;  4.0000000E+04;  0.0000000E+00;  4.0000000E+04;  4.4298377E-03;  0.0000000E+00;  6.2242174E-04;  1.0680436E+04;
  1.3000000E-01;  9.9999998E-03;  3.6000001E-01;2230;  0.0000000E+00;  0.0000000E+00;  0.0000000E+00;  1.0028661E+03;  1.0000000E-01;  2.3744514E+03;0;  0.0000000E+00;  0.0000000E+00;  0.0000000E+00;0;  4.0153419E-03;  4.0000000E+04;  0.0000000E+00;  0.0000000E+00;  4.0000000E+04;  0.0000000E+00;  4.0000000E+04;  3.3766986E-03;  0.0000000E+00;  6.3864340E-04;  8.1901665E+03;
  1.3000000E-01;  9.9999998E-03;  3.7000000E-01;2231;  0.0000000E+00;  0.0000000E+00;  0.0000000E+00;  1.0020157E+03;  1.0000000E-01;  1.6699774E+03;0;  0.0000000E+00;  0.0000000E+00;  0.0000000E+00;0;  3.0751587E-03;  4.0000000E+04;  0.0000000E+00;  0.0000000E+00;  4.0000000E+04;  0.0000000E+00;  4.0000000E+04;  2.4587018E-03;  0.0000000E+00;  6.1645679E-04;  6.4410894E+03;
  1.3000000E-01;  9.9999998E-03;  3.8000000E-01;2232;  0.0000000E+00;  0.0000000E+00;  0.0000000E+00;  1.0013558E+03;  1.0000000E-01;  1.1232275E+03;0;  0.0000000E+00;  0.0000000E+00;  0.0000000E+00;0;  2.2653162E-03;  4.0000000E+04;  0.0000000E+00;  0.0000000E+00;  4.0000000E+04;  0.0000000E+00;  4.0000000E+04;  1.7009676E-03;  0.0000000E+00;  5.6434859E-04;  5.2126494E+03;
  1.3000000E-01;  9.9999998E-03;  3.8999999E-01;2233;  0.0000000E+00;  0.0000000E+00;  0.0000000E+00;  1.0008610E+03;  1.0000000E-01;  7.1336255E+02;0;  0.0000000E+00;  0.0000000E+00;  0.0000000E+00;0;  1.5981658E-03;  4.0000000E+04;  0.0000000E+00;  0.0000000E+00;  4.0000000E+04;  0.0000000E+00;  4.0000000E+04;  1.1092055E-03;  0.0000000E+00;  4.8896030E-04;  4.2296924E+03;
  1.3000000E-01;  9.9999998E-03;  4.0000001E-01;2234;  0.0000000E+00;  0.0000000E+00;  0.0000000E+00;  1.0005223E+03;  1.0000000E-01;  4.3267911E+02;0;  0.0000000E+00;  0.0000000E+00;  0.0000000E+00;0;  1.0703265E-03;  4.0000000E+04;  0.0000000E+00;  0.0000000E+00;  4.0000000E+04;  0.0000000E+00;  4.0000000E+04;  6.7376503E-04;  0.0000000E+00;  3.9656149E-04;  3.3031150E+03;
  1.4000000E-01;  9.9999998E-03;  3.1000000E-01;2255;  0.0000000E+00;  0.0000000E+00;  0.0000000E+00;  1.0099470E+03;  1.0000000E-01;  8.2409521E+03;0;  0.0000000E+00;  0.0000000E+00;  0.0000000E+00;0;  7.9920981E-03;  4.0000000E+04;  0.0000000E+00;  0.0000000E+00;  4.0000000E+04;  0.0000000E+00;  4.0000000E+04;  8.1939213E-03;  0.0000000E+00; -2.0182326E-04;  3.7167711E+04;
  1.4000000E-01;  9.9999998E-03;  3.1999999E-01;2256;  0.0000000E+00;  0.0000000E+00;  0.0000000E+00;  1.0085471E+03;  1.0000000E-01;  7.0810835E+03;0;  0.0000000E+00;  0.0000000E+00;  0.0000000E+00;0;  7.5386623E-03;  4.0000000E+04;  0.0000000E+00;  0.0000000E+00;  4.0000000E+04;  0.0000000E+00;  4.0000000E+04;  7.3962049E-03;  0.0000000E+00;  1.4245727E-04;  3.2853367E+04;
  1.4000000E-01;  9.9999998E-03;  3.3000001E-01;2257;  0.0000000E+00;  0.0000000E+00;  0.0000000E+00;  1.0070864E+03;  1.0000000E-01;  5.8709448E+03;0;  0.0000000E+00;  0.0000000E+00;  0.0000000E+00;0;  6.8079028E-03;  4.0000000E+04;  0.0000000E+00;  0.0000000E+00;  4.0000000E+04;  0.0000000E+00;  4.0000000E+04;  6.4280629E-03;  0.0000000E+00;  3.7983968E-04;  2.7010277E+04;
  1.4000000E-01;  9.9999998E-03;  3.4000000E-01;2258;  0.0000000E+00;  0.0000000E+00;  0.0000000E+00;  1.0056608E+03;  1.0000000E-01;  4.6898428E+03;0;  0.0000000E+00;  0.0000000E+00;  0.0000000E+00;0;  5.9011169E-03;  4.0000000E+04;  0.0000000E+00;  0.0000000E+00;  4.0000000E+04;  0.0000000E+00;  4.0000000E+04;  5.3704800E-03;  0.0000000E+00;  5.3063693E-04;  2.0738992E+04;
  1.4000000E-01;  9.9999998E-03;  3.4999999E-01;2259;  0.0000000E+00;  0.0000000E+00;  0.0000000E+00;  1.0043507E+03;  1.0000000E-01;  3.6044412E+03;0;  0.0000000E+00;  0.0000000E+00;  0.0000000E+00;0;  4.9170512E-03;  4.0000000E+04;  0.0000000E+00;  0.0000000E+00;  4.0000000E+04;  0.0000000E+00;  4.0000000E+04;  4.3035285E-03;  0.0000000E+00;  6.1352272E-04;  1.4971002E+04;
  1.4000000E-01;  9.9999998E-03;  3.6000001E-01;2260;  0.0000000E+00;  0.0000000E+00;  0.0000000E+00;  1.0032114E+03;  1.0000000E-01;  2.6605667E+03;0;  0.0000000E+00;  0.0000000E+00;  0.0000000E+00;0;  3.9410000E-03;  4.0000000E+04;  0.0000000E+00;  0.0000000E+00;  4.0000000E+04;  0.0000000E+00;  4.0000000E+04;  3.2975585E-03;  0.0000000E+00;  6.4344128E-04;  1.0353494E+04;
  1.4000000E-01;  9.9999998E-03;  3.7000000E-01;2261;  0.0000000E+00;  0.0000000E+00;  0.0000000E+00;  1.0022685E+03;  1.0000000E-01;  1.8794530E+03;0;  0.0000000E+00;  0.0000000E+00;  0.0000000E+00;0;  3.0382425E-03;  4.0000000E+04;  0.0000000E+00;  0.0000000E+00;  4.0000000E+04;  0.0000000E+00;  4.0000000E+04;  2.4064034E-03;  0.0000000E+00;  6.3183898E-04;  7.2303677E+03;
  1.4000000E-01;  9.9999998E-03;  3.8000000E-01;2262;  0.0000000E+00;  0.0000000E+00;  0.0000000E+00;  1.0015300E+03;  1.0000000E-01;  1.2676185E+03;0;  0.0000000E+00;  0.0000000E+00;  0.0000000E+00;0;  2.2502718E-03;  4.0000000E+04;  0.0000000E+00;  0.0000000E+00;  4.0000000E+04;  0.0000000E+00;  4.0000000E+04;  1.6630592E-03;  0.0000000E+00;  5.8721262E-04;  5.5404331E+03;
  1.4000000E-01;  9.9999998E-03;  3.8999999E-01;2263;  0.0000000E+00;  0.0000000E+00;  0.0000000E+00;  1.0009716E+03;  1.0000000E-01;  8.0501428E+02;0;  0.0000000E+00;  0.0000000E+00;  0.0000000E+00;0;  1.5955020E-03;  4.0000000E+04;  0.0000000E+00;  0.0000000E+00;  4.0000000E+04;  0.0000000E+00;  4.0000000E+04;  1.0794532E-03;  0.0000000E+00;  5.1604892E-04;  4.7038638E+03;
  1.4000000E-01;  9.9999998E-03;  4.0000001E-01;2264;  0.0000000E+00;  0.0000000E+00;  0.0000000E+00;  1.0005716E+03;  1.0000000E-01;  4.7356686E+02;0;  0.0000000E+00;  0.0000000E+00;  0.0000000E+00;0;  1.0742359E-03;  4.0000000E+04;  0.0000000E+00;  0.0000000E+00;  4.0000000E+04;  0.0000000E+00;  4.0000000E+04;  6.4984459E-04;  0.0000000E+00;  4.2439136E-04;  4.0267563E+03;
  1.5000001E-01;  9.9999998E-03;  3.1000000E-01;2285;  0.0000000E+00;  0.0000000E+00;  0.0000000E+00;  1.0108416E+03;  1.0000000E-01;  8.9820674E+03;0;  0.0000000E+00;  0.0000000E+00;  0.0000000E+00;0;  7.2217765E-03;  4.0000000E+04;  0.0000000E+00;  0.0000000E+00;  4.0000000E+04;  0.0000000E+00;  4.0000000E+04;  7.5570522E-03;  0.0000000E+00; -3.3527575E-04;  5.3298223E+04;
  1.5000001E-01;  9.9999998E-03;  3.1999999E-01;2286;  0.0000000E+00;  0.0000000E+00;  0.0000000E+00;  1.0094008E+03;  1.0000000E-01;  7.7883228E+03;0;  0.0000000E+00;  0.0000000E+00;  0.0000000E+00;0;  6.9125206E-03;  4.0000000E+04;  0.0000000E+00;  0.0000000E+00;  4.0000000E+04;  0.0000000E+00;  4.0000000E+04;  6.8793059E-03;  0.0000000E+00;  3.3214514E-05;  4.7986113E+04;
  1.5000001E-01;  9.9999998E-03;  3.3000001E-01;2287;  0.0000000E+00;  0.0000000E+00;  0.0000000E+00;  1.0078621E+03;  1.0000000E-01;  6.5135938E+03;0;  0.0000000E+00;  0.0000000E+00;  0.0000000E+00;0;  6.3277883E-03;  4.0000000E+04;  0.0000000E+00;  0.0000000E+00;  4.0000000E+04;  0.0000000E+00;  4.0000000E+04;  6.0317959E-03;  0.0000000E+00;  2.9599224E-04;  3.9891414E+04;
  1.5000001E-01;  9.9999998E-03;  3.4000000E-01;2288;  0.0000000E+00;  0.0000000E+00;  0.0000000E+00;  1.0063299E+03;  1.0000000E-01;  5.2441973E+03;0;  0.0000000E+00;  0.0000000E+00;  0.0000000E+00;0;  5.5508376E-03;  4.0000000E+04;  0.0000000E+00;  0.0000000E+00;  4.0000000E+04;  0.0000000E+00;  4.0000000E+04;  5.0805281E-03;  0.0000000E+00;  4.7030952E-04;  3.0584320E+04;
  1.5000001E-01;  9.9999998E-03;  3.4999999E-01;2289;  0.0000000E+00;  0.0000000E+00;  0.0000000E+00;  1.0049035E+03;  1.0000000E-01;  4.0625024E+03;0;  0.0000000E+00;  0.0000000E+00;  0.0000000E+00;0;  4.6718833E-03;  4.0000000E+04;  0.0000000E+00;  0.0000000E+00;  4.0000000E+04;  0.0000000E+00;  4.0000000E+04;  4.0982598E-03;  0.0000000E+00;  5.7362363E-04;  2.1514660E+04;
  1.5000001E-01;  9.9999998E-03;  3.6000001E-01;2290;  0.0000000E+00;  0.0000000E+00;  0.0000000E+00;  1.0036372E+03;  1.0000000E-01;  3.0133469E+03;0;  0.0000000E+00;  0.0000000E+00;  0.0000000E+00;0;  3.7745601E-03;  4.0000000E+04;  0.0000000E+00;  0.0000000E+00;  4.0000000E+04;  0.0000000E+00;  4.0000000E+04;  3.1542927E-03;  0.0000000E+00;  6.2026724E-04;  1.3799179E+04;
  1.5000001E-01;  9.9999998E-03;  3.7000000E-01;2291;  0.0000000E+00;  0.0000000E+00;  0.0000000E+00;  1.0025812E+03;  1.0000000E-01;  2.1385073E+03;0;  0.0000000E+00;  0.0000000E+00;  0.0000000E+00;0;  2.9272395E-03;  4.0000000E+04;  0.0000000E+00;  0.0000000E+00;  4.0000000E+04;  0.0000000E+00;  4.0000000E+04;  2.3057775E-03;  0.0000000E+00;  6.2146212E-04;  8.2906182E+03;
  1.5000001E-01;  9.9999998E-03;  3.8000000E-01;2292;  0.0000000E+00;  0.0000000E+00;  0.0000000E+00;  1.0017393E+03;  1.0000000E-01;  1.4409469E+03;0;  0.0000000E+00;  0.0000000E+00;  0.0000000E+00;0;  2.1769931E-03;  4.0000000E+04;  0.0000000E+00;  0.0000000E+00;  4.0000000E+04;  0.0000000E+00;  4.0000000E+04;  1.5910813E-03;  0.0000000E+00;  5.8591174E-04;  5.6726025E+03;
  1.5000001E-01;  9.9999998E-03;  3.8999999E-01;2293;  0.0000000E+00;  0.0000000E+00;  0.0000000E+00;  1.0011061E+03;  1.0000000E-01;  9.1641852E+02;0;  0.0000000E+00;  0.0000000E+00;  0.0000000E+00;0;  1.5477265E-03;  4.0000000E+04;  0.0000000E+00;  0.0000000E+00;  4.0000000E+04;  0.0000000E+00;  4.0000000E+04;  1.0272526E-03;  0.0000000E+00;  5.2047381E-04;  5.3334839E+03;
  1.5000001E-01;  9.9999998E-03;  4.0000001E-01;2294;  0.0000000E+00;  0.0000000E+00;  0.0000000E+00;  1.0006597E+03;  1.0000000E-01;  5.4655243E+02;0;  0.0000000E+00;  0.0000000E+00;  0.0000000E+00;0;  1.0437652E-03;  4.0000000E+04;  0.0000000E+00;  0.0000000E+00;  4.0000000E+04;  0.0000000E+00;  4.0000000E+04;  6.1221438E-04;  0.0000000E+00;  4.3155087E-04;  5.2942778E+03;
  1.6000000E-01;  9.9999998E-03;  3.1000000E-01;2315;  0.0000000E+00;  0.0000000E+00;  0.0000000E+00;  1.0117376E+03;  1.0000000E-01;  9.7243672E+03;0;  0.0000000E+00;  0.0000000E+00;  0.0000000E+00;0;  6.5453476E-03;  4.0000000E+04;  0.0000000E+00;  0.0000000E+00;  4.0000000E+04;  0.0000000E+00;  4.0000000E+04;  7.0281546E-03;  0.0000000E+00; -4.8280688E-04;  7.2938477E+04;
  1.6000000E-01;  9.9999998E-03;  3.1999999E-01;2316;  0.0000000E+00;  0.0000000E+00;  0.0000000E+00;  1.0102798E+03;  1.0000000E-01;  8.5166973E+03;0;  0.0000000E+00;  0.0000000E+00;  0.0000000E+00;0;  6.3080676E-03;  4.0000000E+04;  0.0000000E+00;  0.0000000E+00;  4.0000000E+04;  0.0000000E+00;  4.0000000E+04;  6.4074872E-03;  0.0000000E+00; -9.9419594E-05;  6.6980523E+04;
  1.6000000E-01;  9.9999998E-03;  3.3000001E-01;2317;  0.0000000E+00;  0.0000000E+00;  0.0000000E+00;  1.0086700E+03;  1.0000000E-01;  7.1830068E+03;0;  0.0000000E+00;  0.0000000E+00;  0.0000000E+00;0;  5.8226683E-03;  4.0000000E+04;  0.0000000E+00;  0.0000000E+00;  4.0000000E+04;  0.0000000E+00;  4.0000000E+04;  5.6369612E-03;  0.0000000E+00;  1.8570725E-04;  5.6516059E+04;
  1.6000000E-01;  9.9999998E-03;  3.4000000E-01;2318;  0.0000000E+00;  0.0000000E+00;  0.0000000E+00;  1.0070370E+03;  1.0000000E-01;  5.8300571E+03;0;  0.0000000E+00;  0.0000000E+00;  0.0000000E+00;0;  5.1497123E-03;  4.0000000E+04;  0.0000000E+00;  0.0000000E+00;  4.0000000E+04;  0.0000000E+00;  4.0000000E+04;  4.7660866E-03;  0.0000000E+00;  3.8362574E-04;  4.3672855E+04;
  1.6000000E-01;  9.9999998E-03;  3.4999999E-01;2319;  0.0000000E+00;  0.0000000E+00;  0.0000000E+00;  1.0054868E+03;  1.0000000E-01;  4.5457480E+03;0;  0.0000000E+00;  0.0000000E+00;  0.0000000E+00;0;  4.3660291E-03;  4.0000000E+04;  0.0000000E+00;  0.0000000E+00;  4.0000000E+04;  0.0000000E+00;  4.0000000E+04;  3.8574764E-03;  0.0000000E+00;  5.0855277E-04;  3.0549410E+04;
  1.6000000E-01;  9.9999998E-03;  3.6000001E-01;2320;  0.0000000E+00;  0.0000000E+00;  0.0000000E+00;  1.0040946E+03;  1.0000000E-01;  3.3922991E+03;0;  0.0000000E+00;  0.0000000E+00;  0.0000000E+00;0;  3.5488249E-03;  4.0000000E+04;  0.0000000E+00;  0.0000000E+00;  4.0000000E+04;  0.0000000E+00;  4.0000000E+04;  2.9754995E-03;  0.0000000E+00;  5.7332544E-04;  1.8828430E+04;
  1.6000000E-01;  9.9999998E-03;  3.7000000E-01;2321;  0.0000000E+00;  0.0000000E+00;  0.0000000E+00;  1.0029135E+03;  1.0000000E-01;  2.4137588E+03;0;  0.0000000E+00;  0.0000000E+00;  0.0000000E+00;0;  2.7644366E-03;  4.0000000E+04;  0.0000000E+00;  0.0000000E+00;  4.0000000E+04;  0.0000000E+00;  4.0000000E+04;  2.1758971E-03;  0.0000000E+00;  5.8853958E-04;  9.8590625E+03;
  1.6000000E-01;  9.9999998E-03;  3.8000000E-01;2322;  0.0000000E+00;  0.0000000E+00;  0.0000000E+00;  1.0019800E+03;  1.0000000E-01;  1.6403486E+03;0;  0.0000000E+00;  0.0000000E+00;  0.0000000E+00;0;  2.0612828E-03;  4.0000000E+04;  0.0000000E+00;  0.0000000E+00;  4.0000000E+04;  0.0000000E+00;  4.0000000E+04;  1.4982919E-03;  0.0000000E+00;  5.6299078E-04;  5.5884053E+03;
  1.6000000E-01;  9.9999998E-03;  3.8999999E-01;2323;  0.0000000E+00;  0.0000000E+00;  0.0000000E+00;  1.0012689E+03;  1.0000000E-01;  1.0512295E+03;0;  0.0000000E+00;  0.0000000E+00;  0.0000000E+00;0;  1.4665484E-03;  4.0000000E+04;  0.0000000E+00;  0.0000000E+00;  4.0000000E+04;  0.0000000E+00;  4.0000000E+04;  9.6229534E-04;  0.0000000E+00;  5.0425308E-04;  6.4112622E+03;
  1.6000000E-01;  9.9999998E-03;  4.0000001E-01;2324;  0.0000000E+00;  0.0000000E+00;  0.0000000E+00;  1.0007594E+03;  1.0000000E-01;  6.2911798E+02;0;  0.0000000E+00;  0.0000000E+00;  0.0000000E+00;0;  9.8780391E-04;  4.0000000E+04;  0.0000000E+00;  0.0000000E+00;  4.0000000E+04;  0.0000000E+00;  4.0000000E+04;  5.6815473E-04;  0.0000000E+00;  4.1964921E-04;  7.4743330E+03;
  1.7000000E-01;  9.9999998E-03;  3.1000000E-01;2345;  0.0000000E+00;  0.0000000E+00;  0.0000000E+00;  1.0125226E+03;  1.0000000E-01;  1.0374719E+04;0;  0.0000000E+00;  0.0000000E+00;  0.0000000E+00;0;  6.1281305E-03;  4.0000000E+04;  0.0000000E+00;  0.0000000E+00;  4.0000000E+04;  0.0000000E+00;  4.0000000E+04;  6.7391917E-03;  0.0000000E+00; -6.1106117E-04;  9.5698961E+04;
  1.7000000E-01;  9.9999998E-03;  3.1999999E-01;2346;  0.0000000E+00;  0.0000000E+00;  0.0000000E+00;  1.0110617E+03;  1.0000000E-01;  9.1643828E+03;0;  0.0000000E+00;  0.0000000E+00;  0.0000000E+00;0;  5.8704056E-03;  4.0000000E+04;  0.0000000E+00;  0.0000000E+00;  4.0000000E+04;  0.0000000E+00;  4.0000000E+04;  6.0969652E-03;  0.0000000E+00; -2.2655939E-04;  8.9421383E+04;
  1.7000000E-01;  9.9999998E-03;  3.3000001E-01;2347;  0.0000000E+00;  0.0000000E+00;  0.0000000E+00;  1.0094064E+03;  1.0000000E-01;  7.7930635E+03;0;  0.0000000E+00;  0.0000000E+00;  0.0000000E+00;0;  5.4102228E-03;  4.0000000E+04;  0.0000000E+00;  0.0000000E+00;  4.0000000E+04;  0.0000000E+00;  4.0000000E+04;  5.3368718E-03;  0.0000000E+00;  7.3350799E-05;  7.6477984E+04;
  1.7000000E-01;  9.9999998E-03;  3.4000000E-01;2348;  0.0000000E+00;  0.0000000E+00;  0.0000000E+00;  1.0076853E+03;  1.0000000E-01;  6.3671284E+03;0;  0.0000000E+00;  0.0000000E+00;  0.0000000E+00;0;  4.7867745E-03;  4.0000000E+04;  0.0000000E+00;  0.0000000E+00;  4.0000000E+04;  0.0000000E+00;  4.0000000E+04;  4.4960952E-03;  0.0000000E+00;  2.9067922E-04;  5.9653152E+04;
  1.7000000E-01;  9.9999998E-03;  3.4999999E-01;2349;  0.0000000E+00;  0.0000000E+00;  0.0000000E+00;  1.0060257E+03;  1.0000000E-01;  4.9921553E+03;0;  0.0000000E+00;  0.0000000E+00;  0.0000000E+00;0;  4.0633623E-03;  4.0000000E+04;  0.0000000E+00;  0.0000000E+00;  4.0000000E+04;  0.0000000E+00;  4.0000000E+04;  3.6287908E-03;  0.0000000E+00;  4.3457130E-04;  4.1821180E+04;
  1.7000000E-01;  9.9999998E-03;  3.6000001E-01;2350;  0.0000000E+00;  0.0000000E+00;  0.0000000E+00;  1.0045214E+03;  1.0000000E-01;  3.7458694E+03;0;  0.0000000E+00;  0.0000000E+00;  0.0000000E+00;0;  3.3081106E-03;  4.0000000E+04;  0.0000000E+00;  0.0000000E+00;  4.0000000E+04;  0.0000000E+00;  4.0000000E+04;  2.7924709E-03;  0.0000000E+00;  5.1563984E-04;  2.5339061E+04;
  1.7000000E-01;  9.9999998E-03;  3.7000000E-01;2351;  0.0000000E+00;  0.0000000E+00;  0.0000000E+00;  1.0032460E+03;  1.0000000E-01;  2.6893066E+03;0;  0.0000000E+00;  0.0000000E+00;  0.0000000E+00;0;  2.5808220E-03;  4.0000000E+04;  0.0000000E+00;  0.0000000E+00;  4.0000000E+04;  0.0000000E+00;  4.0000000E+04;  2.0372109E-03;  0.0000000E+00;  5.4361118E-04;  1.2035239E+04;
  1.7000000E-01;  9.9999998E-03;  3.8000000E-01;2352;  0.0000000E+00;  0.0000000E+00;  0.0000000E+00;  1.0022097E+03;  1.0000000E-01;  1.8306643E+03;0;  0.0000000E+00;  0.0000000E+00;  0.0000000E+00;0;  1.9258255E-03;  4.0000000E+04;  0.0000000E+00;  0.0000000E+00;  4.0000000E+04;  0.0000000E+00;  4.0000000E+04;  1.3986581E-03;  0.0000000E+00;  5.2716734E-04;  5.2972168E+03;
  1.7000000E-01;  9.9999998E-03;  3.8999999E-01;2353;  0.0000000E+00;  0.0000000E+00;  0.0000000E+00;  1.0014250E+03;  1.0000000E-01;  1.1806086E+03;0;  0.0000000E+00;  0.0000000E+00;  0.0000000E+00;0;  1.3692183E-03;  4.0000000E+04;  0.0000000E+00;  0.0000000E+00;  4.0000000E+04;  0.0000000E+00;  4.0000000E+04;  8.9462497E-04;  0.0000000E+00;  4.7459343E-04;  8.2392041E+03;
  1.7000000E-01;  9.9999998E-03;  4.0000001E-01;2354;  0.0000000E+00;  0.0000000E+00;  0.0000000E+00;  1.0008544E+03;  1.0000000E-01;  7.0783185E+02;0;  0.0000000E+00;  0.0000000E+00;  0.0000000E+00;0;  9.1958232E-04;  4.0000000E+04;  0.0000000E+00;  0.0000000E+00;  4.0000000E+04;  0.0000000E+00;  4.0000000E+04;  5.2509620E-04;  0.0000000E+00;  3.9448615E-04;  1.0783194E+04;
  1.8000001E-01;  9.9999998E-03;  3.1000000E-01;2375;  0.0000000E+00;  0.0000000E+00;  0.0000000E+00;  1.0130762E+03;  1.0000000E-01;  1.0833373E+04;0;  0.0000000E+00;  0.0000000E+00;  0.0000000E+00;0;  6.1075306E-03;  4.0000000E+04;  0.0000000E+00;  0.0000000E+00;  4.0000000E+04;  0.0000000E+00;  4.0000000E+04;  6.7859013E-03;  0.0000000E+00; -6.7837076E-04;  1.2042522E+05;
  1.8000001E-01;  9.9999998E-03;  3.1999999E-01;2376;  0.0000000E+00;  0.0000000E+00;  0.0000000E+00;  1.0116302E+03;  1.0000000E-01;  9.6354805E+03;0;  0.0000000E+00;  0.0000000E+00;  0.0000000E+00;0;  5.7250196E-03;  4.0000000E+04;  0.0000000E+00;  0.0000000E+00;  4.0000000E+04;  0.0000000E+00;  4.0000000E+04;  6.0333698E-03;  0.0000000E+00; -3.0835037E-04;  1.1398629E+05;
  1.8000001E-01;  9.9999998E-03;  3.3000001E-01;2377;  0.0000000E+00;  0.0000000E+00;  0.0000000E+00;  1.0099498E+03;  1.0000000E-01;  8.2432236E+03;0;  0.0000000E+00;  0.0000000E+00;  0.0000000E+00;0;  5.1956093E-03;  4.0000000E+04;  0.0000000E+00;  0.0000000E+00;  4.0000000E+04;  0.0000000E+00;  4.0000000E+04;  5.2006966E-03;  0.0000000E+00; -5.0874405E-06;  9.8451477E+04;
  1.8000001E-01;  9.9999998E-03;  3.4000000E-01;2378;  0.0000000E+00;  0.0000000E+00;  0.0000000E+00;  1.0081727E+03;  1.0000000E-01;  6.7708701E+03;0;  0.0000000E+00;  0.0000000E+00;  0.0000000E+00;0;  4.5454213E-03;  4.0000000E+04;  0.0000000E+00;  0.0000000E+00;  4.0000000E+04;  0.0000000E+00;  4.0000000E+04;  4.3230988E-03;  0.0000000E+00;  2.2232266E-04;  7.7357219E+04;
  1.8000001E-01;  9.9999998E-03;  3.4999999E-01;2379;  0.0000000E+00;  0.0000000E+00;  0.0000000E+00;  1.0064355E+03;  1.0000000E-01;  5.3317012E+03;0;  0.0000000E+00;  0.0000000E+00;  0.0000000E+00;0;  3.8274636E-03;  4.0000000E+04;  0.0000000E+00;  0.0000000E+00;  4.0000000E+04;  0.0000000E+00;  4.0000000E+04;  3.4500805E-03;  0.0000000E+00;  3.7738305E-04;  5.4429910E+04;
  1.8000001E-01;  9.9999998E-03;  3.6000001E-01;2380;  0.0000000E+00;  0.0000000E+00;  0.0000000E+00;  1.0048526E+03;  1.0000000E-01;  4.0203308E+03;0;  0.0000000E+00;  0.0000000E+00;  0.0000000E+00;0;  3.0996185E-03;  4.0000000E+04;  0.0000000E+00;  0.0000000E+00;  4.0000000E+04;  0.0000000E+00;  4.0000000E+04;  2.6312321E-03;  0.0000000E+00;  4.6838625E-04;  3.2754891E+04;
  1.8000001E-01;  9.9999998E-03;  3.7000000E-01;2381;  0.0000000E+00;  0.0000000E+00;  0.0000000E+00;  1.0034960E+03;  1.0000000E-01;  2.8963132E+03;0;  0.0000000E+00;  0.0000000E+00;  0.0000000E+00;0;  2.4110754E-03;  4.0000000E+04;  0.0000000E+00;  0.0000000E+00;  4.0000000E+04;  0.0000000E+00;  4.0000000E+04;  1.9069210E-03;  0.0000000E+00;  5.0415448E-04;  1.4636364E+04;
  1.8000001E-01;  9.9999998E-03;  3.8000000E-01;2382;  0.0000000E+00;  0.0000000E+00;  0.0000000E+00;  1.0023972E+03;  1.0000000E-01;  1.9860179E+03;0;  0.0000000E+00;  0.0000000E+00;  0.0000000E+00;0;  1.7965272E-03;  4.0000000E+04;  0.0000000E+00;  0.0000000E+00;  4.0000000E+04;  0.0000000E+00;  4.0000000E+04;  1.3034947E-03;  0.0000000E+00;  4.9303251E-04;  4.8598730E+03;
  1.8000001E-01;  9.9999998E-03;  3.8999999E-01;2383;  0.0000000E+00;  0.0000000E+00;  0.0000000E+00;  1.0015591E+03;  1.0000000E-01;  1.2917166E+03;0;  0.0000000E+00;  0.0000000E+00;  0.0000000E+00;0;  1.2755304E-03;  4.0000000E+04;  0.0000000E+00;  0.0000000E+00;  4.0000000E+04;  0.0000000E+00;  4.0000000E+04;  8.3186425E-04;  0.0000000E+00;  4.4366618E-04;  1.0894688E+04;
  1.8000001E-01;  9.9999998E-03;  4.0000001E-01;2384;  0.0000000E+00;  0.0000000E+00;  0.0000000E+00;  1.0009468E+03;  1.0000000E-01;  7.8437286E+02;0;  0.0000000E+00;  0.0000000E+00;  0.0000000E+00;0;  8.5418171E-04;  4.0000000E+04;  0.0000000E+00;  0.0000000E+00;  4.0000000E+04;  0.0000000E+00;  4.0000000E+04;  4.8832153E-04;  0.0000000E+00;  3.6586021E-04;  1.5169135E+04;
  1.9000000E-01;  9.9999998E-03;  3.1000000E-01;2405;  0.0000000E+00;  0.0000000E+00;  0.0000000E+00;  1.0133078E+03;  1.0000000E-01;  1.1025269E+04;0;  0.0000000E+00;  0.0000000E+00;  0.0000000E+00;0;  6.5584327E-03;  4.0000000E+04;  0.0000000E+00;  0.0000000E+00;  4.0000000E+04;  0.0000000E+00;  4.0000000E+04;  7.1934997E-03;  0.0000000E+00; -6.3506718E-04;  1.4496752E+05;
  1.9000000E-01;  9.9999998E-03;  3.1999999E-01;2406;  0.0000000E+00;  0.0000000E+00;  0.0000000E+00;  1.0119015E+03;  1.0000000E-01;  9.8601660E+03;0;  0.0000000E+00;  0.0000000E+00;  0.0000000E+00;0;  5.9431265E-03;  4.0000000E+04;  0.0000000E+00;  0.0000000E+00;  4.0000000E+04;  0.0000000E+00;  4.0000000E+04;  6.2372177E-03;  0.0000000E+00; -2.9409098E-04;  1.3829450E+05;
  1.9000000E-01;  9.9999998E-03;  3.3000001E-01;2407;  0.0000000E+00;  0.0000000E+00;  0.0000000E+00;  1.0102241E+03;  1.0000000E-01;  8.4704766E+03;0;  0.0000000E+00;  0.0000000E+00;  0.0000000E+00;0;  5.2442737E-03;  4.0000000E+04;  0.0000000E+00;  0.0000000E+00;  4.0000000E+04;  0.0000000E+00;  4.0000000E+04;  5.2478276E-03;  0.0000000E+00; -3.5537537E-06;  1.2012752E+05;
  1.9000000E-01;  9.9999998E-03;  3.4000000E-01;2408;  0.0000000E+00;  0.0000000E+00;  0.0000000E+00;  1.0084337E+03;  1.0000000E-01;  6.9871606E+03;0;  0.0000000E+00;  0.0000000E+00;  0.0000000E+00;0;  4.4844267E-03;  4.0000000E+04;  0.0000000E+00;  0.0000000E+00;  4.0000000E+04;  0.0000000E+00;  4.0000000E+04;  4.2663170E-03;  0.0000000E+00;  2.1810968E-04;  9.4808180E+04;
  1.9000000E-01;  9.9999998E-03;  3.4999999E-01;2409;  0.0000000E+00;  0.0000000E+00;  0.0000000E+00;  1.0066679E+03;  1.0000000E-01;  5.5241895E+03;0;  0.0000000E+00;  0.0000000E+00;  0.0000000E+00;0;  3.7092231E-03;  4.0000000E+04;  0.0000000E+00;  0.0000000E+00;  4.0000000E+04;  0.0000000E+00;  4.0000000E+04;  3.3389763E-03;  0.0000000E+00;  3.7024674E-04;  6.6892492E+04;
  1.9000000E-01;  9.9999998E-03;  3.6000001E-01;2410;  0.0000000E+00;  0.0000000E+00;  0.0000000E+00;  1.0050440E+03;  1.0000000E-01;  4.1788447E+03;0;  0.0000000E+00;  0.0000000E+00;  0.0000000E+00;0;  2.9653918E-03;  4.0000000E+04;  0.0000000E+00;  0.0000000E+00;  4.0000000E+04;  0.0000000E+00;  4.0000000E+04;  2.5059881E-03;  0.0000000E+00;  4.5940367E-04;  4.0131379E+04;
  1.9000000E-01;  9.9999998E-03;  3.7000000E-01;2411;  0.0000000E+00;  0.0000000E+00;  0.0000000E+00;  1.0036523E+03;  1.0000000E-01;  3.0258896E+03;0;  0.0000000E+00;  0.0000000E+00;  0.0000000E+00;0;  2.2884840E-03;  4.0000000E+04;  0.0000000E+00;  0.0000000E+00;  4.0000000E+04;  0.0000000E+00;  4.0000000E+04;  1.7949332E-03;  0.0000000E+00;  4.9355091E-04;  1.7252256E+04;
  1.9000000E-01;  9.9999998E-03;  3.8000000E-01;2412;  0.0000000E+00;  0.0000000E+00;  0.0000000E+00;  1.0025192E+03;  1.0000000E-01;  2.0870520E+03;0;  0.0000000E+00;  0.0000000E+00;  0.0000000E+00;0;  1.6990734E-03;  4.0000000E+04;  0.0000000E+00;  0.0000000E+00;  4.0000000E+04;  0.0000000E+00;  4.0000000E+04;  1.2186975E-03;  0.0000000E+00;  4.8037583E-04;  4.4222212E+03;
  1.9000000E-01;  9.9999998E-03;  3.8999999E-01;2413;  0.0000000E+00;  0.0000000E+00;  0.0000000E+00;  1.0016490E+03;  1.0000000E-01;  1.3661836E+03;0;  0.0000000E+00;  0.0000000E+00;  0.0000000E+00;0;  1.2051432E-03;  4.0000000E+04;  0.0000000E+00;  0.0000000E+00;  4.0000000E+04;  0.0000000E+00;  4.0000000E+04;  7.7695638E-04;  0.0000000E+00;  4.2818682E-04;  1.4164901E+04;
  1.9000000E-01;  9.9999998E-03;  4.0000001E-01;2414;  0.0000000E+00;  0.0000000E+00;  0.0000000E+00;  1.0010203E+03;  1.0000000E-01;  8.4530945E+02;0;  0.0000000E+00;  0.0000000E+00;  0.0000000E+00;0;  8.0634782E-04;  4.0000000E+04;  0.0000000E+00;  0.0000000E+00;  4.0000000E+04;  0.0000000E+00;  4.0000000E+04;  4.5896802E-04;  0.0000000E+00;  3.4737977E-04;  2.0311332E+04;
  2.0000000E-01;  9.9999998E-03;  3.1000000E-01;2434;  0.0000000E+00;  0.0000000E+00;  0.0000000E+00;  1.0132115E+03;  1.0000000E-01;  1.0945468E+04;0;  0.0000000E+00;  0.0000000E+00;  0.0000000E+00;0;  7.4433750E-03;  4.0000000E+04;  0.0000000E+00;  0.0000000E+00;  4.0000000E+04;  0.0000000E+00;  4.0000000E+04;  7.8640077E-03;  0.0000000E+00; -4.2063300E-04;  1.6641906E+05;
  2.0000000E-01;  9.9999998E-03;  3.1999999E-01;2435;  0.0000000E+00;  0.0000000E+00;  0.0000000E+00;  1.0118652E+03;  1.0000000E-01;  9.8300430E+03;0;  0.0000000E+00;  0.0000000E+00;  0.0000000E+00;0;  6.5175206E-03;  4.0000000E+04;  0.0000000E+00;  0.0000000E+00;  4.0000000E+04;  0.0000000E+00;  4.0000000E+04;  6.6436268E-03;  0.0000000E+00; -1.2610624E-04;  1.5928900E+05;
  2.0000000E-01;  9.9999998E-03;  3.3000001E-01;2436;  0.0000000E+00;  0.0000000E+00;  0.0000000E+00;  1.0102337E+03;  1.0000000E-01;  8.4784766E+03;0;  0.0000000E+00;  0.0000000E+00;  0.0000000E+00;0;  5.5723307E-03;  4.0000000E+04;  0.0000000E+00;  0.0000000E+00;  4.0000000E+04;  0.0000000E+00;  4.0000000E+04;  5.4437234E-03;  0.0000000E+00;  1.2860709E-04;  1.3872508E+05;
  2.0000000E-01;  9.9999998E-03;  3.4000000E-01;2437;  0.0000000E+00;  0.0000000E+00;  0.0000000E+00;  1.0084689E+03;  1.0000000E-01;  7.0162954E+03;0;  0.0000000E+00;  0.0000000E+00;  0.0000000E+00;0;  4.6346821E-03;  4.0000000E+04;  0.0000000E+00;  0.0000000E+00;  4.0000000E+04;  0.0000000E+00;  4.0000000E+04;  4.3130787E-03;  0.0000000E+00;  3.2160353E-04;  1.0976448E+05;
  2.0000000E-01;  9.9999998E-03;  3.4999999E-01;2438;  0.0000000E+00;  0.0000000E+00;  0.0000000E+00;  1.0067220E+03;  1.0000000E-01;  5.5691265E+03;0;  0.0000000E+00;  0.0000000E+00;  0.0000000E+00;0;  3.7457764E-03;  4.0000000E+04;  0.0000000E+00;  0.0000000E+00;  4.0000000E+04;  0.0000000E+00;  4.0000000E+04;  3.2952484E-03;  0.0000000E+00;  4.5052796E-04;  7.7606766E+04;
  2.0000000E-01;  9.9999998E-03;  3.6000001E-01;2439;  0.0000000E+00;  0.0000000E+00;  0.0000000E+00;  1.0051085E+03;  1.0000000E-01;  4.2322754E+03;0;  0.0000000E+00;  0.0000000E+00;  0.0000000E+00;0;  2.9420117E-03;  4.0000000E+04;  0.0000000E+00;  0.0000000E+00;  4.0000000E+04;  0.0000000E+00;  4.0000000E+04;  2.4211577E-03;  0.0000000E+00;  5.2085397E-04;  4.6495922E+04;
  2.0000000E-01;  9.9999998E-03;  3.7000000E-01;2440;  0.0000000E+00;  0.0000000E+00;  0.0000000E+00;  1.0037114E+03;  1.0000000E-01;  3.0747773E+03;0;  0.0000000E+00;  0.0000000E+00;  0.0000000E+00;0;  2.2447461E-03;  4.0000000E+04;  0.0000000E+00;  0.0000000E+00;  4.0000000E+04;  0.0000000E+00;  4.0000000E+04;  1.7051687E-03;  0.0000000E+00;  5.3957739E-04;  1.9460508E+04;
  2.0000000E-01;  9.9999998E-03;  3.8000000E-01;2441;  0.0000000E+00;  0.0000000E+00;  0.0000000E+00;  1.0025757E+03;  1.0000000E-01;  2.1338655E+03;0;  0.0000000E+00;  0.0000000E+00;  0.0000000E+00;0;  1.6588040E-03;  4.0000000E+04;  0.0000000E+00;  0.0000000E+00;  4.0000000E+04;  0.0000000E+00;  4.0000000E+04;  1.1455681E-03;  0.0000000E+00;  5.1323586E-04;  4.2182935E+03;
  2.0000000E-01;  9.9999998E-03;  3.8999999E-01;2442;  0.0000000E+00;  0.0000000E+00;  0.0000000E+00;  1.0017122E+03;  1.0000000E-01;  1.4185278E+03;0;  0.0000000E+00;  0.0000000E+00;  0.0000000E+00;0;  1.1776430E-03;  4.0000000E+04;  0.0000000E+00;  0.0000000E+00;  4.0000000E+04;  0.0000000E+00;  4.0000000E+04;  7.2871015E-04;  0.0000000E+00;  4.4893287E-04;  1.7692770E+04;
  2.0000000E-01;  9.9999998E-03;  4.0000001E-01;2443;  0.0000000E+00;  0.0000000E+00;  0.0000000E+00;  1.0010710E+03;  1.0000000E-01;  8.8738232E+02;0;  0.0000000E+00;  0.0000000E+00;  0.0000000E+00;0;  7.9089205E-04;  4.0000000E+04;  0.0000000E+00;  0.0000000E+00;  4.0000000E+04;  0.0000000E+00;  4.0000000E+04;  4.3432048E-04;  0.0000000E+00;  3.5657160E-04;  2.5751939E+04;
 -1.9000000E-01;  9.9999998E-03;  4.1000000E-01;175;  0.0000000E+00;  0.0000000E+00;  0.0000000E+00;  1.0000000E+03;  1.0000000E-01;  0.0000000E+00;0;  0.0000000E+00;  0.0000000E+00;  0.0000000E+00;0;  0.0000000E+00;  4.0000000E+04;  0.0000000E+00;  0.0000000E+00;  4.0000000E+04;  0.0000000E+00;  4.0000000E+04;  0.0000000E+00;  0.0000000E+00;  0.0000000E+00;  0.0000000E+00;
 -1.9000000E-01;  9.9999998E-03;  4.1999999E-01;176;  0.0000000E+00;  0.0000000E+00;  0.0000000E+00;  1.0000000E+03;  1.0000000E-01;  0.0000000E+00;0;  0.0000000E+00;  0.0000000E+00;  0.0000000E+00;0;  0.0000000E+00;  4.0000000E+04;  0.0000000E+00;  0.0000000E+00;  4.0000000E+04;  0.0000000E+00;  4.0000000E+04;  0.0000000E+00;  0.0000000E+00;  0.0000000E+00;  0.0000000E+00;
 -1.9000000E-01;  9.9999998E-03;  4.3000001E-01;177;  0.0000000E+00;  0.0000000E+00;  0.0000000E+00;  1.0000000E+03;  1.0000000E-01;  0.0000000E+00;0;  0.0000000E+00;  0.0000000E+00;  0.0000000E+00;0;  0.0000000E+00;  4.0000000E+04;  0.0000000E+00;  0.0000000E+00;  4.0000000E+04;  0.0000000E+00;  4.0000000E+04;  0.0000000E+00;  0.0000000E+00;  0.0000000E+00;  0.0000000E+00;
 -1.9000000E-01;  9.9999998E-03;  4.4000000E-01;178;  0.0000000E+00;  0.0000000E+00;  0.0000000E+00;  1.0000000E+03;  1.0000000E-01;  0.0000000E+00;0;  0.0000000E+00;  0.0000000E+00;  0.0000000E+00;0;  0.0000000E+00;  4.0000000E+04;  0.0000000E+00;  0.0000000E+00;  4.0000000E+04;  0.0000000E+00;  4.0000000E+04;  0.0000000E+00;  0.0000000E+00;  0.0000000E+00;  0.0000000E+00;
 -1.9000000E-01;  9.9999998E-03;  4.4999999E-01;179;  0.0000000E+00;  0.0000000E+00;  0.0000000E+00;  1.0000000E+03;  1.0000000E-01;  0.0000000E+00;0;  0.0000000E+00;  0.0000000E+00;  0.0000000E+00;0;  0.0000000E+00;  4.0000000E+04;  0.0000000E+00;  0.0000000E+00;  4.0000000E+04;  0.0000000E+00;  4.0000000E+04;  0.0000000E+00;  0.0000000E+00;  0.0000000E+00;  0.0000000E+00;
 -1.8000001E-01;  9.9999998E-03;  4.1000000E-01;266;  0.0000000E+00;  0.0000000E+00;  0.0000000E+00;  1.0000000E+03;  1.0000000E-01;  0.0000000E+00;0;  0.0000000E+00;  0.0000000E+00;  0.0000000E+00;0;  0.0000000E+00;  4.0000000E+04;  0.0000000E+00;  0.0000000E+00;  4.0000000E+04;  0.0000000E+00;  4.0000000E+04;  0.0000000E+00;  0.0000000E+00;  0.0000000E+00;  0.0000000E+00;
 -1.8000001E-01;  9.9999998E-03;  4.1999999E-01;267;  0.0000000E+00;  0.0000000E+00;  0.0000000E+00;  1.0000000E+03;  1.0000000E-01;  0.0000000E+00;0;  0.0000000E+00;  0.0000000E+00;  0.0000000E+00;0;  0.0000000E+00;  4.0000000E+04;  0.0000000E+00;  0.0000000E+00;  4.0000000E+04;  0.0000000E+00;  4.0000000E+04;  0.0000000E+00;  0.0000000E+00;  0.0000000E+00;  0.0000000E+00;
 -1.8000001E-01;  9.9999998E-03;  4.3000001E-01;268;  0.0000000E+00;  0.0000000E+00;  0.0000000E+00;  1.0000000E+03;  1.0000000E-01;  0.0000000E+00;0;  0.0000000E+00;  0.0000000E+00;  0.0000000E+00;0;  0.0000000E+00;  4.0000000E+04;  0.0000000E+00;  0.0000000E+00;  4.0000000E+04;  0.0000000E+00;  4.0000000E+04;  0.0000000E+00;  0.0000000E+00;  0.0000000E+00;  0.0000000E+00;
 -1.8000001E-01;  9.9999998E-03;  4.4000000E-01;269;  0.0000000E+00;  0.0000000E+00;  0.0000000E+00;  1.0000000E+03;  1.0000000E-01;  0.0000000E+00;0;  0.0000000E+00;  0.0000000E+00;  0.0000000E+00;0;  0.0000000E+00;  4.0000000E+04;  0.0000000E+00;  0.0000000E+00;  4.0000000E+04;  0.0000000E+00;  4.0000000E+04;  0.0000000E+00;  0.0000000E+00;  0.0000000E+00;  0.0000000E+00;
 -1.8000001E-01;  9.9999998E-03;  4.4999999E-01;270;  0.0000000E+00;  0.0000000E+00;  0.0000000E+00;  1.0000000E+03;  1.0000000E-01;  0.0000000E+00;0;  0.0000000E+00;  0.0000000E+00;  0.0000000E+00;0;  0.0000000E+00;  4.0000000E+04;  0.0000000E+00;  0.0000000E+00;  4.0000000E+04;  0.0000000E+00;  4.0000000E+04;  0.0000000E+00;  0.0000000E+00;  0.0000000E+00;  0.0000000E+00;
 -1.7000000E-01;  9.9999998E-03;  4.1000000E-01;357;  0.0000000E+00;  0.0000000E+00;  0.0000000E+00;  1.0000000E+03;  1.0000000E-01;  0.0000000E+00;0;  0.0000000E+00;  0.0000000E+00;  0.0000000E+00;0;  0.0000000E+00;  4.0000000E+04;  0.0000000E+00;  0.0000000E+00;  4.0000000E+04;  0.0000000E+00;  4.0000000E+04;  0.0000000E+00;  0.0000000E+00;  0.0000000E+00;  0.0000000E+00;
 -1.7000000E-01;  9.9999998E-03;  4.1999999E-01;358;  0.0000000E+00;  0.0000000E+00;  0.0000000E+00;  1.0000000E+03;  1.0000000E-01;  0.0000000E+00;0;  0.0000000E+00;  0.0000000E+00;  0.0000000E+00;0;  0.0000000E+00;  4.0000000E+04;  0.0000000E+00;  0.0000000E+00;  4.0000000E+04;  0.0000000E+00;  4.0000000E+04;  0.0000000E+00;  0.0000000E+00;  0.0000000E+00;  0.0000000E+00;
 -1.7000000E-01;  9.9999998E-03;  4.3000001E-01;359;  0.0000000E+00;  0.0000000E+00;  0.0000000E+00;  1.0000000E+03;  1.0000000E-01;  0.0000000E+00;0;  0.0000000E+00;  0.0000000E+00;  0.0000000E+00;0;  0.0000000E+00;  4.0000000E+04;  0.0000000E+00;  0.0000000E+00;  4.0000000E+04;  0.0000000E+00;  4.0000000E+04;  0.0000000E+00;  0.0000000E+00;  0.0000000E+00;  0.0000000E+00;
 -1.7000000E-01;  9.9999998E-03;  4.4000000E-01;360;  0.0000000E+00;  0.0000000E+00;  0.0000000E+00;  1.0000000E+03;  1.0000000E-01;  0.0000000E+00;0;  0.0000000E+00;  0.0000000E+00;  0.0000000E+00;0;  0.0000000E+00;  4.0000000E+04;  0.0000000E+00;  0.0000000E+00;  4.0000000E+04;  0.0000000E+00;  4.0000000E+04;  0.0000000E+00;  0.0000000E+00;  0.0000000E+00;  0.0000000E+00;
 -1.7000000E-01;  9.9999998E-03;  4.4999999E-01;361;  0.0000000E+00;  0.0000000E+00;  0.0000000E+00;  1.0000000E+03;  1.0000000E-01;  0.0000000E+00;0;  0.0000000E+00;  0.0000000E+00;  0.0000000E+00;0;  0.0000000E+00;  4.0000000E+04;  0.0000000E+00;  0.0000000E+00;  4.0000000E+04;  0.0000000E+00;  4.0000000E+04;  0.0000000E+00;  0.0000000E+00;  0.0000000E+00;  0.0000000E+00;
 -1.6000000E-01;  9.9999998E-03;  4.1000000E-01;448;  0.0000000E+00;  0.0000000E+00;  0.0000000E+00;  1.0000000E+03;  1.0000000E-01;  0.0000000E+00;0;  0.0000000E+00;  0.0000000E+00;  0.0000000E+00;0;  0.0000000E+00;  4.0000000E+04;  0.0000000E+00;  0.0000000E+00;  4.0000000E+04;  0.0000000E+00;  4.0000000E+04;  0.0000000E+00;  0.0000000E+00;  0.0000000E+00;  0.0000000E+00;
 -1.6000000E-01;  9.9999998E-03;  4.1999999E-01;449;  0.0000000E+00;  0.0000000E+00;  0.0000000E+00;  1.0000000E+03;  1.0000000E-01;  0.0000000E+00;0;  0.0000000E+00;  0.0000000E+00;  0.0000000E+00;0;  0.0000000E+00;  4.0000000E+04;  0.0000000E+00;  0.0000000E+00;  4.0000000E+04;  0.0000000E+00;  4.0000000E+04;  0.0000000E+00;  0.0000000E+00;  0.0000000E+00;  0.0000000E+00;
 -1.6000000E-01;  9.9999998E-03;  4.3000001E-01;450;  0.0000000E+00;  0.0000000E+00;  0.0000000E+00;  1.0000000E+03;  1.0000000E-01;  0.0000000E+00;0;  0.0000000E+00;  0.0000000E+00;  0.0000000E+00;0;  0.0000000E+00;  4.0000000E+04;  0.0000000E+00;  0.0000000E+00;  4.0000000E+04;  0.0000000E+00;  4.0000000E+04;  0.0000000E+00;  0.0000000E+00;  0.0000000E+00;  0.0000000E+00;
 -1.6000000E-01;  9.9999998E-03;  4.4000000E-01;451;  0.0000000E+00;  0.0000000E+00;  0.0000000E+00;  1.0000000E+03;  1.0000000E-01;  0.0000000E+00;0;  0.0000000E+00;  0.0000000E+00;  0.0000000E+00;0;  0.0000000E+00;  4.0000000E+04;  0.0000000E+00;  0.0000000E+00;  4.0000000E+04;  0.0000000E+00;  4.0000000E+04;  0.0000000E+00;  0.0000000E+00;  0.0000000E+00;  0.0000000E+00;
 -1.6000000E-01;  9.9999998E-03;  4.4999999E-01;452;  0.0000000E+00;  0.0000000E+00;  0.0000000E+00;  1.0000000E+03;  1.0000000E-01;  0.0000000E+00;0;  0.0000000E+00;  0.0000000E+00;  0.0000000E+00;0;  0.0000000E+00;  4.0000000E+04;  0.0000000E+00;  0.0000000E+00;  4.0000000E+04;  0.0000000E+00;  4.0000000E+04;  0.0000000E+00;  0.0000000E+00;  0.0000000E+00;  0.0000000E+00;
 -1.5000001E-01;  9.9999998E-03;  4.1000000E-01;539;  0.0000000E+00;  0.0000000E+00;  0.0000000E+00;  1.0000000E+03;  1.0000000E-01;  0.0000000E+00;0;  0.0000000E+00;  0.0000000E+00;  0.0000000E+00;0;  0.0000000E+00;  4.0000000E+04;  0.0000000E+00;  0.0000000E+00;  4.0000000E+04;  0.0000000E+00;  4.0000000E+04;  0.0000000E+00;  0.0000000E+00;  0.0000000E+00;  0.0000000E+00;
 -1.5000001E-01;  9.9999998E-03;  4.1999999E-01;540;  0.0000000E+00;  0.0000000E+00;  0.0000000E+00;  1.0000000E+03;  1.0000000E-01;  0.0000000E+00;0;  0.0000000E+00;  0.0000000E+00;  0.0000000E+00;0;  0.0000000E+00;  4.0000000E+04;  0.0000000E+00;  0.0000000E+00;  4.0000000E+04;  0.0000000E+00;  4.0000000E+04;  0.0000000E+00;  0.0000000E+00;  0.0000000E+00;  0.0000000E+00;
 -1.5000001E-01;  9.9999998E-03;  4.3000001E-01;541;  0.0000000E+00;  0.0000000E+00;  0.0000000E+00;  1.0000000E+03;  1.0000000E-01;  0.0000000E+00;0;  0.0000000E+00;  0.0000000E+00;  0.0000000E+00;0;  0.0000000E+00;  4.0000000E+04;  0.0000000E+00;  0.0000000E+00;  4.0000000E+04;  0.0000000E+00;  4.0000000E+04;  0.0000000E+00;  0.0000000E+00;  0.0000000E+00;  0.0000000E+00;
 -1.5000001E-01;  9.9999998E-03;  4.4000000E-01;542;  0.0000000E+00;  0.0000000E+00;  0.0000000E+00;  1.0000000E+03;  1.0000000E-01;  0.0000000E+00;0;  0.0000000E+00;  0.0000000E+00;  0.0000000E+00;0;  0.0000000E+00;  4.0000000E+04;  0.0000000E+00;  0.0000000E+00;  4.0000000E+04;  0.0000000E+00;  4.0000000E+04;  0.0000000E+00;  0.0000000E+00;  0.0000000E+00;  0.0000000E+00;
 -1.5000001E-01;  9.9999998E-03;  4.4999999E-01;543;  0.0000000E+00;  0.0000000E+00;  0.0000000E+00;  1.0000000E+03;  1.0000000E-01;  0.0000000E+00;0;  0.0000000E+00;  0.0000000E+00;  0.0000000E+00;0;  0.0000000E+00;  4.0000000E+04;  0.0000000E+00;  0.0000000E+00;  4.0000000E+04;  0.0000000E+00;  4.0000000E+04;  0.0000000E+00;  0.0000000E+00;  0.0000000E+00;  0.0000000E+00;
 -1.4000000E-01;  9.9999998E-03;  4.1000000E-01;630;  0.0000000E+00;  0.0000000E+00;  0.0000000E+00;  1.0000000E+03;  1.0000000E-01;  0.0000000E+00;0;  0.0000000E+00;  0.0000000E+00;  0.0000000E+00;0;  0.0000000E+00;  4.0000000E+04;  0.0000000E+00;  0.0000000E+00;  4.0000000E+04;  0.0000000E+00;  4.0000000E+04;  0.0000000E+00;  0.0000000E+00;  0.0000000E+00;  0.0000000E+00;
 -1.4000000E-01;  9.9999998E-03;  4.1999999E-01;631;  0.0000000E+00;  0.0000000E+00;  0.0000000E+00;  1.0000000E+03;  1.0000000E-01;  0.0000000E+00;0;  0.0000000E+00;  0.0000000E+00;  0.0000000E+00;0;  0.0000000E+00;  4.0000000E+04;  0.0000000E+00;  0.0000000E+00;  4.0000000E+04;  0.0000000E+00;  4.0000000E+04;  0.0000000E+00;  0.0000000E+00;  0.0000000E+00;  0.0000000E+00;
 -1.4000000E-01;  9.9999998E-03;  4.3000001E-01;632;  0.0000000E+00;  0.0000000E+00;  0.0000000E+00;  1.0000000E+03;  1.0000000E-01;  0.0000000E+00;0;  0.0000000E+00;  0.0000000E+00;  0.0000000E+00;0;  0.0000000E+00;  4.0000000E+04;  0.0000000E+00;  0.0000000E+00;  4.0000000E+04;  0.0000000E+00;  4.0000000E+04;  0.0000000E+00;  0.0000000E+00;  0.0000000E+00;  0.0000000E+00;
 -1.4000000E-01;  9.9999998E-03;  4.4000000E-01;633;  0.0000000E+00;  0.0000000E+00;  0.0000000E+00;  1.0000000E+03;  1.0000000E-01;  0.0000000E+00;0;  0.0000000E+00;  0.0000000E+00;  0.0000000E+00;0;  0.0000000E+00;  4.0000000E+04;  0.0000000E+00;  0.0000000E+00;  4.0000000E+04;  0.0000000E+00;  4.0000000E+04;  0.0000000E+00;  0.0000000E+00;  0.0000000E+00;  0.0000000E+00;
 -1.4000000E-01;  9.9999998E-03;  4.4999999E-01;634;  0.0000000E+00;  0.0000000E+00;  0.0000000E+00;  1.0000000E+03;  1.0000000E-01;  0.0000000E+00;0;  0.0000000E+00;  0.0000000E+00;  0.0000000E+00;0;  0.0000000E+00;  4.0000000E+04;  0.0000000E+00;  0.0000000E+00;  4.0000000E+04;  0.0000000E+00;  4.0000000E+04;  0.0000000E+00;  0.0000000E+00;  0.0000000E+00;  0.0000000E+00;
 -1.3000000E-01;  9.9999998E-03;  4.1000000E-01;721;  0.0000000E+00;  0.0000000E+00;  0.0000000E+00;  1.0000000E+03;  1.0000000E-01;  0.0000000E+00;0;  0.0000000E+00;  0.0000000E+00;  0.0000000E+00;0;  0.0000000E+00;  4.0000000E+04;  0.0000000E+00;  0.0000000E+00;  4.0000000E+04;  0.0000000E+00;  4.0000000E+04;  0.0000000E+00;  0.0000000E+00;  0.0000000E+00;  0.0000000E+00;
 -1.3000000E-01;  9.9999998E-03;  4.1999999E-01;722;  0.0000000E+00;  0.0000000E+00;  0.0000000E+00;  1.0000000E+03;  1.0000000E-01;  0.0000000E+00;0;  0.0000000E+00;  0.0000000E+00;  0.0000000E+00;0;  0.0000000E+00;  4.0000000E+04;  0.0000000E+00;  0.0000000E+00;  4.0000000E+04;  0.0000000E+00;  4.0000000E+04;  0.0000000E+00;  0.0000000E+00;  0.0000000E+00;  0.0000000E+00;
 -1.3000000E-01;  9.9999998E-03;  4.3000001E-01;723;  0.0000000E+00;  0.0000000E+00;  0.0000000E+00;  1.0000000E+03;  1.0000000E-01;  0.0000000E+00;0;  0.0000000E+00;  0.0000000E+00;  0.0000000E+00;0;  0.0000000E+00;  4.0000000E+04;  0.0000000E+00;  0.0000000E+00;  4.0000000E+04;  0.0000000E+00;  4.0000000E+04;  0.0000000E+00;  0.0000000E+00;  0.0000000E+00;  0.0000000E+00;
 -1.3000000E-01;  9.9999998E-03;  4.4000000E-01;724;  0.0000000E+00;  0.0000000E+00;  0.0000000E+00;  1.0000000E+03;  1.0000000E-01;  0.0000000E+00;0;  0.0000000E+00;  0.0000000E+00;  0.0000000E+00;0;  0.0000000E+00;  4.0000000E+04;  0.0000000E+00;  0.0000000E+00;  4.0000000E+04;  0.0000000E+00;  4.0000000E+04;  0.0000000E+00;  0.0000000E+00;  0.0000000E+00;  0.0000000E+00;
 -1.3000000E-01;  9.9999998E-03;  4.4999999E-01;725;  0.0000000E+00;  0.0000000E+00;  0.0000000E+00;  1.0000000E+03;  1.0000000E-01;  0.0000000E+00;0;  0.0000000E+00;  0.0000000E+00;  0.0000000E+00;0;  0.0000000E+00;  4.0000000E+04;  0.0000000E+00;  0.0000000E+00;  4.0000000E+04;  0.0000000E+00;  4.0000000E+04;  0.0000000E+00;  0.0000000E+00;  0.0000000E+00;  0.0000000E+00;
 -1.2000000E-01;  9.9999998E-03;  4.1000000E-01;812;  0.0000000E+00;  0.0000000E+00;  0.0000000E+00;  1.0000000E+03;  1.0000000E-01;  0.0000000E+00;0;  0.0000000E+00;  0.0000000E+00;  0.0000000E+00;0;  0.0000000E+00;  4.0000000E+04;  0.0000000E+00;  0.0000000E+00;  4.0000000E+04;  0.0000000E+00;  4.0000000E+04;  0.0000000E+00;  0.0000000E+00;  0.0000000E+00;  3.0553776E-06;
 -1.2000000E-01;  9.9999998E-03;  4.1999999E-01;813;  0.0000000E+00;  0.0000000E+00;  0.0000000E+00;  1.0000000E+03;  1.0000000E-01;  0.0000000E+00;0;  0.0000000E+00;  0.0000000E+00;  0.0000000E+00;0;  0.0000000E+00;  4.0000000E+04;  0.0000000E+00;  0.0000000E+00;  4.0000000E+04;  0.0000000E+00;  4.0000000E+04;  0.0000000E+00;  0.0000000E+00;  0.0000000E+00;  0.0000000E+00;
 -1.2000000E-01;  9.9999998E-03;  4.3000001E-01;814;  0.0000000E+00;  0.0000000E+00;  0.0000000E+00;  1.0000000E+03;  1.0000000E-01;  0.0000000E+00;0;  0.0000000E+00;  0.0000000E+00;  0.0000000E+00;0;  0.0000000E+00;  4.0000000E+04;  0.0000000E+00;  0.0000000E+00;  4.0000000E+04;  0.0000000E+00;  4.0000000E+04;  0.0000000E+00;  0.0000000E+00;  0.0000000E+00;  0.0000000E+00;
 -1.2000000E-01;  9.9999998E-03;  4.4000000E-01;815;  0.0000000E+00;  0.0000000E+00;  0.0000000E+00;  1.0000000E+03;  1.0000000E-01;  0.0000000E+00;0;  0.0000000E+00;  0.0000000E+00;  0.0000000E+00;0;  0.0000000E+00;  4.0000000E+04;  0.0000000E+00;  0.0000000E+00;  4.0000000E+04;  0.0000000E+00;  4.0000000E+04;  0.0000000E+00;  0.0000000E+00;  0.0000000E+00;  0.0000000E+00;
 -1.2000000E-01;  9.9999998E-03;  4.4999999E-01;816;  0.0000000E+00;  0.0000000E+00;  0.0000000E+00;  1.0000000E+03;  1.0000000E-01;  0.0000000E+00;0;  0.0000000E+00;  0.0000000E+00;  0.0000000E+00;0;  0.0000000E+00;  4.0000000E+04;  0.0000000E+00;  0.0000000E+00;  4.0000000E+04;  0.0000000E+00;  4.0000000E+04;  0.0000000E+00;  0.0000000E+00;  0.0000000E+00;  0.0000000E+00;
 -1.1000000E-01;  9.9999998E-03;  4.1000000E-01;903;  0.0000000E+00;  0.0000000E+00;  0.0000000E+00;  1.0000000E+03;  1.0000000E-01;  0.0000000E+00;0;  0.0000000E+00;  0.0000000E+00;  0.0000000E+00;0;  6.7323242E-08;  4.0000000E+04;  0.0000000E+00;  0.0000000E+00;  4.0000000E+04;  0.0000000E+00;  4.0000000E+04;  5.5457743E-08;  0.0000000E+00;  1.1865495E-08;  1.9652709E-01;
 -1.1000000E-01;  9.9999998E-03;  4.1999999E-01;904;  0.0000000E+00;  0.0000000E+00;  0.0000000E+00;  1.0000000E+03;  1.0000000E-01;  0.0000000E+00;0;  0.0000000E+00;  0.0000000E+00;  0.0000000E+00;0;  0.0000000E+00;  4.0000000E+04;  0.0000000E+00;  0.0000000E+00;  4.0000000E+04;  0.0000000E+00;  4.0000000E+04;  0.0000000E+00;  0.0000000E+00;  0.0000000E+00;  2.4097315E-06;
 -1.1000000E-01;  9.9999998E-03;  4.3000001E-01;905;  0.0000000E+00;  0.0000000E+00;  0.0000000E+00;  1.0000000E+03;  1.0000000E-01;  0.0000000E+00;0;  0.0000000E+00;  0.0000000E+00;  0.0000000E+00;0;  0.0000000E+00;  4.0000000E+04;  0.0000000E+00;  0.0000000E+00;  4.0000000E+04;  0.0000000E+00;  4.0000000E+04;  0.0000000E+00;  0.0000000E+00;  0.0000000E+00;  0.0000000E+00;
 -1.1000000E-01;  9.9999998E-03;  4.4000000E-01;906;  0.0000000E+00;  0.0000000E+00;  0.0000000E+00;  1.0000000E+03;  1.0000000E-01;  0.0000000E+00;0;  0.0000000E+00;  0.0000000E+00;  0.0000000E+00;0;  0.0000000E+00;  4.0000000E+04;  0.0000000E+00;  0.0000000E+00;  4.0000000E+04;  0.0000000E+00;  4.0000000E+04;  0.0000000E+00;  0.0000000E+00;  0.0000000E+00;  0.0000000E+00;
 -1.1000000E-01;  9.9999998E-03;  4.4999999E-01;907;  0.0000000E+00;  0.0000000E+00;  0.0000000E+00;  1.0000000E+03;  1.0000000E-01;  0.0000000E+00;0;  0.0000000E+00;  0.0000000E+00;  0.0000000E+00;0;  0.0000000E+00;  4.0000000E+04;  0.0000000E+00;  0.0000000E+00;  4.0000000E+04;  0.0000000E+00;  4.0000000E+04;  0.0000000E+00;  0.0000000E+00;  0.0000000E+00;  0.0000000E+00;
 -1.0000000E-01;  9.9999998E-03;  4.1000000E-01;994;  0.0000000E+00;  0.0000000E+00;  0.0000000E+00;  1.0000000E+03;  1.0000000E-01;  0.0000000E+00;0;  0.0000000E+00;  0.0000000E+00;  0.0000000E+00;0;  6.5049971E-07;  4.0000000E+04;  0.0000000E+00;  0.0000000E+00;  4.0000000E+04;  0.0000000E+00;  4.0000000E+04;  4.7067820E-07;  0.0000000E+00;  1.7982154E-07;  1.8470401E+00;
 -1.0000000E-01;  9.9999998E-03;  4.1999999E-01;995;  0.0000000E+00;  0.0000000E+00;  0.0000000E+00;  1.0000000E+03;  1.0000000E-01;  0.0000000E+00;0;  0.0000000E+00;  0.0000000E+00;  0.0000000E+00;0;  3.2478077E-08;  4.0000000E+04;  0.0000000E+00;  0.0000000E+00;  4.0000000E+04;  0.0000000E+00;  4.0000000E+04;  2.6422740E-08;  0.0000000E+00;  6.0553389E-09;  1.8471926E-01;
 -1.0000000E-01;  9.9999998E-03;  4.3000001E-01;996;  0.0000000E+00;  0.0000000E+00;  0.0000000E+00;  1.0000000E+03;  1.0000000E-01;  0.0000000E+00;0;  0.0000000E+00;  0.0000000E+00;  0.0000000E+00;0;  0.0000000E+00;  4.0000000E+04;  0.0000000E+00;  0.0000000E+00;  4.0000000E+04;  0.0000000E+00;  4.0000000E+04;  0.0000000E+00;  0.0000000E+00;  0.0000000E+00;  0.0000000E+00;
 -1.0000000E-01;  9.9999998E-03;  4.4000000E-01;997;  0.0000000E+00;  0.0000000E+00;  0.0000000E+00;  1.0000000E+03;  1.0000000E-01;  0.0000000E+00;0;  0.0000000E+00;  0.0000000E+00;  0.0000000E+00;0;  0.0000000E+00;  4.0000000E+04;  0.0000000E+00;  0.0000000E+00;  4.0000000E+04;  0.0000000E+00;  4.0000000E+04;  0.0000000E+00;  0.0000000E+00;  0.0000000E+00;  0.0000000E+00;
 -1.0000000E-01;  9.9999998E-03;  4.4999999E-01;998;  0.0000000E+00;  0.0000000E+00;  0.0000000E+00;  1.0000000E+03;  1.0000000E-01;  0.0000000E+00;0;  0.0000000E+00;  0.0000000E+00;  0.0000000E+00;0;  0.0000000E+00;  4.0000000E+04;  0.0000000E+00;  0.0000000E+00;  4.0000000E+04;  0.0000000E+00;  4.0000000E+04;  0.0000000E+00;  0.0000000E+00;  0.0000000E+00;  0.0000000E+00;
 -9.0000004E-02;  9.9999998E-03;  4.1000000E-01;1085;  0.0000000E+00;  0.0000000E+00;  0.0000000E+00;  1.0000000E+03;  1.0000000E-01;  0.0000000E+00;0;  0.0000000E+00;  0.0000000E+00;  0.0000000E+00;0;  3.0206322E-06;  4.0000000E+04;  0.0000000E+00;  0.0000000E+00;  4.0000000E+04;  0.0000000E+00;  4.0000000E+04;  1.8675908E-06;  0.0000000E+00;  1.1530415E-06;  7.8009434E+00;
 -9.0000004E-02;  9.9999998E-03;  4.1999999E-01;1086;  0.0000000E+00;  0.0000000E+00;  0.0000000E+00;  1.0000000E+03;  1.0000000E-01;  0.0000000E+00;0;  0.0000000E+00;  0.0000000E+00;  0.0000000E+00;0;  3.4168977E-07;  4.0000000E+04;  0.0000000E+00;  0.0000000E+00;  4.0000000E+04;  0.0000000E+00;  4.0000000E+04;  2.3651536E-07;  0.0000000E+00;  1.0517440E-07;  1.6186559E+00;
 -9.0000004E-02;  9.9999998E-03;  4.3000001E-01;1087;  0.0000000E+00;  0.0000000E+00;  0.0000000E+00;  1.0000000E+03;  1.0000000E-01;  0.0000000E+00;0;  0.0000000E+00;  0.0000000E+00;  0.0000000E+00;0;  2.9497995E-09;  4.0000000E+04;  0.0000000E+00;  0.0000000E+00;  4.0000000E+04;  0.0000000E+00;  4.0000000E+04;  3.1277112E-09;  0.0000000E+00; -1.7791180E-10;  9.5916234E-02;
 -9.0000004E-02;  9.9999998E-03;  4.4000000E-01;1088;  0.0000000E+00;  0.0000000E+00;  0.0000000E+00;  1.0000000E+03;  1.0000000E-01;  0.0000000E+00;0;  0.0000000E+00;  0.0000000E+00;  0.0000000E+00;0;  0.0000000E+00;  4.0000000E+04;  0.0000000E+00;  0.0000000E+00;  4.0000000E+04;  0.0000000E+00;  4.0000000E+04;  0.0000000E+00;  0.0000000E+00;  0.0000000E+00;  0.0000000E+00;
 -9.0000004E-02;  9.9999998E-03;  4.4999999E-01;1089;  0.0000000E+00;  0.0000000E+00;  0.0000000E+00;  1.0000000E+03;  1.0000000E-01;  0.0000000E+00;0;  0.0000000E+00;  0.0000000E+00;  0.0000000E+00;0;  0.0000000E+00;  4.0000000E+04;  0.0000000E+00;  0.0000000E+00;  4.0000000E+04;  0.0000000E+00;  4.0000000E+04;  0.0000000E+00;  0.0000000E+00;  0.0000000E+00;  0.0000000E+00;
 -7.9999998E-02;  9.9999998E-03;  4.1000000E-01;1176;  0.0000000E+00;  0.0000000E+00;  0.0000000E+00;  1.0000000E+03;  1.0000000E-01;  0.0000000E+00;0;  0.0000000E+00;  0.0000000E+00;  0.0000000E+00;0;  9.0617095E-06;  4.0000000E+04;  0.0000000E+00;  0.0000000E+00;  4.0000000E+04;  0.0000000E+00;  4.0000000E+04;  4.9291643E-06;  0.0000000E+00;  4.1325452E-06;  2.2086226E+01;
 -7.9999998E-02;  9.9999998E-03;  4.1999999E-01;1177;  0.0000000E+00;  0.0000000E+00;  0.0000000E+00;  1.0000000E+03;  1.0000000E-01;  0.0000000E+00;0;  0.0000000E+00;  0.0000000E+00;  0.0000000E+00;0;  1.6713542E-06;  4.0000000E+04;  0.0000000E+00;  0.0000000E+00;  4.0000000E+04;  0.0000000E+00;  4.0000000E+04;  9.3731722E-07;  0.0000000E+00;  7.3403697E-07;  6.5386963E+00;
 -7.9999998E-02;  9.9999998E-03;  4.3000001E-01;1178;  0.0000000E+00;  0.0000000E+00;  0.0000000E+00;  1.0000000E+03;  1.0000000E-01;  0.0000000E+00;0;  0.0000000E+00;  0.0000000E+00;  0.0000000E+00;0;  9.9980042E-08;  4.0000000E+04;  0.0000000E+00;  0.0000000E+00;  4.0000000E+04;  0.0000000E+00;  4.0000000E+04;  6.9855950E-08;  0.0000000E+00;  3.0124092E-08;  9.8134196E-01;
 -7.9999998E-02;  9.9999998E-03;  4.4000000E-01;1179;  0.0000000E+00;  0.0000000E+00;  0.0000000E+00;  1.0000000E+03;  1.0000000E-01;  0.0000000E+00;0;  0.0000000E+00;  0.0000000E+00;  0.0000000E+00;0; -7.4374029E-10;  4.0000000E+04;  0.0000000E+00;  0.0000000E+00;  4.0000000E+04;  0.0000000E+00;  4.0000000E+04; -3.3307870E-10;  0.0000000E+00; -4.1066156E-10;  1.7766789E-02;
 -7.9999998E-02;  9.9999998E-03;  4.4999999E-01;1180;  0.0000000E+00;  0.0000000E+00;  0.0000000E+00;  1.0000000E+03;  1.0000000E-01;  0.0000000E+00;0;  0.0000000E+00;  0.0000000E+00;  0.0000000E+00;0;  0.0000000E+00;  4.0000000E+04;  0.0000000E+00;  0.0000000E+00;  4.0000000E+04;  0.0000000E+00;  4.0000000E+04;  0.0000000E+00;  0.0000000E+00;  0.0000000E+00;  0.0000000E+00;
 -7.0000000E-02;  9.9999998E-03;  4.1000000E-01;1267;  0.0000000E+00;  0.0000000E+00;  0.0000000E+00;  1.0000000E+03;  1.0000000E-01;  0.0000000E+00;0;  0.0000000E+00;  0.0000000E+00;  0.0000000E+00;0;  2.0589143E-05;  4.0000000E+04;  0.0000000E+00;  0.0000000E+00;  4.0000000E+04;  0.0000000E+00;  4.0000000E+04;  1.0034457E-05;  0.0000000E+00;  1.0554686E-05;  4.8747559E+01;
 -7.0000000E-02;  9.9999998E-03;  4.1999999E-01;1268;  0.0000000E+00;  0.0000000E+00;  0.0000000E+00;  1.0000000E+03;  1.0000000E-01;  0.0000000E+00;0;  0.0000000E+00;  0.0000000E+00;  0.0000000E+00;0;  5.1001898E-06;  4.0000000E+04;  0.0000000E+00;  0.0000000E+00;  4.0000000E+04;  0.0000000E+00;  4.0000000E+04;  2.4127701E-06;  0.0000000E+00;  2.6874197E-06;  1.7824780E+01;
 -7.0000000E-02;  9.9999998E-03;  4.3000001E-01;1269;  0.0000000E+00;  0.0000000E+00;  0.0000000E+00;  1.0000000E+03;  1.0000000E-01;  0.0000000E+00;0;  0.0000000E+00;  0.0000000E+00;  0.0000000E+00;0;  5.8679831E-07;  4.0000000E+04;  0.0000000E+00;  0.0000000E+00;  4.0000000E+04;  0.0000000E+00;  4.0000000E+04;  3.0280577E-07;  0.0000000E+00;  2.8399253E-07;  4.0713615E+00;
 -7.0000000E-02;  9.9999998E-03;  4.4000000E-01;1270;  0.0000000E+00;  0.0000000E+00;  0.0000000E+00;  1.0000000E+03;  1.0000000E-01;  0.0000000E+00;0;  0.0000000E+00;  0.0000000E+00;  0.0000000E+00;0;  1.2841646E-09;  4.0000000E+04;  0.0000000E+00;  0.0000000E+00;  4.0000000E+04;  0.0000000E+00;  4.0000000E+04;  3.0718192E-09;  0.0000000E+00; -1.7876547E-09;  3.4184608E-01;
 -7.0000000E-02;  9.9999998E-03;  4.4999999E-01;1271;  0.0000000E+00;  0.0000000E+00;  0.0000000E+00;  1.0000000E+03;  1.0000000E-01;  0.0000000E+00;0;  0.0000000E+00;  0.0000000E+00;  0.0000000E+00;0;  0.0000000E+00;  4.0000000E+04;  0.0000000E+00;  0.0000000E+00;  4.0000000E+04;  0.0000000E+00;  4.0000000E+04;  0.0000000E+00;  0.0000000E+00;  0.0000000E+00;  8.6631813E-12;
 -5.9999999E-02;  9.9999998E-03;  4.1000000E-01;1358;  0.0000000E+00;  0.0000000E+00;  0.0000000E+00;  1.0000000E+03;  1.0000000E-01;  0.0000000E+00;0;  0.0000000E+00;  0.0000000E+00;  0.0000000E+00;0;  3.8561571E-05;  4.0000000E+04;  0.0000000E+00;  0.0000000E+00;  4.0000000E+04;  0.0000000E+00;  4.0000000E+04;  1.6980362E-05;  0.0000000E+00;  2.1581209E-05;  9.0557648E+01;
 -5.9999999E-02;  9.9999998E-03;  4.1999999E-01;1359;  0.0000000E+00;  0.0000000E+00;  0.0000000E+00;  1.0000000E+03;  1.0000000E-01;  0.0000000E+00;0;  0.0000000E+00;  0.0000000E+00;  0.0000000E+00;0;  1.1608221E-05;  4.0000000E+04;  0.0000000E+00;  0.0000000E+00;  4.0000000E+04;  0.0000000E+00;  4.0000000E+04;  4.7438957E-06;  0.0000000E+00;  6.8643253E-06;  3.8044121E+01;
 -5.9999999E-02;  9.9999998E-03;  4.3000001E-01;1360;  0.0000000E+00;  0.0000000E+00;  0.0000000E+00;  1.0000000E+03;  1.0000000E-01;  0.0000000E+00;0;  0.0000000E+00;  0.0000000E+00;  0.0000000E+00;0;  1.9922945E-06;  4.0000000E+04;  0.0000000E+00;  0.0000000E+00;  4.0000000E+04;  0.0000000E+00;  4.0000000E+04;  8.0577695E-07;  0.0000000E+00;  1.1865175E-06;  1.1132369E+01;
 -5.9999999E-02;  9.9999998E-03;  4.4000000E-01;1361;  0.0000000E+00;  0.0000000E+00;  0.0000000E+00;  1.0000000E+03;  1.0000000E-01;  0.0000000E+00;0;  0.0000000E+00;  0.0000000E+00;  0.0000000E+00;0;  8.2102147E-08;  4.0000000E+04;  0.0000000E+00;  0.0000000E+00;  4.0000000E+04;  0.0000000E+00;  4.0000000E+04;  3.8969972E-08;  0.0000000E+00;  4.3132172E-08;  1.6724567E+00;
 -5.9999999E-02;  9.9999998E-03;  4.4999999E-01;1362;  0.0000000E+00;  0.0000000E+00;  0.0000000E+00;  1.0000000E+03;  1.0000000E-01;  0.0000000E+00;0;  0.0000000E+00;  0.0000000E+00;  0.0000000E+00;0; -1.5166228E-09;  4.0000000E+04;  0.0000000E+00;  0.0000000E+00;  4.0000000E+04;  0.0000000E+00;  4.0000000E+04; -6.0022998E-10;  0.0000000E+00; -9.1639279E-10;  3.8641855E-02;
 -5.0000001E-02;  9.9999998E-03;  4.1000000E-01;1449;  0.0000000E+00;  0.0000000E+00;  0.0000000E+00;  1.0000088E+03;  1.0000000E-01;  7.3084354E+00;0;  0.0000000E+00;  0.0000000E+00;  0.0000000E+00;0;  6.2414510E-05;  4.0000000E+04;  0.0000000E+00;  0.0000000E+00;  4.0000000E+04;  0.0000000E+00;  4.0000000E+04;  2.4824687E-05;  0.0000000E+00;  3.7589823E-05;  1.4788274E+02;
 -5.0000001E-02;  9.9999998E-03;  4.1999999E-01;1450;  0.0000000E+00;  0.0000000E+00;  0.0000000E+00;  1.0000000E+03;  1.0000000E-01;  0.0000000E+00;0;  0.0000000E+00;  0.0000000E+00;  0.0000000E+00;0;  2.1473566E-05;  4.0000000E+04;  0.0000000E+00;  0.0000000E+00;  4.0000000E+04;  0.0000000E+00;  4.0000000E+04;  7.6311044E-06;  0.0000000E+00;  1.3842461E-05;  6.8405556E+01;
 -5.0000001E-02;  9.9999998E-03;  4.3000001E-01;1451;  0.0000000E+00;  0.0000000E+00;  0.0000000E+00;  1.0000000E+03;  1.0000000E-01;  0.0000000E+00;0;  0.0000000E+00;  0.0000000E+00;  0.0000000E+00;0;  4.7515696E-06;  4.0000000E+04;  0.0000000E+00;  0.0000000E+00;  4.0000000E+04;  0.0000000E+00;  4.0000000E+04;  1.5530080E-06;  0.0000000E+00;  3.1985617E-06;  2.3522299E+01;
 -5.0000001E-02;  9.9999998E-03;  4.4000000E-01;1452;  0.0000000E+00;  0.0000000E+00;  0.0000000E+00;  1.0000000E+03;  1.0000000E-01;  0.0000000E+00;0;  0.0000000E+00;  0.0000000E+00;  0.0000000E+00;0;  3.9874084E-07;  4.0000000E+04;  0.0000000E+00;  0.0000000E+00;  4.0000000E+04;  0.0000000E+00;  4.0000000E+04;  1.2203402E-07;  0.0000000E+00;  2.7670683E-07;  4.8811102E+00;
 -5.0000001E-02;  9.9999998E-03;  4.4999999E-01;1453;  0.0000000E+00;  0.0000000E+00;  0.0000000E+00;  1.0000000E+03;  1.0000000E-01;  0.0000000E+00;0;  0.0000000E+00;  0.0000000E+00;  0.0000000E+00;0; -8.6834557E-09;  4.0000000E+04;  0.0000000E+00;  0.0000000E+00;  4.0000000E+04;  0.0000000E+00;  4.0000000E+04; -4.5958828E-09;  0.0000000E+00; -4.0875729E-09;  3.2985124E-01;
 -3.9999999E-02;  9.9999998E-03;  4.1000000E-01;1540;  0.0000000E+00;  0.0000000E+00;  0.0000000E+00;  1.0000480E+03;  1.0000000E-01;  3.9801342E+01;0;  0.0000000E+00;  0.0000000E+00;  0.0000000E+00;0;  8.9809939E-05;  4.0000000E+04;  0.0000000E+00;  0.0000000E+00;  4.0000000E+04;  0.0000000E+00;  4.0000000E+04;  3.2007607E-05;  0.0000000E+00;  5.7802332E-05;  2.1803433E+02;
 -3.9999999E-02;  9.9999998E-03;  4.1999999E-01;1541;  0.0000000E+00;  0.0000000E+00;  0.0000000E+00;  1.0000000E+03;  1.0000000E-01;  0.0000000E+00;0;  0.0000000E+00;  0.0000000E+00;  0.0000000E+00;0;  3.3941717E-05;  4.0000000E+04;  0.0000000E+00;  0.0000000E+00;  4.0000000E+04;  0.0000000E+00;  4.0000000E+04;  1.0405113E-05;  0.0000000E+00;  2.3536602E-05;  1.0806408E+02;
 -3.9999999E-02;  9.9999998E-03;  4.3000001E-01;1542;  0.0000000E+00;  0.0000000E+00;  0.0000000E+00;  1.0000000E+03;  1.0000000E-01;  0.0000000E+00;0;  0.0000000E+00;  0.0000000E+00;  0.0000000E+00;0;  8.8974084E-06;  4.0000000E+04;  0.0000000E+00;  0.0000000E+00;  4.0000000E+04;  0.0000000E+00;  4.0000000E+04;  2.3460725E-06;  0.0000000E+00;  6.5513359E-06;  4.1533543E+01;
 -3.9999999E-02;  9.9999998E-03;  4.4000000E-01;1543;  0.0000000E+00;  0.0000000E+00;  0.0000000E+00;  1.0000000E+03;  1.0000000E-01;  0.0000000E+00;0;  0.0000000E+00;  0.0000000E+00;  0.0000000E+00;0;  1.1138191E-06;  4.0000000E+04;  0.0000000E+00;  0.0000000E+00;  4.0000000E+04;  0.0000000E+00;  4.0000000E+04;  2.3107640E-07;  0.0000000E+00;  8.8274260E-07;  1.0579971E+01;
 -3.9999999E-02;  9.9999998E-03;  4.4999999E-01;1544;  0.0000000E+00;  0.0000000E+00;  0.0000000E+00;  1.0000000E+03;  1.0000000E-01;  0.0000000E+00;0;  0.0000000E+00;  0.0000000E+00;  0.0000000E+00;0; -2.1331035E-09;  4.0000000E+04;  0.0000000E+00;  0.0000000E+00;  4.0000000E+04;  0.0000000E+00;  4.0000000E+04; -1.1859818E-08;  0.0000000E+00;  9.7267145E-09;  1.1960701E+00;
 -2.9999999E-02;  9.9999998E-03;  4.1000000E-01;1631;  0.0000000E+00;  0.0000000E+00;  0.0000000E+00;  1.0000668E+03;  1.0000000E-01;  5.5307079E+01;0;  0.0000000E+00;  0.0000000E+00;  0.0000000E+00;0;  1.1687903E-04;  4.0000000E+04;  0.0000000E+00;  0.0000000E+00;  4.0000000E+04;  0.0000000E+00;  4.0000000E+04;  3.6747395E-05;  0.0000000E+00;  8.0131635E-05;  2.9520428E+02;
 -2.9999999E-02;  9.9999998E-03;  4.1999999E-01;1632;  0.0000000E+00;  0.0000000E+00;  0.0000000E+00;  1.0000106E+03;  1.0000000E-01;  8.7898750E+00;0;  0.0000000E+00;  0.0000000E+00;  0.0000000E+00;0;  4.7226837E-05;  4.0000000E+04;  0.0000000E+00;  0.0000000E+00;  4.0000000E+04;  0.0000000E+00;  4.0000000E+04;  1.2210565E-05;  0.0000000E+00;  3.5016274E-05;  1.5387045E+02;
 -2.9999999E-02;  9.9999998E-03;  4.3000001E-01;1633;  0.0000000E+00;  0.0000000E+00;  0.0000000E+00;  1.0000000E+03;  1.0000000E-01;  0.0000000E+00;0;  0.0000000E+00;  0.0000000E+00;  0.0000000E+00;0;  1.3900089E-05;  4.0000000E+04;  0.0000000E+00;  0.0000000E+00;  4.0000000E+04;  0.0000000E+00;  4.0000000E+04;  2.8574027E-06;  0.0000000E+00;  1.1042687E-05;  6.4015968E+01;
 -2.9999999E-02;  9.9999998E-03;  4.4000000E-01;1634;  0.0000000E+00;  0.0000000E+00;  0.0000000E+00;  1.0000000E+03;  1.0000000E-01;  0.0000000E+00;0;  0.0000000E+00;  0.0000000E+00;  0.0000000E+00;0;  2.2485895E-06;  4.0000000E+04;  0.0000000E+00;  0.0000000E+00;  4.0000000E+04;  0.0000000E+00;  4.0000000E+04;  2.9414505E-07;  0.0000000E+00;  1.9544443E-06;  1.8741055E+01;
 -2.9999999E-02;  9.9999998E-03;  4.4999999E-01;1635;  0.0000000E+00;  0.0000000E+00;  0.0000000E+00;  1.0000000E+03;  1.0000000E-01;  0.0000000E+00;0;  0.0000000E+00;  0.0000000E+00;  0.0000000E+00;0;  5.7606133E-08;  4.0000000E+04;  0.0000000E+00;  0.0000000E+00;  4.0000000E+04;  0.0000000E+00;  4.0000000E+04; -2.6942335E-08;  0.0000000E+00;  8.4548468E-08;  2.8767867E+00;
 -2.0000000E-02;  9.9999998E-03;  4.1000000E-01;1722;  0.0000000E+00;  0.0000000E+00;  0.0000000E+00;  1.0000828E+03;  1.0000000E-01;  6.8541275E+01;0;  0.0000000E+00;  0.0000000E+00;  0.0000000E+00;0;  1.3894535E-04;  4.0000000E+04;  0.0000000E+00;  0.0000000E+00;  4.0000000E+04;  0.0000000E+00;  4.0000000E+04;  3.7640588E-05;  0.0000000E+00;  1.0130477E-04;  3.7100668E+02;
 -2.0000000E-02;  9.9999998E-03;  4.1999999E-01;1723;  0.0000000E+00;  0.0000000E+00;  0.0000000E+00;  1.0000462E+03;  1.0000000E-01;  3.8319904E+01;0;  0.0000000E+00;  0.0000000E+00;  0.0000000E+00;0;  5.8801779E-05;  4.0000000E+04;  0.0000000E+00;  0.0000000E+00;  4.0000000E+04;  0.0000000E+00;  4.0000000E+04;  1.2306541E-05;  0.0000000E+00;  4.6495239E-05;  2.0062010E+02;
 -2.0000000E-02;  9.9999998E-03;  4.3000001E-01;1724;  0.0000000E+00;  0.0000000E+00;  0.0000000E+00;  1.0000000E+03;  1.0000000E-01;  0.0000000E+00;0;  0.0000000E+00;  0.0000000E+00;  0.0000000E+00;0;  1.8719469E-05;  4.0000000E+04;  0.0000000E+00;  0.0000000E+00;  4.0000000E+04;  0.0000000E+00;  4.0000000E+04;  2.7585320E-06;  0.0000000E+00;  1.5960937E-05;  8.8372864E+01;
 -2.0000000E-02;  9.9999998E-03;  4.4000000E-01;1725;  0.0000000E+00;  0.0000000E+00;  0.0000000E+00;  1.0000000E+03;  1.0000000E-01;  0.0000000E+00;0;  0.0000000E+00;  0.0000000E+00;  0.0000000E+00;0;  3.5757726E-06;  4.0000000E+04;  0.0000000E+00;  0.0000000E+00;  4.0000000E+04;  0.0000000E+00;  4.0000000E+04;  2.0897437E-07;  0.0000000E+00;  3.3667982E-06;  2.8523396E+01;
 -2.0000000E-02;  9.9999998E-03;  4.4999999E-01;1726;  0.0000000E+00;  0.0000000E+00;  0.0000000E+00;  1.0000000E+03;  1.0000000E-01;  0.0000000E+00;0;  0.0000000E+00;  0.0000000E+00;  0.0000000E+00;0;  1.9038086E-07;  4.0000000E+04;  0.0000000E+00;  0.0000000E+00;  4.0000000E+04;  0.0000000E+00;  4.0000000E+04; -6.2849239E-08;  0.0000000E+00;  2.5323010E-07;  5.3410006E+00;
 -9.9999998E-03;  9.9999998E-03;  4.1000000E-01;1813;  0.0000000E+00;  0.0000000E+00;  0.0000000E+00;  1.0001279E+03;  1.0000000E-01;  1.0597231E+02;0;  0.0000000E+00;  0.0000000E+00;  0.0000000E+00;0;  1.5167211E-04;  4.0000000E+04;  0.0000000E+00;  0.0000000E+00;  4.0000000E+04;  0.0000000E+00;  4.0000000E+04;  3.4331453E-05;  0.0000000E+00;  1.1734066E-04;  4.3572342E+02;
 -9.9999998E-03;  9.9999998E-03;  4.1999999E-01;1814;  0.0000000E+00;  0.0000000E+00;  0.0000000E+00;  1.0000550E+03;  1.0000000E-01;  4.5529575E+01;0;  0.0000000E+00;  0.0000000E+00;  0.0000000E+00;0;  6.5958520E-05;  4.0000000E+04;  0.0000000E+00;  0.0000000E+00;  4.0000000E+04;  0.0000000E+00;  4.0000000E+04;  1.0407821E-05;  0.0000000E+00;  5.5550696E-05;  2.4179898E+02;
 -9.9999998E-03;  9.9999998E-03;  4.3000001E-01;1815;  0.0000000E+00;  0.0000000E+00;  0.0000000E+00;  1.0000000E+03;  1.0000000E-01;  0.0000000E+00;0;  0.0000000E+00;  0.0000000E+00;  0.0000000E+00;0;  2.2038996E-05;  4.0000000E+04;  0.0000000E+00;  0.0000000E+00;  4.0000000E+04;  0.0000000E+00;  4.0000000E+04;  1.8878932E-06;  0.0000000E+00;  2.0151103E-05;  1.1093039E+02;
 -9.9999998E-03;  9.9999998E-03;  4.4000000E-01;1816;  0.0000000E+00;  0.0000000E+00;  0.0000000E+00;  1.0000000E+03;  1.0000000E-01;  0.0000000E+00;0;  0.0000000E+00;  0.0000000E+00;  0.0000000E+00;0;  4.6604350E-06;  4.0000000E+04;  0.0000000E+00;  0.0000000E+00;  4.0000000E+04;  0.0000000E+00;  4.0000000E+04; -9.2548177E-08;  0.0000000E+00;  4.7529834E-06;  3.8356915E+01;
 -9.9999998E-03;  9.9999998E-03;  4.4999999E-01;1817;  0.0000000E+00;  0.0000000E+00;  0.0000000E+00;  1.0000000E+03;  1.0000000E-01;  0.0000000E+00;0;  0.0000000E+00;  0.0000000E+00;  0.0000000E+00;0;  3.5955256E-07;  4.0000000E+04;  0.0000000E+00;  0.0000000E+00;  4.0000000E+04;  0.0000000E+00;  4.0000000E+04; -1.3138529E-07;  0.0000000E+00;  4.9093785E-07;  8.2144232E+00;
  0.0000000E+00;  9.9999998E-03;  4.1000000E-01;1845;  0.0000000E+00;  0.0000000E+00;  0.0000000E+00;  1.0001492E+03;  1.0000000E-01;  1.2355206E+02;0;  0.0000000E+00;  0.0000000E+00;  0.0000000E+00;0;  1.5261855E-04;  4.0000000E+04;  0.0000000E+00;  0.0000000E+00;  4.0000000E+04;  0.0000000E+00;  4.0000000E+04;  2.8109816E-05;  0.0000000E+00;  1.2450873E-04;  4.8029153E+02;
  0.0000000E+00;  9.9999998E-03;  4.1999999E-01;1846;  0.0000000E+00;  0.0000000E+00;  0.0000000E+00;  1.0000707E+03;  1.0000000E-01;  5.8566246E+01;0;  0.0000000E+00;  0.0000000E+00;  0.0000000E+00;0;  6.6558103E-05;  4.0000000E+04;  0.0000000E+00;  0.0000000E+00;  4.0000000E+04;  0.0000000E+00;  4.0000000E+04;  6.9609082E-06;  0.0000000E+00;  5.9597194E-05;  2.7079816E+02;
  0.0000000E+00;  9.9999998E-03;  4.3000001E-01;1847;  0.0000000E+00;  0.0000000E+00;  0.0000000E+00;  1.0000084E+03;  1.0000000E-01;  6.9133849E+00;0;  0.0000000E+00;  0.0000000E+00;  0.0000000E+00;0;  2.2594846E-05;  4.0000000E+04;  0.0000000E+00;  0.0000000E+00;  4.0000000E+04;  0.0000000E+00;  4.0000000E+04;  3.7703063E-07;  0.0000000E+00;  2.2217815E-05;  1.2761542E+02;
  0.0000000E+00;  9.9999998E-03;  4.4000000E-01;1848;  0.0000000E+00;  0.0000000E+00;  0.0000000E+00;  1.0000000E+03;  1.0000000E-01;  0.0000000E+00;0;  0.0000000E+00;  0.0000000E+00;  0.0000000E+00;0;  4.9944783E-06;  4.0000000E+04;  0.0000000E+00;  0.0000000E+00;  4.0000000E+04;  0.0000000E+00;  4.0000000E+04; -5.8263436E-07;  0.0000000E+00;  5.5771125E-06;  4.6261940E+01;
  0.0000000E+00;  9.9999998E-03;  4.4999999E-01;1849;  0.0000000E+00;  0.0000000E+00;  0.0000000E+00;  1.0000000E+03;  1.0000000E-01;  0.0000000E+00;0;  0.0000000E+00;  0.0000000E+00;  0.0000000E+00;0;  4.6589918E-07;  4.0000000E+04;  0.0000000E+00;  0.0000000E+00;  4.0000000E+04;  0.0000000E+00;  4.0000000E+04; -2.2926902E-07;  0.0000000E+00;  6.9516818E-07;  1.0854299E+01;
  9.9999998E-03;  9.9999998E-03;  4.1000000E-01;1875;  0.0000000E+00;  0.0000000E+00;  0.0000000E+00;  1.0001854E+03;  1.0000000E-01;  1.5357590E+02;0;  0.0000000E+00;  0.0000000E+00;  0.0000000E+00;0;  1.4289719E-04;  4.0000000E+04;  0.0000000E+00;  0.0000000E+00;  4.0000000E+04;  0.0000000E+00;  4.0000000E+04;  2.2247321E-05;  0.0000000E+00;  1.2064987E-04;  4.9913513E+02;
  9.9999998E-03;  9.9999998E-03;  4.1999999E-01;1876;  0.0000000E+00;  0.0000000E+00;  0.0000000E+00;  1.0000889E+03;  1.0000000E-01;  7.3676926E+01;0;  0.0000000E+00;  0.0000000E+00;  0.0000000E+00;0;  6.0029965E-05;  4.0000000E+04;  0.0000000E+00;  0.0000000E+00;  4.0000000E+04;  0.0000000E+00;  4.0000000E+04;  3.3563124E-06;  0.0000000E+00;  5.6673653E-05;  2.8260159E+02;
  9.9999998E-03;  9.9999998E-03;  4.3000001E-01;1877;  0.0000000E+00;  0.0000000E+00;  0.0000000E+00;  1.0000317E+03;  1.0000000E-01;  2.6270863E+01;0;  0.0000000E+00;  0.0000000E+00;  0.0000000E+00;0;  1.9579793E-05;  4.0000000E+04;  0.0000000E+00;  0.0000000E+00;  4.0000000E+04;  0.0000000E+00;  4.0000000E+04; -1.2861925E-06;  0.0000000E+00;  2.0865986E-05;  1.3487097E+02;
  9.9999998E-03;  9.9999998E-03;  4.4000000E-01;1878;  0.0000000E+00;  0.0000000E+00;  0.0000000E+00;  1.0000000E+03;  1.0000000E-01;  0.0000000E+00;0;  0.0000000E+00;  0.0000000E+00;  0.0000000E+00;0;  4.1470284E-06;  4.0000000E+04;  0.0000000E+00;  0.0000000E+00;  4.0000000E+04;  0.0000000E+00;  4.0000000E+04; -1.1160420E-06;  0.0000000E+00;  5.2630703E-06;  5.0306717E+01;
  9.9999998E-03;  9.9999998E-03;  4.4999999E-01;1879;  0.0000000E+00;  0.0000000E+00;  0.0000000E+00;  1.0000000E+03;  1.0000000E-01;  0.0000000E+00;0;  0.0000000E+00;  0.0000000E+00;  0.0000000E+00;0;  3.8088501E-07;  4.0000000E+04;  0.0000000E+00;  0.0000000E+00;  4.0000000E+04;  0.0000000E+00;  4.0000000E+04; -3.2935327E-07;  0.0000000E+00;  7.1023828E-07;  1.2526804E+01;
  2.0000000E-02;  9.9999998E-03;  4.1000000E-01;1905;  0.0000000E+00;  0.0000000E+00;  0.0000000E+00;  1.0002181E+03;  1.0000000E-01;  1.8063687E+02;0;  0.0000000E+00;  0.0000000E+00;  0.0000000E+00;0;  1.2745657E-04;  4.0000000E+04;  0.0000000E+00;  0.0000000E+00;  4.0000000E+04;  0.0000000E+00;  4.0000000E+04;  2.1417696E-05;  0.0000000E+00;  1.0603887E-04;  4.9274139E+02;
  2.0000000E-02;  9.9999998E-03;  4.1999999E-01;1906;  0.0000000E+00;  0.0000000E+00;  0.0000000E+00;  1.0001116E+03;  1.0000000E-01;  9.2441833E+01;0;  0.0000000E+00;  0.0000000E+00;  0.0000000E+00;0;  4.8337082E-05;  4.0000000E+04;  0.0000000E+00;  0.0000000E+00;  4.0000000E+04;  0.0000000E+00;  4.0000000E+04;  1.9360805E-06;  0.0000000E+00;  4.6401001E-05;  2.7582056E+02;
  2.0000000E-02;  9.9999998E-03;  4.3000001E-01;1907;  0.0000000E+00;  0.0000000E+00;  0.0000000E+00;  1.0000461E+03;  1.0000000E-01;  3.8221142E+01;0;  0.0000000E+00;  0.0000000E+00;  0.0000000E+00;0;  1.3164556E-05;  4.0000000E+04;  0.0000000E+00;  0.0000000E+00;  4.0000000E+04;  0.0000000E+00;  4.0000000E+04; -2.2370973E-06;  0.0000000E+00;  1.5401652E-05;  1.3076634E+02;
  2.0000000E-02;  9.9999998E-03;  4.4000000E-01;1908;  0.0000000E+00;  0.0000000E+00;  0.0000000E+00;  1.0000000E+03;  1.0000000E-01;  0.0000000E+00;0;  0.0000000E+00;  0.0000000E+00;  0.0000000E+00;0;  1.9114118E-06;  4.0000000E+04;  0.0000000E+00;  0.0000000E+00;  4.0000000E+04;  0.0000000E+00;  4.0000000E+04; -1.4502465E-06;  0.0000000E+00;  3.3616582E-06;  4.9116955E+01;
  2.0000000E-02;  9.9999998E-03;  4.4999999E-01;1909;  0.0000000E+00;  0.0000000E+00;  0.0000000E+00;  1.0000000E+03;  1.0000000E-01;  0.0000000E+00;0;  0.0000000E+00;  0.0000000E+00;  0.0000000E+00;0; -2.0505695E-09;  4.0000000E+04;  0.0000000E+00;  0.0000000E+00;  4.0000000E+04;  0.0000000E+00;  4.0000000E+04; -3.8457097E-07;  0.0000000E+00;  3.8252040E-07;  1.2624459E+01;
  2.9999999E-02;  9.9999998E-03;  4.1000000E-01;1935;  0.0000000E+00;  0.0000000E+00;  0.0000000E+00;  1.0002547E+03;  1.0000000E-01;  2.1105576E+02;0;  0.0000000E+00;  0.0000000E+00;  0.0000000E+00;0;  1.1403796E-04;  4.0000000E+04;  0.0000000E+00;  0.0000000E+00;  4.0000000E+04;  0.0000000E+00;  4.0000000E+04;  3.0418778E-05;  0.0000000E+00;  8.3619183E-05;  4.6940344E+02;
  2.9999999E-02;  9.9999998E-03;  4.1999999E-01;1936;  0.0000000E+00;  0.0000000E+00;  0.0000000E+00;  1.0001301E+03;  1.0000000E-01;  1.0775004E+02;0;  0.0000000E+00;  0.0000000E+00;  0.0000000E+00;0;  3.5819823E-05;  4.0000000E+04;  0.0000000E+00;  0.0000000E+00;  4.0000000E+04;  0.0000000E+00;  4.0000000E+04;  5.4058469E-06;  0.0000000E+00;  3.0413978E-05;  2.5430383E+02;
  2.9999999E-02;  9.9999998E-03;  4.3000001E-01;1937;  0.0000000E+00;  0.0000000E+00;  0.0000000E+00;  1.0000506E+03;  1.0000000E-01;  4.1875359E+01;0;  0.0000000E+00;  0.0000000E+00;  0.0000000E+00;0;  4.9916744E-06;  4.0000000E+04;  0.0000000E+00;  0.0000000E+00;  4.0000000E+04;  0.0000000E+00;  4.0000000E+04; -1.3035869E-06;  0.0000000E+00;  6.2952613E-06;  1.1618450E+02;
  2.9999999E-02;  9.9999998E-03;  4.4000000E-01;1938;  0.0000000E+00;  0.0000000E+00;  0.0000000E+00;  1.0000000E+03;  1.0000000E-01;  0.0000000E+00;0;  0.0000000E+00;  0.0000000E+00;  0.0000000E+00;0; -1.4976306E-06;  4.0000000E+04;  0.0000000E+00;  0.0000000E+00;  4.0000000E+04;  0.0000000E+00;  4.0000000E+04; -1.2723605E-06;  0.0000000E+00; -2.2527007E-07;  4.2399834E+01;
  2.9999999E-02;  9.9999998E-03;  4.4999999E-01;1939;  0.0000000E+00;  0.0000000E+00;  0.0000000E+00;  1.0000000E+03;  1.0000000E-01;  0.0000000E+00;0;  0.0000000E+00;  0.0000000E+00;  0.0000000E+00;0; -7.2648595E-07;  4.0000000E+04;  0.0000000E+00;  0.0000000E+00;  4.0000000E+04;  0.0000000E+00;  4.0000000E+04; -3.4490807E-07;  0.0000000E+00; -3.8157791E-07;  1.0860325E+01;
  3.9999999E-02;  9.9999998E-03;  4.1000000E-01;1965;  0.0000000E+00;  0.0000000E+00;  0.0000000E+00;  1.0002783E+03;  1.0000000E-01;  2.3061076E+02;0;  0.0000000E+00;  0.0000000E+00;  0.0000000E+00;0;  1.1132631E-04;  4.0000000E+04;  0.0000000E+00;  0.0000000E+00;  4.0000000E+04;  0.0000000E+00;  4.0000000E+04;  5.2704563E-05;  0.0000000E+00;  5.8621743E-05;  4.4503214E+02;
  3.9999999E-02;  9.9999998E-03;  4.1999999E-01;1966;  0.0000000E+00;  0.0000000E+00;  0.0000000E+00;  1.0001376E+03;  1.0000000E-01;  1.1407085E+02;0;  0.0000000E+00;  0.0000000E+00;  0.0000000E+00;0;  2.8180450E-05;  4.0000000E+04;  0.0000000E+00;  0.0000000E+00;  4.0000000E+04;  0.0000000E+00;  4.0000000E+04;  1.5946709E-05;  0.0000000E+00;  1.2233741E-05;  2.2761830E+02;
  3.9999999E-02;  9.9999998E-03;  4.3000001E-01;1967;  0.0000000E+00;  0.0000000E+00;  0.0000000E+00;  1.0000569E+03;  1.0000000E-01;  4.7109779E+01;0;  0.0000000E+00;  0.0000000E+00;  0.0000000E+00;0; -2.0344003E-06;  4.0000000E+04;  0.0000000E+00;  0.0000000E+00;  4.0000000E+04;  0.0000000E+00;  4.0000000E+04;  2.6291921E-06;  0.0000000E+00; -4.6635923E-06;  9.5533272E+01;
  3.9999999E-02;  9.9999998E-03;  4.4000000E-01;1968;  0.0000000E+00;  0.0000000E+00;  0.0000000E+00;  1.0000000E+03;  1.0000000E-01;  0.0000000E+00;0;  0.0000000E+00;  0.0000000E+00;  0.0000000E+00;0; -5.2368246E-06;  4.0000000E+04;  0.0000000E+00;  0.0000000E+00;  4.0000000E+04;  0.0000000E+00;  4.0000000E+04; -2.3414545E-07;  0.0000000E+00; -5.0026792E-06;  3.1444613E+01;
  3.9999999E-02;  9.9999998E-03;  4.4999999E-01;1969;  0.0000000E+00;  0.0000000E+00;  0.0000000E+00;  1.0000000E+03;  1.0000000E-01;  0.0000000E+00;0;  0.0000000E+00;  0.0000000E+00;  0.0000000E+00;0; -1.7336247E-06;  4.0000000E+04;  0.0000000E+00;  0.0000000E+00;  4.0000000E+04;  0.0000000E+00;  4.0000000E+04; -1.7190118E-07;  0.0000000E+00; -1.5617235E-06;  7.4095049E+00;
  5.0000001E-02;  9.9999998E-03;  4.1000000E-01;1995;  0.0000000E+00;  0.0000000E+00;  0.0000000E+00;  1.0002839E+03;  1.0000000E-01;  2.3525261E+02;0;  0.0000000E+00;  0.0000000E+00;  0.0000000E+00;0;  1.2684929E-04;  4.0000000E+04;  0.0000000E+00;  0.0000000E+00;  4.0000000E+04;  0.0000000E+00;  4.0000000E+04;  8.9243127E-05;  0.0000000E+00;  3.7606162E-05;  4.4059674E+02;
  5.0000001E-02;  9.9999998E-03;  4.1999999E-01;1996;  0.0000000E+00;  0.0000000E+00;  0.0000000E+00;  1.0001482E+03;  1.0000000E-01;  1.2276196E+02;0;  0.0000000E+00;  0.0000000E+00;  0.0000000E+00;0;  3.1014126E-05;  4.0000000E+04;  0.0000000E+00;  0.0000000E+00;  4.0000000E+04;  0.0000000E+00;  4.0000000E+04;  3.4394419E-05;  0.0000000E+00; -3.3802939E-06;  2.1000902E+02;
  5.0000001E-02;  9.9999998E-03;  4.3000001E-01;1997;  0.0000000E+00;  0.0000000E+00;  0.0000000E+00;  1.0000646E+03;  1.0000000E-01;  5.3529350E+01;0;  0.0000000E+00;  0.0000000E+00;  0.0000000E+00;0; -4.5078687E-06;  4.0000000E+04;  0.0000000E+00;  0.0000000E+00;  4.0000000E+04;  0.0000000E+00;  4.0000000E+04;  1.0152449E-05;  0.0000000E+00; -1.4660318E-05;  7.6599228E+01;
  5.0000001E-02;  9.9999998E-03;  4.4000000E-01;1998;  0.0000000E+00;  0.0000000E+00;  0.0000000E+00;  1.0000000E+03;  1.0000000E-01;  0.0000000E+00;0;  0.0000000E+00;  0.0000000E+00;  0.0000000E+00;0; -7.8923495E-06;  4.0000000E+04;  0.0000000E+00;  0.0000000E+00;  4.0000000E+04;  0.0000000E+00;  4.0000000E+04;  1.9361319E-06;  0.0000000E+00; -9.8284818E-06;  1.9318855E+01;
  5.0000001E-02;  9.9999998E-03;  4.4999999E-01;1999;  0.0000000E+00;  0.0000000E+00;  0.0000000E+00;  1.0000000E+03;  1.0000000E-01;  0.0000000E+00;0;  0.0000000E+00;  0.0000000E+00;  0.0000000E+00;0; -2.7956744E-06;  4.0000000E+04;  0.0000000E+00;  0.0000000E+00;  4.0000000E+04;  0.0000000E+00;  4.0000000E+04;  1.6705047E-07;  0.0000000E+00; -2.9627249E-06;  2.9959934E+00;
  5.9999999E-02;  9.9999998E-03;  4.1000000E-01;2025;  0.0000000E+00;  0.0000000E+00;  0.0000000E+00;  1.0002894E+03;  1.0000000E-01;  2.3979568E+02;0;  0.0000000E+00;  0.0000000E+00;  0.0000000E+00;0;  1.6536110E-04;  4.0000000E+04;  0.0000000E+00;  0.0000000E+00;  4.0000000E+04;  0.0000000E+00;  4.0000000E+04;  1.3817054E-04;  0.0000000E+00;  2.7190552E-05;  4.7763562E+02;
  5.9999999E-02;  9.9999998E-03;  4.1999999E-01;2026;  0.0000000E+00;  0.0000000E+00;  0.0000000E+00;  1.0001510E+03;  1.0000000E-01;  1.2513226E+02;0;  0.0000000E+00;  0.0000000E+00;  0.0000000E+00;0;  4.8442933E-05;  4.0000000E+04;  0.0000000E+00;  0.0000000E+00;  4.0000000E+04;  0.0000000E+00;  4.0000000E+04;  5.9899950E-05;  0.0000000E+00; -1.1457017E-05;  2.1744589E+02;
  5.9999999E-02;  9.9999998E-03;  4.3000001E-01;2027;  0.0000000E+00;  0.0000000E+00;  0.0000000E+00;  1.0000660E+03;  1.0000000E-01;  5.4615738E+01;0;  0.0000000E+00;  0.0000000E+00;  0.0000000E+00;0;  5.4250449E-07;  4.0000000E+04;  0.0000000E+00;  0.0000000E+00;  4.0000000E+04;  0.0000000E+00;  4.0000000E+04;  2.1041395E-05;  0.0000000E+00; -2.0498890E-05;  6.9261719E+01;
  5.9999999E-02;  9.9999998E-03;  4.4000000E-01;2028;  0.0000000E+00;  0.0000000E+00;  0.0000000E+00;  1.0000000E+03;  1.0000000E-01;  0.0000000E+00;0;  0.0000000E+00;  0.0000000E+00;  0.0000000E+00;0; -7.9084466E-06;  4.0000000E+04;  0.0000000E+00;  0.0000000E+00;  4.0000000E+04;  0.0000000E+00;  4.0000000E+04;  5.2767855E-06;  0.0000000E+00; -1.3185232E-05;  1.0531364E+01;
  5.9999999E-02;  9.9999998E-03;  4.4999999E-01;2029;  0.0000000E+00;  0.0000000E+00;  0.0000000E+00;  1.0000000E+03;  1.0000000E-01;  0.0000000E+00;0;  0.0000000E+00;  0.0000000E+00;  0.0000000E+00;0; -3.4803936E-06;  4.0000000E+04;  0.0000000E+00;  0.0000000E+00;  4.0000000E+04;  0.0000000E+00;  4.0000000E+04;  7.0998499E-07;  0.0000000E+00; -4.1903786E-06;  1.1476359E+00;
  7.0000000E-02;  9.9999998E-03;  4.1000000E-01;2055;  0.0000000E+00;  0.0000000E+00;  0.0000000E+00;  1.0002913E+03;  1.0000000E-01;  2.4137589E+02;0;  0.0000000E+00;  0.0000000E+00;  0.0000000E+00;0;  2.2767228E-04;  4.0000000E+04;  0.0000000E+00;  0.0000000E+00;  4.0000000E+04;  0.0000000E+00;  4.0000000E+04;  1.9504690E-04;  0.0000000E+00;  3.2625376E-05;  5.7335510E+02;
  7.0000000E-02;  9.9999998E-03;  4.1999999E-01;2056;  0.0000000E+00;  0.0000000E+00;  0.0000000E+00;  1.0001518E+03;  1.0000000E-01;  1.2572484E+02;0;  0.0000000E+00;  0.0000000E+00;  0.0000000E+00;0;  8.2276631E-05;  4.0000000E+04;  0.0000000E+00;  0.0000000E+00;  4.0000000E+04;  0.0000000E+00;  4.0000000E+04;  9.0180976E-05;  0.0000000E+00; -7.9043448E-06;  2.6363718E+02;
  7.0000000E-02;  9.9999998E-03;  4.3000001E-01;2057;  0.0000000E+00;  0.0000000E+00;  0.0000000E+00;  1.0000672E+03;  1.0000000E-01;  5.5702129E+01;0;  0.0000000E+00;  0.0000000E+00;  0.0000000E+00;0;  1.4896044E-05;  4.0000000E+04;  0.0000000E+00;  0.0000000E+00;  4.0000000E+04;  0.0000000E+00;  4.0000000E+04;  3.4312980E-05;  0.0000000E+00; -1.9416935E-05;  8.3085884E+01;
  7.0000000E-02;  9.9999998E-03;  4.4000000E-01;2058;  0.0000000E+00;  0.0000000E+00;  0.0000000E+00;  1.0000000E+03;  1.0000000E-01;  0.0000000E+00;0;  0.0000000E+00;  0.0000000E+00;  0.0000000E+00;0; -4.0558643E-06;  4.0000000E+04;  0.0000000E+00;  0.0000000E+00;  4.0000000E+04;  0.0000000E+00;  4.0000000E+04;  9.5419327E-06;  0.0000000E+00; -1.3597797E-05;  1.0134249E+01;
  7.0000000E-02;  9.9999998E-03;  4.4999999E-01;2059;  0.0000000E+00;  0.0000000E+00;  0.0000000E+00;  1.0000000E+03;  1.0000000E-01;  0.0000000E+00;0;  0.0000000E+00;  0.0000000E+00;  0.0000000E+00;0; -3.2828675E-06;  4.0000000E+04;  0.0000000E+00;  0.0000000E+00;  4.0000000E+04;  0.0000000E+00;  4.0000000E+04;  1.4727407E-06;  0.0000000E+00; -4.7556082E-06;  3.3891299E+00;
  7.9999998E-02;  9.9999998E-03;  4.1000000E-01;2085;  0.0000000E+00;  0.0000000E+00;  0.0000000E+00;  1.0002765E+03;  1.0000000E-01;  2.2903056E+02;0;  0.0000000E+00;  0.0000000E+00;  0.0000000E+00;0;  3.0947436E-04;  4.0000000E+04;  0.0000000E+00;  0.0000000E+00;  4.0000000E+04;  0.0000000E+00;  4.0000000E+04;  2.5333499E-04;  0.0000000E+00;  5.6139357E-05;  7.3630554E+02;
  7.9999998E-02;  9.9999998E-03;  4.1999999E-01;2086;  0.0000000E+00;  0.0000000E+00;  0.0000000E+00;  1.0001441E+03;  1.0000000E-01;  1.1940403E+02;0;  0.0000000E+00;  0.0000000E+00;  0.0000000E+00;0;  1.3136967E-04;  4.0000000E+04;  0.0000000E+00;  0.0000000E+00;  4.0000000E+04;  0.0000000E+00;  4.0000000E+04;  1.2189881E-04;  0.0000000E+00;  9.4708575E-06;  3.5650912E+02;
  7.9999998E-02;  9.9999998E-03;  4.3000001E-01;2087;  0.0000000E+00;  0.0000000E+00;  0.0000000E+00;  1.0000687E+03;  1.0000000E-01;  5.6887280E+01;0;  0.0000000E+00;  0.0000000E+00;  0.0000000E+00;0;  3.8757069E-05;  4.0000000E+04;  0.0000000E+00;  0.0000000E+00;  4.0000000E+04;  0.0000000E+00;  4.0000000E+04;  4.8529826E-05;  0.0000000E+00; -9.7727589E-06;  1.2445696E+02;
  7.9999998E-02;  9.9999998E-03;  4.4000000E-01;2088;  0.0000000E+00;  0.0000000E+00;  0.0000000E+00;  1.0000000E+03;  1.0000000E-01;  0.0000000E+00;0;  0.0000000E+00;  0.0000000E+00;  0.0000000E+00;0;  4.2035444E-06;  4.0000000E+04;  0.0000000E+00;  0.0000000E+00;  4.0000000E+04;  0.0000000E+00;  4.0000000E+04;  1.4266976E-05;  0.0000000E+00; -1.0063432E-05;  2.2141060E+01;
  7.9999998E-02;  9.9999998E-03;  4.4999999E-01;2089;  0.0000000E+00;  0.0000000E+00;  0.0000000E+00;  1.0000000E+03;  1.0000000E-01;  0.0000000E+00;0;  0.0000000E+00;  0.0000000E+00;  0.0000000E+00;0; -1.8266103E-06;  4.0000000E+04;  0.0000000E+00;  0.0000000E+00;  4.0000000E+04;  0.0000000E+00;  4.0000000E+04;  2.4067651E-06;  0.0000000E+00; -4.2333754E-06;  2.3626368E+00;
  9.0000004E-02;  9.9999998E-03;  4.1000000E-01;2115;  0.0000000E+00;  0.0000000E+00;  0.0000000E+00;  1.0002551E+03;  1.0000000E-01;  2.1135205E+02;0;  0.0000000E+00;  0.0000000E+00;  0.0000000E+00;0;  4.0185731E-04;  4.0000000E+04;  0.0000000E+00;  0.0000000E+00;  4.0000000E+04;  0.0000000E+00;  4.0000000E+04;  3.0582197E-04;  0.0000000E+00;  9.6035335E-05;  9.6327069E+02;
  9.0000004E-02;  9.9999998E-03;  4.1999999E-01;2116;  0.0000000E+00;  0.0000000E+00;  0.0000000E+00;  1.0001380E+03;  1.0000000E-01;  1.1436713E+02;0;  0.0000000E+00;  0.0000000E+00;  0.0000000E+00;0;  1.9090678E-04;  4.0000000E+04;  0.0000000E+00;  0.0000000E+00;  4.0000000E+04;  0.0000000E+00;  4.0000000E+04;  1.5101692E-04;  0.0000000E+00;  3.9889848E-05;  4.9580063E+02;
  9.0000004E-02;  9.9999998E-03;  4.3000001E-01;2117;  0.0000000E+00;  0.0000000E+00;  0.0000000E+00;  1.0000709E+03;  1.0000000E-01;  5.8763771E+01;0;  0.0000000E+00;  0.0000000E+00;  0.0000000E+00;0;  7.0500158E-05;  4.0000000E+04;  0.0000000E+00;  0.0000000E+00;  4.0000000E+04;  0.0000000E+00;  4.0000000E+04;  6.2053841E-05;  0.0000000E+00;  8.4463163E-06;  1.9465912E+02;
  9.0000004E-02;  9.9999998E-03;  4.4000000E-01;2118;  0.0000000E+00;  0.0000000E+00;  0.0000000E+00;  1.0000000E+03;  1.0000000E-01;  0.0000000E+00;0;  0.0000000E+00;  0.0000000E+00;  0.0000000E+00;0;  1.6578322E-05;  4.0000000E+04;  0.0000000E+00;  0.0000000E+00;  4.0000000E+04;  0.0000000E+00;  4.0000000E+04;  1.8943821E-05;  0.0000000E+00; -2.3654986E-06;  4.8200024E+01;
  9.0000004E-02;  9.9999998E-03;  4.4999999E-01;2119;  0.0000000E+00;  0.0000000E+00;  0.0000000E+00;  1.0000000E+03;  1.0000000E-01;  0.0000000E+00;0;  0.0000000E+00;  0.0000000E+00;  0.0000000E+00;0;  9.9225440E-07;  4.0000000E+04;  0.0000000E+00;  0.0000000E+00;  4.0000000E+04;  0.0000000E+00;  4.0000000E+04;  3.3977578E-06;  0.0000000E+00; -2.4055034E-06;  3.7860515E+00;
  1.0000000E-01;  9.9999998E-03;  4.1000000E-01;2145;  0.0000000E+00;  0.0000000E+00;  0.0000000E+00;  1.0002378E+03;  1.0000000E-01;  1.9703146E+02;0;  0.0000000E+00;  0.0000000E+00;  0.0000000E+00;0;  4.9376639E-04;  4.0000000E+04;  0.0000000E+00;  0.0000000E+00;  4.0000000E+04;  0.0000000E+00;  4.0000000E+04;  3.4652365E-04;  0.0000000E+00;  1.4724277E-04;  1.2404351E+03;
  1.0000000E-01;  9.9999998E-03;  4.1999999E-01;2146;  0.0000000E+00;  0.0000000E+00;  0.0000000E+00;  1.0001205E+03;  1.0000000E-01;  9.9849030E+01;0;  0.0000000E+00;  0.0000000E+00;  0.0000000E+00;0;  2.5316639E-04;  4.0000000E+04;  0.0000000E+00;  0.0000000E+00;  4.0000000E+04;  0.0000000E+00;  4.0000000E+04;  1.7365278E-04;  0.0000000E+00;  7.9513615E-05;  6.7347357E+02;
  1.0000000E-01;  9.9999998E-03;  4.3000001E-01;2147;  0.0000000E+00;  0.0000000E+00;  0.0000000E+00;  1.0000734E+03;  1.0000000E-01;  6.0837784E+01;0;  0.0000000E+00;  0.0000000E+00;  0.0000000E+00;0;  1.0627371E-04;  4.0000000E+04;  0.0000000E+00;  0.0000000E+00;  4.0000000E+04;  0.0000000E+00;  4.0000000E+04;  7.3026356E-05;  0.0000000E+00;  3.3247361E-05;  2.9011853E+02;
  1.0000000E-01;  9.9999998E-03;  4.4000000E-01;2148;  0.0000000E+00;  0.0000000E+00;  0.0000000E+00;  1.0000000E+03;  1.0000000E-01;  0.0000000E+00;0;  0.0000000E+00;  0.0000000E+00;  0.0000000E+00;0;  3.1901491E-05;  4.0000000E+04;  0.0000000E+00;  0.0000000E+00;  4.0000000E+04;  0.0000000E+00;  4.0000000E+04;  2.3042761E-05;  0.0000000E+00;  8.8587294E-06;  8.7334015E+01;
  1.0000000E-01;  9.9999998E-03;  4.4999999E-01;2149;  0.0000000E+00;  0.0000000E+00;  0.0000000E+00;  1.0000000E+03;  1.0000000E-01;  0.0000000E+00;0;  0.0000000E+00;  0.0000000E+00;  0.0000000E+00;0;  4.9528667E-06;  4.0000000E+04;  0.0000000E+00;  0.0000000E+00;  4.0000000E+04;  0.0000000E+00;  4.0000000E+04;  4.3068312E-06;  0.0000000E+00;  6.4603552E-07;  1.3748076E+01;
  1.1000000E-01;  9.9999998E-03;  4.1000000E-01;2175;  0.0000000E+00;  0.0000000E+00;  0.0000000E+00;  1.0002390E+03;  1.0000000E-01;  1.9801909E+02;0;  0.0000000E+00;  0.0000000E+00;  0.0000000E+00;0;  5.7438971E-04;  4.0000000E+04;  0.0000000E+00;  0.0000000E+00;  4.0000000E+04;  0.0000000E+00;  4.0000000E+04;  3.7183691E-04;  0.0000000E+00;  2.0255279E-04;  1.5522482E+03;
  1.1000000E-01;  9.9999998E-03;  4.1999999E-01;2176;  0.0000000E+00;  0.0000000E+00;  0.0000000E+00;  1.0001135E+03;  1.0000000E-01;  9.4022034E+01;0;  0.0000000E+00;  0.0000000E+00;  0.0000000E+00;0;  3.0974983E-04;  4.0000000E+04;  0.0000000E+00;  0.0000000E+00;  4.0000000E+04;  0.0000000E+00;  4.0000000E+04;  1.8720656E-04;  0.0000000E+00;  1.2254326E-04;  8.8135352E+02;
  1.1000000E-01;  9.9999998E-03;  4.3000001E-01;2177;  0.0000000E+00;  0.0000000E+00;  0.0000000E+00;  1.0000651E+03;  1.0000000E-01;  5.3924400E+01;0;  0.0000000E+00;  0.0000000E+00;  0.0000000E+00;0;  1.4063487E-04;  4.0000000E+04;  0.0000000E+00;  0.0000000E+00;  4.0000000E+04;  0.0000000E+00;  4.0000000E+04;  7.9747180E-05;  0.0000000E+00;  6.0887698E-05;  4.0718655E+02;
  1.1000000E-01;  9.9999998E-03;  4.4000000E-01;2178;  0.0000000E+00;  0.0000000E+00;  0.0000000E+00;  1.0000000E+03;  1.0000000E-01;  0.0000000E+00;0;  0.0000000E+00;  0.0000000E+00;  0.0000000E+00;0;  4.8006794E-05;  4.0000000E+04;  0.0000000E+00;  0.0000000E+00;  4.0000000E+04;  0.0000000E+00;  4.0000000E+04;  2.5886124E-05;  0.0000000E+00;  2.2120670E-05;  1.3836218E+02;
  1.1000000E-01;  9.9999998E-03;  4.4999999E-01;2179;  0.0000000E+00;  0.0000000E+00;  0.0000000E+00;  1.0000000E+03;  1.0000000E-01;  0.0000000E+00;0;  0.0000000E+00;  0.0000000E+00;  0.0000000E+00;0;  9.5747037E-06;  4.0000000E+04;  0.0000000E+00;  0.0000000E+00;  4.0000000E+04;  0.0000000E+00;  4.0000000E+04;  5.0137687E-06;  0.0000000E+00;  4.5609349E-06;  2.8158186E+01;
  1.2000000E-01;  9.9999998E-03;  4.1000000E-01;2205;  0.0000000E+00;  0.0000000E+00;  0.0000000E+00;  1.0002534E+03;  1.0000000E-01;  2.0987061E+02;0;  0.0000000E+00;  0.0000000E+00;  0.0000000E+00;0;  6.3482381E-04;  4.0000000E+04;  0.0000000E+00;  0.0000000E+00;  4.0000000E+04;  0.0000000E+00;  4.0000000E+04;  3.8072839E-04;  0.0000000E+00;  2.5409539E-04;  1.9053485E+03;
  1.2000000E-01;  9.9999998E-03;  4.1999999E-01;2206;  0.0000000E+00;  0.0000000E+00;  0.0000000E+00;  1.0001095E+03;  1.0000000E-01;  9.0762863E+01;0;  0.0000000E+00;  0.0000000E+00;  0.0000000E+00;0;  3.5343986E-04;  4.0000000E+04;  0.0000000E+00;  0.0000000E+00;  4.0000000E+04;  0.0000000E+00;  4.0000000E+04;  1.9076894E-04;  0.0000000E+00;  1.6267091E-04;  1.1332161E+03;
  1.2000000E-01;  9.9999998E-03;  4.3000001E-01;2207;  0.0000000E+00;  0.0000000E+00;  0.0000000E+00;  1.0000621E+03;  1.0000000E-01;  5.1455334E+01;0;  0.0000000E+00;  0.0000000E+00;  0.0000000E+00;0;  1.6825646E-04;  4.0000000E+04;  0.0000000E+00;  0.0000000E+00;  4.0000000E+04;  0.0000000E+00;  4.0000000E+04;  8.1253602E-05;  0.0000000E+00;  8.7002860E-05;  5.5734247E+02;
  1.2000000E-01;  9.9999998E-03;  4.4000000E-01;2208;  0.0000000E+00;  0.0000000E+00;  0.0000000E+00;  1.0000000E+03;  1.0000000E-01;  0.0000000E+00;0;  0.0000000E+00;  0.0000000E+00;  0.0000000E+00;0;  6.1985833E-05;  4.0000000E+04;  0.0000000E+00;  0.0000000E+00;  4.0000000E+04;  0.0000000E+00;  4.0000000E+04;  2.6745414E-05;  0.0000000E+00;  3.5240417E-05;  2.0718698E+02;
  1.2000000E-01;  9.9999998E-03;  4.4999999E-01;2209;  0.0000000E+00;  0.0000000E+00;  0.0000000E+00;  1.0000000E+03;  1.0000000E-01;  0.0000000E+00;0;  0.0000000E+00;  0.0000000E+00;  0.0000000E+00;0;  1.4165234E-05;  4.0000000E+04;  0.0000000E+00;  0.0000000E+00;  4.0000000E+04;  0.0000000E+00;  4.0000000E+04;  5.3777944E-06;  0.0000000E+00;  8.7874396E-06;  4.8712166E+01;
  1.3000000E-01;  9.9999998E-03;  4.1000000E-01;2235;  0.0000000E+00;  0.0000000E+00;  0.0000000E+00;  1.0002820E+03;  1.0000000E-01;  2.3367241E+02;0;  0.0000000E+00;  0.0000000E+00;  0.0000000E+00;0;  6.6927075E-04;  4.0000000E+04;  0.0000000E+00;  0.0000000E+00;  4.0000000E+04;  0.0000000E+00;  4.0000000E+04;  3.7440838E-04;  0.0000000E+00;  2.9486237E-04;  2.3780698E+03;
  1.3000000E-01;  9.9999998E-03;  4.1999999E-01;2236;  0.0000000E+00;  0.0000000E+00;  0.0000000E+00;  1.0001086E+03;  1.0000000E-01;  8.9972763E+01;0;  0.0000000E+00;  0.0000000E+00;  0.0000000E+00;0;  3.7937862E-04;  4.0000000E+04;  0.0000000E+00;  0.0000000E+00;  4.0000000E+04;  0.0000000E+00;  4.0000000E+04;  1.8502187E-04;  0.0000000E+00;  1.9435675E-04;  1.5079423E+03;
  1.3000000E-01;  9.9999998E-03;  4.3000001E-01;2237;  0.0000000E+00;  0.0000000E+00;  0.0000000E+00;  1.0000629E+03;  1.0000000E-01;  5.2146675E+01;0;  0.0000000E+00;  0.0000000E+00;  0.0000000E+00;0;  1.8532691E-04;  4.0000000E+04;  0.0000000E+00;  0.0000000E+00;  4.0000000E+04;  0.0000000E+00;  4.0000000E+04;  7.7578188E-05;  0.0000000E+00;  1.0774872E-04;  7.9551611E+02;
  1.3000000E-01;  9.9999998E-03;  4.4000000E-01;2238;  0.0000000E+00;  0.0000000E+00;  0.0000000E+00;  1.0000000E+03;  1.0000000E-01;  0.0000000E+00;0;  0.0000000E+00;  0.0000000E+00;  0.0000000E+00;0;  7.1263261E-05;  4.0000000E+04;  0.0000000E+00;  0.0000000E+00;  4.0000000E+04;  0.0000000E+00;  4.0000000E+04;  2.5262400E-05;  0.0000000E+00;  4.6000863E-05;  3.2009723E+02;
  1.3000000E-01;  9.9999998E-03;  4.4999999E-01;2239;  0.0000000E+00;  0.0000000E+00;  0.0000000E+00;  1.0000000E+03;  1.0000000E-01;  0.0000000E+00;0;  0.0000000E+00;  0.0000000E+00;  0.0000000E+00;0;  1.7737877E-05;  4.0000000E+04;  0.0000000E+00;  0.0000000E+00;  4.0000000E+04;  0.0000000E+00;  4.0000000E+04;  5.1720349E-06;  0.0000000E+00;  1.2565843E-05;  8.2680649E+01;
  1.4000000E-01;  9.9999998E-03;  4.1000000E-01;2265;  0.0000000E+00;  0.0000000E+00;  0.0000000E+00;  1.0003222E+03;  1.0000000E-01;  2.6695541E+02;0;  0.0000000E+00;  0.0000000E+00;  0.0000000E+00;0;  6.7582791E-04;  4.0000000E+04;  0.0000000E+00;  0.0000000E+00;  4.0000000E+04;  0.0000000E+00;  4.0000000E+04;  3.5590326E-04;  0.0000000E+00;  3.1992464E-04;  3.1811677E+03;
  1.4000000E-01;  9.9999998E-03;  4.1999999E-01;2266;  0.0000000E+00;  0.0000000E+00;  0.0000000E+00;  1.0001174E+03;  1.0000000E-01;  9.7281197E+01;0;  0.0000000E+00;  0.0000000E+00;  0.0000000E+00;0;  3.8586298E-04;  4.0000000E+04;  0.0000000E+00;  0.0000000E+00;  4.0000000E+04;  0.0000000E+00;  4.0000000E+04;  1.7200559E-04;  0.0000000E+00;  2.1385739E-04;  2.1888777E+03;
  1.4000000E-01;  9.9999998E-03;  4.3000001E-01;2267;  0.0000000E+00;  0.0000000E+00;  0.0000000E+00;  1.0000658E+03;  1.0000000E-01;  5.4516975E+01;0;  0.0000000E+00;  0.0000000E+00;  0.0000000E+00;0;  1.9029342E-04;  4.0000000E+04;  0.0000000E+00;  0.0000000E+00;  4.0000000E+04;  0.0000000E+00;  4.0000000E+04;  6.9769529E-05;  0.0000000E+00;  1.2052388E-04;  1.2402455E+03;
  1.4000000E-01;  9.9999998E-03;  4.4000000E-01;2268;  0.0000000E+00;  0.0000000E+00;  0.0000000E+00;  1.0000000E+03;  1.0000000E-01;  0.0000000E+00;0;  0.0000000E+00;  0.0000000E+00;  0.0000000E+00;0;  7.4454925E-05;  4.0000000E+04;  0.0000000E+00;  0.0000000E+00;  4.0000000E+04;  0.0000000E+00;  4.0000000E+04;  2.1701524E-05;  0.0000000E+00;  5.2753399E-05;  5.3195135E+02;
  1.4000000E-01;  9.9999998E-03;  4.4999999E-01;2269;  0.0000000E+00;  0.0000000E+00;  0.0000000E+00;  1.0000000E+03;  1.0000000E-01;  0.0000000E+00;0;  0.0000000E+00;  0.0000000E+00;  0.0000000E+00;0;  1.9356630E-05;  4.0000000E+04;  0.0000000E+00;  0.0000000E+00;  4.0000000E+04;  0.0000000E+00;  4.0000000E+04;  4.2609058E-06;  0.0000000E+00;  1.5095725E-05;  1.4526929E+02;
  1.5000001E-01;  9.9999998E-03;  4.1000000E-01;2295;  0.0000000E+00;  0.0000000E+00;  0.0000000E+00;  1.0003608E+03;  1.0000000E-01;  2.9895450E+02;0;  0.0000000E+00;  0.0000000E+00;  0.0000000E+00;0;  6.5697706E-04;  4.0000000E+04;  0.0000000E+00;  0.0000000E+00;  4.0000000E+04;  0.0000000E+00;  4.0000000E+04;  3.2967856E-04;  0.0000000E+00;  3.2729853E-04;  4.6438271E+03;
  1.5000001E-01;  9.9999998E-03;  4.1999999E-01;2296;  0.0000000E+00;  0.0000000E+00;  0.0000000E+00;  1.0001301E+03;  1.0000000E-01;  1.0784880E+02;0;  0.0000000E+00;  0.0000000E+00;  0.0000000E+00;0;  3.7461263E-04;  4.0000000E+04;  0.0000000E+00;  0.0000000E+00;  4.0000000E+04;  0.0000000E+00;  4.0000000E+04;  1.5488693E-04;  0.0000000E+00;  2.1972571E-04;  3.4332959E+03;
  1.5000001E-01;  9.9999998E-03;  4.3000001E-01;2297;  0.0000000E+00;  0.0000000E+00;  0.0000000E+00;  1.0000737E+03;  1.0000000E-01;  6.1035313E+01;0;  0.0000000E+00;  0.0000000E+00;  0.0000000E+00;0;  1.8404896E-04;  4.0000000E+04;  0.0000000E+00;  0.0000000E+00;  4.0000000E+04;  0.0000000E+00;  4.0000000E+04;  5.9766964E-05;  0.0000000E+00;  1.2428200E-04;  2.0526250E+03;
  1.5000001E-01;  9.9999998E-03;  4.4000000E-01;2298;  0.0000000E+00;  0.0000000E+00;  0.0000000E+00;  1.0000000E+03;  1.0000000E-01;  0.0000000E+00;0;  0.0000000E+00;  0.0000000E+00;  0.0000000E+00;0;  7.1646602E-05;  4.0000000E+04;  0.0000000E+00;  0.0000000E+00;  4.0000000E+04;  0.0000000E+00;  4.0000000E+04;  1.6955883E-05;  0.0000000E+00;  5.4690718E-05;  9.1903894E+02;
  1.5000001E-01;  9.9999998E-03;  4.4999999E-01;2299;  0.0000000E+00;  0.0000000E+00;  0.0000000E+00;  1.0000000E+03;  1.0000000E-01;  0.0000000E+00;0;  0.0000000E+00;  0.0000000E+00;  0.0000000E+00;0;  1.8703509E-05;  4.0000000E+04;  0.0000000E+00;  0.0000000E+00;  4.0000000E+04;  0.0000000E+00;  4.0000000E+04;  2.8341351E-06;  0.0000000E+00;  1.5869375E-05;  2.5948755E+02;
  1.6000000E-01;  9.9999998E-03;  4.1000000E-01;2325;  0.0000000E+00;  0.0000000E+00;  0.0000000E+00;  1.0004258E+03;  1.0000000E-01;  3.5278015E+02;0;  0.0000000E+00;  0.0000000E+00;  0.0000000E+00;0;  6.1940402E-04;  4.0000000E+04;  0.0000000E+00;  0.0000000E+00;  4.0000000E+04;  0.0000000E+00;  4.0000000E+04;  3.0116149E-04;  0.0000000E+00;  3.1824253E-04;  7.0882549E+03;
  1.6000000E-01;  9.9999998E-03;  4.1999999E-01;2326;  0.0000000E+00;  0.0000000E+00;  0.0000000E+00;  1.0001674E+03;  1.0000000E-01;  1.3866275E+02;0;  0.0000000E+00;  0.0000000E+00;  0.0000000E+00;0;  3.5041120E-04;  4.0000000E+04;  0.0000000E+00;  0.0000000E+00;  4.0000000E+04;  0.0000000E+00;  4.0000000E+04;  1.3755853E-04;  0.0000000E+00;  2.1285267E-04;  5.4959263E+03;
  1.6000000E-01;  9.9999998E-03;  4.3000001E-01;2327;  0.0000000E+00;  0.0000000E+00;  0.0000000E+00;  1.0000867E+03;  1.0000000E-01;  7.1800438E+01;0;  0.0000000E+00;  0.0000000E+00;  0.0000000E+00;0;  1.6956963E-04;  4.0000000E+04;  0.0000000E+00;  0.0000000E+00;  4.0000000E+04;  0.0000000E+00;  4.0000000E+04;  5.0136267E-05;  0.0000000E+00;  1.1943335E-04;  3.4056934E+03;
  1.6000000E-01;  9.9999998E-03;  4.4000000E-01;2328;  0.0000000E+00;  0.0000000E+00;  0.0000000E+00;  1.0000000E+03;  1.0000000E-01;  0.0000000E+00;0;  0.0000000E+00;  0.0000000E+00;  0.0000000E+00;0;  6.4250795E-05;  4.0000000E+04;  0.0000000E+00;  0.0000000E+00;  4.0000000E+04;  0.0000000E+00;  4.0000000E+04;  1.2418986E-05;  0.0000000E+00;  5.1831812E-05;  1.5719158E+03;
  1.6000000E-01;  9.9999998E-03;  4.4999999E-01;2329;  0.0000000E+00;  0.0000000E+00;  0.0000000E+00;  1.0000000E+03;  1.0000000E-01;  0.0000000E+00;0;  0.0000000E+00;  0.0000000E+00;  0.0000000E+00;0;  1.6127575E-05;  4.0000000E+04;  0.0000000E+00;  0.0000000E+00;  4.0000000E+04;  0.0000000E+00;  4.0000000E+04;  1.3761720E-06;  0.0000000E+00;  1.4751402E-05;  4.5593954E+02;
  1.7000000E-01;  9.9999998E-03;  4.1000000E-01;2355;  0.0000000E+00;  0.0000000E+00;  0.0000000E+00;  1.0004829E+03;  1.0000000E-01;  4.0008746E+02;0;  0.0000000E+00;  0.0000000E+00;  0.0000000E+00;0;  5.7294476E-04;  4.0000000E+04;  0.0000000E+00;  0.0000000E+00;  4.0000000E+04;  0.0000000E+00;  4.0000000E+04;  2.7579610E-04;  0.0000000E+00;  2.9714862E-04;  1.0713168E+04;
  1.7000000E-01;  9.9999998E-03;  4.1999999E-01;2356;  0.0000000E+00;  0.0000000E+00;  0.0000000E+00;  1.0002338E+03;  1.0000000E-01;  1.9367354E+02;0;  0.0000000E+00;  0.0000000E+00;  0.0000000E+00;0;  3.2005634E-04;  4.0000000E+04;  0.0000000E+00;  0.0000000E+00;  4.0000000E+04;  0.0000000E+00;  4.0000000E+04;  1.2390800E-04;  0.0000000E+00;  1.9614835E-04;  8.5742539E+03;
  1.7000000E-01;  9.9999998E-03;  4.3000001E-01;2357;  0.0000000E+00;  0.0000000E+00;  0.0000000E+00;  1.0000942E+03;  1.0000000E-01;  7.8022484E+01;0;  0.0000000E+00;  0.0000000E+00;  0.0000000E+00;0;  1.5107417E-04;  4.0000000E+04;  0.0000000E+00;  0.0000000E+00;  4.0000000E+04;  0.0000000E+00;  4.0000000E+04;  4.3533502E-05;  0.0000000E+00;  1.0754066E-04;  5.4634229E+03;
  1.7000000E-01;  9.9999998E-03;  4.4000000E-01;2358;  0.0000000E+00;  0.0000000E+00;  0.0000000E+00;  1.0000000E+03;  1.0000000E-01;  0.0000000E+00;0;  0.0000000E+00;  0.0000000E+00;  0.0000000E+00;0;  5.4449371E-05;  4.0000000E+04;  0.0000000E+00;  0.0000000E+00;  4.0000000E+04;  0.0000000E+00;  4.0000000E+04;  9.6445683E-06;  0.0000000E+00;  4.4804801E-05;  2.5900217E+03;
  1.7000000E-01;  9.9999998E-03;  4.4999999E-01;2359;  0.0000000E+00;  0.0000000E+00;  0.0000000E+00;  1.0000000E+03;  1.0000000E-01;  0.0000000E+00;0;  0.0000000E+00;  0.0000000E+00;  0.0000000E+00;0;  1.2382741E-05;  4.0000000E+04;  0.0000000E+00;  0.0000000E+00;  4.0000000E+04;  0.0000000E+00;  4.0000000E+04;  5.0476137E-07;  0.0000000E+00;  1.1877980E-05;  7.7203601E+02;
  1.8000001E-01;  9.9999998E-03;  4.1000000E-01;2385;  0.0000000E+00;  0.0000000E+00;  0.0000000E+00;  1.0005382E+03;  1.0000000E-01;  4.4591330E+02;0;  0.0000000E+00;  0.0000000E+00;  0.0000000E+00;0;  5.2863336E-04;  4.0000000E+04;  0.0000000E+00;  0.0000000E+00;  4.0000000E+04;  0.0000000E+00;  4.0000000E+04;  2.5735295E-04;  0.0000000E+00;  2.7128038E-04;  1.5510451E+04;
  1.8000001E-01;  9.9999998E-03;  4.1999999E-01;2386;  0.0000000E+00;  0.0000000E+00;  0.0000000E+00;  1.0002802E+03;  1.0000000E-01;  2.3219096E+02;0;  0.0000000E+00;  0.0000000E+00;  0.0000000E+00;0;  2.9093807E-04;  4.0000000E+04;  0.0000000E+00;  0.0000000E+00;  4.0000000E+04;  0.0000000E+00;  4.0000000E+04;  1.1662218E-04;  0.0000000E+00;  1.7431588E-04;  1.2736217E+04;
  1.8000001E-01;  9.9999998E-03;  4.3000001E-01;2387;  0.0000000E+00;  0.0000000E+00;  0.0000000E+00;  1.0000949E+03;  1.0000000E-01;  7.8615059E+01;0;  0.0000000E+00;  0.0000000E+00;  0.0000000E+00;0;  1.3293143E-04;  4.0000000E+04;  0.0000000E+00;  0.0000000E+00;  4.0000000E+04;  0.0000000E+00;  4.0000000E+04;  4.1793184E-05;  0.0000000E+00;  9.1138238E-05;  8.3323867E+03;
  1.8000001E-01;  9.9999998E-03;  4.4000000E-01;2388;  0.0000000E+00;  0.0000000E+00;  0.0000000E+00;  1.0000000E+03;  1.0000000E-01;  0.0000000E+00;0;  0.0000000E+00;  0.0000000E+00;  0.0000000E+00;0;  4.4459601E-05;  4.0000000E+04;  0.0000000E+00;  0.0000000E+00;  4.0000000E+04;  0.0000000E+00;  4.0000000E+04;  9.7764141E-06;  0.0000000E+00;  3.4683188E-05;  4.0592458E+03;
  1.8000001E-01;  9.9999998E-03;  4.4999999E-01;2389;  0.0000000E+00;  0.0000000E+00;  0.0000000E+00;  1.0000000E+03;  1.0000000E-01;  0.0000000E+00;0;  0.0000000E+00;  0.0000000E+00;  0.0000000E+00;0;  8.3020459E-06;  4.0000000E+04;  0.0000000E+00;  0.0000000E+00;  4.0000000E+04;  0.0000000E+00;  4.0000000E+04;  7.3414833E-07;  0.0000000E+00;  7.5678972E-06;  1.2452045E+03;
  1.9000000E-01;  9.9999998E-03;  4.1000000E-01;2415;  0.0000000E+00;  0.0000000E+00;  0.0000000E+00;  1.0005859E+03;  1.0000000E-01;  4.8541837E+02;0;  0.0000000E+00;  0.0000000E+00;  0.0000000E+00;0;  4.9702683E-04;  4.0000000E+04;  0.0000000E+00;  0.0000000E+00;  4.0000000E+04;  0.0000000E+00;  4.0000000E+04;  2.4614716E-04;  0.0000000E+00;  2.5087965E-04;  2.1217172E+04;
  1.9000000E-01;  9.9999998E-03;  4.1999999E-01;2416;  0.0000000E+00;  0.0000000E+00;  0.0000000E+00;  1.0003229E+03;  1.0000000E-01;  2.6754797E+02;0;  0.0000000E+00;  0.0000000E+00;  0.0000000E+00;0;  2.6998710E-04;  4.0000000E+04;  0.0000000E+00;  0.0000000E+00;  4.0000000E+04;  0.0000000E+00;  4.0000000E+04;  1.1579639E-04;  0.0000000E+00;  1.5419073E-04;  1.7845354E+04;
  1.9000000E-01;  9.9999998E-03;  4.3000001E-01;2417;  0.0000000E+00;  0.0000000E+00;  0.0000000E+00;  1.0001109E+03;  1.0000000E-01;  9.1849251E+01;0;  0.0000000E+00;  0.0000000E+00;  0.0000000E+00;0;  1.1905099E-04;  4.0000000E+04;  0.0000000E+00;  0.0000000E+00;  4.0000000E+04;  0.0000000E+00;  4.0000000E+04;  4.4979370E-05;  0.0000000E+00;  7.4071628E-05;  1.1994487E+04;
  1.9000000E-01;  9.9999998E-03;  4.4000000E-01;2418;  0.0000000E+00;  0.0000000E+00;  0.0000000E+00;  1.0000082E+03;  1.0000000E-01;  6.8146219E+00;0;  0.0000000E+00;  0.0000000E+00;  0.0000000E+00;0;  3.6093516E-05;  4.0000000E+04;  0.0000000E+00;  0.0000000E+00;  4.0000000E+04;  0.0000000E+00;  4.0000000E+04;  1.2909291E-05;  0.0000000E+00;  2.3184222E-05;  6.0118892E+03;
  1.9000000E-01;  9.9999998E-03;  4.4999999E-01;2419;  0.0000000E+00;  0.0000000E+00;  0.0000000E+00;  1.0000000E+03;  1.0000000E-01;  0.0000000E+00;0;  0.0000000E+00;  0.0000000E+00;  0.0000000E+00;0;  4.5685802E-06;  4.0000000E+04;  0.0000000E+00;  0.0000000E+00;  4.0000000E+04;  0.0000000E+00;  4.0000000E+04;  2.1700728E-06;  0.0000000E+00;  2.3985071E-06;  1.8977123E+03;
  2.0000000E-01;  9.9999998E-03;  4.1000000E-01;2444;  0.0000000E+00;  0.0000000E+00;  0.0000000E+00;  1.0006216E+03;  1.0000000E-01;  5.1504718E+02;0;  0.0000000E+00;  0.0000000E+00;  0.0000000E+00;0;  4.8880919E-04;  4.0000000E+04;  0.0000000E+00;  0.0000000E+00;  4.0000000E+04;  0.0000000E+00;  4.0000000E+04;  2.3894194E-04;  0.0000000E+00;  2.4986724E-04;  2.7403861E+04;
  2.0000000E-01;  9.9999998E-03;  4.1999999E-01;2445;  0.0000000E+00;  0.0000000E+00;  0.0000000E+00;  1.0003387E+03;  1.0000000E-01;  2.8058466E+02;0;  0.0000000E+00;  0.0000000E+00;  0.0000000E+00;0;  2.6434392E-04;  4.0000000E+04;  0.0000000E+00;  0.0000000E+00;  4.0000000E+04;  0.0000000E+00;  4.0000000E+04;  1.1855194E-04;  0.0000000E+00;  1.4579199E-04;  2.3592828E+04;
  2.0000000E-01;  9.9999998E-03;  4.3000001E-01;2446;  0.0000000E+00;  0.0000000E+00;  0.0000000E+00;  1.0001252E+03;  1.0000000E-01;  1.0370077E+02;0;  0.0000000E+00;  0.0000000E+00;  0.0000000E+00;0;  1.1360117E-04;  4.0000000E+04;  0.0000000E+00;  0.0000000E+00;  4.0000000E+04;  0.0000000E+00;  4.0000000E+04;  5.1044954E-05;  0.0000000E+00;  6.2556217E-05;  1.6293283E+04;
  2.0000000E-01;  9.9999998E-03;  4.4000000E-01;2447;  0.0000000E+00;  0.0000000E+00;  0.0000000E+00;  1.0000304E+03;  1.0000000E-01;  2.5184473E+01;0;  0.0000000E+00;  0.0000000E+00;  0.0000000E+00;0;  3.1256659E-05;  4.0000000E+04;  0.0000000E+00;  0.0000000E+00;  4.0000000E+04;  0.0000000E+00;  4.0000000E+04;  1.7859033E-05;  0.0000000E+00;  1.3397627E-05;  8.4018555E+03;
 -2.0000000E-01;  9.9999998E-03; -4.4000000E-01;0;  0.0000000E+00;  0.0000000E+00;  0.0000000E+00;  1.0000000E+03;  1.0000000E-01;  0.0000000E+00;0;  0.0000000E+00;  0.0000000E+00;  0.0000000E+00;0;  0.0000000E+00;  4.0000000E+04;  0.0000000E+00;  0.0000000E+00;  4.0000000E+04;  0.0000000E+00;  4.0000000E+04;  0.0000000E+00;  0.0000000E+00;  0.0000000E+00;  0.0000000E+00;
 -2.0000000E-01;  9.9999998E-03; -4.3000001E-01;1;  0.0000000E+00;  0.0000000E+00;  0.0000000E+00;  1.0000000E+03;  1.0000000E-01;  0.0000000E+00;0;  0.0000000E+00;  0.0000000E+00;  0.0000000E+00;0;  0.0000000E+00;  4.0000000E+04;  0.0000000E+00;  0.0000000E+00;  4.0000000E+04;  0.0000000E+00;  4.0000000E+04;  0.0000000E+00;  0.0000000E+00;  0.0000000E+00;  0.0000000E+00;
 -2.0000000E-01;  9.9999998E-03; -4.1999999E-01;2;  0.0000000E+00;  0.0000000E+00;  0.0000000E+00;  1.0000000E+03;  1.0000000E-01;  0.0000000E+00;0;  0.0000000E+00;  0.0000000E+00;  0.0000000E+00;0;  0.0000000E+00;  4.0000000E+04;  0.0000000E+00;  0.0000000E+00;  4.0000000E+04;  0.0000000E+00;  4.0000000E+04;  0.0000000E+00;  0.0000000E+00;  0.0000000E+00;  0.0000000E+00;
 -2.0000000E-01;  9.9999998E-03; -4.1000000E-01;3;  0.0000000E+00;  0.0000000E+00;  0.0000000E+00;  1.0000000E+03;  1.0000000E-01;  0.0000000E+00;0;  0.0000000E+00;  0.0000000E+00;  0.0000000E+00;0;  0.0000000E+00;  4.0000000E+04;  0.0000000E+00;  0.0000000E+00;  4.0000000E+04;  0.0000000E+00;  4.0000000E+04;  0.0000000E+00;  0.0000000E+00;  0.0000000E+00;  0.0000000E+00;
 -2.0000000E-01;  9.9999998E-03; -4.0000001E-01;4;  0.0000000E+00;  0.0000000E+00;  0.0000000E+00;  1.0000000E+03;  1.0000000E-01;  0.0000000E+00;0;  0.0000000E+00;  0.0000000E+00;  0.0000000E+00;0;  0.0000000E+00;  4.0000000E+04;  0.0000000E+00;  0.0000000E+00;  4.0000000E+04;  0.0000000E+00;  4.0000000E+04;  0.0000000E+00;  0.0000000E+00;  0.0000000E+00;  0.0000000E+00;
 -2.0000000E-01;  9.9999998E-03; -3.8999999E-01;5;  0.0000000E+00;  0.0000000E+00;  0.0000000E+00;  1.0000000E+03;  1.0000000E-01;  0.0000000E+00;0;  0.0000000E+00;  0.0000000E+00;  0.0000000E+00;0;  0.0000000E+00;  4.0000000E+04;  0.0000000E+00;  0.0000000E+00;  4.0000000E+04;  0.0000000E+00;  4.0000000E+04;  0.0000000E+00;  0.0000000E+00;  0.0000000E+00;  0.0000000E+00;
 -2.0000000E-01;  9.9999998E-03; -3.8000000E-01;6;  0.0000000E+00;  0.0000000E+00;  0.0000000E+00;  1.0000000E+03;  1.0000000E-01;  0.0000000E+00;0;  0.0000000E+00;  0.0000000E+00;  0.0000000E+00;0;  0.0000000E+00;  4.0000000E+04;  0.0000000E+00;  0.0000000E+00;  4.0000000E+04;  0.0000000E+00;  4.0000000E+04;  0.0000000E+00;  0.0000000E+00;  0.0000000E+00;  0.0000000E+00;
 -2.0000000E-01;  9.9999998E-03; -3.7000000E-01;7;  0.0000000E+00;  0.0000000E+00;  0.0000000E+00;  1.0000000E+03;  1.0000000E-01;  0.0000000E+00;0;  0.0000000E+00;  0.0000000E+00;  0.0000000E+00;0;  0.0000000E+00;  4.0000000E+04;  0.0000000E+00;  0.0000000E+00;  4.0000000E+04;  0.0000000E+00;  4.0000000E+04;  0.0000000E+00;  0.0000000E+00;  0.0000000E+00;  0.0000000E+00;
 -2.0000000E-01;  9.9999998E-03; -3.6000001E-01;8;  0.0000000E+00;  0.0000000E+00;  0.0000000E+00;  1.0000000E+03;  1.0000000E-01;  0.0000000E+00;0;  0.0000000E+00;  0.0000000E+00;  0.0000000E+00;0;  0.0000000E+00;  4.0000000E+04;  0.0000000E+00;  0.0000000E+00;  4.0000000E+04;  0.0000000E+00;  4.0000000E+04;  0.0000000E+00;  0.0000000E+00;  0.0000000E+00;  0.0000000E+00;
 -2.0000000E-01;  9.9999998E-03; -3.4999999E-01;9;  0.0000000E+00;  0.0000000E+00;  0.0000000E+00;  1.0000000E+03;  1.0000000E-01;  0.0000000E+00;0;  0.0000000E+00;  0.0000000E+00;  0.0000000E+00;0;  0.0000000E+00;  4.0000000E+04;  0.0000000E+00;  0.0000000E+00;  4.0000000E+04;  0.0000000E+00;  4.0000000E+04;  0.0000000E+00;  0.0000000E+00;  0.0000000E+00;  0.0000000E+00;
 -2.0000000E-01;  9.9999998E-03; -3.4000000E-01;10;  0.0000000E+00;  0.0000000E+00;  0.0000000E+00;  1.0000000E+03;  1.0000000E-01;  0.0000000E+00;0;  0.0000000E+00;  0.0000000E+00;  0.0000000E+00;0;  0.0000000E+00;  4.0000000E+04;  0.0000000E+00;  0.0000000E+00;  4.0000000E+04;  0.0000000E+00;  4.0000000E+04;  0.0000000E+00;  0.0000000E+00;  0.0000000E+00;  0.0000000E+00;
 -2.0000000E-01;  9.9999998E-03; -3.3000001E-01;11;  0.0000000E+00;  0.0000000E+00;  0.0000000E+00;  1.0000000E+03;  1.0000000E-01;  0.0000000E+00;0;  0.0000000E+00;  0.0000000E+00;  0.0000000E+00;0;  0.0000000E+00;  4.0000000E+04;  0.0000000E+00;  0.0000000E+00;  4.0000000E+04;  0.0000000E+00;  4.0000000E+04;  0.0000000E+00;  0.0000000E+00;  0.0000000E+00;  0.0000000E+00;
 -2.0000000E-01;  9.9999998E-03; -3.1999999E-01;12;  0.0000000E+00;  0.0000000E+00;  0.0000000E+00;  1.0000000E+03;  1.0000000E-01;  0.0000000E+00;0;  0.0000000E+00;  0.0000000E+00;  0.0000000E+00;0;  0.0000000E+00;  4.0000000E+04;  0.0000000E+00;  0.0000000E+00;  4.0000000E+04;  0.0000000E+00;  4.0000000E+04;  0.0000000E+00;  0.0000000E+00;  0.0000000E+00;  0.0000000E+00;
 -2.0000000E-01;  9.9999998E-03; -3.1000000E-01;13;  0.0000000E+00;  0.0000000E+00;  0.0000000E+00;  1.0000000E+03;  1.0000000E-01;  0.0000000E+00;0;  0.0000000E+00;  0.0000000E+00;  0.0000000E+00;0;  0.0000000E+00;  4.0000000E+04;  0.0000000E+00;  0.0000000E+00;  4.0000000E+04;  0.0000000E+00;  4.0000000E+04;  0.0000000E+00;  0.0000000E+00;  0.0000000E+00;  0.0000000E+00;
 -2.0000000E-01;  9.9999998E-03; -3.0000001E-01;14;  0.0000000E+00;  0.0000000E+00;  0.0000000E+00;  1.0000000E+03;  1.0000000E-01;  0.0000000E+00;0;  0.0000000E+00;  0.0000000E+00;  0.0000000E+00;0;  0.0000000E+00;  4.0000000E+04;  0.0000000E+00;  0.0000000E+00;  4.0000000E+04;  0.0000000E+00;  4.0000000E+04;  0.0000000E+00;  0.0000000E+00;  0.0000000E+00;  0.0000000E+00;
 -2.0000000E-01;  9.9999998E-03; -2.8999999E-01;15;  0.0000000E+00;  0.0000000E+00;  0.0000000E+00;  1.0000000E+03;  1.0000000E-01;  0.0000000E+00;0;  0.0000000E+00;  0.0000000E+00;  0.0000000E+00;0;  0.0000000E+00;  4.0000000E+04;  0.0000000E+00;  0.0000000E+00;  4.0000000E+04;  0.0000000E+00;  4.0000000E+04;  0.0000000E+00;  0.0000000E+00;  0.0000000E+00;  0.0000000E+00;
 -2.0000000E-01;  9.9999998E-03; -2.8000000E-01;16;  0.0000000E+00;  0.0000000E+00;  0.0000000E+00;  1.0000000E+03;  1.0000000E-01;  0.0000000E+00;0;  0.0000000E+00;  0.0000000E+00;  0.0000000E+00;0;  0.0000000E+00;  4.0000000E+04;  0.0000000E+00;  0.0000000E+00;  4.0000000E+04;  0.0000000E+00;  4.0000000E+04;  0.0000000E+00;  0.0000000E+00;  0.0000000E+00;  0.0000000E+00;
 -2.0000000E-01;  9.9999998E-03; -2.7000001E-01;17;  0.0000000E+00;  0.0000000E+00;  0.0000000E+00;  1.0000000E+03;  1.0000000E-01;  0.0000000E+00;0;  0.0000000E+00;  0.0000000E+00;  0.0000000E+00;0;  0.0000000E+00;  4.0000000E+04;  0.0000000E+00;  0.0000000E+00;  4.0000000E+04;  0.0000000E+00;  4.0000000E+04;  0.0000000E+00;  0.0000000E+00;  0.0000000E+00;  0.0000000E+00;
 -2.0000000E-01;  9.9999998E-03; -2.5999999E-01;18;  0.0000000E+00;  0.0000000E+00;  0.0000000E+00;  1.0000000E+03;  1.0000000E-01;  0.0000000E+00;0;  0.0000000E+00;  0.0000000E+00;  0.0000000E+00;0;  0.0000000E+00;  4.0000000E+04;  0.0000000E+00;  0.0000000E+00;  4.0000000E+04;  0.0000000E+00;  4.0000000E+04;  0.0000000E+00;  0.0000000E+00;  0.0000000E+00;  0.0000000E+00;
 -2.0000000E-01;  9.9999998E-03; -2.5000000E-01;19;  0.0000000E+00;  0.0000000E+00;  0.0000000E+00;  1.0000000E+03;  1.0000000E-01;  0.0000000E+00;0;  0.0000000E+00;  0.0000000E+00;  0.0000000E+00;0;  0.0000000E+00;  4.0000000E+04;  0.0000000E+00;  0.0000000E+00;  4.0000000E+04;  0.0000000E+00;  4.0000000E+04;  0.0000000E+00;  0.0000000E+00;  0.0000000E+00;  0.0000000E+00;
 -2.0000000E-01;  9.9999998E-03; -2.3999999E-01;20;  0.0000000E+00;  0.0000000E+00;  0.0000000E+00;  1.0000000E+03;  1.0000000E-01;  0.0000000E+00;0;  0.0000000E+00;  0.0000000E+00;  0.0000000E+00;0;  0.0000000E+00;  4.0000000E+04;  0.0000000E+00;  0.0000000E+00;  4.0000000E+04;  0.0000000E+00;  4.0000000E+04;  0.0000000E+00;  0.0000000E+00;  0.0000000E+00;  0.0000000E+00;
 -2.0000000E-01;  9.9999998E-03; -2.3000000E-01;21;  0.0000000E+00;  0.0000000E+00;  0.0000000E+00;  1.0000000E+03;  1.0000000E-01;  0.0000000E+00;0;  0.0000000E+00;  0.0000000E+00;  0.0000000E+00;0;  0.0000000E+00;  4.0000000E+04;  0.0000000E+00;  0.0000000E+00;  4.0000000E+04;  0.0000000E+00;  4.0000000E+04;  0.0000000E+00;  0.0000000E+00;  0.0000000E+00;  0.0000000E+00;
 -2.0000000E-01;  9.9999998E-03; -2.2000000E-01;22;  0.0000000E+00;  0.0000000E+00;  0.0000000E+00;  1.0000000E+03;  1.0000000E-01;  0.0000000E+00;0;  0.0000000E+00;  0.0000000E+00;  0.0000000E+00;0;  0.0000000E+00;  4.0000000E+04;  0.0000000E+00;  0.0000000E+00;  4.0000000E+04;  0.0000000E+00;  4.0000000E+04;  0.0000000E+00;  0.0000000E+00;  0.0000000E+00;  0.0000000E+00;
 -2.0000000E-01;  9.9999998E-03; -2.0999999E-01;23;  0.0000000E+00;  0.0000000E+00;  0.0000000E+00;  1.0000000E+03;  1.0000000E-01;  0.0000000E+00;0;  0.0000000E+00;  0.0000000E+00;  0.0000000E+00;0;  0.0000000E+00;  4.0000000E+04;  0.0000000E+00;  0.0000000E+00;  4.0000000E+04;  0.0000000E+00;  4.0000000E+04;  0.0000000E+00;  0.0000000E+00;  0.0000000E+00;  0.0000000E+00;
 -2.0000000E-01;  9.9999998E-03; -2.0000000E-01;24;  0.0000000E+00;  0.0000000E+00;  0.0000000E+00;  1.0000000E+03;  1.0000000E-01;  0.0000000E+00;0;  0.0000000E+00;  0.0000000E+00;  0.0000000E+00;0;  0.0000000E+00;  4.0000000E+04;  0.0000000E+00;  0.0000000E+00;  4.0000000E+04;  0.0000000E+00;  4.0000000E+04;  0.0000000E+00;  0.0000000E+00;  0.0000000E+00;  0.0000000E+00;
 -2.0000000E-01;  9.9999998E-03; -1.9000000E-01;25;  0.0000000E+00;  0.0000000E+00;  0.0000000E+00;  1.0000000E+03;  1.0000000E-01;  0.0000000E+00;0;  0.0000000E+00;  0.0000000E+00;  0.0000000E+00;0;  0.0000000E+00;  4.0000000E+04;  0.0000000E+00;  0.0000000E+00;  4.0000000E+04;  0.0000000E+00;  4.0000000E+04;  0.0000000E+00;  0.0000000E+00;  0.0000000E+00;  0.0000000E+00;
 -2.0000000E-01;  9.9999998E-03; -1.8000001E-01;26;  0.0000000E+00;  0.0000000E+00;  0.0000000E+00;  1.0000000E+03;  1.0000000E-01;  0.0000000E+00;0;  0.0000000E+00;  0.0000000E+00;  0.0000000E+00;0;  0.0000000E+00;  4.0000000E+04;  0.0000000E+00;  0.0000000E+00;  4.0000000E+04;  0.0000000E+00;  4.0000000E+04;  0.0000000E+00;  0.0000000E+00;  0.0000000E+00;  0.0000000E+00;
 -2.0000000E-01;  9.9999998E-03; -1.7000000E-01;27;  0.0000000E+00;  0.0000000E+00;  0.0000000E+00;  1.0000000E+03;  1.0000000E-01;  0.0000000E+00;0;  0.0000000E+00;  0.0000000E+00;  0.0000000E+00;0;  0.0000000E+00;  4.0000000E+04;  0.0000000E+00;  0.0000000E+00;  4.0000000E+04;  0.0000000E+00;  4.0000000E+04;  0.0000000E+00;  0.0000000E+00;  0.0000000E+00;  0.0000000E+00;
 -2.0000000E-01;  9.9999998E-03; -1.6000000E-01;28;  0.0000000E+00;  0.0000000E+00;  0.0000000E+00;  1.0000000E+03;  1.0000000E-01;  0.0000000E+00;0;  0.0000000E+00;  0.0000000E+00;  0.0000000E+00;0;  0.0000000E+00;  4.0000000E+04;  0.0000000E+00;  0.0000000E+00;  4.0000000E+04;  0.0000000E+00;  4.0000000E+04;  0.0000000E+00;  0.0000000E+00;  0.0000000E+00;  0.0000000E+00;
 -2.0000000E-01;  9.9999998E-03; -1.5000001E-01;29;  0.0000000E+00;  0.0000000E+00;  0.0000000E+00;  1.0000000E+03;  1.0000000E-01;  0.0000000E+00;0;  0.0000000E+00;  0.0000000E+00;  0.0000000E+00;0;  0.0000000E+00;  4.0000000E+04;  0.0000000E+00;  0.0000000E+00;  4.0000000E+04;  0.0000000E+00;  4.0000000E+04;  0.0000000E+00;  0.0000000E+00;  0.0000000E+00;  0.0000000E+00;
 -2.0000000E-01;  9.9999998E-03; -1.4000000E-01;30;  0.0000000E+00;  0.0000000E+00;  0.0000000E+00;  1.0000000E+03;  1.0000000E-01;  0.0000000E+00;0;  0.0000000E+00;  0.0000000E+00;  0.0000000E+00;0;  0.0000000E+00;  4.0000000E+04;  0.0000000E+00;  0.0000000E+00;  4.0000000E+04;  0.0000000E+00;  4.0000000E+04;  0.0000000E+00;  0.0000000E+00;  0.0000000E+00;  0.0000000E+00;
 -2.0000000E-01;  9.9999998E-03; -1.3000000E-01;31;  0.0000000E+00;  0.0000000E+00;  0.0000000E+00;  1.0000000E+03;  1.0000000E-01;  0.0000000E+00;0;  0.0000000E+00;  0.0000000E+00;  0.0000000E+00;0;  0.0000000E+00;  4.0000000E+04;  0.0000000E+00;  0.0000000E+00;  4.0000000E+04;  0.0000000E+00;  4.0000000E+04;  0.0000000E+00;  0.0000000E+00;  0.0000000E+00;  0.0000000E+00;
 -2.0000000E-01;  9.9999998E-03; -1.2000000E-01;32;  0.0000000E+00;  0.0000000E+00;  0.0000000E+00;  1.0000000E+03;  1.0000000E-01;  0.0000000E+00;0;  0.0000000E+00;  0.0000000E+00;  0.0000000E+00;0;  0.0000000E+00;  4.0000000E+04;  0.0000000E+00;  0.0000000E+00;  4.0000000E+04;  0.0000000E+00;  4.0000000E+04;  0.0000000E+00;  0.0000000E+00;  0.0000000E+00;  0.0000000E+00;
 -2.0000000E-01;  9.9999998E-03; -1.1000000E-01;33;  0.0000000E+00;  0.0000000E+00;  0.0000000E+00;  1.0000000E+03;  1.0000000E-01;  0.0000000E+00;0;  0.0000000E+00;  0.0000000E+00;  0.0000000E+00;0;  0.0000000E+00;  4.0000000E+04;  0.0000000E+00;  0.0000000E+00;  4.0000000E+04;  0.0000000E+00;  4.0000000E+04;  0.0000000E+00;  0.0000000E+00;  0.0000000E+00;  0.0000000E+00;
 -2.0000000E-01;  9.9999998E-03; -1.0000000E-01;34;  0.0000000E+00;  0.0000000E+00;  0.0000000E+00;  1.0000000E+03;  1.0000000E-01;  0.0000000E+00;0;  0.0000000E+00;  0.0000000E+00;  0.0000000E+00;0;  0.0000000E+00;  4.0000000E+04;  0.0000000E+00;  0.0000000E+00;  4.0000000E+04;  0.0000000E+00;  4.0000000E+04;  0.0000000E+00;  0.0000000E+00;  0.0000000E+00;  0.0000000E+00;
 -2.0000000E-01;  9.9999998E-03; -9.0000004E-02;35;  0.0000000E+00;  0.0000000E+00;  0.0000000E+00;  1.0000000E+03;  1.0000000E-01;  0.0000000E+00;0;  0.0000000E+00;  0.0000000E+00;  0.0000000E+00;0;  0.0000000E+00;  4.0000000E+04;  0.0000000E+00;  0.0000000E+00;  4.0000000E+04;  0.0000000E+00;  4.0000000E+04;  0.0000000E+00;  0.0000000E+00;  0.0000000E+00;  0.0000000E+00;
 -2.0000000E-01;  9.9999998E-03; -7.9999998E-02;36;  0.0000000E+00;  0.0000000E+00;  0.0000000E+00;  1.0000000E+03;  1.0000000E-01;  0.0000000E+00;0;  0.0000000E+00;  0.0000000E+00;  0.0000000E+00;0;  0.0000000E+00;  4.0000000E+04;  0.0000000E+00;  0.0000000E+00;  4.0000000E+04;  0.0000000E+00;  4.0000000E+04;  0.0000000E+00;  0.0000000E+00;  0.0000000E+00;  0.0000000E+00;
 -2.0000000E-01;  9.9999998E-03; -7.0000000E-02;37;  0.0000000E+00;  0.0000000E+00;  0.0000000E+00;  1.0000000E+03;  1.0000000E-01;  0.0000000E+00;0;  0.0000000E+00;  0.0000000E+00;  0.0000000E+00;0;  0.0000000E+00;  4.0000000E+04;  0.0000000E+00;  0.0000000E+00;  4.0000000E+04;  0.0000000E+00;  4.0000000E+04;  0.0000000E+00;  0.0000000E+00;  0.0000000E+00;  0.0000000E+00;
 -2.0000000E-01;  9.9999998E-03; -5.9999999E-02;38;  0.0000000E+00;  0.0000000E+00;  0.0000000E+00;  1.0000000E+03;  1.0000000E-01;  0.0000000E+00;0;  0.0000000E+00;  0.0000000E+00;  0.0000000E+00;0;  0.0000000E+00;  4.0000000E+04;  0.0000000E+00;  0.0000000E+00;  4.0000000E+04;  0.0000000E+00;  4.0000000E+04;  0.0000000E+00;  0.0000000E+00;  0.0000000E+00;  0.0000000E+00;
 -2.0000000E-01;  9.9999998E-03; -5.0000001E-02;39;  0.0000000E+00;  0.0000000E+00;  0.0000000E+00;  1.0000000E+03;  1.0000000E-01;  0.0000000E+00;0;  0.0000000E+00;  0.0000000E+00;  0.0000000E+00;0;  0.0000000E+00;  4.0000000E+04;  0.0000000E+00;  0.0000000E+00;  4.0000000E+04;  0.0000000E+00;  4.0000000E+04;  0.0000000E+00;  0.0000000E+00;  0.0000000E+00;  0.0000000E+00;
 -2.0000000E-01;  9.9999998E-03; -3.9999999E-02;40;  0.0000000E+00;  0.0000000E+00;  0.0000000E+00;  1.0000000E+03;  1.0000000E-01;  0.0000000E+00;0;  0.0000000E+00;  0.0000000E+00;  0.0000000E+00;0;  0.0000000E+00;  4.0000000E+04;  0.0000000E+00;  0.0000000E+00;  4.0000000E+04;  0.0000000E+00;  4.0000000E+04;  0.0000000E+00;  0.0000000E+00;  0.0000000E+00;  0.0000000E+00;
 -2.0000000E-01;  9.9999998E-03; -2.9999999E-02;41;  0.0000000E+00;  0.0000000E+00;  0.0000000E+00;  1.0000000E+03;  1.0000000E-01;  0.0000000E+00;0;  0.0000000E+00;  0.0000000E+00;  0.0000000E+00;0;  0.0000000E+00;  4.0000000E+04;  0.0000000E+00;  0.0000000E+00;  4.0000000E+04;  0.0000000E+00;  4.0000000E+04;  0.0000000E+00;  0.0000000E+00;  0.0000000E+00;  0.0000000E+00;
 -2.0000000E-01;  9.9999998E-03; -2.0000000E-02;42;  0.0000000E+00;  0.0000000E+00;  0.0000000E+00;  1.0000000E+03;  1.0000000E-01;  0.0000000E+00;0;  0.0000000E+00;  0.0000000E+00;  0.0000000E+00;0;  0.0000000E+00;  4.0000000E+04;  0.0000000E+00;  0.0000000E+00;  4.0000000E+04;  0.0000000E+00;  4.0000000E+04;  0.0000000E+00;  0.0000000E+00;  0.0000000E+00;  0.0000000E+00;
 -2.0000000E-01;  9.9999998E-03; -9.9999998E-03;43;  0.0000000E+00;  0.0000000E+00;  0.0000000E+00;  1.0000000E+03;  1.0000000E-01;  0.0000000E+00;0;  0.0000000E+00;  0.0000000E+00;  0.0000000E+00;0;  0.0000000E+00;  4.0000000E+04;  0.0000000E+00;  0.0000000E+00;  4.0000000E+04;  0.0000000E+00;  4.0000000E+04;  0.0000000E+00;  0.0000000E+00;  0.0000000E+00;  0.0000000E+00;
 -2.0000000E-01;  9.9999998E-03;  0.0000000E+00;44;  0.0000000E+00;  0.0000000E+00;  0.0000000E+00;  1.0000000E+03;  1.0000000E-01;  0.0000000E+00;0;  0.0000000E+00;  0.0000000E+00;  0.0000000E+00;0;  0.0000000E+00;  4.0000000E+04;  0.0000000E+00;  0.0000000E+00;  4.0000000E+04;  0.0000000E+00;  4.0000000E+04;  0.0000000E+00;  0.0000000E+00;  0.0000000E+00;  0.0000000E+00;
 -2.0000000E-01;  9.9999998E-03;  9.9999998E-03;45;  0.0000000E+00;  0.0000000E+00;  0.0000000E+00;  1.0000000E+03;  1.0000000E-01;  0.0000000E+00;0;  0.0000000E+00;  0.0000000E+00;  0.0000000E+00;0;  0.0000000E+00;  4.0000000E+04;  0.0000000E+00;  0.0000000E+00;  4.0000000E+04;  0.0000000E+00;  4.0000000E+04;  0.0000000E+00;  0.0000000E+00;  0.0000000E+00;  0.0000000E+00;
 -2.0000000E-01;  9.9999998E-03;  2.0000000E-02;46;  0.0000000E+00;  0.0000000E+00;  0.0000000E+00;  1.0000000E+03;  1.0000000E-01;  0.0000000E+00;0;  0.0000000E+00;  0.0000000E+00;  0.0000000E+00;0;  0.0000000E+00;  4.0000000E+04;  0.0000000E+00;  0.0000000E+00;  4.0000000E+04;  0.0000000E+00;  4.0000000E+04;  0.0000000E+00;  0.0000000E+00;  0.0000000E+00;  0.0000000E+00;
 -2.0000000E-01;  9.9999998E-03;  2.9999999E-02;47;  0.0000000E+00;  0.0000000E+00;  0.0000000E+00;  1.0000000E+03;  1.0000000E-01;  0.0000000E+00;0;  0.0000000E+00;  0.0000000E+00;  0.0000000E+00;0;  0.0000000E+00;  4.0000000E+04;  0.0000000E+00;  0.0000000E+00;  4.0000000E+04;  0.0000000E+00;  4.0000000E+04;  0.0000000E+00;  0.0000000E+00;  0.0000000E+00;  0.0000000E+00;
 -2.0000000E-01;  9.9999998E-03;  3.9999999E-02;48;  0.0000000E+00;  0.0000000E+00;  0.0000000E+00;  1.0000000E+03;  1.0000000E-01;  0.0000000E+00;0;  0.0000000E+00;  0.0000000E+00;  0.0000000E+00;0;  0.0000000E+00;  4.0000000E+04;  0.0000000E+00;  0.0000000E+00;  4.0000000E+04;  0.0000000E+00;  4.0000000E+04;  0.0000000E+00;  0.0000000E+00;  0.0000000E+00;  0.0000000E+00;
 -2.0000000E-01;  9.9999998E-03;  5.0000001E-02;49;  0.0000000E+00;  0.0000000E+00;  0.0000000E+00;  1.0000000E+03;  1.0000000E-01;  0.0000000E+00;0;  0.0000000E+00;  0.0000000E+00;  0.0000000E+00;0;  0.0000000E+00;  4.0000000E+04;  0.0000000E+00;  0.0000000E+00;  4.0000000E+04;  0.0000000E+00;  4.0000000E+04;  0.0000000E+00;  0.0000000E+00;  0.0000000E+00;  0.0000000E+00;
 -2.0000000E-01;  9.9999998E-03;  5.9999999E-02;50;  0.0000000E+00;  0.0000000E+00;  0.0000000E+00;  1.0000000E+03;  1.0000000E-01;  0.0000000E+00;0;  0.0000000E+00;  0.0000000E+00;  0.0000000E+00;0;  0.0000000E+00;  4.0000000E+04;  0.0000000E+00;  0.0000000E+00;  4.0000000E+04;  0.0000000E+00;  4.0000000E+04;  0.0000000E+00;  0.0000000E+00;  0.0000000E+00;  0.0000000E+00;
 -2.0000000E-01;  9.9999998E-03;  7.0000000E-02;51;  0.0000000E+00;  0.0000000E+00;  0.0000000E+00;  1.0000000E+03;  1.0000000E-01;  0.0000000E+00;0;  0.0000000E+00;  0.0000000E+00;  0.0000000E+00;0;  0.0000000E+00;  4.0000000E+04;  0.0000000E+00;  0.0000000E+00;  4.0000000E+04;  0.0000000E+00;  4.0000000E+04;  0.0000000E+00;  0.0000000E+00;  0.0000000E+00;  0.0000000E+00;
 -2.0000000E-01;  9.9999998E-03;  7.9999998E-02;52;  0.0000000E+00;  0.0000000E+00;  0.0000000E+00;  1.0000000E+03;  1.0000000E-01;  0.0000000E+00;0;  0.0000000E+00;  0.0000000E+00;  0.0000000E+00;0;  0.0000000E+00;  4.0000000E+04;  0.0000000E+00;  0.0000000E+00;  4.0000000E+04;  0.0000000E+00;  4.0000000E+04;  0.0000000E+00;  0.0000000E+00;  0.0000000E+00;  0.0000000E+00;
 -2.0000000E-01;  9.9999998E-03;  9.0000004E-02;53;  0.0000000E+00;  0.0000000E+00;  0.0000000E+00;  1.0000000E+03;  1.0000000E-01;  0.0000000E+00;0;  0.0000000E+00;  0.0000000E+00;  0.0000000E+00;0;  0.0000000E+00;  4.0000000E+04;  0.0000000E+00;  0.0000000E+00;  4.0000000E+04;  0.0000000E+00;  4.0000000E+04;  0.0000000E+00;  0.0000000E+00;  0.0000000E+00;  0.0000000E+00;
 -2.0000000E-01;  9.9999998E-03;  1.0000000E-01;54;  0.0000000E+00;  0.0000000E+00;  0.0000000E+00;  1.0000000E+03;  1.0000000E-01;  0.0000000E+00;0;  0.0000000E+00;  0.0000000E+00;  0.0000000E+00;0;  0.0000000E+00;  4.0000000E+04;  0.0000000E+00;  0.0000000E+00;  4.0000000E+04;  0.0000000E+00;  4.0000000E+04;  0.0000000E+00;  0.0000000E+00;  0.0000000E+00;  0.0000000E+00;
 -2.0000000E-01;  9.9999998E-03;  1.1000000E-01;55;  0.0000000E+00;  0.0000000E+00;  0.0000000E+00;  1.0000000E+03;  1.0000000E-01;  0.0000000E+00;0;  0.0000000E+00;  0.0000000E+00;  0.0000000E+00;0;  0.0000000E+00;  4.0000000E+04;  0.0000000E+00;  0.0000000E+00;  4.0000000E+04;  0.0000000E+00;  4.0000000E+04;  0.0000000E+00;  0.0000000E+00;  0.0000000E+00;  0.0000000E+00;
 -2.0000000E-01;  9.9999998E-03;  1.2000000E-01;56;  0.0000000E+00;  0.0000000E+00;  0.0000000E+00;  1.0000000E+03;  1.0000000E-01;  0.0000000E+00;0;  0.0000000E+00;  0.0000000E+00;  0.0000000E+00;0;  0.0000000E+00;  4.0000000E+04;  0.0000000E+00;  0.0000000E+00;  4.0000000E+04;  0.0000000E+00;  4.0000000E+04;  0.0000000E+00;  0.0000000E+00;  0.0000000E+00;  0.0000000E+00;
 -2.0000000E-01;  9.9999998E-03;  1.3000000E-01;57;  0.0000000E+00;  0.0000000E+00;  0.0000000E+00;  1.0000000E+03;  1.0000000E-01;  0.0000000E+00;0;  0.0000000E+00;  0.0000000E+00;  0.0000000E+00;0;  0.0000000E+00;  4.0000000E+04;  0.0000000E+00;  0.0000000E+00;  4.0000000E+04;  0.0000000E+00;  4.0000000E+04;  0.0000000E+00;  0.0000000E+00;  0.0000000E+00;  0.0000000E+00;
 -2.0000000E-01;  9.9999998E-03;  1.4000000E-01;58;  0.0000000E+00;  0.0000000E+00;  0.0000000E+00;  1.0000000E+03;  1.0000000E-01;  0.0000000E+00;0;  0.0000000E+00;  0.0000000E+00;  0.0000000E+00;0;  0.0000000E+00;  4.0000000E+04;  0.0000000E+00;  0.0000000E+00;  4.0000000E+04;  0.0000000E+00;  4.0000000E+04;  0.0000000E+00;  0.0000000E+00;  0.0000000E+00;  0.0000000E+00;
 -2.0000000E-01;  9.9999998E-03;  1.5000001E-01;59;  0.0000000E+00;  0.0000000E+00;  0.0000000E+00;  1.0000000E+03;  1.0000000E-01;  0.0000000E+00;0;  0.0000000E+00;  0.0000000E+00;  0.0000000E+00;0;  0.0000000E+00;  4.0000000E+04;  0.0000000E+00;  0.0000000E+00;  4.0000000E+04;  0.0000000E+00;  4.0000000E+04;  0.0000000E+00;  0.0000000E+00;  0.0000000E+00;  0.0000000E+00;
 -2.0000000E-01;  9.9999998E-03;  1.6000000E-01;60;  0.0000000E+00;  0.0000000E+00;  0.0000000E+00;  1.0000000E+03;  1.0000000E-01;  0.0000000E+00;0;  0.0000000E+00;  0.0000000E+00;  0.0000000E+00;0;  0.0000000E+00;  4.0000000E+04;  0.0000000E+00;  0.0000000E+00;  4.0000000E+04;  0.0000000E+00;  4.0000000E+04;  0.0000000E+00;  0.0000000E+00;  0.0000000E+00;  0.0000000E+00;
 -2.0000000E-01;  9.9999998E-03;  1.7000000E-01;61;  0.0000000E+00;  0.0000000E+00;  0.0000000E+00;  1.0000000E+03;  1.0000000E-01;  0.0000000E+00;0;  0.0000000E+00;  0.0000000E+00;  0.0000000E+00;0;  0.0000000E+00;  4.0000000E+04;  0.0000000E+00;  0.0000000E+00;  4.0000000E+04;  0.0000000E+00;  4.0000000E+04;  0.0000000E+00;  0.0000000E+00;  0.0000000E+00;  0.0000000E+00;
 -2.0000000E-01;  9.9999998E-03;  1.8000001E-01;62;  0.0000000E+00;  0.0000000E+00;  0.0000000E+00;  1.0000000E+03;  1.0000000E-01;  0.0000000E+00;0;  0.0000000E+00;  0.0000000E+00;  0.0000000E+00;0;  0.0000000E+00;  4.0000000E+04;  0.0000000E+00;  0.0000000E+00;  4.0000000E+04;  0.0000000E+00;  4.0000000E+04;  0.0000000E+00;  0.0000000E+00;  0.0000000E+00;  0.0000000E+00;
 -2.0000000E-01;  9.9999998E-03;  1.9000000E-01;63;  0.0000000E+00;  0.0000000E+00;  0.0000000E+00;  1.0000000E+03;  1.0000000E-01;  0.0000000E+00;0;  0.0000000E+00;  0.0000000E+00;  0.0000000E+00;0;  0.0000000E+00;  4.0000000E+04;  0.0000000E+00;  0.0000000E+00;  4.0000000E+04;  0.0000000E+00;  4.0000000E+04;  0.0000000E+00;  0.0000000E+00;  0.0000000E+00;  0.0000000E+00;
 -2.0000000E-01;  9.9999998E-03;  2.0000000E-01;64;  0.0000000E+00;  0.0000000E+00;  0.0000000E+00;  1.0000000E+03;  1.0000000E-01;  0.0000000E+00;0;  0.0000000E+00;  0.0000000E+00;  0.0000000E+00;0;  0.0000000E+00;  4.0000000E+04;  0.0000000E+00;  0.0000000E+00;  4.0000000E+04;  0.0000000E+00;  4.0000000E+04;  0.0000000E+00;  0.0000000E+00;  0.0000000E+00;  0.0000000E+00;
 -2.0000000E-01;  9.9999998E-03;  2.0999999E-01;65;  0.0000000E+00;  0.0000000E+00;  0.0000000E+00;  1.0000000E+03;  1.0000000E-01;  0.0000000E+00;0;  0.0000000E+00;  0.0000000E+00;  0.0000000E+00;0;  0.0000000E+00;  4.0000000E+04;  0.0000000E+00;  0.0000000E+00;  4.0000000E+04;  0.0000000E+00;  4.0000000E+04;  0.0000000E+00;  0.0000000E+00;  0.0000000E+00;  0.0000000E+00;
 -2.0000000E-01;  9.9999998E-03;  2.2000000E-01;66;  0.0000000E+00;  0.0000000E+00;  0.0000000E+00;  1.0000000E+03;  1.0000000E-01;  0.0000000E+00;0;  0.0000000E+00;  0.0000000E+00;  0.0000000E+00;0;  0.0000000E+00;  4.0000000E+04;  0.0000000E+00;  0.0000000E+00;  4.0000000E+04;  0.0000000E+00;  4.0000000E+04;  0.0000000E+00;  0.0000000E+00;  0.0000000E+00;  0.0000000E+00;
 -2.0000000E-01;  9.9999998E-03;  2.3000000E-01;67;  0.0000000E+00;  0.0000000E+00;  0.0000000E+00;  1.0000000E+03;  1.0000000E-01;  0.0000000E+00;0;  0.0000000E+00;  0.0000000E+00;  0.0000000E+00;0;  0.0000000E+00;  4.0000000E+04;  0.0000000E+00;  0.0000000E+00;  4.0000000E+04;  0.0000000E+00;  4.0000000E+04;  0.0000000E+00;  0.0000000E+00;  0.0000000E+00;  0.0000000E+00;
 -2.0000000E-01;  9.9999998E-03;  2.3999999E-01;68;  0.0000000E+00;  0.0000000E+00;  0.0000000E+00;  1.0000000E+03;  1.0000000E-01;  0.0000000E+00;0;  0.0000000E+00;  0.0000000E+00;  0.0000000E+00;0;  0.0000000E+00;  4.0000000E+04;  0.0000000E+00;  0.0000000E+00;  4.0000000E+04;  0.0000000E+00;  4.0000000E+04;  0.0000000E+00;  0.0000000E+00;  0.0000000E+00;  0.0000000E+00;
 -2.0000000E-01;  9.9999998E-03;  2.5000000E-01;69;  0.0000000E+00;  0.0000000E+00;  0.0000000E+00;  1.0000000E+03;  1.0000000E-01;  0.0000000E+00;0;  0.0000000E+00;  0.0000000E+00;  0.0000000E+00;0;  0.0000000E+00;  4.0000000E+04;  0.0000000E+00;  0.0000000E+00;  4.0000000E+04;  0.0000000E+00;  4.0000000E+04;  0.0000000E+00;  0.0000000E+00;  0.0000000E+00;  0.0000000E+00;
 -2.0000000E-01;  9.9999998E-03;  2.5999999E-01;70;  0.0000000E+00;  0.0000000E+00;  0.0000000E+00;  1.0000000E+03;  1.0000000E-01;  0.0000000E+00;0;  0.0000000E+00;  0.0000000E+00;  0.0000000E+00;0;  0.0000000E+00;  4.0000000E+04;  0.0000000E+00;  0.0000000E+00;  4.0000000E+04;  0.0000000E+00;  4.0000000E+04;  0.0000000E+00;  0.0000000E+00;  0.0000000E+00;  0.0000000E+00;
 -2.0000000E-01;  9.9999998E-03;  2.7000001E-01;71;  0.0000000E+00;  0.0000000E+00;  0.0000000E+00;  1.0000000E+03;  1.0000000E-01;  0.0000000E+00;0;  0.0000000E+00;  0.0000000E+00;  0.0000000E+00;0;  0.0000000E+00;  4.0000000E+04;  0.0000000E+00;  0.0000000E+00;  4.0000000E+04;  0.0000000E+00;  4.0000000E+04;  0.0000000E+00;  0.0000000E+00;  0.0000000E+00;  0.0000000E+00;
 -2.0000000E-01;  9.9999998E-03;  2.8000000E-01;72;  0.0000000E+00;  0.0000000E+00;  0.0000000E+00;  1.0000000E+03;  1.0000000E-01;  0.0000000E+00;0;  0.0000000E+00;  0.0000000E+00;  0.0000000E+00;0;  0.0000000E+00;  4.0000000E+04;  0.0000000E+00;  0.0000000E+00;  4.0000000E+04;  0.0000000E+00;  4.0000000E+04;  0.0000000E+00;  0.0000000E+00;  0.0000000E+00;  0.0000000E+00;
 -2.0000000E-01;  9.9999998E-03;  2.8999999E-01;73;  0.0000000E+00;  0.0000000E+00;  0.0000000E+00;  1.0000000E+03;  1.0000000E-01;  0.0000000E+00;0;  0.0000000E+00;  0.0000000E+00;  0.0000000E+00;0;  0.0000000E+00;  4.0000000E+04;  0.0000000E+00;  0.0000000E+00;  4.0000000E+04;  0.0000000E+00;  4.0000000E+04;  0.0000000E+00;  0.0000000E+00;  0.0000000E+00;  0.0000000E+00;
 -2.0000000E-01;  9.9999998E-03;  3.0000001E-01;74;  0.0000000E+00;  0.0000000E+00;  0.0000000E+00;  1.0000000E+03;  1.0000000E-01;  0.0000000E+00;0;  0.0000000E+00;  0.0000000E+00;  0.0000000E+00;0;  0.0000000E+00;  4.0000000E+04;  0.0000000E+00;  0.0000000E+00;  4.0000000E+04;  0.0000000E+00;  4.0000000E+04;  0.0000000E+00;  0.0000000E+00;  0.0000000E+00;  0.0000000E+00;
 -2.0000000E-01;  9.9999998E-03;  3.1000000E-01;75;  0.0000000E+00;  0.0000000E+00;  0.0000000E+00;  1.0000000E+03;  1.0000000E-01;  0.0000000E+00;0;  0.0000000E+00;  0.0000000E+00;  0.0000000E+00;0;  0.0000000E+00;  4.0000000E+04;  0.0000000E+00;  0.0000000E+00;  4.0000000E+04;  0.0000000E+00;  4.0000000E+04;  0.0000000E+00;  0.0000000E+00;  0.0000000E+00;  0.0000000E+00;
 -2.0000000E-01;  9.9999998E-03;  3.1999999E-01;76;  0.0000000E+00;  0.0000000E+00;  0.0000000E+00;  1.0000000E+03;  1.0000000E-01;  0.0000000E+00;0;  0.0000000E+00;  0.0000000E+00;  0.0000000E+00;0;  0.0000000E+00;  4.0000000E+04;  0.0000000E+00;  0.0000000E+00;  4.0000000E+04;  0.0000000E+00;  4.0000000E+04;  0.0000000E+00;  0.0000000E+00;  0.0000000E+00;  0.0000000E+00;
 -2.0000000E-01;  9.9999998E-03;  3.3000001E-01;77;  0.0000000E+00;  0.0000000E+00;  0.0000000E+00;  1.0000000E+03;  1.0000000E-01;  0.0000000E+00;0;  0.0000000E+00;  0.0000000E+00;  0.0000000E+00;0;  0.0000000E+00;  4.0000000E+04;  0.0000000E+00;  0.0000000E+00;  4.0000000E+04;  0.0000000E+00;  4.0000000E+04;  0.0000000E+00;  0.0000000E+00;  0.0000000E+00;  0.0000000E+00;
 -2.0000000E-01;  9.9999998E-03;  3.4000000E-01;78;  0.0000000E+00;  0.0000000E+00;  0.0000000E+00;  1.0000000E+03;  1.0000000E-01;  0.0000000E+00;0;  0.0000000E+00;  0.0000000E+00;  0.0000000E+00;0;  0.0000000E+00;  4.0000000E+04;  0.0000000E+00;  0.0000000E+00;  4.0000000E+04;  0.0000000E+00;  4.0000000E+04;  0.0000000E+00;  0.0000000E+00;  0.0000000E+00;  0.0000000E+00;
 -2.0000000E-01;  9.9999998E-03;  3.4999999E-01;79;  0.0000000E+00;  0.0000000E+00;  0.0000000E+00;  1.0000000E+03;  1.0000000E-01;  0.0000000E+00;0;  0.0000000E+00;  0.0000000E+00;  0.0000000E+00;0;  0.0000000E+00;  4.0000000E+04;  0.0000000E+00;  0.0000000E+00;  4.0000000E+04;  0.0000000E+00;  4.0000000E+04;  0.0000000E+00;  0.0000000E+00;  0.0000000E+00;  0.0000000E+00;
 -2.0000000E-01;  9.9999998E-03;  3.6000001E-01;80;  0.0000000E+00;  0.0000000E+00;  0.0000000E+00;  1.0000000E+03;  1.0000000E-01;  0.0000000E+00;0;  0.0000000E+00;  0.0000000E+00;  0.0000000E+00;0;  0.0000000E+00;  4.0000000E+04;  0.0000000E+00;  0.0000000E+00;  4.0000000E+04;  0.0000000E+00;  4.0000000E+04;  0.0000000E+00;  0.0000000E+00;  0.0000000E+00;  0.0000000E+00;
 -2.0000000E-01;  9.9999998E-03;  3.7000000E-01;81;  0.0000000E+00;  0.0000000E+00;  0.0000000E+00;  1.0000000E+03;  1.0000000E-01;  0.0000000E+00;0;  0.0000000E+00;  0.0000000E+00;  0.0000000E+00;0;  0.0000000E+00;  4.0000000E+04;  0.0000000E+00;  0.0000000E+00;  4.0000000E+04;  0.0000000E+00;  4.0000000E+04;  0.0000000E+00;  0.0000000E+00;  0.0000000E+00;  0.0000000E+00;
 -2.0000000E-01;  9.9999998E-03;  3.8000000E-01;82;  0.0000000E+00;  0.0000000E+00;  0.0000000E+00;  1.0000000E+03;  1.0000000E-01;  0.0000000E+00;0;  0.0000000E+00;  0.0000000E+00;  0.0000000E+00;0;  0.0000000E+00;  4.0000000E+04;  0.0000000E+00;  0.0000000E+00;  4.0000000E+04;  0.0000000E+00;  4.0000000E+04;  0.0000000E+00;  0.0000000E+00;  0.0000000E+00;  0.0000000E+00;
 -2.0000000E-01;  9.9999998E-03;  3.8999999E-01;83;  0.0000000E+00;  0.0000000E+00;  0.0000000E+00;  1.0000000E+03;  1.0000000E-01;  0.0000000E+00;0;  0.0000000E+00;  0.0000000E+00;  0.0000000E+00;0;  0.0000000E+00;  4.0000000E+04;  0.0000000E+00;  0.0000000E+00;  4.0000000E+04;  0.0000000E+00;  4.0000000E+04;  0.0000000E+00;  0.0000000E+00;  0.0000000E+00;  0.0000000E+00;
 -2.0000000E-01;  9.9999998E-03;  4.0000001E-01;84;  0.0000000E+00;  0.0000000E+00;  0.0000000E+00;  1.0000000E+03;  1.0000000E-01;  0.0000000E+00;0;  0.0000000E+00;  0.0000000E+00;  0.0000000E+00;0;  0.0000000E+00;  4.0000000E+04;  0.0000000E+00;  0.0000000E+00;  4.0000000E+04;  0.0000000E+00;  4.0000000E+04;  0.0000000E+00;  0.0000000E+00;  0.0000000E+00;  0.0000000E+00;
 -2.0000000E-01;  9.9999998E-03;  4.1000000E-01;85;  0.0000000E+00;  0.0000000E+00;  0.0000000E+00;  1.0000000E+03;  1.0000000E-01;  0.0000000E+00;0;  0.0000000E+00;  0.0000000E+00;  0.0000000E+00;0;  0.0000000E+00;  4.0000000E+04;  0.0000000E+00;  0.0000000E+00;  4.0000000E+04;  0.0000000E+00;  4.0000000E+04;  0.0000000E+00;  0.0000000E+00;  0.0000000E+00;  0.0000000E+00;
 -2.0000000E-01;  9.9999998E-03;  4.1999999E-01;86;  0.0000000E+00;  0.0000000E+00;  0.0000000E+00;  1.0000000E+03;  1.0000000E-01;  0.0000000E+00;0;  0.0000000E+00;  0.0000000E+00;  0.0000000E+00;0;  0.0000000E+00;  4.0000000E+04;  0.0000000E+00;  0.0000000E+00;  4.0000000E+04;  0.0000000E+00;  4.0000000E+04;  0.0000000E+00;  0.0000000E+00;  0.0000000E+00;  0.0000000E+00;
 -2.0000000E-01;  9.9999998E-03;  4.3000001E-01;87;  0.0000000E+00;  0.0000000E+00;  0.0000000E+00;  1.0000000E+03;  1.0000000E-01;  0.0000000E+00;0;  0.0000000E+00;  0.0000000E+00;  0.0000000E+00;0;  0.0000000E+00;  4.0000000E+04;  0.0000000E+00;  0.0000000E+00;  4.0000000E+04;  0.0000000E+00;  4.0000000E+04;  0.0000000E+00;  0.0000000E+00;  0.0000000E+00;  0.0000000E+00;
 -2.0000000E-01;  9.9999998E-03;  4.4000000E-01;88;  0.0000000E+00;  0.0000000E+00;  0.0000000E+00;  1.0000000E+03;  1.0000000E-01;  0.0000000E+00;0;  0.0000000E+00;  0.0000000E+00;  0.0000000E+00;0;  0.0000000E+00;  4.0000000E+04;  0.0000000E+00;  0.0000000E+00;  4.0000000E+04;  0.0000000E+00;  4.0000000E+04;  0.0000000E+00;  0.0000000E+00;  0.0000000E+00;  0.0000000E+00;
  2.2741250E-04;  9.9999998E-03; -2.8991261E-01;2448;  1.1311335E-03;  0.0000000E+00;  2.1211244E-04;  9.9576038E+02;  1.0000000E-01; -3.5124438E+03;3;  2.2952932E+01;  0.0000000E+00;  3.0682444E+01;0;  1.3513968E-02;  3.9670418E+04;  0.0000000E+00; -3.0975908E-01;  4.0000000E+04;  0.0000000E+00;  3.9987801E+04;  1.1922060E-02;  0.0000000E+00;  1.5919085E-03;  1.2738077E+03;
  6.3778250E-04;  9.9999998E-03; -2.7985063E-01;2449;  2.5768247E-03;  0.0000000E+00;  9.2331658E-04;  9.9471887E+02;  1.0000000E-01; -4.3753330E+03;3;  3.0032253E+01;  0.0000000E+00;  3.0271738E+01;0;  1.5635332E-02;  3.9582176E+04;  0.0000000E+00; -3.4458691E-01;  4.0000000E+04;  0.0000000E+00;  3.9994703E+04;  1.4298251E-02;  0.0000000E+00;  1.3370807E-03;  5.5195941E+02;
  9.8827081E-03;  9.9999998E-03; -2.9984170E-01;2507; -6.1756044E-05;  0.0000000E+00; -4.0963951E-05;  9.9711853E+02;  1.0000000E-01; -2.3872412E+03;3;  1.1114422E+01;  0.0000000E+00;  2.9968359E+01;0;  1.0900624E-02;  3.9784484E+04;  0.0000000E+00; -3.6582398E-01;  4.0000000E+04;  0.0000000E+00;  3.9982145E+04;  9.0823108E-03;  0.0000000E+00;  1.8183130E-03;  2.0859385E+03;
  1.0195801E-02;  9.9999998E-03; -2.8979623E-01;2508;  1.2258599E-03;  0.0000000E+00;  7.7334937E-04;  9.9636078E+02;  1.0000000E-01; -3.0150259E+03;3;  1.6270508E+01;  0.0000000E+00;  2.8946766E+01;0;  1.2826115E-02;  3.9718320E+04;  0.0000000E+00; -3.9493316E-01;  4.0000000E+04;  0.0000000E+00;  3.9988633E+04;  1.1136499E-02;  0.0000000E+00;  1.6896154E-03;  1.2973169E+03;
  1.0582768E-02;  9.9999998E-03; -2.7977967E-01;2509;  2.3446698E-03;  0.0000000E+00;  1.0668730E-03;  9.9553101E+02;  1.0000000E-01; -3.7024631E+03;3;  2.2200430E+01;  0.0000000E+00;  2.6239752E+01;0;  1.4577872E-02;  3.9644945E+04;  0.0000000E+00; -4.2369184E-01;  4.0000000E+04;  0.0000000E+00;  3.9996156E+04;  1.3207207E-02;  0.0000000E+00;  1.3706654E-03;  6.1190759E+02;
  1.9797962E-02;  9.9999998E-03; -2.9982880E-01;2568; -1.5256918E-04;  0.0000000E+00;  1.0354769E-04;  9.9766364E+02;  1.0000000E-01; -1.9356489E+03;3;  7.2584372E+00;  0.0000000E+00;  2.6837349E+01;0;  1.0228138E-02;  3.9826664E+04;  0.0000000E+00; -4.7250268E-01;  4.0000000E+04;  0.0000000E+00;  3.9983363E+04;  8.4286649E-03;  0.0000000E+00;  1.7994740E-03;  2.0177778E+03;
  2.0095186E-02;  9.9999998E-03; -2.8981462E-01;2569;  9.9445821E-04;  0.0000000E+00;  7.7704317E-04;  9.9711047E+02;  1.0000000E-01; -2.3939077E+03;3;  1.1083259E+01;  0.0000000E+00;  2.3699024E+01;0;  1.1826918E-02;  3.9775414E+04;  0.0000000E+00; -4.9891499E-01;  4.0000000E+04;  0.0000000E+00;  3.9990191E+04;  1.0183281E-02;  0.0000000E+00;  1.6436367E-03;  1.2092474E+03;
  2.0478643E-02;  9.9999998E-03; -2.7981555E-01;2570;  2.0397650E-03;  0.0000000E+00;  1.0063854E-03;  9.9651892E+02;  1.0000000E-01; -2.8840171E+03;3;  1.5091246E+01;  0.0000000E+00;  1.9731434E+01;0;  1.3217886E-02;  3.9720875E+04;  0.0000000E+00; -5.2127457E-01;  4.0000000E+04;  0.0000000E+00;  3.9998617E+04;  1.1907686E-02;  0.0000000E+00;  1.3102004E-03;  7.4487134E+02;
  2.9689560E-02;  9.9999998E-03; -2.9988804E-01;2629; -2.5458558E-04;  0.0000000E+00;  1.1138841E-04;  9.9820874E+02;  1.0000000E-01; -1.4840074E+03;3;  4.9012218E+00;  0.0000000E+00;  2.1545851E+01;0;  9.5174480E-03;  3.9868023E+04;  0.0000000E+00; -5.8340186E-01;  4.0000000E+04;  0.0000000E+00;  3.9985590E+04;  7.8520244E-03;  0.0000000E+00;  1.6654236E-03;  1.8818430E+03;
  2.9978249E-02;  9.9999998E-03; -2.8988194E-01;2630;  6.9454825E-04;  0.0000000E+00;  5.4887251E-04;  9.9786481E+02;  1.0000000E-01; -1.7689871E+03;3;  7.6370945E+00;  0.0000000E+00;  1.7128695E+01;0;  1.0830695E-02;  3.9832914E+04;  0.0000000E+00; -6.0579038E-01;  4.0000000E+04;  0.0000000E+00;  3.9992438E+04;  9.3345670E-03;  0.0000000E+00;  1.4961273E-03;  1.1341289E+03;
  3.0369028E-02;  9.9999998E-03; -2.7987877E-01;2631;  1.7265494E-03;  0.0000000E+00;  8.2857889E-04;  9.9751770E+02;  1.0000000E-01; -2.0565344E+03;3;  9.6386623E+00;  0.0000000E+00;  1.2085612E+01;0;  1.1908286E-02;  3.9797395E+04;  0.0000000E+00; -6.1536092E-01;  4.0000000E+04;  0.0000000E+00;  4.0000793E+04;  1.0736540E-02;  0.0000000E+00;  1.1717461E-03;  9.3369287E+02;
  3.9597936E-02;  9.9999998E-03; -2.9995793E-01;2690; -3.3479196E-04;  0.0000000E+00;  2.2497588E-05;  9.9866150E+02;  1.0000000E-01; -1.1089069E+03;3;  4.0985241E+00;  0.0000000E+00;  1.5752121E+01;0;  8.9622838E-03;  3.9901613E+04;  0.0000000E+00; -6.8554479E-01;  4.0000000E+04;  0.0000000E+00;  3.9987445E+04;  7.5237644E-03;  0.0000000E+00;  1.4385193E-03;  1.7590236E+03;
  3.9884761E-02;  9.9999998E-03; -2.8994688E-01;2691;  3.2470335E-04;  0.0000000E+00;  1.1402532E-04;  9.9850763E+02;  1.0000000E-01; -1.2364094E+03;3;  6.0750251E+00;  0.0000000E+00;  1.0561642E+01;0;  1.0067230E-02;  3.9882199E+04;  0.0000000E+00; -6.9573385E-01;  4.0000000E+04;  0.0000000E+00;  3.9994215E+04;  8.7928604E-03;  0.0000000E+00;  1.2743698E-03;  1.1130654E+03;
  4.0284328E-02;  9.9999998E-03; -2.7992967E-01;2692;  1.4056420E-03;  0.0000000E+00;  5.4906111E-04;  9.9838312E+02;  1.0000000E-01; -1.3395670E+03;3;  6.4565916E+00;  0.0000000E+00;  4.5340972E+00;0;  1.0902685E-02;  3.9864195E+04;  0.0000000E+00; -6.7763340E-01;  4.0000000E+04;  0.0000000E+00;  4.0002781E+04;  9.9329632E-03;  0.0000000E+00;  9.6972217E-04;  1.0942966E+03;
  4.9544543E-02;  9.9999998E-03; -3.0000541E-01;2751; -3.7175749E-04;  0.0000000E+00; -1.0597709E-04;  9.9896381E+02;  1.0000000E-01; -8.5844489E+02;3;  4.6726589E+00;  0.0000000E+00;  1.0679606E+01;0;  8.6804871E-03;  3.9924094E+04;  0.0000000E+00; -7.7021813E-01;  4.0000000E+04;  0.0000000E+00;  3.9988777E+04;  7.5305393E-03;  0.0000000E+00;  1.1499482E-03;  1.6988101E+03;
  4.9830396E-02;  9.9999998E-03; -2.8999093E-01;2752;  1.1895487E-04;  0.0000000E+00; -1.4600766E-04;  9.9895953E+02;  1.0000000E-01; -8.6200031E+02;3;  6.1762328E+00;  0.0000000E+00;  4.3047838E+00;0;  9.6417991E-03;  3.9916418E+04;  0.0000000E+00; -7.5413257E-01;  4.0000000E+04;  0.0000000E+00;  3.9996164E+04;  8.6448602E-03;  0.0000000E+00;  9.9693856E-04;  1.1254340E+03;
  5.0227173E-02;  9.9999998E-03; -2.7996922E-01;2753;  1.1015668E-03;  0.0000000E+00;  1.8463554E-04;  9.9902252E+02;  1.0000000E-01; -8.0980426E+02;3;  5.6179733E+00;  0.0000000E+00; -2.0980058E+00;0;  1.0329029E-02;  3.9913719E+04;  0.0000000E+00; -6.8740362E-01;  4.0000000E+04;  0.0000000E+00;  4.0004926E+04;  9.6073449E-03;  0.0000000E+00;  7.2168384E-04;  1.1737096E+03;
  5.9526552E-02;  9.9999998E-03; -3.0004081E-01;2812; -3.5725944E-04;  0.0000000E+00; -2.4640380E-04;  9.9907056E+02;  1.0000000E-01; -7.7000293E+02;3;  6.3133173E+00;  0.0000000E+00;  7.4349108E+00;0;  8.7025696E-03;  3.9932027E+04;  0.0000000E+00; -8.0991858E-01;  4.0000000E+04;  0.0000000E+00;  3.9989297E+04;  7.8675225E-03;  0.0000000E+00;  8.3504687E-04;  1.7028691E+03;
  5.9814889E-02;  9.9999998E-03; -2.9001623E-01;2813;  1.0802288E-04;  0.0000000E+00; -2.8425732E-04;  9.9918188E+02;  1.0000000E-01; -6.7780798E+02;3;  7.3988767E+00;  0.0000000E+00; -3.0777475E-01;0;  9.5773460E-03;  3.9933504E+04;  0.0000000E+00; -7.5160336E-01;  4.0000000E+04;  0.0000000E+00;  3.9996879E+04;  8.8938065E-03;  0.0000000E+00;  6.8353955E-04;  1.1025707E+03;
  6.0197383E-02;  9.9999998E-03; -2.7999881E-01;2814;  9.1774948E-04;  0.0000000E+00; -1.3904109E-04;  9.9937189E+02;  1.0000000E-01; -5.2038037E+02;3;  6.6158977E+00;  0.0000000E+00; -7.2317653E+00;0;  1.0186784E-02;  3.9941758E+04;  0.0000000E+00; -6.1933649E-01;  4.0000000E+04;  0.0000000E+00;  4.0004621E+04;  9.7457441E-03;  0.0000000E+00;  4.4104003E-04;  1.1317532E+03;
  6.9545791E-02;  9.9999998E-03; -3.0007058E-01;2873; -2.8442178E-04;  0.0000000E+00; -3.8144313E-04;  9.9898230E+02;  1.0000000E-01; -8.4313666E+02;3;  8.6358786E+00;  0.0000000E+00;  6.6525016E+00;0;  8.9829704E-03;  3.9925973E+04;  0.0000000E+00; -7.1769309E-01;  4.0000000E+04;  0.0000000E+00;  3.9988352E+04;  8.4541738E-03;  0.0000000E+00;  5.2879634E-04;  1.7194745E+03;
  6.9837257E-02;  9.9999998E-03; -2.9002979E-01;2874;  1.8035267E-04;  0.0000000E+00; -4.1375030E-04;  9.9916351E+02;  1.0000000E-01; -6.9301746E+02;3;  9.5541792E+00;  0.0000000E+00; -2.3913822E+00;0;  9.8181991E-03;  3.9932680E+04;  0.0000000E+00; -5.9995401E-01;  4.0000000E+04;  0.0000000E+00;  3.9996594E+04;  9.4513493E-03;  0.0000000E+00;  3.6684959E-04;  9.1621533E+02;
  7.0200510E-02;  9.9999998E-03; -2.8001893E-01;2875;  9.2553144E-04;  0.0000000E+00; -3.3935765E-04;  9.9944653E+02;  1.0000000E-01; -4.5855493E+02;3;  8.5394220E+00;  0.0000000E+00; -1.0307582E+01;0;  1.0379596E-02;  3.9948184E+04;  0.0000000E+00; -3.9721897E-01;  4.0000000E+04;  0.0000000E+00;  4.0005469E+04;  1.0239347E-02;  0.0000000E+00;  1.4024903E-04;  9.0159119E+02;
  7.9607449E-02;  9.9999998E-03; -3.0009386E-01;2934; -1.4979289E-04;  0.0000000E+00; -4.9352867E-04;  9.9872565E+02;  1.0000000E-01; -1.0557726E+03;3;  1.1339069E+01;  0.0000000E+00;  8.5351658E+00;0;  9.4208904E-03;  3.9908891E+04;  0.0000000E+00; -3.2625261E-01;  4.0000000E+04;  0.0000000E+00;  3.9985500E+04;  9.1592530E-03;  0.0000000E+00;  2.6163692E-04;  1.7826359E+03;
  7.9900086E-02;  9.9999998E-03; -2.9003781E-01;2935;  3.5114476E-04;  0.0000000E+00; -5.1535008E-04;  9.9894183E+02;  1.0000000E-01; -8.7666656E+02;3;  1.2118513E+01;  0.0000000E+00; -1.8504931E+00;0;  1.0234464E-02;  3.9917086E+04;  0.0000000E+00; -1.3127507E-01;  4.0000000E+04;  0.0000000E+00;  3.9995055E+04;  1.0160505E-02;  0.0000000E+00;  7.3959585E-05;  5.7795392E+02;
  8.0242768E-02;  9.9999998E-03; -2.8003347E-01;2936;  1.1316228E-03;  0.0000000E+00; -4.3792691E-04;  9.9927686E+02;  1.0000000E-01; -5.9909418E+02;3;  1.0795315E+01;  0.0000000E+00; -1.1061052E+01;0;  1.0750269E-02;  3.9935559E+04;  0.0000000E+00;  1.2931700E-01;  4.0000000E+04;  0.0000000E+00;  4.0004438E+04;  1.0911725E-02;  0.0000000E+00; -1.6145688E-04;  6.5813940E+02;
  8.9717887E-02;  9.9999998E-03; -3.0010337E-01;2995;  4.9513848E-05;  0.0000000E+00; -5.6365161E-04;  9.9834967E+02;  1.0000000E-01; -1.3672700E+03;3;  1.4231007E+01;  0.0000000E+00;  1.2868185E+01;0;  9.8905349E-03;  3.9883027E+04;  0.0000000E+00;  6.0901678E-01;  4.0000000E+04;  0.0000000E+00;  3.9980770E+04;  9.8363059E-03;  0.0000000E+00;  5.4229051E-05;  2.4368108E+03;
  9.0004370E-02;  9.9999998E-03; -2.9003462E-01;2996;  6.6996622E-04;  0.0000000E+00; -5.4199697E-04;  9.9856915E+02;  1.0000000E-01; -1.1854480E+03;3;  1.4630789E+01;  0.0000000E+00;  1.0450822E+00;0;  1.0673505E-02;  3.9890547E+04;  0.0000000E+00;  8.9450067E-01;  4.0000000E+04;  0.0000000E+00;  3.9991895E+04;  1.0853454E-02;  0.0000000E+00; -1.7994829E-04;  1.5666069E+03;
  9.0323359E-02;  9.9999998E-03; -2.8003889E-01;2997;  1.5765658E-03;  0.0000000E+00; -3.9520249E-04;  9.9892609E+02;  1.0000000E-01; -8.8970325E+02;3;  1.2899460E+01;  0.0000000E+00; -9.7760592E+00;0;  1.1117656E-02;  3.9909477E+04;  0.0000000E+00;  1.1750077E+00;  4.0000000E+04;  0.0000000E+00;  4.0003059E+04;  1.1572125E-02;  0.0000000E+00; -4.5446958E-04;  1.7631510E+03;
  9.9887758E-02;  9.9999998E-03; -3.0008119E-01;3056;  4.0321311E-04;  0.0000000E+00; -5.3601747E-04;  9.9788086E+02;  1.0000000E-01; -1.7556541E+03;3;  1.7141872E+01;  0.0000000E+00;  1.9412758E+01;0;  1.0299257E-02;  3.9851922E+04;  0.0000000E+00;  2.3835120E+00;  4.0000000E+04;  0.0000000E+00;  3.9974758E+04;  1.0393918E-02;  0.0000000E+00; -9.4660558E-05;  4.5429082E+03;
  1.0015929E-01;  9.9999998E-03; -2.8999880E-01;3057;  1.3346912E-03;  0.0000000E+00; -3.3053599E-04;  9.9809686E+02;  1.0000000E-01; -1.5766962E+03;3;  1.6833635E+01;  0.0000000E+00;  5.6443133E+00;0;  1.1041324E-02;  3.9856953E+04;  0.0000000E+00;  2.7573001E+00;  4.0000000E+04;  0.0000000E+00;  3.9988871E+04;  1.1459006E-02;  0.0000000E+00; -4.1768258E-04;  4.1730435E+03;
  1.0045030E-01;  9.9999998E-03; -2.8000969E-01;3058;  2.5227910E-03;  0.0000000E+00; -1.9967429E-05;  9.9846826E+02;  1.0000000E-01; -1.2690011E+03;3;  1.4664476E+01;  0.0000000E+00; -7.3185573E+00;0;  1.1373851E-02;  3.9874691E+04;  0.0000000E+00;  2.9824004E+00;  4.0000000E+04;  0.0000000E+00;  4.0002035E+04;  1.2145332E-02;  0.0000000E+00; -7.7148137E-04;  4.3084922E+03;
  1.1013048E-01;  9.9999998E-03; -2.9998049E-01;3117;  1.3789301E-03;  0.0000000E+00; -4.0658015E-05;  9.9733020E+02;  1.0000000E-01; -2.2118879E+03;3;  1.9850416E+01;  0.0000000E+00;  2.6755211E+01;0;  1.0797366E-02;  3.9814531E+04;  0.0000000E+00;  5.3094935E+00;  4.0000000E+04;  0.0000000E+00;  3.9969320E+04;  1.1087327E-02;  0.0000000E+00; -2.8996030E-04;  8.4549111E+03;
  1.1037861E-01;  9.9999998E-03; -2.8987741E-01;3118;  2.7960835E-03;  0.0000000E+00;  4.8642087E-04;  9.9756354E+02;  1.0000000E-01; -2.0185602E+03;3;  1.8820215E+01;  0.0000000E+00;  9.2209663E+00;0;  1.1480562E-02;  3.9817508E+04;  0.0000000E+00;  5.7368813E+00;  4.0000000E+04;  0.0000000E+00;  3.9986137E+04;  1.2259754E-02;  0.0000000E+00; -7.7919150E-04;  8.4033145E+03;
  1.1063737E-01;  9.9999998E-03; -2.7989438E-01;3119;  3.5825586E-03;  0.0000000E+00;  4.5134942E-04;  9.9795746E+02;  1.0000000E-01; -1.6921991E+03;3;  1.5840134E+01;  0.0000000E+00; -6.0943317E+00;0;  1.1496462E-02;  3.9834629E+04;  0.0000000E+00;  5.7709756E+00;  4.0000000E+04;  0.0000000E+00;  4.0002441E+04;  1.2628778E-02;  0.0000000E+00; -1.1323164E-03;  8.3364785E+03;
  1.2042772E-01;  9.9999998E-03; -2.9975626E-01;3178;  2.8878525E-03;  0.0000000E+00;  9.2490925E-04;  9.9670709E+02;  1.0000000E-01; -2.7281204E+03;3;  2.2393003E+01;  0.0000000E+00;  2.8515320E+01;0;  1.1715324E-02;  3.9766758E+04;  0.0000000E+00;  9.7483244E+00;  4.0000000E+04;  0.0000000E+00;  3.9969207E+04;  1.2452106E-02;  0.0000000E+00; -7.3678233E-04;  1.4507516E+04;
  1.2057307E-01;  9.9999998E-03; -2.8969011E-01;3179;  3.5191088E-03;  0.0000000E+00;  7.9929840E-04;  9.9703461E+02;  1.0000000E-01; -2.4567700E+03;3;  1.9971407E+01;  0.0000000E+00;  8.8790054E+00;0;  1.1792129E-02;  3.9774195E+04;  0.0000000E+00;  1.0101860E+01;  4.0000000E+04;  0.0000000E+00;  3.9988496E+04;  1.2931384E-02;  0.0000000E+00; -1.1392552E-03;  1.4638163E+04;
  1.2073040E-01;  9.9999998E-03; -2.7975410E-01;3180;  3.9432612E-03;  0.0000000E+00;  5.6197052E-04;  9.9749536E+02;  1.0000000E-01; -2.0750525E+03;3;  1.6424479E+01;  0.0000000E+00; -6.9312115E+00;0;  1.1393125E-02;  3.9794723E+04;  0.0000000E+00;  9.6979399E+00;  4.0000000E+04;  0.0000000E+00;  4.0006742E+04;  1.2845900E-02;  0.0000000E+00; -1.4527747E-03;  1.4061062E+04;
  1.3058738E-01;  9.9999998E-03; -2.9957053E-01;3239;  3.5625414E-03;  0.0000000E+00;  1.2400039E-03;  9.9615527E+02;  1.0000000E-01; -3.1852927E+03;3;  2.4778214E+01;  0.0000000E+00;  2.5151594E+01;0;  1.2616244E-02;  3.9717539E+04;  0.0000000E+00;  1.6054840E+01;  4.0000000E+04;  0.0000000E+00;  3.9976469E+04;  1.3827664E-02;  0.0000000E+00; -1.2114197E-03;  2.3354119E+04;
  1.3061462E-01;  9.9999998E-03; -2.8953302E-01;3240;  3.8728439E-03;  0.0000000E+00;  9.5410924E-04;  9.9665149E+02;  1.0000000E-01; -2.7741931E+03;3;  2.1843155E+01;  0.0000000E+00;  4.2691631E+00;0;  1.2063462E-02;  3.9736285E+04;  0.0000000E+00;  1.6097504E+01;  4.0000000E+04;  0.0000000E+00;  3.9997953E+04;  1.3607329E-02;  0.0000000E+00; -1.5438665E-03;  2.3313055E+04;
  1.3070951E-01;  9.9999998E-03; -2.7962038E-01;3241;  4.0816204E-03;  0.0000000E+00;  6.4110535E-04;  9.9717761E+02;  1.0000000E-01; -2.3383042E+03;3;  1.7647243E+01;  0.0000000E+00; -1.0954840E+01;0;  1.1220742E-02;  3.9761570E+04;  0.0000000E+00;  1.4857361E+01;  4.0000000E+04;  0.0000000E+00;  4.0015539E+04;  1.3005722E-02;  0.0000000E+00; -1.7849798E-03;  2.1658473E+04;
  1.4065853E-01;  9.9999998E-03; -2.9941833E-01;3300;  3.9879587E-03;  0.0000000E+00;  1.3918336E-03;  9.9574908E+02;  1.0000000E-01; -3.5218264E+03;3;  3.0780817E+01;  0.0000000E+00;  1.5482502E+01;0;  1.3794281E-02;  3.9669957E+04;  0.0000000E+00;  2.4634300E+01;  4.0000000E+04;  0.0000000E+00;  3.9994109E+04;  1.5610657E-02;  0.0000000E+00; -1.8163761E-03;  3.5634133E+04;
  1.4058891E-01;  9.9999998E-03; -2.8939795E-01;3301;  4.0080766E-03;  0.0000000E+00;  9.9909096E-04;  9.9648120E+02;  1.0000000E-01; -2.9152756E+03;3;  2.6886633E+01;  0.0000000E+00; -6.2414737E+00;0;  1.2439923E-02;  3.9705828E+04;  0.0000000E+00;  2.3984203E+01;  4.0000000E+04;  0.0000000E+00;  4.0015879E+04;  1.4430068E-02;  0.0000000E+00; -1.9901451E-03;  3.4872539E+04;
  1.4065139E-01;  9.9999998E-03; -2.7949759E-01;3302;  4.0415120E-03;  0.0000000E+00;  6.4982224E-04;  9.9705139E+02;  1.0000000E-01; -2.4428445E+03;3;  2.1086800E+01;  0.0000000E+00; -1.9301779E+01;0;  1.1128416E-02;  3.9736086E+04;  0.0000000E+00;  2.1297419E+01;  4.0000000E+04;  0.0000000E+00;  4.0031895E+04;  1.3232553E-02;  0.0000000E+00; -2.1041376E-03;  3.1263982E+04;
  1.5070046E-01;  9.9999998E-03; -2.9938915E-01;3361;  4.1881469E-03;  0.0000000E+00;  1.2522398E-03;  9.9541760E+02;  1.0000000E-01; -3.7964358E+03;3;  4.3284714E+01;  0.0000000E+00;  4.8204179E+00;0;  1.5465823E-02;  3.9622078E+04;  0.0000000E+00;  3.5084961E+01;  4.0000000E+04;  0.0000000E+00;  4.0017238E+04;  1.7792540E-02;  0.0000000E+00; -2.3267167E-03;  5.0806148E+04;
  1.5054578E-01;  9.9999998E-03; -2.8936073E-01;3362;  3.9247400E-03;  0.0000000E+00;  8.0005248E-04;  9.9648737E+02;  1.0000000E-01; -2.9101399E+03;3;  3.7293980E+01;  0.0000000E+00; -1.9077045E+01;0;  1.3109416E-02;  3.9682801E+04;  0.0000000E+00;  3.3575241E+01;  4.0000000E+04;  0.0000000E+00;  4.0040699E+04;  1.5371453E-02;  0.0000000E+00; -2.2620372E-03;  4.9055727E+04;
  1.5059942E-01;  9.9999998E-03; -2.7944523E-01;3363;  3.8157655E-03;  0.0000000E+00;  4.7999542E-04;  9.9709570E+02;  1.0000000E-01; -2.4061541E+03;3;  2.8093555E+01;  0.0000000E+00; -2.9940491E+01;0;  1.1310698E-02;  3.9717844E+04;  0.0000000E+00;  2.8753311E+01;  4.0000000E+04;  0.0000000E+00;  4.0052930E+04;  1.3562794E-02;  0.0000000E+00; -2.2520963E-03;  4.2501781E+04;
  1.6085739E-01;  9.9999998E-03; -2.9958689E-01;3422;  4.5590415E-03;  0.0000000E+00;  9.0175692E-04;  9.9451923E+02;  1.0000000E-01; -4.5407109E+03;3;  5.8964165E+01;  0.0000000E+00;  1.1837024E+01;0;  1.8869165E-02;  3.9544480E+04;  0.0000000E+00;  4.3346802E+01;  4.0000000E+04;  0.0000000E+00;  4.0023043E+04;  2.1380009E-02;  0.0000000E+00; -2.5108443E-03;  6.2864430E+04;
  1.6059460E-01;  9.9999998E-03; -2.8950849E-01;3423;  3.8616192E-03;  0.0000000E+00;  3.4234620E-04;  9.9626031E+02;  1.0000000E-01; -3.0982827E+03;3;  5.1450653E+01;  0.0000000E+00; -2.1018097E+01;0;  1.4817756E-02;  3.9651246E+04;  0.0000000E+00;  4.2503120E+01;  4.0000000E+04;  0.0000000E+00;  4.0053512E+04;  1.6830232E-02;  0.0000000E+00; -2.0124768E-03;  6.2269355E+04;
  1.6064422E-01;  9.9999998E-03; -2.7952167E-01;3424;  3.4976751E-03;  0.0000000E+00;  7.4483360E-05;  9.9703461E+02;  1.0000000E-01; -2.4567700E+03;3;  3.8065422E+01;  0.0000000E+00; -3.5308479E+01;0;  1.2187112E-02;  3.9696477E+04;  0.0000000E+00;  3.5759056E+01;  4.0000000E+04;  0.0000000E+00;  4.0069652E+04;  1.4106467E-02;  0.0000000E+00; -1.9193555E-03;  5.3128156E+04;
  1.7129950E-01;  9.9999998E-03; -2.9988796E-01;3483;  5.2095680E-03;  0.0000000E+00;  9.0862537E-04;  9.9206561E+02;  1.0000000E-01; -6.5734932E+03;3;  6.4916000E+01;  0.0000000E+00;  4.8535965E+01;0;  2.3973333E-02;  3.9372004E+04;  0.0000000E+00;  4.1065903E+01;  4.0000000E+04;  0.0000000E+00;  3.9998996E+04;  2.7219258E-02;  0.0000000E+00; -3.2459251E-03;  5.9891398E+04;
  1.7088759E-01;  9.9999998E-03; -2.8979278E-01;3484;  4.3474836E-03;  0.0000000E+00; -6.3690950E-06;  9.9504504E+02;  1.0000000E-01; -4.1050688E+03;3;  6.0318680E+01;  0.0000000E+00;  1.9259228E+00;0;  1.8938588E-02;  3.9569277E+04;  0.0000000E+00;  4.4755054E+01;  4.0000000E+04;  0.0000000E+00;  4.0036492E+04;  2.0422973E-02;  0.0000000E+00; -1.4843839E-03;  6.5890039E+04;
  1.7084181E-01;  9.9999998E-03; -2.7974138E-01;3485;  3.3263585E-03;  0.0000000E+00; -4.1034020E-04;  9.9645172E+02;  1.0000000E-01; -2.9396699E+03;3;  4.5482456E+01;  0.0000000E+00; -2.4463867E+01;0;  1.4378427E-02;  3.9655305E+04;  0.0000000E+00;  3.8772663E+01;  4.0000000E+04;  0.0000000E+00;  4.0063008E+04;  1.5324924E-02;  0.0000000E+00; -9.4649731E-04;  5.7863445E+04;
  1.8171161E-01;  9.9999998E-03; -2.9993469E-01;3544;  4.2625139E-03;  0.0000000E+00;  7.9197751E-04;  9.8974927E+02;  1.0000000E-01; -8.4925498E+03;3;  6.8888733E+01;  0.0000000E+00;  6.7140648E+01;0;  2.3159888E-02;  3.9179848E+04;  0.0000000E+00;  3.2008945E+01;  4.0000000E+04;  0.0000000E+00;  4.0004844E+04;  2.6844937E-02;  0.0000000E+00; -3.6850506E-03;  4.7073234E+04;
  1.8135814E-01;  9.9999998E-03; -2.8997886E-01;3545;  4.7941473E-03;  0.0000000E+00;  2.1750273E-05;  9.9301788E+02;  1.0000000E-01; -5.7845278E+03;3;  5.8274063E+01;  0.0000000E+00;  3.3147968E+01;0;  2.3275934E-02;  3.9429727E+04;  0.0000000E+00;  3.6703140E+01;  4.0000000E+04;  0.0000000E+00;  4.0013832E+04;  2.4774466E-02;  0.0000000E+00; -1.4985310E-03;  5.5006832E+04;
  1.8115383E-01;  9.9999998E-03; -2.7996951E-01;3546;  3.5488296E-03;  0.0000000E+00; -5.4393546E-04;  9.9530328E+02;  1.0000000E-01; -3.8911492E+03;3;  4.4164120E+01;  0.0000000E+00;  9.2449021E-01;0;  1.7782511E-02;  3.9590836E+04;  0.0000000E+00;  3.4863483E+01;  4.0000000E+04;  0.0000000E+00;  4.0034508E+04;  1.7922431E-02;  0.0000000E+00; -1.3992027E-04;  5.2654785E+04;
  1.9181141E-01;  9.9999998E-03; -2.9990700E-01;3605;  1.3659743E-03;  0.0000000E+00; -1.0779075E-03;  9.8912341E+02;  1.0000000E-01; -9.0110537E+03;3;  7.3756187E+01;  0.0000000E+00;  5.6462513E+01;0;  1.8948700E-02;  3.9095258E+04;  0.0000000E+00;  2.4227997E+01;  4.0000000E+04;  0.0000000E+00;  4.0034090E+04;  1.5149467E-02;  0.0000000E+00;  3.7992336E-03;  3.5298988E+04;
  1.9165391E-01;  9.9999998E-03; -2.9000038E-01;3606;  3.5737667E-03;  0.0000000E+00; -2.1936095E-04;  9.9182880E+02;  1.0000000E-01; -6.7696851E+03;3;  5.3490181E+01;  0.0000000E+00;  4.2012539E+01;0;  2.2628644E-02;  3.9328023E+04;  0.0000000E+00;  2.5375578E+01;  4.0000000E+04;  0.0000000E+00;  4.0018266E+04;  2.2934103E-02;  0.0000000E+00; -3.0545820E-04;  3.9020020E+04;
  1.9136174E-01;  9.9999998E-03; -2.8008461E-01;3607;  3.9023792E-03;  0.0000000E+00; -4.1012123E-04;  9.9445605E+02;  1.0000000E-01; -4.5930552E+03;3;  3.6688057E+01;  0.0000000E+00;  2.1609289E+01;0;  2.1318745E-02;  3.9546973E+04;  0.0000000E+00;  2.7573683E+01;  4.0000000E+04;  0.0000000E+00;  4.0010195E+04;  2.1201810E-02;  0.0000000E+00;  1.1693523E-04;  4.2531031E+04;
  2.0164470E-01;  9.9999998E-03; -3.0000862E-01;3666;  2.3026299E-03;  0.0000000E+00; -1.4291789E-03;  9.8962018E+02;  1.0000000E-01; -8.5995098E+03;3;  6.0620285E+01;  0.0000000E+00;  6.6270119E+01;0;  2.8931627E-02;  3.9141754E+04;  0.0000000E+00;  2.1357019E+01;  4.0000000E+04;  0.0000000E+00;  4.0023992E+04;  2.1451814E-02;  0.0000000E+00;  7.4798129E-03;  2.9333693E+04;
  2.0163724E-01;  9.9999998E-03; -2.9004422E-01;3667;  3.1477294E-03;  0.0000000E+00; -5.5796234E-04;  9.9186377E+02;  1.0000000E-01; -6.7406982E+03;3;  4.3142300E+01;  0.0000000E+00;  4.5875126E+01;0;  2.5312481E-02;  3.9331496E+04;  0.0000000E+00;  1.8324451E+01;  4.0000000E+04;  0.0000000E+00;  4.0015891E+04;  2.3170670E-02;  0.0000000E+00;  2.1418114E-03;  2.7906275E+04;
  2.0140296E-01;  9.9999998E-03; -2.8012282E-01;3668;  4.5187278E-03;  0.0000000E+00; -2.8923826E-04;  9.9431256E+02;  1.0000000E-01; -4.7119160E+03;3;  2.7723091E+01;  0.0000000E+00;  3.1631521E+01;0;  2.5530469E-02;  3.9548328E+04;  0.0000000E+00;  2.1766891E+01;  4.0000000E+04;  0.0000000E+00;  3.9996480E+04;  2.5158644E-02;  0.0000000E+00;  3.7182460E-04;  3.4051699E+04;
  2.1154191E-01;  9.9999998E-03; -3.0004892E-01;3727;  4.9230210E-03;  0.0000000E+00; -2.0759973E-04;  9.9044672E+02;  1.0000000E-01; -7.9147393E+03;3;  4.4076942E+01;  0.0000000E+00;  7.0652992E+01;0;  3.7687782E-02;  3.9215391E+04;  0.0000000E+00;  1.8357512E+01;  4.0000000E+04;  0.0000000E+00;  4.0015363E+04;  3.6301330E-02;  0.0000000E+00;  1.3864522E-03;  2.3392879E+04;
  2.1153770E-01;  9.9999998E-03; -2.9006866E-01;3728;  4.2512519E-03;  0.0000000E+00; -1.2572414E-04;  9.9253961E+02;  1.0000000E-01; -6.1808130E+03;3;  3.0877184E+01;  0.0000000E+00;  4.7678955E+01;0;  2.9437667E-02;  3.9391273E+04;  0.0000000E+00;  1.5481649E+01;  4.0000000E+04;  0.0000000E+00;  4.0008738E+04;  2.8892614E-02;  0.0000000E+00;  5.4505339E-04;  2.2657377E+04;
  2.1140918E-01;  9.9999998E-03; -2.8011319E-01;3729;  4.7930032E-03;  0.0000000E+00; -7.1285540E-05;  9.9457733E+02;  1.0000000E-01; -4.4925645E+03;3;  1.9488436E+01;  0.0000000E+00;  3.1738028E+01;0;  2.7489537E-02;  3.9571762E+04;  0.0000000E+00;  1.7150131E+01;  4.0000000E+04;  0.0000000E+00;  3.9994672E+04;  2.7527299E-02;  0.0000000E+00; -3.7761172E-05;  2.6892098E+04;
  2.2151233E-01;  9.9999998E-03; -3.0004087E-01;3788;  5.2359868E-03;  0.0000000E+00;  1.0565963E-04;  9.9151312E+02;  1.0000000E-01; -7.0312085E+03;3;  2.9506481E+01;  0.0000000E+00;  6.0357109E+01;0;  3.7243519E-02;  3.9298270E+04;  0.0000000E+00;  1.4356774E+01;  4.0000000E+04;  0.0000000E+00;  4.0018699E+04;  3.7515476E-02;  0.0000000E+00; -2.7195778E-04;  1.7449926E+04;
  2.2150144E-01;  9.9999998E-03; -2.9005954E-01;3789;  4.9223290E-03;  0.0000000E+00;  1.0237731E-04;  9.9336414E+02;  1.0000000E-01; -5.4976719E+03;3;  1.9802856E+01;  0.0000000E+00;  4.1340729E+01;0;  3.1431478E-02;  3.9456598E+04;  0.0000000E+00;  1.2011483E+01;  4.0000000E+04;  0.0000000E+00;  4.0010758E+04;  3.1834479E-02;  0.0000000E+00; -4.0300289E-04;  1.7133787E+04;
  2.2141378E-01;  9.9999998E-03; -2.8008714E-01;3790;  4.8124446E-03;  0.0000000E+00;  6.8513771E-05;  9.9508142E+02;  1.0000000E-01; -4.0749465E+03;3;  1.1988620E+01;  0.0000000E+00;  2.6568808E+01;0;  2.8115179E-02;  3.9608426E+04;  0.0000000E+00;  1.3048852E+01;  4.0000000E+04;  0.0000000E+00;  3.9999922E+04;  2.8374296E-02;  0.0000000E+00; -2.5911667E-04;  2.0431061E+04;
  2.3150244E-01;  9.9999998E-03; -3.0002210E-01;3849;  5.1216441E-03;  0.0000000E+00;  2.5488163E-04;  9.9278400E+02;  1.0000000E-01; -5.9783003E+03;3;  1.6708389E+01;  0.0000000E+00;  4.6029068E+01;0;  3.4622487E-02;  3.9396594E+04;  0.0000000E+00;  9.8094683E+00;  4.0000000E+04;  0.0000000E+00;  4.0024277E+04;  3.5664476E-02;  0.0000000E+00; -1.0419914E-03;  1.1995412E+04;
  2.3148502E-01;  9.9999998E-03; -2.9003942E-01;3850;  4.9020941E-03;  0.0000000E+00;  2.2358849E-04;  9.9434332E+02;  1.0000000E-01; -4.6864355E+03;3;  1.0127415E+01;  0.0000000E+00;  3.1546040E+01;0;  3.0471403E-02;  3.9532480E+04;  0.0000000E+00;  8.1812077E+00;  4.0000000E+04;  0.0000000E+00;  4.0015496E+04;  3.1294230E-02;  0.0000000E+00; -8.2282769E-04;  1.1877260E+04;
  2.3141131E-01;  9.9999998E-03; -2.8005889E-01;3851;  4.7868262E-03;  0.0000000E+00;  1.5743672E-04;  9.9574396E+02;  1.0000000E-01; -3.5260730E+03;3;  5.4298058E+00;  0.0000000E+00;  1.9663872E+01;0;  2.8221564E-02;  3.9657562E+04;  0.0000000E+00;  9.3283052E+00;  4.0000000E+04;  0.0000000E+00;  4.0005836E+04;  2.8495409E-02;  0.0000000E+00; -2.7384493E-04;  1.4829325E+04;
  2.4148506E-01;  9.9999998E-03; -3.0000749E-01;3910;  5.0589582E-03;  0.0000000E+00;  3.9565249E-04;  9.9413910E+02;  1.0000000E-01; -4.8556650E+03;3;  5.8182631E+00;  0.0000000E+00;  3.2676414E+01;0;  3.1799637E-02;  3.9505039E+04;  0.0000000E+00;  5.7053328E+00;  4.0000000E+04;  0.0000000E+00;  4.0027008E+04;  3.3814758E-02;  0.0000000E+00; -2.0151199E-03;  7.8036001E+03;
  2.4145894E-01;  9.9999998E-03; -2.9002160E-01;3911;  4.9170754E-03;  0.0000000E+00;  3.4636169E-04;  9.9540790E+02;  1.0000000E-01; -3.8044851E+03;3;  2.2606997E+00;  0.0000000E+00;  2.2153446E+01;0;  2.9100716E-02;  3.9617730E+04;  0.0000000E+00;  5.0093985E+00;  4.0000000E+04;  0.0000000E+00;  4.0018227E+04;  3.0577278E-02;  0.0000000E+00; -1.4765625E-03;  7.9945381E+03;
  2.4139725E-01;  9.9999998E-03; -2.8003475E-01;3912;  4.7524422E-03;  0.0000000E+00;  2.8246257E-04;  9.9648132E+02;  1.0000000E-01; -2.9151768E+03;3;  1.5108174E-01;  0.0000000E+00;  1.3072409E+01;0;  2.7534042E-02;  3.9714234E+04;  0.0000000E+00;  6.0890093E+00;  4.0000000E+04;  0.0000000E+00;  4.0010242E+04;  2.8300300E-02;  0.0000000E+00; -7.6625933E-04;  1.0183898E+04;
  2.5145805E-01;  9.9999998E-03; -2.9999781E-01;3971;  4.9696984E-03;  0.0000000E+00;  5.2313932E-04;  9.9545312E+02;  1.0000000E-01; -3.7670046E+03;3; -2.2103119E+00;  0.0000000E+00;  2.1543114E+01;0;  2.9027656E-02;  3.9613023E+04;  0.0000000E+00;  2.3090320E+00;  4.0000000E+04;  0.0000000E+00;  4.0026211E+04;  3.2121744E-02;  0.0000000E+00; -3.0940888E-03;  4.8128931E+03;
  2.5142586E-01;  9.9999998E-03; -2.9000795E-01;3972;  4.8630740E-03;  0.0000000E+00;  4.8674329E-04;  9.9642938E+02;  1.0000000E-01; -2.9581880E+03;3; -3.2778080E+00;  0.0000000E+00;  1.4173075E+01;0;  2.7187753E-02;  3.9701230E+04;  0.0000000E+00;  2.3705697E+00;  4.0000000E+04;  0.0000000E+00;  4.0019363E+04;  2.9772962E-02;  0.0000000E+00; -2.5852080E-03;  4.9858804E+03;
  2.5135440E-01;  9.9999998E-03; -2.8001654E-01;3973;  4.8115910E-03;  0.0000000E+00;  4.3319023E-04;  9.9722961E+02;  1.0000000E-01; -2.2951943E+03;3; -3.4016476E+00;  0.0000000E+00;  7.8609352E+00;0;  2.6544148E-02;  3.9774121E+04;  0.0000000E+00;  4.1971860E+00;  4.0000000E+04;  0.0000000E+00;  4.0013199E+04;  2.8321672E-02;  0.0000000E+00; -1.7775246E-03;  7.5078462E+03;
  2.6141977E-01;  9.9999998E-03; -2.9999152E-01;4032;  4.8375190E-03;  0.0000000E+00;  6.1954430E-04;  9.9662543E+02;  1.0000000E-01; -2.7957727E+03;3; -7.0846734E+00;  0.0000000E+00;  1.3080348E+01;0;  2.7047455E-02;  3.9712777E+04;  0.0000000E+00; -2.7393252E-01;  4.0000000E+04;  0.0000000E+00;  4.0024137E+04;  3.1011362E-02;  0.0000000E+00; -3.9639072E-03;  3.3146616E+03;
  2.6137233E-01;  9.9999998E-03; -2.8999838E-01;4033;  4.8394585E-03;  0.0000000E+00;  5.9537590E-04;  9.9735242E+02;  1.0000000E-01; -2.1934688E+03;3; -6.4150500E+00;  0.0000000E+00;  8.2427416E+00;0;  2.6008289E-02;  3.9779074E+04;  0.0000000E+00;  8.7598634E-01;  4.0000000E+04;  0.0000000E+00;  4.0018199E+04;  2.9558280E-02;  0.0000000E+00; -3.5499916E-03;  3.3924395E+03;
  2.6129180E-01;  9.9999998E-03; -2.8000301E-01;4034;  4.8206332E-03;  0.0000000E+00;  5.4657448E-04;  9.9789471E+02;  1.0000000E-01; -1.7441976E+03;3; -5.2642336E+00;  0.0000000E+00;  4.0151362E+00;0;  2.5906196E-02;  3.9829109E+04;  0.0000000E+00;  3.0458846E+00;  4.0000000E+04;  0.0000000E+00;  4.0013754E+04;  2.8558407E-02;  0.0000000E+00; -2.6522111E-03;  5.8199351E+03;
  2.7135873E-01;  9.9999998E-03; -2.9998758E-01;4093;  4.7461120E-03;  0.0000000E+00;  6.7956158E-04;  9.9762006E+02;  1.0000000E-01; -1.9717467E+03;3; -9.1551933E+00;  0.0000000E+00;  7.2518663E+00;0;  2.6657380E-02;  3.9799852E+04;  0.0000000E+00; -1.6546979E+00;  4.0000000E+04;  0.0000000E+00;  4.0020270E+04;  3.1084247E-02;  0.0000000E+00; -4.4268668E-03;  3.0925493E+03;
  2.7128327E-01;  9.9999998E-03; -2.8999180E-01;4094;  4.8549594E-03;  0.0000000E+00;  6.5830286E-04;  9.9812903E+02;  1.0000000E-01; -1.5500796E+03;3; -7.4608431E+00;  0.0000000E+00;  4.2483974E+00;0;  2.6165336E-02;  3.9846434E+04;  0.0000000E+00;  8.1382197E-01;  4.0000000E+04;  0.0000000E+00;  4.0016078E+04;  3.0219635E-02;  0.0000000E+00; -4.0542982E-03;  3.0768896E+03;
  2.7119997E-01;  9.9999998E-03; -2.7999347E-01;4095;  4.8087151E-03;  0.0000000E+00;  6.0128170E-04;  9.9843439E+02;  1.0000000E-01; -1.2970991E+03;3; -5.6787224E+00;  0.0000000E+00;  1.5368315E+00;0;  2.6393011E-02;  3.9874590E+04;  0.0000000E+00;  2.7708840E+00;  4.0000000E+04;  0.0000000E+00;  4.0013637E+04;  2.9396635E-02;  0.0000000E+00; -3.0036233E-03;  5.2185889E+03;
  2.8123829E-01;  9.9999998E-03; -2.9998544E-01;4154;  4.8108096E-03;  0.0000000E+00;  7.1548857E-04;  9.9843457E+02;  1.0000000E-01; -1.2969509E+03;3; -9.0817442E+00;  0.0000000E+00;  3.6667180E+00;0;  2.8133053E-02;  3.9873363E+04;  0.0000000E+00; -8.5701275E-01;  4.0000000E+04;  0.0000000E+00;  4.0015902E+04;  3.2701600E-02;  0.0000000E+00; -4.5685470E-03;  2.1421724E+03;
  2.8116181E-01;  9.9999998E-03; -2.8998727E-01;4155;  4.8245913E-03;  0.0000000E+00;  6.7765429E-04;  9.9869843E+02;  1.0000000E-01; -1.0783398E+03;3; -6.9445043E+00;  0.0000000E+00;  1.7649820E+00;0;  2.7853318E-02;  3.9897027E+04;  0.0000000E+00;  1.4433155E+00;  4.0000000E+04;  0.0000000E+00;  4.0013699E+04;  3.1847727E-02;  0.0000000E+00; -3.9944085E-03;  3.4089175E+03;
  2.8109857E-01;  9.9999998E-03; -2.7998704E-01;4156;  4.7435691E-03;  0.0000000E+00;  6.1036949E-04;  9.9879236E+02;  1.0000000E-01; -1.0005149E+03;3; -5.0459399E+00;  0.0000000E+00;  1.5734351E-01;0;  2.8217182E-02;  3.9905047E+04;  0.0000000E+00;  2.5253565E+00;  4.0000000E+04;  0.0000000E+00;  4.0012984E+04;  3.1073626E-02;  0.0000000E+00; -2.8564446E-03;  4.6139473E+03;
  2.9111785E-01;  9.9999998E-03; -2.9998365E-01;4215;  4.6769204E-03;  0.0000000E+00;  7.1804161E-04;  9.9892871E+02;  1.0000000E-01; -8.8753046E+02;3; -7.4707880E+00;  0.0000000E+00;  1.4932098E+00;0;  3.1199602E-02;  3.9919035E+04;  0.0000000E+00; -7.0718277E-01;  4.0000000E+04;  0.0000000E+00;  4.0012816E+04;  3.5369981E-02;  0.0000000E+00; -4.1703787E-03;  1.6913007E+03;
  2.9106581E-01;  9.9999998E-03; -2.8998402E-01;4216;  4.6736859E-03;  0.0000000E+00;  6.6644378E-04;  9.9899030E+02;  1.0000000E-01; -8.3651953E+02;3; -5.4546137E+00;  0.0000000E+00;  4.1015828E-01;0;  3.1112585E-02;  3.9923281E+04;  0.0000000E+00;  9.3076211E-01;  4.0000000E+04;  0.0000000E+00;  4.0012492E+04;  3.4585614E-02;  0.0000000E+00; -3.4730283E-03;  2.4888193E+03;
  2.9101664E-01;  9.9999998E-03; -2.7998292E-01;4217;  4.6649398E-03;  0.0000000E+00;  5.8910716E-04;  9.9895123E+02;  1.0000000E-01; -8.6886432E+02;3; -3.8235698E+00;  0.0000000E+00; -4.1465721E-01;0;  3.1470396E-02;  3.9918738E+04;  0.0000000E+00;  1.7172805E+00;  4.0000000E+04;  0.0000000E+00;  4.0012602E+04;  3.3809789E-02;  0.0000000E+00; -2.3393934E-03;  3.3359888E+03;
  3.0107996E-01;  9.9999998E-03; -2.9998201E-01;4276;  4.4612717E-03;  0.0000000E+00;  7.0934469E-04;  9.9908826E+02;  1.0000000E-01; -7.5538605E+02;3; -5.1734953E+00;  0.0000000E+00;  4.2392284E-01;0;  3.5888724E-02;  3.9934336E+04;  0.0000000E+00; -2.0347569E+00;  4.0000000E+04;  0.0000000E+00;  4.0011246E+04;  3.9433409E-02;  0.0000000E+00; -3.5446864E-03;  2.8293279E+03;
  3.0103907E-01;  9.9999998E-03; -2.8998184E-01;4277;  4.5516919E-03;  0.0000000E+00;  6.4311508E-04;  9.9904993E+02;  1.0000000E-01; -7.8713824E+02;3; -3.6532738E+00;  0.0000000E+00; -1.1357937E-01;0;  3.5877906E-02;  3.9928809E+04;  0.0000000E+00; -4.8472682E-01;  4.0000000E+04;  0.0000000E+00;  4.0011746E+04;  3.8618650E-02;  0.0000000E+00; -2.7407452E-03;  1.5582146E+03;
  3.0099744E-01;  9.9999998E-03; -2.7998075E-01;4278;  4.6387687E-03;  0.0000000E+00;  5.4823060E-04;  9.9895276E+02;  1.0000000E-01; -8.6762976E+02;3; -2.4639707E+00;  0.0000000E+00; -4.7145003E-01;0;  3.6096200E-02;  3.9918953E+04;  0.0000000E+00;  3.7446210E-01;  4.0000000E+04;  0.0000000E+00;  4.0012359E+04;  3.7647083E-02;  0.0000000E+00; -1.5508845E-03;  1.8201287E+03;
  3.1112701E-01;  9.9999998E-03; -2.9998079E-01;4337;  4.4239573E-03;  0.0000000E+00;  7.0943643E-04;  9.9904883E+02;  1.0000000E-01; -7.8802710E+02;3; -3.0118899E+00;  0.0000000E+00;  8.8059500E-02;0;  4.1782960E-02;  3.9930734E+04;  0.0000000E+00; -3.0178065E+00;  4.0000000E+04;  0.0000000E+00;  4.0010996E+04;  4.4787031E-02;  0.0000000E+00; -3.0040701E-03;  4.2704590E+03;
  3.1107172E-01;  9.9999998E-03; -2.8998074E-01;4338;  4.5629069E-03;  0.0000000E+00;  6.1502500E-04;  9.9897284E+02;  1.0000000E-01; -8.5098828E+02;3; -2.0508227E+00;  0.0000000E+00; -1.5162493E-01;0;  4.1811250E-02;  3.9922148E+04;  0.0000000E+00; -1.4615771E+00;  4.0000000E+04;  0.0000000E+00;  4.0012023E+04;  4.3690588E-02;  0.0000000E+00; -1.8793400E-03;  2.4261145E+03;
  3.1102082E-01;  9.9999998E-03; -2.7998018E-01;4339;  4.7251252E-03;  0.0000000E+00;  5.0182012E-04;  9.9886932E+02;  1.0000000E-01; -9.3676361E+02;3; -1.2919127E+00;  0.0000000E+00; -2.9458863E-01;0;  4.1701082E-02;  3.9911316E+04;  0.0000000E+00; -4.9046734E-01;  4.0000000E+04;  0.0000000E+00;  4.0012652E+04;  4.2360529E-02;  0.0000000E+00; -6.5944815E-04;  1.7333850E+03;
  3.2106492E-01;  9.9999998E-03; -2.7998084E-01;4400;  5.0707688E-03;  0.0000000E+00;  5.0440361E-04;  9.9876178E+02;  1.0000000E-01; -1.0258475E+03;3; -2.6379350E-01;  0.0000000E+00; -2.4702536E-02;0;  4.7123209E-02;  3.9901094E+04;  0.0000000E+00; -6.6658551E-01;  4.0000000E+04;  0.0000000E+00;  4.0012828E+04;  4.7517333E-02;  0.0000000E+00; -3.9412561E-04;  1.9000232E+03;
  3.2109863E-01;  9.9999998E-03; -2.8998065E-01;4399;  4.7370358E-03;  0.0000000E+00;  6.0383789E-04;  9.9885498E+02;  1.0000000E-01; -9.4861517E+02;3; -8.7160951E-01;  0.0000000E+00; -2.1130050E-02;0;  4.7989458E-02;  3.9910855E+04;  0.0000000E+00; -1.3819312E+00;  4.0000000E+04;  0.0000000E+00;  4.0012070E+04;  4.9213171E-02;  0.0000000E+00; -1.2237132E-03;  2.4576265E+03;
  3.2113296E-01;  9.9999998E-03; -2.9998031E-01;4398;  4.5916736E-03;  0.0000000E+00;  7.1829418E-04;  9.9894366E+02;  1.0000000E-01; -8.7513574E+02;3; -1.4209350E+00;  0.0000000E+00;  8.2249574E-02;0;  4.8105538E-02;  3.9920453E+04;  0.0000000E+00; -2.3731146E+00;  4.0000000E+04;  0.0000000E+00;  4.0011398E+04;  5.0645467E-02;  0.0000000E+00; -2.5399283E-03;  3.5702839E+03;
  3.3113223E-01;  9.9999998E-03; -2.9998025E-01;4459;  5.0051115E-03;  0.0000000E+00;  7.5113931E-04;  9.9879529E+02;  1.0000000E-01; -9.9809521E+02;3; -2.5574303E-01;  0.0000000E+00;  1.8024367E-01;0;  5.3841200E-02;  3.9905293E+04;  0.0000000E+00; -1.4730721E+00;  4.0000000E+04;  0.0000000E+00;  4.0012352E+04;  5.6224428E-02;  0.0000000E+00; -2.3832268E-03;  2.6174934E+03;
  3.3110866E-01;  9.9999998E-03; -2.8998116E-01;4460;  5.4545910E-03;  0.0000000E+00;  6.9367856E-04;  9.9872577E+02;  1.0000000E-01; -1.0556738E+03;3;  1.9381647E-01;  0.0000000E+00;  1.7457487E-01;0;  5.2442208E-02;  3.9897691E+04;  0.0000000E+00; -8.6523175E-01;  4.0000000E+04;  0.0000000E+00;  4.0012949E+04;  5.4545328E-02;  0.0000000E+00; -2.1031182E-03;  2.0884211E+03;
  3.3109131E-01;  9.9999998E-03; -2.7998206E-01;4461;  6.0201949E-03;  0.0000000E+00;  6.5120793E-04;  9.9866718E+02;  1.0000000E-01; -1.1042157E+03;3;  4.3197381E-01;  0.0000000E+00;  1.4833948E-01;0;  5.0395809E-02;  3.9891082E+04;  0.0000000E+00; -3.7772566E-01;  4.0000000E+04;  0.0000000E+00;  4.0013223E+04;  5.2546725E-02;  0.0000000E+00; -2.1509174E-03;  1.8488188E+03;
  3.4114555E-01;  9.9999998E-03; -2.9998028E-01;4520;  6.5543461E-03;  0.0000000E+00;  9.1185578E-04;  9.9864813E+02;  1.0000000E-01; -1.1200177E+03;3;  6.5431046E-01;  0.0000000E+00;  2.6476803E-01;0;  5.6510754E-02;  3.9889250E+04;  0.0000000E+00; -7.7617621E-01;  4.0000000E+04;  0.0000000E+00;  4.0014129E+04;  6.0848370E-02;  0.0000000E+00; -4.3376144E-03;  2.1589937E+03;
  3.4113869E-01;  9.9999998E-03; -2.8998175E-01;4521;  6.8704914E-03;  0.0000000E+00;  8.4190705E-04;  9.9861346E+02;  1.0000000E-01; -1.1487083E+03;3;  7.3563868E-01;  0.0000000E+00;  2.3735887E-01;0;  5.5157788E-02;  3.9884586E+04;  0.0000000E+00; -4.0932664E-01;  4.0000000E+04;  0.0000000E+00;  4.0014504E+04;  5.9028167E-02;  0.0000000E+00; -3.8703801E-03;  1.9871367E+03;
  3.4114558E-01;  9.9999998E-03; -2.7998334E-01;4522;  7.0963847E-03;  0.0000000E+00;  7.4965245E-04;  9.9858997E+02;  1.0000000E-01; -1.1681646E+03;3;  7.6622212E-01;  0.0000000E+00;  2.0873731E-01;0;  5.3760584E-02;  3.9882008E+04;  0.0000000E+00; -7.9192251E-02;  4.0000000E+04;  0.0000000E+00;  4.0014562E+04;  5.6887560E-02;  0.0000000E+00; -3.1269765E-03;  1.9250690E+03;
  3.5115740E-01;  9.9999998E-03; -2.9998025E-01;4581;  9.2804376E-03;  0.0000000E+00;  9.7549672E-04;  9.9851672E+02;  1.0000000E-01; -1.2288541E+03;3;  1.2492020E+00;  0.0000000E+00;  3.0294052E-01;0;  5.9450008E-02;  3.9874215E+04;  0.0000000E+00; -3.7860239E-01;  4.0000000E+04;  0.0000000E+00;  4.0016195E+04;  6.3932009E-02;  0.0000000E+00; -4.4820001E-03;  2.1938167E+03;
  3.5116333E-01;  9.9999998E-03; -2.8998232E-01;4582;  8.7377112E-03;  0.0000000E+00;  9.0509688E-04;  9.9852020E+02;  1.0000000E-01; -1.2259900E+03;3;  1.1548550E+00;  0.0000000E+00;  2.7357110E-01;0;  5.8069799E-02;  3.9873438E+04;  0.0000000E+00; -1.3522208E-01;  4.0000000E+04;  0.0000000E+00;  4.0016031E+04;  6.2175211E-02;  0.0000000E+00; -4.1054119E-03;  2.1196772E+03;
  3.5120052E-01;  9.9999998E-03; -2.7998462E-01;4583;  8.3669657E-03;  0.0000000E+00;  8.2204177E-04;  9.9853833E+02;  1.0000000E-01; -1.2109781E+03;3;  1.0546825E+00;  0.0000000E+00;  2.4599464E-01;0;  5.6544423E-02;  3.9874582E+04;  0.0000000E+00;  8.7433428E-02;  4.0000000E+04;  0.0000000E+00;  4.0015590E+04;  6.0132440E-02;  0.0000000E+00; -3.5880161E-03;  2.0644084E+03;
  3.6118296E-01;  9.9999998E-03; -2.9998106E-01;4642;  1.2607137E-02;  0.0000000E+00;  1.0517491E-03;  9.9840137E+02;  1.0000000E-01; -1.3244564E+03;3;  2.0603397E+00;  0.0000000E+00;  3.3856964E-01;0;  6.0644209E-02;  3.9861477E+04;  0.0000000E+00; -2.3805253E-01;  4.0000000E+04;  0.0000000E+00;  4.0016633E+04;  6.5352589E-02;  0.0000000E+00; -4.7083800E-03;  2.2447346E+03;
  3.6120942E-01;  9.9999998E-03; -2.8998339E-01;4643;  1.1822298E-02;  0.0000000E+00;  9.7391312E-04;  9.9843622E+02;  1.0000000E-01; -1.2955682E+03;3;  1.8498298E+00;  0.0000000E+00;  3.1700963E-01;0;  5.9543826E-02;  3.9863879E+04;  0.0000000E+00; -6.3410401E-02;  4.0000000E+04;  0.0000000E+00;  4.0016477E+04;  6.3828275E-02;  0.0000000E+00; -4.2844471E-03;  2.1903235E+03;
  3.6124578E-01;  9.9999998E-03; -2.7998596E-01;4644;  1.0778969E-02;  0.0000000E+00;  8.9889893E-04;  9.9849091E+02;  1.0000000E-01; -1.2502362E+03;3;  1.6313956E+00;  0.0000000E+00;  2.8506649E-01;0;  5.8094498E-02;  3.9868145E+04;  0.0000000E+00;  1.0199142E-01;  4.0000000E+04;  0.0000000E+00;  4.0015809E+04;  6.2067155E-02;  0.0000000E+00; -3.9726575E-03;  2.1339875E+03;
  3.7117916E-01;  9.9999998E-03; -2.9998147E-01;4703;  1.3395767E-02;  0.0000000E+00;  1.1670828E-03;  9.9830396E+02;  1.0000000E-01; -1.4051454E+03;3;  2.4192863E+00;  0.0000000E+00;  3.4746742E-01;0;  5.9882596E-02;  3.9850719E+04;  0.0000000E+00; -2.0950529E-01;  4.0000000E+04;  0.0000000E+00;  4.0017441E+04;  6.5396436E-02;  0.0000000E+00; -5.5138404E-03;  2.3388540E+03;
  3.7122625E-01;  9.9999998E-03; -2.8998411E-01;4704;  1.3168089E-02;  0.0000000E+00;  1.0902351E-03;  9.9836688E+02;  1.0000000E-01; -1.3529988E+03;3;  2.3525786E+00;  0.0000000E+00;  3.3396900E-01;0;  5.9022751E-02;  3.9855715E+04;  0.0000000E+00; -7.9152212E-02;  4.0000000E+04;  0.0000000E+00;  4.0016961E+04;  6.4160235E-02;  0.0000000E+00; -5.1374836E-03;  2.2556707E+03;
  3.7127405E-01;  9.9999998E-03; -2.7998692E-01;4705;  1.2708743E-02;  0.0000000E+00;  1.0092490E-03;  9.9844409E+02;  1.0000000E-01; -1.2890499E+03;3;  2.1734641E+00;  0.0000000E+00;  3.1977898E-01;0;  5.8049489E-02;  3.9862453E+04;  0.0000000E+00;  4.5522753E-02;  4.0000000E+04;  0.0000000E+00;  4.0016109E+04;  6.2776029E-02;  0.0000000E+00; -4.7265403E-03;  2.1681592E+03;
  3.8119113E-01;  9.9999998E-03; -2.9998139E-01;4764;  1.3488841E-02;  0.0000000E+00;  1.2885374E-03;  9.9822351E+02;  1.0000000E-01; -1.4718102E+03;3;  2.4309666E+00;  0.0000000E+00;  3.6151183E-01;0;  5.8372229E-02;  3.9841691E+04;  0.0000000E+00; -2.0236062E-01;  4.0000000E+04;  0.0000000E+00;  4.0018309E+04;  6.4694919E-02;  0.0000000E+00; -6.3226903E-03;  2.4420232E+03;
  3.8124213E-01;  9.9999998E-03; -2.8998417E-01;4765;  1.3335925E-02;  0.0000000E+00;  1.2170917E-03;  9.9830432E+02;  1.0000000E-01; -1.4048491E+03;3;  2.4293995E+00;  0.0000000E+00;  3.4782490E-01;0;  5.7653569E-02;  3.9848516E+04;  0.0000000E+00; -1.0982352E-01;  4.0000000E+04;  0.0000000E+00;  4.0017363E+04;  6.3720904E-02;  0.0000000E+00; -6.0673375E-03;  2.3420542E+03;
  3.8128629E-01;  9.9999998E-03; -2.7998704E-01;4766;  1.3181284E-02;  0.0000000E+00;  1.1398626E-03;  9.9839935E+02;  1.0000000E-01; -1.3260859E+03;3;  2.4147506E+00;  0.0000000E+00;  3.3595645E-01;0;  5.6993864E-02;  3.9856738E+04;  0.0000000E+00; -1.8927732E-02;  4.0000000E+04;  0.0000000E+00;  4.0016859E+04;  6.2685497E-02;  0.0000000E+00; -5.6916331E-03;  2.2326118E+03;
  3.9122236E-01;  9.9999998E-03; -2.9998103E-01;4825;  1.3512586E-02;  0.0000000E+00;  1.3851542E-03;  9.9815790E+02;  1.0000000E-01; -1.5261296E+03;3;  2.4343963E+00;  0.0000000E+00;  3.6946988E-01;0;  5.7325874E-02;  3.9833980E+04;  0.0000000E+00; -1.8591025E-01;  4.0000000E+04;  0.0000000E+00;  4.0018816E+04;  6.3948900E-02;  0.0000000E+00; -6.6230246E-03;  2.5282749E+03;
  3.9126885E-01;  9.9999998E-03; -2.8998378E-01;4826;  1.3356144E-02;  0.0000000E+00;  1.3314914E-03;  9.9824915E+02;  1.0000000E-01; -1.4505269E+03;3;  2.4302790E+00;  0.0000000E+00;  3.5936481E-01;0;  5.6456190E-02;  3.9841777E+04;  0.0000000E+00; -1.2945919E-01;  4.0000000E+04;  0.0000000E+00;  4.0018035E+04;  6.3177101E-02;  0.0000000E+00; -6.7209117E-03;  2.4220569E+03;
  3.9130688E-01;  9.9999998E-03; -2.7998656E-01;4827;  1.3221454E-02;  0.0000000E+00;  1.2646529E-03;  9.9835199E+02;  1.0000000E-01; -1.3653441E+03;3;  2.4243791E+00;  0.0000000E+00;  3.4924805E-01;0;  5.5891730E-02;  3.9850867E+04;  0.0000000E+00; -7.2209358E-02;  4.0000000E+04;  0.0000000E+00;  4.0017555E+04;  6.2401354E-02;  0.0000000E+00; -6.5096258E-03;  2.3068608E+03;
  4.0124834E-01;  9.9999998E-03; -2.9998037E-01;4886;  1.3484636E-02;  0.0000000E+00;  1.4801491E-03;  9.9809979E+02;  1.0000000E-01; -1.5742765E+03;3;  2.4365792E+00;  0.0000000E+00;  3.6980674E-01;0;  5.6957211E-02;  3.9827961E+04;  0.0000000E+00; -1.6777804E-01;  4.0000000E+04;  0.0000000E+00;  4.0019430E+04;  6.3797139E-02;  0.0000000E+00; -6.8399282E-03;  2.6061265E+03;
  4.0128696E-01;  9.9999998E-03; -2.8998315E-01;4887;  1.3343990E-02;  0.0000000E+00;  1.4251129E-03;  9.9819836E+02;  1.0000000E-01; -1.4925997E+03;3;  2.4328604E+00;  0.0000000E+00;  3.6140311E-01;0;  5.6158643E-02;  3.9836207E+04;  0.0000000E+00; -1.4054365E-01;  4.0000000E+04;  0.0000000E+00;  4.0018602E+04;  6.3146450E-02;  0.0000000E+00; -6.9878073E-03;  2.4877974E+03;
  4.0131435E-01;  9.9999998E-03; -2.7998576E-01;4888;  1.3222780E-02;  0.0000000E+00;  1.3666325E-03;  9.9830261E+02;  1.0000000E-01; -1.4062318E+03;3;  2.4255149E+00;  0.0000000E+00;  3.5632059E-01;0;  5.5555001E-02;  3.9845477E+04;  0.0000000E+00; -1.1018761E-01;  4.0000000E+04;  0.0000000E+00;  4.0017754E+04;  6.2517881E-02;  0.0000000E+00; -6.9628810E-03;  2.3714465E+03;
  4.1126186E-01;  9.9999998E-03; -2.9997978E-01;4947;  1.3440933E-02;  0.0000000E+00;  1.5789940E-03;  9.9806158E+02;  1.0000000E-01; -1.6059299E+03;3;  2.4362087E+00;  0.0000000E+00;  3.7313318E-01;0;  5.7627760E-02;  3.9823445E+04;  0.0000000E+00; -1.5405424E-01;  4.0000000E+04;  0.0000000E+00;  4.0019777E+04;  6.4701498E-02;  0.0000000E+00; -7.0737377E-03;  2.6464746E+03;
  4.1130060E-01;  9.9999998E-03; -2.8998244E-01;4948;  1.3312177E-02;  0.0000000E+00;  1.5201340E-03;  9.9815497E+02;  1.0000000E-01; -1.5285493E+03;3;  2.4295762E+00;  0.0000000E+00;  3.6456165E-01;0;  5.6849919E-02;  3.9831688E+04;  0.0000000E+00; -1.5609661E-01;  4.0000000E+04;  0.0000000E+00;  4.0018930E+04;  6.4088397E-02;  0.0000000E+00; -7.2384775E-03;  2.5329927E+03;
  4.1132763E-01;  9.9999998E-03; -2.7998489E-01;4949;  1.3200194E-02;  0.0000000E+00;  1.4577621E-03;  9.9825922E+02;  1.0000000E-01; -1.4422308E+03;3;  2.4239676E+00;  0.0000000E+00;  3.5738206E-01;0;  5.6258962E-02;  3.9841070E+04;  0.0000000E+00; -1.4788909E-01;  4.0000000E+04;  0.0000000E+00;  4.0017953E+04;  6.3496351E-02;  0.0000000E+00; -7.2373915E-03;  2.4138826E+03;
  4.2127571E-01;  9.9999998E-03; -2.9997927E-01;5008;  1.3403544E-02;  0.0000000E+00;  1.6829529E-03;  9.9804053E+02;  1.0000000E-01; -1.6233615E+03;3;  2.4347582E+00;  0.0000000E+00;  3.7434876E-01;0;  5.9529822E-02;  3.9821406E+04;  0.0000000E+00; -1.1042595E-01;  4.0000000E+04;  0.0000000E+00;  4.0019891E+04;  6.6875219E-02;  0.0000000E+00; -7.3453975E-03;  2.6494392E+03;
  4.2132393E-01;  9.9999998E-03; -2.8998187E-01;5009;  1.3285154E-02;  0.0000000E+00;  1.6135189E-03;  9.9813049E+02;  1.0000000E-01; -1.5488451E+03;3;  2.4279013E+00;  0.0000000E+00;  3.6534187E-01;0;  5.8815077E-02;  3.9829461E+04;  0.0000000E+00; -1.5407485E-01;  4.0000000E+04;  0.0000000E+00;  4.0019062E+04;  6.6236019E-02;  0.0000000E+00; -7.4209427E-03;  2.5375117E+03;
  4.2135692E-01;  9.9999998E-03; -2.7998430E-01;5010;  1.3181670E-02;  0.0000000E+00;  1.5398740E-03;  9.9823199E+02;  1.0000000E-01; -1.4647487E+03;3;  2.4232993E+00;  0.0000000E+00;  3.6071277E-01;0;  5.8240388E-02;  3.9838477E+04;  0.0000000E+00; -1.7553359E-01;  4.0000000E+04;  0.0000000E+00;  4.0018004E+04;  6.5593064E-02;  0.0000000E+00; -7.3526758E-03;  2.4172249E+03;
  4.3130749E-01;  9.9999998E-03; -2.9997903E-01;5069;  1.3398438E-02;  0.0000000E+00;  1.7924936E-03;  9.9804797E+02;  1.0000000E-01; -1.6172382E+03;3;  2.4340940E+00;  0.0000000E+00;  3.7519962E-01;0;  6.2594533E-02;  3.9821898E+04;  0.0000000E+00; -1.4121359E-02;  4.0000000E+04;  0.0000000E+00;  4.0019445E+04;  7.0241325E-02;  0.0000000E+00; -7.6467912E-03;  2.6048518E+03;
  4.3136036E-01;  9.9999998E-03; -2.8998160E-01;5070;  1.3282208E-02;  0.0000000E+00;  1.7080983E-03;  9.9813434E+02;  1.0000000E-01; -1.5456847E+03;3;  2.4266026E+00;  0.0000000E+00;  3.6883396E-01;0;  6.1981607E-02;  3.9829777E+04;  0.0000000E+00; -1.1069213E-01;  4.0000000E+04;  0.0000000E+00;  4.0018531E+04;  6.9543086E-02;  0.0000000E+00; -7.5614783E-03;  2.4892200E+03;
  4.3139642E-01;  9.9999998E-03; -2.7998400E-01;5071;  1.3185045E-02;  0.0000000E+00;  1.6193362E-03;  9.9822827E+02;  1.0000000E-01; -1.4678597E+03;3;  2.4219410E+00;  0.0000000E+00;  3.6236283E-01;0;  6.1412565E-02;  3.9838543E+04;  0.0000000E+00; -1.7003974E-01;  4.0000000E+04;  0.0000000E+00;  4.0017832E+04;  6.8797328E-02;  0.0000000E+00; -7.3847603E-03;  2.3722622E+03;
  4.4136789E-01;  9.9999998E-03; -2.9997900E-01;5130;  1.3456157E-02;  0.0000000E+00;  1.9138095E-03;  9.9808368E+02;  1.0000000E-01; -1.5876588E+03;3;  2.4365988E+00;  0.0000000E+00;  3.7769896E-01;0;  6.6339515E-02;  3.9825738E+04;  0.0000000E+00;  1.1561731E-01;  4.0000000E+04;  0.0000000E+00;  4.0019008E+04;  7.4403271E-02;  0.0000000E+00; -8.0637541E-03;  2.5335559E+03;
  4.4141713E-01;  9.9999998E-03; -2.8998160E-01;5131;  1.3326613E-02;  0.0000000E+00;  1.8094942E-03;  9.9816290E+02;  1.0000000E-01; -1.5219817E+03;3;  2.4281044E+00;  0.0000000E+00;  3.7156236E-01;0;  6.5925285E-02;  3.9832922E+04;  0.0000000E+00; -3.2339729E-02;  4.0000000E+04;  0.0000000E+00;  4.0018094E+04;  7.3654406E-02;  0.0000000E+00; -7.7291187E-03;  2.4049565E+03;
  4.4145021E-01;  9.9999998E-03; -2.7998415E-01;5132;  1.3240204E-02;  0.0000000E+00;  1.6973413E-03;  9.9825458E+02;  1.0000000E-01; -1.4460332E+03;3;  2.4287777E+00;  0.0000000E+00;  3.6256000E-01;0;  6.5480195E-02;  3.9841559E+04;  0.0000000E+00; -1.3039303E-01;  4.0000000E+04;  0.0000000E+00;  4.0016945E+04;  7.2799958E-02;  0.0000000E+00; -7.3197610E-03;  2.2751433E+03;
  4.5146343E-01;  9.9999998E-03; -2.9997906E-01;5191;  1.3785173E-02;  0.0000000E+00;  2.0576317E-03;  9.9814624E+02;  1.0000000E-01; -1.5358085E+03;3;  2.5108933E+00;  0.0000000E+00;  3.8101554E-01;0;  6.9877028E-02;  3.9831883E+04;  0.0000000E+00;  2.4671191E-01;  4.0000000E+04;  0.0000000E+00;  4.0018012E+04;  7.8641132E-02;  0.0000000E+00; -8.7641049E-03;  2.4598752E+03;
  4.5150226E-01;  9.9999998E-03; -2.8998181E-01;5192;  1.3623973E-02;  0.0000000E+00;  1.9362642E-03;  9.9822028E+02;  1.0000000E-01; -1.4744768E+03;3;  2.5028379E+00;  0.0000000E+00;  3.7668422E-01;0;  6.9700323E-02;  3.9838703E+04;  0.0000000E+00;  6.1005298E-02;  4.0000000E+04;  0.0000000E+00;  4.0017180E+04;  7.7898256E-02;  0.0000000E+00; -8.1979362E-03;  2.3008689E+03;
  4.5152441E-01;  9.9999998E-03; -2.7998453E-01;5193;  1.3516242E-02;  0.0000000E+00;  1.7963881E-03;  9.9830432E+02;  1.0000000E-01; -1.4048491E+03;3;  2.4951775E+00;  0.0000000E+00;  3.6787623E-01;0;  6.9541276E-02;  3.9846703E+04;  0.0000000E+00; -6.8537585E-02;  4.0000000E+04;  0.0000000E+00;  4.0016180E+04;  7.6984704E-02;  0.0000000E+00; -7.4434276E-03;  2.1514385E+03;
  4.6153721E-01;  9.9999998E-03; -2.9997894E-01;5252;  1.4912432E-02;  0.0000000E+00;  2.2065705E-03;  9.9821753E+02;  1.0000000E-01; -1.4767484E+03;3;  2.6322608E+00;  0.0000000E+00;  3.7423992E-01;0;  7.2497733E-02;  3.9838691E+04;  0.0000000E+00;  3.5314757E-01;  4.0000000E+04;  0.0000000E+00;  4.0017645E+04;  8.1951737E-02;  0.0000000E+00; -9.4540035E-03;  2.4263562E+03;
  4.6156654E-01;  9.9999998E-03; -2.8998181E-01;5253;  1.4640725E-02;  0.0000000E+00;  2.0823397E-03;  9.9828912E+02;  1.0000000E-01; -1.4174414E+03;3;  2.6135108E+00;  0.0000000E+00;  3.7215385E-01;0;  7.2449781E-02;  3.9845246E+04;  0.0000000E+00;  1.5261726E-01;  4.0000000E+04;  0.0000000E+00;  4.0016812E+04;  8.1313722E-02;  0.0000000E+00; -8.8639380E-03;  2.2402495E+03;
  4.6158218E-01;  9.9999998E-03; -2.7998474E-01;5254;  1.4410685E-02;  0.0000000E+00;  1.9385070E-03;  9.9836627E+02;  1.0000000E-01; -1.3534926E+03;3;  2.6010466E+00;  0.0000000E+00;  3.6951634E-01;0;  7.2402351E-02;  3.9852527E+04;  0.0000000E+00;  4.4720434E-03;  4.0000000E+04;  0.0000000E+00;  4.0015332E+04;  8.0456190E-02;  0.0000000E+00; -8.0538392E-03;  2.0664231E+03;
  4.7154722E-01;  9.9999998E-03; -2.9997858E-01;5313;  1.7899465E-02;  0.0000000E+00;  2.3661086E-03;  9.9827252E+02;  1.0000000E-01; -1.4311694E+03;3;  2.7528331E+00;  0.0000000E+00;  3.5099640E-01;0;  7.3042527E-02;  3.9843633E+04;  0.0000000E+00;  3.9016318E-01;  4.0000000E+04;  0.0000000E+00;  4.0017625E+04;  8.3296254E-02;  0.0000000E+00; -1.0253727E-02;  2.4091775E+03;
  4.7156724E-01;  9.9999998E-03; -2.8998142E-01;5314;  1.7203128E-02;  0.0000000E+00;  2.2461475E-03;  9.9833868E+02;  1.0000000E-01; -1.3763561E+03;3;  2.7039385E+00;  0.0000000E+00;  3.5770187E-01;0;  7.3162802E-02;  3.9849852E+04;  0.0000000E+00;  2.0652078E-01;  4.0000000E+04;  0.0000000E+00;  4.0016516E+04;  8.2874730E-02;  0.0000000E+00; -9.7119268E-03;  2.2333401E+03;
  4.7157943E-01;  9.9999998E-03; -2.7998441E-01;5315;  1.6570482E-02;  0.0000000E+00;  2.1042428E-03;  9.9841339E+02;  1.0000000E-01; -1.3144813E+03;3;  2.6664813E+00;  0.0000000E+00;  3.6005339E-01;0;  7.3361918E-02;  3.9856754E+04;  0.0000000E+00;  6.2425736E-02;  4.0000000E+04;  0.0000000E+00;  4.0015547E+04;  8.2231916E-02;  0.0000000E+00; -8.8700010E-03;  2.0591067E+03;
  4.8151404E-01;  9.9999998E-03; -2.9997808E-01;5374;  2.1508729E-02;  0.0000000E+00;  2.5205384E-03;  9.9828583E+02;  1.0000147E-01; -1.4201573E+03;3;  2.8789356E+00;  0.0000000E+00;  3.2034847E-01;0;  7.1034029E-02;  3.9844230E+04;  0.0000000E+00;  3.3892307E-01;  4.0000000E+04;  0.0000000E+00;  4.0017504E+04;  8.1949241E-02;  0.0000000E+00; -1.0915210E-02;  2.3811733E+03;
  4.8152772E-01;  9.9999998E-03; -2.8998095E-01;5375;  2.0690974E-02;  0.0000000E+00;  2.4128365E-03;  9.9835114E+02;  1.0000147E-01; -1.3660354E+03;3;  2.8146801E+00;  0.0000000E+00;  3.3456194E-01;0;  7.1306303E-02;  3.9850496E+04;  0.0000000E+00;  1.9639328E-01;  4.0000000E+04;  0.0000000E+00;  4.0016699E+04;  8.1827462E-02;  0.0000000E+00; -1.0521160E-02;  2.2275725E+03;
  4.8153412E-01;  9.9999998E-03; -2.7998394E-01;5376;  1.9840088E-02;  0.0000000E+00;  2.2899632E-03;  9.9842535E+02;  1.0000148E-01; -1.3045557E+03;3;  2.7544415E+00;  0.0000000E+00;  3.4811300E-01;0;  7.1698323E-02;  3.9857223E+04;  0.0000000E+00;  7.7611059E-02;  4.0000000E+04;  0.0000000E+00;  4.0015449E+04;  8.1550449E-02;  0.0000000E+00; -9.8521281E-03;  2.0647124E+03;
  4.9150389E-01;  9.9999998E-03; -2.7998284E-01;5437;  2.2353603E-02;  0.0000000E+00;  2.4634958E-03;  9.9837109E+02;  1.0000204E-01; -1.3495421E+03;3;  2.7011628E+00;  0.0000000E+00;  3.2744342E-01;0;  6.7494892E-02;  3.9852090E+04;  0.0000000E+00;  4.0081959E-02;  4.0000000E+04;  0.0000000E+00;  4.0016000E+04;  7.8067765E-02;  0.0000000E+00; -1.0572870E-02;  2.1454438E+03;
  4.9149579E-01;  9.9999998E-03; -2.8997985E-01;5436;  2.2965902E-02;  0.0000000E+00;  2.5596975E-03;  9.9829688E+02;  1.0000199E-01; -1.4110219E+03;3;  2.0014172E+00;  0.0000000E+00;  2.4900511E-01;0;  6.6877440E-02;  3.9845176E+04;  0.0000000E+00;  1.1981408E-01;  4.0000000E+04;  0.0000000E+00;  4.0017109E+04;  7.7882782E-02;  0.0000000E+00; -1.1005346E-02;  2.2957134E+03;
  4.9148777E-01;  9.9999998E-03; -2.9997697E-01;5435;  2.3375059E-02;  0.0000000E+00;  2.6098664E-03;  9.9822803E+02;  1.0000207E-01; -1.4680573E+03;3;  6.7452115E-01;  0.0000000E+00; -1.0959492E-01;0;  6.6961974E-02;  3.9838953E+04;  0.0000000E+00;  2.0885786E-01;  4.0000000E+04;  0.0000000E+00;  4.0017980E+04;  7.7658206E-02;  0.0000000E+00; -1.0696234E-02;  2.4275793E+03;
  5.0158519E-01;  9.9999998E-03; -2.9997534E-01;5496;  2.3497688E-02;  0.0000000E+00;  2.7140519E-03;  9.9811884E+02;  1.0000388E-01; -1.5585238E+03;3; -1.0689731E+00;  0.0000000E+00; -6.5098338E-02;0;  6.0128123E-02;  3.9827859E+04;  0.0000000E+00;  6.3024849E-02;  4.0000000E+04;  0.0000000E+00;  4.0019172E+04;  7.0585102E-02;  0.0000000E+00; -1.0456977E-02;  2.5705869E+03;
  5.0157982E-01;  9.9999998E-03; -2.8997821E-01;5497;  2.3328137E-02;  0.0000000E+00;  2.6939830E-03;  9.9819183E+02;  1.0000371E-01; -1.4980317E+03;3; -9.6709728E-01;  0.0000000E+00;  1.8443280E-01;0;  5.9920006E-02;  3.9834254E+04;  0.0000000E+00;  1.4116167E-02;  4.0000000E+04;  0.0000000E+00;  4.0018418E+04;  7.1182400E-02;  0.0000000E+00; -1.1262394E-02;  2.4497163E+03;
  5.0157797E-01;  9.9999998E-03; -2.7998117E-01;5498;  2.3152011E-02;  0.0000000E+00;  2.6564535E-03;  9.9826941E+02;  1.0000388E-01; -1.4337372E+03;3; -2.9585510E-01;  0.0000000E+00;  4.2425025E-01;0;  6.0365699E-02;  3.9841398E+04;  0.0000000E+00; -3.0884363E-02;  4.0000000E+04;  0.0000000E+00;  4.0017430E+04;  7.1864478E-02;  0.0000000E+00; -1.1498781E-02;  2.3053140E+03;
  5.1156449E-01;  9.9999998E-03; -2.9997325E-01;5557;  2.3365552E-02;  0.0000000E+00;  2.8423325E-03;  9.9797351E+02;  1.0000626E-01; -1.6789155E+03;3; -1.6405876E+00;  0.0000000E+00; -2.1009627E-01;0;  5.0541587E-02;  3.9812434E+04;  0.0000000E+00; -3.8072340E-02;  4.0000000E+04;  0.0000000E+00;  4.0020906E+04;  6.1529562E-02;  0.0000000E+00; -1.0987976E-02;  2.7956179E+03;
  5.1154673E-01;  9.9999998E-03; -2.8997606E-01;5558;  2.3231287E-02;  0.0000000E+00;  2.8437569E-03;  9.9805145E+02;  1.0000617E-01; -1.6143247E+03;3; -1.6416347E+00;  0.0000000E+00;  5.4954689E-02;0;  5.0498791E-02;  3.9819254E+04;  0.0000000E+00; -6.3572749E-02;  4.0000000E+04;  0.0000000E+00;  4.0020082E+04;  6.2488861E-02;  0.0000000E+00; -1.1990070E-02;  2.6789705E+03;
  5.1154035E-01;  9.9999998E-03; -2.7997890E-01;5559;  2.3127191E-02;  0.0000000E+00;  2.8351091E-03;  9.9813293E+02;  1.0000617E-01; -1.5468204E+03;3; -1.4799906E+00;  0.0000000E+00;  3.3322972E-01;0;  5.1219545E-02;  3.9826891E+04;  0.0000000E+00; -8.6349934E-02;  4.0000000E+04;  0.0000000E+00;  4.0019000E+04;  6.3623510E-02;  0.0000000E+00; -1.2403963E-02;  2.5358201E+03;
  5.2153057E-01;  9.9999998E-03; -2.9997101E-01;5618;  2.3193987E-02;  0.0000000E+00;  2.9209731E-03;  9.9781512E+02;  1.0001039E-01; -1.8101217E+03;3; -2.0318072E+00;  0.0000000E+00; -4.4395906E-01;0;  4.0199909E-02;  3.9794121E+04;  0.0000000E+00; -1.0803004E-01;  4.0000000E+04;  0.0000000E+00;  4.0022676E+04;  5.1192287E-02;  0.0000000E+00; -1.0992379E-02;  3.0503237E+03;
  5.2150726E-01;  9.9999998E-03; -2.8997371E-01;5619;  2.3088990E-02;  0.0000000E+00;  2.9390638E-03;  9.9789655E+02;  1.0001048E-01; -1.7426667E+03;3; -2.0292256E+00;  0.0000000E+00; -1.4106800E-01;0;  4.0384695E-02;  3.9801555E+04;  0.0000000E+00; -1.1760931E-01;  4.0000000E+04;  0.0000000E+00;  4.0021883E+04;  5.2475747E-02;  0.0000000E+00; -1.2091053E-02;  2.9312302E+03;
  5.2149987E-01;  9.9999998E-03; -2.7997634E-01;5620;  2.3014890E-02;  0.0000000E+00;  2.9422764E-03;  9.9798254E+02;  1.0001054E-01; -1.6714095E+03;3; -1.9122839E+00;  0.0000000E+00;  9.8264419E-02;0;  4.1485805E-02;  3.9809543E+04;  0.0000000E+00; -1.2813716E-01;  4.0000000E+04;  0.0000000E+00;  4.0020797E+04;  5.3988546E-02;  0.0000000E+00; -1.2502741E-02;  2.7924358E+03;
  5.3153390E-01;  9.9999998E-03; -2.9996905E-01;5679;  2.3014387E-02;  0.0000000E+00;  2.9381989E-03;  9.9768591E+02;  1.0001730E-01; -1.9171803E+03;3; -2.3411870E+00;  0.0000000E+00; -7.4638009E-01;0;  2.9930627E-02;  3.9776664E+04;  0.0000000E+00; -1.4279206E-01;  4.0000000E+04;  0.0000000E+00;  4.0024309E+04;  4.0272437E-02;  0.0000000E+00; -1.0341810E-02;  3.2643589E+03;
  5.3150344E-01;  9.9999998E-03; -2.8997153E-01;5680;  2.2935716E-02;  0.0000000E+00;  2.9751407E-03;  9.9776685E+02;  1.0001743E-01; -1.8501205E+03;3; -2.2961378E+00;  0.0000000E+00; -4.6394542E-01;0;  3.0198390E-02;  3.9783844E+04;  0.0000000E+00; -1.3756451E-01;  4.0000000E+04;  0.0000000E+00;  4.0023516E+04;  4.1822355E-02;  0.0000000E+00; -1.1623966E-02;  3.1441919E+03;
  5.3149152E-01;  9.9999998E-03; -2.7997395E-01;5681;  2.2885947E-02;  0.0000000E+00;  2.9943073E-03;  9.9785889E+02;  1.0001760E-01; -1.7738757E+03;3; -2.1920888E+00;  0.0000000E+00; -1.9453156E-01;0;  3.1495098E-02;  3.9792395E+04;  0.0000000E+00; -1.4547436E-01;  4.0000000E+04;  0.0000000E+00;  4.0022324E+04;  4.3622088E-02;  0.0000000E+00; -1.2126989E-02;  3.0000513E+03;
  5.4157591E-01;  9.9999998E-03; -2.9996791E-01;5740;  2.2838935E-02;  0.0000000E+00;  2.9121006E-03;  9.9764203E+02;  1.0002959E-01; -1.9535250E+03;3; -2.6295342E+00;  0.0000000E+00; -1.0799849E+00;0;  2.0014398E-02;  3.9762164E+04;  0.0000000E+00; -1.6074169E-01;  4.0000000E+04;  0.0000000E+00;  4.0024801E+04;  2.9447459E-02;  0.0000000E+00; -9.4330618E-03;  3.3456799E+03;
  5.4153562E-01;  9.9999998E-03; -2.8997007E-01;5741;  2.2782704E-02;  0.0000000E+00;  2.9625862E-03;  9.9771399E+02;  1.0002951E-01; -1.8939218E+03;3; -2.5262411E+00;  0.0000000E+00; -7.9778886E-01;0;  2.0376638E-02;  3.9769105E+04;  0.0000000E+00; -1.2902401E-01;  4.0000000E+04;  0.0000000E+00;  4.0024188E+04;  3.1181492E-02;  0.0000000E+00; -1.0804854E-02;  3.2330535E+03;
  5.4151708E-01;  9.9999998E-03; -2.7997220E-01;5742;  2.2752400E-02;  0.0000000E+00;  2.9981306E-03;  9.9780487E+02;  1.0002955E-01; -1.8186152E+03;3; -2.4277935E+00;  0.0000000E+00; -5.3010929E-01;0;  2.1712281E-02;  3.9777652E+04;  0.0000000E+00; -1.3672026E-01;  4.0000000E+04;  0.0000000E+00;  4.0023027E+04;  3.3159327E-02;  0.0000000E+00; -1.1447045E-02;  3.0895076E+03;
  5.5164915E-01;  9.9999998E-03; -2.9996791E-01;5801;  2.2691071E-02;  0.0000000E+00;  2.8354987E-03;  9.9769989E+02;  1.0004847E-01; -1.9055756E+03;3; -3.1122658E+00;  0.0000000E+00; -1.3375175E+00;0;  1.1108349E-02;  3.9752281E+04;  0.0000000E+00; -1.9392429E-01;  4.0000000E+04;  0.0000000E+00;  4.0024230E+04;  1.9273611E-02;  0.0000000E+00; -8.1652617E-03;  3.2699214E+03;
  5.5160362E-01;  9.9999998E-03; -2.8996968E-01;5802;  2.2640539E-02;  0.0000000E+00;  2.9111165E-03;  9.9776459E+02;  1.0004845E-01; -1.8519968E+03;3; -2.8520982E+00;  0.0000000E+00; -1.0800118E+00;0;  1.1243114E-02;  3.9758246E+04;  0.0000000E+00; -1.2497477E-01;  4.0000000E+04;  0.0000000E+00;  4.0023336E+04;  2.1090303E-02;  0.0000000E+00; -9.8471884E-03;  3.1566882E+03;
  5.5158186E-01;  9.9999998E-03; -2.7997151E-01;5803;  2.2627182E-02;  0.0000000E+00;  2.9595760E-03;  9.9785474E+02;  1.0004848E-01; -1.7773323E+03;3; -2.7246823E+00;  0.0000000E+00; -8.1172919E-01;0;  1.2549387E-02;  3.9766465E+04;  0.0000000E+00; -1.2782021E-01;  4.0000000E+04;  0.0000000E+00;  4.0022191E+04;  2.3127906E-02;  0.0000000E+00; -1.0578519E-02;  3.0063896E+03;
  5.6175315E-01;  9.9999998E-03; -2.9996943E-01;5862;  2.2580324E-02;  0.0000000E+00;  2.6825469E-03;  9.9787018E+02;  1.0007981E-01; -1.7644932E+03;3; -3.8294423E+00;  0.0000000E+00; -1.2820729E+00;0;  4.0883059E-03;  3.9743328E+04;  0.0000000E+00; -3.0845481E-01;  4.0000000E+04;  0.0000000E+00;  4.0021984E+04;  1.0124898E-02;  0.0000000E+00; -6.0365917E-03;  3.0200945E+03;
  5.6171077E-01;  9.9999998E-03; -2.8997061E-01;5863;  2.2522934E-02;  0.0000000E+00;  2.8042085E-03;  9.9792389E+02;  1.0007969E-01; -1.7200006E+03;3; -3.4520464E+00;  0.0000000E+00; -1.1320817E+00;0;  3.4550447E-03;  3.9747863E+04;  0.0000000E+00; -2.0229861E-01;  4.0000000E+04;  0.0000000E+00;  4.0021371E+04;  1.1923620E-02;  0.0000000E+00; -8.4685748E-03;  2.9147227E+03;
  5.6169140E-01;  9.9999998E-03; -2.7997190E-01;5864;  2.2523040E-02;  0.0000000E+00;  2.8714819E-03;  9.9800177E+02;  1.0007984E-01; -1.6555087E+03;3; -3.2615607E+00;  0.0000000E+00; -9.3786311E-01;0;  4.4552088E-03;  3.9755258E+04;  0.0000000E+00; -1.8395609E-01;  4.0000000E+04;  0.0000000E+00;  4.0020148E+04;  1.3912488E-02;  0.0000000E+00; -9.4572790E-03;  2.7718369E+03;
  5.7187355E-01;  9.9999998E-03; -2.9997256E-01;5923;  2.2436911E-02;  0.0000000E+00;  2.5651774E-03;  9.9811505E+02;  1.0013096E-01; -1.5616348E+03;3; -4.1970663E+00;  0.0000000E+00; -1.2591847E+00;0; -2.9219717E-03;  3.9725117E+04;  0.0000000E+00; -5.6070572E-01;  4.0000000E+04;  0.0000000E+00;  4.0018699E+04;  2.2287776E-03;  0.0000000E+00; -5.1507493E-03;  2.6914858E+03;
  5.7184464E-01;  9.9999998E-03; -2.8997287E-01;5924;  2.2385405E-02;  0.0000000E+00;  2.6970836E-03;  9.9815875E+02;  1.0013096E-01; -1.5254382E+03;3; -3.7136590E+00;  0.0000000E+00; -1.3028848E+00;0; -3.8148626E-03;  3.9728676E+04;  0.0000000E+00; -4.2746693E-01;  4.0000000E+04;  0.0000000E+00;  4.0017953E+04;  3.9190366E-03;  0.0000000E+00; -7.7338992E-03;  2.5834709E+03;
  5.7183564E-01;  9.9999998E-03; -2.7997345E-01;5925;  2.2402821E-02;  0.0000000E+00;  2.7626383E-03;  9.9822894E+02;  1.0013135E-01; -1.4672671E+03;3; -3.5026977E+00;  0.0000000E+00; -1.1870897E+00;0; -2.8507742E-03;  3.9735539E+04;  0.0000000E+00; -3.6596608E-01;  4.0000000E+04;  0.0000000E+00;  4.0016996E+04;  5.7683731E-03;  0.0000000E+00; -8.6191474E-03;  2.4408994E+03;
  5.8198816E-01;  9.9999998E-03; -2.9997694E-01;5984;  2.2244774E-02;  0.0000000E+00;  2.5302528E-03;  9.9835022E+02;  1.0021381E-01; -1.3668254E+03;3; -4.1689615E+00;  0.0000000E+00; -1.6837053E+00;0; -1.0890672E-02;  3.9682332E+04;  0.0000000E+00; -9.3909883E-01;  4.0000000E+04;  0.0000000E+00;  4.0014762E+04; -4.3423180E-03;  0.0000000E+00; -6.5483535E-03;  2.5200981E+03;
  5.8198076E-01;  9.9999998E-03; -2.8997630E-01;5985;  2.2233898E-02;  0.0000000E+00;  2.6045113E-03;  9.9838458E+02;  1.0021405E-01; -1.3383324E+03;3; -3.8158033E+00;  0.0000000E+00; -1.6564080E+00;0; -1.0732380E-02;  3.9685012E+04;  0.0000000E+00; -7.8158736E-01;  4.0000000E+04;  0.0000000E+00;  4.0014344E+04; -2.8354777E-03;  0.0000000E+00; -7.8969020E-03;  2.3752644E+03;
  5.8198655E-01;  9.9999998E-03; -2.7997586E-01;5986;  2.2273719E-02;  0.0000000E+00;  2.6441244E-03;  9.9844946E+02;  1.0021434E-01; -1.2846056E+03;3; -3.6218345E+00;  0.0000000E+00; -1.5221274E+00;0; -9.3932617E-03;  3.9690957E+04;  0.0000000E+00; -6.4884776E-01;  4.0000000E+04;  0.0000000E+00;  4.0013680E+04; -1.1880470E-03;  0.0000000E+00; -8.2052145E-03;  2.1938989E+03;
  5.9207845E-01;  9.9999998E-03; -2.9998237E-01;6045;  2.2058398E-02;  0.0000000E+00;  2.4203944E-03;  9.9847882E+02;  1.0034749E-01; -1.2602605E+03;3; -4.2209868E+00;  0.0000000E+00; -2.0654125E+00;0; -1.6865496E-02;  3.9590508E+04;  0.0000000E+00; -1.3209078E+00;  4.0000000E+04;  0.0000000E+00;  4.0012043E+04; -9.6755801E-03;  0.0000000E+00; -7.1899150E-03;  2.6516279E+03;
  5.9208256E-01;  9.9999998E-03; -2.8998059E-01;6046;  2.2079270E-02;  0.0000000E+00;  2.4753946E-03;  9.9850830E+02;  1.0034800E-01; -1.2358662E+03;3; -3.9660375E+00;  0.0000000E+00; -1.9477435E+00;0; -1.6383216E-02;  3.9592523E+04;  0.0000000E+00; -1.0796151E+00;  4.0000000E+04;  0.0000000E+00;  4.0011570E+04; -8.3802659E-03;  0.0000000E+00; -8.0029499E-03;  2.3930647E+03;
  5.9209275E-01;  9.9999998E-03; -2.7997881E-01;6047;  2.2139641E-02;  0.0000000E+00;  2.5017692E-03;  9.9856647E+02;  1.0034849E-01; -1.1876700E+03;3; -3.7746830E+00;  0.0000000E+00; -1.8260823E+00;0; -1.4902083E-02;  3.9597516E+04;  0.0000000E+00; -8.4354979E-01;  4.0000000E+04;  0.0000000E+00;  4.0010926E+04; -6.9601359E-03;  0.0000000E+00; -7.9419473E-03;  2.1132305E+03;
  6.0208464E-01;  9.9999998E-03; -2.9998866E-01;6106;  2.1870887E-02;  0.0000000E+00;  2.2286798E-03;  9.9840399E+02;  1.0056060E-01; -1.3222834E+03;3; -4.3580036E+00;  0.0000000E+00; -2.3312526E+00;0; -2.0818271E-02;  3.9419746E+04;  0.0000000E+00; -1.1251234E+00;  4.0000000E+04;  0.0000000E+00;  4.0011051E+04; -1.3920623E-02;  0.0000000E+00; -6.8976483E-03;  2.5244951E+03;
  6.0209620E-01;  9.9999998E-03; -2.8998563E-01;6107;  2.1912398E-02;  0.0000000E+00;  2.2860004E-03;  9.9844275E+02;  1.0056145E-01; -1.2901362E+03;3; -4.1270156E+00;  0.0000000E+00; -2.2077136E+00;0; -2.0458937E-02;  3.9422086E+04;  0.0000000E+00; -9.2531019E-01;  4.0000000E+04;  0.0000000E+00;  4.0010211E+04; -1.2843253E-02;  0.0000000E+00; -7.6156841E-03;  2.3072351E+03;
  6.0210919E-01;  9.9999998E-03; -2.7998215E-01;6108;  2.1991739E-02;  0.0000000E+00;  2.3103727E-03;  9.9849841E+02;  1.0056195E-01; -1.2440142E+03;3; -3.9322693E+00;  0.0000000E+00; -2.0967042E+00;0; -1.9061655E-02;  3.9426516E+04;  0.0000000E+00; -7.0609093E-01;  4.0000000E+04;  0.0000000E+00;  4.0009902E+04; -1.1657231E-02;  0.0000000E+00; -7.4044247E-03;  2.0611472E+03;
  6.1202562E-01;  9.9999998E-03; -2.9999653E-01;6167;  2.1660263E-02;  0.0000000E+00;  1.9521728E-03;  9.9812177E+02;  1.0089329E-01; -1.5561040E+03;3; -4.4903092E+00;  0.0000000E+00; -2.5818348E+00;0; -2.2923276E-02;  3.9139668E+04;  0.0000000E+00; -4.7406799E-01;  4.0000000E+04;  0.0000000E+00;  4.0011863E+04; -1.7308801E-02;  0.0000000E+00; -5.6144735E-03;  2.4609009E+03;
  6.1204726E-01;  9.9999998E-03; -2.8999200E-01;6168;  2.1719737E-02;  0.0000000E+00;  2.0181770E-03;  9.9817212E+02;  1.0089496E-01; -1.5143768E+03;3; -4.2749372E+00;  0.0000000E+00; -2.4575706E+00;0; -2.2834193E-02;  3.9142566E+04;  0.0000000E+00; -4.4199938E-01;  4.0000000E+04;  0.0000000E+00;  4.0011043E+04; -1.6440650E-02;  0.0000000E+00; -6.3935434E-03;  2.3837144E+03;
  6.1206561E-01;  9.9999998E-03; -2.7998653E-01;6169;  2.1817133E-02;  0.0000000E+00;  2.0517674E-03;  9.9823743E+02;  1.0089624E-01; -1.4602549E+03;3; -4.0851617E+00;  0.0000000E+00; -2.3451793E+00;0; -2.1759458E-02;  3.9146613E+04;  0.0000000E+00; -3.3857951E-01;  4.0000000E+04;  0.0000000E+00;  4.0010418E+04; -1.5478003E-02;  0.0000000E+00; -6.2814555E-03;  2.2476770E+03;
  6.2191826E-01;  9.9999998E-03; -3.0000743E-01;6228;  2.1409325E-02;  0.0000000E+00;  1.5903320E-03;  9.9771912E+02;  1.0139926E-01; -1.8896748E+03;3; -4.6048026E+00;  0.0000000E+00; -2.8356285E+00;0; -2.3358909E-02;  3.8720227E+04;  0.0000000E+00;  1.9893570E-01;  4.0000000E+04;  0.0000000E+00;  4.0012957E+04; -2.0076325E-02;  0.0000000E+00; -3.2825838E-03;  2.9998887E+03;
  6.2194896E-01;  9.9999998E-03; -2.9000151E-01;6229;  2.1487774E-02;  0.0000000E+00;  1.6739669E-03;  9.9779657E+02;  1.0140163E-01; -1.8254791E+03;3; -4.4028263E+00;  0.0000000E+00; -2.7083659E+00;0; -2.3715397E-02;  3.8723910E+04;  0.0000000E+00;  8.0803894E-02;  4.0000000E+04;  0.0000000E+00;  4.0012250E+04; -1.9392569E-02;  0.0000000E+00; -4.3228283E-03;  2.8992288E+03;
  6.2197268E-01;  9.9999998E-03; -2.7999398E-01;6230;  2.1603532E-02;  0.0000000E+00;  1.7267934E-03;  9.9787622E+02;  1.0140407E-01; -1.7595056E+03;3; -4.2226253E+00;  0.0000000E+00; -2.5832553E+00;0; -2.3166753E-02;  3.8728672E+04;  0.0000000E+00;  6.7098111E-02;  4.0000000E+04;  0.0000000E+00;  4.0011457E+04; -1.8627718E-02;  0.0000000E+00; -4.5390348E-03;  2.7912449E+03;
  6.3174748E-01;  9.9999998E-03; -3.0002350E-01;6289;  2.1111658E-02;  0.0000000E+00;  1.1506733E-03;  9.9736188E+02;  1.0213719E-01; -2.1856169E+03;3; -4.7045565E+00;  0.0000000E+00; -3.0534978E+00;0; -2.2389518E-02;  3.8137234E+04;  0.0000000E+00;  3.4760353E-01;  4.0000000E+04;  0.0000000E+00;  4.0012508E+04; -2.2437423E-02;  0.0000000E+00;  4.7905949E-05;  3.6105156E+03;
  6.3178867E-01;  9.9999998E-03; -2.9001632E-01;6290;  2.1212732E-02;  0.0000000E+00;  1.2579401E-03;  9.9747168E+02;  1.0214166E-01; -2.0946567E+03;3; -4.5089359E+00;  0.0000000E+00; -2.9605794E+00;0; -2.3322811E-02;  3.8142125E+04;  0.0000000E+00;  2.1430255E-01;  4.0000000E+04;  0.0000000E+00;  4.0011738E+04; -2.1905977E-02;  0.0000000E+00; -1.4168347E-03;  3.4712307E+03;
  6.3181919E-01;  9.9999998E-03; -2.8000706E-01;6291;  2.1346606E-02;  0.0000000E+00;  1.3465340E-03;  9.9757666E+02;  1.0214505E-01; -2.0076962E+03;3; -4.3377090E+00;  0.0000000E+00; -2.8427439E+00;0; -2.3605965E-02;  3.8148035E+04;  0.0000000E+00;  2.0766868E-01;  4.0000000E+04;  0.0000000E+00;  4.0010633E+04; -2.1306062E-02;  0.0000000E+00; -2.2999034E-03;  3.3468445E+03;
  6.4155507E-01;  9.9999998E-03; -3.0004686E-01;6350;  2.0776507E-02;  0.0000000E+00;  6.6237350E-04;  9.9723193E+02;  1.0316130E-01; -2.2932683E+03;3; -4.8010259E+00;  0.0000000E+00; -3.1966543E+00;0; -2.0657353E-02;  3.7377883E+04;  0.0000000E+00; -9.5758134E-01;  4.0000000E+04;  0.0000000E+00;  4.0007863E+04; -2.4581468E-02;  0.0000000E+00;  3.9241146E-03;  4.1141177E+03;
  6.4160091E-01;  9.9999998E-03; -2.9003879E-01;6351;  2.0901171E-02;  0.0000000E+00;  8.0179196E-04;  9.9737128E+02;  1.0316780E-01; -2.1778643E+03;3; -4.6049657E+00;  0.0000000E+00; -3.1725361E+00;0; -2.2312576E-02;  3.7383324E+04;  0.0000000E+00; -7.6123464E-01;  4.0000000E+04;  0.0000000E+00;  4.0006750E+04; -2.4167908E-02;  0.0000000E+00;  1.8553317E-03;  3.8773040E+03;
  6.4163440E-01;  9.9999998E-03; -2.8002849E-01;6352;  2.1052955E-02;  0.0000000E+00;  9.3274447E-04;  9.9750757E+02;  1.0317304E-01; -2.0649292E+03;3; -4.4358125E+00;  0.0000000E+00; -3.0819452E+00;0; -2.3534602E-02;  3.7389984E+04;  0.0000000E+00; -4.3285036E-01;  4.0000000E+04;  0.0000000E+00;  4.0005629E+04; -2.3699336E-02;  0.0000000E+00;  1.6473341E-04;  3.6096094E+03;
  6.5142572E-01;  9.9999998E-03; -3.0007842E-01;6411;  2.0441681E-02;  0.0000000E+00;  1.8733194E-04;  9.9737128E+02;  1.0450064E-01; -2.1778643E+03;3; -4.8870158E+00;  0.0000000E+00; -3.2670567E+00;0; -1.9386591E-02;  3.6441449E+04;  0.0000000E+00; -4.1708479E+00;  4.0000000E+04;  0.0000000E+00;  3.9998137E+04; -2.6647445E-02;  0.0000000E+00;  7.2608530E-03;  7.4466675E+03;
  6.5145677E-01;  9.9999998E-03; -2.9006973E-01;6412;  2.0577425E-02;  0.0000000E+00;  3.4688867E-04;  9.9753253E+02;  1.0450911E-01; -2.0442383E+03;3; -4.6870298E+00;  0.0000000E+00; -3.3379850E+00;0; -2.1506581E-02;  3.6446816E+04;  0.0000000E+00; -3.2672040E+00;  4.0000000E+04;  0.0000000E+00;  3.9996402E+04; -2.6322380E-02;  0.0000000E+00;  4.8157992E-03;  6.1844243E+03;
  6.5147948E-01;  9.9999998E-03; -2.8005901E-01;6413;  2.0742929E-02;  0.0000000E+00;  5.1388878E-04;  9.9769305E+02;  1.0451498E-01; -1.9112544E+03;3; -4.5244975E+00;  0.0000000E+00; -3.2996275E+00;0; -2.3509011E-02;  3.6454480E+04;  0.0000000E+00; -2.1942317E+00;  4.0000000E+04;  0.0000000E+00;  3.9995438E+04; -2.5956562E-02;  0.0000000E+00;  2.4475507E-03;  4.8004375E+03;
  6.6150868E-01;  9.9999998E-03; -3.0011719E-01;6472;  2.0147126E-02;  0.0000000E+00; -2.1936389E-04;  9.9762964E+02;  1.0615193E-01; -1.9637961E+03;3; -4.9476318E+00;  0.0000000E+00; -3.3617928E+00;0; -1.9731840E-02;  3.5340152E+04;  0.0000000E+00; -8.4486742E+00;  4.0000000E+04;  0.0000000E+00;  3.9984457E+04; -2.8719431E-02;  0.0000000E+00;  8.9875907E-03;  1.3843267E+04;
  6.6149700E-01;  9.9999998E-03; -2.9010800E-01;6473;  2.0270551E-02;  0.0000000E+00; -8.7636756E-05;  9.9779938E+02;  1.0616234E-01; -1.8231582E+03;3; -4.7533212E+00;  0.0000000E+00; -3.4738770E+00;0; -2.1378510E-02;  3.5344562E+04;  0.0000000E+00; -6.7485619E+00;  4.0000000E+04;  0.0000000E+00;  3.9983262E+04; -2.8467296E-02;  0.0000000E+00;  7.0887851E-03;  1.1228559E+04;
  6.6149288E-01;  9.9999998E-03; -2.8009748E-01;6474;  2.0432670E-02;  0.0000000E+00;  1.2156052E-04;  9.9798041E+02;  1.0616936E-01; -1.6731871E+03;3; -4.5997758E+00;  0.0000000E+00; -3.4952815E+00;0; -2.4140479E-02;  3.5353059E+04;  0.0000000E+00; -4.7289333E+00;  4.0000000E+04;  0.0000000E+00;  3.9981785E+04; -2.8188314E-02;  0.0000000E+00;  4.0478357E-03;  8.1501084E+03;
  6.7188966E-01;  9.9999998E-03; -3.0016169E-01;6533;  1.9861121E-02;  0.0000000E+00; -3.7182841E-04;  9.9777893E+02;  1.0809884E-01; -1.8400959E+03;3; -4.9653692E+00;  0.0000000E+00; -3.6649630E+00;0; -2.5114167E-02;  3.4094836E+04;  0.0000000E+00; -1.1757304E+01;  4.0000000E+04;  0.0000000E+00;  3.9969562E+04; -3.0834571E-02;  0.0000000E+00;  5.7204026E-03;  1.9495609E+04;
  6.7179745E-01;  9.9999998E-03; -2.9015180E-01;6534;  1.9973872E-02;  0.0000000E+00; -3.7250872E-04;  9.9794989E+02;  1.0810918E-01; -1.6984703E+03;3; -4.7966228E+00;  0.0000000E+00; -3.6815679E+00;0; -2.4189420E-02;  3.4098727E+04;  0.0000000E+00; -9.7837782E+00;  4.0000000E+04;  0.0000000E+00;  3.9968742E+04; -3.0647205E-02;  0.0000000E+00;  6.4577847E-03;  1.6371937E+04;
  6.7172998E-01;  9.9999998E-03; -2.8014120E-01;6535;  2.0127552E-02;  0.0000000E+00; -2.4032741E-04;  9.9813824E+02;  1.0811486E-01; -1.5424254E+03;3; -4.6561646E+00;  0.0000000E+00; -3.6922126E+00;0; -2.5578164E-02;  3.4107367E+04;  0.0000000E+00; -7.1392250E+00;  4.0000000E+04;  0.0000000E+00;  3.9967066E+04; -3.0445296E-02;  0.0000000E+00;  4.8671337E-03;  1.2147963E+04;
  6.8259543E-01;  9.9999998E-03; -3.0021137E-01;6594;  1.9567445E-02;  0.0000000E+00; -6.2625692E-04;  9.9776562E+02;  1.1036925E-01; -1.8511573E+03;3; -4.9720445E+00;  0.0000000E+00; -3.8828671E+00;0; -2.9239871E-02;  3.2713941E+04;  0.0000000E+00; -1.2799324E+01;  4.0000000E+04;  0.0000000E+00;  3.9954605E+04; -3.3004131E-02;  0.0000000E+00;  3.7642596E-03;  2.1960371E+04;
  6.8238842E-01;  9.9999998E-03; -2.9020065E-01;6595;  1.9670941E-02;  0.0000000E+00; -5.8087584E-04;  9.9791510E+02;  1.1036934E-01; -1.7273091E+03;3; -4.8245516E+00;  0.0000000E+00; -3.9056604E+00;0; -2.8765121E-02;  3.2722152E+04;  0.0000000E+00; -1.1397145E+01;  4.0000000E+04;  0.0000000E+00;  3.9953691E+04; -3.2878682E-02;  0.0000000E+00;  4.1135610E-03;  1.9718508E+04;
  6.8220758E-01;  9.9999998E-03; -2.8018957E-01;6596;  1.9818045E-02;  0.0000000E+00; -5.1088422E-04;  9.9809741E+02;  1.1036328E-01; -1.5762516E+03;3; -4.7027984E+00;  0.0000000E+00; -3.8808188E+00;0; -2.8740730E-02;  3.2736912E+04;  0.0000000E+00; -8.8689108E+00;  4.0000000E+04;  0.0000000E+00;  3.9952480E+04; -3.2745764E-02;  0.0000000E+00;  4.0050345E-03;  1.5540314E+04;
  6.9441760E-01;  9.9999998E-03; -3.0027080E-01;6655;  1.9144308E-02;  0.0000000E+00; -1.0622543E-03;  9.9776569E+02;  1.1312354E-01; -1.8511080E+03;3; -4.9593549E+00;  0.0000000E+00; -4.0505371E+00;0; -3.1450838E-02;  3.1155443E+04;  0.0000000E+00; -8.4286337E+00;  4.0000000E+04;  0.0000000E+00;  3.9937328E+04; -3.5400726E-02;  0.0000000E+00;  3.9498881E-03;  1.5577197E+04;
  6.9413114E-01;  9.9999998E-03; -2.9025829E-01;6656;  1.9277951E-02;  0.0000000E+00; -9.6697477E-04;  9.9784515E+02;  1.1310323E-01; -1.7852333E+03;3; -4.8364697E+00;  0.0000000E+00; -4.0965180E+00;0; -3.1624775E-02;  3.1169639E+04;  0.0000000E+00; -8.2214136E+00;  4.0000000E+04;  0.0000000E+00;  3.9936934E+04; -3.5348747E-02;  0.0000000E+00;  3.7239706E-03;  1.5314581E+04;
  6.9381726E-01;  9.9999998E-03; -2.8024584E-01;6657;  1.9445457E-02;  0.0000000E+00; -8.5087598E-04;  9.9796613E+02;  1.1306655E-01; -1.6850387E+03;3; -4.7382126E+00;  0.0000000E+00; -4.0722866E+00;0; -3.1958055E-02;  3.1195627E+04;  0.0000000E+00; -6.9572306E+00;  4.0000000E+04;  0.0000000E+00;  3.9936039E+04; -3.5288278E-02;  0.0000000E+00;  3.3302237E-03;  1.3136802E+04;
  7.0683050E-01;  9.9999998E-03; -3.0034277E-01;6716;  1.8712770E-02;  0.0000000E+00; -1.5209526E-03;  9.9814893E+02;  1.1638054E-01; -1.5335862E+03;3; -4.9196949E+00;  0.0000000E+00; -4.2120991E+00;0; -3.4106400E-02;  2.9481793E+04;  0.0000000E+00; -6.0777903E+00;  4.0000000E+04;  0.0000000E+00;  3.9912969E+04; -3.7846714E-02;  0.0000000E+00;  3.7403151E-03;  1.2421743E+04;
  7.0660228E-01;  9.9999998E-03; -2.9032886E-01;6717;  1.8854257E-02;  0.0000000E+00; -1.4236746E-03;  9.9817328E+02;  1.1636343E-01; -1.5133892E+03;3; -4.8270559E+00;  0.0000000E+00; -4.2699552E+00;0; -3.4235511E-02;  2.9489902E+04;  0.0000000E+00; -5.9482861E+00;  4.0000000E+04;  0.0000000E+00;  3.9913273E+04; -3.7914902E-02;  0.0000000E+00;  3.6793910E-03;  1.2264063E+04;
  7.0632476E-01;  9.9999998E-03; -2.8031510E-01;6718;  1.9031692E-02;  0.0000000E+00; -1.3029126E-03;  9.9820746E+02;  1.1632180E-01; -1.4850936E+03;3; -4.7527719E+00;  0.0000000E+00; -4.2612109E+00;0; -3.4493834E-02;  2.9511000E+04;  0.0000000E+00; -4.9764638E+00;  4.0000000E+04;  0.0000000E+00;  3.9913312E+04; -3.7980475E-02;  0.0000000E+00;  3.4866389E-03;  1.0478716E+04;
  7.1829283E-01;  9.9999998E-03; -3.0041417E-01;6777;  1.8321531E-02;  0.0000000E+00; -2.0028909E-03;  9.9845288E+02;  1.1970387E-01; -1.2817415E+03;3; -4.8598700E+00;  0.0000000E+00; -4.3217788E+00;0; -3.5745364E-02;  2.7905020E+04;  0.0000000E+00; -7.8653846E+00;  4.0000000E+04;  0.0000000E+00;  3.9890117E+04; -3.9986510E-02;  0.0000000E+00;  4.2411471E-03;  1.6378275E+04;
  7.1825308E-01;  9.9999998E-03; -2.9040003E-01;6778;  1.8447649E-02;  0.0000000E+00; -1.9300025E-03;  9.9850281E+02;  1.1973148E-01; -1.2404093E+03;3; -4.7927203E+00;  0.0000000E+00; -4.3994613E+00;0; -3.5587300E-02;  2.7893449E+04;  0.0000000E+00; -7.2806096E+00;  4.0000000E+04;  0.0000000E+00;  3.9889922E+04; -4.0201407E-02;  0.0000000E+00;  4.6141078E-03;  1.5354564E+04;
  7.1819168E-01;  9.9999998E-03; -2.8038624E-01;6779;  1.8614724E-02;  0.0000000E+00; -1.8359694E-03;  9.9853479E+02;  1.1974011E-01; -1.2138915E+03;3; -4.7434359E+00;  0.0000000E+00; -4.4136567E+00;0; -3.5605058E-02;  2.7889861E+04;  0.0000000E+00; -5.8180590E+00;  4.0000000E+04;  0.0000000E+00;  3.9889934E+04; -4.0432017E-02;  0.0000000E+00;  4.8269574E-03;  1.2565033E+04;
  7.2951657E-01;  9.9999998E-03; -3.0048257E-01;6838;  1.7827012E-02;  0.0000000E+00; -2.5999625E-03;  9.9819727E+02;  1.2316196E-01; -1.4935378E+03;3; -4.7830205E+00;  0.0000000E+00; -4.3416643E+00;0; -3.5202082E-02;  2.6361826E+04;  0.0000000E+00; -7.1458588E+00;  4.0000000E+04;  0.0000000E+00;  3.9873418E+04; -4.1907761E-02;  0.0000000E+00;  6.7056799E-03;  1.5549641E+04;
  7.2955281E-01;  9.9999998E-03; -2.9046711E-01;6839;  1.7966501E-02;  0.0000000E+00; -2.5528457E-03;  9.9828900E+02;  1.2320500E-01; -1.4175400E+03;3; -4.7381639E+00;  0.0000000E+00; -4.4604506E+00;0; -3.4795076E-02;  2.6347059E+04;  0.0000000E+00; -6.7785797E+00;  4.0000000E+04;  0.0000000E+00;  3.9872891E+04; -4.2247053E-02;  0.0000000E+00;  7.4519771E-03;  1.4870563E+04;
  7.2956616E-01;  9.9999998E-03; -2.8045174E-01;6840;  1.8140199E-02;  0.0000000E+00; -2.4680223E-03;  9.9834564E+02;  1.2323170E-01; -1.3706278E+03;3; -4.7039948E+00;  0.0000000E+00; -4.5370402E+00;0; -3.5004139E-02;  2.6338037E+04;  0.0000000E+00; -5.5624275E+00;  4.0000000E+04;  0.0000000E+00;  3.9872891E+04; -4.2614080E-02;  0.0000000E+00;  7.6099406E-03;  1.2472819E+04;
  7.4157077E-01;  9.9999998E-03; -3.0055317E-01;6899;  1.7206861E-02;  0.0000000E+00; -3.2959187E-03;  9.9736102E+02;  1.2707587E-01; -2.1863577E+03;3; -4.6840839E+00;  0.0000000E+00; -4.2776999E+00;0; -3.3493690E-02;  2.4733738E+04;  0.0000000E+00; -8.3076680E-01;  4.0000000E+04;  0.0000000E+00;  3.9861676E+04; -4.3666869E-02;  0.0000000E+00;  1.0173177E-02;  4.1442661E+03;
  7.4158800E-01;  9.9999998E-03; -2.9053494E-01;6900;  1.7373526E-02;  0.0000000E+00; -3.2901510E-03;  9.9748547E+02;  1.2709706E-01; -2.0832495E+03;3; -4.6550469E+00;  0.0000000E+00; -4.4534736E+00;0; -3.2614719E-02;  2.4730570E+04;  0.0000000E+00; -1.8355972E+00;  4.0000000E+04;  0.0000000E+00;  3.9860910E+04; -4.4133004E-02;  0.0000000E+00;  1.1518284E-02;  5.6466597E+03;
  7.4157476E-01;  9.9999998E-03; -2.8051639E-01;6901;  1.7564457E-02;  0.0000000E+00; -3.2174622E-03;  9.9758936E+02;  1.2710489E-01; -1.9971780E+03;3; -4.6401467E+00;  0.0000000E+00; -4.6004868E+00;0; -3.3095092E-02;  2.4731908E+04;  0.0000000E+00; -2.1418257E+00;  4.0000000E+04;  0.0000000E+00;  3.9860832E+04; -4.4638127E-02;  0.0000000E+00;  1.1543036E-02;  6.1978535E+03;
  7.5406617E-01;  9.9999998E-03; -3.0062672E-01;6960;  1.6619470E-02;  0.0000000E+00; -3.9101141E-03;  9.9636914E+02;  1.3126996E-01; -3.0081123E+03;3; -4.5587115E+00;  0.0000000E+00; -4.2676940E+00;0; -3.3279654E-02;  2.3142459E+04;  0.0000000E+00;  7.7574077E+00;  4.0000000E+04;  0.0000000E+00;  3.9850375E+04; -4.5088265E-02;  0.0000000E+00;  1.1808611E-02;  1.8296504E+04;
  7.5412822E-01;  9.9999998E-03; -2.9060596E-01;6961;  1.6756153E-02;  0.0000000E+00; -3.9896667E-03;  9.9652588E+02;  1.3130464E-01; -2.8782393E+03;3; -4.5446601E+00;  0.0000000E+00; -4.4122472E+00;0; -3.1174099E-02;  2.3136746E+04;  0.0000000E+00;  4.7959075E+00;  4.0000000E+04;  0.0000000E+00;  3.9849422E+04; -4.5702614E-02;  0.0000000E+00;  1.4528515E-02;  1.1903519E+04;
  7.5417799E-01;  9.9999998E-03; -2.8058437E-01;6962;  1.6929809E-02;  0.0000000E+00; -3.9759325E-03;  9.9669049E+02;  1.3132791E-01; -2.7418481E+03;3; -4.5456200E+00;  0.0000000E+00; -4.6069999E+00;0; -3.1248145E-02;  2.3135549E+04;  0.0000000E+00;  2.5392470E+00;  4.0000000E+04;  0.0000000E+00;  3.9849137E+04; -4.6377756E-02;  0.0000000E+00;  1.5129610E-02;  7.3374424E+03;
  7.6831049E-01;  9.9999998E-03; -3.0071816E-01;7021;  1.6069654E-02;  0.0000000E+00; -4.4645951E-03;  9.9625684E+02;  1.3613868E-01; -3.1011467E+03;3; -4.3732400E+00;  0.0000000E+00; -4.3448062E+00;0; -3.5018522E-02;  2.1522455E+04;  0.0000000E+00;  1.0769815E+01;  4.0000000E+04;  0.0000000E+00;  3.9826211E+04; -4.6268865E-02;  0.0000000E+00;  1.1250344E-02;  2.8524834E+04;
  7.6816994E-01;  9.9999998E-03; -2.9069373E-01;7022;  1.6117478E-02;  0.0000000E+00; -4.6118223E-03;  9.9637946E+02;  1.3614008E-01; -2.9995693E+03;3; -4.3909740E+00;  0.0000000E+00; -4.4327765E+00;0; -3.1731907E-02;  2.1526621E+04;  0.0000000E+00;  7.4832830E+00;  4.0000000E+04;  0.0000000E+00;  3.9826219E+04; -4.7009848E-02;  0.0000000E+00;  1.5277940E-02;  2.0445377E+04;
  7.6806921E-01;  9.9999998E-03; -2.8066888E-01;7023;  1.6242286E-02;  0.0000000E+00; -4.6755592E-03;  9.9655640E+02;  1.3612975E-01; -2.8529561E+03;3; -4.4131613E+00;  0.0000000E+00; -4.6109099E+00;0; -3.0789169E-02;  2.1537143E+04;  0.0000000E+00;  4.5815859E+00;  4.0000000E+04;  0.0000000E+00;  3.9826152E+04; -4.7848452E-02;  0.0000000E+00;  1.7059283E-02;  1.3269832E+04;
  7.8402281E-01;  9.9999998E-03; -3.0083030E-01;7082;  1.5439421E-02;  0.0000000E+00; -5.0023240E-03;  9.9730963E+02;  1.4183947E-01; -2.2289246E+03;3; -4.1424389E+00;  0.0000000E+00; -4.3998961E+00;0; -3.7293993E-02;  1.9876270E+04;  0.0000000E+00;  6.8137431E+00;  4.0000000E+04;  0.0000000E+00;  3.9785898E+04; -4.7185242E-02;  0.0000000E+00;  9.8912492E-03;  2.3579525E+04;
  7.8360200E-01;  9.9999998E-03; -2.9080200E-01;7083;  1.5432685E-02;  0.0000000E+00; -5.1930700E-03;  9.9737933E+02;  1.4175479E-01; -2.1711482E+03;3; -4.1823545E+00;  0.0000000E+00; -4.4893942E+00;0; -3.3298012E-02;  1.9902082E+04;  0.0000000E+00;  4.8568401E+00;  4.0000000E+04;  0.0000000E+00;  3.9787312E+04; -4.8060343E-02;  0.0000000E+00;  1.4762332E-02;  1.7449609E+04;
  7.8320611E-01;  9.9999998E-03; -2.8077391E-01;7084;  1.5514635E-02;  0.0000000E+00; -5.3256876E-03;  9.9749725E+02;  1.4165220E-01; -2.0734722E+03;3; -4.2377596E+00;  0.0000000E+00; -4.6345372E+00;0; -3.1369157E-02;  1.9935006E+04;  0.0000000E+00;  3.0272679E+00;  4.0000000E+04;  0.0000000E+00;  3.9788516E+04; -4.9066581E-02;  0.0000000E+00;  1.7697422E-02;  1.1606812E+04;
  7.9941881E-01;  9.9999998E-03; -3.0094081E-01;7143;  1.4907527E-02;  0.0000000E+00; -5.4513114E-03;  9.9811536E+02;  1.4782649E-01; -1.5613878E+03;3; -3.8717844E+00;  0.0000000E+00; -4.4346457E+00;0; -3.9867554E-02;  1.8329334E+04;  0.0000000E+00;  5.9746304E+00;  4.0000000E+04;  0.0000000E+00;  3.9748098E+04; -4.7981281E-02;  0.0000000E+00;  8.1137260E-03;  2.4268477E+04;
  7.9920399E-01;  9.9999998E-03; -2.9091290E-01;7144;  1.4811943E-02;  0.0000000E+00; -5.6597153E-03;  9.9832843E+02;  1.4780945E-01; -1.3848496E+03;3; -3.9372008E+00;  0.0000000E+00; -4.5220695E+00;0; -3.6022630E-02;  1.8340217E+04;  0.0000000E+00;  3.4358804E+00;  4.0000000E+04;  0.0000000E+00;  3.9747312E+04; -4.9010489E-02;  0.0000000E+00;  1.2987860E-02;  1.5770280E+04;
  7.9887867E-01;  9.9999998E-03; -2.8088495E-01;7145;  1.4830220E-02;  0.0000000E+00; -5.8501819E-03;  9.9853101E+02;  1.4771856E-01; -1.2170519E+03;3; -4.0148702E+00;  0.0000000E+00; -4.6593122E+00;0; -3.3524506E-02;  1.8369893E+04;  0.0000000E+00;  1.6507659E+00;  4.0000000E+04;  0.0000000E+00;  3.9747609E+04; -5.0205082E-02;  0.0000000E+00;  1.6680576E-02;  9.1387207E+03;
  8.1360060E-01;  9.9999998E-03; -3.0103433E-01;7204;  1.4407363E-02;  0.0000000E+00; -5.7641938E-03;  9.9802582E+02;  1.5358791E-01; -1.6355585E+03;3; -3.5711424E+00;  0.0000000E+00; -4.4504704E+00;0; -4.3025039E-02;  1.6977172E+04;  0.0000000E+00;  5.2535148E+00;  4.0000000E+04;  0.0000000E+00;  3.9722020E+04; -4.8787288E-02;  0.0000000E+00;  5.7622492E-03;  1.9892340E+04;
  8.1343347E-01;  9.9999998E-03; -2.9100472E-01;7205;  1.4301924E-02;  0.0000000E+00; -5.9816483E-03;  9.9831940E+02;  1.5355936E-01; -1.3923555E+03;3; -3.6695616E+00;  0.0000000E+00; -4.5606284E+00;0; -3.9442457E-02;  1.6991748E+04;  0.0000000E+00;  3.3509874E+00;  4.0000000E+04;  0.0000000E+00;  3.9720043E+04; -4.9999528E-02;  0.0000000E+00;  1.0557071E-02;  1.3413427E+04;
  8.1321013E-01;  9.9999998E-03; -2.8097594E-01;7206;  1.4275389E-02;  0.0000000E+00; -6.1667254E-03;  9.9854993E+02;  1.5350109E-01; -1.2013485E+03;3; -3.7762558E+00;  0.0000000E+00; -4.7018175E+00;0; -3.7323233E-02;  1.7012053E+04;  0.0000000E+00;  2.1296055E+00;  4.0000000E+04;  0.0000000E+00;  3.9719547E+04; -5.1382858E-02;  0.0000000E+00;  1.4059626E-02;  8.8776787E+03;
  8.2676625E-01;  9.9999998E-03; -2.8105429E-01;7267;  1.3725251E-02;  0.0000000E+00; -6.3341623E-03;  9.9771143E+02;  1.5926766E-01; -1.8960448E+03;3; -3.5175636E+00;  0.0000000E+00; -4.7031407E+00;0; -4.2235140E-02;  1.5784085E+04;  0.0000000E+00;  2.2837365E+00;  4.0000000E+04;  0.0000000E+00;  3.9701230E+04; -5.2707616E-02;  0.0000000E+00;  1.0472477E-02;  6.7279336E+03;
  8.2697493E-01;  9.9999998E-03; -2.9108515E-01;7266;  1.3789699E-02;  0.0000000E+00; -6.2052887E-03;  9.9740070E+02;  1.5933076E-01; -2.1534697E+03;3; -3.3776875E+00;  0.0000000E+00; -4.5164008E+00;0; -4.3261670E-02;  1.5762654E+04;  0.0000000E+00;  2.9365034E+00;  4.0000000E+04;  0.0000000E+00;  3.9703508E+04; -5.1134020E-02;  0.0000000E+00;  7.8723496E-03;  8.5841387E+03;
  8.2719034E-01;  9.9999998E-03; -3.0111787E-01;7265;  1.3889722E-02;  0.0000000E+00; -5.9764492E-03;  9.9704456E+02;  1.5939461E-01; -2.4485229E+03;3; -3.2465672E+00;  0.0000000E+00; -4.4367461E+00;0; -4.6684001E-02;  1.5740930E+04;  0.0000000E+00;  3.9531913E+00;  4.0000000E+04;  0.0000000E+00;  3.9705984E+04; -4.9739316E-02;  0.0000000E+00;  3.0553148E-03;  1.1568217E+04;
  8.4294993E-01;  9.9999998E-03; -3.0121401E-01;7326;  1.3308145E-02;  0.0000000E+00; -6.1808252E-03;  9.9610168E+02;  1.6614172E-01; -3.2296860E+03;3; -2.8296103E+00;  0.0000000E+00; -4.3467336E+00;0; -5.0500005E-02;  1.4483151E+04;  0.0000000E+00;  1.0744406E+00;  4.0000000E+04;  0.0000000E+00;  3.9686699E+04; -5.1156495E-02;  0.0000000E+00;  6.5648829E-04;  5.9755254E+03;
  8.4279191E-01;  9.9999998E-03; -2.9117846E-01;7327;  1.3139895E-02;  0.0000000E+00; -6.4345947E-03;  9.9652429E+02;  1.6607633E-01; -2.8795725E+03;3; -2.9982235E+00;  0.0000000E+00; -4.4978542E+00;0; -4.7267493E-02;  1.4503256E+04;  0.0000000E+00;  1.2290349E+00;  4.0000000E+04;  0.0000000E+00;  3.9683266E+04; -5.2779511E-02;  0.0000000E+00;  5.5120173E-03;  4.6499370E+03;
  8.4253037E-01;  9.9999998E-03; -2.8114426E-01;7328;  1.3018426E-02;  0.0000000E+00; -6.5491092E-03;  9.9690131E+02;  1.6597450E-01; -2.5671863E+03;3; -3.1842737E+00;  0.0000000E+00; -4.6626859E+00;0; -4.6855908E-02;  1.4530033E+04;  0.0000000E+00;  1.5998185E+00;  4.0000000E+04;  0.0000000E+00;  3.9679762E+04; -5.4583948E-02;  0.0000000E+00;  7.7280407E-03;  3.7536865E+03;
  8.5910356E-01;  9.9999998E-03; -2.8125182E-01;7389;  1.2250746E-02;  0.0000000E+00; -6.8239374E-03;  9.9665173E+02;  1.7360236E-01; -2.7739949E+03;3; -2.7837756E+00;  0.0000000E+00; -4.5049729E+00;0; -4.9782220E-02;  1.3306652E+04;  0.0000000E+00;  2.6987338E-01;  4.0000000E+04;  0.0000000E+00;  3.9650371E+04; -5.6914352E-02;  0.0000000E+00;  7.1321321E-03;  7.2910098E+03;
  8.5915554E-01;  9.9999998E-03; -2.9128805E-01;7388;  1.2480436E-02;  0.0000000E+00; -6.6417563E-03;  9.9622906E+02;  1.7363393E-01; -3.1241580E+03;3; -2.5558493E+00;  0.0000000E+00; -4.3319335E+00;0; -5.0460201E-02;  1.3293372E+04;  0.0000000E+00; -8.1510872E-01;  4.0000000E+04;  0.0000000E+00;  3.9654387E+04; -5.4817326E-02;  0.0000000E+00;  4.3571261E-03;  1.3033562E+04;
  8.5914308E-01;  9.9999998E-03; -3.0132574E-01;7387;  1.2823129E-02;  0.0000000E+00; -6.3352962E-03;  9.9577930E+02;  1.7362770E-01; -3.4967893E+03;3; -2.3474691E+00;  0.0000000E+00; -4.1657858E+00;0; -5.3839035E-02;  1.3286206E+04;  0.0000000E+00; -1.8898668E+00;  4.0000000E+04;  0.0000000E+00;  3.9658410E+04; -5.2891605E-02;  0.0000000E+00; -9.4742974E-04;  1.8425445E+04;
  8.7773365E-01;  9.9999998E-03; -2.8137931E-01;7450;  1.1397699E-02;  0.0000000E+00; -7.0313108E-03;  9.9687689E+02;  1.8255147E-01; -2.5874321E+03;3; -2.2481153E+00;  0.0000000E+00; -4.2569356E+00;0; -5.2444335E-02;  1.2075017E+04;  0.0000000E+00; -4.5741937E-01;  4.0000000E+04;  0.0000000E+00;  3.9612027E+04; -5.9662145E-02;  0.0000000E+00;  7.2178096E-03;  1.0226068E+04;
  8.7760639E-01;  9.9999998E-03; -2.9141828E-01;7449;  1.1743739E-02;  0.0000000E+00; -6.7515406E-03;  9.9644171E+02;  1.8250178E-01; -2.9479648E+03;3; -1.9760411E+00;  0.0000000E+00; -4.0741596E+00;0; -5.3785335E-02;  1.2074377E+04;  0.0000000E+00; -1.5237284E+00;  4.0000000E+04;  0.0000000E+00;  3.9615742E+04; -5.7267006E-02;  0.0000000E+00;  3.4816703E-03;  1.6784684E+04;
  8.7740314E-01;  9.9999998E-03; -3.0145824E-01;7448;  1.2243266E-02;  0.0000000E+00; -6.3737286E-03;  9.9597144E+02;  1.8238860E-01; -3.3375833E+03;3; -1.7263559E+00;  0.0000000E+00; -3.8923838E+00;0; -5.7599537E-02;  1.2081707E+04;  0.0000000E+00; -2.7906034E+00;  4.0000000E+04;  0.0000000E+00;  3.9620199E+04; -5.5025872E-02;  0.0000000E+00; -2.5736664E-03;  2.3195188E+04;
  8.9644676E-01;  9.9999998E-03; -3.0160004E-01;7509;  1.1595313E-02;  0.0000000E+00; -6.1756889E-03;  9.9649036E+02;  1.9194493E-01; -2.9076697E+03;3; -9.5817882E-01;  0.0000000E+00; -3.5595725E+00;0; -6.2101707E-02;  1.0948242E+04;  0.0000000E+00; -3.9078536E+00;  4.0000000E+04;  0.0000000E+00;  3.9576254E+04; -5.6990072E-02;  0.0000000E+00; -5.1116343E-03;  2.8520752E+04;
  8.9667952E-01;  9.9999998E-03; -2.9155591E-01;7510;  1.0959555E-02;  0.0000000E+00; -6.6172276E-03;  9.9693604E+02;  1.9208662E-01; -2.5384456E+03;3; -1.2578607E+00;  0.0000000E+00; -3.7646036E+00;0; -5.7807207E-02;  1.0938059E+04;  0.0000000E+00; -2.5175607E+00;  4.0000000E+04;  0.0000000E+00;  3.9572477E+04; -5.9433356E-02;  0.0000000E+00;  1.6261506E-03;  2.0820453E+04;
  8.9677268E-01;  9.9999998E-03; -2.8151232E-01;7511;  1.0498036E-02;  0.0000000E+00; -6.9985017E-03;  9.9737598E+02;  1.9212674E-01; -2.1739622E+03;3; -1.5845847E+00;  0.0000000E+00; -3.9616690E+00;0; -5.5551630E-02;  1.0939389E+04;  0.0000000E+00; -1.3697349E+00;  4.0000000E+04;  0.0000000E+00;  3.9570242E+04; -6.2035471E-02;  0.0000000E+00;  6.4838403E-03;  1.3216898E+04;
  9.1692996E-01;  9.9999998E-03; -3.0174369E-01;7570;  1.0359610E-02;  0.0000000E+00; -5.6758625E-03;  9.9596832E+02;  2.0259312E-01; -3.3401506E+03;3;  1.9966025E-02;  0.0000000E+00; -3.1281154E+00;0; -6.6782154E-02;  9.8309990E+03;  0.0000000E+00; -1.4802676E+00;  4.0000000E+04;  0.0000000E+00;  3.9541945E+04; -5.8163956E-02;  0.0000000E+00; -8.6181983E-03;  1.2829604E+04;
  9.1717023E-01;  9.9999998E-03; -2.9169425E-01;7571;  9.8235114E-03;  0.0000000E+00; -6.1801453E-03;  9.9641754E+02;  2.0270415E-01; -2.9680132E+03;3; -3.4406626E-01;  0.0000000E+00; -3.3821025E+00;0; -6.1896913E-02;  9.8256035E+03;  0.0000000E+00; -1.1161544E+00;  4.0000000E+04;  0.0000000E+00;  3.9538934E+04; -6.0601413E-02;  0.0000000E+00; -1.2955010E-03;  9.8925850E+03;
  9.1723311E-01;  9.9999998E-03; -2.8164515E-01;7572;  9.3442462E-03;  0.0000000E+00; -6.6643739E-03;  9.9690942E+02;  2.0270887E-01; -2.5604695E+03;3; -7.3976308E-01;  0.0000000E+00; -3.5613310E+00;0; -5.8636710E-02;  9.8309990E+03;  0.0000000E+00; -8.3222514E-01;  4.0000000E+04;  0.0000000E+00;  3.9537445E+04; -6.3303754E-02;  0.0000000E+00;  4.6670418E-03;  7.2104365E+03;
  9.3982774E-01;  9.9999998E-03; -3.0189428E-01;7631;  9.2313550E-03;  0.0000000E+00; -4.7850404E-03;  9.9459735E+02;  2.1482496E-01; -4.4759688E+03;3;  1.3088921E+00;  0.0000000E+00; -2.5276628E+00;0; -6.9787733E-02;  8.7246523E+03;  0.0000000E+00;  2.7175829E+00;  4.0000000E+04;  0.0000000E+00;  3.9515160E+04; -5.6996081E-02;  0.0000000E+00; -1.2791651E-02;  2.5723811E+04;
  9.3966669E-01;  9.9999998E-03; -2.9183757E-01;7632;  8.5987933E-03;  0.0000000E+00; -5.3892639E-03;  9.9515662E+02;  2.1475312E-01; -4.0126243E+03;3;  8.3178854E-01;  0.0000000E+00; -2.8391321E+00;0; -6.4199448E-02;  8.7373047E+03;  0.0000000E+00;  1.2248091E+00;  4.0000000E+04;  0.0000000E+00;  3.9511594E+04; -5.9484903E-02;  0.0000000E+00; -4.7145444E-03;  1.6569396E+04;
  9.3946880E-01;  9.9999998E-03; -2.8178155E-01;7633;  8.0143735E-03;  0.0000000E+00; -5.9687034E-03;  9.9579053E+02;  2.1462871E-01; -3.4874543E+03;3;  3.3409253E-01;  0.0000000E+00; -3.0791292E+00;0; -6.0469054E-02;  8.7552617E+03;  0.0000000E+00;  6.9239244E-02;  4.0000000E+04;  0.0000000E+00;  3.9509531E+04; -6.2306050E-02;  0.0000000E+00;  1.8369980E-03;  9.0773896E+03;
  9.6507800E-01;  9.9999998E-03; -3.0206802E-01;7692;  8.7103965E-03;  0.0000000E+00; -3.4918659E-03;  9.9462903E+02;  2.2883162E-01; -4.4497456E+03;3;  2.9391861E+00;  0.0000000E+00; -1.6540823E+00;0; -6.9790564E-02;  7.6952051E+03;  0.0000000E+00;  1.5187021E+00;  4.0000000E+04;  0.0000000E+00;  3.9470363E+04; -5.3925049E-02;  0.0000000E+00; -1.5865518E-02;  4.4351004E+04;
  9.6420848E-01;  9.9999998E-03; -2.9199919E-01;7693;  7.5984513E-03;  0.0000000E+00; -4.2200792E-03;  9.9490192E+02;  2.2846705E-01; -4.2236782E+03;3;  2.2908840E+00;  0.0000000E+00; -2.0317817E+00;0; -6.3611381E-02;  7.7204824E+03;  0.0000000E+00;  8.4110117E-01;  4.0000000E+04;  0.0000000E+00;  3.9470793E+04; -5.6165922E-02;  0.0000000E+00; -7.4454565E-03;  3.4274609E+04;
  9.6350771E-01;  9.9999998E-03; -2.8193280E-01;7694;  6.7008208E-03;  0.0000000E+00; -4.9029286E-03;  9.9540295E+02;  2.2810228E-01; -3.8085793E+03;3;  1.6438652E+00;  0.0000000E+00; -2.3792596E+00;0; -5.9849944E-02;  7.7495117E+03;  0.0000000E+00; -2.4248037E-01;  4.0000000E+04;  0.0000000E+00;  3.9470652E+04; -5.8966450E-02;  0.0000000E+00; -8.8349369E-04;  2.0130930E+04;
  9.9027008E-01;  9.9999998E-03; -3.0225435E-01;7753;  8.2330573E-03;  0.0000000E+00; -1.7807437E-03;  9.9604437E+02;  2.4372634E-01; -3.2771367E+03;3;  4.6652203E+00;  0.0000000E+00; -4.8644224E-01;0; -7.0749089E-02;  6.8106938E+03;  0.0000000E+00; -7.6703453E-01;  4.0000000E+04;  0.0000000E+00;  3.9407539E+04; -5.1909145E-02;  0.0000000E+00; -1.8839940E-02;  5.0387672E+04;
  9.8916954E-01;  9.9999998E-03; -2.9217559E-01;7754;  6.7394720E-03;  0.0000000E+00; -2.6325190E-03;  9.9614154E+02;  2.4315155E-01; -3.1966453E+03;3;  3.8282528E+00;  0.0000000E+00; -8.8884282E-01;0; -6.3596547E-02;  6.8397153E+03;  0.0000000E+00; -8.6092830E-01;  4.0000000E+04;  0.0000000E+00;  3.9410684E+04; -5.3653531E-02;  0.0000000E+00; -9.9430187E-03;  3.8882301E+04;
  9.8819274E-01;  9.9999998E-03; -2.8209981E-01;7755;  5.5695823E-03;  0.0000000E+00; -3.3706713E-03;  9.9637567E+02;  2.4259429E-01; -3.0026760E+03;3;  3.0549407E+00;  0.0000000E+00; -1.2814384E+00;0; -6.0436595E-02;  6.8709966E+03;  0.0000000E+00; -1.3157042E+00;  4.0000000E+04;  0.0000000E+00;  3.9413172E+04; -5.6246120E-02;  0.0000000E+00; -4.1904743E-03;  2.2686699E+04;
  9.8742378E-01;  9.9999998E-03; -2.7203071E-01;7756;  4.6108165E-03;  0.0000000E+00; -3.6795007E-03;  9.9669830E+02;  2.4211279E-01; -2.7353752E+03;3;  2.2997437E+00;  0.0000000E+00; -1.6155487E+00;0; -6.4974695E-02;  6.9006650E+03;  0.0000000E+00; -1.4620478E+00;  4.0000000E+04;  0.0000000E+00;  3.9410812E+04; -5.9530169E-02;  0.0000000E+00; -5.4445281E-03;  9.2210117E+03;
  1.0130620E+00;  9.9999998E-03; -2.8227746E-01;7816;  4.8847590E-03;  0.0000000E+00; -9.0176356E-04;  9.9740906E+02;  2.5785771E-01; -2.1465518E+03;3;  4.5112324E+00;  0.0000000E+00;  1.9789472E-01;0; -7.3147789E-02;  6.1027949E+03;  0.0000000E+00; -2.1251249E+00;  4.0000000E+04;  0.0000000E+00;  3.9345676E+04; -5.9434511E-02;  0.0000000E+00; -1.3713274E-02;  1.6654174E+04;
  1.0139678E+00;  9.9999998E-03; -2.9235420E-01;7815;  6.2080016E-03;  0.0000000E+00; -4.1579895E-04;  9.9720715E+02;  2.5849834E-01; -2.3138059E+03;3;  5.3568602E+00;  0.0000000E+00;  6.3921952E-01;0; -7.2092757E-02;  6.0726753E+03;  0.0000000E+00; -1.8669457E+00;  4.0000000E+04;  0.0000000E+00;  3.9348023E+04; -5.6896478E-02;  0.0000000E+00; -1.5196276E-02;  3.2344645E+04;
  1.0149490E+00;  9.9999998E-03; -3.0243737E-01;7814;  7.8829201E-03;  0.0000000E+00;  4.3537136E-04;  9.9695868E+02;  2.5917086E-01; -2.5196760E+03;3;  6.3263922E+00;  0.0000000E+00;  1.0162249E+00;0; -7.8571334E-02;  6.0428052E+03;  0.0000000E+00; -1.3785805E+00;  4.0000000E+04;  0.0000000E+00;  3.9346969E+04; -5.5216864E-02;  0.0000000E+00; -2.3354469E-02;  4.7636840E+04;
  1.0372963E+00;  9.9999998E-03; -2.8243864E-01;7877;  4.6945275E-03;  0.0000000E+00;  1.3242665E-03;  9.9751550E+02;  2.7326995E-01; -2.0583550E+03;3;  6.0662704E+00;  0.0000000E+00;  2.0307884E+00;0; -8.5062824E-02;  5.4420767E+03;  0.0000000E+00; -2.3391833E+00;  4.0000000E+04;  0.0000000E+00;  3.9296500E+04; -7.3326454E-02;  0.0000000E+00; -1.1736368E-02;  2.8517888E+03;
  1.0377759E+00;  9.9999998E-03; -2.9251754E-01;7876;  6.1446959E-03;  0.0000000E+00;  1.9877669E-03;  9.9722375E+02;  2.7370664E-01; -2.3000759E+03;3;  7.0038886E+00;  0.0000000E+00;  2.4600472E+00;0; -8.6612359E-02;  5.4242017E+03;  0.0000000E+00; -2.2277343E+00;  4.0000000E+04;  0.0000000E+00;  3.9299371E+04; -7.0602864E-02;  0.0000000E+00; -1.6009493E-02;  9.4516729E+03;
  1.0384231E+00;  9.9999998E-03; -3.0260292E-01;7875;  7.7778734E-03;  0.0000000E+00;  2.9170047E-03;  9.9682208E+02;  2.7430606E-01; -2.6328555E+03;3;  8.0331144E+00;  0.0000000E+00;  2.8099999E+00;0; -9.4259918E-02;  5.4007617E+03;  0.0000000E+00; -1.7082657E+00;  4.0000000E+04;  0.0000000E+00;  3.9301105E+04; -6.8568386E-02;  0.0000000E+00; -2.5691532E-02;  1.7561156E+04;
  1.0634003E+00;  9.9999998E-03; -2.8260878E-01;7938;  4.0337732E-03;  0.0000000E+00;  4.4287052E-03;  9.9671246E+02;  2.9039052E-01; -2.7236633E+03;3;  7.6953368E+00;  0.0000000E+00;  4.4634118E+00;0; -1.0891718E-01;  4.8167705E+03;  0.0000000E+00; -2.0638616E+00;  4.0000000E+04;  0.0000000E+00;  3.9257816E+04; -1.0078278E-01;  0.0000000E+00; -8.1343912E-03;  1.5750097E+04;
  1.0633891E+00;  9.9999998E-03; -2.9269147E-01;7937;  6.0348753E-03;  0.0000000E+00;  5.2842745E-03;  9.9640295E+02;  2.9051185E-01; -2.9800498E+03;3;  8.7437372E+00;  0.0000000E+00;  4.7930889E+00;0; -1.1474071E-01;  4.8128813E+03;  0.0000000E+00; -2.1855443E+00;  4.0000000E+04;  0.0000000E+00;  3.9257664E+04; -9.7771019E-02;  0.0000000E+00; -1.6969694E-02;  2.4307752E+04;
  1.0632942E+00;  9.9999998E-03; -3.0277625E-01;7936;  8.6068492E-03;  0.0000000E+00;  6.1590471E-03;  9.9603864E+02;  2.9061264E-01; -3.2819165E+03;3;  1.0696423E+01;  0.0000000E+00;  4.9154344E+00;0; -1.2289689E-01;  4.8105796E+03;  0.0000000E+00; -2.2628675E+00;  4.0000000E+04;  0.0000000E+00;  3.9260074E+04; -9.4639234E-02;  0.0000000E+00; -2.8257653E-02;  3.2946586E+04;
  1.0922204E+00;  9.9999998E-03; -2.8280473E-01;7999;  1.0697301E-03;  0.0000000E+00;  9.1680214E-03;  9.9440759E+02;  3.0988777E-01; -4.6331689E+03;3;  9.5517855E+00;  0.0000000E+00;  7.5603433E+00;0; -1.5306720E-01;  4.2135190E+03;  0.0000000E+00; -1.3304114E+00;  4.0000000E+04;  0.0000000E+00;  3.9233371E+04; -1.4505711E-01;  0.0000000E+00; -8.0100857E-03;  2.4810883E+04;
  1.0918289E+00;  9.9999998E-03; -2.9289210E-01;7998;  3.6554260E-03;  0.0000000E+00;  9.9104419E-03;  9.9408307E+02;  3.0971700E-01; -4.9020483E+03;3;  1.0603363E+01;  0.0000000E+00;  7.7757540E+00;0; -1.6267040E-01;  4.2187393E+03;  0.0000000E+00; -1.1756325E+00;  4.0000000E+04;  0.0000000E+00;  3.9228555E+04; -1.4344437E-01;  0.0000000E+00; -1.9226035E-02;  4.4243348E+04;
  1.0912038E+00;  9.9999998E-03; -3.0297828E-01;7997;  7.5639347E-03;  0.0000000E+00;  1.0530217E-02;  9.9381671E+02;  3.0931938E-01; -5.1226836E+03;3;  1.1671182E+01;  0.0000000E+00;  7.9334512E+00;0; -1.7025587E-01;  4.2313540E+03;  0.0000000E+00; -1.9581221E+00;  4.0000000E+04;  0.0000000E+00;  3.9227312E+04; -1.3961914E-01;  0.0000000E+00; -3.0636733E-02;  7.2123516E+04;
  1.1253134E+00;  9.9999998E-03; -2.8305465E-01;8060; -5.9044724E-03;  0.0000000E+00;  1.5786730E-02;  9.9103461E+02;  3.3265278E-01; -7.4275542E+03;3;  1.1364640E+01;  0.0000000E+00;  1.1363186E+01;0; -1.7753677E-01;  3.6332275E+03;  0.0000000E+00; -2.1137621E+00;  4.0000000E+04;  0.0000000E+00;  3.9217465E+04; -1.5384156E-01;  0.0000000E+00; -2.3695212E-02;  2.5801350E+04;
  1.1249495E+00;  9.9999998E-03; -2.9314294E-01;8059; -4.1667772E-03;  0.0000000E+00;  1.5985684E-02;  9.9015692E+02;  3.3255920E-01; -8.1546855E+03;3;  1.2264934E+01;  0.0000000E+00;  1.1294857E+01;0; -1.9600870E-01;  3.6321758E+03;  0.0000000E+00; -1.4258745E+00;  4.0000000E+04;  0.0000000E+00;  3.9216133E+04; -1.6285034E-01;  0.0000000E+00; -3.3158362E-02;  4.0104320E+04;
  1.1242598E+00;  9.9999998E-03; -3.0323163E-01;8058; -1.2054591E-03;  0.0000000E+00;  1.6005227E-02;  9.8943158E+02;  3.3217743E-01; -8.7556514E+03;3;  1.3259993E+01;  0.0000000E+00;  1.1157598E+01;0; -2.0960218E-01;  3.6393066E+03;  0.0000000E+00; -1.6103255E+00;  4.0000000E+04;  0.0000000E+00;  3.9214953E+04; -1.6947401E-01;  0.0000000E+00; -4.0128171E-02;  6.5977734E+04;
  1.1656126E+00;  9.9999998E-03; -2.8341067E-01;8121; -1.7314268E-02;  0.0000000E+00;  2.3431534E-02;  9.9033276E+02;  3.5907373E-01; -8.0089341E+03;3;  1.0783813E+01;  0.0000000E+00;  1.1712719E+01;0;  2.2611314E-01;  3.1172449E+03;  0.0000000E+00; -5.6508946E+00;  4.0000000E+04;  0.0000000E+00;  3.9166707E+04;  3.6927050E-01;  0.0000000E+00; -1.4315736E-01;  2.2322023E+04;
  1.0124316E+00;  9.9999998E-03; -2.7221245E-01;7817;  3.7469680E-03;  0.0000000E+00; -1.0678596E-03;  9.9761395E+02;  2.5739449E-01; -1.9767792E+03;3;  3.6383536E+00;  0.0000000E+00; -1.5840890E-01;0; -7.8929856E-02;  6.1261611E+03;  0.0000000E+00; -1.9416205E+00;  4.0000000E+04;  0.0000000E+00;  3.9337145E+04; -6.2751651E-02;  0.0000000E+00; -1.6178209E-02;  4.7784570E+03;
  1.0370551E+00;  9.9999998E-03; -2.7236712E-01;7878;  3.3372361E-03;  0.0000000E+00;  8.4187946E-04;  9.9779767E+02;  2.7302691E-01; -1.8245846E+03;3;  5.0843258E+00;  0.0000000E+00;  1.6953729E+00;0; -8.7619692E-02;  5.4531440E+03;  0.0000000E+00; -2.0691910E+00;  4.0000000E+04;  0.0000000E+00;  3.9291941E+04; -7.6776236E-02;  0.0000000E+00; -1.0843452E-02;  1.2361886E+03;
  1.0632099E+00;  9.9999998E-03; -2.7252567E-01;7939;  2.3192097E-03;  0.0000000E+00;  3.6464348E-03;  9.9708289E+02;  2.9015228E-01; -2.4167598E+03;3;  6.6245308E+00;  0.0000000E+00;  4.1386685E+00;0; -1.0733069E-01;  4.8259683E+03;  0.0000000E+00; -1.9979644E+00;  4.0000000E+04;  0.0000000E+00;  3.9260418E+04; -1.0372517E-01;  0.0000000E+00; -3.6055236E-03;  8.8618770E+03;
  1.0921811E+00;  9.9999998E-03; -2.7271444E-01;8000; -8.4206340E-04;  0.0000000E+00;  8.4489537E-03;  9.9496899E+02;  3.0971649E-01; -4.1680498E+03;3;  8.4698954E+00;  0.0000000E+00;  7.3345938E+00;0; -1.4687817E-01;  4.2201367E+03;  0.0000000E+00; -2.0973454E+00;  4.0000000E+04;  0.0000000E+00;  3.9239422E+04; -1.4533514E-01;  0.0000000E+00; -1.5430354E-03;  1.4345872E+04;
  1.1255449E+00;  9.9999998E-03; -2.7296942E-01;8061; -7.2680661E-03;  0.0000000E+00;  1.5735850E-02;  9.9195325E+02;  3.3264264E-01; -6.6664980E+03;3;  1.0397527E+01;  0.0000000E+00;  1.1160396E+01;0; -1.6162008E-01;  3.6375955E+03;  0.0000000E+00; -3.1062918E+00;  4.0000000E+04;  0.0000000E+00;  3.9216176E+04; -1.4341176E-01;  0.0000000E+00; -1.8208332E-02;  1.8953594E+04;
  1.1657748E+00;  9.9999998E-03; -2.7334756E-01;8122; -1.6420515E-02;  0.0000000E+00;  2.5315346E-02;  9.9167554E+02;  3.5896653E-01; -6.8964951E+03;3;  1.0271524E+01;  0.0000000E+00;  1.4248627E+01;0;  2.6972252E-01;  3.1260173E+03;  0.0000000E+00; -4.7697110E+00;  4.0000000E+04;  0.0000000E+00;  3.9144109E+04;  4.1176561E-01;  0.0000000E+00; -1.4204308E-01;  2.1289012E+04;
  1.1660191E+00;  9.9999998E-03; -2.9349273E-01;8120; -1.9703759E-02;  0.0000000E+00;  1.7742902E-02;  9.8876282E+02;  3.5963398E-01; -9.3096094E+03;3;  1.1239305E+01;  0.0000000E+00;  6.1794572E+00;0;  2.7055857E-01;  3.1003325E+03;  0.0000000E+00; -6.1192126E+00;  4.0000000E+04;  0.0000000E+00;  3.9181934E+04;  3.4648362E-01;  0.0000000E+00; -7.5925045E-02;  1.9888170E+04;
  1.1668587E+00;  9.9999998E-03; -3.0359274E-01;8119; -2.3215676E-02;  0.0000000E+00;  1.3021910E-02;  9.8692590E+02;  3.6055657E-01; -1.0831406E+04;3;  1.3790204E+01;  0.0000000E+00;  8.9831705E+00;0;  3.3189538E-01;  3.0773057E+03;  0.0000000E+00; -5.8353405E+00;  4.0000000E+04;  0.0000000E+00;  3.9186121E+04;  3.3872882E-01;  0.0000000E+00; -6.8334220E-03;  1.6127894E+04;
  1.2084998E+00;  9.9999998E-03; -2.7364835E-01;8183; -3.2458957E-02;  0.0000000E+00;  8.4774224E-03;  9.9544672E+02;  3.7539423E-01; -3.7721338E+03;3;  9.3572493E+00;  0.0000000E+00;  1.4115549E+00;0;  2.3867483E+00;  2.8827734E+03;  0.0000000E+00; -6.5398207E+00;  4.0000000E+04;  0.0000000E+00;  3.9105168E+04;  2.6610994E+00;  0.0000000E+00; -2.7435109E-01;  2.2724840E+04;
  1.2092149E+00;  9.9999998E-03; -2.8372487E-01;8182; -3.5509221E-02;  0.0000000E+00; -2.7561588E-03;  9.9389203E+02;  3.7579787E-01; -5.0601411E+03;3;  1.3601709E+01;  0.0000000E+00;  3.0892570E+00;0;  2.5262854E+00;  2.8697666E+03;  0.0000000E+00; -9.5976849E+00;  4.0000000E+04;  0.0000000E+00;  3.9120484E+04;  2.6721749E+00;  0.0000000E+00; -1.4588960E-01;  2.3896953E+04;
  1.2101650E+00;  9.9999998E-03; -2.9381734E-01;8181; -4.1526552E-02;  0.0000000E+00; -7.1639945E-03;  9.9192377E+02;  3.7629393E-01; -6.6907397E+03;3;  1.7255720E+01;  0.0000000E+00;  1.2082054E+01;0;  2.6347883E+00;  2.8543274E+03;  0.0000000E+00; -1.1771214E+01;  4.0000000E+04;  0.0000000E+00;  3.9125758E+04;  2.7127304E+00;  0.0000000E+00; -7.7942044E-02;  1.6155088E+04;
  1.2119128E+00;  9.9999998E-03; -3.0392644E-01;8180; -4.9276002E-02;  0.0000000E+00; -5.4422114E-03;  9.8984625E+02;  3.7704089E-01; -8.4118438E+03;3;  2.0824282E+01;  0.0000000E+00;  1.4200108E+01;0;  2.7087843E+00;  2.8354719E+03;  0.0000000E+00; -1.2758420E+01;  4.0000000E+04;  0.0000000E+00;  3.9122969E+04;  2.8274739E+00;  0.0000000E+00; -1.1868943E-01;  1.8433512E+04;
  1.2506137E+00;  9.9999998E-03; -2.8389946E-01;8243;  6.6587597E-02;  0.0000000E+00; -1.4944199E-02;  9.9398163E+02;  3.7160960E-01; -4.9857466E+03;3; -1.2181914E+02;  0.0000000E+00;  4.2773697E+01;0;  5.1752048E+00;  2.9431050E+03;  0.0000000E+00; -1.0225651E+01;  4.0000000E+04;  0.0000000E+00;  3.9026379E+04;  5.8728952E+00;  0.0000000E+00; -6.9769067E-01;  3.7106949E+04;
  1.2516872E+00;  9.9999998E-03; -2.9397357E-01;8242;  4.4263344E-02;  0.0000000E+00; -1.6362259E-02;  9.9241498E+02;  3.7164855E-01; -6.2835771E+03;3; -1.2718723E+02;  0.0000000E+00;  4.0142551E+01;0;  5.2843018E+00;  2.9352791E+03;  0.0000000E+00; -1.2166553E+01;  4.0000000E+04;  0.0000000E+00;  3.9053051E+04;  5.9892263E+00;  0.0000000E+00; -7.0492458E-01;  3.4124422E+04;
  1.2535599E+00;  9.9999998E-03; -3.0405554E-01;8241;  3.2026019E-02;  0.0000000E+00; -1.8536158E-02;  9.9109167E+02;  3.7168536E-01; -7.3797896E+03;3; -1.3413329E+02;  0.0000000E+00;  3.7436760E+01;0;  5.4786711E+00;  2.9290608E+03;  0.0000000E+00; -1.2877051E+01;  4.0000000E+04;  0.0000000E+00;  3.9085832E+04;  6.1554689E+00;  0.0000000E+00; -6.7679763E-01;  2.5299164E+04;
  1.2872922E+00;  9.9999998E-03; -2.8389248E-01;8304;  4.6046761E-01;  0.0000000E+00; -7.5910456E-02;  9.9774835E+02;  3.5798955E-01; -1.8651797E+03;3; -1.2810771E+02;  0.0000000E+00;  4.0831280E+01;0;  6.3160224E+00;  3.2002944E+03;  0.0000000E+00; -8.9882641E+00;  4.0000000E+04;  0.0000000E+00;  3.8931727E+04;  6.7789512E+00;  0.0000000E+00; -4.6292859E-01;  4.0814719E+04;
  1.2876693E+00;  9.9999998E-03; -2.9398313E-01;8303;  4.4120282E-01;  0.0000000E+00; -7.1624093E-02;  9.9626447E+02;  3.5804370E-01; -3.0944104E+03;3; -1.3760817E+02;  0.0000000E+00;  3.9857376E+01;0;  6.3764930E+00;  3.1933372E+03;  0.0000000E+00; -1.0126633E+01;  4.0000000E+04;  0.0000000E+00;  3.8947324E+04;  6.8782244E+00;  0.0000000E+00; -5.0173128E-01;  3.6356559E+04;
  1.2890337E+00;  9.9999998E-03; -3.0407536E-01;8302;  4.3849513E-01;  0.0000000E+00; -6.8705246E-02;  9.9522961E+02;  3.5803697E-01; -3.9516428E+03;3; -1.4536497E+02;  0.0000000E+00;  3.8486469E+01;0;  6.4346395E+00;  3.1900225E+03;  0.0000000E+00; -1.0425544E+01;  4.0000000E+04;  0.0000000E+00;  3.8974570E+04;  6.9515433E+00;  0.0000000E+00; -5.1690376E-01;  2.7717754E+04;
  1.3203046E+00;  9.9999998E-03; -2.8375474E-01;8365;  7.6021510E-01;  0.0000000E+00; -1.2675638E-01;  1.0025423E+03;  3.4169611E-01;  2.1057507E+03;3; -6.5835304E+01;  0.0000000E+00;  2.7965992E+01;0;  5.4876471E+00;  3.5444446E+03;  0.0000000E+00; -9.4022264E+00;  4.0000000E+04;  0.0000000E+00;  3.8886711E+04;  5.5196643E+00;  0.0000000E+00; -3.2017425E-02;  4.2002051E+04;
  1.3210858E+00;  9.9999998E-03; -2.9385877E-01;8364;  7.6159006E-01;  0.0000000E+00; -1.2123296E-01;  1.0015264E+03;  3.4162334E-01;  1.2643752E+03;3; -7.2826782E+01;  0.0000000E+00;  2.8012152E+01;0;  5.5233636E+00;  3.5422263E+03;  0.0000000E+00; -1.1076341E+01;  4.0000000E+04;  0.0000000E+00;  3.8896145E+04;  5.5917439E+00;  0.0000000E+00; -6.8380527E-02;  4.1611062E+04;
  1.3227247E+00;  9.9999998E-03; -3.0396044E-01;8363;  7.7287585E-01;  0.0000000E+00; -1.1722484E-01;  1.0007034E+03;  3.4141564E-01;  5.8256714E+02;3; -7.7171143E+01;  0.0000000E+00;  2.7720070E+01;0;  5.5058985E+00;  3.5440586E+03;  0.0000000E+00; -1.1740396E+01;  4.0000000E+04;  0.0000000E+00;  3.8919582E+04;  5.5966539E+00;  0.0000000E+00; -9.0755388E-02;  3.5295883E+04;
  1.2496859E+00;  9.9999998E-03; -2.7382424E-01;8244;  7.7243738E-02;  0.0000000E+00; -1.7474415E-02;  9.9542688E+02;  3.7156224E-01; -3.7884446E+03;3; -1.1813951E+02;  0.0000000E+00;  4.3675648E+01;0;  5.1816540E+00;  2.9501743E+03;  0.0000000E+00; -7.1426373E+00;  4.0000000E+04;  0.0000000E+00;  3.9014047E+04;  5.7878962E+00;  0.0000000E+00; -6.0624200E-01;  2.7739791E+04;
  1.2867482E+00;  9.9999998E-03; -2.7379203E-01;8305;  4.7314665E-01;  0.0000000E+00; -8.0716051E-02;  9.9922192E+02;  3.5803059E-01; -6.4453833E+02;3; -1.2111649E+02;  0.0000000E+00;  4.1848984E+01;0;  6.2768188E+00;  3.2047646E+03;  0.0000000E+00; -6.6153636E+00;  4.0000000E+04;  0.0000000E+00;  3.8939027E+04;  6.6760354E+00;  0.0000000E+00; -3.9921680E-01;  3.1838498E+04;
  1.3197502E+00;  9.9999998E-03; -2.7363914E-01;8366;  7.5987917E-01;  0.0000000E+00; -1.3300535E-01;  1.0037057E+03;  3.4175661E-01;  3.0694680E+03;3; -5.8594925E+01;  0.0000000E+00;  2.8130699E+01;0;  5.4258542E+00;  3.5468184E+03;  0.0000000E+00; -6.8235254E+00;  4.0000000E+04;  0.0000000E+00;  3.8900922E+04;  5.4192033E+00;  0.0000000E+00;  6.6509116E-03;  3.3828746E+04;
  1.3510066E+00;  9.9999998E-03; -2.7341360E-01;8427;  9.1311067E-01;  0.0000000E+00; -1.5706526E-01;  1.0062015E+03;  3.2336575E-01;  5.1360469E+03;3;  3.5456184E+01;  0.0000000E+00; -2.0529132E+00;0;  3.7439141E+00;  3.9731326E+03;  0.0000000E+00; -7.4987884E+00;  4.0000000E+04;  0.0000000E+00;  3.8916312E+04;  3.3347888E+00;  0.0000000E+00;  4.0912542E-01;  3.1279195E+04;
  1.3526378E+00;  9.9999998E-03; -2.8353113E-01;8426;  9.2805940E-01;  0.0000000E+00; -1.4950469E-01;  1.0055204E+03;  3.2297701E-01;  4.5719722E+03;3;  3.4004887E+01;  0.0000000E+00; -2.6741350E+00;0;  3.7130792E+00;  3.9806860E+03;  0.0000000E+00; -1.0433753E+01;  4.0000000E+04;  0.0000000E+00;  3.8903289E+04;  3.3332415E+00;  0.0000000E+00;  3.7983775E-01;  3.8073098E+04;
  1.3542945E+00;  9.9999998E-03; -2.9363981E-01;8425;  9.4203359E-01;  0.0000000E+00; -1.4378566E-01;  1.0048667E+03;  3.2254678E-01;  4.0305146E+03;3;  3.2177441E+01;  0.0000000E+00; -2.8342853E+00;0;  3.6620796E+00;  3.9890759E+03;  0.0000000E+00; -1.2236553E+01;  4.0000000E+04;  0.0000000E+00;  3.8910039E+04;  3.3152182E+00;  0.0000000E+00;  3.4686127E-01;  3.7574586E+04;
  1.3564746E+00;  9.9999998E-03; -3.0374575E-01;8424;  9.5736122E-01;  0.0000000E+00; -1.3962707E-01;  1.0041367E+03;  3.2191727E-01;  3.4258711E+03;3;  3.1023598E+01;  0.0000000E+00; -3.1210053E+00;0;  3.5671751E+00;  4.0024763E+03;  0.0000000E+00; -1.2204295E+01;  4.0000000E+04;  0.0000000E+00;  3.8930473E+04;  3.2476377E+00;  0.0000000E+00;  3.1953734E-01;  2.8189398E+04;
  1.3816030E+00;  9.9999998E-03; -2.7315727E-01;8488;  9.3756855E-01;  0.0000000E+00; -1.3351277E-01;  1.0057448E+03;  3.0244350E-01;  4.7568569E+03;3;  7.2980637E+01;  0.0000000E+00; -2.8524513E+01;0;  2.0097966E+00;  4.5243574E+03;  0.0000000E+00; -8.5676079E+00;  4.0000000E+04;  0.0000000E+00;  3.8978355E+04;  1.4887998E+00;  0.0000000E+00;  5.2099669E-01;  2.8339129E+04;
  1.3834711E+00;  9.9999998E-03; -2.8328535E-01;8487;  9.5336586E-01;  0.0000000E+00; -1.2670533E-01;  1.0051491E+03;  3.0183595E-01;  4.2635449E+03;3;  7.1728188E+01;  0.0000000E+00; -2.8003567E+01;0;  1.9371361E+00;  4.5407314E+03;  0.0000000E+00; -1.0868643E+01;  4.0000000E+04;  0.0000000E+00;  3.8961641E+04;  1.4585479E+00;  0.0000000E+00;  4.7858810E-01;  3.1366602E+04;
  1.3855656E+00;  9.9999998E-03; -2.9340068E-01;8486;  9.6937144E-01;  0.0000000E+00; -1.2074107E-01;  1.0044744E+03;  3.0103710E-01;  3.7047971E+03;3;  6.9611992E+01;  0.0000000E+00; -2.7979195E+01;0;  1.8279293E+00;  4.5622954E+03;  0.0000000E+00; -1.1421353E+01;  4.0000000E+04;  0.0000000E+00;  3.8962969E+04;  1.4076977E+00;  0.0000000E+00;  4.2023164E-01;  2.6426455E+04;
  1.3880652E+00;  9.9999998E-03; -3.0351043E-01;8485;  9.8590958E-01;  0.0000000E+00; -1.1636014E-01;  1.0035239E+03;  2.9999968E-01;  2.9177563E+03;3;  6.7817268E+01;  0.0000000E+00; -2.8315514E+01;0;  1.7029850E+00;  4.5903823E+03;  0.0000000E+00; -8.9702129E+00;  4.0000000E+04;  0.0000000E+00;  3.8979199E+04;  1.3291142E+00;  0.0000000E+00;  3.7387082E-01;  1.0766993E+04;
  1.4098927E+00;  9.9999998E-03; -2.7294135E-01;8549;  9.3591815E-01;  0.0000000E+00; -9.2924900E-02;  1.0030532E+03;  2.8090313E-01;  2.5273872E+03;3;  7.7186150E+01;  0.0000000E+00; -3.6641106E+01;0;  9.8817611E-01;  5.2025200E+03;  0.0000000E+00; -9.7778130E+00;  4.0000000E+04;  0.0000000E+00;  3.9050023E+04;  4.1944367E-01;  0.0000000E+00;  5.6873244E-01;  3.2470740E+04;
  1.4120241E+00;  9.9999998E-03; -2.8308278E-01;8548;  9.5206320E-01;  0.0000000E+00; -8.6248949E-02;  1.0024973E+03;  2.8005552E-01;  2.0670881E+03;3;  7.5665031E+01;  0.0000000E+00; -3.6157875E+01;0;  8.9642084E-01;  5.2328232E+03;  0.0000000E+00; -1.1426203E+01;  4.0000000E+04;  0.0000000E+00;  3.9025316E+04;  3.8314220E-01;  0.0000000E+00;  5.1327866E-01;  3.4572145E+04;
  1.4144534E+00;  9.9999998E-03; -2.9320842E-01;8547;  9.6814430E-01;  0.0000000E+00; -7.9561472E-02;  1.0016637E+03;  2.7895552E-01;  1.3770935E+03;3;  7.4552368E+01;  0.0000000E+00; -3.6642963E+01;0;  7.6177597E-01;  5.2713311E+03;  0.0000000E+00; -1.0448305E+01;  4.0000000E+04;  0.0000000E+00;  3.9016031E+04;  3.3395448E-01;  0.0000000E+00;  4.2782146E-01;  2.6277984E+04;
  1.4170902E+00;  9.9999998E-03; -3.0332440E-01;8546;  9.8454839E-01;  0.0000000E+00; -7.4626908E-02;  1.0004048E+03;  2.7773398E-01;  3.3508459E+02;3;  7.3989784E+01;  0.0000000E+00; -3.6658829E+01;0;  6.3085753E-01;  5.3126875E+03;  0.0000000E+00; -4.5585656E+00;  4.0000000E+04;  0.0000000E+00;  3.9024910E+04;  2.7562156E-01;  0.0000000E+00;  3.5523596E-01;  6.1736138E+03;
  1.4382844E+00;  9.9999998E-03; -2.8294244E-01;8609;  9.4579011E-01;  0.0000000E+00; -4.6181027E-02;  9.9931934E+02;  2.5903204E-01; -5.6321118E+02;3;  7.8772102E+01;  0.0000000E+00; -3.9717030E+01;0;  4.7907525E-01;  6.0659253E+03;  0.0000000E+00; -1.4183989E+01;  4.0000000E+04;  0.0000000E+00;  3.9087133E+04; -1.1714153E-01;  0.0000000E+00;  5.9621680E-01;  5.4576160E+04;
  1.4408544E+00;  9.9999998E-03; -2.9308134E-01;8608;  9.6129459E-01;  0.0000000E+00; -3.8423721E-02;  9.9816022E+02;  2.5784039E-01; -1.5221716E+03;3;  7.8245049E+01;  0.0000000E+00; -4.0433136E+01;0;  3.2884485E-01;  6.1181309E+03;  0.0000000E+00; -1.1873999E+01;  4.0000000E+04;  0.0000000E+00;  3.9065066E+04; -1.5888698E-01;  0.0000000E+00;  4.8773181E-01;  4.3212133E+04;
  1.4436355E+00;  9.9999998E-03; -3.0320337E-01;8607;  9.7700763E-01;  0.0000000E+00; -3.3298135E-02;  9.9640802E+02;  2.5664297E-01; -2.9717305E+03;3;  7.8238640E+01;  0.0000000E+00; -4.0083923E+01;0;  1.9440927E-01;  6.1668477E+03;  0.0000000E+00; -1.5059845E+00;  4.0000000E+04;  0.0000000E+00;  3.9066859E+04; -2.0390420E-01;  0.0000000E+00;  3.9831346E-01;  1.8848956E+03;
  1.4620377E+00;  9.9999998E-03; -2.8286451E-01;8670;  9.3648398E-01;  0.0000000E+00; -1.1773795E-02;  9.9642334E+02;  2.3971882E-01; -2.9577527E+03;3;  8.1163277E+01;  0.0000000E+00; -3.7791496E+01;0;  3.8860586E-01;  7.0332139E+03;  0.0000000E+00; -1.9696617E+01;  4.0000000E+04;  0.0000000E+00;  3.9143926E+04; -3.1077477E-01;  0.0000000E+00;  6.9938064E-01;  7.9957555E+04;
  1.4648679E+00;  9.9999998E-03; -2.9301113E-01;8669;  9.5058554E-01;  0.0000000E+00; -3.3268621E-03;  9.9462109E+02;  2.3846784E-01; -4.4478110E+03;3;  8.1757431E+01;  0.0000000E+00; -3.6856342E+01;0;  2.3071554E-01;  7.0984478E+03;  0.0000000E+00; -1.6086840E+01;  4.0000000E+04;  0.0000000E+00;  3.9115727E+04; -3.5294715E-01;  0.0000000E+00;  5.8366269E-01;  6.5846000E+04;
  1.4679209E+00;  9.9999998E-03; -3.0313507E-01;8668;  9.6506166E-01;  0.0000000E+00;  2.3893097E-03;  9.9199438E+02;  2.3739371E-01; -6.6192505E+03;3;  8.2406059E+01;  0.0000000E+00; -3.8293159E+01;0;  8.0844790E-02;  7.1448262E+03;  0.0000000E+00;  8.8018566E-01;  4.0000000E+04;  0.0000000E+00;  3.9115629E+04; -3.9301661E-01;  0.0000000E+00;  4.7386140E-01;  4.1906499E+03;
  1.4830865E+00;  9.9999998E-03; -2.8284183E-01;8731;  9.2467183E-01;  0.0000000E+00;  1.7489830E-02;  9.9430664E+02;  2.2277854E-01; -4.7050337E+03;3;  8.3616638E+01;  0.0000000E+00; -4.5910767E+01;0;  4.1001448E-01;  8.1032847E+03;  0.0000000E+00; -2.4183050E+01;  4.0000000E+04;  0.0000000E+00;  3.9191500E+04; -3.3903190E-01;  0.0000000E+00;  7.4904639E-01;  8.6779336E+04;
  1.4861556E+00;  9.9999998E-03; -2.9298684E-01;8730;  9.3734688E-01;  0.0000000E+00;  1.8795392E-02;  9.9169391E+02;  2.2154896E-01; -6.8633818E+03;3;  8.3720085E+01;  0.0000000E+00; -3.0004704E+01;0;  3.7055019E-01;  8.1748706E+03;  0.0000000E+00; -1.9406982E+01;  4.0000000E+04;  0.0000000E+00;  3.9168371E+04; -3.8488993E-01;  0.0000000E+00;  7.5544012E-01;  7.2970656E+04;
  1.4892373E+00;  9.9999998E-03; -3.0311051E-01;8729;  9.5054489E-01;  0.0000000E+00;  2.7062654E-02;  9.8800549E+02;  2.2080500E-01; -9.9099043E+03;3;  8.5163742E+01;  0.0000000E+00; -3.2019497E+01;0;  1.6811192E-01;  8.1940205E+03;  0.0000000E+00;  5.4164948E+00;  4.0000000E+04;  0.0000000E+00;  3.9168047E+04; -4.2290372E-01;  0.0000000E+00;  5.9101564E-01;  1.2527705E+04;
  1.5027765E+00;  9.9999998E-03; -2.8286171E-01;8792;  9.0959883E-01;  0.0000000E+00;  5.1611345E-02;  9.9274622E+02;  2.0795527E-01; -5.9894082E+03;3;  8.6229324E+01;  0.0000000E+00; -5.9750778E+01;0;  3.5933974E-01;  9.2675293E+03;  0.0000000E+00; -2.5508087E+01;  4.0000000E+04;  0.0000000E+00;  3.9228121E+04; -2.4213228E-01;  0.0000000E+00;  6.0147202E-01;  7.4521312E+04;
  1.4363755E+00;  9.9999998E-03; -2.7278587E-01;8610;  9.3007368E-01;  0.0000000E+00; -5.0499670E-02;  9.9981409E+02;  2.5987905E-01; -1.5382831E+02;3;  7.9806725E+01;  0.0000000E+00; -4.1218914E+01;0;  5.4124773E-01;  6.0255044E+03;  0.0000000E+00; -1.2510719E+01;  4.0000000E+04;  0.0000000E+00;  3.9120262E+04; -8.5536420E-02;  0.0000000E+00;  6.2678415E-01;  5.0256977E+04;
  1.4606068E+00;  9.9999998E-03; -2.7270484E-01;8671;  9.2116696E-01;  0.0000000E+00; -8.2065342E-03;  9.9688287E+02;  2.4044423E-01; -2.5778689E+03;3;  8.1968605E+01;  0.0000000E+00; -5.3213696E+01;0;  3.5819790E-01;  6.9878843E+03;  0.0000000E+00; -1.7711735E+01;  4.0000000E+04;  0.0000000E+00;  3.9176203E+04; -2.7263156E-01;  0.0000000E+00;  6.3082945E-01;  7.4199461E+04;
  1.4822562E+00;  9.9999998E-03; -2.7269191E-01;8732;  9.0901911E-01;  0.0000000E+00;  4.0003963E-02;  9.9458472E+02;  2.2330476E-01; -4.4753364E+03;3;  8.3674065E+01;  0.0000000E+00; -6.4330872E+01;0;  1.7538115E-01;  8.0591436E+03;  0.0000000E+00; -2.2849020E+01;  4.0000000E+04;  0.0000000E+00;  3.9214445E+04; -2.8191927E-01;  0.0000000E+00;  4.5730042E-01;  8.4867891E+04;
  1.5023098E+00;  9.9999998E-03; -2.7272069E-01;8793;  8.9539784E-01;  0.0000000E+00;  7.9423375E-02;  9.9284436E+02;  2.0831126E-01; -5.9085381E+03;3;  8.3256149E+01;  0.0000000E+00; -5.9108105E+01;0;  1.1176495E-01;  9.2266895E+03;  0.0000000E+00; -2.5276243E+01;  4.0000000E+04;  0.0000000E+00;  3.9244332E+04; -1.5508984E-01;  0.0000000E+00;  2.6685479E-01;  7.5713180E+04;
  1.5056850E+00;  9.9999998E-03; -2.9299647E-01;8791;  9.2200857E-01;  0.0000000E+00;  3.7015587E-02;  9.8945764E+02;  2.0692275E-01; -8.7034658E+03;3;  8.6774284E+01;  0.0000000E+00; -3.9566971E+01;0;  5.4826289E-01;  9.3294756E+03;  0.0000000E+00; -1.8990023E+01;  4.0000000E+04;  0.0000000E+00;  3.9218270E+04; -2.9592419E-01;  0.0000000E+00;  8.4418708E-01;  6.2437430E+04;
  1.5080504E+00;  9.9999998E-03; -3.0311939E-01;8790;  9.3437511E-01;  0.0000000E+00;  3.9773870E-02;  9.8523785E+02;  2.0667554E-01; -1.2185705E+04;3;  8.7388344E+01;  0.0000000E+00; -2.7143492E+01;0;  4.2114076E-01;  9.2965840E+03;  0.0000000E+00;  1.4247928E+01;  4.0000000E+04;  0.0000000E+00;  3.9215281E+04; -3.4149322E-01;  0.0000000E+00;  7.6263398E-01;  3.6013082E+04;
  1.5212662E+00;  9.9999998E-03; -2.7278778E-01;8854;  8.8246167E-01;  0.0000000E+00;  1.1026007E-01;  9.9136261E+02;  1.9537517E-01; -7.1242246E+03;3;  8.1327545E+01;  0.0000000E+00; -5.0053879E+01;0;  1.4427742E-01;  1.0459108E+04;  0.0000000E+00; -2.4416573E+01;  4.0000000E+04;  0.0000000E+00;  3.9257406E+04;  1.0129646E-01;  0.0000000E+00;  4.2980969E-02;  5.7292906E+04;
  1.5215254E+00;  9.9999998E-03; -2.8291684E-01;8853;  8.9352858E-01;  0.0000000E+00;  8.8506915E-02;  9.9134424E+02;  1.9512996E-01; -7.1392939E+03;3;  8.4660744E+01;  0.0000000E+00; -6.2081615E+01;0;  2.5299236E-01;  1.0495765E+04;  0.0000000E+00; -2.4141678E+01;  4.0000000E+04;  0.0000000E+00;  3.9250512E+04; -2.3440702E-02;  0.0000000E+00;  2.7643305E-01;  5.7386387E+04;
  1.5239100E+00;  9.9999998E-03; -2.9303667E-01;8852;  9.0429139E-01;  0.0000000E+00;  6.3920051E-02;  9.8773901E+02;  1.9439754E-01; -1.0111224E+04;3;  8.8494286E+01;  0.0000000E+00; -5.7986519E+01;0;  5.4607356E-01;  1.0531451E+04;  0.0000000E+00; -1.4608820E+01;  4.0000000E+04;  0.0000000E+00;  3.9256898E+04; -9.6829504E-02;  0.0000000E+00;  6.4290309E-01;  4.5276555E+04;
  1.5249903E+00;  9.9999998E-03; -3.0315751E-01;8851;  9.1662788E-01;  0.0000000E+00;  5.1801756E-02;  9.8432141E+02;  1.9463171E-01; -1.2928648E+04;3;  9.0122101E+01;  0.0000000E+00; -4.0175144E+01;0;  6.3199008E-01;  1.0446971E+04;  0.0000000E+00;  2.5202812E+01;  4.0000000E+04;  0.0000000E+00;  3.9247602E+04; -1.7027825E-01;  0.0000000E+00;  8.0226833E-01;  6.3885750E+04;
  1.5394295E+00;  9.9999998E-03; -2.7288660E-01;8914;  8.7046021E-01;  0.0000000E+00;  1.3250437E-01;  9.8959668E+02;  1.8416229E-01; -8.5690117E+03;3;  8.0361870E+01;  0.0000000E+00; -3.9751431E+01;0;  2.6832321E-01;  1.1740064E+04;  0.0000000E+00; -2.3027960E+01;  4.0000000E+04;  0.0000000E+00;  3.9249824E+04;  4.7671619E-01;  0.0000000E+00; -2.0839298E-01;  4.3594609E+04;
  1.5394871E+00;  9.9999998E-03; -2.8300348E-01;8913;  8.7830544E-01;  0.0000000E+00;  1.1825708E-01;  9.8947321E+02;  1.8400130E-01; -8.6706445E+03;3;  8.3387291E+01;  0.0000000E+00; -5.1926548E+01;0;  2.2800413E-01;  1.1768392E+04;  0.0000000E+00; -2.1822803E+01;  4.0000000E+04;  0.0000000E+00;  3.9253391E+04;  3.1019273E-01;  0.0000000E+00; -8.2188614E-02;  4.4370621E+04;
  1.5411705E+00;  9.9999998E-03; -2.9310748E-01;8912;  8.8619322E-01;  0.0000000E+00;  9.6669726E-02;  9.8588721E+02;  1.8360551E-01; -1.1622626E+04;3;  8.8648903E+01;  0.0000000E+00; -6.3191002E+01;0;  4.1555393E-01;  1.1762927E+04;  0.0000000E+00; -6.6387997E+00;  4.0000000E+04;  0.0000000E+00;  3.9274684E+04;  2.0102657E-01;  0.0000000E+00;  2.1452734E-01;  2.9137654E+04;
  1.5564761E+00;  9.9999998E-03; -2.7299798E-01;8973;  8.5979337E-01;  0.0000000E+00;  1.4217649E-01;  9.8808514E+02;  1.7452098E-01; -9.7975967E+03;3;  7.7497780E+01;  0.0000000E+00; -2.3932547E+01;0;  5.2563858E-01;  1.3047471E+04;  0.0000000E+00; -1.9864897E+01;  4.0000000E+04;  0.0000000E+00;  3.9235332E+04;  9.2509425E-01;  0.0000000E+00; -3.9945567E-01;  3.0750639E+04;
  1.5563976E+00;  9.9999998E-03; -2.8311116E-01;8972;  8.6421192E-01;  0.0000000E+00;  1.3341998E-01;  9.8766101E+02;  1.7444395E-01; -1.0146461E+04;3;  8.3003372E+01;  0.0000000E+00; -3.6128914E+01;0;  3.8885194E-01;  1.3060231E+04;  0.0000000E+00; -1.7352188E+01;  4.0000000E+04;  0.0000000E+00;  3.9242215E+04;  7.2098488E-01;  0.0000000E+00; -3.3213294E-01;  3.2343619E+04;
  1.5572280E+00;  9.9999998E-03; -2.9321164E-01;8971;  8.6951184E-01;  0.0000000E+00;  1.1981852E-01;  9.8460321E+02;  1.7435838E-01; -1.2659725E+04;3;  8.8119202E+01;  0.0000000E+00; -4.8126930E+01;0;  4.1079256E-01;  1.3013187E+04;  0.0000000E+00;  5.1195431E+00;  4.0000000E+04;  0.0000000E+00;  3.9261781E+04;  5.6434518E-01;  0.0000000E+00; -1.5355262E-01;  2.4408887E+04;
  1.5720444E+00;  9.9999998E-03; -2.9335108E-01;9030;  8.5239661E-01;  0.0000000E+00;  1.2871258E-01;  9.8493774E+02;  1.6641769E-01; -1.2361706E+04;3;  8.8817665E+01;  0.0000000E+00; -2.3486462E+01;0;  5.9085548E-01;  1.4299100E+04;  0.0000000E+00;  1.8222664E+01;  4.0000000E+04;  0.0000000E+00;  3.9212109E+04;  9.3780726E-01;  0.0000000E+00; -3.4695178E-01;  3.8156824E+04;
  1.5721993E+00;  9.9999998E-03; -2.8324431E-01;9031;  8.5163164E-01;  0.0000000E+00;  1.3729867E-01;  9.8646777E+02;  1.6627905E-01; -1.1105742E+04;3;  8.0101738E+01;  0.0000000E+00; -1.4582449E+01;0;  6.7561245E-01;  1.4358711E+04;  0.0000000E+00; -9.8331051E+00;  4.0000000E+04;  0.0000000E+00;  3.9209457E+04;  1.1538663E+00;  0.0000000E+00; -4.7825381E-01;  2.0323328E+04;
  1.5725037E+00;  9.9999998E-03; -2.7312812E-01;9032;  8.5033298E-01;  0.0000000E+00;  1.4036496E-01;  9.8698291E+02;  1.6626330E-01; -1.0682547E+04;3;  7.4397919E+01;  0.0000000E+00; -5.1379972E+00;0;  8.9446986E-01;  1.4362562E+04;  0.0000000E+00; -1.5030480E+01;  4.0000000E+04;  0.0000000E+00;  3.9207727E+04;  1.3895937E+00;  0.0000000E+00; -4.9512383E-01;  2.0134062E+04;
  1.5860351E+00;  9.9999998E-03; -2.9352060E-01;9089;  8.3390194E-01;  0.0000000E+00;  1.2531134E-01;  9.8695203E+02;  1.5952651E-01; -1.0685437E+04;3;  9.0030197E+01;  0.0000000E+00;  1.5823973E+00;0;  8.9402741E-01;  1.5633911E+04;  0.0000000E+00;  2.7401775E+01;  4.0000000E+04;  0.0000000E+00;  3.9134516E+04;  1.2698485E+00;  0.0000000E+00; -3.7582105E-01;  4.4946125E+04;
  1.5869950E+00;  9.9999998E-03; -2.8340515E-01;9090;  8.3850658E-01;  0.0000000E+00;  1.2949769E-01;  9.8645361E+02;  1.5929428E-01; -1.1091772E+04;3;  7.9622444E+01;  0.0000000E+00;  1.0599929E+01;0;  1.0658414E+00;  1.5667942E+04;  0.0000000E+00; -6.7903206E-02;  4.0000000E+04;  0.0000000E+00;  3.9152207E+04;  1.5398854E+00;  0.0000000E+00; -4.7404400E-01;  1.6044213E+04;
  1.5876044E+00;  9.9999998E-03; -2.7328435E-01;9091;  8.4182966E-01;  0.0000000E+00;  1.2913425E-01;  9.8656018E+02;  1.5920402E-01; -1.1003344E+04;3;  7.1400909E+01;  0.0000000E+00;  1.8119450E+01;0;  1.3237538E+00;  1.5676602E+04;  0.0000000E+00; -8.6052780E+00;  4.0000000E+04;  0.0000000E+00;  3.9159117E+04;  1.8047156E+00;  0.0000000E+00; -4.8096180E-01;  1.5335438E+04;
  1.6010571E+00;  9.9999998E-03; -2.8358862E-01;9148;  8.2584608E-01;  0.0000000E+00;  1.1253104E-01;  9.8771619E+02;  1.5328588E-01; -1.0030831E+04;3;  6.6172363E+01;  0.0000000E+00;  2.8147676E+01;0;  1.4879299E+00;  1.6987332E+04;  0.0000000E+00;  8.6840878E+00;  4.0000000E+04;  0.0000000E+00;  3.9078137E+04;  1.8256817E+00;  0.0000000E+00; -3.3775178E-01;  1.8479221E+04;
  1.6019698E+00;  9.9999998E-03; -2.7346316E-01;9149;  8.3947241E-01;  0.0000000E+00;  1.0923029E-01;  9.8701703E+02;  1.5315309E-01; -1.0599694E+04;3;  1.2817935E+01;  0.0000000E+00;  3.3571175E+01;0;  1.7923828E+00;  1.6984299E+04;  0.0000000E+00; -2.0397246E+00;  4.0000000E+04;  0.0000000E+00;  3.9096215E+04;  2.1328204E+00;  0.0000000E+00; -3.4043753E-01;  1.7595875E+04;
  1.6146538E+00;  9.9999998E-03; -2.8378752E-01;9205;  8.2702458E-01;  0.0000000E+00;  9.2387147E-02;  9.8990295E+02;  1.4809957E-01; -8.2189277E+03;3; -3.8421856E+01;  0.0000000E+00;  1.1138929E+01;0;  1.8593825E+00;  1.8300879E+04;  0.0000000E+00;  1.3379249E+01;  4.0000000E+04;  0.0000000E+00;  3.8998789E+04;  2.0294657E+00;  0.0000000E+00; -1.7008317E-01;  1.4176227E+04;
  1.6157149E+00;  9.9999998E-03; -2.7365971E-01;9206;  8.7073517E-01;  0.0000000E+00;  9.0723537E-02;  9.8861414E+02;  1.4796239E-01; -9.2654775E+03;3; -1.4030905E+02;  0.0000000E+00;  2.4623735E+00;0;  2.2173374E+00;  1.8284242E+04;  0.0000000E+00;  3.5134988E+00;  4.0000000E+04;  0.0000000E+00;  3.9026852E+04;  2.4512126E+00;  0.0000000E+00; -2.3387519E-01;  1.8611824E+04;
  1.6280115E+00;  9.9999998E-03; -2.8399983E-01;9262;  8.7160641E-01;  0.0000000E+00;  8.0074035E-02;  9.9219598E+02;  1.4361815E-01; -6.3284375E+03;3; -1.7438904E+02;  0.0000000E+00; -4.1394982E+00;0;  2.1630402E+00;  1.9576105E+04;  0.0000000E+00;  1.4999684E+01;  4.0000000E+04;  0.0000000E+00;  3.8919211E+04;  2.3002479E+00;  0.0000000E+00; -1.3720773E-01;  5.1350630E+03;
  1.6290302E+00;  9.9999998E-03; -2.7387887E-01;9263;  9.3024623E-01;  0.0000000E+00;  7.8687623E-02;  9.9102625E+02;  1.4349693E-01; -7.2746802E+03;3; -1.7088474E+02;  0.0000000E+00;  4.1292080E-01;0;  2.5469182E+00;  1.9566078E+04;  0.0000000E+00;  6.0280781E+00;  4.0000000E+04;  0.0000000E+00;  3.8946730E+04;  2.7546661E+00;  0.0000000E+00; -2.0774797E-01;  1.2485874E+04;
  1.6421356E+00;  9.9999998E-03; -2.7411544E-01;9319;  9.9351448E-01;  0.0000000E+00;  6.7979641E-02;  9.9340369E+02;  1.3965257E-01; -5.3231763E+03;3; -1.7821797E+02;  0.0000000E+00;  1.9685558E+00;0;  2.7804065E+00;  2.0792400E+04;  0.0000000E+00;  5.9687929E+00;  4.0000000E+04;  0.0000000E+00;  3.8862211E+04;  2.9723599E+00;  0.0000000E+00; -1.9195336E-01;  1.4117300E+03;
  1.6550484E+00;  9.9999998E-03; -2.7436474E-01;9374;  1.0548885E+00;  0.0000000E+00;  5.8230698E-02;  9.9543311E+02;  1.3635209E-01; -3.6657957E+03;3; -1.8094119E+02;  0.0000000E+00;  3.7175097E+00;0;  2.9058533E+00;  2.1939082E+04;  0.0000000E+00;  9.6083803E+00;  4.0000000E+04;  0.0000000E+00;  3.8776785E+04;  3.0867138E+00;  0.0000000E+00; -1.8086059E-01;  4.1084683E+03;
  1.0815843E-03;  9.9999998E-03; -2.6983461E-01;2450;  3.5096901E-03;  0.0000000E+00;  9.4757346E-04;  9.9361310E+02;  1.0000000E-01; -5.2914058E+03;3;  3.8939987E+01;  0.0000000E+00;  2.8512423E+01;0;  1.7549440E-02;  3.9488488E+04;  0.0000000E+00; -3.8669565E-01;  4.0000000E+04;  0.0000000E+00;  4.0001406E+04;  1.6637109E-02;  0.0000000E+00;  9.1233035E-04;  9.4409851E+02;
  1.5341046E-03;  9.9999998E-03; -2.5984675E-01;2451;  4.2951219E-03;  0.0000000E+00;  8.4832544E-04;  9.9246545E+02;  1.0000000E-01; -6.2422432E+03;3;  4.8808331E+01;  0.0000000E+00;  2.6805655E+01;0;  1.9234639E-02;  3.9393164E+04;  0.0000000E+00; -4.3850100E-01;  4.0000000E+04;  0.0000000E+00;  4.0007594E+04;  1.8804841E-02;  0.0000000E+00;  4.2979768E-04;  1.8330876E+03;
  1.9604447E-03;  9.9999998E-03; -2.4987398E-01;2452;  4.9383761E-03;  0.0000000E+00;  7.0964405E-04;  9.9133179E+02;  1.0000000E-01; -7.1814268E+03;3;  5.8546452E+01;  0.0000000E+00;  2.5188629E+01;0;  2.0677425E-02;  3.9300148E+04;  0.0000000E+00; -4.9636757E-01;  4.0000000E+04;  0.0000000E+00;  4.0014723E+04;  2.0715710E-02;  0.0000000E+00; -3.8284226E-05;  2.5787175E+03;
  2.3455818E-03;  9.9999998E-03; -2.3990245E-01;2453;  5.4480257E-03;  0.0000000E+00;  5.6475349E-04;  9.9023816E+02;  1.0000000E-01; -8.0875244E+03;3;  6.7323112E+01;  0.0000000E+00;  2.3482687E+01;0;  2.1874655E-02;  3.9212805E+04;  0.0000000E+00; -5.5161107E-01;  4.0000000E+04;  0.0000000E+00;  4.0017078E+04;  2.2313980E-02;  0.0000000E+00; -4.3932605E-04;  3.0603801E+03;
  2.6877038E-03;  9.9999998E-03; -2.2992693E-01;2454;  5.8245100E-03;  0.0000000E+00;  4.2987886E-04;  9.8922546E+02;  1.0000000E-01; -8.9265127E+03;3;  7.4485374E+01;  0.0000000E+00;  2.1463985E+01;0;  2.2833129E-02;  3.9134441E+04;  0.0000000E+00; -5.9315234E-01;  4.0000000E+04;  0.0000000E+00;  4.0018957E+04;  2.3575064E-02;  0.0000000E+00; -7.4193423E-04;  3.2586833E+03;
  2.9794713E-03;  9.9999998E-03; -2.1994580E-01;2455;  6.0786763E-03;  0.0000000E+00;  3.1341420E-04;  9.8832208E+02;  1.0000000E-01; -9.6749365E+03;3;  7.9782127E+01;  0.0000000E+00;  1.9083931E+01;0;  2.3570333E-02;  3.9066191E+04;  0.0000000E+00; -6.1107385E-01;  4.0000000E+04;  0.0000000E+00;  4.0017879E+04;  2.4505500E-02;  0.0000000E+00; -9.3516626E-04;  3.2113254E+03;
  3.2163011E-03;  9.9999998E-03; -2.0995954E-01;2456;  6.2311529E-03;  0.0000000E+00;  2.1995460E-04;  9.8754596E+02;  1.0000000E-01; -1.0317931E+04;3;  8.3282234E+01;  0.0000000E+00;  1.6464283E+01;0;  2.4110368E-02;  3.9008781E+04;  0.0000000E+00; -5.9985667E-01;  4.0000000E+04;  0.0000000E+00;  4.0014652E+04;  2.5135348E-02;  0.0000000E+00; -1.0249803E-03;  2.9867078E+03;
  3.4004715E-03;  9.9999998E-03; -1.9996847E-01;2457;  6.3081901E-03;  0.0000000E+00;  1.5172537E-04;  9.8689868E+02;  1.0000000E-01; -1.0854212E+04;3;  8.5297112E+01;  0.0000000E+00;  1.3812995E+01;0;  2.4479801E-02;  3.8962238E+04;  0.0000000E+00; -5.5975235E-01;  4.0000000E+04;  0.0000000E+00;  4.0011672E+04;  2.5509033E-02;  0.0000000E+00; -1.0292329E-03;  2.6607859E+03;
  3.5395508E-03;  9.9999998E-03; -1.8997371E-01;2458;  6.3367398E-03;  0.0000000E+00;  1.0833002E-04;  9.8638867E+02;  1.0000000E-01; -1.1276718E+04;3;  8.6113747E+01;  0.0000000E+00;  1.1326922E+01;0;  2.4705399E-02;  3.8925691E+04;  0.0000000E+00; -4.9619675E-01;  4.0000000E+04;  0.0000000E+00;  4.0008594E+04;  2.5677729E-02;  0.0000000E+00; -9.7233104E-04;  2.3016033E+03;
  3.6412859E-03;  9.9999998E-03; -1.7997627E-01;2459;  6.3414201E-03;  0.0000000E+00;  8.6405256E-05;  9.8599579E+02;  1.0000000E-01; -1.1602240E+04;3;  8.6166832E+01;  0.0000000E+00;  9.1425924E+00;0;  2.4812642E-02;  3.8898148E+04;  0.0000000E+00; -4.1785306E-01;  4.0000000E+04;  0.0000000E+00;  4.0006078E+04;  2.5693115E-02;  0.0000000E+00; -8.8047271E-04;  1.9601082E+03;
  3.7150416E-03;  9.9999998E-03; -1.6997637E-01;2460;  6.3404194E-03;  0.0000000E+00;  8.0084967E-05;  9.8570837E+02;  1.0000000E-01; -1.1840356E+04;3;  8.5738297E+01;  0.0000000E+00;  7.3038239E+00;0;  2.4823919E-02;  3.8877945E+04;  0.0000000E+00; -3.3430910E-01;  4.0000000E+04;  0.0000000E+00;  4.0003844E+04;  2.5601853E-02;  0.0000000E+00; -7.7793346E-04;  1.6677611E+03;
  3.7683460E-03;  9.9999998E-03; -1.5997484E-01;2461;  6.3445303E-03;  0.0000000E+00;  8.3128471E-05;  9.8550867E+02;  1.0000000E-01; -1.2005784E+04;3;  8.5065704E+01;  0.0000000E+00;  5.7856665E+00;0;  2.4757791E-02;  3.8864035E+04;  0.0000000E+00; -2.5403628E-01;  4.0000000E+04;  0.0000000E+00;  4.0001602E+04;  2.5442503E-02;  0.0000000E+00; -6.8471231E-04;  1.4395857E+03;
  3.8076257E-03;  9.9999998E-03; -1.4997295E-01;2462;  6.3570747E-03;  0.0000000E+00;  8.8057866E-05;  9.8537347E+02;  1.0000000E-01; -1.2117780E+04;3;  8.4352737E+01;  0.0000000E+00;  4.5252371E+00;0;  2.4628023E-02;  3.8854406E+04;  0.0000000E+00; -1.8316326E-01;  4.0000000E+04;  0.0000000E+00;  4.0001227E+04;  2.5243245E-02;  0.0000000E+00; -6.1522267E-04;  1.2776884E+03;
  3.8368702E-03;  9.9999998E-03; -1.3997199E-01;2463;  6.3751834E-03;  0.0000000E+00;  8.8579400E-05;  9.8528784E+02;  1.0000000E-01; -1.2188741E+04;3;  8.3694305E+01;  0.0000000E+00;  3.4596035E+00;0;  2.4444567E-02;  3.8848371E+04;  0.0000000E+00; -1.2512238E-01;  4.0000000E+04;  0.0000000E+00;  4.0000016E+04;  2.5021948E-02;  0.0000000E+00; -5.7738001E-04;  1.1749696E+03;
  3.8577986E-03;  9.9999998E-03; -1.2997162E-01;2464;  6.3925232E-03;  0.0000000E+00;  8.1573882E-05;  9.8523010E+02;  1.0000000E-01; -1.2236592E+04;3;  8.3202766E+01;  0.0000000E+00;  2.5491300E+00;0;  2.4214471E-02;  3.8844219E+04;  0.0000000E+00; -8.0926836E-02;  4.0000000E+04;  0.0000000E+00;  3.9999820E+04;  2.4786459E-02;  0.0000000E+00; -5.7198817E-04;  1.1187529E+03;
  3.8712320E-03;  9.9999998E-03; -1.1996990E-01;2465;  6.4014993E-03;  0.0000000E+00;  6.6657100E-05;  9.8519165E+02;  1.0000000E-01; -1.2268443E+04;3;  8.2887161E+01;  0.0000000E+00;  1.7816896E+00;0;  2.3943771E-02;  3.8841672E+04;  0.0000000E+00; -4.9830560E-02;  4.0000000E+04;  0.0000000E+00;  3.9999051E+04;  2.4536345E-02;  0.0000000E+00; -5.9257512E-04;  1.0952550E+03;
  3.8778223E-03;  9.9999998E-03; -1.0996689E-01;2466;  6.3957558E-03;  0.0000000E+00;  4.4145545E-05;  9.8516656E+02;  1.0000000E-01; -1.2289232E+04;3;  8.2741158E+01;  0.0000000E+00;  1.1483334E+00;0;  2.3639202E-02;  3.8839418E+04;  0.0000000E+00; -2.9601296E-02;  4.0000000E+04;  0.0000000E+00;  3.9998625E+04;  2.4265742E-02;  0.0000000E+00; -6.2653970E-04;  1.0943491E+03;
  1.1015422E-02;  9.9999998E-03; -2.6979226E-01;2510;  3.1787432E-03;  0.0000000E+00;  1.0129634E-03;  9.9465454E+02;  1.0000000E-01; -4.4286157E+03;3;  2.9150158E+01;  0.0000000E+00;  2.3608259E+01;0;  1.6115680E-02;  3.9568777E+04;  0.0000000E+00; -4.6509621E-01;  4.0000000E+04;  0.0000000E+00;  4.0003605E+04;  1.5201598E-02;  0.0000000E+00;  9.1408286E-04;  1.1692407E+03;
  1.1448849E-02;  9.9999998E-03; -2.5982490E-01;2511;  3.8870599E-03;  0.0000000E+00;  8.8925671E-04;  9.9376489E+02;  1.0000000E-01; -5.1656812E+03;3;  3.6432827E+01;  0.0000000E+00;  2.1564072E+01;0;  1.7423619E-02;  3.9492312E+04;  0.0000000E+00; -5.2564418E-01;  4.0000000E+04;  0.0000000E+00;  4.0010332E+04;  1.7012404E-02;  0.0000000E+00;  4.1121338E-04;  2.0724421E+03;
  1.1839733E-02;  9.9999998E-03; -2.4986860E-01;2512;  4.4501978E-03;  0.0000000E+00;  7.4440037E-04;  9.9288092E+02;  1.0000000E-01; -5.8980059E+03;3;  4.3294254E+01;  0.0000000E+00;  2.0084871E+01;0;  1.8511618E-02;  3.9419262E+04;  0.0000000E+00; -6.0165209E-01;  4.0000000E+04;  0.0000000E+00;  4.0016449E+04;  1.8576685E-02;  0.0000000E+00; -6.5068481E-05;  2.7832959E+03;
  1.2180413E-02;  9.9999998E-03; -2.3990944E-01;2513;  4.8653148E-03;  0.0000000E+00;  6.0080446E-04;  9.9204651E+02;  1.0000000E-01; -6.5892949E+03;3;  4.8939716E+01;  0.0000000E+00;  1.8796314E+01;0;  1.9394323E-02;  3.9352176E+04;  0.0000000E+00; -6.8063945E-01;  4.0000000E+04;  0.0000000E+00;  4.0019766E+04;  1.9856881E-02;  0.0000000E+00; -4.6255812E-04;  3.1930903E+03;
  1.2474795E-02;  9.9999998E-03; -2.2994159E-01;2514;  5.1504024E-03;  0.0000000E+00;  4.7247775E-04;  9.9128119E+02;  1.0000000E-01; -7.2233511E+03;3;  5.3012878E+01;  0.0000000E+00;  1.7372774E+01;0;  2.0085339E-02;  3.9292875E+04;  0.0000000E+00; -7.4546432E-01;  4.0000000E+04;  0.0000000E+00;  4.0020145E+04;  2.0837249E-02;  0.0000000E+00; -7.5191061E-04;  3.2984446E+03;
  1.2717058E-02;  9.9999998E-03; -2.1996550E-01;2515;  5.3207236E-03;  0.0000000E+00;  3.6662407E-04;  9.9061523E+02;  1.0000000E-01; -7.7750889E+03;3;  5.5406300E+01;  0.0000000E+00;  1.5632130E+01;0;  2.0606084E-02;  3.9243168E+04;  0.0000000E+00; -7.8017950E-01;  4.0000000E+04;  0.0000000E+00;  4.0018141E+04;  2.1531742E-02;  0.0000000E+00; -9.2565833E-04;  3.1569370E+03;
  1.2906063E-02;  9.9999998E-03; -2.0998134E-01;2516;  5.3983275E-03;  0.0000000E+00;  2.8237083E-04;  9.9004236E+02;  1.0000000E-01; -8.2497422E+03;3;  5.6456913E+01;  0.0000000E+00;  1.3633801E+01;0;  2.0979142E-02;  3.9202043E+04;  0.0000000E+00; -7.7529973E-01;  4.0000000E+04;  0.0000000E+00;  4.0014238E+04;  2.1973332E-02;  0.0000000E+00; -9.9419081E-04;  2.8508618E+03;
  1.3047653E-02;  9.9999998E-03; -1.9999039E-01;2517;  5.4106060E-03;  0.0000000E+00;  2.1880372E-04;  9.8958868E+02;  1.0000000E-01; -8.6255830E+03;3;  5.6365395E+01;  0.0000000E+00;  1.1525393E+01;0;  2.1225428E-02;  3.9169980E+04;  0.0000000E+00; -7.2987920E-01;  4.0000000E+04;  0.0000000E+00;  4.0011129E+04;  2.2204615E-02;  0.0000000E+00; -9.7918767E-04;  2.4645020E+03;
  1.3150194E-02;  9.9999998E-03; -1.8999466E-01;2518;  5.3866864E-03;  0.0000000E+00;  1.7519911E-04;  9.8924060E+02;  1.0000000E-01; -8.9139697E+03;3;  5.5572117E+01;  0.0000000E+00;  9.5043497E+00;0;  2.1363918E-02;  3.9146129E+04;  0.0000000E+00; -6.5071827E-01;  4.0000000E+04;  0.0000000E+00;  4.0007988E+04;  2.2271637E-02;  0.0000000E+00; -9.0771966E-04;  2.0674043E+03;
  1.3221704E-02;  9.9999998E-03; -1.7999540E-01;2519;  5.3518633E-03;  0.0000000E+00;  1.4909414E-04;  9.8898767E+02;  1.0000000E-01; -9.1234951E+03;3;  5.4402645E+01;  0.0000000E+00;  7.7028131E+00;0;  2.1412384E-02;  3.9128891E+04;  0.0000000E+00; -5.4962295E-01;  4.0000000E+04;  0.0000000E+00;  4.0005059E+04;  2.2219785E-02;  0.0000000E+00; -8.0740079E-04;  1.7067389E+03;
  1.3270868E-02;  9.9999998E-03; -1.6999350E-01;2520;  5.3243428E-03;  0.0000000E+00;  1.3621774E-04;  9.8881097E+02;  1.0000000E-01; -9.2699111E+03;3;  5.3127876E+01;  0.0000000E+00;  6.1718693E+00;0;  2.1385774E-02;  3.9117180E+04;  0.0000000E+00; -4.4001353E-01;  4.0000000E+04;  0.0000000E+00;  4.0002207E+04;  2.2088554E-02;  0.0000000E+00; -7.0278032E-04;  1.4088319E+03;
  1.3305132E-02;  9.9999998E-03; -1.5999071E-01;2521;  5.3133559E-03;  0.0000000E+00;  1.3109957E-04;  9.8869928E+02;  1.0000000E-01; -9.3624512E+03;3;  5.1868652E+01;  0.0000000E+00;  4.8964982E+00;0;  2.1296445E-02;  3.9109793E+04;  0.0000000E+00; -3.3393347E-01;  4.0000000E+04;  0.0000000E+00;  4.0001480E+04;  2.1909799E-02;  0.0000000E+00; -6.1335420E-04;  1.1837430E+03;
  1.3330542E-02;  9.9999998E-03; -1.4998874E-01;2522;  5.3198123E-03;  0.0000000E+00;  1.2803588E-04;  9.8863177E+02;  1.0000000E-01; -9.4183506E+03;3;  5.0743229E+01;  0.0000000E+00;  3.8303738E+00;0;  2.1153232E-02;  3.9105266E+04;  0.0000000E+00; -2.4019405E-01;  4.0000000E+04;  0.0000000E+00;  3.9999871E+04;  2.1705918E-02;  0.0000000E+00; -5.5268669E-04;  1.0294160E+03;
  1.3349729E-02;  9.9999998E-03; -1.3998720E-01;2523;  5.3380127E-03;  0.0000000E+00;  1.2232827E-04;  9.8859406E+02;  1.0000000E-01; -9.4496094E+03;3;  4.9794964E+01;  0.0000000E+00;  2.9264286E+00;0;  2.0962892E-02;  3.9102812E+04;  0.0000000E+00; -1.6372390E-01;  4.0000000E+04;  0.0000000E+00;  3.9999395E+04;  2.1490829E-02;  0.0000000E+00; -5.2793667E-04;  9.3464514E+02;
  1.3364071E-02;  9.9999998E-03; -1.2998542E-01;2524;  5.3586750E-03;  0.0000000E+00;  1.1124783E-04;  9.8856824E+02;  1.0000000E-01; -9.4709912E+03;3;  4.9081707E+01;  0.0000000E+00;  2.1548529E+00;0;  2.0730328E-02;  3.9100836E+04;  0.0000000E+00; -1.0593335E-01;  4.0000000E+04;  0.0000000E+00;  3.9999824E+04;  2.1269616E-02;  0.0000000E+00; -5.3928886E-04;  8.8265369E+02;
  1.3374210E-02;  9.9999998E-03; -1.1998293E-01;2525;  5.3715324E-03;  0.0000000E+00;  9.4089759E-05;  9.8855212E+02;  1.0000000E-01; -9.4843242E+03;3;  4.8559361E+01;  0.0000000E+00;  1.5039912E+00;0;  2.0460553E-02;  3.9099617E+04;  0.0000000E+00; -6.5621294E-02;  4.0000000E+04;  0.0000000E+00;  3.9999324E+04;  2.1040013E-02;  0.0000000E+00; -5.7945971E-04;  8.5591913E+02;
  1.3380318E-02;  9.9999998E-03; -1.0997960E-01;2526;  5.3687072E-03;  0.0000000E+00;  7.1149247E-05;  9.8853296E+02;  1.0000000E-01; -9.5002256E+03;3;  4.8275383E+01;  0.0000000E+00;  9.6722388E-01;0;  2.0160694E-02;  3.9098219E+04;  0.0000000E+00; -3.9603401E-02;  4.0000000E+04;  0.0000000E+00;  3.9999645E+04;  2.0795293E-02;  0.0000000E+00; -6.3459930E-04;  8.4290448E+02;
  2.0903060E-02;  9.9999998E-03; -2.6983652E-01;2571;  2.8086086E-03;  0.0000000E+00;  9.3975180E-04;  9.9591418E+02;  1.0000000E-01; -3.3850400E+03;3;  1.9405399E+01;  0.0000000E+00;  1.6439232E+01;0;  1.4386510E-02;  3.9665457E+04;  0.0000000E+00; -5.5804342E-01;  4.0000000E+04;  0.0000000E+00;  4.0006477E+04;  1.3532611E-02;  0.0000000E+00;  8.5389917E-04;  1.4321635E+03;
  2.1312334E-02;  9.9999998E-03; -2.5987640E-01;2572;  3.4394308E-03;  0.0000000E+00;  8.1767968E-04;  9.9530688E+02;  1.0000000E-01; -3.8881370E+03;3;  2.3624674E+01;  0.0000000E+00;  1.4303018E+01;0;  1.5333951E-02;  3.9611625E+04;  0.0000000E+00; -6.1916667E-01;  4.0000000E+04;  0.0000000E+00;  4.0013449E+04;  1.4973765E-02;  0.0000000E+00;  3.6018644E-04;  2.2883040E+03;
  2.1668177E-02;  9.9999998E-03; -2.4992500E-01;2573;  3.9316611E-03;  0.0000000E+00;  6.8402500E-04;  9.9472009E+02;  1.0000000E-01; -4.3742959E+03;3;  2.7136566E+01;  0.0000000E+00;  1.3179036E+01;0;  1.6086435E-02;  3.9561629E+04;  0.0000000E+00; -7.0150167E-01;  4.0000000E+04;  0.0000000E+00;  4.0018496E+04;  1.6184760E-02;  0.0000000E+00; -9.8325312E-05;  2.9137681E+03;
  2.1969989E-02;  9.9999998E-03; -2.3996623E-01;2574;  4.2757429E-03;  0.0000000E+00;  5.5649079E-04;  9.9417004E+02;  1.0000000E-01; -4.8299868E+03;3;  2.9466600E+01;  0.0000000E+00;  1.2623816E+01;0;  1.6673079E-02;  3.9517441E+04;  0.0000000E+00; -7.9033929E-01;  4.0000000E+04;  0.0000000E+00;  4.0019926E+04;  1.7143823E-02;  0.0000000E+00; -4.7074375E-04;  3.2152173E+03;
  2.2223089E-02;  9.9999998E-03; -2.2999436E-01;2575;  4.4868700E-03;  0.0000000E+00;  4.4638151E-04;  9.9368427E+02;  1.0000000E-01; -5.2324448E+03;3;  3.0373541E+01;  0.0000000E+00;  1.2101884E+01;0;  1.7117349E-02;  3.9480512E+04;  0.0000000E+00; -8.6471105E-01;  4.0000000E+04;  0.0000000E+00;  4.0019875E+04;  1.7847549E-02;  0.0000000E+00; -7.3019887E-04;  3.2065249E+03;
  2.2422638E-02;  9.9999998E-03; -2.2001065E-01;2576;  4.5852908E-03;  0.0000000E+00;  3.5569799E-04;  9.9326782E+02;  1.0000000E-01; -5.5774717E+03;3;  3.0035185E+01;  0.0000000E+00;  1.1310094E+01;0;  1.7443221E-02;  3.9451055E+04;  0.0000000E+00; -9.0499181E-01;  4.0000000E+04;  0.0000000E+00;  4.0017062E+04;  1.8316060E-02;  0.0000000E+00; -8.7284000E-04;  2.9638022E+03;
  2.2569640E-02;  9.9999998E-03; -2.1001732E-01;2577;  4.5972811E-03;  0.0000000E+00;  2.8350900E-04;  9.9292981E+02;  1.0000000E-01; -5.8575132E+03;3;  2.8756102E+01;  0.0000000E+00;  1.0182682E+01;0;  1.7670546E-02;  3.9428727E+04;  0.0000000E+00; -8.9941388E-01;  4.0000000E+04;  0.0000000E+00;  4.0013395E+04;  1.8583173E-02;  0.0000000E+00; -9.1262767E-04;  2.5843828E+03;
  2.2672446E-02;  9.9999998E-03; -2.0001720E-01;2578;  4.5517003E-03;  0.0000000E+00;  2.2980353E-04;  9.9267688E+02;  1.0000000E-01; -6.0670879E+03;3;  2.6883783E+01;  0.0000000E+00;  8.8347664E+00;0;  1.7814320E-02;  3.9412578E+04;  0.0000000E+00; -8.4652197E-01;  4.0000000E+04;  0.0000000E+00;  4.0009805E+04;  1.8688675E-02;  0.0000000E+00; -8.7435590E-04;  2.1580166E+03;
  2.2739714E-02;  9.9999998E-03; -1.9001305E-01;2579;  4.4784420E-03;  0.0000000E+00;  1.9255150E-04;  9.9249835E+02;  1.0000000E-01; -6.2149849E+03;3;  2.4801611E+01;  0.0000000E+00;  7.4395204E+00;0;  1.7886793E-02;  3.9402082E+04;  0.0000000E+00; -7.5417316E-01;  4.0000000E+04;  0.0000000E+00;  4.0006078E+04;  1.8674014E-02;  0.0000000E+00; -7.8722008E-04;  1.7501334E+03;
  2.2780739E-02;  9.9999998E-03; -1.8000683E-01;2580;  4.4027907E-03;  0.0000000E+00;  1.6925392E-04;  9.9239124E+02;  1.0000000E-01; -6.3037231E+03;3;  2.2722544E+01;  0.0000000E+00;  6.1297493E+00;0;  1.7898072E-02;  3.9395938E+04;  0.0000000E+00; -6.3624996E-01;  4.0000000E+04;  0.0000000E+00;  4.0003465E+04;  1.8577602E-02;  0.0000000E+00; -6.7953108E-04;  1.3974686E+03;
  2.2805223E-02;  9.9999998E-03; -1.7000075E-01;2581;  4.3452717E-03;  0.0000000E+00;  1.5697244E-04;  9.9233337E+02;  1.0000000E-01; -6.3516724E+03;3;  2.0860609E+01;  0.0000000E+00;  4.9725385E+00;0;  1.7854979E-02;  3.9392941E+04;  0.0000000E+00; -5.0854474E-01;  4.0000000E+04;  0.0000000E+00;  4.0002406E+04;  1.8430334E-02;  0.0000000E+00; -5.7535374E-04;  1.1149008E+03;
  2.2820793E-02;  9.9999998E-03; -1.5999597E-01;2582;  4.3163807E-03;  0.0000000E+00;  1.5115555E-04;  9.9231158E+02;  1.0000000E-01; -6.3696963E+03;3;  1.9266441E+01;  0.0000000E+00;  3.9749436E+00;0;  1.7762566E-02;  3.9392051E+04;  0.0000000E+00; -3.8525081E-01;  4.0000000E+04;  0.0000000E+00;  4.0000965E+04;  1.8255521E-02;  0.0000000E+00; -4.9295404E-04;  9.0546301E+02;
  2.2832429E-02;  9.9999998E-03; -1.4999238E-01;2583;  4.3151793E-03;  0.0000000E+00;  1.4699780E-04;  9.9231195E+02;  1.0000000E-01; -6.3693999E+03;3;  1.7941879E+01;  0.0000000E+00;  3.1184485E+00;0;  1.7625092E-02;  3.9392586E+04;  0.0000000E+00; -2.7673808E-01;  4.0000000E+04;  0.0000000E+00;  4.0000531E+04;  1.8069545E-02;  0.0000000E+00; -4.4445242E-04;  7.6602924E+02;
  2.2842335E-02;  9.9999998E-03; -1.3998944E-01;2584;  4.3325699E-03;  0.0000000E+00;  1.4075762E-04;  9.9232233E+02;  1.0000000E-01; -6.3608076E+03;3;  1.6868162E+01;  0.0000000E+00;  2.3822927E+00;0;  1.7446071E-02;  3.9393398E+04;  0.0000000E+00; -1.8874672E-01;  4.0000000E+04;  0.0000000E+00;  3.9999691E+04;  1.7881975E-02;  0.0000000E+00; -4.3590355E-04;  6.8556067E+02;
  2.2851186E-02;  9.9999998E-03; -1.2998685E-01;2585;  4.3558879E-03;  0.0000000E+00;  1.3019350E-04;  9.9232739E+02;  1.0000000E-01; -6.3566104E+03;3;  1.6059269E+01;  0.0000000E+00;  1.7516177E+00;0;  1.7228412E-02;  3.9393855E+04;  0.0000000E+00; -1.2276261E-01;  4.0000000E+04;  0.0000000E+00;  4.0000246E+04;  1.7695157E-02;  0.0000000E+00; -4.6674503E-04;  6.4340601E+02;
  2.2858974E-02;  9.9999998E-03; -1.1998442E-01;2586;  4.3719225E-03;  0.0000000E+00;  1.1481541E-04;  9.9232495E+02;  1.0000000E-01; -6.3586348E+03;3;  1.5466706E+01;  0.0000000E+00;  1.2201160E+00;0;  1.6976751E-02;  3.9393902E+04;  0.0000000E+00; -7.7072583E-02;  4.0000000E+04;  0.0000000E+00;  3.9999895E+04;  1.7505724E-02;  0.0000000E+00; -5.2897242E-04;  6.1614325E+02;
  2.2865282E-02;  9.9999998E-03; -1.0998239E-01;2587;  4.3703439E-03;  0.0000000E+00;  9.4716568E-05;  9.9231293E+02;  1.0000000E-01; -6.3686099E+03;3;  1.5072215E+01;  0.0000000E+00;  7.8183907E-01;0;  1.6698776E-02;  3.9393238E+04;  0.0000000E+00; -4.7701906E-02;  4.0000000E+04;  0.0000000E+00;  3.9999523E+04;  1.7306492E-02;  0.0000000E+00; -6.0771656E-04;  5.8958771E+02;
  3.0788882E-02;  9.9999998E-03; -2.6989520E-01;2632;  2.4576613E-03;  0.0000000E+00;  7.8562164E-04;  9.9718158E+02;  1.0000000E-01; -2.3349956E+03;3;  1.1427103E+01;  0.0000000E+00;  8.2347069E+00;0;  1.2757223E-02;  3.9763555E+04;  0.0000000E+00; -6.3482803E-01;  4.0000000E+04;  0.0000000E+00;  4.0008266E+04;  1.2016548E-02;  0.0000000E+00;  7.4067502E-04;  1.6435577E+03;
  3.1179370E-02;  9.9999998E-03; -2.5993088E-01;2633;  3.0356778E-03;  0.0000000E+00;  6.8064925E-04;  9.9686041E+02;  1.0000000E-01; -2.6011116E+03;3;  1.2772682E+01;  0.0000000E+00;  6.1097655E+00;0;  1.3392027E-02;  3.9733230E+04;  0.0000000E+00; -6.7842156E-01;  4.0000000E+04;  0.0000000E+00;  4.0015484E+04;  1.3111385E-02;  0.0000000E+00;  2.8064288E-04;  2.4062129E+03;
  3.1506427E-02;  9.9999998E-03; -2.4997540E-01;2634;  3.4614131E-03;  0.0000000E+00;  5.6312192E-04;  9.9657007E+02;  1.0000000E-01; -2.8416479E+03;3;  1.3262150E+01;  0.0000000E+00;  5.5118017E+00;0;  1.3855146E-02;  3.9706812E+04;  0.0000000E+00; -7.4567938E-01;  4.0000000E+04;  0.0000000E+00;  4.0019566E+04;  1.3993230E-02;  0.0000000E+00; -1.3808371E-04;  2.9086875E+03;
  3.1772140E-02;  9.9999998E-03; -2.4001084E-01;2635;  3.7451661E-03;  0.0000000E+00;  4.5632807E-04;  9.9631073E+02;  1.0000000E-01; -3.0565061E+03;3;  1.2691739E+01;  0.0000000E+00;  5.8413234E+00;0;  1.4186297E-02;  3.9686461E+04;  0.0000000E+00; -8.2272375E-01;  4.0000000E+04;  0.0000000E+00;  4.0020559E+04;  1.4653036E-02;  0.0000000E+00; -4.6673964E-04;  3.0767402E+03;
  3.1984758E-02;  9.9999998E-03; -2.3003022E-01;2636;  3.8968783E-03;  0.0000000E+00;  3.6811683E-04;  9.9609625E+02;  1.0000000E-01; -3.2341802E+03;3;  1.1042190E+01;  0.0000000E+00;  6.3835444E+00;0;  1.4418968E-02;  3.9671707E+04;  0.0000000E+00; -8.8836062E-01;  4.0000000E+04;  0.0000000E+00;  4.0018852E+04;  1.5100501E-02;  0.0000000E+00; -6.8153231E-04;  2.9442551E+03;
  3.2142673E-02;  9.9999998E-03; -2.2003591E-01;2637;  3.9361231E-03;  0.0000000E+00;  2.9798580E-04;  9.9592841E+02;  1.0000000E-01; -3.3732380E+03;3;  8.5836515E+00;  0.0000000E+00;  6.6710134E+00;0;  1.4580369E-02;  3.9662793E+04;  0.0000000E+00; -9.2241275E-01;  4.0000000E+04;  0.0000000E+00;  4.0015938E+04;  1.5362551E-02;  0.0000000E+00; -7.8218104E-04;  2.6076672E+03;
  3.2249182E-02;  9.9999998E-03; -2.1003242E-01;2638;  3.8900508E-03;  0.0000000E+00;  2.4454182E-04;  9.9581494E+02;  1.0000000E-01; -3.4672600E+03;3;  5.6544933E+00;  0.0000000E+00;  6.5367765E+00;0;  1.4688610E-02;  3.9658457E+04;  0.0000000E+00; -9.1256183E-01;  4.0000000E+04;  0.0000000E+00;  4.0011176E+04;  1.5474866E-02;  0.0000000E+00; -7.8625605E-04;  2.1794766E+03;
  3.2314353E-02;  9.9999998E-03; -2.0002396E-01;2639;  3.7903092E-03;  0.0000000E+00;  2.0639766E-04;  9.9575092E+02;  1.0000000E-01; -3.5202954E+03;3;  2.6324573E+00;  0.0000000E+00;  6.0464458E+00;0;  1.4753602E-02;  3.9657840E+04;  0.0000000E+00; -8.5687375E-01;  4.0000000E+04;  0.0000000E+00;  4.0007359E+04;  1.5474974E-02;  0.0000000E+00; -7.2137243E-04;  1.7529950E+03;
  3.2348350E-02;  9.9999998E-03; -1.9001366E-01;2640;  3.6694573E-03;  0.0000000E+00;  1.8233938E-04;  9.9573737E+02;  1.0000000E-01; -3.5315051E+03;3; -2.3025092E-01;  0.0000000E+00;  5.3467722E+00;0;  1.4780697E-02;  3.9660223E+04;  0.0000000E+00; -7.6279998E-01;  4.0000000E+04;  0.0000000E+00;  4.0004117E+04;  1.5398659E-02;  0.0000000E+00; -6.1796181E-04;  1.3827998E+03;
  3.2362517E-02;  9.9999998E-03; -1.8000440E-01;2641;  3.5574259E-03;  0.0000000E+00;  1.6991231E-04;  9.9576019E+02;  1.0000000E-01; -3.5125920E+03;3; -2.7316859E+00;  0.0000000E+00;  4.5755973E+00;0;  1.4771593E-02;  3.9664387E+04;  0.0000000E+00; -6.4377052E-01;  4.0000000E+04;  0.0000000E+00;  4.0001812E+04;  1.5275611E-02;  0.0000000E+00; -5.0401740E-04;  1.0835607E+03;
  3.2365441E-02;  9.9999998E-03; -1.6999739E-01;2642;  3.4748858E-03;  0.0000000E+00;  1.6491111E-04;  9.9580756E+02;  1.0000000E-01; -3.4733833E+03;3; -4.8027301E+00;  0.0000000E+00;  3.8135707E+00;0;  1.4727282E-02;  3.9669352E+04;  0.0000000E+00; -5.1525062E-01;  4.0000000E+04;  0.0000000E+00;  3.9999906E+04;  1.5129548E-02;  0.0000000E+00; -4.0226645E-04;  8.4710126E+02;
  3.2364320E-02;  9.9999998E-03; -1.5999269E-01;2643;  3.4307719E-03;  0.0000000E+00;  1.6244302E-04;  9.9587103E+02;  1.0000000E-01; -3.4207922E+03;3; -6.4835820E+00;  0.0000000E+00;  3.0977151E+00;0;  1.4647817E-02;  3.9674586E+04;  0.0000000E+00; -3.9128309E-01;  4.0000000E+04;  0.0000000E+00;  3.9999867E+04;  1.4976973E-02;  0.0000000E+00; -3.2915574E-04;  6.6645984E+02;
  3.2363333E-02;  9.9999998E-03; -1.4998971E-01;2644;  3.4230291E-03;  0.0000000E+00;  1.5981108E-04;  9.9592181E+02;  1.0000000E-01; -3.3787192E+03;3; -7.7443857E+00;  0.0000000E+00;  2.4461248E+00;0;  1.4532818E-02;  3.9679195E+04;  0.0000000E+00; -2.8222960E-01;  4.0000000E+04;  0.0000000E+00;  4.0000395E+04;  1.4827839E-02;  0.0000000E+00; -2.9502131E-04;  5.4469556E+02;
  3.2364260E-02;  9.9999998E-03; -1.3998786E-01;2645;  3.4399978E-03;  0.0000000E+00;  1.5469542E-04;  9.9596936E+02;  1.0000000E-01; -3.3393130E+03;3; -8.7558899E+00;  0.0000000E+00;  1.8682328E+00;0;  1.4382229E-02;  3.9682504E+04;  0.0000000E+00; -1.9386935E-01;  4.0000000E+04;  0.0000000E+00;  4.0000562E+04;  1.4686774E-02;  0.0000000E+00; -3.0454472E-04;  4.8034546E+02;
  3.2367781E-02;  9.9999998E-03; -1.2998664E-01;2646;  3.4655514E-03;  0.0000000E+00;  1.4604480E-04;  9.9599902E+02;  1.0000000E-01; -3.3147209E+03;3; -9.5363436E+00;  0.0000000E+00;  1.3708084E+00;0;  1.4196726E-02;  3.9684723E+04;  0.0000000E+00; -1.2771089E-01;  4.0000000E+04;  0.0000000E+00;  4.0001191E+04;  1.4553107E-02;  0.0000000E+00; -3.5638176E-04;  4.5094089E+02;
  3.2373473E-02;  9.9999998E-03; -1.1998603E-01;2647;  3.4838896E-03;  0.0000000E+00;  1.3401209E-04;  9.9600708E+02;  1.0000000E-01; -3.3080547E+03;3; -1.0126696E+01;  0.0000000E+00;  9.5187688E-01;0;  1.3980046E-02;  3.9685254E+04;  0.0000000E+00; -8.1867054E-02;  4.0000000E+04;  0.0000000E+00;  4.0000961E+04;  1.4422006E-02;  0.0000000E+00; -4.4196023E-04;  4.2401770E+02;
  3.2379955E-02;  9.9999998E-03; -1.0998630E-01;2648;  3.4829914E-03;  0.0000000E+00;  1.1856371E-04;  9.9599713E+02;  1.0000000E-01; -3.3163013E+03;3; -1.0564528E+01;  0.0000000E+00;  6.0726523E-01;0;  1.3740333E-02;  3.9685109E+04;  0.0000000E+00; -5.2188005E-02;  4.0000000E+04;  0.0000000E+00;  4.0000414E+04;  1.4285980E-02;  0.0000000E+00; -5.4564700E-04;  3.8119449E+02;
  4.0695950E-02;  9.9999998E-03; -2.6993904E-01;2693;  2.1663462E-03;  0.0000000E+00;  5.8508461E-04;  9.9829260E+02;  1.0000000E-01; -1.4145280E+03;3;  6.2585983E+00;  0.0000000E+00;  1.6279691E-01;0;  1.1501601E-02;  3.9850520E+04;  0.0000000E+00; -6.5803444E-01;  4.0000000E+04;  0.0000000E+00;  4.0010555E+04;  1.0921892E-02;  0.0000000E+00;  5.7970919E-04;  1.7608917E+03;
  4.1064870E-02;  9.9999998E-03; -2.5996971E-01;2694;  2.7034052E-03;  0.0000000E+00;  4.9935677E-04;  9.9823608E+02;  1.0000000E-01; -1.4613907E+03;3;  5.3572149E+00;  0.0000000E+00; -1.8922391E+00;0;  1.1894748E-02;  3.9841500E+04;  0.0000000E+00; -6.5748852E-01;  4.0000000E+04;  0.0000000E+00;  4.0016781E+04;  1.1723830E-02;  0.0000000E+00;  1.7091748E-04;  2.4043582E+03;
  4.1363303E-02;  9.9999998E-03; -2.5000724E-01;2695;  3.0867825E-03;  0.0000000E+00;  4.0536426E-04;  9.9820874E+02;  1.0000000E-01; -1.4840074E+03;3;  3.6272924E+00;  0.0000000E+00; -1.9004116E+00;0;  1.2130491E-02;  3.9837516E+04;  0.0000000E+00; -6.8185943E-01;  4.0000000E+04;  0.0000000E+00;  4.0019145E+04;  1.2322123E-02;  0.0000000E+00; -1.9163184E-04;  2.7640745E+03;
  4.1594993E-02;  9.9999998E-03; -2.4003410E-01;2696;  3.3248146E-03;  0.0000000E+00;  3.2241564E-04;  9.9820197E+02;  1.0000000E-01; -1.4896368E+03;3;  1.0710306E+00;  0.0000000E+00; -6.5500802E-01;0;  1.2261761E-02;  3.9838434E+04;  0.0000000E+00; -7.2239834E-01;  4.0000000E+04;  0.0000000E+00;  4.0019992E+04;  1.2723936E-02;  0.0000000E+00; -4.6217395E-04;  2.7864714E+03;
  4.1769352E-02;  9.9999998E-03; -2.3004410E-01;2697;  3.4311290E-03;  0.0000000E+00;  2.5998446E-04;  9.9822791E+02;  1.0000000E-01; -1.4681560E+03;3; -2.2141745E+00;  0.0000000E+00;  9.3580419E-01;0;  1.2330890E-02;  3.9843828E+04;  0.0000000E+00; -7.6183486E-01;  4.0000000E+04;  0.0000000E+00;  4.0017688E+04;  1.2951230E-02;  0.0000000E+00; -6.2034040E-04;  2.5270859E+03;
  4.1888073E-02;  9.9999998E-03; -2.2004123E-01;2698;  3.4247031E-03;  0.0000000E+00;  2.1550474E-04;  9.9828387E+02;  1.0000000E-01; -1.4217870E+03;3; -5.9144492E+00;  0.0000000E+00;  2.2708368E+00;0;  1.2368392E-02;  3.9852984E+04;  0.0000000E+00; -7.8221977E-01;  4.0000000E+04;  0.0000000E+00;  4.0013863E+04;  1.3038216E-02;  0.0000000E+00; -6.6982367E-04;  2.1044788E+03;
  4.1957784E-02;  9.9999998E-03; -2.1003087E-01;2699;  3.3310892E-03;  0.0000000E+00;  1.8758020E-04;  9.9836121E+02;  1.0000000E-01; -1.3576899E+03;3; -9.6551256E+00;  0.0000000E+00;  3.1074417E+00;0;  1.2391376E-02;  3.9864578E+04;  0.0000000E+00; -7.7159870E-01;  4.0000000E+04;  0.0000000E+00;  4.0008348E+04;  1.3023484E-02;  0.0000000E+00; -6.3210860E-04;  1.6497244E+03;
  4.1990317E-02;  9.9999998E-03; -2.0001754E-01;2700;  3.1780696E-03;  0.0000000E+00;  1.7836723E-04;  9.9846466E+02;  1.0000000E-01; -1.2720134E+03;3; -1.3165588E+01;  0.0000000E+00;  3.4507644E+00;0;  1.2407043E-02;  3.9877590E+04;  0.0000000E+00; -7.2648615E-01;  4.0000000E+04;  0.0000000E+00;  4.0005184E+04;  1.2944473E-02;  0.0000000E+00; -5.3742953E-04;  1.2654241E+03;
  4.1997921E-02;  9.9999998E-03; -1.9000542E-01;2701;  3.0073263E-03;  0.0000000E+00;  1.8340605E-04;  9.9858673E+02;  1.0000000E-01; -1.1708805E+03;3; -1.6228212E+01;  0.0000000E+00;  3.4264052E+00;0;  1.2413549E-02;  3.9890945E+04;  0.0000000E+00; -6.5110868E-01;  4.0000000E+04;  0.0000000E+00;  4.0002121E+04;  1.2830262E-02;  0.0000000E+00; -4.1671263E-04;  9.9234290E+02;
  4.1990262E-02;  9.9999998E-03; -1.7999615E-01;2702;  2.8657047E-03;  0.0000000E+00;  1.8939491E-04;  9.9871844E+02;  1.0000000E-01; -1.0617478E+03;3; -1.8742844E+01;  0.0000000E+00;  3.1664660E+00;0;  1.2403708E-02;  3.9903699E+04;  0.0000000E+00; -5.5497175E-01;  4.0000000E+04;  0.0000000E+00;  4.0000383E+04;  1.2700275E-02;  0.0000000E+00; -2.9656690E-04;  8.0246313E+02;
  4.1975405E-02;  9.9999998E-03; -1.6999005E-01;2703;  2.7724151E-03;  0.0000000E+00;  1.9144677E-04;  9.9884821E+02;  1.0000000E-01; -9.5424463E+02;3; -2.0704132E+01;  0.0000000E+00;  2.7745833E+00;0;  1.2373652E-02;  3.9914836E+04;  0.0000000E+00; -4.4969046E-01;  4.0000000E+04;  0.0000000E+00;  3.9999691E+04;  1.2571170E-02;  0.0000000E+00; -1.9751796E-04;  6.4489093E+02;
  4.1959833E-02;  9.9999998E-03; -1.5998703E-01;2704;  2.7316590E-03;  0.0000000E+00;  1.8804515E-04;  9.9896436E+02;  1.0000000E-01; -8.5800043E+02;3; -2.2172915E+01;  0.0000000E+00;  2.3164575E+00;0;  1.2319935E-02;  3.9924383E+04;  0.0000000E+00; -3.4643713E-01;  4.0000000E+04;  0.0000000E+00;  4.0000387E+04;  1.2453815E-02;  0.0000000E+00; -1.3387931E-04;  5.0143994E+02;
  4.1947689E-02;  9.9999998E-03; -1.4998673E-01;2705;  2.7333237E-03;  0.0000000E+00;  1.8162953E-04;  9.9905988E+02;  1.0000000E-01; -7.7889154E+02;3; -2.3264868E+01;  0.0000000E+00;  1.8470212E+00;0;  1.2239752E-02;  3.9931855E+04;  0.0000000E+00; -2.5400740E-01;  4.0000000E+04;  0.0000000E+00;  4.0000621E+04;  1.2353965E-02;  0.0000000E+00; -1.1421291E-04;  3.9458530E+02;
  4.1940778E-02;  9.9999998E-03; -1.3998754E-01;2706;  2.7606082E-03;  0.0000000E+00;  1.7397371E-04;  9.9913409E+02;  1.0000000E-01; -7.1736243E+02;3; -2.4111849E+01;  0.0000000E+00;  1.4109166E+00;0;  1.2130313E-02;  3.9936930E+04;  0.0000000E+00; -1.7784050E-01;  4.0000000E+04;  0.0000000E+00;  4.0002383E+04;  1.2272094E-02;  0.0000000E+00; -1.4178159E-04;  3.4857751E+02;
  4.1939709E-02;  9.9999998E-03; -1.2998943E-01;2707;  2.7958159E-03;  0.0000000E+00;  1.6521091E-04;  9.9917346E+02;  1.0000000E-01; -6.8477075E+02;3; -2.4753469E+01;  0.0000000E+00;  1.0331258E+00;0;  1.1989703E-02;  3.9939934E+04;  0.0000000E+00; -1.1988631E-01;  4.0000000E+04;  0.0000000E+00;  4.0002027E+04;  1.2204162E-02;  0.0000000E+00; -2.1445811E-04;  3.3868027E+02;
  4.1943461E-02;  9.9999998E-03; -1.1999201E-01;2708;  2.8216231E-03;  0.0000000E+00;  1.5538916E-04;  9.9918512E+02;  1.0000000E-01; -6.7509204E+02;3; -2.5278418E+01;  0.0000000E+00;  7.1522653E-01;0;  1.1820479E-02;  3.9940621E+04;  0.0000000E+00; -7.8933083E-02;  4.0000000E+04;  0.0000000E+00;  4.0002379E+04;  1.2143694E-02;  0.0000000E+00; -3.2321413E-04;  3.1502911E+02;
  4.1949816E-02;  9.9999998E-03; -1.0999469E-01;2709;  2.8254425E-03;  0.0000000E+00;  1.4382869E-04;  9.9917096E+02;  1.0000000E-01; -6.8684479E+02;3; -2.5700687E+01;  0.0000000E+00;  4.5375487E-01;0;  1.1631001E-02;  3.9940109E+04;  0.0000000E+00; -5.1662639E-02;  4.0000000E+04;  0.0000000E+00;  4.0001480E+04;  1.2082850E-02;  0.0000000E+00; -4.5184881E-04;  2.5464146E+02;
  5.0626412E-02;  9.9999998E-03; -2.6997039E-01;2754;  1.9271527E-03;  0.0000000E+00;  3.3802650E-04;  9.9913409E+02;  1.0000000E-01; -7.1736243E+02;3;  4.0477939E+00;  0.0000000E+00; -6.8237505E+00;0;  1.0756472E-02;  3.9916809E+04;  0.0000000E+00; -6.0187697E-01;  4.0000000E+04;  0.0000000E+00;  4.0011227E+04;  1.0380032E-02;  0.0000000E+00;  3.7644070E-04;  1.7752234E+03;
  5.0969884E-02;  9.9999998E-03; -2.5999710E-01;2755;  2.4645769E-03;  0.0000000E+00;  2.9583278E-04;  9.9928925E+02;  1.0000000E-01; -5.8882288E+02;3;  1.7243354E+00;  0.0000000E+00; -8.7830420E+00;0;  1.0979676E-02;  3.9925684E+04;  0.0000000E+00; -5.2701330E-01;  4.0000000E+04;  0.0000000E+00;  4.0016738E+04;  1.0952925E-02;  0.0000000E+00;  2.6750728E-05;  2.3053440E+03;
  5.1238757E-02;  9.9999998E-03; -2.5002652E-01;2756;  2.8177106E-03;  0.0000000E+00;  2.2501491E-04;  9.9947711E+02;  1.0000000E-01; -4.3322232E+02;3; -1.3201244E+00;  0.0000000E+00; -8.2722158E+00;0;  1.1057079E-02;  3.9939770E+04;  0.0000000E+00; -4.7978359E-01;  4.0000000E+04;  0.0000000E+00;  4.0019328E+04;  1.1327926E-02;  0.0000000E+00; -2.7084717E-04;  2.5314883E+03;
  5.1436979E-02;  9.9999998E-03; -2.4004430E-01;2757;  3.0240403E-03;  0.0000000E+00;  1.6641319E-04;  9.9968201E+02;  1.0000000E-01; -2.6344934E+02;3; -4.9480448E+00;  0.0000000E+00; -6.2451458E+00;0;  1.1051523E-02;  3.9958406E+04;  0.0000000E+00; -4.6187907E-01;  4.0000000E+04;  0.0000000E+00;  4.0018809E+04;  1.1526197E-02;  0.0000000E+00; -4.7467439E-04;  2.4169304E+03;
  5.1576320E-02;  9.9999998E-03; -2.3004594E-01;2758;  3.0986534E-03;  0.0000000E+00;  1.2722852E-04;  9.9990088E+02;  1.0000000E-01; -8.2121132E+01;3; -8.9481936E+00;  0.0000000E+00; -3.7421980E+00;0;  1.1014126E-02;  3.9980562E+04;  0.0000000E+00; -4.6346596E-01;  4.0000000E+04;  0.0000000E+00;  4.0015398E+04;  1.1582382E-02;  0.0000000E+00; -5.6825619E-04;  2.0338857E+03;
  5.1661797E-02;  9.9999998E-03; -2.2003654E-01;2759;  3.0493292E-03;  0.0000000E+00;  1.1549262E-04;  1.0001233E+03;  1.0000000E-01;  1.0212057E+02;3; -1.3009706E+01;  0.0000000E+00; -1.4765428E+00;0;  1.0979492E-02;  4.0004191E+04;  0.0000000E+00; -4.7032991E-01;  4.0000000E+04;  0.0000000E+00;  4.0011469E+04;  1.1539497E-02;  0.0000000E+00; -5.6000473E-04;  1.5185270E+03;
  5.1702768E-02;  9.9999998E-03; -2.1002118E-01;2760;  2.9003939E-03;  0.0000000E+00;  1.3772947E-04;  1.0003538E+03;  1.0000000E-01;  2.9312750E+02;3; -1.6862131E+01;  0.0000000E+00;  2.0323738E-01;0;  1.0963234E-02;  4.0028227E+04;  0.0000000E+00; -4.7021455E-01;  4.0000000E+04;  0.0000000E+00;  4.0006738E+04;  1.1438930E-02;  0.0000000E+00; -4.7569658E-04;  1.0278090E+03;
  5.1712811E-02;  9.9999998E-03; -2.0000604E-01;2761;  2.7057456E-03;  0.0000000E+00;  1.7646150E-04;  1.0005808E+03;  1.0000000E-01;  4.8117157E+02;3; -2.0256357E+01;  0.0000000E+00;  1.2620542E+00;0;  1.0964418E-02;  4.0051430E+04;  0.0000000E+00; -4.5563099E-01;  4.0000000E+04;  0.0000000E+00;  4.0002445E+04;  1.1312183E-02;  0.0000000E+00; -3.4776490E-04;  7.0788782E+02;
  5.1702458E-02;  9.9999998E-03; -1.8999423E-01;2762;  2.5198811E-03;  0.0000000E+00;  2.0558940E-04;  1.0008016E+03;  1.0000000E-01;  6.6417877E+02;3; -2.3071226E+01;  0.0000000E+00;  1.8026614E+00;0;  1.0975303E-02;  4.0072586E+04;  0.0000000E+00; -4.2417088E-01;  4.0000000E+04;  0.0000000E+00;  4.0000668E+04;  1.1182293E-02;  0.0000000E+00; -2.0698998E-04;  6.0367615E+02;
  5.1679280E-02;  9.9999998E-03; -1.7998673E-01;2763;  2.3737475E-03;  0.0000000E+00;  2.1841054E-04;  1.0010035E+03;  1.0000000E-01;  8.3138391E+02;3; -2.5262188E+01;  0.0000000E+00;  1.9753127E+00;0;  1.0988303E-02;  4.0090840E+04;  0.0000000E+00; -3.7762672E-01;  4.0000000E+04;  0.0000000E+00;  3.9999043E+04;  1.1066568E-02;  0.0000000E+00; -7.8264551E-05;  5.7517548E+02;
  5.1650971E-02;  9.9999998E-03; -1.6998360E-01;2764;  2.2809238E-03;  0.0000000E+00;  2.1386893E-04;  1.0011887E+03;  1.0000000E-01;  9.8486102E+02;3; -2.6910442E+01;  0.0000000E+00;  1.8944305E+00;0;  1.0996173E-02;  4.0106348E+04;  0.0000000E+00; -3.2038227E-01;  4.0000000E+04;  0.0000000E+00;  3.9998504E+04;  1.0975763E-02;  0.0000000E+00;  2.0409621E-05;  5.0182565E+02;
  5.1624097E-02;  9.9999998E-03; -1.5998498E-01;2765;  2.2442674E-03;  0.0000000E+00;  2.0358963E-04;  1.0013382E+03;  1.0000000E-01;  1.1087094E+03;3; -2.8071465E+01;  0.0000000E+00;  1.6547326E+00;0;  1.0990974E-02;  4.0118164E+04;  0.0000000E+00; -2.5838348E-01;  4.0000000E+04;  0.0000000E+00;  4.0000504E+04;  1.0914111E-02;  0.0000000E+00;  7.6863253E-05;  3.8240598E+02;
  5.1602855E-02;  9.9999998E-03; -1.4998876E-01;2766;  2.2523138E-03;  0.0000000E+00;  1.9266087E-04;  1.0014554E+03;  1.0000000E-01;  1.2057931E+03;3; -2.8899862E+01;  0.0000000E+00;  1.3407130E+00;0;  1.0965537E-02;  4.0126555E+04;  0.0000000E+00; -1.9794387E-01;  4.0000000E+04;  0.0000000E+00;  4.0002785E+04;  1.0881291E-02;  0.0000000E+00;  8.4246618E-05;  2.8900674E+02;
  5.1589265E-02;  9.9999998E-03; -1.3999385E-01;2767;  2.2877171E-03;  0.0000000E+00;  1.8446194E-04;  1.0015305E+03;  1.0000000E-01;  1.2679148E+03;3; -2.9493280E+01;  0.0000000E+00;  1.0256946E+00;0;  1.0913485E-02;  4.0131973E+04;  0.0000000E+00; -1.4441442E-01;  4.0000000E+04;  0.0000000E+00;  4.0002570E+04;  1.0872843E-02;  0.0000000E+00;  4.0641793E-05;  2.8839423E+02;
  5.1583964E-02;  9.9999998E-03; -1.2999973E-01;2768;  2.3308580E-03;  0.0000000E+00;  1.7899767E-04;  1.0015704E+03;  1.0000000E-01;  1.3010002E+03;3; -2.9972988E+01;  0.0000000E+00;  7.5011414E-01;0;  1.0830916E-02;  4.0134496E+04;  0.0000000E+00; -1.0110077E-01;  4.0000000E+04;  0.0000000E+00;  4.0003574E+04;  1.0881871E-02;  0.0000000E+00; -5.0955859E-05;  3.2133170E+02;
  5.1585399E-02;  9.9999998E-03; -1.2000524E-01;2769;  2.3634359E-03;  0.0000000E+00;  1.7520836E-04;  1.0015734E+03;  1.0000000E-01;  1.3035681E+03;3; -3.0382656E+01;  0.0000000E+00;  5.1811469E-01;0;  1.0719721E-02;  4.0135184E+04;  0.0000000E+00; -6.8579532E-02;  4.0000000E+04;  0.0000000E+00;  4.0003227E+04;  1.0900836E-02;  0.0000000E+00; -1.8111548E-04;  3.0868802E+02;
  5.1590815E-02;  9.9999998E-03; -1.1000939E-01;2770;  2.3714111E-03;  0.0000000E+00;  1.7083215E-04;  1.0015494E+03;  1.0000000E-01;  1.2837168E+03;3; -3.0751230E+01;  0.0000000E+00;  3.2758045E-01;0;  1.0589218E-02;  4.0133938E+04;  0.0000000E+00; -4.5488741E-02;  4.0000000E+04;  0.0000000E+00;  4.0002688E+04;  1.0922390E-02;  0.0000000E+00; -3.3317256E-04;  2.3143562E+02;
  6.0576830E-02;  9.9999998E-03; -2.6999927E-01;2815;  1.7657246E-03;  0.0000000E+00;  6.5961634E-05;  9.9963959E+02;  1.0000000E-01; -2.9860883E+02;3;  4.2539659E+00;  0.0000000E+00; -1.2160176E+01;0;  1.0513475E-02;  3.9957199E+04;  0.0000000E+00; -4.4983023E-01;  4.0000000E+04;  0.0000000E+00;  4.0012613E+04;  1.0375574E-02;  0.0000000E+00;  1.3790093E-04;  1.7066455E+03;
  6.0891796E-02;  9.9999998E-03; -2.6002195E-01;2816;  2.3155648E-03;  0.0000000E+00;  6.7662899E-05;  9.9995898E+02;  1.0000000E-01; -3.3974346E+01;3;  1.1836791E+00;  0.0000000E+00; -1.4108300E+01;0;  1.0628724E-02;  3.9979758E+04;  0.0000000E+00; -2.8183594E-01;  4.0000000E+04;  0.0000000E+00;  4.0016547E+04;  1.0783445E-02;  0.0000000E+00; -1.5472050E-04;  2.1826091E+03;
  6.1131012E-02;  9.9999998E-03; -2.5004345E-01;2817;  2.6565797E-03;  0.0000000E+00;  1.0731616E-05;  1.0003034E+03;  1.0000000E-01;  2.5135092E+02;3; -2.4041564E+00;  0.0000000E+00; -1.3224815E+01;0;  1.0607067E-02;  4.0007473E+04;  0.0000000E+00; -1.4529663E-01;  4.0000000E+04;  0.0000000E+00;  4.0018551E+04;  1.0993293E-02;  0.0000000E+00; -3.8622489E-04;  2.3330913E+03;
  6.1299652E-02;  9.9999998E-03; -2.4005365E-01;2818;  2.8433220E-03;  0.0000000E+00; -3.5947036E-05;  1.0006619E+03;  1.0000000E-01;  5.4833020E+02;3; -6.3320398E+00;  0.0000000E+00; -1.0597736E+01;0;  1.0523240E-02;  4.0039160E+04;  0.0000000E+00; -5.6262001E-02;  4.0000000E+04;  0.0000000E+00;  4.0017484E+04;  1.1043921E-02;  0.0000000E+00; -5.2068074E-04;  2.1337539E+03;
  6.1410423E-02;  9.9999998E-03; -2.3004857E-01;2819;  2.8931140E-03;  0.0000000E+00; -4.7355650E-05;  1.0010153E+03;  1.0000000E-01;  8.4116138E+02;3; -1.0348476E+01;  0.0000000E+00; -7.3635330E+00;0;  1.0436115E-02;  4.0072977E+04;  0.0000000E+00; -1.6828034E-02;  4.0000000E+04;  0.0000000E+00;  4.0013824E+04;  1.0983034E-02;  0.0000000E+00; -5.4691941E-04;  1.6654579E+03;
  6.1471663E-02;  9.9999998E-03; -2.2003254E-01;2820;  2.8181202E-03;  0.0000000E+00; -1.1721669E-05;  1.0013600E+03;  1.0000000E-01;  1.1266842E+03;3; -1.4203150E+01;  0.0000000E+00; -4.3720446E+00;0;  1.0380764E-02;  4.0106730E+04;  0.0000000E+00; -1.8121937E-02;  4.0000000E+04;  0.0000000E+00;  4.0009098E+04;  1.0858997E-02;  0.0000000E+00; -4.7823269E-04;  1.0647212E+03;
  6.1494436E-02;  9.9999998E-03; -2.1001305E-01;2821;  2.6501357E-03;  0.0000000E+00;  6.4500462E-05;  1.0016852E+03;  1.0000000E-01;  1.3962074E+03;3; -1.7656069E+01;  0.0000000E+00; -2.0348263E+00;0;  1.0369155E-02;  4.0138812E+04;  0.0000000E+00; -4.5012105E-02;  4.0000000E+04;  0.0000000E+00;  4.0005754E+04;  1.0713190E-02;  0.0000000E+00; -3.4403556E-04;  4.7610675E+02;
  6.1491329E-02;  9.9999998E-03; -1.9999662E-01;2822;  2.4469120E-03;  0.0000000E+00;  1.4386400E-04;  1.0019877E+03;  1.0000000E-01;  1.6467682E+03;3; -2.0562506E+01;  0.0000000E+00; -4.3314233E-01;0;  1.0396728E-02;  4.0168293E+04;  0.0000000E+00; -8.2359806E-02;  4.0000000E+04;  0.0000000E+00;  4.0001715E+04;  1.0575380E-02;  0.0000000E+00; -1.7865159E-04;  1.1262508E+02;
  6.1469827E-02;  9.9999998E-03; -1.8998551E-01;2823;  2.2587713E-03;  0.0000000E+00;  1.9426947E-04;  1.0022600E+03;  1.0000000E-01;  1.8723422E+03;3; -2.2861300E+01;  0.0000000E+00;  5.4056430E-01;0;  1.0452234E-02;  4.0193781E+04;  0.0000000E+00; -1.1782274E-01;  4.0000000E+04;  0.0000000E+00;  3.9999035E+04;  1.0465407E-02;  0.0000000E+00; -1.3172226E-05;  3.3364481E+02;
  6.1436709E-02;  9.9999998E-03; -1.7998044E-01;2824;  2.1134310E-03;  0.0000000E+00;  2.0717757E-04;  1.0024962E+03;  1.0000000E-01;  2.0679910E+03;3; -2.4577642E+01;  0.0000000E+00;  1.0412999E+00;0;  1.0523678E-02;  4.0214703E+04;  0.0000000E+00; -1.4251700E-01;  4.0000000E+04;  0.0000000E+00;  3.9998754E+04;  1.0394869E-02;  0.0000000E+00;  1.2880880E-04;  4.3392987E+02;
  6.1399646E-02;  9.9999998E-03; -1.6998200E-01;2825;  2.0215653E-03;  0.0000000E+00;  2.0231876E-04;  1.0026967E+03;  1.0000000E-01;  2.2341096E+03;3; -2.5799820E+01;  0.0000000E+00;  1.1999230E+00;0;  1.0598962E-02;  4.0231035E+04;  0.0000000E+00; -1.5158284E-01;  4.0000000E+04;  0.0000000E+00;  3.9998844E+04;  1.0367611E-02;  0.0000000E+00;  2.3135071E-04;  3.7804022E+02;
  6.1365403E-02;  9.9999998E-03; -1.5998828E-01;2826;  1.9838519E-03;  0.0000000E+00;  1.8900515E-04;  1.0028495E+03;  1.0000000E-01;  2.3607234E+03;3; -2.6611574E+01;  0.0000000E+00;  1.1293254E+00;0;  1.0665881E-02;  4.0242863E+04;  0.0000000E+00; -1.4468129E-01;  4.0000000E+04;  0.0000000E+00;  4.0001711E+04;  1.0381113E-02;  0.0000000E+00;  2.8476759E-04;  2.4121106E+02;
  6.1337866E-02;  9.9999998E-03; -1.4999709E-01;2827;  1.9923551E-03;  0.0000000E+00;  1.7670047E-04;  1.0029606E+03;  1.0000000E-01;  2.4527700E+03;3; -2.7152166E+01;  0.0000000E+00;  9.3818313E-01;0;  1.0712679E-02;  4.0250629E+04;  0.0000000E+00; -1.2561871E-01;  4.0000000E+04;  0.0000000E+00;  4.0003039E+04;  1.0428773E-02;  0.0000000E+00;  2.8390551E-04;  2.0549916E+02;
  6.1319247E-02;  9.9999998E-03; -1.4000708E-01;2828;  2.0291053E-03;  0.0000000E+00;  1.7110714E-04;  1.0030264E+03;  1.0000000E-01;  2.5072871E+03;3; -2.7528017E+01;  0.0000000E+00;  7.2108120E-01;0;  1.0730091E-02;  4.0254844E+04;  0.0000000E+00; -1.0046957E-01;  4.0000000E+04;  0.0000000E+00;  4.0005359E+04;  1.0502029E-02;  0.0000000E+00;  2.2806120E-04;  3.2983252E+02;
  6.1310053E-02;  9.9999998E-03; -1.3001728E-01;2829;  2.0754505E-03;  0.0000000E+00;  1.7461361E-04;  1.0030539E+03;  1.0000000E-01;  2.5301013E+03;3; -2.7844030E+01;  0.0000000E+00;  5.2837348E-01;0;  1.0712997E-02;  4.0256441E+04;  0.0000000E+00; -7.4943803E-02;  4.0000000E+04;  0.0000000E+00;  4.0005184E+04;  1.0591848E-02;  0.0000000E+00;  1.2114953E-04;  4.2370340E+02;
  6.1308753E-02;  9.9999998E-03; -1.2002570E-01;2830;  2.1130987E-03;  0.0000000E+00;  1.8493406E-04;  1.0030455E+03;  1.0000000E-01;  2.5230891E+03;3; -2.8147276E+01;  0.0000000E+00;  3.6508712E-01;0;  1.0663722E-02;  4.0255836E+04;  0.0000000E+00; -5.2410539E-02;  4.0000000E+04;  0.0000000E+00;  4.0005062E+04;  1.0690684E-02;  0.0000000E+00; -2.6962522E-05;  4.2257117E+02;
  6.1313186E-02;  9.9999998E-03; -1.1003002E-01;2831;  2.1268807E-03;  0.0000000E+00;  1.9630187E-04;  1.0030102E+03;  1.0000000E-01;  2.4938555E+03;3; -2.8451378E+01;  0.0000000E+00;  2.2940448E-01;0;  1.0593617E-02;  4.0254000E+04;  0.0000000E+00; -3.4313418E-02;  4.0000000E+04;  0.0000000E+00;  4.0004461E+04;  1.0792822E-02;  0.0000000E+00; -1.9920421E-04;  3.2680963E+02;
  7.0549607E-02;  9.9999998E-03; -2.7003068E-01;2876;  1.7287876E-03;  0.0000000E+00; -1.9022827E-04;  9.9981659E+02;  1.0000000E-01; -1.5194632E+02;3;  5.8968196E+00;  0.0000000E+00; -1.5726443E+01;0;  1.0646934E-02;  3.9971980E+04;  0.0000000E+00; -1.4991885E-01;  4.0000000E+04;  0.0000000E+00;  4.0013074E+04;  1.0774575E-02;  0.0000000E+00; -1.2764160E-04;  1.6085364E+03;
  7.0833951E-02;  9.9999998E-03; -2.6005381E-01;2877;  2.2779023E-03;  0.0000000E+00; -1.8156749E-04;  1.0002426E+03;  1.0000000E-01;  2.0098196E+02;3;  2.5780253E+00;  0.0000000E+00; -1.7818264E+01;0;  1.0692257E-02;  4.0003152E+04;  0.0000000E+00;  9.7310416E-02;  4.0000000E+04;  0.0000000E+00;  4.0017352E+04;  1.1063807E-02;  0.0000000E+00; -3.7155027E-04;  2.1554749E+03;
  7.1044728E-02;  9.9999998E-03; -2.5007093E-01;2878;  2.6062382E-03;  0.0000000E+00; -2.4024645E-04;  1.0006976E+03;  1.0000000E-01;  5.7795898E+02;3; -1.0750620E+00;  0.0000000E+00; -1.6801535E+01;0;  1.0611051E-02;  4.0039730E+04;  0.0000000E+00;  3.0602413E-01;  4.0000000E+04;  0.0000000E+00;  4.0018707E+04;  1.1153724E-02;  0.0000000E+00; -5.4267328E-04;  2.3401155E+03;
  7.1189843E-02;  9.9999998E-03; -2.4007371E-01;2879;  2.7923179E-03;  0.0000000E+00; -2.8940156E-04;  1.0011478E+03;  1.0000000E-01;  9.5098547E+02;3; -4.8188882E+00;  0.0000000E+00; -1.3769405E+01;0;  1.0492013E-02;  4.0079613E+04;  0.0000000E+00;  4.4968474E-01;  4.0000000E+04;  0.0000000E+00;  4.0017531E+04;  1.1103211E-02;  0.0000000E+00; -6.1119813E-04;  2.1635942E+03;
  7.1280546E-02;  9.9999998E-03; -2.3006050E-01;2880;  2.8490999E-03;  0.0000000E+00; -2.8459207E-04;  1.0015823E+03;  1.0000000E-01;  1.3108765E+03;3; -8.4553919E+00;  0.0000000E+00; -1.0002195E+01;0;  1.0400242E-02;  4.0120559E+04;  0.0000000E+00;  5.1554567E-01;  4.0000000E+04;  0.0000000E+00;  4.0013426E+04;  1.0972490E-02;  0.0000000E+00; -5.7224766E-04;  1.7264714E+03;
  7.1327120E-02;  9.9999998E-03; -2.2003734E-01;2881;  2.7820347E-03;  0.0000000E+00; -2.2217543E-04;  1.0019858E+03;  1.0000000E-01;  1.6451880E+03;3; -1.1768161E+01;  0.0000000E+00; -6.4600005E+00;0;  1.0371194E-02;  4.0159645E+04;  0.0000000E+00;  5.0564021E-01;  4.0000000E+04;  0.0000000E+00;  4.0009465E+04;  1.0814732E-02;  0.0000000E+00; -4.4353754E-04;  1.1832427E+03;
  7.1340233E-02;  9.9999998E-03; -2.1001296E-01;2882;  2.6200062E-03;  0.0000000E+00; -1.0312896E-04;  1.0023553E+03;  1.0000000E-01;  1.9513522E+03;3; -1.4609967E+01;  0.0000000E+00; -3.6298652E+00;0;  1.0411929E-02;  4.0195699E+04;  0.0000000E+00;  4.3552259E-01;  4.0000000E+04;  0.0000000E+00;  4.0004367E+04;  1.0670245E-02;  0.0000000E+00; -2.5831509E-04;  7.1091351E+02;
  7.1330003E-02;  9.9999998E-03; -1.9999357E-01;2883;  2.4163171E-03;  0.0000000E+00;  2.5411877E-05;  1.0026830E+03;  1.0000000E-01;  2.2228508E+03;3; -1.6895487E+01;  0.0000000E+00; -1.6275828E+00;0;  1.0512220E-02;  4.0227203E+04;  0.0000000E+00;  3.2962787E-01;  4.0000000E+04;  0.0000000E+00;  4.0001352E+04;  1.0564884E-02;  0.0000000E+00; -5.2664269E-05;  4.8653998E+02;
  7.1302779E-02;  9.9999998E-03; -1.8998209E-01;2884;  2.2302954E-03;  0.0000000E+00;  1.1172854E-04;  1.0029647E+03;  1.0000000E-01;  2.4562268E+03;3; -1.8619583E+01;  0.0000000E+00; -3.5114592E-01;0;  1.0654020E-02;  4.0253172E+04;  0.0000000E+00;  2.1349069E-01;  4.0000000E+04;  0.0000000E+00;  3.9999234E+04;  1.0512006E-02;  0.0000000E+00;  1.4201373E-04;  4.7466409E+02;
  7.1264990E-02;  9.9999998E-03; -1.7997919E-01;2885;  2.0896883E-03;  0.0000000E+00;  1.5114984E-04;  1.0031976E+03;  1.0000000E-01;  2.6491104E+03;3; -1.9847784E+01;  0.0000000E+00;  3.7291333E-01;0;  1.0818118E-02;  4.0273512E+04;  0.0000000E+00;  1.0760476E-01;  4.0000000E+04;  0.0000000E+00;  3.9999305E+04;  1.0515578E-02;  0.0000000E+00;  3.0254052E-04;  4.2811926E+02;
  7.1224846E-02;  9.9999998E-03; -1.6998456E-01;2886;  2.0036255E-03;  0.0000000E+00;  1.5766360E-04;  1.0033788E+03;  1.0000000E-01;  2.7993281E+03;3; -2.0663458E+01;  0.0000000E+00;  6.9251287E-01;0;  1.0986762E-02;  4.0288391E+04;  0.0000000E+00;  2.5812024E-02;  4.0000000E+04;  0.0000000E+00;  3.9999406E+04;  1.0572136E-02;  0.0000000E+00;  4.1462563E-04;  2.6231836E+02;
  7.1187869E-02;  9.9999998E-03; -1.5999493E-01;2887;  1.9695289E-03;  0.0000000E+00;  1.5171367E-04;  1.0035170E+03;  1.0000000E-01;  2.9136953E+03;3; -2.1182823E+01;  0.0000000E+00;  7.3783582E-01;0;  1.1143138E-02;  4.0298012E+04;  0.0000000E+00; -2.5985952E-02;  4.0000000E+04;  0.0000000E+00;  4.0002398E+04;  1.0672584E-02;  0.0000000E+00;  4.7055312E-04;  3.7045216E+01;
  7.1158081E-02;  9.9999998E-03; -1.5000780E-01;2888;  1.9786316E-03;  0.0000000E+00;  1.4676200E-04;  1.0036051E+03;  1.0000000E-01;  2.9867798E+03;3; -2.1492994E+01;  0.0000000E+00;  6.3741308E-01;0;  1.1272019E-02;  4.0303398E+04;  0.0000000E+00; -4.9901981E-02;  4.0000000E+04;  0.0000000E+00;  4.0004883E+04;  1.0805068E-02;  0.0000000E+00;  4.6695079E-04;  2.8752271E+02;
  7.1137577E-02;  9.9999998E-03; -1.4002225E-01;2889;  2.0140414E-03;  0.0000000E+00;  1.4978631E-04;  1.0036450E+03;  1.0000000E-01;  3.0198652E+03;3; -2.1690565E+01;  0.0000000E+00;  4.9538508E-01;0;  1.1362135E-02;  4.0305508E+04;  0.0000000E+00; -5.3607602E-02;  4.0000000E+04;  0.0000000E+00;  4.0007262E+04;  1.0957880E-02;  0.0000000E+00;  4.0425593E-04;  5.2563007E+02;
  7.1126662E-02;  9.9999998E-03; -1.3003664E-01;2890;  2.0583598E-03;  0.0000000E+00;  1.6601564E-04;  1.0036525E+03;  1.0000000E-01;  3.0259885E+03;3; -2.1876951E+01;  0.0000000E+00;  3.6424699E-01;0;  1.1408892E-02;  4.0305254E+04;  0.0000000E+00; -4.5827497E-02;  4.0000000E+04;  0.0000000E+00;  4.0006781E+04;  1.1121586E-02;  0.0000000E+00;  2.8730626E-04;  6.5876257E+02;
  7.1123987E-02;  9.9999998E-03; -1.2004722E-01;2891;  2.0946665E-03;  0.0000000E+00;  1.9343416E-04;  1.0036229E+03;  1.0000000E-01;  3.0014954E+03;3; -2.2075245E+01;  0.0000000E+00;  2.5235593E-01;0;  1.1416988E-02;  4.0303289E+04;  0.0000000E+00; -3.3299342E-02;  4.0000000E+04;  0.0000000E+00;  4.0007203E+04;  1.1290573E-02;  0.0000000E+00;  1.2641457E-04;  6.6159521E+02;
  7.1127139E-02;  9.9999998E-03; -1.1005137E-01;2892;  2.1089308E-03;  0.0000000E+00;  2.2097421E-04;  1.0035801E+03;  1.0000000E-01;  2.9660396E+03;3; -2.2318113E+01;  0.0000000E+00;  1.5964873E-01;0;  1.1401352E-02;  4.0300508E+04;  0.0000000E+00; -2.0487376E-02;  4.0000000E+04;  0.0000000E+00;  4.0006641E+04;  1.1462323E-02;  0.0000000E+00; -6.0971175E-05;  5.4661279E+02;
  8.0556311E-02;  9.9999998E-03; -2.7006090E-01;2937;  1.9068770E-03;  0.0000000E+00; -3.3765074E-04;  9.9970978E+02;  1.0000000E-01; -2.4043764E+02;3;  8.0220041E+00;  0.0000000E+00; -1.7419540E+01;0;  1.0955469E-02;  3.9963664E+04;  0.0000000E+00;  4.1360295E-01;  4.0000000E+04;  0.0000000E+00;  4.0013031E+04;  1.1369036E-02;  0.0000000E+00; -4.1356671E-04;  1.7172782E+03;
  8.0806896E-02;  9.9999998E-03; -2.6009169E-01;2938;  2.4288672E-03;  0.0000000E+00; -3.5784030E-04;  1.0002017E+03;  1.0000000E-01;  1.6710638E+02;3;  4.6899452E+00;  0.0000000E+00; -1.9975595E+01;0;  1.0936077E-02;  3.9999855E+04;  0.0000000E+00;  6.7942774E-01;  4.0000000E+04;  0.0000000E+00;  4.0018113E+04;  1.1557616E-02;  0.0000000E+00; -6.2153954E-04;  2.4274272E+03;
  8.0988713E-02;  9.9999998E-03; -2.5010964E-01;2939;  2.7426337E-03;  0.0000000E+00; -4.5500972E-04;  1.0007115E+03;  1.0000000E-01;  5.8941541E+02;3;  1.2381996E+00;  0.0000000E+00; -1.9078098E+01;0;  1.0810880E-02;  4.0041230E+04;  0.0000000E+00;  8.9189410E-01;  4.0000000E+04;  0.0000000E+00;  4.0019105E+04;  1.1551628E-02;  0.0000000E+00; -7.4074813E-04;  2.7134807E+03;
  8.1114098E-02;  9.9999998E-03; -2.4010660E-01;2940;  2.9090133E-03;  0.0000000E+00; -5.3825934E-04;  1.0012127E+03;  1.0000000E-01;  1.0047123E+03;3; -2.1337910E+00;  0.0000000E+00; -1.5893080E+01;0;  1.0681629E-02;  4.0084980E+04;  0.0000000E+00;  1.0269678E+00;  4.0000000E+04;  0.0000000E+00;  4.0018215E+04;  1.1431703E-02;  0.0000000E+00; -7.5007451E-04;  2.6117725E+03;
  8.1191257E-02;  9.9999998E-03; -2.3008549E-01;2941;  2.9818411E-03;  0.0000000E+00; -5.4837484E-04;  1.0016756E+03;  1.0000000E-01;  1.3882076E+03;3; -5.2376523E+00;  0.0000000E+00; -1.1780235E+01;0;  1.0618216E-02;  4.0128223E+04;  0.0000000E+00;  1.0705147E+00;  4.0000000E+04;  0.0000000E+00;  4.0014570E+04;  1.1269800E-02;  0.0000000E+00; -6.5158441E-04;  2.2433730E+03;
  8.1230029E-02;  9.9999998E-03; -2.2005418E-01;2942;  2.9432315E-03;  0.0000000E+00; -4.9094344E-04;  1.0020947E+03;  1.0000000E-01;  1.7353583E+03;3; -7.9422860E+00;  0.0000000E+00; -7.8666387E+00;0;  1.0653562E-02;  4.0169035E+04;  0.0000000E+00;  1.0212226E+00;  4.0000000E+04;  0.0000000E+00;  4.0009953E+04;  1.1120517E-02;  0.0000000E+00; -4.6695484E-04;  1.7690371E+03;
  8.1239395E-02;  9.9999998E-03; -2.1002170E-01;2943;  2.8056486E-03;  0.0000000E+00; -3.7647245E-04;  1.0024581E+03;  1.0000000E-01;  2.0364856E+03;3; -1.0154611E+01;  0.0000000E+00; -4.7024069E+00;0;  1.0787264E-02;  4.0204906E+04;  0.0000000E+00;  8.9277422E-01;  4.0000000E+04;  0.0000000E+00;  4.0004648E+04;  1.1019332E-02;  0.0000000E+00; -2.3206805E-04;  1.3356270E+03;
  8.1226312E-02;  9.9999998E-03; -1.9999760E-01;2944;  2.6125780E-03;  0.0000000E+00; -2.2520598E-04;  1.0027723E+03;  1.0000000E-01;  2.2968240E+03;3; -1.1868800E+01;  0.0000000E+00; -2.4194038E+00;0;  1.0998245E-02;  4.0234918E+04;  0.0000000E+00;  7.1261555E-01;  4.0000000E+04;  0.0000000E+00;  4.0001523E+04;  1.0983694E-02;  0.0000000E+00;  1.4550547E-05;  1.0179028E+03;
  8.1198007E-02;  9.9999998E-03; -1.8998463E-01;2945;  2.4180633E-03;  0.0000000E+00; -7.3156705E-05;  1.0030258E+03;  1.0000000E-01;  2.5067932E+03;3; -1.3101473E+01;  0.0000000E+00; -9.2971313E-01;0;  1.1258085E-02;  4.0258719E+04;  0.0000000E+00;  5.1539546E-01;  4.0000000E+04;  0.0000000E+00;  4.0000359E+04;  1.1017333E-02;  0.0000000E+00;  2.4075242E-04;  7.8255530E+02;
  8.1160069E-02;  9.9999998E-03; -1.7998259E-01;2946;  2.2726003E-03;  0.0000000E+00;  1.7514485E-05;  1.0032234E+03;  1.0000000E-01;  2.6705417E+03;3; -1.3929072E+01;  0.0000000E+00; -6.7858353E-02;0;  1.1539506E-02;  4.0275762E+04;  0.0000000E+00;  3.3253047E-01;  4.0000000E+04;  0.0000000E+00;  4.0000305E+04;  1.1115031E-02;  0.0000000E+00;  4.2447401E-04;  5.4324060E+02;
  8.1120558E-02;  9.9999998E-03; -1.6998968E-01;2947;  2.1811503E-03;  0.0000000E+00;  6.5018707E-05;  1.0033656E+03;  1.0000000E-01;  2.7883655E+03;3; -1.4442426E+01;  0.0000000E+00;  3.4862906E-01;0;  1.1816950E-02;  4.0287105E+04;  0.0000000E+00;  1.8446884E-01;  4.0000000E+04;  0.0000000E+00;  4.0001453E+04;  1.1265006E-02;  0.0000000E+00;  5.5194373E-04;  2.7410977E+02;
  8.1085429E-02;  9.9999998E-03; -1.6000205E-01;2948;  2.1523274E-03;  0.0000000E+00;  7.8598081E-05;  1.0034630E+03;  1.0000000E-01;  2.8689558E+03;3; -1.4736714E+01;  0.0000000E+00;  4.6866783E-01;0;  1.2069385E-02;  4.0293270E+04;  0.0000000E+00;  8.0364428E-02;  4.0000000E+04;  0.0000000E+00;  4.0004039E+04;  1.1452746E-02;  0.0000000E+00;  6.1663863E-04;  2.5820380E+02;
  8.1058189E-02;  9.9999998E-03; -1.5001756E-01;2949;  2.1644018E-03;  0.0000000E+00;  8.6230226E-05;  1.0035107E+03;  1.0000000E-01;  2.9085598E+03;3; -1.4885501E+01;  0.0000000E+00;  4.3043354E-01;0;  1.2278497E-02;  4.0295246E+04;  0.0000000E+00;  1.8585850E-02;  4.0000000E+04;  0.0000000E+00;  4.0007254E+04;  1.1661863E-02;  0.0000000E+00;  6.1663392E-04;  5.6709882E+02;
  8.1041388E-02;  9.9999998E-03; -1.4003585E-01;2950;  2.2027041E-03;  0.0000000E+00;  1.0321791E-04;  1.0035202E+03;  1.0000000E-01;  2.9164607E+03;3; -1.4972624E+01;  0.0000000E+00;  3.4207821E-01;0;  1.2432798E-02;  4.0294145E+04;  0.0000000E+00; -1.0450530E-02;  4.0000000E+04;  0.0000000E+00;  4.0010984E+04;  1.1879236E-02;  0.0000000E+00;  5.5356236E-04;  8.4557550E+02;
  8.1033841E-02;  9.9999998E-03; -1.3005319E-01;2951;  2.2494984E-03;  0.0000000E+00;  1.3882419E-04;  1.0034988E+03;  1.0000000E-01;  2.8986833E+03;3; -1.5063368E+01;  0.0000000E+00;  2.5452384E-01;0;  1.2530200E-02;  4.0291363E+04;  0.0000000E+00; -1.8390745E-02;  4.0000000E+04;  0.0000000E+00;  4.0010742E+04;  1.2096997E-02;  0.0000000E+00;  4.3320312E-04;  1.0010668E+03;
  8.1034146E-02;  9.9999998E-03; -1.2006462E-01;2952;  2.2885872E-03;  0.0000000E+00;  1.8957166E-04;  1.0034563E+03;  1.0000000E-01;  2.8635239E+03;3; -1.5194491E+01;  0.0000000E+00;  1.7533019E-01;0;  1.2580135E-02;  4.0288195E+04;  0.0000000E+00; -1.5193413E-02;  4.0000000E+04;  0.0000000E+00;  4.0010016E+04;  1.2313792E-02;  0.0000000E+00;  2.6634234E-04;  1.0051159E+03;
  8.1038415E-02;  9.9999998E-03; -1.1006782E-01;2953;  2.3073538E-03;  0.0000000E+00;  2.3581857E-04;  1.0034026E+03;  1.0000000E-01;  2.8189819E+03;3; -1.5368033E+01;  0.0000000E+00;  1.1106484E-01;0;  1.2603372E-02;  4.0284918E+04;  0.0000000E+00; -7.8913616E-03;  4.0000000E+04;  0.0000000E+00;  4.0009312E+04;  1.2532590E-02;  0.0000000E+00;  7.0782102E-05;  8.7385968E+02;
  9.0599924E-02;  9.9999998E-03; -2.7008182E-01;2998;  2.4049405E-03;  0.0000000E+00; -2.8764736E-04;  9.9939532E+02;  1.0000000E-01; -5.0097348E+02;3;  9.9823503E+00;  0.0000000E+00; -1.7435423E+01;0;  1.1226404E-02;  3.9939098E+04;  0.0000000E+00;  1.4134033E+00;  4.0000000E+04;  0.0000000E+00;  4.0012633E+04;  1.1942443E-02;  0.0000000E+00; -7.1603898E-04;  2.6142092E+03;
  9.0819977E-02;  9.9999998E-03; -2.6012158E-01;2999;  2.9900200E-03;  0.0000000E+00; -3.1995247E-04;  9.9992096E+02;  1.0000000E-01; -6.5479630E+01;3;  6.7270885E+00;  0.0000000E+00; -2.0777637E+01;0;  1.1122020E-02;  3.9977008E+04;  0.0000000E+00;  1.5841151E+00;  4.0000000E+04;  0.0000000E+00;  4.0018859E+04;  1.2025107E-02;  0.0000000E+00; -9.0308685E-04;  3.2925229E+03;
  9.0976022E-02;  9.9999998E-03; -2.5014189E-01;3000;  3.2915429E-03;  0.0000000E+00; -4.3969185E-04;  1.0004574E+03;  1.0000000E-01;  3.7895224E+02;3;  3.4668474E+00;  0.0000000E+00; -2.0156361E+01;0;  1.0944269E-02;  4.0019645E+04;  0.0000000E+00;  1.6757643E+00;  4.0000000E+04;  0.0000000E+00;  4.0021168E+04;  1.1924277E-02;  0.0000000E+00; -9.8000839E-04;  3.5612874E+03;
  9.1081955E-02;  9.9999998E-03; -2.4013579E-01;3001;  3.3639376E-03;  0.0000000E+00; -5.6867907E-04;  1.0009662E+03;  1.0000000E-01;  8.0047119E+02;3;  4.4907799E-01;  0.0000000E+00; -1.6953173E+01;0;  1.0808768E-02;  4.0064203E+04;  0.0000000E+00;  1.6876664E+00;  4.0000000E+04;  0.0000000E+00;  4.0020172E+04;  1.1745087E-02;  0.0000000E+00; -9.3631947E-04;  3.4267812E+03;
  9.1146521E-02;  9.9999998E-03; -2.3011045E-01;3002;  3.3360354E-03;  0.0000000E+00; -6.5221247E-04;  1.0014238E+03;  1.0000000E-01;  1.1796210E+03;3; -2.1610219E+00;  0.0000000E+00; -1.2741511E+01;0;  1.0788972E-02;  4.0106816E+04;  0.0000000E+00;  1.6201895E+00;  4.0000000E+04;  0.0000000E+00;  4.0016930E+04;  1.1571793E-02;  0.0000000E+00; -7.8282162E-04;  3.0061367E+03;
  9.1180786E-02;  9.9999998E-03; -2.2007494E-01;3003;  3.2721779E-03;  0.0000000E+00; -6.6590589E-04;  1.0018223E+03;  1.0000000E-01;  1.5097844E+03;3; -4.3029690E+00;  0.0000000E+00; -8.6674614E+00;0;  1.0910458E-02;  4.0145766E+04;  0.0000000E+00;  1.4764915E+00;  4.0000000E+04;  0.0000000E+00;  4.0011547E+04;  1.1457976E-02;  0.0000000E+00; -5.4751785E-04;  2.4577461E+03;
  9.1187626E-02;  9.9999998E-03; -2.1003744E-01;3004;  3.1739068E-03;  0.0000000E+00; -6.1086350E-04;  1.0021533E+03;  1.0000000E-01;  1.7839496E+03;3; -5.9797807E+00;  0.0000000E+00; -5.3445635E+00;0;  1.1161218E-02;  4.0178758E+04;  0.0000000E+00;  1.2669315E+00;  4.0000000E+04;  0.0000000E+00;  4.0006430E+04;  1.1429236E-02;  0.0000000E+00; -2.6801758E-04;  1.9186169E+03;
  9.1175422E-02;  9.9999998E-03; -2.0000666E-01;3005;  3.0243453E-03;  0.0000000E+00; -5.1524240E-04;  1.0024197E+03;  1.0000000E-01;  2.0046841E+03;3; -7.2286119E+00;  0.0000000E+00; -2.9312263E+00;0;  1.1505858E-02;  4.0205359E+04;  0.0000000E+00;  1.0136709E+00;  4.0000000E+04;  0.0000000E+00;  4.0003391E+04;  1.1488686E-02;  0.0000000E+00;  1.7171580E-05;  1.4573894E+03;
  9.1147676E-02;  9.9999998E-03; -1.8999098E-01;3006;  2.8512035E-03;  0.0000000E+00; -3.9084553E-04;  1.0026155E+03;  1.0000000E-01;  2.1669512E+03;3; -8.1004877E+00;  0.0000000E+00; -1.3236786E+00;0;  1.1901126E-02;  4.0224316E+04;  0.0000000E+00;  7.4858379E-01;  4.0000000E+04;  0.0000000E+00;  4.0002121E+04;  1.1625746E-02;  0.0000000E+00;  2.7538030E-04;  1.0676737E+03;
  9.1111585E-02;  9.9999998E-03; -1.7998825E-01;3007;  2.7030378E-03;  0.0000000E+00; -2.7303502E-04;  1.0027579E+03;  1.0000000E-01;  2.2848735E+03;3; -8.6607227E+00;  0.0000000E+00; -3.6734310E-01;0;  1.2307778E-02;  4.0236887E+04;  0.0000000E+00;  5.0493884E-01;  4.0000000E+04;  0.0000000E+00;  4.0002711E+04;  1.1823311E-02;  0.0000000E+00;  4.8446658E-04;  7.2028619E+02;
  9.1075778E-02;  9.9999998E-03; -1.6999525E-01;3008;  2.6110238E-03;  0.0000000E+00; -1.8208932E-04;  1.0028461E+03;  1.0000000E-01;  2.3579580E+03;3; -8.9860764E+00;  0.0000000E+00;  1.1907892E-01;0;  1.2693199E-02;  4.0243066E+04;  0.0000000E+00;  3.0673459E-01;  4.0000000E+04;  0.0000000E+00;  4.0003742E+04;  1.2061674E-02;  0.0000000E+00;  6.3152512E-04;  4.8262204E+02;
  9.1046602E-02;  9.9999998E-03; -1.6000767E-01;3009;  2.5836518E-03;  0.0000000E+00; -1.3323818E-04;  1.0028881E+03;  1.0000000E-01;  2.3927224E+03;3; -9.1474018E+00;  0.0000000E+00;  2.9378593E-01;0;  1.3031675E-02;  4.0244641E+04;  0.0000000E+00;  1.6351075E-01;  4.0000000E+04;  0.0000000E+00;  4.0006535E+04;  1.2321242E-02;  0.0000000E+00;  7.1043306E-04;  5.9507953E+02;
  9.1028348E-02;  9.9999998E-03; -1.5002462E-01;3010;  2.6107715E-03;  0.0000000E+00; -1.0044378E-04;  1.0028950E+03;  1.0000000E-01;  2.3984507E+03;3; -9.2136860E+00;  0.0000000E+00;  3.0068848E-01;0;  1.3304429E-02;  4.0242586E+04;  0.0000000E+00;  7.2883733E-02;  4.0000000E+04;  0.0000000E+00;  4.0010070E+04;  1.2584417E-02;  0.0000000E+00;  7.2001229E-04;  9.2802948E+02;
  9.1022260E-02;  9.9999998E-03; -1.4004526E-01;3011;  2.6692618E-03;  0.0000000E+00; -5.7588150E-05;  1.0028721E+03;  1.0000000E-01;  2.3794883E+03;3; -9.2445335E+00;  0.0000000E+00;  2.4702251E-01;0;  1.3501327E-02;  4.0238543E+04;  0.0000000E+00;  2.3955353E-02;  4.0000000E+04;  0.0000000E+00;  4.0012691E+04;  1.2838222E-02;  0.0000000E+00;  6.6310528E-04;  1.2339080E+03;
  9.1027282E-02;  9.9999998E-03; -1.3006344E-01;3012;  2.7386688E-03;  0.0000000E+00;  2.1600883E-05;  1.0028271E+03;  1.0000000E-01;  2.3422546E+03;3; -9.2847519E+00;  0.0000000E+00;  1.8607514E-01;0;  1.3625168E-02;  4.0233949E+04;  0.0000000E+00;  2.8630598E-03;  4.0000000E+04;  0.0000000E+00;  4.0013273E+04;  1.3078493E-02;  0.0000000E+00;  5.4667558E-04;  1.4085259E+03;
  9.1039501E-02;  9.9999998E-03; -1.2007367E-01;3013;  2.8015811E-03;  0.0000000E+00;  1.2262272E-04;  1.0027703E+03;  1.0000000E-01;  2.2951450E+03;3; -9.3610678E+00;  0.0000000E+00;  1.2142198E-01;0;  1.3692304E-02;  4.0229562E+04;  0.0000000E+00; -2.6250929E-03;  4.0000000E+04;  0.0000000E+00;  4.0013270E+04;  1.3310269E-02;  0.0000000E+00;  3.8203533E-04;  1.4168669E+03;
  9.1053963E-02;  9.9999998E-03; -1.1007314E-01;3014;  2.8493644E-03;  0.0000000E+00;  1.9151934E-04;  1.0027119E+03;  1.0000000E-01;  2.2467512E+03;3; -9.4752369E+00;  0.0000000E+00;  7.4822903E-02;0;  1.3732215E-02;  4.0226008E+04;  0.0000000E+00; -1.1154315E-03;  4.0000000E+04;  0.0000000E+00;  4.0011707E+04;  1.3545090E-02;  0.0000000E+00;  1.8712475E-04;  1.2757247E+03;
  1.0070176E-01;  9.9999998E-03; -2.7006036E-01;3059;  3.4341863E-03;  0.0000000E+00;  6.8509224E-05;  9.9895538E+02;  1.0000000E-01; -8.6545703E+02;3;  1.1561472E+01;  0.0000000E+00; -1.6641624E+01;0;  1.1331529E-02;  3.9904059E+04;  0.0000000E+00;  3.0428424E+00;  4.0000000E+04;  0.0000000E+00;  4.0013457E+04;  1.2383185E-02;  0.0000000E+00; -1.0516561E-03;  4.7158589E+03;
  1.0090259E-01;  9.9999998E-03; -2.6010740E-01;3060;  3.8466016E-03;  0.0000000E+00; -6.2195548E-05;  9.9949945E+02;  1.0000000E-01; -4.1470432E+02;3;  8.1504326E+00;  0.0000000E+00; -2.0761507E+01;0;  1.1082117E-02;  3.9941969E+04;  0.0000000E+00;  2.9511096E+00;  4.0000000E+04;  0.0000000E+00;  4.0020586E+04;  1.2291601E-02;  0.0000000E+00; -1.2094832E-03;  5.0091265E+03;
  1.0104476E-01;  9.9999998E-03; -2.5012913E-01;3061;  4.0464182E-03;  0.0000000E+00; -1.8668358E-04;  1.0000457E+03;  1.0000000E-01;  3.7826092E+01;3;  4.9600306E+00;  0.0000000E+00; -2.0407204E+01;0;  1.0820045E-02;  3.9984500E+04;  0.0000000E+00;  2.7479439E+00;  4.0000000E+04;  0.0000000E+00;  4.0024074E+04;  1.2065463E-02;  0.0000000E+00; -1.2454174E-03;  4.9717500E+03;
  1.0113228E-01;  9.9999998E-03; -2.4012406E-01;3062;  4.1186213E-03;  0.0000000E+00; -2.8041095E-04;  1.0005495E+03;  1.0000000E-01;  4.5529578E+02;3;  2.2346065E+00;  0.0000000E+00; -1.7214151E+01;0;  1.0671237E-02;  4.0027758E+04;  0.0000000E+00;  2.4793975E+00;  4.0000000E+04;  0.0000000E+00;  4.0023727E+04;  1.1825662E-02;  0.0000000E+00; -1.1544258E-03;  4.5767388E+03;
  1.0117884E-01;  9.9999998E-03; -2.3010141E-01;3063;  4.0975809E-03;  0.0000000E+00; -3.5575169E-04;  1.0009822E+03;  1.0000000E-01;  8.1370538E+02;3;  3.9026856E-02;  0.0000000E+00; -1.2940188E+01;0;  1.0698873E-02;  4.0068531E+04;  0.0000000E+00;  2.1791525E+00;  4.0000000E+04;  0.0000000E+00;  4.0018906E+04;  1.1650575E-02;  0.0000000E+00; -9.5170282E-04;  3.9216292E+03;
  1.0119713E-01;  9.9999998E-03; -2.2007096E-01;3064;  3.9968374E-03;  0.0000000E+00; -4.1318449E-04;  1.0013398E+03;  1.0000000E-01;  1.1099933E+03;3; -1.6620013E+00;  0.0000000E+00; -8.8418369E+00;0;  1.0911287E-02;  4.0103824E+04;  0.0000000E+00;  1.8634058E+00;  4.0000000E+04;  0.0000000E+00;  4.0014586E+04;  1.1581961E-02;  0.0000000E+00; -6.7067402E-04;  3.1590168E+03;
  1.0119971E-01;  9.9999998E-03; -2.1003787E-01;3065;  3.8528221E-03;  0.0000000E+00; -4.5425291E-04;  1.0016134E+03;  1.0000000E-01;  1.3366536E+03;3; -2.9285493E+00;  0.0000000E+00; -5.5315790E+00;0;  1.1280742E-02;  4.0132742E+04;  0.0000000E+00;  1.5380025E+00;  4.0000000E+04;  0.0000000E+00;  4.0009922E+04;  1.1632417E-02;  0.0000000E+00; -3.5167535E-04;  2.4283040E+03;
  1.0118289E-01;  9.9999998E-03; -2.0000854E-01;3066;  3.6922900E-03;  0.0000000E+00; -4.7771458E-04;  1.0018178E+03;  1.0000000E-01;  1.5060315E+03;3; -3.8249521E+00;  0.0000000E+00; -3.1468189E+00;0;  1.1757353E-02;  4.0153977E+04;  0.0000000E+00;  1.2100273E+00;  4.0000000E+04;  0.0000000E+00;  4.0005828E+04;  1.1790682E-02;  0.0000000E+00; -3.3328630E-05;  1.8079938E+03;
  1.0115437E-01;  9.9999998E-03; -1.8999067E-01;3067;  3.5543223E-03;  0.0000000E+00; -4.7634038E-04;  1.0019503E+03;  1.0000000E-01;  1.6157567E+03;3; -4.4254012E+00;  0.0000000E+00; -1.5695583E+00;0;  1.2284681E-02;  4.0167664E+04;  0.0000000E+00;  8.9482760E-01;  4.0000000E+04;  0.0000000E+00;  4.0003285E+04;  1.2031696E-02;  0.0000000E+00;  2.5298516E-04;  1.3070841E+03;
  1.0112192E-01;  9.9999998E-03; -1.7998710E-01;3068;  3.4637016E-03;  0.0000000E+00; -4.5845649E-04;  1.0020209E+03;  1.0000000E-01;  1.6742242E+03;3; -4.7967243E+00;  0.0000000E+00; -6.2899053E-01;0;  1.2809759E-02;  4.0174562E+04;  0.0000000E+00;  6.1383432E-01;  4.0000000E+04;  0.0000000E+00;  4.0004051E+04;  1.2323887E-02;  0.0000000E+00;  4.8587227E-04;  9.2189630E+02;
  1.0109336E-01;  9.9999998E-03; -1.6999131E-01;3069;  3.4356485E-03;  0.0000000E+00; -4.3507791E-04;  1.0020502E+03;  1.0000000E-01;  1.6985199E+03;3; -5.0060339E+00;  0.0000000E+00; -1.4329717E-01;0;  1.3289954E-02;  4.0175824E+04;  0.0000000E+00;  3.8591233E-01;  4.0000000E+04;  0.0000000E+00;  4.0005762E+04;  1.2636844E-02;  0.0000000E+00;  6.5310922E-04;  7.5485278E+02;
  1.0107548E-01;  9.9999998E-03; -1.5999950E-01;3070;  3.4840915E-03;  0.0000000E+00; -4.1032475E-04;  1.0020443E+03;  1.0000000E-01;  1.6936805E+03;3; -5.1032085E+00;  0.0000000E+00;  4.0088601E-02;0;  1.3695262E-02;  4.0172496E+04;  0.0000000E+00;  2.1907306E-01;  4.0000000E+04;  0.0000000E+00;  4.0008930E+04;  1.2946258E-02;  0.0000000E+00;  7.4900407E-04;  9.3932697E+02;
  1.0107536E-01;  9.9999998E-03; -1.5001406E-01;3071;  3.6124184E-03;  0.0000000E+00; -3.7168598E-04;  1.0020054E+03;  1.0000000E-01;  1.6613851E+03;3; -5.1380682E+00;  0.0000000E+00;  6.0393967E-02;0;  1.4008221E-02;  4.0166734E+04;  0.0000000E+00;  1.0948633E-01;  4.0000000E+04;  0.0000000E+00;  4.0012398E+04;  1.3235629E-02;  0.0000000E+00;  7.7259290E-04;  1.3017997E+03;
  1.0109501E-01;  9.9999998E-03; -1.4003211E-01;3072;  3.8121447E-03;  0.0000000E+00; -2.9861691E-04;  1.0019526E+03;  1.0000000E-01;  1.6177321E+03;3; -5.1428657E+00;  0.0000000E+00;  3.2813523E-02;0;  1.4224713E-02;  4.0159980E+04;  0.0000000E+00;  4.6022862E-02;  4.0000000E+04;  0.0000000E+00;  4.0015113E+04;  1.3497164E-02;  0.0000000E+00;  7.2754821E-04;  1.6349908E+03;
  1.0114423E-01;  9.9999998E-03; -1.3004351E-01;3073;  4.0062238E-03;  0.0000000E+00; -2.0530014E-04;  1.0018918E+03;  1.0000000E-01;  1.5673630E+03;3; -5.0961847E+00;  0.0000000E+00;  2.8183116E-02;0;  1.4349479E-02;  4.0153512E+04;  0.0000000E+00;  1.3955950E-02;  4.0000000E+04;  0.0000000E+00;  4.0016004E+04;  1.3727760E-02;  0.0000000E+00;  6.2171929E-04;  1.8311530E+03;
  1.0120858E-01;  9.9999998E-03; -1.2004535E-01;3074;  4.1273925E-03;  0.0000000E+00; -1.0962513E-04;  1.0018320E+03;  1.0000000E-01;  1.5177842E+03;3; -5.0860171E+00;  0.0000000E+00;  3.7280776E-02;0;  1.4403727E-02;  4.0148488E+04;  0.0000000E+00;  2.9192222E-04;  4.0000000E+04;  0.0000000E+00;  4.0015898E+04;  1.3936292E-02;  0.0000000E+00;  4.6743479E-04;  1.8498796E+03;
  1.0124995E-01;  9.9999998E-03; -1.1004291E-01;3075;  4.1825389E-03;  0.0000000E+00; -3.2744123E-05;  1.0017790E+03;  1.0000000E-01;  1.4738348E+03;3; -5.1204901E+00;  0.0000000E+00;  3.4527972E-02;0;  1.4428901E-02;  4.0145516E+04;  0.0000000E+00; -4.0204679E-03;  4.0000000E+04;  0.0000000E+00;  4.0015074E+04;  1.4145784E-02;  0.0000000E+00;  2.8311703E-04;  1.7073284E+03;
  1.1085619E-01;  9.9999998E-03; -2.6995939E-01;3120;  4.0164227E-03;  0.0000000E+00;  2.7086723E-04;  9.9847577E+02;  1.0000000E-01; -1.2627791E+03;3;  1.2220315E+01;  0.0000000E+00; -1.6401142E+01;0;  1.1160519E-02;  3.9864156E+04;  0.0000000E+00;  5.4584575E+00;  4.0000000E+04;  0.0000000E+00;  4.0015703E+04;  1.2535155E-02;  0.0000000E+00; -1.3746354E-03;  8.1429629E+03;
  1.1102274E-01;  9.9999998E-03; -2.6002011E-01;3121;  4.2716134E-03;  0.0000000E+00;  1.0652598E-04;  9.9904309E+02;  1.0000000E-01; -7.9276770E+02;3;  8.6681232E+00;  0.0000000E+00; -2.0955446E+01;0;  1.0722368E-02;  3.9902199E+04;  0.0000000E+00;  4.8893013E+00;  4.0000000E+04;  0.0000000E+00;  4.0024719E+04;  1.2221947E-02;  0.0000000E+00; -1.4995796E-03;  7.7174297E+03;
  1.1115489E-01;  9.9999998E-03; -2.5004712E-01;3122;  4.4265576E-03;  0.0000000E+00; -1.1468745E-05;  9.9959540E+02;  1.0000000E-01; -3.3520041E+02;3;  5.5829902E+00;  0.0000000E+00; -2.0721674E+01;0;  1.0361731E-02;  3.9944555E+04;  0.0000000E+00;  4.1829915E+00;  4.0000000E+04;  0.0000000E+00;  4.0028430E+04;  1.1854136E-02;  0.0000000E+00; -1.4924055E-03;  7.0212314E+03;
  1.1125154E-01;  9.9999998E-03; -2.4004425E-01;3123;  4.5130518E-03;  0.0000000E+00; -7.8669553E-05;  1.0000898E+03;  1.0000000E-01;  7.4467033E+01;3;  3.1057329E+00;  0.0000000E+00; -1.7465389E+01;0;  1.0189823E-02;  3.9986363E+04;  0.0000000E+00;  3.4545684E+00;  4.0000000E+04;  0.0000000E+00;  4.0028645E+04;  1.1545314E-02;  0.0000000E+00; -1.3554918E-03;  6.0809658E+03;
  1.1130956E-01;  9.9999998E-03; -2.3002350E-01;3124;  4.5452421E-03;  0.0000000E+00; -1.0161113E-04;  1.0004995E+03;  1.0000000E-01;  4.1381546E+02;3;  1.2315437E+00;  0.0000000E+00; -1.3050820E+01;0;  1.0254278E-02;  4.0024617E+04;  0.0000000E+00;  2.7846675E+00;  4.0000000E+04;  0.0000000E+00;  4.0024445E+04;  1.1365125E-02;  0.0000000E+00; -1.1108475E-03;  4.9911860E+03;
  1.1134104E-01;  9.9999998E-03; -2.1999785E-01;3125;  4.5406921E-03;  0.0000000E+00; -1.0112967E-04;  1.0008092E+03;  1.0000000E-01;  6.7040082E+02;3; -1.1801390E-01;  0.0000000E+00; -8.8216429E+00;0;  1.0548544E-02;  4.0056508E+04;  0.0000000E+00;  2.2079968E+00;  4.0000000E+04;  0.0000000E+00;  4.0018867E+04;  1.1342445E-02;  0.0000000E+00; -7.9390156E-04;  3.8848481E+03;
  1.1134493E-01;  9.9999998E-03; -2.0997685E-01;3126;  4.5142020E-03;  0.0000000E+00; -9.2788316E-05;  1.0010213E+03;  1.0000000E-01;  8.4609955E+02;3; -1.0536913E+00;  0.0000000E+00; -5.4539309E+00;0;  1.1026720E-02;  4.0080949E+04;  0.0000000E+00;  1.7222968E+00;  4.0000000E+04;  0.0000000E+00;  4.0012785E+04;  1.1472226E-02;  0.0000000E+00; -4.4550677E-04;  2.8917998E+03;
  1.1132952E-01;  9.9999998E-03; -1.9996062E-01;3127;  4.4822348E-03;  0.0000000E+00; -8.7416338E-05;  1.0011580E+03;  1.0000000E-01;  9.5938025E+02;3; -1.6838024E+00;  0.0000000E+00; -3.0857475E+00;0;  1.1621621E-02;  4.0097012E+04;  0.0000000E+00;  1.3101460E+00;  4.0000000E+04;  0.0000000E+00;  4.0008117E+04;  1.1724821E-02;  0.0000000E+00; -1.0320061E-04;  2.0920625E+03;
  1.1130674E-01;  9.9999998E-03; -1.8994704E-01;3128;  4.4597713E-03;  0.0000000E+00; -8.8180394E-05;  1.0012213E+03;  1.0000000E-01;  1.0118232E+03;3; -2.0877078E+00;  0.0000000E+00; -1.5599215E+00;0;  1.2260496E-02;  4.0105270E+04;  0.0000000E+00;  9.5731217E-01;  4.0000000E+04;  0.0000000E+00;  4.0005977E+04;  1.2056923E-02;  0.0000000E+00;  2.0357303E-04;  1.4984709E+03;
  1.1128401E-01;  9.9999998E-03; -1.7994039E-01;3129;  4.4594761E-03;  0.0000000E+00; -9.2825605E-05;  1.0012296E+03;  1.0000000E-01;  1.0186379E+03;3; -2.3222980E+00;  0.0000000E+00; -6.6589314E-01;0;  1.2876393E-02;  4.0106898E+04;  0.0000000E+00;  6.6039521E-01;  4.0000000E+04;  0.0000000E+00;  4.0005629E+04;  1.2421714E-02;  0.0000000E+00;  4.5467884E-04;  1.1072565E+03;
  1.1127332E-01;  9.9999998E-03; -1.6993685E-01;3130;  4.4868458E-03;  0.0000000E+00; -9.9020544E-05;  1.0011966E+03;  1.0000000E-01;  9.9137939E+02;3; -2.4366629E+00;  0.0000000E+00; -2.0852490E-01;0;  1.3415936E-02;  4.0103051E+04;  0.0000000E+00;  4.2278424E-01;  4.0000000E+04;  0.0000000E+00;  4.0007754E+04;  1.2777375E-02;  0.0000000E+00;  6.3856167E-04;  1.0008071E+03;
  1.1127087E-01;  9.9999998E-03; -1.5993744E-01;3131;  4.5361500E-03;  0.0000000E+00; -1.0595237E-04;  1.0011407E+03;  1.0000000E-01;  9.4505969E+02;3; -2.4726303E+00;  0.0000000E+00; -2.2937726E-02;0;  1.3842707E-02;  4.0095746E+04;  0.0000000E+00;  2.4645719E-01;  4.0000000E+04;  0.0000000E+00;  4.0010801E+04;  1.3092864E-02;  0.0000000E+00;  7.4984186E-04;  1.2336293E+03;
  1.1127765E-01;  9.9999998E-03; -1.4995204E-01;3132;  4.5965305E-03;  0.0000000E+00; -1.1042711E-04;  1.0010709E+03;  1.0000000E-01;  8.8728357E+02;3; -2.4750700E+00;  0.0000000E+00;  1.9685421E-02;0;  1.4139214E-02;  4.0086996E+04;  0.0000000E+00;  1.2684667E-01;  4.0000000E+04;  0.0000000E+00;  4.0013594E+04;  1.3351437E-02;  0.0000000E+00;  7.8777678E-04;  1.6274788E+03;
  1.1129598E-01;  9.9999998E-03; -1.3997592E-01;3133;  4.6571172E-03;  0.0000000E+00; -1.1109157E-04;  1.0010043E+03;  1.0000000E-01;  8.3197644E+02;3; -2.4648352E+00;  0.0000000E+00;  1.7703852E-02;0;  1.4308227E-02;  4.0078613E+04;  0.0000000E+00;  5.3316671E-02;  4.0000000E+04;  0.0000000E+00;  4.0017348E+04;  1.3551820E-02;  0.0000000E+00;  7.5640739E-04;  1.9922253E+03;
  1.1132743E-01;  9.9999998E-03; -1.2999767E-01;3134;  4.7046239E-03;  0.0000000E+00; -1.0537760E-04;  1.0009445E+03;  1.0000000E-01;  7.8249640E+02;3; -2.4652376E+00;  0.0000000E+00;  1.0741076E-02;0;  1.4371474E-02;  4.0071770E+04;  0.0000000E+00;  1.2177574E-02;  4.0000000E+04;  0.0000000E+00;  4.0018551E+04;  1.3706688E-02;  0.0000000E+00;  6.6478667E-04;  2.2164277E+03;
  1.1137560E-01;  9.9999998E-03; -1.2000965E-01;3135;  4.7391066E-03;  0.0000000E+00; -9.0375812E-05;  1.0008926E+03;  1.0000000E-01;  7.3953467E+02;3; -2.4801843E+00;  0.0000000E+00;  5.5372119E-03;0;  1.4368692E-02;  4.0067488E+04;  0.0000000E+00; -8.7698894E-03;  4.0000000E+04;  0.0000000E+00;  4.0018074E+04;  1.3842142E-02;  0.0000000E+00;  5.2655069E-04;  2.2531118E+03;
  1.1147573E-01;  9.9999998E-03; -1.1000349E-01;3136;  4.7551086E-03;  0.0000000E+00; -7.6462769E-05;  1.0008569E+03;  1.0000000E-01;  7.0990582E+02;3; -2.5023978E+00;  0.0000000E+00;  2.5954398E-03;0;  1.4349512E-02;  4.0065527E+04;  0.0000000E+00; -1.8037476E-02;  4.0000000E+04;  0.0000000E+00;  4.0017758E+04;  1.3989154E-02;  0.0000000E+00;  3.6035720E-04;  2.1159395E+03;
  1.2088385E-01;  9.9999998E-03; -2.6984802E-01;3181;  4.2110835E-03;  0.0000000E+00;  3.3510165E-04;  9.9805133E+02;  1.0000000E-01; -1.6144235E+03;3;  1.2473033E+01;  0.0000000E+00; -1.7344631E+01;0;  1.0766111E-02;  3.9826465E+04;  0.0000000E+00;  8.7354345E+00;  4.0000000E+04;  0.0000000E+00;  4.0020305E+04;  1.2427343E-02;  0.0000000E+00; -1.6612322E-03;  1.2920578E+04;
  1.2103789E-01;  9.9999998E-03; -2.5992027E-01;3182;  4.3997969E-03;  0.0000000E+00;  1.6480703E-04;  9.9863947E+02;  1.0000000E-01; -1.1271780E+03;3;  8.7668495E+00;  0.0000000E+00; -2.1920691E+01;0;  1.0143006E-02;  3.9865551E+04;  0.0000000E+00;  7.4267592E+00;  4.0000000E+04;  0.0000000E+00;  4.0029793E+04;  1.1887874E-02;  0.0000000E+00; -1.7448685E-03;  1.1403772E+04;
  1.2117897E-01;  9.9999998E-03; -2.4995810E-01;3183;  4.5334771E-03;  0.0000000E+00;  5.5155648E-05;  9.9920184E+02;  1.0000000E-01; -6.6126526E+02;3;  5.6716223E+00;  0.0000000E+00; -2.1539711E+01;0;  9.6837338E-03;  3.9907766E+04;  0.0000000E+00;  5.9917984E+00;  4.0000000E+04;  0.0000000E+00;  4.0033703E+04;  1.1375715E-02;  0.0000000E+00; -1.6919817E-03;  9.6825439E+03;
  1.2129715E-01;  9.9999998E-03; -2.3996417E-01;3184;  4.6184813E-03;  0.0000000E+00;  4.9254159E-06;  9.9969135E+02;  1.0000000E-01; -2.5569647E+02;3;  3.3095441E+00;  0.0000000E+00; -1.8027649E+01;0;  9.4810929E-03;  3.9949012E+04;  0.0000000E+00;  4.6276608E+00;  4.0000000E+04;  0.0000000E+00;  4.0034090E+04;  1.0993253E-02;  0.0000000E+00; -1.5121605E-03;  7.9047749E+03;
  1.2138543E-01;  9.9999998E-03; -2.2995098E-01;3185;  4.6642348E-03;  0.0000000E+00; -7.4948553E-06;  1.0000819E+03;  1.0000000E-01;  6.7849930E+01;3;  1.6457957E+00;  0.0000000E+00; -1.3354452E+01;0;  9.5674470E-03;  3.9985680E+04;  0.0000000E+00;  3.4621282E+00;  4.0000000E+04;  0.0000000E+00;  4.0029430E+04;  1.0798288E-02;  0.0000000E+00; -1.2308408E-03;  6.1842246E+03;
  1.2143164E-01;  9.9999998E-03; -2.1993147E-01;3186;  4.6815630E-03;  0.0000000E+00;  2.6041823E-08;  1.0003590E+03;  1.0000000E-01;  2.9747308E+02;3;  5.3881341E-01;  0.0000000E+00; -8.9332457E+00;0;  9.9185240E-03;  4.0015383E+04;  0.0000000E+00;  2.5432808E+00;  4.0000000E+04;  0.0000000E+00;  4.0023262E+04;  1.0804733E-02;  0.0000000E+00; -8.8620908E-04;  4.6236943E+03;
  1.2145301E-01;  9.9999998E-03; -2.0991640E-01;3187;  4.6837432E-03;  0.0000000E+00;  1.1530949E-05;  1.0005276E+03;  1.0000000E-01;  4.3712344E+02;3; -1.7102860E-01;  0.0000000E+00; -5.4615970E+00;0;  1.0469574E-02;  4.0036336E+04;  0.0000000E+00;  1.8530654E+00;  4.0000000E+04;  0.0000000E+00;  4.0015969E+04;  1.0988559E-02;  0.0000000E+00; -5.1898533E-04;  3.3134609E+03;
  1.2146024E-01;  9.9999998E-03; -1.9990756E-01;3188;  4.6833344E-03;  0.0000000E+00;  1.6451215E-05;  1.0006017E+03;  1.0000000E-01;  4.9845505E+02;3; -6.1659360E-01;  0.0000000E+00; -3.0565703E+00;0;  1.1137569E-02;  4.0048344E+04;  0.0000000E+00;  1.3407232E+00;  4.0000000E+04;  0.0000000E+00;  4.0010879E+04;  1.1302005E-02;  0.0000000E+00; -1.6443532E-04;  2.3120940E+03;
  1.2144819E-01;  9.9999998E-03; -1.8990190E-01;3189;  4.6906741E-03;  0.0000000E+00;  1.1395082E-05;  1.0006031E+03;  1.0000000E-01;  4.9973895E+02;3; -8.9032489E-01;  0.0000000E+00; -1.5405692E+00;0;  1.1838009E-02;  4.0052195E+04;  0.0000000E+00;  9.5330238E-01;  4.0000000E+04;  0.0000000E+00;  4.0007480E+04;  1.1686826E-02;  0.0000000E+00;  1.5118293E-04;  1.6230253E+03;
  1.2142594E-01;  9.9999998E-03; -1.7989863E-01;3190;  4.7105537E-03;  0.0000000E+00; -2.1223727E-06;  1.0005578E+03;  1.0000000E-01;  4.6211038E+02;3; -1.0491488E+00;  0.0000000E+00; -6.6515392E-01;0;  1.2494260E-02;  4.0049316E+04;  0.0000000E+00;  6.5326852E-01;  4.0000000E+04;  0.0000000E+00;  4.0006703E+04;  1.2083767E-02;  0.0000000E+00;  4.1049294E-04;  1.2252968E+03;
  1.2141198E-01;  9.9999998E-03; -1.6989574E-01;3191;  4.7427351E-03;  0.0000000E+00; -2.0004194E-05;  1.0004826E+03;  1.0000000E-01;  3.9979117E+02;3; -1.1288482E+00;  0.0000000E+00; -2.1685793E-01;0;  1.3046352E-02;  4.0041973E+04;  0.0000000E+00;  4.2056257E-01;  4.0000000E+04;  0.0000000E+00;  4.0008738E+04;  1.2442874E-02;  0.0000000E+00;  6.0347887E-04;  1.1610569E+03;
  1.2142350E-01;  9.9999998E-03; -1.5989561E-01;3192;  4.7826646E-03;  0.0000000E+00; -3.9585979E-05;  1.0003951E+03;  1.0000000E-01;  3.2729938E+02;3; -1.1580486E+00;  0.0000000E+00; -3.3017945E-02;0;  1.3456119E-02;  4.0031391E+04;  0.0000000E+00;  2.4624504E-01;  4.0000000E+04;  0.0000000E+00;  4.0012480E+04;  1.2730623E-02;  0.0000000E+00;  7.2549633E-04;  1.4322180E+03;
  1.2148105E-01;  9.9999998E-03; -1.4990902E-01;3193;  4.8240935E-03;  0.0000000E+00; -5.7960438E-05;  1.0003051E+03;  1.0000000E-01;  2.5273360E+02;3; -1.1613081E+00;  0.0000000E+00;  1.3344644E-02;0;  1.3709162E-02;  4.0020746E+04;  0.0000000E+00;  1.2394144E-01;  4.0000000E+04;  0.0000000E+00;  4.0015820E+04;  1.2932906E-02;  0.0000000E+00;  7.7625614E-04;  1.8587156E+03;
  1.2158743E-01;  9.9999998E-03; -1.3992821E-01;3194;  4.8614820E-03;  0.0000000E+00; -7.3984957E-05;  1.0002245E+03;  1.0000000E-01;  1.8606882E+02;3; -1.1556133E+00;  0.0000000E+00;  1.3946993E-02;0;  1.3815463E-02;  4.0011223E+04;  0.0000000E+00;  4.4612844E-02;  4.0000000E+04;  0.0000000E+00;  4.0017801E+04;  1.3055712E-02;  0.0000000E+00;  7.5975090E-04;  2.2572290E+03;
  1.2173497E-01;  9.9999998E-03; -1.2994121E-01;3195;  4.8890775E-03;  0.0000000E+00; -8.2662998E-05;  1.0001644E+03;  1.0000000E-01;  1.3619368E+02;3; -1.1511099E+00;  0.0000000E+00;  1.0174834E-02;0;  1.3806370E-02;  4.0004203E+04;  0.0000000E+00; -2.8043131E-03;  4.0000000E+04;  0.0000000E+00;  4.0020551E+04;  1.3121113E-02;  0.0000000E+00;  6.8525685E-04;  2.5112034E+03;
  1.2187362E-01;  9.9999998E-03; -1.1994337E-01;3196;  4.9032057E-03;  0.0000000E+00; -8.2560138E-05;  1.0001299E+03;  1.0000000E-01;  1.0765128E+02;3; -1.1549197E+00;  0.0000000E+00;  7.2663343E-03;0;  1.3735018E-02;  4.0000812E+04;  0.0000000E+00; -2.8628532E-02;  4.0000000E+04;  0.0000000E+00;  4.0020387E+04;  1.3167858E-02;  0.0000000E+00;  5.6716002E-04;  2.5672395E+03;
  1.2195858E-01;  9.9999998E-03; -1.0994019E-01;3197;  4.9034199E-03;  0.0000000E+00; -7.7305413E-05;  1.0001168E+03;  1.0000000E-01;  9.6688622E+01;3; -1.1703575E+00;  0.0000000E+00;  4.7028591E-03;0;  1.3665994E-02;  4.0000645E+04;  0.0000000E+00; -4.0304195E-02;  4.0000000E+04;  0.0000000E+00;  4.0019461E+04;  1.3242674E-02;  0.0000000E+00;  4.2331940E-04;  2.4378147E+03;
  1.3084565E-01;  9.9999998E-03; -2.6972556E-01;3242;  4.2362511E-03;  0.0000000E+00;  3.7848167E-04;  9.9775385E+02;  1.0000000E-01; -1.8608856E+03;3;  1.3107254E+01;  0.0000000E+00; -2.0463163E+01;0;  1.0313196E-02;  3.9795105E+04;  0.0000000E+00;  1.2850421E+01;  4.0000000E+04;  0.0000000E+00;  4.0028426E+04;  1.2235681E-02;  0.0000000E+00; -1.9224845E-03;  1.9033971E+04;
  1.3099940E-01;  9.9999998E-03; -2.5981411E-01;3243;  4.3722177E-03;  0.0000000E+00;  1.9784471E-04;  9.9835547E+02;  1.0000000E-01; -1.3624800E+03;3;  8.9380836E+00;  0.0000000E+00; -2.4120953E+01;0;  9.5268143E-03;  3.9835168E+04;  0.0000000E+00;  1.0476665E+01;  4.0000000E+04;  0.0000000E+00;  4.0037434E+04;  1.1469376E-02;  0.0000000E+00; -1.9425616E-03;  1.5953851E+04;
  1.3115595E-01;  9.9999998E-03; -2.4986757E-01;3244;  4.4835750E-03;  0.0000000E+00;  9.1387250E-05;  9.9892517E+02;  1.0000000E-01; -8.9049335E+02;3;  5.5842962E+00;  0.0000000E+00; -2.2985027E+01;0;  8.9868195E-03;  3.9878680E+04;  0.0000000E+00;  8.0871878E+00;  4.0000000E+04;  0.0000000E+00;  4.0041992E+04;  1.0822448E-02;  0.0000000E+00; -1.8356284E-03;  1.2841027E+04;
  1.3129303E-01;  9.9999998E-03; -2.3988934E-01;3245;  4.5688055E-03;  0.0000000E+00;  4.2356856E-05;  9.9941809E+02;  1.0000000E-01; -4.8210983E+02;3;  3.1725016E+00;  0.0000000E+00; -1.8909319E+01;0;  8.7662395E-03;  3.9920980E+04;  0.0000000E+00;  5.9427662E+00;  4.0000000E+04;  0.0000000E+00;  4.0039633E+04;  1.0377981E-02;  0.0000000E+00; -1.6117408E-03;  9.9595059E+03;
  1.3140017E-01;  9.9999998E-03; -2.2989269E-01;3246;  4.6265619E-03;  0.0000000E+00;  3.0073601E-05;  9.9980231E+02;  1.0000000E-01; -1.6379784E+02;3;  1.5960618E+00;  0.0000000E+00; -1.3819570E+01;0;  8.8754604E-03;  3.9957855E+04;  0.0000000E+00;  4.1952200E+00;  4.0000000E+04;  0.0000000E+00;  4.0034145E+04;  1.0174244E-02;  0.0000000E+00; -1.2987837E-03;  7.4380391E+03;
  1.3147542E-01;  9.9999998E-03; -2.1989070E-01;3247;  4.6626907E-03;  0.0000000E+00;  3.5942889E-05;  1.0000602E+03;  1.0000000E-01;  4.9875134E+01;3;  6.4630580E-01;  0.0000000E+00; -9.1282024E+00;0;  9.2712184E-03;  3.9986570E+04;  0.0000000E+00;  2.8824451E+00;  4.0000000E+04;  0.0000000E+00;  4.0027020E+04;  1.0206132E-02;  0.0000000E+00; -9.3491346E-04;  5.3281367E+03;
  1.3152143E-01;  9.9999998E-03; -2.0988876E-01;3248;  4.6851630E-03;  0.0000000E+00;  4.3270928E-05;  1.0002015E+03;  1.0000000E-01;  1.6700763E+02;3;  1.0331342E-01;  0.0000000E+00; -5.5182600E+00;0;  9.8743988E-03;  4.0006250E+04;  0.0000000E+00;  1.9571652E+00;  4.0000000E+04;  0.0000000E+00;  4.0018730E+04;  1.0432812E-02;  0.0000000E+00; -5.5841327E-04;  3.6581641E+03;
  1.3154541E-01;  9.9999998E-03; -1.9988720E-01;3249;  4.7047213E-03;  0.0000000E+00;  4.2907945E-05;  1.0002366E+03;  1.0000000E-01;  1.9604384E+02;3; -2.0298813E-01;  0.0000000E+00; -3.0584977E+00;0;  1.0589546E-02;  4.0015652E+04;  0.0000000E+00;  1.3285182E+00;  4.0000000E+04;  0.0000000E+00;  4.0012770E+04;  1.0790802E-02;  0.0000000E+00; -2.0125575E-04;  2.4381428E+03;
  1.3155486E-01;  9.9999998E-03; -1.8988223E-01;3250;  4.7282558E-03;  0.0000000E+00;  3.2243046E-05;  1.0002003E+03;  1.0000000E-01;  1.6592123E+02;3; -3.7821722E-01;  0.0000000E+00; -1.5340990E+00;0;  1.1321764E-02;  4.0016879E+04;  0.0000000E+00;  9.0147394E-01;  4.0000000E+04;  0.0000000E+00;  4.0008594E+04;  1.1207806E-02;  0.0000000E+00;  1.1395798E-04;  1.6438425E+03;
  1.3156599E-01;  9.9999998E-03; -1.7987379E-01;3251;  4.7586258E-03;  0.0000000E+00;  1.3329623E-05;  1.0001172E+03;  1.0000000E-01;  9.7182434E+01;3; -4.7820881E-01;  0.0000000E+00; -6.6347212E-01;0;  1.1987890E-02;  4.0011012E+04;  0.0000000E+00;  6.0125214E-01;  4.0000000E+04;  0.0000000E+00;  4.0007391E+04;  1.1614844E-02;  0.0000000E+00;  3.7304612E-04;  1.2263398E+03;
  1.3159832E-01;  9.9999998E-03; -1.6986077E-01;3252;  4.7941897E-03;  0.0000000E+00; -1.0587970E-05;  1.0000093E+03;  1.0000000E-01;  7.7034860E+00;3; -5.3094554E-01;  0.0000000E+00; -2.1778011E-01;0;  1.2524994E-02;  4.0001066E+04;  0.0000000E+00;  3.8121706E-01;  4.0000000E+04;  0.0000000E+00;  4.0008621E+04;  1.1956792E-02;  0.0000000E+00;  5.6820206E-04;  1.1876956E+03;
  1.3167529E-01;  9.9999998E-03; -1.5984730E-01;3253;  4.8307725E-03;  0.0000000E+00; -3.5198143E-05;  9.9990198E+02;  1.0000000E-01; -8.1232269E+01;3; -5.5377764E-01;  0.0000000E+00; -3.3411089E-02;0;  1.2895279E-02;  3.9989086E+04;  0.0000000E+00;  2.1772431E-01;  4.0000000E+04;  0.0000000E+00;  4.0012230E+04;  1.2199331E-02;  0.0000000E+00;  6.9594767E-04;  1.4907723E+03;
  1.3180520E-01;  9.9999998E-03; -1.4984557E-01;3254;  4.8633739E-03;  0.0000000E+00; -5.8063088E-05;  9.9980658E+02;  1.0000000E-01; -1.6024239E+02;3; -5.6064075E-01;  0.0000000E+00;  1.4777419E-02;0;  1.3088780E-02;  3.9977500E+04;  0.0000000E+00;  9.9922866E-02;  4.0000000E+04;  0.0000000E+00;  4.0015723E+04;  1.2332514E-02;  0.0000000E+00;  7.5626525E-04;  1.9462035E+03;
  1.3191140E-01;  9.9999998E-03; -1.3985850E-01;3255;  4.8864842E-03;  0.0000000E+00; -7.5909142E-05;  9.9973456E+02;  1.0000000E-01; -2.1989502E+02;3; -5.6502259E-01;  0.0000000E+00;  1.7971516E-02;0;  1.3127444E-02;  3.9968203E+04;  0.0000000E+00;  2.0810904E-02;  4.0000000E+04;  0.0000000E+00;  4.0019379E+04;  1.2374550E-02;  0.0000000E+00;  7.5289432E-04;  2.3741121E+03;
  1.3194229E-01;  9.9999998E-03; -1.2989026E-01;3256;  4.8975851E-03;  0.0000000E+00; -8.6060936E-05;  9.9968848E+02;  1.0000000E-01; -2.5806677E+02;3; -5.7258886E-01;  0.0000000E+00;  1.6527407E-02;0;  1.3056733E-02;  3.9962000E+04;  0.0000000E+00; -2.7157599E-02;  4.0000000E+04;  0.0000000E+00;  4.0021031E+04;  1.2362308E-02;  0.0000000E+00;  6.9442461E-04;  2.6571436E+03;
  1.3193528E-01;  9.9999998E-03; -1.1991835E-01;3257;  4.8964177E-03;  0.0000000E+00; -8.5810090E-05;  9.9966919E+02;  1.0000000E-01; -2.7406631E+02;3; -5.8364880E-01;  0.0000000E+00;  1.4810479E-02;0;  1.2934545E-02;  3.9959711E+04;  0.0000000E+00; -5.2183323E-02;  4.0000000E+04;  0.0000000E+00;  4.0020727E+04;  1.2339455E-02;  0.0000000E+00;  5.9508998E-04;  2.7356902E+03;
  1.3191341E-01;  9.9999998E-03; -1.0993568E-01;3258;  4.8849094E-03;  0.0000000E+00; -7.7925914E-05;  9.9966913E+02;  1.0000000E-01; -2.7411569E+02;3; -5.9739059E-01;  0.0000000E+00;  1.3166598E-02;0;  1.2826428E-02;  3.9960547E+04;  0.0000000E+00; -6.1352946E-02;  4.0000000E+04;  0.0000000E+00;  4.0020336E+04;  1.2354579E-02;  0.0000000E+00;  4.7184870E-04;  2.6186072E+03;
  1.4078835E-01;  9.9999998E-03; -2.6961589E-01;3303;  4.1083284E-03;  0.0000000E+00;  3.7665150E-04;  9.9762305E+02;  1.0000000E-01; -1.9692776E+03;3;  1.5006539E+01;  0.0000000E+00; -2.6185919E+01;0;  9.9767139E-03;  3.9771391E+04;  0.0000000E+00;  1.7673779E+01;  4.0000000E+04;  0.0000000E+00;  4.0042734E+04;  1.2112780E-02;  0.0000000E+00; -2.1360656E-03;  2.6330041E+04;
  1.4096540E-01;  9.9999998E-03; -2.5971505E-01;3304;  4.2053843E-03;  0.0000000E+00;  1.9013534E-04;  9.9821167E+02;  1.0000000E-01; -1.4815878E+03;3;  9.7030230E+00;  0.0000000E+00; -2.7695152E+01;0;  9.0795457E-03;  3.9813246E+04;  0.0000000E+00;  1.3834486E+01;  4.0000000E+04;  0.0000000E+00;  4.0048934E+04;  1.1150524E-02;  0.0000000E+00; -2.0709787E-03;  2.1095678E+04;
  1.4112921E-01;  9.9999998E-03; -2.4979140E-01;3305;  4.3117255E-03;  0.0000000E+00;  8.8209643E-05;  9.9878809E+02;  1.0000000E-01; -1.0040704E+03;3;  5.6637373E+00;  0.0000000E+00; -2.4992699E+01;0;  8.5060848E-03;  3.9859238E+04;  0.0000000E+00;  1.0273616E+01;  4.0000000E+04;  0.0000000E+00;  4.0050035E+04;  1.0410528E-02;  0.0000000E+00; -1.9044426E-03;  1.6221438E+04;
  1.4126681E-01;  9.9999998E-03; -2.3983853E-01;3306;  4.4103884E-03;  0.0000000E+00;  4.2808089E-05;  9.9929370E+02;  1.0000000E-01; -5.8516864E+02;3;  2.9541988E+00;  0.0000000E+00; -1.9951416E+01;0;  8.2988879E-03;  3.9904219E+04;  0.0000000E+00;  7.2669716E+00;  4.0000000E+04;  0.0000000E+00;  4.0045586E+04;  9.9389795E-03;  0.0000000E+00; -1.6400914E-03;  1.2037705E+04;
  1.4138030E-01;  9.9999998E-03; -2.2986217E-01;3307;  4.4881362E-03;  0.0000000E+00;  3.3245229E-05;  9.9968231E+02;  1.0000000E-01; -2.6320242E+02;3;  1.3282475E+00;  0.0000000E+00; -1.4305906E+01;0;  8.4462203E-03;  3.9943293E+04;  0.0000000E+00;  4.9158192E+00;  4.0000000E+04;  0.0000000E+00;  4.0038141E+04;  9.7496510E-03;  0.0000000E+00; -1.3034309E-03;  8.6146553E+03;
  1.4147015E-01;  9.9999998E-03; -2.1987467E-01;3308;  4.5443899E-03;  0.0000000E+00;  3.8996834E-05;  9.9994281E+02;  1.0000000E-01; -4.7356686E+01;3;  4.5779958E-01;  0.0000000E+00; -9.3298588E+00;0;  8.8909240E-03;  3.9973305E+04;  0.0000000E+00;  3.2056897E+00;  4.0000000E+04;  0.0000000E+00;  4.0029668E+04;  9.8201372E-03;  0.0000000E+00; -9.2921307E-04;  5.9112920E+03;
  1.4153223E-01;  9.9999998E-03; -2.0988300E-01;3309;  4.5891106E-03;  0.0000000E+00;  4.3626245E-05;  1.0000699E+03;  1.0000000E-01;  5.7874905E+01;3;  4.1289795E-02;  0.0000000E+00; -5.5817423E+00;0;  9.5423255E-03;  3.9992812E+04;  0.0000000E+00;  2.0405362E+00;  4.0000000E+04;  0.0000000E+00;  4.0020410E+04;  1.0094885E-02;  0.0000000E+00; -5.5255886E-04;  3.8656914E+03;
  1.4157335E-01;  9.9999998E-03; -1.9988579E-01;3310;  4.6274713E-03;  0.0000000E+00;  3.9704977E-05;  1.0000926E+03;  1.0000000E-01;  7.6738571E+01;3; -1.4553612E-01;  0.0000000E+00; -3.0758262E+00;0;  1.0295034E-02;  4.0001797E+04;  0.0000000E+00;  1.2872599E+00;  4.0000000E+04;  0.0000000E+00;  4.0012746E+04;  1.0496759E-02;  0.0000000E+00; -2.0172434E-04;  2.4240806E+03;
  1.4161621E-01;  9.9999998E-03; -1.8987553E-01;3311;  4.6645892E-03;  0.0000000E+00;  2.5593170E-05;  1.0000363E+03;  1.0000000E-01;  3.0023842E+01;3; -2.3345126E-01;  0.0000000E+00; -1.5391991E+00;0;  1.1047641E-02;  4.0001707E+04;  0.0000000E+00;  8.1272179E-01;  4.0000000E+04;  0.0000000E+00;  4.0007965E+04;  1.0942858E-02;  0.0000000E+00;  1.0478294E-04;  1.5215488E+03;
  1.4168580E-01;  9.9999998E-03; -1.7984778E-01;3312;  4.7027813E-03;  0.0000000E+00;  3.9522474E-06;  9.9993762E+02;  1.0000000E-01; -5.1702240E+01;3; -2.8214449E-01;  0.0000000E+00; -6.6604102E-01;0;  1.1713635E-02;  3.9994789E+04;  0.0000000E+00;  5.0952387E-01;  4.0000000E+04;  0.0000000E+00;  4.0005980E+04;  1.1357319E-02;  0.0000000E+00;  3.5631697E-04;  1.0736622E+03;
  1.4177695E-01;  9.9999998E-03; -1.6980845E-01;3313;  4.7398792E-03;  0.0000000E+00; -2.1581609E-05;  9.9981818E+02;  1.0000000E-01; -1.5061302E+02;3; -3.1252652E-01;  0.0000000E+00; -2.1686147E-01;0;  1.2228970E-02;  3.9983801E+04;  0.0000000E+00;  3.0527163E-01;  4.0000000E+04;  0.0000000E+00;  4.0007328E+04;  1.1681713E-02;  0.0000000E+00;  5.4725690E-04;  1.0484553E+03;
  1.4184485E-01;  9.9999998E-03; -1.5979564E-01;3314;  4.7714538E-03;  0.0000000E+00; -4.6702062E-05;  9.9970557E+02;  1.0000000E-01; -2.4394373E+02;3; -3.3115023E-01;  0.0000000E+00; -2.7883248E-02;0;  1.2557704E-02;  3.9971543E+04;  0.0000000E+00;  1.5996528E-01;  4.0000000E+04;  0.0000000E+00;  4.0010848E+04;  1.1882771E-02;  0.0000000E+00;  6.7493331E-04;  1.3812255E+03;
  1.4187548E-01;  9.9999998E-03; -1.4981984E-01;3315;  4.7934554E-03;  0.0000000E+00; -6.8946807E-05;  9.9961346E+02;  1.0000000E-01; -3.2023785E+02;3; -3.4256628E-01;  0.0000000E+00;  2.3432575E-02;0;  1.2697689E-02;  3.9959754E+04;  0.0000000E+00;  5.6169514E-02;  4.0000000E+04;  0.0000000E+00;  4.0014258E+04;  1.1957853E-02;  0.0000000E+00;  7.3983602E-04;  1.8684690E+03;
  1.4187786E-01;  9.9999998E-03; -1.3985686E-01;3316;  4.8034503E-03;  0.0000000E+00; -8.5932123E-05;  9.9954285E+02;  1.0000000E-01; -3.7875473E+02;3; -3.5224465E-01;  0.0000000E+00;  2.7505174E-02;0;  1.2675659E-02;  3.9950316E+04;  0.0000000E+00; -1.2935527E-02;  4.0000000E+04;  0.0000000E+00;  4.0019004E+04;  1.1930428E-02;  0.0000000E+00;  7.4523163E-04;  2.3257319E+03;
  1.4186361E-01;  9.9999998E-03; -1.2989193E-01;3317;  4.7998927E-03;  0.0000000E+00; -9.3808972E-05;  9.9949719E+02;  1.0000000E-01; -4.1658081E+02;3; -3.6175555E-01;  0.0000000E+00;  2.6515853E-02;0;  1.2541143E-02;  3.9943746E+04;  0.0000000E+00; -5.2860558E-02;  4.0000000E+04;  0.0000000E+00;  4.0020602E+04;  1.1842531E-02;  0.0000000E+00;  6.9861196E-04;  2.6315479E+03;
  1.4183746E-01;  9.9999998E-03; -1.1991809E-01;3318;  4.7846599E-03;  0.0000000E+00; -9.0326648E-05;  9.9947345E+02;  1.0000000E-01; -4.3623459E+02;3; -3.7107199E-01;  0.0000000E+00;  2.5120081E-02;0;  1.2361226E-02;  3.9940891E+04;  0.0000000E+00; -7.0605174E-02;  4.0000000E+04;  0.0000000E+00;  4.0020512E+04;  1.1747389E-02;  0.0000000E+00;  6.1383640E-04;  2.7262390E+03;
  1.4180255E-01;  9.9999998E-03; -1.0993267E-01;3319;  4.7621215E-03;  0.0000000E+00; -7.9100042E-05;  9.9946649E+02;  1.0000000E-01; -4.4201218E+02;3; -3.8070774E-01;  0.0000000E+00;  2.2953946E-02;0;  1.2208295E-02;  3.9941020E+04;  0.0000000E+00; -7.3189303E-02;  4.0000000E+04;  0.0000000E+00;  4.0020020E+04;  1.1701183E-02;  0.0000000E+00;  5.0711189E-04;  2.6185940E+03;
  1.5168716E-01;  9.9999998E-03; -1.0992385E-01;3380;  4.5934869E-03;  0.0000000E+00; -8.1139689E-05;  9.9945459E+02;  1.0000000E-01; -4.5183908E+02;3; -3.2748201E-01;  0.0000000E+00;  3.2475606E-02;0;  1.2179126E-02;  3.9938520E+04;  0.0000000E+00; -7.3270828E-02;  4.0000000E+04;  0.0000000E+00;  4.0018473E+04;  1.1655200E-02;  0.0000000E+00;  5.2392593E-04;  2.4206145E+03;
  1.5172651E-01;  9.9999998E-03; -1.1991458E-01;3379;  4.6243872E-03;  0.0000000E+00; -9.9372082E-05;  9.9947589E+02;  1.0000000E-01; -4.3420993E+02;3; -3.1939411E-01;  0.0000000E+00;  3.5941113E-02;0;  1.2370203E-02;  3.9939914E+04;  0.0000000E+00; -7.9717249E-02;  4.0000000E+04;  0.0000000E+00;  4.0019516E+04;  1.1750286E-02;  0.0000000E+00;  6.1991700E-04;  2.5206348E+03;
  1.5175827E-01;  9.9999998E-03; -1.2989348E-01;3378;  4.6508443E-03;  0.0000000E+00; -1.0699585E-04;  9.9951849E+02;  1.0000000E-01; -3.9890231E+02;3; -3.1010124E-01;  0.0000000E+00;  3.7823800E-02;0;  1.2601420E-02;  3.9944191E+04;  0.0000000E+00; -7.4829124E-02;  4.0000000E+04;  0.0000000E+00;  4.0019484E+04;  1.1905526E-02;  0.0000000E+00;  6.9589465E-04;  2.4177864E+03;
  1.5178034E-01;  9.9999998E-03; -1.3986391E-01;3377;  4.6680765E-03;  0.0000000E+00; -1.0233283E-04;  9.9957172E+02;  1.0000000E-01; -3.5480478E+02;3; -2.9996914E-01;  0.0000000E+00;  3.9135065E-02;0;  1.2795146E-02;  3.9951500E+04;  0.0000000E+00; -5.1638402E-02;  4.0000000E+04;  0.0000000E+00;  4.0016684E+04;  1.2058679E-02;  0.0000000E+00;  7.3646620E-04;  2.1023079E+03;
  1.5179320E-01;  9.9999998E-03; -1.4983131E-01;3376;  4.6722256E-03;  0.0000000E+00; -8.8156085E-05;  9.9964771E+02;  1.0000000E-01; -2.9189297E+02;3; -2.8982437E-01;  0.0000000E+00;  3.4884624E-02;0;  1.2876614E-02;  3.9961754E+04;  0.0000000E+00; -3.4728490E-03;  4.0000000E+04;  0.0000000E+00;  4.0013121E+04;  1.2148191E-02;  0.0000000E+00;  7.2842243E-04;  1.6309080E+03;
  1.5179721E-01;  9.9999998E-03; -1.5980676E-01;3375;  4.6609719E-03;  0.0000000E+00; -6.7903711E-05;  9.9974402E+02;  1.0000000E-01; -2.1209277E+02;3; -2.7809122E-01;  0.0000000E+00; -2.0863568E-02;0;  1.2788362E-02;  3.9974102E+04;  0.0000000E+00;  7.5047776E-02;  4.0000000E+04;  0.0000000E+00;  4.0008633E+04;  1.2123421E-02;  0.0000000E+00;  6.6494069E-04;  1.1192546E+03;
  1.5178616E-01;  9.9999998E-03; -1.6980954E-01;3374;  4.6344930E-03;  0.0000000E+00; -4.4425033E-05;  9.9985962E+02;  1.0000000E-01; -1.1629301E+02;3; -2.6608053E-01;  0.0000000E+00; -2.1707796E-01;0;  1.2497121E-02;  3.9986754E+04;  0.0000000E+00;  1.9393073E-01;  4.0000000E+04;  0.0000000E+00;  4.0005797E+04;  1.1953587E-02;  0.0000000E+00;  5.4353505E-04;  7.4995868E+02;
  1.5174118E-01;  9.9999998E-03; -1.7983831E-01;3373;  4.5966622E-03;  0.0000000E+00; -2.0565758E-05;  9.9997437E+02;  1.0000000E-01; -2.1233967E+01;3; -2.5918481E-01;  0.0000000E+00; -6.7012924E-01;0;  1.1999159E-02;  3.9998047E+04;  0.0000000E+00;  3.8009670E-01;  4.0000000E+04;  0.0000000E+00;  4.0004566E+04;  1.1635126E-02;  0.0000000E+00;  3.6403333E-04;  7.6338385E+02;
  1.5166140E-01;  9.9999998E-03; -1.8987438E-01;3372;  4.5510195E-03;  0.0000000E+00;  5.8070003E-07;  1.0000737E+03;  1.0000000E-01;  6.1035313E+01;3; -2.6206195E-01;  0.0000000E+00; -1.5417590E+00;0;  1.1326393E-02;  4.0004832E+04;  0.0000000E+00;  6.8981141E-01;  4.0000000E+04;  0.0000000E+00;  4.0005844E+04;  1.1198669E-02;  0.0000000E+00;  1.2772408E-04;  1.2431978E+03;
  1.5157887E-01;  9.9999998E-03; -1.9990106E-01;3371;  4.4994671E-03;  0.0000000E+00;  1.4973099E-05;  1.0001287E+03;  1.0000000E-01;  1.0666365E+02;3; -2.6043358E-01;  0.0000000E+00; -3.0712776E+00;0;  1.0545436E-02;  4.0004598E+04;  0.0000000E+00;  1.2162699E+00;  4.0000000E+04;  0.0000000E+00;  4.0011129E+04;  1.0707528E-02;  0.0000000E+00; -1.6209244E-04;  2.2370137E+03;
  1.5150043E-01;  9.9999998E-03; -2.0990372E-01;3370;  4.4444269E-03;  0.0000000E+00;  1.8807563E-05;  1.0001058E+03;  1.0000000E-01;  8.7602463E+01;3; -1.8432361E-01;  0.0000000E+00; -5.5793543E+00;0;  9.7477511E-03;  3.9994988E+04;  0.0000000E+00;  2.0902450E+00;  4.0000000E+04;  0.0000000E+00;  4.0019543E+04;  1.0245301E-02;  0.0000000E+00; -4.9755001E-04;  3.8726631E+03;
  1.5077636E-01;  9.9999998E-03; -2.6955482E-01;3364;  3.8285656E-03;  0.0000000E+00;  2.5102895E-04;  9.9761029E+02;  1.0000000E-01; -1.9798452E+03;3;  1.8911118E+01;  0.0000000E+00; -3.3334259E+01;0;  9.9688116E-03;  3.9753422E+04;  0.0000000E+00;  2.2823128E+01;  4.0000000E+04;  0.0000000E+00;  4.0059762E+04;  1.2168588E-02;  0.0000000E+00; -2.1997769E-03;  3.4263242E+04;
  1.5096594E-01;  9.9999998E-03; -2.5966716E-01;3365;  3.9241659E-03;  0.0000000E+00;  1.0411447E-04;  9.9817993E+02;  1.0000000E-01; -1.5079080E+03;3;  1.1378056E+01;  0.0000000E+00; -3.1643139E+01;0;  9.0316478E-03;  3.9798344E+04;  0.0000000E+00;  1.7117018E+01;  4.0000000E+04;  0.0000000E+00;  4.0060324E+04;  1.1106213E-02;  0.0000000E+00; -2.0745646E-03;  2.6241488E+04;
  1.5112525E-01;  9.9999998E-03; -2.4976242E-01;3366;  4.0526781E-03;  0.0000000E+00;  2.6416217E-05;  9.9876440E+02;  1.0000000E-01; -1.0236747E+03;3;  6.0716186E+00;  0.0000000E+00; -2.6853014E+01;0;  8.4833996E-03;  3.9849684E+04;  0.0000000E+00;  1.2258503E+01;  4.0000000E+04;  0.0000000E+00;  4.0057328E+04;  1.0349758E-02;  0.0000000E+00; -1.8663583E-03;  1.9352572E+04;
  1.5125462E-01;  9.9999998E-03; -2.3983026E-01;3367;  4.1786777E-03;  0.0000000E+00; -2.1555281E-06;  9.9928870E+02;  1.0000000E-01; -5.8931665E+02;3;  2.7795594E+00;  0.0000000E+00; -2.0682520E+01;0;  8.3255060E-03;  3.9898898E+04;  0.0000000E+00;  8.4095097E+00;  4.0000000E+04;  0.0000000E+00;  4.0049883E+04;  9.9047273E-03;  0.0000000E+00; -1.5792215E-03;  1.3815081E+04;
  1.5135317E-01;  9.9999998E-03; -2.2987190E-01;3368;  4.2907661E-03;  0.0000000E+00; -3.8283289E-07;  9.9969745E+02;  1.0000000E-01; -2.5065958E+02;3;  9.7568643E-01;  0.0000000E+00; -1.4533055E+01;0;  8.5335840E-03;  3.9941516E+04;  0.0000000E+00;  5.5226412E+00;  4.0000000E+04;  0.0000000E+00;  4.0040398E+04;  9.7683240E-03;  0.0000000E+00; -1.2347403E-03;  9.5160938E+03;
  1.5142891E-01;  9.9999998E-03; -2.1989399E-01;3369;  4.3775360E-03;  0.0000000E+00;  1.1701420E-05;  9.9997028E+02;  1.0000000E-01; -2.4641279E+01;3;  1.3055775E-01;  0.0000000E+00; -9.3730631E+00;0;  9.0399953E-03;  3.9974086E+04;  0.0000000E+00;  3.4696589E+00;  4.0000000E+04;  0.0000000E+00;  4.0029852E+04;  9.9035352E-03;  0.0000000E+00; -8.6354016E-04;  6.2586484E+03;
  1.6083848E-01;  9.9999998E-03; -2.6959690E-01;3425;  3.4313039E-03;  0.0000000E+00; -4.0326780E-05;  9.9757233E+02;  1.0000000E-01; -2.0113011E+03;3;  2.4336267E+01;  0.0000000E+00; -3.7471912E+01;0;  1.0567701E-02;  3.9735684E+04;  0.0000000E+00;  2.7282024E+01;  4.0000000E+04;  0.0000000E+00;  4.0073594E+04;  1.2487005E-02;  0.0000000E+00; -1.9193043E-03;  4.1233961E+04;
  1.6103923E-01;  9.9999998E-03; -2.5970399E-01;3426;  3.5468547E-03;  0.0000000E+00; -9.9409735E-05;  9.9815021E+02;  1.0000000E-01; -1.5324999E+03;3;  1.3632427E+01;  0.0000000E+00; -3.3449371E+01;0;  9.6248509E-03;  3.9786953E+04;  0.0000000E+00;  1.9627880E+01;  4.0000000E+04;  0.0000000E+00;  4.0069211E+04;  1.1462200E-02;  0.0000000E+00; -1.8373488E-03;  3.0258066E+04;
  1.6118991E-01;  9.9999998E-03; -2.4980251E-01;3427;  3.7238011E-03;  0.0000000E+00; -1.2464751E-04;  9.9876746E+02;  1.0000000E-01; -1.0211563E+03;3;  6.6297235E+00;  0.0000000E+00; -2.7179033E+01;0;  9.1462629E-03;  3.9845574E+04;  0.0000000E+00;  1.3621878E+01;  4.0000000E+04;  0.0000000E+00;  4.0061094E+04;  1.0800969E-02;  0.0000000E+00; -1.6547062E-03;  2.1509863E+04;
  1.6126941E-01;  9.9999998E-03; -2.3987746E-01;3428;  3.9012586E-03;  0.0000000E+00; -1.0929490E-04;  9.9934467E+02;  1.0000000E-01; -5.4294763E+02;3;  2.5856493E+00;  0.0000000E+00; -2.0403730E+01;0;  9.0580005E-03;  3.9902516E+04;  0.0000000E+00;  9.1664553E+00;  4.0000000E+04;  0.0000000E+00;  4.0050281E+04;  1.0456569E-02;  0.0000000E+00; -1.3985683E-03;  1.4900461E+04;
  1.6131866E-01;  9.9999998E-03; -2.2992501E-01;3429;  4.0551210E-03;  0.0000000E+00; -7.2927542E-05;  9.9979333E+02;  1.0000000E-01; -1.7120503E+02;3;  5.5404031E-01;  0.0000000E+00; -1.4148886E+01;0;  9.3359798E-03;  3.9949922E+04;  0.0000000E+00;  5.9246440E+00;  4.0000000E+04;  0.0000000E+00;  4.0039191E+04;  1.0419525E-02;  0.0000000E+00; -1.0835449E-03;  9.9508740E+03;
  1.6136204E-01;  9.9999998E-03; -2.1994689E-01;3430;  4.1828468E-03;  0.0000000E+00; -4.1588555E-05;  1.0000858E+03;  1.0000000E-01;  7.1010338E+01;3; -2.7227601E-01;  0.0000000E+00; -9.0839558E+00;0;  9.9174930E-03;  3.9984988E+04;  0.0000000E+00;  3.6343837E+00;  4.0000000E+04;  0.0000000E+00;  4.0028102E+04;  1.0654802E-02;  0.0000000E+00; -7.3730934E-04;  6.2865850E+03;
  1.6143420E-01;  9.9999998E-03; -2.0994917E-01;3431;  4.2823073E-03;  0.0000000E+00; -2.4244036E-05;  1.0002383E+03;  1.0000000E-01;  1.9742651E+02;3; -4.8070407E-01;  0.0000000E+00; -5.4195304E+00;0;  1.0698605E-02;  4.0007262E+04;  0.0000000E+00;  2.0896337E+00;  4.0000000E+04;  0.0000000E+00;  4.0016914E+04;  1.1094761E-02;  0.0000000E+00; -3.9615566E-04;  3.6543152E+03;
  1.6154949E-01;  9.9999998E-03; -1.9993074E-01;3432;  4.3603303E-03;  0.0000000E+00; -2.3959252E-05;  1.0002762E+03;  1.0000000E-01;  2.2883304E+02;3; -4.4147673E-01;  0.0000000E+00; -3.0032463E+00;0;  1.1563291E-02;  4.0018043E+04;  0.0000000E+00;  1.1107126E+00;  4.0000000E+04;  0.0000000E+00;  4.0008188E+04;  1.1649570E-02;  0.0000000E+00; -8.6279833E-05;  1.8896855E+03;
  1.6166249E-01;  9.9999998E-03; -1.8990308E-01;3433;  4.4230153E-03;  0.0000000E+00; -3.6533973E-05;  1.0002332E+03;  1.0000000E-01;  1.9317972E+02;3; -3.5339880E-01;  0.0000000E+00; -1.5202197E+00;0;  1.2391851E-02;  4.0019160E+04;  0.0000000E+00;  5.3328961E-01;  4.0000000E+04;  0.0000000E+00;  4.0003039E+04;  1.2214342E-02;  0.0000000E+00;  1.7750943E-04;  8.4546667E+02;
  1.6171171E-01;  9.9999998E-03; -1.7987092E-01;3434;  4.4741090E-03;  0.0000000E+00; -5.6030163E-05;  1.0001440E+03;  1.0000000E-01;  1.1930527E+02;3; -2.9391196E-01;  0.0000000E+00; -6.6585308E-01;0;  1.3082040E-02;  4.0013035E+04;  0.0000000E+00;  2.1634999E-01;  4.0000000E+04;  0.0000000E+00;  4.0001020E+04;  1.2691767E-02;  0.0000000E+00;  3.9027235E-04;  3.4378955E+02;
  1.6172947E-01;  9.9999998E-03; -1.6984119E-01;3435;  4.5121773E-03;  0.0000000E+00; -7.7600540E-05;  1.0000352E+03;  1.0000000E-01;  2.9134979E+01;3; -2.7303946E-01;  0.0000000E+00; -2.1371785E-01;0;  1.3574621E-02;  4.0002043E+04;  0.0000000E+00;  5.1897950E-02;  4.0000000E+04;  0.0000000E+00;  4.0002398E+04;  1.3023303E-02;  0.0000000E+00;  5.5131770E-04;  3.2468707E+02;
  1.6172595E-01;  9.9999998E-03; -1.5983427E-01;3436;  4.5327665E-03;  0.0000000E+00; -9.7776923E-05;  9.9992084E+02;  1.0000000E-01; -6.5578392E+01;3; -2.7574897E-01;  0.0000000E+00; -1.3315695E-02;0;  1.3841381E-02;  3.9989035E+04;  0.0000000E+00; -3.2009784E-02;  4.0000000E+04;  0.0000000E+00;  4.0006297E+04;  1.3181604E-02;  0.0000000E+00;  6.5977755E-04;  7.3610944E+02;
  1.6171643E-01;  9.9999998E-03; -1.4985463E-01;3437;  4.5335754E-03;  0.0000000E+00; -1.1387407E-04;  9.9982104E+02;  1.0000000E-01; -1.4824272E+02;3; -2.8540590E-01;  0.0000000E+00;  4.5442343E-02;0;  1.3891679E-02;  3.9976293E+04;  0.0000000E+00; -7.4416243E-02;  4.0000000E+04;  0.0000000E+00;  4.0010148E+04;  1.3176494E-02;  0.0000000E+00;  7.1518519E-04;  1.2537100E+03;
  1.6170555E-01;  9.9999998E-03; -1.3988474E-01;3438;  4.5159375E-03;  0.0000000E+00; -1.2201621E-04;  9.9973376E+02;  1.0000000E-01; -2.2058635E+02;3; -2.9528365E-01;  0.0000000E+00;  4.9931150E-02;0;  1.3766002E-02;  3.9965082E+04;  0.0000000E+00; -9.1800407E-02;  4.0000000E+04;  0.0000000E+00;  4.0013457E+04;  1.3046749E-02;  0.0000000E+00;  7.1925315E-04;  1.7207587E+03;
  1.6169055E-01;  9.9999998E-03; -1.2991424E-01;3439;  4.4825771E-03;  0.0000000E+00; -1.1692450E-04;  9.9966180E+02;  1.0000000E-01; -2.8018961E+02;3; -3.0410823E-01;  0.0000000E+00;  4.6570551E-02;0;  1.3529626E-02;  3.9956254E+04;  0.0000000E+00; -9.1533385E-02;  4.0000000E+04;  0.0000000E+00;  4.0016703E+04;  1.2851240E-02;  0.0000000E+00;  6.7838555E-04;  2.0329209E+03;
  1.6166583E-01;  9.9999998E-03; -1.1993651E-01;3440;  4.4415840E-03;  0.0000000E+00; -9.7652031E-05;  9.9960278E+02;  1.0000000E-01; -3.2907712E+02;3; -3.1167921E-01;  0.0000000E+00;  4.2564735E-02;0;  1.3263326E-02;  3.9950613E+04;  0.0000000E+00; -8.0413148E-02;  4.0000000E+04;  0.0000000E+00;  4.0017512E+04;  1.2658343E-02;  0.0000000E+00;  6.0498377E-04;  2.1385400E+03;
  1.6163106E-01;  9.9999998E-03; -1.0994824E-01;3441;  4.3994170E-03;  0.0000000E+00; -6.7858098E-05;  9.9956165E+02;  1.0000000E-01; -3.6315024E+02;3; -3.1964165E-01;  0.0000000E+00;  3.8857929E-02;0;  1.3049019E-02;  3.9947379E+04;  0.0000000E+00; -6.4787172E-02;  4.0000000E+04;  0.0000000E+00;  4.0016398E+04;  1.2535385E-02;  0.0000000E+00;  5.1363389E-04;  2.0480652E+03;
  1.7099306E-01;  9.9999998E-03; -2.6976818E-01;3486;  3.0193825E-03;  0.0000000E+00; -4.9872173E-04;  9.9725000E+02;  1.0000000E-01; -2.2783059E+03;3;  2.8331331E+01;  0.0000000E+00; -3.1867088E+01;0;  1.2196953E-02;  3.9712719E+04;  0.0000000E+00;  2.9091642E+01;  4.0000000E+04;  0.0000000E+00;  4.0069902E+04;  1.3199545E-02;  0.0000000E+00; -1.0025915E-03;  4.4149398E+04;
  1.7115863E-01;  9.9999998E-03; -2.5984615E-01;3487;  3.1241849E-03;  0.0000000E+00; -4.4353859E-04;  9.9797394E+02;  1.0000000E-01; -1.6785698E+03;3;  1.5008330E+01;  0.0000000E+00; -2.9442486E+01;0;  1.1133881E-02;  3.9777277E+04;  0.0000000E+00;  2.0422503E+01;  4.0000000E+04;  0.0000000E+00;  4.0064645E+04;  1.2297566E-02;  0.0000000E+00; -1.1636852E-03;  3.1515533E+04;
  1.7125390E-01;  9.9999998E-03; -2.4993011E-01;3488;  3.3537231E-03;  0.0000000E+00; -3.7237961E-04;  9.9870752E+02;  1.0000000E-01; -1.0707845E+03;3;  6.6639466E+00;  0.0000000E+00; -2.4055420E+01;0;  1.0669077E-02;  3.9846953E+04;  0.0000000E+00;  1.4005445E+01;  4.0000000E+04;  0.0000000E+00;  4.0054000E+04;  1.1842777E-02;  0.0000000E+00; -1.1736999E-03;  2.1940359E+04;
  1.7126995E-01;  9.9999998E-03; -2.3998767E-01;3489;  3.5930465E-03;  0.0000000E+00; -2.9363262E-04;  9.9937872E+02;  1.0000000E-01; -5.1470148E+02;3;  2.1276104E+00;  0.0000000E+00; -1.8295191E+01;0;  1.0633310E-02;  3.9911707E+04;  0.0000000E+00;  9.4264669E+00;  4.0000000E+04;  0.0000000E+00;  4.0043777E+04;  1.1681016E-02;  0.0000000E+00; -1.0477056E-03;  1.4992871E+04;
  1.7125988E-01;  9.9999998E-03; -2.3001857E-01;3490;  3.8068113E-03;  0.0000000E+00; -2.0100067E-04;  9.9988293E+02;  1.0000000E-01; -9.6984909E+01;3;  8.0056600E-03;  0.0000000E+00; -1.2849343E+01;0;  1.0971936E-02;  3.9963438E+04;  0.0000000E+00;  6.0960259E+00;  4.0000000E+04;  0.0000000E+00;  4.0032223E+04;  1.1802296E-02;  0.0000000E+00; -8.3035987E-04;  9.8390352E+03;
  1.7127556E-01;  9.9999998E-03; -2.2002599E-01;3491;  3.9837621E-03;  0.0000000E+00; -1.2670817E-04;  1.0002094E+03;  1.0000000E-01;  1.7342720E+02;3; -7.3407567E-01;  0.0000000E+00; -8.3496943E+00;0;  1.1632712E-02;  4.0000004E+04;  0.0000000E+00;  3.6937757E+00;  4.0000000E+04;  0.0000000E+00;  4.0021551E+04;  1.2182773E-02;  0.0000000E+00; -5.5006158E-04;  6.0097393E+03;
  1.7135087E-01;  9.9999998E-03; -2.1000977E-01;3492;  4.1217739E-03;  0.0000000E+00; -9.1750917E-05;  1.0003817E+03;  1.0000000E-01;  3.1623798E+02;3; -8.0344069E-01;  0.0000000E+00; -5.0518360E+00;0;  1.2507870E-02;  4.0023027E+04;  0.0000000E+00;  2.0378318E+00;  4.0000000E+04;  0.0000000E+00;  4.0011543E+04;  1.2761837E-02;  0.0000000E+00; -2.5396707E-04;  3.2734231E+03;
  1.7148283E-01;  9.9999998E-03; -1.9997330E-01;3493;  4.2272378E-03;  0.0000000E+00; -8.3223269E-05;  1.0004399E+03;  1.0000000E-01;  3.6443414E+02;3; -6.3443303E-01;  0.0000000E+00; -2.8397820E+00;0;  1.3462470E-02;  4.0034273E+04;  0.0000000E+00;  9.7397161E-01;  4.0000000E+04;  0.0000000E+00;  4.0003289E+04;  1.3446239E-02;  0.0000000E+00;  1.6231294E-05;  1.4756897E+03;
  1.7160416E-01;  9.9999998E-03; -1.8994206E-01;3494;  4.3063718E-03;  0.0000000E+00; -8.9473237E-05;  1.0004131E+03;  1.0000000E-01;  3.4231131E+02;3; -4.5120817E-01;  0.0000000E+00; -1.4541297E+00;0;  1.4360013E-02;  4.0036488E+04;  0.0000000E+00;  3.5110116E-01;  4.0000000E+04;  0.0000000E+00;  3.9999656E+04;  1.4117173E-02;  0.0000000E+00;  2.4284076E-04;  5.2904291E+02;
  1.7167720E-01;  9.9999998E-03; -1.7991850E-01;3495;  4.3642246E-03;  0.0000000E+00; -1.0307785E-04;  1.0003409E+03;  1.0000000E-01;  2.8246115E+02;3; -3.3416030E-01;  0.0000000E+00; -6.4087182E-01;0;  1.5096546E-02;  4.0030883E+04;  0.0000000E+00;  2.9257657E-02;  4.0000000E+04;  0.0000000E+00;  3.9997770E+04;  1.4673639E-02;  0.0000000E+00;  4.2290744E-04;  3.2700211E+02;
  1.7169942E-01;  9.9999998E-03; -1.6989708E-01;3496;  4.3997089E-03;  0.0000000E+00; -1.1878472E-04;  1.0002404E+03;  1.0000000E-01;  1.9920424E+02;3; -2.8525677E-01;  0.0000000E+00; -2.0155099E-01;0;  1.5608303E-02;  4.0020566E+04;  0.0000000E+00; -1.0887115E-01;  4.0000000E+04;  0.0000000E+00;  3.9999004E+04;  1.5050972E-02;  0.0000000E+00;  5.5733148E-04;  2.0728810E+02;
  1.7169991E-01;  9.9999998E-03; -1.5990089E-01;3497;  4.4107735E-03;  0.0000000E+00; -1.3131568E-04;  1.0001312E+03;  1.0000000E-01;  1.0863890E+02;3; -2.7675381E-01;  0.0000000E+00; -3.8778712E-03;0;  1.5874870E-02;  4.0007691E+04;  0.0000000E+00; -1.5038690E-01;  4.0000000E+04;  0.0000000E+00;  4.0003301E+04;  1.5229304E-02;  0.0000000E+00;  6.4556563E-04;  3.4753494E+02;
  1.7169750E-01;  9.9999998E-03; -1.4992473E-01;3498;  4.3953061E-03;  0.0000000E+00; -1.3483971E-04;  1.0000268E+03;  1.0000000E-01;  2.2221594E+01;3; -2.8358373E-01;  0.0000000E+00;  5.4720331E-02;0;  1.5912846E-02;  3.9994672E+04;  0.0000000E+00; -1.4871289E-01;  4.0000000E+04;  0.0000000E+00;  4.0005938E+04;  1.5226483E-02;  0.0000000E+00;  6.8636279E-04;  8.0164752E+02;
  1.7169175E-01;  9.9999998E-03; -1.3995545E-01;3499;  4.3587638E-03;  0.0000000E+00; -1.2648263E-04;  9.9992725E+02;  1.0000000E-01; -6.0294590E+01;3; -2.9186043E-01;  0.0000000E+00;  5.7247065E-02;0;  1.5768092E-02;  3.9982734E+04;  0.0000000E+00; -1.2927069E-01;  4.0000000E+04;  0.0000000E+00;  4.0009832E+04;  1.5087753E-02;  0.0000000E+00;  6.8033993E-04;  1.2337874E+03;
  1.7167717E-01;  9.9999998E-03; -1.2998314E-01;3500;  4.3076626E-03;  0.0000000E+00; -1.0460401E-04;  9.9984326E+02;  1.0000000E-01; -1.2987286E+02;3; -3.0038503E-01;  0.0000000E+00;  5.3554922E-02;0;  1.5512562E-02;  3.9973270E+04;  0.0000000E+00; -1.0279920E-01;  4.0000000E+04;  0.0000000E+00;  4.0012734E+04;  1.4879144E-02;  0.0000000E+00;  6.3341856E-04;  1.5245388E+03;
  1.7164779E-01;  9.9999998E-03; -1.2000335E-01;3501;  4.2527942E-03;  0.0000000E+00; -7.4341420E-05;  9.9976770E+02;  1.0000000E-01; -1.9243900E+02;3; -3.0821699E-01;  0.0000000E+00;  4.9575925E-02;0;  1.5232428E-02;  3.9965910E+04;  0.0000000E+00; -7.5964659E-02;  4.0000000E+04;  0.0000000E+00;  4.0012555E+04;  1.4675373E-02;  0.0000000E+00;  5.5705488E-04;  1.6235687E+03;
  1.7160203E-01;  9.9999998E-03; -1.1001462E-01;3502;  4.2043328E-03;  0.0000000E+00; -4.4876757E-05;  9.9970911E+02;  1.0000000E-01; -2.4098083E+02;3; -3.1676424E-01;  0.0000000E+00;  4.5536093E-02;0;  1.5012743E-02;  3.9961160E+04;  0.0000000E+00; -5.3437397E-02;  4.0000000E+04;  0.0000000E+00;  4.0011961E+04;  1.4547666E-02;  0.0000000E+00;  4.6507691E-04;  1.5397411E+03;
  1.8114626E-01;  9.9999998E-03; -2.6998827E-01;3547;  2.8810049E-03;  0.0000000E+00; -7.4353471E-04;  9.9667761E+02;  1.0000000E-01; -2.7525146E+03;3;  2.7118504E+01;  0.0000000E+00; -1.4851669E+01;0;  1.4825713E-02;  3.9692742E+04;  0.0000000E+00;  2.7309849E+01;  4.0000000E+04;  0.0000000E+00;  4.0043617E+04;  1.4757097E-02;  0.0000000E+00;  6.8616122E-05;  4.1616613E+04;
  1.8119669E-01;  9.9999998E-03; -2.6004034E-01;3548;  2.8324341E-03;  0.0000000E+00; -6.7266088E-04;  9.9770532E+02;  1.0000000E-01; -1.9010820E+03;3;  1.3673635E+01;  0.0000000E+00; -1.8404251E+01;0;  1.3455454E-02;  3.9778789E+04;  0.0000000E+00;  1.9562780E+01;  4.0000000E+04;  0.0000000E+00;  4.0041168E+04;  1.3746249E-02;  0.0000000E+00; -2.9079570E-04;  3.0012752E+04;
  1.8121846E-01;  9.9999998E-03; -2.5010145E-01;3549;  3.0480216E-03;  0.0000000E+00; -5.7620811E-04;  9.9859064E+02;  1.0000000E-01; -1.1676213E+03;3;  5.3955860E+00;  0.0000000E+00; -1.6954762E+01;0;  1.2982136E-02;  3.9857855E+04;  0.0000000E+00;  1.3635301E+01;  4.0000000E+04;  0.0000000E+00;  4.0033402E+04;  1.3488183E-02;  0.0000000E+00; -5.0604739E-04;  2.0950307E+04;
  1.8119760E-01;  9.9999998E-03; -2.4013530E-01;3550;  3.3163035E-03;  0.0000000E+00; -4.9188355E-04;  9.9933942E+02;  1.0000000E-01; -5.4729315E+02;3;  1.1165073E+00;  0.0000000E+00; -1.4053712E+01;0;  1.3025695E-02;  3.9925066E+04;  0.0000000E+00;  9.3326817E+00;  4.0000000E+04;  0.0000000E+00;  4.0026777E+04;  1.3556230E-02;  0.0000000E+00; -5.3053419E-04;  1.4331053E+04;
  1.8116224E-01;  9.9999998E-03; -2.3013902E-01;3551;  3.5742074E-03;  0.0000000E+00; -3.8375106E-04;  9.9989679E+02;  1.0000000E-01; -8.5528442E+01;3; -7.3060346E-01;  0.0000000E+00; -1.0531936E+01;0;  1.3440660E-02;  3.9976746E+04;  0.0000000E+00;  6.1094022E+00;  4.0000000E+04;  0.0000000E+00;  4.0020176E+04;  1.3891286E-02;  0.0000000E+00; -4.5062613E-04;  9.3658447E+03;
  1.8116893E-01;  9.9999998E-03; -2.2012070E-01;3552;  3.7993274E-03;  0.0000000E+00; -2.7950882E-04;  1.0002515E+03;  1.0000000E-01;  2.0829041E+02;3; -1.2412378E+00;  0.0000000E+00; -7.1574087E+00;0;  1.4185615E-02;  4.0012305E+04;  0.0000000E+00;  3.6847889E+00;  4.0000000E+04;  0.0000000E+00;  4.0012043E+04;  1.4468703E-02;  0.0000000E+00; -2.8308859E-04;  5.6030332E+03;
  1.8125685E-01;  9.9999998E-03; -2.1007501E-01;3553;  3.9815418E-03;  0.0000000E+00; -2.0586576E-04;  1.0004448E+03;  1.0000000E-01;  3.6848340E+02;3; -1.1229442E+00;  0.0000000E+00; -4.4742656E+00;0;  1.5161215E-02;  4.0034141E+04;  0.0000000E+00;  1.9553522E+00;  4.0000000E+04;  0.0000000E+00;  4.0004375E+04;  1.5233298E-02;  0.0000000E+00; -7.2082570E-05;  2.9049431E+03;
  1.8138675E-01;  9.9999998E-03; -2.0002224E-01;3554;  4.1163536E-03;  0.0000000E+00; -1.7436355E-04;  1.0005193E+03;  1.0000000E-01;  4.3030881E+02;3; -8.1551981E-01;  0.0000000E+00; -2.5681314E+00;0;  1.6214859E-02;  4.0045441E+04;  0.0000000E+00;  8.2396537E-01;  4.0000000E+04;  0.0000000E+00;  3.9998715E+04;  1.6080180E-02;  0.0000000E+00;  1.3467937E-04;  1.2228046E+03;
  1.8150078E-01;  9.9999998E-03; -1.8998320E-01;3555;  4.2123757E-03;  0.0000000E+00; -1.6599540E-04;  1.0005173E+03;  1.0000000E-01;  4.2862985E+02;3; -5.4184109E-01;  0.0000000E+00; -1.3311573E+00;0;  1.7195078E-02;  4.0047883E+04;  0.0000000E+00;  1.6370851E-01;  4.0000000E+04;  0.0000000E+00;  3.9994836E+04;  1.6886523E-02;  0.0000000E+00;  3.0855450E-04;  7.3899994E+02;
  1.8158853E-01;  9.9999998E-03; -1.7995864E-01;3556;  4.2751306E-03;  0.0000000E+00; -1.6753198E-04;  1.0004598E+03;  1.0000000E-01;  3.8092749E+02;3; -3.7096620E-01;  0.0000000E+00; -5.8443713E-01;0;  1.7999776E-02;  4.0043148E+04;  0.0000000E+00; -1.5831387E-01;  4.0000000E+04;  0.0000000E+00;  3.9993941E+04;  1.7555311E-02;  0.0000000E+00;  4.4446479E-04;  8.3825214E+02;
  1.8163301E-01;  9.9999998E-03; -1.6995332E-01;3557;  4.3047951E-03;  0.0000000E+00; -1.6736716E-04;  1.0003696E+03;  1.0000000E-01;  3.0616418E+02;3; -2.9500967E-01;  0.0000000E+00; -1.7547067E-01;0;  1.8560285E-02;  4.0033746E+04;  0.0000000E+00; -2.6584667E-01;  4.0000000E+04;  0.0000000E+00;  3.9995730E+04;  1.8017102E-02;  0.0000000E+00;  5.4318242E-04;  7.1477722E+02;
  1.8164922E-01;  9.9999998E-03; -1.5996684E-01;3558;  4.3026470E-03;  0.0000000E+00; -1.5967399E-04;  1.0002693E+03;  1.0000000E-01;  2.2310480E+02;3; -2.7618292E-01;  0.0000000E+00;  9.6834721E-03;0;  1.8857649E-02;  4.0021418E+04;  0.0000000E+00; -2.6100147E-01;  4.0000000E+04;  0.0000000E+00;  3.9998531E+04;  1.8253583E-02;  0.0000000E+00;  6.0406519E-04;  4.2511105E+02;
  1.8165113E-01;  9.9999998E-03; -1.4999323E-01;3559;  4.2720949E-03;  0.0000000E+00; -1.4263325E-04;  1.0001649E+03;  1.0000000E-01;  1.3658873E+02;3; -2.7991301E-01;  0.0000000E+00;  6.3611858E-02;0;  1.8911945E-02;  4.0008762E+04;  0.0000000E+00; -2.1251637E-01;  4.0000000E+04;  0.0000000E+00;  4.0001648E+04;  1.8287556E-02;  0.0000000E+00;  6.2438904E-04;  3.9307449E+02;
  1.8163870E-01;  9.9999998E-03; -1.4002188E-01;3560;  4.2183972E-03;  0.0000000E+00; -1.1668070E-04;  1.0000645E+03;  1.0000000E-01;  5.3430588E+01;3; -2.8837812E-01;  0.0000000E+00;  6.6160291E-02;0;  1.8774917E-02;  3.9996891E+04;  0.0000000E+00; -1.5590075E-01;  4.0000000E+04;  0.0000000E+00;  4.0005289E+04;  1.8171469E-02;  0.0000000E+00;  6.0344854E-04;  6.9298157E+02;
  1.8161215E-01;  9.9999998E-03; -1.3004538E-01;3561;  4.1542114E-03;  0.0000000E+00; -8.4489169E-05;  9.9997290E+02;  1.0000000E-01; -2.2468500E+01;3; -2.9938468E-01;  0.0000000E+00;  6.3485578E-02;0;  1.8526526E-02;  3.9987004E+04;  0.0000000E+00; -1.0532909E-01;  4.0000000E+04;  0.0000000E+00;  4.0007594E+04;  1.7980147E-02;  0.0000000E+00;  5.4637861E-04;  9.3284937E+02;
  1.8157490E-01;  9.9999998E-03; -1.2006075E-01;3562;  4.0915678E-03;  0.0000000E+00; -5.2388375E-05;  9.9989124E+02;  1.0000000E-01; -9.0120911E+01;3; -3.0939028E-01;  0.0000000E+00;  5.8364540E-02;0;  1.8260131E-02;  3.9979328E+04;  0.0000000E+00; -6.6392817E-02;  4.0000000E+04;  0.0000000E+00;  4.0007773E+04;  1.7796744E-02;  0.0000000E+00;  4.6338644E-04;  1.0114157E+03;
  1.8152985E-01;  9.9999998E-03; -1.1006889E-01;3563;  4.0397425E-03;  0.0000000E+00; -2.5033714E-05;  9.9981873E+02;  1.0000000E-01; -1.5016859E+02;3; -3.1718898E-01;  0.0000000E+00;  5.3426109E-02;0;  1.8064389E-02;  3.9973535E+04;  0.0000000E+00; -4.0894952E-02;  4.0000000E+04;  0.0000000E+00;  4.0007004E+04;  1.7696919E-02;  0.0000000E+00;  3.6746994E-04;  9.2895923E+02;
  1.9117874E-01;  9.9999998E-03; -2.7012840E-01;3608;  3.1464093E-03;  0.0000000E+00; -6.0723250E-04;  9.9633105E+02;  1.0000000E-01; -3.0396672E+03;3;  2.1860050E+01;  0.0000000E+00;  3.2509406E+00;0;  1.7868284E-02;  3.9695699E+04;  0.0000000E+00;  2.4429926E+01;  4.0000000E+04;  0.0000000E+00;  4.0012582E+04;  1.7398344E-02;  0.0000000E+00;  4.6993932E-04;  3.7538887E+04;
  1.9112773E-01;  9.9999998E-03; -2.6017514E-01;3609;  2.8385872E-03;  0.0000000E+00; -6.1637693E-04;  9.9755389E+02;  1.0000000E-01; -2.0265599E+03;3;  1.0131598E+01;  0.0000000E+00; -5.6210113E+00;0;  1.6164966E-02;  3.9796211E+04;  0.0000000E+00;  1.8453724E+01;  4.0000000E+04;  0.0000000E+00;  4.0011125E+04;  1.5923949E-02;  0.0000000E+00;  2.4101767E-04;  2.8239771E+04;
  1.9110227E-01;  9.9999998E-03; -2.5023124E-01;3610;  2.9270733E-03;  0.0000000E+00; -5.7047000E-04;  9.9847620E+02;  1.0000000E-01; -1.2624335E+03;3;  2.9798160E+00;  0.0000000E+00; -8.2868719E+00;0;  1.5708281E-02;  3.9875457E+04;  0.0000000E+00;  1.3207213E+01;  4.0000000E+04;  0.0000000E+00;  4.0006320E+04;  1.5697477E-02;  0.0000000E+00;  1.0804157E-05;  2.0037875E+04;
  1.9106619E-01;  9.9999998E-03; -2.4026126E-01;3611;  3.1528198E-03;  0.0000000E+00; -5.7117268E-04;  9.9922272E+02;  1.0000000E-01; -6.4398181E+02;3; -4.2227763E-01;  0.0000000E+00; -8.6524410E+00;0;  1.5959438E-02;  3.9938711E+04;  0.0000000E+00;  9.2147655E+00;  4.0000000E+04;  0.0000000E+00;  4.0003812E+04;  1.5964942E-02;  0.0000000E+00; -5.5043492E-06;  1.3829691E+04;
  1.9103371E-01;  9.9999998E-03; -2.3025025E-01;3612;  3.4123498E-03;  0.0000000E+00; -5.3507957E-04;  9.9979785E+02;  1.0000000E-01; -1.6745206E+02;3; -1.6378069E+00;  0.0000000E+00; -7.5692887E+00;0;  1.6546149E-02;  3.9985609E+04;  0.0000000E+00;  6.1030416E+00;  4.0000000E+04;  0.0000000E+00;  4.0002281E+04;  1.6537132E-02;  0.0000000E+00;  9.0162503E-06;  9.0675879E+03;
  1.9105752E-01;  9.9999998E-03; -2.2020495E-01;3613;  3.6623818E-03;  0.0000000E+00; -4.5497844E-04;  1.0001685E+03;  1.0000000E-01;  1.3965038E+02;3; -1.7488158E+00;  0.0000000E+00; -5.6712427E+00;0;  1.7408466E-02;  4.0016969E+04;  0.0000000E+00;  3.6618876E+00;  4.0000000E+04;  0.0000000E+00;  4.0000492E+04;  1.7350849E-02;  0.0000000E+00;  5.7616882E-05;  5.3969590E+03;
  1.9116162E-01;  9.9999998E-03; -2.1013018E-01;3614;  3.8743720E-03;  0.0000000E+00; -3.7083408E-04;  1.0003831E+03;  1.0000000E-01;  3.1732437E+02;3; -1.3989867E+00;  0.0000000E+00; -3.7615950E+00;0;  1.8486032E-02;  4.0036207E+04;  0.0000000E+00;  1.8712429E+00;  4.0000000E+04;  0.0000000E+00;  3.9997254E+04;  1.8334398E-02;  0.0000000E+00;  1.5163349E-04;  2.7766479E+03;
  1.9127561E-01;  9.9999998E-03; -2.0006871E-01;3615;  4.0374664E-03;  0.0000000E+00; -3.0821728E-04;  1.0004733E+03;  1.0000000E-01;  3.9208768E+02;3; -9.5974410E-01;  0.0000000E+00; -2.2183275E+00;0;  1.9625664E-02;  4.0046234E+04;  0.0000000E+00;  6.8730819E-01;  4.0000000E+04;  0.0000000E+00;  3.9993250E+04;  1.9364581E-02;  0.0000000E+00;  2.6108284E-04;  1.3522534E+03;
  1.9138178E-01;  9.9999998E-03; -1.9002266E-01;3616;  4.1523287E-03;  0.0000000E+00; -2.7737929E-04;  1.0004843E+03;  1.0000000E-01;  4.0127261E+02;3; -6.0906464E-01;  0.0000000E+00; -1.1586477E+00;0;  2.0689480E-02;  4.0048414E+04;  0.0000000E+00;  1.2026305E-03;  4.0000000E+04;  0.0000000E+00;  3.9991012E+04;  2.0329237E-02;  0.0000000E+00;  3.6024229E-04;  1.2021858E+03;
  1.9146681E-01;  9.9999998E-03; -1.8000111E-01;3617;  4.2229467E-03;  0.0000000E+00; -2.6184492E-04;  1.0004429E+03;  1.0000000E-01;  3.6690320E+02;3; -3.9635998E-01;  0.0000000E+00; -4.9985433E-01;0;  2.1566933E-02;  4.0044340E+04;  0.0000000E+00; -3.1336316E-01;  4.0000000E+04;  0.0000000E+00;  3.9990621E+04;  2.1130078E-02;  0.0000000E+00;  4.3685589E-04;  1.3143339E+03;
  1.9151971E-01;  9.9999998E-03; -1.7000557E-01;3618;  4.2533390E-03;  0.0000000E+00; -2.4044083E-04;  1.0003691E+03;  1.0000000E-01;  3.0576913E+02;3; -3.0127448E-01;  0.0000000E+00; -1.3459980E-01;0;  2.2191355E-02;  4.0035645E+04;  0.0000000E+00; -3.8702112E-01;  4.0000000E+04;  0.0000000E+00;  3.9991809E+04;  2.1701941E-02;  0.0000000E+00;  4.8941333E-04;  1.1621392E+03;
  1.9154698E-01;  9.9999998E-03; -1.6002476E-01;3619;  4.2426279E-03;  0.0000000E+00; -2.0938982E-04;  1.0002802E+03;  1.0000000E-01;  2.3209221E+02;3; -2.7519298E-01;  0.0000000E+00;  2.9246571E-02;0;  2.2544650E-02;  4.0024812E+04;  0.0000000E+00; -3.3655497E-01;  4.0000000E+04;  0.0000000E+00;  3.9995227E+04;  2.2028804E-02;  0.0000000E+00;  5.1584572E-04;  8.1360187E+02;
  1.9155383E-01;  9.9999998E-03; -1.5004899E-01;3620;  4.1970313E-03;  0.0000000E+00; -1.6740923E-04;  1.0001846E+03;  1.0000000E-01;  1.5288457E+02;3; -2.7722448E-01;  0.0000000E+00;  7.5966612E-02;0;  2.2647317E-02;  4.0013539E+04;  0.0000000E+00; -2.4513039E-01;  4.0000000E+04;  0.0000000E+00;  3.9998238E+04;  2.2136111E-02;  0.0000000E+00;  5.1120669E-04;  4.3267062E+02;
  1.9154458E-01;  9.9999998E-03; -1.4007117E-01;3621;  4.1260109E-03;  0.0000000E+00; -1.2004399E-04;  1.0000869E+03;  1.0000000E-01;  7.1997963E+01;3; -2.8767845E-01;  0.0000000E+00;  7.7737764E-02;0;  2.2556690E-02;  4.0002555E+04;  0.0000000E+00; -1.5743555E-01;  4.0000000E+04;  0.0000000E+00;  4.0000602E+04;  2.2084029E-02;  0.0000000E+00;  4.7266023E-04;  2.3821722E+02;
  1.9152248E-01;  9.9999998E-03; -1.3008693E-01;3622;  4.0469756E-03;  0.0000000E+00; -7.5037773E-05;  1.0000022E+03;  1.0000000E-01;  1.7777275E+00;3; -2.9683283E-01;  0.0000000E+00;  7.1213283E-02;0;  2.2357967E-02;  3.9993227E+04;  0.0000000E+00; -8.9812532E-02;  4.0000000E+04;  0.0000000E+00;  4.0002594E+04;  2.1954294E-02;  0.0000000E+00;  4.0367217E-04;  3.2221265E+02;
  1.9149469E-01;  9.9999998E-03; -1.2009554E-01;3623;  3.9741239E-03;  0.0000000E+00; -3.8440743E-05;  9.9992322E+02;  1.0000000E-01; -6.3603138E+01;3; -3.0555621E-01;  0.0000000E+00;  6.4839482E-02;0;  2.2148004E-02;  3.9986449E+04;  0.0000000E+00; -4.5370255E-02;  4.0000000E+04;  0.0000000E+00;  4.0002742E+04;  2.1835260E-02;  0.0000000E+00;  3.1274403E-04;  3.6172495E+02;
  1.9147092E-01;  9.9999998E-03; -1.1009869E-01;3624;  3.9160266E-03;  0.0000000E+00; -1.3766640E-05;  9.9985822E+02;  1.0000000E-01; -1.1747816E+02;3; -3.1418058E-01;  0.0000000E+00;  6.0325522E-02;0;  2.2018487E-02;  3.9981270E+04;  0.0000000E+00; -2.2079049E-02;  4.0000000E+04;  0.0000000E+00;  4.0001742E+04;  2.1806650E-02;  0.0000000E+00;  2.1183750E-04;  2.7659293E+02;
  2.0113225E-01;  9.9999998E-03; -2.7017415E-01;3669;  3.6982808E-03;  0.0000000E+00; -3.7591954E-04;  9.9633960E+02;  1.0000000E-01; -3.0325562E+03;3;  1.5836533E+01;  0.0000000E+00;  1.4640594E+01;0;  2.1188652E-02;  3.9717766E+04;  0.0000000E+00;  2.2607681E+01;  4.0000000E+04;  0.0000000E+00;  3.9990586E+04;  2.0732440E-02;  0.0000000E+00;  4.5621255E-04;  3.5000031E+04;
  2.0100980E-01;  9.9999998E-03; -2.6021528E-01;3670;  3.0652273E-03;  0.0000000E+00; -4.4047256E-04;  9.9760126E+02;  1.0000000E-01; -1.9873019E+03;3;  6.3544827E+00;  0.0000000E+00;  3.0664473E+00;0;  1.9007480E-02;  3.9821898E+04;  0.0000000E+00;  1.8282909E+01;  4.0000000E+04;  0.0000000E+00;  3.9989668E+04;  1.8553030E-02;  0.0000000E+00;  4.5444979E-04;  2.8055416E+04;
  2.0095962E-01;  9.9999998E-03; -2.5027037E-01;3671;  2.9875017E-03;  0.0000000E+00; -4.2814552E-04;  9.9842981E+02;  1.0000000E-01; -1.3008521E+03;3;  5.1571006E-01;  0.0000000E+00; -1.8916632E+00;0;  1.8542867E-02;  3.9894039E+04;  0.0000000E+00;  1.3328753E+01;  4.0000000E+04;  0.0000000E+00;  3.9985168E+04;  1.8262371E-02;  0.0000000E+00;  2.8049597E-04;  2.0303910E+04;
  2.0092219E-01;  9.9999998E-03; -2.4031036E-01;3672;  3.1409275E-03;  0.0000000E+00; -4.8944267E-04;  9.9907892E+02;  1.0000000E-01; -7.6308954E+02;3; -1.9645644E+00;  0.0000000E+00; -4.1327348E+00;0;  1.9043384E-02;  3.9947809E+04;  0.0000000E+00;  9.3377619E+00;  4.0000000E+04;  0.0000000E+00;  3.9983445E+04;  1.8696198E-02;  0.0000000E+00;  3.4718565E-04;  1.4150118E+04;
  2.0091031E-01;  9.9999998E-03; -2.3030145E-01;3673;  3.3682787E-03;  0.0000000E+00; -5.5532122E-04;  9.9960132E+02;  1.0000000E-01; -3.3031165E+02;3; -2.4772532E+00;  0.0000000E+00; -4.8452039E+00;0;  1.9910511E-02;  3.9986082E+04;  0.0000000E+00;  6.1609921E+00;  4.0000000E+04;  0.0000000E+00;  3.9986656E+04;  1.9497601E-02;  0.0000000E+00;  4.1290856E-04;  9.3006631E+03;
  2.0096076E-01;  9.9999998E-03; -2.2024173E-01;3674;  3.6130676E-03;  0.0000000E+00; -5.4378784E-04;  9.9996661E+02;  1.0000000E-01; -2.7653540E+01;3; -2.1511545E+00;  0.0000000E+00; -4.2396917E+00;0;  2.0946112E-02;  4.0010844E+04;  0.0000000E+00;  3.6484666E+00;  4.0000000E+04;  0.0000000E+00;  3.9989668E+04;  2.0550750E-02;  0.0000000E+00;  3.9536052E-04;  5.5339385E+03;
  2.0106375E-01;  9.9999998E-03; -2.1015911E-01;3675;  3.8400269E-03;  0.0000000E+00; -4.8024158E-04;  1.0001815E+03;  1.0000000E-01;  1.5041550E+02;3; -1.5813320E+00;  0.0000000E+00; -3.0146205E+00;0;  2.2122964E-02;  4.0026250E+04;  0.0000000E+00;  1.8051897E+00;  4.0000000E+04;  0.0000000E+00;  3.9990387E+04;  2.1749746E-02;  0.0000000E+00;  3.7321876E-04;  2.9271851E+03;
  2.0116031E-01;  9.9999998E-03; -2.0010062E-01;3676;  4.0220823E-03;  0.0000000E+00; -4.2320922E-04;  1.0002736E+03;  1.0000000E-01;  2.2666026E+02;3; -1.0423793E+00;  0.0000000E+00; -1.8226917E+00;0;  2.3337327E-02;  4.0034500E+04;  0.0000000E+00;  5.8872867E-01;  4.0000000E+04;  0.0000000E+00;  3.9988586E+04;  2.2962414E-02;  0.0000000E+00;  3.7491313E-04;  1.6916244E+03;
  2.0126270E-01;  9.9999998E-03; -1.9005559E-01;3677;  4.1556433E-03;  0.0000000E+00; -3.9812486E-04;  1.0003005E+03;  1.0000000E-01;  2.4898061E+02;3; -6.3943475E-01;  0.0000000E+00; -9.5671529E-01;0;  2.4473393E-02;  4.0035879E+04;  0.0000000E+00; -1.0463412E-01;  4.0000000E+04;  0.0000000E+00;  3.9988238E+04;  2.4089595E-02;  0.0000000E+00;  3.8379763E-04;  1.5919861E+03;
  2.0134494E-01;  9.9999998E-03; -1.8004383E-01;3678;  4.2374777E-03;  0.0000000E+00; -3.8535823E-04;  1.0002717E+03;  1.0000000E-01;  2.2508005E+02;3; -4.0642205E-01;  0.0000000E+00; -3.9749640E-01;0;  2.5417026E-02;  4.0032430E+04;  0.0000000E+00; -4.0037948E-01;  4.0000000E+04;  0.0000000E+00;  3.9987949E+04;  2.5030928E-02;  0.0000000E+00;  3.8609904E-04;  1.6523489E+03;
  2.0140356E-01;  9.9999998E-03; -1.7005509E-01;3679;  4.2709913E-03;  0.0000000E+00; -3.6517790E-04;  1.0002139E+03;  1.0000000E-01;  1.7727893E+02;3; -3.0255648E-01;  0.0000000E+00; -8.4519140E-02;0;  2.6111500E-02;  4.0025531E+04;  0.0000000E+00; -4.3834484E-01;  4.0000000E+04;  0.0000000E+00;  3.9989617E+04;  2.5730621E-02;  0.0000000E+00;  3.8087883E-04;  1.4740540E+03;
  2.0144047E-01;  9.9999998E-03; -1.6007464E-01;3680;  4.2527588E-03;  0.0000000E+00; -3.1807617E-04;  1.0001419E+03;  1.0000000E-01;  1.1752754E+02;3; -2.7362940E-01;  0.0000000E+00;  5.6110866E-02;0;  2.6541376E-02;  4.0016523E+04;  0.0000000E+00; -3.4838822E-01;  4.0000000E+04;  0.0000000E+00;  3.9992285E+04;  2.6176019E-02;  0.0000000E+00;  3.6535869E-04;  1.1340500E+03;
  2.0145558E-01;  9.9999998E-03; -1.5009359E-01;3681;  4.1889646E-03;  0.0000000E+00; -2.4119574E-04;  1.0000676E+03;  1.0000000E-01;  5.5998417E+01;3; -2.7434424E-01;  0.0000000E+00;  9.2919454E-02;0;  2.6727136E-02;  4.0006973E+04;  0.0000000E+00; -2.2499472E-01;  4.0000000E+04;  0.0000000E+00;  3.9994188E+04;  2.6394721E-02;  0.0000000E+00;  3.3241563E-04;  7.6759741E+02;
  2.0145568E-01;  9.9999998E-03; -1.4010692E-01;3682;  4.0957625E-03;  0.0000000E+00; -1.5346055E-04;  9.9999182E+02;  1.0000000E-01; -6.7652407E+00;3; -2.8449216E-01;  0.0000000E+00;  8.8738009E-02;0;  2.6727317E-02;  3.9998387E+04;  0.0000000E+00; -1.1877599E-01;  4.0000000E+04;  0.0000000E+00;  3.9996270E+04;  2.6451571E-02;  0.0000000E+00;  2.7574529E-04;  4.7030234E+02;
  2.0145078E-01;  9.9999998E-03; -1.3011296E-01;3683;  3.9967094E-03;  0.0000000E+00; -8.5156644E-05;  9.9992218E+02;  1.0000000E-01; -6.4492004E+01;3; -2.9359627E-01;  0.0000000E+00;  7.9772539E-02;0;  2.6628809E-02;  3.9991402E+04;  0.0000000E+00; -4.5644660E-02;  4.0000000E+04;  0.0000000E+00;  3.9998043E+04;  2.6433418E-02;  0.0000000E+00;  1.9539194E-04;  2.9486722E+02;
  2.0145275E-01;  9.9999998E-03; -1.2011312E-01;3684;  3.9089327E-03;  0.0000000E+00; -3.9467646E-05;  9.9986829E+02;  1.0000000E-01; -1.0913271E+02;3; -3.0118495E-01;  0.0000000E+00;  7.2600827E-02;0;  2.6527939E-02;  3.9986301E+04;  0.0000000E+00; -4.7206078E-03;  4.0000000E+04;  0.0000000E+00;  3.9998137E+04;  2.6430529E-02;  0.0000000E+00;  9.7411306E-05;  2.5959735E+02;
  2.0146693E-01;  9.9999998E-03; -1.1010920E-01;3685;  3.8410737E-03;  0.0000000E+00; -1.5044370E-05;  9.9982672E+02;  1.0000000E-01; -1.4355150E+02;3; -3.1003770E-01;  0.0000000E+00;  6.7568608E-02;0;  2.6511068E-02;  3.9983594E+04;  0.0000000E+00;  1.0513316E-02;  4.0000000E+04;  0.0000000E+00;  3.9997195E+04;  2.6518276E-02;  0.0000000E+00; -7.2087846E-06;  3.4327380E+02;
  2.1113114E-01;  9.9999998E-03; -2.7016076E-01;3730;  4.4364692E-03;  0.0000000E+00; -1.3672264E-04;  9.9646918E+02;  1.0000000E-01; -2.9252012E+03;3;  1.0318017E+01;  0.0000000E+00;  1.8035774E+01;0;  2.4346625E-02;  3.9737066E+04;  0.0000000E+00;  2.0431442E+01;  4.0000000E+04;  0.0000000E+00;  3.9982887E+04;  2.4203777E-02;  0.0000000E+00;  1.4284725E-04;  3.1750463E+04;
  2.1090566E-01;  9.9999998E-03; -2.6019505E-01;3731;  3.4619246E-03;  0.0000000E+00; -2.5379038E-04;  9.9776721E+02;  1.0000000E-01; -1.8498242E+03;3;  3.2495441E+00;  0.0000000E+00;  6.5211015E+00;0;  2.1798214E-02;  3.9845637E+04;  0.0000000E+00;  1.8783932E+01;  4.0000000E+04;  0.0000000E+00;  3.9980016E+04;  2.1297256E-02;  0.0000000E+00;  5.0095783E-04;  2.8751039E+04;
  2.1084076E-01;  9.9999998E-03; -2.5023788E-01;3732;  3.1780226E-03;  0.0000000E+00; -2.7720601E-04;  9.9846039E+02;  1.0000000E-01; -1.2755195E+03;3; -1.2630659E+00;  0.0000000E+00;  7.2995490E-01;0;  2.1333944E-02;  3.9905848E+04;  0.0000000E+00;  1.3831476E+01;  4.0000000E+04;  0.0000000E+00;  3.9976055E+04;  2.0871548E-02;  0.0000000E+00;  4.6239560E-04;  2.1088523E+04;
  2.1081565E-01;  9.9999998E-03; -2.4028002E-01;3733;  3.2639657E-03;  0.0000000E+00; -3.5268595E-04;  9.9895007E+02;  1.0000000E-01; -8.6985193E+02;3; -2.9977591E+00;  0.0000000E+00; -1.8632767E+00;0;  2.2034770E-02;  3.9947539E+04;  0.0000000E+00;  9.5583010E+00;  4.0000000E+04;  0.0000000E+00;  3.9973879E+04;  2.1457208E-02;  0.0000000E+00;  5.7756068E-04;  1.4653283E+04;
  2.1082616E-01;  9.9999998E-03; -2.3027645E-01;3734;  3.4538268E-03;  0.0000000E+00; -4.7314388E-04;  9.9937079E+02;  1.0000000E-01; -5.2126923E+02;3; -2.9788814E+00;  0.0000000E+00; -3.1578417E+00;0;  2.3162628E-02;  3.9976023E+04;  0.0000000E+00;  6.1993952E+00;  4.0000000E+04;  0.0000000E+00;  3.9977391E+04;  2.2457164E-02;  0.0000000E+00;  7.0546399E-04;  9.5877451E+03;
  2.1089698E-01;  9.9999998E-03; -2.2021516E-01;3735;  3.6790185E-03;  0.0000000E+00; -5.2117422E-04;  9.9968695E+02;  1.0000000E-01; -2.5935068E+02;3; -2.3334031E+00;  0.0000000E+00; -3.1745305E+00;0;  2.4370320E-02;  3.9993996E+04;  0.0000000E+00;  3.6042891E+00;  4.0000000E+04;  0.0000000E+00;  3.9984332E+04;  2.3709094E-02;  0.0000000E+00;  6.6122547E-04;  5.6689092E+03;
  2.1098171E-01;  9.9999998E-03; -2.1015032E-01;3736;  3.9126589E-03;  0.0000000E+00; -4.9081119E-04;  9.9987286E+02;  1.0000000E-01; -1.0533035E+02;3; -1.6360128E+00;  0.0000000E+00; -2.3437123E+00;0;  2.5621781E-02;  4.0005305E+04;  0.0000000E+00;  1.7489622E+00;  4.0000000E+04;  0.0000000E+00;  3.9986355E+04;  2.5076883E-02;  0.0000000E+00;  5.4489751E-04;  3.1005720E+03;
  2.1106979E-01;  9.9999998E-03; -2.0010321E-01;3737;  4.1156062E-03;  0.0000000E+00; -4.6819539E-04;  9.9996234E+02;  1.0000000E-01; -3.1208994E+01;3; -1.0410712E+00;  0.0000000E+00; -1.4422507E+00;0;  2.6887149E-02;  4.0011086E+04;  0.0000000E+00;  5.3901744E-01;  4.0000000E+04;  0.0000000E+00;  3.9985867E+04;  2.6438672E-02;  0.0000000E+00;  4.4847679E-04;  1.9369325E+03;
  2.1116652E-01;  9.9999998E-03; -1.9007507E-01;3738;  4.2672581E-03;  0.0000000E+00; -4.7050513E-04;  9.9998273E+02;  1.0000000E-01; -1.4320582E+01;3; -6.2815064E-01;  0.0000000E+00; -7.4346220E-01;0;  2.8058991E-02;  4.0011988E+04;  0.0000000E+00; -1.3050824E-01;  4.0000000E+04;  0.0000000E+00;  3.9985527E+04;  2.7696270E-02;  0.0000000E+00;  3.6271987E-04;  1.8012650E+03;
  2.1124297E-01;  9.9999998E-03; -1.8007913E-01;3739;  4.3609142E-03;  0.0000000E+00; -4.9411022E-04;  9.9996869E+02;  1.0000000E-01; -2.5925192E+01;3; -3.9428407E-01;  0.0000000E+00; -2.8683844E-01;0;  2.9044110E-02;  4.0009148E+04;  0.0000000E+00; -3.9168212E-01;  4.0000000E+04;  0.0000000E+00;  3.9986211E+04;  2.8760986E-02;  0.0000000E+00;  2.8312308E-04;  1.7990283E+03;
  2.1130295E-01;  9.9999998E-03; -1.7009790E-01;3740;  4.3897829E-03;  0.0000000E+00; -5.0730148E-04;  9.9993536E+02;  1.0000000E-01; -5.3529350E+01;3; -2.9069135E-01;  0.0000000E+00; -3.7165187E-02;0;  2.9800890E-02;  4.0003855E+04;  0.0000000E+00; -3.9428645E-01;  4.0000000E+04;  0.0000000E+00;  3.9988160E+04;  2.9589567E-02;  0.0000000E+00;  2.1132242E-04;  1.6076080E+03;
  2.1134499E-01;  9.9999998E-03; -1.6011885E-01;3741;  4.3600234E-03;  0.0000000E+00; -4.7793842E-04;  9.9988739E+02;  1.0000000E-01; -9.3281311E+01;3; -2.6670942E-01;  0.0000000E+00;  7.7180699E-02;0;  3.0320682E-02;  3.9997695E+04;  0.0000000E+00; -2.7683651E-01;  4.0000000E+04;  0.0000000E+00;  3.9989828E+04;  3.0173410E-02;  0.0000000E+00;  1.4727101E-04;  1.3140186E+03;
  2.1137430E-01;  9.9999998E-03; -1.5013310E-01;3742;  4.2713475E-03;  0.0000000E+00; -3.9424747E-04;  9.9984070E+02;  1.0000000E-01; -1.3199626E+02;3; -2.7054831E-01;  0.0000000E+00;  1.0649137E-01;0;  3.0625653E-02;  3.9991414E+04;  0.0000000E+00; -1.3917929E-01;  4.0000000E+04;  0.0000000E+00;  3.9991852E+04;  3.0542666E-02;  0.0000000E+00;  8.2986575E-05;  1.0396875E+03;
  2.1140042E-01;  9.9999998E-03; -1.4013535E-01;3743;  4.1427314E-03;  0.0000000E+00; -2.6423181E-04;  9.9979834E+02;  1.0000000E-01; -1.6705701E+02;3; -2.7911285E-01;  0.0000000E+00;  1.0199690E-01;0;  3.0769197E-02;  3.9986117E+04;  0.0000000E+00; -3.2335162E-02;  4.0000000E+04;  0.0000000E+00;  3.9993160E+04;  3.0760929E-02;  0.0000000E+00;  8.2685110E-06;  8.5159583E+02;
  2.1143368E-01;  9.9999998E-03; -1.3012488E-01;3744;  4.0115821E-03;  0.0000000E+00; -1.3292956E-04;  9.9976770E+02;  1.0000000E-01; -1.9243900E+02;3; -2.9004070E-01;  0.0000000E+00;  9.4252914E-02;0;  3.0829147E-02;  3.9982707E+04;  0.0000000E+00;  3.1696267E-02;  4.0000000E+04;  0.0000000E+00;  3.9993656E+04;  3.0910794E-02;  0.0000000E+00; -8.1647086E-05;  7.6627991E+02;
  2.1148618E-01;  9.9999998E-03; -1.2010639E-01;3745;  3.9031962E-03;  0.0000000E+00; -5.9974642E-05;  9.9975183E+02;  1.0000000E-01; -2.0562381E+02;3; -2.9733470E-01;  0.0000000E+00;  8.1848234E-02;0;  3.0891700E-02;  3.9981266E+04;  0.0000000E+00;  5.9049182E-02;  4.0000000E+04;  0.0000000E+00;  3.9993750E+04;  3.1075951E-02;  0.0000000E+00; -1.8425171E-04;  7.7528198E+02;
  2.1156752E-01;  9.9999998E-03; -1.1008013E-01;3746;  3.8262575E-03;  0.0000000E+00; -2.9133544E-05;  9.9975165E+02;  1.0000000E-01; -2.0577196E+02;3; -3.0572954E-01;  0.0000000E+00;  7.6548047E-02;0;  3.1036276E-02;  3.9981816E+04;  0.0000000E+00;  6.0577698E-02;  4.0000000E+04;  0.0000000E+00;  3.9993500E+04;  3.1326246E-02;  0.0000000E+00; -2.8996909E-04;  8.6282043E+02;
  2.2119211E-01;  9.9999998E-03; -2.7011853E-01;3791;  4.6607573E-03;  0.0000000E+00;  9.0899830E-06;  9.9666595E+02;  1.0000000E-01; -2.7621936E+03;3;  5.7723269E+00;  0.0000000E+00;  1.5068215E+01;0;  2.6009733E-02;  3.9749152E+04;  0.0000000E+00;  1.6676035E+01;  4.0000000E+04;  0.0000000E+00;  3.9988871E+04;  2.5968276E-02;  0.0000000E+00;  4.1456431E-05;  2.5986271E+04;
  2.2091320E-01;  9.9999998E-03; -2.6014629E-01;3792;  3.8959149E-03;  0.0000000E+00; -8.5834115E-05;  9.9787341E+02;  1.0000000E-01; -1.7618267E+03;3;  7.9555005E-01;  0.0000000E+00;  5.9671993E+00;0;  2.4160532E-02;  3.9853461E+04;  0.0000000E+00;  1.7676172E+01;  4.0000000E+04;  0.0000000E+00;  3.9982102E+04;  2.3702160E-02;  0.0000000E+00;  4.5837264E-04;  2.6938270E+04;
  2.2080430E-01;  9.9999998E-03; -2.5017497E-01;3793;  3.4471154E-03;  0.0000000E+00; -1.3711270E-04;  9.9847754E+02;  1.0000000E-01; -1.2613470E+03;3; -2.3451407E+00;  0.0000000E+00;  7.4088866E-01;0;  2.3810184E-02;  3.9906641E+04;  0.0000000E+00;  1.3653929E+01;  4.0000000E+04;  0.0000000E+00;  3.9978262E+04;  2.3222856E-02;  0.0000000E+00;  5.8732671E-04;  2.0686971E+04;
  2.2078656E-01;  9.9999998E-03; -2.4020402E-01;3794;  3.4865930E-03;  0.0000000E+00; -2.1571602E-04;  9.9883112E+02;  1.0000000E-01; -9.6841705E+02;3; -3.3937032E+00;  0.0000000E+00; -1.5138229E+00;0;  2.4682965E-02;  3.9936941E+04;  0.0000000E+00;  9.3647966E+00;  4.0000000E+04;  0.0000000E+00;  3.9975449E+04;  2.3937387E-02;  0.0000000E+00;  7.4557774E-04;  1.4288692E+04;
  2.2081506E-01;  9.9999998E-03; -2.3019512E-01;3795;  3.6562129E-03;  0.0000000E+00; -3.5934823E-04;  9.9913763E+02;  1.0000000E-01; -7.1444891E+02;3; -3.0395138E+00;  0.0000000E+00; -2.5789738E+00;0;  2.5994612E-02;  3.9956336E+04;  0.0000000E+00;  5.9768248E+00;  4.0000000E+04;  0.0000000E+00;  3.9979266E+04;  2.5076218E-02;  0.0000000E+00;  9.1839425E-04;  9.2214941E+03;
  2.2087054E-01;  9.9999998E-03; -2.2014998E-01;3796;  3.8855302E-03;  0.0000000E+00; -4.1445653E-04;  9.9937134E+02;  1.0000000E-01; -5.2082477E+02;3; -2.2762268E+00;  0.0000000E+00; -2.5163114E+00;0;  2.7255503E-02;  3.9968750E+04;  0.0000000E+00;  3.4544566E+00;  4.0000000E+04;  0.0000000E+00;  3.9984223E+04;  2.6436893E-02;  0.0000000E+00;  8.1861037E-04;  5.4646714E+03;
  2.2093929E-01;  9.9999998E-03; -2.1010906E-01;3797;  4.1605835E-03;  0.0000000E+00; -4.0442063E-04;  9.9950464E+02;  1.0000000E-01; -4.1040814E+02;3; -1.5406131E+00;  0.0000000E+00; -1.8265262E+00;0;  2.8514337E-02;  3.9976219E+04;  0.0000000E+00;  1.6724154E+00;  4.0000000E+04;  0.0000000E+00;  3.9985652E+04;  2.7886735E-02;  0.0000000E+00;  6.2760094E-04;  3.0506506E+03;
  2.2103181E-01;  9.9999998E-03; -2.0007885E-01;3798;  4.4562086E-03;  0.0000000E+00; -4.0210021E-04;  9.9956848E+02;  1.0000000E-01; -3.5752075E+02;3; -9.4549918E-01;  0.0000000E+00; -1.0998346E+00;0;  2.9762702E-02;  3.9979934E+04;  0.0000000E+00;  5.3413820E-01;  4.0000000E+04;  0.0000000E+00;  3.9985250E+04;  2.9316718E-02;  0.0000000E+00;  4.4598387E-04;  1.9573428E+03;
  2.2113006E-01;  9.9999998E-03; -1.9007218E-01;3799;  4.7835726E-03;  0.0000000E+00; -4.2368454E-04;  9.9958649E+02;  1.0000000E-01; -3.4260760E+02;3; -4.6848199E-01;  0.0000000E+00; -5.3760415E-01;0;  3.0912494E-02;  3.9980121E+04;  0.0000000E+00; -6.8479709E-02;  4.0000000E+04;  0.0000000E+00;  3.9985570E+04;  3.0637553E-02;  0.0000000E+00;  2.7494138E-04;  1.7896090E+03;
  2.2120395E-01;  9.9999998E-03; -1.8009135E-01;3800;  5.0893887E-03;  0.0000000E+00; -4.4980730E-04;  9.9958765E+02;  1.0000000E-01; -3.4161996E+02;3; -1.5016727E-01;  0.0000000E+00; -1.5551005E-01;0;  3.1899039E-02;  3.9978715E+04;  0.0000000E+00; -2.7754036E-01;  4.0000000E+04;  0.0000000E+00;  3.9986000E+04;  3.1782124E-02;  0.0000000E+00;  1.1691514E-04;  1.7392357E+03;
  2.2125627E-01;  9.9999998E-03; -1.7011982E-01;3801;  4.9148495E-03;  0.0000000E+00; -5.2469876E-04;  9.9957959E+02;  1.0000000E-01; -3.4828644E+02;3; -1.3726926E-01;  0.0000000E+00;  1.7580807E-02;0;  3.2692585E-02;  3.9975844E+04;  0.0000000E+00; -2.4881175E-01;  4.0000000E+04;  0.0000000E+00;  3.9987535E+04;  3.2710031E-02;  0.0000000E+00; -1.7446360E-05;  1.5616138E+03;
  2.2129866E-01;  9.9999998E-03; -1.6014372E-01;3802;  4.6503940E-03;  0.0000000E+00; -5.6030264E-04;  9.9957050E+02;  1.0000000E-01; -3.5584180E+02;3; -2.2660339E-01;  0.0000000E+00;  8.9166939E-02;0;  3.3307664E-02;  3.9972840E+04;  0.0000000E+00; -1.2149186E-01;  4.0000000E+04;  0.0000000E+00;  3.9988898E+04;  3.3438418E-02;  0.0000000E+00; -1.3075577E-04;  1.3493041E+03;
  2.2135097E-01;  9.9999998E-03; -1.5015174E-01;3803;  4.4625415E-03;  0.0000000E+00; -5.2217173E-04;  9.9956232E+02;  1.0000000E-01; -3.6260703E+02;3; -2.5746164E-01;  0.0000000E+00;  1.1346466E-01;0;  3.3766448E-02;  3.9970789E+04;  0.0000000E+00;  7.8873159E-03;  4.0000000E+04;  0.0000000E+00;  3.9990398E+04;  3.3994772E-02;  0.0000000E+00; -2.2832352E-04;  1.1954509E+03;
  2.2142950E-01;  9.9999998E-03; -1.4013489E-01;3804;  4.2866166E-03;  0.0000000E+00; -4.0937483E-04;  9.9956665E+02;  1.0000000E-01; -3.5900220E+02;3; -2.7175462E-01;  0.0000000E+00;  1.0864838E-01;0;  3.4105990E-02;  3.9970152E+04;  0.0000000E+00;  9.4835050E-02;  4.0000000E+04;  0.0000000E+00;  3.9990602E+04;  3.4428235E-02;  0.0000000E+00; -3.2224643E-04;  1.1193262E+03;
  2.2154112E-01;  9.9999998E-03; -1.3009053E-01;3805;  4.1094772E-03;  0.0000000E+00; -2.4342872E-04;  9.9958685E+02;  1.0000000E-01; -3.4226193E+02;3; -2.8638500E-01;  0.0000000E+00;  1.0873292E-01;0;  3.4383129E-02;  3.9971172E+04;  0.0000000E+00;  1.3480008E-01;  4.0000000E+04;  0.0000000E+00;  3.9991070E+04;  3.4804698E-02;  0.0000000E+00; -4.2156901E-04;  1.1060031E+03;
  2.2165841E-01;  9.9999998E-03; -1.2004558E-01;3806;  3.9667264E-03;  0.0000000E+00; -1.0966058E-04;  9.9961780E+02;  1.0000000E-01; -3.1663303E+02;3; -2.9539350E-01;  0.0000000E+00;  9.8626457E-02;0;  3.4651652E-02;  3.9974090E+04;  0.0000000E+00;  1.3925938E-01;  4.0000000E+04;  0.0000000E+00;  3.9990539E+04;  3.5177507E-02;  0.0000000E+00; -5.2585639E-04;  1.1430327E+03;
  2.2173788E-01;  9.9999998E-03; -1.1001756E-01;3807;  3.8748493E-03;  0.0000000E+00; -5.7852787E-05;  9.9966486E+02;  1.0000000E-01; -2.7767117E+02;3; -3.0246401E-01;  0.0000000E+00;  8.8776171E-02;0;  3.4954809E-02;  3.9978215E+04;  0.0000000E+00;  1.2226957E-01;  4.0000000E+04;  0.0000000E+00;  3.9990195E+04;  3.5580322E-02;  0.0000000E+00; -6.2551443E-04;  1.2214747E+03;
  2.3123938E-01;  9.9999998E-03; -2.7007839E-01;3852;  4.6790806E-03;  0.0000000E+00;  1.0533725E-04;  9.9698761E+02;  1.0000000E-01; -2.4957319E+03;3;  1.8104832E+00;  0.0000000E+00;  1.0463739E+01;0;  2.6829857E-02;  3.9768383E+04;  0.0000000E+00;  1.2704938E+01;  4.0000000E+04;  0.0000000E+00;  3.9997215E+04;  2.6741236E-02;  0.0000000E+00;  8.8620465E-05;  1.9911455E+04;
  2.3101708E-01;  9.9999998E-03; -2.6009345E-01;3853;  4.1302592E-03;  0.0000000E+00;  2.2048707E-05;  9.9792578E+02;  1.0000000E-01; -1.7184700E+03;3; -1.1256539E+00;  0.0000000E+00;  3.5358095E+00;0;  2.5838468E-02;  3.9850344E+04;  0.0000000E+00;  1.4167269E+01;  4.0000000E+04;  0.0000000E+00;  3.9991449E+04;  2.5281537E-02;  0.0000000E+00;  5.5693107E-04;  2.1616297E+04;
  2.3086248E-01;  9.9999998E-03; -2.5010708E-01;3854;  3.7583667E-03;  0.0000000E+00; -2.7728613E-05;  9.9845966E+02;  1.0000000E-01; -1.2761615E+03;3; -2.8801365E+00;  0.0000000E+00; -3.8062301E-01;0;  2.5823502E-02;  3.9897191E+04;  0.0000000E+00;  1.2030828E+01;  4.0000000E+04;  0.0000000E+00;  3.9986961E+04;  2.5098745E-02;  0.0000000E+00;  7.2475744E-04;  1.8118980E+04;
  2.3084041E-01;  9.9999998E-03; -2.4011406E-01;3855;  3.7896056E-03;  0.0000000E+00; -1.0632927E-04;  9.9872607E+02;  1.0000000E-01; -1.0554269E+03;3; -3.2631521E+00;  0.0000000E+00; -2.0193033E+00;0;  2.6795648E-02;  3.9919180E+04;  0.0000000E+00;  8.3713417E+00;  4.0000000E+04;  0.0000000E+00;  3.9985145E+04;  2.5890965E-02;  0.0000000E+00;  9.0468366E-04;  1.2605132E+04;
  2.3085244E-01;  9.9999998E-03; -2.3009969E-01;3856;  4.0001222E-03;  0.0000000E+00; -1.9603205E-04;  9.9892798E+02;  1.0000000E-01; -8.8817242E+02;3; -2.7537549E+00;  0.0000000E+00; -2.4506233E+00;0;  2.8034370E-02;  3.9932301E+04;  0.0000000E+00;  5.3923793E+00;  4.0000000E+04;  0.0000000E+00;  3.9986828E+04;  2.7069388E-02;  0.0000000E+00;  9.6498197E-04;  8.1554604E+03;
  2.3090570E-01;  9.9999998E-03; -2.2006787E-01;3857;  4.3437434E-03;  0.0000000E+00; -2.0587843E-04;  9.9906677E+02;  1.0000000E-01; -7.7316333E+02;3; -1.9903467E+00;  0.0000000E+00; -2.0918102E+00;0;  2.9206781E-02;  3.9939555E+04;  0.0000000E+00;  3.1155543E+00;  4.0000000E+04;  0.0000000E+00;  3.9988805E+04;  2.8425146E-02;  0.0000000E+00;  7.8163500E-04;  4.8105088E+03;
  2.3100941E-01;  9.9999998E-03; -2.1003827E-01;3858;  5.2920557E-03;  0.0000000E+00; -2.1525360E-05;  9.9913409E+02;  1.0000000E-01; -7.1736243E+02;3; -1.0957557E+00;  0.0000000E+00; -1.3779118E+00;0;  3.0324819E-02;  3.9943352E+04;  0.0000000E+00;  1.5230863E+00;  4.0000000E+04;  0.0000000E+00;  3.9988555E+04;  2.9904321E-02;  0.0000000E+00;  4.2049782E-04;  2.6436614E+03;
  2.3112062E-01;  9.9999998E-03; -2.0002645E-01;3859;  6.7810756E-03;  0.0000000E+00;  3.4781863E-04;  9.9916882E+02;  1.0000000E-01; -6.8862250E+02;3; -3.5098729E-01;  0.0000000E+00; -7.2832853E-01;0;  3.1405315E-02;  3.9945430E+04;  0.0000000E+00;  5.5343741E-01;  4.0000000E+04;  0.0000000E+00;  3.9987480E+04;  3.1316873E-02;  0.0000000E+00;  8.8442539E-05;  1.7072260E+03;
  2.3121327E-01;  9.9999998E-03; -1.9004184E-01;3860;  7.5930781E-03;  0.0000000E+00;  4.3358159E-04;  9.9918713E+02;  1.0000000E-01; -6.7346246E+02;3;  1.6653341E-01;  0.0000000E+00; -2.6290154E-01;0;  3.2487843E-02;  3.9946566E+04;  0.0000000E+00;  7.0043311E-02;  4.0000000E+04;  0.0000000E+00;  3.9986719E+04;  3.2531198E-02;  0.0000000E+00; -4.3356315E-05;  1.5646520E+03;
  2.3128475E-01;  9.9999998E-03; -1.8007220E-01;3861;  7.9008071E-03;  0.0000000E+00;  3.6471608E-04;  9.9920654E+02;  1.0000000E-01; -6.5736414E+02;3;  4.3954086E-01;  0.0000000E+00;  5.0155078E-03;0;  3.3454563E-02;  3.9946762E+04;  0.0000000E+00; -7.2232135E-02;  4.0000000E+04;  0.0000000E+00;  3.9987379E+04;  3.3624575E-02;  0.0000000E+00; -1.7001122E-04;  1.5051722E+03;
  2.3133644E-01;  9.9999998E-03; -1.7010435E-01;3862;  7.8844139E-03;  0.0000000E+00;  2.3097043E-04;  9.9923163E+02;  1.0000000E-01; -6.3657458E+02;3;  5.2646339E-01;  0.0000000E+00;  1.3064930E-01;0;  3.4294039E-02;  3.9947289E+04;  0.0000000E+00; -2.1514969E-02;  4.0000000E+04;  0.0000000E+00;  3.9988336E+04;  3.4607269E-02;  0.0000000E+00; -3.1323166E-04;  1.3814551E+03;
  2.3137343E-01;  9.9999998E-03; -1.6012374E-01;3863;  7.4700313E-03;  0.0000000E+00;  5.8093388E-05;  9.9926373E+02;  1.0000000E-01; -6.1000745E+02;3;  4.6517637E-01;  0.0000000E+00;  1.5855882E-01;0;  3.5014339E-02;  3.9948293E+04;  0.0000000E+00;  9.4055057E-02;  4.0000000E+04;  0.0000000E+00;  3.9989195E+04;  3.5468012E-02;  0.0000000E+00; -4.5367159E-04;  1.2800870E+03;
  2.3144901E-01;  9.9999998E-03; -1.5011473E-01;3864;  6.1698556E-03;  0.0000000E+00; -1.2153864E-04;  9.9930774E+02;  1.0000000E-01; -5.7351465E+02;3;  2.5057501E-01;  0.0000000E+00;  1.6011825E-01;0;  3.5627302E-02;  3.9950828E+04;  0.0000000E+00;  1.9131343E-01;  4.0000000E+04;  0.0000000E+00;  3.9989922E+04;  3.6207899E-02;  0.0000000E+00; -5.8059843E-04;  1.2433813E+03;
  2.3157641E-01;  9.9999998E-03; -1.4007610E-01;3865;  4.6373089E-03;  0.0000000E+00; -2.1530654E-04;  9.9936407E+02;  1.0000000E-01; -5.2684930E+02;3; -2.3657593E-01;  0.0000000E+00;  1.5785812E-01;0;  3.6171343E-02;  3.9955152E+04;  0.0000000E+00;  2.3902480E-01;  4.0000000E+04;  0.0000000E+00;  3.9989844E+04;  3.6865707E-02;  0.0000000E+00; -6.9436262E-04;  1.2483273E+03;
  2.3169354E-01;  9.9999998E-03; -1.3003471E-01;3866;  4.3023438E-03;  0.0000000E+00; -1.5809714E-04;  9.9943713E+02;  1.0000000E-01; -4.6630780E+02;3; -2.7972132E-01;  0.0000000E+00;  1.4717470E-01;0;  3.6674295E-02;  3.9961199E+04;  0.0000000E+00;  2.4204786E-01;  4.0000000E+04;  0.0000000E+00;  3.9989676E+04;  3.7474070E-02;  0.0000000E+00; -7.9977448E-04;  1.2725376E+03;
  2.3175770E-01;  9.9999998E-03; -1.2000658E-01;3867;  4.1107866E-03;  0.0000000E+00; -8.9198213E-05;  9.9951758E+02;  1.0000000E-01; -3.9969241E+02;3; -2.9348102E-01;  0.0000000E+00;  1.3007757E-01;0;  3.7139945E-02;  3.9968090E+04;  0.0000000E+00;  2.1709910E-01;  4.0000000E+04;  0.0000000E+00;  3.9989234E+04;  3.8038209E-02;  0.0000000E+00; -8.9826481E-04;  1.3146892E+03;
  2.3177680E-01;  9.9999998E-03; -1.0999292E-01;3868;  3.9981771E-03;  0.0000000E+00; -5.6523229E-05;  9.9960120E+02;  1.0000000E-01; -3.3041040E+02;3; -3.0006772E-01;  0.0000000E+00;  1.1347968E-01;0;  3.7600711E-02;  3.9975605E+04;  0.0000000E+00;  1.7970827E-01;  4.0000000E+04;  0.0000000E+00;  3.9988840E+04;  3.8586151E-02;  0.0000000E+00; -9.8544103E-04;  1.3793379E+03;
  2.4125899E-01;  9.9999998E-03; -2.7004632E-01;3913;  4.6762521E-03;  0.0000000E+00;  2.2529150E-04;  9.9739435E+02;  1.0000000E-01; -2.1587537E+03;3; -1.3185227E+00;  0.0000000E+00;  6.1873031E+00;0;  2.6925052E-02;  3.9796328E+04;  0.0000000E+00;  9.1575365E+00;  4.0000000E+04;  0.0000000E+00;  4.0003895E+04;  2.7117137E-02;  0.0000000E+00; -1.9208592E-04;  1.4556768E+04;
  2.4111497E-01;  9.9999998E-03; -2.6005241E-01;3914;  4.2632371E-03;  0.0000000E+00;  1.5379587E-04;  9.9802649E+02;  1.0000000E-01; -1.6350155E+03;3; -2.5506485E+00;  0.0000000E+00;  1.2386698E+00;0;  2.6619926E-02;  3.9851418E+04;  0.0000000E+00;  1.0117596E+01;  4.0000000E+04;  0.0000000E+00;  3.9999738E+04;  2.6256133E-02;  0.0000000E+00;  3.6379375E-04;  1.5570944E+04;
  2.4098921E-01;  9.9999998E-03; -2.5005203E-01;3915;  4.0484117E-03;  0.0000000E+00;  7.1475173E-05;  9.9841846E+02;  1.0000000E-01; -1.3102839E+03;3; -3.0879972E+00;  0.0000000E+00; -1.4241842E+00;0;  2.7175181E-02;  3.9884570E+04;  0.0000000E+00;  9.0889616E+00;  4.0000000E+04;  0.0000000E+00;  3.9997324E+04;  2.6387827E-02;  0.0000000E+00;  7.8735256E-04;  1.3715809E+04;
  2.4093497E-01;  9.9999998E-03; -2.4004276E-01;3916;  4.1586282E-03;  0.0000000E+00;  6.4532428E-06;  9.9862769E+02;  1.0000000E-01; -1.1369554E+03;3; -2.9043274E+00;  0.0000000E+00; -2.3585172E+00;0;  2.8134208E-02;  3.9900887E+04;  0.0000000E+00;  6.7471828E+00;  4.0000000E+04;  0.0000000E+00;  3.9996184E+04;  2.7192142E-02;  0.0000000E+00;  9.4206701E-04;  1.0094150E+04;
  2.4093843E-01;  9.9999998E-03; -2.3001932E-01;3917;  4.5536482E-03;  0.0000000E+00;  1.1118286E-05;  9.9874548E+02;  1.0000000E-01; -1.0393286E+03;3; -2.2448452E+00;  0.0000000E+00; -2.2930436E+00;0;  2.9085509E-02;  3.9908109E+04;  0.0000000E+00;  4.4343958E+00;  4.0000000E+04;  0.0000000E+00;  3.9996309E+04;  2.8299099E-02;  0.0000000E+00;  7.8641030E-04;  6.6093716E+03;
  2.4099840E-01;  9.9999998E-03; -2.1998771E-01;3918;  6.0115131E-03;  0.0000000E+00;  4.5421670E-04;  9.9880487E+02;  1.0000000E-01; -9.9014484E+02;3; -1.3099267E+00;  0.0000000E+00; -1.6846194E+00;0;  2.9651145E-02;  3.9911211E+04;  0.0000000E+00;  2.5948672E+00;  4.0000000E+04;  0.0000000E+00;  3.9996113E+04;  2.9675428E-02;  0.0000000E+00; -2.4283814E-05;  3.8799563E+03;
  2.4109811E-01;  9.9999998E-03; -2.0997205E-01;3919;  7.5563379E-03;  0.0000000E+00;  9.0125325E-04;  9.9881750E+02;  1.0000000E-01; -9.7967603E+02;3; -4.7239345E-01;  0.0000000E+00; -9.6694934E-01;0;  3.0476110E-02;  3.9913117E+04;  0.0000000E+00;  1.3391647E+00;  4.0000000E+04;  0.0000000E+00;  3.9993457E+04;  3.0865155E-02;  0.0000000E+00; -3.8904592E-04;  2.1223567E+03;
  2.4118827E-01;  9.9999998E-03; -1.9998455E-01;3920;  8.1769284E-03;  0.0000000E+00;  8.9562149E-04;  9.9882812E+02;  1.0000000E-01; -9.7088611E+02;3;  1.4407250E-01;  0.0000000E+00; -4.2173296E-01;0;  3.1551298E-02;  3.9915051E+04;  0.0000000E+00;  6.0543936E-01;  4.0000000E+04;  0.0000000E+00;  3.9991086E+04;  3.1859923E-02;  0.0000000E+00; -3.0862621E-04;  1.3939133E+03;
  2.4128130E-01;  9.9999998E-03; -1.9001174E-01;3921;  8.4318481E-03;  0.0000000E+00;  7.9347484E-04;  9.9885107E+02;  1.0000000E-01; -9.5187433E+02;3;  4.8453990E-01;  0.0000000E+00; -7.6565452E-02;0;  3.2509975E-02;  3.9917156E+04;  0.0000000E+00;  2.6497692E-01;  4.0000000E+04;  0.0000000E+00;  3.9989703E+04;  3.2844912E-02;  0.0000000E+00; -3.3493701E-04;  1.2584659E+03;
  2.4137877E-01;  9.9999998E-03; -1.8004209E-01;3922;  8.5720113E-03;  0.0000000E+00;  7.1148924E-04;  9.9890076E+02;  1.0000000E-01; -9.1069031E+02;3;  6.6552699E-01;  0.0000000E+00;  1.2267178E-01;0;  3.3376846E-02;  3.9920023E+04;  0.0000000E+00;  1.8872891E-01;  4.0000000E+04;  0.0000000E+00;  3.9990406E+04;  3.3840224E-02;  0.0000000E+00; -4.6337771E-04;  1.2088300E+03;
  2.4148539E-01;  9.9999998E-03; -1.7006245E-01;3923;  8.6444914E-03;  0.0000000E+00;  6.3248468E-04;  9.9896344E+02;  1.0000000E-01; -8.5879053E+02;3;  7.5569361E-01;  0.0000000E+00;  2.1051143E-01;0;  3.4201447E-02;  3.9924008E+04;  0.0000000E+00;  2.4481550E-01;  4.0000000E+04;  0.0000000E+00;  3.9990426E+04;  3.4830011E-02;  0.0000000E+00; -6.2856625E-04;  1.1666354E+03;
  2.4159312E-01;  9.9999998E-03; -1.6006187E-01;3924;  8.6588319E-03;  0.0000000E+00;  5.6495657E-04;  9.9904443E+02;  1.0000000E-01; -7.9168134E+02;3;  7.9744864E-01;  0.0000000E+00;  2.3362859E-01;0;  3.5003543E-02;  3.9929508E+04;  0.0000000E+00;  3.2566568E-01;  4.0000000E+04;  0.0000000E+00;  3.9990973E+04;  3.5799254E-02;  0.0000000E+00; -7.9571077E-04;  1.1717113E+03;
  2.4168311E-01;  9.9999998E-03; -1.5003914E-01;3925;  8.5786805E-03;  0.0000000E+00;  4.8630143E-04;  9.9913934E+02;  1.0000000E-01; -7.1301685E+02;3;  7.9715711E-01;  0.0000000E+00;  2.2163342E-01;0;  3.5789795E-02;  3.9937113E+04;  0.0000000E+00;  3.6986530E-01;  4.0000000E+04;  0.0000000E+00;  3.9990855E+04;  3.6735915E-02;  0.0000000E+00; -9.4612036E-04;  1.2049678E+03;
  2.4174100E-01;  9.9999998E-03; -1.4001523E-01;3926;  8.1147933E-03;  0.0000000E+00;  3.5454016E-04;  9.9924719E+02;  1.0000000E-01; -6.2368604E+02;3;  6.9063401E-01;  0.0000000E+00;  2.0549424E-01;0;  3.6551695E-02;  3.9946000E+04;  0.0000000E+00;  3.6465877E-01;  4.0000000E+04;  0.0000000E+00;  3.9990695E+04;  3.7624899E-02;  0.0000000E+00; -1.0732048E-03;  1.2366902E+03;
  2.4176440E-01;  9.9999998E-03; -1.3000046E-01;3927;  6.1637168E-03;  0.0000000E+00;  2.3746486E-04;  9.9936188E+02;  1.0000000E-01; -5.2867639E+02;3;  3.0147332E-01;  0.0000000E+00;  2.0232107E-01;0;  3.7275050E-02;  3.9955777E+04;  0.0000000E+00;  3.2551250E-01;  4.0000000E+04;  0.0000000E+00;  3.9990078E+04;  3.8454797E-02;  0.0000000E+00; -1.1797487E-03;  1.2669236E+03;
  2.4176116E-01;  9.9999998E-03; -1.1999097E-01;3928;  4.7062738E-03;  0.0000000E+00;  1.9729823E-04;  9.9947253E+02;  1.0000000E-01; -4.3697528E+02;3; -1.7170586E-01;  0.0000000E+00;  1.8817127E-01;0;  3.7952825E-02;  3.9965453E+04;  0.0000000E+00;  2.7142814E-01;  4.0000000E+04;  0.0000000E+00;  3.9989594E+04;  3.9223541E-02;  0.0000000E+00; -1.2707134E-03;  1.3074757E+03;
  2.4172851E-01;  9.9999998E-03; -1.0999033E-01;3929;  4.3978593E-03;  0.0000000E+00;  1.4593880E-04;  9.9957251E+02;  1.0000000E-01; -3.5416281E+02;3; -2.5333306E-01;  0.0000000E+00;  1.6449833E-01;0;  3.8577043E-02;  3.9974086E+04;  0.0000000E+00;  2.1625321E-01;  4.0000000E+04;  0.0000000E+00;  3.9989164E+04;  3.9920993E-02;  0.0000000E+00; -1.3439490E-03;  1.3645712E+03;
  2.5125033E-01;  9.9999998E-03; -2.7002206E-01;3974;  4.6683145E-03;  0.0000000E+00;  3.6142289E-04;  9.9782812E+02;  1.0000000E-01; -1.7993566E+03;3; -3.3560028E+00;  0.0000000E+00;  2.9006045E+00;0;  2.6553366E-02;  3.9828012E+04;  0.0000000E+00;  6.3402071E+00;  4.0000000E+04;  0.0000000E+00;  4.0008633E+04;  2.7387917E-02;  0.0000000E+00; -8.3455164E-04;  1.0343035E+04;
  2.5115794E-01;  9.9999998E-03; -2.6002285E-01;3975;  4.4183657E-03;  0.0000000E+00;  3.0760028E-04;  9.9820026E+02;  1.0000000E-01; -1.4910690E+03;3; -3.3216362E+00;  0.0000000E+00; -3.2414052E-01;0;  2.6771178E-02;  3.9860809E+04;  0.0000000E+00;  6.9382377E+00;  4.0000000E+04;  0.0000000E+00;  4.0005746E+04;  2.6971202E-02;  0.0000000E+00; -2.0002396E-04;  1.0845241E+04;
  2.5106204E-01;  9.9999998E-03; -2.5001651E-01;3976;  4.3974635E-03;  0.0000000E+00;  2.3703717E-04;  9.9843250E+02;  1.0000000E-01; -1.2986299E+03;3; -3.0363634E+00;  0.0000000E+00; -1.8649710E+00;0;  2.7599286E-02;  3.9879414E+04;  0.0000000E+00;  6.5005841E+00;  4.0000000E+04;  0.0000000E+00;  4.0004059E+04;  2.7250074E-02;  0.0000000E+00;  3.4921151E-04;  9.8993096E+03;
  2.5099388E-01;  9.9999998E-03; -2.3999885E-01;3977;  4.6853242E-03;  0.0000000E+00;  1.9327116E-04;  9.9855621E+02;  1.0000000E-01; -1.1961637E+03;3; -2.4235528E+00;  0.0000000E+00; -2.2480605E+00;0;  2.8491618E-02;  3.9887578E+04;  0.0000000E+00;  5.1065421E+00;  4.0000000E+04;  0.0000000E+00;  4.0003879E+04;  2.7935620E-02;  0.0000000E+00;  5.5599818E-04;  7.6896724E+03;
  2.5100145E-01;  9.9999998E-03; -2.2996505E-01;3978;  5.8564753E-03;  0.0000000E+00;  4.9841590E-04;  9.9861737E+02;  1.0000000E-01; -1.1454984E+03;3; -1.5516193E+00;  0.0000000E+00; -1.9445324E+00;0;  2.8683254E-02;  3.9889195E+04;  0.0000000E+00;  3.4051251E+00;  4.0000000E+04;  0.0000000E+00;  4.0004957E+04;  2.8936924E-02;  0.0000000E+00; -2.5366948E-04;  5.1410122E+03;
  2.5106627E-01;  9.9999998E-03; -2.1993193E-01;3979;  7.4310731E-03;  0.0000000E+00;  1.0097297E-03;  9.9861761E+02;  1.0000000E-01; -1.1453009E+03;3; -7.1633863E-01;  0.0000000E+00; -1.2856985E+00;0;  2.8895397E-02;  3.9888895E+04;  0.0000000E+00;  2.0488930E+00;  4.0000000E+04;  0.0000000E+00;  4.0003223E+04;  2.9827645E-02;  0.0000000E+00; -9.3224866E-04;  3.1017261E+03;
  2.5113362E-01;  9.9999998E-03; -2.0993507E-01;3980;  8.0847275E-03;  0.0000000E+00;  1.0196293E-03;  9.9858466E+02;  1.0000000E-01; -1.1726088E+03;3; -7.2605640E-02;  0.0000000E+00; -6.5636480E-01;0;  2.9805576E-02;  3.9889910E+04;  0.0000000E+00;  1.1732658E+00;  4.0000000E+04;  0.0000000E+00;  3.9997664E+04;  3.0469596E-02;  0.0000000E+00; -6.6402031E-04;  1.7553707E+03;
  2.5122923E-01;  9.9999998E-03; -1.9995740E-01;3981;  8.3704069E-03;  0.0000000E+00;  9.1283111E-04;  9.9858636E+02;  1.0000000E-01; -1.1711768E+03;3;  3.2730764E-01;  0.0000000E+00; -2.4069916E-01;0;  3.0601429E-02;  3.9892188E+04;  0.0000000E+00;  6.8155748E-01;  4.0000000E+04;  0.0000000E+00;  3.9994375E+04;  3.1132763E-02;  0.0000000E+00; -5.3133391E-04;  1.1646588E+03;
  2.5134784E-01;  9.9999998E-03; -1.8998468E-01;3982;  8.5515501E-03;  0.0000000E+00;  8.1018807E-04;  9.9863464E+02;  1.0000000E-01; -1.1311779E+03;3;  5.7613933E-01;  0.0000000E+00;  1.4597135E-02;0;  3.1288657E-02;  3.9896227E+04;  0.0000000E+00;  4.8044750E-01;  4.0000000E+04;  0.0000000E+00;  3.9993070E+04;  3.1876877E-02;  0.0000000E+00; -5.8821787E-04;  1.0251321E+03;
  2.5148743E-01;  9.9999998E-03; -1.8000463E-01;3983;  8.6686732E-03;  0.0000000E+00;  7.2269305E-04;  9.9871893E+02;  1.0000000E-01; -1.0613527E+03;3;  7.1305960E-01;  0.0000000E+00;  1.5287128E-01;0;  3.1961478E-02;  3.9902438E+04;  0.0000000E+00;  4.5440623E-01;  4.0000000E+04;  0.0000000E+00;  3.9993156E+04;  3.2704424E-02;  0.0000000E+00; -7.4294664E-04;  1.0078372E+03;
  2.5164077E-01;  9.9999998E-03; -1.7001007E-01;3984;  8.7308260E-03;  0.0000000E+00;  6.5634149E-04;  9.9883008E+02;  1.0000000E-01; -9.6925653E+02;3;  7.8018224E-01;  0.0000000E+00;  2.1016763E-01;0;  3.2675203E-02;  3.9910871E+04;  0.0000000E+00;  4.9399999E-01;  4.0000000E+04;  0.0000000E+00;  3.9993258E+04;  3.3607628E-02;  0.0000000E+00; -9.3242613E-04;  1.0385195E+03;
  2.5178432E-01;  9.9999998E-03; -1.6000117E-01;3985;  8.7525863E-03;  0.0000000E+00;  6.0890085E-04;  9.9895685E+02;  1.0000000E-01; -8.6422247E+02;3;  8.1533289E-01;  0.0000000E+00;  2.1977392E-01;0;  3.3455353E-02;  3.9921078E+04;  0.0000000E+00;  5.2033198E-01;  4.0000000E+04;  0.0000000E+00;  3.9993547E+04;  3.4574624E-02;  0.0000000E+00; -1.1192726E-03;  1.0817131E+03;
  2.5186998E-01;  9.9999998E-03; -1.4998759E-01;3986;  8.7492196E-03;  0.0000000E+00;  5.7221943E-04;  9.9910156E+02;  1.0000000E-01; -7.4432465E+02;3;  8.3939612E-01;  0.0000000E+00;  2.1015818E-01;0;  3.4306794E-02;  3.9932695E+04;  0.0000000E+00;  5.0032556E-01;  4.0000000E+04;  0.0000000E+00;  3.9992621E+04;  3.5590854E-02;  0.0000000E+00; -1.2840600E-03;  1.1057471E+03;
  2.5187197E-01;  9.9999998E-03; -1.3997835E-01;3987;  8.7293508E-03;  0.0000000E+00;  5.4282229E-04;  9.9924274E+02;  1.0000000E-01; -6.2738965E+02;3;  8.5720259E-01;  0.0000000E+00;  1.9784769E-01;0;  3.5209477E-02;  3.9944852E+04;  0.0000000E+00;  4.4119924E-01;  4.0000000E+04;  0.0000000E+00;  3.9992215E+04;  3.6629084E-02;  0.0000000E+00; -1.4196082E-03;  1.1156094E+03;
  2.5182027E-01;  9.9999998E-03; -1.2997703E-01;3988;  8.6563388E-03;  0.0000000E+00;  5.0418417E-04;  9.9937744E+02;  1.0000000E-01; -5.1578790E+02;3;  8.4161323E-01;  0.0000000E+00;  1.8085283E-01;0;  3.6114730E-02;  3.9956660E+04;  0.0000000E+00;  3.6437622E-01;  4.0000000E+04;  0.0000000E+00;  3.9991648E+04;  3.7642445E-02;  0.0000000E+00; -1.5277150E-03;  1.1335050E+03;
  2.5174358E-01;  9.9999998E-03; -1.1998070E-01;3989;  8.3729271E-03;  0.0000000E+00;  4.5199061E-04;  9.9949323E+02;  1.0000000E-01; -4.1983997E+02;3;  7.5737154E-01;  0.0000000E+00;  1.7062435E-01;0;  3.6967918E-02;  3.9966891E+04;  0.0000000E+00;  2.8740624E-01;  4.0000000E+04;  0.0000000E+00;  3.9990828E+04;  3.8579915E-02;  0.0000000E+00; -1.6119971E-03;  1.1716075E+03;
  2.5166675E-01;  9.9999998E-03; -1.0998753E-01;3990;  7.7019734E-03;  0.0000000E+00;  4.0423748E-04;  9.9958319E+02;  1.0000000E-01; -3.4532358E+02;3;  6.2222570E-01;  0.0000000E+00;  1.6266909E-01;0;  3.7724677E-02;  3.9974672E+04;  0.0000000E+00;  2.2054295E-01;  4.0000000E+04;  0.0000000E+00;  3.9990312E+04;  3.9397992E-02;  0.0000000E+00; -1.6733147E-03;  1.2285745E+03;
  2.6120996E-01;  9.9999998E-03; -2.7000448E-01;4035;  4.6778559E-03;  0.0000000E+00;  4.6768493E-04;  9.9823322E+02;  1.0000000E-01; -1.4637611E+03;3; -4.2620916E+00;  0.0000000E+00;  7.4747455E-01;0;  2.6418634E-02;  3.9859582E+04;  0.0000000E+00;  4.5051131E+00;  4.0000000E+04;  0.0000000E+00;  4.0011441E+04;  2.7867865E-02;  0.0000000E+00; -1.4492318E-03;  7.5707339E+03;
  2.6114586E-01;  9.9999998E-03; -2.6000199E-01;4036;  4.5629186E-03;  0.0000000E+00;  4.0675714E-04;  9.9840521E+02;  1.0000000E-01; -1.3212466E+03;3; -3.4751749E+00;  0.0000000E+00; -1.1617531E+00;0;  2.7024154E-02;  3.9873984E+04;  0.0000000E+00;  4.8311558E+00;  4.0000000E+04;  0.0000000E+00;  4.0009988E+04;  2.7640369E-02;  0.0000000E+00; -6.1621552E-04;  7.7218545E+03;
  2.6106945E-01;  9.9999998E-03; -2.4999262E-01;4037;  4.7475677E-03;  0.0000000E+00;  3.5112165E-04;  9.9849176E+02;  1.0000000E-01; -1.2495449E+03;3; -2.6855669E+00;  0.0000000E+00; -1.9039475E+00;0;  2.7818164E-02;  3.9879902E+04;  0.0000000E+00;  4.6042881E+00;  4.0000000E+04;  0.0000000E+00;  4.0008926E+04;  2.7866755E-02;  0.0000000E+00; -4.8590708E-05;  7.1495386E+03;
  2.6101795E-01;  9.9999998E-03; -2.3997007E-01;4038;  5.4608397E-03;  0.0000000E+00;  4.1552584E-04;  9.9852893E+02;  1.0000000E-01; -1.2187310E+03;3; -1.8129082E+00;  0.0000000E+00; -1.9246662E+00;0;  2.8157469E-02;  3.9879648E+04;  0.0000000E+00;  3.6424146E+00;  4.0000000E+04;  0.0000000E+00;  4.0009766E+04;  2.8349519E-02;  0.0000000E+00; -1.9204922E-04;  5.6661162E+03;
  2.6103735E-01;  9.9999998E-03; -2.2993059E-01;4039;  6.8450337E-03;  0.0000000E+00;  8.1745489E-04;  9.9854224E+02;  1.0000000E-01; -1.2077189E+03;3; -9.4920605E-01;  0.0000000E+00; -1.5141760E+00;0;  2.7719285E-02;  3.9876387E+04;  0.0000000E+00;  2.4550653E+00;  4.0000000E+04;  0.0000000E+00;  4.0011676E+04;  2.8865019E-02;  0.0000000E+00; -1.1457343E-03;  4.0165239E+03;
  2.6108918E-01;  9.9999998E-03; -2.1990800E-01;4040;  7.8383069E-03;  0.0000000E+00;  1.0382468E-03;  9.9848981E+02;  1.0000000E-01; -1.2511744E+03;3; -2.6547596E-01;  0.0000000E+00; -8.9509016E-01;0;  2.7960498E-02;  3.9874332E+04;  0.0000000E+00;  1.5749474E+00;  4.0000000E+04;  0.0000000E+00;  4.0008035E+04;  2.9139346E-02;  0.0000000E+00; -1.1788475E-03;  2.6072375E+03;
  2.6117501E-01;  9.9999998E-03; -2.0991850E-01;4041;  8.1968168E-03;  0.0000000E+00;  9.6540392E-04;  9.9844507E+02;  1.0000000E-01; -1.2882104E+03;3;  1.7091051E-01;  0.0000000E+00; -4.1149053E-01;0;  2.8500559E-02;  3.9874828E+04;  0.0000000E+00;  1.0311720E+00;  4.0000000E+04;  0.0000000E+00;  4.0001816E+04;  2.9349059E-02;  0.0000000E+00; -8.4850012E-04;  1.5765001E+03;
  2.6129717E-01;  9.9999998E-03; -1.9994301E-01;4042;  8.4240604E-03;  0.0000000E+00;  8.6034345E-04;  9.9846283E+02;  1.0000000E-01; -1.2734949E+03;3;  4.6800214E-01;  0.0000000E+00; -1.0423315E-01;0;  2.8894911E-02;  3.9878508E+04;  0.0000000E+00;  7.6203865E-01;  4.0000000E+04;  0.0000000E+00;  3.9998086E+04;  2.9655660E-02;  0.0000000E+00; -7.6074898E-04;  1.1252000E+03;
  2.6144409E-01;  9.9999998E-03; -1.8996476E-01;4043;  8.5822204E-03;  0.0000000E+00;  7.6107366E-04;  9.9854529E+02;  1.0000000E-01; -1.2052004E+03;3;  6.4996231E-01;  0.0000000E+00;  7.4778587E-02;0;  2.9248904E-02;  3.9885910E+04;  0.0000000E+00;  6.7460853E-01;  4.0000000E+04;  0.0000000E+00;  3.9996754E+04;  3.0095380E-02;  0.0000000E+00; -8.4647443E-04;  1.0175609E+03;
  2.6160353E-01;  9.9999998E-03; -1.7997606E-01;4044;  8.6850906E-03;  0.0000000E+00;  6.8734924E-04;  9.9867639E+02;  1.0000000E-01; -1.0965615E+03;3;  7.4711168E-01;  0.0000000E+00;  1.6527405E-01;0;  2.9664792E-02;  3.9896199E+04;  0.0000000E+00;  6.7138028E-01;  4.0000000E+04;  0.0000000E+00;  3.9996445E+04;  3.0684074E-02;  0.0000000E+00; -1.0192820E-03;  1.0224680E+03;
  2.6175731E-01;  9.9999998E-03; -1.6997586E-01;4045;  8.7427264E-03;  0.0000000E+00;  6.3388783E-04;  9.9883783E+02;  1.0000000E-01; -9.6283698E+02;3;  7.9660368E-01;  0.0000000E+00;  1.9567961E-01;0;  3.0206161E-02;  3.9909086E+04;  0.0000000E+00;  6.7336607E-01;  4.0000000E+04;  0.0000000E+00;  3.9995973E+04;  3.1423688E-02;  0.0000000E+00; -1.2175271E-03;  1.0384285E+03;
  2.6187915E-01;  9.9999998E-03; -1.5997002E-01;4046;  8.7677799E-03;  0.0000000E+00;  5.9276441E-04;  9.9901392E+02;  1.0000000E-01; -8.1696454E+02;3;  8.2485408E-01;  0.0000000E+00;  1.9593415E-01;0;  3.0894257E-02;  3.9923297E+04;  0.0000000E+00;  6.3620085E-01;  4.0000000E+04;  0.0000000E+00;  3.9995602E+04;  3.2302704E-02;  0.0000000E+00; -1.4084459E-03;  1.0190233E+03;
  2.6193967E-01;  9.9999998E-03; -1.4996631E-01;4047;  8.7735448E-03;  0.0000000E+00;  5.6161976E-04;  9.9918671E+02;  1.0000000E-01; -6.7380811E+02;3;  8.4795278E-01;  0.0000000E+00;  1.8771529E-01;0;  3.1719226E-02;  3.9938133E+04;  0.0000000E+00;  5.5570519E-01;  4.0000000E+04;  0.0000000E+00;  3.9994938E+04;  3.3294927E-02;  0.0000000E+00; -1.5757008E-03;  9.6956299E+02;
  2.6192221E-01;  9.9999998E-03; -1.3996586E-01;4048;  8.7740337E-03;  0.0000000E+00;  5.3487299E-04;  9.9934320E+02;  1.0000000E-01; -5.4413275E+02;3;  8.6975706E-01;  0.0000000E+00;  1.7750217E-01;0;  3.2643966E-02;  3.9951914E+04;  0.0000000E+00;  4.5303112E-01;  4.0000000E+04;  0.0000000E+00;  3.9994238E+04;  3.4356758E-02;  0.0000000E+00; -1.7127916E-03;  9.2889142E+02;
  2.6184386E-01;  9.9999998E-03; -1.2996899E-01;4049;  8.7796133E-03;  0.0000000E+00;  5.1088544E-04;  9.9947638E+02;  1.0000000E-01; -4.3381488E+02;3;  8.8862711E-01;  0.0000000E+00;  1.6712682E-01;0;  3.3602376E-02;  3.9963586E+04;  0.0000000E+00;  3.4975320E-01;  4.0000000E+04;  0.0000000E+00;  3.9993488E+04;  3.5422318E-02;  0.0000000E+00; -1.8199431E-03;  9.2687640E+02;
  2.6174733E-01;  9.9999998E-03; -1.1997634E-01;4050;  8.7895580E-03;  0.0000000E+00;  4.8231092E-04;  9.9957257E+02;  1.0000000E-01; -3.5411343E+02;3;  8.9913762E-01;  0.0000000E+00;  1.5420467E-01;0;  3.4511972E-02;  3.9972516E+04;  0.0000000E+00;  2.5983641E-01;  4.0000000E+04;  0.0000000E+00;  3.9992590E+04;  3.6411326E-02;  0.0000000E+00; -1.8993530E-03;  9.6598529E+02;
  2.6165289E-01;  9.9999998E-03; -1.0998490E-01;4051;  8.8128671E-03;  0.0000000E+00;  4.4885965E-04;  9.9963037E+02;  1.0000000E-01; -3.0621356E+02;3;  9.0440530E-01;  0.0000000E+00;  1.4069091E-01;0;  3.5303582E-02;  3.9978281E+04;  0.0000000E+00;  1.8922974E-01;  4.0000000E+04;  0.0000000E+00;  3.9992129E+04;  3.7255086E-02;  0.0000000E+00; -1.9515038E-03;  1.0280583E+03;
  2.7114001E-01;  9.9999998E-03; -2.6999244E-01;4096;  4.6864077E-03;  0.0000000E+00;  5.1858369E-04;  9.9856189E+02;  1.0000000E-01; -1.1914231E+03;3; -4.2348790E+00;  0.0000000E+00; -4.2340159E-01;0;  2.7112124E-02;  3.9885762E+04;  0.0000000E+00;  3.4703040E+00;  4.0000000E+04;  0.0000000E+00;  4.0012883E+04;  2.8812617E-02;  0.0000000E+00; -1.7004933E-03;  5.9375430E+03;
  2.7109134E-01;  9.9999998E-03; -2.5998810E-01;4097;  4.7122804E-03;  0.0000000E+00;  4.4098723E-04;  9.9857874E+02;  1.0000000E-01; -1.1774976E+03;3; -3.0876212E+00;  0.0000000E+00; -1.4102038E+00;0;  2.7854318E-02;  3.9886375E+04;  0.0000000E+00;  3.5196183E+00;  4.0000000E+04;  0.0000000E+00;  4.0012188E+04;  2.8565723E-02;  0.0000000E+00; -7.1140646E-04;  5.7820962E+03;
  2.7104223E-01;  9.9999998E-03; -2.4997725E-01;4098;  5.1226807E-03;  0.0000000E+00;  4.0189002E-04;  9.9855707E+02;  1.0000000E-01; -1.1954230E+03;3; -2.0923123E+00;  0.0000000E+00; -1.6547204E+00;0;  2.8281825E-02;  3.9881832E+04;  0.0000000E+00;  3.1610708E+00;  4.0000000E+04;  0.0000000E+00;  4.0012184E+04;  2.8557919E-02;  0.0000000E+00; -2.7609483E-04;  5.1371904E+03;
  2.7102381E-01;  9.9999998E-03; -2.3995340E-01;4099;  6.0621062E-03;  0.0000000E+00;  5.3318444E-04;  9.9852820E+02;  1.0000000E-01; -1.2193729E+03;3; -1.2104828E+00;  0.0000000E+00; -1.4738500E+00;0;  2.7862698E-02;  3.9875301E+04;  0.0000000E+00;  2.4134641E+00;  4.0000000E+04;  0.0000000E+00;  4.0014172E+04;  2.8603023E-02;  0.0000000E+00; -7.4032549E-04;  4.1350151E+03;
  2.7106407E-01;  9.9999998E-03; -2.2991757E-01;4100;  7.3180660E-03;  0.0000000E+00;  8.7986403E-04;  9.9849811E+02;  1.0000000E-01; -1.2443105E+03;3; -4.6975851E-01;  0.0000000E+00; -1.0531449E+00;0;  2.6988242E-02;  3.9869355E+04;  0.0000000E+00;  1.6641843E+00;  4.0000000E+04;  0.0000000E+00;  4.0015770E+04;  2.8521372E-02;  0.0000000E+00; -1.5331298E-03;  3.2608557E+03;
  2.7114135E-01;  9.9999998E-03; -2.1990453E-01;4101;  7.9362039E-03;  0.0000000E+00;  9.5006905E-04;  9.9843311E+02;  1.0000000E-01; -1.2981361E+03;3;  4.0870037E-02;  0.0000000E+00; -5.5871600E-01;0;  2.6954135E-02;  3.9866777E+04;  0.0000000E+00;  1.1769334E+00;  4.0000000E+04;  0.0000000E+00;  4.0010520E+04;  2.8259020E-02;  0.0000000E+00; -1.3048854E-03;  2.2979377E+03;
  2.7125534E-01;  9.9999998E-03; -2.0991945E-01;4102;  8.2204286E-03;  0.0000000E+00;  8.7639864E-04;  9.9839960E+02;  1.0000000E-01; -1.3258884E+03;3;  3.6543453E-01;  0.0000000E+00; -2.1143794E-01;0;  2.6989508E-02;  3.9868812E+04;  0.0000000E+00;  9.2380792E-01;  4.0000000E+04;  0.0000000E+00;  4.0004879E+04;  2.8035445E-02;  0.0000000E+00; -1.0459373E-03;  1.5509523E+03;
  2.7139547E-01;  9.9999998E-03; -1.9994166E-01;4103;  8.4174126E-03;  0.0000000E+00;  7.8144023E-04;  9.9845728E+02;  1.0000000E-01; -1.2781367E+03;3;  5.7987761E-01;  0.0000000E+00; -1.9515946E-03;0;  2.6944358E-02;  3.9875191E+04;  0.0000000E+00;  8.2980913E-01;  4.0000000E+04;  0.0000000E+00;  4.0001195E+04;  2.7948597E-02;  0.0000000E+00; -1.0042387E-03;  1.2521882E+03;
  2.7154714E-01;  9.9999998E-03; -1.8995775E-01;4104;  8.5577313E-03;  0.0000000E+00;  7.0034340E-04;  9.9858765E+02;  1.0000000E-01; -1.1700903E+03;3;  7.0410460E-01;  0.0000000E+00;  1.1435485E-01;0;  2.6933867E-02;  3.9886172E+04;  0.0000000E+00;  8.1119829E-01;  4.0000000E+04;  0.0000000E+00;  3.9999934E+04;  2.8044621E-02;  0.0000000E+00; -1.1107526E-03;  1.1821902E+03;
  2.7169278E-01;  9.9999998E-03; -1.7996462E-01;4105;  8.6498158E-03;  0.0000000E+00;  6.4012333E-04;  9.9876819E+02;  1.0000000E-01; -1.0205143E+03;3;  7.6978827E-01;  0.0000000E+00;  1.6481514E-01;0;  2.7066231E-02;  3.9900758E+04;  0.0000000E+00;  7.9932892E-01;  4.0000000E+04;  0.0000000E+00;  3.9999551E+04;  2.8350949E-02;  0.0000000E+00; -1.2847185E-03;  1.1514934E+03;
  2.7181476E-01;  9.9999998E-03; -1.6996409E-01;4106;  8.7073743E-03;  0.0000000E+00;  5.9609493E-04;  9.9896973E+02;  1.0000000E-01; -8.5355609E+02;3;  8.0705988E-01;  0.0000000E+00;  1.7692690E-01;0;  2.7398078E-02;  3.9917254E+04;  0.0000000E+00;  7.5092721E-01;  4.0000000E+04;  0.0000000E+00;  3.9998980E+04;  2.8873885E-02;  0.0000000E+00; -1.4758065E-03;  1.0779233E+03;
  2.7189544E-01;  9.9999998E-03; -1.5996273E-01;4107;  8.7386118E-03;  0.0000000E+00;  5.6206103E-04;  9.9917517E+02;  1.0000000E-01; -6.8333868E+02;3;  8.3210987E-01;  0.0000000E+00;  1.7200574E-01;0;  2.7939238E-02;  3.9934637E+04;  0.0000000E+00;  6.5528959E-01;  4.0000000E+04;  0.0000000E+00;  3.9997965E+04;  2.9596914E-02;  0.0000000E+00; -1.6576750E-03;  9.4994696E+02;
  2.7192432E-01;  9.9999998E-03; -1.4996529E-01;4108;  8.7562725E-03;  0.0000000E+00;  5.3382828E-04;  9.9936603E+02;  1.0000000E-01; -5.2521973E+02;3;  8.5532385E-01;  0.0000000E+00;  1.6374867E-01;0;  2.8661907E-02;  3.9950926E+04;  0.0000000E+00;  5.2989215E-01;  4.0000000E+04;  0.0000000E+00;  3.9997113E+04;  3.0479060E-02;  0.0000000E+00; -1.8171538E-03;  8.0793207E+02;
  2.7189437E-01;  9.9999998E-03; -1.3997002E-01;4109;  8.7724859E-03;  0.0000000E+00;  5.0921337E-04;  9.9951953E+02;  1.0000000E-01; -3.9806281E+02;3;  8.7708044E-01;  0.0000000E+00;  1.5535393E-01;0;  2.9511316E-02;  3.9965059E+04;  0.0000000E+00;  4.0053016E-01;  4.0000000E+04;  0.0000000E+00;  3.9996262E+04;  3.1459883E-02;  0.0000000E+00; -1.9485663E-03;  7.1118451E+02;
  2.7182069E-01;  9.9999998E-03; -1.2997557E-01;4110;  8.7965978E-03;  0.0000000E+00;  4.8422933E-04;  9.9963007E+02;  1.0000000E-01; -3.0646048E+02;3;  8.9794326E-01;  0.0000000E+00;  1.4683376E-01;0;  3.0408474E-02;  3.9975258E+04;  0.0000000E+00;  2.8519547E-01;  4.0000000E+04;  0.0000000E+00;  3.9995309E+04;  3.2459076E-02;  0.0000000E+00; -2.0506028E-03;  6.9462793E+02;
  2.7173018E-01;  9.9999998E-03; -1.1998208E-01;4111;  8.8350158E-03;  0.0000000E+00;  4.5652615E-04;  9.9969794E+02;  1.0000000E-01; -2.5026453E+02;3;  9.1778135E-01;  0.0000000E+00;  1.3747989E-01;0;  3.1263180E-02;  3.9981699E+04;  0.0000000E+00;  1.9356550E-01;  4.0000000E+04;  0.0000000E+00;  3.9994414E+04;  3.3386715E-02;  0.0000000E+00; -2.1235365E-03;  7.4340576E+02;
  2.7164727E-01;  9.9999998E-03; -1.0998877E-01;4112;  8.8893995E-03;  0.0000000E+00;  4.2493708E-04;  9.9971429E+02;  1.0000000E-01; -2.3668466E+02;3;  9.3573350E-01;  0.0000000E+00;  1.2758015E-01;0;  3.1991575E-02;  3.9984055E+04;  0.0000000E+00;  1.2760025E-01;  4.0000000E+04;  0.0000000E+00;  3.9993500E+04;  3.4158964E-02;  0.0000000E+00; -2.1673904E-03;  8.1464044E+02;
  2.8105402E-01;  9.9999998E-03; -2.6998475E-01;4157;  4.6970374E-03;  0.0000000E+00;  5.1745458E-04;  9.9876965E+02;  1.0000000E-01; -1.0193292E+03;3; -3.5529208E+00;  0.0000000E+00; -8.7349516E-01;0;  2.8956814E-02;  3.9902449E+04;  0.0000000E+00;  2.7209322E+00;  4.0000000E+04;  0.0000000E+00;  4.0013191E+04;  3.0474806E-02;  0.0000000E+00; -1.5179918E-03;  4.7278721E+03;
  2.8102690E-01;  9.9999998E-03; -2.5997987E-01;4158;  4.8655104E-03;  0.0000000E+00;  4.3383878E-04;  9.9868298E+02;  1.0000000E-01; -1.0911296E+03;3; -2.3929975E+00;  0.0000000E+00; -1.2732025E+00;0;  2.9430179E-02;  3.9893758E+04;  0.0000000E+00;  2.4375615E+00;  4.0000000E+04;  0.0000000E+00;  4.0013406E+04;  3.0023759E-02;  0.0000000E+00; -5.9358095E-04;  4.2307012E+03;
  2.8102148E-01;  9.9999998E-03; -2.4996907E-01;4159;  5.4854327E-03;  0.0000000E+00;  4.2026912E-04;  9.9859058E+02;  1.0000000E-01; -1.1676707E+03;3; -1.4272455E+00;  0.0000000E+00; -1.2431533E+00;0;  2.9171988E-02;  3.9882871E+04;  0.0000000E+00;  1.9368681E+00;  4.0000000E+04;  0.0000000E+00;  4.0014121E+04;  2.9628227E-02;  0.0000000E+00; -4.5623735E-04;  3.5605137E+03;
  2.8105533E-01;  9.9999998E-03; -2.3994736E-01;4160;  6.5192599E-03;  0.0000000E+00;  5.7510723E-04;  9.9853119E+02;  1.0000000E-01; -1.2169038E+03;3; -6.2990564E-01;  0.0000000E+00; -9.7964084E-01;0;  2.8006874E-02;  3.9873324E+04;  0.0000000E+00;  1.4106803E+00;  4.0000000E+04;  0.0000000E+00;  4.0016496E+04;  2.9128540E-02;  0.0000000E+00; -1.1216663E-03;  3.0812883E+03;
  2.8113389E-01;  9.9999998E-03; -2.2991881E-01;4161;  7.5218934E-03;  0.0000000E+00;  8.2154357E-04;  9.9849121E+02;  1.0000000E-01; -1.2499894E+03;3; -8.2956925E-02;  0.0000000E+00; -6.3549447E-01;0;  2.6773579E-02;  3.9867254E+04;  0.0000000E+00;  1.0541573E+00;  4.0000000E+04;  0.0000000E+00;  4.0017332E+04;  2.8452016E-02;  0.0000000E+00; -1.6784363E-03;  2.7853628E+03;
  2.8122985E-01;  9.9999998E-03; -2.1991444E-01;4162;  7.9534901E-03;  0.0000000E+00;  8.3916530E-04;  9.9843719E+02;  1.0000000E-01; -1.2947782E+03;3;  2.8423408E-01;  0.0000000E+00; -2.8818673E-01;0;  2.6253156E-02;  3.9866117E+04;  0.0000000E+00;  9.0033203E-01;  4.0000000E+04;  0.0000000E+00;  4.0012012E+04;  2.7694643E-02;  0.0000000E+00; -1.4414862E-03;  2.1211626E+03;
  2.8135422E-01;  9.9999998E-03; -2.0993099E-01;4163;  8.1968792E-03;  0.0000000E+00;  7.7337713E-04;  9.9844916E+02;  1.0000000E-01; -1.2848525E+03;3;  5.1563424E-01;  0.0000000E+00; -6.1960135E-02;0;  2.5766622E-02;  3.9870859E+04;  0.0000000E+00;  8.5991544E-01;  4.0000000E+04;  0.0000000E+00;  4.0006734E+04;  2.7030028E-02;  0.0000000E+00; -1.2634057E-03;  1.6041663E+03;
  2.8149107E-01;  9.9999998E-03; -1.9995032E-01;4164;  8.3715990E-03;  0.0000000E+00;  6.9262885E-04;  9.9855341E+02;  1.0000000E-01; -1.1984846E+03;3;  6.5922886E-01;  0.0000000E+00;  6.7718595E-02;0;  2.5280843E-02;  3.9880969E+04;  0.0000000E+00;  8.6703140E-01;  4.0000000E+04;  0.0000000E+00;  4.0003793E+04;  2.6540386E-02;  0.0000000E+00; -1.2595437E-03;  1.4136393E+03;
  2.8162372E-01;  9.9999998E-03; -1.8996356E-01;4165;  8.4981471E-03;  0.0000000E+00;  6.2823086E-04;  9.9873260E+02;  1.0000000E-01; -1.0499950E+03;3;  7.4045187E-01;  0.0000000E+00;  1.3182166E-01;0;  2.4908450E-02;  3.9895555E+04;  0.0000000E+00;  8.6534023E-01;  4.0000000E+04;  0.0000000E+00;  4.0002801E+04;  2.6280627E-02;  0.0000000E+00; -1.3721769E-03;  1.3393596E+03;
  2.8173733E-01;  9.9999998E-03; -1.7996818E-01;4166;  8.5868984E-03;  0.0000000E+00;  5.8230030E-04;  9.9895215E+02;  1.0000000E-01; -8.6812360E+02;3;  7.8458607E-01;  0.0000000E+00;  1.5467404E-01;0;  2.4749875E-02;  3.9913406E+04;  0.0000000E+00;  8.1993479E-01;  4.0000000E+04;  0.0000000E+00;  4.0002121E+04;  2.6283495E-02;  0.0000000E+00; -1.5336195E-03;  1.2377377E+03;
  2.8181323E-01;  9.9999998E-03; -1.6996861E-01;4167;  8.6466465E-03;  0.0000000E+00;  5.4935209E-04;  9.9918225E+02;  1.0000000E-01; -6.7751172E+02;3;  8.1292826E-01;  0.0000000E+00;  1.5555973E-01;0;  2.4851425E-02;  3.9932902E+04;  0.0000000E+00;  7.2110343E-01;  4.0000000E+04;  0.0000000E+00;  4.0001516E+04;  2.6556525E-02;  0.0000000E+00; -1.7051012E-03;  1.0649104E+03;
  2.8185239E-01;  9.9999998E-03; -1.5997052E-01;4168;  8.6866356E-03;  0.0000000E+00;  5.2292331E-04;  9.9940173E+02;  1.0000000E-01; -4.9564029E+02;3;  8.3728552E-01;  0.0000000E+00;  1.4936650E-01;0;  2.5207415E-02;  3.9951699E+04;  0.0000000E+00;  5.8349025E-01;  4.0000000E+04;  0.0000000E+00;  4.0000141E+04;  2.7074877E-02;  0.0000000E+00; -1.8674611E-03;  8.4192474E+02;
  2.8185490E-01;  9.9999998E-03; -1.4997624E-01;4169;  8.7165236E-03;  0.0000000E+00;  4.9874769E-04;  9.9958740E+02;  1.0000000E-01; -3.4181750E+02;3;  8.6032474E-01;  0.0000000E+00;  1.4171433E-01;0;  2.5774907E-02;  3.9968316E+04;  0.0000000E+00;  4.3466443E-01;  4.0000000E+04;  0.0000000E+00;  3.9999148E+04;  2.7785741E-02;  0.0000000E+00; -2.0108339E-03;  6.2480029E+02;
  2.8181967E-01;  9.9999998E-03; -1.3998234E-01;4170;  8.7470692E-03;  0.0000000E+00;  4.7520275E-04;  9.9972980E+02;  1.0000000E-01; -2.2384552E+02;3;  8.8220072E-01;  0.0000000E+00;  1.3454287E-01;0;  2.6485348E-02;  3.9981219E+04;  0.0000000E+00;  2.9712817E-01;  4.0000000E+04;  0.0000000E+00;  3.9998008E+04;  2.8615242E-02;  0.0000000E+00; -2.1298935E-03;  4.8487299E+02;
  2.8175527E-01;  9.9999998E-03; -1.2998681E-01;4171;  8.7855356E-03;  0.0000000E+00;  4.4993212E-04;  9.9981134E+02;  1.0000000E-01; -1.5629187E+02;3;  9.0365571E-01;  0.0000000E+00;  1.2740178E-01;0;  2.7252905E-02;  3.9989191E+04;  0.0000000E+00;  1.8429089E-01;  4.0000000E+04;  0.0000000E+00;  3.9996758E+04;  2.9474709E-02;  0.0000000E+00; -2.2218046E-03;  4.7429996E+02;
  2.8168470E-01;  9.9999998E-03; -1.1999110E-01;4172;  8.8377567E-03;  0.0000000E+00;  4.2125396E-04;  9.9983752E+02;  1.0000000E-01; -1.3461348E+02;3;  9.2524838E-01;  0.0000000E+00;  1.1991074E-01;0;  2.7982797E-02;  3.9992457E+04;  0.0000000E+00;  1.0165703E-01;  4.0000000E+04;  0.0000000E+00;  3.9995695E+04;  3.0268149E-02;  0.0000000E+00; -2.2853517E-03;  5.4914978E+02;
  2.8162271E-01;  9.9999998E-03; -1.0999442E-01;4173;  8.9038657E-03;  0.0000000E+00;  3.8837641E-04;  9.9981287E+02;  1.0000000E-01; -1.5505734E+02;3;  9.4567662E-01;  0.0000000E+00;  1.1130362E-01;0;  2.8590122E-02;  3.9991270E+04;  0.0000000E+00;  4.7964051E-02;  4.0000000E+04;  0.0000000E+00;  3.9994812E+04;  3.0909887E-02;  0.0000000E+00; -2.3197636E-03;  6.3102655E+02;
  2.9098564E-01;  9.9999998E-03; -2.6998040E-01;4218;  4.7296821E-03;  0.0000000E+00;  4.8360013E-04;  9.9884576E+02;  1.0000000E-01; -9.5626923E+02;3; -2.5549374E+00;  0.0000000E+00; -8.5790884E-01;0;  3.1997010E-02;  3.9908562E+04;  0.0000000E+00;  1.7650158E+00;  4.0000000E+04;  0.0000000E+00;  4.0013164E+04;  3.3034269E-02;  0.0000000E+00; -1.0372594E-03;  3.3410144E+03;
  2.9100183E-01;  9.9999998E-03; -2.5997588E-01;4219;  5.0651073E-03;  0.0000000E+00;  3.9523217E-04;  9.9870630E+02;  1.0000000E-01; -1.0718215E+03;3; -1.5408493E+00;  0.0000000E+00; -9.3589109E-01;0;  3.1946659E-02;  3.9894996E+04;  0.0000000E+00;  1.2995989E+00;  4.0000000E+04;  0.0000000E+00;  4.0013762E+04;  3.2243039E-02;  0.0000000E+00; -2.9638188E-04;  2.7789597E+03;
  2.9106495E-01;  9.9999998E-03; -2.4996658E-01;4220;  5.8521638E-03;  0.0000000E+00;  4.2324202E-04;  9.9859039E+02;  1.0000000E-01; -1.1678188E+03;3; -7.3000884E-01;  0.0000000E+00; -7.8300267E-01;0;  3.0708054E-02;  3.9882195E+04;  0.0000000E+00;  8.6835384E-01;  4.0000000E+04;  0.0000000E+00;  4.0014762E+04;  3.1360272E-02;  0.0000000E+00; -6.5221841E-04;  2.4473875E+03;
  2.9113686E-01;  9.9999998E-03; -2.3994945E-01;4221;  6.8096016E-03;  0.0000000E+00;  5.5620016E-04;  9.9853607E+02;  1.0000000E-01; -1.2128546E+03;3; -1.6432571E-01;  0.0000000E+00; -5.5361927E-01;0;  2.8939046E-02;  3.9873414E+04;  0.0000000E+00;  7.1379483E-01;  4.0000000E+04;  0.0000000E+00;  4.0016906E+04;  3.0281324E-02;  0.0000000E+00; -1.3422787E-03;  2.5200552E+03;
  2.9121879E-01;  9.9999998E-03; -2.2992960E-01;4222;  7.5840773E-03;  0.0000000E+00;  7.1339071E-04;  9.9851880E+02;  1.0000000E-01; -1.2271257E+03;3;  2.2160088E-01;  0.0000000E+00; -3.1228098E-01;0;  2.7325973E-02;  3.9869719E+04;  0.0000000E+00;  7.0540607E-01;  4.0000000E+04;  0.0000000E+00;  4.0016953E+04;  2.9061873E-02;  0.0000000E+00; -1.7358988E-03;  2.5067744E+03;
  2.9132009E-01;  9.9999998E-03; -2.1993062E-01;4223;  7.9322681E-03;  0.0000000E+00;  7.1659999E-04;  9.9850861E+02;  1.0000000E-01; -1.2355699E+03;3;  4.6417573E-01;  0.0000000E+00; -9.6518993E-02;0;  2.6248932E-02;  3.9871785E+04;  0.0000000E+00;  7.5941825E-01;  4.0000000E+04;  0.0000000E+00;  4.0012578E+04;  2.7841756E-02;  0.0000000E+00; -1.5928242E-03;  2.0328107E+03;
  2.9143581E-01;  9.9999998E-03; -2.0994756E-01;4224;  8.1467591E-03;  0.0000000E+00;  6.6136901E-04;  9.9857172E+02;  1.0000000E-01; -1.1833246E+03;3;  6.1748147E-01;  0.0000000E+00;  3.3640310E-02;0;  2.5259765E-02;  3.9879688E+04;  0.0000000E+00;  8.2332045E-01;  4.0000000E+04;  0.0000000E+00;  4.0008695E+04;  2.6753843E-02;  0.0000000E+00; -1.4940774E-03;  1.6643369E+03;
  2.9155263E-01;  9.9999998E-03; -1.9996531E-01;4225;  8.3051547E-03;  0.0000000E+00;  5.9804996E-04;  9.9872314E+02;  1.0000000E-01; -1.0578467E+03;3;  7.1084464E-01;  0.0000000E+00;  1.0352319E-01;0;  2.4358641E-02;  3.9893191E+04;  0.0000000E+00;  8.5468251E-01;  4.0000000E+04;  0.0000000E+00;  4.0006242E+04;  2.5879115E-02;  0.0000000E+00; -1.5204737E-03;  1.5105819E+03;
  2.9165936E-01;  9.9999998E-03; -1.8997580E-01;4226;  8.4243249E-03;  0.0000000E+00;  5.5065169E-04;  9.9894037E+02;  1.0000000E-01; -8.7790112E+02;3;  7.6215476E-01;  0.0000000E+00;  1.3180983E-01;0;  2.3647523E-02;  3.9911020E+04;  0.0000000E+00;  8.2812583E-01;  4.0000000E+04;  0.0000000E+00;  4.0005098E+04;  2.5275387E-02;  0.0000000E+00; -1.6278637E-03;  1.3956801E+03;
  2.9173154E-01;  9.9999998E-03; -1.7998049E-01;4227;  8.5129635E-03;  0.0000000E+00;  5.1856227E-04;  9.9918408E+02;  1.0000000E-01; -6.7598090E+02;3;  7.9373872E-01;  0.0000000E+00;  1.3758025E-01;0;  2.3211546E-02;  3.9931289E+04;  0.0000000E+00;  7.3895359E-01;  4.0000000E+04;  0.0000000E+00;  4.0004352E+04;  2.4977295E-02;  0.0000000E+00; -1.7657487E-03;  1.2173656E+03;
  2.9176494E-01;  9.9999998E-03; -1.6998178E-01;4228;  8.5778916E-03;  0.0000000E+00;  4.9511867E-04;  9.9942792E+02;  1.0000000E-01; -4.7396191E+02;3;  8.1723559E-01;  0.0000000E+00;  1.3336332E-01;0;  2.3080727E-02;  3.9951770E+04;  0.0000000E+00;  6.0184538E-01;  4.0000000E+04;  0.0000000E+00;  4.0003301E+04;  2.4988903E-02;  0.0000000E+00; -1.9081761E-03;  9.6917749E+02;
  2.9177171E-01;  9.9999998E-03; -1.5998559E-01;4229;  8.6272536E-03;  0.0000000E+00;  4.7493863E-04;  9.9964722E+02;  1.0000000E-01; -2.9228802E+02;3;  8.4020138E-01;  0.0000000E+00;  1.2719728E-01;0;  2.3236543E-02;  3.9970586E+04;  0.0000000E+00;  4.4450277E-01;  4.0000000E+04;  0.0000000E+00;  4.0001805E+04;  2.5279747E-02;  0.0000000E+00; -2.0432048E-03;  6.8702539E+02;
  2.9175618E-01;  9.9999998E-03; -1.4999163E-01;4230;  8.6694295E-03;  0.0000000E+00;  4.5490614E-04;  9.9981824E+02;  1.0000000E-01; -1.5056364E+02;3;  8.6244243E-01;  0.0000000E+00;  1.2084973E-01;0;  2.3625482E-02;  3.9986340E+04;  0.0000000E+00;  2.9325530E-01;  4.0000000E+04;  0.0000000E+00;  4.0000367E+04;  2.5789363E-02;  0.0000000E+00; -2.1638805E-03;  4.2386154E+02;
  2.9171759E-01;  9.9999998E-03; -1.3999698E-01;4231;  8.7123038E-03;  0.0000000E+00;  4.3307981E-04;  9.9992767E+02;  1.0000000E-01; -5.9899540E+01;3;  8.8491786E-01;  0.0000000E+00;  1.1475880E-01;0;  2.4170648E-02;  3.9997184E+04;  0.0000000E+00;  1.6425385E-01;  4.0000000E+04;  0.0000000E+00;  3.9999117E+04;  2.6435478E-02;  0.0000000E+00; -2.2648303E-03;  2.6656104E+02;
  2.9166463E-01;  9.9999998E-03; -1.3000017E-01;4232;  8.7623121E-03;  0.0000000E+00;  4.0823541E-04;  9.9997931E+02;  1.0000000E-01; -1.7135319E+01;3;  9.0692669E-01;  0.0000000E+00;  1.0878703E-01;0;  2.4780862E-02;  4.0002434E+04;  0.0000000E+00;  6.6453576E-02;  4.0000000E+04;  0.0000000E+00;  3.9997672E+04;  2.7122920E-02;  0.0000000E+00; -2.3420583E-03;  3.1138702E+02;
  2.9161212E-01;  9.9999998E-03; -1.2000167E-01;4233;  8.8236714E-03;  0.0000000E+00;  3.7937885E-04;  9.9996570E+02;  1.0000000E-01; -2.8394258E+01;3;  9.2965156E-01;  0.0000000E+00;  1.0215397E-01;0;  2.5362158E-02;  4.0002766E+04;  0.0000000E+00;  1.6978250E-03;  4.0000000E+04;  0.0000000E+00;  3.9996691E+04;  2.7755169E-02;  0.0000000E+00; -2.3930103E-03;  4.2721616E+02;
  2.9156929E-01;  9.9999998E-03; -1.1000054E-01;4234;  8.8957585E-03;  0.0000000E+00;  3.4646358E-04;  9.9990344E+02;  1.0000000E-01; -7.9997734E+01;3;  9.5185959E-01;  0.0000000E+00;  9.5518515E-02;0;  2.5831465E-02;  3.9998387E+04;  0.0000000E+00; -3.3730034E-02;  4.0000000E+04;  0.0000000E+00;  3.9996113E+04;  2.8247751E-02;  0.0000000E+00; -2.4162871E-03;  5.0893451E+02;
  3.0097693E-01;  9.9999998E-03; -2.6997879E-01;4279;  4.8276996E-03;  0.0000000E+00;  4.3405904E-04;  9.9882361E+02;  1.0000000E-01; -9.7463910E+02;3; -1.5294218E+00;  0.0000000E+00; -6.1259383E-01;0;  3.6127593E-02;  3.9905984E+04;  0.0000000E+00;  6.1289734E-01;  4.0000000E+04;  0.0000000E+00;  4.0013348E+04;  3.6539074E-02;  0.0000000E+00; -4.1148096E-04;  2.0390023E+03;
  3.0101120E-01;  9.9999998E-03; -2.5997540E-01;4280;  5.3783171E-03;  0.0000000E+00;  3.8216973E-04;  9.9868933E+02;  1.0000000E-01; -1.0858458E+03;3; -7.2289193E-01;  0.0000000E+00; -5.3397924E-01;0;  3.5028316E-02;  3.9892773E+04;  0.0000000E+00;  4.7581741E-01;  4.0000000E+04;  0.0000000E+00;  4.0013738E+04;  3.5308521E-02;  0.0000000E+00; -2.8020475E-04;  2.0072939E+03;
  3.0110675E-01;  9.9999998E-03; -2.4996875E-01;4281;  6.2211594E-03;  0.0000000E+00;  4.2864683E-04;  9.9859369E+02;  1.0000000E-01; -1.1651029E+03;3; -1.5247142E-01;  0.0000000E+00; -3.8715172E-01;0;  3.2947730E-02;  3.9881883E+04;  0.0000000E+00;  3.5650542E-01;  4.0000000E+04;  0.0000000E+00;  4.0015230E+04;  3.3890635E-02;  0.0000000E+00; -9.4290322E-04;  2.0834443E+03;
  3.0120173E-01;  9.9999998E-03; -2.3995721E-01;4282;  6.9916956E-03;  0.0000000E+00;  4.9760821E-04;  9.9856183E+02;  1.0000000E-01; -1.1915219E+03;3;  2.0104066E-01;  0.0000000E+00; -2.3594216E-01;0;  3.0830618E-02;  3.9876062E+04;  0.0000000E+00;  4.3682900E-01;  4.0000000E+04;  0.0000000E+00;  4.0016578E+04;  3.2275137E-02;  0.0000000E+00; -1.4445194E-03;  2.2756621E+03;
  3.0129251E-01;  9.9999998E-03; -2.2994526E-01;4283;  7.5783147E-03;  0.0000000E+00;  5.8498204E-04;  9.9857977E+02;  1.0000000E-01; -1.1766086E+03;3;  4.3174610E-01;  0.0000000E+00; -9.7089656E-02;0;  2.8817615E-02;  3.9875793E+04;  0.0000000E+00;  5.8025575E-01;  4.0000000E+04;  0.0000000E+00;  4.0016027E+04;  3.0582497E-02;  0.0000000E+00; -1.7648829E-03;  2.3011245E+03;
  3.0138674E-01;  9.9999998E-03; -2.1995053E-01;4284;  7.8911968E-03;  0.0000000E+00;  5.9251388E-04;  9.9862158E+02;  1.0000000E-01; -1.1419924E+03;3;  5.8352882E-01;  0.0000000E+00;  1.8933624E-02;0;  2.7185453E-02;  3.9881492E+04;  0.0000000E+00;  7.0681065E-01;  4.0000000E+04;  0.0000000E+00;  4.0012371E+04;  2.8947944E-02;  0.0000000E+00; -1.7624899E-03;  1.9456177E+03;
  3.0148545E-01;  9.9999998E-03; -2.0996752E-01;4285;  8.0811931E-03;  0.0000000E+00;  5.4754742E-04;  9.9873590E+02;  1.0000000E-01; -1.0472791E+03;3;  6.8101948E-01;  0.0000000E+00;  8.1393689E-02;0;  2.5748422E-02;  3.9893055E+04;  0.0000000E+00;  7.7902794E-01;  4.0000000E+04;  0.0000000E+00;  4.0008762E+04;  2.7483379E-02;  0.0000000E+00; -1.7349572E-03;  1.6598378E+03;
  3.0157828E-01;  9.9999998E-03; -1.9998266E-01;4286;  8.2311491E-03;  0.0000000E+00;  5.0148426E-04;  9.9892987E+02;  1.0000000E-01; -8.8659222E+02;3;  7.3734152E-01;  0.0000000E+00;  1.1093950E-01;0;  2.4484877E-02;  3.9909297E+04;  0.0000000E+00;  7.7999038E-01;  4.0000000E+04;  0.0000000E+00;  4.0007453E+04;  2.6268125E-02;  0.0000000E+00; -1.7832484E-03;  1.5023009E+03;
  3.0164891E-01;  9.9999998E-03; -1.8999134E-01;4287;  8.3476929E-03;  0.0000000E+00;  4.7009025E-04;  9.9917273E+02;  1.0000000E-01; -6.8536334E+02;3;  7.7334201E-01;  0.0000000E+00;  1.1842442E-01;0;  2.3482610E-02;  3.9929078E+04;  0.0000000E+00;  7.0896584E-01;  4.0000000E+04;  0.0000000E+00;  4.0006238E+04;  2.5359297E-02;  0.0000000E+00; -1.8766881E-03;  1.3330265E+03;
  3.0168447E-01;  9.9999998E-03; -1.7999604E-01;4288;  8.4380740E-03;  0.0000000E+00;  4.4955444E-04;  9.9942834E+02;  1.0000000E-01; -4.7361624E+02;3;  7.9766393E-01;  0.0000000E+00;  1.1572953E-01;0;  2.2804771E-02;  3.9950246E+04;  0.0000000E+00;  5.8185053E-01;  4.0000000E+04;  0.0000000E+00;  4.0005172E+04;  2.4788389E-02;  0.0000000E+00; -1.9836184E-03;  1.0952544E+03;
  3.0168810E-01;  9.9999998E-03; -1.6999789E-01;4289;  8.5097635E-03;  0.0000000E+00;  4.3411742E-04;  9.9966516E+02;  1.0000000E-01; -2.7742426E+02;3;  8.2002455E-01;  0.0000000E+00;  1.1074610E-01;0;  2.2464689E-02;  3.9970902E+04;  0.0000000E+00;  4.2623410E-01;  4.0000000E+04;  0.0000000E+00;  4.0003863E+04;  2.4555730E-02;  0.0000000E+00; -2.0910399E-03;  8.0580426E+02;
  3.0167294E-01;  9.9999998E-03; -1.6000149E-01;4290;  8.5686734E-03;  0.0000000E+00;  4.1928038E-04;  9.9986542E+02;  1.0000000E-01; -1.1150302E+02;3;  8.4220600E-01;  0.0000000E+00;  1.0605273E-01;0;  2.2434181E-02;  3.9988754E+04;  0.0000000E+00;  2.7058700E-01;  4.0000000E+04;  0.0000000E+00;  4.0002754E+04;  2.4627762E-02;  0.0000000E+00; -2.1935815E-03;  4.9991931E+02;
  3.0164540E-01;  9.9999998E-03; -1.5000668E-01;4291;  8.6222934E-03;  0.0000000E+00;  4.0251933E-04;  1.0000140E+03;  1.0000000E-01;  1.1653992E+01;3;  8.6544961E-01;  0.0000000E+00;  1.0112918E-01;0;  2.2652680E-02;  4.0002414E+04;  0.0000000E+00;  1.3346019E-01;  4.0000000E+04;  0.0000000E+00;  4.0000898E+04;  2.4939442E-02;  0.0000000E+00; -2.2867615E-03;  2.1515915E+02;
  3.0160776E-01;  9.9999998E-03; -1.4001037E-01;4292;  8.6770402E-03;  0.0000000E+00;  3.8278490E-04;  1.0000928E+03;  1.0000000E-01;  7.6837334E+01;3;  8.8829541E-01;  0.0000000E+00;  9.5818184E-02;0;  2.3038004E-02;  4.0010492E+04;  0.0000000E+00;  2.5755096E-02;  4.0000000E+04;  0.0000000E+00;  3.9999355E+04;  2.5403401E-02;  0.0000000E+00; -2.3653966E-03;  1.0788969E+02;
  3.0156794E-01;  9.9999998E-03; -1.3001163E-01;4293;  8.7372493E-03;  0.0000000E+00;  3.5918775E-04;  1.0001083E+03;  1.0000000E-01;  8.9676476E+01;3;  9.1013539E-01;  0.0000000E+00;  9.0832345E-02;0;  2.3497067E-02;  4.0013324E+04;  0.0000000E+00; -4.7816180E-02;  4.0000000E+04;  0.0000000E+00;  3.9997770E+04;  2.5921617E-02;  0.0000000E+00; -2.4245500E-03;  2.7618271E+02;
  3.0153504E-01;  9.9999998E-03; -1.2001039E-01;4294;  8.8049024E-03;  0.0000000E+00;  3.3124685E-04;  1.0000663E+03;  1.0000000E-01;  5.5010788E+01;3;  9.3336451E-01;  0.0000000E+00;  8.5150316E-02;0;  2.3937888E-02;  4.0011203E+04;  0.0000000E+00; -8.8598244E-02;  4.0000000E+04;  0.0000000E+00;  3.9996938E+04;  2.6398491E-02;  0.0000000E+00; -2.4606036E-03;  4.0096609E+02;
  3.0151612E-01;  9.9999998E-03; -1.1000641E-01;4295;  8.8792024E-03;  0.0000000E+00;  2.9945688E-04;  9.9997852E+02;  1.0000000E-01; -1.7777275E+01;3;  9.5538300E-01;  0.0000000E+00;  7.9398774E-02;0;  2.4280479E-02;  4.0004215E+04;  0.0000000E+00; -1.0224617E-01;  4.0000000E+04;  0.0000000E+00;  3.9996555E+04;  2.6752133E-02;  0.0000000E+00; -2.4716533E-03;  4.5423886E+02;
  3.1099883E-01;  9.9999998E-03; -2.6997924E-01;4340;  5.0956574E-03;  0.0000000E+00;  4.0068058E-04;  9.9875604E+02;  1.0000000E-01; -1.0305881E+03;3; -5.8223826E-01;  0.0000000E+00; -2.7827278E-01;0;  4.0867507E-02;  3.9899879E+04;  0.0000000E+00; -3.7809901E-02;  4.0000000E+04;  0.0000000E+00;  4.0012676E+04;  4.0832449E-02;  0.0000000E+00;  3.5056903E-05;  1.7264624E+03;
  3.1104261E-01;  9.9999998E-03; -2.5997734E-01;4341;  5.8578970E-03;  0.0000000E+00;  4.3112348E-04;  9.9865521E+02;  1.0000000E-01; -1.1141414E+03;3; -4.5628916E-02;  0.0000000E+00; -1.9131409E-01;0;  3.8261939E-02;  3.9889473E+04;  0.0000000E+00;  1.1380526E-01;  4.0000000E+04;  0.0000000E+00;  4.0013746E+04;  3.9119340E-02;  0.0000000E+00; -8.5740181E-04;  1.8310642E+03;
  3.1116131E-01;  9.9999998E-03; -2.4997382E-01;4342;  6.5745441E-03;  0.0000000E+00;  4.4366592E-04;  9.9859900E+02;  1.0000000E-01; -1.1607079E+03;3;  2.5479108E-01;  0.0000000E+00; -1.1848935E-01;0;  3.5860866E-02;  3.9882527E+04;  0.0000000E+00;  2.1574081E-01;  4.0000000E+04;  0.0000000E+00;  4.0014223E+04;  3.7200995E-02;  0.0000000E+00; -1.3401274E-03;  1.9507974E+03;
  3.1127739E-01;  9.9999998E-03; -2.3996818E-01;4343;  7.1238177E-03;  0.0000000E+00;  4.3528888E-04;  9.9860577E+02;  1.0000000E-01; -1.1550785E+03;3;  4.4001094E-01;  0.0000000E+00; -3.9392039E-02;0;  3.3590779E-02;  3.9880637E+04;  0.0000000E+00;  3.9326349E-01;  4.0000000E+04;  0.0000000E+00;  4.0014789E+04;  3.5144128E-02;  0.0000000E+00; -1.5533511E-03;  2.0760337E+03;
  3.1136426E-01;  9.9999998E-03; -2.2996376E-01;4344;  7.5514191E-03;  0.0000000E+00;  4.6096760E-04;  9.9866376E+02;  1.0000000E-01; -1.1070304E+03;3;  5.6611991E-01;  0.0000000E+00;  2.3213262E-02;0;  3.1249557E-02;  3.9884445E+04;  0.0000000E+00;  5.6614387E-01;  4.0000000E+04;  0.0000000E+00;  4.0014199E+04;  3.3066366E-02;  0.0000000E+00; -1.8168089E-03;  2.0713276E+03;
  3.1144047E-01;  9.9999998E-03; -2.1997309E-01;4345;  7.8391209E-03;  0.0000000E+00;  4.7230939E-04;  9.9875702E+02;  1.0000000E-01; -1.0297981E+03;3;  6.5800607E-01;  0.0000000E+00;  7.0658565E-02;0;  2.9148171E-02;  3.9893816E+04;  0.0000000E+00;  6.7279458E-01;  4.0000000E+04;  0.0000000E+00;  4.0011094E+04;  3.1093838E-02;  0.0000000E+00; -1.9456678E-03;  1.7876316E+03;
  3.1151196E-01;  9.9999998E-03; -2.0998895E-01;4346;  8.0151707E-03;  0.0000000E+00;  4.3811119E-04;  9.9891595E+02;  1.0000000E-01; -8.9809808E+02;3;  7.1482128E-01;  0.0000000E+00;  9.3323678E-02;0;  2.7345048E-02;  3.9908059E+04;  0.0000000E+00;  6.9888932E-01;  4.0000000E+04;  0.0000000E+00;  4.0008598E+04;  2.9327907E-02;  0.0000000E+00; -1.9828589E-03;  1.5568915E+03;
  3.1156963E-01;  9.9999998E-03; -2.0000102E-01;4347;  8.1573827E-03;  0.0000000E+00;  4.0684815E-04;  9.9913873E+02;  1.0000000E-01; -7.1356006E+02;3;  7.4796295E-01;  0.0000000E+00;  1.0208282E-01;0;  2.5798732E-02;  3.9926328E+04;  0.0000000E+00;  6.4734083E-01;  4.0000000E+04;  0.0000000E+00;  4.0007344E+04;  2.7843617E-02;  0.0000000E+00; -2.0448850E-03;  1.3844816E+03;
  3.1160298E-01;  9.9999998E-03; -1.9000781E-01;4348;  8.2738325E-03;  0.0000000E+00;  3.8800578E-04;  9.9938806E+02;  1.0000000E-01; -5.0699802E+02;3;  7.7824163E-01;  0.0000000E+00;  9.9580951E-02;0;  2.4575759E-02;  3.9946812E+04;  0.0000000E+00;  5.3428370E-01;  4.0000000E+04;  0.0000000E+00;  4.0006371E+04;  2.6694434E-02;  0.0000000E+00; -2.1186748E-03;  1.1749198E+03;
  3.1161165E-01;  9.9999998E-03; -1.8001111E-01;4349;  8.3681261E-03;  0.0000000E+00;  3.7694926E-04;  9.9963495E+02;  1.0000000E-01; -3.0246057E+02;3;  8.0051357E-01;  0.0000000E+00;  9.5043823E-02;0;  2.3716692E-02;  3.9967582E+04;  0.0000000E+00;  3.8638407E-01;  4.0000000E+04;  0.0000000E+00;  4.0005430E+04;  2.5908010E-02;  0.0000000E+00; -2.1913175E-03;  9.0913464E+02;
  3.1159818E-01;  9.9999998E-03; -1.7001241E-01;4350;  8.4471116E-03;  0.0000000E+00;  3.6766948E-04;  9.9985718E+02;  1.0000000E-01; -1.1831764E+02;3;  8.2250577E-01;  0.0000000E+00;  9.0892687E-02;0;  2.3218641E-02;  3.9986879E+04;  0.0000000E+00;  2.3258843E-01;  4.0000000E+04;  0.0000000E+00;  4.0004109E+04;  2.5479764E-02;  0.0000000E+00; -2.2611234E-03;  6.1173035E+02;
  3.1157058E-01;  9.9999998E-03; -1.6001518E-01;4351;  8.5162604E-03;  0.0000000E+00;  3.5685991E-04;  1.0000328E+03;  1.0000000E-01;  2.7159725E+01;3;  8.4507793E-01;  0.0000000E+00;  8.6747117E-02;0;  2.3044091E-02;  4.0002715E+04;  0.0000000E+00;  9.3635261E-02;  4.0000000E+04;  0.0000000E+00;  4.0002398E+04;  2.5372704E-02;  0.0000000E+00; -2.3286147E-03;  3.1346198E+02;
  3.1153724E-01;  9.9999998E-03; -1.5001880E-01;4352;  8.5808653E-03;  0.0000000E+00;  3.4296431E-04;  1.0001442E+03;  1.0000000E-01;  1.1940403E+02;3;  8.6787051E-01;  0.0000000E+00;  8.1970714E-02;0;  2.3128033E-02;  4.0013930E+04;  0.0000000E+00; -1.8336711E-02;  4.0000000E+04;  0.0000000E+00;  4.0000496E+04;  2.5519779E-02;  0.0000000E+00; -2.3917453E-03;  6.2471634E+01;
  3.1150556E-01;  9.9999998E-03; -1.4002013E-01;4353;  8.6458493E-03;  0.0000000E+00;  3.2523193E-04;  1.0001963E+03;  1.0000000E-01;  1.6266206E+02;3;  8.9077026E-01;  0.0000000E+00;  7.7298932E-02;0;  2.3386454E-02;  4.0019719E+04;  0.0000000E+00; -9.6873134E-02;  4.0000000E+04;  0.0000000E+00;  3.9999027E+04;  2.5832303E-02;  0.0000000E+00; -2.4458494E-03;  1.9910631E+02;
  3.1148151E-01;  9.9999998E-03; -1.3001832E-01;4354;  8.7143146E-03;  0.0000000E+00;  3.0338319E-04;  1.0001879E+03;  1.0000000E-01;  1.5564992E+02;3;  9.1263169E-01;  0.0000000E+00;  7.3311150E-02;0;  2.3726866E-02;  4.0020254E+04;  0.0000000E+00; -1.4120817E-01;  4.0000000E+04;  0.0000000E+00;  3.9997777E+04;  2.6212202E-02;  0.0000000E+00; -2.4853365E-03;  3.5471140E+02;
  3.1147343E-01;  9.9999998E-03; -1.2001339E-01;4355;  8.7870890E-03;  0.0000000E+00;  2.7739120E-04;  1.0001304E+03;  1.0000000E-01;  1.0804633E+02;3;  9.3586969E-01;  0.0000000E+00;  6.8656109E-02;0;  2.4060514E-02;  4.0016168E+04;  0.0000000E+00; -1.5549892E-01;  4.0000000E+04;  0.0000000E+00;  3.9997250E+04;  2.6566247E-02;  0.0000000E+00; -2.5057336E-03;  4.3563602E+02;
  3.1148854E-01;  9.9999998E-03; -1.1000417E-01;4356;  8.8623082E-03;  0.0000000E+00;  2.4799336E-04;  1.0000331E+03;  1.0000000E-01;  2.7456013E+01;3;  9.5933467E-01;  0.0000000E+00;  6.3746430E-02;0;  2.4311841E-02;  4.0008598E+04;  0.0000000E+00; -1.4700933E-01;  4.0000000E+04;  0.0000000E+00;  3.9996867E+04;  2.6816584E-02;  0.0000000E+00; -2.5047441E-03;  4.3954343E+02;
  3.2153502E-01;  9.9999998E-03; -1.0999516E-01;4417;  8.8485945E-03;  0.0000000E+00;  1.9271647E-04;  1.0000659E+03;  1.0000000E-01;  5.4516975E+01;3;  9.6162403E-01;  0.0000000E+00;  4.8314460E-02;0;  2.6093109E-02;  4.0011367E+04;  0.0000000E+00; -1.6404498E-01;  4.0000000E+04;  0.0000000E+00;  3.9997383E+04;  2.8629851E-02;  0.0000000E+00; -2.5367418E-03;  4.2788193E+02;
  3.2147518E-01;  9.9999998E-03; -1.2000871E-01;4416;  8.7739201E-03;  0.0000000E+00;  2.1857429E-04;  1.0001544E+03;  1.0000000E-01;  1.2789761E+02;3;  9.3804419E-01;  0.0000000E+00;  5.2223682E-02;0;  2.5878150E-02;  4.0018652E+04;  0.0000000E+00; -1.9176228E-01;  4.0000000E+04;  0.0000000E+00;  3.9997141E+04;  2.8425904E-02;  0.0000000E+00; -2.5477530E-03;  4.7542413E+02;
  3.2143864E-01;  9.9999998E-03; -1.3002054E-01;4415;  8.6974353E-03;  0.0000000E+00;  2.4199084E-04;  1.0002186E+03;  1.0000000E-01;  1.8113068E+02;3;  9.1566616E-01;  0.0000000E+00;  5.6084987E-02;0;  2.5596300E-02;  4.0023359E+04;  0.0000000E+00; -2.0255589E-01;  4.0000000E+04;  0.0000000E+00;  3.9997707E+04;  2.8137915E-02;  0.0000000E+00; -2.5416149E-03;  4.4991827E+02;
  3.2143319E-01;  9.9999998E-03; -1.4002647E-01;4414;  8.6218659E-03;  0.0000000E+00;  2.6190208E-04;  1.0002441E+03;  1.0000000E-01;  2.0226588E+02;3;  8.9258969E-01;  0.0000000E+00;  5.9570860E-02;0;  2.5320660E-02;  4.0024086E+04;  0.0000000E+00; -1.8795940E-01;  4.0000000E+04;  0.0000000E+00;  3.9998367E+04;  2.7841706E-02;  0.0000000E+00; -2.5210457E-03;  3.5069073E+02;
  3.2144821E-01;  9.9999998E-03; -1.5002790E-01;4413;  8.5480558E-03;  0.0000000E+00;  2.7762324E-04;  1.0002148E+03;  1.0000000E-01;  1.7797028E+02;3;  8.7005699E-01;  0.0000000E+00;  6.2921956E-02;0;  2.5134034E-02;  4.0020398E+04;  0.0000000E+00; -1.4138050E-01;  4.0000000E+04;  0.0000000E+00;  3.9999789E+04;  2.7625272E-02;  0.0000000E+00; -2.4912367E-03;  2.0696425E+02;
  3.2147500E-01;  9.9999998E-03; -1.6002598E-01;4412;  8.4737120E-03;  0.0000000E+00;  2.8927918E-04;  1.0001295E+03;  1.0000000E-01;  1.0725623E+02;3;  8.4723598E-01;  0.0000000E+00;  6.7280233E-02;0;  2.5125330E-02;  4.0011742E+04;  0.0000000E+00; -5.9978504E-02;  4.0000000E+04;  0.0000000E+00;  4.0001629E+04;  2.7583437E-02;  0.0000000E+00; -2.4581070E-03;  2.0273146E+02;
  3.2150507E-01;  9.9999998E-03; -1.7002334E-01;4411;  8.3949352E-03;  0.0000000E+00;  2.9759962E-04;  9.9998651E+02;  1.0000000E-01; -1.1160178E+01;3;  8.2388818E-01;  0.0000000E+00;  7.1191609E-02;0;  2.5377933E-02;  3.9998578E+04;  0.0000000E+00;  5.3897843E-02;  4.0000000E+04;  0.0000000E+00;  4.0003492E+04;  2.7803449E-02;  0.0000000E+00; -2.4255165E-03;  4.3109161E+02;
  3.2152912E-01;  9.9999998E-03; -1.8002214E-01;4410;  8.3080856E-03;  0.0000000E+00;  3.0310906E-04;  9.9979645E+02;  1.0000000E-01; -1.6863721E+02;3;  8.0169553E-01;  0.0000000E+00;  7.4910037E-02;0;  2.5959827E-02;  3.9981367E+04;  0.0000000E+00;  1.9211628E-01;  4.0000000E+04;  0.0000000E+00;  4.0004922E+04;  2.8352823E-02;  0.0000000E+00; -2.3929952E-03;  7.0785754E+02;
  3.2154262E-01;  9.9999998E-03; -1.9002131E-01;4409;  8.2087684E-03;  0.0000000E+00;  3.0781701E-04;  9.9956616E+02;  1.0000000E-01; -3.5944662E+02;3;  7.7953053E-01;  0.0000000E+00;  7.8912154E-02;0;  2.6917951E-02;  3.9961980E+04;  0.0000000E+00;  3.4106991E-01;  4.0000000E+04;  0.0000000E+00;  4.0006078E+04;  2.9272715E-02;  0.0000000E+00; -2.3547634E-03;  9.7135956E+02;
  3.2154313E-01;  9.9999998E-03; -2.0001812E-01;4408;  8.0911312E-03;  0.0000000E+00;  3.1686554E-04;  9.9932056E+02;  1.0000000E-01; -5.6289764E+02;3;  7.5416726E-01;  0.0000000E+00;  8.6054914E-02;0;  2.8270904E-02;  3.9941859E+04;  0.0000000E+00;  4.7888839E-01;  4.0000000E+04;  0.0000000E+00;  4.0007305E+04;  3.0572891E-02;  0.0000000E+00; -2.3019875E-03;  1.1888077E+03;
  3.2153317E-01;  9.9999998E-03; -2.1001005E-01;4407;  7.9514552E-03;  0.0000000E+00;  3.3802722E-04;  9.9909082E+02;  1.0000000E-01; -7.5326263E+02;3;  7.2943896E-01;  0.0000000E+00;  8.9866474E-02;0;  3.0000078E-02;  3.9922836E+04;  0.0000000E+00;  5.7751268E-01;  4.0000000E+04;  0.0000000E+00;  4.0007691E+04;  3.2232840E-02;  0.0000000E+00; -2.2327628E-03;  1.3579357E+03;
  3.2150415E-01;  9.9999998E-03; -2.1999507E-01;4406;  7.7856956E-03;  0.0000000E+00;  3.6565683E-04;  9.9889825E+02;  1.0000000E-01; -9.1276428E+02;3;  6.9770283E-01;  0.0000000E+00;  8.9662790E-02;0;  3.2055859E-02;  3.9906734E+04;  0.0000000E+00;  6.1205673E-01;  4.0000000E+04;  0.0000000E+00;  4.0009574E+04;  3.4199864E-02;  0.0000000E+00; -2.1440068E-03;  1.5614556E+03;
  3.2145321E-01;  9.9999998E-03; -2.2998215E-01;4405;  7.5445501E-03;  0.0000000E+00;  3.6662802E-04;  9.9876306E+02;  1.0000000E-01; -1.0247611E+03;3;  6.5272868E-01;  0.0000000E+00;  8.5311599E-02;0;  3.4457300E-02;  3.9894672E+04;  0.0000000E+00;  5.6728327E-01;  4.0000000E+04;  0.0000000E+00;  4.0012242E+04;  3.6401875E-02;  0.0000000E+00; -1.9445770E-03;  1.8188647E+03;
  3.2137597E-01;  9.9999998E-03; -2.3998004E-01;4404;  7.2539337E-03;  0.0000000E+00;  3.9487472E-04;  9.9866443E+02;  1.0000000E-01; -1.1064872E+03;3;  5.9369785E-01;  0.0000000E+00;  6.6344164E-02;0;  3.6996301E-02;  3.9886910E+04;  0.0000000E+00;  4.4166380E-01;  4.0000000E+04;  0.0000000E+00;  4.0013102E+04;  3.8747005E-02;  0.0000000E+00; -1.7507033E-03;  1.8829481E+03;
  3.2126230E-01;  9.9999998E-03; -2.4998045E-01;4403;  6.8922061E-03;  0.0000000E+00;  4.5017517E-04;  9.9861816E+02;  1.0000000E-01; -1.1448071E+03;3;  5.0533682E-01;  0.0000000E+00;  3.4719538E-02;0;  3.9445270E-02;  3.9884305E+04;  0.0000000E+00;  2.5604910E-01;  4.0000000E+04;  0.0000000E+00;  4.0013719E+04;  4.1124165E-02;  0.0000000E+00; -1.6788936E-03;  1.8424967E+03;
  3.2113108E-01;  9.9999998E-03; -2.5998062E-01;4402;  6.4018262E-03;  0.0000000E+00;  4.8709771E-04;  9.9862775E+02;  1.0000000E-01; -1.1369061E+03;3;  3.7341034E-01;  0.0000000E+00;  3.9132759E-03;0;  4.1915830E-02;  3.9886598E+04;  0.0000000E+00;  4.9347177E-02;  4.0000000E+04;  0.0000000E+00;  4.0013582E+04;  4.3427501E-02;  0.0000000E+00; -1.5116705E-03;  1.8060002E+03;
  3.2106131E-01;  9.9999998E-03; -2.6998088E-01;4401;  5.7624662E-03;  0.0000000E+00;  5.0798792E-04;  9.9868286E+02;  1.0000000E-01; -1.0912284E+03;3;  1.6470079E-01;  0.0000000E+00; -6.2473356E-03;0;  4.4429671E-02;  3.9892781E+04;  0.0000000E+00; -2.1770984E-01;  4.0000000E+04;  0.0000000E+00;  4.0013094E+04;  4.5583557E-02;  0.0000000E+00; -1.1538867E-03;  1.7681501E+03;
  3.3111370E-01;  9.9999998E-03; -2.6998308E-01;4462;  6.5097376E-03;  0.0000000E+00;  5.9013325E-04;  9.9863123E+02;  1.0000000E-01; -1.1339927E+03;3;  5.4385287E-01;  0.0000000E+00;  1.1998608E-01;0;  4.8269283E-02;  3.9886613E+04;  0.0000000E+00; -2.5393976E-02;  4.0000000E+04;  0.0000000E+00;  4.0013555E+04;  5.0283797E-02;  0.0000000E+00; -2.0145131E-03;  1.8089512E+03;
  3.3120140E-01;  9.9999998E-03; -2.5998470E-01;4463;  6.9069332E-03;  0.0000000E+00;  5.3425523E-04;  9.9862305E+02;  1.0000000E-01; -1.1407578E+03;3;  6.0296923E-01;  0.0000000E+00;  1.0579106E-01;0;  4.5813791E-02;  3.9885102E+04;  0.0000000E+00;  2.1862675E-01;  4.0000000E+04;  0.0000000E+00;  4.0013277E+04;  4.7848232E-02;  0.0000000E+00; -2.0344418E-03;  1.8030707E+03;
  3.3132932E-01;  9.9999998E-03; -2.4998754E-01;4464;  7.2025028E-03;  0.0000000E+00;  4.7052774E-04;  9.9865411E+02;  1.0000000E-01; -1.1150302E+03;3;  6.4480293E-01;  0.0000000E+00;  1.0319088E-01;0;  4.3262482E-02;  3.9887496E+04;  0.0000000E+00;  3.9177242E-01;  4.0000000E+04;  0.0000000E+00;  4.0012098E+04;  4.5321785E-02;  0.0000000E+00; -2.0593046E-03;  1.7565299E+03;
  3.3143321E-01;  9.9999998E-03; -2.3999161E-01;4465;  7.4114646E-03;  0.0000000E+00;  3.8179944E-04;  9.9873969E+02;  1.0000000E-01; -1.0441680E+03;3;  6.7412907E-01;  0.0000000E+00;  9.9663712E-02;0;  4.0749013E-02;  3.9894051E+04;  0.0000000E+00;  5.0325906E-01;  4.0000000E+04;  0.0000000E+00;  4.0011293E+04;  4.2777766E-02;  0.0000000E+00; -2.0287535E-03;  1.6909170E+03;
  3.3149680E-01;  9.9999998E-03; -2.2999871E-01;4466;  7.5860899E-03;  0.0000000E+00;  3.1993800E-04;  9.9886652E+02;  1.0000000E-01; -9.3908453E+02;3;  7.0105278E-01;  0.0000000E+00;  9.3595259E-02;0;  3.8131468E-02;  3.9904578E+04;  0.0000000E+00;  5.4615444E-01;  4.0000000E+04;  0.0000000E+00;  4.0010059E+04;  4.0310375E-02;  0.0000000E+00; -2.1789090E-03;  1.5537731E+03;
  3.3153149E-01;  9.9999998E-03; -2.2001274E-01;4467;  7.7604041E-03;  0.0000000E+00;  2.8528602E-04;  9.9903210E+02;  1.0000000E-01; -8.0190326E+02;3;  7.2166348E-01;  0.0000000E+00;  8.6841218E-02;0;  3.5655703E-02;  3.9918730E+04;  0.0000000E+00;  5.1950407E-01;  4.0000000E+04;  0.0000000E+00;  4.0007863E+04;  3.8018815E-02;  0.0000000E+00; -2.3631130E-03;  1.3155972E+03;
  3.3154538E-01;  9.9999998E-03; -2.1002461E-01;4468;  7.9050846E-03;  0.0000000E+00;  2.4726824E-04;  9.9923730E+02;  1.0000000E-01; -6.3188336E+02;3;  7.3841834E-01;  0.0000000E+00;  7.7040687E-02;0;  3.3513512E-02;  3.9935750E+04;  0.0000000E+00;  4.3399882E-01;  4.0000000E+04;  0.0000000E+00;  4.0007148E+04;  3.5986785E-02;  0.0000000E+00; -2.4732719E-03;  1.1411949E+03;
  3.3153647E-01;  9.9999998E-03; -2.0002922E-01;4469;  8.0375671E-03;  0.0000000E+00;  2.3042610E-04;  9.9946661E+02;  1.0000000E-01; -4.4191342E+02;3;  7.6055753E-01;  0.0000000E+00;  6.6344254E-02;0;  3.1727888E-02;  3.9954301E+04;  0.0000000E+00;  3.0847168E-01;  4.0000000E+04;  0.0000000E+00;  4.0006711E+04;  3.4276895E-02;  0.0000000E+00; -2.5490092E-03;  9.8083960E+02;
  3.3150464E-01;  9.9999998E-03; -1.9002882E-01;4470;  8.1568584E-03;  0.0000000E+00;  2.2891007E-04;  9.9968518E+02;  1.0000000E-01; -2.6083212E+02;3;  7.8215230E-01;  0.0000000E+00;  6.1007448E-02;0;  3.0347656E-02;  3.9972871E+04;  0.0000000E+00;  1.6655454E-01;  4.0000000E+04;  0.0000000E+00;  4.0005738E+04;  3.2931875E-02;  0.0000000E+00; -2.5842197E-03;  7.7478143E+02;
  3.3146378E-01;  9.9999998E-03; -1.8002813E-01;4471;  8.2623819E-03;  0.0000000E+00;  2.2896421E-04;  9.9988538E+02;  1.0000000E-01; -9.4960274E+01;3;  8.0426800E-01;  0.0000000E+00;  5.7547931E-02;0;  2.9381100E-02;  3.9990223E+04;  0.0000000E+00;  2.9693400E-02;  4.0000000E+04;  0.0000000E+00;  4.0004176E+04;  3.1972669E-02;  0.0000000E+00; -2.5915699E-03;  5.3160095E+02;
  3.3142915E-01;  9.9999998E-03; -1.7002960E-01;4472;  8.3573023E-03;  0.0000000E+00;  2.2576193E-04;  1.0000507E+03;  1.0000000E-01;  4.1974121E+01;3;  8.2746410E-01;  0.0000000E+00;  5.3942095E-02;0;  2.8799923E-02;  4.0004680E+04;  0.0000000E+00; -8.6713083E-02;  4.0000000E+04;  0.0000000E+00;  4.0002559E+04;  3.1389870E-02;  0.0000000E+00; -2.5899471E-03;  3.1426535E+02;
  3.3140537E-01;  9.9999998E-03; -1.6003248E-01;4473;  8.4442273E-03;  0.0000000E+00;  2.1971820E-04;  1.0001596E+03;  1.0000000E-01;  1.3224318E+02;3;  8.5053283E-01;  0.0000000E+00;  4.9744543E-02;0;  2.8549373E-02;  4.0015559E+04;  0.0000000E+00; -1.7237641E-01;  4.0000000E+04;  0.0000000E+00;  4.0000578E+04;  3.1139899E-02;  0.0000000E+00; -2.5905257E-03;  2.5208923E+02;
  3.3140117E-01;  9.9999998E-03; -1.5003361E-01;4474;  8.5276496E-03;  0.0000000E+00;  2.0947219E-04;  1.0002233E+03;  1.0000000E-01;  1.8498242E+02;3;  8.7305444E-01;  0.0000000E+00;  4.6480756E-02;0;  2.8559145E-02;  4.0022340E+04;  0.0000000E+00; -2.2280024E-01;  4.0000000E+04;  0.0000000E+00;  3.9998914E+04;  3.1155564E-02;  0.0000000E+00; -2.5964193E-03;  3.5848773E+02;
  3.3142483E-01;  9.9999998E-03; -1.4002945E-01;4475;  8.6095231E-03;  0.0000000E+00;  1.9508391E-04;  1.0002384E+03;  1.0000000E-01;  1.9752528E+02;3;  8.9546031E-01;  0.0000000E+00;  4.3189902E-02;0;  2.8747786E-02;  4.0024605E+04;  0.0000000E+00; -2.3934346E-01;  4.0000000E+04;  0.0000000E+00;  3.9997750E+04;  3.1352703E-02;  0.0000000E+00; -2.6049172E-03;  4.6701721E+02;
  3.3147985E-01;  9.9999998E-03; -1.3001719E-01;4476;  8.6903134E-03;  0.0000000E+00;  1.7707350E-04;  1.0002134E+03;  1.0000000E-01;  1.7678513E+02;3;  9.1911149E-01;  0.0000000E+00;  3.9782561E-02;0;  2.9029749E-02;  4.0023355E+04;  0.0000000E+00; -2.2790670E-01;  4.0000000E+04;  0.0000000E+00;  3.9997102E+04;  3.1639703E-02;  0.0000000E+00; -2.6099542E-03;  5.1446124E+02;
  3.3155283E-01;  9.9999998E-03; -1.1999881E-01;4477;  8.7687764E-03;  0.0000000E+00;  1.5659671E-04;  1.0001631E+03;  1.0000000E-01;  1.3510728E+02;3;  9.4177043E-01;  0.0000000E+00;  3.6179155E-02;0;  2.9319946E-02;  4.0019297E+04;  0.0000000E+00; -1.9696717E-01;  4.0000000E+04;  0.0000000E+00;  3.9996922E+04;  3.1925511E-02;  0.0000000E+00; -2.6055640E-03;  4.8899689E+02;
  3.3162180E-01;  9.9999998E-03; -1.0998733E-01;4478;  8.8412492E-03;  0.0000000E+00;  1.3539658E-04;  1.0000989E+03;  1.0000000E-01;  8.1874229E+01;3;  9.6439677E-01;  0.0000000E+00;  3.3175915E-02;0;  2.9545099E-02;  4.0013449E+04;  0.0000000E+00; -1.5559018E-01;  4.0000000E+04;  0.0000000E+00;  3.9997398E+04;  3.2133687E-02;  0.0000000E+00; -2.5885894E-03;  3.9752026E+02;
  3.4118542E-01;  9.9999998E-03; -2.6998547E-01;4523;  7.2672525E-03;  0.0000000E+00;  6.5586733E-04;  9.9859991E+02;  1.0000000E-01; -1.1599672E+03;3;  7.5667775E-01;  0.0000000E+00;  1.7853266E-01;0;  5.1930349E-02;  3.9881719E+04;  0.0000000E+00;  1.7955811E-01;  4.0000000E+04;  0.0000000E+00;  4.0014273E+04;  5.4510947E-02;  0.0000000E+00; -2.5805996E-03;  1.8954177E+03;
  3.4126997E-01;  9.9999998E-03; -2.5998875E-01;4524;  7.4274400E-03;  0.0000000E+00;  5.9195020E-04;  9.9863348E+02;  1.0000000E-01; -1.1321161E+03;3;  7.4033999E-01;  0.0000000E+00;  1.4843622E-01;0;  4.9435541E-02;  3.9884492E+04;  0.0000000E+00;  3.5785511E-01;  4.0000000E+04;  0.0000000E+00;  4.0012902E+04;  5.1995438E-02;  0.0000000E+00; -2.5598963E-03;  1.8144983E+03;
  3.4138191E-01;  9.9999998E-03; -2.4999379E-01;4525;  7.5304755E-03;  0.0000000E+00;  5.0772214E-04;  9.9870270E+02;  1.0000000E-01; -1.0747844E+03;3;  7.3275423E-01;  0.0000000E+00;  1.2756784E-01;0;  4.6962537E-02;  3.9890797E+04;  0.0000000E+00;  4.6231282E-01;  4.0000000E+04;  0.0000000E+00;  4.0011535E+04;  4.9429670E-02;  0.0000000E+00; -2.4671338E-03;  1.6771224E+03;
  3.4146854E-01;  9.9999998E-03; -2.4000102E-01;4526;  7.6087005E-03;  0.0000000E+00;  4.0916589E-04;  9.9880756E+02;  1.0000000E-01; -9.8792267E+02;3;  7.3755634E-01;  0.0000000E+00;  1.1011014E-01;0;  4.4468932E-02;  3.9900668E+04;  0.0000000E+00;  5.0100976E-01;  4.0000000E+04;  0.0000000E+00;  4.0009938E+04;  4.6887979E-02;  0.0000000E+00; -2.4190459E-03;  1.5059285E+03;
  3.4151059E-01;  9.9999998E-03; -2.3001291E-01;4527;  7.7049979E-03;  0.0000000E+00;  3.2635569E-04;  9.9895331E+02;  1.0000000E-01; -8.6718536E+02;3;  7.3439687E-01;  0.0000000E+00;  9.3321040E-02;0;  4.1938420E-02;  3.9913254E+04;  0.0000000E+00;  4.8016661E-01;  4.0000000E+04;  0.0000000E+00;  4.0007730E+04;  4.4453327E-02;  0.0000000E+00; -2.5149065E-03;  1.2622933E+03;
  3.4152228E-01;  9.9999998E-03; -2.2002789E-01;4528;  7.8030666E-03;  0.0000000E+00;  2.5143896E-04;  9.9913025E+02;  1.0000000E-01; -7.2057220E+02;3;  7.4919230E-01;  0.0000000E+00;  8.8500135E-02;0;  3.9588809E-02;  3.9928461E+04;  0.0000000E+00;  4.0780658E-01;  4.0000000E+04;  0.0000000E+00;  4.0006113E+04;  4.2214606E-02;  0.0000000E+00; -2.6257965E-03;  1.0356700E+03;
  3.4151942E-01;  9.9999998E-03; -2.1003565E-01;4529;  7.9092029E-03;  0.0000000E+00;  1.9670499E-04;  9.9934174E+02;  1.0000000E-01; -5.4536731E+02;3;  7.5876004E-01;  0.0000000E+00;  7.2044343E-02;0;  3.7521653E-02;  3.9945098E+04;  0.0000000E+00;  2.9767734E-01;  4.0000000E+04;  0.0000000E+00;  4.0006020E+04;  4.0249489E-02;  0.0000000E+00; -2.7278345E-03;  9.1841852E+02;
  3.4150735E-01;  9.9999998E-03; -2.0003524E-01;4530;  8.0252523E-03;  0.0000000E+00;  1.7653087E-04;  9.9955737E+02;  1.0000000E-01; -3.6670569E+02;3;  7.7231508E-01;  0.0000000E+00;  6.0448803E-02;0;  3.5821147E-02;  3.9962613E+04;  0.0000000E+00;  1.6766150E-01;  4.0000000E+04;  0.0000000E+00;  4.0005703E+04;  3.8617820E-02;  0.0000000E+00; -2.7966732E-03;  7.9565564E+02;
  3.4148562E-01;  9.9999998E-03; -1.9003317E-01;4531;  8.1393812E-03;  0.0000000E+00;  1.7168309E-04;  9.9975360E+02;  1.0000000E-01; -2.0414238E+02;3;  7.9049182E-01;  0.0000000E+00;  5.2886132E-02;0;  3.4544919E-02;  3.9979035E+04;  0.0000000E+00;  3.5176910E-02;  4.0000000E+04;  0.0000000E+00;  4.0004582E+04;  3.7355859E-02;  0.0000000E+00; -2.8109401E-03;  6.0455707E+02;
  3.4145594E-01;  9.9999998E-03; -1.8003234E-01;4532;  8.2454430E-03;  0.0000000E+00;  1.6826083E-04;  9.9991821E+02;  1.0000000E-01; -6.7751167E+01;3;  8.1168973E-01;  0.0000000E+00;  4.4508826E-02;0;  3.3682812E-02;  3.9994266E+04;  0.0000000E+00; -8.3830833E-02;  4.0000000E+04;  0.0000000E+00;  4.0002844E+04;  3.6473203E-02;  0.0000000E+00; -2.7903926E-03;  3.9908041E+02;
  3.4143239E-01;  9.9999998E-03; -1.7003287E-01;4533;  8.3431806E-03;  0.0000000E+00;  1.6415851E-04;  1.0000511E+03;  1.0000000E-01;  4.2369171E+01;3;  8.3305949E-01;  0.0000000E+00;  3.8621198E-02;0;  3.3197276E-02;  4.0006238E+04;  0.0000000E+00; -1.7638482E-01;  4.0000000E+04;  0.0000000E+00;  4.0001074E+04;  3.5956725E-02;  0.0000000E+00; -2.7594473E-03;  2.8901633E+02;
  3.4143314E-01;  9.9999998E-03; -1.6003282E-01;4534;  8.4361117E-03;  0.0000000E+00;  1.5580286E-04;  1.0001385E+03;  1.0000000E-01;  1.1476218E+02;3;  8.5467631E-01;  0.0000000E+00;  3.4546867E-02;0;  3.3035100E-02;  4.0015129E+04;  0.0000000E+00; -2.3490760E-01;  4.0000000E+04;  0.0000000E+00;  3.9999535E+04;  3.5768073E-02;  0.0000000E+00; -2.7329742E-03;  3.4907629E+02;
  3.4146821E-01;  9.9999998E-03; -1.5002836E-01;4535;  8.5258968E-03;  0.0000000E+00;  1.4332750E-04;  1.0001870E+03;  1.0000000E-01;  1.5495859E+02;3;  8.7704098E-01;  0.0000000E+00;  3.1054623E-02;0;  3.3126302E-02;  4.0020395E+04;  0.0000000E+00; -2.5808010E-01;  4.0000000E+04;  0.0000000E+00;  3.9998000E+04;  3.5843138E-02;  0.0000000E+00; -2.7168344E-03;  4.5963339E+02;
  3.4153438E-01;  9.9999998E-03; -1.4001650E-01;4536;  8.6134654E-03;  0.0000000E+00;  1.2825336E-04;  1.0001998E+03;  1.0000000E-01;  1.6552618E+02;3;  8.9972544E-01;  0.0000000E+00;  2.7559785E-02;0;  3.3387527E-02;  4.0022363E+04;  0.0000000E+00; -2.5028536E-01;  4.0000000E+04;  0.0000000E+00;  3.9996875E+04;  3.6096934E-02;  0.0000000E+00; -2.7094081E-03;  5.2925055E+02;
  3.4160739E-01;  9.9999998E-03; -1.3000058E-01;4537;  8.6976252E-03;  0.0000000E+00;  1.1164077E-04;  1.0001880E+03;  1.0000000E-01;  1.5574869E+02;3;  9.2411625E-01;  0.0000000E+00;  2.3896297E-02;0;  3.3725072E-02;  4.0021574E+04;  0.0000000E+00; -2.1968852E-01;  4.0000000E+04;  0.0000000E+00;  3.9996754E+04;  3.6429506E-02;  0.0000000E+00; -2.7044329E-03;  5.3132745E+02;
  3.4166160E-01;  9.9999998E-03; -1.1998785E-01;4538;  8.7754019E-03;  0.0000000E+00;  9.4848096E-05;  1.0001593E+03;  1.0000000E-01;  1.3194688E+02;3;  9.4662142E-01;  0.0000000E+00;  2.1110388E-02;0;  3.4053404E-02;  4.0018922E+04;  0.0000000E+00; -1.7583428E-01;  4.0000000E+04;  0.0000000E+00;  3.9996957E+04;  3.6748532E-02;  0.0000000E+00; -2.6951276E-03;  4.6488379E+02;
  3.4169376E-01;  9.9999998E-03; -1.0998304E-01;4539;  8.8438541E-03;  0.0000000E+00;  7.8770943E-05;  1.0001207E+03;  1.0000000E-01;  1.0004655E+02;3;  9.6796185E-01;  0.0000000E+00;  1.8236676E-02;0;  3.4314789E-02;  4.0014934E+04;  0.0000000E+00; -1.2760891E-01;  4.0000000E+04;  0.0000000E+00;  3.9997859E+04;  3.6992550E-02;  0.0000000E+00; -2.6777592E-03;  3.4257114E+02;
  3.5125285E-01;  9.9999998E-03; -2.6998752E-01;4584;  8.1477566E-03;  0.0000000E+00;  7.4181071E-04;  9.9858014E+02;  1.0000000E-01; -1.1763124E+03;3;  9.6211594E-01;  0.0000000E+00;  2.1302408E-01;0;  5.4618444E-02;  3.9877949E+04;  0.0000000E+00;  2.6332024E-01;  4.0000000E+04;  0.0000000E+00;  4.0014742E+04;  5.7874516E-02;  0.0000000E+00; -3.2560707E-03;  1.9860215E+03;
  3.5132131E-01;  9.9999998E-03; -2.5999174E-01;4585;  8.0340756E-03;  0.0000000E+00;  6.7631243E-04;  9.9864789E+02;  1.0000000E-01; -1.1202152E+03;3;  8.9026153E-01;  0.0000000E+00;  1.7928863E-01;0;  5.2284278E-02;  3.9884324E+04;  0.0000000E+00;  3.8233760E-01;  4.0000000E+04;  0.0000000E+00;  4.0013199E+04;  5.5492502E-02;  0.0000000E+00; -3.2082237E-03;  1.8339896E+03;
  3.5140392E-01;  9.9999998E-03; -2.4999787E-01;4586;  7.9509625E-03;  0.0000000E+00;  5.8184727E-04;  9.9874512E+02;  1.0000000E-01; -1.0396249E+03;3;  8.4381342E-01;  0.0000000E+00;  1.5125822E-01;0;  5.0064895E-02;  3.9893645E+04;  0.0000000E+00;  4.3830782E-01;  4.0000000E+04;  0.0000000E+00;  4.0011129E+04;  5.3078037E-02;  0.0000000E+00; -3.0131408E-03;  1.6211523E+03;
  3.5146856E-01;  9.9999998E-03; -2.4000724E-01;4587;  7.9111299E-03;  0.0000000E+00;  4.7920772E-04;  9.9887067E+02;  1.0000000E-01; -9.3562787E+02;3;  8.1817281E-01;  0.0000000E+00;  1.3028817E-01;0;  4.7794960E-02;  3.9905266E+04;  0.0000000E+00;  4.3645048E-01;  4.0000000E+04;  0.0000000E+00;  4.0008824E+04;  5.0709315E-02;  0.0000000E+00; -2.9143535E-03;  1.3462339E+03;
  3.5149398E-01;  9.9999998E-03; -2.3002200E-01;4588;  7.9146242E-03;  0.0000000E+00;  3.8079382E-04;  9.9901740E+02;  1.0000000E-01; -8.1405103E+02;3;  7.9945385E-01;  0.0000000E+00;  1.0850638E-01;0;  4.5538064E-02;  3.9919363E+04;  0.0000000E+00;  3.8718569E-01;  4.0000000E+04;  0.0000000E+00;  4.0005992E+04;  4.8461456E-02;  0.0000000E+00; -2.9233908E-03;  1.0222709E+03;
  3.5149384E-01;  9.9999998E-03; -2.2003731E-01;4589;  7.9357876E-03;  0.0000000E+00;  2.8608006E-04;  9.9919244E+02;  1.0000000E-01; -6.6906750E+02;3;  7.8251708E-01;  0.0000000E+00;  8.8706367E-02;0;  4.3448992E-02;  3.9934586E+04;  0.0000000E+00;  3.0110660E-01;  4.0000000E+04;  0.0000000E+00;  4.0004719E+04;  4.6414334E-02;  0.0000000E+00; -2.9653411E-03;  8.0227954E+02;
  3.5148016E-01;  9.9999998E-03; -2.1004204E-01;4590;  7.9900622E-03;  0.0000000E+00;  2.0580929E-04;  9.9939886E+02;  1.0000000E-01; -4.9801062E+02;3;  7.8415596E-01;  0.0000000E+00;  7.3734865E-02;0;  4.1625608E-02;  3.9950535E+04;  0.0000000E+00;  1.9096653E-01;  4.0000000E+04;  0.0000000E+00;  4.0005098E+04;  4.4637565E-02;  0.0000000E+00; -3.0119552E-03;  7.3255310E+02;
  3.5145980E-01;  9.9999998E-03; -2.0003828E-01;4591;  8.0765700E-03;  0.0000000E+00;  1.6449111E-04;  9.9959473E+02;  1.0000000E-01; -3.3574359E+02;3;  7.9210734E-01;  0.0000000E+00;  5.9541989E-02;0;  4.0140986E-02;  3.9966414E+04;  0.0000000E+00;  7.0440017E-02;  4.0000000E+04;  0.0000000E+00;  4.0004859E+04;  4.3186981E-02;  0.0000000E+00; -3.0459934E-03;  6.4141669E+02;
  3.5143921E-01;  9.9999998E-03; -1.9003367E-01;4592;  8.1734527E-03;  0.0000000E+00;  1.4766301E-04;  9.9976245E+02;  1.0000000E-01; -1.9678456E+02;3;  8.0942804E-01;  0.0000000E+00;  4.7712259E-02;0;  3.9062656E-02;  3.9981082E+04;  0.0000000E+00; -4.5731004E-02;  4.0000000E+04;  0.0000000E+00;  4.0003699E+04;  4.2097367E-02;  0.0000000E+00; -3.0347100E-03;  4.7326611E+02;
  3.5142758E-01;  9.9999998E-03; -1.8003088E-01;4593;  8.2713822E-03;  0.0000000E+00;  1.3787727E-04;  9.9990479E+02;  1.0000000E-01; -7.8861969E+01;3;  8.2626665E-01;  0.0000000E+00;  4.0795773E-02;0;  3.8388740E-02;  3.9993883E+04;  0.0000000E+00; -1.4369626E-01;  4.0000000E+04;  0.0000000E+00;  4.0001777E+04;  4.1378379E-02;  0.0000000E+00; -2.9896391E-03;  3.1836252E+02;
  3.5143468E-01;  9.9999998E-03; -1.7002822E-01;4594;  8.3682146E-03;  0.0000000E+00;  1.2600950E-04;  1.0000139E+03;  1.0000000E-01;  1.1456466E+01;3;  8.4429586E-01;  0.0000000E+00;  3.4147967E-02;0;  3.8077645E-02;  4.0004172E+04;  0.0000000E+00; -2.1291371E-01;  4.0000000E+04;  0.0000000E+00;  4.0000082E+04;  4.1012563E-02;  0.0000000E+00; -2.9349171E-03;  3.0700531E+02;
  3.5146499E-01;  9.9999998E-03; -1.6002218E-01;4595;  8.4629795E-03;  0.0000000E+00;  1.1032850E-04;  1.0000834E+03;  1.0000000E-01;  6.9133850E+01;3;  8.6510175E-01;  0.0000000E+00;  2.7981507E-02;0;  3.8067963E-02;  4.0011469E+04;  0.0000000E+00; -2.4822028E-01;  4.0000000E+04;  0.0000000E+00;  3.9998672E+04;  4.0956013E-02;  0.0000000E+00; -2.8880506E-03;  4.0790350E+02;
  3.5151410E-01;  9.9999998E-03; -1.5001100E-01;4596;  8.5550249E-03;  0.0000000E+00;  9.2703762E-05;  1.0001288E+03;  1.0000000E-01;  1.0676241E+02;3;  8.8731098E-01;  0.0000000E+00;  2.1414896E-02;0;  3.8283460E-02;  4.0016230E+04;  0.0000000E+00; -2.5062290E-01;  4.0000000E+04;  0.0000000E+00;  3.9997355E+04;  4.1140106E-02;  0.0000000E+00; -2.8566464E-03;  4.9998862E+02;
  3.5156766E-01;  9.9999998E-03; -1.3999848E-01;4597;  8.6434400E-03;  0.0000000E+00;  7.4128169E-05;  1.0001473E+03;  1.0000000E-01;  1.2197186E+02;3;  9.0988278E-01;  0.0000000E+00;  1.6132934E-02;0;  3.8638689E-02;  4.0018293E+04;  0.0000000E+00; -2.2641511E-01;  4.0000000E+04;  0.0000000E+00;  3.9996723E+04;  4.1478734E-02;  0.0000000E+00; -2.8400468E-03;  5.3458319E+02;
  3.5160923E-01;  9.9999998E-03; -1.2999064E-01;4598;  8.7261237E-03;  0.0000000E+00;  5.6115510E-05;  1.0001493E+03;  1.0000000E-01;  1.2365083E+02;3;  9.3294233E-01;  0.0000000E+00;  1.3374886E-02;0;  3.9049834E-02;  4.0018418E+04;  0.0000000E+00; -1.8488744E-01;  4.0000000E+04;  0.0000000E+00;  3.9996828E+04;  4.1881811E-02;  0.0000000E+00; -2.8319785E-03;  5.0118991E+02;
  3.5163635E-01;  9.9999998E-03; -1.1998752E-01;4599;  8.7995613E-03;  0.0000000E+00;  4.0246454E-05;  1.0001440E+03;  1.0000000E-01;  1.1930527E+02;3;  9.5504028E-01;  0.0000000E+00;  9.1795344E-03;0;  3.9452065E-02;  4.0017293E+04;  0.0000000E+00; -1.3572784E-01;  4.0000000E+04;  0.0000000E+00;  3.9997121E+04;  4.2276982E-02;  0.0000000E+00; -2.8249174E-03;  4.0671637E+02;
  3.5165173E-01;  9.9999998E-03; -1.0998758E-01;4600;  8.8608544E-03;  0.0000000E+00;  2.7073253E-05;  1.0001326E+03;  1.0000000E-01;  1.0992281E+02;3;  9.7495800E-01;  0.0000000E+00;  6.6426476E-03;0;  3.9800264E-02;  4.0015422E+04;  0.0000000E+00; -8.7137647E-02;  4.0000000E+04;  0.0000000E+00;  3.9998016E+04;  4.2614359E-02;  0.0000000E+00; -2.8140955E-03;  2.6806805E+02;
  3.6128590E-01;  9.9999998E-03; -2.6998904E-01;4645;  9.7243693E-03;  0.0000000E+00;  8.3669060E-04;  9.9856805E+02;  1.0000000E-01; -1.1863368E+03;3;  1.4131515E+00;  0.0000000E+00;  2.4969417E-01;0;  5.6216061E-02;  3.9874664E+04;  0.0000000E+00;  2.3318179E-01;  4.0000000E+04;  0.0000000E+00;  4.0015215E+04;  6.0122702E-02;  0.0000000E+00; -3.9066407E-03;  2.0411952E+03;
  3.6133984E-01;  9.9999998E-03; -2.5999331E-01;4646;  9.0443017E-03;  0.0000000E+00;  7.9141668E-04;  9.9866022E+02;  1.0000000E-01; -1.1099933E+03;3;  1.2184731E+00;  0.0000000E+00;  2.2002684E-01;0;  5.4052167E-02;  3.9883625E+04;  0.0000000E+00;  3.1769699E-01;  4.0000000E+04;  0.0000000E+00;  4.0013449E+04;  5.8068067E-02;  0.0000000E+00; -4.0158997E-03;  1.8660458E+03;
  3.6140153E-01;  9.9999998E-03; -2.4999951E-01;4647;  8.6404318E-03;  0.0000000E+00;  7.1074266E-04;  9.9877863E+02;  1.0000000E-01; -1.0118726E+03;3;  1.0727721E+00;  0.0000000E+00;  1.9486630E-01;0;  5.2166507E-02;  3.9894672E+04;  0.0000000E+00;  3.5315496E-01;  4.0000000E+04;  0.0000000E+00;  4.0011566E+04;  5.5980299E-02;  0.0000000E+00; -3.8137918E-03;  1.6110060E+03;
  3.6144075E-01;  9.9999998E-03; -2.4000850E-01;4648;  8.4114727E-03;  0.0000000E+00;  6.0815219E-04;  9.9891101E+02;  1.0000000E-01; -9.0219672E+02;3;  9.8070771E-01;  0.0000000E+00;  1.7061424E-01;0;  5.0343532E-02;  3.9907520E+04;  0.0000000E+00;  3.4295419E-01;  4.0000000E+04;  0.0000000E+00;  4.0009258E+04;  5.3931445E-02;  0.0000000E+00; -3.5879144E-03;  1.3083654E+03;
  3.6145297E-01;  9.9999998E-03; -2.3002343E-01;4649;  8.2937451E-03;  0.0000000E+00;  5.1178725E-04;  9.9905646E+02;  1.0000000E-01; -7.8170630E+02;3;  9.1961211E-01;  0.0000000E+00;  1.4458469E-01;0;  4.8507195E-02;  3.9921895E+04;  0.0000000E+00;  2.9383984E-01;  4.0000000E+04;  0.0000000E+00;  4.0006020E+04;  5.1996306E-02;  0.0000000E+00; -3.4891122E-03;  9.3115045E+02;
  3.6144820E-01;  9.9999998E-03; -2.2003810E-01;4650;  8.2141422E-03;  0.0000000E+00;  3.8522854E-04;  9.9922272E+02;  1.0000000E-01; -6.4398181E+02;3;  8.8122469E-01;  0.0000000E+00;  1.2281511E-01;0;  4.6878297E-02;  3.9936871E+04;  0.0000000E+00;  2.1520062E-01;  4.0000000E+04;  0.0000000E+00;  4.0004395E+04;  5.0247781E-02;  0.0000000E+00; -3.3694848E-03;  6.9477179E+02;
  3.6143228E-01;  9.9999998E-03; -2.1004140E-01;4651;  8.1907893E-03;  0.0000000E+00;  2.7954398E-04;  9.9941046E+02;  1.0000000E-01; -4.8843063E+02;3;  8.5487258E-01;  0.0000000E+00;  9.9522851E-02;0;  4.5421682E-02;  3.9951852E+04;  0.0000000E+00;  1.1838931E-01;  4.0000000E+04;  0.0000000E+00;  4.0004246E+04;  4.8749607E-02;  0.0000000E+00; -3.3279252E-03;  6.3033057E+02;
  3.6141375E-01;  9.9999998E-03; -2.0003667E-01;4652;  8.2307290E-03;  0.0000000E+00;  2.2649874E-04;  9.9958234E+02;  1.0000000E-01; -3.4601489E+02;3;  8.4921712E-01;  0.0000000E+00;  8.1428088E-02;0;  4.4240154E-02;  3.9966117E+04;  0.0000000E+00;  1.6079247E-02;  4.0000000E+04;  0.0000000E+00;  4.0003914E+04;  4.7555283E-02;  0.0000000E+00; -3.3151265E-03;  5.3893250E+02;
  3.6140293E-01;  9.9999998E-03; -1.9003090E-01;4653;  8.2991375E-03;  0.0000000E+00;  1.9145118E-04;  9.9973126E+02;  1.0000000E-01; -2.2266037E+02;3;  8.5404968E-01;  0.0000000E+00;  6.7281835E-02;0;  4.3433245E-02;  3.9979051E+04;  0.0000000E+00; -7.8744233E-02;  4.0000000E+04;  0.0000000E+00;  4.0002559E+04;  4.6699088E-02;  0.0000000E+00; -3.2658444E-03;  3.8001047E+02;
  3.6140686E-01;  9.9999998E-03; -1.8002519E-01;4654;  8.3803283E-03;  0.0000000E+00;  1.6057205E-04;  9.9985498E+02;  1.0000000E-01; -1.2014475E+02;3;  8.6347985E-01;  0.0000000E+00;  5.4684326E-02;0;  4.2995602E-02;  3.9990344E+04;  0.0000000E+00; -1.5446477E-01;  4.0000000E+04;  0.0000000E+00;  4.0001047E+04;  4.6188485E-02;  0.0000000E+00; -3.1928848E-03;  2.6363571E+02;
  3.6142987E-01;  9.9999998E-03; -1.7001772E-01;4655;  8.4682982E-03;  0.0000000E+00;  1.3376558E-04;  9.9994031E+02;  1.0000000E-01; -4.9430702E+01;3;  8.7847191E-01;  0.0000000E+00;  4.2044532E-02;0;  4.2886425E-02;  3.9999266E+04;  0.0000000E+00; -2.0270613E-01;  4.0000000E+04;  0.0000000E+00;  3.9999500E+04;  4.6004813E-02;  0.0000000E+00; -3.1183881E-03;  3.0302411E+02;
  3.6147162E-01;  9.9999998E-03; -1.6000701E-01;4656;  8.5599497E-03;  0.0000000E+00;  1.0959473E-04;  1.0000123E+03;  1.0000000E-01;  1.0172552E+01;3;  8.9733130E-01;  0.0000000E+00;  3.3375215E-02;0;  4.3046802E-02;  4.0005785E+04;  0.0000000E+00; -2.2009905E-01;  4.0000000E+04;  0.0000000E+00;  3.9997914E+04;  4.6104446E-02;  0.0000000E+00; -3.0576442E-03;  4.0774112E+02;
  3.6151919E-01;  9.9999998E-03; -1.4999609E-01;4657;  8.6538652E-03;  0.0000000E+00;  8.4642925E-05;  1.0000572E+03;  1.0000000E-01;  4.7406067E+01;3;  9.2271531E-01;  0.0000000E+00;  2.7724627E-02;0;  4.3402046E-02;  4.0010457E+04;  0.0000000E+00; -2.0897861E-01;  4.0000000E+04;  0.0000000E+00;  3.9997055E+04;  4.6420380E-02;  0.0000000E+00; -3.0183340E-03;  4.7796008E+02;
  3.6155793E-01;  9.9999998E-03; -1.3998982E-01;4658;  8.7458612E-03;  0.0000000E+00;  5.9989117E-05;  1.0000878E+03;  1.0000000E-01;  7.2689301E+01;3;  9.4999307E-01;  0.0000000E+00;  2.2427743E-02;0;  4.3873947E-02;  4.0012965E+04;  0.0000000E+00; -1.7638129E-01;  4.0000000E+04;  0.0000000E+00;  3.9996758E+04;  4.6874154E-02;  0.0000000E+00; -3.0002061E-03;  4.8471530E+02;
  3.6158678E-01;  9.9999998E-03; -1.2998810E-01;4659;  8.8288588E-03;  0.0000000E+00;  3.7280934E-05;  1.0001064E+03;  1.0000000E-01;  8.8195038E+01;3;  9.8091102E-01;  0.0000000E+00;  1.9439567E-02;0;  4.4396978E-02;  4.0014250E+04;  0.0000000E+00; -1.3167566E-01;  4.0000000E+04;  0.0000000E+00;  3.9996777E+04;  4.7393765E-02;  0.0000000E+00; -2.9967877E-03;  4.2834457E+02;
  3.6160576E-01;  9.9999998E-03; -1.1998931E-01;4660;  8.8891787E-03;  0.0000000E+00;  1.7104980E-05;  1.0001188E+03;  1.0000000E-01;  9.8466354E+01;3;  1.0014812E+00;  0.0000000E+00;  1.5711075E-02;0;  4.4918377E-02;  4.0014285E+04;  0.0000000E+00; -8.4009670E-02;  4.0000000E+04;  0.0000000E+00;  3.9997633E+04;  4.7917821E-02;  0.0000000E+00; -2.9994436E-03;  3.2152896E+02;
  3.6161536E-01;  9.9999998E-03; -1.0999214E-01;4661;  8.9256056E-03;  0.0000000E+00; -5.9902081E-06;  1.0001290E+03;  1.0000000E-01;  1.0686118E+02;3;  1.0098927E+00;  0.0000000E+00;  1.3095582E-02;0;  4.5400482E-02;  4.0013973E+04;  0.0000000E+00; -4.0517196E-02;  4.0000000E+04;  0.0000000E+00;  3.9998590E+04;  4.8402488E-02;  0.0000000E+00; -3.0020063E-03;  1.8294455E+02;
  3.7130880E-01;  9.9999998E-03; -2.6999000E-01;4706;  1.1930452E-02;  0.0000000E+00;  9.3943934E-04;  9.9854645E+02;  1.0000000E-01; -1.2042622E+03;3;  1.9699477E+00;  0.0000000E+00;  2.9701877E-01;0;  5.6722291E-02;  3.9870809E+04;  0.0000000E+00;  1.4950182E-01;  4.0000000E+04;  0.0000000E+00;  4.0015441E+04;  6.1259273E-02;  0.0000000E+00; -4.5369840E-03;  2.0636338E+03;
  3.7133843E-01;  9.9999998E-03; -2.5999352E-01;4707;  1.0890408E-02;  0.0000000E+00;  8.8747387E-04;  9.9866449E+02;  1.0000000E-01; -1.1064379E+03;3;  1.7597091E+00;  0.0000000E+00;  2.7061325E-01;0;  5.5098865E-02;  3.9881445E+04;  0.0000000E+00;  2.2054701E-01;  4.0000000E+04;  0.0000000E+00;  4.0014223E+04;  5.9646580E-02;  0.0000000E+00; -4.5477138E-03;  1.9271838E+03;
  3.7137464E-01;  9.9999998E-03; -2.4999832E-01;4708;  9.9903978E-03;  0.0000000E+00;  8.4900402E-04;  9.9879480E+02;  1.0000000E-01; -9.9849030E+02;3;  1.5569061E+00;  0.0000000E+00;  2.4870798E-01;0;  5.3405926E-02;  3.9893711E+04;  0.0000000E+00;  2.5235003E-01;  4.0000000E+04;  0.0000000E+00;  4.0012547E+04;  5.7992287E-02;  0.0000000E+00; -4.5863600E-03;  1.7088860E+03;
  3.7140390E-01;  9.9999998E-03; -2.4000582E-01;4709;  9.4383406E-03;  0.0000000E+00;  7.9951965E-04;  9.9893121E+02;  1.0000000E-01; -8.8545642E+02;3;  1.3877811E+00;  0.0000000E+00;  2.3084314E-01;0;  5.1889483E-02;  3.9906914E+04;  0.0000000E+00;  2.4652530E-01;  4.0000000E+04;  0.0000000E+00;  4.0010090E+04;  5.6358691E-02;  0.0000000E+00; -4.4692070E-03;  1.3940470E+03;
  3.7141460E-01;  9.9999998E-03; -2.3001847E-01;4710;  9.1043497E-03;  0.0000000E+00;  7.2680676E-04;  9.9906805E+02;  1.0000000E-01; -7.7207690E+02;3;  1.2526251E+00;  0.0000000E+00;  2.0899871E-01;0;  5.0567832E-02;  3.9920941E+04;  0.0000000E+00;  2.0911993E-01;  4.0000000E+04;  0.0000000E+00;  4.0007098E+04;  5.4811966E-02;  0.0000000E+00; -4.2441352E-03;  9.9869208E+02;
  3.7141237E-01;  9.9999998E-03; -2.2003065E-01;4711;  8.8386470E-03;  0.0000000E+00;  5.9247616E-04;  9.9922595E+02;  1.0000000E-01; -6.4126581E+02;3;  1.1458855E+00;  0.0000000E+00;  1.8387546E-01;0;  4.9489282E-02;  3.9935125E+04;  0.0000000E+00;  1.4814438E-01;  4.0000000E+04;  0.0000000E+00;  4.0005062E+04;  5.3418498E-02;  0.0000000E+00; -3.9292183E-03;  7.3738501E+02;
  3.7140718E-01;  9.9999998E-03; -2.1003255E-01;4712;  8.6881118E-03;  0.0000000E+00;  4.6681767E-04;  9.9939209E+02;  1.0000000E-01; -5.0364008E+02;3;  1.0733935E+00;  0.0000000E+00;  1.5875302E-01;0;  4.8504148E-02;  3.9949535E+04;  0.0000000E+00;  7.3415674E-02;  4.0000000E+04;  0.0000000E+00;  4.0004797E+04;  5.2240405E-02;  0.0000000E+00; -3.7362562E-03;  6.4021960E+02;
  3.7140548E-01;  9.9999998E-03; -2.0002648E-01;4713;  8.6462395E-03;  0.0000000E+00;  3.8121021E-04;  9.9954858E+02;  1.0000000E-01; -3.7401410E+02;3;  1.0349079E+00;  0.0000000E+00;  1.3558117E-01;0;  4.7709353E-02;  3.9962410E+04;  0.0000000E+00; -4.4494485E-03;  4.0000000E+04;  0.0000000E+00;  4.0003910E+04;  5.1329002E-02;  0.0000000E+00; -3.6196487E-03;  5.2136859E+02;
  3.7141404E-01;  9.9999998E-03; -1.9001785E-01;4714;  8.6697973E-03;  0.0000000E+00;  3.2818486E-04;  9.9968091E+02;  1.0000000E-01; -2.6433820E+02;3;  1.0263588E+00;  0.0000000E+00;  1.1563414E-01;0;  4.7201697E-02;  3.9974434E+04;  0.0000000E+00; -7.4776769E-02;  4.0000000E+04;  0.0000000E+00;  4.0002570E+04;  5.0717313E-02;  0.0000000E+00; -3.5156161E-03;  3.4608957E+02;
  3.7143582E-01;  9.9999998E-03; -1.8000804E-01;4715;  8.7414794E-03;  0.0000000E+00;  2.8611513E-04;  9.9978772E+02;  1.0000000E-01; -1.7584688E+02;3;  1.0490959E+00;  0.0000000E+00;  1.0483991E-01;0;  4.7003973E-02;  3.9984582E+04;  0.0000000E+00; -1.2822543E-01;  4.0000000E+04;  0.0000000E+00;  4.0000938E+04;  5.0414041E-02;  0.0000000E+00; -3.4100683E-03;  2.1379405E+02;
  3.7146962E-01;  9.9999998E-03; -1.6999698E-01;4716;  8.8624563E-03;  0.0000000E+00;  2.5120121E-04;  9.9987042E+02;  1.0000000E-01; -1.0735499E+02;3;  1.0940077E+00;  0.0000000E+00;  9.8864481E-02;0;  4.7086909E-02;  3.9993234E+04;  0.0000000E+00; -1.5830858E-01;  4.0000000E+04;  0.0000000E+00;  3.9999383E+04;  5.0402988E-02;  0.0000000E+00; -3.3160781E-03;  2.5058330E+02;
  3.7150833E-01;  9.9999998E-03; -1.5998746E-01;4717;  9.0291463E-03;  0.0000000E+00;  2.2436454E-04;  9.9993903E+02;  1.0000000E-01; -5.0517090E+01;3;  1.1516746E+00;  0.0000000E+00;  9.2206120E-02;0;  4.7399439E-02;  3.9999613E+04;  0.0000000E+00; -1.6285920E-01;  4.0000000E+04;  0.0000000E+00;  3.9998105E+04;  5.0644871E-02;  0.0000000E+00; -3.2454310E-03;  3.4733264E+02;
  3.7154403E-01;  9.9999998E-03; -1.4998265E-01;4718;  9.2287380E-03;  0.0000000E+00;  2.0194655E-04;  9.9999237E+02;  1.0000000E-01; -6.3208089E+00;3;  1.2159121E+00;  0.0000000E+00;  8.5866049E-02;0;  4.7880806E-02;  4.0004445E+04;  0.0000000E+00; -1.4459962E-01;  4.0000000E+04;  0.0000000E+00;  3.9997531E+04;  5.1084895E-02;  0.0000000E+00; -3.2040882E-03;  4.0007538E+02;
  3.7157285E-01;  9.9999998E-03; -1.3998199E-01;4719;  9.4378181E-03;  0.0000000E+00;  1.7356493E-04;  1.0000276E+03;  1.0000000E-01;  2.2912931E+01;3;  1.2865812E+00;  0.0000000E+00;  7.8409098E-02;0;  4.8471808E-02;  4.0007371E+04;  0.0000000E+00; -1.1033870E-01;  4.0000000E+04;  0.0000000E+00;  3.9997250E+04;  5.1662695E-02;  0.0000000E+00; -3.1908865E-03;  3.9102075E+02;
  3.7159359E-01;  9.9999998E-03; -1.2998435E-01;4720;  9.5923962E-03;  0.0000000E+00;  1.3603517E-04;  1.0000571E+03;  1.0000000E-01;  4.7307304E+01;3;  1.3378025E+00;  0.0000000E+00;  7.1213581E-02;0;  4.9120706E-02;  4.0009414E+04;  0.0000000E+00; -6.8752639E-02;  4.0000000E+04;  0.0000000E+00;  3.9997434E+04;  5.2318990E-02;  0.0000000E+00; -3.1982840E-03;  3.2780737E+02;
  3.7160546E-01;  9.9999998E-03; -1.1998866E-01;4721;  9.6053183E-03;  0.0000000E+00;  9.2806913E-05;  1.0000817E+03;  1.0000000E-01;  6.7652405E+01;3;  1.3464112E+00;  0.0000000E+00;  6.4139828E-02;0;  4.9786117E-02;  4.0010402E+04;  0.0000000E+00; -2.7847786E-02;  4.0000000E+04;  0.0000000E+00;  3.9998016E+04;  5.3002514E-02;  0.0000000E+00; -3.2163963E-03;  2.2629395E+02;
  3.7160668E-01;  9.9999998E-03; -1.0999369E-01;4722;  9.4635487E-03;  0.0000000E+00;  4.6827201E-05;  1.0001046E+03;  1.0000000E-01;  8.6614838E+01;3;  1.3055687E+00;  0.0000000E+00;  5.3464029E-02;0;  5.0436996E-02;  4.0011254E+04;  0.0000000E+00;  6.6366452E-03;  4.0000000E+04;  0.0000000E+00;  3.9999191E+04;  5.3674527E-02;  0.0000000E+00; -3.2375308E-03;  1.0715688E+02;
  3.8131508E-01;  9.9999998E-03; -2.6998994E-01;4767;  1.2919672E-02;  0.0000000E+00;  1.0557490E-03;  9.9851263E+02;  1.0000000E-01; -1.2322615E+03;3;  2.3376591E+00;  0.0000000E+00;  3.2310855E-01;0;  5.6324303E-02;  3.9866371E+04;  0.0000000E+00;  6.0713012E-02;  4.0000000E+04;  0.0000000E+00;  4.0016160E+04;  6.1579432E-02;  0.0000000E+00; -5.2551297E-03;  2.1198411E+03;
  3.8133350E-01;  9.9999998E-03; -2.5999293E-01;4768;  1.2440170E-02;  0.0000000E+00;  9.8948274E-04;  9.9864185E+02;  1.0000000E-01; -1.1252028E+03;3;  2.1853902E+00;  0.0000000E+00;  3.0839801E-01;0;  5.5340230E-02;  3.9877656E+04;  0.0000000E+00;  1.1971086E-01;  4.0000000E+04;  0.0000000E+00;  4.0014977E+04;  6.0406778E-02;  0.0000000E+00; -5.0665471E-03;  1.9887664E+03;
  3.8135755E-01;  9.9999998E-03; -2.4999619E-01;4769;  1.1748374E-02;  0.0000000E+00;  9.6448715E-04;  9.9878198E+02;  1.0000000E-01; -1.0091072E+03;3;  2.0239146E+00;  0.0000000E+00;  2.9517409E-01;0;  5.4042406E-02;  3.9890164E+04;  0.0000000E+00;  1.4966270E-01;  4.0000000E+04;  0.0000000E+00;  4.0013457E+04;  5.9191361E-02;  0.0000000E+00; -5.1489528E-03;  1.8183652E+03;
  3.8138416E-01;  9.9999998E-03; -2.4000077E-01;4770;  1.1025956E-02;  0.0000000E+00;  9.5558877E-04;  9.9892285E+02;  1.0000000E-01; -8.9241919E+02;3;  1.8668522E+00;  0.0000000E+00;  2.8576586E-01;0;  5.2836202E-02;  3.9903430E+04;  0.0000000E+00;  1.5172498E-01;  4.0000000E+04;  0.0000000E+00;  4.0011852E+04;  5.7974890E-02;  0.0000000E+00; -5.1386873E-03;  1.5608048E+03;
  3.8140440E-01;  9.9999998E-03; -2.3000908E-01;4771;  1.0528774E-02;  0.0000000E+00;  9.2612294E-04;  9.9906140E+02;  1.0000000E-01; -7.7760767E+02;3;  1.7251523E+00;  0.0000000E+00;  2.6708850E-01;0;  5.1900905E-02;  3.9917367E+04;  0.0000000E+00;  1.3090114E-01;  4.0000000E+04;  0.0000000E+00;  4.0009016E+04;  5.6811627E-02;  0.0000000E+00; -4.9107228E-03;  1.1985737E+03;
  3.8141897E-01;  9.9999998E-03; -2.2001663E-01;4772;  1.0168552E-02;  0.0000000E+00;  8.3792413E-04;  9.9920752E+02;  1.0000000E-01; -6.5657404E+02;3;  1.6202147E+00;  0.0000000E+00;  2.5194821E-01;0;  5.1229827E-02;  3.9931238E+04;  0.0000000E+00;  9.2912242E-02;  4.0000000E+04;  0.0000000E+00;  4.0006766E+04;  5.5759829E-02;  0.0000000E+00; -4.5300028E-03;  9.2451581E+02;
  3.8143256E-01;  9.9999998E-03; -2.1001521E-01;4773;  9.9540772E-03;  0.0000000E+00;  7.3702272E-04;  9.9936218E+02;  1.0000000E-01; -5.2842950E+02;3;  1.5503268E+00;  0.0000000E+00;  2.2990318E-01;0;  5.0658472E-02;  3.9944781E+04;  0.0000000E+00;  4.4741984E-02;  4.0000000E+04;  0.0000000E+00;  4.0005906E+04;  5.4875679E-02;  0.0000000E+00; -4.2172084E-03;  7.7670050E+02;
  3.8144925E-01;  9.9999998E-03; -2.0000657E-01;4774;  9.9024000E-03;  0.0000000E+00;  6.6337158E-04;  9.9949969E+02;  1.0000000E-01; -4.1450681E+02;3;  1.5189947E+00;  0.0000000E+00;  2.1002153E-01;0;  5.0214984E-02;  3.9957297E+04;  0.0000000E+00; -5.6745256E-03;  4.0000000E+04;  0.0000000E+00;  4.0004582E+04;  5.4207880E-02;  0.0000000E+00; -3.9928979E-03;  6.0461206E+02;
  3.8147247E-01;  9.9999998E-03; -1.8999562E-01;4775;  9.9917557E-03;  0.0000000E+00;  6.0913595E-04;  9.9961890E+02;  1.0000000E-01; -3.1574417E+02;3;  1.5256529E+00;  0.0000000E+00;  1.9315720E-01;0;  4.9981352E-02;  3.9968664E+04;  0.0000000E+00; -5.0232720E-02;  4.0000000E+04;  0.0000000E+00;  4.0002812E+04;  5.3790443E-02;  0.0000000E+00; -3.8090921E-03;  3.8288333E+02;
  3.8150290E-01;  9.9999998E-03; -1.7998481E-01;4776;  1.0207331E-02;  0.0000000E+00;  5.7215552E-04;  9.9971893E+02;  1.0000000E-01; -2.3288231E+02;3;  1.5614864E+00;  0.0000000E+00;  1.7871691E-01;0;  4.9981553E-02;  3.9978594E+04;  0.0000000E+00; -8.1884891E-02;  4.0000000E+04;  0.0000000E+00;  4.0000996E+04;  5.3637713E-02;  0.0000000E+00; -3.6561585E-03;  1.8272665E+02;
  3.8153622E-01;  9.9999998E-03; -1.6997609E-01;4777;  1.0537883E-02;  0.0000000E+00;  5.4452656E-04;  9.9980908E+02;  1.0000000E-01; -1.5816837E+02;3;  1.6263126E+00;  0.0000000E+00;  1.6723846E-01;0;  5.0206110E-02;  3.9986895E+04;  0.0000000E+00; -9.5937587E-02;  4.0000000E+04;  0.0000000E+00;  3.9999270E+04;  5.3742554E-02;  0.0000000E+00; -3.5364439E-03;  1.5337862E+02;
  3.8156596E-01;  9.9999998E-03; -1.5997134E-01;4778;  1.0925586E-02;  0.0000000E+00;  5.2455341E-04;  9.9987604E+02;  1.0000000E-01; -1.0271314E+02;3;  1.6996179E+00;  0.0000000E+00;  1.5717140E-01;0;  5.0623182E-02;  3.9993664E+04;  0.0000000E+00; -9.1139473E-02;  4.0000000E+04;  0.0000000E+00;  3.9998230E+04;  5.4078847E-02;  0.0000000E+00; -3.4556643E-03;  2.3919072E+02;
  3.8158989E-01;  9.9999998E-03; -1.4997095E-01;4779;  1.1292698E-02;  0.0000000E+00;  5.0371035E-04;  9.9993127E+02;  1.0000000E-01; -5.6936661E+01;3;  1.7647243E+00;  0.0000000E+00;  1.4831378E-01;0;  5.1193882E-02;  3.9998488E+04;  0.0000000E+00; -7.0102490E-02;  4.0000000E+04;  0.0000000E+00;  3.9997516E+04;  5.4609008E-02;  0.0000000E+00; -3.4151266E-03;  2.8445993E+02;
  3.8160828E-01;  9.9999998E-03; -1.3997403E-01;4780;  1.1574094E-02;  0.0000000E+00;  4.7071592E-04;  9.9997754E+02;  1.0000000E-01; -1.8616758E+01;3;  1.8149523E+00;  0.0000000E+00;  1.3869005E-01;0;  5.1880050E-02;  4.0002215E+04;  0.0000000E+00; -3.8739972E-02;  4.0000000E+04;  0.0000000E+00;  3.9997887E+04;  5.5290233E-02;  0.0000000E+00; -3.4101820E-03;  2.7523654E+02;
  3.8162079E-01;  9.9999998E-03; -1.2997922E-01;4781;  1.1719412E-02;  0.0000000E+00;  4.2452657E-04;  1.0000148E+03;  1.0000000E-01;  1.2246567E+01;3;  1.8431951E+00;  0.0000000E+00;  1.2750016E-01;0;  5.2647624E-02;  4.0004395E+04;  0.0000000E+00; -4.3819123E-03;  4.0000000E+04;  0.0000000E+00;  3.9998070E+04;  5.6078859E-02;  0.0000000E+00; -3.4312352E-03;  2.2371562E+02;
  3.8162664E-01;  9.9999998E-03; -1.1998548E-01;4782;  1.1694700E-02;  0.0000000E+00;  3.6577485E-04;  1.0000436E+03;  1.0000000E-01;  3.6147125E+01;3;  1.8455290E+00;  0.0000000E+00;  1.1674902E-01;0;  5.3467125E-02;  4.0005977E+04;  0.0000000E+00;  2.6582660E-02;  4.0000000E+04;  0.0000000E+00;  3.9998785E+04;  5.6934461E-02;  0.0000000E+00; -3.4673363E-03;  1.4890851E+02;
  3.8162571E-01;  9.9999998E-03; -1.0999174E-01;4783;  1.1468488E-02;  0.0000000E+00;  3.0262303E-04;  1.0000688E+03;  1.0000000E-01;  5.7084805E+01;3;  1.8110329E+00;  0.0000000E+00;  1.0760303E-01;0;  5.4312609E-02;  4.0007309E+04;  0.0000000E+00;  5.0028134E-02;  4.0000000E+04;  0.0000000E+00;  3.9999746E+04;  5.7822239E-02;  0.0000000E+00; -3.5096286E-03;  8.5935081E+01;
  3.9132702E-01;  9.9999998E-03; -2.6998922E-01;4828;  1.3078770E-02;  0.0000000E+00;  1.1913893E-03;  9.9847089E+02;  1.0000000E-01; -1.2668284E+03;3;  2.4106772E+00;  0.0000000E+00;  3.4150079E-01;0;  5.5446573E-02;  3.9861262E+04;  0.0000000E+00; -1.7839352E-02;  4.0000000E+04;  0.0000000E+00;  4.0016465E+04;  6.1600316E-02;  0.0000000E+00; -6.1537437E-03;  2.1867275E+03;
  3.9133903E-01;  9.9999998E-03; -2.5999165E-01;4829;  1.2865841E-02;  0.0000000E+00;  1.1254753E-03;  9.9860052E+02;  1.0000000E-01; -1.1594240E+03;3;  2.3701732E+00;  0.0000000E+00;  3.3264408E-01;0;  5.4898284E-02;  3.9872938E+04;  0.0000000E+00;  2.5655596E-02;  4.0000000E+04;  0.0000000E+00;  4.0015746E+04;  6.0759306E-02;  0.0000000E+00; -5.8610216E-03;  2.0641858E+03;
  3.9136216E-01;  9.9999998E-03; -2.4999399E-01;4830;  1.2568298E-02;  0.0000000E+00;  1.0830299E-03;  9.9874542E+02;  1.0000000E-01; -1.0393781E+03;3;  2.2926664E+00;  0.0000000E+00;  3.2113215E-01;0;  5.4171465E-02;  3.9885500E+04;  0.0000000E+00;  5.1678549E-02;  4.0000000E+04;  0.0000000E+00;  4.0014277E+04;  5.9881005E-02;  0.0000000E+00; -5.7095401E-03;  1.9011066E+03;
  3.9139348E-01;  9.9999998E-03; -2.3999618E-01;4831;  1.2199271E-02;  0.0000000E+00;  1.0623245E-03;  9.9888947E+02;  1.0000000E-01; -9.2007275E+02;3;  2.1995461E+00;  0.0000000E+00;  3.1076708E-01;0;  5.3417698E-02;  3.9898988E+04;  0.0000000E+00;  6.1192121E-02;  4.0000000E+04;  0.0000000E+00;  4.0012930E+04;  5.8986284E-02;  0.0000000E+00; -5.5685882E-03;  1.6989944E+03;
  3.9142099E-01;  9.9999998E-03; -2.2999889E-01;4832;  1.1860531E-02;  0.0000000E+00;  1.0447409E-03;  9.9903625E+02;  1.0000000E-01; -7.9844653E+02;3;  2.1029034E+00;  0.0000000E+00;  2.9914775E-01;0;  5.2786943E-02;  3.9912492E+04;  0.0000000E+00;  5.6870978E-02;  4.0000000E+04;  0.0000000E+00;  4.0011031E+04;  5.8111586E-02;  0.0000000E+00; -5.3246417E-03;  1.4383672E+03;
  3.9144424E-01;  9.9999998E-03; -2.2000037E-01;4833;  1.1644755E-02;  0.0000000E+00;  1.0045386E-03;  9.9918280E+02;  1.0000000E-01; -6.7701788E+02;3;  2.0318949E+00;  0.0000000E+00;  2.8189281E-01;0;  5.2326422E-02;  3.9926320E+04;  0.0000000E+00;  4.1734632E-02;  4.0000000E+04;  0.0000000E+00;  4.0008953E+04;  5.7304561E-02;  0.0000000E+00; -4.9781376E-03;  1.1839812E+03;
  3.9146772E-01;  9.9999998E-03; -2.0999585E-01;4834;  1.1568166E-02;  0.0000000E+00;  9.5711526E-04;  9.9932074E+02;  1.0000000E-01; -5.6274951E+02;3;  1.9947511E+00;  0.0000000E+00;  2.6560757E-01;0;  5.1971227E-02;  3.9939266E+04;  0.0000000E+00;  2.0073950E-02;  4.0000000E+04;  0.0000000E+00;  4.0007371E+04;  5.6615576E-02;  0.0000000E+00; -4.6443511E-03;  9.7368634E+02;
  3.9149386E-01;  9.9999998E-03; -1.9998714E-01;4835;  1.1646705E-02;  0.0000000E+00;  9.1857091E-04;  9.9945026E+02;  1.0000000E-01; -4.5544391E+02;3;  1.9852936E+00;  0.0000000E+00;  2.5155288E-01;0;  5.1733553E-02;  3.9951672E+04;  0.0000000E+00; -2.9648498E-03;  4.0000000E+04;  0.0000000E+00;  4.0005566E+04;  5.6091703E-02;  0.0000000E+00; -4.3581515E-03;  7.3174524E+02;
  3.9152244E-01;  9.9999998E-03; -1.8997797E-01;4836;  1.1852167E-02;  0.0000000E+00;  8.9366111E-04;  9.9956677E+02;  1.0000000E-01; -3.5890344E+02;3;  2.0043640E+00;  0.0000000E+00;  2.3542088E-01;0;  5.1651705E-02;  3.9962992E+04;  0.0000000E+00; -2.2052266E-02;  4.0000000E+04;  0.0000000E+00;  4.0003434E+04;  5.5769995E-02;  0.0000000E+00; -4.1182903E-03;  4.6416885E+02;
  3.9155021E-01;  9.9999998E-03; -1.7997061E-01;4837;  1.2148422E-02;  0.0000000E+00;  8.8171032E-04;  9.9966644E+02;  1.0000000E-01; -2.7633786E+02;3;  2.0395310E+00;  0.0000000E+00;  2.2363657E-01;0;  5.1749624E-02;  3.9973012E+04;  0.0000000E+00; -3.2640524E-02;  4.0000000E+04;  0.0000000E+00;  4.0001457E+04;  5.5674378E-02;  0.0000000E+00; -3.9247535E-03;  2.2029593E+02;
  3.9157408E-01;  9.9999998E-03; -1.6996630E-01;4838;  1.2489063E-02;  0.0000000E+00;  8.7721209E-04;  9.9975403E+02;  1.0000000E-01; -2.0379671E+02;3;  2.0849776E+00;  0.0000000E+00;  2.1170102E-01;0;  5.2031569E-02;  3.9981320E+04;  0.0000000E+00; -3.1881250E-02;  4.0000000E+04;  0.0000000E+00;  4.0000141E+04;  5.5812959E-02;  0.0000000E+00; -3.7813897E-03;  5.3064629E+01;
  3.9159319E-01;  9.9999998E-03; -1.5996559E-01;4839;  1.2824244E-02;  0.0000000E+00;  8.7124587E-04;  9.9983118E+02;  1.0000000E-01; -1.3984790E+02;3;  2.1314979E+00;  0.0000000E+00;  2.0144017E-01;0;  5.2487668E-02;  3.9988551E+04;  0.0000000E+00; -1.9417096E-02;  4.0000000E+04;  0.0000000E+00;  3.9998941E+04;  5.6178760E-02;  0.0000000E+00; -3.6910910E-03;  1.0581733E+02;
  3.9160672E-01;  9.9999998E-03; -1.4996797E-01;4840;  1.3111049E-02;  0.0000000E+00;  8.5688801E-04;  9.9989124E+02;  1.0000000E-01; -9.0120911E+01;3;  2.1716270E+00;  0.0000000E+00;  1.9422331E-01;0;  5.3100441E-02;  3.9993777E+04;  0.0000000E+00;  2.3551355E-03;  4.0000000E+04;  0.0000000E+00;  3.9998652E+04;  5.6751836E-02;  0.0000000E+00; -3.6513940E-03;  1.6047798E+02;
  3.9161816E-01;  9.9999998E-03; -1.3997257E-01;4841;  1.3324512E-02;  0.0000000E+00;  8.2823361E-04;  9.9993939E+02;  1.0000000E-01; -5.0220802E+01;3;  2.2046101E+00;  0.0000000E+00;  1.8571614E-01;0;  5.3850707E-02;  3.9997586E+04;  0.0000000E+00;  2.8771698E-02;  4.0000000E+04;  0.0000000E+00;  3.9998660E+04;  5.7504680E-02;  0.0000000E+00; -3.6539722E-03;  1.7107249E+02;
  3.9162877E-01;  9.9999998E-03; -1.2997843E-01;4842;  1.3454393E-02;  0.0000000E+00;  7.8174041E-04;  9.9997577E+02;  1.0000000E-01; -2.0098198E+01;3;  2.2242301E+00;  0.0000000E+00;  1.7595969E-01;0;  5.4718524E-02;  4.0000254E+04;  0.0000000E+00;  5.4299101E-02;  4.0000000E+04;  0.0000000E+00;  3.9998828E+04;  5.8405895E-02;  0.0000000E+00; -3.6873689E-03;  1.5363484E+02;
  3.9163619E-01;  9.9999998E-03; -1.1998457E-01;4843;  1.3483973E-02;  0.0000000E+00;  7.2110229E-04;  1.0000047E+03;  1.0000000E-01;  3.8517430E+00;3;  2.2284684E+00;  0.0000000E+00;  1.6310252E-01;0;  5.5681556E-02;  4.0002055E+04;  0.0000000E+00;  7.4443199E-02;  4.0000000E+04;  0.0000000E+00;  3.9999441E+04;  5.9421625E-02;  0.0000000E+00; -3.7400669E-03;  1.2981746E+02;
  3.9163882E-01;  9.9999998E-03; -1.0998997E-01;4844;  1.3402754E-02;  0.0000000E+00;  6.5361499E-04;  1.0000268E+03;  1.0000000E-01;  2.2221594E+01;3;  2.2145212E+00;  0.0000000E+00;  1.4908046E-01;0;  5.6713585E-02;  4.0002965E+04;  0.0000000E+00;  8.6774163E-02;  4.0000000E+04;  0.0000000E+00;  4.0000383E+04;  6.0516134E-02;  0.0000000E+00; -3.8025507E-03;  1.2430898E+02;
  4.0133053E-01;  9.9999998E-03; -2.6998815E-01;4889;  1.3102444E-02;  0.0000000E+00;  1.3046255E-03;  9.9842297E+02;  1.0000000E-01; -1.3065310E+03;3;  2.4195092E+00;  0.0000000E+00;  3.4943500E-01;0;  5.5116989E-02;  3.9855945E+04;  0.0000000E+00; -7.9708517E-02;  4.0000000E+04;  0.0000000E+00;  4.0016891E+04;  6.1884440E-02;  0.0000000E+00; -6.7674513E-03;  2.2492412E+03;
  4.0134320E-01;  9.9999998E-03; -2.5999025E-01;4890;  1.2970020E-02;  0.0000000E+00;  1.2465846E-03;  9.9855603E+02;  1.0000000E-01; -1.1963119E+03;3;  2.4037745E+00;  0.0000000E+00;  3.4497526E-01;0;  5.4707687E-02;  3.9867832E+04;  0.0000000E+00; -5.3655293E-02;  4.0000000E+04;  0.0000000E+00;  4.0015992E+04;  6.1222356E-02;  0.0000000E+00; -6.5146685E-03;  2.1187656E+03;
  4.0136480E-01;  9.9999998E-03; -2.4999188E-01;4891;  1.2801839E-02;  0.0000000E+00;  1.2042474E-03;  9.9869989E+02;  1.0000000E-01; -1.0771053E+03;3;  2.3779025E+00;  0.0000000E+00;  3.3744928E-01;0;  5.4227725E-02;  3.9880352E+04;  0.0000000E+00; -3.4922507E-02;  4.0000000E+04;  0.0000000E+00;  4.0014875E+04;  6.0522247E-02;  0.0000000E+00; -6.2945238E-03;  1.9673141E+03;
  4.0139517E-01;  9.9999998E-03; -2.3999211E-01;4892;  1.2624226E-02;  0.0000000E+00;  1.1645182E-03;  9.9884937E+02;  1.0000000E-01; -9.5325702E+02;3;  2.3416264E+00;  0.0000000E+00;  3.2780740E-01;0;  5.3798258E-02;  3.9893723E+04;  0.0000000E+00; -2.2032063E-02;  4.0000000E+04;  0.0000000E+00;  4.0013797E+04;  5.9791230E-02;  0.0000000E+00; -5.9929718E-03;  1.8205513E+03;
  4.0142593E-01;  9.9999998E-03; -2.2999041E-01;4893;  1.2472487E-02;  0.0000000E+00;  1.1359117E-03;  9.9900208E+02;  1.0000000E-01; -8.2674207E+02;3;  2.3001368E+00;  0.0000000E+00;  3.1397974E-01;0;  5.3375196E-02;  3.9907070E+04;  0.0000000E+00; -1.4125544E-02;  4.0000000E+04;  0.0000000E+00;  4.0012461E+04;  5.9052661E-02;  0.0000000E+00; -5.6774649E-03;  1.6503442E+03;
  4.0145284E-01;  9.9999998E-03; -2.1998866E-01;4894;  1.2431398E-02;  0.0000000E+00;  1.1246693E-03;  9.9914551E+02;  1.0000000E-01; -7.0793060E+02;3;  2.2693934E+00;  0.0000000E+00;  3.0509129E-01;0;  5.2981511E-02;  3.9920719E+04;  0.0000000E+00; -1.0374301E-02;  4.0000000E+04;  0.0000000E+00;  4.0010387E+04;  5.8344349E-02;  0.0000000E+00; -5.3628390E-03;  1.3912295E+03;
  4.0147835E-01;  9.9999998E-03; -2.0998494E-01;4895;  1.2522081E-02;  0.0000000E+00;  1.1134025E-03;  9.9927924E+02;  1.0000000E-01; -5.9711890E+02;3;  2.2511709E+00;  0.0000000E+00;  2.9097039E-01;0;  5.2684303E-02;  3.9933891E+04;  0.0000000E+00; -8.9519732E-03;  4.0000000E+04;  0.0000000E+00;  4.0008488E+04;  5.7711832E-02;  0.0000000E+00; -5.0275302E-03;  1.1148319E+03;
  4.0150371E-01;  9.9999998E-03; -1.9997950E-01;4896;  1.2729839E-02;  0.0000000E+00;  1.1111717E-03;  9.9940631E+02;  1.0000000E-01; -4.9183795E+02;3;  2.2466257E+00;  0.0000000E+00;  2.7408779E-01;0;  5.2488327E-02;  3.9946371E+04;  0.0000000E+00; -7.4061011E-03;  4.0000000E+04;  0.0000000E+00;  4.0006102E+04;  5.7203352E-02;  0.0000000E+00; -4.7150250E-03;  8.2914606E+02;
  4.0152776E-01;  9.9999998E-03; -1.8997435E-01;4897;  1.3008689E-02;  0.0000000E+00;  1.1155993E-03;  9.9952325E+02;  1.0000000E-01; -3.9495178E+02;3;  2.2637851E+00;  0.0000000E+00;  2.5688055E-01;0;  5.2423202E-02;  3.9957887E+04;  0.0000000E+00; -3.1568310E-03;  4.0000000E+04;  0.0000000E+00;  4.0003938E+04;  5.6863315E-02;  0.0000000E+00; -4.4401148E-03;  5.5153613E+02;
  4.0154859E-01;  9.9999998E-03; -1.7997086E-01;4898;  1.3314938E-02;  0.0000000E+00;  1.1199553E-03;  9.9962592E+02;  1.0000000E-01; -3.0991718E+02;3;  2.2941287E+00;  0.0000000E+00;  2.4436122E-01;0;  5.2512549E-02;  3.9968480E+04;  0.0000000E+00;  5.8163856E-03;  4.0000000E+04;  0.0000000E+00;  4.0002090E+04;  5.6728829E-02;  0.0000000E+00; -4.2162798E-03;  3.1360696E+02;
  4.0156609E-01;  9.9999998E-03; -1.6996983E-01;4899;  1.3615075E-02;  0.0000000E+00;  1.1170582E-03;  9.9971838E+02;  1.0000000E-01; -2.3332674E+02;3;  2.3311849E+00;  0.0000000E+00;  2.3693505E-01;0;  5.2771304E-02;  3.9977230E+04;  0.0000000E+00;  2.0421641E-02;  4.0000000E+04;  0.0000000E+00;  4.0000852E+04;  5.6824874E-02;  0.0000000E+00; -4.0535713E-03;  1.3716049E+02;
  4.0158147E-01;  9.9999998E-03; -1.5997118E-01;4900;  1.3885641E-02;  0.0000000E+00;  1.1005551E-03;  9.9980237E+02;  1.0000000E-01; -1.6374846E+02;3;  2.3749363E+00;  0.0000000E+00;  2.3058334E-01;0;  5.3207014E-02;  3.9984336E+04;  0.0000000E+00;  4.0025655E-02;  4.0000000E+04;  0.0000000E+00;  3.9999934E+04;  5.7161395E-02;  0.0000000E+00; -3.9543817E-03;  5.8117081E+01;
  4.0159637E-01;  9.9999998E-03; -1.4997458E-01;4901;  1.4115633E-02;  0.0000000E+00;  1.0692605E-03;  9.9986456E+02;  1.0000000E-01; -1.1219436E+02;3;  2.4172075E+00;  0.0000000E+00;  2.2293277E-01;0;  5.3819623E-02;  3.9989793E+04;  0.0000000E+00;  6.2397629E-02;  4.0000000E+04;  0.0000000E+00;  3.9999504E+04;  5.7732739E-02;  0.0000000E+00; -3.9131148E-03;  9.8541092E+01;
  4.0160915E-01;  9.9999998E-03; -1.3997920E-01;4902;  1.4291150E-02;  0.0000000E+00;  1.0285010E-03;  9.9991119E+02;  1.0000000E-01; -7.3578163E+01;3;  2.4486845E+00;  0.0000000E+00;  2.1269813E-01;0;  5.4601993E-02;  3.9993988E+04;  0.0000000E+00;  8.4110767E-02;  4.0000000E+04;  0.0000000E+00;  3.9999859E+04;  5.8520965E-02;  0.0000000E+00; -3.9189714E-03;  1.3545621E+02;
  4.0162089E-01;  9.9999998E-03; -1.2998414E-01;4903;  1.4408964E-02;  0.0000000E+00;  9.7977428E-04;  9.9994800E+02;  1.0000000E-01; -4.3060509E+01;3;  2.4697783E+00;  0.0000000E+00;  2.0075315E-01;0;  5.5540085E-02;  3.9996680E+04;  0.0000000E+00;  1.0151971E-01;  4.0000000E+04;  0.0000000E+00;  3.9999676E+04;  5.9499986E-02;  0.0000000E+00; -3.9599016E-03;  1.5401047E+02;
  4.0163159E-01;  9.9999998E-03; -1.1998855E-01;4904;  1.4477861E-02;  0.0000000E+00;  9.2307845E-04;  9.9996729E+02;  1.0000000E-01; -2.7110344E+01;3;  2.4808493E+00;  0.0000000E+00;  1.8803935E-01;0;  5.6611955E-02;  3.9998398E+04;  0.0000000E+00;  1.1207321E-01;  4.0000000E+04;  0.0000000E+00;  3.9999902E+04;  6.0636569E-02;  0.0000000E+00; -4.0246136E-03;  1.6172569E+02;
  4.0163806E-01;  9.9999998E-03; -1.0999196E-01;4905;  1.4502984E-02;  0.0000000E+00;  8.6063449E-04;  9.9997852E+02;  1.0000000E-01; -1.7777275E+01;3;  2.4811950E+00;  0.0000000E+00;  1.7398106E-01;0;  5.7786040E-02;  3.9998961E+04;  0.0000000E+00;  1.1492916E-01;  4.0000000E+04;  0.0000000E+00;  4.0000336E+04;  6.1889395E-02;  0.0000000E+00; -4.1033570E-03;  1.6525526E+02;
  4.1134346E-01;  9.9999998E-03; -2.6998711E-01;4950;  1.3100330E-02;  0.0000000E+00;  1.3933979E-03;  9.9837836E+02;  1.0000000E-01; -1.3435176E+03;3;  2.4198267E+00;  0.0000000E+00;  3.5221532E-01;0;  5.5812988E-02;  3.9851797E+04;  0.0000000E+00; -1.3518234E-01;  4.0000000E+04;  0.0000000E+00;  4.0016969E+04;  6.2896930E-02;  0.0000000E+00; -7.0839426E-03;  2.2892173E+03;
  4.1135514E-01;  9.9999998E-03; -2.5998899E-01;4951;  1.3001272E-02;  0.0000000E+00;  1.3383941E-03;  9.9851141E+02;  1.0000000E-01; -1.2332490E+03;3;  2.4133646E+00;  0.0000000E+00;  3.4706673E-01;0;  5.5351585E-02;  3.9863223E+04;  0.0000000E+00; -1.2265155E-01;  4.0000000E+04;  0.0000000E+00;  4.0016281E+04;  6.2263314E-02;  0.0000000E+00; -6.9117276E-03;  2.1538264E+03;
  4.1137075E-01;  9.9999998E-03; -2.4999015E-01;4952;  1.2901136E-02;  0.0000000E+00;  1.2891643E-03;  9.9865497E+02;  1.0000000E-01; -1.1143389E+03;3;  2.4083252E+00;  0.0000000E+00;  3.4137303E-01;0;  5.4917488E-02;  3.9875668E+04;  0.0000000E+00; -1.1057576E-01;  4.0000000E+04;  0.0000000E+00;  4.0014992E+04;  6.1581146E-02;  0.0000000E+00; -6.6636573E-03;  2.0151237E+03;
  4.1139385E-01;  9.9999998E-03; -2.3998880E-01;4953;  1.2797203E-02;  0.0000000E+00;  1.2304677E-03;  9.9880450E+02;  1.0000000E-01; -9.9044110E+02;3;  2.3956289E+00;  0.0000000E+00;  3.3364639E-01;0;  5.4565642E-02;  3.9888812E+04;  0.0000000E+00; -9.6920997E-02;  4.0000000E+04;  0.0000000E+00;  4.0014375E+04;  6.0851570E-02;  0.0000000E+00; -6.2859291E-03;  1.9264094E+03;
  4.1141883E-01;  9.9999998E-03; -2.2998512E-01;4954;  1.2740467E-02;  0.0000000E+00;  1.1947107E-03;  9.9896387E+02;  1.0000000E-01; -8.5839545E+02;3;  2.3845603E+00;  0.0000000E+00;  3.2851925E-01;0;  5.4118387E-02;  3.9902453E+04;  0.0000000E+00; -8.1374899E-02;  4.0000000E+04;  0.0000000E+00;  4.0013574E+04;  6.0091332E-02;  0.0000000E+00; -5.9729451E-03;  1.7929257E+03;
  4.1144225E-01;  9.9999998E-03; -2.1998435E-01;4955;  1.2809553E-02;  0.0000000E+00;  1.1957751E-03;  9.9910254E+02;  1.0000000E-01; -7.4353455E+02;3;  2.3734665E+00;  0.0000000E+00;  3.1701967E-01;0;  5.3634021E-02;  3.9915926E+04;  0.0000000E+00; -6.4157002E-02;  4.0000000E+04;  0.0000000E+00;  4.0011328E+04;  5.9333768E-02;  0.0000000E+00; -5.6997468E-03;  1.4898877E+03;
  4.1146472E-01;  9.9999998E-03; -2.0998459E-01;4956;  1.3016715E-02;  0.0000000E+00;  1.1980876E-03;  9.9923645E+02;  1.0000000E-01; -6.3257471E+02;3;  2.3696017E+00;  0.0000000E+00;  2.9981139E-01;0;  5.3246386E-02;  3.9929184E+04;  0.0000000E+00; -4.5133375E-02;  4.0000000E+04;  0.0000000E+00;  4.0008848E+04;  5.8623623E-02;  0.0000000E+00; -5.3772349E-03;  1.1694108E+03;
  4.1148597E-01;  9.9999998E-03; -1.9998337E-01;4957;  1.3294052E-02;  0.0000000E+00;  1.2033597E-03;  9.9936621E+02;  1.0000000E-01; -5.2507159E+02;3;  2.3830690E+00;  0.0000000E+00;  2.8158033E-01;0;  5.2956700E-02;  3.9941984E+04;  0.0000000E+00; -2.3973353E-02;  4.0000000E+04;  0.0000000E+00;  4.0006820E+04;  5.8013137E-02;  0.0000000E+00; -5.0564385E-03;  8.8506372E+02;
  4.1150543E-01;  9.9999998E-03; -1.8998191E-01;4958;  1.3588629E-02;  0.0000000E+00;  1.2054539E-03;  9.9948627E+02;  1.0000000E-01; -4.2561758E+02;3;  2.4103518E+00;  0.0000000E+00;  2.6869282E-01;0;  5.2790634E-02;  3.9953848E+04;  0.0000000E+00; -4.2472931E-04;  4.0000000E+04;  0.0000000E+00;  4.0004996E+04;  5.7556853E-02;  0.0000000E+00; -4.7662179E-03;  6.3112671E+02;
  4.1152358E-01;  9.9999998E-03; -1.7998131E-01;4959;  1.3875334E-02;  0.0000000E+00;  1.1963778E-03;  9.9959778E+02;  1.0000000E-01; -3.3322516E+02;3;  2.4460480E+00;  0.0000000E+00;  2.5858393E-01;0;  5.2777167E-02;  3.9964348E+04;  0.0000000E+00;  2.5287425E-02;  4.0000000E+04;  0.0000000E+00;  4.0003242E+04;  5.7305478E-02;  0.0000000E+00; -4.5283092E-03;  4.1965244E+02;
  4.1154057E-01;  9.9999998E-03; -1.6998200E-01;4960;  1.4139431E-02;  0.0000000E+00;  1.1765849E-03;  9.9969360E+02;  1.0000000E-01; -2.5381998E+02;3;  2.4867129E+00;  0.0000000E+00;  2.5385180E-01;0;  5.2942961E-02;  3.9973590E+04;  0.0000000E+00;  5.2248243E-02;  4.0000000E+04;  0.0000000E+00;  4.0001926E+04;  5.7298128E-02;  0.0000000E+00; -4.3551652E-03;  2.6435370E+02;
  4.1155747E-01;  9.9999998E-03; -1.5998405E-01;4961;  1.4364482E-02;  0.0000000E+00;  1.1478198E-03;  9.9977673E+02;  1.0000000E-01; -1.8498242E+02;3;  2.5234127E+00;  0.0000000E+00;  2.4470903E-01;0;  5.3309813E-02;  3.9981148E+04;  0.0000000E+00;  7.8776158E-02;  4.0000000E+04;  0.0000000E+00;  4.0001137E+04;  5.7557631E-02;  0.0000000E+00; -4.2478167E-03;  1.7760025E+02;
  4.1157407E-01;  9.9999998E-03; -1.4998709E-01;4962;  1.4548968E-02;  0.0000000E+00;  1.1107612E-03;  9.9984436E+02;  1.0000000E-01; -1.2893463E+02;3;  2.5550404E+00;  0.0000000E+00;  2.3481996E-01;0;  5.3887650E-02;  3.9987152E+04;  0.0000000E+00;  1.0262410E-01;  4.0000000E+04;  0.0000000E+00;  4.0000441E+04;  5.8087979E-02;  0.0000000E+00; -4.2003272E-03;  1.5951479E+02;
  4.1159064E-01;  9.9999998E-03; -1.3999051E-01;4963;  1.4696475E-02;  0.0000000E+00;  1.0648435E-03;  9.9989185E+02;  1.0000000E-01; -8.9627098E+01;3;  2.5811727E+00;  0.0000000E+00;  2.2278455E-01;0;  5.4672420E-02;  3.9991184E+04;  0.0000000E+00;  1.2138985E-01;  4.0000000E+04;  0.0000000E+00;  4.0000203E+04;  5.8875568E-02;  0.0000000E+00; -4.2031473E-03;  1.7460480E+02;
  4.1160542E-01;  9.9999998E-03; -1.2999368E-01;4964;  1.4814043E-02;  0.0000000E+00;  1.0127934E-03;  9.9992340E+02;  1.0000000E-01; -6.3454994E+01;3;  2.5983641E+00;  0.0000000E+00;  2.0917538E-01;0;  5.5648707E-02;  3.9994012E+04;  0.0000000E+00;  1.3307397E-01;  4.0000000E+04;  0.0000000E+00;  4.0000176E+04;  5.9894022E-02;  0.0000000E+00; -4.2453161E-03;  1.9006805E+02;
  4.1161755E-01;  9.9999998E-03; -1.1999603E-01;4965;  1.4909476E-02;  0.0000000E+00;  9.5596112E-04;  9.9993951E+02;  1.0000000E-01; -5.0122040E+01;3;  2.6123731E+00;  0.0000000E+00;  1.9496833E-01;0;  5.6788135E-02;  3.9995262E+04;  0.0000000E+00;  1.3678621E-01;  4.0000000E+04;  0.0000000E+00;  4.0000168E+04;  6.1104279E-02;  0.0000000E+00; -4.3161437E-03;  1.9564378E+02;
  4.1162720E-01;  9.9999998E-03; -1.0999715E-01;4966;  1.4989836E-02;  0.0000000E+00;  8.9585845E-04;  9.9993597E+02;  1.0000000E-01; -5.3035538E+01;3;  2.6247535E+00;  0.0000000E+00;  1.8025482E-01;0;  5.8049444E-02;  3.9995309E+04;  0.0000000E+00;  1.3300474E-01;  4.0000000E+04;  0.0000000E+00;  4.0000199E+04;  6.2455509E-02;  0.0000000E+00; -4.4060657E-03;  1.9098535E+02;
  4.2137790E-01;  9.9999998E-03; -2.6998639E-01;5011;  1.3091468E-02;  0.0000000E+00;  1.4673111E-03;  9.9834570E+02;  1.0000000E-01; -1.3705292E+03;3;  2.4189670E+00;  0.0000000E+00;  3.5339752E-01;0;  5.7705406E-02;  3.9848777E+04;  0.0000000E+00; -1.8284562E-01;  4.0000000E+04;  0.0000000E+00;  4.0017199E+04;  6.4920492E-02;  0.0000000E+00; -7.2150873E-03;  2.2926379E+03;
  4.2139047E-01;  9.9999998E-03; -2.5998822E-01;5012;  1.3023734E-02;  0.0000000E+00;  1.4007499E-03;  9.9847632E+02;  1.0000000E-01; -1.2623347E+03;3;  2.4209712E+00;  0.0000000E+00;  3.4518081E-01;0;  5.7144202E-02;  3.9860039E+04;  0.0000000E+00; -1.8189999E-01;  4.0000000E+04;  0.0000000E+00;  4.0016062E+04;  6.4193442E-02;  0.0000000E+00; -7.0492383E-03;  2.1548137E+03;
  4.2139849E-01;  9.9999998E-03; -2.4998909E-01;5013;  1.2970597E-02;  0.0000000E+00;  1.3350906E-03;  9.9861523E+02;  1.0000000E-01; -1.1472762E+03;3;  2.4199991E+00;  0.0000000E+00;  3.3753017E-01;0;  5.6600124E-02;  3.9872195E+04;  0.0000000E+00; -1.7470692E-01;  4.0000000E+04;  0.0000000E+00;  4.0015254E+04;  6.3398942E-02;  0.0000000E+00; -6.7988201E-03;  2.0342021E+03;
  4.2140946E-01;  9.9999998E-03; -2.3998713E-01;5014;  1.2932275E-02;  0.0000000E+00;  1.2588802E-03;  9.9877112E+02;  1.0000000E-01; -1.0180947E+03;3;  2.4223559E+00;  0.0000000E+00;  3.3173281E-01;0;  5.6096446E-02;  3.9885266E+04;  0.0000000E+00; -1.6106227E-01;  4.0000000E+04;  0.0000000E+00;  4.0014879E+04;  6.2539749E-02;  0.0000000E+00; -6.4433031E-03;  1.9774846E+03;
  4.2142284E-01;  9.9999998E-03; -2.2998311E-01;5015;  1.2943888E-02;  0.0000000E+00;  1.2155641E-03;  9.9892755E+02;  1.0000000E-01; -8.8851807E+02;3;  2.4303777E+00;  0.0000000E+00;  3.2210049E-01;0;  5.5433050E-02;  3.9898648E+04;  0.0000000E+00; -1.4140868E-01;  4.0000000E+04;  0.0000000E+00;  4.0014176E+04;  6.1633073E-02;  0.0000000E+00; -6.2000239E-03;  1.8582437E+03;
  4.2143741E-01;  9.9999998E-03; -2.1998523E-01;5016;  1.3074174E-02;  0.0000000E+00;  1.2124910E-03;  9.9906061E+02;  1.0000000E-01; -7.7824957E+02;3;  2.4333849E+00;  0.0000000E+00;  3.1195024E-01;0;  5.4728977E-02;  3.9911949E+04;  0.0000000E+00; -1.1621928E-01;  4.0000000E+04;  0.0000000E+00;  4.0011270E+04;  6.0713161E-02;  0.0000000E+00; -5.9841829E-03;  1.5105081E+03;
  4.2145354E-01;  9.9999998E-03; -2.0999031E-01;5017;  1.3313507E-02;  0.0000000E+00;  1.2067513E-03;  9.9919812E+02;  1.0000000E-01; -6.6432690E+02;3;  2.4436281E+00;  0.0000000E+00;  2.9867461E-01;0;  5.4134525E-02;  3.9925352E+04;  0.0000000E+00; -8.6023495E-02;  4.0000000E+04;  0.0000000E+00;  4.0009020E+04;  5.9828125E-02;  0.0000000E+00; -5.6935991E-03;  1.1719854E+03;
  4.2147020E-01;  9.9999998E-03; -1.9999319E-01;5018;  1.3590313E-02;  0.0000000E+00;  1.1970832E-03;  9.9933185E+02;  1.0000000E-01; -5.5356458E+02;3;  2.4662156E+00;  0.0000000E+00;  2.8506610E-01;0;  5.3648576E-02;  3.9938363E+04;  0.0000000E+00; -5.1665530E-02;  4.0000000E+04;  0.0000000E+00;  4.0006887E+04;  5.9036803E-02;  0.0000000E+00; -5.3882264E-03;  9.1418634E+02;
  4.2148679E-01;  9.9999998E-03; -1.8999459E-01;5019;  1.3873997E-02;  0.0000000E+00;  1.1833783E-03;  9.9945953E+02;  1.0000000E-01; -4.4778979E+02;3;  2.4957850E+00;  0.0000000E+00;  2.7458981E-01;0;  5.3297102E-02;  3.9950320E+04;  0.0000000E+00; -1.4445389E-02;  4.0000000E+04;  0.0000000E+00;  4.0005387E+04;  5.8403581E-02;  0.0000000E+00; -5.1064803E-03;  6.9784119E+02;
  4.2150334E-01;  9.9999998E-03; -1.7999560E-01;5020;  1.4136597E-02;  0.0000000E+00;  1.1631524E-03;  9.9957568E+02;  1.0000000E-01; -3.5154562E+02;3;  2.5306048E+00;  0.0000000E+00;  2.6406372E-01;0;  5.3120106E-02;  3.9961426E+04;  0.0000000E+00;  2.3746423E-02;  4.0000000E+04;  0.0000000E+00;  4.0004062E+04;  5.7990201E-02;  0.0000000E+00; -4.8700953E-03;  5.1524707E+02;
  4.2152017E-01;  9.9999998E-03; -1.6999692E-01;5021;  1.4364695E-02;  0.0000000E+00;  1.1354104E-03;  9.9968054E+02;  1.0000000E-01; -2.6468387E+02;3;  2.5657713E+00;  0.0000000E+00;  2.5498825E-01;0;  5.3155921E-02;  3.9970949E+04;  0.0000000E+00;  6.0518652E-02;  4.0000000E+04;  0.0000000E+00;  4.0002812E+04;  5.7846762E-02;  0.0000000E+00; -4.6908394E-03;  3.7276907E+02;
  4.2153725E-01;  9.9999998E-03; -1.5999871E-01;5022;  1.4559645E-02;  0.0000000E+00;  1.1000865E-03;  9.9976599E+02;  1.0000000E-01; -1.9387106E+02;3;  2.5987945E+00;  0.0000000E+00;  2.4411561E-01;0;  5.3432126E-02;  3.9978879E+04;  0.0000000E+00;  9.3239672E-02;  4.0000000E+04;  0.0000000E+00;  4.0001855E+04;  5.8004603E-02;  0.0000000E+00; -4.5724781E-03;  2.7788852E+02;
  4.2155439E-01;  9.9999998E-03; -1.5000087E-01;5023;  1.4723987E-02;  0.0000000E+00;  1.0587204E-03;  9.9983636E+02;  1.0000000E-01; -1.3555173E+02;3;  2.6291170E+00;  0.0000000E+00;  2.3173022E-01;0;  5.3959381E-02;  3.9985258E+04;  0.0000000E+00;  1.1949636E-01;  4.0000000E+04;  0.0000000E+00;  4.0001234E+04;  5.8472335E-02;  0.0000000E+00; -4.5129554E-03;  2.3090800E+02;
  4.2157149E-01;  9.9999998E-03; -1.4000283E-01;5024;  1.4865143E-02;  0.0000000E+00;  1.0129173E-03;  9.9988470E+02;  1.0000000E-01; -9.5503471E+01;3;  2.6507559E+00;  0.0000000E+00;  2.1947600E-01;0;  5.4730747E-02;  3.9989488E+04;  0.0000000E+00;  1.3753222E-01;  4.0000000E+04;  0.0000000E+00;  4.0000543E+04;  5.9236918E-02;  0.0000000E+00; -4.5061717E-03;  2.1719896E+02;
  4.2158848E-01;  9.9999998E-03; -1.3000415E-01;5025;  1.4991391E-02;  0.0000000E+00;  9.6290419E-04;  9.9991235E+02;  1.0000000E-01; -7.2590538E+01;3;  2.6705303E+00;  0.0000000E+00;  2.0558573E-01;0;  5.5722814E-02;  3.9992156E+04;  0.0000000E+00;  1.4654784E-01;  4.0000000E+04;  0.0000000E+00;  4.0000520E+04;  6.0266268E-02;  0.0000000E+00; -4.5434530E-03;  2.1511247E+02;
  4.2160374E-01;  9.9999998E-03; -1.2000446E-01;5026;  1.5117067E-02;  0.0000000E+00;  9.1490889E-04;  9.9992120E+02;  1.0000000E-01; -6.5282104E+01;3;  2.6916995E+00;  0.0000000E+00;  1.9426569E-01;0;  5.6896996E-02;  3.9993207E+04;  0.0000000E+00;  1.4686558E-01;  4.0000000E+04;  0.0000000E+00;  4.0000117E+04;  6.1511993E-02;  0.0000000E+00; -4.6149991E-03;  2.1088583E+02;
  4.2161608E-01;  9.9999998E-03; -1.1000361E-01;5027;  1.5243751E-02;  0.0000000E+00;  8.6435064E-04;  9.9990961E+02;  1.0000000E-01; -7.4911461E+01;3;  2.7142015E+00;  0.0000000E+00;  1.8007837E-01;0;  5.8200095E-02;  3.9992449E+04;  0.0000000E+00;  1.3978752E-01;  4.0000000E+04;  0.0000000E+00;  3.9999742E+04;  6.2911443E-02;  0.0000000E+00; -4.7113476E-03;  1.9998955E+02;
  4.3141958E-01;  9.9999998E-03; -2.6998621E-01;5072;  1.3115159E-02;  0.0000000E+00;  1.5272871E-03;  9.9833795E+02;  1.0000000E-01; -1.3769980E+03;3;  2.4250760E+00;  0.0000000E+00;  3.5323006E-01;0;  6.0831480E-02;  3.9848379E+04;  0.0000000E+00; -2.0239741E-01;  4.0000000E+04;  0.0000000E+00;  4.0016691E+04;  6.7984678E-02;  0.0000000E+00; -7.1531972E-03;  2.2432932E+03;
  4.3143353E-01;  9.9999998E-03; -2.5998813E-01;5073;  1.3074485E-02;  0.0000000E+00;  1.4399593E-03;  9.9846277E+02;  1.0000000E-01; -1.2735442E+03;3;  2.4286113E+00;  0.0000000E+00;  3.4361625E-01;0;  6.0125045E-02;  3.9859258E+04;  0.0000000E+00; -2.1641791E-01;  4.0000000E+04;  0.0000000E+00;  4.0015562E+04;  6.7089163E-02;  0.0000000E+00; -6.9641154E-03;  2.1041133E+03;
  4.3143776E-01;  9.9999998E-03; -2.4998911E-01;5074;  1.3066502E-02;  0.0000000E+00;  1.3505968E-03;  9.9859717E+02;  1.0000000E-01; -1.1622388E+03;3;  2.4369073E+00;  0.0000000E+00;  3.3352345E-01;0;  5.9366845E-02;  3.9871105E+04;  0.0000000E+00; -2.1723463E-01;  4.0000000E+04;  0.0000000E+00;  4.0014852E+04;  6.6104405E-02;  0.0000000E+00; -6.7375605E-03;  1.9961075E+03;
  4.3144128E-01;  9.9999998E-03; -2.3998718E-01;5075;  1.3087105E-02;  0.0000000E+00;  1.2536453E-03;  9.9875336E+02;  1.0000000E-01; -1.0328103E+03;3;  2.4479887E+00;  0.0000000E+00;  3.2440293E-01;0;  5.8574006E-02;  3.9883680E+04;  0.0000000E+00; -2.0719138E-01;  4.0000000E+04;  0.0000000E+00;  4.0014754E+04;  6.5040432E-02;  0.0000000E+00; -6.4664278E-03;  1.9626130E+03;
  4.3144751E-01;  9.9999998E-03; -2.2998366E-01;5076;  1.3146322E-02;  0.0000000E+00;  1.1988663E-03;  9.9890887E+02;  1.0000000E-01; -9.0397443E+02;3;  2.4656341E+00;  0.0000000E+00;  3.1423423E-01;0;  5.7576414E-02;  3.9896789E+04;  0.0000000E+00; -1.8781205E-01;  4.0000000E+04;  0.0000000E+00;  4.0013844E+04;  6.3920490E-02;  0.0000000E+00; -6.3440772E-03;  1.8543685E+03;
  4.3145451E-01;  9.9999998E-03; -2.1998829E-01;5077;  1.3302918E-02;  0.0000000E+00;  1.1880662E-03;  9.9903668E+02;  1.0000000E-01; -7.9810089E+02;3;  2.4777265E+00;  0.0000000E+00;  3.0404714E-01;0;  5.6554798E-02;  3.9910215E+04;  0.0000000E+00; -1.6024946E-01;  4.0000000E+04;  0.0000000E+00;  4.0011184E+04;  6.2783413E-02;  0.0000000E+00; -6.2286146E-03;  1.4922139E+03;
  4.3146357E-01;  9.9999998E-03; -2.0999697E-01;5078;  1.3538660E-02;  0.0000000E+00;  1.1671663E-03;  9.9917181E+02;  1.0000000E-01; -6.8615344E+02;3;  2.4983656E+00;  0.0000000E+00;  2.9327017E-01;0;  5.5685706E-02;  3.9923312E+04;  0.0000000E+00; -1.2547393E-01;  4.0000000E+04;  0.0000000E+00;  4.0008465E+04;  6.1683428E-02;  0.0000000E+00; -5.9977225E-03;  1.1594874E+03;
  4.3147442E-01;  9.9999998E-03; -2.0000307E-01;5079;  1.3793804E-02;  0.0000000E+00;  1.1393875E-03;  9.9930695E+02;  1.0000000E-01; -5.7420599E+02;3;  2.5249901E+00;  0.0000000E+00;  2.8173223E-01;0;  5.4955073E-02;  3.9936430E+04;  0.0000000E+00; -8.4863752E-02;  4.0000000E+04;  0.0000000E+00;  4.0006758E+04;  6.0686216E-02;  0.0000000E+00; -5.7311440E-03;  9.3156598E+02;
  4.3148652E-01;  9.9999998E-03; -1.9000655E-01;5080;  1.4044818E-02;  0.0000000E+00;  1.1111364E-03;  9.9944202E+02;  1.0000000E-01; -4.6225854E+02;3;  2.5558903E+00;  0.0000000E+00;  2.7000037E-01;0;  5.4392129E-02;  3.9948496E+04;  0.0000000E+00; -4.0490270E-02;  4.0000000E+04;  0.0000000E+00;  4.0005719E+04;  5.9864987E-02;  0.0000000E+00; -5.4728570E-03;  7.4883337E+02;
  4.3149930E-01;  9.9999998E-03; -1.8000868E-01;5081;  1.4270474E-02;  0.0000000E+00;  1.0811470E-03;  9.9956903E+02;  1.0000000E-01; -3.5702695E+02;3;  2.5846236E+00;  0.0000000E+00;  2.5878072E-01;0;  5.4044966E-02;  3.9959867E+04;  0.0000000E+00;  4.7970032E-03;  4.0000000E+04;  0.0000000E+00;  4.0004520E+04;  5.9288811E-02;  0.0000000E+00; -5.2438448E-03;  5.8792902E+02;
  4.3151316E-01;  9.9999998E-03; -1.7001018E-01;5082;  1.4470918E-02;  0.0000000E+00;  1.0475699E-03;  9.9967480E+02;  1.0000000E-01; -2.6942447E+02;3;  2.6139936E+00;  0.0000000E+00;  2.4793211E-01;0;  5.3956039E-02;  3.9969484E+04;  0.0000000E+00;  4.7662452E-02;  4.0000000E+04;  0.0000000E+00;  4.0003320E+04;  5.9014611E-02;  0.0000000E+00; -5.0585731E-03;  4.5073212E+02;
  4.3152827E-01;  9.9999998E-03; -1.6001150E-01;5083;  1.4644566E-02;  0.0000000E+00;  1.0100919E-03;  9.9976367E+02;  1.0000000E-01; -1.9579694E+02;3;  2.6423113E+00;  0.0000000E+00;  2.3648922E-01;0;  5.4152116E-02;  3.9977594E+04;  0.0000000E+00;  8.4796041E-02;  4.0000000E+04;  0.0000000E+00;  4.0002445E+04;  5.9078127E-02;  0.0000000E+00; -4.9260128E-03;  3.4447971E+02;
  4.3154460E-01;  9.9999998E-03; -1.5001270E-01;5084;  1.4798349E-02;  0.0000000E+00;  9.6874184E-04;  9.9983197E+02;  1.0000000E-01; -1.3920593E+02;3;  2.6693742E+00;  0.0000000E+00;  2.2417264E-01;0;  5.4638993E-02;  3.9983855E+04;  0.0000000E+00;  1.1356623E-01;  4.0000000E+04;  0.0000000E+00;  4.0001598E+04;  5.9488859E-02;  0.0000000E+00; -4.8498651E-03;  2.7342731E+02;
  4.3156230E-01;  9.9999998E-03; -1.4001344E-01;5085;  1.4947713E-02;  0.0000000E+00;  9.2701090E-04;  9.9987817E+02;  1.0000000E-01; -1.0093542E+02;3;  2.6969669E+00;  0.0000000E+00;  2.1281743E-01;0;  5.5401847E-02;  3.9988445E+04;  0.0000000E+00;  1.3252161E-01;  4.0000000E+04;  0.0000000E+00;  4.0001043E+04;  6.0230628E-02;  0.0000000E+00; -4.8287795E-03;  2.3390839E+02;
  4.3158069E-01;  9.9999998E-03; -1.3001338E-01;5086;  1.5090887E-02;  0.0000000E+00;  8.8410417E-04;  9.9990436E+02;  1.0000000E-01; -7.9257019E+01;3;  2.7187407E+00;  0.0000000E+00;  2.0033140E-01;0;  5.6406543E-02;  3.9991086E+04;  0.0000000E+00;  1.4159046E-01;  4.0000000E+04;  0.0000000E+00;  4.0000410E+04;  6.1263438E-02;  0.0000000E+00; -4.8568966E-03;  2.1447974E+02;
  4.3159872E-01;  9.9999998E-03; -1.2001238E-01;5087;  1.5233492E-02;  0.0000000E+00;  8.3744898E-04;  9.9990997E+02;  1.0000000E-01; -7.4565796E+01;3;  2.7437723E+00;  0.0000000E+00;  1.8639982E-01;0;  5.7601832E-02;  3.9991898E+04;  0.0000000E+00;  1.4173263E-01;  4.0000000E+04;  0.0000000E+00;  3.9999770E+04;  6.2527388E-02;  0.0000000E+00; -4.9255574E-03;  2.0345918E+02;
  4.3161458E-01;  9.9999998E-03; -1.1001040E-01;5088;  1.5388493E-02;  0.0000000E+00;  7.8735885E-04;  9.9988654E+02;  1.0000000E-01; -9.4022034E+01;3;  2.7721450E+00;  0.0000000E+00;  1.7219260E-01;0;  5.8921427E-02;  3.9990844E+04;  0.0000000E+00;  1.3460925E-01;  4.0000000E+04;  0.0000000E+00;  3.9999766E+04;  6.3946836E-02;  0.0000000E+00; -5.0254073E-03;  1.9392709E+02;
  4.4147000E-01;  9.9999998E-03; -2.6998654E-01;5133;  1.3200874E-02;  0.0000000E+00;  1.5821550E-03;  9.9835931E+02;  1.0000000E-01; -1.3592701E+03;3;  2.4348397E+00;  0.0000000E+00;  3.5209218E-01;0;  6.4864352E-02;  3.9850809E+04;  0.0000000E+00; -1.8988715E-01;  4.0000000E+04;  0.0000000E+00;  4.0015867E+04;  7.1832471E-02;  0.0000000E+00; -6.9681178E-03;  2.1375500E+03;
  4.4148189E-01;  9.9999998E-03; -2.5998881E-01;5134;  1.3200654E-02;  0.0000000E+00;  1.4674609E-03;  9.9847534E+02;  1.0000000E-01; -1.2631742E+03;3;  2.4461215E+00;  0.0000000E+00;  3.4014890E-01;0;  6.4026356E-02;  3.9861363E+04;  0.0000000E+00; -2.2146489E-01;  4.0000000E+04;  0.0000000E+00;  4.0014793E+04;  7.0752650E-02;  0.0000000E+00; -6.7262938E-03;  1.9973011E+03;
  4.4148377E-01;  9.9999998E-03; -2.4999021E-01;5135;  1.3235768E-02;  0.0000000E+00;  1.3496951E-03;  9.9860645E+02;  1.0000000E-01; -1.1545353E+03;3;  2.4617548E+00;  0.0000000E+00;  3.2666594E-01;0;  6.3027747E-02;  3.9872555E+04;  0.0000000E+00; -2.3317765E-01;  4.0000000E+04;  0.0000000E+00;  4.0013859E+04;  6.9566444E-02;  0.0000000E+00; -6.5386998E-03;  1.8955729E+03;
  4.4148269E-01;  9.9999998E-03; -2.3998888E-01;5136;  1.3288713E-02;  0.0000000E+00;  1.2356088E-03;  9.9875543E+02;  1.0000000E-01; -1.0310819E+03;3;  2.4790833E+00;  0.0000000E+00;  3.1567100E-01;0;  6.1875727E-02;  3.9884695E+04;  0.0000000E+00; -2.2994412E-01;  4.0000000E+04;  0.0000000E+00;  4.0013957E+04;  6.8293400E-02;  0.0000000E+00; -6.4176735E-03;  1.8746237E+03;
  4.4148442E-01;  9.9999998E-03; -2.2998634E-01;5137;  1.3375058E-02;  0.0000000E+00;  1.1665910E-03;  9.9890576E+02;  1.0000000E-01; -9.0654224E+02;3;  2.4967906E+00;  0.0000000E+00;  3.0447048E-01;0;  6.0523789E-02;  3.9897281E+04;  0.0000000E+00; -2.1475650E-01;  4.0000000E+04;  0.0000000E+00;  4.0013191E+04;  6.6965424E-02;  0.0000000E+00; -6.4416332E-03;  1.7811979E+03;
  4.4148722E-01;  9.9999998E-03; -2.1999173E-01;5138;  1.3537996E-02;  0.0000000E+00;  1.1405039E-03;  9.9903510E+02;  1.0000000E-01; -7.9938483E+02;3;  2.5177343E+00;  0.0000000E+00;  2.9369125E-01;0;  5.9187315E-02;  3.9910180E+04;  0.0000000E+00; -1.8966879E-01;  4.0000000E+04;  0.0000000E+00;  4.0010988E+04;  6.5627620E-02;  0.0000000E+00; -6.4403061E-03;  1.4510337E+03;
  4.4149074E-01;  9.9999998E-03; -2.1000156E-01;5139;  1.3748299E-02;  0.0000000E+00;  1.1035455E-03;  9.9916437E+02;  1.0000000E-01; -6.9232611E+02;3;  2.5442405E+00;  0.0000000E+00;  2.8355381E-01;0;  5.8046818E-02;  3.9922977E+04;  0.0000000E+00; -1.5609333E-01;  4.0000000E+04;  0.0000000E+00;  4.0008555E+04;  6.4339980E-02;  0.0000000E+00; -6.2931608E-03;  1.1466328E+03;
  4.4149539E-01;  9.9999998E-03; -2.0000939E-01;5140;  1.3961895E-02;  0.0000000E+00;  1.0608488E-03;  9.9930707E+02;  1.0000000E-01; -5.7405786E+02;3;  2.5720091E+00;  0.0000000E+00;  2.7286482E-01;0;  5.7091009E-02;  3.9935691E+04;  0.0000000E+00; -1.1561476E-01;  4.0000000E+04;  0.0000000E+00;  4.0006906E+04;  6.3174777E-02;  0.0000000E+00; -6.0837679E-03;  9.4151263E+02;
  4.4150132E-01;  9.9999998E-03; -1.9001418E-01;5141;  1.4161504E-02;  0.0000000E+00;  1.0220250E-03;  9.9943713E+02;  1.0000000E-01; -4.6630780E+02;3;  2.5988421E+00;  0.0000000E+00;  2.6165345E-01;0;  5.6351207E-02;  3.9947965E+04;  0.0000000E+00; -7.0535123E-02;  4.0000000E+04;  0.0000000E+00;  4.0005840E+04;  6.2209774E-02;  0.0000000E+00; -5.8585671E-03;  7.7956049E+02;
  4.4150895E-01;  9.9999998E-03; -1.8001702E-01;5142;  1.4352079E-02;  0.0000000E+00;  9.8437106E-04;  9.9956653E+02;  1.0000000E-01; -3.5910095E+02;3;  2.6248405E+00;  0.0000000E+00;  2.5021532E-01;0;  5.5878349E-02;  3.9959078E+04;  0.0000000E+00; -2.3995129E-02;  4.0000000E+04;  0.0000000E+00;  4.0004430E+04;  6.1518870E-02;  0.0000000E+00; -5.6405216E-03;  6.3070325E+02;
  4.4151890E-01;  9.9999998E-03; -1.7001876E-01;5143;  1.4525168E-02;  0.0000000E+00;  9.4623712E-04;  9.9967090E+02;  1.0000000E-01; -2.7263428E+02;3;  2.6500587E+00;  0.0000000E+00;  2.3828450E-01;0;  5.5711538E-02;  3.9968750E+04;  0.0000000E+00;  2.0341564E-02;  4.0000000E+04;  0.0000000E+00;  4.0003500E+04;  6.1161347E-02;  0.0000000E+00; -5.4498077E-03;  4.9355936E+02;
  4.4153142E-01;  9.9999998E-03; -1.6001995E-01;5144;  1.4686652E-02;  0.0000000E+00;  9.0689189E-04;  9.9976117E+02;  1.0000000E-01; -1.9787094E+02;3;  2.6776807E+00;  0.0000000E+00;  2.2728464E-01;0;  5.5871356E-02;  3.9977047E+04;  0.0000000E+00;  5.8904182E-02;  4.0000000E+04;  0.0000000E+00;  4.0002691E+04;  6.1173502E-02;  0.0000000E+00; -5.3021461E-03;  3.7554758E+02;
  4.4154647E-01;  9.9999998E-03; -1.5002067E-01;5145;  1.4845901E-02;  0.0000000E+00;  8.6726842E-04;  9.9983527E+02;  1.0000000E-01; -1.3648996E+02;3;  2.7047246E+00;  0.0000000E+00;  2.1512283E-01;0;  5.6355432E-02;  3.9983715E+04;  0.0000000E+00;  8.8975281E-02;  4.0000000E+04;  0.0000000E+00;  4.0001695E+04;  6.1563306E-02;  0.0000000E+00; -5.2078743E-03;  2.8390283E+02;
  4.4156367E-01;  9.9999998E-03; -1.4002070E-01;5146;  1.4997495E-02;  0.0000000E+00;  8.2692766E-04;  9.9987836E+02;  1.0000000E-01; -1.0078727E+02;3;  2.7285891E+00;  0.0000000E+00;  2.0281634E-01;0;  5.7138417E-02;  3.9988277E+04;  0.0000000E+00;  1.0928210E-01;  4.0000000E+04;  0.0000000E+00;  4.0000977E+04;  6.2309414E-02;  0.0000000E+00; -5.1709958E-03;  2.2199185E+02;
  4.4158205E-01;  9.9999998E-03; -1.3001996E-01;5147;  1.5151889E-02;  0.0000000E+00;  7.8340626E-04;  9.9990167E+02;  1.0000000E-01; -8.1479179E+01;3;  2.7568891E+00;  0.0000000E+00;  1.8921794E-01;0;  5.8173351E-02;  3.9991062E+04;  0.0000000E+00;  1.2002072E-01;  4.0000000E+04;  0.0000000E+00;  4.0000656E+04;  6.3362241E-02;  0.0000000E+00; -5.1888884E-03;  1.8792233E+02;
  4.4160065E-01;  9.9999998E-03; -1.2001850E-01;5148;  1.5321381E-02;  0.0000000E+00;  7.3794252E-04;  9.9990143E+02;  1.0000000E-01; -8.1676704E+01;3;  2.7878423E+00;  0.0000000E+00;  1.7570591E-01;0;  5.9396133E-02;  3.9991426E+04;  0.0000000E+00;  1.2230435E-01;  4.0000000E+04;  0.0000000E+00;  4.0000078E+04;  6.4650297E-02;  0.0000000E+00; -5.2541662E-03;  1.7516315E+02;
  4.4161707E-01;  9.9999998E-03; -1.1001622E-01;5149;  1.5505493E-02;  0.0000000E+00;  6.9160503E-04;  9.9987762E+02;  1.0000000E-01; -1.0137985E+02;3;  2.8206904E+00;  0.0000000E+00;  1.6309458E-01;0;  6.0729753E-02;  3.9990102E+04;  0.0000000E+00;  1.1771950E-01;  4.0000000E+04;  0.0000000E+00;  3.9999719E+04;  6.6087194E-02;  0.0000000E+00; -5.3574410E-03;  1.7432768E+02;
  4.5153391E-01;  9.9999998E-03; -2.6998729E-01;5194;  1.3478011E-02;  0.0000000E+00;  1.6475575E-03;  9.9840326E+02;  1.0000000E-01; -1.3228762E+03;3;  2.4904032E+00;  0.0000000E+00;  3.5433057E-01;0;  6.9112070E-02;  3.9855715E+04;  0.0000000E+00; -1.5282463E-01;  4.0000000E+04;  0.0000000E+00;  4.0014793E+04;  7.5913236E-02;  0.0000000E+00; -6.8011670E-03;  1.9982244E+03;
  4.5153835E-01;  9.9999998E-03; -2.5998995E-01;5195;  1.3485283E-02;  0.0000000E+00;  1.5049882E-03;  9.9850989E+02;  1.0000000E-01; -1.2345330E+03;3;  2.4922488E+00;  0.0000000E+00;  3.3799022E-01;0;  6.8217725E-02;  3.9865273E+04;  0.0000000E+00; -2.0197122E-01;  4.0000000E+04;  0.0000000E+00;  4.0013609E+04;  7.4705981E-02;  0.0000000E+00; -6.4882548E-03;  1.8557719E+03;
  4.5153785E-01;  9.9999998E-03; -2.4999200E-01;5196;  1.3520489E-02;  0.0000000E+00;  1.3620430E-03;  9.9863110E+02;  1.0000000E-01; -1.1340914E+03;3;  2.5007262E+00;  0.0000000E+00;  3.2249293E-01;0;  6.7032538E-02;  3.9876051E+04;  0.0000000E+00; -2.2528447E-01;  4.0000000E+04;  0.0000000E+00;  4.0012770E+04;  7.3384941E-02;  0.0000000E+00; -6.3524027E-03;  1.7536204E+03;
  4.5153493E-01;  9.9999998E-03; -2.3999186E-01;5197;  1.3584649E-02;  0.0000000E+00;  1.2273104E-03;  9.9876697E+02;  1.0000000E-01; -1.0215513E+03;3;  2.5171368E+00;  0.0000000E+00;  3.0857959E-01;0;  6.5622188E-02;  3.9887301E+04;  0.0000000E+00; -2.2981484E-01;  4.0000000E+04;  0.0000000E+00;  4.0012746E+04;  7.1978807E-02;  0.0000000E+00; -6.3566193E-03;  1.7251028E+03;
  4.5153242E-01;  9.9999998E-03; -2.2999068E-01;5198;  1.3680552E-02;  0.0000000E+00;  1.1357566E-03;  9.9891888E+02;  1.0000000E-01; -8.9567834E+02;3;  2.5430288E+00;  0.0000000E+00;  2.9598129E-01;0;  6.4022534E-02;  3.9899367E+04;  0.0000000E+00; -2.2040315E-01;  4.0000000E+04;  0.0000000E+00;  4.0012418E+04;  7.0526004E-02;  0.0000000E+00; -6.5034735E-03;  1.6440168E+03;
  4.5152956E-01;  9.9999998E-03; -2.1999460E-01;5199;  1.3813584E-02;  0.0000000E+00;  1.0909081E-03;  9.9904266E+02;  1.0000000E-01; -7.9311334E+02;3;  2.5645254E+00;  0.0000000E+00;  2.8488868E-01;0;  6.2455703E-02;  3.9911637E+04;  0.0000000E+00; -2.0035967E-01;  4.0000000E+04;  0.0000000E+00;  4.0010316E+04;  6.9077872E-02;  0.0000000E+00; -6.6221706E-03;  1.3950446E+03;
  4.5152605E-01;  9.9999998E-03; -2.1000290E-01;5200;  1.3962709E-02;  0.0000000E+00;  1.0431740E-03;  9.9917633E+02;  1.0000000E-01; -6.8240045E+02;3;  2.5821264E+00;  0.0000000E+00;  2.7481586E-01;0;  6.1121620E-02;  3.9924324E+04;  0.0000000E+00; -1.7171833E-01;  4.0000000E+04;  0.0000000E+00;  4.0008254E+04;  6.7699134E-02;  0.0000000E+00; -6.5775150E-03;  1.1350927E+03;
  4.5152375E-01;  9.9999998E-03; -2.0001033E-01;5201;  1.4119036E-02;  0.0000000E+00;  9.9162303E-04;  9.9931036E+02;  1.0000000E-01; -5.7134186E+02;3;  2.6079671E+00;  0.0000000E+00;  2.6314878E-01;0;  6.0029671E-02;  3.9936586E+04;  0.0000000E+00; -1.3615012E-01;  4.0000000E+04;  0.0000000E+00;  4.0006746E+04;  6.6465646E-02;  0.0000000E+00; -6.4359750E-03;  9.4430579E+02;
  4.5152354E-01;  9.9999998E-03; -1.9001551E-01;5202;  1.4275887E-02;  0.0000000E+00;  9.4230252E-04;  9.9944305E+02;  1.0000000E-01; -4.6141904E+02;3;  2.6305659E+00;  0.0000000E+00;  2.5126103E-01;0;  5.9209045E-02;  3.9948238E+04;  0.0000000E+00; -9.5780790E-02;  4.0000000E+04;  0.0000000E+00;  4.0005664E+04;  6.5456524E-02;  0.0000000E+00; -6.2474785E-03;  7.8765497E+02;
  4.5152575E-01;  9.9999998E-03; -1.8001890E-01;5203;  1.4432564E-02;  0.0000000E+00;  8.9615380E-04;  9.9956482E+02;  1.0000000E-01; -3.6053302E+02;3;  2.6534202E+00;  0.0000000E+00;  2.3960260E-01;0;  5.8702562E-02;  3.9959297E+04;  0.0000000E+00; -5.3478774E-02;  4.0000000E+04;  0.0000000E+00;  4.0004863E+04;  6.4746067E-02;  0.0000000E+00; -6.0435059E-03;  6.4070038E+02;
  4.5153064E-01;  9.9999998E-03; -1.7002112E-01;5204;  1.4584862E-02;  0.0000000E+00;  8.5099705E-04;  9.9967749E+02;  1.0000000E-01; -2.6720233E+02;3;  2.6783030E+00;  0.0000000E+00;  2.2754897E-01;0;  5.8541987E-02;  3.9968875E+04;  0.0000000E+00; -1.2619512E-02;  4.0000000E+04;  0.0000000E+00;  4.0003508E+04;  6.4392224E-02;  0.0000000E+00; -5.8502369E-03;  5.0094836E+02;
  4.5153856E-01;  9.9999998E-03; -1.6002241E-01;5205;  1.4736177E-02;  0.0000000E+00;  8.0833887E-04;  9.9976398E+02;  1.0000000E-01; -1.9555002E+02;3;  2.7036746E+00;  0.0000000E+00;  2.1744272E-01;0;  5.8739047E-02;  3.9977195E+04;  0.0000000E+00;  2.3507126E-02;  4.0000000E+04;  0.0000000E+00;  4.0002934E+04;  6.4429276E-02;  0.0000000E+00; -5.6902268E-03;  3.7439438E+02;
  4.5154947E-01;  9.9999998E-03; -1.5002306E-01;5206;  1.4885327E-02;  0.0000000E+00;  7.6593342E-04;  9.9983313E+02;  1.0000000E-01; -1.3826770E+02;3;  2.7318957E+00;  0.0000000E+00;  2.0410532E-01;0;  5.9281159E-02;  3.9983539E+04;  0.0000000E+00;  5.2436180E-02;  4.0000000E+04;  0.0000000E+00;  4.0002125E+04;  6.4861611E-02;  0.0000000E+00; -5.5804504E-03;  2.6818985E+02;
  4.5156318E-01;  9.9999998E-03; -1.4002314E-01;5207;  1.5045798E-02;  0.0000000E+00;  7.2182989E-04;  9.9987775E+02;  1.0000000E-01; -1.0128109E+02;3;  2.7652507E+00;  0.0000000E+00;  1.9159655E-01;0;  6.0131215E-02;  3.9988227E+04;  0.0000000E+00;  7.3068425E-02;  4.0000000E+04;  0.0000000E+00;  4.0001438E+04;  6.5661743E-02;  0.0000000E+00; -5.5305273E-03;  1.8856757E+02;
  4.5157847E-01;  9.9999998E-03; -1.3002257E-01;5208;  1.5225868E-02;  0.0000000E+00;  6.7810738E-04;  9.9990039E+02;  1.0000000E-01; -8.2516182E+01;3;  2.7965229E+00;  0.0000000E+00;  1.7980452E-01;0;  6.1229851E-02;  3.9991020E+04;  0.0000000E+00;  8.5623652E-02;  4.0000000E+04;  0.0000000E+00;  4.0000648E+04;  6.6771165E-02;  0.0000000E+00; -5.5413148E-03;  1.4170009E+02;
  4.5159391E-01;  9.9999998E-03; -1.2002116E-01;5209;  1.5416292E-02;  0.0000000E+00;  6.3434965E-04;  9.9990088E+02;  1.0000000E-01; -8.2121132E+01;3;  2.8306620E+00;  0.0000000E+00;  1.6677223E-01;0;  6.2502414E-02;  3.9991648E+04;  0.0000000E+00;  9.1017857E-02;  4.0000000E+04;  0.0000000E+00;  3.9999977E+04;  6.8109147E-02;  0.0000000E+00; -5.6067365E-03;  1.3029106E+02;
  4.5160934E-01;  9.9999998E-03; -1.1001865E-01;5210;  1.5624129E-02;  0.0000000E+00;  5.8877619E-04;  9.9987640E+02;  1.0000000E-01; -1.0241685E+02;3;  2.8665171E+00;  0.0000000E+00;  1.5324803E-01;0;  6.3863859E-02;  3.9990047E+04;  0.0000000E+00;  9.0445541E-02;  4.0000000E+04;  0.0000000E+00;  3.9999441E+04;  6.9581293E-02;  0.0000000E+00; -5.7174340E-03;  1.4149213E+02;
  4.6158886E-01;  9.9999998E-03; -2.6998779E-01;5255;  1.4254470E-02;  0.0000000E+00;  1.7739442E-03;  9.9845544E+02;  1.0000000E-01; -1.2796182E+03;3;  2.5923157E+00;  0.0000000E+00;  3.6027926E-01;0;  7.2196759E-02;  3.9860902E+04;  0.0000000E+00; -9.8653495E-02;  4.0000000E+04;  0.0000000E+00;  4.0013871E+04;  7.9412512E-02;  0.0000000E+00; -7.2157546E-03;  1.8931530E+03;
  4.6159124E-01;  9.9999998E-03; -2.5999099E-01;5256;  1.4159561E-02;  0.0000000E+00;  1.5991055E-03;  9.9855231E+02;  1.0000000E-01; -1.1993735E+03;3;  2.5879319E+00;  0.0000000E+00;  3.4470576E-01;0;  7.1591020E-02;  3.9870207E+04;  0.0000000E+00; -1.6336054E-01;  4.0000000E+04;  0.0000000E+00;  4.0012633E+04;  7.8221254E-02;  0.0000000E+00; -6.6302344E-03;  1.7292185E+03;
  4.6158916E-01;  9.9999998E-03; -2.4999389E-01;5257;  1.4099760E-02;  0.0000000E+00;  1.4185925E-03;  9.9866248E+02;  1.0000000E-01; -1.1081168E+03;3;  2.5838685E+00;  0.0000000E+00;  3.2543635E-01;0;  7.0578970E-02;  3.9880195E+04;  0.0000000E+00; -1.9758068E-01;  4.0000000E+04;  0.0000000E+00;  4.0011836E+04;  7.6916747E-02;  0.0000000E+00; -6.3377754E-03;  1.6074857E+03;
  4.6158516E-01;  9.9999998E-03; -2.3999554E-01;5258;  1.4068233E-02;  0.0000000E+00;  1.2629399E-03;  9.9879218E+02;  1.0000000E-01; -1.0006631E+03;3;  2.5806215E+00;  0.0000000E+00;  3.0848983E-01;0;  6.9141805E-02;  3.9890766E+04;  0.0000000E+00; -2.0934403E-01;  4.0000000E+04;  0.0000000E+00;  4.0011301E+04;  7.5535260E-02;  0.0000000E+00; -6.3934582E-03;  1.5395616E+03;
  4.6158043E-01;  9.9999998E-03; -2.2999591E-01;5259;  1.4081684E-02;  0.0000000E+00;  1.1541116E-03;  9.9892749E+02;  1.0000000E-01; -8.8856744E+02;3;  2.5878043E+00;  0.0000000E+00;  2.9403776E-01;0;  6.7490540E-02;  3.9902293E+04;  0.0000000E+00; -2.0554331E-01;  4.0000000E+04;  0.0000000E+00;  4.0010828E+04;  7.4119881E-02;  0.0000000E+00; -6.6293408E-03;  1.4664767E+03;
  4.6157321E-01;  9.9999998E-03; -2.1999787E-01;5260;  1.4144273E-02;  0.0000000E+00;  1.0795217E-03;  9.9905951E+02;  1.0000000E-01; -7.7918787E+02;3;  2.6063504E+00;  0.0000000E+00;  2.7985248E-01;0;  6.5914825E-02;  3.9914000E+04;  0.0000000E+00; -1.9105051E-01;  4.0000000E+04;  0.0000000E+00;  4.0009758E+04;  7.2724335E-02;  0.0000000E+00; -6.8095089E-03;  1.3069336E+03;
  4.6156389E-01;  9.9999998E-03; -2.1000209E-01;5261;  1.4225248E-02;  0.0000000E+00;  1.0116933E-03;  9.9919653E+02;  1.0000000E-01; -6.6566016E+02;3;  2.6222546E+00;  0.0000000E+00;  2.6744509E-01;0;  6.4573079E-02;  3.9926078E+04;  0.0000000E+00; -1.6884075E-01;  4.0000000E+04;  0.0000000E+00;  4.0008137E+04;  7.1415499E-02;  0.0000000E+00; -6.8424167E-03;  1.1130243E+03;
  4.6155369E-01;  9.9999998E-03; -2.0000671E-01;5262;  1.4324580E-02;  0.0000000E+00;  9.4758469E-04;  9.9932233E+02;  1.0000000E-01; -5.6141620E+02;3;  2.6421690E+00;  0.0000000E+00;  2.5518820E-01;0;  6.3503779E-02;  3.9938047E+04;  0.0000000E+00; -1.4086002E-01;  4.0000000E+04;  0.0000000E+00;  4.0007145E+04;  7.0268281E-02;  0.0000000E+00; -6.7644995E-03;  9.3505994E+02;
  4.6154475E-01;  9.9999998E-03; -1.9001067E-01;5263;  1.4431241E-02;  0.0000000E+00;  8.8715064E-04;  9.9945203E+02;  1.0000000E-01; -4.5396246E+02;3;  2.6617405E+00;  0.0000000E+00;  2.4391019E-01;0;  6.2745236E-02;  3.9949457E+04;  0.0000000E+00; -1.0892417E-01;  4.0000000E+04;  0.0000000E+00;  4.0005797E+04;  6.9360718E-02;  0.0000000E+00; -6.6154790E-03;  7.7290338E+02;
  4.6153772E-01;  9.9999998E-03; -1.8001375E-01;5264;  1.4549536E-02;  0.0000000E+00;  8.3244126E-04;  9.9956818E+02;  1.0000000E-01; -3.5776767E+02;3;  2.6808097E+00;  0.0000000E+00;  2.3275954E-01;0;  6.2332343E-02;  3.9959879E+04;  0.0000000E+00; -7.5243086E-02;  4.0000000E+04;  0.0000000E+00;  4.0004730E+04;  6.8763003E-02;  0.0000000E+00; -6.4306585E-03;  6.2037915E+02;
  4.6153358E-01;  9.9999998E-03; -1.7001618E-01;5265;  1.4675711E-02;  0.0000000E+00;  7.8121590E-04;  9.9967065E+02;  1.0000000E-01; -2.7288116E+02;3;  2.7043490E+00;  0.0000000E+00;  2.2019465E-01;0;  6.2288892E-02;  3.9969402E+04;  0.0000000E+00; -4.2367093E-02;  4.0000000E+04;  0.0000000E+00;  4.0003816E+04;  6.8529971E-02;  0.0000000E+00; -6.2410780E-03;  4.7722043E+02;
  4.6153346E-01;  9.9999998E-03; -1.6001803E-01;5266;  1.4813139E-02;  0.0000000E+00;  7.2993780E-04;  9.9975690E+02;  1.0000000E-01; -2.0142641E+02;3;  2.7315042E+00;  0.0000000E+00;  2.0704378E-01;0;  6.2616438E-02;  3.9977113E+04;  0.0000000E+00; -1.2757280E-02;  4.0000000E+04;  0.0000000E+00;  4.0002426E+04;  6.8691947E-02;  0.0000000E+00; -6.0755103E-03;  3.4766278E+02;
  4.6153751E-01;  9.9999998E-03; -1.5001926E-01;5267;  1.4968425E-02;  0.0000000E+00;  6.7855435E-04;  9.9982281E+02;  1.0000000E-01; -1.4681067E+02;3;  2.7677512E+00;  0.0000000E+00;  1.9307476E-01;0;  6.3291192E-02;  3.9983383E+04;  0.0000000E+00;  1.1775666E-02;  4.0000000E+04;  0.0000000E+00;  4.0001754E+04;  6.9248684E-02;  0.0000000E+00; -5.9574889E-03;  2.3609193E+02;
  4.6154550E-01;  9.9999998E-03; -1.4001997E-01;5268;  1.5141366E-02;  0.0000000E+00;  6.3145213E-04;  9.9986987E+02;  1.0000000E-01; -1.0779942E+02;3;  2.7998412E+00;  0.0000000E+00;  1.8395315E-01;0;  6.4264730E-02;  3.9987797E+04;  0.0000000E+00;  3.0459736E-02;  4.0000000E+04;  0.0000000E+00;  4.0000957E+04;  7.0166782E-02;  0.0000000E+00; -5.9020505E-03;  1.4667216E+02;
  4.6155632E-01;  9.9999998E-03; -1.3001989E-01;5269;  1.5334371E-02;  0.0000000E+00;  5.8558240E-04;  9.9989594E+02;  1.0000000E-01; -8.6219780E+01;3;  2.8380034E+00;  0.0000000E+00;  1.7027424E-01;0;  6.5468505E-02;  3.9990605E+04;  0.0000000E+00;  4.3475427E-02;  4.0000000E+04;  0.0000000E+00;  4.0000234E+04;  7.1382068E-02;  0.0000000E+00; -5.9135617E-03;  8.6723595E+01;
  4.6156937E-01;  9.9999998E-03; -1.2001888E-01;5270;  1.5547940E-02;  0.0000000E+00;  5.3967774E-04;  9.9989459E+02;  1.0000000E-01; -8.7306175E+01;3;  2.8738267E+00;  0.0000000E+00;  1.5868095E-01;0;  6.6820584E-02;  3.9991238E+04;  0.0000000E+00;  5.1424365E-02;  4.0000000E+04;  0.0000000E+00;  3.9999930E+04;  7.2807916E-02;  0.0000000E+00; -5.9873294E-03;  7.3895805E+01;
  4.6158445E-01;  9.9999998E-03; -1.1001681E-01;5271;  1.5772106E-02;  0.0000000E+00;  4.9560465E-04;  9.9987335E+02;  1.0000000E-01; -1.0493530E+02;3;  2.9078920E+00;  0.0000000E+00;  1.4563511E-01;0;  6.8232737E-02;  3.9990148E+04;  0.0000000E+00;  5.4978956E-02;  4.0000000E+04;  0.0000000E+00;  3.9999422E+04;  7.4346595E-02;  0.0000000E+00; -6.1138570E-03;  9.5048531E+01;
  4.7158691E-01;  9.9999998E-03; -2.6998755E-01;5316;  1.5993932E-02;  0.0000000E+00;  1.9403904E-03;  9.9849390E+02;  1.0000000E-01; -1.2477672E+03;3;  2.6395304E+00;  0.0000000E+00;  3.5575446E-01;0;  7.3453136E-02;  3.9864703E+04;  0.0000000E+00; -4.4436727E-02;  4.0000000E+04;  0.0000000E+00;  4.0013836E+04;  8.1406802E-02;  0.0000000E+00; -7.9536662E-03;  1.8827970E+03;
  4.7158739E-01;  9.9999998E-03; -2.5999099E-01;5317;  1.5543837E-02;  0.0000000E+00;  1.7619270E-03;  9.9858264E+02;  1.0000000E-01; -1.1742384E+03;3;  2.6362388E+00;  0.0000000E+00;  3.4369004E-01;0;  7.3199533E-02;  3.9873562E+04;  0.0000000E+00; -1.1559158E-01;  4.0000000E+04;  0.0000000E+00;  4.0012660E+04;  8.0441184E-02;  0.0000000E+00; -7.2416537E-03;  1.7033057E+03;
  4.7158369E-01;  9.9999998E-03; -2.4999459E-01;5318;  1.5183887E-02;  0.0000000E+00;  1.5717805E-03;  9.9868695E+02;  1.0000000E-01; -1.0878210E+03;3;  2.6385937E+00;  0.0000000E+00;  3.2865381E-01;0;  7.2561584E-02;  3.9883082E+04;  0.0000000E+00; -1.5574417E-01;  4.0000000E+04;  0.0000000E+00;  4.0011324E+04;  7.9372495E-02;  0.0000000E+00; -6.8109143E-03;  1.5397128E+03;
  4.7158048E-01;  9.9999998E-03; -2.3999792E-01;5319;  1.4928114E-02;  0.0000000E+00;  1.3938774E-03;  9.9880231E+02;  1.0000000E-01; -9.9226825E+02;3;  2.6440361E+00;  0.0000000E+00;  3.1178093E-01;0;  7.1511723E-02;  3.9893395E+04;  0.0000000E+00; -1.7228419E-01;  4.0000000E+04;  0.0000000E+00;  4.0010277E+04;  7.8238413E-02;  0.0000000E+00; -6.7266924E-03;  1.4095112E+03;
  4.7157842E-01;  9.9999998E-03; -2.3000108E-01;5320;  1.4765067E-02;  0.0000000E+00;  1.2550458E-03;  9.9892688E+02;  1.0000000E-01; -8.8906128E+02;3;  2.6481633E+00;  0.0000000E+00;  2.9500863E-01;0;  7.0201978E-02;  3.9904301E+04;  0.0000000E+00; -1.7281674E-01;  4.0000000E+04;  0.0000000E+00;  4.0009586E+04;  7.7082984E-02;  0.0000000E+00; -6.8810075E-03;  1.2828805E+03;
  4.7157365E-01;  9.9999998E-03; -2.2000229E-01;5321;  1.4665296E-02;  0.0000000E+00;  1.1388154E-03;  9.9906152E+02;  1.0000000E-01; -7.7750885E+02;3;  2.6553683E+00;  0.0000000E+00;  2.8083581E-01;0;  6.8934031E-02;  3.9915816E+04;  0.0000000E+00; -1.6312212E-01;  4.0000000E+04;  0.0000000E+00;  4.0008719E+04;  7.5958535E-02;  0.0000000E+00; -7.0245052E-03;  1.1821884E+03;
  4.7156489E-01;  9.9999998E-03; -2.1000248E-01;5322;  1.4622399E-02;  0.0000000E+00;  1.0441981E-03;  9.9919659E+02;  1.0000000E-01; -6.6561078E+02;3;  2.6614037E+00;  0.0000000E+00;  2.6766825E-01;0;  6.7839012E-02;  3.9927477E+04;  0.0000000E+00; -1.4719135E-01;  4.0000000E+04;  0.0000000E+00;  4.0007863E+04;  7.4928835E-02;  0.0000000E+00; -7.0898258E-03;  1.0554922E+03;
  4.7155267E-01;  9.9999998E-03; -2.0000321E-01;5323;  1.4627761E-02;  0.0000000E+00;  9.6352975E-04;  9.9932648E+02;  1.0000000E-01; -5.5800891E+02;3;  2.6746366E+00;  0.0000000E+00;  2.5435889E-01;0;  6.7007631E-02;  3.9938840E+04;  0.0000000E+00; -1.2750900E-01;  4.0000000E+04;  0.0000000E+00;  4.0006469E+04;  7.4064232E-02;  0.0000000E+00; -7.0565981E-03;  8.9690625E+02;
  4.7153914E-01;  9.9999998E-03; -1.9000450E-01;5324;  1.4670392E-02;  0.0000000E+00;  8.9003902E-04;  9.9944635E+02;  1.0000000E-01; -4.5870306E+02;3;  2.6925952E+00;  0.0000000E+00;  2.4010330E-01;0;  6.6494264E-02;  3.9949816E+04;  0.0000000E+00; -1.0575359E-01;  4.0000000E+04;  0.0000000E+00;  4.0005234E+04;  7.3436670E-02;  0.0000000E+00; -6.9424049E-03;  7.3095642E+02;
  4.7152627E-01;  9.9999998E-03; -1.8000613E-01;5325;  1.4744754E-02;  0.0000000E+00;  8.1972161E-04;  9.9956012E+02;  1.0000000E-01; -3.6443414E+02;3;  2.7137487E+00;  0.0000000E+00;  2.2604486E-01;0;  6.6331327E-02;  3.9960133E+04;  0.0000000E+00; -8.3392702E-02;  4.0000000E+04;  0.0000000E+00;  4.0003820E+04;  7.3110454E-02;  0.0000000E+00; -6.7791301E-03;  5.7239478E+02;
  4.7151643E-01;  9.9999998E-03; -1.7000794E-01;5326;  1.4846741E-02;  0.0000000E+00;  7.5071584E-04;  9.9965381E+02;  1.0000000E-01; -2.8680670E+02;3;  2.7396097E+00;  0.0000000E+00;  2.1216699E-01;0;  6.6533595E-02;  3.9968934E+04;  0.0000000E+00; -6.1842281E-02;  4.0000000E+04;  0.0000000E+00;  4.0002969E+04;  7.3134683E-02;  0.0000000E+00; -6.6010845E-03;  4.2842636E+02;
  4.7151053E-01;  9.9999998E-03; -1.6000986E-01;5327;  1.4973654E-02;  0.0000000E+00;  6.8894133E-04;  9.9973926E+02;  1.0000000E-01; -2.1604327E+02;3;  2.7668135E+00;  0.0000000E+00;  2.0286910E-01;0;  6.7093164E-02;  3.9976574E+04;  0.0000000E+00; -4.2327598E-02;  4.0000000E+04;  0.0000000E+00;  4.0002324E+04;  7.3534071E-02;  0.0000000E+00; -6.4409105E-03;  3.0294241E+02;
  4.7150901E-01;  9.9999998E-03; -1.5001178E-01;5328;  1.5127156E-02;  0.0000000E+00;  6.3106738E-04;  9.9980151E+02;  1.0000000E-01; -1.6443979E+02;3;  2.8022187E+00;  0.0000000E+00;  1.8909080E-01;0;  6.7976996E-02;  3.9982410E+04;  0.0000000E+00; -2.5640810E-02;  4.0000000E+04;  0.0000000E+00;  4.0001348E+04;  7.4303485E-02;  0.0000000E+00; -6.3264919E-03;  1.9777731E+02;
  4.7151184E-01;  9.9999998E-03; -1.4001350E-01;5329;  1.5315780E-02;  0.0000000E+00;  5.7604205E-04;  9.9984656E+02;  1.0000000E-01; -1.2710751E+02;3;  2.8405583E+00;  0.0000000E+00;  1.7610498E-01;0;  6.9128528E-02;  3.9986711E+04;  0.0000000E+00; -1.1970338E-02;  4.0000000E+04;  0.0000000E+00;  4.0000848E+04;  7.5406201E-02;  0.0000000E+00; -6.2776720E-03;  1.1299136E+02;
  4.7151867E-01;  9.9999998E-03; -1.3001461E-01;5330;  1.5528088E-02;  0.0000000E+00;  5.2809663E-04;  9.9987183E+02;  1.0000000E-01; -1.0616984E+02;3;  2.8742161E+00;  0.0000000E+00;  1.6679093E-01;0;  7.0474021E-02;  3.9989211E+04;  0.0000000E+00; -1.0098232E-03;  4.0000000E+04;  0.0000000E+00;  4.0000102E+04;  7.6776177E-02;  0.0000000E+00; -6.3021560E-03;  4.7314091E+01;
  4.7152939E-01;  9.9999998E-03; -1.2001472E-01;5331;  1.5757032E-02;  0.0000000E+00;  4.8243234E-04;  9.9987866E+02;  1.0000000E-01; -1.0054037E+02;3;  2.9122989E+00;  0.0000000E+00;  1.5404570E-01;0;  7.1930461E-02;  3.9990098E+04;  0.0000000E+00;  7.5896438E-03;  4.0000000E+04;  0.0000000E+00;  4.0000113E+04;  7.8327037E-02;  0.0000000E+00; -6.3965791E-03;  1.1150030E+01;
  4.7154379E-01;  9.9999998E-03; -1.1001375E-01;5332;  1.5992729E-02;  0.0000000E+00;  4.3795211E-04;  9.9986401E+02;  1.0000000E-01; -1.1263879E+02;3;  2.9468915E+00;  0.0000000E+00;  1.4227112E-01;0;  7.3411264E-02;  3.9989324E+04;  0.0000000E+00;  1.4031036E-02;  4.0000000E+04;  0.0000000E+00;  3.9999824E+04;  7.9962447E-02;  0.0000000E+00; -6.5511824E-03;  3.7921806E+01;
  4.8153371E-01;  9.9999998E-03; -1.1001179E-01;5393;  1.6382819E-02;  0.0000000E+00;  4.5565615E-04;  9.9985687E+02;  1.0000146E-01; -1.1856454E+02;3;  2.9882152E+00;  0.0000000E+00;  1.4381124E-01;0;  7.8697406E-02;  3.9987406E+04;  0.0000000E+00; -2.9322168E-02;  4.0000000E+04;  0.0000000E+00;  4.0000000E+04;  8.5727572E-02;  0.0000000E+00; -7.0301681E-03;  4.1930248E+01;
  4.8151934E-01;  9.9999998E-03; -1.2001180E-01;5392;  1.6139491E-02;  0.0000000E+00;  5.0058687E-04;  9.9985956E+02;  1.0000150E-01; -1.1634239E+02;3;  2.9504919E+00;  0.0000000E+00;  1.5638645E-01;0;  7.7148713E-02;  3.9987875E+04;  0.0000000E+00; -3.6413014E-02;  4.0000000E+04;  0.0000000E+00;  3.9999941E+04;  8.3981000E-02;  0.0000000E+00; -6.8322900E-03;  5.2727551E+01;
  4.8150975E-01;  9.9999998E-03; -1.3001071E-01;5391;  1.5890289E-02;  0.0000000E+00;  5.4673385E-04;  9.9985150E+02;  1.0000146E-01; -1.2300887E+02;3;  2.9126008E+00;  0.0000000E+00;  1.6992538E-01;0;  7.5582400E-02;  3.9986477E+04;  0.0000000E+00; -4.2929202E-02;  4.0000000E+04;  0.0000000E+00;  4.0000180E+04;  8.2283989E-02;  0.0000000E+00; -6.7015854E-03;  6.9714470E+01;
  4.8150435E-01;  9.9999998E-03; -1.4000876E-01;5390;  1.5653167E-02;  0.0000000E+00;  5.9750164E-04;  9.9981989E+02;  1.0000150E-01; -1.4923035E+02;3;  2.8730140E+00;  0.0000000E+00;  1.7926134E-01;0;  7.4076310E-02;  3.9984387E+04;  0.0000000E+00; -4.8776388E-02;  4.0000000E+04;  0.0000000E+00;  4.0000223E+04;  8.0724537E-02;  0.0000000E+00; -6.6482262E-03;  1.0329792E+02;
  4.8150226E-01;  9.9999998E-03; -1.5000643E-01;5389;  1.5454252E-02;  0.0000000E+00;  6.5730017E-04;  9.9977570E+02;  1.0000141E-01; -1.8582190E+02;3;  2.8361263E+00;  0.0000000E+00;  1.9249982E-01;0;  7.2708175E-02;  3.9980242E+04;  0.0000000E+00; -5.4303542E-02;  4.0000000E+04;  0.0000000E+00;  4.0000988E+04;  7.9382613E-02;  0.0000000E+00; -6.6744382E-03;  1.6146686E+02;
  4.8150262E-01;  9.9999998E-03; -1.6000423E-01;5388;  1.5295476E-02;  0.0000000E+00;  7.2447775E-04;  9.9971851E+02;  1.0000144E-01; -2.3322797E+02;3;  2.8040826E+00;  0.0000000E+00;  2.0427729E-01;0;  7.1550824E-02;  3.9974570E+04;  0.0000000E+00; -6.0214989E-02;  4.0000000E+04;  0.0000000E+00;  4.0001699E+04;  7.8320667E-02;  0.0000000E+00; -6.7698453E-03;  2.4773221E+02;
  4.8150498E-01;  9.9999998E-03; -1.7000249E-01;5387;  1.5185105E-02;  0.0000000E+00;  8.0466969E-04;  9.9963849E+02;  1.0000145E-01; -2.9949771E+02;3;  2.7740877E+00;  0.0000000E+00;  2.1557602E-01;0;  7.0664436E-02;  3.9967168E+04;  0.0000000E+00; -6.7216806E-02;  4.0000000E+04;  0.0000000E+00;  4.0002652E+04;  7.7575900E-02;  0.0000000E+00; -6.9114603E-03;  3.6266321E+02;
  4.8150852E-01;  9.9999998E-03; -1.8000165E-01;5386;  1.5131593E-02;  0.0000000E+00;  8.9266134E-04;  9.9954474E+02;  1.0000140E-01; -3.7717453E+02;3;  2.7475762E+00;  0.0000000E+00;  2.3085365E-01;0;  7.0088141E-02;  3.9958809E+04;  0.0000000E+00; -7.5806156E-02;  4.0000000E+04;  0.0000000E+00;  4.0003660E+04;  7.7157401E-02;  0.0000000E+00; -7.0692571E-03;  5.0417133E+02;
  4.8151270E-01;  9.9999998E-03; -1.9000190E-01;5385;  1.5134106E-02;  0.0000000E+00;  9.8621030E-04;  9.9943823E+02;  1.0000148E-01; -4.6541895E+02;3;  2.7262599E+00;  0.0000000E+00;  2.4329972E-01;0;  6.9835715E-02;  3.9949012E+04;  0.0000000E+00; -8.6136155E-02;  4.0000000E+04;  0.0000000E+00;  4.0004832E+04;  7.7047795E-02;  0.0000000E+00; -7.2120819E-03;  6.6507935E+02;
  4.8151675E-01;  9.9999998E-03; -2.0000362E-01;5384;  1.5192748E-02;  0.0000000E+00;  1.0862375E-03;  9.9931561E+02;  1.0000140E-01; -5.6699634E+02;3;  2.7093623E+00;  0.0000000E+00;  2.5474805E-01;0;  6.9895491E-02;  3.9937973E+04;  0.0000000E+00; -9.7914025E-02;  4.0000000E+04;  0.0000000E+00;  4.0006070E+04;  7.7207953E-02;  0.0000000E+00; -7.3124641E-03;  8.2678162E+02;
  4.8151875E-01;  9.9999998E-03; -2.1000616E-01;5383;  1.5338900E-02;  0.0000000E+00;  1.1994918E-03;  9.9918481E+02;  1.0000147E-01; -6.7538831E+02;3;  2.6881053E+00;  0.0000000E+00;  2.7020863E-01;0;  7.0226051E-02;  3.9926656E+04;  0.0000000E+00; -1.1025342E-01;  4.0000000E+04;  0.0000000E+00;  4.0007062E+04;  7.7582620E-02;  0.0000000E+00; -7.3565724E-03;  9.5834924E+02;
  4.8151961E-01;  9.9999998E-03; -2.2000770E-01;5382;  1.5632320E-02;  0.0000000E+00;  1.3346088E-03;  9.9904773E+02;  1.0000146E-01; -7.8891595E+02;3;  2.6717908E+00;  0.0000000E+00;  2.8660053E-01;0;  7.0746973E-02;  3.9915102E+04;  0.0000000E+00; -1.2147271E-01;  4.0000000E+04;  0.0000000E+00;  4.0007562E+04;  7.8110643E-02;  0.0000000E+00; -7.3636672E-03;  1.0394817E+03;
  4.8152101E-01;  9.9999998E-03; -2.3000485E-01;5381;  1.6066033E-02;  0.0000000E+00;  1.4942504E-03;  9.9891486E+02;  1.0000141E-01; -8.9903632E+02;3;  2.6613476E+00;  0.0000000E+00;  3.0213299E-01;0;  7.1329303E-02;  3.9903688E+04;  0.0000000E+00; -1.2881845E-01;  4.0000000E+04;  0.0000000E+00;  4.0008312E+04;  7.8730091E-02;  0.0000000E+00; -7.4007912E-03;  1.1431368E+03;
  4.8152390E-01;  9.9999998E-03; -2.3999850E-01;5380;  1.6643208E-02;  0.0000000E+00;  1.6353760E-03;  9.9879773E+02;  1.0000148E-01; -9.9607062E+02;3;  2.6494360E+00;  0.0000000E+00;  3.2178175E-01;0;  7.1980745E-02;  3.9892707E+04;  0.0000000E+00; -1.2815827E-01;  4.0000000E+04;  0.0000000E+00;  4.0010246E+04;  7.9385065E-02;  0.0000000E+00; -7.4043190E-03;  1.3652284E+03;
  4.8152784E-01;  9.9999998E-03; -2.4999422E-01;5379;  1.7353605E-02;  0.0000000E+00;  1.7981196E-03;  9.9869293E+02;  1.0000146E-01; -1.0828829E+03;3;  2.6564729E+00;  0.0000000E+00;  3.3946964E-01;0;  7.2429113E-02;  3.9882578E+04;  0.0000000E+00; -1.1356697E-01;  4.0000000E+04;  0.0000000E+00;  4.0011480E+04;  8.0028765E-02;  0.0000000E+00; -7.5996523E-03;  1.5471115E+03;
  4.8153239E-01;  9.9999998E-03; -2.5999051E-01;5378;  1.8130163E-02;  0.0000000E+00;  1.9755173E-03;  9.9859174E+02;  1.0000148E-01; -1.1667324E+03;3;  2.6739058E+00;  0.0000000E+00;  3.5177809E-01;0;  7.2474651E-02;  3.9873309E+04;  0.0000000E+00; -7.7756263E-02;  4.0000000E+04;  0.0000000E+00;  4.0012711E+04;  8.0623612E-02;  0.0000000E+00; -8.1489580E-03;  1.7224077E+03;
  4.8153657E-01;  9.9999998E-03; -2.6998714E-01;5377;  1.8961681E-02;  0.0000000E+00;  2.1384489E-03;  9.9850714E+02;  1.0000148E-01; -1.2368046E+03;3;  2.7042241E+00;  0.0000000E+00;  3.5502484E-01;0;  7.2225012E-02;  3.9864738E+04;  0.0000000E+00; -1.4568734E-02;  4.0000000E+04;  0.0000000E+00;  4.0013957E+04;  8.1139565E-02;  0.0000000E+00; -8.9145545E-03;  1.8925471E+03;
  4.9159327E-01;  9.9999998E-03; -1.0999719E-01;5454;  1.7187763E-02;  0.0000000E+00;  6.1137136E-04;  9.9982800E+02;  1.0000202E-01; -1.4251448E+02;3;  3.0354202E+00;  0.0000000E+00;  1.6081016E-01;0;  8.3149120E-02;  3.9984613E+04;  0.0000000E+00; -7.1655609E-02;  4.0000000E+04;  0.0000000E+00;  4.0000090E+04;  9.0694308E-02;  0.0000000E+00; -7.5451871E-03;  1.1284091E+02;
  4.9157339E-01;  9.9999998E-03; -1.1999685E-01;5453;  1.6908389E-02;  0.0000000E+00;  6.5768714E-04;  9.9982117E+02;  1.0000196E-01; -1.4814395E+02;3;  2.9868932E+00;  0.0000000E+00;  1.7442328E-01;0;  8.1565075E-02;  3.9984461E+04;  0.0000000E+00; -7.6764897E-02;  4.0000000E+04;  0.0000000E+00;  4.0000094E+04;  8.8852406E-02;  0.0000000E+00; -7.2873305E-03;  1.1256656E+02;
  4.9155965E-01;  9.9999998E-03; -1.2999566E-01;5452;  1.6616160E-02;  0.0000000E+00;  7.0312980E-04;  9.9980579E+02;  1.0000198E-01; -1.6088434E+02;3;  2.9448528E+00;  0.0000000E+00;  1.8265797E-01;0;  7.9916485E-02;  3.9982891E+04;  0.0000000E+00; -7.8362018E-02;  4.0000000E+04;  0.0000000E+00;  4.0000074E+04;  8.7019160E-02;  0.0000000E+00; -7.1026785E-03;  1.1374886E+02;
  4.9155203E-01;  9.9999998E-03; -1.3999376E-01;5451;  1.6351946E-02;  0.0000000E+00;  7.5598032E-04;  9.9977979E+02;  1.0000201E-01; -1.8246397E+02;3;  2.9036055E+00;  0.0000000E+00;  1.9308986E-01;0;  7.8265622E-02;  3.9980434E+04;  0.0000000E+00; -7.6346613E-02;  4.0000000E+04;  0.0000000E+00;  4.0000164E+04;  8.5267723E-02;  0.0000000E+00; -7.0021008E-03;  1.1595479E+02;
  4.9154979E-01;  9.9999998E-03; -1.4999162E-01;5450;  1.6129622E-02;  0.0000000E+00;  8.1920892E-04;  9.9973041E+02;  1.0000207E-01; -2.2335172E+02;3;  2.8670349E+00;  0.0000000E+00;  2.0653647E-01;0;  7.6678485E-02;  3.9976668E+04;  0.0000000E+00; -7.1345396E-02;  4.0000000E+04;  0.0000000E+00;  4.0000500E+04;  8.3665662E-02;  0.0000000E+00; -6.9871736E-03;  1.3407146E+02;
  4.9155197E-01;  9.9999998E-03; -1.5998985E-01;5449;  1.5960693E-02;  0.0000000E+00;  8.9720386E-04;  9.9967194E+02;  1.0000201E-01; -2.7179477E+02;3;  2.8313882E+00;  0.0000000E+00;  2.1569937E-01;0;  7.5220272E-02;  3.9971145E+04;  0.0000000E+00; -6.4757295E-02;  4.0000000E+04;  0.0000000E+00;  4.0000957E+04;  8.2266532E-02;  0.0000000E+00; -7.0462623E-03;  1.9173235E+02;
  4.9155694E-01;  9.9999998E-03; -1.6998915E-01;5448;  1.5880737E-02;  0.0000000E+00;  9.9552004E-04;  9.9959467E+02;  1.0000210E-01; -3.3579297E+02;3;  2.7915211E+00;  0.0000000E+00;  2.3201665E-01;0;  7.3947847E-02;  3.9964488E+04;  0.0000000E+00; -5.8444254E-02;  4.0000000E+04;  0.0000000E+00;  4.0002051E+04;  8.1103764E-02;  0.0000000E+00; -7.1559176E-03;  2.9761252E+02;
  4.9156302E-01;  9.9999998E-03; -1.7998980E-01;5447;  1.5900690E-02;  0.0000000E+00;  1.1052800E-03;  9.9950653E+02;  1.0000210E-01; -4.0882794E+02;3;  2.7628922E+00;  0.0000000E+00;  2.4518833E-01;0;  7.2900273E-02;  3.9955762E+04;  0.0000000E+00; -5.4373421E-02;  4.0000000E+04;  0.0000000E+00;  4.0003074E+04;  8.0188543E-02;  0.0000000E+00; -7.2882730E-03;  4.4722702E+02;
  4.9156728E-01;  9.9999998E-03; -1.8999217E-01;5446;  1.6018357E-02;  0.0000000E+00;  1.2292732E-03;  9.9939960E+02;  1.0000215E-01; -4.9741803E+02;3;  2.7357509E+00;  0.0000000E+00;  2.5473723E-01;0;  7.2090477E-02;  3.9945945E+04;  0.0000000E+00; -5.4132022E-02;  4.0000000E+04;  0.0000000E+00;  4.0004609E+04;  7.9511039E-02;  0.0000000E+00; -7.4205589E-03;  6.2897247E+02;
  4.9156767E-01;  9.9999998E-03; -1.9999617E-01;5445;  1.6279601E-02;  0.0000000E+00;  1.3629830E-03;  9.9927899E+02;  1.0000205E-01; -5.9736584E+02;3;  2.7079046E+00;  0.0000000E+00;  2.7218023E-01;0;  7.1502499E-02;  3.9934789E+04;  0.0000000E+00; -5.8471426E-02;  4.0000000E+04;  0.0000000E+00;  4.0006047E+04;  7.9043254E-02;  0.0000000E+00; -7.5407536E-03;  8.1868188E+02;
  4.9156669E-01;  9.9999998E-03; -2.1000178E-01;5444;  1.6697161E-02;  0.0000000E+00;  1.4964186E-03;  9.9914551E+02;  1.0000203E-01; -7.0793060E+02;3;  2.6813869E+00;  0.0000000E+00;  2.8907642E-01;0;  7.1101792E-02;  3.9923281E+04;  0.0000000E+00; -6.6993244E-02;  4.0000000E+04;  0.0000000E+00;  4.0007160E+04;  7.8745760E-02;  0.0000000E+00; -7.6439674E-03;  9.6844958E+02;
  4.9156436E-01;  9.9999998E-03; -2.2000644E-01;5443;  1.7325014E-02;  0.0000000E+00;  1.6468663E-03;  9.9900574E+02;  1.0000205E-01; -8.2372980E+02;3;  2.6648357E+00;  0.0000000E+00;  3.0947116E-01;0;  7.0801429E-02;  3.9911352E+04;  0.0000000E+00; -7.8047425E-02;  4.0000000E+04;  0.0000000E+00;  4.0007383E+04;  7.8571931E-02;  0.0000000E+00; -7.7705020E-03;  1.0400133E+03;
  4.9155965E-01;  9.9999998E-03; -2.3000404E-01;5442;  1.8067433E-02;  0.0000000E+00;  1.8111075E-03;  9.9886365E+02;  1.0000207E-01; -9.4145483E+02;3;  2.6697810E+00;  0.0000000E+00;  3.2395685E-01;0;  7.0486598E-02;  3.9899414E+04;  0.0000000E+00; -8.8610508E-02;  4.0000000E+04;  0.0000000E+00;  4.0008309E+04;  7.8476675E-02;  0.0000000E+00; -7.9900799E-03;  1.1571372E+03;
  4.9155375E-01;  9.9999998E-03; -2.3999691E-01;5441;  1.8975211E-02;  0.0000000E+00;  1.9180886E-03;  9.9875092E+02;  1.0000210E-01; -1.0348350E+03;3;  2.6759665E+00;  0.0000000E+00;  3.4076345E-01;0;  7.0320167E-02;  3.9888211E+04;  0.0000000E+00; -9.4435729E-02;  4.0000000E+04;  0.0000000E+00;  4.0010527E+04;  7.8419402E-02;  0.0000000E+00; -8.0992365E-03;  1.4345236E+03;
  4.9154142E-01;  9.9999998E-03; -2.4999261E-01;5440;  1.9956261E-02;  0.0000000E+00;  2.0404921E-03;  9.9864398E+02;  1.0000207E-01; -1.1234250E+03;3;  2.6950388E+00;  0.0000000E+00;  3.5078272E-01;0;  7.0042729E-02;  3.9877809E+04;  0.0000000E+00; -8.9533798E-02;  4.0000000E+04;  0.0000000E+00;  4.0012137E+04;  7.8369543E-02;  0.0000000E+00; -8.3268145E-03;  1.6466848E+03;
  4.9152556E-01;  9.9999998E-03; -2.5998920E-01;5439;  2.0826722E-02;  0.0000000E+00;  2.1897724E-03;  9.9854071E+02;  1.0000200E-01; -1.2090028E+03;3;  2.7192633E+00;  0.0000000E+00;  3.5463181E-01;0;  6.9394410E-02;  3.9868273E+04;  0.0000000E+00; -6.7591950E-02;  4.0000000E+04;  0.0000000E+00;  4.0013684E+04;  7.8304440E-02;  0.0000000E+00; -8.9100273E-03;  1.8189148E+03;
  4.9151394E-01;  9.9999998E-03; -2.6998597E-01;5438;  2.1622857E-02;  0.0000000E+00;  2.3352876E-03;  9.9845294E+02;  1.0000207E-01; -1.2816921E+03;3;  2.7427011E+00;  0.0000000E+00;  3.4601030E-01;0;  6.8469018E-02;  3.9859832E+04;  0.0000000E+00; -2.4129298E-02;  4.0000000E+04;  0.0000000E+00;  4.0014855E+04;  7.8206755E-02;  0.0000000E+00; -9.7377412E-03;  1.9825920E+03;
  5.0157940E-01;  9.9999998E-03; -2.6998422E-01;5499;  2.2901520E-02;  0.0000000E+00;  2.5594188E-03;  9.9835516E+02;  1.0000364E-01; -1.3627269E+03;3;  1.0755206E+00;  0.0000000E+00;  6.3459826E-01;0;  6.1932463E-02;  3.9849766E+04;  0.0000000E+00; -6.5646484E-02;  4.0000000E+04;  0.0000000E+00;  4.0016055E+04;  7.2606966E-02;  0.0000000E+00; -1.0674502E-02;  2.1438513E+03;
  5.0158703E-01;  9.9999998E-03; -2.5998721E-01;5500;  2.2460815E-02;  0.0000000E+00;  2.4162780E-03;  9.9845020E+02;  1.0000370E-01; -1.2839637E+03;3;  2.3827927E+00;  0.0000000E+00;  4.5933506E-01;0;  6.3760012E-02;  3.9858676E+04;  0.0000000E+00; -8.4456146E-02;  4.0000000E+04;  0.0000000E+00;  4.0014777E+04;  7.3390983E-02;  0.0000000E+00; -9.6309735E-03;  1.9822108E+03;
  5.0159371E-01;  9.9999998E-03; -2.4999012E-01;5501;  2.1788159E-02;  0.0000000E+00;  2.2891767E-03;  9.9855945E+02;  1.0000373E-01; -1.1934478E+03;3;  2.6209817E+00;  0.0000000E+00;  4.0511701E-01;0;  6.5259583E-02;  3.9868773E+04;  0.0000000E+00; -8.5364945E-02;  4.0000000E+04;  0.0000000E+00;  4.0013375E+04;  7.4210510E-02;  0.0000000E+00; -8.9509292E-03;  1.8133379E+03;
  5.0159091E-01;  9.9999998E-03; -2.3999403E-01;5502;  2.0910380E-02;  0.0000000E+00;  2.2053386E-03;  9.9867834E+02;  1.0000383E-01; -1.0949813E+03;3;  2.6334131E+00;  0.0000000E+00;  3.8290867E-01;0;  6.6399857E-02;  3.9879820E+04;  0.0000000E+00; -7.3202178E-02;  4.0000000E+04;  0.0000000E+00;  4.0011707E+04;  7.5064756E-02;  0.0000000E+00; -8.6649014E-03;  1.5796576E+03;
  5.0158477E-01;  9.9999998E-03; -2.3000038E-01;5503;  1.9976860E-02;  0.0000000E+00;  2.1337646E-03;  9.9879663E+02;  1.0000373E-01; -9.9695947E+02;3;  2.6460609E+00;  0.0000000E+00;  3.6594042E-01;0;  6.7508399E-02;  3.9891918E+04;  0.0000000E+00; -5.5248238E-02;  4.0000000E+04;  0.0000000E+00;  4.0009551E+04;  7.5951889E-02;  0.0000000E+00; -8.4434915E-03;  1.2831718E+03;
  5.0158179E-01;  9.9999998E-03; -2.2000167E-01;5504;  1.9146275E-02;  0.0000000E+00;  1.9938319E-03;  9.9893921E+02;  1.0000384E-01; -8.7883936E+02;3;  2.6377139E+00;  0.0000000E+00;  3.4569210E-01;0;  6.8788148E-02;  3.9904457E+04;  0.0000000E+00; -3.7198585E-02;  4.0000000E+04;  0.0000000E+00;  4.0008434E+04;  7.6880790E-02;  0.0000000E+00; -8.0926390E-03;  1.1397017E+03;
  5.0157696E-01;  9.9999998E-03; -2.0999631E-01;5505;  1.8390851E-02;  0.0000000E+00;  1.8615404E-03;  9.9908917E+02;  1.0000365E-01; -7.5459595E+02;3;  2.6545358E+00;  0.0000000E+00;  3.3425418E-01;0;  7.0008360E-02;  3.9917199E+04;  0.0000000E+00; -2.2799226E-02;  4.0000000E+04;  0.0000000E+00;  4.0007703E+04;  7.7872097E-02;  0.0000000E+00; -7.8637367E-03;  1.0277550E+03;
  5.0157195E-01;  9.9999998E-03; -1.9998978E-01;5506;  1.7798467E-02;  0.0000000E+00;  1.7347670E-03;  9.9922766E+02;  1.0000372E-01; -6.3988312E+02;3;  2.6917119E+00;  0.0000000E+00;  3.1360883E-01;0;  7.1253218E-02;  3.9929234E+04;  0.0000000E+00; -1.5010993E-02;  4.0000000E+04;  0.0000000E+00;  4.0006301E+04;  7.8947395E-02;  0.0000000E+00; -7.6941741E-03;  8.4103009E+02;
  5.0156778E-01;  9.9999998E-03; -1.8998471E-01;5507;  1.7385121E-02;  0.0000000E+00;  1.5902894E-03;  9.9934961E+02;  1.0000368E-01; -5.3884894E+02;3;  2.7171278E+00;  0.0000000E+00;  2.9504776E-01;0;  7.2586365E-02;  3.9940789E+04;  0.0000000E+00; -1.5305832E-02;  4.0000000E+04;  0.0000000E+00;  4.0004492E+04;  8.0131017E-02;  0.0000000E+00; -7.5446484E-03;  6.1900818E+02;
  5.0156444E-01;  9.9999998E-03; -1.7998111E-01;5508;  1.7142877E-02;  0.0000000E+00;  1.4496749E-03;  9.9945776E+02;  1.0000376E-01; -4.4922186E+02;3;  2.7517562E+00;  0.0000000E+00;  2.7677104E-01;0;  7.4025139E-02;  3.9951113E+04;  0.0000000E+00; -2.3658026E-02;  4.0000000E+04;  0.0000000E+00;  4.0002867E+04;  8.1444375E-02;  0.0000000E+00; -7.4192369E-03;  4.1191144E+02;
  5.0156099E-01;  9.9999998E-03; -1.6997893E-01;5509;  1.7070813E-02;  0.0000000E+00;  1.3260287E-03;  9.9954889E+02;  1.0000373E-01; -3.7371783E+02;3;  2.7892389E+00;  0.0000000E+00;  2.6247078E-01;0;  7.5582154E-02;  3.9959703E+04;  0.0000000E+00; -3.8533986E-02;  4.0000000E+04;  0.0000000E+00;  4.0001414E+04;  8.2900323E-02;  0.0000000E+00; -7.3181707E-03;  2.4719916E+02;
  5.0155938E-01;  9.9999998E-03; -1.5997814E-01;5510;  1.7126100E-02;  0.0000000E+00;  1.2191026E-03;  9.9962189E+02;  1.0000366E-01; -3.1327509E+02;3;  2.8312454E+00;  0.0000000E+00;  2.4964944E-01;0;  7.7245794E-02;  3.9966621E+04;  0.0000000E+00; -5.7185810E-02;  4.0000000E+04;  0.0000000E+00;  4.0000906E+04;  8.4499806E-02;  0.0000000E+00; -7.2540119E-03;  1.4401292E+02;
  5.0156134E-01;  9.9999998E-03; -1.4997850E-01;5511;  1.7307224E-02;  0.0000000E+00;  1.1330310E-03;  9.9968475E+02;  1.0000379E-01; -2.6117780E+02;3;  2.8766263E+00;  0.0000000E+00;  2.4154809E-01;0;  7.8981176E-02;  3.9971852E+04;  0.0000000E+00; -7.6287761E-02;  4.0000000E+04;  0.0000000E+00;  3.9999938E+04;  8.6229973E-02;  0.0000000E+00; -7.2487975E-03;  1.1694421E+02;
  5.0156796E-01;  9.9999998E-03; -1.3997953E-01;5512;  1.7594313E-02;  0.0000000E+00;  1.0670917E-03;  9.9972961E+02;  1.0000389E-01; -2.2399367E+02;3;  2.9255235E+00;  0.0000000E+00;  2.3282263E-01;0;  8.0739461E-02;  3.9975648E+04;  0.0000000E+00; -9.2735432E-02;  4.0000000E+04;  0.0000000E+00;  3.9999945E+04;  8.8062860E-02;  0.0000000E+00; -7.3233973E-03;  1.3235623E+02;
  5.0157946E-01;  9.9999998E-03; -1.2998070E-01;5513;  1.7951878E-02;  0.0000000E+00;  1.0152169E-03;  9.9976166E+02;  1.0000376E-01; -1.9747589E+02;3;  2.9803555E+00;  0.0000000E+00;  2.2469015E-01;0;  8.2469597E-02;  3.9978148E+04;  0.0000000E+00; -1.0424894E-01;  4.0000000E+04;  0.0000000E+00;  4.0000012E+04;  8.9958429E-02;  0.0000000E+00; -7.4888347E-03;  1.4932596E+02;
  5.0159568E-01;  9.9999998E-03; -1.1998165E-01;5514;  1.8376226E-02;  0.0000000E+00;  9.6984027E-04;  9.9978021E+02;  1.0000389E-01; -1.8206892E+02;3;  3.0447383E+00;  0.0000000E+00;  2.2401306E-01;0;  8.4123962E-02;  3.9979625E+04;  0.0000000E+00; -1.0968302E-01;  4.0000000E+04;  0.0000000E+00;  4.0000207E+04;  9.1867380E-02;  0.0000000E+00; -7.7434191E-03;  1.6301981E+02;
  5.0161612E-01;  9.9999998E-03; -1.0998224E-01;5515;  1.8816151E-02;  0.0000000E+00;  9.2106889E-04;  9.9979797E+02;  1.0000384E-01; -1.6735329E+02;3;  3.1210825E+00;  0.0000000E+00;  2.2287580E-01;0;  8.5662737E-02;  3.9980227E+04;  0.0000000E+00; -1.0885422E-01;  4.0000000E+04;  0.0000000E+00;  4.0000594E+04;  9.3737952E-02;  0.0000000E+00; -8.0752149E-03;  1.8186392E+02;
  5.1154351E-01;  9.9999998E-03; -2.6998171E-01;5560;  2.3036266E-02;  0.0000000E+00;  2.7862457E-03;  9.9822272E+02;  1.0000632E-01; -1.4724521E+03;3; -9.6864742E-01;  0.0000000E+00;  5.9509361E-01;0;  5.3045519E-02;  3.9835613E+04;  0.0000000E+00; -1.0100293E-01;  4.0000000E+04;  0.0000000E+00;  4.0017855E+04;  6.4909227E-02;  0.0000000E+00; -1.1863708E-02;  2.3764709E+03;
  5.1156014E-01;  9.9999998E-03; -2.5998437E-01;5561;  2.2903360E-02;  0.0000000E+00;  2.6880910E-03;  9.9832770E+02;  1.0000619E-01; -1.3854917E+03;3;  9.1653906E-02;  0.0000000E+00;  8.2565063E-01;0;  5.5626713E-02;  3.9845270E+04;  0.0000000E+00; -1.0212225E-01;  4.0000000E+04;  0.0000000E+00;  4.0016664E+04;  6.6317096E-02;  0.0000000E+00; -1.0690385E-02;  2.2154365E+03;
  5.1157218E-01;  9.9999998E-03; -2.4998677E-01;5562;  2.2633251E-02;  0.0000000E+00;  2.5617208E-03;  9.9844989E+02;  1.0000618E-01; -1.2842600E+03;3;  1.5207248E+00;  0.0000000E+00;  7.8892922E-01;0;  5.8258645E-02;  3.9856406E+04;  0.0000000E+00; -8.6116388E-02;  4.0000000E+04;  0.0000000E+00;  4.0015184E+04;  6.7839831E-02;  0.0000000E+00; -9.5811877E-03;  2.0436094E+03;
  5.1157480E-01;  9.9999998E-03; -2.3998986E-01;5563;  2.2056602E-02;  0.0000000E+00;  2.4690160E-03;  9.9857642E+02;  1.0000615E-01; -1.1794235E+03;3;  2.4459965E+00;  0.0000000E+00;  4.6309960E-01;0;  6.0442660E-02;  3.9868375E+04;  0.0000000E+00; -5.9631012E-02;  4.0000000E+04;  0.0000000E+00;  4.0013469E+04;  6.9460690E-02;  0.0000000E+00; -9.0180309E-03;  1.8028839E+03;
  5.1157320E-01;  9.9999998E-03; -2.2999503E-01;5564;  2.1293417E-02;  0.0000000E+00;  2.4176165E-03;  9.9870886E+02;  1.0000625E-01; -1.0696981E+03;3;  2.5406241E+00;  0.0000000E+00;  4.1116738E-01;0;  6.2495749E-02;  3.9881367E+04;  0.0000000E+00; -3.0362243E-02;  4.0000000E+04;  0.0000000E+00;  4.0011035E+04;  7.1156487E-02;  0.0000000E+00; -8.6607384E-03;  1.4907019E+03;
  5.1157099E-01;  9.9999998E-03; -2.1999612E-01;5565;  2.0580657E-02;  0.0000000E+00;  2.3100753E-03;  9.9885901E+02;  1.0000622E-01; -9.4530658E+02;3;  2.5552378E+00;  0.0000000E+00;  3.9794487E-01;0;  6.4684287E-02;  3.9894938E+04;  0.0000000E+00; -3.9654658E-03;  4.0000000E+04;  0.0000000E+00;  4.0009480E+04;  7.2910979E-02;  0.0000000E+00; -8.2266955E-03;  1.2955433E+03;
  5.1156700E-01;  9.9999998E-03; -2.0999156E-01;5566;  1.9892870E-02;  0.0000000E+00;  2.2038105E-03;  9.9901617E+02;  1.0000617E-01; -8.1508807E+02;3;  2.5979700E+00;  0.0000000E+00;  3.8198799E-01;0;  6.6790745E-02;  3.9908492E+04;  0.0000000E+00;  1.5526998E-02;  4.0000000E+04;  0.0000000E+00;  4.0008387E+04;  7.4717619E-02;  0.0000000E+00; -7.9268720E-03;  1.1270192E+03;
  5.1156235E-01;  9.9999998E-03; -1.9998519E-01;5567;  1.9327473E-02;  0.0000000E+00;  2.0950579E-03;  9.9915747E+02;  1.0000618E-01; -6.9800494E+02;3;  2.6387227E+00;  0.0000000E+00;  3.6423498E-01;0;  6.8855852E-02;  3.9921652E+04;  0.0000000E+00;  2.5115972E-02;  4.0000000E+04;  0.0000000E+00;  4.0006566E+04;  7.6569378E-02;  0.0000000E+00; -7.7135232E-03;  9.0305389E+02;
  5.1155871E-01;  9.9999998E-03; -1.8997949E-01;5568;  1.8895816E-02;  0.0000000E+00;  1.9539541E-03;  9.9928973E+02;  1.0000610E-01; -5.8842780E+02;3;  2.6802285E+00;  0.0000000E+00;  3.3972305E-01;0;  7.0911631E-02;  3.9933758E+04;  0.0000000E+00;  2.3275297E-02;  4.0000000E+04;  0.0000000E+00;  4.0004828E+04;  7.8462489E-02;  0.0000000E+00; -7.5508612E-03;  6.5194952E+02;
  5.1155704E-01;  9.9999998E-03; -1.7997476E-01;5569;  1.8666111E-02;  0.0000000E+00;  1.8172186E-03;  9.9940210E+02;  1.0000620E-01; -4.9534402E+02;3;  2.7197366E+00;  0.0000000E+00;  3.2922775E-01;0;  7.2946355E-02;  3.9944461E+04;  0.0000000E+00;  1.0151771E-02;  4.0000000E+04;  0.0000000E+00;  4.0002898E+04;  8.0392607E-02;  0.0000000E+00; -7.4462518E-03;  4.1878680E+02;
  5.1155758E-01;  9.9999998E-03; -1.6997114E-01;5570;  1.8619042E-02;  0.0000000E+00;  1.6936831E-03;  9.9949402E+02;  1.0000616E-01; -4.1919803E+02;3;  2.7641008E+00;  0.0000000E+00;  3.2219434E-01;0;  7.4965119E-02;  3.9953410E+04;  0.0000000E+00; -1.2305407E-02;  4.0000000E+04;  0.0000000E+00;  4.0001684E+04;  8.2354635E-02;  0.0000000E+00; -7.3895152E-03;  2.3117853E+02;
  5.1156026E-01;  9.9999998E-03; -1.5996879E-01;5571;  1.8731013E-02;  0.0000000E+00;  1.5862284E-03;  9.9957172E+02;  1.0000635E-01; -3.5480478E+02;3;  2.8163269E+00;  0.0000000E+00;  3.1772313E-01;0;  7.6953426E-02;  3.9960391E+04;  0.0000000E+00; -4.0565267E-02;  4.0000000E+04;  0.0000000E+00;  4.0000594E+04;  8.4339269E-02;  0.0000000E+00; -7.3858453E-03;  1.1367043E+02;
  5.1156640E-01;  9.9999998E-03; -1.4996773E-01;5572;  1.9010665E-02;  0.0000000E+00;  1.4982334E-03;  9.9963086E+02;  1.0000607E-01; -3.0581851E+02;3;  2.8785546E+00;  0.0000000E+00;  3.1808054E-01;0;  7.8880437E-02;  3.9965855E+04;  0.0000000E+00; -7.0239522E-02;  4.0000000E+04;  0.0000000E+00;  4.0000008E+04;  8.6331412E-02;  0.0000000E+00; -7.4509783E-03;  1.0206828E+02;
  5.1157647E-01;  9.9999998E-03; -1.3996768E-01;5573;  1.9445710E-02;  0.0000000E+00;  1.4279055E-03;  9.9967474E+02;  1.0000619E-01; -2.6947385E+02;3;  2.9596322E+00;  0.0000000E+00;  3.2495269E-01;0;  8.0710299E-02;  3.9969242E+04;  0.0000000E+00; -9.7102664E-02;  4.0000000E+04;  0.0000000E+00;  3.9999754E+04;  8.8311866E-02;  0.0000000E+00; -7.6015657E-03;  1.3811984E+02;
  5.1159024E-01;  9.9999998E-03; -1.2996836E-01;5574;  1.9998863E-02;  0.0000000E+00;  1.3704728E-03;  9.9970496E+02;  1.0000630E-01; -2.4443753E+02;3;  3.0549192E+00;  0.0000000E+00;  3.3583838E-01;0;  8.2410693E-02;  3.9971559E+04;  0.0000000E+00; -1.1800350E-01;  4.0000000E+04;  0.0000000E+00;  3.9999816E+04;  9.0257272E-02;  0.0000000E+00; -7.8465827E-03;  1.6904109E+02;
  5.1160657E-01;  9.9999998E-03; -1.1996948E-01;5575;  2.0628143E-02;  0.0000000E+00;  1.3150625E-03;  9.9972858E+02;  1.0000610E-01; -2.2488252E+02;3;  3.1638224E+00;  0.0000000E+00;  3.5274160E-01;0;  8.3960235E-02;  3.9973086E+04;  0.0000000E+00; -1.3117072E-01;  4.0000000E+04;  0.0000000E+00;  4.0000477E+04;  9.2143714E-02;  0.0000000E+00; -8.1834784E-03;  1.9869734E+02;
  5.1162446E-01;  9.9999998E-03; -1.0997105E-01;5576;  2.1266954E-02;  0.0000000E+00;  1.2530561E-03;  9.9974725E+02;  1.0000629E-01; -2.0937680E+02;3;  3.2754204E+00;  0.0000000E+00;  3.7611634E-01;0;  8.5347369E-02;  3.9973770E+04;  0.0000000E+00; -1.3595998E-01;  4.0000000E+04;  0.0000000E+00;  4.0000918E+04;  9.3946233E-02;  0.0000000E+00; -8.5988631E-03;  2.3792876E+02;
  5.2151030E-01;  9.9999998E-03; -2.6997894E-01;5621;  2.2964213E-02;  0.0000000E+00;  2.9196225E-03;  9.9808362E+02;  1.0001041E-01; -1.5877081E+03;3; -1.6057531E+00;  0.0000000E+00;  2.9996827E-01;0;  4.3593302E-02;  3.9819004E+04;  0.0000000E+00; -1.3375977E-01;  4.0000000E+04;  0.0000000E+00;  4.0019414E+04;  5.5711009E-02;  0.0000000E+00; -1.2117705E-02;  2.6274065E+03;
  5.2153409E-01;  9.9999998E-03; -2.5998127E-01;5622;  2.2920219E-02;  0.0000000E+00;  2.8576415E-03;  9.9820111E+02;  1.0001060E-01; -1.4903282E+03;3; -1.0277554E+00;  0.0000000E+00;  6.2089032E-01;0;  4.6585929E-02;  3.9829516E+04;  0.0000000E+00; -1.2426045E-01;  4.0000000E+04;  0.0000000E+00;  4.0018414E+04;  5.7623755E-02;  0.0000000E+00; -1.1037827E-02;  2.4621448E+03;
  5.2155179E-01;  9.9999998E-03; -2.4998324E-01;5623;  2.2826074E-02;  0.0000000E+00;  2.7695221E-03;  9.9833398E+02;  1.0001060E-01; -1.3802572E+03;3;  1.0259587E-01;  0.0000000E+00;  8.1389868E-01;0;  4.9833547E-02;  3.9841441E+04;  0.0000000E+00; -9.5379539E-02;  4.0000000E+04;  0.0000000E+00;  4.0017074E+04;  5.9719756E-02;  0.0000000E+00; -9.8862080E-03;  2.2839438E+03;
  5.2155930E-01;  9.9999998E-03; -2.3998591E-01;5624;  2.2561651E-02;  0.0000000E+00;  2.6910666E-03;  9.9847382E+02;  1.0001048E-01; -1.2644087E+03;3;  1.7011989E+00;  0.0000000E+00;  6.4124995E-01;0;  5.2867267E-02;  3.9854531E+04;  0.0000000E+00; -5.6817453E-02;  4.0000000E+04;  0.0000000E+00;  4.0015367E+04;  6.1974935E-02;  0.0000000E+00; -9.1076689E-03;  2.0267598E+03;
  5.2156025E-01;  9.9999998E-03; -2.2999026E-01;5625;  2.2064183E-02;  0.0000000E+00;  2.6303462E-03;  9.9862024E+02;  1.0001051E-01; -1.1431282E+03;3;  2.3380461E+00;  0.0000000E+00;  4.0902653E-01;0;  5.5762701E-02;  3.9868727E+04;  0.0000000E+00; -1.7316137E-02;  4.0000000E+04;  0.0000000E+00;  4.0012672E+04;  6.4352997E-02;  0.0000000E+00; -8.5902978E-03;  1.7059199E+03;
  5.2155918E-01;  9.9999998E-03; -2.1999186E-01;5626;  2.1554615E-02;  0.0000000E+00;  2.5502802E-03;  9.9877838E+02;  1.0001040E-01; -1.0120701E+03;3;  2.4294672E+00;  0.0000000E+00;  4.2350453E-01;0;  5.8688946E-02;  3.9883438E+04;  0.0000000E+00;  1.7159145E-02;  4.0000000E+04;  0.0000000E+00;  4.0010578E+04;  6.6811100E-02;  0.0000000E+00; -8.1221554E-03;  1.4638373E+03;
  5.2155614E-01;  9.9999998E-03; -2.0998946E-01;5627;  2.1051532E-02;  0.0000000E+00;  2.4636977E-03;  9.9894293E+02;  1.0001054E-01; -8.7577771E+02;3;  2.5027375E+00;  0.0000000E+00;  4.3082359E-01;0;  6.1524142E-02;  3.9898055E+04;  0.0000000E+00;  4.2505596E-02;  4.0000000E+04;  0.0000000E+00;  4.0009160E+04;  6.9315933E-02;  0.0000000E+00; -7.7917916E-03;  1.2422186E+03;
  5.2155262E-01;  9.9999998E-03; -1.9998479E-01;5628;  2.0614255E-02;  0.0000000E+00;  2.3540754E-03;  9.9909698E+02;  1.0001054E-01; -7.4812701E+02;3;  2.5469644E+00;  0.0000000E+00;  4.0284714E-01;0;  6.4269565E-02;  3.9912184E+04;  0.0000000E+00;  5.5685751E-02;  4.0000000E+04;  0.0000000E+00;  4.0007172E+04;  7.1830943E-02;  0.0000000E+00; -7.5613814E-03;  9.9008759E+02;
  5.2155060E-01;  9.9999998E-03; -1.8997957E-01;5629;  2.0340586E-02;  0.0000000E+00;  2.2305096E-03;  9.9923334E+02;  1.0001057E-01; -6.3514252E+02;3;  2.6129031E+00;  0.0000000E+00;  3.9946318E-01;0;  6.6896327E-02;  3.9925023E+04;  0.0000000E+00;  5.5108592E-02;  4.0000000E+04;  0.0000000E+00;  4.0005328E+04;  7.4320324E-02;  0.0000000E+00; -7.4239937E-03;  7.2161304E+02;
  5.2155095E-01;  9.9999998E-03; -1.7997454E-01;5630;  2.0223966E-02;  0.0000000E+00;  2.1015492E-03;  9.9935004E+02;  1.0001040E-01; -5.3850330E+02;3;  2.6710279E+00;  0.0000000E+00;  4.1201636E-01;0;  6.9391668E-02;  3.9936547E+04;  0.0000000E+00;  4.0866196E-02;  4.0000000E+04;  0.0000000E+00;  4.0003242E+04;  7.6754831E-02;  0.0000000E+00; -7.3631639E-03;  4.7011459E+02;
  5.2155399E-01;  9.9999998E-03; -1.6997027E-01;5631;  2.0320212E-02;  0.0000000E+00;  1.9854440E-03;  9.9944897E+02;  1.0001042E-01; -4.5653030E+02;3;  2.7402771E+00;  0.0000000E+00;  4.2785600E-01;0;  7.1738705E-02;  3.9945914E+04;  0.0000000E+00;  1.4994133E-02;  4.0000000E+04;  0.0000000E+00;  4.0001742E+04;  7.9107404E-02;  0.0000000E+00; -7.3687015E-03;  2.6135635E+02;
  5.2155954E-01;  9.9999998E-03; -1.5996704E-01;5632;  2.0592231E-02;  0.0000000E+00;  1.8843987E-03;  9.9952832E+02;  1.0001034E-01; -3.9075439E+02;3;  2.8192704E+00;  0.0000000E+00;  4.5566651E-01;0;  7.3918097E-02;  3.9953000E+04;  0.0000000E+00; -1.8631576E-02;  4.0000000E+04;  0.0000000E+00;  4.0000422E+04;  8.1358530E-02;  0.0000000E+00; -7.4404338E-03;  1.1659055E+02;
  5.2156752E-01;  9.9999998E-03; -1.4996491E-01;5633;  2.1052217E-02;  0.0000000E+00;  1.8011901E-03;  9.9958734E+02;  1.0001054E-01; -3.4186688E+02;3;  2.9098766E+00;  0.0000000E+00;  4.9918365E-01;0;  7.5903319E-02;  3.9958277E+04;  0.0000000E+00; -5.4992899E-02;  4.0000000E+04;  0.0000000E+00;  3.9999781E+04;  8.3492510E-02;  0.0000000E+00; -7.5891884E-03;  8.3517067E+01;
  5.2157819E-01;  9.9999998E-03; -1.3996398E-01;5634;  2.1667494E-02;  0.0000000E+00;  1.7362619E-03;  9.9962878E+02;  1.0001052E-01; -3.0754684E+02;3;  3.0078433E+00;  0.0000000E+00;  5.5043161E-01;0;  7.7673465E-02;  3.9961652E+04;  0.0000000E+00; -8.9123704E-02;  4.0000000E+04;  0.0000000E+00;  3.9999777E+04;  8.5500889E-02;  0.0000000E+00; -7.8274244E-03;  1.2705072E+02;
  5.2159083E-01;  9.9999998E-03; -1.2996425E-01;5635;  2.2384707E-02;  0.0000000E+00;  1.6858157E-03;  9.9965723E+02;  1.0001041E-01; -2.8399197E+02;3;  3.0814009E+00;  0.0000000E+00;  6.4275777E-01;0;  7.9220869E-02;  3.9963633E+04;  0.0000000E+00; -1.1727760E-01;  4.0000000E+04;  0.0000000E+00;  4.0000102E+04;  8.7382205E-02;  0.0000000E+00; -8.1613380E-03;  1.6965965E+02;
  5.2160436E-01;  9.9999998E-03; -1.1996560E-01;5636;  2.3139849E-02;  0.0000000E+00;  1.6433854E-03;  9.9967719E+02;  1.0001054E-01; -2.6744922E+02;3;  3.1154330E+00;  0.0000000E+00;  7.4611193E-01;0;  8.0552705E-02;  3.9964605E+04;  0.0000000E+00; -1.3715319E-01;  4.0000000E+04;  0.0000000E+00;  4.0000676E+04;  8.9139499E-02;  0.0000000E+00; -8.5867913E-03;  2.1502141E+02;
  5.2161777E-01;  9.9999998E-03; -1.0996790E-01;5637;  2.3877818E-02;  0.0000000E+00;  1.5961650E-03;  9.9968951E+02;  1.0001040E-01; -2.5722729E+02;3;  3.1245139E+00;  0.0000000E+00;  8.2740062E-01;0;  8.1688873E-02;  3.9964930E+04;  0.0000000E+00; -1.4760444E-01;  4.0000000E+04;  0.0000000E+00;  4.0001250E+04;  9.0777718E-02;  0.0000000E+00; -9.0888413E-03;  2.7304321E+02;
  5.3150278E-01;  9.9999998E-03; -2.6997629E-01;5682;  2.2858744E-02;  0.0000000E+00;  2.9855301E-03;  9.9796619E+02;  1.0001741E-01; -1.6849894E+03;3; -1.9902021E+00;  0.0000000E+00;  3.7091348E-02;0;  3.3900261E-02;  3.9802227E+04;  0.0000000E+00; -1.5487596E-01;  4.0000000E+04;  0.0000000E+00;  4.0021203E+04;  4.5660742E-02;  0.0000000E+00; -1.1760482E-02;  2.8370659E+03;
  5.3152847E-01;  9.9999998E-03; -2.5997835E-01;5683;  2.2854637E-02;  0.0000000E+00;  2.9432396E-03;  9.9809277E+02;  1.0001738E-01; -1.5801035E+03;3; -1.6766422E+00;  0.0000000E+00;  3.2908300E-01;0;  3.7163936E-02;  3.9814000E+04;  0.0000000E+00; -1.4448422E-01;  4.0000000E+04;  0.0000000E+00;  4.0019875E+04;  4.7929551E-02;  0.0000000E+00; -1.0765617E-02;  2.6660447E+03;
  5.3154528E-01;  9.9999998E-03; -2.4998027E-01;5684;  2.2844294E-02;  0.0000000E+00;  2.8880555E-03;  9.9823785E+02;  1.0001735E-01; -1.4599093E+03;3; -9.1523987E-01;  0.0000000E+00;  6.0679847E-01;0;  4.0718734E-02;  3.9826691E+04;  0.0000000E+00; -1.0883687E-01;  4.0000000E+04;  0.0000000E+00;  4.0018555E+04;  5.0428867E-02;  0.0000000E+00; -9.7101331E-03;  2.4692913E+03;
  5.3154999E-01;  9.9999998E-03; -2.3998308E-01;5685;  2.2751832E-02;  0.0000000E+00;  2.8316919E-03;  9.9839148E+02;  1.0001748E-01; -1.3326042E+03;3;  5.1033878E-01;  0.0000000E+00;  6.7177731E-01;0;  4.4260234E-02;  3.9840875E+04;  0.0000000E+00; -6.2307671E-02;  4.0000000E+04;  0.0000000E+00;  4.0016367E+04;  5.3132620E-02;  0.0000000E+00; -8.8723870E-03;  2.1935933E+03;
  5.3154731E-01;  9.9999998E-03; -2.2998759E-01;5686;  2.2515595E-02;  0.0000000E+00;  2.7667431E-03;  9.9854913E+02;  1.0001731E-01; -1.2020400E+03;3;  1.8189144E+00;  0.0000000E+00;  4.5767504E-01;0;  4.7742058E-02;  3.9855906E+04;  0.0000000E+00; -1.5643768E-02;  4.0000000E+04;  0.0000000E+00;  4.0013754E+04;  5.5995360E-02;  0.0000000E+00; -8.2533024E-03;  1.8654420E+03;
  5.3154224E-01;  9.9999998E-03; -2.1999174E-01;5687;  2.2222841E-02;  0.0000000E+00;  2.6976741E-03;  9.9871771E+02;  1.0001730E-01; -1.0623403E+03;3;  2.2192521E+00;  0.0000000E+00;  4.2920080E-01;0;  5.1168256E-02;  3.9871699E+04;  0.0000000E+00;  2.4910567E-02;  4.0000000E+04;  0.0000000E+00;  4.0011715E+04;  5.8956567E-02;  0.0000000E+00; -7.7883131E-03;  1.5743068E+03;
  5.3153688E-01;  9.9999998E-03; -2.0999312E-01;5688;  2.1931820E-02;  0.0000000E+00;  2.6070739E-03;  9.9889056E+02;  1.0001735E-01; -9.1913452E+02;3;  2.3464451E+00;  0.0000000E+00;  4.1902021E-01;0;  5.4501973E-02;  3.9887195E+04;  0.0000000E+00;  5.5278100E-02;  4.0000000E+04;  0.0000000E+00;  4.0009633E+04;  6.1957393E-02;  0.0000000E+00; -7.4554202E-03;  1.3236036E+03;
  5.3153312E-01;  9.9999998E-03; -1.9999112E-01;5689;  2.1717308E-02;  0.0000000E+00;  2.5007937E-03;  9.9905493E+02;  1.0001750E-01; -7.8299017E+02;3;  2.4268584E+00;  0.0000000E+00;  4.7045091E-01;0;  5.7677250E-02;  3.9902211E+04;  0.0000000E+00;  7.2593071E-02;  4.0000000E+04;  0.0000000E+00;  4.0007918E+04;  6.4934984E-02;  0.0000000E+00; -7.2577321E-03;  1.0740715E+03;
  5.3153217E-01;  9.9999998E-03; -1.8998712E-01;5690;  2.1626966E-02;  0.0000000E+00;  2.3898408E-03;  9.9920166E+02;  1.0001754E-01; -6.6141339E+02;3;  2.5107381E+00;  0.0000000E+00;  5.2056557E-01;0;  6.0652245E-02;  3.9915734E+04;  0.0000000E+00;  7.5303651E-02;  4.0000000E+04;  0.0000000E+00;  4.0005664E+04;  6.7828394E-02;  0.0000000E+00; -7.1761496E-03;  8.1167944E+02;
  5.3153431E-01;  9.9999998E-03; -1.7998245E-01;5691;  2.1720324E-02;  0.0000000E+00;  2.2806956E-03;  9.9932672E+02;  1.0001744E-01; -5.5781140E+02;3;  2.5860143E+00;  0.0000000E+00;  5.9171110E-01;0;  6.3397937E-02;  3.9927555E+04;  0.0000000E+00;  6.3396133E-02;  4.0000000E+04;  0.0000000E+00;  4.0003879E+04;  7.0581481E-02;  0.0000000E+00; -7.1835411E-03;  5.5653339E+02;
  5.3153944E-01;  9.9999998E-03; -1.6997792E-01;5692;  2.2000739E-02;  0.0000000E+00;  2.1878199E-03;  9.9942792E+02;  1.0001736E-01; -4.7396191E+02;3;  2.6600287E+00;  0.0000000E+00;  6.7436653E-01;0;  6.5884873E-02;  3.9937430E+04;  0.0000000E+00;  3.8746677E-02;  4.0000000E+04;  0.0000000E+00;  4.0002141E+04;  7.3151574E-02;  0.0000000E+00; -7.2667026E-03;  3.3491193E+02;
  5.3154719E-01;  9.9999998E-03; -1.5997399E-01;5693;  2.2456665E-02;  0.0000000E+00;  2.1154971E-03;  9.9950366E+02;  1.0001750E-01; -4.1119824E+02;3;  2.7199934E+00;  0.0000000E+00;  7.8804970E-01;0;  6.8085335E-02;  3.9944684E+04;  0.0000000E+00;  5.1280800E-03;  4.0000000E+04;  0.0000000E+00;  4.0000887E+04;  7.5509384E-02;  0.0000000E+00; -7.4240523E-03;  1.6750945E+02;
  5.3155690E-01;  9.9999998E-03; -1.4997110E-01;5694;  2.3064397E-02;  0.0000000E+00;  2.0711769E-03;  9.9956042E+02;  1.0001726E-01; -3.6418723E+02;3;  2.7196085E+00;  0.0000000E+00;  9.2323619E-01;0;  6.9979176E-02;  3.9949633E+04;  0.0000000E+00; -3.2401014E-02;  4.0000000E+04;  0.0000000E+00;  4.0000016E+04;  7.7642925E-02;  0.0000000E+00; -7.6637501E-03;  8.2831703E+01;
  5.3156781E-01;  9.9999998E-03; -1.3996956E-01;5695;  2.3769051E-02;  0.0000000E+00;  2.0532513E-03;  9.9959430E+02;  1.0001726E-01; -3.3613864E+02;3;  2.6004686E+00;  0.0000000E+00;  1.0702900E+00;0;  7.1562856E-02;  3.9952500E+04;  0.0000000E+00; -6.8785667E-02;  4.0000000E+04;  0.0000000E+00;  3.9999934E+04;  7.9557419E-02;  0.0000000E+00; -7.9945615E-03;  1.0370322E+02;
  5.3157902E-01;  9.9999998E-03; -1.2996946E-01;5696;  2.4502974E-02;  0.0000000E+00;  2.0460594E-03;  9.9961353E+02;  1.0001732E-01; -3.2018848E+02;3;  2.3998752E+00;  0.0000000E+00;  1.1580979E+00;0;  7.2854459E-02;  3.9953895E+04;  0.0000000E+00; -1.0018566E-01;  4.0000000E+04;  0.0000000E+00;  3.9999926E+04;  8.1273861E-02;  0.0000000E+00; -8.4194038E-03;  1.5239055E+02;
  5.3158963E-01;  9.9999998E-03; -1.1997060E-01;5697;  2.5212115E-02;  0.0000000E+00;  2.0318942E-03;  9.9962250E+02;  1.0001743E-01; -3.1273190E+02;3;  2.1351736E+00;  0.0000000E+00;  1.1948817E+00;0;  7.3888630E-02;  3.9954078E+04;  0.0000000E+00; -1.2408264E-01;  4.0000000E+04;  0.0000000E+00;  4.0000562E+04;  8.2820617E-02;  0.0000000E+00; -8.9319898E-03;  2.1043314E+02;
  5.3159887E-01;  9.9999998E-03; -1.0997289E-01;5698;  2.5866048E-02;  0.0000000E+00;  1.9968199E-03;  9.9962738E+02;  1.0001746E-01; -3.0873199E+02;3;  1.8605663E+00;  0.0000000E+00;  1.1572859E+00;0;  7.4712306E-02;  3.9953574E+04;  0.0000000E+00; -1.3895366E-01;  4.0000000E+04;  0.0000000E+00;  4.0001312E+04;  8.4228128E-02;  0.0000000E+00; -9.5158238E-03;  2.8293057E+02;
  5.4152709E-01;  9.9999998E-03; -2.6997435E-01;5743;  2.2748461E-02;  0.0000000E+00;  3.0020196E-03;  9.9791785E+02;  1.0002949E-01; -1.7250376E+03;3; -2.3460441E+00;  0.0000000E+00; -2.3283875E-01;0;  2.4258733E-02;  3.9788168E+04;  0.0000000E+00; -1.5992209E-01;  4.0000000E+04;  0.0000000E+00;  4.0021828E+04;  3.5377849E-02;  0.0000000E+00; -1.1119116E-02;  2.9200049E+03;
  5.4155099E-01;  9.9999998E-03; -2.5997642E-01;5744;  2.2769583E-02;  0.0000000E+00;  2.9729239E-03;  9.9805426E+02;  1.0002950E-01; -1.6120038E+03;3; -2.1973686E+00;  0.0000000E+00;  5.9612688E-02;0;  2.7663156E-02;  3.9800195E+04;  0.0000000E+00; -1.5778118E-01;  4.0000000E+04;  0.0000000E+00;  4.0020129E+04;  3.7841663E-02;  0.0000000E+00; -1.0178506E-02;  2.7369287E+03;
  5.4156363E-01;  9.9999998E-03; -2.4997862E-01;5745;  2.2804257E-02;  0.0000000E+00;  2.9330221E-03;  9.9820605E+02;  1.0002951E-01; -1.4862296E+03;3; -1.7979445E+00;  0.0000000E+00;  3.6907443E-01;0;  3.1379759E-02;  3.9813758E+04;  0.0000000E+00; -1.2230649E-01;  4.0000000E+04;  0.0000000E+00;  4.0018824E+04;  4.0557347E-02;  0.0000000E+00; -9.1775898E-03;  2.5244419E+03;
  5.4155982E-01;  9.9999998E-03; -2.3998207E-01;5746;  2.2825239E-02;  0.0000000E+00;  2.8945082E-03;  9.9836945E+02;  1.0002956E-01; -1.3508754E+03;3; -8.6730635E-01;  0.0000000E+00;  5.7332927E-01;0;  3.5122350E-02;  3.9828891E+04;  0.0000000E+00; -7.2989129E-02;  4.0000000E+04;  0.0000000E+00;  4.0016699E+04;  4.3500394E-02;  0.0000000E+00; -8.3780438E-03;  2.2438479E+03;
  5.4154688E-01;  9.9999998E-03; -2.2998767E-01;5747;  2.2802737E-02;  0.0000000E+00;  2.8411096E-03;  9.9853851E+02;  1.0002951E-01; -1.2108300E+03;3;  3.2739693E-01;  0.0000000E+00;  6.7874068E-01;0;  3.8883608E-02;  3.9844500E+04;  0.0000000E+00; -2.3439381E-02;  4.0000000E+04;  0.0000000E+00;  4.0014082E+04;  4.6619132E-02;  0.0000000E+00; -7.7355248E-03;  1.9206572E+03;
  5.4153186E-01;  9.9999998E-03; -2.1999557E-01;5748;  2.2737511E-02;  0.0000000E+00;  2.7619430E-03;  9.9871088E+02;  1.0002942E-01; -1.0680192E+03;3;  1.2402197E+00;  0.0000000E+00;  6.6080815E-01;0;  4.2580653E-02;  3.9860707E+04;  0.0000000E+00;  1.9919535E-02;  4.0000000E+04;  0.0000000E+00;  4.0011641E+04;  4.9845386E-02;  0.0000000E+00; -7.2647347E-03;  1.6020122E+03;
  5.4151946E-01;  9.9999998E-03; -2.1000162E-01;5749;  2.2669379E-02;  0.0000000E+00;  2.6667390E-03;  9.9889227E+02;  1.0002949E-01; -9.1775183E+02;3;  1.7465310E+00;  0.0000000E+00;  6.7707700E-01;0;  4.6124224E-02;  3.9876887E+04;  0.0000000E+00;  5.3336032E-02;  4.0000000E+04;  0.0000000E+00;  4.0009734E+04;  5.3101525E-02;  0.0000000E+00; -6.9773025E-03;  1.3557146E+03;
  5.4151177E-01;  9.9999998E-03; -2.0000258E-01;5750;  2.2665162E-02;  0.0000000E+00;  2.5766077E-03;  9.9906671E+02;  1.0002949E-01; -7.7321271E+02;3;  1.9895128E+00;  0.0000000E+00;  7.4728930E-01;0;  4.9449526E-02;  3.9892242E+04;  0.0000000E+00;  7.4289829E-02;  4.0000000E+04;  0.0000000E+00;  4.0008285E+04;  5.6305148E-02;  0.0000000E+00; -6.8556229E-03;  1.1422859E+03;
  5.4150951E-01;  9.9999998E-03; -1.9000000E-01;5751;  2.2775764E-02;  0.0000000E+00;  2.4954057E-03;  9.9922107E+02;  1.0002939E-01; -6.4531506E+02;3;  2.0944669E+00;  0.0000000E+00;  8.5377944E-01;0;  5.2522097E-02;  3.9906293E+04;  0.0000000E+00;  8.1411622E-02;  4.0000000E+04;  0.0000000E+00;  4.0006488E+04;  5.9374385E-02;  0.0000000E+00; -6.8522864E-03;  9.0965332E+02;
  5.4151249E-01;  9.9999998E-03; -1.7999583E-01;5752;  2.3035269E-02;  0.0000000E+00;  2.4321477E-03;  9.9935059E+02;  1.0002954E-01; -5.3800946E+02;3;  2.0921619E+00;  0.0000000E+00;  1.0054916E+00;0;  5.5297047E-02;  3.9918227E+04;  0.0000000E+00;  7.4701406E-02;  4.0000000E+04;  0.0000000E+00;  4.0004652E+04;  6.2236376E-02;  0.0000000E+00; -6.9393301E-03;  6.6580090E+02;
  5.4151964E-01;  9.9999998E-03; -1.6999123E-01;5753;  2.3449291E-02;  0.0000000E+00;  2.3936122E-03;  9.9944952E+02;  1.0002955E-01; -4.5603650E+02;3;  1.9659213E+00;  0.0000000E+00;  1.1391706E+00;0;  5.7731759E-02;  3.9928121E+04;  0.0000000E+00;  5.5808190E-02;  4.0000000E+04;  0.0000000E+00;  4.0002754E+04;  6.4836264E-02;  0.0000000E+00; -7.1045049E-03;  4.3980038E+02;
  5.4152960E-01;  9.9999998E-03; -1.5998700E-01;5754;  2.3979744E-02;  0.0000000E+00;  2.3820812E-03;  9.9952417E+02;  1.0002933E-01; -3.9421106E+02;3;  1.7109053E+00;  0.0000000E+00;  1.2257167E+00;0;  5.9795629E-02;  3.9935223E+04;  0.0000000E+00;  2.8022923E-02;  4.0000000E+04;  0.0000000E+00;  4.0001461E+04;  6.7144066E-02;  0.0000000E+00; -7.3484383E-03;  2.5737265E+02;
  5.4154098E-01;  9.9999998E-03; -1.4998369E-01;5755;  2.4573976E-02;  0.0000000E+00;  2.3884599E-03;  9.9957269E+02;  1.0002962E-01; -3.5401468E+02;3;  1.3229086E+00;  0.0000000E+00;  1.2578989E+00;0;  6.1476320E-02;  3.9940035E+04;  0.0000000E+00; -4.2529604E-03;  4.0000000E+04;  0.0000000E+00;  4.0000461E+04;  6.9154389E-02;  0.0000000E+00; -7.6780673E-03;  1.3740454E+02;
  5.4155236E-01;  9.9999998E-03; -1.3998178E-01;5756;  2.5180105E-02;  0.0000000E+00;  2.3907418E-03;  9.9960272E+02;  1.0002943E-01; -3.2912650E+02;3;  8.8233513E-01;  0.0000000E+00;  1.1959252E+00;0;  6.2788345E-02;  3.9942355E+04;  0.0000000E+00; -3.6675788E-02;  4.0000000E+04;  0.0000000E+00;  4.0000188E+04;  7.0886470E-02;  0.0000000E+00; -8.0981227E-03;  9.9745605E+01;
  5.4156286E-01;  9.9999998E-03; -1.2998137E-01;5757;  2.5762940E-02;  0.0000000E+00;  2.3707827E-03;  9.9960645E+02;  1.0002955E-01; -3.2606485E+02;3;  4.1742891E-01;  0.0000000E+00;  1.0526433E+00;0;  6.3770421E-02;  3.9942668E+04;  0.0000000E+00; -6.5990739E-02;  4.0000000E+04;  0.0000000E+00;  4.0000336E+04;  7.2377630E-02;  0.0000000E+00; -8.6072097E-03;  1.3068037E+02;
  5.4157138E-01;  9.9999998E-03; -1.1998231E-01;5758;  2.6302341E-02;  0.0000000E+00;  2.3174894E-03;  9.9959912E+02;  1.0002952E-01; -3.3213876E+02;3;  5.2042125E-04;  0.0000000E+00;  8.5264546E-01;0;  6.4477578E-02;  3.9941770E+04;  0.0000000E+00; -8.9936920E-02;  4.0000000E+04;  0.0000000E+00;  4.0000676E+04;  7.3674299E-02;  0.0000000E+00; -9.1967229E-03;  1.9133589E+02;
  5.4157740E-01;  9.9999998E-03; -1.0998431E-01;5759;  2.6786985E-02;  0.0000000E+00;  2.2278747E-03;  9.9958496E+02;  1.0002936E-01; -3.4384213E+02;3; -3.9904493E-01;  0.0000000E+00;  6.4928287E-01;0;  6.4975552E-02;  3.9939715E+04;  0.0000000E+00; -1.0689405E-01;  4.0000000E+04;  0.0000000E+00;  4.0001426E+04;  7.4824527E-02;  0.0000000E+00; -9.8489737E-03;  2.7081851E+02;
  5.5159265E-01;  9.9999998E-03; -2.6997343E-01;5804;  2.2644026E-02;  0.0000000E+00;  2.9710005E-03;  9.9796692E+02;  1.0004872E-01; -1.6843473E+03;3; -2.6928530E+00;  0.0000000E+00; -5.3234768E-01;0;  1.5094789E-02;  3.9776832E+04;  0.0000000E+00; -1.6455896E-01;  4.0000000E+04;  0.0000000E+00;  4.0020707E+04;  2.5390020E-02;  0.0000000E+00; -1.0295231E-02;  2.8328655E+03;
  5.5161250E-01;  9.9999998E-03; -2.5997561E-01;5805;  2.2688277E-02;  0.0000000E+00;  2.9508041E-03;  9.9810480E+02;  1.0004855E-01; -1.5701283E+03;3; -2.7525768E+00;  0.0000000E+00; -1.7551316E-01;0;  1.8503789E-02;  3.9789168E+04;  0.0000000E+00; -1.6929059E-01;  4.0000000E+04;  0.0000000E+00;  4.0019426E+04;  2.7894653E-02;  0.0000000E+00; -9.3908655E-03;  2.6379714E+03;
  5.5161762E-01;  9.9999998E-03; -2.4997845E-01;5806;  2.2752773E-02;  0.0000000E+00;  2.9238921E-03;  9.9826025E+02;  1.0004877E-01; -1.4413418E+03;3; -2.6352739E+00;  0.0000000E+00;  6.6971213E-02;0;  2.2156660E-02;  3.9803305E+04;  0.0000000E+00; -1.3465455E-01;  4.0000000E+04;  0.0000000E+00;  4.0017605E+04;  3.0650409E-02;  0.0000000E+00; -8.4937485E-03;  2.4111624E+03;
  5.5160093E-01;  9.9999998E-03; -2.3998283E-01;5807;  2.2840720E-02;  0.0000000E+00;  2.8927566E-03;  9.9842926E+02;  1.0004855E-01; -1.3013458E+03;3; -2.2597306E+00;  0.0000000E+00;  2.4562758E-01;0;  2.5891319E-02;  3.9818445E+04;  0.0000000E+00; -8.4967092E-02;  4.0000000E+04;  0.0000000E+00;  4.0015750E+04;  3.3634540E-02;  0.0000000E+00; -7.7432208E-03;  2.1464990E+03;
  5.5157179E-01;  9.9999998E-03; -2.2998980E-01;5808;  2.2938685E-02;  0.0000000E+00;  2.8516890E-03;  9.9860461E+02;  1.0004845E-01; -1.1560660E+03;3; -1.6085420E+00;  0.0000000E+00;  4.6301109E-01;0;  2.9644117E-02;  3.9834336E+04;  0.0000000E+00; -3.6249340E-02;  4.0000000E+04;  0.0000000E+00;  4.0013477E+04;  3.6794025E-02;  0.0000000E+00; -7.1499092E-03;  1.8574894E+03;
  5.5154246E-01;  9.9999998E-03; -2.2000156E-01;5809;  2.3032842E-02;  0.0000000E+00;  2.7986444E-03;  9.9878033E+02;  1.0004871E-01; -1.0104899E+03;3; -8.3801299E-01;  0.0000000E+00;  6.7484224E-01;0;  3.3311553E-02;  3.9850574E+04;  0.0000000E+00;  6.0176631E-03;  4.0000000E+04;  0.0000000E+00;  4.0011379E+04;  4.0054560E-02;  0.0000000E+00; -6.7430078E-03;  1.5461155E+03;
  5.5151898E-01;  9.9999998E-03; -2.1001199E-01;5810;  2.3151340E-02;  0.0000000E+00;  2.7341293E-03;  9.9896552E+02;  1.0004860E-01; -8.5706213E+02;3; -2.5399813E-01;  0.0000000E+00;  8.2064503E-01;0;  3.6812261E-02;  3.9866652E+04;  0.0000000E+00;  3.9579988E-02;  4.0000000E+04;  0.0000000E+00;  4.0009773E+04;  4.3330267E-02;  0.0000000E+00; -6.5180082E-03;  1.3392195E+03;
  5.5150336E-01;  9.9999998E-03; -2.0001574E-01;5811;  2.3313047E-02;  0.0000000E+00;  2.6760846E-03;  9.9914264E+02;  1.0004871E-01; -7.1030084E+02;3;  1.2055522E-01;  0.0000000E+00;  9.2274863E-01;0;  4.0077530E-02;  3.9882023E+04;  0.0000000E+00;  6.2617436E-02;  4.0000000E+04;  0.0000000E+00;  4.0008539E+04;  4.6531867E-02;  0.0000000E+00; -6.4543393E-03;  1.1870479E+03;
  5.5149668E-01;  9.9999998E-03; -1.9001426E-01;5812;  2.3554660E-02;  0.0000000E+00;  2.6344403E-03;  9.9930206E+02;  1.0004846E-01; -5.7820581E+02;3;  2.6328808E-01;  0.0000000E+00;  1.0017416E+00;0;  4.3053877E-02;  3.9896051E+04;  0.0000000E+00;  7.4187934E-02;  4.0000000E+04;  0.0000000E+00;  4.0007094E+04;  4.9565624E-02;  0.0000000E+00; -6.5117483E-03;  1.0031034E+03;
  5.5149770E-01;  9.9999998E-03; -1.8001041E-01;5813;  2.3888942E-02;  0.0000000E+00;  2.6126876E-03;  9.9942883E+02;  1.0004858E-01; -4.7322116E+02;3;  1.8151185E-01;  0.0000000E+00;  1.0450735E+00;0;  4.5687173E-02;  3.9907812E+04;  0.0000000E+00;  7.4491322E-02;  4.0000000E+04;  0.0000000E+00;  4.0005570E+04;  5.2350819E-02;  0.0000000E+00; -6.6636465E-03;  7.8311206E+02;
  5.5150485E-01;  9.9999998E-03; -1.7000578E-01;5814;  2.4307489E-02;  0.0000000E+00;  2.6054448E-03;  9.9952826E+02;  1.0004850E-01; -3.9080374E+02;3; -4.6647158E-02;  0.0000000E+00;  9.7717577E-01;0;  4.7928669E-02;  3.9917285E+04;  0.0000000E+00;  6.4997643E-02;  4.0000000E+04;  0.0000000E+00;  4.0003535E+04;  5.4828905E-02;  0.0000000E+00; -6.9002379E-03;  5.6084973E+02;
  5.5151582E-01;  9.9999998E-03; -1.6000138E-01;5815;  2.4780964E-02;  0.0000000E+00;  2.6023369E-03;  9.9959650E+02;  1.0004857E-01; -3.3431149E+02;3; -4.1324428E-01;  0.0000000E+00;  8.3049053E-01;0;  4.9746964E-02;  3.9924184E+04;  0.0000000E+00;  4.8260454E-02;  4.0000000E+04;  0.0000000E+00;  4.0002188E+04;  5.6969669E-02;  0.0000000E+00; -7.2227046E-03;  3.6935440E+02;
  5.5152816E-01;  9.9999998E-03; -1.4999789E-01;5816;  2.5272390E-02;  0.0000000E+00;  2.5843757E-03;  9.9963550E+02;  1.0004828E-01; -3.0196674E+02;3; -8.1771886E-01;  0.0000000E+00;  6.2016475E-01;0;  5.1140897E-02;  3.9928180E+04;  0.0000000E+00;  2.7400678E-02;  4.0000000E+04;  0.0000000E+00;  4.0001188E+04;  5.8774460E-02;  0.0000000E+00; -7.6335650E-03;  2.3042877E+02;
  5.5154026E-01;  9.9999998E-03; -1.3999575E-01;5817;  2.5752530E-02;  0.0000000E+00;  2.5378838E-03;  9.9965125E+02;  1.0004857E-01; -2.8893008E+02;3; -1.1985514E+00;  0.0000000E+00;  3.9233190E-01;0;  5.2140243E-02;  3.9929633E+04;  0.0000000E+00;  5.2475943E-03;  4.0000000E+04;  0.0000000E+00;  4.0000742E+04;  6.0271282E-02;  0.0000000E+00; -8.1310384E-03;  1.5428854E+02;
  5.5155110E-01;  9.9999998E-03; -1.2999511E-01;5818;  2.6211476E-02;  0.0000000E+00;  2.4594462E-03;  9.9963696E+02;  1.0004845E-01; -3.0078159E+02;3; -1.5243611E+00;  0.0000000E+00;  1.5553698E-01;0;  5.2797876E-02;  3.9929020E+04;  0.0000000E+00; -1.6225347E-02;  4.0000000E+04;  0.0000000E+00;  4.0000656E+04;  6.1507061E-02;  0.0000000E+00; -8.7091839E-03;  1.4253052E+02;
  5.5155963E-01;  9.9999998E-03; -1.1999582E-01;5819;  2.6642051E-02;  0.0000000E+00;  2.3516908E-03;  9.9961255E+02;  1.0004851E-01; -3.2097855E+02;3; -1.8404278E+00;  0.0000000E+00; -6.2362615E-02;0;  5.3181484E-02;  3.9926496E+04;  0.0000000E+00; -3.5597309E-02;  4.0000000E+04;  0.0000000E+00;  4.0000742E+04;  6.2538989E-02;  0.0000000E+00; -9.3575064E-03;  1.8254004E+02;
  5.5156553E-01;  9.9999998E-03; -1.0999745E-01;5820;  2.7041137E-02;  0.0000000E+00;  2.2171855E-03;  9.9957965E+02;  1.0004858E-01; -3.4823703E+02;3; -2.1234338E+00;  0.0000000E+00; -2.3751208E-01;0;  5.3367738E-02;  3.9923016E+04;  0.0000000E+00; -5.1566992E-02;  4.0000000E+04;  0.0000000E+00;  4.0001398E+04;  6.3425623E-02;  0.0000000E+00; -1.0057884E-02;  2.5449704E+02;
  5.6170648E-01;  9.9999998E-03; -2.6997355E-01;5865;  2.2553217E-02;  0.0000000E+00;  2.8945953E-03;  9.9811322E+02;  1.0007987E-01; -1.5631655E+03;3; -3.1798360E+00;  0.0000000E+00; -7.3796248E-01;0;  6.7910701E-03;  3.9765453E+04;  0.0000000E+00; -2.1305430E-01;  4.0000000E+04;  0.0000000E+00;  4.0018641E+04;  1.6100483E-02;  0.0000000E+00; -9.3094129E-03;  2.5889546E+03;
  5.6172353E-01;  9.9999998E-03; -2.5997582E-01;5866;  2.2608325E-02;  0.0000000E+00;  2.8866001E-03;  9.9824915E+02;  1.0007985E-01; -1.4505267E+03;3; -3.1770890E+00;  0.0000000E+00; -5.6311542E-01;0;  9.9442396E-03;  3.9777652E+04;  0.0000000E+00; -2.0249435E-01;  4.0000000E+04;  0.0000000E+00;  4.0017047E+04;  1.8515658E-02;  0.0000000E+00; -8.5714180E-03;  2.3784434E+03;
  5.6171495E-01;  9.9999998E-03; -2.4997941E-01;5867;  2.2687593E-02;  0.0000000E+00;  2.8685294E-03;  9.9840204E+02;  1.0007981E-01; -1.3238636E+03;3; -3.1734059E+00;  0.0000000E+00; -4.4340539E-01;0;  1.3395773E-02;  3.9791715E+04;  0.0000000E+00; -1.5222697E-01;  4.0000000E+04;  0.0000000E+00;  4.0015379E+04;  2.1170145E-02;  0.0000000E+00; -7.7743717E-03;  2.1365417E+03;
  5.6168115E-01;  9.9999998E-03; -2.3998469E-01;5868;  2.2801114E-02;  0.0000000E+00;  2.8376316E-03;  9.9857086E+02;  1.0007977E-01; -1.1840157E+03;3; -3.1637633E+00;  0.0000000E+00; -3.1027231E-01;0;  1.6994992E-02;  3.9806586E+04;  0.0000000E+00; -9.6374430E-02;  4.0000000E+04;  0.0000000E+00;  4.0013492E+04;  2.4035718E-02;  0.0000000E+00; -7.0407260E-03;  1.9054303E+03;
  5.6163514E-01;  9.9999998E-03; -2.2999266E-01;5869;  2.2949561E-02;  0.0000000E+00;  2.8029452E-03;  9.9874811E+02;  1.0007978E-01; -1.0371558E+03;3; -2.9245498E+00;  0.0000000E+00; -2.1037087E-01;0;  2.0541614E-02;  3.9821988E+04;  0.0000000E+00; -4.8983574E-02;  4.0000000E+04;  0.0000000E+00;  4.0011953E+04;  2.7059227E-02;  0.0000000E+00; -6.5176133E-03;  1.6845453E+03;
  5.6159037E-01;  9.9999998E-03; -2.2000687E-01;5870;  2.3124069E-02;  0.0000000E+00;  2.7739129E-03;  9.9892511E+02;  1.0008001E-01; -8.9054266E+02;3; -2.5352952E+00;  0.0000000E+00; -6.9110624E-02;0;  2.3962680E-02;  3.9837828E+04;  0.0000000E+00; -1.0639689E-02;  4.0000000E+04;  0.0000000E+00;  4.0010180E+04;  3.0166913E-02;  0.0000000E+00; -6.2042335E-03;  1.4280815E+03;
  5.6155282E-01;  9.9999998E-03; -2.1002033E-01;5871;  2.3326425E-02;  0.0000000E+00;  2.7372213E-03;  9.9911127E+02;  1.0007975E-01; -7.3627539E+02;3; -2.1528554E+00;  0.0000000E+00;  6.6767812E-02;0;  2.7230825E-02;  3.9853312E+04;  0.0000000E+00;  1.9896993E-02;  4.0000000E+04;  0.0000000E+00;  4.0009219E+04;  3.3276308E-02;  0.0000000E+00; -6.0454821E-03;  1.2864124E+03;
  5.6152582E-01;  9.9999998E-03; -2.0002602E-01;5872;  2.3570273E-02;  0.0000000E+00;  2.7062055E-03;  9.9928741E+02;  1.0007975E-01; -5.9035364E+02;3; -1.8641368E+00;  0.0000000E+00;  1.4437790E-01;0;  3.0260097E-02;  3.9867816E+04;  0.0000000E+00;  4.2516548E-02;  4.0000000E+04;  0.0000000E+00;  4.0008605E+04;  3.6295731E-02;  0.0000000E+00; -6.0356329E-03;  1.2076847E+03;
  5.6151009E-01;  9.9999998E-03; -1.9002528E-01;5873;  2.3866439E-02;  0.0000000E+00;  2.6866545E-03;  9.9944031E+02;  1.0007992E-01; -4.6369055E+02;3; -1.7353017E+00;  0.0000000E+00;  1.7576928E-01;0;  3.2985769E-02;  3.9880883E+04;  0.0000000E+00;  5.7297409E-02;  4.0000000E+04;  0.0000000E+00;  4.0007734E+04;  3.9131355E-02;  0.0000000E+00; -6.1455839E-03;  1.0804810E+03;
  5.6150454E-01;  9.9999998E-03; -1.8002152E-01;5874;  2.4218330E-02;  0.0000000E+00;  2.6714453E-03;  9.9956317E+02;  1.0007997E-01; -3.6191565E+02;3; -1.7525797E+00;  0.0000000E+00;  1.0835557E-01;0;  3.5346504E-02;  3.9892094E+04;  0.0000000E+00;  6.4914964E-02;  4.0000000E+04;  0.0000000E+00;  4.0006230E+04;  4.1701496E-02;  0.0000000E+00; -6.3549899E-03;  8.9232825E+02;
  5.6150764E-01;  9.9999998E-03; -1.7001671E-01;5875;  2.4615668E-02;  0.0000000E+00;  2.6510272E-03;  9.9965009E+02;  1.0007987E-01; -2.8991769E+02;3; -1.8887483E+00;  0.0000000E+00; -3.5894409E-02;0;  3.7290294E-02;  3.9900770E+04;  0.0000000E+00;  6.6766642E-02;  4.0000000E+04;  0.0000000E+00;  4.0004504E+04;  4.3947242E-02;  0.0000000E+00; -6.6569485E-03;  6.8098291E+02;
  5.6151682E-01;  9.9999998E-03; -1.6001189E-01;5876;  2.5039338E-02;  0.0000000E+00;  2.6171722E-03;  9.9971057E+02;  1.0007964E-01; -2.3979567E+02;3; -2.1087992E+00;  0.0000000E+00; -2.1162394E-01;0;  3.8791239E-02;  3.9906730E+04;  0.0000000E+00;  6.4507283E-02;  4.0000000E+04;  0.0000000E+00;  4.0003055E+04;  4.5840282E-02;  0.0000000E+00; -7.0490413E-03;  4.8680334E+02;
  5.6153023E-01;  9.9999998E-03; -1.5000789E-01;5877;  2.5470419E-02;  0.0000000E+00;  2.5591694E-03;  9.9973602E+02;  1.0007985E-01; -2.1870985E+02;3; -2.3265748E+00;  0.0000000E+00; -4.1033217E-01;0;  3.9857704E-02;  3.9910195E+04;  0.0000000E+00;  5.9560999E-02;  4.0000000E+04;  0.0000000E+00;  4.0001820E+04;  4.7384460E-02;  0.0000000E+00; -7.5267567E-03;  3.3775998E+02;
  5.6154501E-01;  9.9999998E-03; -1.4000535E-01;5878;  2.5895882E-02;  0.0000000E+00;  2.4762398E-03;  9.9973828E+02;  1.0007970E-01; -2.1683336E+02;3; -2.5529299E+00;  0.0000000E+00; -5.7178468E-01;0;  4.0530171E-02;  3.9910793E+04;  0.0000000E+00;  5.2723009E-02;  4.0000000E+04;  0.0000000E+00;  4.0000980E+04;  4.8612870E-02;  0.0000000E+00; -8.0827000E-03;  2.4613530E+02;
  5.6155902E-01;  9.9999998E-03; -1.3000444E-01;5879;  2.6309360E-02;  0.0000000E+00;  2.3700732E-03;  9.9971655E+02;  1.0007964E-01; -2.3480815E+02;3; -2.7517285E+00;  0.0000000E+00; -6.9862223E-01;0;  4.0871508E-02;  3.9909027E+04;  0.0000000E+00;  4.4131614E-02;  4.0000000E+04;  0.0000000E+00;  4.0001148E+04;  4.9579646E-02;  0.0000000E+00; -8.7081362E-03;  2.1006085E+02;
  5.6157082E-01;  9.9999998E-03; -1.2000482E-01;5880;  2.6706481E-02;  0.0000000E+00;  2.2425449E-03;  9.9967181E+02;  1.0007966E-01; -2.7189352E+02;3; -2.9214928E+00;  0.0000000E+00; -8.0275267E-01;0;  4.0955953E-02;  3.9905527E+04;  0.0000000E+00;  3.3765756E-02;  4.0000000E+04;  0.0000000E+00;  4.0000910E+04;  5.0347682E-02;  0.0000000E+00; -9.3917307E-03;  2.2113687E+02;
  5.6158006E-01;  9.9999998E-03; -1.1000589E-01;5881;  2.7081881E-02;  0.0000000E+00;  2.0977131E-03;  9.9961340E+02;  1.0007960E-01; -3.2028720E+02;3; -3.0573361E+00;  0.0000000E+00; -8.6032164E-01;0;  4.0864613E-02;  3.9900656E+04;  0.0000000E+00;  2.2140937E-02;  4.0000000E+04;  0.0000000E+00;  4.0001113E+04;  5.0980438E-02;  0.0000000E+00; -1.0115825E-02;  2.6906772E+02;
  5.7185489E-01;  9.9999998E-03; -2.6997450E-01;5926;  2.2449737E-02;  0.0000000E+00;  2.7852585E-03;  9.9833240E+02;  1.0013127E-01; -1.3815905E+03;3; -3.3834169E+00;  0.0000000E+00; -1.0676349E+00;0; -6.3667819E-04;  3.9745117E+04;  0.0000000E+00; -3.4131476E-01;  4.0000000E+04;  0.0000000E+00;  4.0015754E+04;  7.7936370E-03;  0.0000000E+00; -8.4303152E-03;  2.2604966E+03;
  5.7186639E-01;  9.9999998E-03; -2.5997651E-01;5927;  2.2518590E-02;  0.0000000E+00;  2.7822615E-03;  9.9846094E+02;  1.0013119E-01; -1.2750750E+03;3; -3.3224435E+00;  0.0000000E+00; -9.9310076E-01;0;  2.2777729E-03;  3.9756855E+04;  0.0000000E+00; -2.7416000E-01;  4.0000000E+04;  0.0000000E+00;  4.0014184E+04;  1.0024152E-02;  0.0000000E+00; -7.7463789E-03;  2.0325952E+03;
  5.7184541E-01;  9.9999998E-03; -2.4998042E-01;5928;  2.2611644E-02;  0.0000000E+00;  2.7655077E-03;  9.9860638E+02;  1.0013124E-01; -1.1545846E+03;3; -3.3269143E+00;  0.0000000E+00; -9.5051032E-01;0;  5.4920418E-03;  3.9769980E+04;  0.0000000E+00; -1.8322359E-01;  4.0000000E+04;  0.0000000E+00;  4.0012219E+04;  1.2468689E-02;  0.0000000E+00; -6.9766473E-03;  1.7741160E+03;
  5.7180005E-01;  9.9999998E-03; -2.3998617E-01;5929;  2.2734243E-02;  0.0000000E+00;  2.7261048E-03;  9.9877338E+02;  1.0013139E-01; -1.0162181E+03;3; -3.4201009E+00;  0.0000000E+00; -9.2322439E-01;0;  8.8385334E-03;  3.9784102E+04;  0.0000000E+00; -1.0945188E-01;  4.0000000E+04;  0.0000000E+00;  4.0010809E+04;  1.5095886E-02;  0.0000000E+00; -6.2573524E-03;  1.5797129E+03;
  5.7174158E-01;  9.9999998E-03; -2.2999357E-01;5930;  2.2895668E-02;  0.0000000E+00;  2.6846249E-03;  9.9894812E+02;  1.0013141E-01; -8.7148145E+02;3; -3.4825594E+00;  0.0000000E+00; -9.4026327E-01;0;  1.2062136E-02;  3.9798590E+04;  0.0000000E+00; -5.8854051E-02;  4.0000000E+04;  0.0000000E+00;  4.0010043E+04;  1.7856501E-02;  0.0000000E+00; -5.7943645E-03;  1.4659971E+03;
  5.7168186E-01;  9.9999998E-03; -2.2000723E-01;5931;  2.3094783E-02;  0.0000000E+00;  2.6593495E-03;  9.9912115E+02;  1.0013144E-01; -7.2812750E+02;3; -3.4084530E+00;  0.0000000E+00; -9.2943817E-01;0;  1.5109635E-02;  3.9813270E+04;  0.0000000E+00; -2.4427859E-02;  4.0000000E+04;  0.0000000E+00;  4.0008961E+04;  2.0683302E-02;  0.0000000E+00; -5.5736667E-03;  1.3073390E+03;
  5.7162935E-01;  9.9999998E-03; -2.1002130E-01;5932;  2.3330903E-02;  0.0000000E+00;  2.6337041E-03;  9.9929840E+02;  1.0013153E-01; -5.8126746E+02;3; -3.2420940E+00;  0.0000000E+00; -8.9224035E-01;0;  1.7994717E-02;  3.9827707E+04;  0.0000000E+00;  7.5395254E-04;  4.0000000E+04;  0.0000000E+00;  4.0008355E+04;  2.3497421E-02;  0.0000000E+00; -5.5027041E-03;  1.2349064E+03;
  5.7158828E-01;  9.9999998E-03; -2.0002776E-01;5933;  2.3604581E-02;  0.0000000E+00;  2.6128900E-03;  9.9946832E+02;  1.0013146E-01; -4.4048132E+02;3; -3.0825374E+00;  0.0000000E+00; -8.5462558E-01;0;  2.0646621E-02;  3.9841234E+04;  0.0000000E+00;  2.0120917E-02;  4.0000000E+04;  0.0000000E+00;  4.0008539E+04;  2.6212567E-02;  0.0000000E+00; -5.5659469E-03;  1.2162355E+03;
  5.7156032E-01;  9.9999998E-03; -1.9002748E-01;5934;  2.3921907E-02;  0.0000000E+00;  2.5951541E-03;  9.9961432E+02;  1.0013139E-01; -3.1954651E+02;3; -2.9768214E+00;  0.0000000E+00; -8.7331420E-01;0;  2.2999108E-02;  3.9853262E+04;  0.0000000E+00;  3.5695054E-02;  4.0000000E+04;  0.0000000E+00;  4.0007969E+04;  2.8739803E-02;  0.0000000E+00; -5.7406942E-03;  1.1365458E+03;
  5.7154530E-01;  9.9999998E-03; -1.8002380E-01;5935;  2.4275728E-02;  0.0000000E+00;  2.5722363E-03;  9.9972314E+02;  1.0013138E-01; -2.2937621E+02;3; -2.9730003E+00;  0.0000000E+00; -9.1685706E-01;0;  2.4988957E-02;  3.9863184E+04;  0.0000000E+00;  4.9112886E-02;  4.0000000E+04;  0.0000000E+00;  4.0006617E+04;  3.1001829E-02;  0.0000000E+00; -6.0128728E-03;  9.7911377E+02;
  5.7154143E-01;  9.9999998E-03; -1.7001888E-01;5936;  2.4660163E-02;  0.0000000E+00;  2.5363923E-03;  9.9980365E+02;  1.0013123E-01; -1.6266205E+02;3; -3.0142384E+00;  0.0000000E+00; -1.0119432E+00;0;  2.6567506E-02;  3.9870734E+04;  0.0000000E+00;  6.1866842E-02;  4.0000000E+04;  0.0000000E+00;  4.0005258E+04;  3.2944027E-02;  0.0000000E+00; -6.3765212E-03;  7.8292761E+02;
  5.7154703E-01;  9.9999998E-03; -1.6001377E-01;5937;  2.5064696E-02;  0.0000000E+00;  2.4829148E-03;  9.9984564E+02;  1.0013103E-01; -1.2789761E+02;3; -3.0942917E+00;  0.0000000E+00; -1.1139317E+00;0;  2.7714815E-02;  3.9875680E+04;  0.0000000E+00;  7.4726969E-02;  4.0000000E+04;  0.0000000E+00;  4.0003648E+04;  3.4539953E-02;  0.0000000E+00; -6.8251374E-03;  5.9253796E+02;
  5.7155967E-01;  9.9999998E-03; -1.5000948E-01;5938;  2.5476985E-02;  0.0000000E+00;  2.4102658E-03;  9.9986340E+02;  1.0013118E-01; -1.1318198E+02;3; -3.2017577E+00;  0.0000000E+00; -1.1879665E+00;0;  2.8446687E-02;  3.9878016E+04;  0.0000000E+00;  8.7312922E-02;  4.0000000E+04;  0.0000000E+00;  4.0002492E+04;  3.5796594E-02;  0.0000000E+00; -7.3499060E-03;  4.4150131E+02;
  5.7157695E-01;  9.9999998E-03; -1.4000663E-01;5939;  2.5889259E-02;  0.0000000E+00;  2.3172337E-03;  9.9984863E+02;  1.0013114E-01; -1.2542854E+02;3; -3.3037896E+00;  0.0000000E+00; -1.2554272E+00;0;  2.8808266E-02;  3.9877945E+04;  0.0000000E+00;  9.8244466E-02;  4.0000000E+04;  0.0000000E+00;  4.0001504E+04;  3.6749102E-02;  0.0000000E+00; -7.9408363E-03;  3.4668570E+02;
  5.7159692E-01;  9.9999998E-03; -1.3000526E-01;5940;  2.6293708E-02;  0.0000000E+00;  2.2062915E-03;  9.9980981E+02;  1.0013101E-01; -1.5757578E+02;3; -3.3949444E+00;  0.0000000E+00; -1.2735074E+00;0;  2.8864011E-02;  3.9875492E+04;  0.0000000E+00;  1.0558035E-01;  4.0000000E+04;  0.0000000E+00;  4.0001004E+04;  3.7452385E-02;  0.0000000E+00; -8.5883727E-03;  3.0613150E+02;
  5.7161677E-01;  9.9999998E-03; -1.2000503E-01;5941;  2.6684724E-02;  0.0000000E+00;  2.0822007E-03;  9.9975488E+02;  1.0013115E-01; -2.0305597E+02;3; -3.4642177E+00;  0.0000000E+00; -1.2293612E+00;0;  2.8689850E-02;  3.9871055E+04;  0.0000000E+00;  1.0751645E-01;  4.0000000E+04;  0.0000000E+00;  4.0000887E+04;  3.7971206E-02;  0.0000000E+00; -9.2813550E-03;  3.0617178E+02;
  5.7163483E-01;  9.9999998E-03; -1.1000521E-01;5942;  2.7058028E-02;  0.0000000E+00;  1.9458595E-03;  9.9968463E+02;  1.0013121E-01; -2.6127655E+02;3; -3.5180366E+00;  0.0000000E+00; -1.1977078E+00;0;  2.8367016E-02;  3.9865262E+04;  0.0000000E+00;  1.0328621E-01;  4.0000000E+04;  0.0000000E+00;  4.0001262E+04;  3.8370382E-02;  0.0000000E+00; -1.0003366E-02;  3.3472968E+02;
  5.8200836E-01;  9.9999998E-03; -2.6997581E-01;5987;  2.2338949E-02;  0.0000000E+00;  2.6488048E-03;  9.9854517E+02;  1.0021430E-01; -1.2052992E+03;3; -3.4951253E+00;  0.0000000E+00; -1.4149137E+00;0; -7.0736427E-03;  3.9699633E+04;  0.0000000E+00; -5.2565449E-01;  4.0000000E+04;  0.0000000E+00;  4.0012141E+04;  6.1579567E-04;  0.0000000E+00; -7.6894383E-03;  1.9845631E+03;
  5.8201545E-01;  9.9999998E-03; -2.5997680E-01;5988;  2.2423200E-02;  0.0000000E+00;  2.6360180E-03;  9.9866559E+02;  1.0021447E-01; -1.1055490E+03;3; -3.4002538E+00;  0.0000000E+00; -1.3527813E+00;0; -4.2921817E-03;  3.9710141E+04;  0.0000000E+00; -3.7295565E-01;  4.0000000E+04;  0.0000000E+00;  4.0010785E+04;  2.5978785E-03;  0.0000000E+00; -6.8900604E-03;  1.7289485E+03;
  5.8199191E-01;  9.9999998E-03; -2.4997981E-01;5989;  2.2527872E-02;  0.0000000E+00;  2.6138057E-03;  9.9879718E+02;  1.0021477E-01; -9.9651495E+02;3; -3.3648548E+00;  0.0000000E+00; -1.3124104E+00;0; -1.3557984E-03;  3.9722352E+04;  0.0000000E+00; -2.2823805E-01;  4.0000000E+04;  0.0000000E+00;  4.0009262E+04;  4.7591100E-03;  0.0000000E+00; -6.1149085E-03;  1.4667310E+03;
  5.8193880E-01;  9.9999998E-03; -2.3998444E-01;5990;  2.2659812E-02;  0.0000000E+00;  2.5655951E-03;  9.9895715E+02;  1.0021478E-01; -8.6397552E+02;3; -3.4018486E+00;  0.0000000E+00; -1.3023760E+00;0;  1.6532121E-03;  3.9735305E+04;  0.0000000E+00; -1.2527287E-01;  4.0000000E+04;  0.0000000E+00;  4.0008387E+04;  7.0760869E-03;  0.0000000E+00; -5.4228748E-03;  1.3145962E+03;
  5.8186829E-01;  9.9999998E-03; -2.2998920E-01;5991;  2.2823069E-02;  0.0000000E+00;  2.5139488E-03;  9.9912817E+02;  1.0021497E-01; -7.2230048E+02;3; -3.4483180E+00;  0.0000000E+00; -1.3337994E+00;0;  4.4871923E-03;  3.9748746E+04;  0.0000000E+00; -6.5480985E-02;  4.0000000E+04;  0.0000000E+00;  4.0008395E+04;  9.5045874E-03;  0.0000000E+00; -5.0173951E-03;  1.3068542E+03;
  5.8179474E-01;  9.9999998E-03; -2.1999988E-01;5992;  2.3020247E-02;  0.0000000E+00;  2.4834853E-03;  9.9929492E+02;  1.0021490E-01; -5.8413159E+02;3; -3.5581930E+00;  0.0000000E+00; -1.3898453E+00;0;  7.0880265E-03;  3.9762141E+04;  0.0000000E+00; -3.3326156E-02;  4.0000000E+04;  0.0000000E+00;  4.0007852E+04;  1.1979419E-02;  0.0000000E+00; -4.8913923E-03;  1.2337391E+03;
  5.8172846E-01;  9.9999998E-03; -2.1001337E-01;5993;  2.3259740E-02;  0.0000000E+00;  2.4567351E-03;  9.9945715E+02;  1.0021475E-01; -4.4971564E+02;3; -3.5920546E+00;  0.0000000E+00; -1.4694593E+00;0;  9.5061623E-03;  3.9775254E+04;  0.0000000E+00; -1.4324362E-02;  4.0000000E+04;  0.0000000E+00;  4.0007645E+04;  1.4426389E-02;  0.0000000E+00; -4.9202270E-03;  1.1929142E+03;
  5.8167398E-01;  9.9999998E-03; -2.0002101E-01;5994;  2.3542080E-02;  0.0000000E+00;  2.4334365E-03;  9.9961334E+02;  1.0021470E-01; -3.2033661E+02;3; -3.5770652E+00;  0.0000000E+00; -1.5160838E+00;0;  1.1701494E-02;  3.9787062E+04;  0.0000000E+00; -2.7205312E-04;  4.0000000E+04;  0.0000000E+00;  4.0007840E+04;  1.6767949E-02;  0.0000000E+00; -5.0664544E-03;  1.1992858E+03;
  5.8163369E-01;  9.9999998E-03; -1.9002214E-01;5995;  2.3864547E-02;  0.0000000E+00;  2.4115229E-03;  9.9974139E+02;  1.0021468E-01; -2.1426553E+02;3; -3.5397439E+00;  0.0000000E+00; -1.5561458E+00;0;  1.3613313E-02;  3.9797551E+04;  0.0000000E+00;  1.3434024E-02;  4.0000000E+04;  0.0000000E+00;  4.0007527E+04;  1.8925607E-02;  0.0000000E+00; -5.3122947E-03;  1.1509506E+03;
  5.8160794E-01;  9.9999998E-03; -1.8001975E-01;5996;  2.4221364E-02;  0.0000000E+00;  2.3820898E-03;  9.9984027E+02;  1.0021465E-01; -1.3234192E+02;3; -3.5278687E+00;  0.0000000E+00; -1.5923944E+00;0;  1.5185002E-02;  3.9806262E+04;  0.0000000E+00;  2.9747562E-02;  4.0000000E+04;  0.0000000E+00;  4.0006484E+04;  2.0830186E-02;  0.0000000E+00; -5.6451834E-03;  1.0225102E+03;
  5.8159590E-01;  9.9999998E-03; -1.7001587E-01;5997;  2.4604138E-02;  0.0000000E+00;  2.3403692E-03;  9.9990308E+02;  1.0021455E-01; -8.0294022E+01;3; -3.5559330E+00;  0.0000000E+00; -1.6240686E+00;0;  1.6374812E-02;  3.9812707E+04;  0.0000000E+00;  5.0485097E-02;  4.0000000E+04;  0.0000000E+00;  4.0005172E+04;  2.2433782E-02;  0.0000000E+00; -6.0589695E-03;  8.4722156E+02;
  5.8159578E-01;  9.9999998E-03; -1.6001157E-01;5998;  2.5005911E-02;  0.0000000E+00;  2.2825573E-03;  9.9993561E+02;  1.0021445E-01; -5.3331821E+01;3; -3.5785985E+00;  0.0000000E+00; -1.6584888E+00;0;  1.7170440E-02;  3.9816574E+04;  0.0000000E+00;  7.5838469E-02;  4.0000000E+04;  0.0000000E+00;  4.0003793E+04;  2.3715930E-02;  0.0000000E+00; -6.5454887E-03;  6.6897839E+02;
  5.8160561E-01;  9.9999998E-03; -1.5000772E-01;5999;  2.5417089E-02;  0.0000000E+00;  2.2081390E-03;  9.9993719E+02;  1.0021443E-01; -5.2047905E+01;3; -3.6230967E+00;  0.0000000E+00; -1.6708275E+00;0;  1.7590679E-02;  3.9818176E+04;  0.0000000E+00;  1.0399462E-01;  4.0000000E+04;  0.0000000E+00;  4.0002617E+04;  2.4685219E-02;  0.0000000E+00; -7.0945406E-03;  5.2444434E+02;
  5.8162326E-01;  9.9999998E-03; -1.4000498E-01;6000;  2.5828315E-02;  0.0000000E+00;  2.1185628E-03;  9.9991492E+02;  1.0021447E-01; -7.0467140E+01;3; -3.6732366E+00;  0.0000000E+00; -1.6428280E+00;0;  1.7681504E-02;  3.9817297E+04;  0.0000000E+00;  1.3165043E-01;  4.0000000E+04;  0.0000000E+00;  4.0001684E+04;  2.5377233E-02;  0.0000000E+00; -7.6957289E-03;  4.3485733E+02;
  5.8164680E-01;  9.9999998E-03; -1.3000326E-01;6001;  2.6233483E-02;  0.0000000E+00;  2.0146377E-03;  9.9987128E+02;  1.0021418E-01; -1.0666364E+02;3; -3.7141135E+00;  0.0000000E+00; -1.6041399E+00;0;  1.7504402E-02;  3.9814527E+04;  0.0000000E+00;  1.5493228E-01;  4.0000000E+04;  0.0000000E+00;  4.0001285E+04;  2.5844296E-02;  0.0000000E+00; -8.3398940E-03;  4.0018472E+02;
  5.8167470E-01;  9.9999998E-03; -1.2000211E-01;6002;  2.6624903E-02;  0.0000000E+00;  1.8984566E-03;  9.9980890E+02;  1.0021426E-01; -1.5831650E+02;3; -3.7629840E+00;  0.0000000E+00; -1.5462003E+00;0;  1.7130010E-02;  3.9809871E+04;  0.0000000E+00;  1.7027564E-01;  4.0000000E+04;  0.0000000E+00;  4.0000758E+04;  2.6146876E-02;  0.0000000E+00; -9.0168668E-03;  4.0370984E+02;
  5.8170402E-01;  9.9999998E-03; -1.1000108E-01;6003;  2.6998304E-02;  0.0000000E+00;  1.7711766E-03;  9.9973846E+02;  1.0021417E-01; -2.1668521E+02;3; -3.8033535E+00;  0.0000000E+00; -1.4669142E+00;0;  1.6635217E-02;  3.9804039E+04;  0.0000000E+00;  1.7542319E-01;  4.0000000E+04;  0.0000000E+00;  4.0001199E+04;  2.6347378E-02;  0.0000000E+00; -9.7121606E-03;  4.2877634E+02;
  5.9211022E-01;  9.9999998E-03; -2.6997712E-01;6048;  2.2221867E-02;  0.0000000E+00;  2.4911929E-03;  9.9865179E+02;  1.0034879E-01; -1.1169559E+03;3; -3.6294179E+00;  0.0000000E+00; -1.7267618E+00;0; -1.2511838E-02;  3.9605137E+04;  0.0000000E+00; -6.2536711E-01;  4.0000000E+04;  0.0000000E+00;  4.0009793E+04; -5.4036058E-03;  0.0000000E+00; -7.1082320E-03;  1.8421611E+03;
  5.9211463E-01;  9.9999998E-03; -2.5997612E-01;6049;  2.2321038E-02;  0.0000000E+00;  2.4645082E-03;  9.9876367E+02;  1.0034929E-01; -1.0242672E+03;3; -3.5200374E+00;  0.0000000E+00; -1.6596942E+00;0; -9.8209968E-03;  3.9614738E+04;  0.0000000E+00; -4.1649839E-01;  4.0000000E+04;  0.0000000E+00;  4.0008527E+04; -3.6998673E-03;  0.0000000E+00; -6.1211293E-03;  1.5673989E+03;
  5.9208888E-01;  9.9999998E-03; -2.4997658E-01;6050;  2.2438016E-02;  0.0000000E+00;  2.4312576E-03;  9.9888495E+02;  1.0034923E-01; -9.2377625E+02;3; -3.4579406E+00;  0.0000000E+00; -1.6169298E+00;0; -7.1377689E-03;  3.9625703E+04;  0.0000000E+00; -2.4084936E-01;  4.0000000E+04;  0.0000000E+00;  4.0007016E+04; -1.8493630E-03;  0.0000000E+00; -5.2884058E-03;  1.3260588E+03;
  5.9203273E-01;  9.9999998E-03; -2.3997772E-01;6051;  2.2578621E-02;  0.0000000E+00;  2.3751867E-03;  9.9903394E+02;  1.0034949E-01; -8.0037238E+02;3; -3.4217293E+00;  0.0000000E+00; -1.6051852E+00;0; -4.4993390E-03;  3.9637262E+04;  0.0000000E+00; -1.2460533E-01;  4.0000000E+04;  0.0000000E+00;  4.0006797E+04;  1.2740654E-04;  0.0000000E+00; -4.6267454E-03;  1.2306232E+03;
  5.9195536E-01;  9.9999998E-03; -2.2997828E-01;6052;  2.2745924E-02;  0.0000000E+00;  2.3210444E-03;  9.9919586E+02;  1.0034961E-01; -6.6620331E+02;3; -3.4191601E+00;  0.0000000E+00; -1.6225291E+00;0; -2.1037236E-03;  3.9649379E+04;  0.0000000E+00; -6.3481405E-02;  4.0000000E+04;  0.0000000E+00;  4.0007258E+04;  2.1922663E-03;  0.0000000E+00; -4.2959899E-03;  1.2747740E+03;
  5.9187275E-01;  9.9999998E-03; -2.1998732E-01;6053;  2.2940988E-02;  0.0000000E+00;  2.2910871E-03;  9.9934491E+02;  1.0034963E-01; -5.4275006E+02;3; -3.4756281E+00;  0.0000000E+00; -1.6556257E+00;0;  3.0307565E-05;  3.9661605E+04;  0.0000000E+00; -3.7111804E-02;  4.0000000E+04;  0.0000000E+00;  4.0006391E+04;  4.2862594E-03;  0.0000000E+00; -4.2559518E-03;  1.1776292E+03;
  5.9179807E-01;  9.9999998E-03; -2.1000360E-01;6054;  2.3173196E-02;  0.0000000E+00;  2.2598221E-03;  9.9949011E+02;  1.0034940E-01; -4.2240778E+02;3; -3.5576935E+00;  0.0000000E+00; -1.7178752E+00;0;  1.9828570E-03;  3.9673180E+04;  0.0000000E+00; -2.6220970E-02;  4.0000000E+04;  0.0000000E+00;  4.0005922E+04;  6.3398941E-03;  0.0000000E+00; -4.3570371E-03;  1.0887178E+03;
  5.9173548E-01;  9.9999998E-03; -2.0001531E-01;6055;  2.3449352E-02;  0.0000000E+00;  2.2254863E-03;  9.9962598E+02;  1.0034940E-01; -3.0986777E+02;3; -3.6395118E+00;  0.0000000E+00; -1.8087014E+00;0;  3.7158583E-03;  3.9684039E+04;  0.0000000E+00; -1.9188244E-02;  4.0000000E+04;  0.0000000E+00;  4.0006262E+04;  8.2850279E-03;  0.0000000E+00; -4.5691696E-03;  1.0971395E+03;
  5.9168684E-01;  9.9999998E-03; -1.9001983E-01;6056;  2.3768501E-02;  0.0000000E+00;  2.1931145E-03;  9.9974280E+02;  1.0034945E-01; -2.1308038E+02;3; -3.7129753E+00;  0.0000000E+00; -1.8863655E+00;0;  5.1808683E-03;  3.9693148E+04;  0.0000000E+00; -9.6416706E-03;  4.0000000E+04;  0.0000000E+00;  4.0006047E+04;  1.0054571E-02;  0.0000000E+00; -4.8737023E-03;  1.0850450E+03;
  5.9165281E-01;  9.9999998E-03; -1.8001996E-01;6057;  2.4125619E-02;  0.0000000E+00;  2.1573347E-03;  9.9982379E+02;  1.0034906E-01; -1.4597118E+02;3; -3.7324300E+00;  0.0000000E+00; -1.9408785E+00;0;  6.3372720E-03;  3.9700297E+04;  0.0000000E+00;  6.1901938E-03;  4.0000000E+04;  0.0000000E+00;  4.0005555E+04;  1.1591226E-02;  0.0000000E+00; -5.2539539E-03;  9.9873822E+02;
  5.9163392E-01;  9.9999998E-03; -1.7001772E-01;6058;  2.4510292E-02;  0.0000000E+00;  2.1127618E-03;  9.9987341E+02;  1.0034908E-01; -1.0488592E+02;3; -3.7556036E+00;  0.0000000E+00; -1.9555873E+00;0;  7.1553010E-03;  3.9705762E+04;  0.0000000E+00;  3.0407794E-02;  4.0000000E+04;  0.0000000E+00;  4.0004379E+04;  1.2855663E-02;  0.0000000E+00; -5.7003619E-03;  8.5769202E+02;
  5.9162885E-01;  9.9999998E-03; -1.6001417E-01;6059;  2.4912558E-02;  0.0000000E+00;  2.0558254E-03;  9.9989557E+02;  1.0034893E-01; -8.6516068E+01;3; -3.7842975E+00;  0.0000000E+00; -1.9583144E+00;0;  7.6293242E-03;  3.9708820E+04;  0.0000000E+00;  6.3023753E-02;  4.0000000E+04;  0.0000000E+00;  4.0003152E+04;  1.3833474E-02;  0.0000000E+00; -6.2041502E-03;  7.0263477E+02;
  5.9163642E-01;  9.9999998E-03; -1.5001030E-01;6060;  2.5324814E-02;  0.0000000E+00;  1.9853201E-03;  9.9989307E+02;  1.0034863E-01; -8.8590080E+01;3; -3.8217723E+00;  0.0000000E+00; -1.9350580E+00;0;  7.7804001E-03;  3.9709910E+04;  0.0000000E+00;  1.0150979E-01;  4.0000000E+04;  0.0000000E+00;  4.0002121E+04;  1.4535527E-02;  0.0000000E+00; -6.7551266E-03;  5.7271002E+02;
  5.9165549E-01;  9.9999998E-03; -1.4000662E-01;6061;  2.5737578E-02;  0.0000000E+00;  1.9019962E-03;  9.9987091E+02;  1.0034855E-01; -1.0695993E+02;3; -3.8813016E+00;  0.0000000E+00; -1.8904396E+00;0;  7.6511446E-03;  3.9709000E+04;  0.0000000E+00;  1.4139581E-01;  4.0000000E+04;  0.0000000E+00;  4.0001121E+04;  1.4994620E-02;  0.0000000E+00; -7.3434757E-03;  4.9387662E+02;
  5.9168434E-01;  9.9999998E-03; -1.3000314E-01;6062;  2.6144091E-02;  0.0000000E+00;  1.8064475E-03;  9.9983179E+02;  1.0034847E-01; -1.3935408E+02;3; -3.9302976E+00;  0.0000000E+00; -1.8289760E+00;0;  7.2984677E-03;  3.9706445E+04;  0.0000000E+00;  1.7746985E-01;  4.0000000E+04;  0.0000000E+00;  4.0000566E+04;  1.5259607E-02;  0.0000000E+00; -7.9611391E-03;  4.6966428E+02;
  5.9172106E-01;  9.9999998E-03; -1.1999981E-01;6063;  2.6537996E-02;  0.0000000E+00;  1.7006063E-03;  9.9977222E+02;  1.0034828E-01; -1.8873538E+02;3; -3.9593115E+00;  0.0000000E+00; -1.7405899E+00;0;  6.7860885E-03;  3.9702219E+04;  0.0000000E+00;  2.0476253E-01;  4.0000000E+04;  0.0000000E+00;  4.0000590E+04;  1.5385692E-02;  0.0000000E+00; -8.5996035E-03;  4.8361758E+02;
  5.9176195E-01;  9.9999998E-03; -1.0999686E-01;6064;  2.6913010E-02;  0.0000000E+00;  1.5856478E-03;  9.9970709E+02;  1.0034831E-01; -2.4265979E+02;3; -3.9885824E+00;  0.0000000E+00; -1.6374238E+00;0;  6.1836727E-03;  3.9696824E+04;  0.0000000E+00;  2.1966884E-01;  4.0000000E+04;  0.0000000E+00;  4.0000680E+04;  1.5430202E-02;  0.0000000E+00; -9.2465291E-03;  5.1665997E+02;
  6.0212314E-01;  9.9999998E-03; -2.6997814E-01;6109;  2.2090273E-02;  0.0000000E+00;  2.2955139E-03;  9.9857526E+02;  1.0056274E-01; -1.1803616E+03;3; -3.7742915E+00;  0.0000000E+00; -2.0048699E+00;0; -1.6785085E-02;  3.9432961E+04;  0.0000000E+00; -4.9936762E-01;  4.0000000E+04;  0.0000000E+00;  4.0008828E+04; -1.0353646E-02;  0.0000000E+00; -6.4314399E-03;  1.8319738E+03;
  6.0212576E-01;  9.9999998E-03; -2.5997412E-01;6110;  2.2203239E-02;  0.0000000E+00;  2.2644128E-03;  9.9867682E+02;  1.0056362E-01; -1.0962158E+03;3; -3.6548281E+00;  0.0000000E+00; -1.9332646E+00;0; -1.4296358E-02;  3.9441332E+04;  0.0000000E+00; -3.1704751E-01;  4.0000000E+04;  0.0000000E+00;  4.0007793E+04; -8.9295665E-03;  0.0000000E+00; -5.3667920E-03;  1.6146443E+03;
  6.0210037E-01;  9.9999998E-03; -2.4997048E-01;6111;  2.2332236E-02;  0.0000000E+00;  2.2249019E-03;  9.9879254E+02;  1.0056366E-01; -1.0003667E+03;3; -3.5684428E+00;  0.0000000E+00; -1.8914764E+00;0; -1.1897521E-02;  3.9451008E+04;  0.0000000E+00; -1.7263451E-01;  4.0000000E+04;  0.0000000E+00;  4.0006707E+04; -7.3883557E-03;  0.0000000E+00; -4.5091654E-03;  1.4362914E+03;
  6.0204411E-01;  9.9999998E-03; -2.3996577E-01;6112;  2.2482364E-02;  0.0000000E+00;  2.1646160E-03;  9.9893463E+02;  1.0056426E-01; -8.8264166E+02;3; -3.5068681E+00;  0.0000000E+00; -1.8734252E+00;0; -9.6304342E-03;  3.9461828E+04;  0.0000000E+00; -8.3481051E-02;  4.0000000E+04;  0.0000000E+00;  4.0006910E+04; -5.7484182E-03;  0.0000000E+00; -3.8820158E-03;  1.4078718E+03;
  6.0196579E-01;  9.9999998E-03; -2.2996038E-01;6113;  2.2654667E-02;  0.0000000E+00;  2.1166278E-03;  9.9908020E+02;  1.0056435E-01; -7.6205249E+02;3; -3.4718416E+00;  0.0000000E+00; -1.8726467E+00;0; -7.6830750E-03;  3.9472773E+04;  0.0000000E+00; -4.4132296E-02;  4.0000000E+04;  0.0000000E+00;  4.0007215E+04; -4.0439889E-03;  0.0000000E+00; -3.6390859E-03;  1.4377980E+03;
  6.0188156E-01;  9.9999998E-03; -2.1996896E-01;6114;  2.2851024E-02;  0.0000000E+00;  2.0950169E-03;  9.9920044E+02;  1.0056438E-01; -6.6240094E+02;3; -3.4689009E+00;  0.0000000E+00; -1.8925431E+00;0; -6.0055554E-03;  3.9483809E+04;  0.0000000E+00; -3.4768339E-02;  4.0000000E+04;  0.0000000E+00;  4.0005230E+04; -2.3274918E-03;  0.0000000E+00; -3.6780634E-03;  1.1894482E+03;
  6.0180569E-01;  9.9999998E-03; -2.0999070E-01;6115;  2.3080051E-02;  0.0000000E+00;  2.0603191E-03;  9.9931659E+02;  1.0056417E-01; -5.6620618E+02;3; -3.5305510E+00;  0.0000000E+00; -1.9189734E+00;0; -4.4884537E-03;  3.9494746E+04;  0.0000000E+00; -3.7062809E-02;  4.0000000E+04;  0.0000000E+00;  4.0003457E+04; -6.6088932E-04;  0.0000000E+00; -3.8275644E-03;  9.6308856E+02;
  6.0174090E-01;  9.9999998E-03; -2.0000876E-01;6116;  2.3350693E-02;  0.0000000E+00;  2.0152521E-03;  9.9943719E+02;  1.0056413E-01; -4.6625839E+02;3; -3.5930579E+00;  0.0000000E+00; -1.9622084E+00;0; -3.1818307E-03;  3.9504500E+04;  0.0000000E+00; -3.9685246E-02;  4.0000000E+04;  0.0000000E+00;  4.0003305E+04;  8.9943904E-04;  0.0000000E+00; -4.0812697E-03;  9.3759589E+02;
  6.0168946E-01;  9.9999998E-03; -1.9001813E-01;6117;  2.3662172E-02;  0.0000000E+00;  1.9701463E-03;  9.9954633E+02;  1.0056392E-01; -3.7584119E+02;3; -3.6890540E+00;  0.0000000E+00; -2.0235231E+00;0; -2.1266029E-03;  3.9513082E+04;  0.0000000E+00; -3.6751185E-02;  4.0000000E+04;  0.0000000E+00;  4.0003547E+04;  2.2974545E-03;  0.0000000E+00; -4.4240574E-03;  9.5488074E+02;
  6.0165256E-01;  9.9999998E-03; -1.8002102E-01;6118;  2.4013577E-02;  0.0000000E+00;  1.9244315E-03;  9.9962555E+02;  1.0056404E-01; -3.1021344E+02;3; -3.7617953E+00;  0.0000000E+00; -2.0932162E+00;0; -1.3470973E-03;  3.9519508E+04;  0.0000000E+00; -2.4913432E-02;  4.0000000E+04;  0.0000000E+00;  4.0003270E+04;  3.4862419E-03;  0.0000000E+00; -4.8333392E-03;  9.1563550E+02;
  6.0163176E-01;  9.9999998E-03; -1.7001981E-01;6119;  2.4395181E-02;  0.0000000E+00;  1.8754438E-03;  9.9967468E+02;  1.0056351E-01; -2.6952322E+02;3; -3.8362663E+00;  0.0000000E+00; -2.1260428E+00;0; -8.5905753E-04;  3.9524125E+04;  0.0000000E+00; -2.4500822E-03;  4.0000000E+04;  0.0000000E+00;  4.0002555E+04;  4.4352845E-03;  0.0000000E+00; -5.2943421E-03;  8.1655658E+02;
  6.0162759E-01;  9.9999998E-03; -1.6001588E-01;6120;  2.4797529E-02;  0.0000000E+00;  1.8188669E-03;  9.9969177E+02;  1.0056325E-01; -2.5535078E+02;3; -3.8936639E+00;  0.0000000E+00; -2.1253686E+00;0; -6.6046277E-04;  3.9526941E+04;  0.0000000E+00;  3.0637372E-02;  4.0000000E+04;  0.0000000E+00;  4.0001715E+04;  5.1359576E-03;  0.0000000E+00; -5.7964204E-03;  6.9204596E+02;
  6.0163939E-01;  9.9999998E-03; -1.5001033E-01;6121;  2.5209391E-02;  0.0000000E+00;  1.7527741E-03;  9.9969147E+02;  1.0056295E-01; -2.5559769E+02;3; -3.9543657E+00;  0.0000000E+00; -2.0935736E+00;0; -7.2894990E-04;  3.9528078E+04;  0.0000000E+00;  7.1914054E-02;  4.0000000E+04;  0.0000000E+00;  4.0000441E+04;  5.6008697E-03;  0.0000000E+00; -6.3298196E-03;  5.8189282E+02;
  6.0166544E-01;  9.9999998E-03; -1.4000441E-01;6122;  2.5623532E-02;  0.0000000E+00;  1.6762723E-03;  9.9967285E+02;  1.0056274E-01; -2.7105405E+02;3; -4.0106802E+00;  0.0000000E+00; -2.0377328E+00;0; -1.0241917E-03;  3.9527422E+04;  0.0000000E+00;  1.1681944E-01;  4.0000000E+04;  0.0000000E+00;  3.9999824E+04;  5.8615170E-03;  0.0000000E+00; -6.8857088E-03;  5.1580328E+02;
  6.0170215E-01;  9.9999998E-03; -1.2999928E-01;6123;  2.6032317E-02;  0.0000000E+00;  1.5899390E-03;  9.9964087E+02;  1.0056226E-01; -2.9752243E+02;3; -4.0504894E+00;  0.0000000E+00; -1.9649594E+00;0; -1.4941259E-03;  3.9525727E+04;  0.0000000E+00;  1.5986608E-01;  4.0000000E+04;  0.0000000E+00;  3.9999637E+04;  5.9634820E-03;  0.0000000E+00; -7.4576079E-03;  5.0227176E+02;
  6.0174489E-01;  9.9999998E-03; -1.1999565E-01;6124;  2.6427802E-02;  0.0000000E+00;  1.4950450E-03;  9.9959723E+02;  1.0056242E-01; -3.3366956E+02;3; -4.0937338E+00;  0.0000000E+00; -1.8731017E+00;0; -2.0806976E-03;  3.9522668E+04;  0.0000000E+00;  1.9547576E-01;  4.0000000E+04;  0.0000000E+00;  3.9999352E+04;  5.9584165E-03;  0.0000000E+00; -8.0391141E-03;  5.2883032E+02;
  6.0178906E-01;  9.9999998E-03; -1.0999371E-01;6125;  2.6804479E-02;  0.0000000E+00;  1.3927497E-03;  9.9955066E+02;  1.0056213E-01; -3.7228574E+02;3; -4.1455221E+00;  0.0000000E+00; -1.7566526E+00;0; -2.7231574E-03;  3.9518992E+04;  0.0000000E+00;  2.1912993E-01;  4.0000000E+04;  0.0000000E+00;  3.9999867E+04;  5.8975331E-03;  0.0000000E+00; -8.6206906E-03;  5.7651471E+02;
  6.1207962E-01;  9.9999998E-03; -2.6997986E-01;6170;  2.1931717E-02;  0.0000000E+00;  2.0459653E-03;  9.9831866E+02;  1.0089727E-01; -1.3929481E+03;3; -3.9209418E+00;  0.0000000E+00; -2.2578280E+00;0; -1.9839903E-02;  3.9152656E+04;  0.0000000E+00; -2.2023849E-01;  4.0000000E+04;  0.0000000E+00;  4.0009430E+04; -1.4414998E-02;  0.0000000E+00; -5.4249051E-03;  2.1054756E+03;
  6.1207920E-01;  9.9999998E-03; -2.5997201E-01;6171;  2.2058439E-02;  0.0000000E+00;  2.0236995E-03;  9.9841473E+02;  1.0089819E-01; -1.3133455E+03;3; -3.7878301E+00;  0.0000000E+00; -2.1916602E+00;0; -1.7730640E-02;  3.9160230E+04;  0.0000000E+00; -1.1524492E-01;  4.0000000E+04;  0.0000000E+00;  4.0008598E+04; -1.3252698E-02;  0.0000000E+00; -4.4779419E-03;  1.9641216E+03;
  6.1205345E-01;  9.9999998E-03; -2.4996285E-01;6172;  2.2199417E-02;  0.0000000E+00;  1.9882894E-03;  9.9852271E+02;  1.0089882E-01; -1.2239159E+03;3; -3.6878603E+00;  0.0000000E+00; -2.1393619E+00;0; -1.5694015E-02;  3.9168910E+04;  0.0000000E+00; -4.1175306E-02;  4.0000000E+04;  0.0000000E+00;  4.0007699E+04; -1.1999113E-02;  0.0000000E+00; -3.6949026E-03;  1.8558751E+03;
  6.1200124E-01;  9.9999998E-03; -2.3995031E-01;6173;  2.2359561E-02;  0.0000000E+00;  1.9311744E-03;  9.9866211E+02;  1.0089970E-01; -1.1084130E+03;3; -3.6148794E+00;  0.0000000E+00; -2.1165919E+00;0; -1.3816567E-02;  3.9178980E+04;  0.0000000E+00; -8.7403329E-03;  4.0000000E+04;  0.0000000E+00;  4.0008059E+04; -1.0673264E-02;  0.0000000E+00; -3.1433029E-03;  1.8731912E+03;
  6.1192667E-01;  9.9999998E-03; -2.2993575E-01;6174;  2.2539217E-02;  0.0000000E+00;  1.8934966E-03;  9.9880139E+02;  1.0089993E-01; -9.9300885E+02;3; -3.5677845E+00;  0.0000000E+00; -2.1036253E+00;0; -1.2299226E-02;  3.9189320E+04;  0.0000000E+00; -9.2716180E-03;  4.0000000E+04;  0.0000000E+00;  4.0008086E+04; -9.3037337E-03;  0.0000000E+00; -2.9954922E-03;  1.8661853E+03;
  6.1184645E-01;  9.9999998E-03; -2.1993977E-01;6175;  2.2739591E-02;  0.0000000E+00;  1.8856667E-03;  9.9888916E+02;  1.0089993E-01; -9.2031958E+02;3; -3.5376186E+00;  0.0000000E+00; -2.1008356E+00;0; -1.1049947E-02;  3.9199969E+04;  0.0000000E+00; -2.7412385E-02;  4.0000000E+04;  0.0000000E+00;  4.0004449E+04; -7.9370998E-03;  0.0000000E+00; -3.1128465E-03;  1.4213257E+03;
  6.1177510E-01;  9.9999998E-03; -2.0996469E-01;6176;  2.2970870E-02;  0.0000000E+00;  1.8519618E-03;  9.9898279E+02;  1.0090019E-01; -8.4274152E+02;3; -3.5497470E+00;  0.0000000E+00; -2.1097708E+00;0; -9.9289287E-03;  3.9210566E+04;  0.0000000E+00; -4.8718918E-02;  4.0000000E+04;  0.0000000E+00;  4.0000949E+04; -6.6266954E-03;  0.0000000E+00; -3.3022335E-03;  9.6909247E+02;
  6.1171389E-01;  9.9999998E-03; -1.9998872E-01;6177;  2.3239009E-02;  0.0000000E+00;  1.7994007E-03;  9.9909119E+02;  1.0089987E-01; -7.5291693E+02;3; -3.6092310E+00;  0.0000000E+00; -2.1272860E+00;0; -9.0023223E-03;  3.9220383E+04;  0.0000000E+00; -6.4533286E-02;  4.0000000E+04;  0.0000000E+00;  3.9999934E+04; -5.4182285E-03;  0.0000000E+00; -3.5840943E-03;  8.2857965E+02;
  6.1166418E-01;  9.9999998E-03; -1.9000295E-01;6178;  2.3546785E-02;  0.0000000E+00;  1.7451743E-03;  9.9919482E+02;  1.0089956E-01; -6.6709222E+02;3; -3.6630931E+00;  0.0000000E+00; -2.1457467E+00;0; -8.3051119E-03;  3.9228488E+04;  0.0000000E+00; -7.1150355E-02;  4.0000000E+04;  0.0000000E+00;  3.9999969E+04; -4.3552220E-03;  0.0000000E+00; -3.9498894E-03;  8.2494971E+02;
  6.1162823E-01;  9.9999998E-03; -1.8000904E-01;6179;  2.3891097E-02;  0.0000000E+00;  1.6917739E-03;  9.9927441E+02;  1.0089894E-01; -6.0111877E+02;3; -3.7524707E+00;  0.0000000E+00; -2.1772850E+00;0; -7.8469841E-03;  3.9234969E+04;  0.0000000E+00; -6.7020029E-02;  4.0000000E+04;  0.0000000E+00;  3.9999895E+04; -3.4745908E-03;  0.0000000E+00; -4.3723932E-03;  8.0690436E+02;
  6.1160851E-01;  9.9999998E-03; -1.7000966E-01;6180;  2.4266465E-02;  0.0000000E+00;  1.6374068E-03;  9.9932135E+02;  1.0089874E-01; -5.6225568E+02;3; -3.8564675E+00;  0.0000000E+00; -2.1959949E+00;0; -7.6311971E-03;  3.9239871E+04;  0.0000000E+00; -5.1635168E-02;  4.0000000E+04;  0.0000000E+00;  3.9999285E+04; -2.7986900E-03;  0.0000000E+00; -4.8325071E-03;  7.4116632E+02;
  6.1160547E-01;  9.9999998E-03; -1.6000707E-01;6181;  2.4664814E-02;  0.0000000E+00;  1.5797471E-03;  9.9934497E+02;  1.0089814E-01; -5.4270068E+02;3; -3.9436648E+00;  0.0000000E+00; -2.2119985E+00;0; -7.6487316E-03;  3.9242859E+04;  0.0000000E+00; -2.5286386E-02;  4.0000000E+04;  0.0000000E+00;  3.9998594E+04; -2.3309847E-03;  0.0000000E+00; -5.3177467E-03;  6.4798071E+02;
  6.1161816E-01;  9.9999998E-03; -1.5000336E-01;6182;  2.5075980E-02;  0.0000000E+00;  1.5171006E-03;  9.9935126E+02;  1.0089783E-01; -5.3746625E+02;3; -4.0256910E+00;  0.0000000E+00; -2.1841896E+00;0; -7.8752246E-03;  3.9244379E+04;  0.0000000E+00;  1.0346298E-02;  4.0000000E+04;  0.0000000E+00;  3.9997805E+04; -2.0567556E-03;  0.0000000E+00; -5.8184685E-03;  5.6107703E+02;
  6.1164385E-01;  9.9999998E-03; -1.4000022E-01;6183;  2.5489470E-02;  0.0000000E+00;  1.4475740E-03;  9.9934491E+02;  1.0089713E-01; -5.4275006E+02;3; -4.1018782E+00;  0.0000000E+00; -2.1303630E+00;0; -8.2726153E-03;  3.9244855E+04;  0.0000000E+00;  5.1808447E-02;  4.0000000E+04;  0.0000000E+00;  3.9997613E+04; -1.9453858E-03;  0.0000000E+00; -6.3272291E-03;  5.0890405E+02;
  6.1167860E-01;  9.9999998E-03; -1.2999870E-01;6184;  2.5898827E-02;  0.0000000E+00;  1.3703953E-03;  9.9932983E+02;  1.0089687E-01; -5.5524353E+02;3; -4.1675358E+00;  0.0000000E+00; -2.0570967E+00;0; -8.7955836E-03;  3.9244285E+04;  0.0000000E+00;  9.4576314E-02;  4.0000000E+04;  0.0000000E+00;  3.9997574E+04; -1.9561932E-03;  0.0000000E+00; -6.8393904E-03;  5.0462158E+02;
  6.1171818E-01;  9.9999998E-03; -1.1999891E-01;6185;  2.6295969E-02;  0.0000000E+00;  1.2871567E-03;  9.9930847E+02;  1.0089651E-01; -5.7292200E+02;3; -4.2320886E+00;  0.0000000E+00; -1.9560628E+00;0; -9.3955640E-03;  3.9242504E+04;  0.0000000E+00;  1.3351715E-01;  4.0000000E+04;  0.0000000E+00;  3.9997453E+04; -2.0446179E-03;  0.0000000E+00; -7.3509463E-03;  5.4319153E+02;
  6.1175907E-01;  9.9999998E-03; -1.1000033E-01;6186;  2.6675532E-02;  0.0000000E+00;  1.1979978E-03;  9.9927240E+02;  1.0089607E-01; -6.0279773E+02;3; -4.2833123E+00;  0.0000000E+00; -1.8380244E+00;0; -1.0022952E-02;  3.9240293E+04;  0.0000000E+00;  1.6385171E-01;  4.0000000E+04;  0.0000000E+00;  3.9998020E+04; -2.1677157E-03;  0.0000000E+00; -7.8552365E-03;  6.0871515E+02;
  6.2198985E-01;  9.9999998E-03; -2.6998442E-01;6231;  2.1734685E-02;  0.0000000E+00;  1.7416952E-03;  9.9796600E+02;  1.0140579E-01; -1.6851375E+03;3; -4.0578184E+00;  0.0000000E+00; -2.4957001E+00;0; -2.1815736E-02;  3.8734727E+04;  0.0000000E+00;  9.0017356E-02;  4.0000000E+04;  0.0000000E+00;  4.0010453E+04; -1.7779602E-02;  0.0000000E+00; -4.0361332E-03;  2.6783489E+03;
  6.2199008E-01;  9.9999998E-03; -2.5997257E-01;6232;  2.1876317E-02;  0.0000000E+00;  1.7387461E-03;  9.9806635E+02;  1.0140748E-01; -1.6019792E+03;3; -3.9168122E+00;  0.0000000E+00; -2.4323215E+00;0; -2.0233186E-02;  3.8742031E+04;  0.0000000E+00;  1.1197327E-01;  4.0000000E+04;  0.0000000E+00;  4.0009602E+04; -1.6851693E-02;  0.0000000E+00; -3.3814930E-03;  2.5582800E+03;
  6.2196779E-01;  9.9999998E-03; -2.4995759E-01;6233;  2.2030903E-02;  0.0000000E+00;  1.7159234E-03;  9.9818176E+02;  1.0140868E-01; -1.5063771E+03;3; -3.8097644E+00;  0.0000000E+00; -2.3805006E+00;0; -1.8634688E-02;  3.8750602E+04;  0.0000000E+00;  1.0984714E-01;  4.0000000E+04;  0.0000000E+00;  4.0009012E+04; -1.5855044E-02;  0.0000000E+00; -2.7796444E-03;  2.4689551E+03;
  6.2192237E-01;  9.9999998E-03; -2.3993671E-01;6234;  2.2202164E-02;  0.0000000E+00;  1.6714655E-03;  9.9832495E+02;  1.0140960E-01; -1.3877631E+03;3; -3.7285478E+00;  0.0000000E+00; -2.3448763E+00;0; -1.7175907E-02;  3.8760527E+04;  0.0000000E+00;  8.1096210E-02;  4.0000000E+04;  0.0000000E+00;  4.0009551E+04; -1.4807764E-02;  0.0000000E+00; -2.3681424E-03;  2.4927043E+03;
  6.2185651E-01;  9.9999998E-03; -2.2991131E-01;6235;  2.2390652E-02;  0.0000000E+00;  1.6478918E-03;  9.9846338E+02;  1.0141005E-01; -1.2730503E+03;3; -3.6726770E+00;  0.0000000E+00; -2.3192377E+00;0; -1.6063746E-02;  3.8771129E+04;  0.0000000E+00;  3.5023335E-02;  4.0000000E+04;  0.0000000E+00;  4.0008934E+04; -1.3735345E-02;  0.0000000E+00; -2.3284024E-03;  2.4405527E+03;
  6.2178397E-01;  9.9999998E-03; -2.1990670E-01;6236;  2.2598265E-02;  0.0000000E+00;  1.6557764E-03;  9.9854431E+02;  1.0141039E-01; -1.2059905E+03;3; -3.6490517E+00;  0.0000000E+00; -2.3001692E+00;0; -1.5200489E-02;  3.8782055E+04;  0.0000000E+00; -1.6136006E-02;  4.0000000E+04;  0.0000000E+00;  4.0003926E+04; -1.2677074E-02;  0.0000000E+00; -2.5234148E-03;  1.8112405E+03;
  6.2172025E-01;  9.9999998E-03; -2.0993020E-01;6237;  2.2834960E-02;  0.0000000E+00;  1.6286940E-03;  9.9861420E+02;  1.0141014E-01; -1.1481156E+03;3; -3.6323376E+00;  0.0000000E+00; -2.2914522E+00;0; -1.4429845E-02;  3.8792848E+04;  0.0000000E+00; -6.1091851E-02;  4.0000000E+04;  0.0000000E+00;  3.9998516E+04; -1.1677796E-02;  0.0000000E+00; -2.7520487E-03;  1.1061226E+03;
  6.2166458E-01;  9.9999998E-03; -1.9995831E-01;6238;  2.3106115E-02;  0.0000000E+00;  1.5732991E-03;  9.9871112E+02;  1.0140969E-01; -1.0678215E+03;3; -3.6572134E+00;  0.0000000E+00; -2.2880313E+00;0; -1.3827833E-02;  3.8802969E+04;  0.0000000E+00; -9.4037689E-02;  4.0000000E+04;  0.0000000E+00;  3.9995887E+04; -1.0772890E-02;  0.0000000E+00; -3.0549429E-03;  7.8959363E+02;
  6.2161809E-01;  9.9999998E-03; -1.8997809E-01;6239;  2.3412304E-02;  0.0000000E+00;  1.5140382E-03;  9.9880835E+02;  1.0140939E-01; -9.8728064E+02;3; -3.7281258E+00;  0.0000000E+00; -2.2851810E+00;0; -1.3429429E-02;  3.8811605E+04;  0.0000000E+00; -1.1362792E-01;  4.0000000E+04;  0.0000000E+00;  3.9995340E+04; -9.9956198E-03;  0.0000000E+00; -3.4338092E-03;  7.1527435E+02;
  6.2158233E-01;  9.9999998E-03; -1.7998944E-01;6240;  2.3753118E-02;  0.0000000E+00;  1.4565244E-03;  9.9889288E+02;  1.0140860E-01; -9.1720856E+02;3; -3.7979841E+00;  0.0000000E+00; -2.2789035E+00;0; -1.3230794E-02;  3.8819027E+04;  0.0000000E+00; -1.2091421E-01;  4.0000000E+04;  0.0000000E+00;  3.9995375E+04; -9.3721552E-03;  0.0000000E+00; -3.8586392E-03;  6.9255243E+02;
  6.2156045E-01;  9.9999998E-03; -1.6999507E-01;6241;  2.4123220E-02;  0.0000000E+00;  1.3999955E-03;  9.9894922E+02;  1.0140774E-01; -8.7054321E+02;3; -3.8900454E+00;  0.0000000E+00; -2.2755523E+00;0; -1.3224646E-02;  3.8824492E+04;  0.0000000E+00; -1.1748295E-01;  4.0000000E+04;  0.0000000E+00;  3.9994680E+04; -8.9176372E-03;  0.0000000E+00; -4.3070093E-03;  6.5279938E+02;
  6.2155348E-01;  9.9999998E-03; -1.5999751E-01;6242;  2.4516121E-02;  0.0000000E+00;  1.3427375E-03;  9.9898547E+02;  1.0140680E-01; -8.4051935E+02;3; -3.9868600E+00;  0.0000000E+00; -2.2640855E+00;0; -1.3396639E-02;  3.8828258E+04;  0.0000000E+00; -1.0443012E-01;  4.0000000E+04;  0.0000000E+00;  3.9994527E+04; -8.6317649E-03;  0.0000000E+00; -4.7648745E-03;  5.9473065E+02;
  6.2156081E-01;  9.9999998E-03; -1.4999886E-01;6243;  2.4922831E-02;  0.0000000E+00;  1.2832076E-03;  9.9900592E+02;  1.0140602E-01; -8.2358160E+02;3; -4.1030493E+00;  0.0000000E+00; -2.2379854E+00;0; -1.3722075E-02;  3.8830645E+04;  0.0000000E+00; -8.2403369E-02;  4.0000000E+04;  0.0000000E+00;  3.9994000E+04; -8.4991120E-03;  0.0000000E+00; -5.2229636E-03;  5.3856787E+02;
  6.2158036E-01;  9.9999998E-03; -1.4000063E-01;6244;  2.5335772E-02;  0.0000000E+00;  1.2199414E-03;  9.9901208E+02;  1.0140539E-01; -8.1844592E+02;3; -4.1915240E+00;  0.0000000E+00; -2.1906052E+00;0; -1.4167263E-02;  3.8832305E+04;  0.0000000E+00; -5.2623920E-02;  4.0000000E+04;  0.0000000E+00;  3.9993848E+04; -8.4920758E-03;  0.0000000E+00; -5.6751873E-03;  5.0605704E+02;
  6.2160939E-01;  9.9999998E-03; -1.3000306E-01;6245;  2.5744824E-02;  0.0000000E+00;  1.1523860E-03;  9.9901245E+02;  1.0140461E-01; -8.1814966E+02;3; -4.2725644E+00;  0.0000000E+00; -2.1151280E+00;0; -1.4694642E-02;  3.8833074E+04;  0.0000000E+00; -1.7458584E-02;  4.0000000E+04;  0.0000000E+00;  3.9994008E+04; -8.5758781E-03;  0.0000000E+00; -6.1187642E-03;  5.1240314E+02;
  6.2164390E-01;  9.9999998E-03; -1.2000602E-01;6246;  2.6143091E-02;  0.0000000E+00;  1.0802171E-03;  9.9900708E+02;  1.0140344E-01; -8.2259393E+02;3; -4.3566628E+00;  0.0000000E+00; -2.0171933E+00;0; -1.5265049E-02;  3.8833035E+04;  0.0000000E+00;  1.9405585E-02;  4.0000000E+04;  0.0000000E+00;  3.9994438E+04; -8.7129259E-03;  0.0000000E+00; -6.5521239E-03;  5.6092670E+02;
  6.2167996E-01;  9.9999998E-03; -1.1000928E-01;6247;  2.6525123E-02;  0.0000000E+00;  1.0042603E-03;  9.9900000E+02;  1.0140334E-01; -8.2847034E+02;3; -4.4138131E+00;  0.0000000E+00; -1.8975737E+00;0; -1.5838835E-02;  3.8832625E+04;  0.0000000E+00;  5.3646598E-02;  4.0000000E+04;  0.0000000E+00;  3.9995105E+04; -8.8672666E-03;  0.0000000E+00; -6.9715679E-03;  6.4217676E+02;
  6.3184160E-01;  9.9999998E-03; -2.6999518E-01;6292;  2.1494677E-02;  0.0000000E+00;  1.3963896E-03;  9.9768353E+02;  1.0214782E-01; -1.9191554E+03;3; -4.1819053E+00;  0.0000000E+00; -2.7332389E+00;0; -2.3031114E-02;  3.8154309E+04;  0.0000000E+00;  2.3807102E-01;  4.0000000E+04;  0.0000000E+00;  4.0009773E+04; -2.0639585E-02;  0.0000000E+00; -2.3915290E-03;  3.2260762E+03;
  6.3184804E-01;  9.9999998E-03; -2.5998011E-01;6293;  2.1653349E-02;  0.0000000E+00;  1.4170336E-03;  9.9780365E+02;  1.0215039E-01; -1.8196521E+03;3; -4.0460782E+00;  0.0000000E+00; -2.6579840E+00;0; -2.2024073E-02;  3.8162387E+04;  0.0000000E+00;  2.4915011E-01;  4.0000000E+04;  0.0000000E+00;  4.0008539E+04; -1.9912381E-02;  0.0000000E+00; -2.1116911E-03;  3.0958506E+03;
  6.3183492E-01;  9.9999998E-03; -2.4996039E-01;6294;  2.1822492E-02;  0.0000000E+00;  1.4125775E-03;  9.9793506E+02;  1.0215224E-01; -1.7107664E+03;3; -3.9322016E+00;  0.0000000E+00; -2.6061699E+00;0; -2.0900877E-02;  3.8171438E+04;  0.0000000E+00;  2.2082362E-01;  4.0000000E+04;  0.0000000E+00;  4.0008059E+04; -1.9135902E-02;  0.0000000E+00; -1.7649763E-03;  3.0049478E+03;
  6.3180238E-01;  9.9999998E-03; -2.3993322E-01;6295;  2.2006180E-02;  0.0000000E+00;  1.3889392E-03;  9.9808862E+02;  1.0215345E-01; -1.5835601E+03;3; -3.8482487E+00;  0.0000000E+00; -2.5614181E+00;0; -1.9875580E-02;  3.8182145E+04;  0.0000000E+00;  1.5898073E-01;  4.0000000E+04;  0.0000000E+00;  4.0008070E+04; -1.8327398E-02;  0.0000000E+00; -1.5481823E-03;  2.9948660E+03;
  6.3175023E-01;  9.9999998E-03; -2.2990027E-01;6296;  2.2205828E-02;  0.0000000E+00;  1.3849502E-03;  9.9823633E+02;  1.0215431E-01; -1.4611931E+03;3; -3.7902861E+00;  0.0000000E+00; -2.5256417E+00;0; -1.9141201E-02;  3.8193531E+04;  0.0000000E+00;  7.9837464E-02;  4.0000000E+04;  0.0000000E+00;  4.0007238E+04; -1.7508583E-02;  0.0000000E+00; -1.6326176E-03;  2.8565742E+03;
  6.3169038E-01;  9.9999998E-03; -2.1988760E-01;6297;  2.2424208E-02;  0.0000000E+00;  1.4073339E-03;  9.9832019E+02;  1.0215443E-01; -1.3917136E+03;3; -3.7641094E+00;  0.0000000E+00; -2.4867342E+00;0; -1.8606085E-02;  3.8205781E+04;  0.0000000E+00; -7.1506429E-04;  4.0000000E+04;  0.0000000E+00;  4.0001164E+04; -1.6711978E-02;  0.0000000E+00; -1.8941062E-03;  2.0983691E+03;
  6.3163775E-01;  9.9999998E-03; -2.0990673E-01;6298;  2.2669816E-02;  0.0000000E+00;  1.3867574E-03;  9.9838727E+02;  1.0215411E-01; -1.3361102E+03;3; -3.7576020E+00;  0.0000000E+00; -2.4638441E+00;0; -1.8128850E-02;  3.8217594E+04;  0.0000000E+00; -7.0528209E-02;  4.0000000E+04;  0.0000000E+00;  3.9994184E+04; -1.5973598E-02;  0.0000000E+00; -2.1552520E-03;  1.2150651E+03;
  6.3159013E-01;  9.9999998E-03; -1.9993612E-01;6299;  2.2946956E-02;  0.0000000E+00;  1.3323381E-03;  9.9847870E+02;  1.0215338E-01; -1.2603594E+03;3; -3.7707958E+00;  0.0000000E+00; -2.4479311E+00;0; -1.7795214E-02;  3.8228691E+04;  0.0000000E+00; -1.2381890E-01;  4.0000000E+04;  0.0000000E+00;  3.9990348E+04; -1.5320146E-02;  0.0000000E+00; -2.4750673E-03;  7.5249359E+02;
  6.3154817E-01;  9.9999998E-03; -1.8996009E-01;6300;  2.3256071E-02;  0.0000000E+00;  1.2724793E-03;  9.9858887E+02;  1.0215213E-01; -1.1691027E+03;3; -3.8089886E+00;  0.0000000E+00; -2.4264746E+00;0; -1.7636586E-02;  3.8238656E+04;  0.0000000E+00; -1.6004878E-01;  4.0000000E+04;  0.0000000E+00;  3.9989383E+04; -1.4775678E-02;  0.0000000E+00; -2.8609084E-03;  6.1715332E+02;
  6.3151407E-01;  9.9999998E-03; -1.7997639E-01;6301;  2.3594454E-02;  0.0000000E+00;  1.2152637E-03;  9.9868066E+02;  1.0215112E-01; -1.0930554E+03;3; -3.8937206E+00;  0.0000000E+00; -2.4042108E+00;0; -1.7640116E-02;  3.8247027E+04;  0.0000000E+00; -1.8244255E-01;  4.0000000E+04;  0.0000000E+00;  3.9989016E+04; -1.4358783E-02;  0.0000000E+00; -3.2813333E-03;  5.9442780E+02;
  6.3149071E-01;  9.9999998E-03; -1.6998705E-01;6302;  2.3960967E-02;  0.0000000E+00;  1.1604859E-03;  9.9875452E+02;  1.0214944E-01; -1.0318719E+03;3; -3.9704292E+00;  0.0000000E+00; -2.3727999E+00;0; -1.7789381E-02;  3.8253387E+04;  0.0000000E+00; -1.9497268E-01;  4.0000000E+04;  0.0000000E+00;  3.9988656E+04; -1.4078086E-02;  0.0000000E+00; -3.7112946E-03;  5.8627197E+02;
  6.3148046E-01;  9.9999998E-03; -1.5999429E-01;6303;  2.4349267E-02;  0.0000000E+00;  1.1065943E-03;  9.9880310E+02;  1.0214797E-01; -9.9162622E+02;3; -4.0763450E+00;  0.0000000E+00; -2.3393693E+00;0; -1.8066240E-02;  3.8258359E+04;  0.0000000E+00; -2.0001611E-01;  4.0000000E+04;  0.0000000E+00;  3.9988797E+04; -1.3930545E-02;  0.0000000E+00; -4.1356948E-03;  5.7219476E+02;
  6.3148373E-01;  9.9999998E-03; -1.4999984E-01;6304;  2.4752261E-02;  0.0000000E+00;  1.0520049E-03;  9.9883838E+02;  1.0214671E-01; -9.6239246E+02;3; -4.1828203E+00;  0.0000000E+00; -2.2962670E+00;0; -1.8446609E-02;  3.8262117E+04;  0.0000000E+00; -1.9736229E-01;  4.0000000E+04;  0.0000000E+00;  3.9988684E+04; -1.3901080E-02;  0.0000000E+00; -4.5455289E-03;  5.5877179E+02;
  6.3149983E-01;  9.9999998E-03; -1.4000466E-01;6305;  2.5161881E-02;  0.0000000E+00;  9.9579943E-04;  9.9885925E+02;  1.0214566E-01; -9.4510901E+02;3; -4.2926326E+00;  0.0000000E+00; -2.2413239E+00;0; -1.8901689E-02;  3.8265234E+04;  0.0000000E+00; -1.8547037E-01;  4.0000000E+04;  0.0000000E+00;  3.9988676E+04; -1.3965733E-02;  0.0000000E+00; -4.9359561E-03;  5.5791443E+02;
  6.3152772E-01;  9.9999998E-03; -1.3000903E-01;6306;  2.5570000E-02;  0.0000000E+00;  9.3720743E-04;  9.9887805E+02;  1.0214410E-01; -9.2950452E+02;3; -4.4001594E+00;  0.0000000E+00; -2.1648688E+00;0; -1.9401293E-02;  3.8267543E+04;  0.0000000E+00; -1.6373600E-01;  4.0000000E+04;  0.0000000E+00;  3.9989141E+04; -1.4095483E-02;  0.0000000E+00; -5.3058090E-03;  5.8125330E+02;
  6.3156581E-01;  9.9999998E-03; -1.2001255E-01;6307;  2.5969192E-02;  0.0000000E+00;  8.7603170E-04;  9.9889209E+02;  1.0214268E-01; -9.1789990E+02;3; -4.4833384E+00;  0.0000000E+00; -2.0669780E+00;0; -1.9915905E-02;  3.8269238E+04;  0.0000000E+00; -1.3365303E-01;  4.0000000E+04;  0.0000000E+00;  3.9989867E+04; -1.4260302E-02;  0.0000000E+00; -5.6556016E-03;  6.3689661E+02;
  6.3161141E-01;  9.9999998E-03; -1.1001484E-01;6308;  2.6352106E-02;  0.0000000E+00;  8.1256975E-04;  9.9890912E+02;  1.0214174E-01; -9.0377686E+02;3; -4.5598731E+00;  0.0000000E+00; -1.9501925E+00;0; -2.0416159E-02;  3.8270961E+04;  0.0000000E+00; -9.8515220E-02;  4.0000000E+04;  0.0000000E+00;  3.9990543E+04; -1.4431854E-02;  0.0000000E+00; -5.9843045E-03;  7.2385455E+02;
  6.4166105E-01;  9.9999998E-03; -2.7001539E-01;6353;  2.1219445E-02;  0.0000000E+00;  1.0205563E-03;  9.9764227E+02;  1.0317664E-01; -1.9533273E+03;3; -4.2881017E+00;  0.0000000E+00; -2.9781928E+00;0; -2.3776785E-02;  3.7397773E+04;  0.0000000E+00; -1.1522360E-01;  4.0000000E+04;  0.0000000E+00;  4.0004293E+04; -2.3180701E-02;  0.0000000E+00; -5.9608341E-04;  3.3994968E+03;
  6.4167613E-01;  9.9999998E-03; -2.5999880E-01;6354;  2.1395147E-02;  0.0000000E+00;  1.0709960E-03;  9.9778870E+02;  1.0317994E-01; -1.8320468E+03;3; -4.1588163E+00;  0.0000000E+00; -2.8970640E+00;0; -2.3391632E-02;  3.7406598E+04;  0.0000000E+00;  9.8293871E-02;  4.0000000E+04;  0.0000000E+00;  4.0003180E+04; -2.2619098E-02;  0.0000000E+00; -7.7253382E-04;  3.2439919E+03;
  6.4167595E-01;  9.9999998E-03; -2.4997710E-01;6355;  2.1580070E-02;  0.0000000E+00;  1.0893004E-03;  9.9794373E+02;  1.0318225E-01; -1.7036060E+03;3; -4.0526557E+00;  0.0000000E+00; -2.8283968E+00;0; -2.2735132E-02;  3.7417398E+04;  0.0000000E+00;  1.8595059E-01;  4.0000000E+04;  0.0000000E+00;  4.0002594E+04; -2.2025600E-02;  0.0000000E+00; -7.0953171E-04;  3.1482766E+03;
  6.4166051E-01;  9.9999998E-03; -2.3994812E-01;6356;  2.1777898E-02;  0.0000000E+00;  1.0901314E-03;  9.9811560E+02;  1.0318413E-01; -1.5611903E+03;3; -3.9734824E+00;  0.0000000E+00; -2.7697723E+00;0; -2.2114569E-02;  3.7429273E+04;  0.0000000E+00;  1.7505415E-01;  4.0000000E+04;  0.0000000E+00;  4.0002168E+04; -2.1415755E-02;  0.0000000E+00; -6.9881399E-04;  3.0832302E+03;
  6.4162815E-01;  9.9999998E-03; -2.2991455E-01;6357;  2.1990107E-02;  0.0000000E+00;  1.1072445E-03;  9.9827948E+02;  1.0318504E-01; -1.4254410E+03;3; -3.9150078E+00;  0.0000000E+00; -2.7214305E+00;0; -2.1709330E-02;  3.7442527E+04;  0.0000000E+00;  1.0653243E-01;  4.0000000E+04;  0.0000000E+00;  4.0000363E+04; -2.0807961E-02;  0.0000000E+00; -9.0136856E-04;  2.8379041E+03;
  6.4158744E-01;  9.9999998E-03; -2.1989819E-01;6358;  2.2221863E-02;  0.0000000E+00;  1.1360212E-03;  9.9839105E+02;  1.0318518E-01; -1.3329993E+03;3; -3.8863959E+00;  0.0000000E+00; -2.6727569E+00;0; -2.1431651E-02;  3.7456121E+04;  0.0000000E+00;  1.6239041E-02;  4.0000000E+04;  0.0000000E+00;  3.9993980E+04; -2.0227633E-02;  0.0000000E+00; -1.2040178E-03;  2.0580181E+03;
  6.4155048E-01;  9.9999998E-03; -2.0991082E-01;6359;  2.2479465E-02;  0.0000000E+00;  1.1204000E-03;  9.9847522E+02;  1.0318411E-01; -1.2632728E+03;3; -3.8862512E+00;  0.0000000E+00; -2.6322498E+00;0; -2.1194462E-02;  3.7469379E+04;  0.0000000E+00; -7.1584553E-02;  4.0000000E+04;  0.0000000E+00;  3.9986840E+04; -1.9702248E-02;  0.0000000E+00; -1.4922126E-03;  1.1710797E+03;
  6.4151543E-01;  9.9999998E-03; -1.9993606E-01;6360;  2.2764845E-02;  0.0000000E+00;  1.0706214E-03;  9.9858459E+02;  1.0318274E-01; -1.1726581E+03;3; -3.9012728E+00;  0.0000000E+00; -2.6078959E+00;0; -2.1080406E-02;  3.7482102E+04;  0.0000000E+00; -1.4435196E-01;  4.0000000E+04;  0.0000000E+00;  3.9982945E+04; -1.9251829E-02;  0.0000000E+00; -1.8285778E-03;  6.8025568E+02;
  6.4148444E-01;  9.9999998E-03; -1.8995985E-01;6361;  2.3077320E-02;  0.0000000E+00;  1.0161077E-03;  9.9870380E+02;  1.0318115E-01; -1.0738955E+03;3; -3.9410381E+00;  0.0000000E+00; -2.5769639E+00;0; -2.1113500E-02;  3.7493391E+04;  0.0000000E+00; -1.9923146E-01;  4.0000000E+04;  0.0000000E+00;  3.9981379E+04; -1.8894197E-02;  0.0000000E+00; -2.2193021E-03;  5.3993494E+02;
  6.4146411E-01;  9.9999998E-03; -1.7997712E-01;6362;  2.3416940E-02;  0.0000000E+00;  9.6456835E-04;  9.9881396E+02;  1.0317864E-01; -9.8258942E+02;3; -4.0001163E+00;  0.0000000E+00; -2.5339248E+00;0; -2.1274325E-02;  3.7503332E+04;  0.0000000E+00; -2.3927401E-01;  4.0000000E+04;  0.0000000E+00;  3.9981273E+04; -1.8643146E-02;  0.0000000E+00; -2.6311781E-03;  5.4228656E+02;
  6.4146358E-01;  9.9999998E-03; -1.6998617E-01;6363;  2.3779944E-02;  0.0000000E+00;  9.1512525E-04;  9.9889929E+02;  1.0317668E-01; -9.1192474E+02;3; -4.0950680E+00;  0.0000000E+00; -2.4912758E+00;0; -2.1543441E-02;  3.7511211E+04;  0.0000000E+00; -2.7015859E-01;  4.0000000E+04;  0.0000000E+00;  3.9981387E+04; -1.8505352E-02;  0.0000000E+00; -3.0380902E-03;  5.7501813E+02;
  6.4148140E-01;  9.9999998E-03; -1.5998866E-01;6364;  2.4163706E-02;  0.0000000E+00;  8.6690596E-04;  9.9896735E+02;  1.0317381E-01; -8.5553131E+02;3; -4.1919737E+00;  0.0000000E+00; -2.4353900E+00;0; -2.1898407E-02;  3.7517777E+04;  0.0000000E+00; -2.9561281E-01;  4.0000000E+04;  0.0000000E+00;  3.9981508E+04; -1.8473968E-02;  0.0000000E+00; -3.4244393E-03;  6.0844861E+02;
  6.4150947E-01;  9.9999998E-03; -1.4998910E-01;6365;  2.4562366E-02;  0.0000000E+00;  8.1910205E-04;  9.9901483E+02;  1.0317156E-01; -8.1617438E+02;3; -4.3028035E+00;  0.0000000E+00; -2.3761671E+00;0; -2.2312164E-02;  3.7523066E+04;  0.0000000E+00; -3.1510112E-01;  4.0000000E+04;  0.0000000E+00;  3.9981797E+04; -1.8530441E-02;  0.0000000E+00; -3.7817222E-03;  6.4229999E+02;
  6.4154458E-01;  9.9999998E-03; -1.3998951E-01;6366;  2.4968656E-02;  0.0000000E+00;  7.7105348E-04;  9.9904987E+02;  1.0316910E-01; -7.8718756E+02;3; -4.4227872E+00;  0.0000000E+00; -2.3070567E+00;0; -2.2758182E-02;  3.7527215E+04;  0.0000000E+00; -3.2458848E-01;  4.0000000E+04;  0.0000000E+00;  3.9982102E+04; -1.8651932E-02;  0.0000000E+00; -4.1062497E-03;  6.8029541E+02;
  6.4158607E-01;  9.9999998E-03; -1.2999003E-01;6367;  2.5375068E-02;  0.0000000E+00;  7.2226016E-04;  9.9908075E+02;  1.0316669E-01; -7.6155865E+02;3; -4.5308051E+00;  0.0000000E+00; -2.2200983E+00;0; -2.3212392E-02;  3.7530836E+04;  0.0000000E+00; -3.2019696E-01;  4.0000000E+04;  0.0000000E+00;  3.9982543E+04; -1.8813942E-02;  0.0000000E+00; -4.3984512E-03;  7.2736908E+02;
  6.4163238E-01;  9.9999998E-03; -1.1999062E-01;6368;  2.5773440E-02;  0.0000000E+00;  6.7208236E-04;  9.9911432E+02;  1.0316452E-01; -7.3375696E+02;3; -4.6389751E+00;  0.0000000E+00; -2.1200340E+00;0; -2.3653168E-02;  3.7533906E+04;  0.0000000E+00; -3.0070668E-01;  4.0000000E+04;  0.0000000E+00;  3.9983535E+04; -1.8991997E-02;  0.0000000E+00; -4.6611712E-03;  7.9088660E+02;
  6.4168054E-01;  9.9999998E-03; -1.0999142E-01;6369;  2.6157698E-02;  0.0000000E+00;  6.2122958E-04;  9.9914209E+02;  1.0316254E-01; -7.1074530E+02;3; -4.7254963E+00;  0.0000000E+00; -2.0003262E+00;0; -2.4059795E-02;  3.7537246E+04;  0.0000000E+00; -2.6784214E-01;  4.0000000E+04;  0.0000000E+00;  3.9984668E+04; -1.9163487E-02;  0.0000000E+00; -4.8963083E-03;  8.7565271E+02;
  6.5166503E-01;  9.9999998E-03; -1.0997783E-01;6430;  2.5945731E-02;  0.0000000E+00;  4.3376500E-04;  9.9961066E+02;  1.0449031E-01; -3.2255875E+02;3; -4.9048910E+00;  0.0000000E+00; -2.0580451E+00;0; -2.6973566E-02;  3.6622391E+04;  0.0000000E+00; -4.1964614E-01;  4.0000000E+04;  0.0000000E+00;  3.9976688E+04; -2.3230011E-02;  0.0000000E+00; -3.7435561E-03;  1.0670842E+03;
  6.5162343E-01;  9.9999998E-03; -1.1997717E-01;6429;  2.5561314E-02;  0.0000000E+00;  4.7154099E-04;  9.9957855E+02;  1.0449348E-01; -3.4917529E+02;3; -4.8064857E+00;  0.0000000E+00; -2.1905136E+00;0; -2.6664685E-02;  3.6618402E+04;  0.0000000E+00; -4.4669268E-01;  4.0000000E+04;  0.0000000E+00;  3.9975324E+04; -2.3063889E-02;  0.0000000E+00; -3.6007969E-03;  9.8307086E+02;
  6.5158606E-01;  9.9999998E-03; -1.2997682E-01;6428;  2.5163576E-02;  0.0000000E+00;  5.0905353E-04;  9.9955023E+02;  1.0449724E-01; -3.7263141E+02;3; -4.6973495E+00;  0.0000000E+00; -2.3059740E+00;0; -2.6308240E-02;  3.6614934E+04;  0.0000000E+00; -4.5270869E-01;  4.0000000E+04;  0.0000000E+00;  3.9974465E+04; -2.2885285E-02;  0.0000000E+00; -3.4229555E-03;  9.0619702E+02;
  6.5155596E-01;  9.9999998E-03; -1.3997674E-01;6427;  2.4759606E-02;  0.0000000E+00;  5.4664235E-04;  9.9952039E+02;  1.0450092E-01; -3.9737146E+02;3; -4.5751967E+00;  0.0000000E+00; -2.4002144E+00;0; -2.5917072E-02;  3.6610539E+04;  0.0000000E+00; -4.3791625E-01;  4.0000000E+04;  0.0000000E+00;  3.9973754E+04; -2.2711549E-02;  0.0000000E+00; -3.2055220E-03;  8.3115765E+02;
  6.5153551E-01;  9.9999998E-03; -1.4997666E-01;6426;  2.4356920E-02;  0.0000000E+00;  5.8446935E-04;  9.9948438E+02;  1.0450477E-01; -4.2719775E+02;3; -4.4568815E+00;  0.0000000E+00; -2.4814465E+00;0; -2.5506191E-02;  3.6605609E+04;  0.0000000E+00; -4.0634036E-01;  4.0000000E+04;  0.0000000E+00;  3.9973230E+04; -2.2562651E-02;  0.0000000E+00; -2.9435402E-03;  7.5467078E+02;
  6.5152621E-01;  9.9999998E-03; -1.5997605E-01;6425;  2.3962382E-02;  0.0000000E+00;  6.2263891E-04;  9.9943182E+02;  1.0450931E-01; -4.7070270E+02;3; -4.3415365E+00;  0.0000000E+00; -2.5536373E+00;0; -2.5094528E-02;  3.6599422E+04;  0.0000000E+00; -3.6487690E-01;  4.0000000E+04;  0.0000000E+00;  3.9972594E+04; -2.2459324E-02;  0.0000000E+00; -2.6352031E-03;  6.7919318E+02;
  6.5150154E-01;  9.9999998E-03; -2.7004606E-01;6414;  2.0924024E-02;  0.0000000E+00;  6.4409169E-04;  9.9786133E+02;  1.0452000E-01; -1.7718510E+03;3; -4.3860774E+00;  0.0000000E+00; -3.2042296E+00;0; -2.4547916E-02;  3.6463848E+04;  0.0000000E+00; -1.2121663E+00;  4.0000000E+04;  0.0000000E+00;  3.9993582E+04; -2.5556222E-02;  0.0000000E+00;  1.0083058E-03;  3.6975620E+03;
  6.5152764E-01;  9.9999998E-03; -1.6997454E-01;6424;  2.3582092E-02;  0.0000000E+00;  6.6106388E-04;  9.9936035E+02;  1.0451332E-01; -5.2996027E+02;3; -4.2342257E+00;  0.0000000E+00; -2.6179569E+00;0; -2.4704106E-02;  3.6592016E+04;  0.0000000E+00; -3.1924185E-01;  4.0000000E+04;  0.0000000E+00;  3.9972492E+04; -2.2420220E-02;  0.0000000E+00; -2.2838865E-03;  6.0967938E+02;
  6.5152377E-01;  9.9999998E-03; -2.6003006E-01;6415;  2.1115875E-02;  0.0000000E+00;  7.2505139E-04;  9.9803113E+02;  1.0452384E-01; -1.6311636E+03;3; -4.2651954E+00;  0.0000000E+00; -3.1132293E+00;0; -2.4700034E-02;  3.6474629E+04;  0.0000000E+00; -4.9319172E-01;  4.0000000E+04;  0.0000000E+00;  3.9992371E+04; -2.5129864E-02;  0.0000000E+00;  4.2982982E-04;  3.0826350E+03;
  6.5153778E-01;  9.9999998E-03; -1.7997104E-01;6423;  2.3220103E-02;  0.0000000E+00;  7.0004899E-04;  9.9926697E+02;  1.0451690E-01; -6.0729144E+02;3; -4.1507139E+00;  0.0000000E+00; -2.6784360E+00;0; -2.4357960E-02;  3.6582895E+04;  0.0000000E+00; -2.6985145E-01;  4.0000000E+04;  0.0000000E+00;  3.9972496E+04; -2.2459168E-02;  0.0000000E+00; -1.8987914E-03;  5.5200073E+02;
  6.5154207E-01;  9.9999998E-03; -2.5000986E-01;6416;  2.1317637E-02;  0.0000000E+00;  7.6190074E-04;  9.9821936E+02;  1.0452656E-01; -1.4752174E+03;3; -4.1681314E+00;  0.0000000E+00; -3.0371938E+00;0; -2.4399189E-02;  3.6486711E+04;  0.0000000E+00; -7.9275958E-02;  4.0000000E+04;  0.0000000E+00;  3.9991355E+04; -2.4687953E-02;  0.0000000E+00;  2.8876355E-04;  2.8269568E+03;
  6.5155268E-01;  9.9999998E-03; -1.8996470E-01;6422;  2.2880226E-02;  0.0000000E+00;  7.4055587E-04;  9.9914703E+02;  1.0452082E-01; -7.0664661E+02;3; -4.0864048E+00;  0.0000000E+00; -2.7299824E+00;0; -2.4078693E-02;  3.6571902E+04;  0.0000000E+00; -2.1196896E-01;  4.0000000E+04;  0.0000000E+00;  3.9972816E+04; -2.2582823E-02;  0.0000000E+00; -1.4958696E-03;  5.2925128E+02;
  6.5156448E-01;  9.9999998E-03; -1.9995607E-01;6421;  2.2563422E-02;  0.0000000E+00;  7.8321574E-04;  9.9901099E+02;  1.0452387E-01; -8.1938416E+02;3; -4.0417423E+00;  0.0000000E+00; -2.7707703E+00;0; -2.3889575E-02;  3.6558965E+04;  0.0000000E+00; -1.4018175E-01;  4.0000000E+04;  0.0000000E+00;  3.9974078E+04; -2.2789354E-02;  0.0000000E+00; -1.1002221E-03;  6.2253406E+02;
  6.5155107E-01;  9.9999998E-03; -2.3998460E-01;6417;  2.1530133E-02;  0.0000000E+00;  7.8664557E-04;  9.9841412E+02;  1.0452791E-01; -1.3138887E+03;3; -4.0927734E+00;  0.0000000E+00; -2.9715199E+00;0; -2.4109755E-02;  3.6500207E+04;  0.0000000E+00;  8.8212512E-02;  4.0000000E+04;  0.0000000E+00;  3.9990129E+04; -2.4242943E-02;  0.0000000E+00;  1.3318886E-04;  2.6644556E+03;
  6.5156263E-01;  9.9999998E-03; -2.0994908E-01;6420;  2.2270475E-02;  0.0000000E+00;  8.2460017E-04;  9.9886426E+02;  1.0452623E-01; -9.4096100E+02;3; -4.0172844E+00;  0.0000000E+00; -2.8123097E+00;0; -2.3816256E-02;  3.6544969E+04;  0.0000000E+00; -5.3842057E-02;  4.0000000E+04;  0.0000000E+00;  3.9976766E+04; -2.3069398E-02;  0.0000000E+00; -7.4685679E-04;  9.5283881E+02;
  6.5155113E-01;  9.9999998E-03; -2.2995955E-01;6418;  2.1755932E-02;  0.0000000E+00;  8.2369166E-04;  9.9859076E+02;  1.0452833E-01; -1.1675225E+03;3; -4.0424390E+00;  0.0000000E+00; -2.9103105E+00;0; -2.3965312E-02;  3.6514945E+04;  0.0000000E+00;  1.0055332E-01;  4.0000000E+04;  0.0000000E+00;  3.9987117E+04; -2.3811214E-02;  0.0000000E+00; -1.5409832E-04;  2.2758499E+03;
  6.5155011E-01;  9.9999998E-03; -2.1994790E-01;6419;  2.2001522E-02;  0.0000000E+00;  8.4616739E-04;  9.9872998E+02;  1.0452799E-01; -1.0521677E+03;3; -4.0179896E+00;  0.0000000E+00; -2.8575964E+00;0; -2.3864353E-02;  3.6529895E+04;  0.0000000E+00;  3.5825647E-02;  4.0000000E+04;  0.0000000E+00;  3.9981719E+04; -2.3412680E-02;  0.0000000E+00; -4.5167340E-04;  1.5684685E+03;
  6.6170406E-01;  9.9999998E-03; -1.0996037E-01;6491;  2.5710868E-02;  0.0000000E+00;  2.4387303E-04;  1.0000455E+03;  1.0611613E-01;  3.7628563E+01;3; -5.1103330E+00;  0.0000000E+00; -2.1589079E+00;0; -2.9476874E-02;  3.5535020E+04;  0.0000000E+00; -5.1713419E-01;  4.0000000E+04;  0.0000000E+00;  3.9966828E+04; -2.6956147E-02;  0.0000000E+00; -2.5207265E-03;  1.2385421E+03;
  6.6166729E-01;  9.9999998E-03; -1.1996113E-01;6490;  2.5327226E-02;  0.0000000E+00;  2.6800751E-04;  1.0000354E+03;  1.0612210E-01;  2.9332502E+01;3; -5.0010676E+00;  0.0000000E+00; -2.2961512E+00;0; -2.9256808E-02;  3.5531516E+04;  0.0000000E+00; -5.3412700E-01;  4.0000000E+04;  0.0000000E+00;  3.9965590E+04; -2.6785513E-02;  0.0000000E+00; -2.4712945E-03;  1.1473129E+03;
  6.6163272E-01;  9.9999998E-03; -1.2996322E-01;6489;  2.4931725E-02;  0.0000000E+00;  2.9330474E-04;  1.0000284E+03;  1.0612801E-01;  2.3604269E+01;3; -4.8783255E+00;  0.0000000E+00; -2.4115694E+00;0; -2.8976383E-02;  3.5527898E+04;  0.0000000E+00; -5.2419555E-01;  4.0000000E+04;  0.0000000E+00;  3.9964422E+04; -2.6597645E-02;  0.0000000E+00; -2.3787378E-03;  1.0502866E+03;
  6.6160280E-01;  9.9999998E-03; -1.3996653E-01;6488;  2.4531549E-02;  0.0000000E+00;  3.1962505E-04;  1.0000220E+03;  1.0613424E-01;  1.8172325E+01;3; -4.7526565E+00;  0.0000000E+00; -2.5121820E+00;0; -2.8641686E-02;  3.5524078E+04;  0.0000000E+00; -4.8978287E-01;  4.0000000E+04;  0.0000000E+00;  3.9963715E+04; -2.6405672E-02;  0.0000000E+00; -2.2360138E-03;  9.4548541E+02;
  6.6157991E-01;  9.9999998E-03; -1.4997083E-01;6487;  2.4133373E-02;  0.0000000E+00;  3.4670939E-04;  1.0000010E+03;  1.0614074E-01;  8.8886368E-01;3; -4.6244230E+00;  0.0000000E+00; -2.6007547E+00;0; -2.8261984E-02;  3.5519098E+04;  0.0000000E+00; -4.3763357E-01;  4.0000000E+04;  0.0000000E+00;  3.9963031E+04; -2.6225701E-02;  0.0000000E+00; -2.0362830E-03;  8.3555054E+02;
  6.6156560E-01;  9.9999998E-03; -1.5997589E-01;6486;  2.3743195E-02;  0.0000000E+00;  3.7391056E-04;  9.9995667E+02;  1.0614753E-01; -3.5900215E+01;3; -4.5046463E+00;  0.0000000E+00; -2.6833780E+00;0; -2.7851844E-02;  3.5512996E+04;  0.0000000E+00; -3.7674099E-01;  4.0000000E+04;  0.0000000E+00;  3.9962422E+04; -2.6075168E-02;  0.0000000E+00; -1.7766773E-03;  7.2930786E+02;
  6.6156101E-01;  9.9999998E-03; -1.6998145E-01;6485;  2.3366416E-02;  0.0000000E+00;  4.0083984E-04;  9.9989447E+02;  1.0615339E-01; -8.7404930E+01;3; -4.3983645E+00;  0.0000000E+00; -2.7573497E+00;0; -2.7431319E-02;  3.5504941E+04;  0.0000000E+00; -3.1334579E-01;  4.0000000E+04;  0.0000000E+00;  3.9962328E+04; -2.5970768E-02;  0.0000000E+00; -1.4605500E-03;  6.3672540E+02;
  6.6156608E-01;  9.9999998E-03; -1.7998673E-01;6484;  2.3006894E-02;  0.0000000E+00;  4.2698771E-04;  9.9980573E+02;  1.0615946E-01; -1.6093370E+02;3; -4.3091493E+00;  0.0000000E+00; -2.8258178E+00;0; -2.7023669E-02;  3.5495176E+04;  0.0000000E+00; -2.4744742E-01;  4.0000000E+04;  0.0000000E+00;  3.9962359E+04; -2.5925990E-02;  0.0000000E+00; -1.0976796E-03;  5.6715729E+02;
  6.6157913E-01;  9.9999998E-03; -1.8999222E-01;6483;  2.2666821E-02;  0.0000000E+00;  4.5293180E-04;  9.9968115E+02;  1.0616510E-01; -2.6414066E+02;3; -4.2362843E+00;  0.0000000E+00; -2.8855538E+00;0; -2.6652966E-02;  3.5483344E+04;  0.0000000E+00; -1.7472292E-01;  4.0000000E+04;  0.0000000E+00;  3.9962824E+04; -2.5948998E-02;  0.0000000E+00; -7.0396828E-04;  5.3935321E+02;
  6.6159630E-01;  9.9999998E-03; -1.9999897E-01;6482;  2.2347309E-02;  0.0000000E+00;  4.7901800E-04;  9.9952728E+02;  1.0617015E-01; -3.9164322E+02;3; -4.1826077E+00;  0.0000000E+00; -2.9353590E+00;0; -2.6343819E-02;  3.5469645E+04;  0.0000000E+00; -9.1748908E-02;  4.0000000E+04;  0.0000000E+00;  3.9963555E+04; -2.6041619E-02;  0.0000000E+00; -3.0219962E-04;  5.8942944E+02;
  6.6161346E-01;  9.9999998E-03; -2.1000791E-01;6481;  2.2048227E-02;  0.0000000E+00;  5.0544256E-04;  9.9934814E+02;  1.0617392E-01; -5.4003406E+02;3; -4.1537685E+00;  0.0000000E+00; -2.9858840E+00;0; -2.6125316E-02;  3.5453922E+04;  0.0000000E+00; -3.2150082E-03;  4.0000000E+04;  0.0000000E+00;  3.9964770E+04; -2.6199926E-02;  0.0000000E+00;  7.4609474E-05;  7.4433386E+02;
  6.6162658E-01;  9.9999998E-03; -2.2001785E-01;6480;  2.1769682E-02;  0.0000000E+00;  5.2937987E-04;  9.9915479E+02;  1.0617704E-01; -7.0022705E+02;3; -4.1519160E+00;  0.0000000E+00; -3.0365903E+00;0; -2.6031746E-02;  3.5437324E+04;  0.0000000E+00;  6.9627941E-02;  4.0000000E+04;  0.0000000E+00;  3.9966547E+04; -2.6415121E-02;  0.0000000E+00;  3.8337527E-04;  1.0128221E+03;
  6.6163266E-01;  9.9999998E-03; -2.3002575E-01;6479;  2.1511275E-02;  0.0000000E+00;  5.2896026E-04;  9.9896478E+02;  1.0617916E-01; -8.5765466E+02;3; -4.1711249E+00;  0.0000000E+00; -3.0944629E+00;0; -2.6047682E-02;  3.5420508E+04;  0.0000000E+00;  7.8466691E-02;  4.0000000E+04;  0.0000000E+00;  3.9970422E+04; -2.6675249E-02;  0.0000000E+00;  6.2756630E-04;  1.4750010E+03;
  6.6163045E-01;  9.9999998E-03; -2.4003758E-01;6478;  2.1270411E-02;  0.0000000E+00;  4.8334480E-04;  9.9877539E+02;  1.0617968E-01; -1.0145885E+03;3; -4.2157369E+00;  0.0000000E+00; -3.1570942E+00;0; -2.6045183E-02;  3.5404371E+04;  0.0000000E+00; -6.2865846E-02;  4.0000000E+04;  0.0000000E+00;  3.9974418E+04; -2.6967229E-02;  0.0000000E+00;  9.2204631E-04;  2.0065729E+03;
  6.6160488E-01;  9.9999998E-03; -2.5005519E-01;6477;  2.1042921E-02;  0.0000000E+00;  4.4058583E-04;  9.9856207E+02;  1.0617909E-01; -1.1912749E+03;3; -4.2773633E+00;  0.0000000E+00; -3.2360134E+00;0; -2.6128633E-02;  3.5389062E+04;  0.0000000E+00; -4.9310267E-01;  4.0000000E+04;  0.0000000E+00;  3.9976551E+04; -2.7274346E-02;  0.0000000E+00;  1.1457129E-03;  2.4448376E+03;
  6.6150385E-01;  9.9999998E-03; -2.7008545E-01;6475;  2.0621534E-02;  0.0000000E+00;  2.8614773E-04;  9.9817023E+02;  1.0617355E-01; -1.5159076E+03;3; -4.4721141E+00;  0.0000000E+00; -3.4260402E+00;0; -2.5733098E-02;  3.5363965E+04;  0.0000000E+00; -2.8495507E+00;  4.0000000E+04;  0.0000000E+00;  3.9979770E+04; -2.7888861E-02;  0.0000000E+00;  2.1557631E-03;  5.3658027E+03;
  6.6154814E-01;  9.9999998E-03; -2.6007167E-01;6476;  2.0826487E-02;  0.0000000E+00;  3.9210301E-04;  9.9836365E+02;  1.0617708E-01; -1.3556653E+03;3; -4.3644843E+00;  0.0000000E+00; -3.3165669E+00;0; -2.6234938E-02;  3.5376133E+04;  0.0000000E+00; -1.3940535E+00;  4.0000000E+04;  0.0000000E+00;  3.9978105E+04; -2.7582016E-02;  0.0000000E+00;  1.3470788E-03;  3.3932974E+03;
  6.7167312E-01;  9.9999998E-03; -2.7013031E-01;6536;  2.0316955E-02;  0.0000000E+00; -4.6470250E-05;  9.9833936E+02;  1.0811607E-01; -1.3758129E+03;3; -4.5458717E+00;  0.0000000E+00; -3.6283879E+00;0; -2.7467601E-02;  3.4120867E+04;  0.0000000E+00; -4.5751562E+00;  4.0000000E+04;  0.0000000E+00;  3.9964984E+04; -3.0228898E-02;  0.0000000E+00;  2.7612962E-03;  8.0447051E+03;
  6.7164212E-01;  9.9999998E-03; -2.6011914E-01;6537;  2.0532638E-02;  0.0000000E+00;  7.9424462E-05;  9.9855103E+02;  1.0811608E-01; -1.2004598E+03;3; -4.4520497E+00;  0.0000000E+00; -3.5110478E+00;0; -2.8079554E-02;  3.4136449E+04;  0.0000000E+00; -2.5094702E+00;  4.0000000E+04;  0.0000000E+00;  3.9962656E+04; -3.0009139E-02;  0.0000000E+00;  1.9295842E-03;  4.7783311E+03;
  6.7164630E-01;  9.9999998E-03; -2.5010723E-01;6538;  2.0763850E-02;  0.0000000E+00;  1.3190699E-04;  9.9877405E+02;  1.0811627E-01; -1.0156749E+03;3; -4.3752208E+00;  0.0000000E+00; -3.4227808E+00;0; -2.7957087E-02;  3.4151867E+04;  0.0000000E+00; -1.1096520E+00;  4.0000000E+04;  0.0000000E+00;  3.9960754E+04; -2.9799502E-02;  0.0000000E+00;  1.8424151E-03;  2.6943298E+03;
  6.7166042E-01;  9.9999998E-03; -2.4009715E-01;6539;  2.1005070E-02;  0.0000000E+00;  1.7745924E-04;  9.9899121E+02;  1.0811513E-01; -8.3577875E+02;3; -4.3240757E+00;  0.0000000E+00; -3.3348498E+00;0; -2.7913315E-02;  3.4167645E+04;  0.0000000E+00; -3.3249161E-01;  4.0000000E+04;  0.0000000E+00;  3.9958020E+04; -2.9605994E-02;  0.0000000E+00;  1.6926789E-03;  1.6126179E+03;
  6.7167610E-01;  9.9999998E-03; -2.3009609E-01;6540;  2.1258051E-02;  0.0000000E+00;  2.1776068E-04;  9.9918408E+02;  1.0811218E-01; -6.7598083E+02;3; -4.2901931E+00;  0.0000000E+00; -3.2718639E+00;0; -2.7975326E-02;  3.4184809E+04;  0.0000000E+00;  1.3472538E-02;  4.0000000E+04;  0.0000000E+00;  3.9953445E+04; -2.9437358E-02;  0.0000000E+00;  1.4620303E-03;  9.0768799E+02;
  6.7168826E-01;  9.9999998E-03; -2.2009179E-01;6541;  2.1524118E-02;  0.0000000E+00;  1.9909578E-04;  9.9940704E+02;  1.0810775E-01; -4.9124533E+02;3; -4.2810111E+00;  0.0000000E+00; -3.2128479E+00;0; -2.8030643E-02;  3.4202461E+04;  0.0000000E+00;  1.0868131E-01;  4.0000000E+04;  0.0000000E+00;  3.9951922E+04; -2.9302670E-02;  0.0000000E+00;  1.2720264E-03;  6.7989270E+02;
  6.7169511E-01;  9.9999998E-03; -2.1006998E-01;6542;  2.1805871E-02;  0.0000000E+00;  1.7349444E-04;  9.9963922E+02;  1.0810217E-01; -2.9890509E+02;3; -4.2931476E+00;  0.0000000E+00; -3.1581264E+00;0; -2.8253417E-02;  3.4219672E+04;  0.0000000E+00;  8.2295336E-02;  4.0000000E+04;  0.0000000E+00;  3.9952684E+04; -2.9210722E-02;  0.0000000E+00;  9.5730554E-04;  7.5534698E+02;
  6.7169785E-01;  9.9999998E-03; -2.0004231E-01;6543;  2.2106446E-02;  0.0000000E+00;  1.6193397E-04;  9.9984015E+02;  1.0809516E-01; -1.3244069E+02;3; -4.3290038E+00;  0.0000000E+00; -3.1007590E+00;0; -2.8605061E-02;  3.4236020E+04;  0.0000000E+00;  1.0108991E-02;  4.0000000E+04;  0.0000000E+00;  3.9952934E+04; -2.9168768E-02;  0.0000000E+00;  5.6370691E-04;  7.5611926E+02;
  6.7169666E-01;  9.9999998E-03; -1.9001816E-01;6544;  2.2426179E-02;  0.0000000E+00;  1.5347377E-04;  9.9999078E+02;  1.0808740E-01; -7.6541038E+00;3; -4.3886113E+00;  0.0000000E+00; -3.0430963E+00;0; -2.9021699E-02;  3.4250523E+04;  0.0000000E+00; -7.2137006E-02;  4.0000000E+04;  0.0000000E+00;  3.9952414E+04; -2.9181030E-02;  0.0000000E+00;  1.5933080E-04;  6.8787000E+02;
  6.7169434E-01;  9.9999998E-03; -1.7999908E-01;6545;  2.2764720E-02;  0.0000000E+00;  1.4321151E-04;  1.0001055E+03;  1.0807878E-01;  8.7404930E+01;3; -4.4709492E+00;  0.0000000E+00; -2.9789805E+00;0; -2.9472092E-02;  3.4262730E+04;  0.0000000E+00; -1.5209822E-01;  4.0000000E+04;  0.0000000E+00;  3.9951738E+04; -2.9248260E-02;  0.0000000E+00; -2.2383306E-04;  6.4282068E+02;
  6.7169321E-01;  9.9999998E-03; -1.6998424E-01;6546;  2.3121279E-02;  0.0000000E+00;  1.3086764E-04;  1.0001808E+03;  1.0807087E-01;  1.4982291E+02;3; -4.5691938E+00;  0.0000000E+00; -2.9053183E+00;0; -2.9931895E-02;  3.4272816E+04;  0.0000000E+00; -2.2920175E-01;  4.0000000E+04;  0.0000000E+00;  3.9951352E+04; -2.9366808E-02;  0.0000000E+00; -5.6508742E-04;  6.5977850E+02;
  6.7169601E-01;  9.9999998E-03; -1.5997240E-01;6547;  2.3493959E-02;  0.0000000E+00;  1.1703136E-04;  1.0002267E+03;  1.0806111E-01;  1.8784653E+02;3; -4.6823530E+00;  0.0000000E+00; -2.8239529E+00;0; -3.0376676E-02;  3.4280465E+04;  0.0000000E+00; -3.0588242E-01;  4.0000000E+04;  0.0000000E+00;  3.9951477E+04; -2.9528614E-02;  0.0000000E+00; -8.4806222E-04;  7.3380829E+02;
  6.7170340E-01;  9.9999998E-03; -1.4996278E-01;6548;  2.3879344E-02;  0.0000000E+00;  1.0249238E-04;  1.0002358E+03;  1.0805163E-01;  1.9535248E+02;3; -4.8063197E+00;  0.0000000E+00; -2.7331729E+00;0; -3.0783711E-02;  3.4286258E+04;  0.0000000E+00; -3.8174003E-01;  4.0000000E+04;  0.0000000E+00;  3.9951754E+04; -2.9722041E-02;  0.0000000E+00; -1.0616713E-03;  8.4536066E+02;
  6.7171478E-01;  9.9999998E-03; -1.3995507E-01;6549;  2.4272855E-02;  0.0000000E+00;  8.7691828E-05;  1.0002281E+03;  1.0804205E-01;  1.8893291E+02;3; -4.9382129E+00;  0.0000000E+00; -2.6331604E+00;0; -3.1134818E-02;  3.4290184E+04;  0.0000000E+00; -4.5070159E-01;  4.0000000E+04;  0.0000000E+00;  3.9952059E+04; -2.9932939E-02;  0.0000000E+00; -1.2018791E-03;  9.7399609E+02;
  6.7172855E-01;  9.9999998E-03; -1.2994936E-01;6550;  2.4668625E-02;  0.0000000E+00;  7.3424453E-05;  1.0001973E+03;  1.0803253E-01;  1.6345215E+02;3; -5.0741200E+00;  0.0000000E+00; -2.5258763E+00;0; -3.1419322E-02;  3.4293230E+04;  0.0000000E+00; -5.0286317E-01;  4.0000000E+04;  0.0000000E+00;  3.9952934E+04; -3.0147087E-02;  0.0000000E+00; -1.2722362E-03;  1.1026478E+03;
  6.7174381E-01;  9.9999998E-03; -1.1994594E-01;6551;  2.5060549E-02;  0.0000000E+00;  6.0435585E-05;  1.0001689E+03;  1.0802379E-01;  1.3994666E+02;3; -5.2041955E+00;  0.0000000E+00; -2.4062793E+00;0; -3.1633168E-02;  3.4295734E+04;  0.0000000E+00; -5.2967948E-01;  4.0000000E+04;  0.0000000E+00;  3.9953914E+04; -3.0352019E-02;  0.0000000E+00; -1.2811500E-03;  1.2217657E+03;
  6.7175931E-01;  9.9999998E-03; -1.0994499E-01;6552;  2.5442164E-02;  0.0000000E+00;  4.9395538E-05;  1.0001396E+03;  1.0801467E-01;  1.1565104E+02;3; -5.3252134E+00;  0.0000000E+00; -2.2687626E+00;0; -3.1775624E-02;  3.4298219E+04;  0.0000000E+00; -5.2676964E-01;  4.0000000E+04;  0.0000000E+00;  3.9955273E+04; -3.0537590E-02;  0.0000000E+00; -1.2380347E-03;  1.3278579E+03;
  6.8206614E-01;  9.9999998E-03; -2.7017859E-01;6597;  2.0005012E-02;  0.0000000E+00; -4.0797956E-04;  9.9829736E+02;  1.1035354E-01; -1.4106267E+03;3; -4.6035800E+00;  0.0000000E+00; -3.8215189E+00;0; -2.9176181E-02;  3.2755617E+04;  0.0000000E+00; -5.9857783E+00;  4.0000000E+04;  0.0000000E+00;  3.9951023E+04; -3.2610890E-02;  0.0000000E+00;  3.4347083E-03;  1.0733733E+04;
  6.8196070E-01;  9.9999998E-03; -2.6016834E-01;6598;  2.0225769E-02;  0.0000000E+00; -2.9830498E-04;  9.9851196E+02;  1.1034176E-01; -1.2328046E+03;3; -4.5238671E+00;  0.0000000E+00; -3.7277660E+00;0; -2.9572017E-02;  3.2776859E+04;  0.0000000E+00; -3.4958961E+00;  4.0000000E+04;  0.0000000E+00;  3.9948664E+04; -3.2479204E-02;  0.0000000E+00;  2.9071865E-03;  6.5821084E+03;
  6.8191701E-01;  9.9999998E-03; -2.5015882E-01;6599;  2.0465288E-02;  0.0000000E+00; -2.3133733E-04;  9.9872314E+02;  1.1033082E-01; -1.0578466E+03;3; -4.4636035E+00;  0.0000000E+00; -3.6355262E+00;0; -2.9587302E-02;  3.2797168E+04;  0.0000000E+00; -1.6897146E+00;  4.0000000E+04;  0.0000000E+00;  3.9946711E+04; -3.2367889E-02;  0.0000000E+00;  2.7805855E-03;  3.6349365E+03;
  6.8193620E-01;  9.9999998E-03; -2.4015358E-01;6600;  2.0715015E-02;  0.0000000E+00; -1.6669459E-04;  9.9891888E+02;  1.1032353E-01; -8.9567828E+02;3; -4.4260807E+00;  0.0000000E+00; -3.5172002E+00;0; -2.9703522E-02;  3.2814625E+04;  0.0000000E+00; -5.8875012E-01;  4.0000000E+04;  0.0000000E+00;  3.9943562E+04; -3.2289255E-02;  0.0000000E+00;  2.5857340E-03;  1.8799789E+03;
  6.8195099E-01;  9.9999998E-03; -2.3015982E-01;6601;  2.0975640E-02;  0.0000000E+00; -1.2117555E-04;  9.9910474E+02;  1.1031590E-01; -7.4170734E+02;3; -4.4048529E+00;  0.0000000E+00; -3.4481182E+00;0; -2.9857766E-02;  3.2832660E+04;  0.0000000E+00; -4.7718555E-02;  4.0000000E+04;  0.0000000E+00;  3.9939086E+04; -3.2235358E-02;  0.0000000E+00;  2.3775920E-03;  8.7115143E+02;
  6.8194789E-01;  9.9999998E-03; -2.2015630E-01;6602;  2.1244805E-02;  0.0000000E+00; -1.4792745E-04;  9.9934088E+02;  1.1030684E-01; -5.4605859E+02;3; -4.4053946E+00;  0.0000000E+00; -3.3911819E+00;0; -2.9989675E-02;  3.2851648E+04;  0.0000000E+00;  1.6027096E-01;  4.0000000E+04;  0.0000000E+00;  3.9938918E+04; -3.2211322E-02;  0.0000000E+00;  2.2216486E-03;  7.7501672E+02;
  6.8193132E-01;  9.9999998E-03; -2.1012430E-01;6603;  2.1526389E-02;  0.0000000E+00; -1.7049804E-04;  9.9959918E+02;  1.1029662E-01; -3.3208936E+02;3; -4.4274178E+00;  0.0000000E+00; -3.3487396E+00;0; -3.0323613E-02;  3.2870270E+04;  0.0000000E+00;  1.9834399E-01;  4.0000000E+04;  0.0000000E+00;  3.9941266E+04; -3.2223828E-02;  0.0000000E+00;  1.9002148E-03;  1.0865800E+03;
  6.8191135E-01;  9.9999998E-03; -2.0008391E-01;6604;  2.1825753E-02;  0.0000000E+00; -1.6437759E-04;  9.9980481E+02;  1.1028607E-01; -1.6172382E+02;3; -4.4766650E+00;  0.0000000E+00; -3.2734578E+00;0; -3.0786833E-02;  3.2887785E+04;  0.0000000E+00;  1.6147161E-01;  4.0000000E+04;  0.0000000E+00;  3.9942324E+04; -3.2278549E-02;  0.0000000E+00;  1.4917168E-03;  1.1550490E+03;
  6.8189049E-01;  9.9999998E-03; -1.9004993E-01;6605;  2.2144074E-02;  0.0000000E+00; -1.5383439E-04;  9.9995258E+02;  1.1027415E-01; -3.9307526E+01;3; -4.5448279E+00;  0.0000000E+00; -3.1947899E+00;0; -3.1292740E-02;  3.2903496E+04;  0.0000000E+00;  9.5830545E-02;  4.0000000E+04;  0.0000000E+00;  3.9941449E+04; -3.2377765E-02;  0.0000000E+00;  1.0850247E-03;  1.0263124E+03;
  6.8187082E-01;  9.9999998E-03; -1.8002346E-01;6606;  2.2480397E-02;  0.0000000E+00; -1.4718181E-04;  1.0000536E+03;  1.1026178E-01;  4.4443184E+01;3; -4.6339669E+00;  0.0000000E+00; -3.1106701E+00;0; -3.1809870E-02;  3.2916703E+04;  0.0000000E+00;  2.0195624E-02;  4.0000000E+04;  0.0000000E+00;  3.9940504E+04; -3.2520916E-02;  0.0000000E+00;  7.1104744E-04;  8.6891766E+02;
  6.8185371E-01;  9.9999998E-03; -1.7000321E-01;6607;  2.2833565E-02;  0.0000000E+00; -1.4468457E-04;  1.0001093E+03;  1.1024835E-01;  9.0565331E+01;3; -4.7409716E+00;  0.0000000E+00; -3.0269053E+00;0; -3.2314546E-02;  3.2927133E+04;  0.0000000E+00; -5.9729334E-02;  4.0000000E+04;  0.0000000E+00;  3.9939742E+04; -3.2703776E-02;  0.0000000E+00;  3.8922907E-04;  7.6768097E+02;
  6.8184048E-01;  9.9999998E-03; -1.5998758E-01;6608;  2.3201844E-02;  0.0000000E+00; -1.4482717E-04;  1.0001249E+03;  1.1023516E-01;  1.0350323E+02;3; -4.8621125E+00;  0.0000000E+00; -2.9414356E+00;0; -3.2782096E-02;  3.2935219E+04;  0.0000000E+00; -1.4278606E-01;  4.0000000E+04;  0.0000000E+00;  3.9938891E+04; -3.2918997E-02;  0.0000000E+00;  1.3690146E-04;  7.4985260E+02;
  6.8183124E-01;  9.9999998E-03; -1.4997444E-01;6609;  2.3582201E-02;  0.0000000E+00; -1.4663005E-04;  1.0001011E+03;  1.1022166E-01;  8.3750710E+01;3; -4.9936585E+00;  0.0000000E+00; -2.8474276E+00;0; -3.3189654E-02;  3.2940395E+04;  0.0000000E+00; -2.2702803E-01;  4.0000000E+04;  0.0000000E+00;  3.9939043E+04; -3.3156544E-02;  0.0000000E+00; -3.3108896E-05;  8.0748230E+02;
  6.8182468E-01;  9.9999998E-03; -1.3996328E-01;6610;  2.3970397E-02;  0.0000000E+00; -1.4902935E-04;  1.0000447E+03;  1.1020774E-01;  3.7035988E+01;3; -5.1311669E+00;  0.0000000E+00; -2.7428956E+00;0; -3.3520557E-02;  3.2943781E+04;  0.0000000E+00; -3.0665383E-01;  4.0000000E+04;  0.0000000E+00;  3.9939121E+04; -3.3404976E-02;  0.0000000E+00; -1.1557904E-04;  9.1455066E+02;
  6.8181974E-01;  9.9999998E-03; -1.2995465E-01;6611;  2.4361165E-02;  0.0000000E+00; -1.5121768E-04;  9.9997028E+02;  1.1019445E-01; -2.4641277E+01;3; -5.2716813E+00;  0.0000000E+00; -2.6298783E+00;0; -3.3767112E-02;  3.2945445E+04;  0.0000000E+00; -3.7225175E-01;  4.0000000E+04;  0.0000000E+00;  3.9939902E+04; -3.3652939E-02;  0.0000000E+00; -1.1417102E-04;  1.0437911E+03;
  6.8181539E-01;  9.9999998E-03; -1.1994889E-01;6612;  2.4748521E-02;  0.0000000E+00; -1.5249687E-04;  9.9988477E+02;  1.1018089E-01; -9.5454086E+01;3; -5.4105463E+00;  0.0000000E+00; -2.5116839E+00;0; -3.3929039E-02;  3.2946660E+04;  0.0000000E+00; -4.1488969E-01;  4.0000000E+04;  0.0000000E+00;  3.9940953E+04; -3.3890404E-02;  0.0000000E+00; -3.8633774E-05;  1.1758700E+03;
  6.8181086E-01;  9.9999998E-03; -1.0994615E-01;6613;  2.5126379E-02;  0.0000000E+00; -1.5171451E-04;  9.9980029E+02;  1.1016810E-01; -1.6547679E+02;3; -5.5404620E+00;  0.0000000E+00; -2.3789639E+00;0; -3.4009982E-02;  3.2947434E+04;  0.0000000E+00; -4.2918026E-01;  4.0000000E+04;  0.0000000E+00;  3.9942074E+04; -3.4109365E-02;  0.0000000E+00;  9.9384830E-05;  1.2990486E+03;
  6.9350994E-01;  9.9999998E-03; -2.7023369E-01;6658;  1.9645235E-02;  0.0000000E+00; -7.5931178E-04;  9.9811475E+02;  1.1302149E-01; -1.5618816E+03;3; -4.6586199E+00;  0.0000000E+00; -4.0055408E+00;0; -3.1834278E-02;  3.1229020E+04;  0.0000000E+00; -5.0606751E+00;  4.0000000E+04;  0.0000000E+00;  3.9935223E+04; -3.5227451E-02;  0.0000000E+00;  3.3931728E-03;  9.8201963E+03;
  6.9326293E-01;  9.9999998E-03; -2.6022243E-01;6659;  1.9873217E-02;  0.0000000E+00; -6.9709239E-04;  9.9828021E+02;  1.1297819E-01; -1.4247991E+03;3; -4.5938663E+00;  0.0000000E+00; -3.9248188E+00;0; -3.1498428E-02;  3.1262480E+04;  0.0000000E+00; -3.1053865E+00;  4.0000000E+04;  0.0000000E+00;  3.9934035E+04; -3.5181798E-02;  0.0000000E+00;  3.6833698E-03;  6.4294814E+03;
  6.9309193E-01;  9.9999998E-03; -2.5021270E-01;6660;  2.0118594E-02;  0.0000000E+00; -6.4491032E-04;  9.9845703E+02;  1.1294331E-01; -1.2783341E+03;3; -4.5412598E+00;  0.0000000E+00; -3.8600879E+00;0; -3.1342346E-02;  3.1292383E+04;  0.0000000E+00; -1.5532500E+00;  4.0000000E+04;  0.0000000E+00;  3.9932652E+04; -3.5163332E-02;  0.0000000E+00;  3.8209849E-03;  3.8310557E+03;
  6.9296724E-01;  9.9999998E-03; -2.4020925E-01;6661;  2.0374073E-02;  0.0000000E+00; -5.6260172E-04;  9.9863776E+02;  1.1291521E-01; -1.1286100E+03;3; -4.5211926E+00;  0.0000000E+00; -3.7402964E+00;0; -3.1562924E-02;  3.1319514E+04;  0.0000000E+00; -5.5182260E-01;  4.0000000E+04;  0.0000000E+00;  3.9929918E+04; -3.5173677E-02;  0.0000000E+00;  3.6107532E-03;  2.1761409E+03;
  6.9286507E-01;  9.9999998E-03; -2.3021899E-01;6662;  2.0639187E-02;  0.0000000E+00; -4.9745879E-04;  9.9880731E+02;  1.1288901E-01; -9.8812012E+02;3; -4.5157709E+00;  0.0000000E+00; -3.6466126E+00;0; -3.1827524E-02;  3.1345805E+04;  0.0000000E+00;  2.3069233E-03;  4.0000000E+04;  0.0000000E+00;  3.9925227E+04; -3.5213098E-02;  0.0000000E+00;  3.3855718E-03;  1.1406095E+03;
  6.9277346E-01;  9.9999998E-03; -2.2022368E-01;6663;  2.0910375E-02;  0.0000000E+00; -5.1066058E-04;  9.9902985E+02;  1.1286337E-01; -8.0373029E+02;3; -4.5257530E+00;  0.0000000E+00; -3.5986388E+00;0; -3.2055456E-02;  3.1371389E+04;  0.0000000E+00;  2.6232252E-01;  4.0000000E+04;  0.0000000E+00;  3.9924559E+04; -3.5285559E-02;  0.0000000E+00;  3.2301019E-03;  9.9239844E+02;
  6.9269437E-01;  9.9999998E-03; -2.1019451E-01;6664;  2.1189049E-02;  0.0000000E+00; -5.2736502E-04;  9.9928418E+02;  1.1284046E-01; -5.9302020E+02;3; -4.5648422E+00;  0.0000000E+00; -3.5337539E+00;0; -3.2477707E-02;  3.1395148E+04;  0.0000000E+00;  3.5238001E-01;  4.0000000E+04;  0.0000000E+00;  3.9927887E+04; -3.5396196E-02;  0.0000000E+00;  2.9184909E-03;  1.4013007E+03;
  6.9263369E-01;  9.9999998E-03; -2.0015082E-01;6665;  2.1484237E-02;  0.0000000E+00; -5.0855719E-04;  9.9949286E+02;  1.1282057E-01; -4.2013623E+02;3; -4.6227312E+00;  0.0000000E+00; -3.4601550E+00;0; -3.3038020E-02;  3.1416086E+04;  0.0000000E+00;  3.5567874E-01;  4.0000000E+04;  0.0000000E+00;  3.9929285E+04; -3.5546463E-02;  0.0000000E+00;  2.5084445E-03;  1.5561526E+03;
  6.9258851E-01;  9.9999998E-03; -1.9011325E-01;6666;  2.1797985E-02;  0.0000000E+00; -4.8025502E-04;  9.9963177E+02;  1.1280186E-01; -3.0507776E+02;3; -4.7072110E+00;  0.0000000E+00; -3.3638244E+00;0; -3.3630371E-02;  3.1433816E+04;  0.0000000E+00;  3.1724209E-01;  4.0000000E+04;  0.0000000E+00;  3.9928516E+04; -3.5735205E-02;  0.0000000E+00;  2.1048354E-03;  1.4348140E+03;
  6.9255364E-01;  9.9999998E-03; -1.8008515E-01;6667;  2.2129843E-02;  0.0000000E+00; -4.5687854E-04;  9.9971576E+02;  1.1278380E-01; -2.3549950E+02;3; -4.8046331E+00;  0.0000000E+00; -3.2745774E+00;0; -3.4216214E-02;  3.1448156E+04;  0.0000000E+00;  2.5772962E-01;  4.0000000E+04;  0.0000000E+00;  3.9927250E+04; -3.5959315E-02;  0.0000000E+00;  1.7431013E-03;  1.2275190E+03;
  6.9252592E-01;  9.9999998E-03; -1.7006372E-01;6668;  2.2478195E-02;  0.0000000E+00; -4.3904068E-04;  9.9974347E+02;  1.1276562E-01; -2.1253719E+02;3; -4.9200311E+00;  0.0000000E+00; -3.1841180E+00;0; -3.4770776E-02;  3.1459049E+04;  0.0000000E+00;  1.8589124E-01;  4.0000000E+04;  0.0000000E+00;  3.9925969E+04; -3.6213987E-02;  0.0000000E+00;  1.4432115E-03;  1.0382692E+03;
  6.9250411E-01;  9.9999998E-03; -1.6004676E-01;6669;  2.2841090E-02;  0.0000000E+00; -4.2498889E-04;  9.9972266E+02;  1.1274809E-01; -2.2977126E+02;3; -5.0495014E+00;  0.0000000E+00; -3.0805519E+00;0; -3.5268430E-02;  3.1466611E+04;  0.0000000E+00;  1.0634959E-01;  4.0000000E+04;  0.0000000E+00;  3.9925184E+04; -3.6492534E-02;  0.0000000E+00;  1.2241033E-03;  9.0531964E+02;
  6.9248778E-01;  9.9999998E-03; -1.5003240E-01;6670;  2.3215642E-02;  0.0000000E+00; -4.1348164E-04;  9.9965771E+02;  1.1273090E-01; -2.8359689E+02;3; -5.1890554E+00;  0.0000000E+00; -2.9716735E+00;0; -3.5686374E-02;  3.1470842E+04;  0.0000000E+00;  2.3156684E-02;  4.0000000E+04;  0.0000000E+00;  3.9924691E+04; -3.6787417E-02;  0.0000000E+00;  1.1010445E-03;  8.4450934E+02;
  6.9247490E-01;  9.9999998E-03; -1.4001969E-01;6671;  2.3597686E-02;  0.0000000E+00; -4.0385238E-04;  9.9955042E+02;  1.1271386E-01; -3.7248328E+02;3; -5.3348651E+00;  0.0000000E+00; -2.8588834E+00;0; -3.6008645E-02;  3.1472408E+04;  0.0000000E+00; -5.8351189E-02;  4.0000000E+04;  0.0000000E+00;  3.9924758E+04; -3.7089746E-02;  0.0000000E+00;  1.0811015E-03;  8.5864935E+02;
  6.9246256E-01;  9.9999998E-03; -1.3000877E-01;6672;  2.3982260E-02;  0.0000000E+00; -3.9508948E-04;  9.9941840E+02;  1.1269723E-01; -4.8186288E+02;3; -5.4832554E+00;  0.0000000E+00; -2.7385967E+00;0; -3.6229573E-02;  3.1472291E+04;  0.0000000E+00; -1.3063899E-01;  4.0000000E+04;  0.0000000E+00;  3.9924965E+04; -3.7390441E-02;  0.0000000E+00;  1.1608667E-03;  9.3457990E+02;
  6.9244736E-01;  9.9999998E-03; -1.2000007E-01;6673;  2.4363836E-02;  0.0000000E+00; -3.8512357E-04;  9.9926532E+02;  1.1267979E-01; -6.0867407E+02;3; -5.6297131E+00;  0.0000000E+00; -2.6085799E+00;0; -3.6351338E-02;  3.1471221E+04;  0.0000000E+00; -1.8599367E-01;  4.0000000E+04;  0.0000000E+00;  3.9925719E+04; -3.7680615E-02;  0.0000000E+00;  1.3292758E-03;  1.0489055E+03;
  6.9242769E-01;  9.9999998E-03; -1.0999382E-01;6674;  2.4736861E-02;  0.0000000E+00; -3.7270194E-04;  9.9912500E+02;  1.1266281E-01; -7.2491772E+02;3; -5.7693119E+00;  0.0000000E+00; -2.4650421E+00;0; -3.6380738E-02;  3.1470504E+04;  0.0000000E+00; -2.1916479E-01;  4.0000000E+04;  0.0000000E+00;  3.9926891E+04; -3.7952974E-02;  0.0000000E+00;  1.5722367E-03;  1.1782356E+03;
  7.0601058E-01;  9.9999998E-03; -2.7030170E-01;6719;  1.9238049E-02;  0.0000000E+00; -1.2172901E-03;  9.9825623E+02;  1.1626185E-01; -1.4446998E+03;3; -4.6945605E+00;  0.0000000E+00; -4.2030554E+00;0; -3.4111343E-02;  2.9542703E+04;  0.0000000E+00; -3.5614815E+00;  4.0000000E+04;  0.0000000E+00;  3.9913629E+04; -3.8047440E-02;  0.0000000E+00;  3.9360984E-03;  7.8455396E+03;
  7.0568168E-01;  9.9999998E-03; -2.6028901E-01;6720;  1.9469036E-02;  0.0000000E+00; -1.1690113E-03;  9.9832617E+02;  1.1619013E-01; -1.3867261E+03;3; -4.6459069E+00;  0.0000000E+00; -4.1454091E+00;0; -3.3492535E-02;  2.9582082E+04;  0.0000000E+00; -2.1430287E+00;  4.0000000E+04;  0.0000000E+00;  3.9913738E+04; -3.8121723E-02;  0.0000000E+00;  4.6291854E-03;  5.2525620E+03;
  7.0541304E-01;  9.9999998E-03; -2.5027838E-01;6721;  1.9712705E-02;  0.0000000E+00; -1.1129484E-03;  9.9841876E+02;  1.1612611E-01; -1.3100369E+03;3; -4.6171169E+00;  0.0000000E+00; -4.0719109E+00;0; -3.3313852E-02;  2.9619389E+04;  0.0000000E+00; -9.8131180E-01;  4.0000000E+04;  0.0000000E+00;  3.9913406E+04; -3.8224813E-02;  0.0000000E+00;  4.9109617E-03;  3.2622976E+03;
  7.0521933E-01;  9.9999998E-03; -2.4027435E-01;6722;  1.9962801E-02;  0.0000000E+00; -1.0230115E-03;  9.9852832E+02;  1.1607354E-01; -1.2192740E+03;3; -4.6095128E+00;  0.0000000E+00; -3.9831457E+00;0; -3.3605430E-02;  2.9652123E+04;  0.0000000E+00; -1.9154890E-01;  4.0000000E+04;  0.0000000E+00;  3.9911738E+04; -3.8365532E-02;  0.0000000E+00;  4.7601028E-03;  2.0193358E+03;
  7.0504856E-01;  9.9999998E-03; -2.3028593E-01;6723;  2.0221235E-02;  0.0000000E+00; -9.3111699E-04;  9.9863647E+02;  1.1602541E-01; -1.1296470E+03;3; -4.6211824E+00;  0.0000000E+00; -3.8778625E+00;0; -3.4021299E-02;  2.9684205E+04;  0.0000000E+00;  2.5414819E-01;  4.0000000E+04;  0.0000000E+00;  3.9907887E+04; -3.8533624E-02;  0.0000000E+00;  4.5123249E-03;  1.2336615E+03;
  7.0489943E-01;  9.9999998E-03; -2.2031650E-01;6724;  2.0488255E-02;  0.0000000E+00; -8.9080271E-04;  9.9876166E+02;  1.1598013E-01; -1.0259462E+03;3; -4.6545815E+00;  0.0000000E+00; -3.7846987E+00;0; -3.4424189E-02;  2.9715070E+04;  0.0000000E+00;  4.7562072E-01;  4.0000000E+04;  0.0000000E+00;  3.9904227E+04; -3.8730513E-02;  0.0000000E+00;  4.3063252E-03;  8.6481409E+02;
  7.0476103E-01;  9.9999998E-03; -2.1032706E-01;6725;  2.0762937E-02;  0.0000000E+00; -9.0053311E-04;  9.9896521E+02;  1.1593700E-01; -8.5730902E+02;3; -4.7033300E+00;  0.0000000E+00; -3.7229724E+00;0; -3.4909897E-02;  2.9745168E+04;  0.0000000E+00;  5.6433606E-01;  4.0000000E+04;  0.0000000E+00;  3.9906238E+04; -3.8956556E-02;  0.0000000E+00;  4.0466599E-03;  1.1517938E+03;
  7.0465410E-01;  9.9999998E-03; -2.0030582E-01;6726;  2.1049436E-02;  0.0000000E+00; -8.8590436E-04;  9.9917609E+02;  1.1590143E-01; -6.8259790E+02;3; -4.7812743E+00;  0.0000000E+00; -3.6333559E+00;0; -3.5541721E-02;  2.9770934E+04;  0.0000000E+00;  5.8312732E-01;  4.0000000E+04;  0.0000000E+00;  3.9909246E+04; -3.9217565E-02;  0.0000000E+00;  3.6758441E-03;  1.5003427E+03;
  7.0457900E-01;  9.9999998E-03; -1.9027632E-01;6727;  2.1354286E-02;  0.0000000E+00; -8.5051701E-04;  9.9931805E+02;  1.1587207E-01; -5.6497162E+02;3; -4.8743548E+00;  0.0000000E+00; -3.5407519E+00;0; -3.6219586E-02;  2.9791842E+04;  0.0000000E+00;  5.6525022E-01;  4.0000000E+04;  0.0000000E+00;  3.9910297E+04; -3.9510902E-02;  0.0000000E+00;  3.2913152E-03;  1.6046205E+03;
  7.0452338E-01;  9.9999998E-03; -1.8025173E-01;6728;  2.1678340E-02;  0.0000000E+00; -8.1330253E-04;  9.9940039E+02;  1.1584578E-01; -4.9677603E+02;3; -4.9888921E+00;  0.0000000E+00; -3.4420710E+00;0; -3.6881395E-02;  2.9808666E+04;  0.0000000E+00;  5.2603984E-01;  4.0000000E+04;  0.0000000E+00;  3.9910055E+04; -3.9830301E-02;  0.0000000E+00;  2.9489065E-03;  1.5267419E+03;
  7.0448852E-01;  9.9999998E-03; -1.7023313E-01;6729;  2.2019600E-02;  0.0000000E+00; -7.8033359E-04;  9.9942407E+02;  1.1582267E-01; -4.7712228E+02;3; -5.1165438E+00;  0.0000000E+00; -3.3394618E+00;0; -3.7496474E-02;  2.9820396E+04;  0.0000000E+00;  4.7249097E-01;  4.0000000E+04;  0.0000000E+00;  3.9909055E+04; -4.0173806E-02;  0.0000000E+00;  2.6773326E-03;  1.3772653E+03;
  7.0447069E-01;  9.9999998E-03; -1.6021931E-01;6730;  2.2375725E-02;  0.0000000E+00; -7.5195322E-04;  9.9937640E+02;  1.1580241E-01; -5.1662732E+02;3; -5.2556043E+00;  0.0000000E+00; -3.2302399E+00;0; -3.8036671E-02;  2.9827127E+04;  0.0000000E+00;  4.0938544E-01;  4.0000000E+04;  0.0000000E+00;  3.9908156E+04; -4.0536284E-02;  0.0000000E+00;  2.4996123E-03;  1.2193586E+03;
  7.0446807E-01;  9.9999998E-03; -1.5020791E-01;6731;  2.2743180E-02;  0.0000000E+00; -7.2734873E-04;  9.9927637E+02;  1.1578504E-01; -5.9953857E+02;3; -5.4057751E+00;  0.0000000E+00; -3.1148608E+00;0; -3.8478516E-02;  2.9828932E+04;  0.0000000E+00;  3.4143329E-01;  4.0000000E+04;  0.0000000E+00;  3.9907355E+04; -4.0912792E-02;  0.0000000E+00;  2.4342751E-03;  1.0883341E+03;
  7.0447850E-01;  9.9999998E-03; -1.4019698E-01;6732;  2.3117561E-02;  0.0000000E+00; -7.0640584E-04;  9.9912189E+02;  1.1577030E-01; -7.2748553E+02;3; -5.5624442E+00;  0.0000000E+00; -2.9966123E+00;0; -3.8806744E-02;  2.9826516E+04;  0.0000000E+00;  2.7266032E-01;  4.0000000E+04;  0.0000000E+00;  3.9907227E+04; -4.1297808E-02;  0.0000000E+00;  2.4910658E-03;  1.0067277E+03;
  7.0449626E-01;  9.9999998E-03; -1.3018602E-01;6733;  2.3494292E-02;  0.0000000E+00; -6.8696460E-04;  9.9893439E+02;  1.1575778E-01; -8.8283917E+02;3; -5.7203388E+00;  0.0000000E+00; -2.8727999E+00;0; -3.9016694E-02;  2.9820896E+04;  0.0000000E+00;  2.0690829E-01;  4.0000000E+04;  0.0000000E+00;  3.9907105E+04; -4.1684367E-02;  0.0000000E+00;  2.6676727E-03;  9.8726147E+02;
  7.0451617E-01;  9.9999998E-03; -1.2017480E-01;6734;  2.3868164E-02;  0.0000000E+00; -6.6673459E-04;  9.9872784E+02;  1.1574624E-01; -1.0539454E+03;3; -5.8763337E+00;  0.0000000E+00; -2.7410769E+00;0; -3.9112780E-02;  2.9813551E+04;  0.0000000E+00;  1.4839900E-01;  4.0000000E+04;  0.0000000E+00;  3.9907688E+04; -4.2065214E-02;  0.0000000E+00;  2.9524351E-03;  1.0298405E+03;
  7.0453215E-01;  9.9999998E-03; -1.1016364E-01;6735;  2.4233568E-02;  0.0000000E+00; -6.4384617E-04;  9.9851660E+02;  1.1573510E-01; -1.2289528E+03;3; -6.0281100E+00;  0.0000000E+00; -2.5977700E+00;0; -3.9103832E-02;  2.9806061E+04;  0.0000000E+00;  1.0032853E-01;  4.0000000E+04;  0.0000000E+00;  3.9908230E+04; -4.2432450E-02;  0.0000000E+00;  3.3286174E-03;  1.1202709E+03;
  7.1811002E-01;  9.9999998E-03; -2.7037296E-01;6780;  1.8809805E-02;  0.0000000E+00; -1.7699312E-03;  9.9855499E+02;  1.1973206E-01; -1.1971512E+03;3; -4.6995783E+00;  0.0000000E+00; -4.4016933E+00;0; -3.5212256E-02;  2.7893807E+04;  0.0000000E+00; -3.9616275E+00;  4.0000000E+04;  0.0000000E+00;  3.9890195E+04; -4.0682167E-02;  0.0000000E+00;  5.4699103E-03;  8.9708252E+03;
  7.1800435E-01;  9.9999998E-03; -2.6036036E-01;6781;  1.9025510E-02;  0.0000000E+00; -1.7215688E-03;  9.9858496E+02;  1.1970442E-01; -1.1723124E+03;3; -4.6733389E+00;  0.0000000E+00; -4.3607845E+00;0; -3.4847084E-02;  2.7907166E+04;  0.0000000E+00; -2.2241631E+00;  4.0000000E+04;  0.0000000E+00;  3.9890895E+04; -4.0952876E-02;  0.0000000E+00;  6.1057918E-03;  5.6217939E+03;
  7.1782428E-01;  9.9999998E-03; -2.5034952E-01;6782;  1.9253051E-02;  0.0000000E+00; -1.6326442E-03;  9.9861505E+02;  1.1964690E-01; -1.1474242E+03;3; -4.6639948E+00;  0.0000000E+00; -4.3030014E+00;0; -3.5081170E-02;  2.7935311E+04;  0.0000000E+00; -9.3590790E-01;  4.0000000E+04;  0.0000000E+00;  3.9891238E+04; -4.1233175E-02;  0.0000000E+00;  6.1520045E-03;  3.2418430E+03;
  7.1766388E-01;  9.9999998E-03; -2.4034481E-01;6783;  1.9487400E-02;  0.0000000E+00; -1.5210172E-03;  9.9867261E+02;  1.1959382E-01; -1.0997219E+03;3; -4.6824436E+00;  0.0000000E+00; -4.2052903E+00;0; -3.5594132E-02;  2.7963232E+04;  0.0000000E+00; -1.1419973E-01;  4.0000000E+04;  0.0000000E+00;  3.9890395E+04; -4.1542523E-02;  0.0000000E+00;  5.9483894E-03;  1.8949407E+03;
  7.1752775E-01;  9.9999998E-03; -2.3035303E-01;6784;  1.9732399E-02;  0.0000000E+00; -1.4244268E-03;  9.9875964E+02;  1.1954912E-01; -1.0276251E+03;3; -4.7157116E+00;  0.0000000E+00; -4.1119180E+00;0; -3.6141627E-02;  2.7989049E+04;  0.0000000E+00;  3.5101065E-01;  4.0000000E+04;  0.0000000E+00;  3.9887840E+04; -4.1879680E-02;  0.0000000E+00;  5.7380549E-03;  1.2635605E+03;
  7.1740329E-01;  9.9999998E-03; -2.2039033E-01;6785;  1.9987484E-02;  0.0000000E+00; -1.3419973E-03;  9.9885309E+02;  1.1950796E-01; -9.5019525E+02;3; -4.7671747E+00;  0.0000000E+00; -4.0135608E+00;0; -3.6756281E-02;  2.8014943E+04;  0.0000000E+00;  5.8899641E-01;  4.0000000E+04;  0.0000000E+00;  3.9883816E+04; -4.2239513E-02;  0.0000000E+00;  5.4832334E-03;  8.9611169E+02;
  7.1729082E-01;  9.9999998E-03; -2.1043043E-01;6786;  2.0252844E-02;  0.0000000E+00; -1.3202335E-03;  9.9901147E+02;  1.1946791E-01; -8.1898914E+02;3; -4.8389606E+00;  0.0000000E+00; -3.9261749E+00;0; -3.7383787E-02;  2.8040660E+04;  0.0000000E+00;  6.9606107E-01;  4.0000000E+04;  0.0000000E+00;  3.9883746E+04; -4.2621162E-02;  0.0000000E+00;  5.2373745E-03;  1.0712115E+03;
  7.1718776E-01;  9.9999998E-03; -2.0043612E-01;6787;  2.0529982E-02;  0.0000000E+00; -1.2952593E-03;  9.9921552E+02;  1.1942969E-01; -6.4990747E+02;3; -4.9315639E+00;  0.0000000E+00; -3.8311541E+00;0; -3.8117260E-02;  2.8065436E+04;  0.0000000E+00;  7.3321176E-01;  4.0000000E+04;  0.0000000E+00;  3.9887387E+04; -4.3023396E-02;  0.0000000E+00;  4.9061351E-03;  1.4511572E+03;
  7.1710604E-01;  9.9999998E-03; -1.9041874E-01;6788;  2.0825766E-02;  0.0000000E+00; -1.2492895E-03;  9.9937970E+02;  1.1939494E-01; -5.1391138E+02;3; -5.0427732E+00;  0.0000000E+00; -3.7305889E+00;0; -3.8890924E-02;  2.8087393E+04;  0.0000000E+00;  7.3449230E-01;  4.0000000E+04;  0.0000000E+00;  3.9889930E+04; -4.3445151E-02;  0.0000000E+00;  4.5542279E-03;  1.6994371E+03;
  7.1705753E-01;  9.9999998E-03; -1.8039504E-01;6789;  2.1141175E-02;  0.0000000E+00; -1.1992576E-03;  9.9947833E+02;  1.1936641E-01; -4.3218527E+02;3; -5.1742663E+00;  0.0000000E+00; -3.6177261E+00;0; -3.9640866E-02;  2.8104357E+04;  0.0000000E+00;  7.1641207E-01;  4.0000000E+04;  0.0000000E+00;  3.9890402E+04; -4.3886796E-02;  0.0000000E+00;  4.2459299E-03;  1.7432079E+03;
  7.1704215E-01;  9.9999998E-03; -1.7037362E-01;6790;  2.1474952E-02;  0.0000000E+00; -1.1546364E-03;  9.9950983E+02;  1.1934421E-01; -4.0611194E+02;3; -5.3174009E+00;  0.0000000E+00; -3.5069737E+00;0; -4.0329367E-02;  2.8115283E+04;  0.0000000E+00;  6.8655020E-01;  4.0000000E+04;  0.0000000E+00;  3.9889629E+04; -4.4346422E-02;  0.0000000E+00;  4.0170541E-03;  1.6631779E+03;
  7.1705616E-01;  9.9999998E-03; -1.6035661E-01;6791;  2.1824189E-02;  0.0000000E+00; -1.1166108E-03;  9.9947009E+02;  1.1932784E-01; -4.3899991E+02;3; -5.4695849E+00;  0.0000000E+00; -3.3966014E+00;0; -4.0925547E-02;  2.8119938E+04;  0.0000000E+00;  6.4983582E-01;  4.0000000E+04;  0.0000000E+00;  3.9888594E+04; -4.4821110E-02;  0.0000000E+00;  3.8955638E-03;  1.5443063E+03;
  7.1709436E-01;  9.9999998E-03; -1.5034395E-01;6792;  2.2184661E-02;  0.0000000E+00; -1.0833715E-03;  9.9936761E+02;  1.1931631E-01; -5.2393573E+02;3; -5.6331553E+00;  0.0000000E+00; -3.2779670E+00;0; -4.1403975E-02;  2.8118537E+04;  0.0000000E+00;  6.1041176E-01;  4.0000000E+04;  0.0000000E+00;  3.9887762E+04; -4.5307688E-02;  0.0000000E+00;  3.9037119E-03;  1.4391368E+03;
  7.1715224E-01;  9.9999998E-03; -1.4033280E-01;6793;  2.2551587E-02;  0.0000000E+00; -1.0546203E-03;  9.9920538E+02;  1.1931024E-01; -6.5830231E+02;3; -5.8013206E+00;  0.0000000E+00; -3.1599071E+00;0; -4.1749574E-02;  2.8111682E+04;  0.0000000E+00;  5.7011527E-01;  4.0000000E+04;  0.0000000E+00;  3.9887164E+04; -4.5803409E-02;  0.0000000E+00;  4.0538334E-03;  1.3710997E+03;
  7.1722263E-01;  9.9999998E-03; -1.3032092E-01;6794;  2.2920249E-02;  0.0000000E+00; -1.0275895E-03;  9.9900330E+02;  1.1930790E-01; -8.2575433E+02;3; -5.9715705E+00;  0.0000000E+00; -3.0326810E+00;0; -4.1958444E-02;  2.8100707E+04;  0.0000000E+00;  5.2795410E-01;  4.0000000E+04;  0.0000000E+00;  3.9887047E+04; -4.6303518E-02;  0.0000000E+00;  4.3450738E-03;  1.3431493E+03;
  7.1729654E-01;  9.9999998E-03; -1.2030785E-01;6795;  2.3285789E-02;  0.0000000E+00; -9.9913822E-04;  9.9878290E+02;  1.1930835E-01; -1.0083665E+03;3; -6.1406913E+00;  0.0000000E+00; -2.9004259E+00;0; -4.2036351E-02;  2.8087416E+04;  0.0000000E+00;  4.8246107E-01;  4.0000000E+04;  0.0000000E+00;  3.9887215E+04; -4.6801552E-02;  0.0000000E+00;  4.7652014E-03;  1.3504424E+03;
  7.1736550E-01;  9.9999998E-03; -1.1029338E-01;6796;  2.3642818E-02;  0.0000000E+00; -9.6749444E-04;  9.9855316E+02;  1.1930906E-01; -1.1986820E+03;3; -6.3057680E+00;  0.0000000E+00; -2.7618475E+00;0; -4.1994773E-02;  2.8073471E+04;  0.0000000E+00;  4.3265209E-01;  4.0000000E+04;  0.0000000E+00;  3.9887844E+04; -4.7289748E-02;  0.0000000E+00;  5.2949763E-03;  1.3868175E+03;
  7.2957540E-01;  9.9999998E-03; -2.7043679E-01;6841;  1.8332990E-02;  0.0000000E+00; -2.3916848E-03;  9.9839124E+02;  1.2324660E-01; -1.3328511E+03;3; -4.6819177E+00;  0.0000000E+00; -4.5589867E+00;0; -3.5160087E-02;  2.6333014E+04;  0.0000000E+00; -3.9405739E+00;  4.0000000E+04;  0.0000000E+00;  3.9873121E+04; -4.3016508E-02;  0.0000000E+00;  7.8564230E-03;  9.2512148E+03;
  7.2960019E-01;  9.9999998E-03; -2.6042235E-01;6842;  1.8534133E-02;  0.0000000E+00; -2.3069268E-03;  9.9843616E+02;  1.2325592E-01; -1.2956176E+03;3; -4.6761804E+00;  0.0000000E+00; -4.5494051E+00;0; -3.5577588E-02;  2.6331125E+04;  0.0000000E+00; -2.3712227E+00;  4.0000000E+04;  0.0000000E+00;  3.9873406E+04; -4.3460567E-02;  0.0000000E+00;  7.8829806E-03;  6.1677563E+03;
  7.2962230E-01;  9.9999998E-03; -2.5040978E-01;6843;  1.8737847E-02;  0.0000000E+00; -2.1695902E-03;  9.9848877E+02;  1.2325785E-01; -1.2520139E+03;3; -4.6929379E+00;  0.0000000E+00; -4.4956889E+00;0; -3.6501113E-02;  2.6333848E+04;  0.0000000E+00; -1.1250086E+00;  4.0000000E+04;  0.0000000E+00;  3.9873109E+04; -4.3942351E-02;  0.0000000E+00;  7.4412366E-03;  3.8081780E+03;
  7.2963244E-01;  9.9999998E-03; -2.4040033E-01;6844;  1.8950278E-02;  0.0000000E+00; -2.0458284E-03;  9.9857544E+02;  1.2325632E-01; -1.1802135E+03;3; -4.7298207E+00;  0.0000000E+00; -4.4258332E+00;0; -3.7301194E-02;  2.6339627E+04;  0.0000000E+00; -2.7938947E-01;  4.0000000E+04;  0.0000000E+00;  3.9872297E+04; -4.4455282E-02;  0.0000000E+00;  7.1540889E-03;  2.3947085E+03;
  7.2962141E-01;  9.9999998E-03; -2.3039547E-01;6845;  1.9176990E-02;  0.0000000E+00; -1.9497509E-03;  9.9869775E+02;  1.2324963E-01; -1.0788829E+03;3; -4.7877107E+00;  0.0000000E+00; -4.3320217E+00;0; -3.8035467E-02;  2.6349381E+04;  0.0000000E+00;  2.3126692E-01;  4.0000000E+04;  0.0000000E+00;  3.9871496E+04; -4.4991039E-02;  0.0000000E+00;  6.9555719E-03;  1.8191281E+03;
  7.2957933E-01;  9.9999998E-03; -2.2041821E-01;6846;  1.9416196E-02;  0.0000000E+00; -1.8265472E-03;  9.9881543E+02;  1.2323260E-01; -9.8140430E+02;3; -4.8646374E+00;  0.0000000E+00; -4.2223778E+00;0; -3.8904097E-02;  2.6364805E+04;  0.0000000E+00;  5.1341033E-01;  4.0000000E+04;  0.0000000E+00;  3.9867426E+04; -4.5539912E-02;  0.0000000E+00;  6.6358135E-03;  1.3167233E+03;
  7.2951734E-01;  9.9999998E-03; -2.1045946E-01;6847;  1.9670881E-02;  0.0000000E+00; -1.7579442E-03;  9.9897882E+02;  1.2320583E-01; -8.4605011E+02;3; -4.9636316E+00;  0.0000000E+00; -4.1159315E+00;0; -3.9719902E-02;  2.6384557E+04;  0.0000000E+00;  6.5471321E-01;  4.0000000E+04;  0.0000000E+00;  3.9865426E+04; -4.6098143E-02;  0.0000000E+00;  6.3782418E-03;  1.1967473E+03;
  7.2942972E-01;  9.9999998E-03; -2.0048338E-01;6848;  1.9941665E-02;  0.0000000E+00; -1.7074582E-03;  9.9917725E+02;  1.2316868E-01; -6.8165967E+02;3; -5.0716610E+00;  0.0000000E+00; -4.0223141E+00;0; -4.0573381E-02;  2.6408355E+04;  0.0000000E+00;  7.1627772E-01;  4.0000000E+04;  0.0000000E+00;  3.9866766E+04; -4.6660099E-02;  0.0000000E+00;  6.0867169E-03;  1.4310680E+03;
  7.2931916E-01;  9.9999998E-03; -1.9047904E-01;6849;  2.0233620E-02;  0.0000000E+00; -1.6500606E-03;  9.9936273E+02;  1.2312236E-01; -5.2798505E+02;3; -5.2029786E+00;  0.0000000E+00; -3.9070740E+00;0; -4.1437991E-02;  2.6435287E+04;  0.0000000E+00;  7.3618913E-01;  4.0000000E+04;  0.0000000E+00;  3.9868703E+04; -4.7220744E-02;  0.0000000E+00;  5.7827528E-03;  1.6613239E+03;
  7.2922111E-01;  9.9999998E-03; -1.8046218E-01;6850;  2.0546764E-02;  0.0000000E+00; -1.5911765E-03;  9.9949359E+02;  1.2307692E-01; -4.1954367E+02;3; -5.3516302E+00;  0.0000000E+00; -3.7880795E+00;0; -4.2264212E-02;  2.6460242E+04;  0.0000000E+00;  7.3607004E-01;  4.0000000E+04;  0.0000000E+00;  3.9869332E+04; -4.7785074E-02;  0.0000000E+00;  5.5208611E-03;  1.7358590E+03;
  7.2915584E-01;  9.9999998E-03; -1.7043948E-01;6851;  2.0879271E-02;  0.0000000E+00; -1.5391991E-03;  9.9955103E+02;  1.2303516E-01; -3.7198944E+02;3; -5.5075808E+00;  0.0000000E+00; -3.6750436E+00;0; -4.3014027E-02;  2.6479852E+04;  0.0000000E+00;  7.2782427E-01;  4.0000000E+04;  0.0000000E+00;  3.9868926E+04; -4.8357345E-02;  0.0000000E+00;  5.3433189E-03;  1.7045217E+03;
  7.2913510E-01;  9.9999998E-03; -1.6041562E-01;6852;  2.1227153E-02;  0.0000000E+00; -1.4954043E-03;  9.9954095E+02;  1.2300475E-01; -3.8033490E+02;3; -5.6739450E+00;  0.0000000E+00; -3.5629644E+00;0; -4.3656174E-02;  2.6491561E+04;  0.0000000E+00;  7.1844441E-01;  4.0000000E+04;  0.0000000E+00;  3.9867879E+04; -4.8941080E-02;  0.0000000E+00;  5.2849040E-03;  1.6459391E+03;
  7.2915632E-01;  9.9999998E-03; -1.5039429E-01;6853;  2.1585271E-02;  0.0000000E+00; -1.4567499E-03;  9.9946741E+02;  1.2298491E-01; -4.4122205E+02;3; -5.8508716E+00;  0.0000000E+00; -3.4403579E+00;0; -4.4164367E-02;  2.6495398E+04;  0.0000000E+00;  7.1176207E-01;  4.0000000E+04;  0.0000000E+00;  3.9867199E+04; -4.9536567E-02;  0.0000000E+00;  5.3722016E-03;  1.6151370E+03;
  7.2920972E-01;  9.9999998E-03; -1.4037462E-01;6854;  2.1948714E-02;  0.0000000E+00; -1.4227150E-03;  9.9933490E+02;  1.2297384E-01; -5.5104608E+02;3; -6.0328484E+00;  0.0000000E+00; -3.3221614E+00;0; -4.4522505E-02;  2.6492465E+04;  0.0000000E+00;  7.0726520E-01;  4.0000000E+04;  0.0000000E+00;  3.9866559E+04; -5.0141934E-02;  0.0000000E+00;  5.6194291E-03;  1.6288293E+03;
  7.2928321E-01;  9.9999998E-03; -1.3035551E-01;6855;  2.2312738E-02;  0.0000000E+00; -1.3897836E-03;  9.9916333E+02;  1.2296852E-01; -6.9316553E+02;3; -6.2154942E+00;  0.0000000E+00; -3.1972373E+00;0; -4.4726923E-02;  2.6484373E+04;  0.0000000E+00;  6.9931442E-01;  4.0000000E+04;  0.0000000E+00;  3.9866762E+04; -5.0753154E-02;  0.0000000E+00;  6.0262308E-03;  1.6737810E+03;
  7.2936350E-01;  9.9999998E-03; -1.2033517E-01;6856;  2.2672670E-02;  0.0000000E+00; -1.3535914E-03;  9.9896381E+02;  1.2296773E-01; -8.5844476E+02;3; -6.3973699E+00;  0.0000000E+00; -3.0608265E+00;0; -4.4784579E-02;  2.6473344E+04;  0.0000000E+00;  6.8023813E-01;  4.0000000E+04;  0.0000000E+00;  3.9866941E+04; -5.1364068E-02;  0.0000000E+00;  6.5794890E-03;  1.7277113E+03;
  7.2943962E-01;  9.9999998E-03; -1.1031368E-01;6857;  2.3023253E-02;  0.0000000E+00; -1.3114410E-03;  9.9876404E+02;  1.2296825E-01; -1.0239709E+03;3; -6.5773830E+00;  0.0000000E+00; -2.9139404E+00;0; -4.4709228E-02;  2.6461316E+04;  0.0000000E+00;  6.4388233E-01;  4.0000000E+04;  0.0000000E+00;  3.9867836E+04; -5.1966541E-02;  0.0000000E+00;  7.2573139E-03;  1.7745319E+03;
  7.4152958E-01;  9.9999998E-03; -2.7049738E-01;6902;  1.7762115E-02;  0.0000000E+00; -3.1025035E-03;  9.9768280E+02;  1.2709929E-01; -1.9197480E+03;3; -4.6391969E+00;  0.0000000E+00; -4.6865802E+00;0; -3.4305491E-02;  2.4738008E+04;  0.0000000E+00; -1.8974811E+00;  4.0000000E+04;  0.0000000E+00;  3.9861031E+04; -4.5184758E-02;  0.0000000E+00;  1.0879265E-02;  5.7921621E+03;
  7.4152607E-01;  9.9999998E-03; -2.6047811E-01;6903;  1.7954219E-02;  0.0000000E+00; -2.9497859E-03;  9.9778333E+02;  1.2709917E-01; -1.8364911E+03;3; -4.6558375E+00;  0.0000000E+00; -4.7095838E+00;0; -3.5903919E-02;  2.4742676E+04;  0.0000000E+00; -1.3817157E+00;  4.0000000E+04;  0.0000000E+00;  3.9860945E+04; -4.5785841E-02;  0.0000000E+00;  9.8819202E-03;  4.9220317E+03;
  7.4153906E-01;  9.9999998E-03; -2.5045896E-01;6904;  1.8140815E-02;  0.0000000E+00; -2.7418055E-03;  9.9788245E+02;  1.2709978E-01; -1.7543700E+03;3; -4.6990509E+00;  0.0000000E+00; -4.6733193E+00;0; -3.7683614E-02;  2.4748828E+04;  0.0000000E+00; -7.9843575E-01;  4.0000000E+04;  0.0000000E+00;  3.9859773E+04; -4.6435811E-02;  0.0000000E+00;  8.7521980E-03;  3.9550955E+03;
  7.4154598E-01;  9.9999998E-03; -2.4043703E-01;6905;  1.8338453E-02;  0.0000000E+00; -2.6012969E-03;  9.9801630E+02;  1.2709661E-01; -1.6434596E+03;3; -4.7634082E+00;  0.0000000E+00; -4.6117277E+00;0; -3.8784482E-02;  2.4758072E+04;  0.0000000E+00; -2.8957337E-01;  4.0000000E+04;  0.0000000E+00;  3.9859148E+04; -4.7124747E-02;  0.0000000E+00;  8.3402656E-03;  3.2949448E+03;
  7.4155170E-01;  9.9999998E-03; -2.3040703E-01;6906;  1.8552359E-02;  0.0000000E+00; -2.5052063E-03;  9.9820258E+02;  1.2709397E-01; -1.4891429E+03;3; -4.8438730E+00;  0.0000000E+00; -4.5363126E+00;0; -3.9719384E-02;  2.4768283E+04;  0.0000000E+00;  8.6023122E-02;  4.0000000E+04;  0.0000000E+00;  3.9860172E+04; -4.7846708E-02;  0.0000000E+00;  8.1273243E-03;  3.0973357E+03;
  7.4154365E-01;  9.9999998E-03; -2.2039437E-01;6907;  1.8777251E-02;  0.0000000E+00; -2.3329300E-03;  9.9836749E+02;  1.2708713E-01; -1.3525049E+03;3; -4.9502521E+00;  0.0000000E+00; -4.4147544E+00;0; -4.0878206E-02;  2.4781453E+04;  0.0000000E+00;  3.3057737E-01;  4.0000000E+04;  0.0000000E+00;  3.9856508E+04; -4.8589502E-02;  0.0000000E+00;  7.7112964E-03;  2.5597991E+03;
  7.4151248E-01;  9.9999998E-03; -2.1041229E-01;6908;  1.9022869E-02;  0.0000000E+00; -2.2026158E-03;  9.9852203E+02;  1.2706958E-01; -1.2244591E+03;3; -5.0782499E+00;  0.0000000E+00; -4.2840643E+00;0; -4.1910276E-02;  2.4798799E+04;  0.0000000E+00;  4.7346744E-01;  4.0000000E+04;  0.0000000E+00;  3.9851070E+04; -4.9339853E-02;  0.0000000E+00;  7.4295765E-03;  1.8926616E+03;
  7.4147093E-01;  9.9999998E-03; -2.0044133E-01;6909;  1.9288950E-02;  0.0000000E+00; -2.1235438E-03;  9.9871429E+02;  1.2704642E-01; -1.0652043E+03;3; -5.2071700E+00;  0.0000000E+00; -4.1830268E+00;0; -4.2896688E-02;  2.4818629E+04;  0.0000000E+00;  5.4583943E-01;  4.0000000E+04;  0.0000000E+00;  3.9848309E+04; -5.0093919E-02;  0.0000000E+00;  7.1972315E-03;  1.5565490E+03;
  7.4140733E-01;  9.9999998E-03; -1.9045830E-01;6910;  1.9577773E-02;  0.0000000E+00; -2.0620010E-03;  9.9890631E+02;  1.2701201E-01; -9.0609778E+02;3; -5.3580213E+00;  0.0000000E+00; -4.0696507E+00;0; -4.3868594E-02;  2.4841592E+04;  0.0000000E+00;  5.7480890E-01;  4.0000000E+04;  0.0000000E+00;  3.9847395E+04; -5.0842196E-02;  0.0000000E+00;  6.9736019E-03;  1.4800968E+03;
  7.4133241E-01;  9.9999998E-03; -1.8045726E-01;6911;  1.9889535E-02;  0.0000000E+00; -2.0054134E-03;  9.9906720E+02;  1.2696826E-01; -7.7281757E+02;3; -5.5239186E+00;  0.0000000E+00; -3.9545269E+00;0; -4.4790987E-02;  2.4865844E+04;  0.0000000E+00;  5.8280236E-01;  4.0000000E+04;  0.0000000E+00;  3.9846848E+04; -5.1581647E-02;  0.0000000E+00;  6.7906599E-03;  1.4556053E+03;
  7.4128485E-01;  9.9999998E-03; -1.7045118E-01;6912;  2.0220326E-02;  0.0000000E+00; -1.9547739E-03;  9.9918329E+02;  1.2692876E-01; -6.7662280E+02;3; -5.6956434E+00;  0.0000000E+00; -3.8406546E+00;0; -4.5624528E-02;  2.4886105E+04;  0.0000000E+00;  5.8671367E-01;  4.0000000E+04;  0.0000000E+00;  3.9846293E+04; -5.2319665E-02;  0.0000000E+00;  6.6951369E-03;  1.4191859E+03;
  7.4126345E-01;  9.9999998E-03; -1.6044080E-01;6913;  2.0566791E-02;  0.0000000E+00; -1.9109821E-03;  9.9922638E+02;  1.2689398E-01; -6.4092010E+02;3; -5.8778391E+00;  0.0000000E+00; -3.7332208E+00;0; -4.6330180E-02;  2.4901316E+04;  0.0000000E+00;  5.9825766E-01;  4.0000000E+04;  0.0000000E+00;  3.9845484E+04; -5.3055562E-02;  0.0000000E+00;  6.7253835E-03;  1.4134406E+03;
  7.4126875E-01;  9.9999998E-03; -1.5042661E-01;6914;  2.0923646E-02;  0.0000000E+00; -1.8699322E-03;  9.9921075E+02;  1.2686396E-01; -6.5385797E+02;3; -6.0692744E+00;  0.0000000E+00; -3.6071877E+00;0; -4.6879794E-02;  2.4911098E+04;  0.0000000E+00;  6.2230921E-01;  4.0000000E+04;  0.0000000E+00;  3.9844949E+04; -5.3791016E-02;  0.0000000E+00;  6.9112233E-03;  1.4733105E+03;
  7.4130225E-01;  9.9999998E-03; -1.4040782E-01;6915;  2.1285379E-02;  0.0000000E+00; -1.8310287E-03;  9.9913965E+02;  1.2684186E-01; -7.1276990E+02;3; -6.2649031E+00;  0.0000000E+00; -3.4891083E+00;0; -4.7259517E-02;  2.4914967E+04;  0.0000000E+00;  6.5583289E-01;  4.0000000E+04;  0.0000000E+00;  3.9844840E+04; -5.4529317E-02;  0.0000000E+00;  7.2697997E-03;  1.5991738E+03;
  7.4135965E-01;  9.9999998E-03; -1.3038345E-01;6916;  2.1646284E-02;  0.0000000E+00; -1.7907639E-03;  9.9903021E+02;  1.2682652E-01; -8.0343402E+02;3; -6.4648666E+00;  0.0000000E+00; -3.3538284E+00;0; -4.7468424E-02;  2.4913512E+04;  0.0000000E+00;  6.8858981E-01;  4.0000000E+04;  0.0000000E+00;  3.9845367E+04; -5.5270966E-02;  0.0000000E+00;  7.8025409E-03;  1.7599021E+03;
  7.4143183E-01;  9.9999998E-03; -1.2035586E-01;6917;  2.2001429E-02;  0.0000000E+00; -1.7444957E-03;  9.9889838E+02;  1.2681894E-01; -9.1266547E+02;3; -6.6614447E+00;  0.0000000E+00; -3.2133877E+00;0; -4.7515705E-02;  2.4908006E+04;  0.0000000E+00;  7.0668072E-01;  4.0000000E+04;  0.0000000E+00;  3.9846359E+04; -5.6012120E-02;  0.0000000E+00;  8.4964149E-03;  1.9150542E+03;
  7.4150938E-01;  9.9999998E-03; -1.1032690E-01;6918;  2.2345405E-02;  0.0000000E+00; -1.6896365E-03;  9.9876611E+02;  1.2681650E-01; -1.0222426E+03;3; -6.8556271E+00;  0.0000000E+00; -3.0607798E+00;0; -4.7418676E-02;  2.4900367E+04;  0.0000000E+00;  6.9834769E-01;  4.0000000E+04;  0.0000000E+00;  3.9847496E+04; -5.6746274E-02;  0.0000000E+00;  9.3275998E-03;  2.0348494E+03;
  7.5422925E-01;  9.9999998E-03; -2.7056170E-01;6963;  1.7109357E-02;  0.0000000E+00; -3.8568818E-03;  9.9686169E+02;  1.3134730E-01; -2.6000251E+03;3; -4.5657239E+00;  0.0000000E+00; -4.7759247E+00;0; -3.3219077E-02;  2.3136748E+04;  0.0000000E+00;  1.0242190E+00;  4.0000000E+04;  0.0000000E+00;  3.9848523E+04; -4.7114506E-02;  0.0000000E+00;  1.3895430E-02;  4.9845034E+03;
  7.5438875E-01;  9.9999998E-03; -2.6053804E-01;6964;  1.7275229E-02;  0.0000000E+00; -3.6453258E-03;  9.9705151E+02;  1.3139151E-01; -2.4427456E+03;3; -4.6079350E+00;  0.0000000E+00; -4.8416624E+00;0; -3.6083825E-02;  2.3130822E+04;  0.0000000E+00;  1.4515169E-01;  4.0000000E+04;  0.0000000E+00;  3.9847000E+04; -4.7927666E-02;  0.0000000E+00;  1.1843842E-02;  4.3544653E+03;
  7.5459915E-01;  9.9999998E-03; -2.5051308E-01;6965;  1.7430158E-02;  0.0000000E+00; -3.3751926E-03;  9.9723816E+02;  1.3144511E-01; -2.2881326E+03;3; -4.6843472E+00;  0.0000000E+00; -4.8373165E+00;0; -3.8805779E-02;  2.3123158E+04;  0.0000000E+00; -1.8555179E-01;  4.0000000E+04;  0.0000000E+00;  3.9844480E+04; -4.8809636E-02;  0.0000000E+00;  1.0003857E-02;  4.1598291E+03;
  7.5470835E-01;  9.9999998E-03; -2.4048048E-01;6966;  1.7604483E-02;  0.0000000E+00; -3.2019510E-03;  9.9744373E+02;  1.3146858E-01; -2.1178164E+03;3; -4.7787805E+00;  0.0000000E+00; -4.7894702E+00;0; -4.0360473E-02;  2.3126686E+04;  0.0000000E+00; -1.6685113E-01;  4.0000000E+04;  0.0000000E+00;  3.9843293E+04; -4.9730945E-02;  0.0000000E+00;  9.3704741E-03;  4.0161133E+03;
  7.5468218E-01;  9.9999998E-03; -2.3043090E-01;6967;  1.7806238E-02;  0.0000000E+00; -3.0801801E-03;  9.9767804E+02;  1.3145687E-01; -1.9236985E+03;3; -4.8878112E+00;  0.0000000E+00; -4.7185640E+00;0; -4.1563831E-02;  2.3142377E+04;  0.0000000E+00; -2.2060681E-02;  4.0000000E+04;  0.0000000E+00;  3.9843930E+04; -5.0672516E-02;  0.0000000E+00;  9.1086868E-03;  4.0230950E+03;
  7.5460124E-01;  9.9999998E-03; -2.2038680E-01;6968;  1.8023582E-02;  0.0000000E+00; -2.8728438E-03;  9.9787463E+02;  1.3142803E-01; -1.7608390E+03;3; -5.0289826E+00;  0.0000000E+00; -4.5898762E+00;0; -4.2939290E-02;  2.3164387E+04;  0.0000000E+00;  1.2952587E-01;  4.0000000E+04;  0.0000000E+00;  3.9840129E+04; -5.1632404E-02;  0.0000000E+00;  8.6931139E-03;  3.4884600E+03;
  7.5449610E-01;  9.9999998E-03; -2.1037140E-01;6969;  1.8267233E-02;  0.0000000E+00; -2.7048870E-03;  9.9803235E+02;  1.3138728E-01; -1.6301760E+03;3; -5.1830616E+00;  0.0000000E+00; -4.4574623E+00;0; -4.4142924E-02;  2.3190609E+04;  0.0000000E+00;  2.4003102E-01;  4.0000000E+04;  0.0000000E+00;  3.9833340E+04; -5.2601844E-02;  0.0000000E+00;  8.4589217E-03;  2.5473352E+03;
  7.5437623E-01;  9.9999998E-03; -2.0038009E-01;6970;  1.8537095E-02;  0.0000000E+00; -2.6031402E-03;  9.9819916E+02;  1.3133949E-01; -1.4919576E+03;3; -5.3375573E+00;  0.0000000E+00; -4.3501143E+00;0; -4.5256741E-02;  2.3219457E+04;  0.0000000E+00;  2.9853544E-01;  4.0000000E+04;  0.0000000E+00;  3.9827492E+04; -5.3570889E-02;  0.0000000E+00;  8.3141467E-03;  1.7565573E+03;
  7.5424105E-01;  9.9999998E-03; -1.9039674E-01;6971;  1.8831499E-02;  0.0000000E+00; -2.5347646E-03;  9.9837946E+02;  1.3128249E-01; -1.3425792E+03;3; -5.5116773E+00;  0.0000000E+00; -4.2329040E+00;0; -4.6338160E-02;  2.3249805E+04;  0.0000000E+00;  3.1536719E-01;  4.0000000E+04;  0.0000000E+00;  3.9824027E+04; -5.4529633E-02;  0.0000000E+00;  8.1914729E-03;  1.2836436E+03;
  7.5410634E-01;  9.9999998E-03; -1.8040803E-01;6972;  1.9148385E-02;  0.0000000E+00; -2.4792494E-03;  9.9853748E+02;  1.3122162E-01; -1.2116693E+03;3; -5.6927919E+00;  0.0000000E+00; -4.1296272E+00;0; -4.7362167E-02;  2.3279586E+04;  0.0000000E+00;  3.1099308E-01;  4.0000000E+04;  0.0000000E+00;  3.9822355E+04; -5.5474535E-02;  0.0000000E+00;  8.1123682E-03;  1.0350481E+03;
  7.5399691E-01;  9.9999998E-03; -1.7041565E-01;6973;  1.9482980E-02;  0.0000000E+00; -2.4274660E-03;  9.9866254E+02;  1.3116391E-01; -1.1080674E+03;3; -5.8868742E+00;  0.0000000E+00; -4.0109887E+00;0; -4.8283890E-02;  2.3305568E+04;  0.0000000E+00;  3.0767426E-01;  4.0000000E+04;  0.0000000E+00;  3.9821617E+04; -5.6407284E-02;  0.0000000E+00;  8.1233922E-03;  9.0658179E+02;
  7.5393134E-01;  9.9999998E-03; -1.6041818E-01;6974;  1.9831100E-02;  0.0000000E+00; -2.3813250E-03;  9.9874121E+02;  1.3111445E-01; -1.0428840E+03;3; -6.0881996E+00;  0.0000000E+00; -3.8986018E+00;0; -4.9064025E-02;  2.3325670E+04;  0.0000000E+00;  3.2259187E-01;  4.0000000E+04;  0.0000000E+00;  3.9821164E+04; -5.7332743E-02;  0.0000000E+00;  8.2687158E-03;  8.8706171E+02;
  7.5394899E-01;  9.9999998E-03; -1.5041311E-01;6975;  2.0185560E-02;  0.0000000E+00; -2.3374686E-03;  9.9878271E+02;  1.3108554E-01; -1.0085146E+03;3; -6.2960720E+00;  0.0000000E+00; -3.7774048E+00;0; -4.9681794E-02;  2.3335973E+04;  0.0000000E+00;  3.6240062E-01;  4.0000000E+04;  0.0000000E+00;  3.9821020E+04; -5.8267236E-02;  0.0000000E+00;  8.5854428E-03;  9.9446301E+02;
  7.5403339E-01;  9.9999998E-03; -1.4040276E-01;6976;  2.0541228E-02;  0.0000000E+00; -2.2939711E-03;  9.9879425E+02;  1.3107625E-01; -9.9893463E+02;3; -6.5106411E+00;  0.0000000E+00; -3.6496620E+00;0; -5.0119825E-02;  2.3337902E+04;  0.0000000E+00;  4.2316037E-01;  4.0000000E+04;  0.0000000E+00;  3.9821359E+04; -5.9210282E-02;  0.0000000E+00;  9.0904571E-03;  1.2160249E+03;
  7.5414300E-01;  9.9999998E-03; -1.3038874E-01;6977;  2.0894645E-02;  0.0000000E+00; -2.2453102E-03;  9.9877722E+02;  1.3107230E-01; -1.0130577E+03;3; -6.7265081E+00;  0.0000000E+00; -3.5128696E+00;0; -5.0369699E-02;  2.3335504E+04;  0.0000000E+00;  4.9157500E-01;  4.0000000E+04;  0.0000000E+00;  3.9822535E+04; -6.0150098E-02;  0.0000000E+00;  9.7804004E-03;  1.4994177E+03;
  7.5426573E-01;  9.9999998E-03; -1.2037198E-01;6978;  2.1240164E-02;  0.0000000E+00; -2.1876986E-03;  9.9874396E+02;  1.3107395E-01; -1.0406124E+03;3; -6.9435220E+00;  0.0000000E+00; -3.3678865E+00;0; -5.0441340E-02;  2.3329971E+04;  0.0000000E+00;  5.4832298E-01;  4.0000000E+04;  0.0000000E+00;  3.9823809E+04; -6.1082341E-02;  0.0000000E+00;  1.0641000E-02;  1.7838416E+03;
  7.5438750E-01;  9.9999998E-03; -1.1035087E-01;6979;  2.1573337E-02;  0.0000000E+00; -2.1153290E-03;  9.9871124E+02;  1.3107868E-01; -1.0677228E+03;3; -7.1568847E+00;  0.0000000E+00; -3.1983764E+00;0; -5.0353412E-02;  2.3323004E+04;  0.0000000E+00;  5.7621014E-01;  4.0000000E+04;  0.0000000E+00;  3.9825602E+04; -6.1998885E-02;  0.0000000E+00;  1.1645474E-02;  2.0236930E+03;
  7.6803005E-01;  9.9999998E-03; -2.7064317E-01;7024;  1.6390217E-02;  0.0000000E+00; -4.6009994E-03;  9.9675848E+02;  1.3612583E-01; -2.6855535E+03;3; -4.4642329E+00;  0.0000000E+00; -4.7943883E+00;0; -3.2614015E-02;  2.1547334E+04;  0.0000000E+00;  2.3102555E+00;  4.0000000E+04;  0.0000000E+00;  3.9825738E+04; -4.8774149E-02;  0.0000000E+00;  1.6160134E-02;  7.9231680E+03;
  7.6819706E-01;  9.9999998E-03; -2.6061764E-01;7025;  1.6523398E-02;  0.0000000E+00; -4.3519647E-03;  9.9701526E+02;  1.3617751E-01; -2.4728188E+03;3; -4.5290833E+00;  0.0000000E+00; -4.9375463E+00;0; -3.6417589E-02;  2.1543834E+04;  0.0000000E+00;  7.2502422E-01;  4.0000000E+04;  0.0000000E+00;  3.9823438E+04; -4.9798410E-02;  0.0000000E+00;  1.3380823E-02;  4.9143594E+03;
  7.6845026E-01;  9.9999998E-03; -2.5059196E-01;7026;  1.6647182E-02;  0.0000000E+00; -4.0271743E-03;  9.9728351E+02;  1.3625185E-01; -2.2505535E+03;3; -4.6356483E+00;  0.0000000E+00; -4.9630685E+00;0; -3.9962735E-02;  2.1534873E+04;  0.0000000E+00; -4.5256130E-02;  4.0000000E+04;  0.0000000E+00;  3.9819355E+04; -5.0911099E-02;  0.0000000E+00;  1.0948365E-02;  3.9728762E+03;
  7.6857692E-01;  9.9999998E-03; -2.4055845E-01;7027;  1.6796032E-02;  0.0000000E+00; -3.8122968E-03;  9.9752478E+02;  1.3629137E-01; -2.0506580E+03;3; -4.7713976E+00;  0.0000000E+00; -4.9329948E+00;0; -4.1998796E-02;  2.1536021E+04;  0.0000000E+00; -2.3382342E-01;  4.0000000E+04;  0.0000000E+00;  3.9816691E+04; -5.2082159E-02;  0.0000000E+00;  1.0083362E-02;  3.7740291E+03;
  7.6854020E-01;  9.9999998E-03; -2.3050541E-01;7028;  1.6981857E-02;  0.0000000E+00; -3.6743151E-03;  9.9776776E+02;  1.3628122E-01; -1.8493796E+03;3; -4.9137683E+00;  0.0000000E+00; -4.8718719E+00;0; -4.3446943E-02;  2.1551307E+04;  0.0000000E+00; -1.7002924E-01;  4.0000000E+04;  0.0000000E+00;  3.9816996E+04; -5.3291477E-02;  0.0000000E+00;  9.8445332E-03;  3.7853923E+03;
  7.6842290E-01;  9.9999998E-03; -2.2043954E-01;7029;  1.7193286E-02;  0.0000000E+00; -3.4878347E-03;  9.9797589E+02;  1.3624436E-01; -1.6769401E+03;3; -5.0872941E+00;  0.0000000E+00; -4.7637420E+00;0; -4.4952977E-02;  2.1574867E+04;  0.0000000E+00; -4.9060319E-02;  4.0000000E+04;  0.0000000E+00;  3.9815336E+04; -5.4531895E-02;  0.0000000E+00;  9.5789181E-03;  3.5059929E+03;
  7.6825464E-01;  9.9999998E-03; -2.1038572E-01;7030;  1.7435702E-02;  0.0000000E+00; -3.3072804E-03;  9.9812836E+02;  1.3618807E-01; -1.5506227E+03;3; -5.2672524E+00;  0.0000000E+00; -4.6460147E+00;0; -4.6353996E-02;  2.1604314E+04;  0.0000000E+00;  4.1617677E-02;  4.0000000E+04;  0.0000000E+00;  3.9809832E+04; -5.5787683E-02;  0.0000000E+00;  9.4336849E-03;  2.7434724E+03;
  7.6809323E-01;  9.9999998E-03; -2.0035748E-01;7031;  1.7706767E-02;  0.0000000E+00; -3.1821509E-03;  9.9825562E+02;  1.3612954E-01; -1.4451936E+03;3; -5.4561934E+00;  0.0000000E+00; -4.5315413E+00;0; -4.7656193E-02;  2.1634041E+04;  0.0000000E+00;  7.4875906E-02;  4.0000000E+04;  0.0000000E+00;  3.9803383E+04; -5.7052337E-02;  0.0000000E+00;  9.3961414E-03;  1.8799166E+03;
  7.6794356E-01;  9.9999998E-03; -1.9034985E-01;7032;  1.8002590E-02;  0.0000000E+00; -3.0990231E-03;  9.9839014E+02;  1.3606837E-01; -1.3337400E+03;3; -5.6560245E+00;  0.0000000E+00; -4.4152684E+00;0; -4.8904501E-02;  2.1663084E+04;  0.0000000E+00;  5.7800651E-02;  4.0000000E+04;  0.0000000E+00;  3.9798449E+04; -5.8312211E-02;  0.0000000E+00;  9.4077112E-03;  1.2491819E+03;
  7.6781476E-01;  9.9999998E-03; -1.8034439E-01;7033;  1.8320091E-02;  0.0000000E+00; -3.0358289E-03;  9.9851782E+02;  1.3600737E-01; -1.2279652E+03;3; -5.8635068E+00;  0.0000000E+00; -4.3090634E+00;0; -5.0081760E-02;  2.1689971E+04;  0.0000000E+00;  1.4679675E-02;  4.0000000E+04;  0.0000000E+00;  3.9795922E+04; -5.9559517E-02;  0.0000000E+00;  9.4777578E-03;  9.0820984E+02;
  7.6773345E-01;  9.9999998E-03; -1.7033608E-01;7034;  1.8652968E-02;  0.0000000E+00; -2.9803794E-03;  9.9862457E+02;  1.3595594E-01; -1.1395232E+03;3; -6.0798101E+00;  0.0000000E+00; -4.1977811E+00;0; -5.1144980E-02;  2.1711775E+04;  0.0000000E+00; -2.4743376E-02;  4.0000000E+04;  0.0000000E+00;  3.9794422E+04; -6.0794048E-02;  0.0000000E+00;  9.6490663E-03;  7.2469391E+02;
  7.6772690E-01;  9.9999998E-03; -1.6031858E-01;7035;  1.8996034E-02;  0.0000000E+00; -2.9286237E-03;  9.9871594E+02;  1.3592215E-01; -1.0638217E+03;3; -6.3073840E+00;  0.0000000E+00; -4.0765929E+00;0; -5.2056015E-02;  2.1725586E+04;  0.0000000E+00; -3.6627159E-02;  4.0000000E+04;  0.0000000E+00;  3.9794332E+04; -6.2022652E-02;  0.0000000E+00;  9.9666370E-03;  5.9509766E+02;
  7.6773530E-01;  9.9999998E-03; -1.5029909E-01;7036;  1.9347427E-02;  0.0000000E+00; -2.8749872E-03;  9.9876495E+02;  1.3588914E-01; -1.0232302E+03;3; -6.5395112E+00;  0.0000000E+00; -3.9474151E+00;0; -5.2770231E-02;  2.1736461E+04;  0.0000000E+00; -8.6585339E-03;  4.0000000E+04;  0.0000000E+00;  3.9794641E+04; -6.3224643E-02;  0.0000000E+00;  1.0454413E-02;  5.3620074E+02;
  7.6775432E-01;  9.9999998E-03; -1.4027582E-01;7037;  1.9701948E-02;  0.0000000E+00; -2.8159833E-03;  9.9878601E+02;  1.3585576E-01; -1.0057493E+03;3; -6.7710123E+00;  0.0000000E+00; -3.8205898E+00;0; -5.3272046E-02;  2.1745018E+04;  0.0000000E+00;  5.6147635E-02;  4.0000000E+04;  0.0000000E+00;  3.9795895E+04; -6.4399116E-02;  0.0000000E+00;  1.1127068E-02;  6.7492285E+02;
  7.6780188E-01;  9.9999998E-03; -1.3024895E-01;7038;  2.0051910E-02;  0.0000000E+00; -2.7479941E-03;  9.9879401E+02;  1.3582963E-01; -9.9913214E+02;3; -7.0100989E+00;  0.0000000E+00; -3.6725128E+00;0; -5.3566977E-02;  2.1749703E+04;  0.0000000E+00;  1.4133538E-01;  4.0000000E+04;  0.0000000E+00;  3.9797695E+04; -6.5554380E-02;  0.0000000E+00;  1.1987405E-02;  1.0005112E+03;
  7.6796150E-01;  9.9999998E-03; -1.2021709E-01;7039;  2.0385824E-02;  0.0000000E+00; -2.6690229E-03;  9.9883923E+02;  1.3584030E-01; -9.6165173E+02;3; -7.2497730E+00;  0.0000000E+00; -3.5074413E+00;0; -5.3689811E-02;  2.1743012E+04;  0.0000000E+00;  2.2196150E-01;  4.0000000E+04;  0.0000000E+00;  3.9800098E+04; -6.6726543E-02;  0.0000000E+00;  1.3036733E-02;  1.3926912E+03;
  7.6817358E-01;  9.9999998E-03; -1.1018048E-01;7040;  2.0701999E-02;  0.0000000E+00; -2.5716338E-03;  9.9890076E+02;  1.3587174E-01; -9.1069025E+02;3; -7.4877524E+00;  0.0000000E+00; -3.3218234E+00;0; -5.3651161E-02;  2.1730402E+04;  0.0000000E+00;  2.7835223E-01;  4.0000000E+04;  0.0000000E+00;  3.9802445E+04; -6.7891702E-02;  0.0000000E+00;  1.4240541E-02;  1.7702302E+03;
  7.8286833E-01;  9.9999998E-03; -2.7074593E-01;7085;  1.5631372E-02;  0.0000000E+00; -5.2961642E-03;  9.9763989E+02;  1.4155322E-01; -1.9553026E+03;3; -4.3139834E+00;  0.0000000E+00; -4.8181624E+00;0; -3.2854293E-02;  1.9968705E+04;  0.0000000E+00;  1.5035031E+00;  4.0000000E+04;  0.0000000E+00;  3.9789332E+04; -5.0182950E-02;  0.0000000E+00;  1.7328657E-02;  6.8871299E+03;
  7.8292596E-01;  9.9999998E-03; -2.6072159E-01;7086;  1.5730463E-02;  0.0000000E+00; -5.0455998E-03;  9.9790448E+02;  1.4157403E-01; -1.7360989E+03;3; -4.4137082E+00;  0.0000000E+00; -4.9998598E+00;0; -3.7104838E-02;  1.9975262E+04;  0.0000000E+00;  2.0775096E-01;  4.0000000E+04;  0.0000000E+00;  3.9787152E+04; -5.1429950E-02;  0.0000000E+00;  1.4325114E-02;  3.5883916E+03;
  7.8313202E-01;  9.9999998E-03; -2.5070044E-01;7087;  1.5819069E-02;  0.0000000E+00; -4.6850191E-03;  9.9818469E+02;  1.4163868E-01; -1.5039574E+03;3; -4.5544162E+00;  0.0000000E+00; -5.0532951E+00;0; -4.1306615E-02;  1.9971592E+04;  0.0000000E+00; -3.4985083E-01;  4.0000000E+04;  0.0000000E+00;  3.9782281E+04; -5.2791886E-02;  0.0000000E+00;  1.1485269E-02;  2.6452957E+03;
  7.8326237E-01;  9.9999998E-03; -2.4067704E-01;7088;  1.5938008E-02;  0.0000000E+00; -4.4457279E-03;  9.9842902E+02;  1.4168164E-01; -1.3015433E+03;3; -4.7307434E+00;  0.0000000E+00; -5.0497541E+00;0; -4.3763995E-02;  1.9973189E+04;  0.0000000E+00; -3.9806819E-01;  4.0000000E+04;  0.0000000E+00;  3.9778285E+04; -5.4247987E-02;  0.0000000E+00;  1.0483993E-02;  2.4011179E+03;
  7.8319657E-01;  9.9999998E-03; -2.3063998E-01;7089;  1.6105160E-02;  0.0000000E+00; -4.3066936E-03;  9.9864526E+02;  1.4166144E-01; -1.1223879E+03;3; -4.9132485E+00;  0.0000000E+00; -4.9978113E+00;0; -4.5441262E-02;  1.9990418E+04;  0.0000000E+00; -2.5650778E-01;  4.0000000E+04;  0.0000000E+00;  3.9777910E+04; -5.5768128E-02;  0.0000000E+00;  1.0326865E-02;  2.2930361E+03;
  7.8301299E-01;  9.9999998E-03; -2.2057378E-01;7090;  1.6311770E-02;  0.0000000E+00; -4.1843499E-03;  9.9885352E+02;  1.4160043E-01; -9.4984961E+02;3; -5.1079612E+00;  0.0000000E+00; -4.9356332E+00;0; -4.7033481E-02;  2.0018121E+04;  0.0000000E+00; -1.1335699E-01;  4.0000000E+04;  0.0000000E+00;  3.9779715E+04; -5.7340387E-02;  0.0000000E+00;  1.0306907E-02;  2.3824680E+03;
  7.8276736E-01;  9.9999998E-03; -2.1049148E-01;7091;  1.6551524E-02;  0.0000000E+00; -4.0207296E-03;  9.9899695E+02;  1.4151695E-01; -8.3098877E+02;3; -5.3181429E+00;  0.0000000E+00; -4.8460169E+00;0; -4.8658662E-02;  2.0051488E+04;  0.0000000E+00; -3.6417447E-02;  4.0000000E+04;  0.0000000E+00;  3.9779125E+04; -5.8946729E-02;  0.0000000E+00;  1.0288065E-02;  2.1983550E+03;
  7.8253001E-01;  9.9999998E-03; -2.0042793E-01;7092;  1.6819844E-02;  0.0000000E+00; -3.8689880E-03;  9.9908435E+02;  1.4143313E-01; -7.5859576E+02;3; -5.5483608E+00;  0.0000000E+00; -4.7321234E+00;0; -5.0204761E-02;  2.0084615E+04;  0.0000000E+00; -3.9277989E-02;  4.0000000E+04;  0.0000000E+00;  3.9775035E+04; -6.0571749E-02;  0.0000000E+00;  1.0366986E-02;  1.6513811E+03;
  7.8234661E-01;  9.9999998E-03; -1.9038709E-01;7093;  1.7111834E-02;  0.0000000E+00; -3.7582347E-03;  9.9915607E+02;  1.4136027E-01; -6.9919006E+02;3; -5.7840724E+00;  0.0000000E+00; -4.6109748E+00;0; -5.1667616E-02;  2.0113217E+04;  0.0000000E+00; -1.0543271E-01;  4.0000000E+04;  0.0000000E+00;  3.9770477E+04; -6.2205013E-02;  0.0000000E+00;  1.0537399E-02;  1.2238354E+03;
  7.8223300E-01;  9.9999998E-03; -1.8034820E-01;7094;  1.7422281E-02;  0.0000000E+00; -3.6727448E-03;  9.9922845E+02;  1.4130555E-01; -6.3919177E+02;3; -6.0216975E+00;  0.0000000E+00; -4.4993210E+00;0; -5.3041875E-02;  2.0135359E+04;  0.0000000E+00; -2.0306374E-01;  4.0000000E+04;  0.0000000E+00;  3.9767676E+04; -6.3837603E-02;  0.0000000E+00;  1.0795728E-02;  1.1227794E+03;
  7.8219783E-01;  9.9999998E-03; -1.7030911E-01;7095;  1.7745646E-02;  0.0000000E+00; -3.5990912E-03;  9.9929883E+02;  1.4127007E-01; -5.8092181E+02;3; -6.2730656E+00;  0.0000000E+00; -4.3727107E+00;0; -5.4288287E-02;  2.0149891E+04;  0.0000000E+00; -2.9652238E-01;  4.0000000E+04;  0.0000000E+00;  3.9766066E+04; -6.5460831E-02;  0.0000000E+00;  1.1172544E-02;  1.1626874E+03;
  7.8221649E-01;  9.9999998E-03; -1.6027425E-01;7096;  1.8078763E-02;  0.0000000E+00; -3.5293072E-03;  9.9934961E+02;  1.4124726E-01; -5.3884894E+02;3; -6.5279360E+00;  0.0000000E+00; -4.2487693E+00;0; -5.5358287E-02;  2.0158596E+04;  0.0000000E+00; -3.5672218E-01;  4.0000000E+04;  0.0000000E+00;  3.9765992E+04; -6.7058809E-02;  0.0000000E+00;  1.1700523E-02;  1.1649340E+03;
  7.8226876E-01;  9.9999998E-03; -1.5024239E-01;7097;  1.8417444E-02;  0.0000000E+00; -3.4570554E-03;  9.9938446E+02;  1.4123185E-01; -5.0996085E+02;3; -6.7860408E+00;  0.0000000E+00; -4.1178436E+00;0; -5.6216884E-02;  2.0162938E+04;  0.0000000E+00; -3.6865339E-01;  4.0000000E+04;  0.0000000E+00;  3.9767164E+04; -6.8620525E-02;  0.0000000E+00;  1.2403641E-02;  1.0842656E+03;
  7.8233856E-01;  9.9999998E-03; -1.4020477E-01;7098;  1.8756829E-02;  0.0000000E+00; -3.3766886E-03;  9.9940729E+02;  1.4121765E-01; -4.9104779E+02;3; -7.0486245E+00;  0.0000000E+00; -3.9734466E+00;0; -5.6846507E-02;  2.0164314E+04;  0.0000000E+00; -3.3364329E-01;  4.0000000E+04;  0.0000000E+00;  3.9769004E+04; -7.0139274E-02;  0.0000000E+00;  1.3292768E-02;  9.9439722E+02;
  7.8241664E-01;  9.9999998E-03; -1.3016139E-01;7099;  1.9091157E-02;  0.0000000E+00; -3.2812555E-03;  9.9942047E+02;  1.4120556E-01; -4.8013452E+02;3; -7.3146138E+00;  0.0000000E+00; -3.8081820E+00;0; -5.7245865E-02;  2.0163883E+04;  0.0000000E+00; -2.6620126E-01;  4.0000000E+04;  0.0000000E+00;  3.9771945E+04; -7.1610533E-02;  0.0000000E+00;  1.4364665E-02;  1.0504391E+03;
  7.8249508E-01;  9.9999998E-03; -1.2011609E-01;7100;  1.9414466E-02;  0.0000000E+00; -3.1663186E-03;  9.9944116E+02;  1.4119275E-01; -4.6299921E+02;3; -7.5770240E+00;  0.0000000E+00; -3.6268804E+00;0; -5.7426549E-02;  2.0162568E+04;  0.0000000E+00; -1.8707775E-01;  4.0000000E+04;  0.0000000E+00;  3.9775219E+04; -7.3027849E-02;  0.0000000E+00;  1.5601300E-02;  1.3204529E+03;
  7.8255421E-01;  9.9999998E-03; -1.1007217E-01;7101;  1.9722972E-02;  0.0000000E+00; -3.0273178E-03;  9.9947382E+02;  1.4117579E-01; -4.3593826E+02;3; -7.8315568E+00;  0.0000000E+00; -3.4396882E+00;0; -5.7409674E-02;  2.0162238E+04;  0.0000000E+00; -1.1538275E-01;  4.0000000E+04;  0.0000000E+00;  3.9778199E+04; -7.4377187E-02;  0.0000000E+00;  1.6967515E-02;  1.7028123E+03;
  7.9853284E-01;  9.9999998E-03; -2.7085811E-01;7146;  1.4891305E-02;  0.0000000E+00; -5.8810050E-03;  9.9872119E+02;  1.4760318E-01; -1.0594761E+03;3; -4.1170659E+00;  0.0000000E+00; -4.8383741E+00;0; -3.4538999E-02;  1.8406158E+04;  0.0000000E+00;  5.1718247E-01;  4.0000000E+04;  0.0000000E+00;  3.9748293E+04; -5.1539324E-02;  0.0000000E+00;  1.7000327E-02;  4.5896455E+03;
  7.9845017E-01;  9.9999998E-03; -2.6083621E-01;7147;  1.4945573E-02;  0.0000000E+00; -5.6475201E-03;  9.9896094E+02;  1.4757507E-01; -8.6086450E+02;3; -4.2617173E+00;  0.0000000E+00; -5.0195460E+00;0; -3.8889214E-02;  1.8423600E+04;  0.0000000E+00; -2.2851431E-01;  4.0000000E+04;  0.0000000E+00;  3.9745898E+04; -5.3024024E-02;  0.0000000E+00;  1.4134811E-02;  1.7856121E+03;
  7.9847419E-01;  9.9999998E-03; -2.5082037E-01;7148;  1.5001209E-02;  0.0000000E+00; -5.2982527E-03;  9.9919482E+02;  1.4758663E-01; -6.6709222E+02;3; -4.4333291E+00;  0.0000000E+00; -5.1177626E+00;0; -4.3258872E-02;  1.8432912E+04;  0.0000000E+00; -4.3966815E-01;  4.0000000E+04;  0.0000000E+00;  3.9741051E+04; -5.4648992E-02;  0.0000000E+00;  1.1390120E-02;  1.0950610E+03;
  7.9840803E-01;  9.9999998E-03; -2.4080789E-01;7149;  1.5099491E-02;  0.0000000E+00; -5.0732791E-03;  9.9939178E+02;  1.4756992E-01; -5.0388693E+02;3; -4.6490397E+00;  0.0000000E+00; -5.1339941E+00;0; -4.5869678E-02;  1.8448252E+04;  0.0000000E+00; -3.4616530E-01;  4.0000000E+04;  0.0000000E+00;  3.9737070E+04; -5.6395009E-02;  0.0000000E+00;  1.0525330E-02;  9.6109509E+02;
  7.9825824E-01;  9.9999998E-03; -2.3080270E-01;7150;  1.5242181E-02;  0.0000000E+00; -4.9036075E-03;  9.9954541E+02;  1.4752582E-01; -3.7663129E+02;3; -4.8744049E+00;  0.0000000E+00; -5.1027794E+00;0; -4.7881018E-02;  1.8469611E+04;  0.0000000E+00; -1.8817741E-01;  4.0000000E+04;  0.0000000E+00;  3.9733648E+04; -5.8244877E-02;  0.0000000E+00;  1.0363859E-02;  7.5918005E+02;
  7.9800415E-01;  9.9999998E-03; -2.2078803E-01;7151;  1.5429282E-02;  0.0000000E+00; -4.8160632E-03;  9.9969928E+02;  1.4744078E-01; -2.4912874E+02;3; -5.0990076E+00;  0.0000000E+00; -5.0749202E+00;0; -4.9588241E-02;  1.8500320E+04;  0.0000000E+00; -7.3961116E-02;  4.0000000E+04;  0.0000000E+00;  3.9734371E+04; -6.0173400E-02;  0.0000000E+00;  1.0585159E-02;  6.0185370E+02;
  7.9765993E-01;  9.9999998E-03; -2.1073309E-01;7152;  1.5654933E-02;  0.0000000E+00; -4.7272802E-03;  9.9985565E+02;  1.4732142E-01; -1.1960155E+02;3; -5.3498573E+00;  0.0000000E+00; -4.9941058E+00;0; -5.1325697E-02;  1.8538604E+04;  0.0000000E+00; -4.2628590E-02;  4.0000000E+04;  0.0000000E+00;  3.9738570E+04; -6.2157668E-02;  0.0000000E+00;  1.0831972E-02;  6.8249573E+02;
  7.9728323E-01;  9.9999998E-03; -2.0065835E-01;7153;  1.5911877E-02;  0.0000000E+00; -4.5946953E-03;  9.9993854E+02;  1.4718838E-01; -5.0912136E+01;3; -5.6098437E+00;  0.0000000E+00; -4.9126487E+00;0; -5.3078625E-02;  1.8579396E+04;  0.0000000E+00; -9.0975448E-02;  4.0000000E+04;  0.0000000E+00;  3.9740594E+04; -6.4171374E-02;  0.0000000E+00;  1.1092749E-02;  8.7576752E+02;
  7.9695094E-01;  9.9999998E-03; -1.9058724E-01;7154;  1.6192276E-02;  0.0000000E+00; -4.4587650E-03;  9.9997192E+02;  1.4706442E-01; -2.3258600E+01;3; -5.8893375E+00;  0.0000000E+00; -4.7897401E+00;0; -5.4751929E-02;  1.8616574E+04;  0.0000000E+00; -1.9750281E-01;  4.0000000E+04;  0.0000000E+00;  3.9740070E+04; -6.6197149E-02;  0.0000000E+00;  1.1445220E-02;  1.0098978E+03;
  7.9670298E-01;  9.9999998E-03; -1.8051495E-01;7155;  1.6490929E-02;  0.0000000E+00; -4.3377597E-03;  9.9997870E+02;  1.4696394E-01; -1.7629129E+01;3; -6.1671381E+00;  0.0000000E+00; -4.6662097E+00;0; -5.6313165E-02;  1.8646658E+04;  0.0000000E+00; -3.3332649E-01;  4.0000000E+04;  0.0000000E+00;  3.9739008E+04; -6.8221703E-02;  0.0000000E+00;  1.1908539E-02;  1.2345748E+03;
  7.9656219E-01;  9.9999998E-03; -1.7044836E-01;7156;  1.6801422E-02;  0.0000000E+00; -4.2285337E-03;  9.9996716E+02;  1.4689316E-01; -2.7209105E+01;3; -6.4480767E+00;  0.0000000E+00; -4.5385938E+00;0; -5.7728887E-02;  1.8666979E+04;  0.0000000E+00; -4.6607959E-01;  4.0000000E+04;  0.0000000E+00;  3.9738496E+04; -7.0232347E-02;  0.0000000E+00;  1.2503459E-02;  1.4821169E+03;
  7.9652417E-01;  9.9999998E-03; -1.6038866E-01;7157;  1.7118584E-02;  0.0000000E+00; -4.1254959E-03;  9.9994104E+02;  1.4685601E-01; -4.8838120E+01;3; -6.7335448E+00;  0.0000000E+00; -4.4051342E+00;0; -5.8960404E-02;  1.8677289E+04;  0.0000000E+00; -5.6822044E-01;  4.0000000E+04;  0.0000000E+00;  3.9738848E+04; -7.2216235E-02;  0.0000000E+00;  1.3255832E-02;  1.6565171E+03;
  7.9656440E-01;  9.9999998E-03; -1.5033694E-01;7158;  1.7437689E-02;  0.0000000E+00; -4.0217605E-03;  9.9991107E+02;  1.4684173E-01; -7.3676926E+01;3; -7.0239892E+00;  0.0000000E+00; -4.2586918E+00;0; -5.9974007E-02;  1.8678924E+04;  0.0000000E+00; -6.2416530E-01;  4.0000000E+04;  0.0000000E+00;  3.9740508E+04; -7.4158423E-02;  0.0000000E+00;  1.4184417E-02;  1.7315365E+03;
  7.9664707E-01;  9.9999998E-03; -1.4029281E-01;7159;  1.7754696E-02;  0.0000000E+00; -3.9081904E-03;  9.9987439E+02;  1.4684117E-01; -1.0404643E+02;3; -7.3170509E+00;  0.0000000E+00; -4.1017699E+00;0; -6.0747661E-02;  1.8675410E+04;  0.0000000E+00; -6.3261712E-01;  4.0000000E+04;  0.0000000E+00;  3.9742918E+04; -7.6042183E-02;  0.0000000E+00;  1.5294522E-02;  1.7563987E+03;
  7.9673284E-01;  9.9999998E-03; -1.3024797E-01;7160;  1.8065743E-02;  0.0000000E+00; -3.7773997E-03;  9.9982782E+02;  1.4684059E-01; -1.4266263E+02;3; -7.6063585E+00;  0.0000000E+00; -3.9339657E+00;0; -6.1271768E-02;  1.8669887E+04;  0.0000000E+00; -6.0279495E-01;  4.0000000E+04;  0.0000000E+00;  3.9746016E+04; -7.7849418E-02;  0.0000000E+00;  1.6577650E-02;  1.8177532E+03;
  7.9678655E-01;  9.9999998E-03; -1.2019291E-01;7161;  1.8368131E-02;  0.0000000E+00; -3.6226837E-03;  9.9977838E+02;  1.4682902E-01; -1.8359973E+02;3; -7.8927984E+00;  0.0000000E+00; -3.7544298E+00;0; -6.1548993E-02;  1.8666033E+04;  0.0000000E+00; -5.4834789E-01;  4.0000000E+04;  0.0000000E+00;  3.9749582E+04; -7.9560131E-02;  0.0000000E+00;  1.8011140E-02;  1.9799261E+03;
  7.9679424E-01;  9.9999998E-03; -1.1014390E-01;7162;  1.8657399E-02;  0.0000000E+00; -3.4388297E-03;  9.9972638E+02;  1.4680086E-01; -2.2670963E+02;3; -8.1740112E+00;  0.0000000E+00; -3.5493517E+00;0; -6.1601173E-02;  1.8665516E+04;  0.0000000E+00; -4.8291105E-01;  4.0000000E+04;  0.0000000E+00;  3.9753234E+04; -8.1156731E-02;  0.0000000E+00;  1.9555558E-02;  2.2250811E+03;
  8.1302512E-01;  9.9999998E-03; -2.7094975E-01;7207;  1.4270624E-02;  0.0000000E+00; -6.1824205E-03;  9.9875787E+02;  1.5345527E-01; -1.0290571E+03;3; -3.9079053E+00;  0.0000000E+00; -4.8802428E+00;0; -3.8658854E-02;  1.7029801E+04;  0.0000000E+00;  1.2188152E+00;  4.0000000E+04;  0.0000000E+00;  3.9718652E+04; -5.2933566E-02;  0.0000000E+00;  1.4274713E-02;  5.3552671E+03;
  8.1314498E-01;  9.9999998E-03; -2.6093054E-01;7208;  1.4259457E-02;  0.0000000E+00; -5.9702261E-03;  9.9900183E+02;  1.5351753E-01; -8.2693945E+02;3; -4.0797038E+00;  0.0000000E+00; -5.0480847E+00;0; -4.2788133E-02;  1.7026006E+04;  0.0000000E+00;  5.0159138E-01;  4.0000000E+04;  0.0000000E+00;  3.9714523E+04; -5.4681160E-02;  0.0000000E+00;  1.1893026E-02;  2.5193477E+03;
  8.1327814E-01;  9.9999998E-03; -2.5091752E-01;7209;  1.4273689E-02;  0.0000000E+00; -5.7441867E-03;  9.9924060E+02;  1.5357992E-01; -6.2916730E+02;3; -4.2892480E+00;  0.0000000E+00; -5.1277742E+00;0; -4.6257198E-02;  1.7023477E+04;  0.0000000E+00;  2.0965472E-01;  4.0000000E+04;  0.0000000E+00;  3.9708930E+04; -5.6603126E-02;  0.0000000E+00;  1.0345927E-02;  1.0165619E+03;
  8.1318998E-01;  9.9999998E-03; -2.4090803E-01;7210;  1.4346181E-02;  0.0000000E+00; -5.6411051E-03;  9.9944818E+02;  1.5356342E-01; -4.5717218E+02;3; -4.5304489E+00;  0.0000000E+00; -5.1787987E+00;0; -4.8425894E-02;  1.7037682E+04;  0.0000000E+00;  1.4012183E-01;  4.0000000E+04;  0.0000000E+00;  3.9705516E+04; -5.8660991E-02;  0.0000000E+00;  1.0235098E-02;  4.7776624E+02;
  8.1297779E-01;  9.9999998E-03; -2.3091464E-01;7211;  1.4457854E-02;  0.0000000E+00; -5.5093695E-03;  9.9959619E+02;  1.5350179E-01; -3.3455838E+02;3; -4.7951097E+00;  0.0000000E+00; -5.1694293E+00;0; -5.0581940E-02;  1.7060875E+04;  0.0000000E+00;  1.0909271E-01;  4.0000000E+04;  0.0000000E+00;  3.9701062E+04; -6.0841147E-02;  0.0000000E+00;  1.0259206E-02;  7.3728638E+02;
  8.1268102E-01;  9.9999998E-03; -2.2092581E-01;7212;  1.4609989E-02;  0.0000000E+00; -5.4493295E-03;  9.9974237E+02;  1.5340520E-01; -2.1342603E+02;3; -5.0631900E+00;  0.0000000E+00; -5.1599813E+00;0; -5.2496880E-02;  1.7091521E+04;  0.0000000E+00;  5.9855308E-02;  4.0000000E+04;  0.0000000E+00;  3.9700820E+04; -6.3126728E-02;  0.0000000E+00;  1.0629850E-02;  8.2596429E+02;
  8.1230837E-01;  9.9999998E-03; -2.1091197E-01;7213;  1.4796542E-02;  0.0000000E+00; -5.3878669E-03;  9.9989844E+02;  1.5327969E-01; -8.4145752E+01;3; -5.3451190E+00;  0.0000000E+00; -5.1162438E+00;0; -5.4450169E-02;  1.7127844E+04;  0.0000000E+00; -2.3329264E-02;  4.0000000E+04;  0.0000000E+00;  3.9705066E+04; -6.5492600E-02;  0.0000000E+00;  1.1042431E-02;  3.8282391E+02;
  8.1188917E-01;  9.9999998E-03; -2.0087530E-01;7214;  1.5012702E-02;  0.0000000E+00; -5.2726269E-03;  9.9999939E+02;  1.5313540E-01; -4.9381313E-01;3; -5.6478524E+00;  0.0000000E+00; -5.0401478E+00;0; -5.6419320E-02;  1.7166986E+04;  0.0000000E+00; -1.3657370E-01;  4.0000000E+04;  0.0000000E+00;  3.9709242E+04; -6.7905709E-02;  0.0000000E+00;  1.1486388E-02;  3.9986157E+02;
  8.1146640E-01;  9.9999998E-03; -1.9082247E-01;7215;  1.5255913E-02;  0.0000000E+00; -5.1282113E-03;  1.0000292E+03;  1.5298584E-01;  2.4196842E+01;3; -5.9637742E+00;  0.0000000E+00; -4.9430809E+00;0; -5.8297344E-02;  1.7205725E+04;  0.0000000E+00; -2.7050936E-01;  4.0000000E+04;  0.0000000E+00;  3.9711762E+04; -7.0334733E-02;  0.0000000E+00;  1.2037388E-02;  7.8678412E+02;
  8.1109524E-01;  9.9999998E-03; -1.8074426E-01;7216;  1.5522595E-02;  0.0000000E+00; -4.9799918E-03;  9.9999835E+02;  1.5284875E-01; -1.3826767E+00;3; -6.2843614E+00;  0.0000000E+00; -4.8149123E+00;0; -6.0040709E-02;  1.7239938E+04;  0.0000000E+00; -4.1322291E-01;  4.0000000E+04;  0.0000000E+00;  3.9713195E+04; -7.2760448E-02;  0.0000000E+00;  1.2719739E-02;  1.1537548E+03;
  8.1080264E-01;  9.9999998E-03; -1.7065701E-01;7217;  1.5806781E-02;  0.0000000E+00; -4.8355362E-03;  9.9992200E+02;  1.5273291E-01; -6.4640137E+01;3; -6.6075411E+00;  0.0000000E+00; -4.6749110E+00;0; -6.1613146E-02;  1.7267250E+04;  0.0000000E+00; -5.5037075E-01;  4.0000000E+04;  0.0000000E+00;  3.9713641E+04; -7.5156733E-02;  0.0000000E+00;  1.3543586E-02;  1.4933193E+03;
  8.1063002E-01;  9.9999998E-03; -1.6056798E-01;7218;  1.6099293E-02;  0.0000000E+00; -4.6924422E-03;  9.9982532E+02;  1.5265664E-01; -1.4473662E+02;3; -6.9313130E+00;  0.0000000E+00; -4.5299368E+00;0; -6.2989548E-02;  1.7283934E+04;  0.0000000E+00; -6.6676170E-01;  4.0000000E+04;  0.0000000E+00;  3.9714469E+04; -7.7515781E-02;  0.0000000E+00;  1.4526237E-02;  1.8000231E+03;
  8.1058997E-01;  9.9999998E-03; -1.5048660E-01;7219;  1.6392007E-02;  0.0000000E+00; -4.5465278E-03;  9.9971869E+02;  1.5262416E-01; -2.3307979E+02;3; -7.2507157E+00;  0.0000000E+00; -4.3856044E+00;0; -6.4147502E-02;  1.7288602E+04;  0.0000000E+00; -7.5110024E-01;  4.0000000E+04;  0.0000000E+00;  3.9716086E+04; -7.9830423E-02;  0.0000000E+00;  1.5682919E-02;  2.0639875E+03;
  8.1065792E-01;  9.9999998E-03; -1.4041521E-01;7220;  1.6679002E-02;  0.0000000E+00; -4.3919757E-03;  9.9961731E+02;  1.5262903E-01; -3.1702802E+02;3; -7.5635824E+00;  0.0000000E+00; -4.2363839E+00;0; -6.5069325E-02;  1.7283309E+04;  0.0000000E+00; -7.9909462E-01;  4.0000000E+04;  0.0000000E+00;  3.9718621E+04; -8.2087398E-02;  0.0000000E+00;  1.7018074E-02;  2.3041719E+03;
  8.1076431E-01;  9.9999998E-03; -1.3035317E-01;7221;  1.6957223E-02;  0.0000000E+00; -4.2211842E-03;  9.9951459E+02;  1.5264326E-01; -4.0216141E+02;3; -7.8847203E+00;  0.0000000E+00; -4.0597525E+00;0; -6.5734766E-02;  1.7274404E+04;  0.0000000E+00; -8.1184363E-01;  4.0000000E+04;  0.0000000E+00;  3.9721766E+04; -8.4254220E-02;  0.0000000E+00;  1.8519456E-02;  2.5466611E+03;
  8.1085998E-01;  9.9999998E-03; -1.2030081E-01;7222;  1.7225394E-02;  0.0000000E+00; -4.0255999E-03;  9.9941132E+02;  1.5264978E-01; -4.8768985E+02;3; -8.2028122E+00;  0.0000000E+00; -3.8685272E+00;0; -6.6140041E-02;  1.7266297E+04;  0.0000000E+00; -7.9298896E-01;  4.0000000E+04;  0.0000000E+00;  3.9725398E+04; -8.6301580E-02;  0.0000000E+00;  2.0161543E-02;  2.7896313E+03;
  8.1095594E-01;  9.9999998E-03; -1.1026822E-01;7223;  1.7477317E-02;  0.0000000E+00; -3.7999551E-03;  9.9931604E+02;  1.5265469E-01; -5.6665057E+02;3; -8.5186138E+00;  0.0000000E+00; -3.6465037E+00;0; -6.6316411E-02;  1.7258186E+04;  0.0000000E+00; -7.4797982E-01;  4.0000000E+04;  0.0000000E+00;  3.9728414E+04; -8.8224664E-02;  0.0000000E+00;  2.1908250E-02;  2.9948176E+03;
  8.2555151E-01;  9.9999998E-03; -1.3036829E-01;7282;  1.5653320E-02;  0.0000000E+00; -4.6370812E-03;  9.9890564E+02;  1.5894723E-01; -9.0664087E+02;3; -8.1846991E+00;  0.0000000E+00; -4.1829314E+00;0; -7.1074940E-02;  1.5922621E+04;  0.0000000E+00; -8.9029169E-01;  4.0000000E+04;  0.0000000E+00;  3.9697477E+04; -9.1278970E-02;  0.0000000E+00;  2.0204032E-02;  2.9975962E+03;
  8.2561439E-01;  9.9999998E-03; -1.2031492E-01;7283;  1.5887201E-02;  0.0000000E+00; -4.3923352E-03;  9.9875574E+02;  1.5894783E-01; -1.0308348E+03;3; -8.5313072E+00;  0.0000000E+00; -3.9752676E+00;0; -7.1592174E-02;  1.5917134E+04;  0.0000000E+00; -9.0637469E-01;  4.0000000E+04;  0.0000000E+00;  3.9700676E+04; -9.3659110E-02;  0.0000000E+00;  2.2066934E-02;  3.3690269E+03;
  8.2557732E-01;  9.9999998E-03; -1.4045165E-01;7281;  1.5404023E-02;  0.0000000E+00; -4.8584803E-03;  9.9906506E+02;  1.5897886E-01; -7.7459528E+02;3; -7.8334718E+00;  0.0000000E+00; -4.3627644E+00;0; -7.0310056E-02;  1.5921471E+04;  0.0000000E+00; -8.4412295E-01;  4.0000000E+04;  0.0000000E+00;  3.9694258E+04; -8.8788390E-02;  0.0000000E+00;  1.8478330E-02;  2.5689131E+03;
  8.2562542E-01;  9.9999998E-03; -1.5054865E-01;7280;  1.5151692E-02;  0.0000000E+00; -5.0559989E-03;  9.9922003E+02;  1.5901160E-01; -6.4620386E+02;3; -7.4764504E+00;  0.0000000E+00; -4.5261898E+00;0; -6.9260791E-02;  1.5918493E+04;  0.0000000E+00; -7.7685601E-01;  4.0000000E+04;  0.0000000E+00;  3.9691770E+04; -8.6167127E-02;  0.0000000E+00;  1.6906334E-02;  2.1520063E+03;
  8.2566577E-01;  9.9999998E-03; -1.6064124E-01;7279;  1.4905964E-02;  0.0000000E+00; -5.2350666E-03;  9.9934790E+02;  1.5903653E-01; -5.4023157E+02;3; -7.1142812E+00;  0.0000000E+00; -4.6783376E+00;0; -6.7919694E-02;  1.5915273E+04;  0.0000000E+00; -6.9659477E-01;  4.0000000E+04;  0.0000000E+00;  3.9690258E+04; -8.3419412E-02;  0.0000000E+00;  1.5499718E-02;  1.7921385E+03;
  8.2578331E-01;  9.9999998E-03; -1.1029524E-01;7284;  1.6097888E-02;  0.0000000E+00; -4.1233748E-03;  9.9862244E+02;  1.5898904E-01; -1.1413009E+03;3; -8.8729906E+00;  0.0000000E+00; -3.7505300E+00;0; -7.1899280E-02;  1.5903729E+04;  0.0000000E+00; -8.8710386E-01;  4.0000000E+04;  0.0000000E+00;  3.9702883E+04; -9.5934093E-02;  0.0000000E+00;  2.4034817E-02;  3.6102637E+03;
  8.2574970E-01;  9.9999998E-03; -1.7072017E-01;7278;  1.4669060E-02;  0.0000000E+00; -5.4023867E-03;  9.9946136E+02;  1.5906896E-01; -4.4625891E+02;3; -6.7571225E+00;  0.0000000E+00; -4.8041892E+00;0; -6.6321649E-02;  1.5908159E+04;  0.0000000E+00; -6.0774726E-01;  4.0000000E+04;  0.0000000E+00;  3.9689754E+04; -8.0587357E-02;  0.0000000E+00;  1.4265706E-02;  1.5053702E+03;
  8.2589316E-01;  9.9999998E-03; -1.8078880E-01;7277;  1.4447094E-02;  0.0000000E+00; -5.5615925E-03;  9.9952649E+02;  1.5911849E-01; -3.9228516E+02;3; -6.3979554E+00;  0.0000000E+00; -4.9017215E+00;0; -6.4499788E-02;  1.5896093E+04;  0.0000000E+00; -5.0795114E-01;  4.0000000E+04;  0.0000000E+00;  3.9689551E+04; -7.7699907E-02;  0.0000000E+00;  1.3200122E-02;  1.2792198E+03;
  8.2610977E-01;  9.9999998E-03; -1.9084813E-01;7276;  1.4246522E-02;  0.0000000E+00; -5.7191029E-03;  9.9954572E+02;  1.5918867E-01; -3.7638437E+02;3; -6.0294700E+00;  0.0000000E+00; -5.0090904E+00;0; -6.2494479E-02;  1.5877950E+04;  0.0000000E+00; -3.8802269E-01;  4.0000000E+04;  0.0000000E+00;  3.9688988E+04; -7.4792348E-02;  0.0000000E+00;  1.2297870E-02;  1.0641934E+03;
  8.2641315E-01;  9.9999998E-03; -2.0088179E-01;7275;  1.4069433E-02;  0.0000000E+00; -5.8723930E-03;  9.9950739E+02;  1.5928806E-01; -4.0813654E+02;3; -5.6684842E+00;  0.0000000E+00; -5.1009445E+00;0; -6.0348939E-02;  1.5852271E+04;  0.0000000E+00; -2.3613587E-01;  4.0000000E+04;  0.0000000E+00;  3.9687918E+04; -7.1910456E-02;  0.0000000E+00;  1.1561518E-02;  9.0303491E+02;
  8.2665324E-01;  9.9999998E-03; -2.7102736E-01;7268;  1.3667823E-02;  0.0000000E+00; -6.2646656E-03;  9.9799567E+02;  1.5924133E-01; -1.6605454E+03;3; -3.6856372E+00;  0.0000000E+00; -4.8887219E+00;0; -4.4565529E-02;  1.5798561E+04;  0.0000000E+00;  1.8053204E+00;  4.0000000E+04;  0.0000000E+00;  3.9697445E+04; -5.4476805E-02;  0.0000000E+00;  9.9112755E-03;  5.3484800E+03;
  8.2670808E-01;  9.9999998E-03; -2.1090902E-01;7274;  1.3919917E-02;  0.0000000E+00; -6.0105082E-03;  9.9940082E+02;  1.5937988E-01; -4.9643033E+02;3; -5.3232913E+00;  0.0000000E+00; -5.1512861E+00;0; -5.8062747E-02;  1.5826569E+04;  0.0000000E+00; -3.9045721E-02;  4.0000000E+04;  0.0000000E+00;  3.9686930E+04; -6.9063134E-02;  0.0000000E+00;  1.1000388E-02;  9.1968158E+02;
  8.2674682E-01;  9.9999998E-03; -2.6100591E-01;7269;  1.3622819E-02;  0.0000000E+00; -6.1250026E-03;  9.9825604E+02;  1.5929127E-01; -1.4448478E+03;3; -3.8962045E+00;  0.0000000E+00; -5.0039530E+00;0; -4.7574759E-02;  1.5797752E+04;  0.0000000E+00;  1.4221412E+00;  4.0000000E+04;  0.0000000E+00;  3.9692297E+04; -5.6464523E-02;  0.0000000E+00;  8.8897636E-03;  4.2043394E+03;
  9.6288955E-01;  9.9999998E-03; -2.7186742E-01;7695;  5.9507708E-03;  0.0000000E+00; -5.4158834E-03;  9.9598340E+02;  2.2774397E-01; -3.3276558E+03;3;  9.7951174E-01;  0.0000000E+00; -2.5250926E+00;0; -6.0618594E-02;  7.7800698E+03;  0.0000000E+00; -8.5918224E-01;  4.0000000E+04;  0.0000000E+00;  3.9470547E+04; -6.2253170E-02;  0.0000000E+00;  1.6345737E-03;  9.5882812E+03;
  8.2692587E-01;  9.9999998E-03; -2.5098717E-01;7270;  1.3614808E-02;  0.0000000E+00; -6.1186440E-03;  9.9853162E+02;  1.5937358E-01; -1.2165087E+03;3; -4.1277285E+00;  0.0000000E+00; -5.0759482E+00;0; -4.9329184E-02;  1.5791366E+04;  0.0000000E+00;  1.1008701E+00;  4.0000000E+04;  0.0000000E+00;  3.9688344E+04; -5.8663372E-02;  0.0000000E+00;  9.3341898E-03;  3.3194312E+03;
  8.2694137E-01;  9.9999998E-03; -2.2094016E-01;7273;  1.3798675E-02;  0.0000000E+00; -6.1020139E-03;  9.9922449E+02;  1.5944397E-01; -6.4250024E+02;3; -4.9870052E+00;  0.0000000E+00; -5.1711740E+00;0; -5.5693209E-02;  1.5805029E+04;  0.0000000E+00;  2.0915289E-01;  4.0000000E+04;  0.0000000E+00;  3.9684711E+04; -6.6280015E-02;  0.0000000E+00;  1.0586806E-02;  1.1904412E+03;
  8.2700634E-01;  9.9999998E-03; -2.4096954E-01;7271;  1.3646898E-02;  0.0000000E+00; -6.1501064E-03;  9.9879181E+02;  1.5942051E-01; -1.0009592E+03;3; -4.3893366E+00;  0.0000000E+00; -5.1186228E+00;0; -5.1126197E-02;  1.5791327E+04;  0.0000000E+00;  8.0324829E-01;  4.0000000E+04;  0.0000000E+00;  3.9685598E+04; -6.1042063E-02;  0.0000000E+00;  9.9158660E-03;  2.5772146E+03;
  8.2702768E-01;  9.9999998E-03; -2.3096110E-01;7272;  1.3707183E-02;  0.0000000E+00; -6.1188373E-03;  9.9900372E+02;  1.5945144E-01; -8.2540863E+02;3; -4.6779790E+00;  0.0000000E+00; -5.1575303E+00;0; -5.3406689E-02;  1.5794287E+04;  0.0000000E+00;  4.9929908E-01;  4.0000000E+04;  0.0000000E+00;  3.9682914E+04; -6.3590564E-02;  0.0000000E+00;  1.0183875E-02;  1.7911179E+03;
  9.3910033E-01;  9.9999998E-03; -2.7172476E-01;7634;  7.4655782E-03;  0.0000000E+00; -6.4645838E-03;  9.9644189E+02;  2.1439682E-01; -2.9478157E+03;3; -1.9747171E-01;  0.0000000E+00; -3.2767694E+00;0; -6.0074925E-02;  8.7820938E+03;  0.0000000E+00; -5.2293605E-01;  4.0000000E+04;  0.0000000E+00;  3.9509203E+04; -6.5468699E-02;  0.0000000E+00;  5.3937729E-03;  5.4031265E+03;
  8.4229821E-01;  9.9999998E-03; -2.7111354E-01;7329;  1.2928661E-02;  0.0000000E+00; -6.5074693E-03;  9.9723724E+02;  1.6589199E-01; -2.2888733E+03;3; -3.4018369E+00;  0.0000000E+00; -4.8272920E+00;0; -4.9030058E-02;  1.4554142E+04;  0.0000000E+00;  1.9105700E+00;  4.0000000E+04;  0.0000000E+00;  3.9675199E+04; -5.6593392E-02;  0.0000000E+00;  7.5633326E-03;  4.3877114E+03;
  8.4217328E-01;  9.9999998E-03; -1.1052644E-01;7345;  1.4406975E-02;  0.0000000E+00; -4.4734199E-03;  9.9825189E+02;  1.6609991E-01; -1.4482551E+03;3; -9.2653179E+00;  0.0000000E+00; -3.8600616E+00;0; -7.8869030E-02;  1.4580440E+04;  0.0000000E+00; -8.9071113E-01;  4.0000000E+04;  0.0000000E+00;  3.9675020E+04; -1.0464684E-01;  0.0000000E+00;  2.5777806E-02;  3.8488855E+03;
  8.4235597E-01;  9.9999998E-03; -2.6108712E-01;7330;  1.2863225E-02;  0.0000000E+00; -6.5087266E-03;  9.9756268E+02;  1.6592348E-01; -2.0192512E+03;3; -3.6448486E+00;  0.0000000E+00; -4.9272456E+00;0; -5.0889794E-02;  1.4557670E+04;  0.0000000E+00;  1.9469737E+00;  4.0000000E+04;  0.0000000E+00;  3.9670207E+04; -5.8854803E-02;  0.0000000E+00;  7.9650106E-03;  5.1840083E+03;
  8.4211242E-01;  9.9999998E-03; -1.2053288E-01;7344;  1.4220998E-02;  0.0000000E+00; -4.7771046E-03;  9.9835876E+02;  1.6610283E-01; -1.3597145E+03;3; -8.8932571E+00;  0.0000000E+00; -4.0931034E+00;0; -7.8486875E-02;  1.4581205E+04;  0.0000000E+00; -8.9399070E-01;  4.0000000E+04;  0.0000000E+00;  3.9673355E+04; -1.0204798E-01;  0.0000000E+00;  2.3561101E-02;  3.5742490E+03;
  8.4245735E-01;  9.9999998E-03; -2.5105873E-01;7331;  1.2825864E-02;  0.0000000E+00; -6.6131568E-03;  9.9790582E+02;  1.6597581E-01; -1.7349630E+03;3; -3.9135609E+00;  0.0000000E+00; -4.9810567E+00;0; -5.2278668E-02;  1.4557576E+04;  0.0000000E+00;  1.6472428E+00;  4.0000000E+04;  0.0000000E+00;  3.9667758E+04; -6.1344106E-02;  0.0000000E+00;  9.0654390E-03;  5.1472100E+03;
  8.4240484E-01;  9.9999998E-03; -2.4102846E-01;7332;  1.2816777E-02;  0.0000000E+00; -6.6639404E-03;  9.9823004E+02;  1.6597667E-01; -1.4663781E+03;3; -4.2111149E+00;  0.0000000E+00; -5.0390649E+00;0; -5.4468416E-02;  1.4565987E+04;  0.0000000E+00;  1.1633917E+00;  4.0000000E+04;  0.0000000E+00;  3.9666426E+04; -6.4023823E-02;  0.0000000E+00;  9.5554069E-03;  4.3801372E+03;
  8.4193134E-01;  9.9999998E-03; -1.3055217E-01;7343;  1.4041167E-02;  0.0000000E+00; -5.0494936E-03;  9.9846722E+02;  1.6605876E-01; -1.2698898E+03;3; -8.5032225E+00;  0.0000000E+00; -4.3073406E+00;0; -7.7770427E-02;  1.4590429E+04;  0.0000000E+00; -8.6158764E-01;  4.0000000E+04;  0.0000000E+00;  3.9670977E+04; -9.9207170E-02;  0.0000000E+00;  2.1436745E-02;  3.1376699E+03;
  8.4106863E-01;  9.9999998E-03; -1.7066894E-01;7339;  1.3370446E-02;  0.0000000E+00; -5.8706361E-03;  9.9889758E+02;  1.6575202E-01; -9.1330737E+02;3; -6.8919926E+00;  0.0000000E+00; -4.8841748E+00;0; -7.1831688E-02;  1.4645391E+04;  0.0000000E+00; -7.0057732E-01;  4.0000000E+04;  0.0000000E+00;  3.9665438E+04; -8.6383209E-02;  0.0000000E+00;  1.4551519E-02;  1.7404131E+03;
  8.4109187E-01;  9.9999998E-03; -1.6064656E-01;7340;  1.3538440E-02;  0.0000000E+00; -5.6913127E-03;  9.9879852E+02;  1.6576836E-01; -9.9537909E+02;3; -7.2962141E+00;  0.0000000E+00; -4.7827225E+00;0; -7.3677011E-02;  1.4643383E+04;  0.0000000E+00; -7.1959627E-01;  4.0000000E+04;  0.0000000E+00;  3.9665895E+04; -8.9675061E-02;  0.0000000E+00;  1.5998051E-02;  1.8979863E+03;
  8.4129137E-01;  9.9999998E-03; -1.5061820E-01;7341;  1.3707256E-02;  0.0000000E+00; -5.4995851E-03;  9.9868658E+02;  1.6584438E-01; -1.0881172E+03;3; -7.7012224E+00;  0.0000000E+00; -4.6468725E+00;0; -7.5308397E-02;  1.4630059E+04;  0.0000000E+00; -7.5628871E-01;  4.0000000E+04;  0.0000000E+00;  3.9667016E+04; -9.2939474E-02;  0.0000000E+00;  1.7631076E-02;  2.2074529E+03;
  8.4160292E-01;  9.9999998E-03; -1.4058146E-01;7342;  1.3873879E-02;  0.0000000E+00; -5.2882629E-03;  9.9857172E+02;  1.6595395E-01; -1.1833243E+03;3; -8.1041527E+00;  0.0000000E+00; -4.4888196E+00;0; -7.6688230E-02;  1.4610190E+04;  0.0000000E+00; -8.0896491E-01;  4.0000000E+04;  0.0000000E+00;  3.9668816E+04; -9.6137263E-02;  0.0000000E+00;  1.9449035E-02;  2.6461187E+03;
  8.4228528E-01;  9.9999998E-03; -2.3100509E-01;7333;  1.2826950E-02;  0.0000000E+00; -6.6220718E-03;  9.9848639E+02;  1.6596627E-01; -1.2539890E+03;3; -4.5382328E+00;  0.0000000E+00; -5.0843353E+00;0; -5.7181604E-02;  1.4575650E+04;  0.0000000E+00;  6.2867457E-01;  4.0000000E+04;  0.0000000E+00;  3.9663887E+04; -6.6891998E-02;  0.0000000E+00;  9.7103920E-03;  3.1947705E+03;
  8.4119511E-01;  9.9999998E-03; -1.8069278E-01;7338;  1.3213350E-02;  0.0000000E+00; -6.0418216E-03;  9.9897473E+02;  1.6578287E-01; -8.4940796E+02;3; -6.4838400E+00;  0.0000000E+00; -4.9727817E+00;0; -6.9783866E-02;  1.4637655E+04;  0.0000000E+00; -6.8088430E-01;  4.0000000E+04;  0.0000000E+00;  3.9665656E+04; -8.3069906E-02;  0.0000000E+00;  1.3286041E-02;  1.7343182E+03;
  8.4210521E-01;  9.9999998E-03; -2.2093469E-01;7334;  1.2853257E-02;  0.0000000E+00; -6.6346815E-03;  9.9878497E+02;  1.6594751E-01; -1.0066381E+03;3; -4.8895144E+00;  0.0000000E+00; -5.1165047E+00;0; -5.9757009E-02;  1.4586431E+04;  0.0000000E+00;  1.4240967E-01;  4.0000000E+04;  0.0000000E+00;  3.9669609E+04; -6.9941647E-02;  0.0000000E+00;  1.0184638E-02;  2.7517065E+03;
  8.4140992E-01;  9.9999998E-03; -1.9072677E-01;7337;  1.3079224E-02;  0.0000000E+00; -6.2008644E-03;  9.9901764E+02;  1.6583627E-01; -8.1385339E+02;3; -6.0745749E+00;  0.0000000E+00; -5.0327497E+00;0; -6.7542426E-02;  1.4624688E+04;  0.0000000E+00; -6.2436849E-01;  4.0000000E+04;  0.0000000E+00;  3.9667043E+04; -7.9740904E-02;  0.0000000E+00;  1.2198478E-02;  1.8812538E+03;
  8.4165376E-01;  9.9999998E-03; -2.0076498E-01;7336;  1.2973486E-02;  0.0000000E+00; -6.3599469E-03;  9.9902704E+02;  1.6588798E-01; -8.0610052E+02;3; -5.6624975E+00;  0.0000000E+00; -5.0917006E+00;0; -6.5120362E-02;  1.4610648E+04;  0.0000000E+00; -4.8802671E-01;  4.0000000E+04;  0.0000000E+00;  3.9670516E+04; -7.6421000E-02;  0.0000000E+00;  1.1300639E-02;  2.2487910E+03;
  8.4188432E-01;  9.9999998E-03; -2.1083258E-01;7335;  1.2899317E-02;  0.0000000E+00; -6.5291873E-03;  9.9897345E+02;  1.6592231E-01; -8.5049432E+02;3; -5.2667270E+00;  0.0000000E+00; -5.1207185E+00;0; -6.2498350E-02;  1.4598305E+04;  0.0000000E+00; -2.3607697E-01;  4.0000000E+04;  0.0000000E+00;  3.9673031E+04; -7.3137775E-02;  0.0000000E+00;  1.0639424E-02;  2.6962678E+03;
  8.6037123E-01;  9.9999998E-03; -1.1071236E-01;7406;  1.2354097E-02;  0.0000000E+00; -4.8678541E-03;  9.9866663E+02;  1.7433594E-01; -1.1046599E+03;3; -9.6965513E+00;  0.0000000E+00; -3.9965999E+00;0; -8.7498792E-02;  1.3265814E+04;  0.0000000E+00; -7.9066610E-01;  4.0000000E+04;  0.0000000E+00;  3.9643781E+04; -1.1437714E-01;  0.0000000E+00;  2.6878348E-02;  3.7729749E+03;
  8.6032832E-01;  9.9999998E-03; -1.2075315E-01;7405;  1.2209753E-02;  0.0000000E+00; -5.1789451E-03;  9.9874518E+02;  1.7432036E-01; -1.0395753E+03;3; -9.2748079E+00;  0.0000000E+00; -4.2269526E+00;0; -8.6973503E-02;  1.3266693E+04;  0.0000000E+00; -7.9924721E-01;  4.0000000E+04;  0.0000000E+00;  3.9642094E+04; -1.1130261E-01;  0.0000000E+00;  2.4329104E-02;  3.4632380E+03;
  8.6012244E-01;  9.9999998E-03; -1.3078913E-01;7404;  1.2085710E-02;  0.0000000E+00; -5.4531056E-03;  9.9882965E+02;  1.7424037E-01; -9.6960199E+02;3; -8.8332062E+00;  0.0000000E+00; -4.4473333E+00;0; -8.6046368E-02;  1.3277912E+04;  0.0000000E+00; -7.8381538E-01;  4.0000000E+04;  0.0000000E+00;  3.9639844E+04; -1.0795763E-01;  0.0000000E+00;  2.1911263E-02;  3.0039517E+03;
  8.5992414E-01;  9.9999998E-03; -1.4083830E-01;7403;  1.1966632E-02;  0.0000000E+00; -5.6925383E-03;  9.9892499E+02;  1.7416176E-01; -8.9064130E+02;3; -8.3801956E+00;  0.0000000E+00; -4.6213608E+00;0; -8.4781013E-02;  1.3289397E+04;  0.0000000E+00; -7.6860940E-01;  4.0000000E+04;  0.0000000E+00;  3.9637844E+04; -1.0444864E-01;  0.0000000E+00;  1.9667625E-02;  2.5322771E+03;
  8.5977399E-01;  9.9999998E-03; -1.5087894E-01;7402;  1.1853472E-02;  0.0000000E+00; -5.9032934E-03;  9.9902686E+02;  1.7409930E-01; -8.0624860E+02;3; -7.9216208E+00;  0.0000000E+00; -4.7766232E+00;0; -8.3199397E-02;  1.3298739E+04;  0.0000000E+00; -7.8233391E-01;  4.0000000E+04;  0.0000000E+00;  3.9635680E+04; -1.0082217E-01;  0.0000000E+00;  1.7622773E-02;  2.1620867E+03;
  8.5968781E-01;  9.9999998E-03; -1.6090649E-01;7401;  1.1750379E-02;  0.0000000E+00; -6.0943752E-03;  9.9912317E+02;  1.7405508E-01; -7.2644843E+02;3; -7.4605889E+00;  0.0000000E+00; -4.8958802E+00;0; -8.1321865E-02;  1.3304724E+04;  0.0000000E+00; -8.4565818E-01;  4.0000000E+04;  0.0000000E+00;  3.9634273E+04; -9.7106554E-02;  0.0000000E+00;  1.5784692E-02;  1.9306289E+03;
  8.5965943E-01;  9.9999998E-03; -1.7092107E-01;7400;  1.1664797E-02;  0.0000000E+00; -6.2694591E-03;  9.9920020E+02;  1.7402804E-01; -6.6259839E+02;3; -6.9954963E+00;  0.0000000E+00; -4.9743137E+00;0; -7.9167418E-02;  1.3307868E+04;  0.0000000E+00; -9.5714080E-01;  4.0000000E+04;  0.0000000E+00;  3.9633180E+04; -9.3322992E-02;  0.0000000E+00;  1.4155572E-02;  1.8207313E+03;
  8.5964280E-01;  9.9999998E-03; -1.8093038E-01;7399;  1.1607402E-02;  0.0000000E+00; -6.4255637E-03;  9.9923737E+02;  1.7399713E-01; -6.3183386E+02;3; -6.5288930E+00;  0.0000000E+00; -4.9943852E+00;0; -7.6749735E-02;  1.3310909E+04;  0.0000000E+00; -1.0857434E+00;  4.0000000E+04;  0.0000000E+00;  3.9632746E+04; -8.9483306E-02;  0.0000000E+00;  1.2733569E-02;  1.8302382E+03;
  8.5959518E-01;  9.9999998E-03; -1.9094516E-01;7398;  1.1583767E-02;  0.0000000E+00; -6.5682582E-03;  9.9922546E+02;  1.7393865E-01; -6.4171008E+02;3; -6.0628791E+00;  0.0000000E+00; -5.0498958E+00;0; -7.4095756E-02;  1.3316499E+04;  0.0000000E+00; -1.1754797E+00;  4.0000000E+04;  0.0000000E+00;  3.9632656E+04; -8.5610591E-02;  0.0000000E+00;  1.1514839E-02;  1.9155841E+03;
  8.5944670E-01;  9.9999998E-03; -2.0095865E-01;7397;  1.1597401E-02;  0.0000000E+00; -6.7031542E-03;  9.9916132E+02;  1.7383802E-01; -6.9484436E+02;3; -5.6062961E+00;  0.0000000E+00; -5.0790162E+00;0; -7.1228333E-02;  1.3327782E+04;  0.0000000E+00; -1.1510471E+00;  4.0000000E+04;  0.0000000E+00;  3.9633957E+04; -8.1736542E-02;  0.0000000E+00;  1.0508207E-02;  1.9913098E+03;
  8.5925686E-01;  9.9999998E-03; -2.1098281E-01;7396;  1.1640985E-02;  0.0000000E+00; -6.8442360E-03;  9.9904938E+02;  1.7371981E-01; -7.8758246E+02;3; -5.1638880E+00;  0.0000000E+00; -5.0807910E+00;0; -6.8184257E-02;  1.3340871E+04;  0.0000000E+00; -9.5403314E-01;  4.0000000E+04;  0.0000000E+00;  3.9636254E+04; -7.7928834E-02;  0.0000000E+00;  9.7445808E-03;  2.0454921E+03;
  8.5906947E-01;  9.9999998E-03; -2.2103627E-01;7395;  1.1707723E-02;  0.0000000E+00; -6.9598225E-03;  9.9884021E+02;  1.7360167E-01; -9.6086151E+02;3; -4.7454019E+00;  0.0000000E+00; -5.0403085E+00;0; -6.4999856E-02;  1.3352616E+04;  0.0000000E+00; -5.6031507E-01;  4.0000000E+04;  0.0000000E+00;  3.9636461E+04; -7.4242815E-02;  0.0000000E+00;  9.2429603E-03;  2.0138376E+03;
  8.5890406E-01;  9.9999998E-03; -2.3107769E-01;7394;  1.1782839E-02;  0.0000000E+00; -7.0405491E-03;  9.9858295E+02;  1.7350204E-01; -1.1739912E+03;3; -4.3446393E+00;  0.0000000E+00; -4.9969330E+00;0; -6.1732426E-02;  1.3361249E+04;  0.0000000E+00; -7.4059441E-05;  4.0000000E+04;  0.0000000E+00;  3.9637105E+04; -7.0745721E-02;  0.0000000E+00;  9.0132961E-03;  2.6742329E+03;
  8.5876137E-01;  9.9999998E-03; -2.4110982E-01;7393;  1.1859994E-02;  0.0000000E+00; -7.1284380E-03;  9.9828394E+02;  1.7342499E-01; -1.4217373E+03;3; -3.9730387E+00;  0.0000000E+00; -4.9482255E+00;0; -5.8240339E-02;  1.3366552E+04;  0.0000000E+00;  6.3207603E-01;  4.0000000E+04;  0.0000000E+00;  3.9640328E+04; -6.7470960E-02;  0.0000000E+00;  9.2306193E-03;  3.7993108E+03;
  8.5868281E-01;  9.9999998E-03; -2.5114781E-01;7392;  1.1937565E-02;  0.0000000E+00; -7.1140337E-03;  9.9791241E+02;  1.7338832E-01; -1.7295309E+03;3; -3.6332541E+00;  0.0000000E+00; -4.8687167E+00;0; -5.5084690E-02;  1.3365162E+04;  0.0000000E+00;  1.1553884E+00;  4.0000000E+04;  0.0000000E+00;  3.9641418E+04; -6.4443730E-02;  0.0000000E+00;  9.3590403E-03;  4.2435474E+03;
  8.5866773E-01;  9.9999998E-03; -2.6118416E-01;7391;  1.2018240E-02;  0.0000000E+00; -6.9745118E-03;  9.9748511E+02;  1.7338814E-01; -2.0835457E+03;3; -3.3301077E+00;  0.0000000E+00; -4.7770905E+00;0; -5.3114619E-02;  1.3357416E+04;  0.0000000E+00;  1.3242675E+00;  4.0000000E+04;  0.0000000E+00;  3.9642289E+04; -6.1674673E-02;  0.0000000E+00;  8.5600540E-03;  3.4809998E+03;
  8.5886317E-01;  9.9999998E-03; -2.7121732E-01;7390;  1.2110988E-02;  0.0000000E+00; -6.8885013E-03;  9.9706348E+02;  1.7348425E-01; -2.4328689E+03;3; -3.0440202E+00;  0.0000000E+00; -4.6633205E+00;0; -5.1342189E-02;  1.3333803E+04;  0.0000000E+00;  9.9002862E-01;  4.0000000E+04;  0.0000000E+00;  3.9646016E+04; -5.9181795E-02;  0.0000000E+00;  7.8396061E-03;  3.4764944E+03;
  8.7783498E-01;  9.9999998E-03; -1.1071412E-01;7467;  1.0167914E-02;  0.0000000E+00; -5.2403188E-03;  9.9890363E+02;  1.8275844E-01; -9.0831964E+02;3; -1.0117710E+01;  0.0000000E+00; -4.0931435E+00;0; -9.6417949E-02;  1.2091690E+04;  0.0000000E+00; -6.3005280E-01;  4.0000000E+04;  0.0000000E+00;  3.9612191E+04; -1.2348755E-01;  0.0000000E+00;  2.7069610E-02;  3.5390977E+03;
  8.7791389E-01;  9.9999998E-03; -1.2076177E-01;7466;  1.0065980E-02;  0.0000000E+00; -5.5388669E-03;  9.9898718E+02;  1.8278958E-01; -8.3908704E+02;3; -9.6502304E+00;  0.0000000E+00; -4.3303585E+00;0; -9.5765866E-02;  1.2085450E+04;  0.0000000E+00; -6.5939426E-01;  4.0000000E+04;  0.0000000E+00;  3.9609730E+04; -1.1994748E-01;  0.0000000E+00;  2.4181614E-02;  3.1957947E+03;
  8.7790483E-01;  9.9999998E-03; -1.3081199E-01;7465;  9.9829212E-03;  0.0000000E+00; -5.7937251E-03;  9.9908795E+02;  1.8278068E-01; -7.5563269E+02;3; -9.1593590E+00;  0.0000000E+00; -4.5387573E+00;0; -9.4701938E-02;  1.2085749E+04;  0.0000000E+00; -6.8021131E-01;  4.0000000E+04;  0.0000000E+00;  3.9606621E+04; -1.1617425E-01;  0.0000000E+00;  2.1472313E-02;  2.7347666E+03;
  8.7782073E-01;  9.9999998E-03; -1.4086244E-01;7464;  9.9220909E-03;  0.0000000E+00; -6.0038967E-03;  9.9921234E+02;  1.8273625E-01; -6.5257391E+02;3; -8.6469879E+00;  0.0000000E+00; -4.7027545E+00;0; -9.3220584E-02;  1.2091721E+04;  0.0000000E+00; -7.1685839E-01;  4.0000000E+04;  0.0000000E+00;  3.9603441E+04; -1.1221162E-01;  0.0000000E+00;  1.8991038E-02;  2.2794429E+03;
  8.7769330E-01;  9.9999998E-03; -1.5090765E-01;7463;  9.8839244E-03;  0.0000000E+00; -6.1761993E-03;  9.9934937E+02;  1.8266727E-01; -5.3904626E+02;3; -8.1281204E+00;  0.0000000E+00; -4.8169923E+00;0; -9.1349483E-02;  1.2101416E+04;  0.0000000E+00; -7.9582500E-01;  4.0000000E+04;  0.0000000E+00;  3.9600777E+04; -1.0810928E-01;  0.0000000E+00;  1.6759800E-02;  1.9107822E+03;
  8.7756640E-01;  9.9999998E-03; -1.6094190E-01;7462;  9.8674642E-03;  0.0000000E+00; -6.3275187E-03;  9.9948224E+02;  1.8259618E-01; -4.2897537E+02;3; -7.6109228E+00;  0.0000000E+00; -4.8991346E+00;0; -8.9133330E-02;  1.2111658E+04;  0.0000000E+00; -9.3445110E-01;  4.0000000E+04;  0.0000000E+00;  3.9599020E+04; -1.0391578E-01;  0.0000000E+00;  1.4782453E-02;  1.6316765E+03;
  8.7750244E-01;  9.9999998E-03; -1.7096569E-01;7461;  9.8725278E-03;  0.0000000E+00; -6.4641405E-03;  9.9958881E+02;  1.8255143E-01; -3.4068158E+02;3; -7.0822845E+00;  0.0000000E+00; -4.9667010E+00;0; -8.6631097E-02;  1.2118530E+04;  0.0000000E+00; -1.1294971E+00;  4.0000000E+04;  0.0000000E+00;  3.9597707E+04; -9.9680766E-02;  0.0000000E+00;  1.3049672E-02;  1.4734436E+03;
  8.7749434E-01;  9.9999998E-03; -1.8098338E-01;7460;  9.9046556E-03;  0.0000000E+00; -6.5929405E-03;  9.9966028E+02;  1.8252826E-01; -2.8147342E+02;3; -6.5449724E+00;  0.0000000E+00; -5.0056119E+00;0; -8.3880782E-02;  1.2122175E+04;  0.0000000E+00; -1.3485993E+00;  4.0000000E+04;  0.0000000E+00;  3.9596902E+04; -9.5429093E-02;  0.0000000E+00;  1.1548313E-02;  1.5711113E+03;
  8.7750024E-01;  9.9999998E-03; -1.9100329E-01;7459;  9.9686123E-03;  0.0000000E+00; -6.7158653E-03;  9.9967206E+02;  1.8250385E-01; -2.7169592E+02;3; -6.0213170E+00;  0.0000000E+00; -5.0182934E+00;0; -8.0915108E-02;  1.2125147E+04;  0.0000000E+00; -1.5347472E+00;  4.0000000E+04;  0.0000000E+00;  3.9596957E+04; -9.1180041E-02;  0.0000000E+00;  1.0264934E-02;  1.9036154E+03;
  8.7750083E-01;  9.9999998E-03; -2.0103088E-01;7458;  1.0064786E-02;  0.0000000E+00; -6.8449774E-03;  9.9962305E+02;  1.8246844E-01; -3.1228735E+02;3; -5.5046144E+00;  0.0000000E+00; -5.0161295E+00;0; -7.7771455E-02;  1.2128404E+04;  0.0000000E+00; -1.6217321E+00;  4.0000000E+04;  0.0000000E+00;  3.9597969E+04; -8.6969331E-02;  0.0000000E+00;  9.1978721E-03;  2.2276106E+03;
  8.7748307E-01;  9.9999998E-03; -2.1106504E-01;7457;  1.0191002E-02;  0.0000000E+00; -6.9939489E-03;  9.9950427E+02;  1.8241771E-01; -4.1070428E+02;3; -4.9981513E+00;  0.0000000E+00; -5.0134926E+00;0; -7.4453615E-02;  1.2132168E+04;  0.0000000E+00; -1.5544127E+00;  4.0000000E+04;  0.0000000E+00;  3.9600395E+04; -8.2840867E-02;  0.0000000E+00;  8.3872555E-03;  2.3873306E+03;
  8.7744462E-01;  9.9999998E-03; -2.2112608E-01;7456;  1.0344765E-02;  0.0000000E+00; -7.1393689E-03;  9.9928241E+02;  1.8235521E-01; -5.9450146E+02;3; -4.5169458E+00;  0.0000000E+00; -4.9708052E+00;0; -7.0941374E-02;  1.2136048E+04;  0.0000000E+00; -1.3041196E+00;  4.0000000E+04;  0.0000000E+00;  3.9600820E+04; -7.8831881E-02;  0.0000000E+00;  7.8905076E-03;  2.1312278E+03;
  8.7733537E-01;  9.9999998E-03; -2.3118304E-01;7455;  1.0516189E-02;  0.0000000E+00; -7.2336569E-03;  9.9897113E+02;  1.8226907E-01; -8.5242004E+02;3; -4.0632677E+00;  0.0000000E+00; -4.9140830E+00;0; -6.7301027E-02;  1.2142493E+04;  0.0000000E+00; -8.7700528E-01;  4.0000000E+04;  0.0000000E+00;  3.9600406E+04; -7.4991174E-02;  0.0000000E+00;  7.6901433E-03;  1.7484592E+03;
  8.7713736E-01;  9.9999998E-03; -2.4121694E-01;7454;  1.0692104E-02;  0.0000000E+00; -7.3955809E-03;  9.9866339E+02;  1.8215969E-01; -1.1073756E+03;3; -3.6387534E+00;  0.0000000E+00; -4.8024707E+00;0; -6.3067608E-02;  1.2151922E+04;  0.0000000E+00; -3.4483257E-01;  4.0000000E+04;  0.0000000E+00;  3.9604879E+04; -7.1366161E-02;  0.0000000E+00;  8.2985517E-03;  2.2620901E+03;
  8.7697709E-01;  9.9999998E-03; -2.5125712E-01;7453;  1.0863726E-02;  0.0000000E+00; -7.4868719E-03;  9.9827069E+02;  1.8209074E-01; -1.4326997E+03;3; -3.2482238E+00;  0.0000000E+00; -4.6936116E+00;0; -5.8620501E-02;  1.2156020E+04;  0.0000000E+00;  1.0452271E-01;  4.0000000E+04;  0.0000000E+00;  3.9607520E+04; -6.7999825E-02;  0.0000000E+00;  9.3793245E-03;  2.5842698E+03;
  8.7722594E-01;  9.9999998E-03; -2.6130083E-01;7452;  1.1009907E-02;  0.0000000E+00; -7.3706396E-03;  9.9778235E+02;  1.8223773E-01; -1.8372806E+03;3; -2.8874245E+00;  0.0000000E+00; -4.5770526E+00;0; -5.5571046E-02;  1.2130478E+04;  0.0000000E+00;  2.3284130E-01;  4.0000000E+04;  0.0000000E+00;  3.9607547E+04; -6.4972706E-02;  0.0000000E+00;  9.4016604E-03;  2.9881343E+03;
  8.7764287E-01;  9.9999998E-03; -2.7134106E-01;7451;  1.1166262E-02;  0.0000000E+00; -7.2098514E-03;  9.9730487E+02;  1.8247740E-01; -2.2328743E+03;3; -2.5508032E+00;  0.0000000E+00; -4.4212031E+00;0; -5.3530645E-02;  1.2091913E+04;  0.0000000E+00;  9.1321014E-02;  4.0000000E+04;  0.0000000E+00;  3.9608957E+04; -6.2227633E-02;  0.0000000E+00;  8.6969882E-03;  5.4665127E+03;
  8.9654309E-01;  9.9999998E-03; -2.7146879E-01;7512;  1.0162927E-02;  0.0000000E+00; -7.2796242E-03;  9.9783746E+02;  1.9199100E-01; -1.7916030E+03;3; -1.9449265E+00;  0.0000000E+00; -4.1303725E+00;0; -5.6109160E-02;  1.0960748E+04;  0.0000000E+00; -7.1460789E-01;  4.0000000E+04;  0.0000000E+00;  3.9568789E+04; -6.4822830E-02;  0.0000000E+00;  8.7136691E-03;  7.5359004E+03;
  8.9606971E-01;  9.9999998E-03; -2.6142341E-01;7513;  9.8986384E-03;  0.0000000E+00; -7.4902046E-03;  9.9833221E+02;  1.9173323E-01; -1.3817382E+03;3; -2.3384295E+00;  0.0000000E+00; -4.3070912E+00;0; -5.8575712E-02;  1.0996088E+04;  0.0000000E+00; -4.0224576E-01;  4.0000000E+04;  0.0000000E+00;  3.9568895E+04; -6.7832932E-02;  0.0000000E+00;  9.2572216E-03;  3.8389453E+03;
  8.9553744E-01;  9.9999998E-03; -2.5137454E-01;7514;  9.6599320E-03;  0.0000000E+00; -7.5381589E-03;  9.9882611E+02;  1.9143374E-01; -9.7256470E+02;3; -2.7685571E+00;  0.0000000E+00; -4.4755583E+00;0; -6.2874824E-02;  1.1034649E+04;  0.0000000E+00; -3.5537571E-01;  4.0000000E+04;  0.0000000E+00;  3.9569297E+04; -7.1100689E-02;  0.0000000E+00;  8.2258629E-03;  2.2327556E+03;
  8.9557368E-01;  9.9999998E-03; -2.4133119E-01;7515;  9.3829660E-03;  0.0000000E+00; -7.3423851E-03;  9.9915137E+02;  1.9141844E-01; -7.0309094E+02;3; -3.2231998E+00;  0.0000000E+00; -4.6400223E+00;0; -6.8312220E-02;  1.1037755E+04;  0.0000000E+00; -6.0035533E-01;  4.0000000E+04;  0.0000000E+00;  3.9566039E+04; -7.4717738E-02;  0.0000000E+00;  6.4055175E-03;  1.6556962E+03;
  8.9578152E-01;  9.9999998E-03; -2.3128551E-01;7516;  9.0921968E-03;  0.0000000E+00; -7.1678339E-03;  9.9939911E+02;  1.9151023E-01; -4.9781290E+02;3; -3.7063646E+00;  0.0000000E+00; -4.7563152E+00;0; -7.2892807E-02;  1.1028155E+04;  0.0000000E+00; -1.0115801E+00;  4.0000000E+04;  0.0000000E+00;  3.9562660E+04; -7.8622505E-02;  0.0000000E+00;  5.7296958E-03;  1.4042810E+03;
  8.9590734E-01;  9.9999998E-03; -2.2119781E-01;7517;  8.8109914E-03;  0.0000000E+00; -7.0942207E-03;  9.9966290E+02;  1.9158123E-01; -2.7930063E+02;3; -4.2275333E+00;  0.0000000E+00; -4.8243446E+00;0; -7.6791123E-02;  1.1021193E+04;  0.0000000E+00; -1.3894525E+00;  4.0000000E+04;  0.0000000E+00;  3.9566312E+04; -8.2763523E-02;  0.0000000E+00;  5.9724008E-03;  2.1823621E+03;
  8.9593327E-01;  9.9999998E-03; -2.1110520E-01;7518;  8.5600372E-03;  0.0000000E+00; -6.9406866E-03;  9.9980615E+02;  1.9161187E-01; -1.6058800E+02;3; -4.7801380E+00;  0.0000000E+00; -4.8698459E+00;0; -8.0635957E-02;  1.1018192E+04;  0.0000000E+00; -1.6269683E+00;  4.0000000E+04;  0.0000000E+00;  3.9566531E+04; -8.7081499E-02;  0.0000000E+00;  6.4455452E-03;  2.5103030E+03;
  8.9594150E-01;  9.9999998E-03; -2.0104800E-01;7519;  8.3426023E-03;  0.0000000E+00; -6.7869797E-03;  9.9982458E+02;  1.9163433E-01; -1.4532916E+02;3; -5.3504095E+00;  0.0000000E+00; -4.8967547E+00;0; -8.4283628E-02;  1.1015101E+04;  0.0000000E+00; -1.7039145E+00;  4.0000000E+04;  0.0000000E+00;  3.9562809E+04; -9.1532439E-02;  0.0000000E+00;  7.2488133E-03;  2.2591853E+03;
  8.9594936E-01;  9.9999998E-03; -1.9101152E-01;7520;  8.1574153E-03;  0.0000000E+00; -6.6758818E-03;  9.9976575E+02;  1.9164902E-01; -1.9406851E+02;3; -5.9426379E+00;  0.0000000E+00; -4.9215169E+00;0; -8.7759383E-02;  1.1011209E+04;  0.0000000E+00; -1.6369190E+00;  4.0000000E+04;  0.0000000E+00;  3.9559723E+04; -9.6085906E-02;  0.0000000E+00;  8.3265258E-03;  1.7821981E+03;
  8.9597785E-01;  9.9999998E-03; -1.8099232E-01;7521;  8.0022523E-03;  0.0000000E+00; -6.5876637E-03;  9.9964740E+02;  1.9166999E-01; -2.9213977E+02;3; -6.5375924E+00;  0.0000000E+00; -4.9359717E+00;0; -9.1083631E-02;  1.1005654E+04;  0.0000000E+00; -1.4685799E+00;  4.0000000E+04;  0.0000000E+00;  3.9558570E+04; -1.0070840E-01;  0.0000000E+00;  9.6247699E-03;  1.2338506E+03;
  8.9603585E-01;  9.9999998E-03; -1.7097002E-01;7522;  7.8759789E-03;  0.0000000E+00; -6.5105967E-03;  9.9948566E+02;  1.9170292E-01; -4.2611124E+02;3; -7.1326923E+00;  0.0000000E+00; -4.9091520E+00;0; -9.4219089E-02;  1.0998167E+04;  0.0000000E+00; -1.2537946E+00;  4.0000000E+04;  0.0000000E+00;  3.9558633E+04; -1.0537536E-01;  0.0000000E+00;  1.1156278E-02;  9.5122333E+02;
  8.9607644E-01;  9.9999998E-03; -1.6091923E-01;7523;  7.7815568E-03;  0.0000000E+00; -6.4322283E-03;  9.9928619E+02;  1.9173066E-01; -5.9139044E+02;3; -7.7349052E+00;  0.0000000E+00; -4.8520780E+00;0; -9.7093225E-02;  1.0991216E+04;  0.0000000E+00; -1.0410476E+00;  4.0000000E+04;  0.0000000E+00;  3.9560504E+04; -1.1005203E-01;  0.0000000E+00;  1.2958799E-02;  1.1672087E+03;
  8.9619666E-01;  9.9999998E-03; -1.5085846E-01;7524;  7.7054431E-03;  0.0000000E+00; -6.3380417E-03;  9.9908221E+02;  1.9179848E-01; -7.6037329E+02;3; -8.3357954E+00;  0.0000000E+00; -4.7503529E+00;0; -9.9684209E-02;  1.0980276E+04;  0.0000000E+00; -8.6154270E-01;  4.0000000E+04;  0.0000000E+00;  3.9562867E+04; -1.1472905E-01;  0.0000000E+00;  1.5044834E-02;  1.5871947E+03;
  8.9637715E-01;  9.9999998E-03; -1.4078850E-01;7525;  7.6457197E-03;  0.0000000E+00; -6.2217452E-03;  9.9889557E+02;  1.9189313E-01; -9.1498615E+02;3; -8.9159002E+00;  0.0000000E+00; -4.6547337E+00;0; -1.0194468E-01;  1.0967132E+04;  0.0000000E+00; -7.2378719E-01;  4.0000000E+04;  0.0000000E+00;  3.9566273E+04; -1.1937693E-01;  0.0000000E+00;  1.7432248E-02;  2.0522686E+03;
  8.9656323E-01;  9.9999998E-03; -1.3071617E-01;7526;  7.6054740E-03;  0.0000000E+00; -6.0683805E-03;  9.9873853E+02;  1.9198896E-01; -1.0451058E+03;3; -9.4876785E+00;  0.0000000E+00; -4.5304537E+00;0; -1.0381927E-01;  1.0954988E+04;  0.0000000E+00; -6.2139374E-01;  4.0000000E+04;  0.0000000E+00;  3.9569895E+04; -1.2394735E-01;  0.0000000E+00;  2.0128079E-02;  2.5366790E+03;
  8.9670682E-01;  9.9999998E-03; -1.2065536E-01;7527;  7.5858906E-03;  0.0000000E+00; -5.8708973E-03;  9.9860986E+02;  1.9206555E-01; -1.1517200E+03;3; -1.0045725E+01;  0.0000000E+00; -4.3650260E+00;0; -1.0526587E-01;  1.0946553E+04;  0.0000000E+00; -5.4108900E-01;  4.0000000E+04;  0.0000000E+00;  3.9573496E+04; -1.2838168E-01;  0.0000000E+00;  2.3115816E-02;  2.9961904E+03;
  8.9676166E-01;  9.9999998E-03; -1.1061517E-01;7528;  7.5913053E-03;  0.0000000E+00; -5.6163743E-03;  9.9851764E+02;  1.9210176E-01; -1.2281129E+03;3; -1.0576917E+01;  0.0000000E+00; -4.1395869E+00;0; -1.0626519E-01;  1.0944028E+04;  0.0000000E+00; -4.6922970E-01;  4.0000000E+04;  0.0000000E+00;  3.9576469E+04; -1.3261347E-01;  0.0000000E+00;  2.6348276E-02;  3.3575415E+03;
  9.1698915E-01;  9.9999998E-03; -2.7159539E-01;7573;  8.9188451E-03;  0.0000000E+00; -7.0544630E-03;  9.9742963E+02;  2.0254900E-01; -2.1295188E+03;3; -1.1736127E+00;  0.0000000E+00; -3.7812176E+00;0; -5.8612891E-02;  9.8528330E+03;  0.0000000E+00; -6.4442366E-01;  4.0000000E+04;  0.0000000E+00;  3.9536938E+04; -6.6284165E-02;  0.0000000E+00;  7.6712724E-03;  5.1423906E+03;
  9.1657192E-01;  9.9999998E-03; -2.6154369E-01;7574;  8.5266083E-03;  0.0000000E+00; -7.2695329E-03;  9.9795270E+02;  2.0229708E-01; -1.6961487E+03;3; -1.6370057E+00;  0.0000000E+00; -3.9914987E+00;0; -6.1940290E-02;  9.8830283E+03;  0.0000000E+00; -5.3721821E-01;  4.0000000E+04;  0.0000000E+00;  3.9537559E+04; -6.9549434E-02;  0.0000000E+00;  7.6091453E-03;  3.7862595E+03;
  9.1617155E-01;  9.9999998E-03; -2.5148997E-01;7575;  8.1417067E-03;  0.0000000E+00; -7.2124512E-03;  9.9840979E+02;  2.0204093E-01; -1.3174435E+03;3; -2.1391947E+00;  0.0000000E+00; -4.2187014E+00;0; -6.7707695E-02;  9.9116416E+03;  0.0000000E+00; -5.4956150E-01;  4.0000000E+04;  0.0000000E+00;  3.9536355E+04; -7.3103875E-02;  0.0000000E+00;  5.3961780E-03;  3.0063181E+03;
  9.1612941E-01;  9.9999998E-03; -2.4144246E-01;7576;  7.7370522E-03;  0.0000000E+00; -6.9297710E-03;  9.9870654E+02;  2.0196849E-01; -1.0716234E+03;3; -2.6732340E+00;  0.0000000E+00; -4.3883252E+00;0; -7.3881872E-02;  9.9195000E+03;  0.0000000E+00; -6.7950994E-01;  4.0000000E+04;  0.0000000E+00;  3.9530441E+04; -7.6954596E-02;  0.0000000E+00;  3.0727270E-03;  2.1016448E+03;
  9.1625398E-01;  9.9999998E-03; -2.3139052E-01;7577;  7.3329206E-03;  0.0000000E+00; -6.7492491E-03;  9.9891113E+02;  2.0199654E-01; -9.0209747E+02;3; -3.2374296E+00;  0.0000000E+00; -4.4946227E+00;0; -7.8614496E-02;  9.9160840E+03;  0.0000000E+00; -8.8628441E-01;  4.0000000E+04;  0.0000000E+00;  3.9525145E+04; -8.1085585E-02;  0.0000000E+00;  2.4710868E-03;  1.5385681E+03;
  9.1623139E-01;  9.9999998E-03; -2.2128700E-01;7578;  6.9590718E-03;  0.0000000E+00; -6.7234491E-03;  9.9914081E+02;  2.0197153E-01; -7.1183136E+02;3; -3.8406160E+00;  0.0000000E+00; -4.5740490E+00;0; -8.2558326E-02;  9.9182139E+03;  0.0000000E+00; -1.0971740E+00;  4.0000000E+04;  0.0000000E+00;  3.9528668E+04; -8.5476622E-02;  0.0000000E+00;  2.9182937E-03;  2.0439327E+03;
  9.1606677E-01;  9.9999998E-03; -2.1117823E-01;7579;  6.6304291E-03;  0.0000000E+00; -6.6214781E-03;  9.9924286E+02;  2.0188989E-01; -6.2729059E+02;3; -4.4801636E+00;  0.0000000E+00; -4.6129460E+00;0; -8.6549558E-02;  9.9256592E+03;  0.0000000E+00; -1.2565590E+00;  4.0000000E+04;  0.0000000E+00;  3.9528004E+04; -9.0075746E-02;  0.0000000E+00;  3.5261905E-03;  2.0596731E+03;
  9.1575611E-01;  9.9999998E-03; -2.0110616E-01;7580;  6.3556246E-03;  0.0000000E+00; -6.5244101E-03;  9.9918561E+02;  2.0174253E-01; -6.7469659E+02;3; -5.1351509E+00;  0.0000000E+00; -4.6615372E+00;0; -9.0386458E-02;  9.9377754E+03;  0.0000000E+00; -1.3450125E+00;  4.0000000E+04;  0.0000000E+00;  3.9523648E+04; -9.4822817E-02;  0.0000000E+00;  4.4363569E-03;  1.5826528E+03;
  9.1537362E-01;  9.9999998E-03; -1.9104418E-01;7581;  6.1242734E-03;  0.0000000E+00; -6.4731655E-03;  9.9904584E+02;  2.0156506E-01; -7.9049573E+02;3; -5.8120275E+00;  0.0000000E+00; -4.6976337E+00;0; -9.4083421E-02;  9.9515273E+03;  0.0000000E+00; -1.3628531E+00;  4.0000000E+04;  0.0000000E+00;  3.9520266E+04; -9.9693812E-02;  0.0000000E+00;  5.6103948E-03;  1.1528439E+03;
  9.1513193E-01;  9.9999998E-03; -1.8099228E-01;7582;  5.9111160E-03;  0.0000000E+00; -6.4450749E-03;  9.9885431E+02;  2.0145521E-01; -9.4920721E+02;3; -6.4919653E+00;  0.0000000E+00; -4.7086029E+00;0; -9.7698197E-02;  9.9577822E+03;  0.0000000E+00; -1.3130014E+00;  4.0000000E+04;  0.0000000E+00;  3.9518645E+04; -1.0467965E-01;  0.0000000E+00;  6.9814515E-03;  7.5135846E+02;
  9.1503954E-01;  9.9999998E-03; -1.7093635E-01;7583;  5.7108253E-03;  0.0000000E+00; -6.4286133E-03;  9.9862677E+02;  2.0141892E-01; -1.1376956E+03;3; -7.1673856E+00;  0.0000000E+00; -4.6989932E+00;0; -1.0118532E-01;  9.9564023E+03;  0.0000000E+00; -1.2104697E+00;  4.0000000E+04;  0.0000000E+00;  3.9518953E+04; -1.0976206E-01;  0.0000000E+00;  8.5767377E-03;  4.9866623E+02;
  9.1507709E-01;  9.9999998E-03; -1.6087049E-01;7584;  5.5207424E-03;  0.0000000E+00; -6.4098607E-03;  9.9838428E+02;  2.0144808E-01; -1.3385787E+03;3; -7.8498054E+00;  0.0000000E+00; -4.6512818E+00;0; -1.0447537E-01;  9.9486025E+03;  0.0000000E+00; -1.0749271E+00;  4.0000000E+04;  0.0000000E+00;  3.9520926E+04; -1.1491776E-01;  0.0000000E+00;  1.0442394E-02;  7.5589001E+02;
  9.1522270E-01;  9.9999998E-03; -1.5079752E-01;7585;  5.3405617E-03;  0.0000000E+00; -6.3785734E-03;  9.9813977E+02;  2.0153262E-01; -1.5411407E+03;3; -8.5133877E+00;  0.0000000E+00; -4.6079917E+00;0; -1.0750109E-01;  9.9357549E+03;  0.0000000E+00; -9.2274928E-01;  4.0000000E+04;  0.0000000E+00;  3.9524078E+04; -1.2012142E-01;  0.0000000E+00;  1.2620327E-02;  1.3106782E+03;
  9.1544986E-01;  9.9999998E-03; -1.4072262E-01;7586;  5.1691993E-03;  0.0000000E+00; -6.3198744E-03;  9.9791803E+02;  2.0166172E-01; -1.7248885E+03;3; -9.1779566E+00;  0.0000000E+00; -4.5152984E+00;0; -1.1020555E-01;  9.9196455E+03;  0.0000000E+00; -7.6610136E-01;  4.0000000E+04;  0.0000000E+00;  3.9527816E+04; -1.2534374E-01;  0.0000000E+00;  1.5138198E-02;  1.9436766E+03;
  9.1570860E-01;  9.9999998E-03; -1.3064957E-01;7587;  5.0097397E-03;  0.0000000E+00; -6.2222215E-03;  9.9772723E+02;  2.0180783E-01; -1.8829581E+03;3; -9.8268471E+00;  0.0000000E+00; -4.3874602E+00;0; -1.1253151E-01;  9.9030312E+03;  0.0000000E+00; -6.1460882E-01;  4.0000000E+04;  0.0000000E+00;  3.9531840E+04; -1.3054276E-01;  0.0000000E+00;  1.8011244E-02;  2.5661931E+03;
  9.1594702E-01;  9.9999998E-03; -1.2058464E-01;7588;  4.8688781E-03;  0.0000000E+00; -6.0786088E-03;  9.9757343E+02;  2.0194417E-01; -2.0103618E+03;3; -1.0438192E+01;  0.0000000E+00; -4.2736211E+00;0; -1.1442892E-01;  9.8887510E+03;  0.0000000E+00; -4.7628146E-01;  4.0000000E+04;  0.0000000E+00;  3.9535504E+04; -1.3566045E-01;  0.0000000E+00;  2.1231534E-02;  3.0978625E+03;
  9.1612166E-01;  9.9999998E-03; -1.1053553E-01;7589;  4.7514956E-03;  0.0000000E+00; -5.8814925E-03;  9.9745325E+02;  2.0204930E-01; -2.1099146E+03;3; -1.1034575E+01;  0.0000000E+00; -4.1029639E+00;0; -1.1587242E-01;  9.8790352E+03;  0.0000000E+00; -3.5682225E-01;  4.0000000E+04;  0.0000000E+00;  3.9538445E+04; -1.4062741E-01;  0.0000000E+00;  2.4754995E-02;  3.4705173E+03;
  9.3859279E-01;  9.9999998E-03; -2.6166591E-01;7635;  6.9349469E-03;  0.0000000E+00; -6.6655991E-03;  9.9703375E+02;  2.1408853E-01; -2.4574595E+03;3; -7.5961250E-01;  0.0000000E+00; -3.5621185E+00;0; -6.4544886E-02;  8.8144502E+03;  0.0000000E+00; -6.6691226E-01;  4.0000000E+04;  0.0000000E+00;  3.9508168E+04; -6.8961956E-02;  0.0000000E+00;  4.4170725E-03;  4.6582866E+03;
  9.3826205E-01;  9.9999998E-03; -2.5161037E-01;7636;  6.3937828E-03;  0.0000000E+00; -6.4704763E-03;  9.9751599E+02;  2.1386153E-01; -2.0579648E+03;3; -1.3560860E+00;  0.0000000E+00; -3.7873549E+00;0; -7.1936980E-02;  8.8382539E+03;  0.0000000E+00; -5.9516251E-01;  4.0000000E+04;  0.0000000E+00;  3.9502820E+04; -7.2752193E-02;  0.0000000E+00;  8.1521418E-04;  3.9081653E+03;
  9.3845338E-01;  9.9999998E-03; -2.4156572E-01;7637;  5.8312407E-03;  0.0000000E+00; -6.1596273E-03;  9.9787067E+02;  2.1391046E-01; -1.7640969E+03;3; -1.9772775E+00;  0.0000000E+00; -3.9127347E+00;0; -7.8444548E-02;  8.8371611E+03;  0.0000000E+00; -3.9240763E-01;  4.0000000E+04;  0.0000000E+00;  3.9491664E+04; -7.6815553E-02;  0.0000000E+00; -1.6289956E-03;  2.4293962E+03;
  9.3849003E-01;  9.9999998E-03; -2.3151310E-01;7638;  5.3181620E-03;  0.0000000E+00; -6.0678637E-03;  9.9814734E+02;  2.1387824E-01; -1.5348690E+03;3; -2.6365182E+00;  0.0000000E+00; -4.0653715E+00;0; -8.3023280E-02;  8.8410225E+03;  0.0000000E+00; -2.0648833E-01;  4.0000000E+04;  0.0000000E+00;  3.9483781E+04; -8.1203945E-02;  0.0000000E+00; -1.8193331E-03;  1.6389659E+03;
  9.3826604E-01;  9.9999998E-03; -2.2140032E-01;7639;  4.8690885E-03;  0.0000000E+00; -6.1366078E-03;  9.9843195E+02;  2.1372281E-01; -1.2991228E+03;3; -3.3432722E+00;  0.0000000E+00; -4.1292686E+00;0; -8.7003030E-02;  8.8545498E+03;  0.0000000E+00; -1.1918708E-01;  4.0000000E+04;  0.0000000E+00;  3.9486762E+04; -8.5926831E-02;  0.0000000E+00; -1.0761955E-03;  2.3322546E+03;
  9.3785822E-01;  9.9999998E-03; -2.1126823E-01;7640;  4.4773426E-03;  0.0000000E+00; -6.1359694E-03;  9.9855481E+02;  2.1349463E-01; -1.1972986E+03;3; -4.0828948E+00;  0.0000000E+00; -4.2035861E+00;0; -9.1179661E-02;  8.8736680E+03;  0.0000000E+00; -1.4393377E-01;  4.0000000E+04;  0.0000000E+00;  3.9487219E+04; -9.0930149E-02;  0.0000000E+00; -2.4951328E-04;  2.5489890E+03;
  9.3740374E-01;  9.9999998E-03; -2.0118083E-01;7641;  4.1306838E-03;  0.0000000E+00; -6.1193476E-03;  9.9849457E+02;  2.1325412E-01; -1.2472230E+03;3; -4.8398175E+00;  0.0000000E+00; -4.2656293E+00;0; -9.5345125E-02;  8.8924707E+03;  0.0000000E+00; -2.5731483E-01;  4.0000000E+04;  0.0000000E+00;  3.9481805E+04; -9.6137077E-02;  0.0000000E+00;  7.9194899E-04;  2.1318669E+03;
  9.3698734E-01;  9.9999998E-03; -1.9111158E-01;7642;  3.8156400E-03;  0.0000000E+00; -6.1343522E-03;  9.9835229E+02;  2.1303785E-01; -1.3650962E+03;3; -5.6087675E+00;  0.0000000E+00; -4.3010378E+00;0; -9.9463336E-02;  8.9078389E+03;  0.0000000E+00; -4.2463443E-01;  4.0000000E+04;  0.0000000E+00;  3.9477355E+04; -1.0151891E-01;  0.0000000E+00;  2.0555684E-03;  1.6952328E+03;
  9.3670678E-01;  9.9999998E-03; -1.8105011E-01;7643;  3.5146142E-03;  0.0000000E+00; -6.1642444E-03;  9.9816852E+02;  2.1289772E-01; -1.5173386E+03;3; -6.3821101E+00;  0.0000000E+00; -4.3252859E+00;0; -1.0353784E-01;  8.9160996E+03;  0.0000000E+00; -6.0078859E-01;  4.0000000E+04;  0.0000000E+00;  3.9475207E+04; -1.0705066E-01;  0.0000000E+00;  3.5128193E-03;  1.2994213E+03;
  9.3658310E-01;  9.9999998E-03; -1.7099179E-01;7644;  3.2180112E-03;  0.0000000E+00; -6.1958558E-03;  9.9795953E+02;  2.1284074E-01; -1.6904695E+03;3; -7.1532803E+00;  0.0000000E+00; -4.3362947E+00;0; -1.0751308E-01;  8.9168613E+03;  0.0000000E+00; -7.4518514E-01;  4.0000000E+04;  0.0000000E+00;  3.9475164E+04; -1.1270819E-01;  0.0000000E+00;  5.1951124E-03;  9.7662793E+02;
  9.3658936E-01;  9.9999998E-03; -1.6093466E-01;7645;  2.9228216E-03;  0.0000000E+00; -6.2220586E-03;  9.9774042E+02;  2.1285442E-01; -1.8720444E+03;3; -7.9260740E+00;  0.0000000E+00; -4.3148441E+00;0; -1.1131068E-01;  8.9113955E+03;  0.0000000E+00; -8.2590753E-01;  4.0000000E+04;  0.0000000E+00;  3.9477023E+04; -1.1846614E-01;  0.0000000E+00;  7.1554594E-03;  8.6806970E+02;
  9.3671191E-01;  9.9999998E-03; -1.5087938E-01;7646;  2.6266295E-03;  0.0000000E+00; -6.2382291E-03;  9.9752905E+02;  2.1293572E-01; -2.0471504E+03;3; -8.6803989E+00;  0.0000000E+00; -4.2961531E+00;0; -1.1486197E-01;  8.9007900E+03;  0.0000000E+00; -8.2600760E-01;  4.0000000E+04;  0.0000000E+00;  3.9480148E+04; -1.2429968E-01;  0.0000000E+00;  9.4377110E-03;  1.1703591E+03;
  9.3695515E-01;  9.9999998E-03; -1.4082916E-01;7647;  2.3247134E-03;  0.0000000E+00; -6.2324596E-03;  9.9733173E+02;  2.1308316E-01; -2.2106025E+03;3; -9.4306431E+00;  0.0000000E+00; -4.2271218E+00;0; -1.1811698E-01;  8.8850420E+03;  0.0000000E+00; -7.4858415E-01;  4.0000000E+04;  0.0000000E+00;  3.9484340E+04; -1.3018480E-01;  0.0000000E+00;  1.2067814E-02;  1.8089663E+03;
  9.3730342E-01;  9.9999998E-03; -1.3079078E-01;7648;  2.0179192E-03;  0.0000000E+00; -6.1939396E-03;  9.9716284E+02;  2.1328987E-01; -2.3505491E+03;3; -1.0150582E+01;  0.0000000E+00; -4.1582618E+00;0; -1.2102799E-01;  8.8653281E+03;  0.0000000E+00; -6.1441934E-01;  4.0000000E+04;  0.0000000E+00;  3.9488617E+04; -1.3608593E-01;  0.0000000E+00;  1.5057934E-02;  2.5765781E+03;
  9.3767977E-01;  9.9999998E-03; -1.2076402E-01;7649;  1.7155589E-03;  0.0000000E+00; -6.1085653E-03;  9.9702411E+02;  2.1351278E-01; -2.4654592E+03;3; -1.0855946E+01;  0.0000000E+00; -4.0354939E+00;0; -1.2353548E-01;  8.8452227E+03;  0.0000000E+00; -4.5438737E-01;  4.0000000E+04;  0.0000000E+00;  3.9492188E+04; -1.4194411E-01;  0.0000000E+00;  1.8408624E-02;  3.2872551E+03;
  9.3800390E-01;  9.9999998E-03; -1.1074814E-01;7650;  1.4313265E-03;  0.0000000E+00; -5.9612659E-03;  9.9691974E+02;  2.1370988E-01; -2.5519258E+03;3; -1.1534678E+01;  0.0000000E+00; -3.8776257E+00;0; -1.2559375E-01;  8.8284053E+03;  0.0000000E+00; -2.9978314E-01;  4.0000000E+04;  0.0000000E+00;  3.9494742E+04; -1.4768118E-01;  0.0000000E+00;  2.2087423E-02;  3.7884202E+03;
  9.6224385E-01;  9.9999998E-03; -2.6180544E-01;7696;  5.2583870E-03;  0.0000000E+00; -5.4529719E-03;  9.9651746E+02;  2.2734883E-01; -2.8851995E+03;3;  2.9388770E-01;  0.0000000E+00; -2.8570809E+00;0; -6.7702293E-02;  7.8134307E+03;  0.0000000E+00; -8.3638054E-01;  4.0000000E+04;  0.0000000E+00;  3.9466148E+04; -6.5953642E-02;  0.0000000E+00; -1.7486523E-03;  5.1607534E+03;
  9.6196383E-01;  9.9999998E-03; -2.5175658E-01;7697;  4.5599877E-03;  0.0000000E+00; -5.2077952E-03;  9.9702936E+02;  2.2714178E-01; -2.4611133E+03;3; -4.0861958E-01;  0.0000000E+00; -3.1579571E+00;0; -7.5723954E-02;  7.8345508E+03;  0.0000000E+00; -3.7222919E-01;  4.0000000E+04;  0.0000000E+00;  3.9453137E+04; -6.9976047E-02;  0.0000000E+00; -5.7479045E-03;  3.1851426E+03;
  9.6220964E-01;  9.9999998E-03; -2.4171643E-01;7698;  3.8594196E-03;  0.0000000E+00; -5.1420662E-03;  9.9754926E+02;  2.2721927E-01; -2.0304097E+03;3; -1.1304960E+00;  0.0000000E+00; -3.2884810E+00;0; -8.1068709E-02;  7.8349614E+03;  0.0000000E+00;  3.7289104E-01;  4.0000000E+04;  0.0000000E+00;  3.9439285E+04; -7.4320443E-02;  0.0000000E+00; -6.7482679E-03;  2.2404556E+03;
  9.6223438E-01;  9.9999998E-03; -2.3166496E-01;7699;  3.2348975E-03;  0.0000000E+00; -5.2429419E-03;  9.9798102E+02;  2.2717871E-01; -1.6726918E+03;3; -1.9023445E+00;  0.0000000E+00; -3.3756394E+00;0; -8.5419916E-02;  7.8417603E+03;  0.0000000E+00;  1.0458325E+00;  4.0000000E+04;  0.0000000E+00;  3.9432445E+04; -7.9101257E-02;  0.0000000E+00; -6.3186581E-03;  4.5019526E+03;
  9.6189940E-01;  9.9999998E-03; -2.2155164E-01;7700;  2.6997102E-03;  0.0000000E+00; -5.4138955E-03;  9.9836639E+02;  2.2694761E-01; -1.3533925E+03;3; -2.7243168E+00;  0.0000000E+00; -3.4644473E+00;0; -8.9758277E-02;  7.8601943E+03;  0.0000000E+00;  1.4564379E+00;  4.0000000E+04;  0.0000000E+00;  3.9437285E+04; -8.4326573E-02;  0.0000000E+00; -5.4317038E-03;  6.8076787E+03;
  9.6122611E-01;  9.9999998E-03; -2.1141084E-01;7701;  2.2354594E-03;  0.0000000E+00; -5.4979487E-03;  9.9851068E+02;  2.2655092E-01; -1.2338898E+03;3; -3.5822606E+00;  0.0000000E+00; -3.5542037E+00;0; -9.4378226E-02;  7.8888853E+03;  0.0000000E+00;  1.5472784E+00;  4.0000000E+04;  0.0000000E+00;  3.9439684E+04; -8.9916751E-02;  0.0000000E+00; -4.4614766E-03;  7.9111689E+03;
  9.6048719E-01;  9.9999998E-03; -2.0129862E-01;7702;  1.8134785E-03;  0.0000000E+00; -5.5524874E-03;  9.9848816E+02;  2.2613300E-01; -1.2525066E+03;3; -4.4552827E+00;  0.0000000E+00; -3.6349587E+00;0; -9.9020205E-02;  7.9183774E+03;  0.0000000E+00;  1.3737257E+00;  4.0000000E+04;  0.0000000E+00;  3.9436344E+04; -9.5763192E-02;  0.0000000E+00; -3.2570118E-03;  7.8334839E+03;
  9.5987946E-01;  9.9999998E-03; -1.9120373E-01;7703;  1.4118993E-03;  0.0000000E+00; -5.6144847E-03;  9.9839514E+02;  2.2579321E-01; -1.3295907E+03;3; -5.3344326E+00;  0.0000000E+00; -3.6972008E+00;0; -1.0365567E-01;  7.9415415E+03;  0.0000000E+00;  1.0089669E+00;  4.0000000E+04;  0.0000000E+00;  3.9432461E+04; -1.0181884E-01;  0.0000000E+00; -1.8368243E-03;  6.8846021E+03;
  9.5944852E-01;  9.9999998E-03; -1.8112560E-01;7704;  1.0176115E-03;  0.0000000E+00; -5.6792926E-03;  9.9825403E+02;  2.2555958E-01; -1.4465255E+03;3; -6.2133155E+00;  0.0000000E+00; -3.7415652E+00;0; -1.0826547E-01;  7.9564536E+03;  0.0000000E+00;  5.3585666E-01;  4.0000000E+04;  0.0000000E+00;  3.9430535E+04; -1.0804572E-01;  0.0000000E+00; -2.1975157E-04;  5.3862432E+03;
  9.5922089E-01;  9.9999998E-03; -1.7105676E-01;7705;  6.1730813E-04;  0.0000000E+00; -5.7401899E-03;  9.9808508E+02;  2.2544582E-01; -1.5864720E+03;3; -7.0872669E+00;  0.0000000E+00; -3.7765706E+00;0; -1.1280000E-01;  7.9621929E+03;  0.0000000E+00;  5.5028930E-02;  4.0000000E+04;  0.0000000E+00;  3.9430574E+04; -1.1441252E-01;  0.0000000E+00;  1.6125159E-03;  3.7727419E+03;
  9.5918143E-01;  9.9999998E-03; -1.6099665E-01;7706;  2.0317364E-04;  0.0000000E+00; -5.7925140E-03;  9.9789893E+02;  2.2544096E-01; -1.7406898E+03;3; -7.9565797E+00;  0.0000000E+00; -3.7845299E+00;0; -1.1719054E-01;  7.9596235E+03;  0.0000000E+00; -3.4110478E-01;  4.0000000E+04;  0.0000000E+00;  3.9432121E+04; -1.2088914E-01;  0.0000000E+00;  3.6985993E-03;  2.4583416E+03;
  9.5929027E-01;  9.9999998E-03; -1.5094435E-01;7707; -2.2720514E-04;  0.0000000E+00; -5.8324845E-03;  9.9771991E+02;  2.2552197E-01; -1.8890311E+03;3; -8.8121853E+00;  0.0000000E+00; -3.7799799E+00;0; -1.2136713E-01;  7.9506978E+03;  0.0000000E+00; -5.9289175E-01;  4.0000000E+04;  0.0000000E+00;  3.9435191E+04; -1.2744372E-01;  0.0000000E+00;  6.0765832E-03;  1.7620895E+03;
  9.5950860E-01;  9.9999998E-03; -1.4090511E-01;7708; -6.7354488E-04;  0.0000000E+00; -5.8535859E-03;  9.9755096E+02;  2.2566670E-01; -2.0289777E+03;3; -9.6509333E+00;  0.0000000E+00; -3.7591362E+00;0; -1.2526456E-01;  7.9374746E+03;  0.0000000E+00; -6.8398678E-01;  4.0000000E+04;  0.0000000E+00;  3.9439176E+04; -1.3403571E-01;  0.0000000E+00;  8.7711550E-03;  1.8585923E+03;
  9.5981693E-01;  9.9999998E-03; -1.3088040E-01;7709; -1.1346679E-03;  0.0000000E+00; -5.8469954E-03;  9.9741412E+02;  2.2586304E-01; -2.1423572E+03;3; -1.0469271E+01;  0.0000000E+00; -3.7086091E+00;0; -1.2882799E-01;  7.9211646E+03;  0.0000000E+00; -6.3701946E-01;  4.0000000E+04;  0.0000000E+00;  3.9442961E+04; -1.4061940E-01;  0.0000000E+00;  1.1791411E-02;  2.5126460E+03;
  9.6014637E-01;  9.9999998E-03; -1.2086320E-01;7710; -1.5996243E-03;  0.0000000E+00; -5.8006560E-03;  9.9731641E+02;  2.2607064E-01; -2.2232930E+03;3; -1.1261661E+01;  0.0000000E+00; -3.6300747E+00;0; -1.3199502E-01;  7.9047427E+03;  0.0000000E+00; -5.0037503E-01;  4.0000000E+04;  0.0000000E+00;  3.9446254E+04; -1.4713058E-01;  0.0000000E+00;  1.5135555E-02;  3.3314722E+03;
  9.6042758E-01;  9.9999998E-03; -1.1084118E-01;7711; -2.0529525E-03;  0.0000000E+00; -5.7030958E-03;  9.9723450E+02;  2.2624746E-01; -2.2911428E+03;3; -1.2021636E+01;  0.0000000E+00; -3.5304799E+00;0; -1.3471687E-01;  7.8910898E+03;  0.0000000E+00; -3.3056778E-01;  4.0000000E+04;  0.0000000E+00;  3.9448484E+04; -1.5349145E-01;  0.0000000E+00;  1.8774590E-02;  4.0158992E+03;
  9.8661107E-01;  9.9999998E-03; -2.6197076E-01;7757;  3.7520761E-03;  0.0000000E+00; -3.6369967E-03;  9.9701007E+02;  2.4158233E-01; -2.4771113E+03;3;  1.4778148E+00;  0.0000000E+00; -1.9332731E+00;0; -7.3176205E-02;  6.9345352E+03;  0.0000000E+00; -1.0012597E+00;  4.0000000E+04;  0.0000000E+00;  3.9401180E+04; -6.3365363E-02;  0.0000000E+00; -9.8108388E-03;  2.6250576E+03;
  9.8621911E-01;  9.9999998E-03; -2.5191924E-01;7758;  2.9254472E-03;  0.0000000E+00; -3.7502153E-03;  9.9749524E+02;  2.4128719E-01; -2.0751479E+03;3;  6.4564335E-01;  0.0000000E+00; -2.1211536E+00;0; -7.8666396E-02;  6.9569946E+03;  0.0000000E+00; -1.2095147E-01;  4.0000000E+04;  0.0000000E+00;  3.9390223E+04; -6.7686252E-02;  0.0000000E+00; -1.0980143E-02;  8.7732739E+02;
  9.8611039E-01;  9.9999998E-03; -2.4186656E-01;7759;  2.1409846E-03;  0.0000000E+00; -4.0025315E-03;  9.9805310E+02;  2.4115974E-01; -1.6129890E+03;3; -2.1017012E-01;  0.0000000E+00; -2.2356942E+00;0; -8.3073676E-02;  6.9697671E+03;  0.0000000E+00;  9.2213291E-01;  4.0000000E+04;  0.0000000E+00;  3.9383051E+04; -7.2502345E-02;  0.0000000E+00; -1.0571332E-02;  2.4450581E+03;
  9.8576003E-01;  9.9999998E-03; -2.3180565E-01;7760;  1.4330820E-03;  0.0000000E+00; -4.2505413E-03;  9.9849994E+02;  2.4089551E-01; -1.2427778E+03;3; -1.1095569E+00;  0.0000000E+00; -2.3631108E+00;0; -8.7783828E-02;  6.9890830E+03;  0.0000000E+00;  1.7784529E+00;  4.0000000E+04;  0.0000000E+00;  3.9381336E+04; -7.7801369E-02;  0.0000000E+00; -9.9824565E-03;  6.2885537E+03;
  9.8519695E-01;  9.9999998E-03; -2.2171205E-01;7761;  7.9379935E-04;  0.0000000E+00; -4.4678552E-03;  9.9886261E+02;  2.4052031E-01; -9.4229291E+02;3; -2.0467875E+00;  0.0000000E+00; -2.4892802E+00;0; -9.2754066E-02;  7.0139194E+03;  0.0000000E+00;  2.3237834E+00;  4.0000000E+04;  0.0000000E+00;  3.9385254E+04; -8.3552070E-02;  0.0000000E+00; -9.2019988E-03;  9.6121045E+03;
  9.8445678E-01;  9.9999998E-03; -2.1162759E-01;7762;  2.0471978E-04;  0.0000000E+00; -4.6014711E-03;  9.9901477E+02;  2.4007264E-01; -8.1622260E+02;3; -3.0099607E+00;  0.0000000E+00; -2.6137865E+00;0; -9.7888447E-02;  7.0425796E+03;  0.0000000E+00;  2.5117559E+00;  4.0000000E+04;  0.0000000E+00;  3.9385535E+04; -8.9667760E-02;  0.0000000E+00; -8.2206884E-03;  1.1622123E+04;
  9.8376870E-01;  9.9999998E-03; -2.0157272E-01;7763; -3.5376649E-04;  0.0000000E+00; -4.7107763E-03;  9.9905493E+02;  2.3966977E-01; -7.8298914E+02;3; -3.9844365E+00;  0.0000000E+00; -2.7269237E+00;0; -1.0303441E-01;  7.0678623E+03;  0.0000000E+00;  2.3668673E+00;  4.0000000E+04;  0.0000000E+00;  3.9383762E+04; -9.6089862E-02;  0.0000000E+00; -6.9445414E-03;  1.2103560E+04;
  9.8305422E-01;  9.9999998E-03; -1.9149694E-01;7764; -8.7916455E-04;  0.0000000E+00; -4.8171310E-03;  9.9902765E+02;  2.3925562E-01; -8.0555640E+02;3; -4.9709187E+00;  0.0000000E+00; -2.8310125E+00;0; -1.0818163E-01;  7.0928130E+03;  0.0000000E+00;  1.9332802E+00;  4.0000000E+04;  0.0000000E+00;  3.9384168E+04; -1.0278165E-01;  0.0000000E+00; -5.3999787E-03;  1.1073585E+04;
  9.8240685E-01;  9.9999998E-03; -1.8139957E-01;7765; -1.3897518E-03;  0.0000000E+00; -4.9126931E-03;  9.9891760E+02;  2.3888750E-01; -8.9676355E+02;3; -5.9608483E+00;  0.0000000E+00; -2.9224794E+00;0; -1.1331285E-01;  7.1141343E+03;  0.0000000E+00;  1.3128968E+00;  4.0000000E+04;  0.0000000E+00;  3.9385023E+04; -1.0968080E-01;  0.0000000E+00; -3.6320440E-03;  8.9831240E+03;
  9.8193562E-01;  9.9999998E-03; -1.7129236E-01;7766; -1.9064853E-03;  0.0000000E+00; -4.9929721E-03;  9.9876166E+02;  2.3863174E-01; -1.0259449E+03;3; -6.9461355E+00;  0.0000000E+00; -2.9967208E+00;0; -1.1839087E-01;  7.1280547E+03;  0.0000000E+00;  6.3527632E-01;  4.0000000E+04;  0.0000000E+00;  3.9386449E+04; -1.1673111E-01;  0.0000000E+00; -1.6597541E-03;  6.4913267E+03;
  9.8166883E-01;  9.9999998E-03; -1.6118702E-01;7767; -2.4421292E-03;  0.0000000E+00; -5.0559840E-03;  9.9857532E+02;  2.3849915E-01; -1.1803107E+03;3; -7.9198394E+00;  0.0000000E+00; -3.0484073E+00;0; -1.2335706E-01;  7.1337812E+03;  0.0000000E+00;  2.7987640E-02;  4.0000000E+04;  0.0000000E+00;  3.9388727E+04; -1.2388046E-01;  0.0000000E+00;  5.2340655E-04;  4.2466069E+03;
  9.8160666E-01;  9.9999998E-03; -1.5109015E-01;7768; -3.0057982E-03;  0.0000000E+00; -5.0988374E-03;  9.9838715E+02;  2.3848854E-01; -1.3362073E+03;3; -8.8788576E+00;  0.0000000E+00; -3.0759926E+00;0; -1.2815346E-01;  7.1316499E+03;  0.0000000E+00; -4.1662008E-01;  4.0000000E+04;  0.0000000E+00;  3.9391922E+04; -1.3108033E-01;  0.0000000E+00;  2.9268728E-03;  2.7146567E+03;
  9.8175538E-01;  9.9999998E-03; -1.4100263E-01;7769; -3.6056542E-03;  0.0000000E+00; -5.1169586E-03;  9.9822717E+02;  2.3860632E-01; -1.4687466E+03;3; -9.8200188E+00;  0.0000000E+00; -3.0715971E+00;0; -1.3273628E-01;  7.1217964E+03;  0.0000000E+00; -6.6156942E-01;  4.0000000E+04;  0.0000000E+00;  3.9395574E+04; -1.3829096E-01;  0.0000000E+00;  5.5546798E-03;  2.1366345E+03;
  9.8210657E-01;  9.9999998E-03; -1.3091880E-01;7770; -4.2453925E-03;  0.0000000E+00; -5.1029511E-03;  9.9810687E+02;  2.3884131E-01; -1.5683979E+03;3; -1.0737556E+01;  0.0000000E+00; -3.0600002E+00;0; -1.3706304E-01;  7.1050864E+03;  0.0000000E+00; -7.2287256E-01;  4.0000000E+04;  0.0000000E+00;  3.9399176E+04; -1.4546764E-01;  0.0000000E+00;  8.4045911E-03;  2.4313232E+03;
  9.8254508E-01;  9.9999998E-03; -1.2084567E-01;7771; -4.9078171E-03;  0.0000000E+00; -5.0508501E-03;  9.9802606E+02;  2.3912510E-01; -1.6353589E+03;3; -1.1630610E+01;  0.0000000E+00; -3.0125446E+00;0; -1.4104398E-01;  7.0859624E+03;  0.0000000E+00; -6.5170652E-01;  4.0000000E+04;  0.0000000E+00;  3.9402223E+04; -1.5251237E-01;  0.0000000E+00;  1.1468395E-02;  3.1537505E+03;
  9.8300600E-01;  9.9999998E-03; -1.1078981E-01;7772; -5.5767912E-03;  0.0000000E+00; -4.9486831E-03;  9.9797650E+02;  2.3941459E-01; -1.6764441E+03;3; -1.2485243E+01;  0.0000000E+00; -2.9505529E+00;0; -1.4462234E-01;  7.0668398E+03;  0.0000000E+00; -5.1357073E-01;  4.0000000E+04;  0.0000000E+00;  3.9404047E+04; -1.5932629E-01;  0.0000000E+00;  1.4703942E-02;  3.8789478E+03;
  1.0066880E+00;  9.9999998E-03; -1.4100853E-01;7830; -6.8736533E-03;  0.0000000E+00; -3.7333393E-03;  9.9904309E+02;  2.5382406E-01; -7.9276611E+02;3; -9.9350748E+00;  0.0000000E+00; -2.0954058E+00;0; -1.4476439E-01;  6.3158569E+03;  0.0000000E+00; -6.5265387E-01;  4.0000000E+04;  0.0000000E+00;  3.9352379E+04; -1.4633204E-01;  0.0000000E+00;  1.5676427E-03;  2.6684868E+03;
  1.0066488E+00;  9.9999998E-03; -1.5114924E-01;7829; -6.0857576E-03;  0.0000000E+00; -3.7402243E-03;  9.9924188E+02;  2.5375408E-01; -6.2807971E+02;3; -8.8804693E+00;  0.0000000E+00; -2.0197961E+00;0; -1.3945726E-01;  6.3221528E+03;  0.0000000E+00; -4.0490359E-01;  4.0000000E+04;  0.0000000E+00;  3.9348859E+04; -1.3880393E-01;  0.0000000E+00; -6.5333140E-04;  3.3903232E+03;
  1.0067906E+00;  9.9999998E-03; -1.3087855E-01;7831; -7.6807481E-03;  0.0000000E+00; -3.6935254E-03;  9.9888013E+02;  2.5391522E-01; -9.2777435E+02;3; -1.0964802E+01;  0.0000000E+00; -2.1566908E+00;0; -1.4978608E-01;  6.3080659E+03;  0.0000000E+00; -7.6438642E-01;  4.0000000E+04;  0.0000000E+00;  3.9356473E+04; -1.5366992E-01;  0.0000000E+00;  3.8838326E-03;  2.6304568E+03;
  1.0066704E+00;  9.9999998E-03; -1.6128036E-01;7828; -5.3167948E-03;  0.0000000E+00; -3.7200244E-03;  9.9945453E+02;  2.5370869E-01; -4.5188754E+02;3; -7.8051376E+00;  0.0000000E+00; -1.9449385E+00;0; -1.3392897E-01;  6.3265962E+03;  0.0000000E+00; -1.3741623E-02;  4.0000000E+04;  0.0000000E+00;  3.9345617E+04; -1.3116319E-01;  0.0000000E+00; -2.7657691E-03;  4.8234639E+03;
  1.0070966E+00;  9.9999998E-03; -1.2077878E-01;7832; -8.5269790E-03;  0.0000000E+00; -3.6013552E-03;  9.9877667E+02;  2.5412270E-01; -1.0135001E+03;3; -1.1963572E+01;  0.0000000E+00; -2.1938505E+00;0; -1.5455720E-01;  6.2945220E+03;  0.0000000E+00; -7.7069855E-01;  4.0000000E+04;  0.0000000E+00;  3.9359199E+04; -1.6079171E-01;  0.0000000E+00;  6.2345113E-03;  2.9565151E+03;
  1.0068467E+00;  9.9999998E-03; -1.7139024E-01;7827; -4.5741401E-03;  0.0000000E+00; -3.6723416E-03;  9.9965692E+02;  2.5375369E-01; -2.8423828E+02;3; -6.7152944E+00;  0.0000000E+00; -1.8604591E+00;0; -1.2829019E-01;  6.3255757E+03;  0.0000000E+00;  4.8843011E-01;  4.0000000E+04;  0.0000000E+00;  3.9343926E+04; -1.2352289E-01;  0.0000000E+00; -4.7672945E-03;  6.7272168E+03;
  1.0072749E+00;  9.9999998E-03; -1.8149634E-01;7826; -3.8578250E-03;  0.0000000E+00; -3.5938022E-03;  9.9982635E+02;  2.5396422E-01; -1.4384749E+02;3; -5.6161170E+00;  0.0000000E+00; -1.7460030E+00;0; -1.2263291E-01;  6.3155293E+03;  0.0000000E+00;  1.0258224E+00;  4.0000000E+04;  0.0000000E+00;  3.9342328E+04; -1.1598355E-01;  0.0000000E+00; -6.6493498E-03;  8.6668896E+03;
  1.0077001E+00;  9.9999998E-03; -1.1072154E-01;7833; -9.4245356E-03;  0.0000000E+00; -3.4476635E-03;  9.9872040E+02;  2.5452000E-01; -1.0601160E+03;3; -1.2919654E+01;  0.0000000E+00; -2.2100062E+00;0; -1.5912682E-01;  6.2723716E+03;  0.0000000E+00; -7.1361864E-01;  4.0000000E+04;  0.0000000E+00;  3.9360754E+04; -1.6765037E-01;  0.0000000E+00;  8.5235471E-03;  3.2886646E+03;
  1.0077631E+00;  9.9999998E-03; -1.9158129E-01;7825; -3.1363487E-03;  0.0000000E+00; -3.5004474E-03;  9.9992383E+02;  2.5421661E-01; -6.3109200E+01;3; -4.5170126E+00;  0.0000000E+00; -1.6223538E+00;0; -1.1692847E-01;  6.3023228E+03;  0.0000000E+00;  1.5068080E+00;  4.0000000E+04;  0.0000000E+00;  3.9341488E+04; -1.0857236E-01;  0.0000000E+00; -8.3561121E-03;  1.0129869E+04;
  1.0083271E+00;  9.9999998E-03; -2.0165697E-01;7824; -2.4016076E-03;  0.0000000E+00; -3.3925269E-03;  9.9992456E+02;  2.5452822E-01; -6.2516624E+01;3; -3.4231377E+00;  0.0000000E+00; -1.4798937E+00;0; -1.1122971E-01;  6.2852466E+03;  0.0000000E+00;  1.8395923E+00;  4.0000000E+04;  0.0000000E+00;  3.9341344E+04; -1.0138269E-01;  0.0000000E+00; -9.8470245E-03;  1.0642992E+04;
  1.0089719E+00;  9.9999998E-03; -2.1172853E-01;7823; -1.6450656E-03;  0.0000000E+00; -3.2721723E-03;  9.9985345E+02;  2.5490865E-01; -1.2142841E+02;3; -2.3397434E+00;  0.0000000E+00; -1.3295602E+00;0; -1.0554851E-01;  6.2641060E+03;  0.0000000E+00;  1.9520421E+00;  4.0000000E+04;  0.0000000E+00;  3.9342164E+04; -9.4510444E-02;  0.0000000E+00; -1.1038067E-02;  9.9155508E+03;
  1.0096605E+00;  9.9999998E-03; -2.2182490E-01;7822; -8.5767260E-04;  0.0000000E+00; -3.1273714E-03;  9.9966400E+02;  2.5534040E-01; -2.7836191E+02;3; -1.2694722E+00;  0.0000000E+00; -1.1663092E+00;0; -9.9820107E-02;  6.2399829E+03;  0.0000000E+00;  1.7995461E+00;  4.0000000E+04;  0.0000000E+00;  3.9340934E+04; -8.8009477E-02;  0.0000000E+00; -1.1810634E-02;  7.9328389E+03;
  1.0103766E+00;  9.9999998E-03; -2.3193175E-01;7821; -3.8875565E-05;  0.0000000E+00; -2.8918283E-03;  9.9931677E+02;  2.5582644E-01; -5.6605688E+02;3; -2.1778274E-01;  0.0000000E+00; -9.9439538E-01;0; -9.4134592E-02;  6.2133208E+03;  0.0000000E+00;  1.3654011E+00;  4.0000000E+04;  0.0000000E+00;  3.9334734E+04; -8.1952617E-02;  0.0000000E+00; -1.2181976E-02;  5.0035425E+03;
  1.0109447E+00;  9.9999998E-03; -2.4201167E-01;7820;  8.3011802E-04;  0.0000000E+00; -2.5645399E-03;  9.9888507E+02;  2.5624380E-01; -9.2367566E+02;3;  8.0153346E-01;  0.0000000E+00; -8.2071400E-01;0; -8.8681117E-02;  6.1899590E+03;  0.0000000E+00;  6.6143197E-01;  4.0000000E+04;  0.0000000E+00;  3.9331195E+04; -7.6356001E-02;  0.0000000E+00; -1.2325115E-02;  1.8856116E+03;
  1.0113521E+00;  9.9999998E-03; -2.5208199E-01;7819;  1.7519902E-03;  0.0000000E+00; -2.1200357E-03;  9.9839288E+02;  2.5657123E-01; -1.3314657E+03;3;  1.7864778E+00;  0.0000000E+00; -6.4355606E-01;0; -8.4074236E-02;  6.1710103E+03;  0.0000000E+00; -2.6285243E-01;  4.0000000E+04;  0.0000000E+00;  3.9330211E+04; -7.1237400E-02;  0.0000000E+00; -1.2836838E-02;  1.3799561E+03;
  1.0117952E+00;  9.9999998E-03; -2.6215214E-01;7818;  2.7173646E-03;  0.0000000E+00; -1.4434505E-03;  9.9789246E+02;  2.5692320E-01; -1.7460704E+03;3;  2.7464347E+00;  0.0000000E+00; -4.4783941E-01;0; -8.2237341E-02;  6.1510703E+03;  0.0000000E+00; -1.2246361E+00;  4.0000000E+04;  0.0000000E+00;  3.9329008E+04; -6.6674441E-02;  0.0000000E+00; -1.5562898E-02;  1.1547822E+03;
  1.0346723E+00;  9.9999998E-03; -1.1077950E-01;7894; -1.3892206E-02;  0.0000000E+00; -1.0813626E-03;  9.9890704E+02;  2.7175304E-01; -9.0550244E+02;3; -1.3324692E+01;  0.0000000E+00; -1.1494216E+00;0; -1.8172972E-01;  5.5138555E+03;  0.0000000E+00; -6.2211132E-01;  4.0000000E+04;  0.0000000E+00;  3.9317465E+04; -1.8015403E-01;  0.0000000E+00; -1.5756884E-03;  3.2998757E+03;
  1.0341231E+00;  9.9999998E-03; -1.6125000E-01;7889; -8.7044947E-03;  0.0000000E+00; -1.3680233E-03;  9.9973181E+02;  2.7115831E-01; -2.2216588E+02;3; -7.5403900E+00;  0.0000000E+00; -4.0245703E-01;0; -1.5309040E-01;  5.5509844E+03;  0.0000000E+00; -6.0913563E-01;  4.0000000E+04;  0.0000000E+00;  3.9304141E+04; -1.4605984E-01;  0.0000000E+00; -7.0305578E-03;  4.3311074E+03;
  1.0343519E+00;  9.9999998E-03; -1.5116386E-01;7890; -9.7587109E-03;  0.0000000E+00; -1.3504114E-03;  9.9949969E+02;  2.7140945E-01; -4.1450555E+02;3; -8.7419128E+00;  0.0000000E+00; -5.6701434E-01;0; -1.5949495E-01;  5.5390620E+03;  0.0000000E+00; -6.8815708E-01;  4.0000000E+04;  0.0000000E+00;  3.9307137E+04; -1.5367889E-01;  0.0000000E+00; -5.8160624E-03;  3.8766931E+03;
  1.0340496E+00;  9.9999998E-03; -1.7135748E-01;7888; -7.6757828E-03;  0.0000000E+00; -1.3498414E-03;  9.9995880E+02;  2.7099925E-01; -3.4122387E+01;3; -6.3274336E+00;  0.0000000E+00; -2.5111440E-01;0; -1.4663827E-01;  5.5582559E+03;  0.0000000E+00; -4.8625708E-01;  4.0000000E+04;  0.0000000E+00;  3.9301867E+04; -1.3831277E-01;  0.0000000E+00; -8.3255097E-03;  4.8807100E+03;
  1.0347197E+00;  9.9999998E-03; -1.4108339E-01;7891; -1.0843538E-02;  0.0000000E+00; -1.2937329E-03;  9.9928839E+02;  2.7173796E-01; -5.8956177E+02;3; -9.9294815E+00;  0.0000000E+00; -7.5448573E-01;0; -1.6579662E-01;  5.5234790E+03;  0.0000000E+00; -7.1829319E-01;  4.0000000E+04;  0.0000000E+00;  3.9310336E+04; -1.6107206E-01;  0.0000000E+00; -4.7245580E-03;  3.6099822E+03;
  1.0349673E+00;  9.9999998E-03; -1.2088678E-01;7893; -1.2939502E-02;  0.0000000E+00; -1.1476114E-03;  9.9899902E+02;  2.7196422E-01; -8.2930731E+02;3; -1.2234706E+01;  0.0000000E+00; -1.0694406E+00;0; -1.7706123E-01;  5.5083340E+03;  0.0000000E+00; -6.7049885E-01;  4.0000000E+04;  0.0000000E+00;  3.9315781E+04; -1.7439213E-01;  0.0000000E+00; -2.6690927E-03;  3.4175168E+03;
  1.0339830E+00;  9.9999998E-03; -1.8147476E-01;7887; -6.6453209E-03;  0.0000000E+00; -1.3178298E-03;  1.0001442E+03;  2.7083766E-01;  1.1940367E+02;3; -5.1128483E+00;  0.0000000E+00; -1.1542216E-01;0; -1.4008202E-01;  5.5644619E+03;  0.0000000E+00; -3.3167139E-01;  4.0000000E+04;  0.0000000E+00;  3.9300934E+04; -1.3046151E-01;  0.0000000E+00; -9.6205082E-03;  5.3671870E+03;
  1.0339080E+00;  9.9999998E-03; -1.9160117E-01;7886; -5.6061368E-03;  0.0000000E+00; -1.2776761E-03;  1.0002380E+03;  2.7068189E-01;  1.9712964E+02;3; -3.9051569E+00;  0.0000000E+00;  2.4584064E-02;0; -1.3347310E-01;  5.5694819E+03;  0.0000000E+00; -1.6708876E-01;  4.0000000E+04;  0.0000000E+00;  3.9301000E+04; -1.2262725E-01;  0.0000000E+00; -1.0845842E-02;  5.6375166E+03;
  1.0349830E+00;  9.9999998E-03; -1.3098994E-01;7892; -1.1918084E-02;  0.0000000E+00; -1.2196507E-03;  9.9912067E+02;  2.7196139E-01; -7.2852032E+02;3; -1.1098115E+01;  0.0000000E+00; -9.3164957E-01;0; -1.7172961E-01;  5.5115352E+03;  0.0000000E+00; -7.0706266E-01;  4.0000000E+04;  0.0000000E+00;  3.9313539E+04; -1.6802596E-01;  0.0000000E+00; -3.7036554E-03;  3.4912278E+03;
  1.0340290E+00;  9.9999998E-03; -2.0172352E-01;7885; -4.5752018E-03;  0.0000000E+00; -1.2120716E-03;  1.0002307E+03;  2.7068853E-01;  1.9110513E+02;3; -2.7061212E+00;  0.0000000E+00;  1.8609393E-01;0; -1.2701993E-01;  5.5671846E+03;  0.0000000E+00; -3.7887178E-02;  4.0000000E+04;  0.0000000E+00;  3.9301000E+04; -1.1509908E-01;  0.0000000E+00; -1.1920854E-02;  5.5301201E+03;
  1.0342805E+00;  9.9999998E-03; -2.1182008E-01;7884; -3.5362635E-03;  0.0000000E+00; -1.1322041E-03;  1.0001191E+03;  2.7081296E-01;  9.8663582E+01;3; -1.5245959E+00;  0.0000000E+00;  3.5968992E-01;0; -1.2067642E-01;  5.5592593E+03;  0.0000000E+00;  2.6554324E-02;  4.0000000E+04;  0.0000000E+00;  3.9301973E+04; -1.0798157E-01;  0.0000000E+00; -1.2694851E-02;  4.9897495E+03;
  1.0347515E+00;  9.9999998E-03; -2.2191514E-01;7883; -2.4855155E-03;  0.0000000E+00; -1.0327804E-03;  9.9991998E+02;  2.7112097E-01; -6.6269524E+01;3; -3.5775623E-01;  0.0000000E+00;  5.5922824E-01;0; -1.1440161E-01;  5.5432441E+03;  0.0000000E+00; -1.2556884E-02;  4.0000000E+04;  0.0000000E+00;  3.9303617E+04; -1.0143620E-01;  0.0000000E+00; -1.2965414E-02;  4.0261060E+03;
  1.0353693E+00;  9.9999998E-03; -2.3203458E-01;7882; -1.4077156E-03;  0.0000000E+00; -8.6267671E-04;  9.9955096E+02;  2.7156663E-01; -3.7203772E+02;3;  7.9298103E-01;  0.0000000E+00;  7.7000260E-01;0; -1.0806023E-01;  5.5214224E+03;  0.0000000E+00; -1.7782679E-01;  4.0000000E+04;  0.0000000E+00;  3.9299430E+04; -9.5486484E-02;  0.0000000E+00; -1.2573750E-02;  2.5500879E+03;
  1.0359762E+00;  9.9999998E-03; -2.4212724E-01;7881; -2.9357747E-04;  0.0000000E+00; -6.2761642E-04;  9.9912213E+02;  2.7204385E-01; -7.2728583E+02;3;  1.9143367E+00;  0.0000000E+00;  9.8863786E-01;0; -1.0154590E-01;  5.4989697E+03;  0.0000000E+00; -4.8592746E-01;  4.0000000E+04;  0.0000000E+00;  3.9296398E+04; -9.0103306E-02;  0.0000000E+00; -1.1442593E-02;  8.6890137E+02;
  1.0365388E+00;  9.9999998E-03; -2.5220358E-01;7880;  8.6032995E-04;  0.0000000E+00; -4.1337055E-04;  9.9872931E+02;  2.7251399E-01; -1.0527571E+03;3;  3.0068147E+00;  0.0000000E+00;  1.2203190E+00;0; -9.4392061E-02;  5.4777729E+03;  0.0000000E+00; -9.5172602E-01;  4.0000000E+04;  0.0000000E+00;  3.9298719E+04; -8.5267402E-02;  0.0000000E+00; -9.1246590E-03;  1.2472239E+03;
  1.0368993E+00;  9.9999998E-03; -2.6229188E-01;7879;  2.0658467E-03;  0.0000000E+00;  1.7514819E-04;  9.9821600E+02;  2.7284536E-01; -1.4779781E+03;3;  4.0643926E+00;  0.0000000E+00;  1.4519995E+00;0; -8.9767262E-02;  5.4624346E+03;  0.0000000E+00; -1.5362339E+00;  4.0000000E+04;  0.0000000E+00;  3.9292762E+04; -8.0829330E-02;  0.0000000E+00; -8.9379307E-03;  2.0674900E+03;
  1.0622289E+00;  9.9999998E-03; -2.5234121E-01;7941; -6.4606912E-04;  0.0000000E+00;  2.6144946E-03;  9.9816949E+02;  2.8920892E-01; -1.5165427E+03;3;  4.3763857E+00;  0.0000000E+00;  3.5790231E+00;0; -1.1646494E-01;  4.8621294E+03;  0.0000000E+00; -1.9596483E+00;  4.0000000E+04;  0.0000000E+00;  3.9269852E+04; -1.1002282E-01;  0.0000000E+00; -6.4421222E-03;  3.1223052E+03;
  1.0617402E+00;  9.9999998E-03; -2.4227601E-01;7942; -2.0171150E-03;  0.0000000E+00;  2.6528570E-03;  9.9855688E+02;  2.8874034E-01; -1.1955657E+03;3;  3.2186804E+00;  0.0000000E+00;  3.2150669E+00;0; -1.2473647E-01;  4.8806646E+03;  0.0000000E+00; -1.9965377E+00;  4.0000000E+04;  0.0000000E+00;  3.9259648E+04; -1.1395723E-01;  0.0000000E+00; -1.0779241E-02;  2.6538108E+03;
  1.0613322E+00;  9.9999998E-03; -2.3219293E-01;7943; -3.3890679E-03;  0.0000000E+00;  2.4860937E-03;  9.9898285E+02;  2.8836617E-01; -8.4268842E+02;3;  2.0275812E+00;  0.0000000E+00;  2.9389257E+00;0; -1.3128544E-01;  4.8964204E+03;  0.0000000E+00; -2.0710614E+00;  4.0000000E+04;  0.0000000E+00;  3.9259117E+04; -1.1859822E-01;  0.0000000E+00; -1.2687230E-02;  3.2620759E+03;
  1.0628115E+00;  9.9999998E-03; -2.6243451E-01;7940;  7.7946484E-04;  0.0000000E+00;  2.9316118E-03;  9.9760413E+02;  2.8975341E-01; -1.9849224E+03;3;  5.5195479E+00;  0.0000000E+00;  3.8332860E+00;0; -1.0954149E-01;  4.8412075E+03;  0.0000000E+00; -1.9701884E+00;  4.0000000E+04;  0.0000000E+00;  3.9267500E+04; -1.0674853E-01;  0.0000000E+00; -2.7929626E-03;  4.5208882E+03;
  1.0610107E+00;  9.9999998E-03; -2.2208491E-01;7944; -4.7509661E-03;  0.0000000E+00;  2.3492286E-03;  9.9933795E+02;  2.8809950E-01; -5.4847583E+02;3;  7.9812092E-01;  0.0000000E+00;  2.6990056E+00;0; -1.3771670E-01;  4.9088081E+03;  0.0000000E+00; -2.1265175E+00;  4.0000000E+04;  0.0000000E+00;  3.9261637E+04; -1.2393456E-01;  0.0000000E+00; -1.3782134E-02;  3.7078201E+03;
  1.0608562E+00;  9.9999998E-03; -2.1202026E-01;7945; -6.0940399E-03;  0.0000000E+00;  2.2766287E-03;  9.9948499E+02;  2.8799805E-01; -4.2670206E+02;3; -4.5473891E-01;  0.0000000E+00;  2.4487760E+00;0; -1.4422056E-01;  4.9150981E+03;  0.0000000E+00; -2.1331751E+00;  4.0000000E+04;  0.0000000E+00;  3.9258473E+04; -1.2994267E-01;  0.0000000E+00; -1.4277891E-02;  3.8774194E+03;
  1.0608379E+00;  9.9999998E-03; -2.0195907E-01;7946; -7.4348906E-03;  0.0000000E+00;  2.2068168E-03;  9.9952252E+02;  2.8802651E-01; -3.9559195E+02;3; -1.7353181E+00;  0.0000000E+00;  2.2073631E+00;0; -1.5085588E-01;  4.9159761E+03;  0.0000000E+00; -2.0736480E+00;  4.0000000E+04;  0.0000000E+00;  3.9257938E+04; -1.3652037E-01;  0.0000000E+00; -1.4335520E-02;  4.3137510E+03;
  1.0609223E+00;  9.9999998E-03; -1.9187167E-01;7947; -8.7763416E-03;  0.0000000E+00;  2.1487100E-03;  9.9944104E+02;  2.8816596E-01; -4.6309592E+02;3; -3.0440092E+00;  0.0000000E+00;  1.9720942E+00;0; -1.5769988E-01;  4.9122944E+03;  0.0000000E+00; -1.9516259E+00;  4.0000000E+04;  0.0000000E+00;  3.9259180E+04; -1.4352821E-01;  0.0000000E+00; -1.4171680E-02;  4.8767251E+03;
  1.0611216E+00;  9.9999998E-03; -1.8176514E-01;7948; -1.0122159E-02;  0.0000000E+00;  2.1075523E-03;  9.9924646E+02;  2.8842124E-01; -6.2427582E+02;3; -4.3728948E+00;  0.0000000E+00;  1.7492961E+00;0; -1.6475892E-01;  4.9040845E+03;  0.0000000E+00; -1.7871655E+00;  4.0000000E+04;  0.0000000E+00;  3.9260730E+04; -1.5081242E-01;  0.0000000E+00; -1.3946507E-02;  5.3439697E+03;
  1.0615972E+00;  9.9999998E-03; -1.7165683E-01;7949; -1.1505422E-02;  0.0000000E+00;  2.1085546E-03;  9.9895905E+02;  2.8889188E-01; -8.6239148E+02;3; -5.7086654E+00;  0.0000000E+00;  1.5507491E+00;0; -1.7213684E-01;  4.8876899E+03;  0.0000000E+00; -1.6056243E+00;  4.0000000E+04;  0.0000000E+00;  3.9261992E+04; -1.5830128E-01;  0.0000000E+00; -1.3835572E-02;  5.5681426E+03;
  1.0623649E+00;  9.9999998E-03; -1.6155213E-01;7950; -1.2940039E-02;  0.0000000E+00;  2.1548185E-03;  9.9863586E+02;  2.8957316E-01; -1.1301356E+03;3; -7.0474720E+00;  0.0000000E+00;  1.3803422E+00;0; -1.7977731E-01;  4.8634937E+03;  0.0000000E+00; -1.4164069E+00;  4.0000000E+04;  0.0000000E+00;  3.9263703E+04; -1.6579930E-01;  0.0000000E+00; -1.3978002E-02;  5.4942026E+03;
  1.0642548E+00;  9.9999998E-03; -1.1094757E-01;7955; -1.9552011E-02;  0.0000000E+00;  2.1193030E-03;  9.9780518E+02;  2.9125834E-01; -1.8183599E+03;3; -1.3645709E+01;  0.0000000E+00;  5.6779754E-01;0; -2.1264052E-01;  4.7976206E+03;  0.0000000E+00; -3.0328879E-01;  4.0000000E+04;  0.0000000E+00;  3.9269309E+04; -1.9516306E-01;  0.0000000E+00; -1.7477460E-02;  3.9794033E+03;
  1.0630971E+00;  9.9999998E-03; -1.5142956E-01;7951; -1.4369813E-02;  0.0000000E+00;  2.1976205E-03;  9.9832782E+02;  2.9021960E-01; -1.3853865E+03;3; -8.3959179E+00;  0.0000000E+00;  1.2155670E+00;0; -1.8727916E-01;  4.8402354E+03;  0.0000000E+00; -1.2122061E+00;  4.0000000E+04;  0.0000000E+00;  3.9265684E+04; -1.7291401E-01;  0.0000000E+00; -1.4365151E-02;  5.1662393E+03;
  1.0637050E+00;  9.9999998E-03; -1.4130205E-01;7952; -1.5769241E-02;  0.0000000E+00;  2.2235969E-03;  9.9808044E+02;  2.9074764E-01; -1.5903180E+03;3; -9.7443600E+00;  0.0000000E+00;  1.0532886E+00;0; -1.9445300E-01;  4.8204824E+03;  0.0000000E+00; -9.9455112E-01;  4.0000000E+04;  0.0000000E+00;  3.9267715E+04; -1.7947461E-01;  0.0000000E+00; -1.4978399E-02;  4.7670078E+03;
  1.0643210E+00;  9.9999998E-03; -1.2105975E-01;7954; -1.8383138E-02;  0.0000000E+00;  2.1902211E-03;  9.9782043E+02;  2.9129410E-01; -1.8057181E+03;3; -1.2385031E+01;  0.0000000E+00;  7.2974759E-01;0; -2.0723134E-01;  4.7982397E+03;  0.0000000E+00; -5.2949029E-01;  4.0000000E+04;  0.0000000E+00;  3.9270004E+04; -1.9061382E-01;  0.0000000E+00; -1.6617516E-02;  4.2267114E+03;
  1.0641184E+00;  9.9999998E-03; -1.3117889E-01;7953; -1.7112484E-02;  0.0000000E+00;  2.2222148E-03;  9.9790808E+02;  2.9111281E-01; -1.7331281E+03;3; -1.1078999E+01;  0.0000000E+00;  8.9151341E-01;0; -2.0113240E-01;  4.8063086E+03;  0.0000000E+00; -7.6495588E-01;  4.0000000E+04;  0.0000000E+00;  3.9269219E+04; -1.8538119E-01;  0.0000000E+00; -1.5751217E-02;  4.4526382E+03;
  1.0914216E+00;  9.9999998E-03; -2.5253892E-01;8002; -3.9742710E-03;  0.0000000E+00;  8.0798129E-03;  9.9639484E+02;  3.0879059E-01; -2.9868076E+03;3;  6.1939816E+00;  0.0000000E+00;  6.5865927E+00;0; -1.5259668E-01;  4.2528774E+03;  0.0000000E+00; -3.4064293E+00;  4.0000000E+04;  0.0000000E+00;  3.9234258E+04; -1.4538553E-01;  0.0000000E+00; -7.2111487E-03;  5.4749224E+03;
  1.0919933E+00;  9.9999998E-03; -2.6262045E-01;8001; -2.4988186E-03;  0.0000000E+00;  7.9861339E-03;  9.9567047E+02;  3.0941415E-01; -3.5868853E+03;3;  7.3548670E+00;  0.0000000E+00;  7.1435781E+00;0; -1.4679760E-01;  4.2314248E+03;  0.0000000E+00; -2.8836510E+00;  4.0000000E+04;  0.0000000E+00;  3.9243711E+04; -1.4541933E-01;  0.0000000E+00; -1.3782633E-03;  9.0980811E+03;
  1.0909023E+00;  9.9999998E-03; -2.4248952E-01;8003; -5.4331860E-03;  0.0000000E+00;  8.2084620E-03;  9.9689252E+02;  3.0821729E-01; -2.5744771E+03;3;  4.9844971E+00;  0.0000000E+00;  6.0849423E+00;0; -1.5766071E-01;  4.2724619E+03;  0.0000000E+00; -3.7240036E+00;  4.0000000E+04;  0.0000000E+00;  3.9215133E+04; -1.4599954E-01;  0.0000000E+00; -1.1661170E-02;  3.4171104E+03;
  1.0904950E+00;  9.9999998E-03; -2.3241515E-01;8004; -6.9798953E-03;  0.0000000E+00;  7.9149418E-03;  9.9738031E+02;  3.0777389E-01; -2.1703433E+03;3;  3.7086923E+00;  0.0000000E+00;  5.7628798E+00;0; -1.6097927E-01;  4.2878145E+03;  0.0000000E+00; -3.9008100E+00;  4.0000000E+04;  0.0000000E+00;  3.9211734E+04; -1.4744571E-01;  0.0000000E+00; -1.3533568E-02;  4.4772461E+03;
  1.0902826E+00;  9.9999998E-03; -2.2230126E-01;8005; -8.5951891E-03;  0.0000000E+00;  7.6524122E-03;  9.9770715E+02;  3.0754873E-01; -1.8995874E+03;3;  2.3621817E+00;  0.0000000E+00;  5.5020819E+00;0; -1.6517052E-01;  4.2966177E+03;  0.0000000E+00; -3.9215357E+00;  4.0000000E+04;  0.0000000E+00;  3.9215875E+04; -1.4972787E-01;  0.0000000E+00; -1.5442654E-02;  5.6370498E+03;
  1.0902179E+00;  9.9999998E-03; -2.1223132E-01;8006; -1.0213459E-02;  0.0000000E+00;  7.4901008E-03;  9.9772211E+02;  3.0748600E-01; -1.8871927E+03;3;  9.7463793E-01;  0.0000000E+00;  5.2234206E+00;0; -1.7002991E-01;  4.2999561E+03;  0.0000000E+00; -3.7882595E+00;  4.0000000E+04;  0.0000000E+00;  3.9213121E+04; -1.5268908E-01;  0.0000000E+00; -1.7340830E-02;  6.3349116E+03;
  1.0902696E+00;  9.9999998E-03; -2.0218727E-01;8007; -1.1848884E-02;  0.0000000E+00;  7.3276339E-03;  9.9757440E+02;  3.0755302E-01; -2.0095588E+03;3; -4.4889876E-01;  0.0000000E+00;  4.9481368E+00;0; -1.7528133E-01;  4.2986987E+03;  0.0000000E+00; -3.5295069E+00;  4.0000000E+04;  0.0000000E+00;  3.9211113E+04; -1.5623359E-01;  0.0000000E+00; -1.9047741E-02;  7.1445532E+03;
  1.0906229E+00;  9.9999998E-03; -1.9212577E-01;8008; -1.3547879E-02;  0.0000000E+00;  7.2044786E-03;  9.9726862E+02;  3.0789027E-01; -2.2628831E+03;3; -1.8958057E+00;  0.0000000E+00;  4.7024479E+00;0; -1.8088311E-01;  4.2888804E+03;  0.0000000E+00; -3.1903179E+00;  4.0000000E+04;  0.0000000E+00;  3.9211410E+04; -1.6017331E-01;  0.0000000E+00; -2.0709794E-02;  7.9019829E+03;
  1.0911601E+00;  9.9999998E-03; -1.8204682E-01;8009; -1.5280101E-02;  0.0000000E+00;  7.1022846E-03;  9.9684607E+02;  3.0839962E-01; -2.6129448E+03;3; -3.3666890E+00;  0.0000000E+00;  4.4706769E+00;0; -1.8662548E-01;  4.2734492E+03;  0.0000000E+00; -2.8068409E+00;  4.0000000E+04;  0.0000000E+00;  3.9211816E+04; -1.6420768E-01;  0.0000000E+00; -2.2417802E-02;  8.2633955E+03;
  1.0918841E+00;  9.9999998E-03; -1.7194811E-01;8010; -1.7043566E-02;  0.0000000E+00;  7.0206169E-03;  9.9634473E+02;  3.0907491E-01; -3.0282876E+03;3; -4.8553586E+00;  0.0000000E+00;  4.2532883E+00;0; -1.9229358E-01;  4.2530303E+03;  0.0000000E+00; -2.4167390E+00;  4.0000000E+04;  0.0000000E+00;  3.9212145E+04; -1.6800991E-01;  0.0000000E+00; -2.4283675E-02;  8.0067490E+03;
  1.0927436E+00;  9.9999998E-03; -1.6182418E-01;8011; -1.8823951E-02;  0.0000000E+00;  6.9486815E-03;  9.9584412E+02;  3.0985388E-01; -3.4430381E+03;3; -6.3585424E+00;  0.0000000E+00;  4.0426769E+00;0; -1.9767593E-01;  4.2295059E+03;  0.0000000E+00; -2.0394106E+00;  4.0000000E+04;  0.0000000E+00;  3.9212262E+04; -1.7128536E-01;  0.0000000E+00; -2.6390567E-02;  7.1351562E+03;
  1.0935541E+00;  9.9999998E-03; -1.5167937E-01;8012; -2.0569025E-02;  0.0000000E+00;  6.8517546E-03;  9.9540448E+02;  3.1058508E-01; -3.8072720E+03;3; -7.8739967E+00;  0.0000000E+00;  3.8205564E+00;0; -2.0274490E-01;  4.2072700E+03;  0.0000000E+00; -1.6719046E+00;  4.0000000E+04;  0.0000000E+00;  3.9212641E+04; -1.7402838E-01;  0.0000000E+00; -2.8716527E-02;  5.9463208E+03;
  1.0946274E+00;  9.9999998E-03; -1.1118865E-01;8016; -2.6467547E-02;  0.0000000E+00;  5.9419372E-03;  9.9498962E+02;  3.1169075E-01; -4.1509629E+03;3; -1.3791223E+01;  0.0000000E+00;  2.6988497E+00;0; -2.2255115E-01;  4.1723237E+03;  0.0000000E+00; -1.4254946E-01;  4.0000000E+04;  0.0000000E+00;  3.9211086E+04; -1.8369107E-01;  0.0000000E+00; -3.8860086E-02;  3.7796624E+03;
  1.0941755E+00;  9.9999998E-03; -1.4153111E-01;8013; -2.2228295E-02;  0.0000000E+00;  6.7054345E-03;  9.9510388E+02;  3.1116256E-01; -4.0562998E+03;3; -9.3914404E+00;  0.0000000E+00;  3.5743895E+00;0; -2.0764178E-01;  4.1896377E+03;  0.0000000E+00; -1.3007873E+00;  4.0000000E+04;  0.0000000E+00;  3.9213441E+04; -1.7644954E-01;  0.0000000E+00; -3.1192245E-02;  4.9218613E+03;
  1.0947300E+00;  9.9999998E-03; -1.2128206E-01;8015; -2.5195679E-02;  0.0000000E+00;  6.2513910E-03;  9.9491467E+02;  3.1173193E-01; -4.2130835E+03;3; -1.2367056E+01;  0.0000000E+00;  3.0111232E+00;0; -2.1743445E-01;  4.1716982E+03;  0.0000000E+00; -5.2075845E-01;  4.0000000E+04;  0.0000000E+00;  3.9213480E+04; -1.8108860E-01;  0.0000000E+00; -3.6345858E-02;  4.0394375E+03;
  1.0945609E+00;  9.9999998E-03; -1.3139398E-01;8014; -2.3773698E-02;  0.0000000E+00;  6.5036211E-03;  9.9494098E+02;  3.1154063E-01; -4.1912578E+03;3; -1.0895219E+01;  0.0000000E+00;  3.3027241E+00;0; -2.1251935E-01;  4.1778760E+03;  0.0000000E+00; -9.1527420E-01;  4.0000000E+04;  0.0000000E+00;  3.9214000E+04; -1.7876723E-01;  0.0000000E+00; -3.3752121E-02;  4.3379360E+03;
  1.1239111E+00;  9.9999998E-03; -2.4276711E-01;8064; -1.0950547E-02;  0.0000000E+00;  1.5918255E-02;  9.9468585E+02;  3.3064282E-01; -4.4026396E+03;3;  7.3743005E+00;  0.0000000E+00;  9.7612152E+00;0; -1.3328847E-01;  3.6980742E+03;  0.0000000E+00; -4.4262438E+00;  4.0000000E+04;  0.0000000E+00;  3.9161789E+04; -1.1473618E-01;  0.0000000E+00; -1.8552283E-02;  4.1433765E+03;
  1.1246986E+00;  9.9999998E-03; -2.5282177E-01;8063; -9.6417405E-03;  0.0000000E+00;  1.6191769E-02;  9.9393585E+02;  3.3150938E-01; -5.0239971E+03;3;  8.5611696E+00;  0.0000000E+00;  1.0149882E+01;0; -1.4297858E-01;  3.6738669E+03;  0.0000000E+00; -4.3319874E+00;  4.0000000E+04;  0.0000000E+00;  3.9183262E+04; -1.2369188E-01;  0.0000000E+00; -1.9286692E-02;  9.1810273E+03;
  1.1233903E+00;  9.9999998E-03; -2.3267670E-01;8065; -1.2517204E-02;  0.0000000E+00;  1.5295602E-02;  9.9525647E+02;  3.3003551E-01; -3.9298684E+03;3;  5.9032784E+00;  0.0000000E+00;  9.6393671E+00;0; -1.2297820E-01;  3.7146777E+03;  0.0000000E+00; -4.3812113E+00;  4.0000000E+04;  0.0000000E+00;  3.9158449E+04; -1.0454428E-01;  0.0000000E+00; -1.8433923E-02;  2.8502708E+03;
  1.1231160E+00;  9.9999998E-03; -2.2254165E-01;8066; -1.4254367E-02;  0.0000000E+00;  1.4790763E-02;  9.9552594E+02;  3.2970968E-01; -3.7066184E+03;3;  4.3557949E+00;  0.0000000E+00;  9.3512135E+00;0; -1.1339094E-01;  3.7237715E+03;  0.0000000E+00; -4.2105136E+00;  4.0000000E+04;  0.0000000E+00;  3.9162406E+04; -9.2780843E-02;  0.0000000E+00; -2.0610096E-02;  4.1745337E+03;
  1.1255891E+00;  9.9999998E-03; -2.6288956E-01;8062; -8.5440297E-03;  0.0000000E+00;  1.6000899E-02;  9.9288519E+02;  3.3247277E-01; -5.8944302E+03;3;  9.4220209E+00;  0.0000000E+00;  1.0705930E+01;0; -1.5043415E-01;  3.6461565E+03;  0.0000000E+00; -3.9502144E+00;  4.0000000E+04;  0.0000000E+00;  3.9206285E+04; -1.3226463E-01;  0.0000000E+00; -1.8169528E-02;  1.4799432E+04;
  1.1229964E+00;  9.9999998E-03; -2.1244659E-01;8067; -1.6056396E-02;  0.0000000E+00;  1.4420844E-02;  9.9538086E+02;  3.2958803E-01; -3.8268110E+03;3;  2.7545590E+00;  0.0000000E+00;  9.0731297E+00;0; -1.0367193E-01;  3.7272395E+03;  0.0000000E+00; -3.9279196E+00;  4.0000000E+04;  0.0000000E+00;  3.9157422E+04; -7.9687059E-02;  0.0000000E+00; -2.3984870E-02;  5.1850996E+03;
  1.1230274E+00;  9.9999998E-03; -2.0239194E-01;8068; -1.7925134E-02;  0.0000000E+00;  1.4062705E-02;  9.9499078E+02;  3.2964188E-01; -4.1500083E+03;3;  1.1203811E+00;  0.0000000E+00;  8.8123817E+00;0; -9.2937328E-02;  3.7256267E+03;  0.0000000E+00; -3.5644596E+00;  4.0000000E+04;  0.0000000E+00;  3.9151602E+04; -6.5145202E-02;  0.0000000E+00; -2.7792128E-02;  6.3156831E+03;
  1.1273261E+00;  9.9999998E-03; -1.1133674E-01;8077; -3.4450591E-02;  0.0000000E+00;  1.0308669E-02;  9.9211938E+02;  3.3386341E-01; -6.5288721E+03;3; -1.3812160E+01;  0.0000000E+00;  5.8563619E+00;0;  4.8575141E-02;  3.6210657E+03;  0.0000000E+00; -7.8319959E-02;  4.0000000E+04;  0.0000000E+00;  3.9134227E+04;  1.1123842E-01;  0.0000000E+00; -6.2663279E-02;  2.1209893E+03;
  1.1233870E+00;  9.9999998E-03; -1.9232027E-01;8069; -1.9904817E-02;  0.0000000E+00;  1.3740424E-02;  9.9445612E+02;  3.2998696E-01; -4.5929531E+03;3; -5.5053997E-01;  0.0000000E+00;  8.6026449E+00;0; -7.9342119E-02;  3.7164373E+03;  0.0000000E+00; -3.1461153E+00;  4.0000000E+04;  0.0000000E+00;  3.9147738E+04; -4.7441605E-02;  0.0000000E+00; -3.1900514E-02;  7.2449194E+03;
  1.1239288E+00;  9.9999998E-03; -1.8220945E-01;8070; -2.1937503E-02;  0.0000000E+00;  1.3427962E-02;  9.9383130E+02;  3.3050916E-01; -5.1106113E+03;3; -2.2142725E+00;  0.0000000E+00;  8.3681746E+00;0; -6.3362896E-02;  3.7028867E+03;  0.0000000E+00; -2.7091320E+00;  4.0000000E+04;  0.0000000E+00;  3.9145199E+04; -2.7201971E-02;  0.0000000E+00; -3.6160927E-02;  7.5500176E+03;
  1.1278473E+00;  9.9999998E-03; -1.2141832E-01;8076; -3.3219416E-02;  0.0000000E+00;  1.0999375E-02;  9.9195703E+02;  3.3420447E-01; -6.6633843E+03;3; -1.2219192E+01;  0.0000000E+00;  6.4180055E+00;0;  5.0428826E-02;  3.6132349E+03;  0.0000000E+00; -4.0539402E-01;  4.0000000E+04;  0.0000000E+00;  3.9136160E+04;  1.1028076E-01;  0.0000000E+00; -5.9851933E-02;  2.1196589E+03;
  1.1246506E+00;  9.9999998E-03; -1.7206393E-01;8071; -2.3996802E-02;  0.0000000E+00;  1.3120161E-02;  9.9320093E+02;  3.3119228E-01; -5.6328618E+03;3; -3.8912046E+00;  0.0000000E+00;  8.1311455E+00;0; -4.4639975E-02;  3.6855425E+03;  0.0000000E+00; -2.2863102E+00;  4.0000000E+04;  0.0000000E+00;  3.9142418E+04; -4.1527059E-03;  0.0000000E+00; -4.0487267E-02;  7.0477085E+03;
  1.1255207E+00;  9.9999998E-03; -1.6190170E-01;8072; -2.6054654E-02;  0.0000000E+00;  1.2806626E-02;  9.9264026E+02;  3.3199450E-01; -6.0973354E+03;3; -5.5731039E+00;  0.0000000E+00;  7.8793154E+00;0; -2.3170499E-02;  3.6656423E+03;  0.0000000E+00; -1.8891484E+00;  4.0000000E+04;  0.0000000E+00;  3.9140281E+04;  2.1628307E-02;  0.0000000E+00; -4.4798806E-02;  5.8598672E+03;
  1.1278089E+00;  9.9999998E-03; -1.3150851E-01;8075; -3.1719115E-02;  0.0000000E+00;  1.1587895E-02;  9.9189600E+02;  3.3409473E-01; -6.7139502E+03;3; -1.0585044E+01;  0.0000000E+00;  6.8947306E+00;0;  4.1126654E-02;  3.6157339E+03;  0.0000000E+00; -7.6866388E-01;  4.0000000E+04;  0.0000000E+00;  3.9137465E+04;  9.7746871E-02;  0.0000000E+00; -5.6620218E-02;  2.3947429E+03;
  1.1264575E+00;  9.9999998E-03; -1.5174679E-01;8073; -2.8071206E-02;  0.0000000E+00;  1.2468307E-02;  9.9221210E+02;  3.3284351E-01; -6.4520366E+03;3; -7.2548299E+00;  0.0000000E+00;  7.6066146E+00;0;  2.4821237E-04;  3.6451655E+03;  0.0000000E+00; -1.5121038E+00;  4.0000000E+04;  0.0000000E+00;  3.9138941E+04;  4.9253549E-02;  0.0000000E+00; -4.9005337E-02;  4.3809268E+03;
  1.1272427E+00;  9.9999998E-03; -1.4161362E-01;8074; -2.9970543E-02;  0.0000000E+00;  1.2064346E-02;  9.9197009E+02;  3.3356187E-01; -6.6525210E+03;3; -8.9282455E+00;  0.0000000E+00;  7.2792592E+00;0;  2.2333208E-02;  3.6280974E+03;  0.0000000E+00; -1.1416806E+00;  4.0000000E+04;  0.0000000E+00;  3.9138223E+04;  7.5286865E-02;  0.0000000E+00; -5.2953657E-02;  3.1237090E+03;
  1.1599282E+00;  9.9999998E-03; -2.4312088E-01;8125; -1.6931411E-02;  0.0000000E+00;  2.3777645E-02;  9.9454700E+02;  3.5387686E-01; -4.5176099E+03;3;  9.5979004E+00;  0.0000000E+00;  1.5682954E+01;0;  3.2131344E-01;  3.2317327E+03;  0.0000000E+00; -2.2871070E+00;  4.0000000E+04;  0.0000000E+00;  3.9090496E+04;  3.8279524E-01;  0.0000000E+00; -6.1481815E-02;  6.3855674E+03;
  1.1595650E+00;  9.9999998E-03; -2.3301648E-01;8126; -1.8612429E-02;  0.0000000E+00;  2.2956472E-02;  9.9512628E+02;  3.5342887E-01; -4.0376829E+03;3;  8.0516176E+00;  0.0000000E+00;  1.5318092E+01;0;  3.7281018E-01;  3.2420378E+03;  0.0000000E+00; -1.9864651E+00;  4.0000000E+04;  0.0000000E+00;  3.9090812E+04;  4.2454988E-01;  0.0000000E+00; -5.1739678E-02;  3.7610476E+03;
  1.1613983E+00;  9.9999998E-03; -2.5318834E-01;8124; -1.5790807E-02;  0.0000000E+00;  2.4576958E-02;  9.9384619E+02;  3.5520372E-01; -5.0982217E+03;3;  1.1201214E+01;  0.0000000E+00;  1.5788666E+01;0;  2.9456168E-01;  3.2040513E+03;  0.0000000E+00; -2.7923799E+00;  4.0000000E+04;  0.0000000E+00;  3.9106520E+04;  3.7491864E-01;  0.0000000E+00; -8.0356948E-02;  1.1190825E+04;
  1.1594148E+00;  9.9999998E-03; -2.2286034E-01;8127; -2.0470839E-02;  0.0000000E+00;  2.2320954E-02;  9.9544336E+02;  3.5321295E-01; -3.7750288E+03;3;  6.1894307E+00;  0.0000000E+00;  1.5216133E+01;0;  4.2915136E-01;  3.2473967E+03;  0.0000000E+00; -1.7777994E+00;  4.0000000E+04;  0.0000000E+00;  3.9095145E+04;  4.7716248E-01;  0.0000000E+00; -4.8011120E-02;  2.4163828E+03;
  1.1593597E+00;  9.9999998E-03; -2.1270992E-01;8128; -2.2429269E-02;  0.0000000E+00;  2.1851100E-02;  9.9537146E+02;  3.5315138E-01; -3.8345815E+03;3;  4.4025745E+00;  0.0000000E+00;  1.4981890E+01;0;  4.8912176E-01;  3.2494524E+03;  0.0000000E+00; -1.5971432E+00;  4.0000000E+04;  0.0000000E+00;  3.9090941E+04;  5.3705943E-01;  0.0000000E+00; -4.7937665E-02;  1.6308335E+03;
  1.1645453E+00;  9.9999998E-03; -2.6327485E-01;8123; -1.5844900E-02;  0.0000000E+00;  2.5342146E-02;  9.9287469E+02;  3.5781938E-01; -5.9030659E+03;3;  1.0518131E+01;  0.0000000E+00;  1.5404777E+01;0;  3.0518550E-01;  3.1520349E+03;  0.0000000E+00; -3.6986098E+00;  4.0000000E+04;  0.0000000E+00;  3.9124766E+04;  4.1789809E-01;  0.0000000E+00; -1.1271258E-01;  1.7643039E+04;
  1.1593966E+00;  9.9999998E-03; -2.0259164E-01;8129; -2.4447767E-02;  0.0000000E+00;  2.1371298E-02;  9.9502039E+02;  3.5322034E-01; -4.1254316E+03;3;  2.6003528E+00;  0.0000000E+00;  1.4719425E+01;0;  5.5359685E-01;  3.2484365E+03;  0.0000000E+00; -1.4121028E+00;  4.0000000E+04;  0.0000000E+00;  3.9081457E+04;  6.0341674E-01;  0.0000000E+00; -4.9819872E-02;  2.2952246E+03;
  1.1633595E+00;  9.9999998E-03; -1.1150303E-01;8138; -4.1731454E-02;  0.0000000E+00;  1.4880946E-02;  9.9384332E+02;  3.5702506E-01; -5.1005889E+03;3; -1.3717813E+01;  0.0000000E+00;  1.0658525E+01;0;  1.2404939E+00;  3.1820693E+03;  0.0000000E+00;  2.0083091E-01;  4.0000000E+04;  0.0000000E+00;  3.9036234E+04;  1.3047988E+00;  0.0000000E+00; -6.4304963E-02;  4.8612905E+03;
  1.1595274E+00;  9.9999998E-03; -1.9247124E-01;8130; -2.6527837E-02;  0.0000000E+00;  2.0835921E-02;  9.9454669E+02;  3.5340607E-01; -4.5178574E+03;3;  7.6903397E-01;  0.0000000E+00;  1.4437205E+01;0;  6.2263924E-01;  3.2448025E+03;  0.0000000E+00; -1.2148855E+00;  4.0000000E+04;  0.0000000E+00;  3.9072395E+04;  6.7545980E-01;  0.0000000E+00; -5.2820556E-02;  3.6369104E+03;
  1.1598057E+00;  9.9999998E-03; -1.8232186E-01;8131; -2.8659835E-02;  0.0000000E+00;  2.0260973E-02;  9.9404694E+02;  3.5372680E-01; -4.9319111E+03;3; -1.0792425E+00;  0.0000000E+00;  1.4134525E+01;0;  6.9761634E-01;  3.2384360E+03;  0.0000000E+00; -1.0085484E+00;  4.0000000E+04;  0.0000000E+00;  3.9064629E+04;  7.5399274E-01;  0.0000000E+00; -5.6376424E-02;  4.6102300E+03;
  1.1638581E+00;  9.9999998E-03; -1.2159451E-01;8137; -4.0440965E-02;  0.0000000E+00;  1.5951784E-02;  9.9373340E+02;  3.5730517E-01; -5.1916455E+03;3; -1.1965656E+01;  0.0000000E+00;  1.1496121E+01;0;  1.2204071E+00;  3.1765813E+03;  0.0000000E+00;  1.1784323E-01;  4.0000000E+04;  0.0000000E+00;  3.9039297E+04;  1.2857710E+00;  0.0000000E+00; -6.5363929E-02;  4.5170728E+03;
  1.1603713E+00;  9.9999998E-03; -1.7215264E-01;8132; -3.0834222E-02;  0.0000000E+00;  1.9676493E-02;  9.9362512E+02;  3.5426983E-01; -5.2813750E+03;3; -2.9269502E+00;  0.0000000E+00;  1.3828603E+01;0;  7.8331900E-01;  3.2281948E+03;  0.0000000E+00; -7.9291195E-01;  4.0000000E+04;  0.0000000E+00;  3.9057977E+04;  8.4332019E-01;  0.0000000E+00; -6.0001191E-02;  5.0330503E+03;
  1.1639051E+00;  9.9999998E-03; -1.3168862E-01;8136; -3.8917508E-02;  0.0000000E+00;  1.6924620E-02;  9.9357794E+02;  3.5725260E-01; -5.3204292E+03;3; -1.0179641E+01;  0.0000000E+00;  1.2211948E+01;0;  1.1725484E+00;  3.1767854E+03;  0.0000000E+00; -8.4701320E-03;  4.0000000E+04;  0.0000000E+00;  3.9041199E+04;  1.2387172E+00;  0.0000000E+00; -6.6168740E-02;  4.3980151E+03;
  1.1612693E+00;  9.9999998E-03; -1.6199611E-01;8133; -3.3017483E-02;  0.0000000E+00;  1.9088700E-02;  9.9335913E+02;  3.5504842E-01; -5.5017085E+03;3; -4.7605457E+00;  0.0000000E+00;  1.3522148E+01;0;  8.8207889E-01;  3.2141001E+03;  0.0000000E+00; -5.7424045E-01;  4.0000000E+04;  0.0000000E+00;  3.9052320E+04;  9.4524145E-01;  0.0000000E+00; -6.3162580E-02;  4.9948076E+03;
  1.1623099E+00;  9.9999998E-03; -1.5187728E-01;8134; -3.5135217E-02;  0.0000000E+00;  1.8459337E-02;  9.9329492E+02;  3.5591695E-01; -5.5549390E+03;3; -6.5781617E+00;  0.0000000E+00;  1.3177814E+01;0;  9.8696065E-01;  3.1989368E+03;  0.0000000E+00; -3.6503577E-01;  4.0000000E+04;  0.0000000E+00;  3.9047375E+04;  1.0523185E+00;  0.0000000E+00; -6.5357774E-02;  4.7261987E+03;
  1.1632557E+00;  9.9999998E-03; -1.4178227E-01;8135; -3.7119363E-02;  0.0000000E+00;  1.7746616E-02;  9.9338824E+02;  3.5669798E-01; -5.4776074E+03;3; -8.3840275E+00;  0.0000000E+00;  1.2752079E+01;0;  1.0874157E+00;  3.1857258E+03;  0.0000000E+00; -1.7406276E-01;  4.0000000E+04;  0.0000000E+00;  3.9044227E+04;  1.1537455E+00;  0.0000000E+00; -6.6329800E-02;  4.4744199E+03;
  1.1986691E+00;  9.9999998E-03; -2.1298951E-01;8189; -2.8338159E-02;  0.0000000E+00;  2.8292032E-02;  9.9892963E+02;  3.7122363E-01; -8.8675836E+02;3;  5.8313546E+00;  0.0000000E+00;  2.3480742E+01;0;  2.3457713E+00;  2.9671851E+03;  0.0000000E+00;  1.0600665E+00;  4.0000000E+04;  0.0000000E+00;  3.9028723E+04;  2.4649501E+00;  0.0000000E+00; -1.1917886E-01;  2.5828364E+03;
  1.1987700E+00;  9.9999998E-03; -2.0281085E-01;8190; -3.0183258E-02;  0.0000000E+00;  2.7837325E-02;  9.9895599E+02;  3.7134308E-01; -8.6493262E+02;3;  3.9136922E+00;  0.0000000E+00;  2.3170492E+01;0;  2.4860489E+00;  2.9673801E+03;  0.0000000E+00;  9.8478895E-01;  4.0000000E+04;  0.0000000E+00;  3.9016938E+04;  2.5861127E+00;  0.0000000E+00; -1.0006391E-01;  3.9552502E+03;
  1.1985807E+00;  9.9999998E-03; -2.2319002E-01;8188; -2.6651366E-02;  0.0000000E+00;  2.8773254E-02;  9.9851996E+02;  3.7116635E-01; -1.2261443E+03;3;  7.7296166E+00;  0.0000000E+00;  2.3720518E+01;0;  2.2058413E+00;  2.9653147E+03;  0.0000000E+00;  1.0227872E+00;  4.0000000E+04;  0.0000000E+00;  3.9030945E+04;  2.3507061E+00;  0.0000000E+00; -1.4486472E-01;  1.2241936E+03;
  1.1985756E+00;  9.9999998E-03; -2.3338097E-01;8187; -2.5166940E-02;  0.0000000E+00;  2.9654250E-02;  9.9764465E+02;  3.7121052E-01; -1.9512833E+03;3;  9.7455225E+00;  0.0000000E+00;  2.4080816E+01;0;  2.0699635E+00;  2.9614727E+03;  0.0000000E+00;  7.4219954E-01;  4.0000000E+04;  0.0000000E+00;  3.9019414E+04;  2.2506838E+00;  0.0000000E+00; -1.8072045E-01;  1.9896271E+03;
  1.1989645E+00;  9.9999998E-03; -1.9264349E-01;8191; -3.2144617E-02;  0.0000000E+00;  2.7296342E-02;  9.9880475E+02;  3.7152609E-01; -9.9020850E+02;3;  1.9830409E+00;  0.0000000E+00;  2.2806366E+01;0;  2.6311815E+00;  2.9658840E+03;  0.0000000E+00;  8.8466847E-01;  4.0000000E+04;  0.0000000E+00;  3.9002785E+04;  2.7166681E+00;  0.0000000E+00; -8.5486695E-02;  5.4983423E+03;
  1.1992693E+00;  9.9999998E-03; -1.8247633E-01;8192; -3.4165747E-02;  0.0000000E+00;  2.6652187E-02;  9.9860626E+02;  3.7176368E-01; -1.1546422E+03;3;  4.1654430E-02;  0.0000000E+00;  2.2398890E+01;0;  2.7808957E+00;  2.9631890E+03;  0.0000000E+00;  7.9989725E-01;  4.0000000E+04;  0.0000000E+00;  3.8989395E+04;  2.8545120E+00;  0.0000000E+00; -7.3616266E-02;  6.9545122E+03;
  1.1992496E+00;  9.9999998E-03; -2.4349307E-01;8186; -2.3992620E-02;  0.0000000E+00;  3.1112453E-02;  9.9664471E+02;  3.7158632E-01; -2.7796741E+03;3;  1.1825283E+01;  0.0000000E+00;  2.4453772E+01;0;  1.9710751E+00;  2.9522366E+03;  0.0000000E+00;  6.4408340E-02;  4.0000000E+04;  0.0000000E+00;  3.9012977E+04;  2.2059052E+00;  0.0000000E+00; -2.3483011E-01;  4.8449214E+03;
  1.1997055E+00;  9.9999998E-03; -1.7231070E-01;8193; -3.6189370E-02;  0.0000000E+00;  2.5906652E-02;  9.9846423E+02;  3.7204373E-01; -1.2723132E+03;3; -1.9013562E+00;  0.0000000E+00;  2.1941025E+01;0;  2.9349403E+00;  2.9597317E+03;  0.0000000E+00;  7.4055946E-01;  4.0000000E+04;  0.0000000E+00;  3.8977797E+04;  2.9977803E+00;  0.0000000E+00; -6.2839992E-02;  8.1476895E+03;
  1.2014101E+00;  9.9999998E-03; -2.5353682E-01;8185; -2.4363358E-02;  0.0000000E+00;  3.1570315E-02;  9.9594958E+02;  3.7256885E-01; -3.3555837E+03;3;  6.1148767E+00;  0.0000000E+00;  2.0382475E+01;0;  1.9606723E+00;  2.9329473E+03;  0.0000000E+00; -1.2104001E+00;  4.0000000E+04;  0.0000000E+00;  3.9033816E+04;  2.2726636E+00;  0.0000000E+00; -3.1199133E-01;  8.3669883E+03;
  1.2005955E+00;  9.9999998E-03; -1.6218242E-01;8194; -3.8185842E-02;  0.0000000E+00;  2.5110662E-02;  9.9849280E+02;  3.7247443E-01; -1.2486599E+03;3; -3.8104200E+00;  0.0000000E+00;  2.1497643E+01;0;  3.1135271E+00;  2.9542004E+03;  0.0000000E+00;  7.0893574E-01;  4.0000000E+04;  0.0000000E+00;  3.8967891E+04;  3.1649685E+00;  0.0000000E+00; -5.1441450E-02;  9.0813135E+03;
  1.2014269E+00;  9.9999998E-03; -1.1167957E-01;8199; -4.5701910E-02;  0.0000000E+00;  1.9013563E-02;  9.9949280E+02;  3.7314329E-01; -4.2017014E+02;3; -1.3253527E+01;  0.0000000E+00;  1.7249401E+01;0;  3.6453598E+00;  2.9505068E+03;  0.0000000E+00;  2.8648368E-01;  4.0000000E+04;  0.0000000E+00;  3.8943492E+04;  3.6275051E+00;  0.0000000E+00;  1.7854711E-02;  1.1153411E+04;
  1.2016500E+00;  9.9999998E-03; -1.5208879E-01;8195; -4.0055498E-02;  0.0000000E+00;  2.4212979E-02;  9.9867871E+02;  3.7294599E-01; -1.0946447E+03;3; -5.6947761E+00;  0.0000000E+00;  2.0976250E+01;0;  3.2962642E+00;  2.9483389E+03;  0.0000000E+00;  6.7858672E-01;  4.0000000E+04;  0.0000000E+00;  3.8960070E+04;  3.3346219E+00;  0.0000000E+00; -3.8357805E-02;  9.7317568E+03;
  1.2019833E+00;  9.9999998E-03; -1.2178326E-01;8198; -4.4533405E-02;  0.0000000E+00;  2.0484772E-02;  9.9933148E+02;  3.7326732E-01; -5.5384027E+02;3; -1.1394735E+01;  0.0000000E+00;  1.8422329E+01;0;  3.6040177E+00;  2.9472502E+03;  0.0000000E+00;  4.2392743E-01;  4.0000000E+04;  0.0000000E+00;  3.8947828E+04;  3.6000638E+00;  0.0000000E+00;  3.9538606E-03;  1.0675486E+04;
  1.2025025E+00;  9.9999998E-03; -1.3188386E-01;8197; -4.3219734E-02;  0.0000000E+00;  2.1892864E-02;  9.9916571E+02;  3.7338609E-01; -6.9116443E+02;3; -9.4868631E+00;  0.0000000E+00;  1.9498613E+01;0;  3.5526052E+00;  2.9442480E+03;  0.0000000E+00;  5.4011810E-01;  4.0000000E+04;  0.0000000E+00;  3.8950824E+04;  3.5621352E+00;  0.0000000E+00; -9.5301410E-03;  1.0387890E+04;
  1.2024508E+00;  9.9999998E-03; -1.4199163E-01;8196; -4.1738715E-02;  0.0000000E+00;  2.3155516E-02;  9.9894220E+02;  3.7330514E-01; -8.7633740E+02;3; -7.5794625E+00;  0.0000000E+00;  2.0360970E+01;0;  3.4540677E+00;  2.9442788E+03;  0.0000000E+00;  6.2624681E-01;  4.0000000E+04;  0.0000000E+00;  3.8954766E+04;  3.4778843E+00;  0.0000000E+00; -2.3816537E-02;  1.0133438E+04;
  1.2058717E+00;  9.9999998E-03; -2.6358178E-01;8184; -2.9236933E-02;  0.0000000E+00;  2.4081577E-02;  9.9596930E+02;  3.7435296E-01; -3.3392307E+03;3;  5.4375677E+00;  0.0000000E+00;  6.7812943E+00;0;  2.1596787E+00;  2.9023064E+03;  0.0000000E+00; -3.4116449E+00;  4.0000000E+04;  0.0000000E+00;  3.9075621E+04;  2.5208018E+00;  0.0000000E+00; -3.6112311E-01;  1.5019007E+04;
  1.2386831E+00;  9.9999998E-03; -2.0295094E-01;8251;  8.5022621E-02;  0.0000000E+00; -4.1449700E-02;  9.9946912E+02;  3.7185878E-01; -4.3981107E+02;3; -9.9317528E+01;  0.0000000E+00;  5.4570591E+01;0;  5.0939450E+00;  2.9669907E+03;  0.0000000E+00;  1.3326836E+00;  4.0000000E+04;  0.0000000E+00;  3.8974625E+04;  5.1651073E+00;  0.0000000E+00; -7.1162254E-02;  9.4082393E+03;
  1.2388165E+00;  9.9999998E-03; -1.9282080E-01;8252;  1.1391988E-01;  0.0000000E+00; -4.3316998E-02;  9.9957568E+02;  3.7193397E-01; -3.5152292E+02;3; -9.6092079E+01;  0.0000000E+00;  5.3878521E+01;0;  5.1417975E+00;  2.9681367E+03;  0.0000000E+00;  1.0886532E+00;  4.0000000E+04;  0.0000000E+00;  3.8958367E+04;  5.1814947E+00;  0.0000000E+00; -3.9696943E-02;  9.8870508E+03;
  1.2387849E+00;  9.9999998E-03; -2.1311921E-01;8250;  5.4819427E-02;  0.0000000E+00; -4.0254507E-02;  9.9917499E+02;  3.7177822E-01; -6.8344269E+02;3; -1.0014768E+02;  0.0000000E+00;  5.5516369E+01;0;  5.0594263E+00;  2.9650303E+03;  0.0000000E+00;  1.4945127E+00;  4.0000000E+04;  0.0000000E+00;  3.8987887E+04;  5.1622376E+00;  0.0000000E+00; -1.0281151E-01;  9.2721885E+03;
  1.2391825E+00;  9.9999998E-03; -1.8270433E-01;8253;  1.4264005E-01;  0.0000000E+00; -4.5866888E-02;  9.9963708E+02;  3.7200674E-01; -3.0066333E+02;3; -9.2109985E+01;  0.0000000E+00;  5.3022366E+01;0;  5.1976871E+00;  2.9688262E+03;  0.0000000E+00;  8.3610141E-01;  4.0000000E+04;  0.0000000E+00;  3.8943383E+04;  5.2055860E+00;  0.0000000E+00; -7.8986492E-03;  1.0672037E+04;
  1.2397159E+00;  9.9999998E-03; -1.7258760E-01;8254;  1.7077984E-01;  0.0000000E+00; -4.8817709E-02;  9.9970581E+02;  3.7206557E-01; -2.4373026E+02;3; -8.7770348E+01;  0.0000000E+00;  5.2001583E+01;0;  5.2549720E+00;  2.9694133E+03;  0.0000000E+00;  6.1433136E-01;  4.0000000E+04;  0.0000000E+00;  3.8930473E+04;  5.2304006E+00;  0.0000000E+00;  2.4571251E-02;  1.1578702E+04;
  1.2389625E+00;  9.9999998E-03; -2.2333315E-01;8249;  2.3534421E-02;  0.0000000E+00; -3.8911473E-02;  9.9845001E+02;  3.7171620E-01; -1.2840288E+03;3; -8.8873634E+01;  0.0000000E+00;  5.8934502E+01;0;  5.0318990E+00;  2.9618989E+03;  0.0000000E+00;  1.4508687E+00;  4.0000000E+04;  0.0000000E+00;  3.8990027E+04;  5.1674843E+00;  0.0000000E+00; -1.3558537E-01;  8.9384121E+03;
  1.2401435E+00;  9.9999998E-03; -1.6245687E-01;8255;  1.9475079E-01;  0.0000000E+00; -5.1296417E-02;  9.9980450E+02;  3.7210935E-01; -1.6196005E+02;3; -8.3789299E+01;  0.0000000E+00;  5.0941174E+01;0;  5.3022194E+00;  2.9699436E+03;  0.0000000E+00;  4.4106236E-01;  4.0000000E+04;  0.0000000E+00;  3.8920574E+04;  5.2453341E+00;  0.0000000E+00;  5.6885403E-02;  1.2420534E+04;
  1.2405945E+00;  9.9999998E-03; -1.5233216E-01;8256;  2.1688692E-01;  0.0000000E+00; -5.3612147E-02;  9.9995746E+02;  3.7213910E-01; -3.5255924E+01;3; -7.9772781E+01;  0.0000000E+00;  5.0035053E+01;0;  5.3432026E+00;  2.9707065E+03;  0.0000000E+00;  3.0388042E-01;  4.0000000E+04;  0.0000000E+00;  3.8913062E+04;  5.2540097E+00;  0.0000000E+00;  8.9192823E-02;  1.3108533E+04;
  1.2411159E+00;  9.9999998E-03; -1.4221686E-01;8257;  2.3810564E-01;  0.0000000E+00; -5.5831674E-02;  1.0001914E+03;  3.7215883E-01;  1.5860220E+02;3; -7.5560455E+01;  0.0000000E+00;  4.9367977E+01;0;  5.3782167E+00;  2.9717725E+03;  0.0000000E+00;  1.8988858E-01;  4.0000000E+04;  0.0000000E+00;  3.8907801E+04;  5.2566428E+00;  0.0000000E+00;  1.2157389E-01;  1.3636963E+04;
  1.2393862E+00;  9.9999998E-03; -2.3354080E-01;8248;  1.2568547E-03;  0.0000000E+00; -3.7842698E-02;  9.9724866E+02;  3.7168005E-01; -2.2792932E+03;3; -6.4351021E+01;  0.0000000E+00;  6.1439758E+01;0;  5.0173807E+00;  2.9580129E+03;  0.0000000E+00;  1.0358999E+00;  4.0000000E+04;  0.0000000E+00;  3.8976293E+04;  5.1866508E+00;  0.0000000E+00; -1.6926995E-01;  7.9736787E+03;
  1.2412022E+00;  9.9999998E-03; -1.3210532E-01;8258;  2.5235954E-01;  0.0000000E+00; -5.6971718E-02;  1.0004023E+03;  3.7219346E-01;  3.3330161E+02;3; -7.2369225E+01;  0.0000000E+00;  4.8636684E+01;0;  5.3974943E+00;  2.9725264E+03;  0.0000000E+00;  9.8395199E-02;  4.0000000E+04;  0.0000000E+00;  3.8904105E+04;  5.2459779E+00;  0.0000000E+00;  1.5151654E-01;  1.4090975E+04;
  1.2411697E+00;  9.9999998E-03; -1.2198313E-01;8259;  2.6429597E-01;  0.0000000E+00; -5.7880722E-02;  1.0006161E+03;  3.7224656E-01;  5.1046997E+02;3; -6.9380264E+01;  0.0000000E+00;  4.8034309E+01;0;  5.4113379E+00;  2.9731880E+03;  0.0000000E+00;  2.6179338E-02;  4.0000000E+04;  0.0000000E+00;  3.8899992E+04;  5.2303662E+00;  0.0000000E+00;  1.8097164E-01;  1.4598043E+04;
  1.2411153E+00;  9.9999998E-03; -1.1184841E-01;8260;  2.7525765E-01;  0.0000000E+00; -5.8755238E-02;  1.0008102E+03;  3.7232423E-01;  6.7114606E+02;3; -6.6366638E+01;  0.0000000E+00;  4.7646641E+01;0;  5.4232044E+00;  2.9737488E+03;  0.0000000E+00; -2.1629490E-02;  4.0000000E+04;  0.0000000E+00;  3.8894910E+04;  5.2121248E+00;  0.0000000E+00;  2.1107982E-01;  1.5239145E+04;
  1.2405260E+00;  9.9999998E-03; -2.4368294E-01;8247; -1.0931852E-02;  0.0000000E+00; -3.7160490E-02;  9.9593848E+02;  3.7165862E-01; -3.3646694E+03;3; -5.5130207E+01;  0.0000000E+00;  6.4163513E+01;0;  5.0484257E+00;  2.9539861E+03;  0.0000000E+00;  9.8845109E-02;  4.0000000E+04;  0.0000000E+00;  3.8957762E+04;  5.2541728E+00;  0.0000000E+00; -2.0574698E-01;  7.4146177E+03;
  1.2427766E+00;  9.9999998E-03; -2.5375164E-01;8246; -1.2669172E-02;  0.0000000E+00; -3.7154939E-02;  9.9506433E+02;  3.7162718E-01; -4.0888386E+03;3; -8.5443939E+01;  0.0000000E+00;  6.2867722E+01;0;  5.1518512E+00;  2.9509050E+03;  0.0000000E+00; -1.4683100E+00;  4.0000000E+04;  0.0000000E+00;  3.8955871E+04;  5.4008818E+00;  0.0000000E+00; -2.4903080E-01;  7.9790488E+03;
  1.2469031E+00;  9.9999998E-03; -2.6376918E-01;8245;  4.1114308E-02;  0.0000000E+00; -2.7090328E-02;  9.9553729E+02;  3.7155312E-01; -3.6970088E+03;3; -1.1489065E+02;  0.0000000E+00;  4.8012413E+01;0;  5.2182913E+00;  2.9516431E+03;  0.0000000E+00; -3.8559582E+00;  4.0000000E+04;  0.0000000E+00;  3.8990949E+04;  5.6314974E+00;  0.0000000E+00; -4.1320631E-01;  1.2898938E+04;
  1.2752393E+00;  9.9999998E-03; -1.9265209E-01;8313;  4.7340488E-01;  0.0000000E+00; -1.0792553E-01;  1.0021093E+03;  3.6028025E-01;  1.7473113E+03;3; -6.9331436E+01;  0.0000000E+00;  4.4119991E+01;0;  5.8071380E+00;  3.1791355E+03;  0.0000000E+00; -2.6863477E-01;  4.0000000E+04;  0.0000000E+00;  3.8944176E+04;  5.7124414E+00;  0.0000000E+00;  9.4696552E-02;  1.0586549E+04;
  1.2751874E+00;  9.9999998E-03; -2.0276769E-01;8312;  4.5838007E-01;  0.0000000E+00; -1.0705636E-01;  1.0018829E+03;  3.6022502E-01;  1.5597822E+03;3; -8.0207047E+01;  0.0000000E+00;  4.4737488E+01;0;  5.9099312E+00;  3.1775291E+03;  0.0000000E+00; -7.8491732E-02;  4.0000000E+04;  0.0000000E+00;  3.8958977E+04;  5.8653469E+00;  0.0000000E+00;  4.4584110E-02;  1.0310773E+04;
  1.2756754E+00;  9.9999998E-03; -1.8255804E-01;8314;  4.8918641E-01;  0.0000000E+00; -1.0936188E-01;  1.0023577E+03;  3.6026013E-01;  1.9531082E+03;3; -5.8030254E+01;  0.0000000E+00;  4.3324402E+01;0;  5.6948051E+00;  3.1817068E+03;  0.0000000E+00; -3.9019457E-01;  4.0000000E+04;  0.0000000E+00;  3.8931887E+04;  5.5480862E+00;  0.0000000E+00;  1.4671919E-01;  1.1286790E+04;
  1.2755781E+00;  9.9999998E-03; -2.1293572E-01;8311;  4.4372946E-01;  0.0000000E+00; -1.0674024E-01;  1.0016229E+03;  3.6008132E-01;  1.3444039E+03;3; -9.0568001E+01;  0.0000000E+00;  4.4904831E+01;0;  6.0074553E+00;  3.1772351E+03;  0.0000000E+00;  9.7493105E-02;  4.0000000E+04;  0.0000000E+00;  3.8972207E+04;  6.0099964E+00;  0.0000000E+00; -2.5411567E-03;  1.0511228E+04;
  1.2761835E+00;  9.9999998E-03; -1.7244890E-01;8315;  5.0345755E-01;  0.0000000E+00; -1.1088984E-01;  1.0025749E+03;  3.6021942E-01;  2.1330317E+03;3; -4.6870731E+01;  0.0000000E+00;  4.2835575E+01;0;  5.5750308E+00;  3.1841355E+03;  0.0000000E+00; -3.9191166E-01;  4.0000000E+04;  0.0000000E+00;  3.8922156E+04;  5.3768063E+00;  0.0000000E+00;  1.9822471E-01;  1.2179141E+04;
  1.2764626E+00;  9.9999998E-03; -1.6229983E-01;8316;  5.1416636E-01;  0.0000000E+00; -1.1210886E-01;  1.0027209E+03;  3.6020032E-01;  2.2539026E+03;3; -3.6635914E+01;  0.0000000E+00;  4.2054310E+01;0;  5.4552927E+00;  3.1855107E+03;  0.0000000E+00; -2.6813930E-01;  4.0000000E+04;  0.0000000E+00;  3.8914961E+04;  5.2088690E+00;  0.0000000E+00;  2.4642389E-01;  1.3026924E+04;
  1.2762510E+00;  9.9999998E-03; -2.2314751E-01;8310;  4.2692509E-01;  0.0000000E+00; -1.0690305E-01;  1.0011467E+03;  3.5987276E-01;  9.4989032E+02;3; -1.0072695E+02;  0.0000000E+00;  4.4739258E+01;0;  6.1056705E+00;  3.1777390E+03;  0.0000000E+00;  1.4474960E-01;  4.0000000E+04;  0.0000000E+00;  3.8976887E+04;  6.1508942E+00;  0.0000000E+00; -4.5223616E-02;  1.0611374E+04;
  1.2768053E+00;  9.9999998E-03; -1.5212911E-01;8317;  5.2356410E-01;  0.0000000E+00; -1.1321236E-01;  1.0028791E+03;  3.6014766E-01;  2.3850430E+03;3; -2.6693871E+01;  0.0000000E+00;  3.9219025E+01;0;  5.3318844E+00;  3.1872854E+03;  0.0000000E+00; -5.4561730E-02;  4.0000000E+04;  0.0000000E+00;  3.8910441E+04;  5.0400581E+00;  0.0000000E+00;  2.9182640E-01;  1.3622248E+04;
  1.2772851E+00;  9.9999998E-03; -1.4197525E-01;8318;  5.3246576E-01;  0.0000000E+00; -1.1226427E-01;  1.0030746E+03;  3.6005864E-01;  2.5469932E+03;3; -1.7127083E+01;  0.0000000E+00;  2.4186464E+01;0;  5.2035503E+00;  3.1897747E+03;  0.0000000E+00;  2.0278749E-01;  4.0000000E+04;  0.0000000E+00;  3.8908590E+04;  4.8692350E+00;  0.0000000E+00;  3.3431533E-01;  1.3887784E+04;
  1.2771369E+00;  9.9999998E-03; -2.3334704E-01;8309;  4.0927103E-01;  0.0000000E+00; -1.0739393E-01;  1.0004061E+03;  3.5963455E-01;  3.3634698E+02;3; -1.1014455E+02;  0.0000000E+00;  4.4343800E+01;0;  6.2078662E+00;  3.1788792E+03;  0.0000000E+00; -8.3720297E-02;  4.0000000E+04;  0.0000000E+00;  3.8971219E+04;  6.2875643E+00;  0.0000000E+00; -7.9698317E-02;  9.6679326E+03;
  1.2776222E+00;  9.9999998E-03; -1.3185005E-01;8319;  5.3963357E-01;  0.0000000E+00; -1.0608062E-01;  1.0032401E+03;  3.5999683E-01;  2.6840586E+03;3; -7.9517326E+00;  0.0000000E+00;  1.5452339E+01;0;  5.0804877E+00;  3.1916887E+03;  0.0000000E+00;  4.5574963E-01;  4.0000000E+04;  0.0000000E+00;  3.8908234E+04;  4.7077675E+00;  0.0000000E+00;  3.7272045E-01;  1.3937450E+04;
  1.2777777E+00;  9.9999998E-03; -1.2173477E-01;8320;  5.4509050E-01;  0.0000000E+00; -9.8866366E-02;  1.0033414E+03;  3.5997510E-01;  2.7678975E+03;3;  7.0634776E-01;  0.0000000E+00;  1.4088884E+01;0;  4.9673023E+00;  3.1928345E+03;  0.0000000E+00;  6.7032915E-01;  4.0000000E+04;  0.0000000E+00;  3.8907719E+04;  4.5597038E+00;  0.0000000E+00;  4.0759844E-01;  1.3949960E+04;
  1.2777472E+00;  9.9999998E-03; -1.1162896E-01;8321;  5.4888034E-01;  0.0000000E+00; -9.1785066E-02;  1.0033696E+03;  3.6000881E-01;  2.7913018E+03;3;  8.6086664E+00;  0.0000000E+00;  1.3339841E+01;0;  4.8678255E+00;  3.1930698E+03;  0.0000000E+00;  8.2497859E-01;  4.0000000E+04;  0.0000000E+00;  3.8906105E+04;  4.4278407E+00;  0.0000000E+00;  4.3998477E-01;  1.4090894E+04;
  1.2784626E+00;  9.9999998E-03; -2.4350081E-01;8308;  3.9902210E-01;  0.0000000E+00; -1.0723981E-01;  9.9963300E+02;  3.5934189E-01; -3.0400522E+02;3; -1.1733662E+02;  0.0000000E+00;  4.3773411E+01;0;  6.3101602E+00;  3.1813660E+03;  0.0000000E+00; -7.3159671E-01;  4.0000000E+04;  0.0000000E+00;  3.8960398E+04;  6.4147239E+00;  0.0000000E+00; -1.0456349E-01;  8.0091104E+03;
  1.2806277E+00;  9.9999998E-03; -2.5360757E-01;8307;  4.0756273E-01;  0.0000000E+00; -1.0331262E-01;  9.9922369E+02;  3.5895163E-01; -6.4306451E+02;3; -1.2143234E+02;  0.0000000E+00;  4.3179459E+01;0;  6.3833447E+00;  3.1869348E+03;  0.0000000E+00; -1.9160651E+00;  4.0000000E+04;  0.0000000E+00;  3.8953875E+04;  6.5242119E+00;  0.0000000E+00; -1.4086734E-01;  8.5100391E+03;
  1.2842107E+00;  9.9999998E-03; -2.6368698E-01;8306;  4.4883659E-01;  0.0000000E+00; -9.1132864E-02;  9.9962787E+02;  3.5839325E-01; -3.0824826E+02;3; -1.2065092E+02;  0.0000000E+00;  4.2627304E+01;0;  6.3388886E+00;  3.1985061E+03;  0.0000000E+00; -3.8689878E+00;  4.0000000E+04;  0.0000000E+00;  3.8955801E+04;  6.5995245E+00;  0.0000000E+00; -2.6063567E-01;  1.6132902E+04;
  1.3095384E+00;  9.9999998E-03; -2.0260105E-01;8373;  6.8688542E-01;  0.0000000E+00; -1.5482216E-01;  1.0058550E+03;  3.4421986E-01;  4.8498228E+03;3; -1.4655143E+01;  0.0000000E+00;  1.4659497E+01;0;  4.8744082E+00;  3.5039895E+03;  0.0000000E+00; -6.4704102E-01;  4.0000000E+04;  0.0000000E+00;  3.8958242E+04;  4.6444707E+00;  0.0000000E+00;  2.2993758E-01;  8.8018359E+03;
  1.3096613E+00;  9.9999998E-03; -1.9249901E-01;8374;  6.8319625E-01;  0.0000000E+00; -1.4980388E-01;  1.0059857E+03;  3.4424925E-01;  4.9581436E+03;3; -2.1711853E+00;  0.0000000E+00;  7.6047168E+00;0;  4.6873221E+00;  3.5045911E+03;  0.0000000E+00; -7.6615471E-01;  4.0000000E+04;  0.0000000E+00;  3.8951039E+04;  4.4030399E+00;  0.0000000E+00;  2.8428218E-01;  9.5285029E+03;
  1.3099184E+00;  9.9999998E-03; -2.1274054E-01;8372;  6.9187456E-01;  0.0000000E+00; -1.5831669E-01;  1.0057413E+03;  3.4405065E-01;  4.7556157E+03;3; -2.8054041E+01;  0.0000000E+00;  2.2611071E+01;0;  5.0368390E+00;  3.5058472E+03;  0.0000000E+00; -4.6115828E-01;  4.0000000E+04;  0.0000000E+00;  3.8966176E+04;  4.8535414E+00;  0.0000000E+00;  1.8329780E-01;  8.3557305E+03;
  1.3101668E+00;  9.9999998E-03; -1.8239485E-01;8375;  6.8074340E-01;  0.0000000E+00; -1.4302577E-01;  1.0061265E+03;  3.4417418E-01;  5.0747529E+03;3;  1.0252492E+01;  0.0000000E+00;  2.6170094E+00;0;  4.4797897E+00;  3.5067170E+03;  0.0000000E+00; -7.4389583E-01;  4.0000000E+04;  0.0000000E+00;  3.8946285E+04;  4.1381311E+00;  0.0000000E+00;  3.4165868E-01;  1.0252979E+04;
  1.3106664E+00;  9.9999998E-03; -2.2293508E-01;8371;  6.9536048E-01;  0.0000000E+00; -1.5924132E-01;  1.0055249E+03;  3.4377715E-01;  4.5763853E+03;3; -4.1925430E+01;  0.0000000E+00;  2.7069399E+01;0;  5.1812987E+00;  3.5097256E+03;  0.0000000E+00; -3.3114976E-01;  4.0000000E+04;  0.0000000E+00;  3.8967250E+04;  5.0353212E+00;  0.0000000E+00;  1.4597732E-01;  8.5649971E+03;
  1.3107618E+00;  9.9999998E-03; -1.7225574E-01;8376;  6.7796206E-01;  0.0000000E+00; -1.3411634E-01;  1.0062161E+03;  3.4407321E-01;  5.1489014E+03;3;  2.2660446E+01;  0.0000000E+00;  5.8993667E-01;0;  4.2658801E+00;  3.5087488E+03;  0.0000000E+00; -5.5375338E-01;  4.0000000E+04;  0.0000000E+00;  3.8943914E+04;  3.8691571E+00;  0.0000000E+00;  3.9672315E-01;  1.0792514E+04;
  1.3112345E+00;  9.9999998E-03; -1.6207995E-01;8377;  6.7406064E-01;  0.0000000E+00; -1.2369528E-01;  1.0062353E+03;  3.4398344E-01;  5.1647920E+03;3;  3.4760983E+01;  0.0000000E+00;  1.2228950E+00;0;  4.0572290E+00;  3.5100093E+03;  0.0000000E+00; -2.1628062E-01;  4.0000000E+04;  0.0000000E+00;  3.8942844E+04;  3.6120687E+00;  0.0000000E+00;  4.4516018E-01;  1.0991642E+04;
  1.3117412E+00;  9.9999998E-03; -2.3313025E-01;8370;  6.9567794E-01;  0.0000000E+00; -1.5875250E-01;  1.0051718E+03;  3.4341210E-01;  4.2838926E+03;3; -5.3691196E+01;  0.0000000E+00;  2.7655226E+01;0;  5.3101058E+00;  3.5158286E+03;  0.0000000E+00; -4.1306093E-01;  4.0000000E+04;  0.0000000E+00;  3.8958641E+04;  5.1885333E+00;  0.0000000E+00;  1.2157228E-01;  9.1927812E+03;
  1.3116012E+00;  9.9999998E-03; -1.5189253E-01;8378;  6.6931188E-01;  0.0000000E+00; -1.1352947E-01;  1.0062075E+03;  3.4388202E-01;  5.1417793E+03;3;  4.6558723E+01;  0.0000000E+00;  2.7790174E+00;0;  3.8550239E+00;  3.5110623E+03;  0.0000000E+00;  2.1086961E-01;  4.0000000E+04;  0.0000000E+00;  3.8944199E+04;  3.3700140E+00;  0.0000000E+00;  4.8500979E-01;  1.0743627E+04;
  1.3119627E+00;  9.9999998E-03; -1.4173087E-01;8379;  6.6413742E-01;  0.0000000E+00; -1.0482685E-01;  1.0061512E+03;  3.4375930E-01;  5.0951670E+03;3;  5.8041199E+01;  0.0000000E+00;  4.0343008E+00;0;  3.6571405E+00;  3.5123647E+03;  0.0000000E+00;  6.5414441E-01;  4.0000000E+04;  0.0000000E+00;  3.8948219E+04;  3.1405993E+00;  0.0000000E+00;  5.1654118E-01;  1.0084083E+04;
  1.3131534E+00;  9.9999998E-03; -2.4328348E-01;8369;  6.9609171E-01;  0.0000000E+00; -1.5730555E-01;  1.0048004E+03;  3.4300122E-01;  3.9762900E+03;3; -6.2187500E+01;  0.0000000E+00;  2.7532419E+01;0;  5.4225073E+00;  3.5232051E+03;  0.0000000E+00; -8.9429349E-01;  4.0000000E+04;  0.0000000E+00;  3.8947500E+04;  5.3086658E+00;  0.0000000E+00;  1.1384166E-01;  1.0040320E+04;
  1.3123348E+00;  9.9999998E-03; -1.3162296E-01;8380;  6.5855098E-01;  0.0000000E+00; -9.7529151E-02;  1.0060759E+03;  3.4361944E-01;  5.0327554E+03;3;  6.8966293E+01;  0.0000000E+00;  4.7175508E+00;0;  3.4663234E+00;  3.5137656E+03;  0.0000000E+00;  1.0430475E+00;  4.0000000E+04;  0.0000000E+00;  3.8953539E+04;  2.9249265E+00;  0.0000000E+00;  5.4139692E-01;  9.2091084E+03;
  1.3152082E+00;  9.9999998E-03; -2.5340179E-01;8368;  7.0576572E-01;  0.0000000E+00; -1.5301418E-01;  1.0045837E+03;  3.4252390E-01;  3.7967512E+03;3; -6.4636864E+01;  0.0000000E+00;  2.7312208E+01;0;  5.4872718E+00;  3.5323481E+03;  0.0000000E+00; -1.9925349E+00;  4.0000000E+04;  0.0000000E+00;  3.8939039E+04;  5.3748503E+00;  0.0000000E+00;  1.1242151E-01;  1.2581319E+04;
  1.3126945E+00;  9.9999998E-03; -1.2154026E-01;8381;  6.5245807E-01;  0.0000000E+00; -9.1007210E-02;  1.0059423E+03;  3.4348863E-01;  4.9221577E+03;3;  7.8832100E+01;  0.0000000E+00;  4.8655534E+00;0;  3.2864130E+00;  3.5149602E+03;  0.0000000E+00;  1.3317206E+00;  4.0000000E+04;  0.0000000E+00;  3.8959016E+04;  2.7246513E+00;  0.0000000E+00;  5.6176168E-01;  8.3679570E+03;
  1.3128997E+00;  9.9999998E-03; -1.1145067E-01;8382;  6.4580280E-01;  0.0000000E+00; -8.4728479E-02;  1.0057436E+03;  3.4342355E-01;  4.7575498E+03;3;  8.6868469E+01;  0.0000000E+00;  4.5844717E+00;0;  3.1269755E+00;  3.5149189E+03;  0.0000000E+00;  1.4983474E+00;  4.0000000E+04;  0.0000000E+00;  3.8963469E+04;  2.5477631E+00;  0.0000000E+00;  5.7921249E-01;  7.8006572E+03;
  1.3178254E+00;  9.9999998E-03; -2.6351598E-01;8367;  7.3338038E-01;  0.0000000E+00; -1.4342554E-01;  1.0044077E+03;  3.4206611E-01;  3.6509778E+03;3; -6.0768337E+01;  0.0000000E+00;  2.7943325E+01;0;  5.4627986E+00;  3.5416580E+03;  0.0000000E+00; -4.0007815E+00;  4.0000000E+04;  0.0000000E+00;  3.8925723E+04;  5.3866968E+00;  0.0000000E+00;  7.6101676E-02;  2.0729215E+04;
  1.3428690E+00;  9.9999998E-03; -2.0247252E-01;8434;  7.9711837E-01;  0.0000000E+00; -1.5207253E-01;  1.0074887E+03;  3.2564750E-01;  6.2023623E+03;3;  6.7765526E+01;  0.0000000E+00; -1.7085545E+01;0;  3.0795658E+00;  3.9204131E+03;  0.0000000E+00;  2.0898750E-01;  4.0000000E+04;  0.0000000E+00;  3.8986602E+04;  2.6900589E+00;  0.0000000E+00;  3.8950676E-01;  6.9544463E+03;
  1.3430437E+00;  9.9999998E-03; -1.9237866E-01;8435;  7.7942306E-01;  0.0000000E+00; -1.4293279E-01;  1.0074152E+03;  3.2566783E-01;  6.1414399E+03;3;  7.3853020E+01;  0.0000000E+00; -1.6555578E+01;0;  2.9104829E+00;  3.9185427E+03;  0.0000000E+00;  3.8336594E-02;  4.0000000E+04;  0.0000000E+00;  3.8988906E+04;  2.4788272E+00;  0.0000000E+00;  4.3165573E-01;  7.2139048E+03;
  1.3430448E+00;  9.9999998E-03; -2.1257877E-01;8433;  8.1502301E-01;  0.0000000E+00; -1.6060613E-01;  1.0075519E+03;  3.2552177E-01;  6.2546855E+03;3;  6.2213799E+01;  0.0000000E+00; -1.8683311E+01;0;  3.2338896E+00;  3.9240708E+03;  0.0000000E+00;  4.0828773E-01;  4.0000000E+04;  0.0000000E+00;  3.8986098E+04;  2.8797936E+00;  0.0000000E+00;  3.5409591E-01;  6.7043359E+03;
  1.3435352E+00;  9.9999998E-03; -1.8227239E-01;8436;  7.6150644E-01;  0.0000000E+00; -1.3190438E-01;  1.0072954E+03;  3.2558432E-01;  6.0422002E+03;3;  8.0110649E+01;  0.0000000E+00; -1.6145649E+01;0;  2.7273493E+00;  3.9184050E+03;  0.0000000E+00; -2.0137800E-02;  4.0000000E+04;  0.0000000E+00;  3.8991953E+04;  2.2534404E+00;  0.0000000E+00;  4.7390887E-01;  7.2591899E+03;
  1.3436351E+00;  9.9999998E-03; -2.2272101E-01;8432;  8.3334583E-01;  0.0000000E+00; -1.6894582E-01;  1.0075771E+03;  3.2526579E-01;  6.2755996E+03;3;  5.6060505E+01;  0.0000000E+00; -1.6956617E+01;0;  3.3741665E+00;  3.9303403E+03;  0.0000000E+00;  4.9877125E-01;  4.0000000E+04;  0.0000000E+00;  3.8983184E+04;  3.0388079E+00;  0.0000000E+00;  3.3535859E-01;  6.9521011E+03;
  1.3443016E+00;  9.9999998E-03; -1.7214987E-01;8437;  7.4399608E-01;  0.0000000E+00; -1.2028431E-01;  1.0071070E+03;  3.2539272E-01;  5.8861826E+03;3;  8.5524467E+01;  0.0000000E+00; -1.5064387E+01;0;  2.5331593E+00;  3.9201628E+03;  0.0000000E+00;  6.1486874E-02;  4.0000000E+04;  0.0000000E+00;  3.8995391E+04;  2.0220046E+00;  0.0000000E+00;  5.1115459E-01;  6.9321035E+03;
  1.3444041E+00;  9.9999998E-03; -2.3289107E-01;8431;  8.4998590E-01;  0.0000000E+00; -1.7354089E-01;  1.0074798E+03;  3.2497621E-01;  6.1949136E+03;3;  4.7531212E+01;  0.0000000E+00; -1.1656658E+01;0;  3.5121975E+00;  3.9373313E+03;  0.0000000E+00;  2.7758986E-01;  4.0000000E+04;  0.0000000E+00;  3.8973008E+04;  3.1764662E+00;  0.0000000E+00;  3.3573118E-01;  8.3983545E+03;
  1.3451163E+00;  9.9999998E-03; -1.6199839E-01;8438;  7.2709823E-01;  0.0000000E+00; -1.0963327E-01;  1.0068423E+03;  3.2514510E-01;  5.6668779E+03;3;  9.0891617E+01;  0.0000000E+00; -1.3715159E+01;0;  2.3397403E+00;  3.9225688E+03;  0.0000000E+00;  2.5421053E-01;  4.0000000E+04;  0.0000000E+00;  3.8999578E+04;  1.8002089E+00;  0.0000000E+00;  5.3953123E-01;  6.1836528E+03;
  1.3452336E+00;  9.9999998E-03; -2.4304858E-01;8430;  8.6356461E-01;  0.0000000E+00; -1.7435445E-01;  1.0072674E+03;  3.2472044E-01;  6.0189502E+03;3;  3.7543037E+01;  0.0000000E+00; -7.6237826E+00;0;  3.6502376E+00;  3.9435786E+03;  0.0000000E+00; -4.7351342E-01;  4.0000000E+04;  0.0000000E+00;  3.8957648E+04;  3.2962410E+00;  0.0000000E+00;  3.5399660E-01;  1.1053369E+04;
  1.3457216E+00;  9.9999998E-03; -1.5181839E-01;8439;  7.1099204E-01;  0.0000000E+00; -1.0040692E-01;  1.0065089E+03;  3.2491690E-01;  5.3907109E+03;3;  9.5131363E+01;  0.0000000E+00; -1.3050565E+01;0;  2.1597581E+00;  3.9238682E+03;  0.0000000E+00;  5.0127167E-01;  4.0000000E+04;  0.0000000E+00;  3.9004664E+04;  1.6016775E+00;  0.0000000E+00;  5.5808055E-01;  5.0861748E+03;
  1.3457394E+00;  9.9999998E-03; -1.3149880E-01;8441;  6.8204409E-01;  0.0000000E+00; -8.5540198E-02;  1.0057001E+03;  3.2479677E-01;  4.7209194E+03;3;  1.0202466E+02;  0.0000000E+00; -1.2186802E+01;0;  1.8686161E+00;  3.9180723E+03;  0.0000000E+00;  9.8580873E-01;  4.0000000E+04;  0.0000000E+00;  3.9017688E+04;  1.2955071E+00;  0.0000000E+00;  5.7310897E-01;  2.4075874E+03;
  1.3458300E+00;  9.9999998E-03; -1.4163727E-01;8440;  6.9590527E-01;  0.0000000E+00; -9.2524901E-02;  1.0061262E+03;  3.2482809E-01;  5.0737817E+03;3;  9.8658882E+01;  0.0000000E+00; -1.2597285E+01;0;  2.0065575E+00;  3.9216802E+03;  0.0000000E+00;  7.5664252E-01;  4.0000000E+04;  0.0000000E+00;  3.9010465E+04;  1.4381487E+00;  0.0000000E+00;  5.6840861E-01;  3.7929475E+03;
  1.3457837E+00;  9.9999998E-03; -1.2140097E-01;8442;  6.6941178E-01;  0.0000000E+00; -7.9001643E-02;  1.0052366E+03;  3.2472378E-01;  4.3370527E+03;3;  1.0524150E+02;  0.0000000E+00; -1.1807696E+01;0;  1.7344675E+00;  3.9152324E+03;  0.0000000E+00;  1.1555048E+00;  4.0000000E+04;  0.0000000E+00;  3.9025391E+04;  1.1602792E+00;  0.0000000E+00;  5.7418835E-01;  1.0751710E+03;
  1.3459616E+00;  9.9999998E-03; -1.1130673E-01;8443;  6.5778744E-01;  0.0000000E+00; -7.2586328E-02;  1.0047326E+03;  3.2463205E-01;  3.9196150E+03;3;  1.0764126E+02;  0.0000000E+00; -1.1305348E+01;0;  1.6062230E+00;  3.9129443E+03;  0.0000000E+00;  1.2428472E+00;  4.0000000E+04;  0.0000000E+00;  3.9033086E+04;  1.0329432E+00;  0.0000000E+00;  5.7327974E-01;  6.2995654E+02;
  1.3463278E+00;  9.9999998E-03; -2.5317925E-01;8429;  8.7512565E-01;  0.0000000E+00; -1.7279649E-01;  1.0070241E+03;  3.2445505E-01;  5.8174092E+03;3;  2.9423191E+01;  0.0000000E+00; -5.6339922E+00;0;  3.7732971E+00;  3.9496729E+03;  0.0000000E+00; -1.9470631E+00;  4.0000000E+04;  0.0000000E+00;  3.8944770E+04;  3.3824303E+00;  0.0000000E+00;  3.9086676E-01;  1.4976539E+04;
  1.3485460E+00;  9.9999998E-03; -2.6329193E-01;8428;  8.8998598E-01;  0.0000000E+00; -1.6747558E-01;  1.0067571E+03;  3.2393363E-01;  5.5962896E+03;3;  2.9297152E+01;  0.0000000E+00; -3.1480107E+00;0;  3.8046913E+00;  3.9611077E+03;  0.0000000E+00; -4.3583217E+00;  4.0000000E+04;  0.0000000E+00;  3.8936125E+04;  3.3756268E+00;  0.0000000E+00;  4.2906457E-01;  2.1606398E+04;
  1.3736644E+00;  9.9999998E-03; -2.0230736E-01;8495;  8.1004453E-01;  0.0000000E+00; -1.1301097E-01;  1.0059796E+03;  3.0546030E-01;  4.9516182E+03;3;  8.8442940E+01;  0.0000000E+00; -3.5611977E+01;0;  1.6078379E+00;  4.4341807E+03;  0.0000000E+00;  1.2240678E+00;  4.0000000E+04;  0.0000000E+00;  3.9038785E+04;  1.1622891E+00;  0.0000000E+00;  4.4554871E-01;  4.5490322E+03;
  1.3737797E+00;  9.9999998E-03; -2.1238847E-01;8494;  8.2905519E-01;  0.0000000E+00; -1.2044288E-01;  1.0061633E+03;  3.0536997E-01;  5.1037324E+03;3;  8.6206169E+01;  0.0000000E+00; -3.8379627E+01;0;  1.7026825E+00;  4.4390142E+03;  0.0000000E+00;  1.2594724E+00;  4.0000000E+04;  0.0000000E+00;  3.9033289E+04;  1.2760075E+00;  0.0000000E+00;  4.2667499E-01;  4.5648047E+03;
  1.3740221E+00;  9.9999998E-03; -1.9222158E-01;8496;  7.9130608E-01;  0.0000000E+00; -1.0595445E-01;  1.0057584E+03;  3.0535987E-01;  4.7683916E+03;3;  9.0749680E+01;  0.0000000E+00; -3.2869007E+01;0;  1.4979808E+00;  4.4338950E+03;  0.0000000E+00;  1.1045738E+00;  4.0000000E+04;  0.0000000E+00;  3.9046176E+04;  1.0325184E+00;  0.0000000E+00;  4.6546245E-01;  4.6045752E+03;
  1.3742920E+00;  9.9999998E-03; -2.2248591E-01;8493;  8.4866661E-01;  0.0000000E+00; -1.2848964E-01;  1.0063422E+03;  3.0511072E-01;  5.2517847E+03;3;  8.4353683E+01;  0.0000000E+00; -3.8146011E+01;0;  1.7878029E+00;  4.4477188E+03;  0.0000000E+00;  1.0607865E+00;  4.0000000E+04;  0.0000000E+00;  3.9029754E+04;  1.3710387E+00;  0.0000000E+00;  4.1676432E-01;  4.9468579E+03;
  1.3748485E+00;  9.9999998E-03; -1.8213607E-01;8497;  7.7261955E-01;  0.0000000E+00; -9.8251857E-02;  1.0054666E+03;  3.0506152E-01;  4.5267114E+03;3;  9.3685966E+01;  0.0000000E+00; -3.1148994E+01;0;  1.3745958E+00;  4.4381543E+03;  0.0000000E+00;  9.9443668E-01;  4.0000000E+04;  0.0000000E+00;  3.9052977E+04;  8.9344960E-01;  0.0000000E+00;  4.8114619E-01;  4.5427646E+03;
  1.3751819E+00;  9.9999998E-03; -2.3261844E-01;8492;  8.6888719E-01;  0.0000000E+00; -1.3571981E-01;  1.0064542E+03;  3.0469009E-01;  5.3445400E+03;3;  8.2821884E+01;  0.0000000E+00; -3.5705318E+01;0;  1.8671187E+00;  4.4605859E+03;  0.0000000E+00;  4.3774870E-01;  4.0000000E+04;  0.0000000E+00;  3.9023688E+04;  1.4435154E+00;  0.0000000E+00;  4.2360327E-01;  6.3992300E+03;
  1.3763157E+00;  9.9999998E-03; -2.4276306E-01;8491;  8.8840163E-01;  0.0000000E+00; -1.3975278E-01;  1.0064780E+03;  3.0419284E-01;  5.3641387E+03;3;  7.9668015E+01;  0.0000000E+00; -3.1580486E+01;0;  1.9418399E+00;  4.4754351E+03;  0.0000000E+00; -8.0938780E-01;  4.0000000E+04;  0.0000000E+00;  3.9013523E+04;  1.4955159E+00;  0.0000000E+00;  4.4632402E-01;  9.5699590E+03;
  1.3760939E+00;  9.9999998E-03; -1.7205605E-01;8498;  7.5371641E-01;  0.0000000E+00; -8.9415893E-02;  1.0050780E+03;  3.0456188E-01;  4.2048652E+03;3;  9.6880051E+01;  0.0000000E+00; -2.9922989E+01;0;  1.2422097E+00;  4.4469468E+03;  0.0000000E+00;  9.3085992E-01;  4.0000000E+04;  0.0000000E+00;  3.9059570E+04;  7.5275081E-01;  0.0000000E+00;  4.8945889E-01;  4.3132114E+03;
  1.3775971E+00;  9.9999998E-03; -2.5289705E-01;8490;  9.0585887E-01;  0.0000000E+00; -1.4001790E-01;  1.0064382E+03;  3.0370778E-01;  5.3312148E+03;3;  7.7092079E+01;  0.0000000E+00; -3.0347061E+01;0;  2.0038917E+00;  4.4898403E+03;  0.0000000E+00; -2.8085859E+00;  4.0000000E+04;  0.0000000E+00;  3.9004477E+04;  1.5290942E+00;  0.0000000E+00;  4.7479749E-01;  1.4589080E+04;
  1.3772428E+00;  9.9999998E-03; -1.6194451E-01;8499;  7.3486537E-01;  0.0000000E+00; -8.0622770E-02;  1.0045906E+03;  3.0405656E-01;  3.8012942E+03;3;  9.9959465E+01;  0.0000000E+00; -2.8442108E+01;0;  1.1186402E+00;  4.4551133E+03;  0.0000000E+00;  9.0103877E-01;  4.0000000E+04;  0.0000000E+00;  3.9065031E+04;  6.2850726E-01;  0.0000000E+00;  4.9013299E-01;  4.0191462E+03;
  1.3777628E+00;  9.9999998E-03; -1.5178025E-01;8500;  7.1654922E-01;  0.0000000E+00; -7.2842166E-02;  1.0040427E+03;  3.0378523E-01;  3.3476011E+03;3;  1.0241933E+02;  0.0000000E+00; -2.6752321E+01;0;  1.0172521E+00;  4.4562983E+03;  0.0000000E+00;  8.8514948E-01;  4.0000000E+04;  0.0000000E+00;  3.9069742E+04;  5.3144938E-01;  0.0000000E+00;  4.8580274E-01;  3.8174128E+03;
  1.3778157E+00;  9.9999998E-03; -1.4159457E-01;8501;  6.9946110E-01;  0.0000000E+00; -6.6115245E-02;  1.0034339E+03;  3.0368730E-01;  2.8434807E+03;3;  1.0460754E+02;  0.0000000E+00; -2.5065975E+01;0;  9.3061996E-01;  4.4519541E+03;  0.0000000E+00;  8.8086241E-01;  4.0000000E+04;  0.0000000E+00;  3.9074887E+04;  4.5256725E-01;  0.0000000E+00;  4.7805271E-01;  3.9683508E+03;
  1.3774471E+00;  9.9999998E-03; -1.2129036E-01;8503;  6.6935122E-01;  0.0000000E+00; -5.5055570E-02;  1.0020878E+03;  3.0371854E-01;  1.7288365E+03;3;  1.0904682E+02;  0.0000000E+00; -2.1106375E+01;0;  7.7834678E-01;  4.4360762E+03;  0.0000000E+00;  8.8240838E-01;  4.0000000E+04;  0.0000000E+00;  3.9088934E+04;  3.2146412E-01;  0.0000000E+00;  4.5688269E-01;  5.5728267E+03;
  1.3776459E+00;  9.9999998E-03; -1.3142049E-01;8502;  6.8370873E-01;  0.0000000E+00; -6.0278013E-02;  1.0027827E+03;  3.0368757E-01;  2.3042234E+03;3;  1.0709485E+02;  0.0000000E+00; -2.3039604E+01;0;  8.5212559E-01;  4.4445439E+03;  0.0000000E+00;  8.8385570E-01;  4.0000000E+04;  0.0000000E+00;  3.9081453E+04;  3.8404351E-01;  0.0000000E+00;  4.6808207E-01;  4.5998394E+03;
  1.3774267E+00;  9.9999998E-03; -1.1117343E-01;8504;  6.5634006E-01;  0.0000000E+00; -5.0088990E-02;  1.0013795E+03;  3.0370668E-01;  1.1422917E+03;3;  1.1123200E+02;  0.0000000E+00; -1.9340616E+01;0;  7.0600432E-01;  4.4289473E+03;  0.0000000E+00;  8.6023015E-01;  4.0000000E+04;  0.0000000E+00;  3.9097215E+04;  2.6136371E-01;  0.0000000E+00;  4.4464061E-01;  6.6842368E+03;
  1.3794658E+00;  9.9999998E-03; -2.6302266E-01;8489;  9.2171466E-01;  0.0000000E+00; -1.3866222E-01;  1.0062484E+03;  3.0309159E-01;  5.1738911E+03;3;  7.4488182E+01;  0.0000000E+00; -2.9897163E+01;0;  2.0352359E+00;  4.5069473E+03;  0.0000000E+00; -5.5620880E+00;  4.0000000E+04;  0.0000000E+00;  3.8997555E+04;  1.5215458E+00;  0.0000000E+00;  5.1368999E-01;  2.1396973E+04;
  1.4029256E+00;  9.9999998E-03; -2.1221143E-01;8555;  8.2652354E-01;  0.0000000E+00; -6.3858271E-02;  1.0022618E+03;  2.8397450E-01;  1.8725063E+03;3;  8.8204002E+01;  0.0000000E+00; -4.0566532E+01;0;  7.6411158E-01;  5.0863560E+03;  0.0000000E+00;  1.3977621E+00;  4.0000000E+04;  0.0000000E+00;  3.9088875E+04;  3.6336708E-01;  0.0000000E+00;  4.0074450E-01;  5.8366743E+03;
  1.4030324E+00;  9.9999998E-03; -2.0215304E-01;8556;  8.0763495E-01;  0.0000000E+00; -6.0423836E-02;  1.0020297E+03;  2.8391039E-01;  1.6802600E+03;3;  8.9957863E+01;  0.0000000E+00; -3.8420925E+01;0;  7.1629709E-01;  5.0857544E+03;  0.0000000E+00;  1.6218151E+00;  4.0000000E+04;  0.0000000E+00;  3.9095859E+04;  3.1549504E-01;  0.0000000E+00;  4.0080205E-01;  5.9539644E+03;
  1.4033790E+00;  9.9999998E-03; -2.2227038E-01;8554;  8.4577173E-01;  0.0000000E+00; -6.7637317E-02;  1.0025351E+03;  2.8374869E-01;  2.0986885E+03;3;  8.6778984E+01;  0.0000000E+00; -4.4452934E+01;0;  7.9877031E-01;  5.0959541E+03;  0.0000000E+00;  8.6305487E-01;  4.0000000E+04;  0.0000000E+00;  3.9087594E+04;  4.0026927E-01;  0.0000000E+00;  3.9850104E-01;  6.6432324E+03;
  1.4036252E+00;  9.9999998E-03; -1.9208020E-01;8557;  7.8898865E-01;  0.0000000E+00; -5.6837805E-02;  1.0018016E+03;  2.8361467E-01;  1.4914600E+03;3;  9.2113602E+01;  0.0000000E+00; -3.6638622E+01;0;  6.5814710E-01;  5.0922812E+03;  0.0000000E+00;  1.6616063E+00;  4.0000000E+04;  0.0000000E+00;  3.9104469E+04;  2.6240560E-01;  0.0000000E+00;  3.9574152E-01;  6.4900796E+03;
  1.4042150E+00;  9.9999998E-03; -2.3237294E-01;8553;  8.6542314E-01;  0.0000000E+00; -7.3520884E-02;  1.0028247E+03;  2.8332144E-01;  2.3383779E+03;3;  8.5392273E+01;  0.0000000E+00; -4.8788673E+01;0;  8.2943332E-01;  5.1120146E+03;  0.0000000E+00; -1.4089374E-01;  4.0000000E+04;  0.0000000E+00;  3.9087543E+04;  4.2646825E-01;  0.0000000E+00;  4.0296504E-01;  8.5536221E+03;
  1.4045144E+00;  9.9999998E-03; -1.8199567E-01;8558;  7.7038610E-01;  0.0000000E+00; -5.2863322E-02;  1.0015367E+03;  2.8318325E-01;  1.2721639E+03;3;  9.4249092E+01;  0.0000000E+00; -3.5550831E+01;0;  5.9585565E-01;  5.1028438E+03;  0.0000000E+00;  1.6055365E+00;  4.0000000E+04;  0.0000000E+00;  3.9111664E+04;  2.1099780E-01;  0.0000000E+00;  3.8485783E-01;  7.0361270E+03;
  1.4054960E+00;  9.9999998E-03; -1.7189859E-01;8559;  7.5173026E-01;  0.0000000E+00; -4.8190415E-02;  1.0012137E+03;  2.8269163E-01;  1.0047128E+03;3;  9.7075500E+01;  0.0000000E+00; -3.4799408E+01;0;  5.3493041E-01;  5.1147461E+03;  0.0000000E+00;  1.5026946E+00;  4.0000000E+04;  0.0000000E+00;  3.9117027E+04;  1.6618063E-01;  0.0000000E+00;  3.6874980E-01;  7.4582705E+03;
  1.4053458E+00;  9.9999998E-03; -2.4251057E-01;8552;  8.8486350E-01;  0.0000000E+00; -8.2651809E-02;  1.0030463E+03;  2.8275758E-01;  2.5218030E+03;3;  8.2624435E+01;  0.0000000E+00; -5.3988201E+01;0;  8.7346852E-01;  5.1328921E+03;  0.0000000E+00; -1.7852435E+00;  4.0000000E+04;  0.0000000E+00;  3.9083602E+04;  4.4136903E-01;  0.0000000E+00;  4.3209952E-01;  1.2188248E+04;
  1.4063916E+00;  9.9999998E-03; -1.6178472E-01;8560;  7.3290205E-01;  0.0000000E+00; -4.2923231E-02;  1.0008000E+03;  2.8220958E-01;  6.6226849E+02;3;  9.9577011E+01;  0.0000000E+00; -3.3986519E+01;0;  4.7885436E-01;  5.1254658E+03;  0.0000000E+00;  1.3713183E+00;  4.0000000E+04;  0.0000000E+00;  3.9120809E+04;  1.3012160E-01;  0.0000000E+00;  3.4873274E-01;  7.8037490E+03;
  1.4066137E+00;  9.9999998E-03; -2.5265273E-01;8551;  9.0285981E-01;  0.0000000E+00; -9.3302660E-02;  1.0032252E+03;  2.8217670E-01;  2.6698894E+03;3;  8.0234497E+01;  0.0000000E+00; -4.4619793E+01;0;  9.5121562E-01;  5.1550312E+03;  0.0000000E+00; -4.1373520E+00;  4.0000000E+04;  0.0000000E+00;  3.9077875E+04;  4.4705749E-01;  0.0000000E+00;  5.0415814E-01;  1.8226051E+04;
  1.4071401E+00;  9.9999998E-03; -1.5164357E-01;8561;  7.1453941E-01;  0.0000000E+00; -3.7670873E-02;  1.0002827E+03;  2.8176811E-01;  2.3407642E+02;3;  1.0149909E+02;  0.0000000E+00; -3.2140385E+01;0;  4.2804477E-01;  5.1334844E+03;  0.0000000E+00;  1.2154069E+00;  4.0000000E+04;  0.0000000E+00;  3.9124582E+04;  1.0202185E-01;  0.0000000E+00;  3.2602292E-01;  8.2091846E+03;
  1.4072155E+00;  9.9999998E-03; -1.1103293E-01;8565;  6.5235329E-01;  0.0000000E+00; -2.3840066E-02;  9.9748358E+02;  2.8160292E-01; -2.0831006E+03;3;  1.1022694E+02;  0.0000000E+00; -2.2717306E+01;0;  2.8055060E-01;  5.1021689E+03;  0.0000000E+00;  6.2099624E-01;  4.0000000E+04;  0.0000000E+00;  3.9149191E+04;  3.4776539E-02;  0.0000000E+00;  2.4577408E-01;  1.1464798E+04;
  1.4074450E+00;  9.9999998E-03; -1.2115660E-01;8564;  6.6593391E-01;  0.0000000E+00; -2.6428943E-02;  9.9823834E+02;  2.8147364E-01; -1.4583342E+03;3;  1.0815810E+02;  0.0000000E+00; -2.5306637E+01;0;  3.1223795E-01;  5.1162280E+03;  0.0000000E+00;  7.3862314E-01;  4.0000000E+04;  0.0000000E+00;  3.9141613E+04;  4.9266409E-02;  0.0000000E+00;  2.6297155E-01;  1.0451994E+04;
  1.4076051E+00;  9.9999998E-03; -1.4148022E-01;8562;  6.9708860E-01;  0.0000000E+00; -3.3081200E-02;  9.9966412E+02;  2.8146327E-01; -2.7803821E+02;3;  1.0375519E+02;  0.0000000E+00; -2.9972347E+01;0;  3.8355270E-01;  5.1355967E+03;  0.0000000E+00;  1.0450733E+00;  4.0000000E+04;  0.0000000E+00;  3.9129219E+04;  8.0711722E-02;  0.0000000E+00;  3.0284098E-01;  8.7785098E+03;
  1.4076453E+00;  9.9999998E-03; -1.3131553E-01;8563;  6.8084115E-01;  0.0000000E+00; -2.9407570E-02;  9.9897748E+02;  2.8139356E-01; -8.4644946E+02;3;  1.0587949E+02;  0.0000000E+00; -2.7745651E+01;0;  3.4592301E-01;  5.1287378E+03;  0.0000000E+00;  8.8070673E-01;  4.0000000E+04;  0.0000000E+00;  3.9134910E+04;  6.4130925E-02;  0.0000000E+00;  2.8179207E-01;  9.5306650E+03;
  1.4080485E+00;  9.9999998E-03; -2.6279560E-01;8550;  9.1972768E-01;  0.0000000E+00; -9.5087439E-02;  1.0032864E+03;  2.8158882E-01;  2.7205657E+03;3;  7.8441765E+01;  0.0000000E+00; -3.8581486E+01;0;  9.9274057E-01;  5.1772725E+03;  0.0000000E+00; -6.9989905E+00;  4.0000000E+04;  0.0000000E+00;  3.9068871E+04;  4.4197387E-01;  0.0000000E+00;  5.5076671E-01;  2.5825043E+04;
  1.4303819E+00;  9.9999998E-03; -2.0204401E-01;8617;  8.0348730E-01;  0.0000000E+00; -1.2124658E-02;  9.9747638E+02;  2.6266316E-01; -2.0883726E+03;3;  8.9498375E+01;  0.0000000E+00; -4.1865295E+01;0;  3.0381754E-01;  5.8827163E+03;  0.0000000E+00;  1.4632075E+00;  4.0000000E+04;  0.0000000E+00;  3.9142875E+04;  1.8748484E-03;  0.0000000E+00;  3.0194271E-01;  9.2664492E+03;
  1.4304898E+00;  9.9999998E-03; -2.1208847E-01;8616;  8.2186121E-01;  0.0000000E+00; -1.2677689E-02;  9.9762561E+02;  2.6264763E-01; -1.9649083E+03;3;  8.7882599E+01;  0.0000000E+00; -4.3067444E+01;0;  3.1809300E-01;  5.8851211E+03;  0.0000000E+00;  1.0696381E+00;  4.0000000E+04;  0.0000000E+00;  3.9137727E+04; -3.7704976E-03;  0.0000000E+00;  3.2186350E-01;  9.1752188E+03;
  1.4306880E+00;  9.9999998E-03; -1.9197468E-01;8618;  7.8506494E-01;  0.0000000E+00; -1.1071751E-02;  9.9740088E+02;  2.6246768E-01; -2.1508560E+03;3;  9.1833252E+01;  0.0000000E+00; -4.0846722E+01;0;  2.8569710E-01;  5.8890605E+03;  0.0000000E+00;  1.6279849E+00;  4.0000000E+04;  0.0000000E+00;  3.9149926E+04;  9.1091357E-03;  0.0000000E+00;  2.7658796E-01;  9.8826504E+03;
  1.4309903E+00;  9.9999998E-03; -2.2213501E-01;8615;  8.4032011E-01;  0.0000000E+00; -1.3326215E-02;  9.9791266E+02;  2.6242879E-01; -1.7273446E+03;3;  8.6324104E+01;  0.0000000E+00; -4.4714569E+01;0;  3.2593864E-01;  5.8960659E+03;  0.0000000E+00;  3.1446457E-01;  4.0000000E+04;  0.0000000E+00;  3.9138004E+04; -1.0278016E-02;  0.0000000E+00;  3.3621666E-01;  1.0398354E+04;
  1.4314266E+00;  9.9999998E-03; -1.8188336E-01;8619;  7.6649439E-01;  0.0000000E+00; -9.1362353E-03;  9.9731189E+02;  2.6204750E-01; -2.2244697E+03;3;  9.4096992E+01;  0.0000000E+00; -4.0421329E+01;0;  2.6675859E-01;  5.9046055E+03;  0.0000000E+00;  1.6500112E+00;  4.0000000E+04;  0.0000000E+00;  3.9155879E+04;  2.0638525E-02;  0.0000000E+00;  2.4612007E-01;  1.0465231E+04;
  1.4318238E+00;  9.9999998E-03; -2.3222244E-01;8614;  8.5900038E-01;  0.0000000E+00; -1.4669715E-02;  9.9831946E+02;  2.6203313E-01; -1.3906846E+03;3;  8.5458725E+01;  0.0000000E+00; -4.6504108E+01;0;  3.2638487E-01;  5.9148774E+03;  0.0000000E+00; -9.8354292E-01;  4.0000000E+04;  0.0000000E+00;  3.9141352E+04; -1.9396907E-02;  0.0000000E+00;  3.4578177E-01;  1.3462240E+04;
  1.4328911E+00;  9.9999998E-03; -2.4234867E-01;8613;  8.7787491E-01;  0.0000000E+00; -1.8126095E-02;  9.9876776E+02;  2.6151863E-01; -1.0197012E+03;3;  8.4381927E+01;  0.0000000E+00; -5.2177326E+01;0;  3.2450625E-01;  5.9397676E+03;  0.0000000E+00; -3.0262954E+00;  4.0000000E+04;  0.0000000E+00;  3.9142410E+04; -3.1953335E-02;  0.0000000E+00;  3.5645959E-01;  1.9201404E+04;
  1.4324148E+00;  9.9999998E-03; -1.7177872E-01;8620;  7.4785054E-01;  0.0000000E+00; -6.5793074E-03;  9.9718713E+02;  2.6149830E-01; -2.3276648E+03;3;  9.6262672E+01;  0.0000000E+00; -4.0350399E+01;0;  2.5073621E-01;  5.9252148E+03;  0.0000000E+00;  1.5824988E+00;  4.0000000E+04;  0.0000000E+00;  3.9159414E+04;  3.8817707E-02;  0.0000000E+00;  2.1191849E-01;  1.0854920E+04;
  1.4339842E+00;  9.9999998E-03; -2.5248700E-01;8612;  8.9620709E-01;  0.0000000E+00; -2.7716413E-02;  9.9926337E+02;  2.6099434E-01; -6.0956952E+02;3;  8.2907089E+01;  0.0000000E+00; -5.8483536E+01;0;  3.5435477E-01;  5.9666362E+03;  0.0000000E+00; -5.8818159E+00;  4.0000000E+04;  0.0000000E+00;  3.9142145E+04; -4.6780206E-02;  0.0000000E+00;  4.0113497E-01;  2.8404834E+04;
  1.4334407E+00;  9.9999998E-03; -1.6166706E-01;8621;  7.2922355E-01;  0.0000000E+00; -3.5410267E-03;  9.9698016E+02;  2.6091820E-01; -2.4988699E+03;3;  9.8507286E+01;  0.0000000E+00; -3.9632687E+01;0;  2.3996311E-01;  5.9459663E+03;  0.0000000E+00;  1.4541280E+00;  4.0000000E+04;  0.0000000E+00;  3.9161953E+04;  6.4072110E-02;  0.0000000E+00;  1.7589101E-01;  1.1114239E+04;
  1.4350437E+00;  9.9999998E-03; -2.6263157E-01;8611;  9.1351682E-01;  0.0000000E+00; -4.5671340E-02;  9.9970874E+02;  2.6048735E-01; -2.4103154E+02;3;  8.1069519E+01;  0.0000000E+00; -5.3285488E+01;0;  4.8249590E-01;  5.9938423E+03;  0.0000000E+00; -9.2803907E+00;  4.0000000E+04;  0.0000000E+00;  3.9138305E+04; -6.3399494E-02;  0.0000000E+00;  5.4589540E-01;  3.9847949E+04;
  1.4343516E+00;  9.9999998E-03; -1.5153788E-01;8622;  7.1094590E-01;  0.0000000E+00; -7.0076552E-04;  9.9667206E+02;  2.6039180E-01; -2.7538215E+03;3;  1.0024488E+02;  0.0000000E+00; -3.7761616E+01;0;  2.3504072E-01;  5.9631655E+03;  0.0000000E+00;  1.2772795E+00;  4.0000000E+04;  0.0000000E+00;  3.9164180E+04;  9.4996028E-02;  0.0000000E+00;  1.4004470E-01;  1.1383818E+04;
  1.4348963E+00;  9.9999998E-03; -1.4138497E-01;8623;  6.9348031E-01;  0.0000000E+00;  1.3332117E-03;  9.9624677E+02;  2.6006541E-01; -3.1057002E+03;3;  1.0156331E+02;  0.0000000E+00; -3.5141670E+01;0;  2.3496252E-01;  5.9699302E+03;  0.0000000E+00;  1.0687269E+00;  4.0000000E+04;  0.0000000E+00;  3.9167227E+04;  1.2767842E-01;  0.0000000E+00;  1.0728411E-01;  1.1778448E+04;
  1.4347146E+00;  9.9999998E-03; -1.1101852E-01;8626;  6.4820582E-01;  0.0000000E+00;  3.1107147E-03;  9.9433624E+02;  2.6021081E-01; -4.6866050E+03;3;  1.0808210E+02;  0.0000000E+00; -2.6212526E+01;0;  2.4203926E-01;  5.9336836E+03;  0.0000000E+00;  5.3128755E-01;  4.0000000E+04;  0.0000000E+00;  3.9182871E+04;  2.0898214E-01;  0.0000000E+00;  3.3057123E-02;  1.3931829E+04;
  1.4349536E+00;  9.9999998E-03; -1.2110534E-01;8625;  6.6202182E-01;  0.0000000E+00;  3.0010724E-03;  9.9504272E+02;  2.6004055E-01; -4.1019824E+03;3;  1.0462460E+02;  0.0000000E+00; -2.9236328E+01;0;  2.3999907E-01;  5.9516172E+03;  0.0000000E+00;  6.7550719E-01;  4.0000000E+04;  0.0000000E+00;  3.9176582E+04;  1.8571904E-01;  0.0000000E+00;  5.4280024E-02;  1.3099017E+04;
  1.4350673E+00;  9.9999998E-03; -1.3123044E-01;8624;  6.7711884E-01;  0.0000000E+00;  2.4933240E-03;  9.9569629E+02;  2.5996137E-01; -3.5611694E+03;3;  1.0277690E+02;  0.0000000E+00; -3.2193512E+01;0;  2.3732600E-01;  5.9652891E+03;  0.0000000E+00;  8.5847330E-01;  4.0000000E+04;  0.0000000E+00;  3.9171406E+04;  1.5861867E-01;  0.0000000E+00;  7.8707322E-02;  1.2356872E+04;
  1.4556516E+00;  9.9999998E-03; -2.0201038E-01;8678;  7.9993528E-01;  0.0000000E+00;  3.0946026E-02;  9.9351477E+02;  2.4284904E-01; -5.3639478E+03;3;  8.8826813E+01;  0.0000000E+00; -4.4113491E+01;0;  2.2592856E-01;  6.8236895E+03;  0.0000000E+00;  1.3271843E+00;  4.0000000E+04;  0.0000000E+00;  3.9174621E+04;  3.6406960E-02;  0.0000000E+00;  1.8952160E-01;  1.1538123E+04;
  1.4558874E+00;  9.9999998E-03; -2.1204624E-01;8677;  8.1778741E-01;  0.0000000E+00;  3.1726625E-02;  9.9363831E+02;  2.4281205E-01; -5.2617686E+03;3;  8.6263779E+01;  0.0000000E+00; -4.4692013E+01;0;  2.1125406E-01;  6.8262881E+03;  0.0000000E+00;  8.2539463E-01;  4.0000000E+04;  0.0000000E+00;  3.9171703E+04; -1.5049805E-02;  0.0000000E+00;  2.2630386E-01;  1.1538017E+04;
  1.4559047E+00;  9.9999998E-03; -1.9194683E-01;8679;  7.8169972E-01;  0.0000000E+00;  3.0964773E-02;  9.9352893E+02;  2.4264228E-01; -5.3522300E+03;3;  9.0896545E+01;  0.0000000E+00; -4.3793411E+01;0;  2.4354783E-01;  6.8344912E+03;  0.0000000E+00;  1.5267353E+00;  4.0000000E+04;  0.0000000E+00;  3.9180230E+04;  9.5711417E-02;  0.0000000E+00;  1.4783640E-01;  1.2098500E+04;
  1.4565934E+00;  9.9999998E-03; -2.2208913E-01;8676;  8.3536530E-01;  0.0000000E+00;  3.3049472E-02;  9.9395166E+02;  2.4254321E-01; -5.0024663E+03;3;  8.4732445E+01;  0.0000000E+00; -4.5748508E+01;0;  1.9476542E-01;  6.8419780E+03;  0.0000000E+00; -1.7655557E-01;  4.0000000E+04;  0.0000000E+00;  3.9173926E+04; -6.1867289E-02;  0.0000000E+00;  2.5663272E-01;  1.3235668E+04;
  1.4565495E+00;  9.9999998E-03; -1.8185617E-01;8680;  7.6318902E-01;  0.0000000E+00;  3.1720921E-02;  9.9360529E+02;  2.4225193E-01; -5.2889922E+03;3;  9.3092705E+01;  0.0000000E+00; -4.3503792E+01;0;  2.6792446E-01;  6.8555640E+03;  0.0000000E+00;  1.5499364E+00;  4.0000000E+04;  0.0000000E+00;  3.9184336E+04;  1.6505888E-01;  0.0000000E+00;  1.0286558E-01;  1.2539776E+04;
  1.4576379E+00;  9.9999998E-03; -2.3217224E-01;8675;  8.5272402E-01;  0.0000000E+00;  3.4234531E-02;  9.9442987E+02;  2.4210577E-01; -4.6068257E+03;3;  8.3712402E+01;  0.0000000E+00; -4.7239468E+01;0;  1.7189401E-01;  6.8682056E+03;  0.0000000E+00; -1.9733536E+00;  4.0000000E+04;  0.0000000E+00;  3.9179000E+04; -1.0680979E-01;  0.0000000E+00;  2.7870381E-01;  1.8072332E+04;
  1.4587599E+00;  9.9999998E-03; -2.4228695E-01;8674;  8.6984336E-01;  0.0000000E+00;  3.4018021E-02;  9.9502924E+02;  2.4161544E-01; -4.1110283E+03;3;  8.3243294E+01;  0.0000000E+00; -4.9967045E+01;0;  1.4085796E-01;  6.8992817E+03;  0.0000000E+00; -4.8796453E+00;  4.0000000E+04;  0.0000000E+00;  3.9183766E+04; -1.5121216E-01;  0.0000000E+00;  2.9207012E-01;  2.7862293E+04;
  1.4574425E+00;  9.9999998E-03; -1.7174762E-01;8681;  7.4453962E-01;  0.0000000E+00;  3.2923374E-02;  9.9368848E+02;  2.4175252E-01; -5.2200537E+03;3;  9.6097443E+01;  0.0000000E+00; -4.3320511E+01;0;  3.0143324E-01;  6.8824175E+03;  0.0000000E+00;  1.4745066E+00;  4.0000000E+04;  0.0000000E+00;  3.9186066E+04;  2.4507760E-01;  0.0000000E+00;  5.6355629E-02;  1.2707146E+04;
  1.4596648E+00;  9.9999998E-03; -2.5241897E-01;8673;  8.8690186E-01;  0.0000000E+00;  2.9466892E-02;  9.9572046E+02;  2.4117506E-01; -3.5392671E+03;3;  8.3161934E+01;  0.0000000E+00; -5.4569267E+01;0;  1.1581916E-01;  6.9298916E+03;  0.0000000E+00; -8.9724445E+00;  4.0000000E+04;  0.0000000E+00;  3.9186602E+04; -1.9464755E-01;  0.0000000E+00;  3.1046671E-01;  4.3028938E+04;
  1.4583831E+00;  9.9999998E-03; -1.6162094E-01;8682;  7.2588974E-01;  0.0000000E+00;  3.4130346E-02;  9.9372644E+02;  2.4124351E-01; -5.1885259E+03;3;  9.8887543E+01;  0.0000000E+00; -4.3125900E+01;0;  3.4423250E-01;  6.9090278E+03;  0.0000000E+00;  1.3454176E+00;  4.0000000E+04;  0.0000000E+00;  3.9186121E+04;  3.3380070E-01;  0.0000000E+00;  1.0431789E-02;  1.2697414E+04;
  1.4601688E+00;  9.9999998E-03; -2.6255599E-01;8672;  9.0398496E-01;  0.0000000E+00;  1.4876068E-02;  9.9643768E+02;  2.4082056E-01; -2.9460715E+03;3;  8.3457520E+01;  0.0000000E+00; -6.2483021E+01;0;  1.6412614E-01;  6.9579438E+03;  0.0000000E+00; -1.3686853E+01;  4.0000000E+04;  0.0000000E+00;  3.9187805E+04; -2.3529969E-01;  0.0000000E+00;  3.9942583E-01;  6.0563961E+04;
  1.4591408E+00;  9.9999998E-03; -1.5147999E-01;8683;  7.0755965E-01;  0.0000000E+00;  3.4855720E-02;  9.9366998E+02;  2.4083920E-01; -5.2351060E+03;3;  1.0031298E+02;  0.0000000E+00; -4.2191177E+01;0;  3.9362228E-01;  6.9283159E+03;  0.0000000E+00;  1.1821703E+00;  4.0000000E+04;  0.0000000E+00;  3.9186203E+04;  4.2601469E-01;  0.0000000E+00; -3.2392409E-02;  1.2684291E+04;
  1.4596126E+00;  9.9999998E-03; -1.4133601E-01;8684;  6.9007230E-01;  0.0000000E+00;  3.4830298E-02;  9.9347784E+02;  2.4059390E-01; -5.3939644E+03;3;  1.0077423E+02;  0.0000000E+00; -4.0898224E+01;0;  4.4585654E-01;  6.9366582E+03;  0.0000000E+00;  9.9097157E-01;  4.0000000E+04;  0.0000000E+00;  3.9187254E+04;  5.1636982E-01;  0.0000000E+00; -7.0513278E-02;  1.2814122E+04;
  1.4597536E+00;  9.9999998E-03; -1.1107355E-01;8687;  6.4439625E-01;  0.0000000E+00;  3.1396568E-02;  9.9200482E+02;  2.4064700E-01; -6.6121470E+03;3;  1.0688843E+02;  0.0000000E+00; -3.4791702E+01;0;  5.9299886E-01;  6.9066113E+03;  0.0000000E+00;  4.6316344E-01;  4.0000000E+04;  0.0000000E+00;  3.9197598E+04;  7.5142181E-01;  0.0000000E+00; -1.5842298E-01;  1.4282494E+04;
  1.4598162E+00;  9.9999998E-03; -1.3121989E-01;8685;  6.7363781E-01;  0.0000000E+00;  3.4168713E-02;  9.9312549E+02;  2.4051058E-01; -5.6853120E+03;3;  1.0165343E+02;  0.0000000E+00; -3.9620255E+01;0;  4.9765724E-01;  6.9337935E+03;  0.0000000E+00;  7.9041702E-01;  4.0000000E+04;  0.0000000E+00;  3.9189734E+04;  6.0133374E-01;  0.0000000E+00; -1.0367651E-01;  1.3149857E+04;
  1.4598348E+00;  9.9999998E-03; -1.2113740E-01;8686;  6.5843153E-01;  0.0000000E+00;  3.2989852E-02;  9.9261121E+02;  2.4054560E-01; -6.1106167E+03;3;  1.0280813E+02;  0.0000000E+00; -3.8017208E+01;0;  5.4699355E-01;  6.9225337E+03;  0.0000000E+00;  6.0876101E-01;  4.0000000E+04;  0.0000000E+00;  3.9193090E+04;  6.7965454E-01;  0.0000000E+00; -1.3266100E-01;  1.3667595E+04;
  1.4793168E+00;  9.9999998E-03; -2.0199431E-01;8739;  7.9685766E-01;  0.0000000E+00;  6.9845468E-02;  9.9075293E+02;  2.2480242E-01; -7.6428691E+03;3;  8.9463936E+01;  0.0000000E+00; -4.7724003E+01;0;  4.0730801E-01;  7.9149316E+03;  0.0000000E+00;  1.2927414E+00;  4.0000000E+04;  0.0000000E+00;  3.9195020E+04;  3.2970807E-01;  0.0000000E+00;  7.7599935E-02;  1.2933127E+04;
  1.4791971E+00;  9.9999998E-03; -1.9193414E-01;8740;  7.7850312E-01;  0.0000000E+00;  6.9151841E-02;  9.9076959E+02;  2.2477779E-01; -7.6291567E+03;3;  9.0863121E+01;  0.0000000E+00; -4.8835777E+01;0;  4.7114241E-01;  7.9174580E+03;  0.0000000E+00;  1.5946692E+00;  4.0000000E+04;  0.0000000E+00;  3.9196312E+04;  4.4400188E-01;  0.0000000E+00;  2.7140539E-02;  1.3152752E+04;
  1.4799531E+00;  9.9999998E-03; -2.1203247E-01;8738;  8.1453240E-01;  0.0000000E+00;  7.1612395E-02;  9.9090442E+02;  2.2460578E-01; -7.5175186E+03;3;  8.4825859E+01;  0.0000000E+00; -4.6592426E+01;0;  3.5269946E-01;  7.9285620E+03;  0.0000000E+00;  5.1099068E-01;  4.0000000E+04;  0.0000000E+00;  3.9195969E+04;  2.2885938E-01;  0.0000000E+00;  1.2384008E-01;  1.3314266E+04;
  1.4795434E+00;  9.9999998E-03; -1.8184647E-01;8741;  7.6012290E-01;  0.0000000E+00;  6.9164999E-02;  9.9090643E+02;  2.2455305E-01; -7.5159536E+03;3;  9.2233063E+01;  0.0000000E+00; -4.7790394E+01;0;  5.4839927E-01;  7.9347061E+03;  0.0000000E+00;  1.6152304E+00;  4.0000000E+04;  0.0000000E+00;  3.9197516E+04;  5.7394755E-01;  0.0000000E+00; -2.5548303E-02;  1.3236025E+04;
  1.4810402E+00;  9.9999998E-03; -2.2208342E-01;8737;  8.3126813E-01;  0.0000000E+00;  7.4016832E-02;  9.9125848E+02;  2.2422323E-01; -7.2245625E+03;3;  8.2409088E+01;  0.0000000E+00; -4.7256744E+01;0;  3.0104980E-01;  7.9560239E+03;  0.0000000E+00; -1.0842828E+00;  4.0000000E+04;  0.0000000E+00;  3.9202105E+04;  1.3736588E-01;  0.0000000E+00;  1.6368392E-01;  1.5968706E+04;
  1.4802210E+00;  9.9999998E-03; -1.7173949E-01;8742;  7.4170130E-01;  0.0000000E+00;  6.9237888E-02;  9.9109503E+02;  2.2419733E-01; -7.3599043E+03;3;  9.6162888E+01;  0.0000000E+00; -4.5957359E+01;0;  6.4057386E-01;  7.9613706E+03;  0.0000000E+00;  1.4845655E+00;  4.0000000E+04;  0.0000000E+00;  3.9196574E+04;  7.1916479E-01;  0.0000000E+00; -7.8590922E-02;  1.3046327E+04;
  1.4822901E+00;  9.9999998E-03; -2.3217654E-01;8736;  8.4733069E-01;  0.0000000E+00;  7.6159067E-02;  9.9171985E+02;  2.2377987E-01; -6.8429658E+03;3;  8.1974106E+01;  0.0000000E+00; -4.8138237E+01;0;  2.4425574E-01;  7.9893711E+03;  0.0000000E+00; -3.9811485E+00;  4.0000000E+04;  0.0000000E+00;  3.9209074E+04;  4.9619649E-02;  0.0000000E+00;  1.9463609E-01;  2.3567234E+04;
  1.4809859E+00;  9.9999998E-03; -1.6161290E-01;8743;  7.2311300E-01;  0.0000000E+00;  6.8978064E-02;  9.9128979E+02;  2.2383234E-01; -7.1987144E+03;3;  9.9595871E+01;  0.0000000E+00; -4.4993549E+01;0;  7.4472380E-01;  7.9883838E+03;  0.0000000E+00;  1.2879376E+00;  4.0000000E+04;  0.0000000E+00;  3.9194121E+04;  8.7426299E-01;  0.0000000E+00; -1.2953921E-01;  1.2699668E+04;
  1.4832237E+00;  9.9999998E-03; -2.4230070E-01;8735;  8.6265373E-01;  0.0000000E+00;  7.6859653E-02;  9.9225342E+02;  2.2346136E-01; -6.4017759E+03;3;  8.1809776E+01;  0.0000000E+00; -4.8967281E+01;0;  1.7504780E-01;  8.0160166E+03;  0.0000000E+00; -8.4916372E+00;  4.0000000E+04;  0.0000000E+00;  3.9212453E+04; -3.8541183E-02;  0.0000000E+00;  2.1358898E-01;  3.8376082E+04;
  1.4828953E+00;  9.9999998E-03; -2.6255944E-01;8733;  8.9280427E-01;  0.0000000E+00;  6.4144284E-02;  9.9374084E+02;  2.2334361E-01; -5.1726235E+03;3;  8.2918449E+01;  0.0000000E+00; -5.5604561E+01;0;  4.9948975E-02;  8.0423979E+03;  0.0000000E+00; -1.9589172E+01;  4.0000000E+04;  0.0000000E+00;  3.9216438E+04; -2.1021046E-01;  0.0000000E+00;  2.6015943E-01;  7.6920094E+04;
  1.4834847E+00;  9.9999998E-03; -2.5243369E-01;8734;  8.7759012E-01;  0.0000000E+00;  7.4429855E-02;  9.9287048E+02;  2.2332469E-01; -5.8917573E+03;3;  8.1751259E+01;  0.0000000E+00; -5.0639961E+01;0;  9.5263809E-02;  8.0325640E+03;  0.0000000E+00; -1.4253917E+01;  4.0000000E+04;  0.0000000E+00;  3.9212953E+04; -1.2651920E-01;  0.0000000E+00;  2.2178301E-01;  5.8947012E+04;
  1.4815829E+00;  9.9999998E-03; -1.5146822E-01;8744;  7.0488966E-01;  0.0000000E+00;  6.8073593E-02;  9.9142383E+02;  2.2357720E-01; -7.0877715E+03;3;  1.0018512E+02;  0.0000000E+00; -4.4181751E+01;0;  8.5407269E-01;  8.0063003E+03;  0.0000000E+00;  1.0739938E+00;  4.0000000E+04;  0.0000000E+00;  3.9191758E+04;  1.0299100E+00;  0.0000000E+00; -1.7583725E-01;  1.2380461E+04;
  1.4820118E+00;  9.9999998E-03; -1.4134493E-01;8745;  6.8765289E-01;  0.0000000E+00;  6.6451669E-02;  9.9143359E+02;  2.2341612E-01; -7.0795811E+03;3;  1.0060467E+02;  0.0000000E+00; -4.3520397E+01;0;  9.6544755E-01;  8.0154966E+03;  0.0000000E+00;  8.5723364E-01;  4.0000000E+04;  0.0000000E+00;  3.9190602E+04;  1.1821437E+00;  0.0000000E+00; -2.1669617E-01;  1.2232646E+04;
  1.4823507E+00;  9.9999998E-03; -1.3125062E-01;8746;  6.7153859E-01;  0.0000000E+00;  6.4270318E-02;  9.9127490E+02;  2.2330736E-01; -7.2106685E+03;3;  1.0082693E+02;  0.0000000E+00; -4.2551815E+01;0;  1.0776308E+00;  8.0185093E+03;  0.0000000E+00;  6.4412791E-01;  4.0000000E+04;  0.0000000E+00;  3.9190855E+04;  1.3304598E+00;  0.0000000E+00; -2.5282907E-01;  1.2300224E+04;
  1.4826292E+00;  9.9999998E-03; -1.2118008E-01;8747;  6.5648878E-01;  0.0000000E+00;  6.1670605E-02;  9.9095245E+02;  2.2323559E-01; -7.4770820E+03;3;  1.0167048E+02;  0.0000000E+00; -4.1235233E+01;0;  1.1881793E+00;  8.0166113E+03;  0.0000000E+00;  4.5427796E-01;  4.0000000E+04;  0.0000000E+00;  3.9192574E+04;  1.4734341E+00;  0.0000000E+00; -2.8525484E-01;  1.2554398E+04;
  1.4828268E+00;  9.9999998E-03; -1.1112349E-01;8748;  6.4249194E-01;  0.0000000E+00;  5.8558926E-02;  9.9049359E+02;  2.2321148E-01; -7.8562158E+03;3;  1.0382574E+02;  0.0000000E+00; -3.9111160E+01;0;  1.2932620E+00;  8.0098403E+03;  0.0000000E+00;  3.0515182E-01;  4.0000000E+04;  0.0000000E+00;  3.9195059E+04;  1.6078750E+00;  0.0000000E+00; -3.1461293E-01;  1.2912928E+04;
  1.5006481E+00;  9.9999998E-03; -1.9195257E-01;8801;  7.7473783E-01;  0.0000000E+00;  1.0287056E-01;  9.8928741E+02;  2.0915397E-01; -8.8462559E+03;3;  9.3318306E+01;  0.0000000E+00; -4.8936127E+01;0;  9.1461492E-01;  9.1147588E+03;  0.0000000E+00;  1.6786945E+00;  4.0000000E+04;  0.0000000E+00;  3.9200434E+04;  9.9555969E-01;  0.0000000E+00; -8.0944769E-02;  1.3211757E+04;
  1.5007355E+00;  9.9999998E-03; -1.8187349E-01;8802;  7.5647926E-01;  0.0000000E+00;  1.0190664E-01;  9.8935553E+02;  2.0907743E-01; -8.7900088E+03;3;  9.3087303E+01;  0.0000000E+00; -4.9101597E+01;0;  1.0482624E+00;  9.1239258E+03;  0.0000000E+00;  1.7673396E+00;  4.0000000E+04;  0.0000000E+00;  3.9197863E+04;  1.1835153E+00;  0.0000000E+00; -1.3525298E-01;  1.2888338E+04;
  1.5010810E+00;  9.9999998E-03; -2.0200656E-01;8800;  7.9308814E-01;  0.0000000E+00;  1.0449939E-01;  9.8936981E+02;  2.0903888E-01; -8.7780479E+03;3;  9.2710526E+01;  0.0000000E+00; -4.8177002E+01;0;  7.9824984E-01;  9.1236953E+03;  0.0000000E+00;  1.1526918E+00;  4.0000000E+04;  0.0000000E+00;  3.9203387E+04;  8.2768613E-01;  0.0000000E+00; -2.9436294E-02;  1.3422835E+04;
  1.5011617E+00;  9.9999998E-03; -1.7177247E-01;8803;  7.3862165E-01;  0.0000000E+00;  1.0116825E-01;  9.8954572E+02;  2.0889054E-01; -8.6327676E+03;3;  9.3704903E+01;  0.0000000E+00; -4.9066689E+01;0;  1.1979148E+00;  9.1439238E+03;  0.0000000E+00;  1.5833406E+00;  4.0000000E+04;  0.0000000E+00;  3.9193875E+04;  1.3874513E+00;  0.0000000E+00; -1.8953639E-01;  1.2296962E+04;
  1.5020683E+00;  9.9999998E-03; -2.1205010E-01;8799;  8.1073254E-01;  0.0000000E+00;  1.0642665E-01;  9.8963275E+02;  2.0872703E-01; -8.5605234E+03;3;  8.7465340E+01;  0.0000000E+00; -5.0629208E+01;0;  6.9510740E-01;  9.1507891E+03;  0.0000000E+00; -6.1848067E-02;  4.0000000E+04;  0.0000000E+00;  3.9209844E+04;  6.7821825E-01;  0.0000000E+00;  1.6889159E-02;  1.4337828E+04;
  1.5017066E+00;  9.9999998E-03; -1.6165087E-01;8804;  7.2091311E-01;  0.0000000E+00;  9.9941894E-02;  9.8978619E+02;  2.0869409E-01; -8.4339404E+03;3;  9.8203125E+01;  0.0000000E+00; -4.5665768E+01;0;  1.3586302E+00;  9.1653047E+03;  0.0000000E+00;  1.2712210E+00;  4.0000000E+04;  0.0000000E+00;  3.9188836E+04;  1.5996916E+00;  0.0000000E+00; -2.4106139E-01;  1.1593956E+04;
  1.5022434E+00;  9.9999998E-03; -1.5151720E-01;8805;  7.0344293E-01;  0.0000000E+00;  9.7670384E-02;  9.9002057E+02;  2.0852876E-01; -8.2401963E+03;3;  9.9276863E+01;  0.0000000E+00; -4.3146538E+01;0;  1.5255761E+00;  9.1832256E+03;  0.0000000E+00;  9.4348782E-01;  4.0000000E+04;  0.0000000E+00;  3.9183898E+04;  1.8134499E+00;  0.0000000E+00; -2.8787380E-01;  1.0967367E+04;
  1.5027720E+00;  9.9999998E-03; -1.4138773E-01;8806;  6.8674028E-01;  0.0000000E+00;  9.4840050E-02;  9.9018347E+02;  2.0837125E-01; -8.1054722E+03;3;  9.8354744E+01;  0.0000000E+00; -3.9839050E+01;0;  1.6966498E+00;  9.1990088E+03;  0.0000000E+00;  6.5585846E-01;  4.0000000E+04;  0.0000000E+00;  3.9180363E+04;  2.0260382E+00;  0.0000000E+00; -3.2938838E-01;  1.0526700E+04;
  1.5034374E+00;  9.9999998E-03; -2.2211756E-01;8798;  8.2758087E-01;  0.0000000E+00;  1.0794362E-01;  9.8995880E+02;  2.0829159E-01; -8.2906865E+03;3;  8.5193794E+01;  0.0000000E+00; -4.9548244E+01;0;  5.9734040E-01;  9.1893154E+03;  0.0000000E+00; -2.4510083E+00;  4.0000000E+04;  0.0000000E+00;  3.9219738E+04;  5.4038930E-01;  0.0000000E+00;  5.6951083E-02;  1.7890094E+04;
  1.5032865E+00;  9.9999998E-03; -1.3128078E-01;8807;  6.7108476E-01;  0.0000000E+00;  9.1370076E-02;  9.9022693E+02;  2.0820999E-01; -8.0693853E+03;3;  9.5431786E+01;  0.0000000E+00; -3.7080200E+01;0;  1.8684969E+00;  9.2123994E+03;  0.0000000E+00;  4.1893274E-01;  4.0000000E+04;  0.0000000E+00;  3.9178457E+04;  2.2344942E+00;  0.0000000E+00; -3.6599731E-01;  1.0298368E+04;
  1.5035651E+00;  9.9999998E-03; -2.6259762E-01;8794;  8.8181186E-01;  0.0000000E+00;  9.9341199E-02;  9.9160828E+02;  2.0810589E-01; -6.9287510E+03;3;  8.1422394E+01;  0.0000000E+00; -4.9096058E+01;0;  9.2582703E-02;  9.2240088E+03;  0.0000000E+00; -2.4392540E+01;  4.0000000E+04;  0.0000000E+00;  3.9242434E+04; -3.3004712E-02;  0.0000000E+00;  1.2558742E-01;  7.8055836E+04;
  1.5037490E+00;  9.9999998E-03; -1.2120061E-01;8808;  6.5694803E-01;  0.0000000E+00;  8.7134212E-02;  9.9011511E+02;  2.0807570E-01; -8.1615190E+03;3;  8.6810371E+01;  0.0000000E+00; -3.3452137E+01;0;  2.0356870E+00;  9.2212227E+03;  0.0000000E+00;  2.3722041E-01;  4.0000000E+04;  0.0000000E+00;  3.9177875E+04;  2.4343579E+00;  0.0000000E+00; -3.9867091E-01;  1.0258037E+04;
  1.5047288E+00;  9.9999998E-03; -2.3222266E-01;8797;  8.4274209E-01;  0.0000000E+00;  1.0970315E-01;  9.9020245E+02;  2.0788771E-01; -8.0890146E+03;3;  8.1240868E+01;  0.0000000E+00; -4.3569569E+01;0;  4.9061635E-01;  9.2250400E+03;  0.0000000E+00; -6.7139087E+00;  4.0000000E+04;  0.0000000E+00;  3.9228719E+04;  4.0398973E-01;  0.0000000E+00;  8.6626619E-02;  2.7695484E+04;
  1.5050164E+00;  9.9999998E-03; -2.5248602E-01;8795;  8.6919332E-01;  0.0000000E+00;  1.0821522E-01;  9.9062091E+02;  2.0778865E-01; -7.7433936E+03;3;  8.1599602E+01;  0.0000000E+00; -4.4603073E+01;0;  2.1651226E-01;  9.2379746E+03;  0.0000000E+00; -2.0136738E+01;  4.0000000E+04;  0.0000000E+00;  3.9233113E+04;  1.1299107E-01;  0.0000000E+00;  1.0352119E-01;  6.7520062E+04;
  1.5041188E+00;  9.9999998E-03; -1.1113131E-01;8809;  6.4471889E-01;  0.0000000E+00;  8.2060941E-02;  9.8986890E+02;  2.0798221E-01; -8.3646602E+03;3;  7.1540085E+01;  0.0000000E+00; -2.9649569E+01;0;  2.1929183E+00;  9.2241533E+03;  0.0000000E+00;  1.1291092E-01;  4.0000000E+04;  0.0000000E+00;  3.9178477E+04;  2.6211758E+00;  0.0000000E+00; -4.2825750E-01;  1.0344604E+04;
  1.5053507E+00;  9.9999998E-03; -2.4235395E-01;8796;  8.5647643E-01;  0.0000000E+00;  1.1043187E-01;  9.9034229E+02;  2.0770517E-01; -7.9733101E+03;3;  8.1008621E+01;  0.0000000E+00; -4.2960140E+01;0;  3.6228880E-01;  9.2413691E+03;  0.0000000E+00; -1.3024542E+01;  4.0000000E+04;  0.0000000E+00;  3.9232645E+04;  2.6081654E-01;  0.0000000E+00;  1.0147227E-01;  4.5739410E+04;
  1.5206044E+00;  9.9999998E-03; -1.8195035E-01;8863;  7.5444204E-01;  0.0000000E+00;  1.2706293E-01;  9.8899567E+02;  1.9564512E-01; -9.0769219E+03;3;  8.4208145E+01;  0.0000000E+00; -3.1754860E+01;0;  1.6789007E+00;  1.0412293E+04;  0.0000000E+00;  1.7769080E+00;  4.0000000E+04;  0.0000000E+00;  3.9187477E+04;  1.9042462E+00;  0.0000000E+00; -2.2534543E-01;  1.1742818E+04;
  1.5207639E+00;  9.9999998E-03; -1.7185181E-01;8864;  7.3780710E-01;  0.0000000E+00;  1.2437009E-01;  9.8907605E+02;  1.9560613E-01; -9.0105039E+03;3;  7.5105339E+01;  0.0000000E+00; -2.7343897E+01;0;  1.8700905E+00;  1.0420601E+04;  0.0000000E+00;  1.6055334E+00;  4.0000000E+04;  0.0000000E+00;  3.9181293E+04;  2.1457253E+00;  0.0000000E+00; -2.7563471E-01;  1.0866233E+04;
  1.5208191E+00;  9.9999998E-03; -1.9202927E-01;8862;  7.7181941E-01;  0.0000000E+00;  1.2932448E-01;  9.8904712E+02;  1.9557413E-01; -9.0343662E+03;3;  8.5709541E+01;  0.0000000E+00; -3.4382221E+01;0;  1.5005012E+00;  1.0417853E+04;  0.0000000E+00;  1.5433388E+00;  4.0000000E+04;  0.0000000E+00;  3.9192605E+04;  1.6764494E+00;  0.0000000E+00; -1.7594831E-01;  1.2305115E+04;
  1.5211486E+00;  9.9999998E-03; -1.6173072E-01;8865;  7.2415906E-01;  0.0000000E+00;  1.2051745E-01;  9.8926056E+02;  1.9551565E-01; -8.8581162E+03;3;  5.0339619E+01;  0.0000000E+00; -1.8905804E+01;0;  2.0696602E+00;  1.0436321E+04;  0.0000000E+00;  1.2114524E+00;  4.0000000E+04;  0.0000000E+00;  3.9173832E+04;  2.3935480E+00;  0.0000000E+00; -3.2388794E-01;  9.8665010E+03;
  1.5216613E+00;  9.9999998E-03; -1.5158240E-01;8866;  7.1722269E-01;  0.0000000E+00;  1.1477448E-01;  9.8950275E+02;  1.9538876E-01; -8.6580723E+03;3;  9.0466337E+00;  0.0000000E+00; -1.1016674E+01;0;  2.2734742E+00;  1.0456347E+04;  0.0000000E+00;  7.7902269E-01;  4.0000000E+04;  0.0000000E+00;  3.9166750E+04;  2.6415012E+00;  0.0000000E+00; -3.6802703E-01;  8.9721797E+03;
  1.5215442E+00;  9.9999998E-03; -2.0208649E-01;8861;  7.8887200E-01;  0.0000000E+00;  1.3109083E-01;  9.8924152E+02;  1.9535697E-01; -8.8735664E+03;3;  8.4916489E+01;  0.0000000E+00; -3.6547585E+01;0;  1.3372337E+00;  1.0440526E+04;  0.0000000E+00;  7.4935138E-01;  4.0000000E+04;  0.0000000E+00;  3.9198336E+04;  1.4678904E+00;  0.0000000E+00; -1.3065673E-01;  1.2768551E+04;
  1.5222348E+00;  9.9999998E-03; -1.4142334E-01;8867;  7.1648657E-01;  0.0000000E+00;  1.0838985E-01;  9.8975800E+02;  1.9523704E-01; -8.4471904E+03;3; -2.2548563E+01;  0.0000000E+00; -9.5308399E+00;0;  2.4777117E+00;  1.0478533E+04;  0.0000000E+00;  4.2602006E-01;  4.0000000E+04;  0.0000000E+00;  3.9160480E+04;  2.8847764E+00;  0.0000000E+00; -4.0706456E-01;  8.2703291E+03;
  1.5228159E+00;  9.9999998E-03; -1.3128701E-01;8868;  7.1799445E-01;  0.0000000E+00;  1.0223777E-01;  9.8996167E+02;  1.9507553E-01; -8.2788887E+03;3; -4.2390450E+01;  0.0000000E+00; -9.1096249E+00;0;  2.6778936E+00;  1.0500037E+04;  0.0000000E+00;  1.8512343E-01;  4.0000000E+04;  0.0000000E+00;  3.9156180E+04;  3.1190667E+00;  0.0000000E+00; -4.4117302E-01;  7.7616353E+03;
  1.5225582E+00;  9.9999998E-03; -2.6266420E-01;8855;  8.7176090E-01;  0.0000000E+00;  1.2370748E-01;  9.9007544E+02;  1.9511645E-01; -8.1851885E+03;3;  8.0199501E+01;  0.0000000E+00; -4.1588509E+01;0;  2.4336556E-01;  1.0462342E+04;  0.0000000E+00; -2.5046019E+01;  4.0000000E+04;  0.0000000E+00;  3.9257883E+04;  2.7547470E-01;  0.0000000E+00; -3.2109149E-02;  6.3407422E+04;
  1.5227575E+00;  9.9999998E-03; -2.1213891E-01;8860;  8.0559075E-01;  0.0000000E+00;  1.3269846E-01;  9.8948328E+02;  1.9501135E-01; -8.6734619E+03;3;  8.4560547E+01;  0.0000000E+00; -3.5836918E+01;0;  1.1844627E+00;  1.0477330E+04;  0.0000000E+00; -8.7444556E-01;  4.0000000E+04;  0.0000000E+00;  3.9206926E+04;  1.2769923E+00;  0.0000000E+00; -9.2529617E-02;  1.3935447E+04;
  1.5233582E+00;  9.9999998E-03; -1.2118376E-01;8869;  7.2149426E-01;  0.0000000E+00;  9.5708273E-02;  9.9006274E+02;  1.9492665E-01; -8.1952158E+03;3; -5.5687634E+01;  0.0000000E+00; -7.2075877E+00;0;  2.8687701E+00;  1.0517973E+04;  0.0000000E+00;  4.3789752E-02;  4.0000000E+04;  0.0000000E+00;  3.9153617E+04;  3.3400881E+00;  0.0000000E+00; -4.7131810E-01;  7.4354644E+03;
  1.5238199E+00;  9.9999998E-03; -1.1109740E-01;8870;  7.2559297E-01;  0.0000000E+00;  8.8794678E-02;  9.9005115E+02;  1.9480836E-01; -8.2045410E+03;3; -6.5350845E+01;  0.0000000E+00; -6.1478410E+00;0;  3.0462005E+00;  1.0530332E+04;  0.0000000E+00; -2.0254081E-02;  4.0000000E+04;  0.0000000E+00;  3.9152285E+04;  3.5446055E+00;  0.0000000E+00; -4.9840489E-01;  7.2672583E+03;
  1.5241688E+00;  9.9999998E-03; -2.2221263E-01;8859;  8.2205611E-01;  0.0000000E+00;  1.3387625E-01;  9.8958008E+02;  1.9462708E-01; -8.5928018E+03;3;  8.5333878E+01;  0.0000000E+00; -3.4664909E+01;0;  1.0304132E+00;  1.0516002E+04;  0.0000000E+00; -3.9508026E+00;  4.0000000E+04;  0.0000000E+00;  3.9218371E+04;  1.0941811E+00;  0.0000000E+00; -6.3767888E-02;  1.7806055E+04;
  1.5243725E+00;  9.9999998E-03; -2.5255626E-01;8856;  8.6168218E-01;  0.0000000E+00;  1.3155933E-01;  9.8903925E+02;  1.9467427E-01; -9.0386895E+03;3;  7.9350937E+01;  0.0000000E+00; -3.5978443E+01;0;  4.3907890E-01;  1.0494508E+04;  0.0000000E+00; -2.3078409E+01;  4.0000000E+04;  0.0000000E+00;  3.9245598E+04;  4.8608392E-01;  0.0000000E+00; -4.7005039E-02;  6.2403199E+04;
  1.5252060E+00;  9.9999998E-03; -2.3231532E-01;8858;  8.3773965E-01;  0.0000000E+00;  1.3393693E-01;  9.8937177E+02;  1.9437099E-01; -8.7639600E+03;3;  8.5442436E+01;  0.0000000E+00; -3.5362129E+01;0;  8.6043042E-01;  1.0536812E+04;  0.0000000E+00; -9.2396755E+00;  4.0000000E+04;  0.0000000E+00;  3.9229926E+04;  9.0500033E-01;  0.0000000E+00; -4.4569891E-02;  2.8252828E+04;
  1.5253466E+00;  9.9999998E-03; -2.4243708E-01;8857;  8.5115004E-01;  0.0000000E+00;  1.3325766E-01;  9.8900592E+02;  1.9437990E-01; -9.0655508E+03;3;  8.0421501E+01;  0.0000000E+00; -3.3271900E+01;0;  6.6403162E-01;  1.0527544E+04;  0.0000000E+00; -1.6488174E+01;  4.0000000E+04;  0.0000000E+00;  3.9238164E+04;  7.0124948E-01;  0.0000000E+00; -3.7217841E-02;  4.5965031E+04;
  1.5392953E+00;  9.9999998E-03; -1.7194717E-01;8924;  7.8057677E-01;  0.0000000E+00;  1.2341192E-01;  9.8961578E+02;  1.8413462E-01; -8.5533506E+03;3; -2.7996998E+01;  0.0000000E+00;  2.3468840E+00;0;  2.5229871E+00;  1.1775856E+04;  0.0000000E+00;  1.4308151E+00;  4.0000000E+04;  0.0000000E+00;  3.9161266E+04;  2.8577759E+00;  0.0000000E+00; -3.3478886E-01;  9.1144668E+03;
  1.5392865E+00;  9.9999998E-03; -1.8203802E-01;8923;  7.8086239E-01;  0.0000000E+00;  1.2879258E-01;  9.8969171E+02;  1.8411122E-01; -8.4908096E+03;3; -3.4755888E+00;  0.0000000E+00;  3.0659976E+00;0;  2.3163624E+00;  1.1775697E+04;  0.0000000E+00;  1.5080258E+00;  4.0000000E+04;  0.0000000E+00;  3.9168941E+04;  2.6075912E+00;  0.0000000E+00; -2.9122868E-01;  1.0091145E+04;
  1.5395805E+00;  9.9999998E-03; -1.6182967E-01;8925;  7.8680623E-01;  0.0000000E+00;  1.1746249E-01;  9.8967725E+02;  1.8408449E-01; -8.5025244E+03;3; -4.6642727E+01;  0.0000000E+00;  2.0330923E+00;0;  2.7321944E+00;  1.1788123E+04;  0.0000000E+00;  1.0527632E+00;  4.0000000E+04;  0.0000000E+00;  3.9152562E+04;  3.1091831E+00;  0.0000000E+00; -3.7698853E-01;  7.9711968E+03;
  1.5396558E+00;  9.9999998E-03; -1.9211726E-01;8922;  7.8743160E-01;  0.0000000E+00;  1.3337857E-01;  9.8987836E+02;  1.8398745E-01; -8.3368242E+03;3;  1.9901361E+01;  0.0000000E+00;  1.2774022E+00;0;  2.1149423E+00;  1.1790978E+04;  0.0000000E+00;  1.1440115E+00;  4.0000000E+04;  0.0000000E+00;  3.9175371E+04;  2.3642612E+00;  0.0000000E+00; -2.4931890E-01;  1.0761814E+04;
  1.5400261E+00;  9.9999998E-03; -1.5166482E-01;8926;  7.9710537E-01;  0.0000000E+00;  1.1115697E-01;  9.8984155E+02;  1.8398675E-01; -8.3668467E+03;3; -6.0129448E+01;  0.0000000E+00;  2.4615650E+00;0;  2.9404192E+00;  1.1808510E+04;  0.0000000E+00;  5.8841896E-01;  4.0000000E+04;  0.0000000E+00;  3.9143645E+04;  3.3561227E+00;  0.0000000E+00; -4.1570365E-01;  6.9192202E+03;
  1.5405573E+00;  9.9999998E-03; -1.4147660E-01;8927;  8.0767477E-01;  0.0000000E+00;  1.0475879E-01;  9.9010284E+02;  1.8385999E-01; -8.1512949E+03;3; -7.1144287E+01;  0.0000000E+00;  2.8135386E+00;0;  3.1439145E+00;  1.1833756E+04;  0.0000000E+00;  2.1525675E-01;  4.0000000E+04;  0.0000000E+00;  3.9135512E+04;  3.5937331E+00;  0.0000000E+00; -4.4981855E-01;  6.0518657E+03;
  1.5405049E+00;  9.9999998E-03; -2.0217954E-01;8921;  7.9901338E-01;  0.0000000E+00;  1.3672657E-01;  9.9009406E+02;  1.8374901E-01; -8.1585483E+03;3;  3.5301094E+01;  0.0000000E+00;  3.1478342E-02;0;  1.9213717E+00;  1.1821484E+04;  0.0000000E+00;  2.6492274E-01;  4.0000000E+04;  0.0000000E+00;  3.9182414E+04;  2.1339014E+00;  0.0000000E+00; -2.1252969E-01;  1.1383642E+04;
  1.5406320E+00;  9.9999998E-03; -2.6276729E-01;8915;  8.6270350E-01;  0.0000000E+00;  1.4041124E-01;  9.8850458E+02;  1.8393715E-01; -9.4675400E+03;3;  7.7408180E+01;  0.0000000E+00; -2.8435692E+01;0;  4.7246242E-01;  1.1746071E+04;  0.0000000E+00; -2.3799404E+01;  4.0000000E+04;  0.0000000E+00;  3.9248652E+04;  6.9705719E-01;  0.0000000E+00; -2.2459477E-01;  4.8028523E+04;
  1.5411192E+00;  9.9999998E-03; -1.3130718E-01;8928;  8.1789374E-01;  0.0000000E+00;  9.8169595E-02;  9.9038812E+02;  1.8372080E-01; -7.9159561E+03;3; -8.0276993E+01;  0.0000000E+00;  3.5655613E+00;0;  3.3383281E+00;  1.1860252E+04;  0.0000000E+00; -3.5277838E-03;  4.0000000E+04;  0.0000000E+00;  3.9129203E+04;  3.8176866E+00;  0.0000000E+00; -4.7935849E-01;  5.3328618E+03;
  1.5416709E+00;  9.9999998E-03; -1.2117453E-01;8929;  8.2871550E-01;  0.0000000E+00;  9.1279924E-02;  9.9065686E+02;  1.8358442E-01; -7.6942412E+03;3; -8.7957077E+01;  0.0000000E+00;  3.8270504E+00;0;  3.5201125E+00;  1.1885238E+04;  0.0000000E+00; -8.8584296E-02;  4.0000000E+04;  0.0000000E+00;  3.9124750E+04;  4.0252352E+00;  0.0000000E+00; -5.0512266E-01;  4.7563833E+03;
  1.5417311E+00;  9.9999998E-03; -2.1224333E-01;8920;  8.1196809E-01;  0.0000000E+00;  1.3923275E-01;  9.9014801E+02;  1.8343909E-01; -8.1132407E+03;3;  4.3638123E+01;  0.0000000E+00; -1.6976132E+00;0;  1.7309399E+00;  1.1858756E+04;  0.0000000E+00; -1.3888445E+00;  4.0000000E+04;  0.0000000E+00;  3.9191316E+04;  1.9151301E+00;  0.0000000E+00; -1.8419027E-01;  1.2409460E+04;
  1.5421727E+00;  9.9999998E-03; -1.1106269E-01;8930;  8.3903438E-01;  0.0000000E+00;  8.4015600E-02;  9.9084888E+02;  1.8345961E-01; -7.5357495E+03;3; -9.4307266E+01;  0.0000000E+00;  4.1860089E+00;0;  3.6871095E+00;  1.1906375E+04;  0.0000000E+00; -8.2615420E-02;  4.0000000E+04;  0.0000000E+00;  3.9121719E+04;  4.2150335E+00;  0.0000000E+00; -5.2792400E-01;  4.3479697E+03;
  1.5422826E+00;  9.9999998E-03; -2.5265154E-01;8916;  8.5506141E-01;  0.0000000E+00;  1.4358686E-01;  9.8782141E+02;  1.8353488E-01; -1.0028734E+04;3;  7.7310089E+01;  0.0000000E+00; -2.1539646E+01;0;  7.5326443E-01;  1.1786794E+04;  0.0000000E+00; -2.2580088E+01;  4.0000000E+04;  0.0000000E+00;  3.9240703E+04;  9.5342761E-01;  0.0000000E+00; -2.0016316E-01;  4.8992453E+04;
  1.5429636E+00;  9.9999998E-03; -2.2232105E-01;8919;  8.2380527E-01;  0.0000000E+00;  1.4133035E-01;  9.8981458E+02;  1.8315913E-01; -8.3868906E+03;3;  5.4692863E+01;  0.0000000E+00; -4.8399477E+00;0;  1.5303364E+00;  1.1884722E+04;  0.0000000E+00; -4.5598826E+00;  4.0000000E+04;  0.0000000E+00;  3.9203332E+04;  1.6976876E+00;  0.0000000E+00; -1.6735120E-01;  1.5299088E+04;
  1.5434477E+00;  9.9999998E-03; -2.4253406E-01;8917;  8.4564036E-01;  0.0000000E+00;  1.4421828E-01;  9.8814758E+02;  1.8317942E-01; -9.7591191E+03;3;  7.9179512E+01;  0.0000000E+00; -1.6373215E+01;0;  1.0397184E+00;  1.1842660E+04;  0.0000000E+00; -1.7058275E+01;  4.0000000E+04;  0.0000000E+00;  3.9230449E+04;  1.2167200E+00;  0.0000000E+00; -1.7700163E-01;  3.7902324E+04;
  1.5436820E+00;  9.9999998E-03; -2.3241858E-01;8918;  8.3452433E-01;  0.0000000E+00;  1.4321344E-01;  9.8903040E+02;  1.8303752E-01; -9.0319893E+03;3;  7.1007065E+01;  0.0000000E+00; -1.0724928E+01;0;  1.3025616E+00;  1.1881541E+04;  0.0000000E+00; -1.0055367E+01;  4.0000000E+04;  0.0000000E+00;  3.9218023E+04;  1.4675626E+00;  0.0000000E+00; -1.6500093E-01;  2.3841504E+04;
  1.5568880E+00;  9.9999998E-03; -1.7204660E-01;8983;  8.6615604E-01;  0.0000000E+00;  1.1349113E-01;  9.9095880E+02;  1.7426166E-01; -7.4342412E+03;3; -6.8881355E+01;  0.0000000E+00;  8.3886986E+00;0;  3.0452833E+00;  1.3188336E+04;  0.0000000E+00;  1.0820296E+00;  4.0000000E+04;  0.0000000E+00;  3.9135152E+04;  3.4152014E+00;  0.0000000E+00; -3.6991808E-01;  7.2534492E+03;
  1.5569845E+00;  9.9999998E-03; -1.8211898E-01;8982;  8.5753918E-01;  0.0000000E+00;  1.1835532E-01;  9.9117133E+02;  1.7421201E-01; -7.2594399E+03;3; -6.0575291E+01;  0.0000000E+00;  7.1052284E+00;0;  2.8489406E+00;  1.3195129E+04;  0.0000000E+00;  1.0523862E+00;  4.0000000E+04;  0.0000000E+00;  3.9142711E+04;  3.1841726E+00;  0.0000000E+00; -3.3523211E-01;  8.1569497E+03;
  1.5570703E+00;  9.9999998E-03; -1.6194698E-01;8984;  8.7844807E-01;  0.0000000E+00;  1.0800928E-01;  9.9086407E+02;  1.7424129E-01; -7.5119663E+03;3; -7.7173248E+01;  0.0000000E+00;  8.5409346E+00;0;  3.2377741E+00;  1.3195188E+04;  0.0000000E+00;  8.0908084E-01;  4.0000000E+04;  0.0000000E+00;  3.9126789E+04;  3.6414306E+00;  0.0000000E+00; -4.0365645E-01;  6.1951719E+03;
  1.5574166E+00;  9.9999998E-03; -1.5178734E-01;8985;  8.9289659E-01;  0.0000000E+00;  1.0190998E-01;  9.9089838E+02;  1.7417409E-01; -7.4834946E+03;3; -8.4788757E+01;  0.0000000E+00;  9.1365137E+00;0;  3.4232094E+00;  1.3212472E+04;  0.0000000E+00;  3.9948395E-01;  4.0000000E+04;  0.0000000E+00;  3.9117297E+04;  3.8579659E+00;  0.0000000E+00; -4.3475661E-01;  5.1629062E+03;
  1.5574284E+00;  9.9999998E-03; -1.9217744E-01;8981;  8.5352427E-01;  0.0000000E+00;  1.2252586E-01;  9.9140704E+02;  1.7407967E-01; -7.0652524E+03;3; -5.2376091E+01;  0.0000000E+00;  6.6496639E+00;0;  2.6511497E+00;  1.3215656E+04;  0.0000000E+00;  7.0580560E-01;  4.0000000E+04;  0.0000000E+00;  3.9149961E+04;  2.9531159E+00;  0.0000000E+00; -3.0196607E-01;  8.9702480E+03;
  1.5578641E+00;  9.9999998E-03; -1.4158714E-01;8986;  9.0748167E-01;  0.0000000E+00;  9.5620215E-02;  9.9107220E+02;  1.7407729E-01; -7.3402163E+03;3; -9.1791679E+01;  0.0000000E+00;  9.2885704E+00;0;  3.5989025E+00;  1.3237080E+04;  0.0000000E+00;  5.3884517E-02;  4.0000000E+04;  0.0000000E+00;  3.9108629E+04;  4.0611682E+00;  0.0000000E+00; -4.6226582E-01;  4.2687075E+03;
  1.5575801E+00;  9.9999998E-03; -2.6287583E-01;8974;  8.5488218E-01;  0.0000000E+00;  1.4526613E-01;  9.8726324E+02;  1.7433234E-01; -1.0472142E+04;3;  7.6080276E+01;  0.0000000E+00; -1.4448764E+01;0;  8.0282837E-01;  1.3055997E+04;  0.0000000E+00; -2.0197803E+01;  4.0000000E+04;  0.0000000E+00;  3.9235730E+04;  1.1783837E+00;  0.0000000E+00; -3.7555534E-01;  3.1883182E+04;
  1.5583780E+00;  9.9999998E-03; -1.3138828E-01;8987;  9.2182302E-01;  0.0000000E+00;  8.9084096E-02;  9.9135663E+02;  1.7395896E-01; -7.1059482E+03;3; -9.7999550E+01;  0.0000000E+00;  9.3498383E+00;0;  3.7624178E+00;  1.3266337E+04;  0.0000000E+00; -1.2708239E-01;  4.0000000E+04;  0.0000000E+00;  3.9100824E+04;  4.2484379E+00;  0.0000000E+00; -4.8602000E-01;  3.4538916E+03;
  1.5582707E+00;  9.9999998E-03; -2.0222531E-01;8980;  8.5678113E-01;  0.0000000E+00;  1.2615658E-01;  9.9152368E+02;  1.7387348E-01; -6.9686797E+03;3; -4.8028149E+01;  0.0000000E+00;  4.8669281E+00;0;  2.4537060E+00;  1.3244920E+04;  0.0000000E+00;  9.1260396E-02;  4.0000000E+04;  0.0000000E+00;  3.9158949E+04;  2.7269311E+00;  0.0000000E+00; -2.7322501E-01;  1.0067861E+04;
  1.5589132E+00;  9.9999998E-03; -1.2121690E-01;8988;  9.3604493E-01;  0.0000000E+00;  8.2389832E-02;  9.9168964E+02;  1.7383187E-01; -6.8317515E+03;3; -1.0320824E+02;  0.0000000E+00;  8.8638840E+00;0;  3.9119077E+00;  1.3296864E+04;  0.0000000E+00; -1.6139419E-01;  4.0000000E+04;  0.0000000E+00;  3.9094629E+04;  4.4183536E+00;  0.0000000E+00; -5.0644588E-01;  2.6917605E+03;
  1.5590315E+00;  9.9999998E-03; -2.5274551E-01;8975;  8.4845901E-01;  0.0000000E+00;  1.4471383E-01;  9.8698151E+02;  1.7399800E-01; -1.0702026E+04;3;  7.9228111E+01;  0.0000000E+00; -8.8189278E+00;0;  1.1343536E+00;  1.3101520E+04;  0.0000000E+00; -1.9025875E+01;  4.0000000E+04;  0.0000000E+00;  3.9234531E+04;  1.4594874E+00;  0.0000000E+00; -3.2513377E-01;  3.2322104E+04;
  1.5594033E+00;  9.9999998E-03; -1.1108255E-01;8989;  9.4921923E-01;  0.0000000E+00;  7.5617887E-02;  9.9200781E+02;  1.7371868E-01; -6.5698208E+03;3; -1.0797609E+02;  0.0000000E+00;  8.6010227E+00;0;  4.0463357E+00;  1.3324251E+04;  0.0000000E+00; -1.0156902E-01;  4.0000000E+04;  0.0000000E+00;  3.9089863E+04;  4.5704832E+00;  0.0000000E+00; -5.2414757E-01;  2.0499546E+03;
  1.5593385E+00;  9.9999998E-03; -2.1228758E-01;8979;  8.6137718E-01;  0.0000000E+00;  1.2953354E-01;  9.9126434E+02;  1.7364474E-01; -7.1810107E+03;3; -4.6564159E+01;  0.0000000E+00;  1.4872775E+00;0;  2.2519019E+00;  1.3269299E+04;  0.0000000E+00; -1.0662280E+00;  4.0000000E+04;  0.0000000E+00;  3.9172211E+04;  2.5041709E+00;  0.0000000E+00; -2.5226906E-01;  1.1570413E+04;
  1.5602182E+00;  9.9999998E-03; -2.4261414E-01;8976;  8.4277785E-01;  0.0000000E+00;  1.4163128E-01;  9.8768817E+02;  1.7366567E-01; -1.0119699E+04;3;  6.1469772E+01;  0.0000000E+00;  1.5919224E+00;0;  1.4703772E+00;  1.3171598E+04;  0.0000000E+00; -1.4629740E+01;  4.0000000E+04;  0.0000000E+00;  3.9224703E+04;  1.7478665E+00;  0.0000000E+00; -2.7748933E-01;  2.6060754E+04;
  1.5602994E+00;  9.9999998E-03; -2.2237346E-01;8978;  8.5912704E-01;  0.0000000E+00;  1.3238266E-01;  9.9041693E+02;  1.7347410E-01; -7.8767192E+03;3; -4.3058056E+01;  0.0000000E+00; -7.8956217E-01;0;  2.0352018E+00;  1.3271229E+04;  0.0000000E+00; -3.6992557E+00;  4.0000000E+04;  0.0000000E+00;  3.9189840E+04;  2.2762325E+00;  0.0000000E+00; -2.4103074E-01;  1.3386143E+04;
  1.5607009E+00;  9.9999998E-03; -2.3248579E-01;8977;  8.4696895E-01;  0.0000000E+00;  1.3594127E-01;  9.8904974E+02;  1.7346264E-01; -9.0000625E+03;3;  5.0870383E-01;  0.0000000E+00;  7.4476705E+00;0;  1.7824460E+00;  1.3237540E+04;  0.0000000E+00; -8.6366262E+00;  4.0000000E+04;  0.0000000E+00;  3.9208918E+04;  2.0258749E+00;  0.0000000E+00; -2.4342880E-01;  1.7730479E+04;
  1.5736736E+00;  9.9999998E-03; -1.7213489E-01;9042;  9.6078277E-01;  0.0000000E+00;  1.0120994E-01;  9.9283569E+02;  1.6579831E-01; -5.8784360E+03;3; -8.7784676E+01;  0.0000000E+00;  1.4049048E+01;0;  3.3802059E+00;  1.4632379E+04;  0.0000000E+00;  6.8301702E-01;  4.0000000E+04;  0.0000000E+00;  3.9102879E+04;  3.7644782E+00;  0.0000000E+00; -3.8427228E-01;  5.3531274E+03;
  1.5737594E+00;  9.9999998E-03; -1.6206743E-01;9043;  9.7387600E-01;  0.0000000E+00;  9.5998637E-02;  9.9260223E+02;  1.6579540E-01; -6.0699292E+03;3; -9.2004875E+01;  0.0000000E+00;  1.3825477E+01;0;  3.5360949E+00;  1.4633190E+04;  0.0000000E+00;  5.3248721E-01;  4.0000000E+04;  0.0000000E+00;  3.9096457E+04;  3.9444900E+00;  0.0000000E+00; -4.0839502E-01;  4.5587593E+03;
  1.5738130E+00;  9.9999998E-03; -1.8217784E-01;9041;  9.4943011E-01;  0.0000000E+00;  1.0589270E-01;  9.9309668E+02;  1.6574654E-01; -5.6641611E+03;3; -8.3635307E+01;  0.0000000E+00;  1.4451530E+01;0;  3.2149014E+00;  1.4642814E+04;  0.0000000E+00;  6.6387093E-01;  4.0000000E+04;  0.0000000E+00;  3.9109023E+04;  3.5747256E+00;  0.0000000E+00; -3.5982418E-01;  6.1746138E+03;
  1.5740073E+00;  9.9999998E-03; -1.5194204E-01;9044;  9.8853606E-01;  0.0000000E+00;  9.0443179E-02;  9.9248669E+02;  1.6575129E-01; -6.1644897E+03;3; -9.6207504E+01;  0.0000000E+00;  1.3334261E+01;0;  3.6808934E+00;  1.4644981E+04;  0.0000000E+00;  2.4000883E-01;  4.0000000E+04;  0.0000000E+00;  3.9088590E+04;  4.1118574E+00;  0.0000000E+00; -4.3096387E-01;  3.7447625E+03;
  1.5735734E+00;  9.9999998E-03; -2.6299906E-01;9033;  8.4786290E-01;  0.0000000E+00;  1.3911869E-01;  9.8631531E+02;  1.6609293E-01; -1.1228694E+04;3;  7.4335335E+01;  0.0000000E+00;  3.0460529E+00;0;  1.2131408E+00;  1.4372431E+04;  0.0000000E+00; -1.5144657E+01;  4.0000000E+04;  0.0000000E+00;  3.9213262E+04;  1.6602780E+00;  0.0000000E+00; -4.4713715E-01;  1.9874080E+04;
  1.5743499E+00;  9.9999998E-03; -1.4175022E-01;9045;  1.0034655E+00;  0.0000000E+00;  8.4632292E-02;  9.9251208E+02;  1.6567834E-01; -6.1433545E+03;3; -1.0069859E+02;  0.0000000E+00;  1.2919522E+01;0;  3.8132160E+00;  1.4665573E+04;  0.0000000E+00; -3.8391154E-02;  4.0000000E+04;  0.0000000E+00;  3.9079977E+04;  4.2644520E+00;  0.0000000E+00; -4.5123610E-01;  2.9783992E+03;
  1.5742532E+00;  9.9999998E-03; -1.9220829E-01;9040;  9.4214535E-01;  0.0000000E+00;  1.1044971E-01;  9.9327112E+02;  1.6563071E-01; -5.5207144E+03;3; -8.0348778E+01;  0.0000000E+00;  1.4553564E+01;0;  3.0426459E+00;  1.4662204E+04;  0.0000000E+00;  6.4200693E-01;  4.0000000E+04;  0.0000000E+00;  3.9116910E+04;  3.3797121E+00;  0.0000000E+00; -3.3706611E-01;  7.4976392E+03;
  1.5747683E+00;  9.9999998E-03; -1.3153683E-01;9046;  1.0186999E+00;  0.0000000E+00;  7.8651875E-02;  9.9268567E+02;  1.6558567E-01; -6.0005884E+03;3; -1.0452639E+02;  0.0000000E+00;  1.2224208E+01;0;  3.9319844E+00;  1.4692840E+04;  0.0000000E+00; -1.8056650E-01;  4.0000000E+04;  0.0000000E+00;  3.9071828E+04;  4.4008017E+00;  0.0000000E+00; -4.6881723E-01;  2.2211155E+03;
  1.5749940E+00;  9.9999998E-03; -2.0224613E-01;9039;  9.3978721E-01;  0.0000000E+00;  1.1478407E-01;  9.9314563E+02;  1.6547161E-01; -5.6230513E+03;3; -7.9444511E+01;  0.0000000E+00;  1.4053105E+01;0;  2.8649027E+00;  1.4681534E+04;  0.0000000E+00;  7.4675071E-01;  4.0000000E+04;  0.0000000E+00;  3.9129809E+04;  3.1836054E+00;  0.0000000E+00; -3.1870270E-01;  1.0096263E+04;
  1.5752200E+00;  9.9999998E-03; -1.2134339E-01;9047;  1.0339584E+00;  0.0000000E+00;  7.2537683E-02;  9.9298053E+02;  1.6548546E-01; -5.7583066E+03;3; -1.0785706E+02;  0.0000000E+00;  1.1487867E+01;0;  4.0368629E+00;  1.4723199E+04;  0.0000000E+00; -1.8085970E-01;  4.0000000E+04;  0.0000000E+00;  3.9064582E+04;  4.5206032E+00;  0.0000000E+00; -4.8374030E-01;  1.4274647E+03;
  1.5749167E+00;  9.9999998E-03; -2.5285777E-01;9034;  8.4637541E-01;  0.0000000E+00;  1.3500875E-01;  9.8622699E+02;  1.6580532E-01; -1.1298989E+04;3;  5.1156235E+01;  0.0000000E+00;  1.4373164E+01;0;  1.5696888E+00;  1.4421263E+04;  0.0000000E+00; -1.3937400E+01;  4.0000000E+04;  0.0000000E+00;  3.9216527E+04;  1.9508713E+00;  0.0000000E+00; -3.8118252E-01;  1.9893752E+04;
  1.5756527E+00;  9.9999998E-03; -1.1118188E-01;9048;  1.0480249E+00;  0.0000000E+00;  6.6415660E-02;  9.9333099E+02;  1.6539545E-01; -5.4704531E+03;3; -1.1085532E+02;  0.0000000E+00;  1.0766777E+01;0;  4.1288185E+00;  1.4752605E+04;  0.0000000E+00; -9.5758647E-02;  4.0000000E+04;  0.0000000E+00;  3.9058504E+04;  4.6252160E+00;  0.0000000E+00; -4.9639726E-01;  6.5020013E+02;
  1.5758768E+00;  9.9999998E-03; -2.1231683E-01;9038;  9.3683016E-01;  0.0000000E+00;  1.1894312E-01;  9.9243243E+02;  1.6531168E-01; -6.2073540E+03;3; -8.0151955E+01;  0.0000000E+00;  1.3397758E+01;0;  2.6786175E+00;  1.4685436E+04;  0.0000000E+00;  5.2993536E-01;  4.0000000E+04;  0.0000000E+00;  3.9148664E+04;  2.9863708E+00;  0.0000000E+00; -3.0775338E-01;  1.3676037E+04;
  1.5761349E+00;  9.9999998E-03; -2.4270989E-01;9035;  8.5953712E-01;  0.0000000E+00;  1.2839662E-01;  9.8718359E+02;  1.6549797E-01; -1.0512350E+04;3; -4.0875629E+01;  0.0000000E+00;  1.7786121E+01;0;  1.9311135E+00;  1.4502594E+04;  0.0000000E+00; -1.0675127E+01;  4.0000000E+04;  0.0000000E+00;  3.9209836E+04;  2.2539632E+00;  0.0000000E+00; -3.2284975E-01;  1.8086232E+04;
  1.5766057E+00;  9.9999998E-03; -2.2242686E-01;9037;  9.2537737E-01;  0.0000000E+00;  1.2231125E-01;  9.9096936E+02;  1.6522184E-01; -7.4066343E+03;3; -8.1556435E+01;  0.0000000E+00;  1.2237929E+01;0;  2.4744577E+00;  1.4658117E+04;  0.0000000E+00; -1.3074827E+00;  4.0000000E+04;  0.0000000E+00;  3.9171066E+04;  2.7795467E+00;  0.0000000E+00; -3.0508897E-01;  1.5907774E+04;
  1.5767758E+00;  9.9999998E-03; -2.3256357E-01;9036;  8.9884543E-01;  0.0000000E+00;  1.2485758E-01;  9.8897638E+02;  1.6527529E-01; -9.0409980E+03;3; -8.1600227E+01;  0.0000000E+00;  9.6500092E+00;0;  2.2338150E+00;  1.4592524E+04;  0.0000000E+00; -5.6302490E+00;  4.0000000E+04;  0.0000000E+00;  3.9193102E+04;  2.5425401E+00;  0.0000000E+00; -3.0872521E-01;  1.6158387E+04;
  1.5887232E+00;  9.9999998E-03; -2.6314864E-01;9092;  8.4616518E-01;  0.0000000E+00;  1.2473185E-01;  9.8572675E+02;  1.5903975E-01; -1.1683350E+04;3;  3.6475151E+01;  0.0000000E+00;  2.7631399E+01;0;  1.6609340E+00;  1.5680579E+04;  0.0000000E+00; -9.2687731E+00;  4.0000000E+04;  0.0000000E+00;  3.9172055E+04;  2.0905848E+00;  0.0000000E+00; -4.2965078E-01;  1.7737725E+04;
  1.5900637E+00;  9.9999998E-03; -2.5299978E-01;9093;  8.6680025E-01;  0.0000000E+00;  1.1610143E-01;  9.8549390E+02;  1.5878971E-01; -1.1871114E+04;3; -6.8672516E+01;  0.0000000E+00;  2.7647568E+01;0;  2.0558829E+00;  1.5723896E+04;  0.0000000E+00; -8.5015287E+00;  4.0000000E+04;  0.0000000E+00;  3.9180742E+04;  2.4058111E+00;  0.0000000E+00; -3.4992826E-01;  1.9238039E+04;
  1.5896440E+00;  9.9999998E-03; -1.7219515E-01;9101;  1.0484587E+00;  0.0000000E+00;  8.7149739E-02;  9.9488995E+02;  1.5855750E-01; -4.1821226E+03;3; -9.4649437E+01;  0.0000000E+00;  1.7708479E+01;0;  3.5232491E+00;  1.6079917E+04;  0.0000000E+00;  4.5788938E-01;  4.0000000E+04;  0.0000000E+00;  3.9062691E+04;  3.9053886E+00;  0.0000000E+00; -3.8213944E-01;  3.5523188E+03;
  1.5897633E+00;  9.9999998E-03; -1.8220544E-01;9100;  1.0351779E+00;  0.0000000E+00;  9.1421522E-02;  9.9511047E+02;  1.5851960E-01; -4.0015947E+03;3; -9.3616051E+01;  0.0000000E+00;  1.8595783E+01;0;  3.4041009E+00;  1.6088714E+04;  0.0000000E+00;  7.3509794E-01;  4.0000000E+04;  0.0000000E+00;  3.9067492E+04;  3.7718208E+00;  0.0000000E+00; -3.6771989E-01;  4.9002192E+03;
  1.5897045E+00;  9.9999998E-03; -1.6216391E-01;9102;  1.0622351E+00;  0.0000000E+00;  8.2600005E-02;  9.9460693E+02;  1.5855597E-01; -4.4137373E+03;3; -9.6344749E+01;  0.0000000E+00;  1.6714909E+01;0;  3.6312728E+00;  1.6077425E+04;  0.0000000E+00;  3.1572711E-01;  4.0000000E+04;  0.0000000E+00;  3.9059090E+04;  4.0280056E+00;  0.0000000E+00; -3.9673275E-01;  2.9440820E+03;
  1.5901266E+00;  9.9999998E-03; -1.9221498E-01;9099;  1.0251406E+00;  0.0000000E+00;  9.5714211E-02;  9.9511487E+02;  1.5844160E-01; -3.9977219E+03;3; -9.2812584E+01;  0.0000000E+00;  1.9012896E+01;0;  3.2756286E+00;  1.6098450E+04;  0.0000000E+00;  1.4933001E+00;  4.0000000E+04;  0.0000000E+00;  3.9077812E+04;  3.6304357E+00;  0.0000000E+00; -3.5480708E-01;  8.1759824E+03;
  1.5898880E+00;  9.9999998E-03; -1.5208605E-01;9103;  1.0766149E+00;  0.0000000E+00;  7.7736549E-02;  9.9435675E+02;  1.5852733E-01; -4.6183174E+03;3; -9.8392143E+01;  0.0000000E+00;  1.5809251E+01;0;  3.7270870E+00;  1.6082704E+04;  0.0000000E+00;  1.3216136E-01;  4.0000000E+04;  0.0000000E+00;  3.9054582E+04;  4.1378574E+00;  0.0000000E+00; -4.1077054E-01;  2.4706016E+03;
  1.5901369E+00;  9.9999998E-03; -1.4193659E-01;9104;  1.0904458E+00;  0.0000000E+00;  7.2687730E-02;  9.9421826E+02;  1.5847552E-01; -4.7314185E+03;3; -1.0056387E+02;  0.0000000E+00;  1.4920243E+01;0;  3.8105321E+00;  1.6095566E+04;  0.0000000E+00; -6.1706629E-02;  4.0000000E+04;  0.0000000E+00;  3.9048344E+04;  4.2343292E+00;  0.0000000E+00; -4.2379707E-01;  1.9806372E+03;
  1.5907161E+00;  9.9999998E-03; -2.0226078E-01;9098;  1.0168464E+00;  0.0000000E+00;  9.9950932E-02;  9.9465265E+02;  1.5833865E-01; -4.3755190E+03;3; -9.3895561E+01;  0.0000000E+00;  1.9322350E+01;0;  3.1391358E+00;  1.6098633E+04;  0.0000000E+00;  2.8420284E+00;  4.0000000E+04;  0.0000000E+00;  3.9095930E+04;  3.4844596E+00;  0.0000000E+00; -3.4532371E-01;  1.4018751E+04;
  1.5904317E+00;  9.9999998E-03; -1.3173632E-01;9105;  1.1045340E+00;  0.0000000E+00;  6.7476533E-02;  9.9422229E+02;  1.5841444E-01; -4.7278970E+03;3; -1.0273293E+02;  0.0000000E+00;  1.3927747E+01;0;  3.8816507E+00;  1.6115028E+04;  0.0000000E+00; -1.6977471E-01;  4.0000000E+04;  0.0000000E+00;  3.9041121E+04;  4.3170328E+00;  0.0000000E+00; -4.3538213E-01;  1.4314865E+03;
  1.5907639E+00;  9.9999998E-03; -1.2153015E-01;9106;  1.1184777E+00;  0.0000000E+00;  6.2199049E-02;  9.9438165E+02;  1.5834886E-01; -4.5971958E+03;3; -1.0446037E+02;  0.0000000E+00;  1.2928219E+01;0;  3.9410043E+00;  1.6139476E+04;  0.0000000E+00; -1.5847905E-01;  4.0000000E+04;  0.0000000E+00;  3.9034098E+04;  4.3862104E+00;  0.0000000E+00; -4.4520620E-01;  8.3110193E+02;
  1.5912704E+00;  9.9999998E-03; -2.4283925E-01;9094;  9.1358984E-01;  0.0000000E+00;  1.1259857E-01;  9.8654132E+02;  1.5851645E-01; -1.1011518E+04;3; -1.0747204E+02;  0.0000000E+00;  1.6243456E+01;0;  2.3744261E+00;  1.5810142E+04;  0.0000000E+00; -5.6840053E+00;  4.0000000E+04;  0.0000000E+00;  3.9179102E+04;  2.7207682E+00;  0.0000000E+00; -3.4634212E-01;  2.0629414E+04;
  1.5914259E+00;  9.9999998E-03; -2.1236834E-01;9097;  1.0071270E+00;  0.0000000E+00;  1.0375549E-01;  9.9340253E+02;  1.5824296E-01; -5.3977075E+03;3; -9.6640236E+01;  0.0000000E+00;  1.9750229E+01;0;  2.9937289E+00;  1.6074987E+04;  0.0000000E+00;  3.9322238E+00;  4.0000000E+04;  0.0000000E+00;  3.9118395E+04;  3.3345742E+00;  0.0000000E+00; -3.4084532E-01;  2.0742289E+04;
  1.5911164E+00;  9.9999998E-03; -1.1133330E-01;9107;  1.1321753E+00;  0.0000000E+00;  5.6894716E-02;  9.9466345E+02;  1.5828127E-01; -4.3663223E+03;3; -1.0592442E+02;  0.0000000E+00;  1.1979201E+01;0;  3.9901042E+00;  1.6166678E+04;  0.0000000E+00; -7.3848471E-02;  4.0000000E+04;  0.0000000E+00;  3.9026844E+04;  4.4433942E+00;  0.0000000E+00; -4.5329008E-01;  5.7752228E+02;
  1.5919851E+00;  9.9999998E-03; -2.3267739E-01;9095;  9.5842534E-01;  0.0000000E+00;  1.0980915E-01;  9.8867572E+02;  1.5829945E-01; -9.2639971E+03;3; -1.0696948E+02;  0.0000000E+00;  1.9393536E+01;0;  2.6324131E+00;  1.5918439E+04;  0.0000000E+00; -1.0562812E+00;  4.0000000E+04;  0.0000000E+00;  3.9163609E+04;  2.9761989E+00;  0.0000000E+00; -3.4378573E-01;  2.3017352E+04;
  1.5919763E+00;  9.9999998E-03; -2.2251725E-01;9096;  9.8959470E-01;  0.0000000E+00;  1.0682406E-01;  9.9124982E+02;  1.5821174E-01; -7.1582407E+03;3; -1.0188020E+02;  0.0000000E+00;  2.0252918E+01;0;  2.8318634E+00;  1.6014695E+04;  0.0000000E+00;  2.9039652E+00;  4.0000000E+04;  0.0000000E+00;  3.9141434E+04;  3.1725075E+00;  0.0000000E+00; -3.4064418E-01;  2.4343604E+04;
  1.6031400E+00;  9.9999998E-03; -2.6332051E-01;9150;  8.7137812E-01;  0.0000000E+00;  1.0310164E-01;  9.8580865E+02;  1.5300664E-01; -1.1583305E+04;3; -1.0885307E+02;  0.0000000E+00;  1.2198178E+01;0;  2.1631229E+00;  1.6971312E+04;  0.0000000E+00; -3.1531518E+00;  4.0000000E+04;  0.0000000E+00;  3.9118914E+04;  2.4831629E+00;  0.0000000E+00; -3.2003996E-01;  2.3452301E+04;
  1.6044477E+00;  9.9999998E-03; -2.5316378E-01;9151;  9.2413098E-01;  0.0000000E+00;  1.0112990E-01;  9.8524445E+02;  1.5280044E-01; -1.2040357E+04;3; -1.2892897E+02;  0.0000000E+00;  1.1280072E+01;0;  2.4770293E+00;  1.6997945E+04;  0.0000000E+00; -2.0105612E+00;  4.0000000E+04;  0.0000000E+00;  3.9135684E+04;  2.8293867E+00;  0.0000000E+00; -3.5235727E-01;  2.7978516E+04;
  1.6049693E+00;  9.9999998E-03; -1.8217850E-01;9158;  1.1113113E+00;  0.0000000E+00;  7.6838993E-02;  9.9696130E+02;  1.5235786E-01; -2.4792593E+03;3; -9.5838371E+01;  0.0000000E+00;  1.7517933E+01;0;  3.4378278E+00;  1.7503701E+04;  0.0000000E+00;  1.7625095E+00;  4.0000000E+04;  0.0000000E+00;  3.9020102E+04;  3.8010933E+00;  0.0000000E+00; -3.6326548E-01;  6.6443779E+03;
  1.6048974E+00;  9.9999998E-03; -1.7219722E-01;9159;  1.1247058E+00;  0.0000000E+00;  7.2780438E-02;  9.9685736E+02;  1.5237279E-01; -2.5641130E+03;3; -9.5371483E+01;  0.0000000E+00;  1.7172806E+01;0;  3.5030377E+00;  1.7502279E+04;  0.0000000E+00;  7.4812335E-01;  4.0000000E+04;  0.0000000E+00;  3.9013914E+04;  3.8715353E+00;  0.0000000E+00; -3.6849764E-01;  3.1941174E+03;
  1.6049628E+00;  9.9999998E-03; -1.6220503E-01;9160;  1.1387075E+00;  0.0000000E+00;  6.8832107E-02;  9.9659332E+02;  1.5236863E-01; -2.7795112E+03;3; -9.4796860E+01;  0.0000000E+00;  1.6435724E+01;0;  3.5583353E+00;  1.7499463E+04;  0.0000000E+00;  3.3791813E-01;  4.0000000E+04;  0.0000000E+00;  3.9012270E+04;  3.9326551E+00;  0.0000000E+00; -3.7431985E-01;  1.6448252E+03;
  1.6052268E+00;  9.9999998E-03; -1.9218805E-01;9157;  1.0989941E+00;  0.0000000E+00;  8.0875121E-02;  9.9672546E+02;  1.5231660E-01; -2.6715376E+03;3; -9.7345810E+01;  0.0000000E+00;  1.7980000E+01;0;  3.3637326E+00;  1.7497197E+04;  0.0000000E+00;  3.8353257E+00;  4.0000000E+04;  0.0000000E+00;  3.9036035E+04;  3.7230506E+00;  0.0000000E+00; -3.5931808E-01;  1.3082078E+04;
  1.6051028E+00;  9.9999998E-03; -1.5217891E-01;9161;  1.1523710E+00;  0.0000000E+00;  6.4766064E-02;  9.9627563E+02;  1.5234736E-01; -3.0385710E+03;3; -9.4824898E+01;  0.0000000E+00;  1.5652810E+01;0;  3.6035480E+00;  1.7498836E+04;  0.0000000E+00;  1.3529831E-01;  4.0000000E+04;  0.0000000E+00;  3.9011934E+04;  3.9839451E+00;  0.0000000E+00; -3.8039702E-01;  1.1072981E+03;
  1.6056284E+00;  9.9999998E-03; -2.4299444E-01;9152;  9.7375917E-01;  0.0000000E+00;  9.8042592E-02;  9.8609564E+02;  1.5256862E-01; -1.1342770E+04;3; -1.2499812E+02;  0.0000000E+00;  1.4250896E+01;0;  2.7399080E+00;  1.7077955E+04;  0.0000000E+00;  8.4866309E-01;  4.0000000E+04;  0.0000000E+00;  3.9138898E+04;  3.1019237E+00;  0.0000000E+00; -3.6201566E-01;  3.1707979E+04;
  1.6056789E+00;  9.9999998E-03; -2.0227526E-01;9156;  1.0870749E+00;  0.0000000E+00;  8.4501304E-02;  9.9585413E+02;  1.5226427E-01; -3.3820396E+03;3; -9.9980934E+01;  0.0000000E+00;  1.8169031E+01;0;  3.2822881E+00;  1.7471941E+04;  0.0000000E+00;  6.8499975E+00;  4.0000000E+04;  0.0000000E+00;  3.9060055E+04;  3.6395543E+00;  0.0000000E+00; -3.5726631E-01;  2.2493881E+04;
  1.6052808E+00;  9.9999998E-03; -1.4209455E-01;9162;  1.1654166E+00;  0.0000000E+00;  6.0475767E-02;  9.9600446E+02;  1.5231797E-01; -3.2597051E+03;3; -9.5206749E+01;  0.0000000E+00;  1.4844185E+01;0;  3.6390262E+00;  1.7502264E+04;  0.0000000E+00; -1.6243352E-02;  4.0000000E+04;  0.0000000E+00;  3.9009434E+04;  4.0255489E+00;  0.0000000E+00; -3.8652265E-01;  9.4311841E+02;
  1.6054715E+00;  9.9999998E-03; -1.3193986E-01;9163;  1.1778228E+00;  0.0000000E+00;  5.6069735E-02;  9.9583850E+02;  1.5228482E-01; -3.3949382E+03;3; -9.5756035E+01;  0.0000000E+00;  1.3926811E+01;0;  3.6656027E+00;  1.7510555E+04;  0.0000000E+00; -1.0895375E-01;  4.0000000E+04;  0.0000000E+00;  3.9005168E+04;  4.0579901E+00;  0.0000000E+00; -3.9238736E-01;  7.5970691E+02;
  1.6062386E+00;  9.9999998E-03; -2.1244463E-01;9155;  1.0733413E+00;  0.0000000E+00;  8.7818280E-02;  9.9398248E+02;  1.5222363E-01; -4.9082339E+03;3; -1.0508804E+02;  0.0000000E+00;  1.8190479E+01;0;  3.1932328E+00;  1.7414963E+04;  0.0000000E+00;  9.2657299E+00;  4.0000000E+04;  0.0000000E+00;  3.9083891E+04;  3.5508602E+00;  0.0000000E+00; -3.5762736E-01;  3.1864596E+04;
  1.6056787E+00;  9.9999998E-03; -1.2174073E-01;9164;  1.1900532E+00;  0.0000000E+00;  5.1632233E-02;  9.9581860E+02;  1.5225132E-01; -3.4110190E+03;3; -9.6144882E+01;  0.0000000E+00;  1.2968166E+01;0;  3.6840837E+00;  1.7524033E+04;  0.0000000E+00; -1.1049864E-01;  4.0000000E+04;  0.0000000E+00;  3.8999363E+04;  4.0816417E+00;  0.0000000E+00; -3.9755803E-01;  5.5469739E+02;
  1.6064334E+00;  9.9999998E-03; -2.3281758E-01;9153;  1.0186948E+00;  0.0000000E+00;  9.4489954E-02;  9.8824915E+02;  1.5236150E-01; -9.5842822E+03;3; -1.1916431E+02;  0.0000000E+00;  1.6511938E+01;0;  2.9435365E+00;  1.7195346E+04;  0.0000000E+00;  5.0147724E+00;  4.0000000E+04;  0.0000000E+00;  3.9127012E+04;  3.3060281E+00;  0.0000000E+00; -3.6249161E-01;  3.5001891E+04;
  1.6066127E+00;  9.9999998E-03; -2.2263542E-01;9154;  1.0525874E+00;  0.0000000E+00;  9.0942010E-02;  9.9118829E+02;  1.5224259E-01; -7.1867373E+03;3; -1.1220761E+02;  0.0000000E+00;  1.7528748E+01;0;  3.0883985E+00;  1.7318592E+04;  0.0000000E+00;  8.7153425E+00;  4.0000000E+04;  0.0000000E+00;  3.9105984E+04;  3.4479604E+00;  0.0000000E+00; -3.5956183E-01;  3.6342594E+04;
  1.6059331E+00;  9.9999998E-03; -1.1152802E-01;9165;  1.2022833E+00;  0.0000000E+00;  4.7198098E-02;  9.9595184E+02;  1.5220900E-01; -3.3021558E+03;3; -9.6280952E+01;  0.0000000E+00;  1.2061826E+01;0;  3.6950457E+00;  1.7543740E+04;  0.0000000E+00; -4.5848001E-02;  4.0000000E+04;  0.0000000E+00;  3.8993133E+04;  4.0966716E+00;  0.0000000E+00; -4.0162581E-01;  7.8885944E+02;
  1.6169189E+00;  9.9999998E-03; -2.6351354E-01;9207;  9.2960310E-01;  0.0000000E+00;  9.0254270E-02;  9.8685260E+02;  1.4783438E-01; -1.0695584E+04;3; -1.4854581E+02;  0.0000000E+00;  6.2221637E+00;0;  2.5433326E+00;  1.8244830E+04;  0.0000000E+00;  2.7166834E+00;  4.0000000E+04;  0.0000000E+00;  3.9057906E+04;  2.8539441E+00;  0.0000000E+00; -3.1061137E-01;  2.8910959E+04;
  1.6182245E+00;  9.9999998E-03; -2.5335243E-01;9208;  9.8425174E-01;  0.0000000E+00;  8.7758064E-02;  9.8561279E+02;  1.4767177E-01; -1.1700056E+04;3; -1.3987700E+02;  0.0000000E+00;  1.0710278E+01;0;  2.8147602E+00;  1.8239906E+04;  0.0000000E+00;  4.3858500E+00;  4.0000000E+04;  0.0000000E+00;  3.9081688E+04;  3.1637549E+00;  0.0000000E+00; -3.4899461E-01;  3.6708156E+04;
  1.6194297E+00;  9.9999998E-03; -2.4317805E-01;9209;  1.0347507E+00;  0.0000000E+00;  8.3719857E-02;  9.8583698E+02;  1.4748023E-01; -1.1513961E+04;3; -1.3237476E+02;  0.0000000E+00;  1.4041624E+01;0;  3.0273774E+00;  1.8296750E+04;  0.0000000E+00;  7.2309618E+00;  4.0000000E+04;  0.0000000E+00;  3.9090297E+04;  3.3883808E+00;  0.0000000E+00; -3.6100343E-01;  4.2120355E+04;
  1.6195427E+00;  9.9999998E-03; -1.8209492E-01;9215;  1.1768788E+00;  0.0000000E+00;  6.3311063E-02;  9.9845471E+02;  1.4710973E-01; -1.2562356E+03;3; -9.3262886E+01;  0.0000000E+00;  1.7007244E+01;0;  3.3522601E+00;  1.8859467E+04;  0.0000000E+00;  4.2919993E+00;  4.0000000E+04;  0.0000000E+00;  3.8970688E+04;  3.7027929E+00;  0.0000000E+00; -3.5053274E-01;  1.2111445E+04;
  1.6195492E+00;  9.9999998E-03; -1.7211992E-01;9216;  1.1907823E+00;  0.0000000E+00;  5.9558894E-02;  9.9851324E+02;  1.4710581E-01; -1.2086509E+03;3; -9.0640594E+01;  0.0000000E+00;  1.6311237E+01;0;  3.3624456E+00;  1.8870391E+04;  0.0000000E+00;  1.9830484E+00;  4.0000000E+04;  0.0000000E+00;  3.8957418E+04;  3.7100801E+00;  0.0000000E+00; -3.4763452E-01;  6.2440298E+03;
  1.6196784E+00;  9.9999998E-03; -1.9214939E-01;9214;  1.1629832E+00;  0.0000000E+00;  6.6809319E-02;  9.9795013E+02;  1.4710265E-01; -1.6663417E+03;3; -9.6863937E+01;  0.0000000E+00;  1.7171751E+01;0;  3.3357491E+00;  1.8831061E+04;  0.0000000E+00;  8.2179403E+00;  4.0000000E+04;  0.0000000E+00;  3.8995418E+04;  3.6900122E+00;  0.0000000E+00; -3.5426319E-01;  2.1866043E+04;
  1.6196369E+00;  9.9999998E-03; -1.6216420E-01;9217;  1.2043520E+00;  0.0000000E+00;  5.5953503E-02;  9.9833997E+02;  1.4709476E-01; -1.3494757E+03;3; -8.8713432E+01;  0.0000000E+00;  1.5552612E+01;0;  3.3661160E+00;  1.8871367E+04;  0.0000000E+00;  8.7076777E-01;  4.0000000E+04;  0.0000000E+00;  3.8955094E+04;  3.7117836E+00;  0.0000000E+00; -3.4566757E-01;  3.1363875E+03;
  1.6197611E+00;  9.9999998E-03; -1.5218978E-01;9218;  1.2169096E+00;  0.0000000E+00;  5.2445926E-02;  9.9803375E+02;  1.4707910E-01; -1.5983259E+03;3; -8.7122734E+01;  0.0000000E+00;  1.4923450E+01;0;  3.3637393E+00;  1.8867553E+04;  0.0000000E+00;  3.7683725E-01;  4.0000000E+04;  0.0000000E+00;  3.8957355E+04;  3.7083209E+00;  0.0000000E+00; -3.4458160E-01;  1.4639641E+03;
  1.6200119E+00;  9.9999998E-03; -2.0232648E-01;9213;  1.1495883E+00;  0.0000000E+00;  6.9956988E-02;  9.9657800E+02;  1.4709347E-01; -2.7815176E+03;3; -1.0207205E+02;  0.0000000E+00;  1.7248743E+01;0;  3.3143029E+00;  1.8775197E+04;  0.0000000E+00;  1.3081919E+01;  4.0000000E+04;  0.0000000E+00;  3.9022816E+04;  3.6728263E+00;  0.0000000E+00; -3.5852337E-01;  3.4408961E+04;
  1.6198869E+00;  9.9999998E-03; -1.4217107E-01;9219;  1.2284245E+00;  0.0000000E+00;  4.8869397E-02;  9.9769385E+02;  1.4706245E-01; -1.8745808E+03;3; -8.6047729E+01;  0.0000000E+00;  1.4255883E+01;0;  3.3561015E+00;  1.8862818E+04;  0.0000000E+00;  1.3209008E-01;  4.0000000E+04;  0.0000000E+00;  3.8959418E+04;  3.7004747E+00;  0.0000000E+00; -3.4437329E-01;  5.2961621E+02;
  1.6200051E+00;  9.9999998E-03; -1.3208444E-01;9220;  1.2391266E+00;  0.0000000E+00;  4.5194827E-02;  9.9739630E+02;  1.4704718E-01; -2.1163738E+03;3; -8.5241501E+01;  0.0000000E+00;  1.3445186E+01;0;  3.3438399E+00;  1.8860291E+04;  0.0000000E+00; -1.9698946E-03;  4.0000000E+04;  0.0000000E+00;  3.8959594E+04;  3.6886923E+00;  0.0000000E+00; -3.4485239E-01;  3.1441013E+02;
  1.6203300E+00;  9.9999998E-03; -2.3299125E-01;9210;  1.0791355E+00;  0.0000000E+00;  7.9781301E-02;  9.8765839E+02;  1.4729258E-01; -1.0030733E+04;3; -1.2529668E+02;  0.0000000E+00;  1.6154423E+01;0;  3.1677978E+00;  1.8408932E+04;  0.0000000E+00;  1.1275707E+01;  4.0000000E+04;  0.0000000E+00;  3.9082293E+04;  3.5343208E+00;  0.0000000E+00; -3.6652297E-01;  4.6180398E+04;
  1.6204635E+00;  9.9999998E-03; -2.1257088E-01;9212;  1.1352618E+00;  0.0000000E+00;  7.3033176E-02;  9.9400177E+02;  1.4709951E-01; -4.8749390E+03;3; -1.0876314E+02;  0.0000000E+00;  1.7275118E+01;0;  3.2882683E+00;  1.8680865E+04;  0.0000000E+00;  1.6294855E+01;  4.0000000E+04;  0.0000000E+00;  3.9042387E+04;  3.6514146E+00;  0.0000000E+00; -3.6314631E-01;  4.4909121E+04;
  1.6201347E+00;  9.9999998E-03; -1.2192473E-01;9221;  1.2494465E+00;  0.0000000E+00;  4.1504219E-02;  9.9719501E+02;  1.4702946E-01; -2.2799023E+03;3; -8.4574326E+01;  0.0000000E+00;  1.2600802E+01;0;  3.3272018E+00;  1.8863020E+04;  0.0000000E+00; -4.8960142E-02;  4.0000000E+04;  0.0000000E+00;  3.8957348E+04;  3.6727691E+00;  0.0000000E+00; -3.4556717E-01;  5.5072974E+02;
  1.6206833E+00;  9.9999998E-03; -2.2279313E-01;9211;  1.1136787E+00;  0.0000000E+00;  7.6200113E-02;  9.9068225E+02;  1.4715835E-01; -7.5723198E+03;3; -1.1681394E+02;  0.0000000E+00;  1.7062000E+01;0;  3.2479138E+00;  1.8549648E+04;  0.0000000E+00;  1.5334804E+01;  4.0000000E+04;  0.0000000E+00;  3.9062676E+04;  3.6144648E+00;  0.0000000E+00; -3.6655098E-01;  4.8440148E+04;
  1.6202950E+00;  9.9999998E-03; -1.1172006E-01;9222;  1.2597886E+00;  0.0000000E+00;  3.7819799E-02;  9.9714758E+02;  1.4700653E-01; -2.3183623E+03;3; -8.3733711E+01;  0.0000000E+00;  1.1720725E+01;0;  3.3066888E+00;  1.8872242E+04;  0.0000000E+00; -2.7028125E-02;  4.0000000E+04;  0.0000000E+00;  3.8953082E+04;  3.6527274E+00;  0.0000000E+00; -3.4603861E-01;  8.8813019E+02;
  1.6302046E+00;  9.9999998E-03; -2.6373565E-01;9264;  9.8931903E-01;  0.0000000E+00;  7.6810531E-02;  9.8881219E+02;  1.4339072E-01; -9.0661064E+03;3; -1.5796762E+02;  0.0000000E+00;  6.0971141E+00;0;  2.8531585E+00;  1.9502471E+04;  0.0000000E+00;  6.6563959E+00;  4.0000000E+04;  0.0000000E+00;  3.8981219E+04;  3.1266787E+00;  0.0000000E+00; -2.7352026E-01;  2.9030012E+04;
  1.6315136E+00;  9.9999998E-03; -2.5357455E-01;9265;  1.0430464E+00;  0.0000000E+00;  7.3866941E-02;  9.8664722E+02;  1.4326824E-01; -1.0815963E+04;3; -1.4714670E+02;  0.0000000E+00;  1.0369685E+01;0;  3.0747936E+00;  1.9451854E+04;  0.0000000E+00;  9.2698078E+00;  4.0000000E+04;  0.0000000E+00;  3.9011934E+04;  3.3947325E+00;  0.0000000E+00; -3.1993899E-01;  4.0823707E+04;
  1.6327456E+00;  9.9999998E-03; -2.4339865E-01;9266;  1.0909971E+00;  0.0000000E+00;  7.0125066E-02;  9.8590552E+02;  1.4311828E-01; -1.1412084E+04;3; -1.3800394E+02;  0.0000000E+00;  1.3717883E+01;0;  3.2203660E+00;  1.9466875E+04;  0.0000000E+00;  1.2490249E+01;  4.0000000E+04;  0.0000000E+00;  3.9027691E+04;  3.5668688E+00;  0.0000000E+00; -3.4650287E-01;  4.8643062E+04;
  1.6337262E+00;  9.9999998E-03; -2.3320799E-01;9267;  1.1329945E+00;  0.0000000E+00;  6.6433869E-02;  9.8700928E+02;  1.4295857E-01; -1.0514937E+04;3; -1.2914052E+02;  0.0000000E+00;  1.5716309E+01;0;  3.2951393E+00;  1.9555047E+04;  0.0000000E+00;  1.6826469E+01;  4.0000000E+04;  0.0000000E+00;  3.9025398E+04;  3.6564863E+00;  0.0000000E+00; -3.6134702E-01;  5.4404484E+04;
  1.6335160E+00;  9.9999998E-03; -1.9217704E-01;9271;  1.2171171E+00;  0.0000000E+00;  5.3646766E-02;  9.9865314E+02;  1.4268403E-01; -1.0902731E+03;3; -9.3324974E+01;  0.0000000E+00;  1.6436028E+01;0;  3.2246394E+00;  2.0074047E+04;  0.0000000E+00;  1.5144897E+01;  4.0000000E+04;  0.0000000E+00;  3.8953723E+04;  3.5672925E+00;  0.0000000E+00; -3.4265313E-01;  3.3860340E+04;
  1.6334747E+00;  9.9999998E-03; -1.8201783E-01;9272;  1.2312727E+00;  0.0000000E+00;  5.0711025E-02;  9.9950897E+02;  1.4266311E-01; -3.9747729E+02;3; -8.7817513E+01;  0.0000000E+00;  1.6333553E+01;0;  3.1864204E+00;  2.0127463E+04;  0.0000000E+00;  8.9378080E+00;  4.0000000E+04;  0.0000000E+00;  3.8921930E+04;  3.5192127E+00;  0.0000000E+00; -3.3279222E-01;  2.0628043E+04;
  1.6338278E+00;  9.9999998E-03; -2.0247059E-01;9270;  1.2046936E+00;  0.0000000E+00;  5.6467138E-02;  9.9660394E+02;  1.4270195E-01; -2.7487224E+03;3; -1.0006960E+02;  0.0000000E+00;  1.6371412E+01;0;  3.2617359E+00;  1.9985492E+04;  0.0000000E+00;  2.1370031E+01;  4.0000000E+04;  0.0000000E+00;  3.8975422E+04;  3.6136377E+00;  0.0000000E+00; -3.5190171E-01;  4.8183312E+04;
  1.6342657E+00;  9.9999998E-03; -2.2300115E-01;9268;  1.1675961E+00;  0.0000000E+00;  6.2627956E-02;  9.8971552E+02;  1.4282107E-01; -8.3229434E+03;3; -1.1819437E+02;  0.0000000E+00;  1.6374456E+01;0;  3.3167098E+00;  1.9696381E+04;  0.0000000E+00;  2.1499586E+01;  4.0000000E+04;  0.0000000E+00;  3.9008922E+04;  3.6801648E+00;  0.0000000E+00; -3.6345515E-01;  5.8100672E+04;
  1.6336014E+00;  9.9999998E-03; -1.7199910E-01;9273;  1.2455781E+00;  0.0000000E+00;  4.7452454E-02;  9.9973804E+02;  1.4263612E-01; -2.1204640E+02;3; -8.3421860E+01;  0.0000000E+00;  1.6091412E+01;0;  3.1454041E+00;  2.0156650E+04;  0.0000000E+00;  4.6796165E+00;  4.0000000E+04;  0.0000000E+00;  3.8898152E+04;  3.4684246E+00;  0.0000000E+00; -3.2302055E-01;  1.1745331E+04;
  1.6342268E+00;  9.9999998E-03; -2.1276529E-01;9269;  1.1909232E+00;  0.0000000E+00;  5.9386201E-02;  9.9330426E+02;  1.4273787E-01; -5.4187520E+03;3; -1.0808875E+02;  0.0000000E+00;  1.6649519E+01;0;  3.2975240E+00;  1.9853676E+04;  0.0000000E+00;  2.3925598E+01;  4.0000000E+04;  0.0000000E+00;  3.8989227E+04;  3.6570914E+00;  0.0000000E+00; -3.5956731E-01;  5.7173727E+04;
  1.6337773E+00;  9.9999998E-03; -1.6205168E-01;9274;  1.2588092E+00;  0.0000000E+00;  4.4210400E-02;  9.9968842E+02;  1.4261231E-01; -2.5222141E+02;3; -7.9912086E+01;  0.0000000E+00;  1.5086825E+01;0;  3.1020243E+00;  2.0168568E+04;  0.0000000E+00;  2.2874835E+00;  4.0000000E+04;  0.0000000E+00;  3.8888793E+04;  3.4162290E+00;  0.0000000E+00; -3.1420469E-01;  6.7782085E+03;
  1.6339433E+00;  9.9999998E-03; -1.5211451E-01;9275;  1.2704905E+00;  0.0000000E+00;  4.1155390E-02;  9.9946753E+02;  1.4259170E-01; -4.3094250E+02;3; -7.6963921E+01;  0.0000000E+00;  1.4478981E+01;0;  3.0574167E+00;  2.0168426E+04;  0.0000000E+00;  1.0818018E+00;  4.0000000E+04;  0.0000000E+00;  3.8889715E+04;  3.3640990E+00;  0.0000000E+00; -3.0668226E-01;  4.1131558E+03;
  1.6340783E+00;  9.9999998E-03; -1.4214854E-01;9276;  1.2806430E+00;  0.0000000E+00;  3.8104851E-02;  9.9914172E+02;  1.4257640E-01; -6.9459961E+02;3; -7.4649406E+01;  0.0000000E+00;  1.3702983E+01;0;  3.0123968E+00;  2.0161256E+04;  0.0000000E+00;  4.9026331E-01;  4.0000000E+04;  0.0000000E+00;  3.8894855E+04;  3.3130083E+00;  0.0000000E+00; -3.0061153E-01;  2.5557310E+03;
  1.6341702E+00;  9.9999998E-03; -1.3212651E-01;9277;  1.2896601E+00;  0.0000000E+00;  3.5053510E-02;  9.9878467E+02;  1.4256556E-01; -9.8357141E+02;3; -7.2801704E+01;  0.0000000E+00;  1.2966166E+01;0;  2.9675825E+00;  2.0151363E+04;  0.0000000E+00;  1.8920438E-01;  4.0000000E+04;  0.0000000E+00;  3.8900227E+04;  3.2635670E+00;  0.0000000E+00; -2.9598451E-01;  1.6343164E+03;
  1.6342368E+00;  9.9999998E-03; -1.2202960E-01;9278;  1.2980165E+00;  0.0000000E+00;  3.2018282E-02;  9.9845782E+02;  1.4255795E-01; -1.2480317E+03;3; -7.1162849E+01;  0.0000000E+00;  1.2132067E+01;0;  2.9229054E+00;  2.0143061E+04;  0.0000000E+00;  3.9141379E-02;  4.0000000E+04;  0.0000000E+00;  3.8903062E+04;  3.2153981E+00;  0.0000000E+00; -2.9249269E-01;  1.2202531E+03;
  1.6343035E+00;  9.9999998E-03; -1.1186641E-01;9279;  1.3061347E+00;  0.0000000E+00;  2.9066199E-02;  9.9823798E+02;  1.4255303E-01; -1.4259452E+03;3; -6.9660904E+01;  0.0000000E+00;  1.1213042E+01;0;  2.8783188E+00;  2.0139264E+04;  0.0000000E+00; -1.4163741E-02;  4.0000000E+04;  0.0000000E+00;  3.8902758E+04;  3.1680024E+00;  0.0000000E+00; -2.8968352E-01;  1.1790199E+03;
  1.6431404E+00;  9.9999998E-03; -2.6398331E-01;9320;  1.0460151E+00;  0.0000000E+00;  6.5273851E-02;  9.9151367E+02;  1.3956863E-01; -6.8457695E+03;3; -1.6375102E+02;  0.0000000E+00;  5.9657865E+00;0;  3.0375147E+00;  2.0736244E+04;  0.0000000E+00;  6.9865255E+00;  4.0000000E+04;  0.0000000E+00;  3.8892613E+04;  3.2859044E+00;  0.0000000E+00; -2.4838984E-01;  2.1294400E+04;
  1.6443784E+00;  9.9999998E-03; -2.5382692E-01;9321;  1.0960457E+00;  0.0000000E+00;  6.2562861E-02;  9.8863354E+02;  1.3948350E-01; -9.1646982E+03;3; -1.5135620E+02;  0.0000000E+00;  1.0175532E+01;0;  3.2051055E+00;  2.0641828E+04;  0.0000000E+00;  1.2018125E+01;  4.0000000E+04;  0.0000000E+00;  3.8928129E+04;  3.5088842E+00;  0.0000000E+00; -3.0377871E-01;  3.9418738E+04;
  1.6456121E+00;  9.9999998E-03; -2.4365355E-01;9322;  1.1411568E+00;  0.0000000E+00;  5.8813129E-02;  9.8672723E+02;  1.3937809E-01; -1.0696569E+04;3; -1.3863446E+02;  0.0000000E+00;  1.2502970E+01;0;  3.3014607E+00;  2.0599391E+04;  0.0000000E+00;  1.6456757E+01;  4.0000000E+04;  0.0000000E+00;  3.8951148E+04;  3.6373310E+00;  0.0000000E+00; -3.3587027E-01;  5.1028637E+04;
  1.6466634E+00;  9.9999998E-03; -2.3346402E-01;9323;  1.1815392E+00;  0.0000000E+00;  5.4717660E-02;  9.8669470E+02;  1.3925108E-01; -1.0718289E+04;3; -1.2718488E+02;  0.0000000E+00;  1.4311897E+01;0;  3.3331103E+00;  2.0640432E+04;  0.0000000E+00;  2.1225895E+01;  4.0000000E+04;  0.0000000E+00;  3.8955773E+04;  3.6844108E+00;  0.0000000E+00; -3.5130051E-01;  5.8927066E+04;
  1.6469340E+00;  9.9999998E-03; -1.9232963E-01;9327;  1.2636232E+00;  0.0000000E+00;  4.1856032E-02;  9.9868109E+02;  1.3892920E-01; -1.0623691E+03;3; -8.8166771E+01;  0.0000000E+00;  1.5979259E+01;0;  3.0611355E+00;  2.1213461E+04;  0.0000000E+00;  2.4425455E+01;  4.0000000E+04;  0.0000000E+00;  3.8904195E+04;  3.3886299E+00;  0.0000000E+00; -3.2749444E-01;  4.7759414E+04;
  1.6473700E+00;  9.9999998E-03; -2.2325517E-01;9324;  1.2156640E+00;  0.0000000E+00;  5.0828166E-02;  9.8861084E+02;  1.3912378E-01; -9.1720654E+03;3; -1.1579272E+02;  0.0000000E+00;  1.5347668E+01;0;  3.3076916E+00;  2.0758449E+04;  0.0000000E+00;  2.6545029E+01;  4.0000000E+04;  0.0000000E+00;  3.8944309E+04;  3.6631072E+00;  0.0000000E+00; -3.5541555E-01;  6.4389539E+04;
  1.6468940E+00;  9.9999998E-03; -1.8201914E-01;9328;  1.2757177E+00;  0.0000000E+00;  3.9351869E-02;  1.0000789E+03;  1.3889076E-01;  6.3566502E+01;3; -8.1125046E+01;  0.0000000E+00;  1.5702499E+01;0;  2.9750443E+00;  2.1293979E+04;  0.0000000E+00;  1.6179567E+01;  4.0000000E+04;  0.0000000E+00;  3.8875379E+04;  3.2877028E+00;  0.0000000E+00; -3.1265852E-01;  3.1927799E+04;
  1.6472882E+00;  9.9999998E-03; -2.0271277E-01;9326;  1.2539593E+00;  0.0000000E+00;  4.4645399E-02;  9.9577515E+02;  1.3896722E-01; -3.4025205E+03;3; -9.5581024E+01;  0.0000000E+00;  1.5750400E+01;0;  3.1502414E+00;  2.1088434E+04;  0.0000000E+00;  3.0363314E+01;  4.0000000E+04;  0.0000000E+00;  3.8913676E+04;  3.4915576E+00;  0.0000000E+00; -3.4131613E-01;  6.1057996E+04;
  1.6475697E+00;  9.9999998E-03; -2.1301739E-01;9325;  1.2400961E+00;  0.0000000E+00;  4.7548208E-02;  9.9197498E+02;  1.3902467E-01; -6.4623252E+03;3; -1.0462477E+02;  0.0000000E+00;  1.5496208E+01;0;  3.2387960E+00;  2.0923281E+04;  0.0000000E+00;  3.0670231E+01;  4.0000000E+04;  0.0000000E+00;  3.8925512E+04;  3.5904608E+00;  0.0000000E+00; -3.5166481E-01;  6.6263273E+04;
  1.6471337E+00;  9.9999998E-03; -1.7189193E-01;9329;  1.2895744E+00;  0.0000000E+00;  3.6626305E-02;  1.0005063E+03;  1.3884538E-01;  4.0776541E+02;3; -7.4934235E+01;  0.0000000E+00;  1.5283724E+01;0;  2.8901792E+00;  2.1344195E+04;  0.0000000E+00;  9.3879728E+00;  4.0000000E+04;  0.0000000E+00;  3.8840438E+04;  3.1873004E+00;  0.0000000E+00; -2.9712120E-01;  1.9472586E+04;
  1.6474422E+00;  9.9999998E-03; -1.6190135E-01;9330;  1.3025539E+00;  0.0000000E+00;  3.3733144E-02;  1.0005698E+03;  1.3880444E-01;  4.5888263E+02;3; -6.9851570E+01;  0.0000000E+00;  1.4458911E+01;0;  2.8070307E+00;  2.1372277E+04;  0.0000000E+00;  5.0471230E+00;  4.0000000E+04;  0.0000000E+00;  3.8818516E+04;  3.0892596E+00;  0.0000000E+00; -2.8222907E-01;  1.1816557E+04;
  1.6477031E+00;  9.9999998E-03; -1.5196832E-01;9331;  1.3136084E+00;  0.0000000E+00;  3.1016694E-02;  1.0004652E+03;  1.3877337E-01;  3.7455426E+02;3; -6.5640984E+01;  0.0000000E+00;  1.3629071E+01;0;  2.7273331E+00;  2.1382383E+04;  0.0000000E+00;  2.5858665E+00;  4.0000000E+04;  0.0000000E+00;  3.8812145E+04;  2.9962263E+00;  0.0000000E+00; -2.6889333E-01;  7.6146743E+03;
  1.6478866E+00;  9.9999998E-03; -1.4203596E-01;9332;  1.3227098E+00;  0.0000000E+00;  2.8409274E-02;  1.0002213E+03;  1.3875288E-01;  1.7824065E+02;3; -6.2296474E+01;  0.0000000E+00;  1.2916486E+01;0;  2.6520622E+00;  2.1378826E+04;  0.0000000E+00;  1.2667438E+00;  4.0000000E+04;  0.0000000E+00;  3.8816266E+04;  2.9095082E+00;  0.0000000E+00; -2.5744608E-01;  5.2032920E+03;
  1.6479875E+00;  9.9999998E-03; -1.3206607E-01;9333;  1.3302375E+00;  0.0000000E+00;  2.5891170E-02;  9.9990735E+02;  1.3874611E-01; -7.4575806E+01;3; -5.9647442E+01;  0.0000000E+00;  1.2106299E+01;0;  2.5815170E+00;  2.1366574E+04;  0.0000000E+00;  5.7036346E-01;  4.0000000E+04;  0.0000000E+00;  3.8824762E+04;  2.8295329E+00;  0.0000000E+00; -2.4801584E-01;  3.6271572E+03;
  1.6480238E+00;  9.9999998E-03; -1.2203334E-01;9334;  1.3367590E+00;  0.0000000E+00;  2.3441043E-02;  9.9953210E+02;  1.3874243E-01; -3.7671255E+02;3; -5.7407944E+01;  0.0000000E+00;  1.1289633E+01;0;  2.5152795E+00;  2.1350604E+04;  0.0000000E+00;  2.0357586E-01;  4.0000000E+04;  0.0000000E+00;  3.8832762E+04;  2.7557566E+00;  0.0000000E+00; -2.4047716E-01;  2.5698174E+03;
  1.6480248E+00;  9.9999998E-03; -1.1193401E-01;9335;  1.3427870E+00;  0.0000000E+00;  2.1092236E-02;  9.9920190E+02;  1.3874617E-01; -6.4257062E+02;3; -5.5392567E+01;  0.0000000E+00;  1.0339012E+01;0;  2.4527261E+00;  2.1335672E+04;  0.0000000E+00;  2.3217034E-02;  4.0000000E+04;  0.0000000E+00;  3.8838477E+04;  2.6872213E+00;  0.0000000E+00; -2.3449509E-01;  1.9475525E+03;
  1.6558900E+00;  9.9999998E-03; -2.6424849E-01;9375;  1.1010971E+00;  0.0000000E+00;  5.4677378E-02;  9.9435956E+02;  1.3628505E-01; -4.5257803E+03;3; -1.6587624E+02;  0.0000000E+00;  5.9392953E+00;0;  3.1194558E+00;  2.1915965E+04;  0.0000000E+00;  3.8366387E+00;  4.0000000E+04;  0.0000000E+00;  3.8800277E+04;  3.3426161E+00;  0.0000000E+00; -2.2316039E-01;  7.2101489E+03;
  1.6569451E+00;  9.9999998E-03; -2.5410503E-01;9376;  1.1458594E+00;  0.0000000E+00;  5.1162325E-02;  9.9149329E+02;  1.3622706E-01; -6.8223018E+03;3; -1.5083914E+02;  0.0000000E+00;  8.5292873E+00;0;  3.2526796E+00;  2.1808945E+04;  0.0000000E+00;  1.0852111E+01;  4.0000000E+04;  0.0000000E+00;  3.8832625E+04;  3.5213501E+00;  0.0000000E+00; -2.6867065E-01;  3.0602066E+04;
  1.6581230E+00;  9.9999998E-03; -2.4394059E-01;9377;  1.1877015E+00;  0.0000000E+00;  4.7734715E-02;  9.8850385E+02;  1.3616101E-01; -9.2147080E+03;3; -1.3774055E+02;  0.0000000E+00;  1.1259140E+01;0;  3.3080192E+00;  2.1706346E+04;  0.0000000E+00;  1.7832018E+01;  4.0000000E+04;  0.0000000E+00;  3.8859762E+04;  3.6173358E+00;  0.0000000E+00; -3.0931666E-01;  4.7600566E+04;
  1.6592005E+00;  9.9999998E-03; -2.3375851E-01;9378;  1.2249026E+00;  0.0000000E+00;  4.3997474E-02;  9.8709900E+02;  1.3607445E-01; -1.0335505E+04;3; -1.2498434E+02;  0.0000000E+00;  1.2909610E+01;0;  3.2988613E+00;  2.1681770E+04;  0.0000000E+00;  2.3928450E+01;  4.0000000E+04;  0.0000000E+00;  3.8870629E+04;  3.6318469E+00;  0.0000000E+00; -3.3298555E-01;  5.8920008E+04;
  1.6600295E+00;  9.9999998E-03; -2.2355558E-01;9379;  1.2564627E+00;  0.0000000E+00;  4.0500332E-02;  9.8779303E+02;  1.3597256E-01; -9.7755889E+03;3; -1.1319834E+02;  0.0000000E+00;  1.3848824E+01;0;  3.2330387E+00;  2.1750639E+04;  0.0000000E+00;  3.0060234E+01;  4.0000000E+04;  0.0000000E+00;  3.8865133E+04;  3.5763829E+00;  0.0000000E+00; -3.4334418E-01;  6.6711336E+04;
  1.6600823E+00;  9.9999998E-03; -1.9263755E-01;9382;  1.3050203E+00;  0.0000000E+00;  3.1453256E-02;  9.9778302E+02;  1.3574533E-01; -1.7753690E+03;3; -8.1448128E+01;  0.0000000E+00;  1.4816602E+01;0;  2.8715539E+00;  2.2235748E+04;  0.0000000E+00;  3.4684731E+01;  4.0000000E+04;  0.0000000E+00;  3.8833566E+04;  3.1823843E+00;  0.0000000E+00; -3.1083027E-01;  6.0864434E+04;
  1.6599094E+00;  9.9999998E-03; -1.8219008E-01;9383;  1.3130261E+00;  0.0000000E+00;  2.9158823E-02;  1.0000592E+03;  1.3570021E-01;  4.7448959E+01;3; -7.3928772E+01;  0.0000000E+00;  1.4571962E+01;0;  2.7467315E+00;  2.2348576E+04;  0.0000000E+00;  2.6144793E+01;  4.0000000E+04;  0.0000000E+00;  3.8821195E+04;  3.0385036E+00;  0.0000000E+00; -2.9177213E-01;  4.5288223E+04;
  1.6604710E+00;  9.9999998E-03; -2.1332370E-01;9380;  1.2810594E+00;  0.0000000E+00;  3.7121750E-02;  9.9037793E+02;  1.3587268E-01; -7.7039219E+03;3; -1.0046806E+02;  0.0000000E+00;  1.4410524E+01;0;  3.1288645E+00;  2.1894559E+04;  0.0000000E+00;  3.5521015E+01;  4.0000000E+04;  0.0000000E+00;  3.8849102E+04;  3.4688234E+00;  0.0000000E+00; -3.3995882E-01;  7.0982469E+04;
  1.6604285E+00;  9.9999998E-03; -2.0303635E-01;9381;  1.2967449E+00;  0.0000000E+00;  3.4153961E-02;  9.9411206E+02;  1.3579571E-01; -4.7142588E+03;3; -8.9406555E+01;  0.0000000E+00;  1.4895151E+01;0;  3.0022943E+00;  2.2073516E+04;  0.0000000E+00;  3.7989937E+01;  4.0000000E+04;  0.0000000E+00;  3.8835301E+04;  3.3302572E+00;  0.0000000E+00; -3.2796279E-01;  6.9936516E+04;
  1.6601390E+00;  9.9999998E-03; -1.7189474E-01;9384;  1.3244613E+00;  0.0000000E+00;  2.6989201E-02;  1.0008823E+03;  1.3564894E-01;  7.0650067E+02;3; -6.6376892E+01;  0.0000000E+00;  1.4179370E+01;0;  2.6279531E+00;  2.2418869E+04;  0.0000000E+00;  1.6788017E+01;  4.0000000E+04;  0.0000000E+00;  3.8785250E+04;  2.8995712E+00;  0.0000000E+00; -2.7161804E-01;  2.9733162E+04;
  1.6605613E+00;  9.9999998E-03; -1.6179904E-01;9385;  1.3366069E+00;  0.0000000E+00;  2.4599560E-02;  1.0010623E+03;  1.3559853E-01;  8.5047107E+02;3; -5.9780952E+01;  0.0000000E+00;  1.3231443E+01;0;  2.5145295E+00;  2.2463689E+04;  0.0000000E+00;  9.7948475E+00;  4.0000000E+04;  0.0000000E+00;  3.8749719E+04;  2.7660267E+00;  0.0000000E+00; -2.5149727E-01;  1.8652426E+04;
  1.6609596E+00;  9.9999998E-03; -1.5181834E-01;9386;  1.3470773E+00;  0.0000000E+00;  2.2225425E-02;  1.0010282E+03;  1.3555346E-01;  8.2301520E+02;3; -5.4244362E+01;  0.0000000E+00;  1.2515912E+01;0;  2.4079270E+00;  2.2488652E+04;  0.0000000E+00;  5.3958955E+00;  4.0000000E+04;  0.0000000E+00;  3.8730617E+04;  2.6407650E+00;  0.0000000E+00; -2.3283795E-01;  1.2094455E+04;
  1.6612546E+00;  9.9999998E-03; -1.4187820E-01;9387;  1.3554084E+00;  0.0000000E+00;  1.9959498E-02;  1.0009058E+03;  1.3552350E-01;  7.2491187E+02;3; -4.9890324E+01;  0.0000000E+00;  1.1903922E+01;0;  2.3093657E+00;  2.2496010E+04;  0.0000000E+00;  2.8193634E+00;  4.0000000E+04;  0.0000000E+00;  3.8727883E+04;  2.5257001E+00;  0.0000000E+00; -2.1633430E-01;  8.3971992E+03;
  1.6614319E+00;  9.9999998E-03; -1.3193204E-01;9388;  1.3618581E+00;  0.0000000E+00;  1.7839773E-02;  1.0006801E+03;  1.3550664E-01;  5.4425659E+02;3; -4.6572628E+01;  0.0000000E+00;  1.1146300E+01;0;  2.2190068E+00;  2.2489201E+04;  0.0000000E+00;  1.3596250E+00;  4.0000000E+04;  0.0000000E+00;  3.8734895E+04;  2.4213033E+00;  0.0000000E+00; -2.0229647E-01;  6.0969678E+03;
  1.6615041E+00;  9.9999998E-03; -1.2194729E-01;9389;  1.3669810E+00;  0.0000000E+00;  1.5890557E-02;  1.0003680E+03;  1.3550016E-01;  2.9448907E+02;3; -4.3941292E+01;  0.0000000E+00;  1.0318206E+01;0;  2.1362267E+00;  2.2473236E+04;  0.0000000E+00;  5.5717003E-01;  4.0000000E+04;  0.0000000E+00;  3.8745992E+04;  2.3269992E+00;  0.0000000E+00; -1.9077253E-01;  4.4680415E+03;
  1.6615064E+00;  9.9999998E-03; -1.1190597E-01;9390;  1.3713144E+00;  0.0000000E+00;  1.4109461E-02;  1.0000092E+03;  1.3550080E-01;  7.3455243E+00;3; -4.1620697E+01;  0.0000000E+00;  9.2065535E+00;0;  2.0597901E+00;  2.2453428E+04;  0.0000000E+00;  1.3945626E-01;  4.0000000E+04;  0.0000000E+00;  3.8756742E+04;  2.2413349E+00;  0.0000000E+00; -1.8154474E-01;  3.2860847E+03;
  1.6685330E+00;  9.9999998E-03; -2.6452601E-01;9429;  1.1547537E+00;  0.0000000E+00;  4.5262225E-02;  9.9660736E+02;  1.3346930E-01; -2.7050930E+03;3; -1.6400833E+02;  0.0000000E+00;  7.1154366E+00;0;  3.1142790E+00;  2.3001969E+04;  0.0000000E+00;  3.4396608E+00;  4.0000000E+04;  0.0000000E+00;  3.8706539E+04;  3.3170972E+00;  0.0000000E+00; -2.0281805E-01;  3.6793650E+03;
  1.6693485E+00;  9.9999998E-03; -2.5440285E-01;9430;  1.1924636E+00;  0.0000000E+00;  4.1776817E-02;  9.9471466E+02;  1.3342859E-01; -4.2123413E+03;3; -1.4870763E+02;  0.0000000E+00;  8.4816599E+00;0;  3.2005179E+00;  2.2931469E+04;  0.0000000E+00;  5.3286834E+00;  4.0000000E+04;  0.0000000E+00;  3.8729000E+04;  3.4463422E+00;  0.0000000E+00; -2.4582441E-01;  1.4964047E+04;
  1.6703702E+00;  9.9999998E-03; -2.4425371E-01;9431;  1.2289259E+00;  0.0000000E+00;  3.8878661E-02;  9.9135718E+02;  1.3339190E-01; -6.8843306E+03;3; -1.3498921E+02;  0.0000000E+00;  1.0335994E+01;0;  3.2182374E+00;  2.2796568E+04;  0.0000000E+00;  1.5242663E+01;  4.0000000E+04;  0.0000000E+00;  3.8754891E+04;  3.5115619E+00;  0.0000000E+00; -2.9332438E-01;  3.7432234E+04;
  1.6714166E+00;  9.9999998E-03; -2.3408379E-01;9432;  1.2620900E+00;  0.0000000E+00;  3.5489630E-02;  9.8863751E+02;  1.3334456E-01; -9.0453916E+03;3; -1.2079367E+02;  0.0000000E+00;  1.1431982E+01;0;  3.1826680E+00;  2.2701346E+04;  0.0000000E+00;  2.3889627E+01;  4.0000000E+04;  0.0000000E+00;  3.8770434E+04;  3.5045891E+00;  0.0000000E+00; -3.2192111E-01;  5.3497215E+04;
  1.6723170E+00;  9.9999998E-03; -2.2389276E-01;9433;  1.2911882E+00;  0.0000000E+00;  3.1839371E-02;  9.8781171E+02;  1.3327605E-01; -9.6978662E+03;3; -1.0718143E+02;  0.0000000E+00;  1.2360947E+01;0;  3.1005576E+00;  2.2698465E+04;  0.0000000E+00;  3.1328114E+01;  4.0000000E+04;  0.0000000E+00;  3.8770387E+04;  3.4323559E+00;  0.0000000E+00; -3.3179840E-01;  6.4315012E+04;
  1.6729443E+00;  9.9999998E-03; -2.1367379E-01;9434;  1.3150095E+00;  0.0000000E+00;  2.8302837E-02;  9.8907812E+02;  1.3319214E-01; -8.6871006E+03;3; -9.4555450E+01;  0.0000000E+00;  1.3648540E+01;0;  2.9791701E+00;  2.2791006E+04;  0.0000000E+00;  3.7984863E+01;  4.0000000E+04;  0.0000000E+00;  3.8758348E+04;  3.3067021E+00;  0.0000000E+00; -3.2753205E-01;  7.1086570E+04;
  1.6727375E+00;  9.9999998E-03; -1.8256637E-01;9437;  1.3468063E+00;  0.0000000E+00;  2.0019582E-02;  9.9917755E+02;  1.3299844E-01; -6.5422113E+02;3; -6.6007935E+01;  0.0000000E+00;  1.3853235E+01;0;  2.5218177E+00;  2.3284363E+04;  0.0000000E+00;  3.7476082E+01;  4.0000000E+04;  0.0000000E+00;  3.8743312E+04;  2.7925875E+00;  0.0000000E+00; -2.7076972E-01;  5.8183125E+04;
  1.6731919E+00;  9.9999998E-03; -2.0341016E-01;9435;  1.3318634E+00;  0.0000000E+00;  2.5113119E-02;  9.9205145E+02;  1.3311106E-01; -6.3212236E+03;3; -8.2857193E+01;  0.0000000E+00;  1.4283695E+01;0;  2.8310125E+00;  2.2950938E+04;  0.0000000E+00;  4.2647137E+01;  4.0000000E+04;  0.0000000E+00;  3.8743336E+04;  3.1446414E+00;  0.0000000E+00; -3.1362885E-01;  7.3282086E+04;
  1.6730292E+00;  9.9999998E-03; -1.9305414E-01;9436;  1.3415060E+00;  0.0000000E+00;  2.2361878E-02;  9.9587317E+02;  1.3304648E-01; -3.2822678E+03;3; -7.3507065E+01;  0.0000000E+00;  1.4250976E+01;0;  2.6742144E+00;  2.3132994E+04;  0.0000000E+00;  4.3173592E+01;  4.0000000E+04;  0.0000000E+00;  3.8739266E+04;  2.9679339E+00;  0.0000000E+00; -2.9371944E-01;  6.9504055E+04;
  1.6727663E+00;  9.9999998E-03; -1.7209394E-01;9438;  1.3534853E+00;  0.0000000E+00;  1.8231835E-02;  1.0008438E+03;  1.3295203E-01;  6.7118427E+02;3; -5.8276150E+01;  0.0000000E+00;  1.3025765E+01;0;  2.3786266E+00;  2.3381742E+04;  0.0000000E+00;  2.7301748E+01;  4.0000000E+04;  0.0000000E+00;  3.8724516E+04;  2.6255462E+00;  0.0000000E+00; -2.4691956E-01;  4.2266512E+04;
  1.6731796E+00;  9.9999998E-03; -1.6181876E-01;9439;  1.3629830E+00;  0.0000000E+00;  1.6469421E-02;  1.0012635E+03;  1.3289590E-01;  1.0048311E+03;3; -5.0629681E+01;  0.0000000E+00;  1.1942177E+01;0;  2.2446301E+00;  2.3441836E+04;  0.0000000E+00;  1.7422522E+01;  4.0000000E+04;  0.0000000E+00;  3.8685203E+04;  2.4671884E+00;  0.0000000E+00; -2.2255822E-01;  2.7933777E+04;
  1.6737105E+00;  9.9999998E-03; -1.5172751E-01;9440;  1.3723847E+00;  0.0000000E+00;  1.4514972E-02;  1.0012736E+03;  1.3284336E-01;  1.0124842E+03;3; -4.4017933E+01;  0.0000000E+00;  1.1281598E+01;0;  2.1197369E+00;  2.3481064E+04;  0.0000000E+00;  1.0290186E+01;  4.0000000E+04;  0.0000000E+00;  3.8652074E+04;  2.3188202E+00;  0.0000000E+00; -1.9908336E-01;  1.8151400E+04;
  1.6741688E+00;  9.9999998E-03; -1.4173049E-01;9441;  1.3800038E+00;  0.0000000E+00;  1.2516254E-02;  1.0012229E+03;  1.3280125E-01;  9.7194562E+02;3; -3.8781860E+01;  0.0000000E+00;  1.0815961E+01;0;  2.0048659E+00;  2.3503211E+04;  0.0000000E+00;  5.7324414E+00;  4.0000000E+04;  0.0000000E+00;  3.8636273E+04;  2.1826453E+00;  0.0000000E+00; -1.7777945E-01;  1.2326747E+04;
  1.6744897E+00;  9.9999998E-03; -1.3176367E-01;9442;  1.3856653E+00;  0.0000000E+00;  1.0710781E-02;  1.0011097E+03;  1.3277058E-01;  8.8186243E+02;3; -3.4739143E+01;  0.0000000E+00;  1.0223667E+01;0;  1.9003130E+00;  2.3508889E+04;  0.0000000E+00;  2.9588728E+00;  4.0000000E+04;  0.0000000E+00;  3.8636289E+04;  2.0596330E+00;  0.0000000E+00; -1.5931997E-01;  8.9021562E+03;
  1.6746684E+00;  9.9999998E-03; -1.2179415E-01;9443;  1.3897611E+00;  0.0000000E+00;  9.1778813E-03;  1.0008981E+03;  1.3275266E-01;  7.1363800E+02;3; -3.1739740E+01;  0.0000000E+00;  9.4542150E+00;0;  1.8055005E+00;  2.3500766E+04;  0.0000000E+00;  1.3379222E+00;  4.0000000E+04;  0.0000000E+00;  3.8645578E+04;  1.9494207E+00;  0.0000000E+00; -1.4392018E-01;  6.6742114E+03;
  1.6747260E+00;  9.9999998E-03; -1.1179765E-01;9444;  1.3928245E+00;  0.0000000E+00;  7.9166004E-03;  1.0006283E+03;  1.3274881E-01;  4.9926443E+02;3; -2.9249605E+01;  0.0000000E+00;  8.3040113E+00;0;  1.7192367E+00;  2.3482939E+04;  0.0000000E+00;  4.4645712E-01;  4.0000000E+04;  0.0000000E+00;  3.8658578E+04;  1.8507636E+00;  0.0000000E+00; -1.3152683E-01;  5.0374868E+03;
  1.6809585E+00;  9.9999998E-03; -2.6481357E-01;9482;  1.2035574E+00;  0.0000000E+00;  3.7110113E-02;  9.9868036E+02;  1.3106607E-01; -1.0445487E+03;3; -1.6007219E+02;  0.0000000E+00;  6.9667721E+00;0;  3.0243440E+00;  2.4004623E+04;  0.0000000E+00;  1.5334622E+01;  4.0000000E+04;  0.0000000E+00;  3.8608203E+04;  3.2149253E+00;  0.0000000E+00; -1.9058135E-01;  2.9116304E+03;
  1.6817048E+00;  9.9999998E-03; -2.5471023E-01;9483;  1.2375630E+00;  0.0000000E+00;  3.3455428E-02;  9.9740491E+02;  1.3103430E-01; -2.0531091E+03;3; -1.4439807E+02;  0.0000000E+00;  8.5296526E+00;0;  3.0863624E+00;  2.3962074E+04;  0.0000000E+00;  6.1896092E-01;  4.0000000E+04;  0.0000000E+00;  3.8625000E+04;  3.3128858E+00;  0.0000000E+00; -2.2652334E-01;  1.1771465E+03;
  1.6824900E+00;  9.9999998E-03; -2.4458250E-01;9484;  1.2675830E+00;  0.0000000E+00;  3.0303625E-02;  9.9481097E+02;  1.3101074E-01; -4.1032388E+03;3; -1.2907805E+02;  0.0000000E+00;  9.2017965E+00;0;  3.0775304E+00;  2.3852971E+04;  0.0000000E+00;  7.5735025E+00;  4.0000000E+04;  0.0000000E+00;  3.8642488E+04;  3.3453739E+00;  0.0000000E+00; -2.6784357E-01;  2.0609906E+04;
  1.6834152E+00;  9.9999998E-03; -2.3443092E-01;9485;  1.2964396E+00;  0.0000000E+00;  2.7279561E-02;  9.9139856E+02;  1.3099083E-01; -6.7975249E+03;3; -1.1520934E+02;  0.0000000E+00;  1.0628665E+01;0;  3.0249796E+00;  2.3711963E+04;  0.0000000E+00;  1.9296585E+01;  4.0000000E+04;  0.0000000E+00;  3.8656895E+04;  3.3260014E+00;  0.0000000E+00; -3.0102193E-01;  4.1431344E+04;
  1.6843127E+00;  9.9999998E-03; -2.2425708E-01;9486;  1.3219252E+00;  0.0000000E+00;  2.3860911E-02;  9.8907611E+02;  1.3095774E-01; -8.6277725E+03;3; -1.0132288E+02;  0.0000000E+00;  1.1524861E+01;0;  2.9312925E+00;  2.3631270E+04;  0.0000000E+00;  2.9317343E+01;  4.0000000E+04;  0.0000000E+00;  3.8659820E+04;  3.2457840E+00;  0.0000000E+00; -3.1449163E-01;  5.6444043E+04;
  1.6850451E+00;  9.9999998E-03; -2.1405748E-01;9487;  1.3437763E+00;  0.0000000E+00;  2.0332761E-02;  9.8872192E+02;  1.3090283E-01; -8.9031865E+03;3; -8.8310219E+01;  0.0000000E+00;  1.2423409E+01;0;  2.8041878E+00;  2.3648279E+04;  0.0000000E+00;  3.7747318E+01;  4.0000000E+04;  0.0000000E+00;  3.8650863E+04;  3.1155610E+00;  0.0000000E+00; -3.1137314E-01;  6.6465281E+04;
  1.6852756E+00;  9.9999998E-03; -1.7253707E-01;9491;  1.3806620E+00;  0.0000000E+00;  9.9863028E-03;  1.0000330E+03;  1.3066493E-01;  2.5969389E+01;3; -5.0525417E+01;  0.0000000E+00;  1.1943688E+01;0;  2.1546028E+00;  2.4232078E+04;  0.0000000E+00;  3.9708309E+01;  4.0000000E+04;  0.0000000E+00;  3.8639113E+04;  2.3768079E+00;  0.0000000E+00; -2.2220507E-01;  5.4824465E+04;
  1.6855173E+00;  9.9999998E-03; -2.0382039E-01;9488;  1.3607115E+00;  0.0000000E+00;  1.6864777E-02;  9.9035687E+02;  1.3083538E-01; -7.6100942E+03;3; -7.6350822E+01;  0.0000000E+00;  1.3470460E+01;0;  2.6509812E+00;  2.3754760E+04;  0.0000000E+00;  4.4343830E+01;  4.0000000E+04;  0.0000000E+00;  3.8636305E+04;  2.9467890E+00;  0.0000000E+00; -2.9580781E-01;  7.1792164E+04;
  1.6854563E+00;  9.9999998E-03; -1.8308990E-01;9490;  1.3777140E+00;  0.0000000E+00;  1.1630048E-02;  9.9717889E+02;  1.3071030E-01; -2.2264153E+03;3; -5.7703827E+01;  0.0000000E+00;  1.3502777E+01;0;  2.3147309E+00;  2.4095729E+04;  0.0000000E+00;  4.7027714E+01;  4.0000000E+04;  0.0000000E+00;  3.8632746E+04;  2.5636697E+00;  0.0000000E+00; -2.4893871E-01;  6.6807281E+04;
  1.6856424E+00;  9.9999998E-03; -1.9351709E-01;9489;  1.3719013E+00;  0.0000000E+00;  1.3930450E-02;  9.9347601E+02;  1.3076709E-01; -5.1480967E+03;3; -6.5823547E+01;  0.0000000E+00;  1.3928355E+01;0;  2.4830310E+00;  2.3919857E+04;  0.0000000E+00;  4.8113823E+01;  4.0000000E+04;  0.0000000E+00;  3.8626793E+04;  2.7571194E+00;  0.0000000E+00; -2.7408832E-01;  7.2273688E+04;
  1.6854713E+00;  9.9999998E-03; -1.6204952E-01;9492;  1.3850652E+00;  0.0000000E+00;  8.9067081E-03;  1.0012072E+03;  1.3061617E-01;  9.5264966E+02;3; -4.2644047E+01;  0.0000000E+00;  1.0596195E+01;0;  2.0066240E+00;  2.4314936E+04;  0.0000000E+00;  2.8621494E+01;  4.0000000E+04;  0.0000000E+00;  3.8617410E+04;  2.2015080E+00;  0.0000000E+00; -1.9488405E-01;  3.9707492E+04;
  1.6860199E+00;  9.9999998E-03; -1.5176855E-01;9493;  1.3917364E+00;  0.0000000E+00;  7.5354492E-03;  1.0013616E+03;  1.3056168E-01;  1.0741774E+03;3; -3.5501778E+01;  0.0000000E+00;  1.0162061E+01;0;  1.8710296E+00;  2.4365166E+04;  0.0000000E+00;  1.8364489E+01;  4.0000000E+04;  0.0000000E+00;  3.8579531E+04;  2.0384007E+00;  0.0000000E+00; -1.6737103E-01;  2.6659143E+04;
  1.6866375E+00;  9.9999998E-03; -1.4165242E-01;9494;  1.3982474E+00;  0.0000000E+00;  5.8867643E-03;  1.0012856E+03;  1.3050751E-01;  1.0138433E+03;3; -2.9545792E+01;  0.0000000E+00;  9.6314116E+00;0;  1.7467830E+00;  2.4399670E+04;  0.0000000E+00;  1.0936191E+01;  4.0000000E+04;  0.0000000E+00;  3.8549867E+04;  1.8884264E+00;  0.0000000E+00; -1.4164336E-01;  1.7741725E+04;
  1.6871476E+00;  9.9999998E-03; -1.3162051E-01;9495;  1.4031636E+00;  0.0000000E+00;  4.3095723E-03;  1.0012155E+03;  1.3046528E-01;  9.5813831E+02;3; -2.4964977E+01;  0.0000000E+00;  9.0927734E+00;0;  1.6336324E+00;  2.4420012E+04;  0.0000000E+00;  6.0588217E+00;  4.0000000E+04;  0.0000000E+00;  3.8536688E+04;  1.7526338E+00;  0.0000000E+00; -1.1900134E-01;  1.2294520E+04;
  1.6874987E+00;  9.9999998E-03; -1.2162378E-01;9496;  1.4065040E+00;  0.0000000E+00;  3.0144807E-03;  1.0011244E+03;  1.3043511E-01;  8.8612854E+02;3; -2.1516167E+01;  0.0000000E+00;  8.2515850E+00;0;  1.5310230E+00;  2.4425693E+04;  0.0000000E+00;  3.0084684E+00;  4.0000000E+04;  0.0000000E+00;  3.8537707E+04;  1.6309544E+00;  0.0000000E+00; -9.9931367E-02;  9.0244307E+03;
  1.6876850E+00;  9.9999998E-03; -1.1163330E-01;9497;  1.4086679E+00;  0.0000000E+00;  2.1123549E-03;  1.0009684E+03;  1.3041973E-01;  7.6305048E+02;3; -1.8891222E+01;  0.0000000E+00;  7.3254652E+00;0;  1.4380637E+00;  2.4417666E+04;  0.0000000E+00;  1.2045094E+00;  4.0000000E+04;  0.0000000E+00;  3.8548012E+04;  1.5226070E+00;  0.0000000E+00; -8.4543251E-02;  6.8934253E+03;
  1.6939534E+00;  9.9999998E-03; -2.5502309E-01;9535;  1.2793536E+00;  0.0000000E+00;  2.5977805E-02;  9.9944275E+02;  1.2899324E-01; -4.3712326E+02;3; -1.3778067E+02;  0.0000000E+00;  9.0909481E+00;0;  2.9272990E+00;  2.4888834E+04;  0.0000000E+00;  9.4022293E+00;  4.0000000E+04;  0.0000000E+00;  3.8517488E+04;  3.1364288E+00;  0.0000000E+00; -2.0912975E-01;  2.5725383E+03;
  1.6946013E+00;  9.9999998E-03; -2.4491800E-01;9536;  1.3046895E+00;  0.0000000E+00;  2.2509344E-02;  9.9786823E+02;  1.2897599E-01; -1.6714159E+03;3; -1.2275115E+02;  0.0000000E+00;  1.0172368E+01;0;  2.9014101E+00;  2.4826441E+04;  0.0000000E+00; -8.2480359E-01;  4.0000000E+04;  0.0000000E+00;  3.8527246E+04;  3.1423573E+00;  0.0000000E+00; -2.4094717E-01;  3.3500847E+03;
  1.6953195E+00;  9.9999998E-03; -2.3478794E-01;9537;  1.3274729E+00;  0.0000000E+00;  1.9534271E-02;  9.9497137E+02;  1.2896712E-01; -3.9405447E+03;3; -1.0841675E+02;  0.0000000E+00;  1.0596249E+01;0;  2.8295982E+00;  2.4699623E+04;  0.0000000E+00;  8.9877844E+00;  4.0000000E+04;  0.0000000E+00;  3.8535395E+04;  3.1028593E+00;  0.0000000E+00; -2.7326107E-01;  2.3022916E+04;
  1.6961240E+00;  9.9999998E-03; -2.2463492E-01;9538;  1.3493880E+00;  0.0000000E+00;  1.6295495E-02;  9.9176270E+02;  1.2895967E-01; -6.4509722E+03;3; -9.4888329E+01;  0.0000000E+00;  1.1817133E+01;0;  2.7355378E+00;  2.4565146E+04;  0.0000000E+00;  2.2163898E+01;  4.0000000E+04;  0.0000000E+00;  3.8536945E+04;  3.0248246E+00;  0.0000000E+00; -2.8928685E-01;  4.2206922E+04;
  1.6968787E+00;  9.9999998E-03; -2.1445824E-01;9539;  1.3684711E+00;  0.0000000E+00;  1.2964423E-02;  9.8979926E+02;  1.2893648E-01; -7.9839419E+03;3; -8.2484917E+01;  0.0000000E+00;  1.2649917E+01;0;  2.6109593E+00;  2.4499326E+04;  0.0000000E+00;  3.3569790E+01;  4.0000000E+04;  0.0000000E+00;  3.8528777E+04;  2.9003673E+00;  0.0000000E+00; -2.8940794E-01;  5.6352855E+04;
  1.6974747E+00;  9.9999998E-03; -2.0425105E-01;9540;  1.3846430E+00;  0.0000000E+00;  9.4267661E-03;  9.8974091E+02;  1.2889439E-01; -8.0258682E+03;3; -7.0494453E+01;  0.0000000E+00;  1.3544082E+01;0;  2.4663634E+00;  2.4527826E+04;  0.0000000E+00;  4.2861763E+01;  4.0000000E+04;  0.0000000E+00;  3.8514070E+04;  2.7404373E+00;  0.0000000E+00; -2.7407375E-01;  6.5628750E+04;
  1.6977899E+00;  9.9999998E-03; -1.7315020E-01;9543;  1.4064772E+00;  0.0000000E+00;  1.7437541E-03;  9.9799689E+02;  1.2872438E-01; -1.5666979E+03;3; -4.2200893E+01;  0.0000000E+00;  1.1373466E+01;0;  1.9644585E+00;  2.4960623E+04;  0.0000000E+00;  5.0329762E+01;  4.0000000E+04;  0.0000000E+00;  3.8516137E+04;  2.1592388E+00;  0.0000000E+00; -1.9478029E-01;  6.3293027E+04;
  1.6977497E+00;  9.9999998E-03; -1.6254482E-01;9544;  1.4068384E+00;  0.0000000E+00;  1.1766282E-03;  1.0004099E+03;  1.2867862E-01;  3.2055688E+02;3; -3.4912426E+01;  0.0000000E+00;  1.0059250E+01;0;  1.8058124E+00;  2.5081408E+04;  0.0000000E+00;  4.2064083E+01;  4.0000000E+04;  0.0000000E+00;  3.8525219E+04;  1.9719442E+00;  0.0000000E+00; -1.6613191E-01;  5.1674555E+04;
  1.6978335E+00;  9.9999998E-03; -1.9399279E-01;9541;  1.3965180E+00;  0.0000000E+00;  6.0360595E-03;  9.9151776E+02;  1.2883647E-01; -6.6339141E+03;3; -5.9015759E+01;  0.0000000E+00;  1.4144836E+01;0;  2.3040397E+00;  2.4638859E+04;  0.0000000E+00;  4.9609497E+01;  4.0000000E+04;  0.0000000E+00;  3.8501418E+04;  2.5539107E+00;  0.0000000E+00; -2.4987112E-01;  7.0103883E+04;
  1.6979169E+00;  9.9999998E-03; -1.8364520E-01;9542;  1.4035802E+00;  0.0000000E+00;  3.4475864E-03;  9.9458472E+02;  1.2877713E-01; -4.2349785E+03;3; -4.9666271E+01;  0.0000000E+00;  1.3382491E+01;0;  2.1325109E+00;  2.4798326E+04;  0.0000000E+00;  5.2556244E+01;  4.0000000E+04;  0.0000000E+00;  3.8500891E+04;  2.3556056E+00;  0.0000000E+00; -2.2309464E-01;  6.9444672E+04;
  1.6980896E+00;  9.9999998E-03; -1.5203203E-01;9545;  1.4083703E+00;  0.0000000E+00;  6.5766595E-04;  1.0012704E+03;  1.2863180E-01;  9.9338501E+02;3; -2.7966553E+01;  0.0000000E+00;  9.1533079E+00;0;  1.6629219E+00;  2.5151336E+04;  0.0000000E+00;  3.0394491E+01;  4.0000000E+04;  0.0000000E+00;  3.8505141E+04;  1.7992346E+00;  0.0000000E+00; -1.3631269E-01;  3.7692789E+04;
  1.6987330E+00;  9.9999998E-03; -1.4172085E-01;9546;  1.4120730E+00;  0.0000000E+00; -3.2897512E-04;  1.0012720E+03;  1.2857883E-01;  9.9418158E+02;3; -2.1705547E+01;  0.0000000E+00;  8.2622786E+00;0;  1.5347601E+00;  2.5193686E+04;  0.0000000E+00;  1.9675985E+01;  4.0000000E+04;  0.0000000E+00;  3.8470770E+04;  1.6419280E+00;  0.0000000E+00; -1.0716785E-01;  2.5653791E+04;
  1.6994238E+00;  9.9999998E-03; -1.3156767E-01;9547;  1.4158790E+00;  0.0000000E+00; -1.5460590E-03;  1.0011458E+03;  1.2852870E-01;  8.9492920E+02;3; -1.6594339E+01;  0.0000000E+00;  7.1470985E+00;0;  1.4183037E+00;  2.5224213E+04;  0.0000000E+00;  1.1731850E+01;  4.0000000E+04;  0.0000000E+00;  3.8443355E+04;  1.4991148E+00;  0.0000000E+00; -8.0811046E-02;  1.7206777E+04;
  1.6999882E+00;  9.9999998E-03; -1.2150306E-01;9548;  1.4185408E+00;  0.0000000E+00; -2.5734238E-03;  1.0010859E+03;  1.2848838E-01;  8.4779895E+02;3; -1.2712377E+01;  0.0000000E+00;  6.2924199E+00;0;  1.3123505E+00;  2.5244283E+04;  0.0000000E+00;  6.3777418E+00;  4.0000000E+04;  0.0000000E+00;  3.8430941E+04;  1.3707808E+00;  0.0000000E+00; -5.8430266E-02;  1.1911384E+04;
  1.7003682E+00;  9.9999998E-03; -1.1148030E-01;9549;  1.4200196E+00;  0.0000000E+00; -3.2959117E-03;  1.0010274E+03;  1.2845942E-01;  8.0185266E+02;3; -9.8117676E+00;  0.0000000E+00;  5.6755562E+00;0;  1.2161300E+00;  2.5251340E+04;  0.0000000E+00;  2.9749045E+00;  4.0000000E+04;  0.0000000E+00;  3.8431723E+04;  1.2565041E+00;  0.0000000E+00; -4.0374026E-02;  8.7447021E+03;
  1.7066875E+00;  9.9999998E-03; -2.4525146E-01;9586;  1.3398126E+00;  0.0000000E+00;  1.5111604E-02;  9.9998877E+02;  1.2724619E-01; -8.6994667E+00;3; -1.1511083E+02;  0.0000000E+00;  1.1515167E+01;0;  2.7141616E+00;  2.5683658E+04;  0.0000000E+00;  4.8086076E+00;  4.0000000E+04;  0.0000000E+00;  3.8410816E+04;  2.9239004E+00;  0.0000000E+00; -2.0973884E-01;  2.5137290E+03;
  1.7072535E+00;  9.9999998E-03; -2.3514350E-01;9587;  1.3580422E+00;  0.0000000E+00;  1.1897847E-02;  9.9822485E+02;  1.2723878E-01; -1.3774370E+03;3; -1.0142545E+02;  0.0000000E+00;  1.1645716E+01;0;  2.6311407E+00;  2.5609318E+04;  0.0000000E+00; -2.5976217E+00;  4.0000000E+04;  0.0000000E+00;  3.8412863E+04;  2.8667295E+00;  0.0000000E+00; -2.3558876E-01;  4.2436187E+03;
  1.7078805E+00;  9.9999998E-03; -2.2501165E-01;9588;  1.3747313E+00;  0.0000000E+00;  9.0167504E-03;  9.9534497E+02;  1.2724078E-01; -3.6100710E+03;3; -8.8842834E+01;  0.0000000E+00;  1.2090939E+01;0;  2.5253382E+00;  2.5482262E+04;  0.0000000E+00;  8.8361073E+00;  4.0000000E+04;  0.0000000E+00;  3.8410066E+04;  2.7811854E+00;  0.0000000E+00; -2.5584719E-01;  2.2345725E+04;
  1.7085625E+00;  9.9999998E-03; -2.1485901E-01;9589;  1.3911457E+00;  0.0000000E+00;  5.6942673E-03;  9.9239355E+02;  1.2724042E-01; -5.8953857E+03;3; -7.6039688E+01;  0.0000000E+00;  1.2481512E+01;0;  2.4138751E+00;  2.5359174E+04;  0.0000000E+00;  2.3670303E+01;  4.0000000E+04;  0.0000000E+00;  3.8399066E+04;  2.6711550E+00;  0.0000000E+00; -2.5727990E-01;  4.0363562E+04;
  1.7091923E+00;  9.9999998E-03; -2.0468196E-01;9590;  1.4059390E+00;  0.0000000E+00;  2.3068094E-03;  9.9067737E+02;  1.2722659E-01; -7.2214180E+03;3; -6.4997078E+01;  0.0000000E+00;  1.3912868E+01;0;  2.2859936E+00;  2.5303674E+04;  0.0000000E+00;  3.6782494E+01;  4.0000000E+04;  0.0000000E+00;  3.8381266E+04;  2.5306430E+00;  0.0000000E+00; -2.4464945E-01;  5.4117605E+04;
  1.7096891E+00;  9.9999998E-03; -1.9446638E-01;9591;  1.4174000E+00;  0.0000000E+00; -1.3935970E-03;  9.9073212E+02;  1.2719412E-01; -7.1757461E+03;3; -5.3686104E+01;  0.0000000E+00;  1.4281753E+01;0;  2.1401923E+00;  2.5334629E+04;  0.0000000E+00;  4.7076397E+01;  4.0000000E+04;  0.0000000E+00;  3.8364008E+04;  2.3592832E+00;  0.0000000E+00; -2.1909095E-01;  6.2983094E+04;
  1.7100016E+00;  9.9999998E-03; -1.8418455E-01;9592;  1.4246395E+00;  0.0000000E+00; -4.3228231E-03;  9.9243964E+02;  1.2714462E-01; -5.8520298E+03;3; -4.3698875E+01;  0.0000000E+00;  1.3462114E+01;0;  1.9763600E+00;  2.5438631E+04;  0.0000000E+00;  5.3840546E+01;  4.0000000E+04;  0.0000000E+00;  3.8356754E+04;  2.1676173E+00;  0.0000000E+00; -1.9125740E-01;  6.6785641E+04;
  1.7101170E+00;  9.9999998E-03; -1.7379212E-01;9593;  1.4281256E+00;  0.0000000E+00; -6.2336940E-03;  9.9526617E+02;  1.2709133E-01; -3.6637632E+03;3; -3.5132168E+01;  0.0000000E+00;  1.2083763E+01;0;  1.8089743E+00;  2.5583518E+04;  0.0000000E+00;  5.6188793E+01;  4.0000000E+04;  0.0000000E+00;  3.8366055E+04;  1.9713148E+00;  0.0000000E+00; -1.6234051E-01;  6.5540930E+04;
  1.7101055E+00;  9.9999998E-03; -1.6324091E-01;9594;  1.4281110E+00;  0.0000000E+00; -6.9991616E-03;  9.9831604E+02;  1.2704012E-01; -1.3033206E+03;3; -2.7267193E+01;  0.0000000E+00;  1.0863503E+01;0;  1.6471971E+00;  2.5729121E+04;  0.0000000E+00;  5.3278099E+01;  4.0000000E+04;  0.0000000E+00;  3.8389742E+04;  1.7800391E+00;  0.0000000E+00; -1.3284193E-01;  5.9391742E+04;
  1.7102119E+00;  9.9999998E-03; -1.5259640E-01;9595;  1.4258107E+00;  0.0000000E+00; -6.7059421E-03;  1.0004068E+03;  1.2699540E-01;  3.1477396E+02;3; -2.0455303E+01;  0.0000000E+00;  8.4145441E+00;0;  1.4971559E+00;  2.5836057E+04;  0.0000000E+00;  4.4538586E+01;  4.0000000E+04;  0.0000000E+00;  3.8402453E+04;  1.6003516E+00;  0.0000000E+00; -1.0319571E-01;  4.8634680E+04;
  1.7106510E+00;  9.9999998E-03; -1.4205126E-01;9596;  1.4243680E+00;  0.0000000E+00; -6.3207126E-03;  1.0010958E+03;  1.2695059E-01;  8.4766510E+02;3; -1.4824476E+01;  0.0000000E+00;  5.5879126E+00;0;  1.3646681E+00;  2.5896762E+04;  0.0000000E+00;  3.2527725E+01;  4.0000000E+04;  0.0000000E+00;  3.8386762E+04;  1.4378556E+00;  0.0000000E+00; -7.3187441E-02;  3.5895688E+04;
  1.7113596E+00;  9.9999998E-03; -1.3170056E-01;9597;  1.4251336E+00;  0.0000000E+00; -6.5437299E-03;  1.0010192E+03;  1.2690127E-01;  7.8785187E+02;3; -9.8015490E+00;  0.0000000E+00;  4.0178833E+00;0;  1.2481741E+00;  2.5932473E+04;  0.0000000E+00;  2.1264387E+01;  4.0000000E+04;  0.0000000E+00;  3.8356027E+04;  1.2926199E+00;  0.0000000E+00; -4.4445828E-02;  2.4659039E+04;
  1.7121058E+00;  9.9999998E-03; -1.2151033E-01;9598;  1.4266025E+00;  0.0000000E+00; -7.0938617E-03;  1.0008531E+03;  1.2685543E-01;  6.5910944E+02;3; -5.5475855E+00;  0.0000000E+00;  3.4243071E+00;0;  1.1432203E+00;  2.5959451E+04;  0.0000000E+00;  1.2655958E+01;  4.0000000E+04;  0.0000000E+00;  3.8330547E+04;  1.1625208E+00;  0.0000000E+00; -1.9300511E-02;  1.6481783E+04;
  1.7127075E+00;  9.9999998E-03; -1.1141580E-01;9599;  1.4274669E+00;  0.0000000E+00; -7.5987549E-03;  1.0007893E+03;  1.2681660E-01;  6.0940222E+02;3; -2.3877714E+00;  0.0000000E+00;  2.9251304E+00;0;  1.0476400E+00;  2.5979812E+04;  0.0000000E+00;  6.7295709E+00;  4.0000000E+04;  0.0000000E+00;  3.8317738E+04;  1.0466028E+00;  0.0000000E+00;  1.0370708E-03;  1.1234648E+04;
  1.7192080E+00;  9.9999998E-03; -2.3548983E-01;9635;  1.3876501E+00;  0.0000000E+00;  4.3887449E-03;  1.0003845E+03;  1.2577760E-01;  2.9494272E+02;3; -9.3665947E+01;  0.0000000E+00;  1.2884812E+01;0;  2.4480877E+00;  2.6397197E+04;  0.0000000E+00;  1.4255071E+00;  4.0000000E+04;  0.0000000E+00;  3.8290254E+04;  2.6377974E+00;  0.0000000E+00; -1.8970969E-01;  2.5815486E+03;
  1.7196965E+00;  9.9999998E-03; -2.2537883E-01;9636;  1.4006739E+00;  0.0000000E+00;  1.4860142E-03;  9.9859619E+02;  1.2577581E-01; -1.0764376E+03;3; -8.1869560E+01;  0.0000000E+00;  1.2949377E+01;0;  2.3378775E+00;  2.6321951E+04;  0.0000000E+00; -5.1573324E+00;  4.0000000E+04;  0.0000000E+00;  3.8283469E+04;  2.5460627E+00;  0.0000000E+00; -2.0818529E-01;  3.4377969E+03;
  1.7202282E+00;  9.9999998E-03; -2.1524724E-01;9637;  1.4132814E+00;  0.0000000E+00; -1.4098793E-03;  9.9589783E+02;  1.2578334E-01; -3.1438162E+03;3; -7.0300140E+01;  0.0000000E+00;  1.2738463E+01;0;  2.2265797E+00;  2.6203758E+04;  0.0000000E+00;  7.4114013E+00;  4.0000000E+04;  0.0000000E+00;  3.8269254E+04;  2.4419134E+00;  0.0000000E+00; -2.1533360E-01;  1.9769598E+04;
  1.7208019E+00;  9.9999998E-03; -2.0509599E-01;9638;  1.4250920E+00;  0.0000000E+00; -4.3992186E-03;  9.9317694E+02;  1.2578849E-01; -5.2259458E+03;3; -5.9795788E+01;  0.0000000E+00;  1.3559328E+01;0;  2.1088455E+00;  2.6092035E+04;  0.0000000E+00;  2.4118263E+01;  4.0000000E+04;  0.0000000E+00;  3.8246910E+04;  2.3167887E+00;  0.0000000E+00; -2.0794326E-01;  3.6980633E+04;
  1.7213365E+00;  9.9999998E-03; -1.9491802E-01;9639;  1.4353670E+00;  0.0000000E+00; -8.0545787E-03;  9.9157520E+02;  1.2578104E-01; -6.4491758E+03;3; -4.8929951E+01;  0.0000000E+00;  1.4028044E+01;0;  1.9852380E+00;  2.6041139E+04;  0.0000000E+00;  3.9001381E+01;  4.0000000E+04;  0.0000000E+00;  3.8222238E+04;  2.1683314E+00;  0.0000000E+00; -1.8309343E-01;  5.0470293E+04;
  1.7217753E+00;  9.9999998E-03; -1.8469442E-01;9640;  1.4423629E+00;  0.0000000E+00; -1.1314635E-02;  9.9158502E+02;  1.2575628E-01; -6.4386870E+03;3; -3.8563705E+01;  0.0000000E+00;  1.2980992E+01;0;  1.8412327E+00;  2.6066686E+04;  0.0000000E+00;  5.0189789E+01;  4.0000000E+04;  0.0000000E+00;  3.8204402E+04;  1.9949512E+00;  0.0000000E+00; -1.5371858E-01;  5.8940949E+04;
  1.7220825E+00;  9.9999998E-03; -1.7439161E-01;9641;  1.4458696E+00;  0.0000000E+00; -1.3735505E-02;  9.9308722E+02;  1.2571378E-01; -5.2875640E+03;3; -2.9511374E+01;  0.0000000E+00;  1.1660268E+01;0;  1.6853808E+00;  2.6157545E+04;  0.0000000E+00;  5.7030724E+01;  4.0000000E+04;  0.0000000E+00;  3.8202562E+04;  1.8085690E+00;  0.0000000E+00; -1.2318810E-01;  6.2318957E+04;
  1.7222625E+00;  9.9999998E-03; -1.6396329E-01;9642;  1.4460579E+00;  0.0000000E+00; -1.5157491E-02;  9.9558997E+02;  1.2566419E-01; -3.3725828E+03;3; -2.1171568E+01;  0.0000000E+00;  1.0526084E+01;0;  1.5284855E+00;  2.6284297E+04;  0.0000000E+00;  5.9017010E+01;  4.0000000E+04;  0.0000000E+00;  3.8220086E+04;  1.6209669E+00;  0.0000000E+00; -9.2481360E-02;  6.0879520E+04;
  1.7223836E+00;  9.9999998E-03; -1.5337881E-01;9643;  1.4431928E+00;  0.0000000E+00; -1.5291490E-02;  9.9827014E+02;  1.2561761E-01; -1.3227357E+03;3; -1.4148861E+01;  0.0000000E+00;  7.9361911E+00;0;  1.3776411E+00;  2.6411293E+04;  0.0000000E+00;  5.5667072E+01;  4.0000000E+04;  0.0000000E+00;  3.8249473E+04;  1.4405742E+00;  0.0000000E+00; -6.2933102E-02;  5.5041570E+04;
  1.7226177E+00;  9.9999998E-03; -1.4271551E-01;9644;  1.4383806E+00;  0.0000000E+00; -1.3750014E-02;  1.0000928E+03;  1.2557307E-01;  7.0991364E+01;3; -8.4987707E+00;  0.0000000E+00;  4.5139875E+00;0;  1.2384059E+00;  2.6505682E+04;  0.0000000E+00;  4.6824142E+01;  4.0000000E+04;  0.0000000E+00;  3.8266641E+04;  1.2738066E+00;  0.0000000E+00; -3.5400622E-02;  4.5386793E+04;
  1.7231166E+00;  9.9999998E-03; -1.3214317E-01;9645;  1.4344281E+00;  0.0000000E+00; -1.1820856E-02;  1.0007220E+03;  1.2553203E-01;  5.5169019E+02;3; -4.1262965E+00;  0.0000000E+00;  2.4362314E+00;0;  1.1178161E+00;  2.6559547E+04;  0.0000000E+00;  3.4745209E+01;  4.0000000E+04;  0.0000000E+00;  3.8256988E+04;  1.1260929E+00;  0.0000000E+00; -8.2768155E-03;  3.3973508E+04;
  1.7238395E+00;  9.9999998E-03; -1.2175487E-01;9646;  1.4326273E+00;  0.0000000E+00; -1.0761255E-02;  1.0006421E+03;  1.2549120E-01;  4.9019385E+02;3; -4.8632866E-01;  0.0000000E+00;  1.0662538E+00;0;  1.0141872E+00;  2.6589629E+04;  0.0000000E+00;  2.3031965E+01;  4.0000000E+04;  0.0000000E+00;  3.8231688E+04;  9.9681115E-01;  0.0000000E+00;  1.7376067E-02;  2.3561598E+04;
  1.7245927E+00;  9.9999998E-03; -1.1152758E-01;9647;  1.4320096E+00;  0.0000000E+00; -1.0483807E-02;  1.0004497E+03;  1.2545136E-01;  3.4302051E+02;3;  2.5924587E+00;  0.0000000E+00; -2.3988535E-04;0;  9.2203248E-01;  2.6612420E+04;  0.0000000E+00;  1.3770092E+01;  4.0000000E+04;  0.0000000E+00;  3.8208035E+04;  8.8291645E-01;  0.0000000E+00;  3.9116036E-02;  1.5674997E+04;
  1.7309456E+00;  9.9999998E-03; -2.3581739E-01;9682;  1.4130398E+00;  0.0000000E+00; -2.4471581E-03;  1.0030460E+03;  1.2453478E-01;  2.3071338E+03;3; -8.6379417E+01;  0.0000000E+00;  1.3146716E+01;0;  2.2688694E+00;  2.7142668E+04;  0.0000000E+00;  3.7765472E+01;  4.0000000E+04;  0.0000000E+00;  3.8167008E+04;  2.4138901E+00;  0.0000000E+00; -1.4502060E-01;  1.5239925E+04;
  1.7315505E+00;  9.9999998E-03; -2.2573131E-01;9683;  1.4261935E+00;  0.0000000E+00; -5.8055143E-03;  1.0006996E+03;  1.2454357E-01;  5.2954797E+02;3; -7.3625626E+01;  0.0000000E+00;  1.3321080E+01;0;  2.1811988E+00;  2.7038992E+04;  0.0000000E+00; -8.4606290E-01;  4.0000000E+04;  0.0000000E+00;  3.8156281E+04;  2.3351140E+00;  0.0000000E+00; -1.5391521E-01;  2.6710654E+03;
  1.7319713E+00;  9.9999998E-03; -2.1561810E-01;9684;  1.4352986E+00;  0.0000000E+00; -8.3993571E-03;  9.9900806E+02;  1.2454684E-01; -7.5041602E+02;3; -6.2820576E+01;  0.0000000E+00;  1.2612469E+01;0;  2.0631838E+00;  2.6969186E+04;  0.0000000E+00; -8.0395823E+00;  4.0000000E+04;  0.0000000E+00;  3.8141535E+04;  2.2272480E+00;  0.0000000E+00; -1.6406427E-01;  2.2128667E+03;
  1.7324164E+00;  9.9999998E-03; -2.0548636E-01;9685;  1.4439290E+00;  0.0000000E+00; -1.1008792E-02;  9.9655560E+02;  1.2455583E-01; -2.6043457E+03;3; -5.2794094E+01;  0.0000000E+00;  1.2313393E+01;0;  1.9506779E+00;  2.6865619E+04;  0.0000000E+00;  5.2376418E+00;  4.0000000E+04;  0.0000000E+00;  3.8116645E+04;  2.1122222E+00;  0.0000000E+00; -1.6154432E-01;  1.6412197E+04;
  1.7329005E+00;  9.9999998E-03; -1.9533639E-01;9686;  1.4520149E+00;  0.0000000E+00; -1.4216594E-02;  9.9404700E+02;  1.2456399E-01; -4.4985859E+03;3; -4.2917736E+01;  0.0000000E+00;  1.2801054E+01;0;  1.8432218E+00;  2.6765498E+04;  0.0000000E+00;  2.3584660E+01;  4.0000000E+04;  0.0000000E+00;  3.8084391E+04;  1.9839346E+00;  0.0000000E+00; -1.4071290E-01;  3.2688557E+04;
  1.7333653E+00;  9.9999998E-03; -1.8515773E-01;9687;  1.4580966E+00;  0.0000000E+00; -1.7526541E-02;  9.9249829E+02;  1.2456221E-01; -5.6657764E+03;3; -3.2947552E+01;  0.0000000E+00;  1.1355421E+01;0;  1.7233502E+00;  2.6716844E+04;  0.0000000E+00;  3.9882076E+01;  4.0000000E+04;  0.0000000E+00;  3.8053684E+04;  1.8341677E+00;  0.0000000E+00; -1.1081758E-01;  4.5589918E+04;
  1.7337685E+00;  9.9999998E-03; -1.7492673E-01;9688;  1.4612179E+00;  0.0000000E+00; -2.0159051E-02;  9.9238538E+02;  1.2454234E-01; -5.7482627E+03;3; -2.3964067E+01;  0.0000000E+00;  9.9767132E+00;0;  1.5864342E+00;  2.6734787E+04;  0.0000000E+00;  5.1754932E+01;  4.0000000E+04;  0.0000000E+00;  3.8035215E+04;  1.6657503E+00;  0.0000000E+00; -7.9316005E-02;  5.3569473E+04;
  1.7340897E+00;  9.9999998E-03; -1.6460675E-01;9689;  1.4612542E+00;  0.0000000E+00; -2.1987675E-02;  9.9363031E+02;  1.2450743E-01; -4.8066299E+03;3; -1.5937057E+01;  0.0000000E+00;  8.5489550E+00;0;  1.4413112E+00;  2.6809492E+04;  0.0000000E+00;  5.8634808E+01;  4.0000000E+04;  0.0000000E+00;  3.8037285E+04;  1.4888418E+00;  0.0000000E+00; -4.7530539E-02;  5.6608492E+04;
  1.7343429E+00;  9.9999998E-03; -1.5415508E-01;9690;  1.4583321E+00;  0.0000000E+00; -2.2586185E-02;  9.9575903E+02;  1.2446357E-01; -3.1993052E+03;3; -9.0908728E+00;  0.0000000E+00;  5.5965037E+00;0;  1.2953205E+00;  2.6915014E+04;  0.0000000E+00;  6.0433247E+01;  4.0000000E+04;  0.0000000E+00;  3.8060793E+04;  1.3132782E+00;  0.0000000E+00; -1.7957672E-02;  5.5218398E+04;
  1.7345842E+00;  9.9999998E-03; -1.4356203E-01;9691;  1.4527928E+00;  0.0000000E+00; -2.1447340E-02;  9.9802539E+02;  1.2442115E-01; -1.4891453E+03;3; -3.0042048E+00;  0.0000000E+00;  2.9899929E+00;0;  1.1549428E+00;  2.7021359E+04;  0.0000000E+00;  5.6935825E+01;  4.0000000E+04;  0.0000000E+00;  3.8093527E+04;  1.1465483E+00;  0.0000000E+00;  8.3945310E-03;  4.9950016E+04;
  1.7349147E+00;  9.9999998E-03; -1.3290794E-01;9692;  1.4459465E+00;  0.0000000E+00; -1.8795045E-02;  9.9964362E+02;  1.2438343E-01; -2.6865588E+02;3;  1.3318380E+00;  0.0000000E+00;  4.7982949E-01;0;  1.0280383E+00;  2.7103070E+04;  0.0000000E+00;  4.8325531E+01;  4.0000000E+04;  0.0000000E+00;  3.8113805E+04;  9.9576938E-01;  0.0000000E+00;  3.2268822E-02;  4.1540848E+04;
  1.7354149E+00;  9.9999998E-03; -1.2232508E-01;9693;  1.4399903E+00;  0.0000000E+00; -1.5779046E-02;  1.0002902E+03;  1.2434673E-01;  2.1869157E+02;3;  4.0615211E+00;  0.0000000E+00; -1.4592742E+00;0;  9.1991717E-01;  2.7152746E+04;  0.0000000E+00;  3.6662853E+01;  4.0000000E+04;  0.0000000E+00;  3.8110633E+04;  8.6533165E-01;  0.0000000E+00;  5.4585513E-02;  3.1662883E+04;
  1.7360777E+00;  9.9999998E-03; -1.1190233E-01;9694;  1.4360968E+00;  0.0000000E+00; -1.3542492E-02;  1.0002627E+03;  1.2431455E-01;  1.9778429E+02;3;  6.0906029E+00;  0.0000000E+00; -2.7968795E+00;0;  8.2856238E-01;  2.7178520E+04;  0.0000000E+00;  2.4898619E+01;  4.0000000E+04;  0.0000000E+00;  3.8092195E+04;  7.5392616E-01;  0.0000000E+00;  7.4636228E-02;  2.2322053E+04;
  1.7432033E+00;  9.9999998E-03; -2.2605559E-01;9729;  1.4473557E+00;  0.0000000E+00; -1.2554519E-02;  1.0033271E+03;  1.2349776E-01;  2.4819072E+03;3; -6.6485092E+01;  0.0000000E+00;  1.2317944E+01;0;  2.0338869E+00;  2.7719600E+04;  0.0000000E+00;  4.0842533E+01;  4.0000000E+04;  0.0000000E+00;  3.8031434E+04;  2.1329222E+00;  0.0000000E+00; -9.9035330E-02;  1.5779946E+04;
  1.7437478E+00;  9.9999998E-03; -2.1596912E-01;9730;  1.4568069E+00;  0.0000000E+00; -1.5775718E-02;  1.0009941E+03;  1.2351280E-01;  7.4101196E+02;3; -5.4589096E+01;  0.0000000E+00;  1.1429262E+01;0;  1.9450022E+00;  2.7616766E+04;  0.0000000E+00; -1.6570731E+00;  4.0000000E+04;  0.0000000E+00;  3.8011688E+04;  2.0432670E+00;  0.0000000E+00; -9.8264791E-02;  2.4323274E+03;
  1.7441137E+00;  9.9999998E-03; -2.0585194E-01;9731;  1.4627973E+00;  0.0000000E+00; -1.8023556E-02;  9.9947186E+02;  1.2351782E-01; -3.9350632E+02;3; -4.5224583E+01;  0.0000000E+00;  1.0551380E+01;0;  1.8304507E+00;  2.7557484E+04;  0.0000000E+00; -1.0743472E+01;  4.0000000E+04;  0.0000000E+00;  3.7989660E+04;  1.9305751E+00;  0.0000000E+00; -1.0012446E-01;  1.8920709E+03;
  1.7444894E+00;  9.9999998E-03; -1.9571677E-01;9732;  1.4682819E+00;  0.0000000E+00; -2.0478144E-02;  9.9732672E+02;  1.2352601E-01; -1.9907310E+03;3; -3.6229698E+01;  0.0000000E+00;  1.0069258E+01;0;  1.7269766E+00;  2.7472051E+04;  0.0000000E+00;  2.2428679E+00;  4.0000000E+04;  0.0000000E+00;  3.7956551E+04;  1.8144360E+00;  0.0000000E+00; -8.7459341E-02;  1.2564795E+04;
  1.7449034E+00;  9.9999998E-03; -1.8556379E-01;9733;  1.4726760E+00;  0.0000000E+00; -2.3197802E-02;  9.9506000E+02;  1.2353682E-01; -3.6766521E+03;3; -2.6934746E+01;  0.0000000E+00;  8.7952194E+00;0;  1.6229939E+00;  2.7385807E+04;  0.0000000E+00;  2.1363081E+01;  4.0000000E+04;  0.0000000E+00;  3.7916379E+04;  1.6850694E+00;  0.0000000E+00; -6.2075514E-02;  2.7341014E+04;
  1.7453164E+00;  9.9999998E-03; -1.7538014E-01;9734;  1.4749126E+00;  0.0000000E+00; -2.5591429E-02;  9.9357599E+02;  1.2353712E-01; -4.7785010E+03;3; -1.8319567E+01;  0.0000000E+00;  7.6742902E+00;0;  1.5059301E+00;  2.7340275E+04;  0.0000000E+00;  3.8420742E+01;  4.0000000E+04;  0.0000000E+00;  3.7880574E+04;  1.5376024E+00;  0.0000000E+00; -3.1672373E-02;  3.9205133E+04;
  1.7456992E+00;  9.9999998E-03; -1.6513859E-01;9735;  1.4744380E+00;  0.0000000E+00; -2.7429176E-02;  9.9332788E+02;  1.2352181E-01; -4.9604961E+03;3; -1.0957710E+01;  0.0000000E+00;  5.6850228E+00;0;  1.3764954E+00;  2.7349783E+04;  0.0000000E+00;  5.0672169E+01;  4.0000000E+04;  0.0000000E+00;  3.7861500E+04;  1.3762637E+00;  0.0000000E+00;  2.3167937E-04;  4.6532910E+04;
  1.7460425E+00;  9.9999998E-03; -1.5480494E-01;9736;  1.4712875E+00;  0.0000000E+00; -2.8177617E-02;  9.9425610E+02;  1.2349547E-01; -4.2683994E+03;3; -3.9700196E+00;  0.0000000E+00;  3.4194083E+00;0;  1.2399843E+00;  2.7406191E+04;  0.0000000E+00;  5.7618668E+01;  4.0000000E+04;  0.0000000E+00;  3.7865398E+04;  1.2103029E+00;  0.0000000E+00;  2.9681318E-02;  4.9334891E+04;
  1.7463558E+00;  9.9999998E-03; -1.4434873E-01;9737;  1.4655911E+00;  0.0000000E+00; -2.7538640E-02;  9.9595087E+02;  1.2345851E-01; -3.0076790E+03;3;  2.1105568E+00;  0.0000000E+00;  9.6682298E-01;0;  1.1035793E+00;  2.7489209E+04;  0.0000000E+00;  5.9459805E+01;  4.0000000E+04;  0.0000000E+00;  3.7889602E+04;  1.0480814E+00;  0.0000000E+00;  5.5497929E-02;  4.8223242E+04;
  1.7466735E+00;  9.9999998E-03; -1.3377397E-01;9738;  1.4579602E+00;  0.0000000E+00; -2.5216511E-02;  9.9779999E+02;  1.2342183E-01; -1.6334489E+03;3;  6.2454453E+00;  0.0000000E+00; -2.1084011E+00;0;  9.7425020E-01;  2.7575164E+04;  0.0000000E+00;  5.6270931E+01;  4.0000000E+04;  0.0000000E+00;  3.7921457E+04;  8.9734364E-01;  0.0000000E+00;  7.6906547E-02;  4.3836426E+04;
  1.7470478E+00;  9.9999998E-03; -1.2314626E-01;9739;  1.4497603E+00;  0.0000000E+00; -2.1549771E-02;  9.9920410E+02;  1.2338819E-01; -5.9063147E+02;3;  8.9576244E+00;  0.0000000E+00; -3.7531970E+00;0;  8.5931587E-01;  2.7644707E+04;  0.0000000E+00;  4.8498165E+01;  4.0000000E+04;  0.0000000E+00;  3.7943562E+04;  7.6439744E-01;  0.0000000E+00;  9.4918460E-02;  3.6940109E+04;
  1.7475148E+00;  9.9999998E-03; -1.1256647E-01;9740;  1.4425347E+00;  0.0000000E+00; -1.7784785E-02;  9.9988123E+02;  1.2335876E-01; -8.8097725E+01;3;  1.0267446E+01;  0.0000000E+00; -5.1537747E+00;0;  7.6257294E-01;  2.7689680E+04;  0.0000000E+00;  3.7816292E+01;  4.0000000E+04;  0.0000000E+00;  3.7947305E+04;  6.5194613E-01;  0.0000000E+00;  1.1062680E-01;  2.8778107E+04;
  1.7553201E+00;  9.9999998E-03; -2.1628094E-01;9774;  1.4734144E+00;  0.0000000E+00; -2.1769153E-02;  1.0036673E+03;  1.2263336E-01;  2.6893552E+03;3; -4.8693069E+01;  0.0000000E+00;  1.0081865E+01;0;  1.8186624E+00;  2.8241805E+04;  0.0000000E+00;  4.6724159E+01;  4.0000000E+04;  0.0000000E+00;  3.7887020E+04;  1.8610226E+00;  0.0000000E+00; -4.2360213E-02;  1.7009887E+04;
  1.7558223E+00;  9.9999998E-03; -2.0619333E-01;9775;  1.4801559E+00;  0.0000000E+00; -2.4590183E-02;  1.0013061E+03;  1.2264720E-01;  9.5704077E+02;3; -3.8130318E+01;  0.0000000E+00;  9.4591713E+00;0;  1.7396749E+00;  2.8141545E+04;  0.0000000E+00; -2.5395077E-01;  4.0000000E+04;  0.0000000E+00;  3.7857512E+04;  1.7735361E+00;  0.0000000E+00; -3.3861142E-02;  1.5451112E+03;
  1.7561553E+00;  9.9999998E-03; -1.9606808E-01;9776;  1.4838634E+00;  0.0000000E+00; -2.6704835E-02;  9.9999695E+02;  1.2265768E-01; -2.2263887E+00;3; -2.9167543E+01;  0.0000000E+00;  8.2967501E+00;0;  1.6415976E+00;  2.8093006E+04;  0.0000000E+00; -1.2907235E+01;  4.0000000E+04;  0.0000000E+00;  3.7830215E+04;  1.6658645E+00;  0.0000000E+00; -2.4266861E-02;  2.7114270E+03;
  1.7564794E+00;  9.9999998E-03; -1.8592101E-01;9777;  1.4865377E+00;  0.0000000E+00; -2.8666671E-02;  9.9824457E+02;  1.2266499E-01; -1.2850452E+03;3; -2.0909378E+01;  0.0000000E+00;  6.6247797E+00;0;  1.5465192E+00;  2.8029840E+04;  0.0000000E+00; -1.8920531E+00;  4.0000000E+04;  0.0000000E+00;  3.7792527E+04;  1.5522892E+00;  0.0000000E+00; -5.7700844E-03;  8.2465605E+03;
  1.7568398E+00;  9.9999998E-03; -1.7575513E-01;9778;  1.4874058E+00;  0.0000000E+00; -3.0499456E-02;  9.9630347E+02;  1.2267248E-01; -2.7045750E+03;3; -1.3146650E+01;  0.0000000E+00;  5.2525778E+00;0;  1.4435663E+00;  2.7961660E+04;  0.0000000E+00;  1.6671892E+01;  4.0000000E+04;  0.0000000E+00;  3.7748039E+04;  1.4226624E+00;  0.0000000E+00;  2.0903951E-02;  2.0856059E+04;
  1.7572157E+00;  9.9999998E-03; -1.6555731E-01;9779;  1.4860829E+00;  0.0000000E+00; -3.1874325E-02;  9.9493170E+02;  1.2267548E-01; -3.7060859E+03;3; -6.0070939E+00;  0.0000000E+00;  2.9560132E+00;0;  1.3284252E+00;  2.7920838E+04;  0.0000000E+00;  3.3693447E+01;  4.0000000E+04;  0.0000000E+00;  3.7709586E+04;  1.2781341E+00;  0.0000000E+00;  5.0291043E-02;  3.1273330E+04;
  1.7575847E+00;  9.9999998E-03; -1.5530342E-01;9780;  1.4824358E+00;  0.0000000E+00; -3.2433294E-02;  9.9454041E+02;  1.2266531E-01; -3.9899734E+03;3;  8.6248177E-01;  0.0000000E+00;  9.1858131E-01;0;  1.2033612E+00;  2.7922365E+04;  0.0000000E+00;  4.6022121E+01;  4.0000000E+04;  0.0000000E+00;  3.7688281E+04;  1.1247708E+00;  0.0000000E+00;  7.8590386E-02;  3.7857531E+04;
  1.7579401E+00;  9.9999998E-03; -1.4496477E-01;9781;  1.4765159E+00;  0.0000000E+00; -3.1901676E-02;  9.9511652E+02;  1.2264588E-01; -3.5669807E+03;3;  6.6130567E+00;  0.0000000E+00; -1.6497021E+00;0;  1.0737075E+00;  2.7960869E+04;  0.0000000E+00;  5.3128136E+01;  4.0000000E+04;  0.0000000E+00;  3.7689453E+04;  9.7040808E-01;  0.0000000E+00;  1.0329939E-01;  4.0570016E+04;
  1.7582866E+00;  9.9999998E-03; -1.3451993E-01;9782;  1.4686961E+00;  0.0000000E+00; -2.9870652E-02;  9.9634021E+02;  1.2261639E-01; -2.6717566E+03;3;  1.0786150E+01;  0.0000000E+00; -4.3929372E+00;0;  9.4556695E-01;  2.8021480E+04;  0.0000000E+00;  5.5348660E+01;  4.0000000E+04;  0.0000000E+00;  3.7709387E+04;  8.2299358E-01;  0.0000000E+00;  1.2257335E-01;  3.9985957E+04;
  1.7586415E+00;  9.9999998E-03; -1.2397441E-01;9783;  1.4598278E+00;  0.0000000E+00; -2.6520025E-02;  9.9776166E+02;  1.2258679E-01; -1.6331597E+03;3;  1.3561998E+01;  0.0000000E+00; -6.0201864E+00;0;  8.2705641E-01;  2.8087031E+04;  0.0000000E+00;  5.3023323E+01;  4.0000000E+04;  0.0000000E+00;  3.7737566E+04;  6.8965662E-01;  0.0000000E+00;  1.3739982E-01;  3.6739418E+04;
  1.7590265E+00;  9.9999998E-03; -1.1338060E-01;9784;  1.4508381E+00;  0.0000000E+00; -2.2345876E-02;  9.9889447E+02;  1.2255816E-01; -8.0616241E+02;3;  1.4804261E+01;  0.0000000E+00; -7.3249493E+00;0;  7.2274226E-01;  2.8142014E+04;  0.0000000E+00;  4.6623516E+01;  4.0000000E+04;  0.0000000E+00;  3.7759492E+04;  5.7434112E-01;  0.0000000E+00;  1.4840116E-01;  3.1482730E+04;
  1.7594578E+00;  9.9999998E-03; -1.0281911E-01;9785;  1.4431049E+00;  0.0000000E+00; -1.7891351E-02;  9.9950568E+02;  1.2253649E-01; -3.6020227E+02;3;  1.4764348E+01;  0.0000000E+00; -7.9018230E+00;0;  6.3538885E-01;  2.8178236E+04;  0.0000000E+00;  3.7379776E+01;  4.0000000E+04;  0.0000000E+00;  3.7766512E+04;  4.7963408E-01;  0.0000000E+00;  1.5575475E-01;  2.5083736E+04;
  1.7673135E+00;  9.9999998E-03; -2.0648128E-01;9817;  1.4923235E+00;  0.0000000E+00; -2.9877512E-02;  1.0041739E+03;  1.2191251E-01;  3.0032795E+03;3; -3.3882172E+01;  0.0000000E+00;  8.4029779E+00;0;  1.6324594E+00;  2.8721320E+04;  0.0000000E+00;  5.6531811E+01;  4.0000000E+04;  0.0000000E+00;  3.7736441E+04;  1.6084710E+00;  0.0000000E+00;  2.3988349E-02;  1.9174277E+04;
  1.7677985E+00;  9.9999998E-03; -1.9639154E-01;9818;  1.4971507E+00;  0.0000000E+00; -3.2547675E-02;  1.0017136E+03;  1.2193172E-01;  1.2319464E+03;3; -2.3668640E+01;  0.0000000E+00;  6.6506424E+00;0;  1.5760506E+00;  2.8619752E+04;  0.0000000E+00;  4.6808848E+00;  4.0000000E+04;  0.0000000E+00;  3.7695199E+04;  1.5325246E+00;  0.0000000E+00;  4.3526057E-02;  4.1048474E+02;
  1.7681160E+00;  9.9999998E-03; -1.8625054E-01;9819;  1.4988146E+00;  0.0000000E+00; -3.4115043E-02;  1.0005894E+03;  1.2193891E-01;  4.2350766E+02;3; -1.5492677E+01;  0.0000000E+00;  4.7824731E+00;0;  1.4920776E+00;  2.8583545E+04;  0.0000000E+00; -1.3627726E+01;  4.0000000E+04;  0.0000000E+00;  3.7665125E+04;  1.4329952E+00;  0.0000000E+00;  5.9082374E-02;  3.4836484E+03;
  1.7684120E+00;  9.9999998E-03; -1.7608082E-01;9820;  1.4985018E+00;  0.0000000E+00; -3.5150949E-02;  9.9928448E+02;  1.2194510E-01; -5.1388092E+02;3; -8.1391916E+00;  0.0000000E+00;  3.0633879E+00;0;  1.3979883E+00;  2.8542346E+04;  0.0000000E+00; -7.0812435E+00;  4.0000000E+04;  0.0000000E+00;  3.7627953E+04;  1.3189943E+00;  0.0000000E+00;  7.8993998E-02;  3.7373179E+03;
  1.7687347E+00;  9.9999998E-03; -1.6589086E-01;9821;  1.4963562E+00;  0.0000000E+00; -3.5798665E-02;  9.9776599E+02;  1.2195156E-01; -1.6036134E+03;3; -1.0303222E+00;  0.0000000E+00;  8.6313289E-01;0;  1.2951648E+00;  2.8494973E+04;  0.0000000E+00;  9.0960808E+00;  4.0000000E+04;  0.0000000E+00;  3.7583641E+04;  1.1918781E+00;  0.0000000E+00;  1.0328673E-01;  1.3496502E+04;
  1.7690790E+00;  9.9999998E-03; -1.5567017E-01;9822;  1.4922147E+00;  0.0000000E+00; -3.5914209E-02;  9.9657654E+02;  1.2195273E-01; -2.4560168E+03;3;  5.5215511E+00;  0.0000000E+00; -1.5213032E+00;0;  1.1824672E+00;  2.8463209E+04;  0.0000000E+00;  2.5295910E+01;  4.0000000E+04;  0.0000000E+00;  3.7544414E+04;  1.0537863E+00;  0.0000000E+00;  1.2868094E-01;  2.2261357E+04;
  1.7694325E+00;  9.9999998E-03; -1.4539993E-01;9823;  1.4859658E+00;  0.0000000E+00; -3.5041664E-02;  9.9607098E+02;  1.2194762E-01; -2.8170244E+03;3;  1.0808532E+01;  0.0000000E+00; -4.6296663E+00;0;  1.0598294E+00;  2.8458646E+04;  0.0000000E+00;  3.7531685E+01;  4.0000000E+04;  0.0000000E+00;  3.7520145E+04;  9.0952295E-01;  0.0000000E+00;  1.5030640E-01;  2.8139695E+04;
  1.7697868E+00;  9.9999998E-03; -1.3505577E-01;9824;  1.4779546E+00;  0.0000000E+00; -3.2923963E-02;  9.9629749E+02;  1.2193242E-01; -2.6530300E+03;3;  1.4906089E+01;  0.0000000E+00; -6.9757957E+00;0;  9.3395323E-01;  2.8481137E+04;  0.0000000E+00;  4.5040028E+01;  4.0000000E+04;  0.0000000E+00;  3.7516336E+04;  7.6732403E-01;  0.0000000E+00;  1.6662920E-01;  3.0940584E+04;
  1.7701453E+00;  9.9999998E-03; -1.2462199E-01;9825;  1.4687967E+00;  0.0000000E+00; -2.9783826E-02;  9.9706238E+02;  1.2191349E-01; -2.1036511E+03;3;  1.7483856E+01;  0.0000000E+00; -8.6419725E+00;0;  8.1350881E-01;  2.8519877E+04;  0.0000000E+00;  4.8016064E+01;  4.0000000E+04;  0.0000000E+00;  3.7529652E+04;  6.3510007E-01;  0.0000000E+00;  1.7840876E-01;  3.1036178E+04;
  1.7705110E+00;  9.9999998E-03; -1.1410699E-01;9826;  1.4590091E+00;  0.0000000E+00; -2.5712248E-02;  9.9799286E+02;  1.2189104E-01; -1.4364205E+03;3;  1.8922138E+01;  0.0000000E+00; -9.6504230E+00;0;  7.0235276E-01;  2.8563123E+04;  0.0000000E+00;  4.6873871E+01;  4.0000000E+04;  0.0000000E+00;  3.7550512E+04;  5.1699740E-01;  0.0000000E+00;  1.8535538E-01;  2.8967668E+04;
  1.7708901E+00;  9.9999998E-03; -1.0355244E-01;9827;  1.4498104E+00;  0.0000000E+00; -2.1026831E-02;  9.9877423E+02;  1.2187111E-01; -8.7666339E+02;3;  1.8780645E+01;  0.0000000E+00; -1.0087761E+01;0;  6.0648829E-01;  2.8599834E+04;  0.0000000E+00;  4.2072357E+01;  4.0000000E+04;  0.0000000E+00;  3.7567711E+04;  4.1862094E-01;  0.0000000E+00;  1.8786734E-01;  2.5257715E+04;
  1.7796868E+00;  9.9999998E-03; -1.8654327E-01;9858;  1.5079323E+00;  0.0000000E+00; -3.9381534E-02;  1.0023065E+03;  1.2133832E-01;  1.6238776E+03;3; -1.1704752E+01;  0.0000000E+00;  1.9970536E+00;0;  1.4434609E+00;  2.9062492E+04;  0.0000000E+00;  1.5558790E+01;  4.0000000E+04;  0.0000000E+00;  3.7529805E+04;  1.3138378E+00;  0.0000000E+00;  1.2962317E-01;  3.8174885E+03;
  1.7800144E+00;  9.9999998E-03; -1.7638347E-01;9859;  1.5078812E+00;  0.0000000E+00; -4.0339731E-02;  1.0012368E+03;  1.2134516E-01;  8.7024603E+02;3; -3.5454593E+00;  0.0000000E+00; -4.0515885E-01;0;  1.3751837E+00;  2.9031104E+04;  0.0000000E+00; -1.0826347E+01;  4.0000000E+04;  0.0000000E+00;  3.7496664E+04;  1.2259125E+00;  0.0000000E+00;  1.4927129E-01;  3.2308132E+03;
  1.7803012E+00;  9.9999998E-03; -1.6618460E-01;9860;  1.5050633E+00;  0.0000000E+00; -3.9933514E-02;  1.0003558E+03;  1.2134989E-01;  2.5016226E+02;3;  3.3476729E+00;  0.0000000E+00; -2.9726532E+00;0;  1.2779176E+00;  2.9009082E+04;  0.0000000E+00; -1.1757968E+01;  4.0000000E+04;  0.0000000E+00;  3.7463180E+04;  1.1147807E+00;  0.0000000E+00;  1.6313690E-01;  1.0857009E+03;
  1.7805984E+00;  9.9999998E-03; -1.5595950E-01;9861;  1.5005221E+00;  0.0000000E+00; -3.9019447E-02;  9.9931543E+02;  1.2135088E-01; -4.8115396E+02;3;  9.3156958E+00;  0.0000000E+00; -5.5186868E+00;0;  1.1733013E+00;  2.8983754E+04;  0.0000000E+00; -9.7330250E-02;  4.0000000E+04;  0.0000000E+00;  3.7424855E+04;  9.9357319E-01;  0.0000000E+00;  1.7972817E-01;  6.3675454E+03;
  1.7809185E+00;  9.9999998E-03; -1.4570664E-01;9862;  1.4941751E+00;  0.0000000E+00; -3.7417572E-02;  9.9837213E+02;  1.2135278E-01; -1.1434882E+03;3;  1.4338740E+01;  0.0000000E+00; -7.7805257E+00;0;  1.0591946E+00;  2.8962133E+04;  0.0000000E+00;  1.4090116E+01;  4.0000000E+04;  0.0000000E+00;  3.7388012E+04;  8.6370957E-01;  0.0000000E+00;  1.9548498E-01;  1.3256023E+04;
  1.7812529E+00;  9.9999998E-03; -1.3541202E-01;9863;  1.4860141E+00;  0.0000000E+00; -3.4929868E-02;  9.9781165E+02;  1.2134777E-01; -1.5362241E+03;3;  1.8248232E+01;  0.0000000E+00; -9.4967470E+00;0;  9.3662137E-01;  2.8955406E+04;  0.0000000E+00;  2.5870720E+01;  4.0000000E+04;  0.0000000E+00;  3.7361793E+04;  7.2903830E-01;  0.0000000E+00;  2.0758307E-01;  1.8379451E+04;
  1.7815969E+00;  9.9999998E-03; -1.2505767E-01;9864;  1.4764550E+00;  0.0000000E+00; -3.1541571E-02;  9.9774170E+02;  1.2133966E-01; -1.5843264E+03;3;  2.1032219E+01;  0.0000000E+00; -1.1184817E+01;0;  8.1215113E-01;  2.8964258E+04;  0.0000000E+00;  3.3687748E+01;  4.0000000E+04;  0.0000000E+00;  3.7351082E+04;  5.9722066E-01;  0.0000000E+00;  2.1493049E-01;  2.1211352E+04;
  1.7819463E+00;  9.9999998E-03; -1.1463483E-01;9865;  1.4662389E+00;  0.0000000E+00; -2.7417878E-02;  9.9804456E+02;  1.2132714E-01; -1.3709596E+03;3;  2.2434803E+01;  0.0000000E+00; -1.2442105E+01;0;  6.9426763E-01;  2.8983975E+04;  0.0000000E+00;  3.7446686E+01;  4.0000000E+04;  0.0000000E+00;  3.7354215E+04;  4.7660372E-01;  0.0000000E+00;  2.1766388E-01;  2.1916799E+04;
  1.7822971E+00;  9.9999998E-03; -1.0415235E-01;9866;  1.4562031E+00;  0.0000000E+00; -2.2712534E-02;  9.9849182E+02;  1.2131312E-01; -1.0566796E+03;3;  2.2413940E+01;  0.0000000E+00; -1.2167337E+01;0;  5.8911705E-01;  2.9007338E+04;  0.0000000E+00;  3.7493664E+01;  4.0000000E+04;  0.0000000E+00;  3.7363859E+04;  3.7324694E-01;  0.0000000E+00;  2.1587010E-01;  2.0881168E+04;
  1.7914897E+00;  9.9999998E-03; -1.7663041E-01;9895;  1.5128173E+00;  0.0000000E+00; -4.4581678E-02;  1.0032029E+03;  1.2084161E-01;  2.2042097E+03;3; -1.3480037E+00;  0.0000000E+00; -4.1048698E+00;0;  1.3262997E+00;  2.9480207E+04;  0.0000000E+00;  3.5160461E+01;  4.0000000E+04;  0.0000000E+00;  3.7365961E+04;  1.1096723E+00;  0.0000000E+00;  2.1662730E-01;  9.1940205E+03;
  1.7918487E+00;  9.9999998E-03; -1.6645736E-01;9896;  1.5112600E+00;  0.0000000E+00; -4.4075400E-02;  1.0019274E+03;  1.2085321E-01;  1.3254384E+03;3;  5.6500592E+00;  0.0000000E+00; -7.5317354E+00;0;  1.2640030E+00;  2.9441230E+04;  0.0000000E+00; -1.0730226E+00;  4.0000000E+04;  0.0000000E+00;  3.7325582E+04;  1.0354341E+00;  0.0000000E+00;  2.2856887E-01;  1.3598052E+03;
  1.7921410E+00;  9.9999998E-03; -1.5623108E-01;9897;  1.5069143E+00;  0.0000000E+00; -4.1971784E-02;  1.0013032E+03;  1.2085451E-01;  8.9566687E+02;3;  1.1793115E+01;  0.0000000E+00; -9.6226282E+00;0;  1.1688927E+00;  2.9432094E+04;  0.0000000E+00; -1.2406303E+01;  4.0000000E+04;  0.0000000E+00;  3.7295609E+04;  9.3646514E-01;  0.0000000E+00;  2.3242760E-01;  2.5424219E+03;
  1.7924268E+00;  9.9999998E-03; -1.4596966E-01;9898;  1.5008413E+00;  0.0000000E+00; -3.9470837E-02;  1.0006777E+03;  1.2085440E-01;  4.6550684E+02;3;  1.6956509E+01;  0.0000000E+00; -1.1246863E+01;0;  1.0659977E+00;  2.9424119E+04;  0.0000000E+00; -8.1643229E+00;  4.0000000E+04;  0.0000000E+00;  3.7264664E+04;  8.2674837E-01;  0.0000000E+00;  2.3924933E-01;  9.0191870E+02;
  1.7927278E+00;  9.9999998E-03; -1.3567851E-01;9899;  1.4927944E+00;  0.0000000E+00; -3.6321983E-02;  1.0000183E+03;  1.2085465E-01;  1.2602338E+01;3;  2.1008799E+01;  0.0000000E+00; -1.2880725E+01;0;  9.4890344E-01;  2.9413391E+04;  0.0000000E+00;  2.0367053E+00;  4.0000000E+04;  0.0000000E+00;  3.7233410E+04;  7.0444673E-01;  0.0000000E+00;  2.4445669E-01;  5.4873628E+03;
  1.7930427E+00;  9.9999998E-03; -1.2535430E-01;9900;  1.4829824E+00;  0.0000000E+00; -3.2207534E-02;  9.9949402E+02;  1.2085398E-01; -3.4711960E+02;3;  2.3759384E+01;  0.0000000E+00; -1.4085996E+01;0;  8.1959987E-01;  2.9407027E+04;  0.0000000E+00;  1.2164044E+01;  4.0000000E+04;  0.0000000E+00;  3.7206801E+04;  5.7492316E-01;  0.0000000E+00;  2.4467672E-01;  9.5329766E+03;
  1.7933655E+00;  9.9999998E-03; -1.1498853E-01;9901;  1.4724447E+00;  0.0000000E+00; -2.7591929E-02;  9.9919879E+02;  1.2084986E-01; -5.4928900E+02;3;  2.5329273E+01;  0.0000000E+00; -1.4373761E+01;0;  6.9373935E-01;  2.9407266E+04;  0.0000000E+00;  1.9602388E+01;  4.0000000E+04;  0.0000000E+00;  3.7188898E+04;  4.5188555E-01;  0.0000000E+00;  2.4185379E-01;  1.2127778E+04;
  1.7936907E+00;  9.9999998E-03; -1.0457478E-01;9902;  1.4618585E+00;  0.0000000E+00; -2.2866225E-02;  9.9912421E+02;  1.2084331E-01; -6.0001105E+02;3;  2.5560888E+01;  0.0000000E+00; -1.4154899E+01;0;  5.7877576E-01;  2.9412729E+04;  0.0000000E+00;  2.3788128E+01;  4.0000000E+04;  0.0000000E+00;  3.7180512E+04;  3.4236494E-01;  0.0000000E+00;  2.3641081E-01;  1.3199240E+04;
  1.8032053E+00;  9.9999998E-03; -1.6663857E-01;9930;  1.5131168E+00;  0.0000000E+00; -4.7524441E-02;  1.0045567E+03;  1.2042996E-01;  3.0599541E+03;3;  6.6456957E+00;  0.0000000E+00; -1.0808048E+01;0;  1.2169557E+00;  2.9881094E+04;  0.0000000E+00;  6.4724518E+01;  4.0000000E+04;  0.0000000E+00;  3.7211824E+04;  9.2363852E-01;  0.0000000E+00;  2.9331717E-01;  1.6179587E+04;
  1.8036040E+00;  9.9999998E-03; -1.5646379E-01;9931;  1.5103477E+00;  0.0000000E+00; -4.4584777E-02;  1.0028059E+03;  1.2044558E-01;  1.8826639E+03;3;  1.2878930E+01;  0.0000000E+00; -1.3799716E+01;0;  1.1490567E+00;  2.9825941E+04;  0.0000000E+00;  1.8802761E+01;  4.0000000E+04;  0.0000000E+00;  3.7155676E+04;  8.6384398E-01;  0.0000000E+00;  2.8521264E-01;  4.4484814E+03;
  1.8039211E+00;  9.9999998E-03; -1.4622499E-01;9932;  1.5050435E+00;  0.0000000E+00; -4.0933948E-02;  1.0020659E+03;  1.2045133E-01;  1.3851686E+03;3;  1.8075577E+01;  0.0000000E+00; -1.5352281E+01;0;  1.0593196E+00;  2.9813441E+04;  0.0000000E+00; -4.7082877E+00;  4.0000000E+04;  0.0000000E+00;  3.7120484E+04;  7.8082526E-01;  0.0000000E+00;  2.7849436E-01;  1.8796119E+03;
  1.8042089E+00;  9.9999998E-03; -1.3593642E-01;9933;  1.4975835E+00;  0.0000000E+00; -3.6711097E-02;  1.0016503E+03;  1.2045150E-01;  1.1058431E+03;3;  2.2211456E+01;  0.0000000E+00; -1.6195120E+01;0;  9.5159006E-01;  2.9813322E+04;  0.0000000E+00; -1.0890985E+01;  4.0000000E+04;  0.0000000E+00;  3.7093535E+04;  6.7907435E-01;  0.0000000E+00;  2.7251568E-01;  1.9585759E+03;
  1.8044965E+00;  9.9999998E-03; -1.2561171E-01;9934;  1.4885448E+00;  0.0000000E+00; -3.2217167E-02;  1.0012351E+03;  1.2045147E-01;  8.2710626E+02;3;  2.5505907E+01;  0.0000000E+00; -1.6489428E+01;0;  8.3383518E-01;  2.9811824E+04;  0.0000000E+00; -7.6094122E+00;  4.0000000E+04;  0.0000000E+00;  3.7067648E+04;  5.6661254E-01;  0.0000000E+00;  2.6722264E-01;  1.1540424E+02;
  1.8047880E+00;  9.9999998E-03; -1.1525193E-01;9935;  1.4781115E+00;  0.0000000E+00; -2.7357994E-02;  1.0008480E+03;  1.2045041E-01;  5.6754077E+02;3;  2.7300728E+01;  0.0000000E+00; -1.6497877E+01;0;  7.0644093E-01;  2.9809734E+04;  0.0000000E+00; -1.0171126E+00;  4.0000000E+04;  0.0000000E+00;  3.7044602E+04;  4.4678086E-01;  0.0000000E+00;  2.5966004E-01;  2.6591658E+03;
  1.8050828E+00;  9.9999998E-03; -1.0485999E-01;9936;  1.4674263E+00;  0.0000000E+00; -2.2455387E-02;  1.0005029E+03;  1.2044874E-01;  3.3628671E+02;3;  2.8063417E+01;  0.0000000E+00; -1.5688393E+01;0;  5.8462679E-01;  2.9806832E+04;  0.0000000E+00;  5.1784816E+00;  4.0000000E+04;  0.0000000E+00;  3.7025551E+04;  3.3442569E-01;  0.0000000E+00;  2.5020114E-01;  4.7268931E+03;
  1.8152708E+00;  9.9999998E-03; -1.4638366E-01;9963;  1.5065131E+00;  0.0000000E+00; -4.2508934E-02;  1.0040848E+03;  1.2010857E-01;  2.6700544E+03;3;  1.7919878E+01;  0.0000000E+00; -1.8932814E+01;0;  1.0349801E+00;  3.0193484E+04;  0.0000000E+00;  5.0109047E+01;  4.0000000E+04;  0.0000000E+00;  3.6998172E+04;  7.1453381E-01;  0.0000000E+00;  3.2044619E-01;  1.1255757E+04;
  1.8156177E+00;  9.9999998E-03; -1.3614874E-01;9964;  1.5002666E+00;  0.0000000E+00; -3.7291892E-02;  1.0029014E+03;  1.2011722E-01;  1.8950126E+03;3;  2.2281174E+01;  0.0000000E+00; -1.9517340E+01;0;  9.4278848E-01;  3.0167645E+04;  0.0000000E+00;  1.5511305E+01;  4.0000000E+04;  0.0000000E+00;  3.6946801E+04;  6.4237976E-01;  0.0000000E+00;  3.0040875E-01;  3.7090518E+03;
  1.8159177E+00;  9.9999998E-03; -1.2585066E-01;9965;  1.4926494E+00;  0.0000000E+00; -3.2184042E-02;  1.0023531E+03;  1.2012079E-01;  1.5357959E+03;3;  2.5813128E+01;  0.0000000E+00; -1.9220125E+01;0;  8.4592897E-01;  3.0163730E+04;  0.0000000E+00; -2.4972315E+00;  4.0000000E+04;  0.0000000E+00;  3.6914289E+04;  5.5988842E-01;  0.0000000E+00;  2.8604054E-01;  1.7049235E+03;
  1.8161963E+00;  9.9999998E-03; -1.1550244E-01;9966;  1.4832820E+00;  0.0000000E+00; -2.7173813E-02;  1.0020486E+03;  1.2012114E-01;  1.3362205E+03;3;  2.8276379E+01;  0.0000000E+00; -1.8478006E+01;0;  7.3323905E-01;  3.0166314E+04;  0.0000000E+00; -8.7312679E+00;  4.0000000E+04;  0.0000000E+00;  3.6891016E+04;  4.5966503E-01;  0.0000000E+00;  2.7357399E-01;  1.8489685E+03;
  1.8164653E+00;  9.9999998E-03; -1.0510903E-01;9967;  1.4733291E+00;  0.0000000E+00; -2.2569241E-02;  1.0018266E+03;  1.2011970E-01;  1.1906990E+03;3;  2.9698624E+01;  0.0000000E+00; -1.7516897E+01;0;  6.2007970E-01;  3.0168801E+04;  0.0000000E+00; -8.3127241E+00;  4.0000000E+04;  0.0000000E+00;  3.6874105E+04;  3.5792050E-01;  0.0000000E+00;  2.6215920E-01;  1.1125220E+03;
  1.8272181E+00;  9.9999998E-03; -1.2597096E-01;9992;  1.4938716E+00;  0.0000000E+00; -3.2279003E-02;  1.0041641E+03;  1.1984180E-01;  2.6461357E+03;3;  2.5503038E+01;  0.0000000E+00; -2.2207607E+01;0;  8.2913303E-01;  3.0505080E+04;  0.0000000E+00;  4.8621506E+01;  4.0000000E+04;  0.0000000E+00;  3.6792418E+04;  5.2451497E-01;  0.0000000E+00;  3.0461803E-01;  1.0066719E+04;
  1.8275316E+00;  9.9999998E-03; -1.1568244E-01;9993;  1.4861480E+00;  0.0000000E+00; -2.6889242E-02;  1.0032112E+03;  1.1984890E-01;  2.0390193E+03;3;  2.7866089E+01;  0.0000000E+00; -2.1203857E+01;0;  7.4065113E-01;  3.0489695E+04;  0.0000000E+00;  2.0553982E+01;  4.0000000E+04;  0.0000000E+00;  3.6743363E+04;  4.5644706E-01;  0.0000000E+00;  2.8420407E-01;  4.5891846E+03;
  1.8278072E+00;  9.9999998E-03; -1.0533416E-01;9994;  1.4772999E+00;  0.0000000E+00; -2.2058828E-02;  1.0027283E+03;  1.1985254E-01;  1.7312970E+03;3;  2.9647860E+01;  0.0000000E+00; -1.9711107E+01;0;  6.4320457E-01;  3.0487916E+04;  0.0000000E+00;  4.0691819E+00;  4.0000000E+04;  0.0000000E+00;  3.6712297E+04;  3.7558198E-01;  0.0000000E+00;  2.6762259E-01;  2.0638376E+03;
  3.8781799E-03;  9.9999998E-03; -9.9963456E-02;2467;  6.3718143E-03;  0.0000000E+00;  1.5532643E-05;  9.8514514E+02;  1.0000000E-01; -1.2306961E+04;3;  8.2801926E+01;  0.0000000E+00;  6.4067805E-01;0;  2.3308704E-02;  3.8837641E+04;  0.0000000E+00; -1.7369112E-02;  4.0000000E+04;  0.0000000E+00;  3.9999117E+04;  2.3967594E-02;  0.0000000E+00; -6.5889087E-04;  1.1106620E+03;
  3.8731778E-03;  9.9999998E-03; -8.9961141E-02;2468;  6.3290298E-03;  0.0000000E+00; -1.6777120E-05;  9.8513177E+02;  1.0000000E-01; -1.2318022E+04;3;  8.3009659E+01;  0.0000000E+00;  2.4923679E-01;0;  2.2961048E-02;  3.8836332E+04;  0.0000000E+00; -1.0406833E-02;  4.0000000E+04;  0.0000000E+00;  3.9999422E+04;  2.3637371E-02;  0.0000000E+00; -6.7632238E-04;  1.1421951E+03;
  3.8638692E-03;  9.9999998E-03; -7.9961196E-02;2469;  6.2699663E-03;  0.0000000E+00; -4.9764953E-05;  9.8512323E+02;  1.0000000E-01; -1.2325133E+04;3;  8.3359825E+01;  0.0000000E+00; -3.6634989E-02;0;  2.2605766E-02;  3.8835277E+04;  0.0000000E+00; -6.5675015E-03;  4.0000000E+04;  0.0000000E+00;  3.9999984E+04;  2.3275221E-02;  0.0000000E+00; -6.6945521E-04;  1.1885197E+03;
  3.8512840E-03;  9.9999998E-03; -6.9963925E-02;2470;  6.1994288E-03;  0.0000000E+00; -8.0192593E-05;  9.8511823E+02;  1.0000000E-01; -1.2329281E+04;3;  8.3827721E+01;  0.0000000E+00; -2.2879787E-01;0;  2.2253852E-02;  3.8834516E+04;  0.0000000E+00; -4.4087390E-03;  4.0000000E+04;  0.0000000E+00;  4.0000355E+04;  2.2887766E-02;  0.0000000E+00; -6.3391426E-04;  1.2484780E+03;
  3.8365207E-03;  9.9999998E-03; -5.9968922E-02;2471;  6.1233058E-03;  0.0000000E+00; -1.0472570E-04;  9.8512091E+02;  1.0000000E-01; -1.2327059E+04;3;  8.4341690E+01;  0.0000000E+00; -3.4071973E-01;0;  2.1917410E-02;  3.8833934E+04;  0.0000000E+00; -3.0832991E-03;  4.0000000E+04;  0.0000000E+00;  4.0000836E+04;  2.2488097E-02;  0.0000000E+00; -5.7068560E-04;  1.3190253E+03;
  3.8212314E-03;  9.9999998E-03; -4.9975459E-02;2472;  6.0479022E-03;  0.0000000E+00; -1.2013256E-04;  9.8512598E+02;  1.0000000E-01; -1.2322861E+04;3;  8.4885132E+01;  0.0000000E+00; -3.8437277E-01;0;  2.1608619E-02;  3.8833824E+04;  0.0000000E+00; -2.1572670E-03;  4.0000000E+04;  0.0000000E+00;  4.0001285E+04;  2.2094434E-02;  0.0000000E+00; -4.8581455E-04;  1.3948578E+03;
  3.8065515E-03;  9.9999998E-03; -3.9982323E-02;2473;  5.9788716E-03;  0.0000000E+00; -1.2326904E-04;  9.8513568E+02;  1.0000000E-01; -1.2314812E+04;3;  8.5384781E+01;  0.0000000E+00; -3.7175226E-01;0;  2.1339102E-02;  3.8833828E+04;  0.0000000E+00; -1.4342082E-03;  4.0000000E+04;  0.0000000E+00;  4.0001941E+04;  2.1728564E-02;  0.0000000E+00; -3.8946237E-04;  1.4692887E+03;
  3.7937646E-03;  9.9999998E-03; -2.9988600E-02;2474;  5.9209270E-03;  0.0000000E+00; -1.1185002E-04;  9.8514667E+02;  1.0000000E-01; -1.2305726E+04;3;  8.5810799E+01;  0.0000000E+00; -3.1673887E-01;0;  2.1119075E-02;  3.8834027E+04;  0.0000000E+00; -8.4706559E-04;  4.0000000E+04;  0.0000000E+00;  4.0003238E+04;  2.1413507E-02;  0.0000000E+00; -2.9443280E-04;  1.5354119E+03;
  3.7839026E-03;  9.9999998E-03; -1.9993626E-02;2475;  5.8775023E-03;  0.0000000E+00; -8.4907144E-05;  9.8515674E+02;  1.0000000E-01; -1.2297381E+04;3;  8.6133240E+01;  0.0000000E+00; -2.2898938E-01;0;  2.0956380E-02;  3.8834246E+04;  0.0000000E+00; -3.9389354E-04;  4.0000000E+04;  0.0000000E+00;  4.0003727E+04;  2.1170568E-02;  0.0000000E+00; -2.1418683E-04;  1.5871417E+03;
  3.7777361E-03;  9.9999998E-03; -9.9972831E-03;2476;  5.8508306E-03;  0.0000000E+00; -4.5302844E-05;  9.8516089E+02;  1.0000000E-01; -1.2293924E+04;3;  8.6354095E+01;  0.0000000E+00; -1.1841652E-01;0;  2.0856597E-02;  3.8834473E+04;  0.0000000E+00; -1.0159750E-04;  4.0000000E+04;  0.0000000E+00;  4.0003301E+04;  2.1017181E-02;  0.0000000E+00; -1.6058453E-04;  1.6199609E+03;
  3.7756453E-03;  9.9999998E-03; -1.3333218E-10;2477;  5.8417828E-03;  0.0000000E+00; -1.6700225E-09;  9.8516235E+02;  1.0000000E-01; -1.2292689E+04;3;  8.6429153E+01;  0.0000000E+00; -1.6040131E-05;0;  2.0822978E-02;  3.8834617E+04;  0.0000000E+00; -5.1464209E-13;  4.0000000E+04;  0.0000000E+00;  4.0003281E+04;  2.0964732E-02;  0.0000000E+00; -1.4175443E-04;  1.6311881E+03;
  3.7777363E-03;  9.9999998E-03;  9.9972822E-03;2478;  5.8508296E-03;  0.0000000E+00;  4.5304179E-05;  9.8516089E+02;  1.0000000E-01; -1.2293924E+04;3;  8.6354065E+01;  0.0000000E+00;  1.1837748E-01;0;  2.0856593E-02;  3.8834473E+04;  0.0000000E+00; -1.0157800E-04;  4.0000000E+04;  0.0000000E+00;  4.0003301E+04;  2.1017179E-02;  0.0000000E+00; -1.6058647E-04;  1.6199697E+03;
  3.7839040E-03;  9.9999998E-03;  1.9993626E-02;2479;  5.8775074E-03;  0.0000000E+00;  8.4902327E-05;  9.8515674E+02;  1.0000000E-01; -1.2297381E+04;3;  8.6133186E+01;  0.0000000E+00;  2.2897458E-01;0;  2.0956378E-02;  3.8834254E+04;  0.0000000E+00; -3.9389252E-04;  4.0000000E+04;  0.0000000E+00;  4.0003727E+04;  2.1170568E-02;  0.0000000E+00; -2.1418968E-04;  1.5871479E+03;
  3.7937653E-03;  9.9999998E-03;  2.9988600E-02;2480;  5.9209373E-03;  0.0000000E+00;  1.1184250E-04;  9.8514673E+02;  1.0000000E-01; -1.2305677E+04;3;  8.5810387E+01;  0.0000000E+00;  3.1672052E-01;0;  2.1119097E-02;  3.8834031E+04;  0.0000000E+00; -8.4709888E-04;  4.0000000E+04;  0.0000000E+00;  4.0003238E+04;  2.1413533E-02;  0.0000000E+00; -2.9443623E-04;  1.5354176E+03;
  3.8065535E-03;  9.9999998E-03;  3.9982323E-02;2481;  5.9788935E-03;  0.0000000E+00;  1.2326099E-04;  9.8513562E+02;  1.0000000E-01; -1.2314861E+04;3;  8.5385414E+01;  0.0000000E+00;  3.7176493E-01;0;  2.1339135E-02;  3.8833832E+04;  0.0000000E+00; -1.4340540E-03;  4.0000000E+04;  0.0000000E+00;  4.0001941E+04;  2.1728599E-02;  0.0000000E+00; -3.8946464E-04;  1.4693054E+03;
  3.8212333E-03;  9.9999998E-03;  4.9975459E-02;2482;  6.0479073E-03;  0.0000000E+00;  1.2012481E-04;  9.8512598E+02;  1.0000000E-01; -1.2322861E+04;3;  8.4885162E+01;  0.0000000E+00;  3.8438624E-01;0;  2.1608638E-02;  3.8833824E+04;  0.0000000E+00; -2.1573319E-03;  4.0000000E+04;  0.0000000E+00;  4.0001285E+04;  2.2094453E-02;  0.0000000E+00; -4.8581453E-04;  1.3948746E+03;
  3.8365226E-03;  9.9999998E-03;  5.9968919E-02;2483;  6.1233100E-03;  0.0000000E+00;  1.0470958E-04;  9.8512091E+02;  1.0000000E-01; -1.2327059E+04;3;  8.4341637E+01;  0.0000000E+00;  3.4072575E-01;0;  2.1917468E-02;  3.8833922E+04;  0.0000000E+00; -3.0836931E-03;  4.0000000E+04;  0.0000000E+00;  4.0000836E+04;  2.2488151E-02;  0.0000000E+00; -5.7068345E-04;  1.3190359E+03;
  1.3382303E-02;  9.9999998E-03; -9.9976219E-02;2527;  5.3453092E-03;  0.0000000E+00;  4.3437907E-05;  9.8851556E+02;  1.0000000E-01; -9.5146445E+03;3;  4.8177780E+01;  0.0000000E+00;  5.3710920E-01;0;  1.9839745E-02;  3.9096836E+04;  0.0000000E+00; -2.3947803E-02;  4.0000000E+04;  0.0000000E+00;  3.9999441E+04;  2.0527732E-02;  0.0000000E+00; -6.8798685E-04;  8.3988464E+02;
  1.3380141E-02;  9.9999998E-03; -8.9973792E-02;2528;  5.3006238E-03;  0.0000000E+00;  1.2702687E-05;  9.8849695E+02;  1.0000000E-01; -9.5300518E+03;3;  4.8279190E+01;  0.0000000E+00;  2.0547226E-01;0;  1.9507430E-02;  3.9095195E+04;  0.0000000E+00; -1.5020590E-02;  4.0000000E+04;  0.0000000E+00;  3.9999426E+04;  2.0231890E-02;  0.0000000E+00; -7.2445930E-04;  8.4875702E+02;
  1.3374110E-02;  9.9999998E-03; -7.9973266E-02;2529;  5.2371966E-03;  0.0000000E+00; -1.8651697E-05;  9.8848480E+02;  1.0000000E-01; -9.5401250E+03;3;  4.8522385E+01;  0.0000000E+00; -3.6777809E-02;0;  1.9174056E-02;  3.9093863E+04;  0.0000000E+00; -1.0024386E-02;  4.0000000E+04;  0.0000000E+00;  3.9998988E+04;  1.9907100E-02;  0.0000000E+00; -7.3304411E-04;  8.7348956E+02;
  1.3364982E-02;  9.9999998E-03; -6.9974937E-02;2530;  5.1606270E-03;  0.0000000E+00; -4.7833259E-05;  9.8846924E+02;  1.0000000E-01; -9.5530137E+03;3;  4.8958946E+01;  0.0000000E+00; -1.9995998E-01;0;  1.8850107E-02;  3.9092262E+04;  0.0000000E+00; -7.0994478E-03;  4.0000000E+04;  0.0000000E+00;  3.9999109E+04;  1.9558443E-02;  0.0000000E+00; -7.0833688E-04;  9.1673602E+02;
  1.3353480E-02;  9.9999998E-03; -5.9978243E-02;2531;  5.0773784E-03;  0.0000000E+00; -7.1885159E-05;  9.8845715E+02;  1.0000000E-01; -9.5630381E+03;3;  4.9507839E+01;  0.0000000E+00; -2.9475430E-01;0;  1.8546322E-02;  3.9091340E+04;  0.0000000E+00; -5.1780073E-03;  4.0000000E+04;  0.0000000E+00;  3.9999641E+04;  1.9197335E-02;  0.0000000E+00; -6.5101247E-04;  9.7768829E+02;
  1.3340991E-02;  9.9999998E-03; -4.9982790E-02;2532;  4.9941116E-03;  0.0000000E+00; -8.7852073E-05;  9.8845605E+02;  1.0000000E-01; -9.5639268E+03;3;  5.0065811E+01;  0.0000000E+00; -3.3095568E-01;0;  1.8272823E-02;  3.9090336E+04;  0.0000000E+00; -3.7249958E-03;  4.0000000E+04;  0.0000000E+00;  4.0000574E+04;  1.8840376E-02;  0.0000000E+00; -5.6755310E-04;  1.0513409E+03;
  1.3328577E-02;  9.9999998E-03; -3.9987598E-02;2533;  4.9175327E-03;  0.0000000E+00; -9.3038827E-05;  9.8845374E+02;  1.0000000E-01; -9.5658525E+03;3;  5.0653622E+01;  0.0000000E+00; -3.2053545E-01;0;  1.8038303E-02;  3.9089863E+04;  0.0000000E+00; -2.5172480E-03;  4.0000000E+04;  0.0000000E+00;  4.0001332E+04;  1.8507505E-02;  0.0000000E+00; -4.6920171E-04;  1.1296705E+03;
  1.3317427E-02;  9.9999998E-03; -2.9991996E-02;2534;  4.8525557E-03;  0.0000000E+00; -8.5305364E-05;  9.8845844E+02;  1.0000000E-01; -9.5619521E+03;3;  5.1148232E+01;  0.0000000E+00; -2.7251193E-01;0;  1.7849952E-02;  3.9089426E+04;  0.0000000E+00; -1.4986299E-03;  4.0000000E+04;  0.0000000E+00;  4.0002277E+04;  1.8220194E-02;  0.0000000E+00; -3.7024141E-04;  1.2032056E+03;
  1.3308607E-02;  9.9999998E-03; -1.9995505E-02;2535;  4.8032566E-03;  0.0000000E+00; -6.4665292E-05;  9.8846332E+02;  1.0000000E-01; -9.5579023E+03;3;  5.1535751E+01;  0.0000000E+00; -1.9456676E-01;0;  1.7712571E-02;  3.9089203E+04;  0.0000000E+00; -6.9875317E-04;  4.0000000E+04;  0.0000000E+00;  4.0002863E+04;  1.7998295E-02;  0.0000000E+00; -2.8572424E-04;  1.2629773E+03;
  1.3302977E-02;  9.9999998E-03; -9.9980934E-03;2536;  4.7725458E-03;  0.0000000E+00; -3.5118406E-05;  9.8846600E+02;  1.0000000E-01; -9.5556807E+03;3;  5.1787285E+01;  0.0000000E+00; -1.0084907E-01;0;  1.7629137E-02;  3.9089168E+04;  0.0000000E+00; -1.8029049E-04;  4.0000000E+04;  0.0000000E+00;  4.0003418E+04;  1.7858049E-02;  0.0000000E+00; -2.2891212E-04;  1.3018542E+03;
  1.3301029E-02;  9.9999998E-03; -7.4658252E-11;2537;  4.7620623E-03;  0.0000000E+00; -2.2631206E-09;  9.8846783E+02;  1.0000000E-01; -9.5541992E+03;3;  5.1867355E+01;  0.0000000E+00; -3.1497484E-07;0;  1.7601172E-02;  3.9089172E+04;  0.0000000E+00; -4.0660309E-14;  4.0000000E+04;  0.0000000E+00;  4.0003465E+04;  1.7810069E-02;  0.0000000E+00; -2.0889721E-04;  1.3153058E+03;
  1.3302978E-02;  9.9999998E-03;  9.9980934E-03;2538;  4.7725500E-03;  0.0000000E+00;  3.5112196E-05;  9.8846600E+02;  1.0000000E-01; -9.5556807E+03;3;  5.1787266E+01;  0.0000000E+00;  1.0084137E-01;0;  1.7629130E-02;  3.9089172E+04;  0.0000000E+00; -1.8023707E-04;  4.0000000E+04;  0.0000000E+00;  4.0003422E+04;  1.7858043E-02;  0.0000000E+00; -2.2891378E-04;  1.3018607E+03;
  1.3308608E-02;  9.9999998E-03;  1.9995505E-02;2539;  4.8032603E-03;  0.0000000E+00;  6.4661515E-05;  9.8846332E+02;  1.0000000E-01; -9.5579023E+03;3;  5.1535767E+01;  0.0000000E+00;  1.9452935E-01;0;  1.7712589E-02;  3.9089207E+04;  0.0000000E+00; -6.9860171E-04;  4.0000000E+04;  0.0000000E+00;  4.0002863E+04;  1.7998315E-02;  0.0000000E+00; -2.8572686E-04;  1.2629841E+03;
  1.3317429E-02;  9.9999998E-03;  2.9991996E-02;2540;  4.8525622E-03;  0.0000000E+00;  8.5296197E-05;  9.8845844E+02;  1.0000000E-01; -9.5619521E+03;3;  5.1148323E+01;  0.0000000E+00;  2.7247146E-01;0;  1.7849980E-02;  3.9089422E+04;  0.0000000E+00; -1.4985160E-03;  4.0000000E+04;  0.0000000E+00;  4.0002277E+04;  1.8220223E-02;  0.0000000E+00; -3.7024415E-04;  1.2032141E+03;
  1.3328579E-02;  9.9999998E-03;  3.9987598E-02;2541;  4.9175471E-03;  0.0000000E+00;  9.3032861E-05;  9.8845374E+02;  1.0000000E-01; -9.5658525E+03;3;  5.0653667E+01;  0.0000000E+00;  3.2050744E-01;0;  1.8038386E-02;  3.9089863E+04;  0.0000000E+00; -2.5165523E-03;  4.0000000E+04;  0.0000000E+00;  4.0001332E+04;  1.8507591E-02;  0.0000000E+00; -4.6920351E-04;  1.1296709E+03;
  1.3340993E-02;  9.9999998E-03;  4.9982790E-02;2542;  4.9941270E-03;  0.0000000E+00;  8.7840519E-05;  9.8845605E+02;  1.0000000E-01; -9.5639268E+03;3;  5.0065865E+01;  0.0000000E+00;  3.3088148E-01;0;  1.8272901E-02;  3.9090348E+04;  0.0000000E+00; -3.7247748E-03;  4.0000000E+04;  0.0000000E+00;  4.0000574E+04;  1.8840453E-02;  0.0000000E+00; -5.6755240E-04;  1.0513479E+03;
  1.3353482E-02;  9.9999998E-03;  5.9978243E-02;2543;  5.0773886E-03;  0.0000000E+00;  7.1873736E-05;  9.8845715E+02;  1.0000000E-01; -9.5630381E+03;3;  4.9507774E+01;  0.0000000E+00;  2.9473484E-01;0;  1.8546404E-02;  3.9091344E+04;  0.0000000E+00; -5.1788366E-03;  4.0000000E+04;  0.0000000E+00;  3.9999641E+04;  1.9197412E-02;  0.0000000E+00; -6.5100787E-04;  9.7769086E+02;
  2.2868944E-02;  9.9999998E-03; -9.9981390E-02;2588;  4.3452773E-03;  0.0000000E+00;  7.0443042E-05;  9.9229169E+02;  1.0000000E-01; -6.3861899E+03;3;  1.4874061E+01;  0.0000000E+00;  4.3120477E-01;0;  1.6404878E-02;  3.9391633E+04;  0.0000000E+00; -2.9976143E-02;  4.0000000E+04;  0.0000000E+00;  3.9999262E+04;  1.7089726E-02;  0.0000000E+00; -6.8484712E-04;  5.6209003E+02;
  2.2869471E-02;  9.9999998E-03; -8.9981452E-02;2589;  4.2952965E-03;  0.0000000E+00;  4.3136835E-05;  9.9226733E+02;  1.0000000E-01; -6.4063867E+03;3;  1.4852490E+01;  0.0000000E+00;  1.6069397E-01;0;  1.6106106E-02;  3.9389980E+04;  0.0000000E+00; -1.9701876E-02;  4.0000000E+04;  0.0000000E+00;  3.9999164E+04;  1.6849648E-02;  0.0000000E+00; -7.4354163E-04;  5.4078107E+02;
  2.2866495E-02;  9.9999998E-03; -7.9982415E-02;2590;  4.2232228E-03;  0.0000000E+00;  1.4549077E-05;  9.9224170E+02;  1.0000000E-01; -6.4276206E+03;3;  1.5020026E+01;  0.0000000E+00; -3.6755279E-02;0;  1.5813328E-02;  3.9387691E+04;  0.0000000E+00; -1.3726017E-02;  4.0000000E+04;  0.0000000E+00;  3.9999742E+04;  1.6584603E-02;  0.0000000E+00; -7.7127386E-04;  5.3591699E+02;
  2.2860425E-02;  9.9999998E-03; -6.9984198E-02;2591;  4.1345013E-03;  0.0000000E+00; -1.2674349E-05;  9.9221637E+02;  1.0000000E-01; -6.4486079E+03;3;  1.5366790E+01;  0.0000000E+00; -1.6809513E-01;0;  1.5536790E-02;  3.9385992E+04;  0.0000000E+00; -1.0008627E-02;  4.0000000E+04;  0.0000000E+00;  3.9999488E+04;  1.6298296E-02;  0.0000000E+00; -7.6150626E-04;  5.5546973E+02;
  2.2851799E-02;  9.9999998E-03; -5.9986629E-02;2592;  4.0360894E-03;  0.0000000E+00; -3.5662484E-05;  9.9219861E+02;  1.0000000E-01; -6.4633232E+03;3;  1.5837166E+01;  0.0000000E+00; -2.4371736E-01;0;  1.5285849E-02;  3.9384172E+04;  0.0000000E+00; -7.3989513E-03;  4.0000000E+04;  0.0000000E+00;  3.9999738E+04;  1.6000263E-02;  0.0000000E+00; -7.1441504E-04;  6.0181250E+02;
  2.2841748E-02;  9.9999998E-03; -4.9989663E-02;2593;  3.9372630E-03;  0.0000000E+00; -5.2062082E-05;  9.9218939E+02;  1.0000000E-01; -6.4709282E+03;3;  1.6378433E+01;  0.0000000E+00; -2.7196977E-01;0;  1.5067030E-02;  3.9382625E+04;  0.0000000E+00; -5.3367377E-03;  4.0000000E+04;  0.0000000E+00;  4.0000090E+04;  1.5703719E-02;  0.0000000E+00; -6.3668948E-04;  6.7067889E+02;
  2.2831298E-02;  9.9999998E-03; -3.9992746E-02;2594;  3.8460523E-03;  0.0000000E+00; -5.9808961E-05;  9.9218207E+02;  1.0000000E-01; -6.4770020E+03;3;  1.6964989E+01;  0.0000000E+00; -2.6206112E-01;0;  1.4885198E-02;  3.9381539E+04;  0.0000000E+00; -3.5967270E-03;  4.0000000E+04;  0.0000000E+00;  4.0001246E+04;  1.5425600E-02;  0.0000000E+00; -5.4040155E-04;  7.5234686E+02;
  2.2821683E-02;  9.9999998E-03; -2.9995475E-02;2595;  3.7685900E-03;  0.0000000E+00; -5.7571804E-05;  9.9217798E+02;  1.0000000E-01; -6.4804092E+03;3;  1.7511225E+01;  0.0000000E+00; -2.2081938E-01;0;  1.4743298E-02;  3.9380730E+04;  0.0000000E+00; -2.1323971E-03;  4.0000000E+04;  0.0000000E+00;  4.0001480E+04;  1.5184353E-02;  0.0000000E+00; -4.4105458E-04;  8.3421094E+02;
  2.2813909E-02;  9.9999998E-03; -1.9997558E-02;2596;  3.7100592E-03;  0.0000000E+00; -4.5580462E-05;  9.9217932E+02;  1.0000000E-01; -6.4792734E+03;3;  1.7933929E+01;  0.0000000E+00; -1.5879321E-01;0;  1.4642241E-02;  3.9380270E+04;  0.0000000E+00; -9.9053979E-04;  4.0000000E+04;  0.0000000E+00;  4.0002328E+04;  1.4997275E-02;  0.0000000E+00; -3.5503315E-04;  9.0357996E+02;
  2.2808878E-02;  9.9999998E-03; -9.9989772E-03;2597;  3.6734513E-03;  0.0000000E+00; -2.5149431E-05;  9.9218140E+02;  1.0000000E-01; -6.4775454E+03;3;  1.8204515E+01;  0.0000000E+00; -8.2800940E-02;0;  1.4582033E-02;  3.9380129E+04;  0.0000000E+00; -2.5500730E-04;  4.0000000E+04;  0.0000000E+00;  4.0002641E+04;  1.4878812E-02;  0.0000000E+00; -2.9677857E-04;  9.4980609E+02;
  2.2807140E-02;  9.9999998E-03; -7.4495361E-11;2598;  3.6610556E-03;  0.0000000E+00; -3.1777618E-09;  9.9218176E+02;  1.0000000E-01; -6.4772490E+03;3;  1.8300962E+01;  0.0000000E+00; -1.8928500E-05;0;  1.4562065E-02;  3.9379797E+04;  0.0000000E+00; -3.1657245E-13;  4.0000000E+04;  0.0000000E+00;  4.0002918E+04;  1.4838252E-02;  0.0000000E+00; -2.7618697E-04;  9.6598517E+02;
  2.2808880E-02;  9.9999998E-03;  9.9989772E-03;2599;  3.6734552E-03;  0.0000000E+00;  2.5142621E-05;  9.9218140E+02;  1.0000000E-01; -6.4775454E+03;3;  1.8204542E+01;  0.0000000E+00;  8.2771674E-02;0;  1.4582033E-02;  3.9380129E+04;  0.0000000E+00; -2.5496766E-04;  4.0000000E+04;  0.0000000E+00;  4.0002641E+04;  1.4878813E-02;  0.0000000E+00; -2.9677947E-04;  9.4980774E+02;
  2.2813909E-02;  9.9999998E-03;  1.9997558E-02;2600;  3.7100641E-03;  0.0000000E+00;  4.5573739E-05;  9.9217932E+02;  1.0000000E-01; -6.4792734E+03;3;  1.7933981E+01;  0.0000000E+00;  1.5879616E-01;0;  1.4642260E-02;  3.9380270E+04;  0.0000000E+00; -9.9061849E-04;  4.0000000E+04;  0.0000000E+00;  4.0002328E+04;  1.4997295E-02;  0.0000000E+00; -3.5503507E-04;  9.0358685E+02;
  2.2821685E-02;  9.9999998E-03;  2.9995475E-02;2601;  3.7686038E-03;  0.0000000E+00;  5.7566300E-05;  9.9217786E+02;  1.0000000E-01; -6.4805083E+03;3;  1.7512049E+01;  0.0000000E+00;  2.2081152E-01;0;  1.4743323E-02;  3.9380730E+04;  0.0000000E+00; -2.1323415E-03;  4.0000000E+04;  0.0000000E+00;  4.0001480E+04;  1.5184378E-02;  0.0000000E+00; -4.4105609E-04;  8.3422833E+02;
  2.2831300E-02;  9.9999998E-03;  3.9992746E-02;2602;  3.8460614E-03;  0.0000000E+00;  5.9800939E-05;  9.9218207E+02;  1.0000000E-01; -6.4770020E+03;3;  1.6965033E+01;  0.0000000E+00;  2.6206091E-01;0;  1.4885248E-02;  3.9381539E+04;  0.0000000E+00; -3.5966330E-03;  4.0000000E+04;  0.0000000E+00;  4.0001246E+04;  1.5425649E-02;  0.0000000E+00; -5.4040115E-04;  7.5235187E+02;
  2.2841750E-02;  9.9999998E-03;  4.9989663E-02;2603;  3.9372738E-03;  0.0000000E+00;  5.2054271E-05;  9.9218939E+02;  1.0000000E-01; -6.4709282E+03;3;  1.6378492E+01;  0.0000000E+00;  2.7198875E-01;0;  1.5067075E-02;  3.9382633E+04;  0.0000000E+00; -5.3362609E-03;  4.0000000E+04;  0.0000000E+00;  4.0000090E+04;  1.5703762E-02;  0.0000000E+00; -6.3668675E-04;  6.7068530E+02;
  2.2851801E-02;  9.9999998E-03;  5.9986629E-02;2604;  4.0361024E-03;  0.0000000E+00;  3.5657988E-05;  9.9219861E+02;  1.0000000E-01; -6.4633232E+03;3;  1.5837165E+01;  0.0000000E+00;  2.4378656E-01;0;  1.5285918E-02;  3.9384176E+04;  0.0000000E+00; -7.3990612E-03;  4.0000000E+04;  0.0000000E+00;  3.9999738E+04;  1.6000327E-02;  0.0000000E+00; -7.1440777E-04;  6.0181219E+02;
  3.2385282E-02;  9.9999998E-03; -9.9987432E-02;2649;  3.4563057E-03;  0.0000000E+00;  9.9483710E-05;  9.9597009E+02;  1.0000000E-01; -3.3387205E+03;3; -1.0834736E+01;  0.0000000E+00;  3.3152652E-01;0;  1.3489068E-02;  3.9683551E+04;  0.0000000E+00; -3.3954088E-02;  4.0000000E+04;  0.0000000E+00;  3.9999672E+04;  1.4137253E-02;  0.0000000E+00; -6.4818532E-04;  3.2395215E+02;
  3.2388307E-02;  9.9999998E-03; -8.9989260E-02;2650;  3.4024986E-03;  0.0000000E+00;  7.7177661E-05;  9.9593500E+02;  1.0000000E-01; -3.3677566E+03;3; -1.0939878E+01;  0.0000000E+00;  1.1959718E-01;0;  1.3238519E-02;  3.9681672E+04;  0.0000000E+00; -2.3019936E-02;  4.0000000E+04;  0.0000000E+00;  3.9999625E+04;  1.3969773E-02;  0.0000000E+00; -7.3125382E-04;  2.6637244E+02;
  3.2388117E-02;  9.9999998E-03; -7.9991259E-02;2651;  3.3247275E-03;  0.0000000E+00;  5.2780633E-05;  9.9590527E+02;  1.0000000E-01; -3.3923979E+03;3; -1.0906131E+01;  0.0000000E+00; -3.4599248E-02;0;  1.3000307E-02;  3.9679051E+04;  0.0000000E+00; -1.6321504E-02;  4.0000000E+04;  0.0000000E+00;  3.9999215E+04;  1.3781087E-02;  0.0000000E+00; -7.8078097E-04;  2.2632262E+02;
  3.2384809E-02;  9.9999998E-03; -6.9993205E-02;2652;  3.2298516E-03;  0.0000000E+00;  2.8217777E-05;  9.9587164E+02;  1.0000000E-01; -3.4202490E+03;3; -1.0657186E+01;  0.0000000E+00; -1.3736771E-01;0;  1.2784051E-02;  3.9676488E+04;  0.0000000E+00; -1.1917132E-02;  4.0000000E+04;  0.0000000E+00;  3.9998859E+04;  1.3573036E-02;  0.0000000E+00; -7.8898488E-04;  2.1806023E+02;
  3.2378901E-02;  9.9999998E-03; -5.9994970E-02;2653;  3.1255176E-03;  0.0000000E+00;  5.5011201E-06;  9.9584375E+02;  1.0000000E-01; -3.4433594E+03;3; -1.0248549E+01;  0.0000000E+00; -1.9635616E-01;0;  1.2597102E-02;  3.9674246E+04;  0.0000000E+00; -8.7257382E-03;  4.0000000E+04;  0.0000000E+00;  3.9999875E+04;  1.3352470E-02;  0.0000000E+00; -7.5536856E-04;  2.4763847E+02;
  3.2371111E-02;  9.9999998E-03; -4.9996682E-02;2654;  3.0194724E-03;  0.0000000E+00; -1.3295407E-05;  9.9582971E+02;  1.0000000E-01; -3.4550134E+03;3; -9.7629747E+00;  0.0000000E+00; -2.1777070E-01;0;  1.2443867E-02;  3.9672301E+04;  0.0000000E+00; -6.2094131E-03;  4.0000000E+04;  0.0000000E+00;  3.9999871E+04;  1.3130479E-02;  0.0000000E+00; -6.8661169E-04;  3.1143155E+02;
  3.2362472E-02;  9.9999998E-03; -3.9998200E-02;2655;  2.9206891E-03;  0.0000000E+00; -2.5700228E-05;  9.9581964E+02;  1.0000000E-01; -3.4633589E+03;3; -9.2147532E+00;  0.0000000E+00; -2.0890568E-01;0;  1.2324933E-02;  3.9670773E+04;  0.0000000E+00; -4.1337861E-03;  4.0000000E+04;  0.0000000E+00;  4.0000242E+04;  1.2920323E-02;  0.0000000E+00; -5.9538952E-04;  3.9770801E+02;
  3.2354251E-02;  9.9999998E-03; -2.9999349E-02;2656;  2.8365084E-03;  0.0000000E+00; -3.0135880E-05;  9.9581018E+02;  1.0000000E-01; -3.4712104E+03;3; -8.6667089E+00;  0.0000000E+00; -1.7653522E-01;0;  1.2238350E-02;  3.9669691E+04;  0.0000000E+00; -2.4288476E-03;  4.0000000E+04;  0.0000000E+00;  4.0001508E+04;  1.2736579E-02;  0.0000000E+00; -4.9822929E-04;  4.8997437E+02;
  3.2347467E-02;  9.9999998E-03; -1.9999987E-02;2657;  2.7722733E-03;  0.0000000E+00; -2.6233924E-05;  9.9581012E+02;  1.0000000E-01; -3.4712598E+03;3; -8.2433786E+00;  0.0000000E+00; -1.2704898E-01;0;  1.2180760E-02;  3.9669027E+04;  0.0000000E+00; -1.1220534E-03;  4.0000000E+04;  0.0000000E+00;  4.0001617E+04;  1.2593438E-02;  0.0000000E+00; -4.1267858E-04;  5.7099969E+02;
  3.2343011E-02;  9.9999998E-03; -1.0000137E-02;2658;  2.7321340E-03;  0.0000000E+00; -1.5204679E-05;  9.9581140E+02;  1.0000000E-01; -3.4701733E+03;3; -7.9676404E+00;  0.0000000E+00; -6.6360258E-02;0;  1.2148249E-02;  3.9668645E+04;  0.0000000E+00; -2.8799241E-04;  4.0000000E+04;  0.0000000E+00;  4.0002398E+04;  1.2502472E-02;  0.0000000E+00; -3.5422301E-04;  6.2613385E+02;
  3.2341462E-02;  9.9999998E-03; -8.0711972E-11;2659;  2.7184973E-03;  0.0000000E+00; -3.4320198E-09;  9.9581183E+02;  1.0000000E-01; -3.4698279E+03;3; -7.8707681E+00;  0.0000000E+00;  1.3561695E-05;0;  1.2137788E-02;  3.9668344E+04;  0.0000000E+00;  2.0395477E-13;  4.0000000E+04;  0.0000000E+00;  4.0002500E+04;  1.2471268E-02;  0.0000000E+00; -3.3347972E-04;  6.4564954E+02;
  3.2343011E-02;  9.9999998E-03;  1.0000137E-02;2660;  2.7321400E-03;  0.0000000E+00;  1.5196198E-05;  9.9581128E+02;  1.0000000E-01; -3.4702722E+03;3; -7.9669833E+00;  0.0000000E+00;  6.6373132E-02;0;  1.2148258E-02;  3.9668645E+04;  0.0000000E+00; -2.8794754E-04;  4.0000000E+04;  0.0000000E+00;  4.0002398E+04;  1.2502482E-02;  0.0000000E+00; -3.5422368E-04;  6.2613721E+02;
  3.2347467E-02;  9.9999998E-03;  1.9999987E-02;2661;  2.7722768E-03;  0.0000000E+00;  2.6226200E-05;  9.9581024E+02;  1.0000000E-01; -3.4711118E+03;3; -8.2439585E+00;  0.0000000E+00;  1.2704858E-01;0;  1.2180787E-02;  3.9669023E+04;  0.0000000E+00; -1.1219308E-03;  4.0000000E+04;  0.0000000E+00;  4.0001617E+04;  1.2593466E-02;  0.0000000E+00; -4.1267945E-04;  5.7100293E+02;
  3.2354254E-02;  9.9999998E-03;  2.9999349E-02;2662;  2.8365203E-03;  0.0000000E+00;  3.0127736E-05;  9.9581012E+02;  1.0000000E-01; -3.4712598E+03;3; -8.6663580E+00;  0.0000000E+00;  1.7653680E-01;0;  1.2238407E-02;  3.9669688E+04;  0.0000000E+00; -2.4284809E-03;  4.0000000E+04;  0.0000000E+00;  4.0001508E+04;  1.2736635E-02;  0.0000000E+00; -4.9822876E-04;  4.8997757E+02;
  3.2362476E-02;  9.9999998E-03;  3.9998200E-02;2663;  2.9207007E-03;  0.0000000E+00;  2.5691550E-05;  9.9581958E+02;  1.0000000E-01; -3.4634082E+03;3; -9.2144060E+00;  0.0000000E+00;  2.0894106E-01;0;  1.2324993E-02;  3.9670781E+04;  0.0000000E+00; -4.1341051E-03;  4.0000000E+04;  0.0000000E+00;  4.0000238E+04;  1.2920380E-02;  0.0000000E+00; -5.9538690E-04;  3.9771332E+02;
  3.2371115E-02;  9.9999998E-03;  4.9996682E-02;2664;  3.0194821E-03;  0.0000000E+00;  1.3287677E-05;  9.9582971E+02;  1.0000000E-01; -3.4550134E+03;3; -9.7629452E+00;  0.0000000E+00;  2.1778813E-01;0;  1.2443936E-02;  3.9672301E+04;  0.0000000E+00; -6.2094065E-03;  4.0000000E+04;  0.0000000E+00;  3.9999871E+04;  1.3130544E-02;  0.0000000E+00; -6.8660703E-04;  3.1143542E+02;
  3.2378901E-02;  9.9999998E-03;  5.9994970E-02;2665;  3.1255274E-03;  0.0000000E+00; -5.5084624E-06;  9.9584381E+02;  1.0000000E-01; -3.4433101E+03;3; -1.0248820E+01;  0.0000000E+00;  1.9634728E-01;0;  1.2597170E-02;  3.9674246E+04;  0.0000000E+00; -8.7255761E-03;  4.0000000E+04;  0.0000000E+00;  3.9999875E+04;  1.3352528E-02;  0.0000000E+00; -7.5535843E-04;  2.4764456E+02;
  4.1956257E-02;  9.9999998E-03; -9.9997021E-02;2710;  2.7998015E-03;  0.0000000E+00;  1.2951455E-04;  9.9914008E+02;  1.0000000E-01; -7.1242432E+02;3; -2.6022715E+01;  0.0000000E+00;  2.4484833E-01;0;  1.1434028E-02;  3.9938688E+04;  0.0000000E+00; -3.4231544E-02;  4.0000000E+04;  0.0000000E+00;  4.0000359E+04;  1.2014177E-02;  0.0000000E+00; -5.8014831E-04;  1.6494270E+02;
  4.1961212E-02;  9.9999998E-03; -8.9998908E-02;2711;  2.7432286E-03;  0.0000000E+00;  1.1224853E-04;  9.9909869E+02;  1.0000000E-01; -7.4669495E+02;3; -2.6208185E+01;  0.0000000E+00;  8.4378965E-02;0;  1.1243483E-02;  3.9935980E+04;  0.0000000E+00; -2.3246080E-02;  4.0000000E+04;  0.0000000E+00;  3.9999840E+04;  1.1931826E-02;  0.0000000E+00; -6.8834366E-04;  7.0680786E+01;
  4.1963726E-02;  9.9999998E-03; -8.0000214E-02;2712;  2.6605311E-03;  0.0000000E+00;  9.1596237E-05;  9.9905127E+02;  1.0000000E-01; -7.8600244E+02;3; -2.6214355E+01;  0.0000000E+00; -3.2129861E-02;0;  1.1071601E-02;  3.9933328E+04;  0.0000000E+00; -1.6189650E-02;  4.0000000E+04;  0.0000000E+00;  3.9999410E+04;  1.1832355E-02;  0.0000000E+00; -7.6075387E-04;  2.6969156E+01;
  4.1962922E-02;  9.9999998E-03; -7.0000991E-02;2713;  2.5589741E-03;  0.0000000E+00;  6.8849957E-05;  9.9901459E+02;  1.0000000E-01; -8.1637195E+02;3; -2.6073544E+01;  0.0000000E+00; -1.0946726E-01;0;  1.0928025E-02;  3.9930457E+04;  0.0000000E+00; -1.1445262E-02;  4.0000000E+04;  0.0000000E+00;  3.9999203E+04;  1.1716269E-02;  0.0000000E+00; -7.8824378E-04;  5.1715916E+01;
  4.1959178E-02;  9.9999998E-03; -6.0001548E-02;2714;  2.4476382E-03;  0.0000000E+00;  4.6102443E-05;  9.9898669E+02;  1.0000000E-01; -8.3948242E+02;3; -2.5772940E+01;  0.0000000E+00; -1.5286645E-01;0;  1.0817989E-02;  3.9927941E+04;  0.0000000E+00; -8.0777956E-03;  4.0000000E+04;  0.0000000E+00;  3.9999035E+04;  1.1587489E-02;  0.0000000E+00; -7.6950021E-04;  3.6062115E+01;
  4.1953128E-02;  9.9999998E-03; -5.0001990E-02;2715;  2.3358213E-03;  0.0000000E+00;  2.5873531E-05;  9.9896600E+02;  1.0000000E-01; -8.5666711E+02;3; -2.5339716E+01;  0.0000000E+00; -1.6778852E-01;0;  1.0742113E-02;  3.9925883E+04;  0.0000000E+00; -5.5654510E-03;  4.0000000E+04;  0.0000000E+00;  4.0000133E+04;  1.1453172E-02;  0.0000000E+00; -7.1105902E-04;  2.8659101E+01;
  4.1945919E-02;  9.9999998E-03; -4.0002238E-02;2716;  2.2321963E-03;  0.0000000E+00;  1.0332111E-05;  9.9895410E+02;  1.0000000E-01; -8.6649402E+02;3; -2.4844482E+01;  0.0000000E+00; -1.5976082E-01;0;  1.0696569E-02;  3.9924145E+04;  0.0000000E+00; -3.6196730E-03;  4.0000000E+04;  0.0000000E+00;  4.0000500E+04;  1.1322644E-02;  0.0000000E+00; -6.2607491E-04;  1.2177924E+02;
  4.1938800E-02;  9.9999998E-03; -3.0002177E-02;2717;  2.1441404E-03;  0.0000000E+00;  4.9965365E-07;  9.9894781E+02;  1.0000000E-01; -8.7172845E+02;3; -2.4354904E+01;  0.0000000E+00; -1.3449967E-01;0;  1.0674307E-02;  3.9922863E+04;  0.0000000E+00; -2.0976407E-03;  4.0000000E+04;  0.0000000E+00;  4.0001785E+04;  1.1206323E-02;  0.0000000E+00; -5.3201593E-04;  2.2743227E+02;
  4.1932818E-02;  9.9999998E-03; -2.0001717E-02;2718;  2.0769136E-03;  0.0000000E+00; -3.7793852E-06;  9.9894666E+02;  1.0000000E-01; -8.7266669E+02;3; -2.3950066E+01;  0.0000000E+00; -9.6737467E-02;0;  1.0666979E-02;  3.9922020E+04;  0.0000000E+00; -9.6268387E-04;  4.0000000E+04;  0.0000000E+00;  4.0002320E+04;  1.1114543E-02;  0.0000000E+00; -4.4756383E-04;  3.2264249E+02;
  4.1928884E-02;  9.9999998E-03; -1.0000931E-02;2719;  2.0349482E-03;  0.0000000E+00; -3.2950220E-06;  9.9894543E+02;  1.0000000E-01; -8.7370367E+02;3; -2.3674868E+01;  0.0000000E+00; -5.0433960E-02;0;  1.0666443E-02;  3.9921289E+04;  0.0000000E+00; -2.4651492E-04;  4.0000000E+04;  0.0000000E+00;  4.0002852E+04;  1.1055709E-02;  0.0000000E+00; -3.8926600E-04;  3.8829321E+02;
  4.1927498E-02;  9.9999998E-03; -1.0992984E-10;2720;  2.0205700E-03;  0.0000000E+00; -4.7473154E-09;  9.9894769E+02;  1.0000000E-01; -8.7182721E+02;3; -2.3589632E+01;  0.0000000E+00;  1.0207887E-05;0;  1.0667001E-02;  3.9921109E+04;  0.0000000E+00; -6.2785888E-13;  4.0000000E+04;  0.0000000E+00;  4.0002906E+04;  1.1035487E-02;  0.0000000E+00; -3.6848581E-04;  4.1163879E+02;
  4.1928884E-02;  9.9999998E-03;  1.0000930E-02;2721;  2.0349519E-03;  0.0000000E+00;  3.2863452E-06;  9.9894537E+02;  1.0000000E-01; -8.7375305E+02;3; -2.3674606E+01;  0.0000000E+00;  5.0463833E-02;0;  1.0666453E-02;  3.9921285E+04;  0.0000000E+00; -2.4646660E-04;  4.0000000E+04;  0.0000000E+00;  4.0002852E+04;  1.1055719E-02;  0.0000000E+00; -3.8926600E-04;  3.8829587E+02;
  4.1932818E-02;  9.9999998E-03;  2.0001715E-02;2722;  2.0769215E-03;  0.0000000E+00;  3.7719190E-06;  9.9894666E+02;  1.0000000E-01; -8.7266669E+02;3; -2.3950022E+01;  0.0000000E+00;  9.6771076E-02;0;  1.0667007E-02;  3.9922023E+04;  0.0000000E+00; -9.6253591E-04;  4.0000000E+04;  0.0000000E+00;  4.0002320E+04;  1.1114571E-02;  0.0000000E+00; -4.4756409E-04;  3.2264191E+02;
  4.1938800E-02;  9.9999998E-03;  3.0002177E-02;2723;  2.1441490E-03;  0.0000000E+00; -5.0821006E-07;  9.9894781E+02;  1.0000000E-01; -8.7172845E+02;3; -2.4354895E+01;  0.0000000E+00;  1.3450670E-01;0;  1.0674353E-02;  3.9922863E+04;  0.0000000E+00; -2.0974886E-03;  4.0000000E+04;  0.0000000E+00;  4.0001785E+04;  1.1206367E-02;  0.0000000E+00; -5.3201400E-04;  2.2744226E+02;
  4.1945923E-02;  9.9999998E-03;  4.0002238E-02;2724;  2.2322086E-03;  0.0000000E+00; -1.0339787E-05;  9.9895410E+02;  1.0000000E-01; -8.6649402E+02;3; -2.4844439E+01;  0.0000000E+00;  1.5979029E-01;0;  1.0696618E-02;  3.9924145E+04;  0.0000000E+00; -3.6198404E-03;  4.0000000E+04;  0.0000000E+00;  4.0000496E+04;  1.1322689E-02;  0.0000000E+00; -6.2607136E-04;  1.2178123E+02;
  4.1953132E-02;  9.9999998E-03;  5.0001990E-02;2725;  2.3358350E-03;  0.0000000E+00; -2.5882642E-05;  9.9896600E+02;  1.0000000E-01; -8.5666711E+02;3; -2.5339640E+01;  0.0000000E+00;  1.6780941E-01;0;  1.0742179E-02;  3.9925879E+04;  0.0000000E+00; -5.5650063E-03;  4.0000000E+04;  0.0000000E+00;  4.0000137E+04;  1.1453231E-02;  0.0000000E+00; -7.1105163E-04;  2.8666605E+01;
  4.1959178E-02;  9.9999998E-03;  6.0001548E-02;2726;  2.4476526E-03;  0.0000000E+00; -4.6109348E-05;  9.9898669E+02;  1.0000000E-01; -8.3948242E+02;3; -2.5772905E+01;  0.0000000E+00;  1.5288533E-01;0;  1.0818078E-02;  3.9927953E+04;  0.0000000E+00; -8.0780312E-03;  4.0000000E+04;  0.0000000E+00;  3.9999035E+04;  1.1587567E-02;  0.0000000E+00; -7.6948846E-04;  3.6058472E+01;
  5.1597826E-02;  9.9999998E-03; -1.0001139E-01;2771;  2.3485664E-03;  0.0000000E+00;  1.6392409E-04;  1.0015113E+03;  1.0000000E-01;  1.2521128E+03;3; -3.1075420E+01;  0.0000000E+00;  1.7527285E-01;0;  1.0453674E-02;  4.0131828E+04;  0.0000000E+00; -2.9732659E-02;  4.0000000E+04;  0.0000000E+00;  4.0001934E+04;  1.0939680E-02;  0.0000000E+00; -4.8600606E-04;  1.0921243E+02;
  5.1604398E-02;  9.9999998E-03; -9.0011582E-02;2772;  2.2941993E-03;  0.0000000E+00;  1.5279632E-04;  1.0014651E+03;  1.0000000E-01;  1.2137928E+03;3; -3.1303896E+01;  0.0000000E+00;  5.8128733E-02;0;  1.0329191E-02;  4.0129113E+04;  0.0000000E+00; -1.9244069E-02;  4.0000000E+04;  0.0000000E+00;  4.0000363E+04;  1.0947534E-02;  0.0000000E+00; -6.1834318E-04;  4.4279156E+01;
  5.1608350E-02;  9.9999998E-03; -8.0010541E-02;2773;  2.2118804E-03;  0.0000000E+00;  1.3675071E-04;  1.0014143E+03;  1.0000000E-01;  1.1717200E+03;3; -3.1379004E+01;  0.0000000E+00; -2.6710272E-02;0;  1.0230149E-02;  4.0126176E+04;  0.0000000E+00; -1.2365172E-02;  4.0000000E+04;  0.0000000E+00;  3.9999586E+04;  1.0942936E-02;  0.0000000E+00; -7.1278709E-04;  1.4732500E+02;
  5.1608883E-02;  9.9999998E-03; -7.0008777E-02;2774;  2.1076088E-03;  0.0000000E+00;  1.1703841E-04;  1.0013756E+03;  1.0000000E-01;  1.1396221E+03;3; -3.1313452E+01;  0.0000000E+00; -8.2429953E-02;0;  1.0166604E-02;  4.0123539E+04;  0.0000000E+00; -7.8986557E-03;  4.0000000E+04;  0.0000000E+00;  3.9999617E+04;  1.0925338E-02;  0.0000000E+00; -7.5873389E-04;  2.0652937E+02;
  5.1606208E-02;  9.9999998E-03; -6.0007088E-02;2775;  1.9924599E-03;  0.0000000E+00;  9.4648960E-05;  1.0013451E+03;  1.0000000E-01;  1.1143389E+03;3; -3.1084316E+01;  0.0000000E+00; -1.1342485E-01;0;  1.0141745E-02;  4.0120906E+04;  0.0000000E+00; -5.0229193E-03;  4.0000000E+04;  0.0000000E+00;  3.9999496E+04;  1.0895730E-02;  0.0000000E+00; -7.5398432E-04;  2.0230106E+02;
  5.1601119E-02;  9.9999998E-03; -5.0005779E-02;2776;  1.8754079E-03;  0.0000000E+00;  7.1261209E-05;  1.0013253E+03;  1.0000000E-01;  1.0980430E+03;3; -3.0729980E+01;  0.0000000E+00; -1.2346955E-01;0;  1.0152527E-02;  4.0118785E+04;  0.0000000E+00; -3.1691785E-03;  4.0000000E+04;  0.0000000E+00;  3.9999926E+04;  1.0857417E-02;  0.0000000E+00; -7.0489035E-04;  1.3828094E+02;
  5.1594805E-02;  9.9999998E-03; -4.0004726E-02;2777;  1.7646160E-03;  0.0000000E+00;  4.8698817E-05;  1.0013157E+03;  1.0000000E-01;  1.0900432E+03;3; -3.0308777E+01;  0.0000000E+00; -1.1702722E-01;0;  1.0190148E-02;  4.0116969E+04;  0.0000000E+00; -1.9427632E-03;  4.0000000E+04;  0.0000000E+00;  4.0000914E+04;  1.0815235E-02;  0.0000000E+00; -6.2508683E-04;  3.2199646E+01;
  5.1588412E-02;  9.9999998E-03; -3.0003697E-02;2778;  1.6701132E-03;  0.0000000E+00;  3.0368943E-05;  1.0013152E+03;  1.0000000E-01;  1.0896482E+03;3; -2.9893913E+01;  0.0000000E+00; -9.7943626E-02;0;  1.0241211E-02;  4.0116055E+04;  0.0000000E+00; -1.0931243E-03;  4.0000000E+04;  0.0000000E+00;  4.0002320E+04;  1.0774248E-02;  0.0000000E+00; -5.3303648E-04;  9.0584244E+01;
  5.1583063E-02;  9.9999998E-03; -2.0002576E-02;2779;  1.5986995E-03;  0.0000000E+00;  1.6992875E-05;  1.0013170E+03;  1.0000000E-01;  1.0910309E+03;3; -2.9537806E+01;  0.0000000E+00; -6.9917880E-02;0;  1.0291223E-02;  4.0115230E+04;  0.0000000E+00; -4.9747003E-04;  4.0000000E+04;  0.0000000E+00;  4.0002969E+04;  1.0739918E-02;  0.0000000E+00; -4.4869437E-04;  2.0233871E+02;
  5.1579535E-02;  9.9999998E-03; -1.0001331E-02;2780;  1.5552198E-03;  0.0000000E+00;  7.8308976E-06;  1.0013179E+03;  1.0000000E-01;  1.0918209E+03;3; -2.9295576E+01;  0.0000000E+00; -3.6246993E-02;0;  1.0327103E-02;  4.0114758E+04;  0.0000000E+00; -1.2746781E-04;  4.0000000E+04;  0.0000000E+00;  4.0003328E+04;  1.0716952E-02;  0.0000000E+00; -3.8985015E-04;  2.7981470E+02;
  5.1578313E-02;  9.9999998E-03; -1.3182068E-10;2781;  1.5406439E-03;  0.0000000E+00; -5.1541802E-09;  1.0013201E+03;  1.0000000E-01;  1.0936975E+03;3; -2.9216114E+01;  0.0000000E+00;  1.9246101E-05;0;  1.0340105E-02;  4.0114680E+04;  0.0000000E+00; -8.4435914E-13;  4.0000000E+04;  0.0000000E+00;  4.0003836E+04;  1.0708881E-02;  0.0000000E+00; -3.6877551E-04;  3.0745959E+02;
  5.1579535E-02;  9.9999998E-03;  1.0001330E-02;2782;  1.5552239E-03;  0.0000000E+00; -7.8402745E-06;  1.0013179E+03;  1.0000000E-01;  1.0918209E+03;3; -2.9295586E+01;  0.0000000E+00;  3.6279000E-02;0;  1.0327125E-02;  4.0114758E+04;  0.0000000E+00; -1.2738920E-04;  4.0000000E+04;  0.0000000E+00;  4.0003328E+04;  1.0716975E-02;  0.0000000E+00; -3.8984985E-04;  2.7981329E+02;
  5.1583063E-02;  9.9999998E-03;  2.0002574E-02;2783;  1.5987055E-03;  0.0000000E+00; -1.7002576E-05;  1.0013170E+03;  1.0000000E-01;  1.0910309E+03;3; -2.9537758E+01;  0.0000000E+00;  6.9947414E-02;0;  1.0291259E-02;  4.0115230E+04;  0.0000000E+00; -4.9741485E-04;  4.0000000E+04;  0.0000000E+00;  4.0002969E+04;  1.0739952E-02;  0.0000000E+00; -4.4869390E-04;  2.0234381E+02;
  5.1588412E-02;  9.9999998E-03;  3.0003695E-02;2784;  1.6701219E-03;  0.0000000E+00; -3.0378782E-05;  1.0013152E+03;  1.0000000E-01;  1.0896482E+03;3; -2.9893480E+01;  0.0000000E+00;  9.7975239E-02;0;  1.0241243E-02;  4.0116059E+04;  0.0000000E+00; -1.0929087E-03;  4.0000000E+04;  0.0000000E+00;  4.0002320E+04;  1.0774277E-02;  0.0000000E+00; -5.3303409E-04;  9.0584282E+01;
  5.1594805E-02;  9.9999998E-03;  4.0004726E-02;2785;  1.7646253E-03;  0.0000000E+00; -4.8707421E-05;  1.0013157E+03;  1.0000000E-01;  1.0900432E+03;3; -3.0309137E+01;  0.0000000E+00;  1.1706240E-01;0;  1.0190198E-02;  4.0116973E+04;  0.0000000E+00; -1.9423683E-03;  4.0000000E+04;  0.0000000E+00;  4.0000918E+04;  1.0815280E-02;  0.0000000E+00; -6.2508165E-04;  3.2188206E+01;
  5.1601119E-02;  9.9999998E-03;  5.0005779E-02;2786;  1.8754210E-03;  0.0000000E+00; -7.1268470E-05;  1.0013253E+03;  1.0000000E-01;  1.0980430E+03;3; -3.0729969E+01;  0.0000000E+00;  1.2350745E-01;0;  1.0152592E-02;  4.0118785E+04;  0.0000000E+00; -3.1686500E-03;  4.0000000E+04;  0.0000000E+00;  3.9999926E+04;  1.0857474E-02;  0.0000000E+00; -7.0488156E-04;  1.3828120E+02;
  5.1606212E-02;  9.9999998E-03;  6.0007088E-02;2787;  1.9924736E-03;  0.0000000E+00; -9.4654955E-05;  1.0013451E+03;  1.0000000E-01;  1.1143389E+03;3; -3.1084255E+01;  0.0000000E+00;  1.1345471E-01;0;  1.0141826E-02;  4.0120910E+04;  0.0000000E+00; -5.0223633E-03;  4.0000000E+04;  0.0000000E+00;  3.9999496E+04;  1.0895798E-02;  0.0000000E+00; -7.5397140E-04;  2.0229730E+02;
  6.1320174E-02;  9.9999998E-03; -1.0002985E-01;2832;  2.1077299E-03;  0.0000000E+00;  2.0222436E-04;  1.0029630E+03;  1.0000000E-01;  2.4547454E+03;3; -2.8743553E+01;  0.0000000E+00;  1.2205996E-01;0;  1.0520408E-02;  4.0251203E+04;  0.0000000E+00; -2.0821251E-02;  4.0000000E+04;  0.0000000E+00;  4.0003391E+04;  1.0893939E-02;  0.0000000E+00; -3.7353110E-04;  1.6877049E+02;
  6.1326493E-02;  9.9999998E-03; -9.0026796E-02;2833;  2.0553349E-03;  0.0000000E+00;  1.9992849E-04;  1.0029086E+03;  1.0000000E-01;  2.4097097E+03;3; -2.8964743E+01;  0.0000000E+00;  4.0440183E-02;0;  1.0463554E-02;  4.0248695E+04;  0.0000000E+00; -1.1446146E-02;  4.0000000E+04;  0.0000000E+00;  4.0001699E+04;  1.0990605E-02;  0.0000000E+00; -5.2705070E-04;  1.7812260E+01;
  6.1330408E-02;  9.9999998E-03; -8.0022261E-02;2834;  1.9741636E-03;  0.0000000E+00;  1.8908763E-04;  1.0028623E+03;  1.0000000E-01;  2.3713896E+03;3; -2.9087969E+01;  0.0000000E+00; -1.8347265E-02;0;  1.0439835E-02;  4.0245695E+04;  0.0000000E+00; -5.4378645E-03;  4.0000000E+04;  0.0000000E+00;  4.0001293E+04;  1.1080351E-02;  0.0000000E+00; -6.4051553E-04;  1.5080704E+02;
  6.1331369E-02;  9.9999998E-03; -7.0017062E-02;2835;  1.8713978E-03;  0.0000000E+00;  1.7004431E-04;  1.0028246E+03;  1.0000000E-01;  2.3401807E+03;3; -2.9070713E+01;  0.0000000E+00; -5.6651998E-02;0;  1.0459650E-02;  4.0243289E+04;  0.0000000E+00; -1.9747990E-03;  4.0000000E+04;  0.0000000E+00;  4.0000191E+04;  1.1161447E-02;  0.0000000E+00; -7.0179603E-04;  2.3008255E+02;
  6.1329361E-02;  9.9999998E-03; -6.0012303E-02;2836;  1.7563781E-03;  0.0000000E+00;  1.4535029E-04;  1.0028017E+03;  1.0000000E-01;  2.3211196E+03;3; -2.8920128E+01;  0.0000000E+00; -7.7975467E-02;0;  1.0524709E-02;  4.0241031E+04;  0.0000000E+00; -2.6753056E-04;  4.0000000E+04;  0.0000000E+00;  4.0000082E+04;  1.1232512E-02;  0.0000000E+00; -7.0780324E-04;  2.3119565E+02;
  6.1324991E-02;  9.9999998E-03; -5.0008669E-02;2837;  1.6375706E-03;  0.0000000E+00;  1.1640492E-04;  1.0027914E+03;  1.0000000E-01;  2.3126260E+03;3; -2.8656513E+01;  0.0000000E+00; -8.4282890E-02;0;  1.0627938E-02;  4.0239492E+04;  0.0000000E+00;  3.6246071E-04;  4.0000000E+04;  0.0000000E+00;  4.0000805E+04;  1.1292710E-02;  0.0000000E+00; -6.6477113E-04;  1.5976500E+02;
  6.1319172E-02;  9.9999998E-03; -4.0006101E-02;2838;  1.5252610E-03;  0.0000000E+00;  8.7276581E-05;  1.0027885E+03;  1.0000000E-01;  2.3102556E+03;3; -2.8321007E+01;  0.0000000E+00; -7.9612680E-02;0;  1.0754468E-02;  4.0238320E+04;  0.0000000E+00;  4.3295082E-04;  4.0000000E+04;  0.0000000E+00;  4.0001945E+04;  1.1341395E-02;  0.0000000E+00; -5.8692734E-04;  3.7483635E+01;
  6.1313074E-02;  9.9999998E-03; -3.0004332E-02;2839;  1.4283473E-03;  0.0000000E+00;  6.0798753E-05;  1.0027898E+03;  1.0000000E-01;  2.3112432E+03;3; -2.7971500E+01;  0.0000000E+00; -6.6569030E-02;0;  1.0884578E-02;  4.0237645E+04;  0.0000000E+00;  2.9245298E-04;  4.0000000E+04;  0.0000000E+00;  4.0003094E+04;  1.1378478E-02;  0.0000000E+00; -4.9389951E-04;  1.0477664E+02;
  6.1307851E-02;  9.9999998E-03; -2.0002922E-02;2840;  1.3533918E-03;  0.0000000E+00;  3.7587764E-05;  1.0027972E+03;  1.0000000E-01;  2.3174653E+03;3; -2.7680758E+01;  0.0000000E+00; -4.7370274E-02;0;  1.0997197E-02;  4.0237129E+04;  0.0000000E+00;  1.3424763E-04;  4.0000000E+04;  0.0000000E+00;  4.0003934E+04;  1.1404357E-02;  0.0000000E+00; -4.0716011E-04;  2.3462019E+02;
  6.1304346E-02;  9.9999998E-03; -1.0001532E-02;2841;  1.3060358E-03;  0.0000000E+00;  1.7513323E-05;  1.0028057E+03;  1.0000000E-01;  2.3244775E+03;3; -2.7492393E+01;  0.0000000E+00; -2.4538588E-02;0;  1.1073526E-02;  4.0236922E+04;  0.0000000E+00;  3.2889449E-05;  4.0000000E+04;  0.0000000E+00;  4.0004828E+04;  1.1419581E-02;  0.0000000E+00; -3.4605528E-04;  3.2456931E+02;
  6.1303109E-02;  9.9999998E-03; -1.4432205E-10;2842;  1.2901134E-03;  0.0000000E+00; -5.7140892E-09;  1.0028076E+03;  1.0000000E-01;  2.3259590E+03;3; -2.7423071E+01;  0.0000000E+00;  1.8476629E-05;0;  1.1100496E-02;  4.0236699E+04;  0.0000000E+00; -4.5819408E-13;  4.0000000E+04;  0.0000000E+00;  4.0004953E+04;  1.1424568E-02;  0.0000000E+00; -3.2407240E-04;  3.5665027E+02;
  6.1304346E-02;  9.9999998E-03;  1.0001532E-02;2843;  1.3060378E-03;  0.0000000E+00; -1.7524226E-05;  1.0028057E+03;  1.0000000E-01;  2.3244775E+03;3; -2.7492416E+01;  0.0000000E+00;  2.4596695E-02;0;  1.1073539E-02;  4.0236926E+04;  0.0000000E+00;  3.2924760E-05;  4.0000000E+04;  0.0000000E+00;  4.0004828E+04;  1.1419594E-02;  0.0000000E+00; -3.4605508E-04;  3.2456815E+02;
  6.1307851E-02;  9.9999998E-03;  2.0002922E-02;2844;  1.3533999E-03;  0.0000000E+00; -3.7598329E-05;  1.0027972E+03;  1.0000000E-01;  2.3174653E+03;3; -2.7680740E+01;  0.0000000E+00;  4.7421537E-02;0;  1.0997230E-02;  4.0237129E+04;  0.0000000E+00;  1.3445514E-04;  4.0000000E+04;  0.0000000E+00;  4.0003934E+04;  1.1404390E-02;  0.0000000E+00; -4.0715959E-04;  2.3463051E+02;
  6.1313074E-02;  9.9999998E-03;  3.0004332E-02;2845;  1.4283546E-03;  0.0000000E+00; -6.0809292E-05;  1.0027898E+03;  1.0000000E-01;  2.3112432E+03;3; -2.7971493E+01;  0.0000000E+00;  6.6599399E-02;0;  1.0884622E-02;  4.0237645E+04;  0.0000000E+00;  2.9276023E-04;  4.0000000E+04;  0.0000000E+00;  4.0003094E+04;  1.1378519E-02;  0.0000000E+00; -4.9389707E-04;  1.0478164E+02;
  6.1319172E-02;  9.9999998E-03;  4.0006101E-02;2846;  1.5252682E-03;  0.0000000E+00; -8.7285240E-05;  1.0027885E+03;  1.0000000E-01;  2.3101570E+03;3; -2.8320654E+01;  0.0000000E+00;  7.9642057E-02;0;  1.0754514E-02;  4.0238320E+04;  0.0000000E+00;  4.3323226E-04;  4.0000000E+04;  0.0000000E+00;  4.0001945E+04;  1.1341438E-02;  0.0000000E+00; -5.8692286E-04;  3.7480888E+01;
  6.1324995E-02;  9.9999998E-03;  5.0008669E-02;2847;  1.6375802E-03;  0.0000000E+00; -1.1641192E-04;  1.0027914E+03;  1.0000000E-01;  2.3126260E+03;3; -2.8656790E+01;  0.0000000E+00;  8.4319703E-02;0;  1.0628019E-02;  4.0239500E+04;  0.0000000E+00;  3.6292727E-04;  4.0000000E+04;  0.0000000E+00;  4.0000805E+04;  1.1292781E-02;  0.0000000E+00; -6.6476170E-04;  1.5976167E+02;
  6.1329361E-02;  9.9999998E-03;  6.0012303E-02;2848;  1.7563922E-03;  0.0000000E+00; -1.4535642E-04;  1.0028016E+03;  1.0000000E-01;  2.3211196E+03;3; -2.8919838E+01;  0.0000000E+00;  7.7991657E-02;0;  1.0524808E-02;  4.0241035E+04;  0.0000000E+00; -2.6647426E-04;  4.0000000E+04;  0.0000000E+00;  4.0000082E+04;  1.1232600E-02;  0.0000000E+00; -7.0779095E-04;  2.3118283E+02;
  7.1132392E-02;  9.9999998E-03; -1.0004912E-01;2893;  2.0928250E-03;  0.0000000E+00;  2.3785548E-04;  1.0035232E+03;  1.0000000E-01;  2.9189297E+03;3; -2.2557468E+01;  0.0000000E+00;  8.7209046E-02;0;  1.1384194E-02;  4.0297555E+04;  0.0000000E+00; -9.8186750E-03;  4.0000000E+04;  0.0000000E+00;  4.0005484E+04;  1.1635982E-02;  0.0000000E+00; -2.5178876E-04;  3.5668378E+02;
  7.1137190E-02;  9.9999998E-03; -9.0042464E-02;2894;  2.0453189E-03;  0.0000000E+00;  2.4078497E-04;  1.0034721E+03;  1.0000000E-01;  2.8765605E+03;3; -2.2767321E+01;  0.0000000E+00;  3.2105036E-02;0;  1.1389690E-02;  4.0294945E+04;  0.0000000E+00; -2.2458839E-03;  4.0000000E+04;  0.0000000E+00;  4.0003621E+04;  1.1811139E-02;  0.0000000E+00; -4.2144896E-04;  1.4943018E+02;
  7.1140267E-02;  9.9999998E-03; -8.0034107E-02;2895;  1.9691761E-03;  0.0000000E+00;  2.2934360E-04;  1.0034286E+03;  1.0000000E-01;  2.8406111E+03;3; -2.2892622E+01;  0.0000000E+00; -6.9805025E-03;0;  1.1438021E-02;  4.0292520E+04;  0.0000000E+00;  2.2341153E-03;  4.0000000E+04;  0.0000000E+00;  4.0002410E+04;  1.1986848E-02;  0.0000000E+00; -5.4882781E-04;  2.0314014E+01;
  7.1140893E-02;  9.9999998E-03; -7.0025317E-02;2896;  1.8715748E-03;  0.0000000E+00;  2.0780321E-04;  1.0034000E+03;  1.0000000E-01;  2.8168093E+03;3; -2.2910835E+01;  0.0000000E+00; -3.2316882E-02;0;  1.1540476E-02;  4.0290918E+04;  0.0000000E+00;  4.1843555E-03;  4.0000000E+04;  0.0000000E+00;  4.0001613E+04;  1.2160748E-02;  0.0000000E+00; -6.2027172E-04;  1.1313926E+02;
  7.1139000E-02;  9.9999998E-03; -6.0017474E-02;2897;  1.7609282E-03;  0.0000000E+00;  1.7935387E-04;  1.0033883E+03;  1.0000000E-01;  2.8071304E+03;3; -2.2818855E+01;  0.0000000E+00; -4.6134844E-02;0;  1.1696897E-02;  4.0289719E+04;  0.0000000E+00;  4.4000880E-03;  4.0000000E+04;  0.0000000E+00;  4.0001773E+04;  1.2328781E-02;  0.0000000E+00; -6.3188426E-04;  1.1399803E+02;
  7.1134925E-02;  9.9999998E-03; -5.0011534E-02;2898;  1.6461487E-03;  0.0000000E+00;  1.4652037E-04;  1.0033885E+03;  1.0000000E-01;  2.8073281E+03;3; -2.2630054E+01;  0.0000000E+00; -5.0844416E-02;0;  1.1895637E-02;  4.0289074E+04;  0.0000000E+00;  3.6609781E-03;  4.0000000E+04;  0.0000000E+00;  4.0002477E+04;  1.2485531E-02;  0.0000000E+00; -5.8989431E-04;  3.0985960E+01;
  7.1129523E-02;  9.9999998E-03; -4.0007643E-02;2899;  1.5354683E-03;  0.0000000E+00;  1.1127452E-04;  1.0034001E+03;  1.0000000E-01;  2.8169080E+03;3; -2.2387487E+01;  0.0000000E+00; -4.7548000E-02;0;  1.2115615E-02;  4.0288668E+04;  0.0000000E+00;  2.5697951E-03;  4.0000000E+04;  0.0000000E+00;  4.0003133E+04;  1.2624882E-02;  0.0000000E+00; -5.0926633E-04;  1.1065128E+02;
  7.1123794E-02;  9.9999998E-03; -3.0005174E-02;2900;  1.4385552E-03;  0.0000000E+00;  7.8322177E-05;  1.0034125E+03;  1.0000000E-01;  2.8271792E+03;3; -2.2127893E+01;  0.0000000E+00; -3.9828613E-02;0;  1.2329749E-02;  4.0288527E+04;  0.0000000E+00;  1.5090342E-03;  4.0000000E+04;  0.0000000E+00;  4.0004941E+04;  1.2740721E-02;  0.0000000E+00; -4.1097173E-04;  2.7360620E+02;
  7.1118832E-02;  9.9999998E-03; -2.0003391E-02;2901;  1.3633812E-03;  0.0000000E+00;  4.9140370E-05;  1.0034289E+03;  1.0000000E-01;  2.8408086E+03;3; -2.1910612E+01;  0.0000000E+00; -2.8387258E-02;0;  1.2509370E-02;  4.0288473E+04;  0.0000000E+00;  6.8138208E-04;  4.0000000E+04;  0.0000000E+00;  4.0006086E+04;  1.2827642E-02;  0.0000000E+00; -3.1827245E-04;  4.2145941E+02;
  7.1115442E-02;  9.9999998E-03; -1.0001744E-02;2902;  1.3156378E-03;  0.0000000E+00;  2.3577031E-05;  1.0034409E+03;  1.0000000E-01;  2.8506848E+03;3; -2.1765127E+01;  0.0000000E+00; -1.4657904E-02;0;  1.2629047E-02;  4.0288570E+04;  0.0000000E+00;  1.7087455E-04;  4.0000000E+04;  0.0000000E+00;  4.0006965E+04;  1.2881531E-02;  0.0000000E+00; -2.5248481E-04;  5.2341772E+02;
  7.1114220E-02;  9.9999998E-03; -1.4889300E-10;2903;  1.2994193E-03;  0.0000000E+00; -5.9518674E-09;  1.0034452E+03;  1.0000000E-01;  2.8542402E+03;3; -2.1714010E+01;  0.0000000E+00;  1.7004539E-05;0;  1.2671071E-02;  4.0288480E+04;  0.0000000E+00; -2.0151455E-13;  4.0000000E+04;  0.0000000E+00;  4.0007250E+04;  1.2899797E-02;  0.0000000E+00; -2.2872598E-04;  5.5967816E+02;
  7.1115442E-02;  9.9999998E-03;  1.0001743E-02;2904;  1.3156417E-03;  0.0000000E+00; -2.3588718E-05;  1.0034409E+03;  1.0000000E-01;  2.8506848E+03;3; -2.1765106E+01;  0.0000000E+00;  1.4710719E-02;0;  1.2629052E-02;  4.0288574E+04;  0.0000000E+00;  1.7098413E-04;  4.0000000E+04;  0.0000000E+00;  4.0006965E+04;  1.2881537E-02;  0.0000000E+00; -2.5248516E-04;  5.2342108E+02;
  7.1118832E-02;  9.9999998E-03;  2.0003391E-02;2905;  1.3633872E-03;  0.0000000E+00; -4.9153201E-05;  1.0034289E+03;  1.0000000E-01;  2.8408086E+03;3; -2.1910589E+01;  0.0000000E+00;  2.8421724E-02;0;  1.2509395E-02;  4.0288477E+04;  0.0000000E+00;  6.8154244E-04;  4.0000000E+04;  0.0000000E+00;  4.0006090E+04;  1.2827667E-02;  0.0000000E+00; -3.1827213E-04;  4.2146854E+02;
  7.1123794E-02;  9.9999998E-03;  3.0005174E-02;2906;  1.4385637E-03;  0.0000000E+00; -7.8332887E-05;  1.0034126E+03;  1.0000000E-01;  2.8272781E+03;3; -2.2127876E+01;  0.0000000E+00;  3.9867543E-02;0;  1.2329779E-02;  4.0288527E+04;  0.0000000E+00;  1.5093656E-03;  4.0000000E+04;  0.0000000E+00;  4.0004941E+04;  1.2740748E-02;  0.0000000E+00; -4.1096969E-04;  2.7360974E+02;
  7.1129523E-02;  9.9999998E-03;  4.0007643E-02;2907;  1.5354765E-03;  0.0000000E+00; -1.1128524E-04;  1.0034000E+03;  1.0000000E-01;  2.8168093E+03;3; -2.2387470E+01;  0.0000000E+00;  4.7577895E-02;0;  1.2115663E-02;  4.0288668E+04;  0.0000000E+00;  2.5704310E-03;  4.0000000E+04;  0.0000000E+00;  4.0003133E+04;  1.2624925E-02;  0.0000000E+00; -5.0926168E-04;  1.1066245E+02;
  7.1134925E-02;  9.9999998E-03;  5.0011534E-02;2908;  1.6461633E-03;  0.0000000E+00; -1.4652881E-04;  1.0033885E+03;  1.0000000E-01;  2.8073281E+03;3; -2.2630043E+01;  0.0000000E+00;  5.0876733E-02;0;  1.1895704E-02;  4.0289078E+04;  0.0000000E+00;  3.6609536E-03;  4.0000000E+04;  0.0000000E+00;  4.0002477E+04;  1.2485590E-02;  0.0000000E+00; -5.8988546E-04;  3.0987133E+01;
  7.1138993E-02;  9.9999998E-03;  6.0017474E-02;2909;  1.7609427E-03;  0.0000000E+00; -1.7936112E-04;  1.0033884E+03;  1.0000000E-01;  2.8072292E+03;3; -2.2818859E+01;  0.0000000E+00;  4.6141841E-02;0;  1.1696980E-02;  4.0289719E+04;  0.0000000E+00;  4.3998514E-03;  4.0000000E+04;  0.0000000E+00;  4.0001770E+04;  1.2328852E-02;  0.0000000E+00; -6.3187198E-04;  1.1398764E+02;
  8.1043400E-02;  9.9999998E-03; -1.0006256E-01;2954;  2.2946899E-03;  0.0000000E+00;  2.5897258E-04;  1.0033469E+03;  1.0000000E-01;  2.7728599E+03;3; -1.5557902E+01;  0.0000000E+00;  6.2800415E-02;0;  1.2628387E-02;  4.0282207E+04;  0.0000000E+00; -6.5425527E-04;  4.0000000E+04;  0.0000000E+00;  4.0007918E+04;  1.2757832E-02;  0.0000000E+00; -1.2944519E-04;  6.5781622E+02;
  8.1047542E-02;  9.9999998E-03; -9.0052366E-02;2955;  2.2499312E-03;  0.0000000E+00;  2.5852237E-04;  1.0032969E+03;  1.0000000E-01;  2.7313796E+03;3; -1.5724969E+01;  0.0000000E+00;  2.7578337E-02;0;  1.2685349E-02;  4.0279941E+04;  0.0000000E+00;  4.5334767E-03;  4.0000000E+04;  0.0000000E+00;  4.0005941E+04;  1.2993526E-02;  0.0000000E+00; -3.0817676E-04;  4.2387506E+02;
  8.1049919E-02;  9.9999998E-03; -8.0041185E-02;2956;  2.1775188E-03;  0.0000000E+00;  2.4009441E-04;  1.0032657E+03;  1.0000000E-01;  2.7056025E+03;3; -1.5840872E+01;  0.0000000E+00;  3.7169214E-03;0;  1.2798189E-02;  4.0278723E+04;  0.0000000E+00;  7.1711154E-03;  4.0000000E+04;  0.0000000E+00;  4.0004453E+04;  1.3240805E-02;  0.0000000E+00; -4.4261562E-04;  2.3482927E+02;
  8.1050262E-02;  9.9999998E-03; -7.0029914E-02;2957;  2.0832906E-03;  0.0000000E+00;  2.1029559E-04;  1.0032554E+03;  1.0000000E-01;  2.6971089E+03;3; -1.5880516E+01;  0.0000000E+00; -1.0349588E-02;0;  1.2979095E-02;  4.0278273E+04;  0.0000000E+00;  7.6417066E-03;  4.0000000E+04;  0.0000000E+00;  4.0003090E+04;  1.3496851E-02;  0.0000000E+00; -5.1775592E-04;  1.3401370E+02;
  8.1048362E-02;  9.9999998E-03; -6.0020003E-02;2958;  1.9765301E-03;  0.0000000E+00;  1.7747781E-04;  1.0032581E+03;  1.0000000E-01;  2.6992817E+03;3; -1.5830149E+01;  0.0000000E+00; -1.7939510E-02;0;  1.3225908E-02;  4.0278426E+04;  0.0000000E+00;  6.6956216E-03;  4.0000000E+04;  0.0000000E+00;  4.0003523E+04;  1.3754863E-02;  0.0000000E+00; -5.2895519E-04;  1.3736798E+02;
  8.1044681E-02;  9.9999998E-03; -5.0013006E-02;2959;  1.8639483E-03;  0.0000000E+00;  1.4327084E-04;  1.0032767E+03;  1.0000000E-01;  2.7146887E+03;3; -1.5711596E+01;  0.0000000E+00; -2.1309800E-02;0;  1.3521950E-02;  4.0278855E+04;  0.0000000E+00;  5.0969413E-03;  4.0000000E+04;  0.0000000E+00;  4.0004465E+04;  1.4004430E-02;  0.0000000E+00; -4.8248013E-04;  2.3435446E+02;
  8.1039898E-02;  9.9999998E-03; -4.0008772E-02;2960;  1.7539149E-03;  0.0000000E+00;  1.0955587E-04;  1.0033030E+03;  1.0000000E-01;  2.7364165E+03;3; -1.5548120E+01;  0.0000000E+00; -2.1461522E-02;0;  1.3839011E-02;  4.0279660E+04;  0.0000000E+00;  3.4124474E-03;  4.0000000E+04;  0.0000000E+00;  4.0005996E+04;  1.4233081E-02;  0.0000000E+00; -3.9406962E-04;  3.9448843E+02;
  8.1034787E-02;  9.9999998E-03; -3.0006500E-02;2961;  1.6558124E-03;  0.0000000E+00;  7.8066987E-05;  1.0033301E+03;  1.0000000E-01;  2.7589343E+03;3; -1.5372735E+01;  0.0000000E+00; -1.7625345E-02;0;  1.4141702E-02;  4.0280281E+04;  0.0000000E+00;  1.9597353E-03;  4.0000000E+04;  0.0000000E+00;  4.0006922E+04;  1.4427788E-02;  0.0000000E+00; -2.8608544E-04;  5.7699249E+02;
  8.1030145E-02;  9.9999998E-03; -2.0004936E-02;2962;  1.5781331E-03;  0.0000000E+00;  4.8120681E-05;  1.0033510E+03;  1.0000000E-01;  2.7762178E+03;3; -1.5217052E+01;  0.0000000E+00; -1.2157451E-02;0;  1.4392811E-02;  4.0280758E+04;  0.0000000E+00;  8.7908999E-04;  4.0000000E+04;  0.0000000E+00;  4.0008422E+04;  1.4576552E-02;  0.0000000E+00; -1.8374044E-04;  7.4103290E+02;
  8.1026979E-02;  9.9999998E-03; -1.0002917E-02;2963;  1.5297120E-03;  0.0000000E+00;  2.2550907E-05;  1.0033688E+03;  1.0000000E-01;  2.7909333E+03;3; -1.5116880E+01;  0.0000000E+00; -6.3448739E-03;0;  1.4559248E-02;  4.0281078E+04;  0.0000000E+00;  2.2057287E-04;  4.0000000E+04;  0.0000000E+00;  4.0009172E+04;  1.4669942E-02;  0.0000000E+00; -1.1069368E-04;  8.5340894E+02;
  8.1025831E-02;  9.9999998E-03; -7.2737469E-11;2964;  1.5129133E-03;  0.0000000E+00; -6.2863612E-09;  1.0033747E+03;  1.0000000E-01;  2.7958716E+03;3; -1.5081341E+01;  0.0000000E+00;  2.1688378E-05;0;  1.4617538E-02;  4.0281137E+04;  0.0000000E+00;  6.2817899E-13;  4.0000000E+04;  0.0000000E+00;  4.0009781E+04;  1.4701747E-02;  0.0000000E+00; -8.4209561E-05;  8.9317877E+02;
  8.1026979E-02;  9.9999998E-03;  1.0002917E-02;2965;  1.5297143E-03;  0.0000000E+00; -2.2563581E-05;  1.0033688E+03;  1.0000000E-01;  2.7909333E+03;3; -1.5116883E+01;  0.0000000E+00;  6.3841888E-03;0;  1.4559266E-02;  4.0281078E+04;  0.0000000E+00;  2.2076053E-04;  4.0000000E+04;  0.0000000E+00;  4.0009172E+04;  1.4669960E-02;  0.0000000E+00; -1.1069428E-04;  8.5341412E+02;
  8.1030145E-02;  9.9999998E-03;  2.0004936E-02;2966;  1.5781377E-03;  0.0000000E+00; -4.8131293E-05;  1.0033510E+03;  1.0000000E-01;  2.7762178E+03;3; -1.5217063E+01;  0.0000000E+00;  1.2225009E-02;0;  1.4392821E-02;  4.0280758E+04;  0.0000000E+00;  8.7939785E-04;  4.0000000E+04;  0.0000000E+00;  4.0008422E+04;  1.4576563E-02;  0.0000000E+00; -1.8374120E-04;  7.4103851E+02;
  8.1034787E-02;  9.9999998E-03;  3.0006500E-02;2967;  1.6558204E-03;  0.0000000E+00; -7.8077297E-05;  1.0033301E+03;  1.0000000E-01;  2.7589343E+03;3; -1.5372724E+01;  0.0000000E+00;  1.7672243E-02;0;  1.4141727E-02;  4.0280281E+04;  0.0000000E+00;  1.9601253E-03;  4.0000000E+04;  0.0000000E+00;  4.0006922E+04;  1.4427813E-02;  0.0000000E+00; -2.8608562E-04;  5.7699469E+02;
  8.1039898E-02;  9.9999998E-03;  4.0008772E-02;2968;  1.7539277E-03;  0.0000000E+00; -1.0956479E-04;  1.0033031E+03;  1.0000000E-01;  2.7365151E+03;3; -1.5548262E+01;  0.0000000E+00;  2.1519326E-02;0;  1.3839059E-02;  4.0279664E+04;  0.0000000E+00;  3.4127792E-03;  4.0000000E+04;  0.0000000E+00;  4.0005996E+04;  1.4233125E-02;  0.0000000E+00; -3.9406706E-04;  3.9449332E+02;
  8.1044681E-02;  9.9999998E-03;  5.0013006E-02;2969;  1.8639622E-03;  0.0000000E+00; -1.4327461E-04;  1.0032767E+03;  1.0000000E-01;  2.7146887E+03;3; -1.5711566E+01;  0.0000000E+00;  2.1354258E-02;0;  1.3522017E-02;  4.0278848E+04;  0.0000000E+00;  5.0980682E-03;  4.0000000E+04;  0.0000000E+00;  4.0004465E+04;  1.4004492E-02;  0.0000000E+00; -4.8247495E-04;  2.3436708E+02;
  8.1048362E-02;  9.9999998E-03;  6.0020003E-02;2970;  1.9765454E-03;  0.0000000E+00; -1.7748095E-04;  1.0032580E+03;  1.0000000E-01;  2.6991829E+03;3; -1.5830158E+01;  0.0000000E+00;  1.7977085E-02;0;  1.3225995E-02;  4.0278430E+04;  0.0000000E+00;  6.6967662E-03;  4.0000000E+04;  0.0000000E+00;  4.0003523E+04;  1.3754940E-02;  0.0000000E+00; -5.2894466E-04;  1.3736754E+02;
  9.1066934E-02;  9.9999998E-03; -1.0006295E-01;3015;  2.8573365E-03;  0.0000000E+00;  2.1648235E-04;  1.0026652E+03;  1.0000000E-01;  2.2080364E+03;3; -9.6134157E+00;  0.0000000E+00;  4.5069162E-02;0;  1.3780676E-02;  4.0223781E+04;  0.0000000E+00;  2.2384722E-03;  4.0000000E+04;  0.0000000E+00;  4.0010535E+04;  1.3794005E-02;  0.0000000E+00; -1.3328757E-05;  1.0410861E+03;
  9.1076642E-02;  9.9999998E-03; -9.0050079E-02;3016;  2.8166752E-03;  0.0000000E+00;  2.0362640E-04;  1.0026318E+03;  1.0000000E-01;  2.1803828E+03;3; -9.7421827E+00;  0.0000000E+00;  2.5141213E-02;0;  1.3873936E-02;  4.0222965E+04;  0.0000000E+00;  4.8928368E-03;  4.0000000E+04;  0.0000000E+00;  4.0008277E+04;  1.4066102E-02;  0.0000000E+00; -1.9216607E-04;  7.8730219E+02;
  9.1082424E-02;  9.9999998E-03; -8.0036923E-02;3017;  2.7383501E-03;  0.0000000E+00;  1.6712055E-04;  1.0026175E+03;  1.0000000E-01;  2.1685312E+03;3; -9.8337526E+00;  0.0000000E+00;  1.3074949E-02;0;  1.4040415E-02;  4.0223215E+04;  0.0000000E+00;  6.0313712E-03;  4.0000000E+04;  0.0000000E+00;  4.0006551E+04;  1.4366000E-02;  0.0000000E+00; -3.2558441E-04;  5.8385138E+02;
  9.1084398E-02;  9.9999998E-03; -7.0024401E-02;3018;  2.6353162E-03;  0.0000000E+00;  1.2112410E-04;  1.0026230E+03;  1.0000000E-01;  2.1730745E+03;3; -9.8733950E+00;  0.0000000E+00;  5.7633626E-03;0;  1.4293359E-02;  4.0224426E+04;  0.0000000E+00;  5.8144871E-03;  4.0000000E+04;  0.0000000E+00;  4.0005805E+04;  1.4690939E-02;  0.0000000E+00; -3.9758050E-04;  4.7812268E+02;
  9.1083147E-02;  9.9999998E-03; -6.0014062E-02;3019;  2.5136163E-03;  0.0000000E+00;  7.8028010E-05;  1.0026483E+03;  1.0000000E-01;  2.1940120E+03;3; -9.8565111E+00;  0.0000000E+00;  4.0087905E-03;0;  1.4627184E-02;  4.0226129E+04;  0.0000000E+00;  4.7816182E-03;  4.0000000E+04;  0.0000000E+00;  4.0006195E+04;  1.5030013E-02;  0.0000000E+00; -4.0282926E-04;  4.8681485E+02;
  9.1079630E-02;  9.9999998E-03; -5.0007991E-02;3020;  2.3879970E-03;  0.0000000E+00;  4.7022240E-05;  1.0026868E+03;  1.0000000E-01;  2.2260112E+03;3; -9.7892771E+00;  0.0000000E+00;  6.4744102E-03;0;  1.5019806E-02;  4.0227961E+04;  0.0000000E+00;  3.4753387E-03;  4.0000000E+04;  0.0000000E+00;  4.0006859E+04;  1.5367318E-02;  0.0000000E+00; -3.4751161E-04;  5.9654065E+02;
  9.1074772E-02;  9.9999998E-03; -4.0006254E-02;3021;  2.2645965E-03;  0.0000000E+00;  2.4754418E-05;  1.0027310E+03;  1.0000000E-01;  2.2625532E+03;3; -9.6923370E+00;  0.0000000E+00;  4.6301032E-03;0;  1.5434774E-02;  4.0229688E+04;  0.0000000E+00;  2.2557632E-03;  4.0000000E+04;  0.0000000E+00;  4.0008250E+04;  1.5682666E-02;  0.0000000E+00; -2.4789196E-04;  7.7275238E+02;
  9.1069348E-02;  9.9999998E-03; -3.0007044E-02;3022;  2.1500955E-03;  0.0000000E+00;  9.3948938E-06;  1.0027729E+03;  1.0000000E-01;  2.2973176E+03;3; -9.5862465E+00;  0.0000000E+00;  3.1538764E-03;0;  1.5827570E-02;  4.0231590E+04;  0.0000000E+00;  1.2771313E-03;  4.0000000E+04;  0.0000000E+00;  4.0010160E+04;  1.5955042E-02;  0.0000000E+00; -1.2747105E-04;  9.7102362E+02;
  9.1064371E-02;  9.9999998E-03; -2.0007644E-02;3023;  2.0582215E-03;  0.0000000E+00;  1.9009460E-06;  1.0028030E+03;  1.0000000E-01;  2.3222058E+03;3; -9.4897957E+00;  0.0000000E+00;  3.3982678E-03;0;  1.6152140E-02;  4.0232613E+04;  0.0000000E+00;  5.7189376E-04;  4.0000000E+04;  0.0000000E+00;  4.0011699E+04;  1.6165389E-02;  0.0000000E+00; -1.3248826E-05;  1.1477872E+03;
  9.1060974E-02;  9.9999998E-03; -1.0005987E-02;3024;  2.0010071E-03;  0.0000000E+00; -1.0349746E-06;  1.0028259E+03;  1.0000000E-01;  2.3412671E+03;3; -9.4270811E+00;  0.0000000E+00;  2.6482237E-03;0;  1.6367158E-02;  4.0233270E+04;  0.0000000E+00;  1.4384418E-04;  4.0000000E+04;  0.0000000E+00;  4.0011906E+04;  1.6298437E-02;  0.0000000E+00;  6.8720867E-05;  1.2682001E+03;
  9.1059752E-02;  9.9999998E-03;  1.9798081E-10;3025;  1.9817376E-03;  0.0000000E+00; -5.0070903E-09;  1.0028349E+03;  1.0000000E-01;  2.3486743E+03;3; -9.4053869E+00;  0.0000000E+00;  2.1726995E-05;0;  1.6442593E-02;  4.0233676E+04;  0.0000000E+00;  2.7759202E-13;  4.0000000E+04;  0.0000000E+00;  4.0012277E+04;  1.6343998E-02;  0.0000000E+00;  9.8595912E-05;  1.3107031E+03;
  9.1060966E-02;  9.9999998E-03;  1.0005987E-02;3026;  2.0010087E-03;  0.0000000E+00;  1.0244204E-06;  1.0028259E+03;  1.0000000E-01;  2.3412671E+03;3; -9.4270868E+00;  0.0000000E+00; -2.6196607E-03;0;  1.6367171E-02;  4.0233270E+04;  0.0000000E+00;  1.4404289E-04;  4.0000000E+04;  0.0000000E+00;  4.0011906E+04;  1.6298452E-02;  0.0000000E+00;  6.8719339E-05;  1.2682021E+03;
  9.1064371E-02;  9.9999998E-03;  2.0007644E-02;3027;  2.0582257E-03;  0.0000000E+00; -1.9111847E-06;  1.0028029E+03;  1.0000000E-01;  2.3222058E+03;3; -9.4897680E+00;  0.0000000E+00; -3.3593981E-03;0;  1.6152151E-02;  4.0232621E+04;  0.0000000E+00;  5.7231635E-04;  4.0000000E+04;  0.0000000E+00;  4.0011699E+04;  1.6165402E-02;  0.0000000E+00; -1.3250978E-05;  1.1477947E+03;
  9.1069341E-02;  9.9999998E-03;  3.0007044E-02;3028;  2.1501004E-03;  0.0000000E+00; -9.4019888E-06;  1.0027729E+03;  1.0000000E-01;  2.2973176E+03;3; -9.5862484E+00;  0.0000000E+00; -3.0929022E-03;0;  1.5827600E-02;  4.0231586E+04;  0.0000000E+00;  1.2777954E-03;  4.0000000E+04;  0.0000000E+00;  4.0010160E+04;  1.5955072E-02;  0.0000000E+00; -1.2747284E-04;  9.7103033E+02;
  9.1074772E-02;  9.9999998E-03;  4.0006254E-02;3029;  2.2646075E-03;  0.0000000E+00; -2.4760502E-05;  1.0027310E+03;  1.0000000E-01;  2.2625532E+03;3; -9.6922541E+00;  0.0000000E+00; -4.5913244E-03;0;  1.5434830E-02;  4.0229680E+04;  0.0000000E+00;  2.2569865E-03;  4.0000000E+04;  0.0000000E+00;  4.0008254E+04;  1.5682722E-02;  0.0000000E+00; -2.4789161E-04;  7.7276135E+02;
  9.1079630E-02;  9.9999998E-03;  5.0007995E-02;3030;  2.3880112E-03;  0.0000000E+00; -4.7028392E-05;  1.0026869E+03;  1.0000000E-01;  2.2260112E+03;3; -9.7892847E+00;  0.0000000E+00; -6.4587854E-03;0;  1.5019860E-02;  4.0227957E+04;  0.0000000E+00;  3.4753871E-03;  4.0000000E+04;  0.0000000E+00;  4.0006859E+04;  1.5367368E-02;  0.0000000E+00; -3.4750838E-04;  5.9654272E+02;
  9.1083147E-02;  9.9999998E-03;  6.0014062E-02;3031;  2.5136294E-03;  0.0000000E+00; -7.8032717E-05;  1.0026483E+03;  1.0000000E-01;  2.1940120E+03;3; -9.8565340E+00;  0.0000000E+00; -3.9749686E-03;0;  1.4627257E-02;  4.0226129E+04;  0.0000000E+00;  4.7828425E-03;  4.0000000E+04;  0.0000000E+00;  4.0006195E+04;  1.5030080E-02;  0.0000000E+00; -4.0282318E-04;  4.8681073E+02;
  1.0127933E-01;  9.9999998E-03; -1.0003447E-01;3076;  4.1972110E-03;  0.0000000E+00; -7.3458968E-06;  1.0017424E+03;  1.0000000E-01;  1.4436135E+03;3; -5.1858139E+00;  0.0000000E+00;  1.5330377E-02;0;  1.4475352E-02;  4.0144637E+04;  0.0000000E+00; -4.3928949E-03;  4.0000000E+04;  0.0000000E+00;  4.0012793E+04;  1.4382135E-02;  0.0000000E+00;  9.3217357E-05;  1.4624094E+03;
  1.0129938E-01;  9.9999998E-03; -9.0019241E-02;3077;  4.1820095E-03;  0.0000000E+00; -2.4754125E-05;  1.0017319E+03;  1.0000000E-01;  1.4348236E+03;3; -5.2577643E+00;  0.0000000E+00; -7.9383078E-04;0;  1.4587861E-02;  4.0145441E+04;  0.0000000E+00; -3.5962961E-03;  4.0000000E+04;  0.0000000E+00;  4.0010641E+04;  1.4663418E-02;  0.0000000E+00; -7.5557662E-05;  1.1948510E+03;
  1.0131336E-01;  9.9999998E-03; -7.9998977E-02;3078;  4.1384953E-03;  0.0000000E+00; -7.6175675E-05;  1.0017406E+03;  1.0000000E-01;  1.4420333E+03;3; -5.3211985E+00;  0.0000000E+00; -1.3633696E-02;0;  1.4797317E-02;  4.0147676E+04;  0.0000000E+00; -2.7533507E-03;  4.0000000E+04;  0.0000000E+00;  4.0009281E+04;  1.4996736E-02;  0.0000000E+00; -1.9941921E-04;  9.8028632E+02;
  1.0132196E-01;  9.9999998E-03; -6.9978207E-02;3079;  4.0615555E-03;  0.0000000E+00; -1.5772226E-04;  1.0017726E+03;  1.0000000E-01;  1.4686005E+03;3; -5.3705873E+00;  0.0000000E+00; -2.4889356E-02;0;  1.5115106E-02;  4.0150723E+04;  0.0000000E+00; -2.1237493E-03;  4.0000000E+04;  0.0000000E+00;  4.0008656E+04;  1.5376938E-02;  0.0000000E+00; -2.6183113E-04;  8.7002850E+02;
  1.0132661E-01;  9.9999998E-03; -5.9966810E-02;3080;  3.9519961E-03;  0.0000000E+00; -2.3577873E-04;  1.0018187E+03;  1.0000000E-01;  1.5067228E+03;3; -5.3973870E+00;  0.0000000E+00; -3.3461619E-02;0;  1.5531215E-02;  4.0154238E+04;  0.0000000E+00; -1.6388090E-03;  4.0000000E+04;  0.0000000E+00;  4.0008664E+04;  1.5788142E-02;  0.0000000E+00; -2.5692678E-04;  8.8092041E+02;
  1.0132790E-01;  9.9999998E-03; -4.9967609E-02;3081;  3.8096535E-03;  0.0000000E+00; -3.0068177E-04;  1.0018770E+03;  1.0000000E-01;  1.5551165E+03;3; -5.4192796E+00;  0.0000000E+00; -2.8217828E-02;0;  1.6015420E-02;  4.0157809E+04;  0.0000000E+00; -1.1975999E-03;  4.0000000E+04;  0.0000000E+00;  4.0009621E+04;  1.6206075E-02;  0.0000000E+00; -1.9065532E-04;  9.9755518E+02;
  1.0132656E-01;  9.9999998E-03; -3.9975043E-02;3082;  3.6463090E-03;  0.0000000E+00; -3.3886757E-04;  1.0019342E+03;  1.0000000E-01;  1.6024238E+03;3; -5.4278007E+00;  0.0000000E+00; -2.0091927E-02;0;  1.6523119E-02;  4.0160508E+04;  0.0000000E+00; -7.7882077E-04;  4.0000000E+04;  0.0000000E+00;  4.0010867E+04;  1.6602542E-02;  0.0000000E+00; -7.9424011E-05;  1.1829651E+03;
  1.0132316E-01;  9.9999998E-03; -2.9984640E-02;3083;  3.4811951E-03;  0.0000000E+00; -3.4609501E-04;  1.0019884E+03;  1.0000000E-01;  1.6473608E+03;3; -5.4210944E+00;  0.0000000E+00; -5.5691730E-03;0;  1.7001336E-02;  4.0163070E+04;  0.0000000E+00; -4.2238363E-04;  4.0000000E+04;  0.0000000E+00;  4.0012770E+04;  1.6948663E-02;  0.0000000E+00;  5.2673229E-05;  1.3906682E+03;
  1.0131901E-01;  9.9999998E-03; -1.9993408E-02;3084;  3.3409002E-03;  0.0000000E+00; -3.1589103E-04;  1.0020291E+03;  1.0000000E-01;  1.6810388E+03;3; -5.3912168E+00;  0.0000000E+00;  5.8186464E-03;0;  1.7395571E-02;  4.0164773E+04;  0.0000000E+00; -1.7383778E-04;  4.0000000E+04;  0.0000000E+00;  4.0014059E+04;  1.7218111E-02;  0.0000000E+00;  1.7745983E-04;  1.5752804E+03;
  1.0131580E-01;  9.9999998E-03; -9.9991979E-03;3085;  3.2288805E-03;  0.0000000E+00; -2.2162874E-04;  1.0020565E+03;  1.0000000E-01;  1.7037543E+03;3; -5.3702126E+00;  0.0000000E+00;  1.6910821E-02;0;  1.7655039E-02;  4.0165922E+04;  0.0000000E+00; -4.0235740E-05;  4.0000000E+04;  0.0000000E+00;  4.0014980E+04;  1.7387923E-02;  0.0000000E+00;  2.6711638E-04;  1.7007615E+03;
  1.0131451E-01;  9.9999998E-03;  3.1305566E-10;3086;  3.1700290E-03;  0.0000000E+00; -1.0756648E-09;  1.0020651E+03;  1.0000000E-01;  1.7108652E+03;3; -5.3624301E+00;  0.0000000E+00;  1.4168877E-05;0;  1.7744474E-02;  4.0166273E+04;  0.0000000E+00;  1.6734448E-12;  4.0000000E+04;  0.0000000E+00;  4.0015363E+04;  1.7444657E-02;  0.0000000E+00;  2.9981742E-04;  1.7449740E+03;
  1.0131580E-01;  9.9999998E-03;  9.9991988E-03;3087;  3.2288847E-03;  0.0000000E+00;  2.2161989E-04;  1.0020565E+03;  1.0000000E-01;  1.7037543E+03;3; -5.3702140E+00;  0.0000000E+00; -1.6894694E-02;0;  1.7655062E-02;  4.0165922E+04;  0.0000000E+00; -4.0046521E-05;  4.0000000E+04;  0.0000000E+00;  4.0014980E+04;  1.7387947E-02;  0.0000000E+00;  2.6711362E-04;  1.7007606E+03;
  1.0131901E-01;  9.9999998E-03;  1.9993410E-02;3088;  3.3409044E-03;  0.0000000E+00;  3.1588232E-04;  1.0020291E+03;  1.0000000E-01;  1.6810388E+03;3; -5.3912187E+00;  0.0000000E+00; -5.7802075E-03;0;  1.7395588E-02;  4.0164777E+04;  0.0000000E+00; -1.7318076E-04;  4.0000000E+04;  0.0000000E+00;  4.0014059E+04;  1.7218130E-02;  0.0000000E+00;  1.7745762E-04;  1.5752863E+03;
  1.0132315E-01;  9.9999998E-03;  2.9984640E-02;3089;  3.4812023E-03;  0.0000000E+00;  3.4608465E-04;  1.0019884E+03;  1.0000000E-01;  1.6473608E+03;3; -5.4211011E+00;  0.0000000E+00;  5.6135589E-03;0;  1.7001355E-02;  4.0163070E+04;  0.0000000E+00; -4.2181389E-04;  4.0000000E+04;  0.0000000E+00;  4.0012770E+04;  1.6948685E-02;  0.0000000E+00;  5.2669788E-05;  1.3906743E+03;
  1.0132656E-01;  9.9999998E-03;  3.9975043E-02;3090;  3.6463209E-03;  0.0000000E+00;  3.3885727E-04;  1.0019342E+03;  1.0000000E-01;  1.6024238E+03;3; -5.4278069E+00;  0.0000000E+00;  2.0135550E-02;0;  1.6523171E-02;  4.0160504E+04;  0.0000000E+00; -7.7839574E-04;  4.0000000E+04;  0.0000000E+00;  4.0010871E+04;  1.6602598E-02;  0.0000000E+00; -7.9427373E-05;  1.1829805E+03;
  1.0132790E-01;  9.9999998E-03;  4.9967609E-02;3091;  3.8096695E-03;  0.0000000E+00;  3.0066952E-04;  1.0018770E+03;  1.0000000E-01;  1.5551165E+03;3; -5.4192858E+00;  0.0000000E+00;  2.8228244E-02;0;  1.6015472E-02;  4.0157812E+04;  0.0000000E+00; -1.1970970E-03;  4.0000000E+04;  0.0000000E+00;  4.0009621E+04;  1.6206125E-02;  0.0000000E+00; -1.9065208E-04;  9.9756488E+02;
  1.0132661E-01;  9.9999998E-03;  5.9966810E-02;3092;  3.9520059E-03;  0.0000000E+00;  2.3576457E-04;  1.0018185E+03;  1.0000000E-01;  1.5066240E+03;3; -5.3973351E+00;  0.0000000E+00;  3.3496339E-02;0;  1.5531301E-02;  4.0154238E+04;  0.0000000E+00; -1.6379384E-03;  4.0000000E+04;  0.0000000E+00;  4.0008664E+04;  1.5788224E-02;  0.0000000E+00; -2.5692282E-04;  8.8092841E+02;
  1.1164676E-01;  9.9999998E-03; -9.9984474E-02;3137;  4.7552064E-03;  0.0000000E+00; -6.8987727E-05;  1.0008330E+03;  1.0000000E-01;  6.9015332E+02;3; -2.5224757E+00;  0.0000000E+00; -6.9498795E-04;0;  1.4367770E-02;  4.0065816E+04;  0.0000000E+00; -2.0902846E-02;  4.0000000E+04;  0.0000000E+00;  4.0015555E+04;  1.4177702E-02;  0.0000000E+00;  1.9006801E-04;  1.8662251E+03;
  1.1176551E-01;  9.9999998E-03; -8.9963764E-02;3138;  4.7411132E-03;  0.0000000E+00; -7.1549155E-05;  1.0008455E+03;  1.0000000E-01;  7.0052338E+02;3; -2.5525198E+00;  0.0000000E+00; -3.7868216E-03;0;  1.4477669E-02;  4.0068320E+04;  0.0000000E+00; -2.0285662E-02;  4.0000000E+04;  0.0000000E+00;  4.0013590E+04;  1.4437634E-02;  0.0000000E+00;  4.0034472E-05;  1.5877021E+03;
  1.1185899E-01;  9.9999998E-03; -7.9944216E-02;3139;  4.7181905E-03;  0.0000000E+00; -8.7657019E-05;  1.0008760E+03;  1.0000000E-01;  7.2580664E+02;3; -2.5755467E+00;  0.0000000E+00; -7.3418645E-03;0;  1.4710887E-02;  4.0072098E+04;  0.0000000E+00; -1.7821331E-02;  4.0000000E+04;  0.0000000E+00;  4.0011656E+04;  1.4778085E-02;  0.0000000E+00; -6.7197398E-05;  1.3615219E+03;
  1.1190934E-01;  9.9999998E-03; -6.9939509E-02;3140;  4.6883062E-03;  0.0000000E+00; -1.2079765E-04;  1.0009278E+03;  1.0000000E-01;  7.6866962E+02;3; -2.5905035E+00;  0.0000000E+00; -1.3888262E-02;0;  1.5078475E-02;  4.0077121E+04;  0.0000000E+00; -1.4458407E-02;  4.0000000E+04;  0.0000000E+00;  4.0010891E+04;  1.5194470E-02;  0.0000000E+00; -1.1599516E-04;  1.2419772E+03;
  1.1192365E-01;  9.9999998E-03; -5.9943702E-02;3141;  4.6506473E-03;  0.0000000E+00; -1.6248312E-04;  1.0009937E+03;  1.0000000E-01;  8.2318658E+02;3; -2.5947430E+00;  0.0000000E+00; -1.6309107E-02;0;  1.5566310E-02;  4.0082242E+04;  0.0000000E+00; -1.0867860E-02;  4.0000000E+04;  0.0000000E+00;  4.0010973E+04;  1.5666666E-02;  0.0000000E+00; -1.0035576E-04;  1.2466637E+03;
  1.1192096E-01;  9.9999998E-03; -4.9952231E-02;3142;  4.6118326E-03;  0.0000000E+00; -1.9862867E-04;  1.0010658E+03;  1.0000000E-01;  8.8303674E+02;3; -2.5872695E+00;  0.0000000E+00; -1.7828757E-02;0;  1.6137976E-02;  4.0086918E+04;  0.0000000E+00; -7.5205327E-03;  4.0000000E+04;  0.0000000E+00;  4.0011867E+04;  1.6163109E-02;  0.0000000E+00; -2.5133118E-05;  1.3608550E+03;
  1.1191483E-01;  9.9999998E-03; -3.9963339E-02;3143;  4.5764269E-03;  0.0000000E+00; -2.2502836E-04;  1.0011329E+03;  1.0000000E-01;  9.3854138E+02;3; -2.5677698E+00;  0.0000000E+00; -1.8868657E-02;0;  1.6739760E-02;  4.0090840E+04;  0.0000000E+00; -4.7065835E-03;  4.0000000E+04;  0.0000000E+00;  4.0013188E+04;  1.6645469E-02;  0.0000000E+00;  9.4291303E-05;  1.5471703E+03;
  1.1190829E-01;  9.9999998E-03; -2.9974861E-02;3144;  4.5489883E-03;  0.0000000E+00; -2.3337142E-04;  1.0011951E+03;  1.0000000E-01;  9.9009546E+02;3; -2.5459447E+00;  0.0000000E+00; -1.8367345E-02;0;  1.7307939E-02;  4.0093922E+04;  0.0000000E+00; -2.5593624E-03;  4.0000000E+04;  0.0000000E+00;  4.0015215E+04;  1.7073920E-02;  0.0000000E+00;  2.3401981E-04;  1.7577650E+03;
  1.1190286E-01;  9.9999998E-03; -1.9985434E-02;3145;  4.5344783E-03;  0.0000000E+00; -2.1384408E-04;  1.0012465E+03;  1.0000000E-01;  1.0326621E+03;3; -2.5248883E+00;  0.0000000E+00; -1.7331986E-02;0;  1.7776739E-02;  4.0096375E+04;  0.0000000E+00; -1.0965547E-03;  4.0000000E+04;  0.0000000E+00;  4.0016707E+04;  1.7411401E-02;  0.0000000E+00;  3.6533765E-04;  1.9456940E+03;
  1.1189935E-01;  9.9999998E-03; -9.9942805E-03;3146;  4.5331330E-03;  0.0000000E+00; -1.5166010E-04;  1.0012758E+03;  1.0000000E-01;  1.0569578E+03;3; -2.5092034E+00;  0.0000000E+00; -1.2959854E-02;0;  1.8087184E-02;  4.0097766E+04;  0.0000000E+00; -2.6626873E-04;  4.0000000E+04;  0.0000000E+00;  4.0017609E+04;  1.7627688E-02;  0.0000000E+00;  4.5949582E-04;  2.0736848E+03;
  1.1189817E-01;  9.9999998E-03; -2.4562183E-10;3147;  4.5392169E-03;  0.0000000E+00;  3.7360528E-09;  1.0012859E+03;  1.0000000E-01;  1.0653525E+03;3; -2.5054433E+00;  0.0000000E+00;  1.3849656E-05;0;  1.8196287E-02;  4.0098199E+04;  0.0000000E+00;  2.3237232E-12;  4.0000000E+04;  0.0000000E+00;  4.0018199E+04;  1.7702464E-02;  0.0000000E+00;  4.9382180E-04;  2.1188167E+03;
  1.1189935E-01;  9.9999998E-03;  9.9942796E-03;3148;  4.5331353E-03;  0.0000000E+00;  1.5165868E-04;  1.0012758E+03;  1.0000000E-01;  1.0569578E+03;3; -2.5092032E+00;  0.0000000E+00;  1.2972595E-02;0;  1.8087145E-02;  4.0097762E+04;  0.0000000E+00; -2.6596157E-04;  4.0000000E+04;  0.0000000E+00;  4.0017609E+04;  1.7627653E-02;  0.0000000E+00;  4.5949256E-04;  2.0736826E+03;
  1.1190286E-01;  9.9999998E-03;  1.9985432E-02;3149;  4.5344844E-03;  0.0000000E+00;  2.1383890E-04;  1.0012465E+03;  1.0000000E-01;  1.0327609E+03;3; -2.5248971E+00;  0.0000000E+00;  1.7338071E-02;0;  1.7776752E-02;  4.0096371E+04;  0.0000000E+00; -1.0962242E-03;  4.0000000E+04;  0.0000000E+00;  4.0016707E+04;  1.7411420E-02;  0.0000000E+00;  3.6533241E-04;  1.9457036E+03;
  1.1190829E-01;  9.9999998E-03;  2.9974861E-02;3150;  4.5489976E-03;  0.0000000E+00;  2.3336516E-04;  1.0011951E+03;  1.0000000E-01;  9.9009546E+02;3; -2.5459449E+00;  0.0000000E+00;  1.8386316E-02;0;  1.7307980E-02;  4.0093922E+04;  0.0000000E+00; -2.5588903E-03;  4.0000000E+04;  0.0000000E+00;  4.0015215E+04;  1.7073967E-02;  0.0000000E+00;  2.3401370E-04;  1.7577660E+03;
  1.1191483E-01;  9.9999998E-03;  3.9963339E-02;3151;  4.5764381E-03;  0.0000000E+00;  2.2502159E-04;  1.0011329E+03;  1.0000000E-01;  9.3854138E+02;3; -2.5677750E+00;  0.0000000E+00;  1.8898549E-02;0;  1.6739789E-02;  4.0090844E+04;  0.0000000E+00; -4.7053974E-03;  4.0000000E+04;  0.0000000E+00;  4.0013188E+04;  1.6645502E-02;  0.0000000E+00;  9.4286668E-05;  1.5471903E+03;
  1.1192096E-01;  9.9999998E-03;  4.9952231E-02;3152;  4.6118465E-03;  0.0000000E+00;  1.9862117E-04;  1.0010658E+03;  1.0000000E-01;  8.8303674E+02;3; -2.5872779E+00;  0.0000000E+00;  1.7870292E-02;0;  1.6138032E-02;  4.0086914E+04;  0.0000000E+00; -7.5195627E-03;  4.0000000E+04;  0.0000000E+00;  4.0011867E+04;  1.6163168E-02;  0.0000000E+00; -2.5136196E-05;  1.3608698E+03;
  1.1192365E-01;  9.9999998E-03;  5.9943702E-02;3153;  4.6506627E-03;  0.0000000E+00;  1.6247139E-04;  1.0009937E+03;  1.0000000E-01;  8.2318658E+02;3; -2.5947673E+00;  0.0000000E+00;  1.6309569E-02;0;  1.5566383E-02;  4.0082242E+04;  0.0000000E+00; -1.0866310E-02;  4.0000000E+04;  0.0000000E+00;  4.0010973E+04;  1.5666738E-02;  0.0000000E+00; -1.0035426E-04;  1.2466688E+03;
  1.2196168E-01;  9.9999998E-03; -9.9945404E-02;3198;  4.8919702E-03;  0.0000000E+00; -7.2108480E-05;  1.0001301E+03;  1.0000000E-01;  1.0775004E+02;3; -1.1964145E+00;  0.0000000E+00;  2.3757631E-03;0;  1.3663546E-02;  4.0003973E+04;  0.0000000E+00; -4.2760540E-02;  4.0000000E+04;  0.0000000E+00;  4.0017645E+04;  1.3388640E-02;  0.0000000E+00;  2.7490550E-04;  2.1866235E+03;
  1.2194567E-01;  9.9999998E-03; -8.9945689E-02;3199;  4.8728427E-03;  0.0000000E+00; -7.2414216E-05;  1.0001692E+03;  1.0000000E-01;  1.4014418E+02;3; -1.2243820E+00;  0.0000000E+00;  6.5852114E-04;0;  1.3773391E-02;  4.0008605E+04;  0.0000000E+00; -3.9608568E-02;  4.0000000E+04;  0.0000000E+00;  4.0015020E+04;  1.3628688E-02;  0.0000000E+00;  1.4470378E-04;  1.8991709E+03;
  1.2192603E-01;  9.9999998E-03; -7.9943717E-02;3200;  4.8499284E-03;  0.0000000E+00; -8.0668287E-05;  1.0002272E+03;  1.0000000E-01;  1.8824159E+02;3; -1.2482316E+00;  0.0000000E+00; -5.6970236E-04;0;  1.4026215E-02;  4.0014895E+04;  0.0000000E+00; -3.3428449E-02;  4.0000000E+04;  0.0000000E+00;  4.0013965E+04;  1.3972539E-02;  0.0000000E+00;  5.3676125E-05;  1.6592910E+03;
  1.2190800E-01;  9.9999998E-03; -6.9943421E-02;3201;  4.8263473E-03;  0.0000000E+00; -9.5235555E-05;  1.0002958E+03;  1.0000000E-01;  2.4512888E+02;3; -1.2644867E+00;  0.0000000E+00; -1.3912782E-03;0;  1.4429837E-02;  4.0021266E+04;  0.0000000E+00; -2.6109906E-02;  4.0000000E+04;  0.0000000E+00;  4.0012527E+04;  1.4412791E-02;  0.0000000E+00;  1.7047163E-05;  1.5243273E+03;
  1.2189337E-01;  9.9999998E-03; -5.9946340E-02;3202;  4.8051677E-03;  0.0000000E+00; -1.1248580E-04;  1.0003752E+03;  1.0000000E-01;  3.1090479E+02;3; -1.2727482E+00;  0.0000000E+00; -1.8798604E-03;0;  1.4966982E-02;  4.0027547E+04;  0.0000000E+00; -1.8959755E-02;  4.0000000E+04;  0.0000000E+00;  4.0012480E+04;  1.4925781E-02;  0.0000000E+00;  4.1201747E-05;  1.5149575E+03;
  1.2188224E-01;  9.9999998E-03; -4.9952231E-02;3203;  4.7873771E-03;  0.0000000E+00; -1.3062288E-04;  1.0004526E+03;  1.0000000E-01;  3.7500174E+02;3; -1.2734619E+00;  0.0000000E+00; -2.6161715E-03;0;  1.5597032E-02;  4.0032914E+04;  0.0000000E+00; -1.2755388E-02;  4.0000000E+04;  0.0000000E+00;  4.0013605E+04;  1.5475045E-02;  0.0000000E+00;  1.2198723E-04;  1.6180885E+03;
  1.2187421E-01;  9.9999998E-03; -3.9960429E-02;3204;  4.7743213E-03;  0.0000000E+00; -1.4420375E-04;  1.0005276E+03;  1.0000000E-01;  4.3712344E+02;3; -1.2691884E+00;  0.0000000E+00; -2.8978668E-03;0;  1.6260363E-02;  4.0037258E+04;  0.0000000E+00; -7.8312131E-03;  4.0000000E+04;  0.0000000E+00;  4.0014691E+04;  1.6015595E-02;  0.0000000E+00;  2.4476770E-04;  1.7967871E+03;
  1.2186845E-01;  9.9999998E-03; -2.9970182E-02;3205;  4.7668340E-03;  0.0000000E+00; -1.4420330E-04;  1.0005902E+03;  1.0000000E-01;  4.8897382E+02;3; -1.2627819E+00;  0.0000000E+00; -3.2399993E-03;0;  1.6885955E-02;  4.0040637E+04;  0.0000000E+00; -4.2219628E-03;  4.0000000E+04;  0.0000000E+00;  4.0016375E+04;  1.6499670E-02;  0.0000000E+00;  3.8628478E-04;  2.0027177E+03;
  1.2186409E-01;  9.9999998E-03; -1.9980788E-02;3206;  4.7654700E-03;  0.0000000E+00; -1.2421477E-04;  1.0006403E+03;  1.0000000E-01;  5.3045416E+02;3; -1.2567068E+00;  0.0000000E+00; -2.7026697E-03;0;  1.7400777E-02;  4.0042801E+04;  0.0000000E+00; -1.8089593E-03;  4.0000000E+04;  0.0000000E+00;  4.0017887E+04;  1.6882561E-02;  0.0000000E+00;  5.1821530E-04;  2.1880918E+03;
  1.2186150E-01;  9.9999998E-03; -9.9912668E-03;3207;  4.7680940E-03;  0.0000000E+00; -7.7308658E-05;  1.0006708E+03;  1.0000000E-01;  5.5573737E+02;3; -1.2528731E+00;  0.0000000E+00; -1.9589425E-03;0;  1.7740212E-02;  4.0044359E+04;  0.0000000E+00; -4.4081634E-04;  4.0000000E+04;  0.0000000E+00;  4.0019070E+04;  1.7127991E-02;  0.0000000E+00;  6.1222079E-04;  2.3148079E+03;
  1.2186065E-01;  9.9999998E-03; -3.0837960E-10;3208;  4.7707194E-03;  0.0000000E+00;  2.8682751E-10;  1.0006806E+03;  1.0000000E-01;  5.6383588E+02;3; -1.2511297E+00;  0.0000000E+00;  5.3098042E-06;0;  1.7858913E-02;  4.0044766E+04;  0.0000000E+00;  9.6572457E-13;  4.0000000E+04;  0.0000000E+00;  4.0019434E+04;  1.7212540E-02;  0.0000000E+00;  6.4637343E-04;  2.3595535E+03;
  1.2186150E-01;  9.9999998E-03;  9.9912658E-03;3209;  4.7680973E-03;  0.0000000E+00;  7.7309371E-05;  1.0006708E+03;  1.0000000E-01;  5.5573737E+02;3; -1.2528647E+00;  0.0000000E+00;  1.9783715E-03;0;  1.7740205E-02;  4.0044359E+04;  0.0000000E+00; -4.4062702E-04;  4.0000000E+04;  0.0000000E+00;  4.0019070E+04;  1.7127987E-02;  0.0000000E+00;  6.1221729E-04;  2.3148088E+03;
  1.2186409E-01;  9.9999998E-03;  1.9980786E-02;3210;  4.7654752E-03;  0.0000000E+00;  1.2421171E-04;  1.0006403E+03;  1.0000000E-01;  5.3045416E+02;3; -1.2567097E+00;  0.0000000E+00;  2.7158668E-03;0;  1.7400771E-02;  4.0042797E+04;  0.0000000E+00; -1.8083897E-03;  4.0000000E+04;  0.0000000E+00;  4.0017887E+04;  1.6882561E-02;  0.0000000E+00;  5.1821006E-04;  2.1880999E+03;
  1.2186845E-01;  9.9999998E-03;  2.9970182E-02;3211;  4.7668428E-03;  0.0000000E+00;  1.4419937E-04;  1.0005902E+03;  1.0000000E-01;  4.8897382E+02;3; -1.2627833E+00;  0.0000000E+00;  3.2631971E-03;0;  1.6886001E-02;  4.0040637E+04;  0.0000000E+00; -4.2212610E-03;  4.0000000E+04;  0.0000000E+00;  4.0016375E+04;  1.6499722E-02;  0.0000000E+00;  3.8627838E-04;  2.0027307E+03;
  1.2187421E-01;  9.9999998E-03;  3.9960429E-02;3212;  4.7743316E-03;  0.0000000E+00;  1.4420212E-04;  1.0005276E+03;  1.0000000E-01;  4.3712344E+02;3; -1.2691947E+00;  0.0000000E+00;  2.9288118E-03;0;  1.6260397E-02;  4.0037254E+04;  0.0000000E+00; -7.8302799E-03;  4.0000000E+04;  0.0000000E+00;  4.0014691E+04;  1.6015636E-02;  0.0000000E+00;  2.4476138E-04;  1.7967969E+03;
  1.2188224E-01;  9.9999998E-03;  4.9952231E-02;3213;  4.7873897E-03;  0.0000000E+00;  1.3061817E-04;  1.0004525E+03;  1.0000000E-01;  3.7490298E+02;3; -1.2734582E+00;  0.0000000E+00;  2.6588603E-03;0;  1.5597058E-02;  4.0032910E+04;  0.0000000E+00; -1.2754268E-02;  4.0000000E+04;  0.0000000E+00;  4.0013605E+04;  1.5475076E-02;  0.0000000E+00;  1.2198276E-04;  1.6180962E+03;
  1.2189337E-01;  9.9999998E-03;  5.9946340E-02;3214;  4.8051830E-03;  0.0000000E+00;  1.1248034E-04;  1.0003752E+03;  1.0000000E-01;  3.1090479E+02;3; -1.2727537E+00;  0.0000000E+00;  1.9242348E-03;0;  1.4967049E-02;  4.0027547E+04;  0.0000000E+00; -1.8959509E-02;  4.0000000E+04;  0.0000000E+00;  4.0012480E+04;  1.4925849E-02;  0.0000000E+00;  4.1200441E-05;  1.5149661E+03;
  1.3188384E-01;  9.9999998E-03; -9.9942476E-02;3259;  4.8665036E-03;  0.0000000E+00; -6.8892783E-05;  9.9969403E+02;  1.0000000E-01; -2.5347432E+02;3; -6.1244792E-01;  0.0000000E+00;  1.1461870E-02;0;  1.2796472E-02;  3.9964059E+04;  0.0000000E+00; -6.0184222E-02;  4.0000000E+04;  0.0000000E+00;  4.0018422E+04;  1.2452234E-02;  0.0000000E+00;  3.4423854E-04;  2.3682954E+03;
  1.3185063E-01;  9.9999998E-03; -8.9941405E-02;3260;  4.8449989E-03;  0.0000000E+00; -6.3972133E-05;  9.9973560E+02;  1.0000000E-01; -2.1905553E+02;3; -6.2743127E-01;  0.0000000E+00;  9.9631939E-03;0;  1.2896434E-02;  3.9969613E+04;  0.0000000E+00; -5.2935503E-02;  4.0000000E+04;  0.0000000E+00;  4.0016609E+04;  1.2663282E-02;  0.0000000E+00;  2.3315156E-04;  2.0733206E+03;
  1.3181844E-01;  9.9999998E-03; -7.9937801E-02;3261;  4.8237303E-03;  0.0000000E+00; -6.5918844E-05;  9.9979608E+02;  1.0000000E-01; -1.6893349E+02;3; -6.4098912E-01;  0.0000000E+00;  8.6148316E-03;0;  1.3157326E-02;  3.9975941E+04;  0.0000000E+00; -4.2864997E-02;  4.0000000E+04;  0.0000000E+00;  4.0014762E+04;  1.2999390E-02;  0.0000000E+00;  1.5793527E-04;  1.8195463E+03;
  1.3179193E-01;  9.9999998E-03; -6.9935381E-02;3262;  4.8054093E-03;  0.0000000E+00; -7.4354102E-05;  9.9986530E+02;  1.0000000E-01; -1.1160178E+02;3; -6.5193534E-01;  0.0000000E+00;  7.6437048E-03;0;  1.3584650E-02;  3.9982535E+04;  0.0000000E+00; -3.2335058E-02;  4.0000000E+04;  0.0000000E+00;  4.0013578E+04;  1.3451816E-02;  0.0000000E+00;  1.3283464E-04;  1.6667186E+03;
  1.3177159E-01;  9.9999998E-03; -5.9936058E-02;3263;  4.7918996E-03;  0.0000000E+00; -8.6838540E-05;  9.9994006E+02;  1.0000000E-01; -4.9677608E+01;3; -6.5976965E-01;  0.0000000E+00;  6.4356714E-03;0;  1.4157658E-02;  3.9988672E+04;  0.0000000E+00; -2.2837214E-02;  4.0000000E+04;  0.0000000E+00;  4.0013066E+04;  1.3993669E-02;  0.0000000E+00;  1.6398903E-04;  1.6383408E+03;
  1.3175604E-01;  9.9999998E-03; -4.9940228E-02;3264;  4.7842949E-03;  0.0000000E+00; -9.9666839E-05;  1.0000167E+03;  1.0000000E-01;  1.3826770E+01;3; -6.6513246E-01;  0.0000000E+00;  5.5947569E-03;0;  1.4830996E-02;  3.9993797E+04;  0.0000000E+00; -1.5076559E-02;  4.0000000E+04;  0.0000000E+00;  4.0013766E+04;  1.4583301E-02;  0.0000000E+00;  2.4769592E-04;  1.7236100E+03;
  1.3174431E-01;  9.9999998E-03; -3.9947629E-02;3265;  4.7819954E-03;  0.0000000E+00; -1.0784101E-04;  1.0000872E+03;  1.0000000E-01;  7.2195488E+01;3; -6.6825014E-01;  0.0000000E+00;  4.3856073E-03;0;  1.5539704E-02;  3.9998133E+04;  0.0000000E+00; -9.1791730E-03;  4.0000000E+04;  0.0000000E+00;  4.0015332E+04;  1.5169503E-02;  0.0000000E+00;  3.7020087E-04;  1.8869152E+03;
  1.3173541E-01;  9.9999998E-03; -2.9958712E-02;3266;  4.7840513E-03;  0.0000000E+00; -1.0631602E-04;  1.0001483E+03;  1.0000000E-01;  1.2286073E+02;3; -6.7025489E-01;  0.0000000E+00;  3.4024429E-03;0;  1.6207114E-02;  4.0001148E+04;  0.0000000E+00; -4.9551749E-03;  4.0000000E+04;  0.0000000E+00;  4.0016770E+04;  1.5697833E-02;  0.0000000E+00;  5.0928106E-04;  2.0804788E+03;
  1.3172868E-01;  9.9999998E-03; -1.9972539E-02;3267;  4.7894027E-03;  0.0000000E+00; -8.9165544E-05;  1.0001942E+03;  1.0000000E-01;  1.6088434E+02;3; -6.7171276E-01;  0.0000000E+00;  2.2920275E-03;0;  1.6755207E-02;  4.0003250E+04;  0.0000000E+00; -2.1391492E-03;  4.0000000E+04;  0.0000000E+00;  4.0018270E+04;  1.6117455E-02;  0.0000000E+00;  6.3775177E-04;  2.2566602E+03;
  1.3172424E-01;  9.9999998E-03; -9.9869547E-03;3268;  4.7955657E-03;  0.0000000E+00; -5.2189764E-05;  1.0002221E+03;  1.0000000E-01;  1.8399480E+02;3; -6.7275769E-01;  0.0000000E+00;  5.7712826E-04;0;  1.7115830E-02;  4.0004375E+04;  0.0000000E+00; -5.2559195E-04;  4.0000000E+04;  0.0000000E+00;  4.0019402E+04;  1.6387193E-02;  0.0000000E+00;  7.2863785E-04;  2.3775869E+03;
  1.3172260E-01;  9.9999998E-03; -3.1160216E-10;3269;  4.7980226E-03;  0.0000000E+00; -6.1856870E-10;  1.0002310E+03;  1.0000000E-01;  1.9130324E+02;3; -6.7301929E-01;  0.0000000E+00;  5.6009480E-06;0;  1.7241726E-02;  4.0004820E+04;  0.0000000E+00;  2.0338882E-12;  4.0000000E+04;  0.0000000E+00;  4.0019562E+04;  1.6480217E-02;  0.0000000E+00;  7.6150958E-04;  2.4203445E+03;
  1.3172424E-01;  9.9999998E-03;  9.9869547E-03;3270;  4.7955671E-03;  0.0000000E+00;  5.2187825E-05;  1.0002220E+03;  1.0000000E-01;  1.8399480E+02;3; -6.7275989E-01;  0.0000000E+00; -5.4764160E-04;0;  1.7115831E-02;  4.0004375E+04;  0.0000000E+00; -5.2541343E-04;  4.0000000E+04;  0.0000000E+00;  4.0019402E+04;  1.6387196E-02;  0.0000000E+00;  7.2863488E-04;  2.3775918E+03;
  1.3172868E-01;  9.9999998E-03;  1.9972539E-02;3271;  4.7894074E-03;  0.0000000E+00;  8.9161957E-05;  1.0001943E+03;  1.0000000E-01;  1.6098311E+02;3; -6.7171109E-01;  0.0000000E+00; -2.2683141E-03;0;  1.6755218E-02;  4.0003246E+04;  0.0000000E+00; -2.1389907E-03;  4.0000000E+04;  0.0000000E+00;  4.0018270E+04;  1.6117470E-02;  0.0000000E+00;  6.3774752E-04;  2.2566689E+03;
  1.3173541E-01;  9.9999998E-03;  2.9958712E-02;3272;  4.7840588E-03;  0.0000000E+00;  1.0631279E-04;  1.0001483E+03;  1.0000000E-01;  1.2286073E+02;3; -6.7025322E-01;  0.0000000E+00; -3.3725062E-03;0;  1.6207123E-02;  4.0001152E+04;  0.0000000E+00; -4.9546408E-03;  4.0000000E+04;  0.0000000E+00;  4.0016770E+04;  1.5697850E-02;  0.0000000E+00;  5.0927408E-04;  2.0804873E+03;
  1.3174431E-01;  9.9999998E-03;  3.9947629E-02;3273;  4.7820066E-03;  0.0000000E+00;  1.0783731E-04;  1.0000872E+03;  1.0000000E-01;  7.2294250E+01;3; -6.6826308E-01;  0.0000000E+00; -4.3475810E-03;0;  1.5539747E-02;  3.9998133E+04;  0.0000000E+00; -9.1791367E-03;  4.0000000E+04;  0.0000000E+00;  4.0015332E+04;  1.5169552E-02;  0.0000000E+00;  3.7019525E-04;  1.8869285E+03;
  1.3175604E-01;  9.9999998E-03;  4.9940228E-02;3274;  4.7843070E-03;  0.0000000E+00;  9.9664176E-05;  1.0000167E+03;  1.0000000E-01;  1.3826770E+01;3; -6.6514772E-01;  0.0000000E+00; -5.5299094E-03;0;  1.4831030E-02;  3.9993797E+04;  0.0000000E+00; -1.5076516E-02;  4.0000000E+04;  0.0000000E+00;  4.0013766E+04;  1.4583338E-02;  0.0000000E+00;  2.4769147E-04;  1.7236232E+03;
  1.3177159E-01;  9.9999998E-03;  5.9936058E-02;3275;  4.7919145E-03;  0.0000000E+00;  8.6829736E-05;  9.9994000E+02;  1.0000000E-01; -4.9726990E+01;3; -6.5978563E-01;  0.0000000E+00; -6.4204759E-03;0;  1.4157690E-02;  3.9988664E+04;  0.0000000E+00; -2.2836642E-02;  4.0000000E+04;  0.0000000E+00;  4.0013066E+04;  1.3993702E-02;  0.0000000E+00;  1.6398831E-04;  1.6383469E+03;
  1.4176181E-01;  9.9999998E-03; -9.9936053E-02;3320;  4.7377595E-03;  0.0000000E+00; -6.5922774E-05;  9.9948340E+02;  1.0000000E-01; -4.2798788E+02;3; -3.9238369E-01;  0.0000000E+00;  2.0915443E-02;0;  1.2149830E-02;  3.9943770E+04;  0.0000000E+00; -6.6576958E-02;  4.0000000E+04;  0.0000000E+00;  4.0018320E+04;  1.1753405E-02;  0.0000000E+00;  3.9642520E-04;  2.3711289E+03;
  1.4171948E-01;  9.9999998E-03; -8.9931831E-02;3321;  4.7153458E-03;  0.0000000E+00; -5.5795972E-05;  9.9951544E+02;  1.0000000E-01; -4.0147012E+02;3; -4.0240088E-01;  0.0000000E+00;  1.8623635E-02;0;  1.2238574E-02;  3.9948512E+04;  0.0000000E+00; -5.5403013E-02;  4.0000000E+04;  0.0000000E+00;  4.0016004E+04;  1.1937667E-02;  0.0000000E+00;  3.0090762E-04;  2.0721243E+03;
  1.4168046E-01;  9.9999998E-03; -7.9924971E-02;3322;  4.6966826E-03;  0.0000000E+00; -5.1991799E-05;  9.9956360E+02;  1.0000000E-01; -3.6157001E+02;3; -4.1154808E-01;  0.0000000E+00;  1.6337000E-02;0;  1.2504703E-02;  3.9954047E+04;  0.0000000E+00; -4.3001376E-02;  4.0000000E+04;  0.0000000E+00;  4.0014066E+04;  1.2266275E-02;  0.0000000E+00;  2.3842769E-04;  1.8070112E+03;
  1.4164795E-01;  9.9999998E-03; -6.9920316E-02;3323;  4.6830601E-03;  0.0000000E+00; -5.5040007E-05;  9.9961932E+02;  1.0000000E-01; -3.1539850E+02;3; -4.2019090E-01;  0.0000000E+00;  1.4425081E-02;0;  1.2951428E-02;  3.9959680E+04;  0.0000000E+00; -3.1495087E-02;  4.0000000E+04;  0.0000000E+00;  4.0012758E+04;  1.2729174E-02;  0.0000000E+00;  2.2225500E-04;  1.6367969E+03;
  1.4162114E-01;  9.9999998E-03; -5.9920605E-02;3324;  4.6753762E-03;  0.0000000E+00; -6.2665182E-05;  9.9968408E+02;  1.0000000E-01; -2.6172098E+02;3; -4.2643538E-01;  0.0000000E+00;  1.2606461E-02;0;  1.3554166E-02;  3.9964930E+04;  0.0000000E+00; -2.1929184E-02;  4.0000000E+04;  0.0000000E+00;  4.0012141E+04;  1.3296021E-02;  0.0000000E+00;  2.5814475E-04;  1.5873236E+03;
  1.4159852E-01;  9.9999998E-03; -4.9926866E-02;3325;  4.6741404E-03;  0.0000000E+00; -7.1589318E-05;  9.9974652E+02;  1.0000000E-01; -2.1001875E+02;3; -4.3269676E-01;  0.0000000E+00;  1.1070897E-02;0;  1.4262945E-02;  3.9969328E+04;  0.0000000E+00; -1.4527774E-02;  4.0000000E+04;  0.0000000E+00;  4.0012824E+04;  1.3920336E-02;  0.0000000E+00;  3.4260962E-04;  1.6501823E+03;
  1.4158034E-01;  9.9999998E-03; -3.9937884E-02;3326;  4.6783448E-03;  0.0000000E+00; -7.8012446E-05;  9.9980334E+02;  1.0000000E-01; -1.6290897E+02;3; -4.3887538E-01;  0.0000000E+00;  9.4201257E-03;0;  1.5008054E-02;  3.9972797E+04;  0.0000000E+00; -9.0267584E-03;  4.0000000E+04;  0.0000000E+00;  4.0014004E+04;  1.4545407E-02;  0.0000000E+00;  4.6264660E-04;  1.7917429E+03;
  1.4156692E-01;  9.9999998E-03; -2.9952254E-02;3327;  4.6852380E-03;  0.0000000E+00; -7.7340424E-05;  9.9985516E+02;  1.0000000E-01; -1.1999660E+02;3; -4.4469529E-01;  0.0000000E+00;  7.5559719E-03;0;  1.5708625E-02;  3.9975188E+04;  0.0000000E+00; -5.0290343E-03;  4.0000000E+04;  0.0000000E+00;  4.0015656E+04;  1.5111452E-02;  0.0000000E+00;  5.9717329E-04;  1.9659044E+03;
  1.4155763E-01;  9.9999998E-03; -1.9968804E-02;3328;  4.6924311E-03;  0.0000000E+00; -6.6348970E-05;  9.9989160E+02;  1.0000000E-01; -8.9824623E+01;3; -4.4958454E-01;  0.0000000E+00;  5.1817261E-03;0;  1.6283048E-02;  3.9976770E+04;  0.0000000E+00; -2.2443461E-03;  4.0000000E+04;  0.0000000E+00;  4.0017113E+04;  1.5562606E-02;  0.0000000E+00;  7.2044216E-04;  2.1264871E+03;
  1.4155161E-01;  9.9999998E-03; -9.9853203E-03;3329;  4.6997326E-03;  0.0000000E+00; -3.9257233E-05;  9.9991644E+02;  1.0000000E-01; -6.9232613E+01;3; -4.5306352E-01;  0.0000000E+00;  1.9392358E-03;0;  1.6660485E-02;  3.9977781E+04;  0.0000000E+00; -5.6528987E-04;  4.0000000E+04;  0.0000000E+00;  4.0017688E+04;  1.5853362E-02;  0.0000000E+00;  8.0712396E-04;  2.2371562E+03;
  1.4154942E-01;  9.9999998E-03; -3.1782241E-10;3330;  4.7030873E-03;  0.0000000E+00; -2.4926039E-09;  9.9992212E+02;  1.0000000E-01; -6.4541382E+01;3; -4.5419127E-01;  0.0000000E+00; -1.3558761E-06;0;  1.6792173E-02;  3.9978004E+04;  0.0000000E+00;  6.7343814E-13;  4.0000000E+04;  0.0000000E+00;  4.0018098E+04;  1.5953811E-02;  0.0000000E+00;  8.3836156E-04;  2.2762805E+03;
  1.4155161E-01;  9.9999998E-03;  9.9853193E-03;3331;  4.6997350E-03;  0.0000000E+00;  3.9251692E-05;  9.9991644E+02;  1.0000000E-01; -6.9232613E+01;3; -4.5307276E-01;  0.0000000E+00; -1.9178144E-03;0;  1.6660480E-02;  3.9977785E+04;  0.0000000E+00; -5.6516222E-04;  4.0000000E+04;  0.0000000E+00;  4.0017688E+04;  1.5853358E-02;  0.0000000E+00;  8.0712145E-04;  2.2371565E+03;
  1.4155763E-01;  9.9999998E-03;  1.9968804E-02;3332;  4.6924362E-03;  0.0000000E+00;  6.6343215E-05;  9.9989160E+02;  1.0000000E-01; -8.9824623E+01;3; -4.4958216E-01;  0.0000000E+00; -5.1570386E-03;0;  1.6283035E-02;  3.9976770E+04;  0.0000000E+00; -2.2442748E-03;  4.0000000E+04;  0.0000000E+00;  4.0017113E+04;  1.5562598E-02;  0.0000000E+00;  7.2043703E-04;  2.1264902E+03;
  1.4156692E-01;  9.9999998E-03;  2.9952252E-02;3333;  4.6852459E-03;  0.0000000E+00;  7.7333629E-05;  9.9985516E+02;  1.0000000E-01; -1.1999660E+02;3; -4.4469699E-01;  0.0000000E+00; -7.5304932E-03;0;  1.5708629E-02;  3.9975184E+04;  0.0000000E+00; -5.0288872E-03;  4.0000000E+04;  0.0000000E+00;  4.0015656E+04;  1.5111462E-02;  0.0000000E+00;  5.9716712E-04;  1.9659111E+03;
  1.4158034E-01;  9.9999998E-03;  3.9937884E-02;3334;  4.6783555E-03;  0.0000000E+00;  7.8006393E-05;  9.9980341E+02;  1.0000000E-01; -1.6285959E+02;3; -4.3887496E-01;  0.0000000E+00; -9.3998704E-03;0;  1.5008067E-02;  3.9972801E+04;  0.0000000E+00; -9.0265013E-03;  4.0000000E+04;  0.0000000E+00;  4.0014004E+04;  1.4545426E-02;  0.0000000E+00;  4.6264066E-04;  1.7917538E+03;
  1.4159852E-01;  9.9999998E-03;  4.9926866E-02;3335;  4.6741529E-03;  0.0000000E+00;  7.1580725E-05;  9.9974652E+02;  1.0000000E-01; -2.1001875E+02;3; -4.3271044E-01;  0.0000000E+00; -1.1046845E-02;0;  1.4262955E-02;  3.9969324E+04;  0.0000000E+00; -1.4527183E-02;  4.0000000E+04;  0.0000000E+00;  4.0012828E+04;  1.3920349E-02;  0.0000000E+00;  3.4260598E-04;  1.6501838E+03;
  1.4162114E-01;  9.9999998E-03;  5.9920605E-02;3336;  4.6753916E-03;  0.0000000E+00;  6.2657709E-05;  9.9968408E+02;  1.0000000E-01; -2.6172098E+02;3; -4.2644262E-01;  0.0000000E+00; -1.2590427E-02;0;  1.3554207E-02;  3.9964930E+04;  0.0000000E+00; -2.1929944E-02;  4.0000000E+04;  0.0000000E+00;  4.0012141E+04;  1.3296063E-02;  0.0000000E+00;  2.5814379E-04;  1.5873290E+03;
  1.5138158E-01;  9.9999998E-03; -9.9865766E-03;3390;  4.5436262E-03;  0.0000000E+00; -2.2466818E-05;  9.9973309E+02;  1.0000000E-01; -2.2112955E+02;3; -3.9637080E-01;  0.0000000E+00;  4.3553873E-03;0;  1.6795466E-02;  3.9963039E+04;  0.0000000E+00; -6.8497827E-04;  4.0000000E+04;  0.0000000E+00;  4.0014852E+04;  1.5948333E-02;  0.0000000E+00;  8.4713317E-04;  1.8986238E+03;
  1.5137891E-01;  9.9999998E-03; -3.6639061E-10;3391;  4.5454544E-03;  0.0000000E+00; -4.1854431E-09;  9.9973853E+02;  1.0000000E-01; -2.1663585E+02;3; -3.9801207E-01;  0.0000000E+00;  7.6138290E-06;0;  1.6932279E-02;  3.9963180E+04;  0.0000000E+00;  7.7180948E-13;  4.0000000E+04;  0.0000000E+00;  4.0014965E+04;  1.6055394E-02;  0.0000000E+00;  8.7688572E-04;  1.9327583E+03;
  1.5138158E-01;  9.9999998E-03;  9.9865757E-03;3392;  4.5436290E-03;  0.0000000E+00;  2.2458893E-05;  9.9973309E+02;  1.0000000E-01; -2.2112955E+02;3; -3.9636570E-01;  0.0000000E+00; -4.3433388E-03;0;  1.6795468E-02;  3.9963039E+04;  0.0000000E+00; -6.8493403E-04;  4.0000000E+04;  0.0000000E+00;  4.0014852E+04;  1.5948337E-02;  0.0000000E+00;  8.4713171E-04;  1.8986270E+03;
  1.5138911E-01;  9.9999998E-03; -1.9970864E-02;3389;  4.5377482E-03;  0.0000000E+00; -4.0138682E-05;  9.9971625E+02;  1.0000000E-01; -2.3510446E+02;3; -3.9314464E-01;  0.0000000E+00;  8.4071569E-03;0;  1.6402896E-02;  3.9962430E+04;  0.0000000E+00; -2.6082599E-03;  4.0000000E+04;  0.0000000E+00;  4.0014340E+04;  1.5638541E-02;  0.0000000E+00;  7.6435448E-04;  1.8019092E+03;
  1.5138911E-01;  9.9999998E-03;  1.9970864E-02;3393;  4.5377538E-03;  0.0000000E+00;  4.0130075E-05;  9.9971625E+02;  1.0000000E-01; -2.3510446E+02;3; -3.9314559E-01;  0.0000000E+00; -8.3876401E-03;0;  1.6402910E-02;  3.9962430E+04;  0.0000000E+00; -2.6077884E-03;  4.0000000E+04;  0.0000000E+00;  4.0014340E+04;  1.5638560E-02;  0.0000000E+00;  7.6434982E-04;  1.8019171E+03;
  1.5140152E-01;  9.9999998E-03; -2.9954996E-02;3388;  4.5300261E-03;  0.0000000E+00; -4.8655915E-05;  9.9968683E+02;  1.0000000E-01; -2.5944946E+02;3; -3.8954762E-01;  0.0000000E+00;  1.0554023E-02;0;  1.5804620E-02;  3.9961535E+04;  0.0000000E+00; -5.4698973E-03;  4.0000000E+04;  0.0000000E+00;  4.0013074E+04;  1.5158550E-02;  0.0000000E+00;  6.4607034E-04;  1.6617784E+03;
  1.5140152E-01;  9.9999998E-03;  2.9954996E-02;3394;  4.5300340E-03;  0.0000000E+00;  4.8647762E-05;  9.9968683E+02;  1.0000000E-01; -2.5944946E+02;3; -3.8955075E-01;  0.0000000E+00; -1.0520765E-02;0;  1.5804619E-02;  3.9961535E+04;  0.0000000E+00; -5.4697050E-03;  4.0000000E+04;  0.0000000E+00;  4.0013074E+04;  1.5158553E-02;  0.0000000E+00;  6.4606551E-04;  1.6617887E+03;
  1.5141939E-01;  9.9999998E-03; -3.9941076E-02;3387;  4.5227665E-03;  0.0000000E+00; -4.9491427E-05;  9.9965369E+02;  1.0000000E-01; -2.8690546E+02;3; -3.8279721E-01;  0.0000000E+00;  1.3353908E-02;0;  1.5073710E-02;  3.9959910E+04;  0.0000000E+00; -9.0349186E-03;  4.0000000E+04;  0.0000000E+00;  4.0011977E+04;  1.4557591E-02;  0.0000000E+00;  5.1611970E-04;  1.5120076E+03;
  1.5141939E-01;  9.9999998E-03;  3.9941076E-02;3395;  4.5227767E-03;  0.0000000E+00;  4.9482824E-05;  9.9965363E+02;  1.0000000E-01; -2.8695483E+02;3; -3.8279527E-01;  0.0000000E+00; -1.3341606E-02;0;  1.5073718E-02;  3.9959910E+04;  0.0000000E+00; -9.0338401E-03;  4.0000000E+04;  0.0000000E+00;  4.0011977E+04;  1.4557602E-02;  0.0000000E+00;  5.1611575E-04;  1.5120121E+03;
  1.5144315E-01;  9.9999998E-03; -4.9930163E-02;3386;  4.5166775E-03;  0.0000000E+00; -4.5360917E-05;  9.9961188E+02;  1.0000000E-01; -3.2157117E+02;3; -3.7531799E-01;  0.0000000E+00;  1.6179686E-02;0;  1.4294981E-02;  3.9957512E+04;  0.0000000E+00; -1.3361579E-02;  4.0000000E+04;  0.0000000E+00;  4.0010750E+04;  1.3895989E-02;  0.0000000E+00;  3.9899148E-04;  1.3964691E+03;
  1.5144315E-01;  9.9999998E-03;  4.9930163E-02;3396;  4.5166900E-03;  0.0000000E+00;  4.5352066E-05;  9.9961182E+02;  1.0000000E-01; -3.2162054E+02;3; -3.7532133E-01;  0.0000000E+00; -1.6160063E-02;0;  1.4294978E-02;  3.9957512E+04;  0.0000000E+00; -1.3360335E-02;  4.0000000E+04;  0.0000000E+00;  4.0010750E+04;  1.3895988E-02;  0.0000000E+00;  3.9898956E-04;  1.3964739E+03;
  1.5147285E-01;  9.9999998E-03; -5.9922557E-02;3385;  4.5137149E-03;  0.0000000E+00; -3.9099039E-05;  9.9956610E+02;  1.0000000E-01; -3.5949600E+02;3; -3.6760229E-01;  0.0000000E+00;  1.8103775E-02;0;  1.3552975E-02;  3.9954320E+04;  0.0000000E+00; -1.8879738E-02;  4.0000000E+04;  0.0000000E+00;  4.0010430E+04;  1.3238128E-02;  0.0000000E+00;  3.1484637E-04;  1.3587185E+03;
  1.5147285E-01;  9.9999998E-03;  5.9922557E-02;3397;  4.5137303E-03;  0.0000000E+00;  3.9087157E-05;  9.9956610E+02;  1.0000000E-01; -3.5949600E+02;3; -3.6761045E-01;  0.0000000E+00; -1.8088525E-02;0;  1.3552984E-02;  3.9954316E+04;  0.0000000E+00; -1.8879130E-02;  4.0000000E+04;  0.0000000E+00;  4.0010430E+04;  1.3238137E-02;  0.0000000E+00;  3.1484762E-04;  1.3587205E+03;
  1.5150802E-01;  9.9999998E-03; -6.9918558E-02;3384;  4.5157247E-03;  0.0000000E+00; -3.4252804E-05;  9.9952362E+02;  1.0000000E-01; -3.9465552E+02;3; -3.5960352E-01;  0.0000000E+00;  1.9981049E-02;0;  1.2921417E-02;  3.9950551E+04;  0.0000000E+00; -2.6245961E-02;  4.0000000E+04;  0.0000000E+00;  4.0010980E+04;  1.2645258E-02;  0.0000000E+00;  2.7615944E-04;  1.4290848E+03;
  1.5154837E-01;  9.9999998E-03; -7.9918236E-02;3383;  4.5241700E-03;  0.0000000E+00; -3.4502533E-05;  9.9948828E+02;  1.0000000E-01; -4.2393863E+02;3; -3.5138002E-01;  0.0000000E+00;  2.2521656E-02;0;  1.2454382E-02;  3.9946559E+04;  0.0000000E+00; -3.5988647E-02;  4.0000000E+04;  0.0000000E+00;  4.0012934E+04;  1.2168065E-02;  0.0000000E+00;  2.8631723E-04;  1.6129077E+03;
  1.5159303E-01;  9.9999998E-03; -8.9920387E-02;3382;  4.5403177E-03;  0.0000000E+00; -4.2924697E-05;  9.9946210E+02;  1.0000000E-01; -4.4566641E+02;3; -3.4329277E-01;  0.0000000E+00;  2.5014937E-02;0;  1.2180135E-02;  3.9942461E+04;  0.0000000E+00; -4.8051815E-02;  4.0000000E+04;  0.0000000E+00;  4.0014812E+04;  1.1840180E-02;  0.0000000E+00;  3.3995486E-04;  1.8828776E+03;
  1.5164120E-01;  9.9999998E-03; -9.9923611E-02;3381;  4.5643020E-03;  0.0000000E+00; -6.0324350E-05;  9.9945032E+02;  1.0000000E-01; -4.5539453E+02;3; -3.3528623E-01;  0.0000000E+00;  2.8592985E-02;0;  1.2098040E-02;  3.9939629E+04;  0.0000000E+00; -6.1322369E-02;  4.0000000E+04;  0.0000000E+00;  4.0017184E+04;  1.1673348E-02;  0.0000000E+00;  4.2469177E-04;  2.1794993E+03;
  1.6158794E-01;  9.9999998E-03; -9.9951848E-02;3442;  4.3651047E-03;  0.0000000E+00; -4.2599426E-05;  9.9953320E+02;  1.0000000E-01; -3.8675449E+02;3; -3.2767466E-01;  0.0000000E+00;  3.5097532E-02;0;  1.2958282E-02;  3.9946445E+04;  0.0000000E+00; -4.9342662E-02;  4.0000000E+04;  0.0000000E+00;  4.0014367E+04;  1.2538090E-02;  0.0000000E+00;  4.2019150E-04;  1.8191062E+03;
  1.6154055E-01;  9.9999998E-03; -8.9952037E-02;3443;  4.3412237E-03;  0.0000000E+00; -2.5029367E-05;  9.9952130E+02;  1.0000000E-01; -3.9658139E+02;3; -3.3582404E-01;  0.0000000E+00;  3.1913824E-02;0;  1.3044267E-02;  3.9947625E+04;  0.0000000E+00; -3.6733985E-02;  4.0000000E+04;  0.0000000E+00;  4.0012113E+04;  1.2702902E-02;  0.0000000E+00;  3.4136517E-04;  1.5308009E+03;
  1.6149338E-01;  9.9999998E-03; -7.9951905E-02;3444;  4.3285363E-03;  0.0000000E+00; -1.7481891E-05;  9.9952100E+02;  1.0000000E-01; -3.9682828E+02;3; -3.4368315E-01;  0.0000000E+00;  2.8964221E-02;0;  1.3334730E-02;  3.9949605E+04;  0.0000000E+00; -2.7783426E-02;  4.0000000E+04;  0.0000000E+00;  4.0009988E+04;  1.3041929E-02;  0.0000000E+00;  2.9280057E-04;  1.2603563E+03;
  1.6145007E-01;  9.9999998E-03; -6.9953009E-02;3445;  4.3252804E-03;  0.0000000E+00; -1.7807659E-05;  9.9953162E+02;  1.0000000E-01; -3.8803842E+02;3; -3.5123712E-01;  0.0000000E+00;  2.6793089E-02;0;  1.3827935E-02;  3.9951809E+04;  0.0000000E+00; -2.1970505E-02;  4.0000000E+04;  0.0000000E+00;  4.0008289E+04;  1.3541723E-02;  0.0000000E+00;  2.8621216E-04;  1.0657546E+03;
  1.6141260E-01;  9.9999998E-03; -5.9955969E-02;3446;  4.3295338E-03;  0.0000000E+00; -2.2489165E-05;  9.9955682E+02;  1.0000000E-01; -3.6715012E+02;3; -3.5888031E-01;  0.0000000E+00;  2.4570672E-02;0;  1.4492361E-02;  3.9954191E+04;  0.0000000E+00; -1.8069619E-02;  4.0000000E+04;  0.0000000E+00;  4.0007332E+04;  1.4165768E-02;  0.0000000E+00;  3.2659274E-04;  9.7587360E+02;
  1.6138189E-01;  9.9999998E-03; -4.9960740E-02;3447;  4.3390477E-03;  0.0000000E+00; -2.8062503E-05;  9.9958185E+02;  1.0000000E-01; -3.4640994E+02;3; -3.6675933E-01;  0.0000000E+00;  2.2172388E-02;0;  1.5270381E-02;  3.9955953E+04;  0.0000000E+00; -1.4794532E-02;  4.0000000E+04;  0.0000000E+00;  4.0007602E+04;  1.4859892E-02;  0.0000000E+00;  4.1048892E-04;  9.8887964E+02;
  1.6135730E-01;  9.9999998E-03; -3.9967418E-02;3448;  4.3515535E-03;  0.0000000E+00; -3.1258834E-05;  9.9960840E+02;  1.0000000E-01; -3.2443527E+02;3; -3.7436917E-01;  0.0000000E+00;  1.9105161E-02;0;  1.6084589E-02;  3.9957305E+04;  0.0000000E+00; -1.1306846E-02;  4.0000000E+04;  0.0000000E+00;  4.0008152E+04;  1.5558896E-02;  0.0000000E+00;  5.2569428E-04;  1.0778098E+03;
  1.6133864E-01;  9.9999998E-03; -2.9976167E-02;3449;  4.3647597E-03;  0.0000000E+00; -3.0010746E-05;  9.9963159E+02;  1.0000000E-01; -3.0522592E+02;3; -3.8168764E-01;  0.0000000E+00;  1.5163501E-02;0;  1.6846998E-02;  3.9958125E+04;  0.0000000E+00; -7.4599576E-03;  4.0000000E+04;  0.0000000E+00;  4.0009125E+04;  1.6194355E-02;  0.0000000E+00;  6.5264263E-04;  1.2017096E+03;
  1.6132504E-01;  9.9999998E-03; -1.9986020E-02;3450;  4.3761530E-03;  0.0000000E+00; -2.3470266E-05;  9.9965076E+02;  1.0000000E-01; -2.8932516E+02;3; -3.8789502E-01;  0.0000000E+00;  1.0318631E-02;0;  1.7469890E-02;  3.9958598E+04;  0.0000000E+00; -3.7502877E-03;  4.0000000E+04;  0.0000000E+00;  4.0010195E+04;  1.6702201E-02;  0.0000000E+00;  7.6768931E-04;  1.3192789E+03;
  1.6131638E-01;  9.9999998E-03; -9.9948924E-03;3451;  4.3832688E-03;  0.0000000E+00; -1.2608642E-05;  9.9966077E+02;  1.0000000E-01; -2.8102908E+02;3; -3.9235839E-01;  0.0000000E+00;  4.2230724E-03;0;  1.7878003E-02;  3.9958875E+04;  0.0000000E+00; -1.0128458E-03;  4.0000000E+04;  0.0000000E+00;  4.0010984E+04;  1.7030044E-02;  0.0000000E+00;  8.4795931E-04;  1.3999902E+03;
  1.6131315E-01;  9.9999998E-03; -3.6634476E-10;3452;  4.3856027E-03;  0.0000000E+00; -5.9139884E-09;  9.9966467E+02;  1.0000000E-01; -2.7781931E+02;3; -3.9442059E-01;  0.0000000E+00;  9.2057207E-06;0;  1.8020110E-02;  3.9958852E+04;  0.0000000E+00; -1.1161991E-12;  4.0000000E+04;  0.0000000E+00;  4.0011098E+04;  1.7143345E-02;  0.0000000E+00;  8.7676622E-04;  1.4282220E+03;
  1.6131638E-01;  9.9999998E-03;  9.9948924E-03;3453;  4.3832716E-03;  0.0000000E+00;  1.2597362E-05;  9.9966071E+02;  1.0000000E-01; -2.8107846E+02;3; -3.9235234E-01;  0.0000000E+00; -4.1966629E-03;0;  1.7877972E-02;  3.9958879E+04;  0.0000000E+00; -1.0128905E-03;  4.0000000E+04;  0.0000000E+00;  4.0010984E+04;  1.7030014E-02;  0.0000000E+00;  8.4795727E-04;  1.3999954E+03;
  1.6132504E-01;  9.9999998E-03;  1.9986019E-02;3454;  4.3761590E-03;  0.0000000E+00;  2.3458801E-05;  9.9965076E+02;  1.0000000E-01; -2.8932516E+02;3; -3.8788983E-01;  0.0000000E+00; -1.0299316E-02;0;  1.7469889E-02;  3.9958598E+04;  0.0000000E+00; -3.7501650E-03;  4.0000000E+04;  0.0000000E+00;  4.0010195E+04;  1.6702201E-02;  0.0000000E+00;  7.6768664E-04;  1.3192880E+03;
  1.6133864E-01;  9.9999998E-03;  2.9976165E-02;3455;  4.3647680E-03;  0.0000000E+00;  2.9999028E-05;  9.9963159E+02;  1.0000000E-01; -3.0522592E+02;3; -3.8168314E-01;  0.0000000E+00; -1.5150580E-02;0;  1.6846986E-02;  3.9958121E+04;  0.0000000E+00; -7.4601490E-03;  4.0000000E+04;  0.0000000E+00;  4.0009125E+04;  1.6194345E-02;  0.0000000E+00;  6.5264024E-04;  1.2017184E+03;
  1.6135730E-01;  9.9999998E-03;  3.9967418E-02;3456;  4.3515638E-03;  0.0000000E+00;  3.1248277E-05;  9.9960834E+02;  1.0000000E-01; -3.2448465E+02;3; -3.7435943E-01;  0.0000000E+00; -1.9082019E-02;0;  1.6084574E-02;  3.9957305E+04;  0.0000000E+00; -1.1305707E-02;  4.0000000E+04;  0.0000000E+00;  4.0008152E+04;  1.5558883E-02;  0.0000000E+00;  5.2569143E-04;  1.0778113E+03;
  1.6138189E-01;  9.9999998E-03;  4.9960736E-02;3457;  4.3390607E-03;  0.0000000E+00;  2.8050854E-05;  9.9958185E+02;  1.0000000E-01; -3.4640994E+02;3; -3.6676341E-01;  0.0000000E+00; -2.2159221E-02;0;  1.5270384E-02;  3.9955953E+04;  0.0000000E+00; -1.4794675E-02;  4.0000000E+04;  0.0000000E+00;  4.0007602E+04;  1.4859895E-02;  0.0000000E+00;  4.1048854E-04;  9.8888831E+02;
  1.6141260E-01;  9.9999998E-03;  5.9955969E-02;3458;  4.3295487E-03;  0.0000000E+00;  2.2476683E-05;  9.9955682E+02;  1.0000000E-01; -3.6715012E+02;3; -3.5888532E-01;  0.0000000E+00; -2.4568781E-02;0;  1.4492367E-02;  3.9954191E+04;  0.0000000E+00; -1.8068112E-02;  4.0000000E+04;  0.0000000E+00;  4.0007336E+04;  1.4165772E-02;  0.0000000E+00;  3.2659509E-04;  9.7587756E+02;
  1.7154756E-01;  9.9999998E-03; -1.0001897E-01;3503;  4.1684755E-03;  0.0000000E+00; -2.2398655E-05;  9.9965784E+02;  1.0000000E-01; -2.8349817E+02;3; -3.2749677E-01;  0.0000000E+00;  4.2164031E-02;0;  1.4927858E-02;  3.9958711E+04;  0.0000000E+00; -3.7514243E-02;  4.0000000E+04;  0.0000000E+00;  4.0010574E+04;  1.4555126E-02;  0.0000000E+00;  3.7273217E-04;  1.3243884E+03;
  1.7149244E-01;  9.9999998E-03; -9.0019912E-02;3504;  4.1467780E-03;  0.0000000E+00; -9.4967718E-06;  9.9962347E+02;  1.0000000E-01; -3.1194180E+02;3; -3.3572444E-01;  0.0000000E+00;  3.8718082E-02;0;  1.5031428E-02;  3.9957930E+04;  0.0000000E+00; -2.8312385E-02;  4.0000000E+04;  0.0000000E+00;  4.0007953E+04;  1.4735430E-02;  0.0000000E+00;  2.9599760E-04;  1.0485498E+03;
  1.7144203E-01;  9.9999998E-03; -8.0019079E-02;3505;  4.1377093E-03;  0.0000000E+00; -6.3019920E-06;  9.9960980E+02;  1.0000000E-01; -3.2325012E+02;3; -3.4293592E-01;  0.0000000E+00;  3.6252484E-02;0;  1.5349758E-02;  3.9958406E+04;  0.0000000E+00; -2.4345126E-02;  4.0000000E+04;  0.0000000E+00;  4.0005844E+04;  1.5099945E-02;  0.0000000E+00;  2.4981311E-04;  7.8274457E+02;
  1.7139965E-01;  9.9999998E-03; -7.0016816E-02;3506;  4.1394788E-03;  0.0000000E+00; -1.0449738E-05;  9.9960254E+02;  1.0000000E-01; -3.2927463E+02;3; -3.4944868E-01;  0.0000000E+00;  3.4486577E-02;0;  1.5878674E-02;  3.9959359E+04;  0.0000000E+00; -2.3259761E-02;  4.0000000E+04;  0.0000000E+00;  4.0004379E+04;  1.5633337E-02;  0.0000000E+00;  2.4533551E-04;  5.8220721E+02;
  1.7136882E-01;  9.9999998E-03; -6.0013521E-02;3507;  4.1494155E-03;  0.0000000E+00; -1.8120259E-05;  9.9961078E+02;  1.0000000E-01; -3.2246002E+02;3; -3.5591999E-01;  0.0000000E+00;  3.2807946E-02;0;  1.6584305E-02;  3.9960691E+04;  0.0000000E+00; -2.2641860E-02;  4.0000000E+04;  0.0000000E+00;  4.0003367E+04;  1.6297121E-02;  0.0000000E+00;  2.8718525E-04;  4.7727493E+02;
  1.7135604E-01;  9.9999998E-03; -5.0010584E-02;3508;  4.1650431E-03;  0.0000000E+00; -2.5683634E-05;  9.9962720E+02;  1.0000000E-01; -3.0888016E+02;3; -3.6246845E-01;  0.0000000E+00;  3.1488165E-02;0;  1.7407423E-02;  3.9961766E+04;  0.0000000E+00; -2.0732457E-02;  4.0000000E+04;  0.0000000E+00;  4.0003520E+04;  1.7035719E-02;  0.0000000E+00;  3.7170411E-04;  4.6955844E+02;
  1.7136489E-01;  9.9999998E-03; -4.0010255E-02;3509;  4.1838922E-03;  0.0000000E+00; -2.9862689E-05;  9.9964520E+02;  1.0000000E-01; -2.9396698E+02;3; -3.6922950E-01;  0.0000000E+00;  2.8513476E-02;0;  1.8268831E-02;  3.9962637E+04;  0.0000000E+00; -1.6859373E-02;  4.0000000E+04;  0.0000000E+00;  4.0003844E+04;  1.7782126E-02;  0.0000000E+00;  4.8670528E-04;  5.3541272E+02;
  1.7138672E-01;  9.9999998E-03; -3.0012371E-02;3510;  4.2033624E-03;  0.0000000E+00; -2.8766559E-05;  9.9966315E+02;  1.0000000E-01; -2.7905383E+02;3; -3.7658361E-01;  0.0000000E+00;  2.2426262E-02;0;  1.9075610E-02;  3.9963215E+04;  0.0000000E+00; -1.1463354E-02;  4.0000000E+04;  0.0000000E+00;  4.0004832E+04;  1.8462682E-02;  0.0000000E+00;  6.1292789E-04;  6.3621368E+02;
  1.7140493E-01;  9.9999998E-03; -2.0014066E-02;3511;  4.2205499E-03;  0.0000000E+00; -2.2658465E-05;  9.9967554E+02;  1.0000000E-01; -2.6883191E+02;3; -3.8364667E-01;  0.0000000E+00;  1.5043249E-02;0;  1.9733248E-02;  3.9963379E+04;  0.0000000E+00; -5.8349930E-03;  4.0000000E+04;  0.0000000E+00;  4.0005332E+04;  1.9006066E-02;  0.0000000E+00;  7.2718138E-04;  7.3297961E+02;
  1.7140818E-01;  9.9999998E-03; -1.0011857E-02;3512;  4.2326814E-03;  0.0000000E+00; -1.2471926E-05;  9.9968335E+02;  1.0000000E-01; -2.6236295E+02;3; -3.8852817E-01;  0.0000000E+00;  8.5992683E-03;0;  2.0161273E-02;  3.9963426E+04;  0.0000000E+00; -1.5822658E-03;  4.0000000E+04;  0.0000000E+00;  4.0006211E+04;  1.9354319E-02;  0.0000000E+00;  8.0695376E-04;  7.9860999E+02;
  1.7140800E-01;  9.9999998E-03; -2.2974106E-10;3513;  4.2371419E-03;  0.0000000E+00; -7.1419621E-09;  9.9968427E+02;  1.0000000E-01; -2.6157285E+02;3; -3.9117613E-01;  0.0000000E+00;  1.1161103E-05;0;  2.0309968E-02;  3.9963504E+04;  0.0000000E+00;  4.1538395E-13;  4.0000000E+04;  0.0000000E+00;  4.0006383E+04;  1.9474356E-02;  0.0000000E+00;  8.3561329E-04;  8.2110266E+02;
  1.7140818E-01;  9.9999998E-03;  1.0011856E-02;3514;  4.2326832E-03;  0.0000000E+00;  1.2457537E-05;  9.9968341E+02;  1.0000000E-01; -2.6226419E+02;3; -3.8852292E-01;  0.0000000E+00; -8.5785082E-03;0;  2.0161280E-02;  3.9963430E+04;  0.0000000E+00; -1.5823041E-03;  4.0000000E+04;  0.0000000E+00;  4.0006211E+04;  1.9354327E-02;  0.0000000E+00;  8.0695376E-04;  7.9860944E+02;
  1.7140493E-01;  9.9999998E-03;  2.0014066E-02;3515;  4.2205551E-03;  0.0000000E+00;  2.2644132E-05;  9.9967560E+02;  1.0000000E-01; -2.6878253E+02;3; -3.8363695E-01;  0.0000000E+00; -1.5025217E-02;0;  1.9733245E-02;  3.9963379E+04;  0.0000000E+00; -5.8349846E-03;  4.0000000E+04;  0.0000000E+00;  4.0005332E+04;  1.9006064E-02;  0.0000000E+00;  7.2717981E-04;  7.3298383E+02;
  1.7138672E-01;  9.9999998E-03;  3.0012371E-02;3516;  4.2033703E-03;  0.0000000E+00;  2.8752474E-05;  9.9966321E+02;  1.0000000E-01; -2.7900446E+02;3; -3.7657523E-01;  0.0000000E+00; -2.2408612E-02;0;  1.9075595E-02;  3.9963211E+04;  0.0000000E+00; -1.1463986E-02;  4.0000000E+04;  0.0000000E+00;  4.0004832E+04;  1.8462669E-02;  0.0000000E+00;  6.1292667E-04;  6.3621759E+02;
  1.7136489E-01;  9.9999998E-03;  4.0010255E-02;3517;  4.1839024E-03;  0.0000000E+00;  2.9848221E-05;  9.9964502E+02;  1.0000000E-01; -2.9411514E+02;3; -3.6921990E-01;  0.0000000E+00; -2.8507477E-02;0;  1.8268788E-02;  3.9962629E+04;  0.0000000E+00; -1.6859135E-02;  4.0000000E+04;  0.0000000E+00;  4.0003844E+04;  1.7782085E-02;  0.0000000E+00;  4.8670414E-04;  5.3541791E+02;
  1.7135604E-01;  9.9999998E-03;  5.0010584E-02;3518;  4.1650552E-03;  0.0000000E+00;  2.5668855E-05;  9.9962714E+02;  1.0000000E-01; -3.0892953E+02;3; -3.6247471E-01;  0.0000000E+00; -3.1490490E-02;0;  1.7407389E-02;  3.9961762E+04;  0.0000000E+00; -2.0734560E-02;  4.0000000E+04;  0.0000000E+00;  4.0003520E+04;  1.7035684E-02;  0.0000000E+00;  3.7170571E-04;  4.6956281E+02;
  1.7136882E-01;  9.9999998E-03;  6.0013521E-02;3519;  4.1494304E-03;  0.0000000E+00;  1.8105125E-05;  9.9961078E+02;  1.0000000E-01; -3.2246002E+02;3; -3.5592443E-01;  0.0000000E+00; -3.2812264E-02;0;  1.6584272E-02;  3.9960684E+04;  0.0000000E+00; -2.2638379E-02;  4.0000000E+04;  0.0000000E+00;  4.0003371E+04;  1.6297081E-02;  0.0000000E+00;  2.8718979E-04;  4.7728253E+02;
  1.8148392E-01;  9.9999998E-03; -1.0007221E-01;3564;  4.0034414E-03;  0.0000000E+00; -7.6676115E-06;  9.9976276E+02;  1.0000000E-01; -1.9653766E+02;3; -3.2582384E-01;  0.0000000E+00;  5.0018940E-02;0;  1.8014200E-02;  3.9970223E+04;  0.0000000E+00; -2.7746627E-02;  4.0000000E+04;  0.0000000E+00;  4.0005348E+04;  1.7740784E-02;  0.0000000E+00;  2.7341652E-04;  7.2840277E+02;
  1.8144739E-01;  9.9999998E-03; -9.0072505E-02;3565;  3.9826636E-03;  0.0000000E+00; -7.9898859E-07;  9.9971893E+02;  1.0000000E-01; -2.3288231E+02;3; -3.3353883E-01;  0.0000000E+00;  4.6802156E-02;0;  1.8163078E-02;  3.9968902E+04;  0.0000000E+00; -2.3979863E-02;  4.0000000E+04;  0.0000000E+00;  4.0003578E+04;  1.7966399E-02;  0.0000000E+00;  1.9667945E-04;  4.7091327E+02;
  1.8142925E-01;  9.9999998E-03; -8.0070414E-02;3566;  3.9761318E-03;  0.0000000E+00; -3.5214714E-06;  9.9969293E+02;  1.0000000E-01; -2.5441255E+02;3; -3.4075573E-01;  0.0000000E+00;  4.4106282E-02;0;  1.8536530E-02;  3.9968824E+04;  0.0000000E+00; -2.5739925E-02;  4.0000000E+04;  0.0000000E+00;  4.0001270E+04;  1.8384980E-02;  0.0000000E+00;  1.5155078E-04;  2.1975320E+02;
  1.8143047E-01;  9.9999998E-03; -7.0065081E-02;3567;  3.9812257E-03;  0.0000000E+00; -1.2558869E-05;  9.9969049E+02;  1.0000000E-01; -2.5643719E+02;3; -3.4797934E-01;  0.0000000E+00;  4.2039074E-02;0;  1.9127142E-02;  3.9969496E+04;  0.0000000E+00; -2.9069912E-02;  4.0000000E+04;  0.0000000E+00;  3.9999688E+04;  1.8978490E-02;  0.0000000E+00;  1.4865249E-04;  4.6295918E+01;
  1.8144597E-01;  9.9999998E-03; -6.0056780E-02;3568;  3.9951056E-03;  0.0000000E+00; -2.4790370E-05;  9.9969250E+02;  1.0000000E-01; -2.5475822E+02;3; -3.5371792E-01;  0.0000000E+00;  4.0197033E-02;0;  1.9895505E-02;  3.9970473E+04;  0.0000000E+00; -3.0763138E-02;  4.0000000E+04;  0.0000000E+00;  3.9998648E+04;  1.9703247E-02;  0.0000000E+00;  1.9225862E-04;  1.0084437E+02;
  1.8147290E-01;  9.9999998E-03; -5.0048020E-02;3569;  4.0145149E-03;  0.0000000E+00; -3.6744848E-05;  9.9971027E+02;  1.0000000E-01; -2.4004259E+02;3; -3.6000431E-01;  0.0000000E+00;  3.8491450E-02;0;  2.0777322E-02;  3.9971789E+04;  0.0000000E+00; -2.9015806E-02;  4.0000000E+04;  0.0000000E+00;  3.9998742E+04;  2.0498769E-02;  0.0000000E+00;  2.7855366E-04;  1.1556961E+02;
  1.8150710E-01;  9.9999998E-03; -4.0042367E-02;3570;  4.0367600E-03;  0.0000000E+00; -4.4967277E-05;  9.9972925E+02;  1.0000000E-01; -2.2428995E+02;3; -3.6516163E-01;  0.0000000E+00;  3.6765479E-02;0;  2.1688839E-02;  3.9972879E+04;  0.0000000E+00; -2.3663037E-02;  4.0000000E+04;  0.0000000E+00;  3.9999086E+04;  2.1293482E-02;  0.0000000E+00;  3.9535723E-04;  6.2807602E+01;
  1.8154523E-01;  9.9999998E-03; -3.0041954E-02;3571;  4.0595359E-03;  0.0000000E+00; -4.6293462E-05;  9.9974884E+02;  1.0000000E-01; -2.0809288E+02;3; -3.7021977E-01;  0.0000000E+00;  3.3749711E-02;0;  2.2536751E-02;  3.9973781E+04;  0.0000000E+00; -1.5975999E-02;  4.0000000E+04;  0.0000000E+00;  3.9999828E+04;  2.2013366E-02;  0.0000000E+00;  5.2338507E-04;  4.3552715E+01;
  1.8157654E-01;  9.9999998E-03; -2.0041410E-02;3572;  4.0804949E-03;  0.0000000E+00; -3.8289756E-05;  9.9976447E+02;  1.0000000E-01; -1.9515497E+02;3; -3.7482986E-01;  0.0000000E+00;  2.9021351E-02;0;  2.3226153E-02;  3.9974246E+04;  0.0000000E+00; -8.0675455E-03;  4.0000000E+04;  0.0000000E+00;  4.0000613E+04;  2.2586733E-02;  0.0000000E+00;  6.3942076E-04;  1.2300191E+02;
  1.8159653E-01;  9.9999998E-03; -1.0030294E-02;3573;  4.0969136E-03;  0.0000000E+00; -2.1651756E-05;  9.9977020E+02;  1.0000000E-01; -1.9036499E+02;3; -3.7871274E-01;  0.0000000E+00;  1.9799115E-02;0;  2.3677127E-02;  3.9974477E+04;  0.0000000E+00; -2.1778515E-03;  4.0000000E+04;  0.0000000E+00;  4.0000914E+04;  2.2956472E-02;  0.0000000E+00;  7.2065578E-04;  1.7841556E+02;
  1.8160568E-01;  9.9999998E-03; -1.4414395E-10;3574;  4.1042203E-03;  0.0000000E+00; -8.5618783E-09;  9.9977515E+02;  1.0000000E-01; -1.8626634E+02;3; -3.8297954E-01;  0.0000000E+00;  1.2421700E-05;0;  2.3835193E-02;  3.9974539E+04;  0.0000000E+00; -5.8940331E-13;  4.0000000E+04;  0.0000000E+00;  4.0001430E+04;  2.3085291E-02;  0.0000000E+00;  7.4990222E-04;  1.9672202E+02;
  1.8159653E-01;  9.9999998E-03;  1.0030294E-02;3575;  4.0969164E-03;  0.0000000E+00;  2.1634540E-05;  9.9977020E+02;  1.0000000E-01; -1.9036499E+02;3; -3.7870252E-01;  0.0000000E+00; -1.9775989E-02;0;  2.3677139E-02;  3.9974477E+04;  0.0000000E+00; -2.1780562E-03;  4.0000000E+04;  0.0000000E+00;  4.0000914E+04;  2.2956483E-02;  0.0000000E+00;  7.2065636E-04;  1.7841747E+02;
  1.8157654E-01;  9.9999998E-03;  2.0041410E-02;3576;  4.0805000E-03;  0.0000000E+00;  3.8272974E-05;  9.9976447E+02;  1.0000000E-01; -1.9515497E+02;3; -3.7482285E-01;  0.0000000E+00; -2.9003475E-02;0;  2.3226155E-02;  3.9974246E+04;  0.0000000E+00; -8.0678314E-03;  4.0000000E+04;  0.0000000E+00;  4.0000613E+04;  2.2586733E-02;  0.0000000E+00;  6.3942140E-04;  1.2300272E+02;
  1.8154523E-01;  9.9999998E-03;  3.0041954E-02;3577;  4.0595434E-03;  0.0000000E+00;  4.6276760E-05;  9.9974878E+02;  1.0000000E-01; -2.0814226E+02;3; -3.7021247E-01;  0.0000000E+00; -3.3735368E-02;0;  2.2536717E-02;  3.9973785E+04;  0.0000000E+00; -1.5976597E-02;  4.0000000E+04;  0.0000000E+00;  3.9999828E+04;  2.2013333E-02;  0.0000000E+00;  5.2338437E-04;  4.3561710E+01;
  1.8150710E-01;  9.9999998E-03;  4.0042367E-02;3578;  4.0367693E-03;  0.0000000E+00;  4.4950484E-05;  9.9972925E+02;  1.0000000E-01; -2.2428995E+02;3; -3.6515403E-01;  0.0000000E+00; -3.6758281E-02;0;  2.1688808E-02;  3.9972879E+04;  0.0000000E+00; -2.3662940E-02;  4.0000000E+04;  0.0000000E+00;  3.9999086E+04;  2.1293448E-02;  0.0000000E+00;  3.9535854E-04;  6.2802231E+01;
  1.8147290E-01;  9.9999998E-03;  5.0048020E-02;3579;  4.0145270E-03;  0.0000000E+00;  3.6727855E-05;  9.9971027E+02;  1.0000000E-01; -2.4004259E+02;3; -3.5999542E-01;  0.0000000E+00; -3.8493603E-02;0;  2.0777266E-02;  3.9971785E+04;  0.0000000E+00; -2.9016608E-02;  4.0000000E+04;  0.0000000E+00;  3.9998742E+04;  2.0498710E-02;  0.0000000E+00;  2.7855713E-04;  1.1556221E+02;
  1.8144599E-01;  9.9999998E-03;  6.0056780E-02;3580;  3.9951196E-03;  0.0000000E+00;  2.4772726E-05;  9.9969250E+02;  1.0000000E-01; -2.5475822E+02;3; -3.5371983E-01;  0.0000000E+00; -4.0209092E-02;0;  1.9895479E-02;  3.9970473E+04;  0.0000000E+00; -3.0764183E-02;  4.0000000E+04;  0.0000000E+00;  3.9998648E+04;  1.9703215E-02;  0.0000000E+00;  1.9226453E-04;  1.0084286E+02;
  1.9146122E-01;  9.9999998E-03; -1.0009830E-01;3625;  3.8752521E-03;  0.0000000E+00; -1.5280198E-06;  9.9980963E+02;  1.0000000E-01; -1.5772394E+02;3; -3.2283953E-01;  0.0000000E+00;  5.7416052E-02;0;  2.2044491E-02;  3.9978609E+04;  0.0000000E+00; -1.4978320E-02;  4.0000000E+04;  0.0000000E+00;  3.9999973E+04;  2.1929190E-02;  0.0000000E+00;  1.1530207E-04;  9.3615555E+01;
  1.9146909E-01;  9.9999998E-03; -9.0095803E-02;3626;  3.8539690E-03;  0.0000000E+00; -2.1596807E-07;  9.9977661E+02;  1.0000000E-01; -1.8508119E+02;3; -3.3047512E-01;  0.0000000E+00;  5.4546371E-02;0;  2.2274362E-02;  3.9977578E+04;  0.0000000E+00; -1.8004125E-02;  4.0000000E+04;  0.0000000E+00;  3.9998535E+04;  2.2236086E-02;  0.0000000E+00;  3.8274993E-05;  1.4532755E+02;
  1.9149105E-01;  9.9999998E-03; -8.0091566E-02;3627;  3.8505527E-03;  0.0000000E+00; -7.9002975E-06;  9.9976093E+02;  1.0000000E-01; -1.9806847E+02;3; -3.3744797E-01;  0.0000000E+00;  5.1991731E-02;0;  2.2725163E-02;  3.9978180E+04;  0.0000000E+00; -2.5311766E-02;  4.0000000E+04;  0.0000000E+00;  3.9996684E+04;  2.2730535E-02;  0.0000000E+00; -5.3724975E-06;  3.7466483E+02;
  1.9151981E-01;  9.9999998E-03; -7.0084982E-02;3628;  3.8599181E-03;  0.0000000E+00; -2.2582853E-05;  9.9976398E+02;  1.0000000E-01; -1.9555002E+02;3; -3.4524405E-01;  0.0000000E+00;  4.9373221E-02;0;  2.3382382E-02;  3.9979570E+04;  0.0000000E+00; -3.2118514E-02;  4.0000000E+04;  0.0000000E+00;  3.9995203E+04;  2.3387972E-02;  0.0000000E+00; -5.5898427E-06;  5.5363885E+02;
  1.9154893E-01;  9.9999998E-03; -6.0075372E-02;3629;  3.8787429E-03;  0.0000000E+00; -3.9580646E-05;  9.9978259E+02;  1.0000000E-01; -1.8009367E+02;3; -3.5096246E-01;  0.0000000E+00;  4.7773648E-02;0;  2.4203207E-02;  3.9981535E+04;  0.0000000E+00; -3.5228342E-02;  4.0000000E+04;  0.0000000E+00;  3.9994281E+04;  2.4161855E-02;  0.0000000E+00;  4.1352243E-05;  6.5078577E+02;
  1.9157594E-01;  9.9999998E-03; -5.0064959E-02;3630;  3.9039354E-03;  0.0000000E+00; -5.5479162E-05;  9.9980920E+02;  1.0000000E-01; -1.5806961E+02;3; -3.5650992E-01;  0.0000000E+00;  4.6177480E-02;0;  2.5122413E-02;  3.9983676E+04;  0.0000000E+00; -3.3351835E-02;  4.0000000E+04;  0.0000000E+00;  3.9994590E+04;  2.4991082E-02;  0.0000000E+00;  1.3133070E-04;  6.5899377E+02;
  1.9160195E-01;  9.9999998E-03; -4.0056117E-02;3631;  3.9315866E-03;  0.0000000E+00; -6.7147943E-05;  9.9983765E+02;  1.0000000E-01; -1.3451471E+02;3; -3.6167586E-01;  0.0000000E+00;  4.3680198E-02;0;  2.6059218E-02;  3.9985418E+04;  0.0000000E+00; -2.6996821E-02;  4.0000000E+04;  0.0000000E+00;  3.9995359E+04;  2.5807163E-02;  0.0000000E+00;  2.5205550E-04;  5.9711127E+02;
  1.9163406E-01;  9.9999998E-03; -3.0054115E-02;3632;  3.9581144E-03;  0.0000000E+00; -7.1030132E-05;  9.9986267E+02;  1.0000000E-01; -1.1377456E+02;3; -3.6606354E-01;  0.0000000E+00;  4.0692631E-02;0;  2.6926449E-02;  3.9986832E+04;  0.0000000E+00; -1.8048018E-02;  4.0000000E+04;  0.0000000E+00;  3.9996113E+04;  2.6542414E-02;  0.0000000E+00;  3.8403511E-04;  5.0252832E+02;
  1.9166903E-01;  9.9999998E-03; -2.0053258E-02;3633;  3.9803903E-03;  0.0000000E+00; -6.3599415E-05;  9.9988354E+02;  1.0000000E-01; -9.6491096E+01;3; -3.6961332E-01;  0.0000000E+00;  3.5966512E-02;0;  2.7633538E-02;  3.9988062E+04;  0.0000000E+00; -9.0382788E-03;  4.0000000E+04;  0.0000000E+00;  3.9996223E+04;  2.7129794E-02;  0.0000000E+00;  5.0374540E-04;  4.1446442E+02;
  1.9169588E-01;  9.9999998E-03; -1.0039064E-02;3634;  3.9949631E-03;  0.0000000E+00; -4.1918254E-05;  9.9989594E+02;  1.0000000E-01; -8.6219780E+01;3; -3.7029591E-01;  0.0000000E+00;  2.6048385E-02;0;  2.8098067E-02;  3.9988602E+04;  0.0000000E+00; -2.4273635E-03;  4.0000000E+04;  0.0000000E+00;  3.9997254E+04;  2.7510215E-02;  0.0000000E+00;  5.8785192E-04;  3.5792468E+02;
  1.9170721E-01;  9.9999998E-03; -9.0344017E-11;3635;  3.9994339E-03;  0.0000000E+00; -1.0623697E-08;  9.9990326E+02;  1.0000000E-01; -8.0145882E+01;3; -3.6932066E-01;  0.0000000E+00;  1.0450947E-05;0;  2.8261058E-02;  3.9988949E+04;  0.0000000E+00; -9.7450856E-13;  4.0000000E+04;  0.0000000E+00;  3.9997453E+04;  2.7642814E-02;  0.0000000E+00;  6.1824417E-04;  3.3959500E+02;
  1.9169588E-01;  9.9999998E-03;  1.0039064E-02;3636;  3.9949655E-03;  0.0000000E+00;  4.1898304E-05;  9.9989587E+02;  1.0000000E-01; -8.6269165E+01;3; -3.7029871E-01;  0.0000000E+00; -2.6025716E-02;0;  2.8098065E-02;  3.9988602E+04;  0.0000000E+00; -2.4276043E-03;  4.0000000E+04;  0.0000000E+00;  3.9997254E+04;  2.7510213E-02;  0.0000000E+00;  5.8785209E-04;  3.5792075E+02;
  1.9166903E-01;  9.9999998E-03;  2.0053258E-02;3637;  3.9803954E-03;  0.0000000E+00;  6.3580308E-05;  9.9988354E+02;  1.0000000E-01; -9.6491096E+01;3; -3.6960483E-01;  0.0000000E+00; -3.5948202E-02;0;  2.7633501E-02;  3.9988062E+04;  0.0000000E+00; -9.0386663E-03;  4.0000000E+04;  0.0000000E+00;  3.9996223E+04;  2.7129756E-02;  0.0000000E+00;  5.0374574E-04;  4.1446106E+02;
  1.9163406E-01;  9.9999998E-03;  3.0054115E-02;3638;  3.9581214E-03;  0.0000000E+00;  7.1011134E-05;  9.9986273E+02;  1.0000000E-01; -1.1372518E+02;3; -3.6605594E-01;  0.0000000E+00; -4.0679175E-02;0;  2.6926404E-02;  3.9986836E+04;  0.0000000E+00; -1.8048387E-02;  4.0000000E+04;  0.0000000E+00;  3.9996117E+04;  2.6542367E-02;  0.0000000E+00;  3.8403674E-04;  5.0252100E+02;
  1.9160195E-01;  9.9999998E-03;  4.0056117E-02;3639;  3.9315959E-03;  0.0000000E+00;  6.7128909E-05;  9.9983759E+02;  1.0000000E-01; -1.3456410E+02;3; -3.6167005E-01;  0.0000000E+00; -4.3679159E-02;0;  2.6059182E-02;  3.9985414E+04;  0.0000000E+00; -2.6998747E-02;  4.0000000E+04;  0.0000000E+00;  3.9995359E+04;  2.5807125E-02;  0.0000000E+00;  2.5205745E-04;  5.9710162E+02;
  1.9157594E-01;  9.9999998E-03;  5.0064959E-02;3640;  3.9039468E-03;  0.0000000E+00;  5.5460176E-05;  9.9980920E+02;  1.0000000E-01; -1.5806961E+02;3; -3.5650691E-01;  0.0000000E+00; -4.6180874E-02;0;  2.5122363E-02;  3.9983676E+04;  0.0000000E+00; -3.3353221E-02;  4.0000000E+04;  0.0000000E+00;  3.9994590E+04;  2.4991028E-02;  0.0000000E+00;  1.3133459E-04;  6.5898108E+02;
  1.9154893E-01;  9.9999998E-03;  6.0075372E-02;3641;  3.8787574E-03;  0.0000000E+00;  3.9560957E-05;  9.9978265E+02;  1.0000000E-01; -1.8004430E+02;3; -3.5096130E-01;  0.0000000E+00; -4.7784910E-02;0;  2.4203153E-02;  3.9981527E+04;  0.0000000E+00; -3.5229415E-02;  4.0000000E+04;  0.0000000E+00;  3.9994281E+04;  2.4161793E-02;  0.0000000E+00;  4.1359119E-05;  6.5077661E+02;
  2.0149520E-01;  9.9999998E-03; -1.0010334E-01;3686;  3.7963453E-03;  0.0000000E+00; -5.8579049E-06;  9.9980139E+02;  1.0000000E-01; -1.6453856E+02;3; -3.1826824E-01;  0.0000000E+00;  6.4782910E-02;0;  2.6645156E-02;  3.9982730E+04;  0.0000000E+00;  8.7228836E-03;  4.0000000E+04;  0.0000000E+00;  3.9995664E+04;  2.6749523E-02;  0.0000000E+00; -1.0436814E-04;  5.0698901E+02;
  2.0153594E-01;  9.9999998E-03; -9.0095542E-02;3687;  3.7747829E-03;  0.0000000E+00; -8.4270141E-06;  9.9979498E+02;  1.0000000E-01; -1.6987173E+02;3; -3.2642734E-01;  0.0000000E+00;  6.2080111E-02;0;  2.6971020E-02;  3.9983621E+04;  0.0000000E+00; -1.7588333E-03;  4.0000000E+04;  0.0000000E+00;  3.9993961E+04;  2.7150378E-02;  0.0000000E+00; -1.7935823E-04;  7.0962482E+02;
  2.0158301E-01;  9.9999998E-03; -8.0085605E-02;3688;  3.7740639E-03;  0.0000000E+00; -2.0806223E-05;  9.9980365E+02;  1.0000000E-01; -1.6266206E+02;3; -3.3416009E-01;  0.0000000E+00;  5.9589360E-02;0;  2.7499685E-02;  3.9985773E+04;  0.0000000E+00; -1.4265670E-02;  4.0000000E+04;  0.0000000E+00;  3.9992609E+04;  2.7718747E-02;  0.0000000E+00; -2.1906209E-04;  9.0614575E+02;
  2.0163035E-01;  9.9999998E-03; -7.0072331E-02;3689;  3.7899297E-03;  0.0000000E+00; -3.9588605E-05;  9.9982605E+02;  1.0000000E-01; -1.4409470E+02;3; -3.4081152E-01;  0.0000000E+00;  5.7262994E-02;0;  2.8213754E-02;  3.9988539E+04;  0.0000000E+00; -2.4256041E-02;  4.0000000E+04;  0.0000000E+00;  3.9991434E+04;  2.8428150E-02;  0.0000000E+00; -2.1439519E-04;  1.0548894E+03;
  2.0166786E-01;  9.9999998E-03; -6.0055122E-02;3690;  3.8172032E-03;  0.0000000E+00; -6.0386508E-05;  9.9985608E+02;  1.0000000E-01; -1.1925589E+02;3; -3.4739372E-01;  0.0000000E+00;  5.5842329E-02;0;  2.9067416E-02;  3.9991855E+04;  0.0000000E+00; -2.9266970E-02;  4.0000000E+04;  0.0000000E+00;  3.9990922E+04;  2.9229712E-02;  0.0000000E+00; -1.6229566E-04;  1.1261160E+03;
  2.0169109E-01;  9.9999998E-03; -5.0035972E-02;3691;  3.8508936E-03;  0.0000000E+00; -7.9258360E-05;  9.9989960E+02;  1.0000000E-01; -8.3158142E+01;3; -3.5278755E-01;  0.0000000E+00;  5.4056384E-02;0;  2.9996119E-02;  3.9994828E+04;  0.0000000E+00; -2.8716957E-02;  4.0000000E+04;  0.0000000E+00;  3.9991141E+04;  3.0063327E-02;  0.0000000E+00; -6.7208566E-05;  1.1117035E+03;
  2.0170604E-01;  9.9999998E-03; -4.0019471E-02;3692;  3.8868200E-03;  0.0000000E+00; -9.3286420E-05;  9.9993958E+02;  1.0000000E-01; -5.0072659E+01;3; -3.5781205E-01;  0.0000000E+00;  5.1746700E-02;0;  3.0925697E-02;  3.9997555E+04;  0.0000000E+00; -2.3560869E-02;  4.0000000E+04;  0.0000000E+00;  3.9991105E+04;  3.0867219E-02;  0.0000000E+00;  5.8478072E-05;  1.0293777E+03;
  2.0172618E-01;  9.9999998E-03; -3.0013332E-02;3693;  3.9203921E-03;  0.0000000E+00; -9.7412027E-05;  9.9997742E+02;  1.0000000E-01; -1.8715521E+01;3; -3.6225909E-01;  0.0000000E+00;  4.8697673E-02;0;  3.1778283E-02;  3.9999590E+04;  0.0000000E+00; -1.5809322E-02;  4.0000000E+04;  0.0000000E+00;  3.9992469E+04;  3.1583097E-02;  0.0000000E+00;  1.9518648E-04;  9.1680457E+02;
  2.0174944E-01;  9.9999998E-03; -2.0013794E-02;3694;  3.9472957E-03;  0.0000000E+00; -8.7597713E-05;  1.0000033E+03;  1.0000000E-01;  2.7653539E+00;3; -3.6500204E-01;  0.0000000E+00;  4.3512717E-02;0;  3.2469761E-02;  4.0001176E+04;  0.0000000E+00; -7.9085864E-03;  4.0000000E+04;  0.0000000E+00;  3.9993430E+04;  3.2150559E-02;  0.0000000E+00;  3.1920229E-04;  8.1313184E+02;
  2.0176831E-01;  9.9999998E-03; -1.0012138E-02;3695;  3.9637806E-03;  0.0000000E+00; -5.8202717E-05;  1.0000240E+03;  1.0000000E-01;  1.9950052E+01;3; -3.6510655E-01;  0.0000000E+00;  2.9216675E-02;0;  3.2922879E-02;  4.0002035E+04;  0.0000000E+00; -2.1173635E-03;  4.0000000E+04;  0.0000000E+00;  3.9994047E+04;  3.2516390E-02;  0.0000000E+00;  4.0648971E-04;  7.4475323E+02;
  2.0177768E-01;  9.9999998E-03;  1.6474936E-11;3696;  3.9682207E-03;  0.0000000E+00; -1.2535166E-08;  1.0000312E+03;  1.0000000E-01;  2.5875811E+01;3; -3.6439157E-01;  0.0000000E+00;  8.1036669E-06;0;  3.3082165E-02;  4.0002262E+04;  0.0000000E+00; -1.0641019E-12;  4.0000000E+04;  0.0000000E+00;  3.9994207E+04;  3.2644123E-02;  0.0000000E+00;  4.3804172E-04;  7.2177124E+02;
  2.0176831E-01;  9.9999998E-03;  1.0012138E-02;3697;  3.9637825E-03;  0.0000000E+00;  5.8179645E-05;  1.0000241E+03;  1.0000000E-01;  1.9950052E+01;3; -3.6510351E-01;  0.0000000E+00; -2.9195905E-02;0;  3.2922857E-02;  4.0002035E+04;  0.0000000E+00; -2.1177800E-03;  4.0000000E+04;  0.0000000E+00;  3.9994047E+04;  3.2516368E-02;  0.0000000E+00;  4.0649041E-04;  7.4474872E+02;
  2.0174944E-01;  9.9999998E-03;  2.0013794E-02;3698;  3.9473004E-03;  0.0000000E+00;  8.7575900E-05;  1.0000033E+03;  1.0000000E-01;  2.7653539E+00;3; -3.6500287E-01;  0.0000000E+00; -4.3493386E-02;0;  3.2469723E-02;  4.0001176E+04;  0.0000000E+00; -7.9090027E-03;  4.0000000E+04;  0.0000000E+00;  3.9993430E+04;  3.2150522E-02;  0.0000000E+00;  3.1920325E-04;  8.1312451E+02;
  2.0172618E-01;  9.9999998E-03;  3.0013334E-02;3699;  3.9203991E-03;  0.0000000E+00;  9.7390664E-05;  9.9997742E+02;  1.0000000E-01; -1.8715521E+01;3; -3.6225370E-01;  0.0000000E+00; -4.8689347E-02;0;  3.1778231E-02;  3.9999590E+04;  0.0000000E+00; -1.5810058E-02;  4.0000000E+04;  0.0000000E+00;  3.9992469E+04;  3.1583045E-02;  0.0000000E+00;  1.9518832E-04;  9.1679071E+02;
  2.0170604E-01;  9.9999998E-03;  4.0019471E-02;3700;  3.8868289E-03;  0.0000000E+00;  9.3264345E-05;  9.9993964E+02;  1.0000000E-01; -5.0023277E+01;3; -3.5780975E-01;  0.0000000E+00; -5.1751211E-02;0;  3.0925661E-02;  3.9997559E+04;  0.0000000E+00; -2.3561021E-02;  4.0000000E+04;  0.0000000E+00;  3.9991105E+04;  3.0867180E-02;  0.0000000E+00;  5.8480942E-05;  1.0293715E+03;
  2.0169108E-01;  9.9999998E-03;  5.0035972E-02;3701;  3.8509043E-03;  0.0000000E+00;  7.9236117E-05;  9.9989960E+02;  1.0000000E-01; -8.3158142E+01;3; -3.5278967E-01;  0.0000000E+00; -5.4068211E-02;0;  2.9996077E-02;  3.9994832E+04;  0.0000000E+00; -2.8718244E-02;  4.0000000E+04;  0.0000000E+00;  3.9991141E+04;  3.0063281E-02;  0.0000000E+00; -6.7204208E-05;  1.1116938E+03;
  2.0166786E-01;  9.9999998E-03;  6.0055122E-02;3702;  3.8172177E-03;  0.0000000E+00;  6.0365150E-05;  9.9985614E+02;  1.0000000E-01; -1.1920650E+02;3; -3.4739405E-01;  0.0000000E+00; -5.5852771E-02;0;  2.9067315E-02;  3.9991855E+04;  0.0000000E+00; -2.9265227E-02;  4.0000000E+04;  0.0000000E+00;  3.9990926E+04;  2.9229604E-02;  0.0000000E+00; -1.6228887E-04;  1.1261061E+03;
  2.1165577E-01;  9.9999998E-03; -1.0005447E-01;3747;  3.7791224E-03;  0.0000000E+00; -2.1111468E-05;  9.9976416E+02;  1.0000000E-01; -1.9540189E+02;3; -3.1416357E-01;  0.0000000E+00;  7.3015779E-02;0;  3.1311084E-02;  3.9983992E+04;  0.0000000E+00;  4.7508527E-02;  4.0000000E+04;  0.0000000E+00;  3.9991184E+04;  3.1695616E-02;  0.0000000E+00; -3.8453098E-04;  1.0055466E+03;
  2.1172163E-01;  9.9999998E-03; -9.0036914E-02;3748;  3.7593911E-03;  0.0000000E+00; -2.7657263E-05;  9.9978986E+02;  1.0000000E-01; -1.7411853E+02;3; -3.2218316E-01;  0.0000000E+00;  7.0665888E-02;0;  3.1735968E-02;  3.9987289E+04;  0.0000000E+00;  2.8958850E-02;  4.0000000E+04;  0.0000000E+00;  3.9990285E+04;  3.2189194E-02;  0.0000000E+00; -4.5322743E-04;  1.1710947E+03;
  2.1175833E-01;  9.9999998E-03; -8.0025114E-02;3749;  3.7646019E-03;  0.0000000E+00; -4.3242249E-05;  9.9982727E+02;  1.0000000E-01; -1.4310707E+02;3; -3.2975161E-01;  0.0000000E+00;  6.8422467E-02;0;  3.2315135E-02;  3.9991285E+04;  0.0000000E+00;  1.1012383E-02;  4.0000000E+04;  0.0000000E+00;  3.9989020E+04;  3.2799453E-02;  0.0000000E+00; -4.8431885E-04;  1.3236622E+03;
  2.1176800E-01;  9.9999998E-03; -7.0015065E-02;3750;  3.7895273E-03;  0.0000000E+00; -6.4690852E-05;  9.9986499E+02;  1.0000000E-01; -1.1184869E+02;3; -3.3677524E-01;  0.0000000E+00;  6.6628106E-02;0;  3.3032682E-02;  3.9995359E+04;  0.0000000E+00; -2.9534635E-03;  4.0000000E+04;  0.0000000E+00;  3.9988273E+04;  3.3503149E-02;  0.0000000E+00; -4.7046767E-04;  1.4279874E+03;
  2.1175756E-01;  9.9999998E-03; -6.0002826E-02;3751;  3.8276545E-03;  0.0000000E+00; -8.6615444E-05;  9.9991241E+02;  1.0000000E-01; -7.2541161E+01;3; -3.4335381E-01;  0.0000000E+00;  6.5005630E-02;0;  3.3852983E-02;  3.9999363E+04;  0.0000000E+00; -1.1540156E-02;  4.0000000E+04;  0.0000000E+00;  3.9988031E+04;  3.4263197E-02;  0.0000000E+00; -4.1021287E-04;  1.4584304E+03;
  2.1173549E-01;  9.9999998E-03; -4.9989145E-02;3752;  3.8732346E-03;  0.0000000E+00; -1.0838830E-04;  9.9995874E+02;  1.0000000E-01; -3.4171871E+01;3; -3.4959412E-01;  0.0000000E+00;  6.4086780E-02;0;  3.4723163E-02;  4.0002891E+04;  0.0000000E+00; -1.4739978E-02;  4.0000000E+04;  0.0000000E+00;  3.9988465E+04;  3.5031900E-02;  0.0000000E+00; -3.0873821E-04;  1.4084199E+03;
  2.1171488E-01;  9.9999998E-03; -3.9979551E-02;3753;  3.9213891E-03;  0.0000000E+00; -1.2512194E-04;  1.0000055E+03;  1.0000000E-01;  4.5430813E+00;3; -3.5633877E-01;  0.0000000E+00;  6.4119622E-02;0;  3.5581756E-02;  4.0005500E+04;  0.0000000E+00; -1.3543170E-02;  4.0000000E+04;  0.0000000E+00;  3.9989871E+04;  3.5760030E-02;  0.0000000E+00; -1.7827505E-04;  1.2961954E+03;
  2.1170726E-01;  9.9999998E-03; -2.9980369E-02;3754;  3.9675417E-03;  0.0000000E+00; -1.3232141E-04;  1.0000435E+03;  1.0000000E-01;  3.6048363E+01;3; -3.6053562E-01;  0.0000000E+00;  6.1382383E-02;0;  3.6362603E-02;  4.0007898E+04;  0.0000000E+00; -9.6277120E-03;  4.0000000E+04;  0.0000000E+00;  3.9990586E+04;  3.6400329E-02;  0.0000000E+00; -3.7724534E-05;  1.1589911E+03;
  2.1170798E-01;  9.9999998E-03; -1.9987106E-02;3755;  4.0056328E-03;  0.0000000E+00; -1.2391194E-04;  1.0000754E+03;  1.0000000E-01;  6.2516750E+01;3; -3.6349881E-01;  0.0000000E+00;  5.5780463E-02;0;  3.6992896E-02;  4.0009375E+04;  0.0000000E+00; -4.9675442E-03;  4.0000000E+04;  0.0000000E+00;  3.9991590E+04;  3.6903296E-02;  0.0000000E+00;  8.9599103E-05;  1.0350962E+03;
  2.1170992E-01;  9.9999998E-03; -9.9942507E-03;3756;  4.0287869E-03;  0.0000000E+00; -8.9222136E-05;  1.0000932E+03;  1.0000000E-01;  7.7232384E+01;3; -3.6447740E-01;  0.0000000E+00;  4.3141294E-02;0;  3.7404563E-02;  4.0010246E+04;  0.0000000E+00; -1.3499897E-03;  4.0000000E+04;  0.0000000E+00;  3.9992469E+04;  3.7225161E-02;  0.0000000E+00;  1.7940119E-04;  9.5209442E+02;
  2.1171127E-01;  9.9999998E-03;  7.2258574E-11;3757;  4.0343525E-03;  0.0000000E+00; -1.5478349E-08;  1.0001000E+03;  1.0000000E-01;  8.2861855E+01;3; -3.6260548E-01;  0.0000000E+00;  9.1509019E-06;0;  3.7548173E-02;  4.0010426E+04;  0.0000000E+00; -1.0103872E-12;  4.0000000E+04;  0.0000000E+00;  3.9992688E+04;  3.7336238E-02;  0.0000000E+00;  2.1193610E-04;  9.2341211E+02;
  2.1170992E-01;  9.9999998E-03;  9.9942507E-03;3758;  4.0287888E-03;  0.0000000E+00;  8.9195913E-05;  1.0000932E+03;  1.0000000E-01;  7.7232384E+01;3; -3.6448339E-01;  0.0000000E+00; -4.3123420E-02;0;  3.7404515E-02;  4.0010250E+04;  0.0000000E+00; -1.3502947E-03;  4.0000000E+04;  0.0000000E+00;  3.9992469E+04;  3.7225112E-02;  0.0000000E+00;  1.7940273E-04;  9.5208606E+02;
  2.1170798E-01;  9.9999998E-03;  1.9987106E-02;3759;  4.0056370E-03;  0.0000000E+00;  1.2388744E-04;  1.0000754E+03;  1.0000000E-01;  6.2516750E+01;3; -3.6350277E-01;  0.0000000E+00; -5.5763915E-02;0;  3.6992840E-02;  4.0009371E+04;  0.0000000E+00; -4.9683126E-03;  4.0000000E+04;  0.0000000E+00;  3.9991590E+04;  3.6903240E-02;  0.0000000E+00;  8.9599722E-05;  1.0350948E+03;
  2.1170726E-01;  9.9999998E-03;  2.9980371E-02;3760;  3.9675483E-03;  0.0000000E+00;  1.3229781E-04;  1.0000435E+03;  1.0000000E-01;  3.6048363E+01;3; -3.6053935E-01;  0.0000000E+00; -6.1369810E-02;0;  3.6362588E-02;  4.0007898E+04;  0.0000000E+00; -9.6284607E-03;  4.0000000E+04;  0.0000000E+00;  3.9990586E+04;  3.6400311E-02;  0.0000000E+00; -3.7723326E-05;  1.1589863E+03;
  2.1171488E-01;  9.9999998E-03;  3.9979551E-02;3761;  3.9213984E-03;  0.0000000E+00;  1.2509982E-04;  1.0000056E+03;  1.0000000E-01;  4.6418438E+00;3; -3.5634404E-01;  0.0000000E+00; -6.4119212E-02;0;  3.5581745E-02;  4.0005500E+04;  0.0000000E+00; -1.3543486E-02;  4.0000000E+04;  0.0000000E+00;  3.9989871E+04;  3.5760019E-02;  0.0000000E+00; -1.7827362E-04;  1.2961992E+03;
  2.1173549E-01;  9.9999998E-03;  4.9989145E-02;3762;  3.8732460E-03;  0.0000000E+00;  1.0836675E-04;  9.9995880E+02;  1.0000000E-01; -3.4122490E+01;3; -3.4959632E-01;  0.0000000E+00; -6.4087078E-02;0;  3.4723084E-02;  4.0002887E+04;  0.0000000E+00; -1.4741335E-02;  4.0000000E+04;  0.0000000E+00;  3.9988465E+04;  3.5031818E-02;  0.0000000E+00; -3.0873454E-04;  1.4084111E+03;
  2.1175756E-01;  9.9999998E-03;  6.0002826E-02;3763;  3.8276680E-03;  0.0000000E+00;  8.6592845E-05;  9.9991241E+02;  1.0000000E-01; -7.2541161E+01;3; -3.4335649E-01;  0.0000000E+00; -6.5019675E-02;0;  3.3852927E-02;  3.9999363E+04;  0.0000000E+00; -1.1543190E-02;  4.0000000E+04;  0.0000000E+00;  3.9988027E+04;  3.4263134E-02;  0.0000000E+00; -4.1020656E-04;  1.4584233E+03;
  2.2177854E-01;  9.9999998E-03; -1.0000343E-01;3808;  3.8245460E-03;  0.0000000E+00; -4.5578749E-05;  9.9971875E+02;  1.0000000E-01; -2.3303044E+02;3; -3.1066734E-01;  0.0000000E+00;  8.5037604E-02;0;  3.5332981E-02;  3.9983824E+04;  0.0000000E+00;  9.6042141E-02;  4.0000000E+04;  0.0000000E+00;  3.9989168E+04;  3.6041714E-02;  0.0000000E+00; -7.0873182E-04;  1.3313916E+03;
  2.2178644E-01;  9.9999998E-03; -8.9998074E-02;3809;  3.8097145E-03;  0.0000000E+00; -5.2457563E-05;  9.9977039E+02;  1.0000000E-01; -1.9021684E+02;3; -3.1840828E-01;  0.0000000E+00;  8.2604185E-02;0;  3.5810433E-02;  3.9988863E+04;  0.0000000E+00;  6.8809092E-02;  4.0000000E+04;  0.0000000E+00;  3.9987973E+04;  3.6574271E-02;  0.0000000E+00; -7.6383585E-04;  1.4535542E+03;
  2.2177069E-01;  9.9999998E-03; -7.9996482E-02;3810;  3.8242096E-03;  0.0000000E+00; -6.9890099E-05;  9.9982251E+02;  1.0000000E-01; -1.4705757E+02;3; -3.2620206E-01;  0.0000000E+00;  7.9615787E-02;0;  3.6393728E-02;  3.9994078E+04;  0.0000000E+00;  4.4952326E-02;  4.0000000E+04;  0.0000000E+00;  3.9987316E+04;  3.7175138E-02;  0.0000000E+00; -7.8140892E-04;  1.5602111E+03;
  2.2173786E-01;  9.9999998E-03; -6.9993779E-02;3811;  3.8609845E-03;  0.0000000E+00; -9.5646879E-05;  9.9987177E+02;  1.0000000E-01; -1.0621922E+02;3; -3.3387735E-01;  0.0000000E+00;  7.8192584E-02;0;  3.7070729E-02;  3.9998395E+04;  0.0000000E+00;  2.6186494E-02;  4.0000000E+04;  0.0000000E+00;  3.9986703E+04;  3.7826575E-02;  0.0000000E+00; -7.5584807E-04;  1.6208325E+03;
  2.2169375E-01;  9.9999998E-03; -5.9987795E-02;3812;  3.9166613E-03;  0.0000000E+00; -1.2304005E-04;  9.9991949E+02;  1.0000000E-01; -6.6714165E+01;3; -3.4270066E-01;  0.0000000E+00;  8.1607036E-02;0;  3.7811119E-02;  4.0002098E+04;  0.0000000E+00;  1.2763291E-02;  4.0000000E+04;  0.0000000E+00;  3.9986965E+04;  3.8498044E-02;  0.0000000E+00; -6.8692392E-04;  1.6120857E+03;
  2.2164527E-01;  9.9999998E-03; -4.9979102E-02;3813;  3.9874138E-03;  0.0000000E+00; -1.5214672E-04;  9.9996301E+02;  1.0000000E-01; -3.0665800E+01;3; -3.5014981E-01;  0.0000000E+00;  8.2588613E-02;0;  3.8570102E-02;  4.0005168E+04;  0.0000000E+00;  4.2687897E-03;  4.0000000E+04;  0.0000000E+00;  3.9987703E+04;  3.9150383E-02;  0.0000000E+00; -5.8027986E-04;  1.5288221E+03;
  2.2160432E-01;  9.9999998E-03; -3.9974917E-02;3814;  4.0686866E-03;  0.0000000E+00; -1.7954374E-04;  9.9999866E+02;  1.0000000E-01; -1.1357703E+00;3; -3.5596406E-01;  0.0000000E+00;  8.1252769E-02;0;  3.9298978E-02;  4.0007289E+04;  0.0000000E+00; -1.0048952E-04;  4.0000000E+04;  0.0000000E+00;  3.9989012E+04;  3.9746433E-02;  0.0000000E+00; -4.4745731E-04;  1.3901174E+03;
  2.2157913E-01;  9.9999998E-03; -2.9979963E-02;3815;  4.1512898E-03;  0.0000000E+00; -1.9761024E-04;  1.0000342E+03;  1.0000000E-01;  2.8344877E+01;3; -3.6101192E-01;  0.0000000E+00;  8.0001369E-02;0;  3.9949093E-02;  4.0008676E+04;  0.0000000E+00; -1.4675130E-03;  4.0000000E+04;  0.0000000E+00;  3.9990008E+04;  4.0255088E-02;  0.0000000E+00; -3.0599389E-04;  1.2322081E+03;
  2.2156514E-01;  9.9999998E-03; -1.9988783E-02;3816;  4.2217965E-03;  0.0000000E+00; -1.9768252E-04;  1.0000570E+03;  1.0000000E-01;  4.7208542E+01;3; -3.6398488E-01;  0.0000000E+00;  7.5891331E-02;0;  4.0468372E-02;  4.0009586E+04;  0.0000000E+00; -1.1469101E-03;  4.0000000E+04;  0.0000000E+00;  3.9991031E+04;  4.0646739E-02;  0.0000000E+00; -1.7836838E-04;  1.0924166E+03;
  2.2155803E-01;  9.9999998E-03; -9.9963993E-03;3817;  4.2681382E-03;  0.0000000E+00; -1.6662556E-04;  1.0000746E+03;  1.0000000E-01;  6.1825413E+01;3; -3.6280623E-01;  0.0000000E+00;  6.7021072E-02;0;  4.0806372E-02;  4.0010090E+04;  0.0000000E+00; -3.6628489E-04;  4.0000000E+04;  0.0000000E+00;  3.9991941E+04;  4.0894963E-02;  0.0000000E+00; -8.8589797E-05;  9.9887793E+02;
  2.2155645E-01;  9.9999998E-03;  4.6932055E-11;3818;  4.2790282E-03;  0.0000000E+00; -2.1750669E-08;  1.0000773E+03;  1.0000000E-01;  6.4096954E+01;3; -3.5762805E-01;  0.0000000E+00;  7.4572581E-06;0;  4.0924229E-02;  4.0010379E+04;  0.0000000E+00;  4.7767075E-13;  4.0000000E+04;  0.0000000E+00;  3.9992246E+04;  4.0980376E-02;  0.0000000E+00; -5.6148539E-05;  9.6640948E+02;
  2.2155803E-01;  9.9999998E-03;  9.9963993E-03;3819;  4.2681415E-03;  0.0000000E+00;  1.6659778E-04;  1.0000746E+03;  1.0000000E-01;  6.1825413E+01;3; -3.6280841E-01;  0.0000000E+00; -6.7006439E-02;0;  4.0806334E-02;  4.0010090E+04;  0.0000000E+00; -3.6667008E-04;  4.0000000E+04;  0.0000000E+00;  3.9991941E+04;  4.0894926E-02;  0.0000000E+00; -8.8590394E-05;  9.9887555E+02;
  2.2156514E-01;  9.9999998E-03;  1.9988783E-02;3820;  4.2218021E-03;  0.0000000E+00;  1.9765647E-04;  1.0000571E+03;  1.0000000E-01;  4.7307304E+01;3; -3.6398873E-01;  0.0000000E+00; -7.5879358E-02;0;  4.0468350E-02;  4.0009586E+04;  0.0000000E+00; -1.1474633E-03;  4.0000000E+04;  0.0000000E+00;  3.9991031E+04;  4.0646721E-02;  0.0000000E+00; -1.7836924E-04;  1.0924137E+03;
  2.2157913E-01;  9.9999998E-03;  2.9979963E-02;3821;  4.1512987E-03;  0.0000000E+00;  1.9758589E-04;  1.0000342E+03;  1.0000000E-01;  2.8344877E+01;3; -3.6101881E-01;  0.0000000E+00; -7.9992034E-02;0;  3.9949104E-02;  4.0008676E+04;  0.0000000E+00; -1.4677491E-03;  4.0000000E+04;  0.0000000E+00;  3.9990008E+04;  4.0255100E-02;  0.0000000E+00; -3.0599401E-04;  1.2322014E+03;
  2.2160432E-01;  9.9999998E-03;  3.9974917E-02;3822;  4.0686964E-03;  0.0000000E+00;  1.7951943E-04;  9.9999866E+02;  1.0000000E-01; -1.1357703E+00;3; -3.5596421E-01;  0.0000000E+00; -8.1255138E-02;0;  3.9298933E-02;  4.0007289E+04;  0.0000000E+00; -1.0102939E-04;  4.0000000E+04;  0.0000000E+00;  3.9989012E+04;  3.9746389E-02;  0.0000000E+00; -4.4745693E-04;  1.3901046E+03;
  2.2164527E-01;  9.9999998E-03;  4.9979102E-02;3823;  3.9874269E-03;  0.0000000E+00;  1.5212235E-04;  9.9996301E+02;  1.0000000E-01; -3.0665800E+01;3; -3.5014781E-01;  0.0000000E+00; -8.2596719E-02;0;  3.8570084E-02;  4.0005164E+04;  0.0000000E+00;  4.2675165E-03;  4.0000000E+04;  0.0000000E+00;  3.9987711E+04;  3.9150361E-02;  0.0000000E+00; -5.8027910E-04;  1.5288094E+03;
  2.2169375E-01;  9.9999998E-03;  5.9987795E-02;3824;  3.9166757E-03;  0.0000000E+00;  1.2301734E-04;  9.9991943E+02;  1.0000000E-01; -6.6763542E+01;3; -3.4270066E-01;  0.0000000E+00; -8.1608474E-02;0;  3.7811022E-02;  4.0002098E+04;  0.0000000E+00;  1.2762735E-02;  4.0000000E+04;  0.0000000E+00;  3.9986961E+04;  3.8497943E-02;  0.0000000E+00; -6.8691978E-04;  1.6120817E+03;
  2.3176256E-01;  9.9999998E-03; -9.9990584E-02;3869;  3.9448831E-03;  0.0000000E+00; -5.6668512E-05;  9.9967773E+02;  1.0000000E-01; -2.6700479E+02;3; -3.0758375E-01;  0.0000000E+00;  1.0484757E-01;0;  3.8082514E-02;  3.9982484E+04;  0.0000000E+00;  1.4067221E-01;  4.0000000E+04;  0.0000000E+00;  3.9987957E+04;  3.9135303E-02;  0.0000000E+00; -1.0527897E-03;  1.4634265E+03;
  2.3172721E-01;  9.9999998E-03; -8.9994594E-02;3870;  3.9388416E-03;  0.0000000E+00; -7.4939795E-05;  9.9974469E+02;  1.0000000E-01; -2.1150020E+02;3; -3.1672621E-01;  0.0000000E+00;  1.0334288E-01;0;  3.8600437E-02;  3.9988445E+04;  0.0000000E+00;  1.0576975E-01;  4.0000000E+04;  0.0000000E+00;  3.9987340E+04;  3.9691720E-02;  0.0000000E+00; -1.0912842E-03;  1.5527406E+03;
  2.3168011E-01;  9.9999998E-03; -7.9999201E-02;3871;  3.9714766E-03;  0.0000000E+00; -9.8890116E-05;  9.9979651E+02;  1.0000000E-01; -1.6858783E+02;3; -3.2594553E-01;  0.0000000E+00;  1.0476416E-01;0;  3.9157379E-02;  3.9993270E+04;  0.0000000E+00;  7.6942049E-02;  4.0000000E+04;  0.0000000E+00;  3.9987070E+04;  4.0250961E-02;  0.0000000E+00; -1.0935817E-03;  1.6234576E+03;
  2.3162399E-01;  9.9999998E-03; -7.0000030E-02;3872;  4.0488737E-03;  0.0000000E+00; -1.3420009E-04;  9.9983777E+02;  1.0000000E-01; -1.3441595E+02;3; -3.3309469E-01;  0.0000000E+00;  1.0627839E-01;0;  3.9745070E-02;  3.9996871E+04;  0.0000000E+00;  5.3987525E-02;  4.0000000E+04;  0.0000000E+00;  3.9986883E+04;  4.0800598E-02;  0.0000000E+00; -1.0555258E-03;  1.6481652E+03;
  2.3156233E-01;  9.9999998E-03; -5.9995778E-02;3873;  4.1692280E-03;  0.0000000E+00; -1.7742816E-04;  9.9986945E+02;  1.0000000E-01; -1.0814509E+02;3; -3.3898452E-01;  0.0000000E+00;  1.0573925E-01;0;  4.0344127E-02;  3.9999195E+04;  0.0000000E+00;  3.6073156E-02;  4.0000000E+04;  0.0000000E+00;  3.9987066E+04;  4.1322358E-02;  0.0000000E+00; -9.7823096E-04;  1.6067158E+03;
  2.3150194E-01;  9.9999998E-03; -4.9988382E-02;3874;  4.3495814E-03;  0.0000000E+00; -2.3115375E-04;  9.9989270E+02;  1.0000000E-01; -8.8886375E+01;3; -3.4029487E-01;  0.0000000E+00;  1.0850366E-01;0;  4.0923957E-02;  4.0000449E+04;  0.0000000E+00;  2.2482090E-02;  4.0000000E+04;  0.0000000E+00;  3.9987758E+04;  4.1792199E-02;  0.0000000E+00; -8.6824328E-04;  1.4966165E+03;
  2.3145515E-01;  9.9999998E-03; -3.9985333E-02;3875;  4.6410477E-03;  0.0000000E+00; -2.9406592E-04;  9.9991229E+02;  1.0000000E-01; -7.2639923E+01;3; -3.0819771E-01;  0.0000000E+00;  1.0083674E-01;0;  4.1453704E-02;  4.0001051E+04;  0.0000000E+00;  1.2717067E-02;  4.0000000E+04;  0.0000000E+00;  3.9989273E+04;  4.2190038E-02;  0.0000000E+00; -7.3633296E-04;  1.3382969E+03;
  2.3142788E-01;  9.9999998E-03; -2.9989710E-02;3876;  5.3897272E-03;  0.0000000E+00; -3.2711780E-04;  9.9992981E+02;  1.0000000E-01; -5.8171196E+01;3; -2.3522568E-03;  0.0000000E+00;  1.0904144E-01;0;  4.1911371E-02;  4.0001246E+04;  0.0000000E+00;  6.2602633E-03;  4.0000000E+04;  0.0000000E+00;  3.9990594E+04;  4.2509530E-02;  0.0000000E+00; -5.9815793E-04;  1.1668291E+03;
  2.3141581E-01;  9.9999998E-03; -1.9996334E-02;3877;  6.6290796E-03;  0.0000000E+00; -2.6108639E-04;  9.9994385E+02;  1.0000000E-01; -4.6517204E+01;3;  3.5835028E-01;  0.0000000E+00;  1.2466341E-01;0;  4.2273581E-02;  4.0001230E+04;  0.0000000E+00;  2.4473930E-03;  4.0000000E+04;  0.0000000E+00;  3.9991820E+04;  4.2748407E-02;  0.0000000E+00; -4.7482591E-04;  1.0180287E+03;
  2.3141274E-01;  9.9999998E-03; -1.0000794E-02;3878;  7.7035399E-03;  0.0000000E+00; -1.1441436E-04;  9.9995172E+02;  1.0000000E-01; -3.9998867E+01;3;  5.9994680E-01;  0.0000000E+00;  8.0344513E-02;0;  4.2508353E-02;  4.0001047E+04;  0.0000000E+00;  5.5515289E-04;  4.0000000E+04;  0.0000000E+00;  3.9992320E+04;  4.2897321E-02;  0.0000000E+00; -3.8897019E-04;  9.1918970E+02;
  2.3141451E-01;  9.9999998E-03;  8.4978698E-11;3879;  8.2182670E-03;  0.0000000E+00; -2.9920872E-09;  9.9995477E+02;  1.0000000E-01; -3.7480423E+01;3;  6.6542661E-01;  0.0000000E+00;  4.8742095E-06;0;  4.2591371E-02;  4.0001043E+04;  0.0000000E+00; -4.0716679E-13;  4.0000000E+04;  0.0000000E+00;  3.9992594E+04;  4.2949546E-02;  0.0000000E+00; -3.5817677E-04;  8.8491632E+02;
  2.3141274E-01;  9.9999998E-03;  1.0000794E-02;3880;  7.7035786E-03;  0.0000000E+00;  1.1439511E-04;  9.9995172E+02;  1.0000000E-01; -3.9998867E+01;3;  5.9995097E-01;  0.0000000E+00; -8.0331646E-02;0;  4.2508353E-02;  4.0001047E+04;  0.0000000E+00;  5.5497675E-04;  4.0000000E+04;  0.0000000E+00;  3.9992320E+04;  4.2897325E-02;  0.0000000E+00; -3.8897162E-04;  9.1918341E+02;
  2.3141581E-01;  9.9999998E-03;  1.9996334E-02;3881;  6.6291317E-03;  0.0000000E+00;  2.6105877E-04;  9.9994385E+02;  1.0000000E-01; -4.6517204E+01;3;  3.5835454E-01;  0.0000000E+00; -1.2465202E-01;0;  4.2273514E-02;  4.0001230E+04;  0.0000000E+00;  2.4470051E-03;  4.0000000E+04;  0.0000000E+00;  3.9991820E+04;  4.2748343E-02;  0.0000000E+00; -4.7482739E-04;  1.0180247E+03;
  2.3142788E-01;  9.9999998E-03;  2.9989710E-02;3882;  5.3897579E-03;  0.0000000E+00;  3.2708992E-04;  9.9992981E+02;  1.0000000E-01; -5.8171196E+01;3; -2.3482305E-03;  0.0000000E+00; -1.0903677E-01;0;  4.1911338E-02;  4.0001250E+04;  0.0000000E+00;  6.2600574E-03;  4.0000000E+04;  0.0000000E+00;  3.9990594E+04;  4.2509500E-02;  0.0000000E+00; -5.9816166E-04;  1.1668217E+03;
  2.3145515E-01;  9.9999998E-03;  3.9985333E-02;3883;  4.6410603E-03;  0.0000000E+00;  2.9403844E-04;  9.9991229E+02;  1.0000000E-01; -7.2639923E+01;3; -3.0819705E-01;  0.0000000E+00; -1.0082391E-01;0;  4.1453708E-02;  4.0001055E+04;  0.0000000E+00;  1.2716263E-02;  4.0000000E+04;  0.0000000E+00;  3.9989273E+04;  4.2190045E-02;  0.0000000E+00; -7.3633570E-04;  1.3382850E+03;
  2.3150194E-01;  9.9999998E-03;  4.9988382E-02;3884;  4.3495949E-03;  0.0000000E+00;  2.3112472E-04;  9.9989270E+02;  1.0000000E-01; -8.8886375E+01;3; -3.4029371E-01;  0.0000000E+00; -1.0851236E-01;0;  4.0923875E-02;  4.0000449E+04;  0.0000000E+00;  2.2482587E-02;  4.0000000E+04;  0.0000000E+00;  3.9987758E+04;  4.1792117E-02;  0.0000000E+00; -8.6824369E-04;  1.4966107E+03;
  2.3156233E-01;  9.9999998E-03;  5.9995778E-02;3885;  4.1692415E-03;  0.0000000E+00;  1.7740110E-04;  9.9986945E+02;  1.0000000E-01; -1.0814509E+02;3; -3.3898076E-01;  0.0000000E+00; -1.0574213E-01;0;  4.0344045E-02;  3.9999199E+04;  0.0000000E+00;  3.6074929E-02;  4.0000000E+04;  0.0000000E+00;  3.9987066E+04;  4.1322272E-02;  0.0000000E+00; -9.7822782E-04;  1.6067131E+03;
  2.4167925E-01;  9.9999998E-03; -9.9994965E-02;3930;  4.3146866E-03;  0.0000000E+00;  1.0096018E-04;  9.9965082E+02;  1.0000000E-01; -2.8927576E+02;3; -2.6985335E-01;  0.0000000E+00;  1.5081437E-01;0;  3.9152235E-02;  3.9981023E+04;  0.0000000E+00;  1.6759516E-01;  4.0000000E+04;  0.0000000E+00;  3.9988520E+04;  4.0546689E-02;  0.0000000E+00; -1.3944533E-03;  1.4344128E+03;
  2.4162199E-01;  9.9999998E-03; -9.0002306E-02;3931;  4.3522837E-03;  0.0000000E+00;  5.5310309E-05;  9.9970374E+02;  1.0000000E-01; -2.4542516E+02;3; -2.8145400E-01;  0.0000000E+00;  1.4049374E-01;0;  3.9682701E-02;  3.9986039E+04;  0.0000000E+00;  1.2795876E-01;  4.0000000E+04;  0.0000000E+00;  3.9987633E+04;  4.1098550E-02;  0.0000000E+00; -1.4158493E-03;  1.5024170E+03;
  2.4156027E-01;  9.9999998E-03; -8.0008231E-02;3932;  4.5410017E-03;  0.0000000E+00;  3.4569505E-06;  9.9973792E+02;  1.0000000E-01; -2.1712965E+02;3; -2.6599264E-01;  0.0000000E+00;  1.3505143E-01;0;  4.0167596E-02;  3.9989367E+04;  0.0000000E+00;  9.6630163E-02;  4.0000000E+04;  0.0000000E+00;  3.9987316E+04;  4.1570470E-02;  0.0000000E+00; -1.4028753E-03;  1.5462618E+03;
  2.4149641E-01;  9.9999998E-03; -7.0009090E-02;3933;  5.1945145E-03;  0.0000000E+00; -5.6657929E-05;  9.9975317E+02;  1.0000000E-01; -2.0448804E+02;3; -1.6529510E-02;  0.0000000E+00;  1.3536443E-01;0;  4.0607627E-02;  3.9990797E+04;  0.0000000E+00;  7.1647733E-02;  4.0000000E+04;  0.0000000E+00;  3.9987746E+04;  4.1960713E-02;  0.0000000E+00; -1.3530860E-03;  1.5421311E+03;
  2.4143597E-01;  9.9999998E-03; -6.0004011E-02;3934;  6.9734212E-03;  0.0000000E+00; -1.5668509E-05;  9.9975806E+02;  1.0000000E-01; -2.0043878E+02;3;  4.6952358E-01;  0.0000000E+00;  1.3214187E-01;0;  4.1010380E-02;  3.9990797E+04;  0.0000000E+00;  5.1254094E-02;  4.0000000E+04;  0.0000000E+00;  3.9988027E+04;  4.2279337E-02;  0.0000000E+00; -1.2689563E-03;  1.4744760E+03;
  2.4139369E-01;  9.9999998E-03; -4.9994968E-02;3935;  8.6737499E-03;  0.0000000E+00;  1.3276083E-04;  9.9975787E+02;  1.0000000E-01; -2.0058691E+02;3;  8.3829921E-01;  0.0000000E+00;  8.2804419E-02;0;  4.1364044E-02;  3.9989676E+04;  0.0000000E+00;  3.4525845E-02;  4.0000000E+04;  0.0000000E+00;  3.9989293E+04;  4.2522114E-02;  0.0000000E+00; -1.1580698E-03;  1.3446223E+03;
  2.4137630E-01;  9.9999998E-03; -3.9990664E-02;3936;  9.0570645E-03;  0.0000000E+00;  1.2665265E-04;  9.9975214E+02;  1.0000000E-01; -2.0532753E+02;3;  9.6684158E-01;  0.0000000E+00;  6.9005258E-02;0;  4.1643556E-02;  3.9988234E+04;  0.0000000E+00;  2.1247754E-02;  4.0000000E+04;  0.0000000E+00;  3.9990719E+04;  4.2674035E-02;  0.0000000E+00; -1.0304778E-03;  1.1743278E+03;
  2.4137220E-01;  9.9999998E-03; -2.9992601E-02;3937;  9.1922786E-03;  0.0000000E+00;  8.9300542E-05;  9.9975146E+02;  1.0000000E-01; -2.0592010E+02;3;  9.9153084E-01;  0.0000000E+00;  5.1314358E-02;0;  4.1856527E-02;  3.9986664E+04;  0.0000000E+00;  1.1404796E-02;  4.0000000E+04;  0.0000000E+00;  3.9991875E+04;  4.2756099E-02;  0.0000000E+00; -8.9957129E-04;  9.9724908E+02;
  2.4137117E-01;  9.9999998E-03; -1.9997640E-02;3938;  9.2741596E-03;  0.0000000E+00;  5.5725144E-05;  9.9974622E+02;  1.0000000E-01; -2.1026566E+02;3;  9.9991047E-01;  0.0000000E+00;  3.3095200E-02;0;  4.2005412E-02;  3.9985395E+04;  0.0000000E+00;  4.8340983E-03;  4.0000000E+04;  0.0000000E+00;  3.9993148E+04;  4.2789541E-02;  0.0000000E+00; -7.8413024E-04;  8.4681366E+02;
  2.4137528E-01;  9.9999998E-03; -1.0001536E-02;3939;  9.3203923E-03;  0.0000000E+00;  2.6569616E-05;  9.9974371E+02;  1.0000000E-01; -2.1233968E+02;3;  1.0065533E+00;  0.0000000E+00;  1.6326809E-02;0;  4.2091887E-02;  3.9984258E+04;  0.0000000E+00;  1.1654549E-03;  4.0000000E+04;  0.0000000E+00;  3.9993777E+04;  4.2796496E-02;  0.0000000E+00; -7.0460705E-04;  7.4793976E+02;
  2.4137886E-01;  9.9999998E-03;  1.8634344E-10;3940;  9.3358420E-03;  0.0000000E+00;  5.9983214E-09;  9.9974207E+02;  1.0000000E-01; -2.1367297E+02;3;  1.0069791E+00;  0.0000000E+00;  1.1657719E-05;0;  4.2119775E-02;  3.9984027E+04;  0.0000000E+00; -1.4738604E-12;  4.0000000E+04;  0.0000000E+00;  3.9994020E+04;  4.2796038E-02;  0.0000000E+00; -6.7626289E-04;  7.1378467E+02;
  2.4137528E-01;  9.9999998E-03;  1.0001536E-02;3941;  9.3203932E-03;  0.0000000E+00; -2.6557000E-05;  9.9974365E+02;  1.0000000E-01; -2.1238905E+02;3;  1.0065544E+00;  0.0000000E+00; -1.6305722E-02;0;  4.2091846E-02;  3.9984258E+04;  0.0000000E+00;  1.1654553E-03;  4.0000000E+04;  0.0000000E+00;  3.9993777E+04;  4.2796455E-02;  0.0000000E+00; -7.0460903E-04;  7.4793823E+02;
  2.4137117E-01;  9.9999998E-03;  1.9997640E-02;3942;  9.2741624E-03;  0.0000000E+00; -5.5714212E-05;  9.9974622E+02;  1.0000000E-01; -2.1026566E+02;3;  9.9991482E-01;  0.0000000E+00; -3.3071127E-02;0;  4.2005468E-02;  3.9985395E+04;  0.0000000E+00;  4.8342757E-03;  4.0000000E+04;  0.0000000E+00;  3.9993148E+04;  4.2789601E-02;  0.0000000E+00; -7.8413304E-04;  8.4680334E+02;
  2.4137220E-01;  9.9999998E-03;  2.9992601E-02;3943;  9.1922823E-03;  0.0000000E+00; -8.9290945E-05;  9.9975146E+02;  1.0000000E-01; -2.0592010E+02;3;  9.9153465E-01;  0.0000000E+00; -5.1301628E-02;0;  4.1856490E-02;  3.9986664E+04;  0.0000000E+00;  1.1404491E-02;  4.0000000E+04;  0.0000000E+00;  3.9991875E+04;  4.2756066E-02;  0.0000000E+00; -8.9957420E-04;  9.9723804E+02;
  2.4137630E-01;  9.9999998E-03;  3.9990664E-02;3944;  9.0570711E-03;  0.0000000E+00; -1.2664437E-04;  9.9975214E+02;  1.0000000E-01; -2.0532753E+02;3;  9.6684635E-01;  0.0000000E+00; -6.8997137E-02;0;  4.1643489E-02;  3.9988242E+04;  0.0000000E+00;  2.1247441E-02;  4.0000000E+04;  0.0000000E+00;  3.9990723E+04;  4.2673972E-02;  0.0000000E+00; -1.0304818E-03;  1.1743268E+03;
  2.4139369E-01;  9.9999998E-03;  4.9994968E-02;3945;  8.6737759E-03;  0.0000000E+00; -1.3275984E-04;  9.9975800E+02;  1.0000000E-01; -2.0048816E+02;3;  8.3830249E-01;  0.0000000E+00; -8.2798950E-02;0;  4.1363951E-02;  3.9989680E+04;  0.0000000E+00;  3.4527101E-02;  4.0000000E+04;  0.0000000E+00;  3.9989293E+04;  4.2522024E-02;  0.0000000E+00; -1.1580735E-03;  1.3446154E+03;
  2.4143597E-01;  9.9999998E-03;  6.0004011E-02;3946;  6.9734287E-03;  0.0000000E+00;  1.5657173E-05;  9.9975800E+02;  1.0000000E-01; -2.0048816E+02;3;  4.6952584E-01;  0.0000000E+00; -1.3213287E-01;0;  4.1010283E-02;  3.9990801E+04;  0.0000000E+00;  5.1254671E-02;  4.0000000E+04;  0.0000000E+00;  3.9988027E+04;  4.2279240E-02;  0.0000000E+00; -1.2689568E-03;  1.4744771E+03;
  2.5159600E-01;  9.9999998E-03; -9.9995971E-02;3991;  7.6001454E-03;  0.0000000E+00;  3.5892948E-04;  9.9964166E+02;  1.0000000E-01; -2.9688049E+02;3;  5.9948325E-01;  0.0000000E+00;  1.4605686E-01;0;  3.8358603E-02;  3.9980387E+04;  0.0000000E+00;  1.6744368E-01;  4.0000000E+04;  0.0000000E+00;  3.9989645E+04;  4.0067505E-02;  0.0000000E+00; -1.7089020E-03;  1.2927971E+03;
  2.5153327E-01;  9.9999998E-03; -9.0004258E-02;3992;  8.2470933E-03;  0.0000000E+00;  3.3256126E-04;  9.9966400E+02;  1.0000000E-01; -2.7836249E+02;3;  7.2107238E-01;  0.0000000E+00;  1.2184020E-01;0;  3.8865697E-02;  3.9982914E+04;  0.0000000E+00;  1.2732030E-01;  4.0000000E+04;  0.0000000E+00;  3.9989062E+04;  4.0580764E-02;  0.0000000E+00; -1.7150688E-03;  1.3463628E+03;
  2.5148267E-01;  9.9999998E-03; -8.0009349E-02;3993;  8.7536536E-03;  0.0000000E+00;  3.2405229E-04;  9.9966370E+02;  1.0000000E-01; -2.7860941E+02;3;  8.6481732E-01;  0.0000000E+00;  1.0916867E-01;0;  3.9245967E-02;  3.9983285E+04;  0.0000000E+00;  9.7128138E-02;  4.0000000E+04;  0.0000000E+00;  3.9988926E+04;  4.0935047E-02;  0.0000000E+00; -1.6890785E-03;  1.3684011E+03;
  2.5144184E-01;  9.9999998E-03; -7.0008710E-02;3994;  8.9805592E-03;  0.0000000E+00;  2.9088600E-04;  9.9964392E+02;  1.0000000E-01; -2.9500400E+02;3;  9.4667959E-01;  0.0000000E+00;  1.0118475E-01;0;  3.9502364E-02;  3.9981539E+04;  0.0000000E+00;  7.3466241E-02;  4.0000000E+04;  0.0000000E+00;  3.9989309E+04;  4.1132767E-02;  0.0000000E+00; -1.6304036E-03;  1.3398340E+03;
  2.5140172E-01;  9.9999998E-03; -6.0003158E-02;3995;  9.1188876E-03;  0.0000000E+00;  2.4199684E-04;  9.9961414E+02;  1.0000000E-01; -3.1969467E+02;3;  9.8216861E-01;  0.0000000E+00;  8.6341664E-02;0;  3.9651446E-02;  3.9978688E+04;  0.0000000E+00;  5.3859085E-02;  4.0000000E+04;  0.0000000E+00;  3.9990047E+04;  4.1193474E-02;  0.0000000E+00; -1.5420296E-03;  1.2510815E+03;
  2.5138536E-01;  9.9999998E-03; -4.9996041E-02;3996;  9.2268204E-03;  0.0000000E+00;  1.9174864E-04;  9.9958167E+02;  1.0000000E-01; -3.4655811E+02;3;  9.9823272E-01;  0.0000000E+00;  7.2435156E-02;0;  3.9714407E-02;  3.9975223E+04;  0.0000000E+00;  3.7205230E-02;  4.0000000E+04;  0.0000000E+00;  3.9991141E+04;  4.1145973E-02;  0.0000000E+00; -1.4315665E-03;  1.1081838E+03;
  2.5139803E-01;  9.9999998E-03; -3.9991993E-02;3997;  9.3142604E-03;  0.0000000E+00;  1.4312242E-04;  9.9955188E+02;  1.0000000E-01; -3.7124875E+02;3;  1.0083842E+00;  0.0000000E+00;  5.6715678E-02;0;  3.9717618E-02;  3.9971184E+04;  0.0000000E+00;  2.3435337E-02;  4.0000000E+04;  0.0000000E+00;  3.9992285E+04;  4.1026410E-02;  0.0000000E+00; -1.3087923E-03;  9.3421619E+02;
  2.5141504E-01;  9.9999998E-03; -2.9992497E-02;3998;  9.3819629E-03;  0.0000000E+00;  9.9537458E-05;  9.9952478E+02;  1.0000000E-01; -3.9371725E+02;3;  1.0163754E+00;  0.0000000E+00;  4.1786287E-02;0;  3.9689608E-02;  3.9967973E+04;  0.0000000E+00;  1.2834298E-02;  4.0000000E+04;  0.0000000E+00;  3.9993523E+04;  4.0875614E-02;  0.0000000E+00; -1.1860069E-03;  7.6051532E+02;
  2.5143567E-01;  9.9999998E-03; -1.9995101E-02;3999;  9.4301971E-03;  0.0000000E+00;  6.2118415E-05;  9.9950616E+02;  1.0000000E-01; -4.0912424E+02;3;  1.0202878E+00;  0.0000000E+00;  2.6765948E-02;0;  3.9648563E-02;  3.9965223E+04;  0.0000000E+00;  5.5280421E-03;  4.0000000E+04;  0.0000000E+00;  3.9994570E+04;  4.0728517E-02;  0.0000000E+00; -1.0799530E-03;  6.1660590E+02;
  2.5145331E-01;  9.9999998E-03; -9.9978745E-03;4000;  9.4593968E-03;  0.0000000E+00;  2.9839428E-05;  9.9949237E+02;  1.0000000E-01; -4.2058069E+02;3;  1.0227838E+00;  0.0000000E+00;  1.2485966E-02;0;  3.9613303E-02;  3.9963727E+04;  0.0000000E+00;  1.3470200E-03;  4.0000000E+04;  0.0000000E+00;  3.9995414E+04;  4.0621065E-02;  0.0000000E+00; -1.0077608E-03;  5.2333478E+02;
  2.5146061E-01;  9.9999998E-03;  1.2514821E-10;4001;  9.4689801E-03;  0.0000000E+00;  7.1608039E-09;  9.9948834E+02;  1.0000000E-01; -4.2388925E+02;3;  1.0236819E+00;  0.0000000E+00;  1.0390843E-05;0;  3.9599326E-02;  3.9963121E+04;  0.0000000E+00; -7.5102516E-13;  4.0000000E+04;  0.0000000E+00;  3.9995582E+04;  4.0581476E-02;  0.0000000E+00; -9.8215195E-04;  4.9131339E+02;
  2.5145331E-01;  9.9999998E-03;  9.9978745E-03;4002;  9.4593978E-03;  0.0000000E+00; -2.9825333E-05;  9.9949237E+02;  1.0000000E-01; -4.2058069E+02;3;  1.0227790E+00;  0.0000000E+00; -1.2465105E-02;0;  3.9613273E-02;  3.9963727E+04;  0.0000000E+00;  1.3469888E-03;  4.0000000E+04;  0.0000000E+00;  3.9995414E+04;  4.0621035E-02;  0.0000000E+00; -1.0077625E-03;  5.2333179E+02;
  2.5143567E-01;  9.9999998E-03;  1.9995101E-02;4003;  9.4301980E-03;  0.0000000E+00; -6.2104955E-05;  9.9950616E+02;  1.0000000E-01; -4.0912424E+02;3;  1.0202941E+00;  0.0000000E+00; -2.6750736E-02;0;  3.9648548E-02;  3.9965234E+04;  0.0000000E+00;  5.5278377E-03;  4.0000000E+04;  0.0000000E+00;  3.9994574E+04;  4.0728506E-02;  0.0000000E+00; -1.0799564E-03;  6.1660132E+02;
  2.5141504E-01;  9.9999998E-03;  2.9992497E-02;4004;  9.3819639E-03;  0.0000000E+00; -9.9524361E-05;  9.9952472E+02;  1.0000000E-01; -3.9376663E+02;3;  1.0163708E+00;  0.0000000E+00; -4.1758377E-02;0;  3.9689589E-02;  3.9967973E+04;  0.0000000E+00;  1.2834585E-02;  4.0000000E+04;  0.0000000E+00;  3.9993523E+04;  4.0875603E-02;  0.0000000E+00; -1.1860116E-03;  7.6050653E+02;
  2.5139803E-01;  9.9999998E-03;  3.9991990E-02;4005;  9.3142642E-03;  0.0000000E+00; -1.4310962E-04;  9.9955194E+02;  1.0000000E-01; -3.7119937E+02;3;  1.0083766E+00;  0.0000000E+00; -5.6725740E-02;0;  3.9717585E-02;  3.9971191E+04;  0.0000000E+00;  2.3436258E-02;  4.0000000E+04;  0.0000000E+00;  3.9992285E+04;  4.1026380E-02;  0.0000000E+00; -1.3087958E-03;  9.3420520E+02;
  2.5138536E-01;  9.9999998E-03;  4.9996041E-02;4006;  9.2268232E-03;  0.0000000E+00; -1.9173487E-04;  9.9958154E+02;  1.0000000E-01; -3.4670624E+02;3;  9.9824184E-01;  0.0000000E+00; -7.2427824E-02;0;  3.9714303E-02;  3.9975219E+04;  0.0000000E+00;  3.7204135E-02;  4.0000000E+04;  0.0000000E+00;  3.9991141E+04;  4.1145872E-02;  0.0000000E+00; -1.4315703E-03;  1.1081801E+03;
  2.5140172E-01;  9.9999998E-03;  6.0003158E-02;4007;  9.1188923E-03;  0.0000000E+00; -2.4198310E-04;  9.9961420E+02;  1.0000000E-01; -3.1964529E+02;3;  9.8218358E-01;  0.0000000E+00; -8.6340033E-02;0;  3.9651357E-02;  3.9978688E+04;  0.0000000E+00;  5.3857233E-02;  4.0000000E+04;  0.0000000E+00;  3.9990047E+04;  4.1193388E-02;  0.0000000E+00; -1.5420308E-03;  1.2510790E+03;
  2.6157403E-01;  9.9999998E-03; -9.9993557E-02;4052;  8.8738026E-03;  0.0000000E+00;  4.1351767E-04;  9.9964594E+02;  1.0000000E-01; -2.9332504E+02;3;  9.2279375E-01;  0.0000000E+00;  1.2922212E-01;0;  3.5927035E-02;  3.9980609E+04;  0.0000000E+00;  1.3785429E-01;  4.0000000E+04;  0.0000000E+00;  3.9991367E+04;  3.7902448E-02;  0.0000000E+00; -1.9754136E-03;  1.0900602E+03;
  2.6151392E-01;  9.9999998E-03; -9.0000562E-02;4053;  8.9633213E-03;  0.0000000E+00;  3.7393827E-04;  9.9963477E+02;  1.0000000E-01; -3.0260873E+02;3;  9.5161366E-01;  0.0000000E+00;  1.1731150E-01;0;  3.6359668E-02;  3.9979988E+04;  0.0000000E+00;  1.0214814E-01;  4.0000000E+04;  0.0000000E+00;  3.9990988E+04;  3.8329251E-02;  0.0000000E+00; -1.9695845E-03;  1.1305852E+03;
  2.6147991E-01;  9.9999998E-03; -8.0004528E-02;4054;  9.0595223E-03;  0.0000000E+00;  3.2852960E-04;  9.9959460E+02;  1.0000000E-01; -3.3584235E+02;3;  9.7350025E-01;  0.0000000E+00;  1.0385277E-01;0;  3.6599301E-02;  3.9976855E+04;  0.0000000E+00;  7.7278785E-02;  4.0000000E+04;  0.0000000E+00;  3.9991074E+04;  3.8532902E-02;  0.0000000E+00; -1.9336012E-03;  1.1313932E+03;
  2.6146698E-01;  9.9999998E-03; -7.0002645E-02;4055;  9.1549298E-03;  0.0000000E+00;  2.7812284E-04;  9.9953632E+02;  1.0000000E-01; -3.8413730E+02;3;  9.8999500E-01;  0.0000000E+00;  9.0603426E-02;0;  3.6664035E-02;  3.9971820E+04;  0.0000000E+00;  5.8799449E-02;  4.0000000E+04;  0.0000000E+00;  3.9991219E+04;  3.8532648E-02;  0.0000000E+00; -1.8686124E-03;  1.0799735E+03;
  2.6145858E-01;  9.9999998E-03; -5.9996452E-02;4056;  9.2430590E-03;  0.0000000E+00;  2.2610970E-04;  9.9947034E+02;  1.0000000E-01; -4.3880240E+02;3;  1.0030409E+00;  0.0000000E+00;  7.6750822E-02;0;  3.6590979E-02;  3.9966047E+04;  0.0000000E+00;  4.3709964E-02;  4.0000000E+04;  0.0000000E+00;  3.9991652E+04;  3.8369119E-02;  0.0000000E+00; -1.7781421E-03;  9.7412323E+02;
  2.6146367E-01;  9.9999998E-03; -4.9988504E-02;4057;  9.3204435E-03;  0.0000000E+00;  1.7513460E-04;  9.9940704E+02;  1.0000000E-01; -4.9124536E+02;3;  1.0135772E+00;  0.0000000E+00;  6.2807113E-02;0;  3.6421023E-02;  3.9959797E+04;  0.0000000E+00;  3.0692564E-02;  4.0000000E+04;  0.0000000E+00;  3.9993023E+04;  3.8090039E-02;  0.0000000E+00; -1.6690139E-03;  8.2520740E+02;
  2.6147357E-01;  9.9999998E-03; -3.9984997E-02;4058;  9.3850344E-03;  0.0000000E+00;  1.2913611E-04;  9.9935120E+02;  1.0000000E-01; -5.3751569E+02;3;  1.0217412E+00;  0.0000000E+00;  4.9819574E-02;0;  3.6205564E-02;  3.9954000E+04;  0.0000000E+00;  1.9633088E-02;  4.0000000E+04;  0.0000000E+00;  3.9994289E+04;  3.7755981E-02;  0.0000000E+00; -1.5504177E-03;  6.5673206E+02;
  2.6148117E-01;  9.9999998E-03; -2.9987130E-02;4059;  9.4357859E-03;  0.0000000E+00;  9.0535083E-05;  9.9930524E+02;  1.0000000E-01; -5.7558868E+02;3;  1.0278845E+00;  0.0000000E+00;  3.7538979E-02;0;  3.5989597E-02;  3.9949375E+04;  0.0000000E+00;  1.0890540E-02;  4.0000000E+04;  0.0000000E+00;  3.9995312E+04;  3.7424143E-02;  0.0000000E+00; -1.4345453E-03;  4.9638336E+02;
  2.6148593E-01;  9.9999998E-03; -1.9991769E-02;4060;  9.4720898E-03;  0.0000000E+00;  5.7706322E-05;  9.9927118E+02;  1.0000000E-01; -6.0383478E+02;3;  1.0317814E+00;  0.0000000E+00;  2.5565535E-02;0;  3.5807829E-02;  3.9945535E+04;  0.0000000E+00;  4.7365925E-03;  4.0000000E+04;  0.0000000E+00;  3.9996418E+04;  3.7143983E-02;  0.0000000E+00; -1.3361538E-03;  3.6798615E+02;
  2.6148844E-01;  9.9999998E-03; -9.9962475E-03;4061;  9.4941445E-03;  0.0000000E+00;  2.7974260E-05;  9.9925067E+02;  1.0000000E-01; -6.2082196E+02;3;  1.0334684E+00;  0.0000000E+00;  1.3548739E-02;0;  3.5686675E-02;  3.9943223E+04;  0.0000000E+00;  1.1615005E-03;  4.0000000E+04;  0.0000000E+00;  3.9997000E+04;  3.6956534E-02;  0.0000000E+00; -1.2698591E-03;  2.8665344E+02;
  2.6148951E-01;  9.9999998E-03;  3.2330871E-10;4062;  9.5016221E-03;  0.0000000E+00;  7.5906419E-09;  9.9924359E+02;  1.0000000E-01; -6.2664893E+02;3;  1.0342262E+00;  0.0000000E+00;  1.0085794E-05;0;  3.5644107E-02;  3.9942402E+04;  0.0000000E+00; -9.1540913E-13;  4.0000000E+04;  0.0000000E+00;  3.9997289E+04;  3.6890551E-02;  0.0000000E+00; -1.2464431E-03;  2.5904791E+02;
  2.6148844E-01;  9.9999998E-03;  9.9962484E-03;4063;  9.4941454E-03;  0.0000000E+00; -2.7959944E-05;  9.9925067E+02;  1.0000000E-01; -6.2082196E+02;3;  1.0334722E+00;  0.0000000E+00; -1.3536458E-02;0;  3.5686616E-02;  3.9943223E+04;  0.0000000E+00;  1.1615029E-03;  4.0000000E+04;  0.0000000E+00;  3.9996996E+04;  3.6956474E-02;  0.0000000E+00; -1.2698601E-03;  2.8664359E+02;
  2.6148593E-01;  9.9999998E-03;  1.9991769E-02;4064;  9.4720898E-03;  0.0000000E+00; -5.7691766E-05;  9.9927118E+02;  1.0000000E-01; -6.0383478E+02;3;  1.0317852E+00;  0.0000000E+00; -2.5546158E-02;0;  3.5807777E-02;  3.9945535E+04;  0.0000000E+00;  4.7369176E-03;  4.0000000E+04;  0.0000000E+00;  3.9996418E+04;  3.7143935E-02;  0.0000000E+00; -1.3361584E-03;  3.6797925E+02;
  2.6148117E-01;  9.9999998E-03;  2.9987130E-02;4065;  9.4357869E-03;  0.0000000E+00; -9.0521258E-05;  9.9930518E+02;  1.0000000E-01; -5.7563806E+02;3;  1.0278916E+00;  0.0000000E+00; -3.7515488E-02;0;  3.5989560E-02;  3.9949375E+04;  0.0000000E+00;  1.0890774E-02;  4.0000000E+04;  0.0000000E+00;  3.9995312E+04;  3.7424110E-02;  0.0000000E+00; -1.4345504E-03;  4.9637225E+02;
  2.6147357E-01;  9.9999998E-03;  3.9984997E-02;4066;  9.3850363E-03;  0.0000000E+00; -1.2912166E-04;  9.9935120E+02;  1.0000000E-01; -5.3751569E+02;3;  1.0217381E+00;  0.0000000E+00; -4.9809460E-02;0;  3.6205474E-02;  3.9954000E+04;  0.0000000E+00;  1.9633062E-02;  4.0000000E+04;  0.0000000E+00;  3.9994289E+04;  3.7755895E-02;  0.0000000E+00; -1.5504211E-03;  6.5671509E+02;
  2.6146367E-01;  9.9999998E-03;  4.9988504E-02;4067;  9.3204463E-03;  0.0000000E+00; -1.7511983E-04;  9.9940704E+02;  1.0000000E-01; -4.9124536E+02;3;  1.0135812E+00;  0.0000000E+00; -6.2788002E-02;0;  3.6420990E-02;  3.9959797E+04;  0.0000000E+00;  3.0692961E-02;  4.0000000E+04;  0.0000000E+00;  3.9993023E+04;  3.8090006E-02;  0.0000000E+00; -1.6690160E-03;  8.2521143E+02;
  2.6145858E-01;  9.9999998E-03;  5.9996448E-02;4068;  9.2430636E-03;  0.0000000E+00; -2.2609526E-04;  9.9947034E+02;  1.0000000E-01; -4.3880240E+02;3;  1.0030570E+00;  0.0000000E+00; -7.6732859E-02;0;  3.6590967E-02;  3.9966047E+04;  0.0000000E+00;  4.3711342E-02;  4.0000000E+04;  0.0000000E+00;  3.9991652E+04;  3.8369108E-02;  0.0000000E+00; -1.7781409E-03;  9.7412390E+02;
  2.7158526E-01;  9.9999998E-03; -9.9994764E-02;4113;  8.9602349E-03;  0.0000000E+00;  3.8810284E-04;  9.9968982E+02;  1.0000000E-01; -2.5698038E+02;3;  9.5528334E-01;  0.0000000E+00;  1.1677130E-01;0;  3.2531921E-02;  3.9982785E+04;  0.0000000E+00;  8.4174387E-02;  4.0000000E+04;  0.0000000E+00;  3.9992875E+04;  3.4713734E-02;  0.0000000E+00; -2.1818129E-03;  8.7299298E+02;
  2.7154553E-01;  9.9999998E-03; -8.9998133E-02;4114;  9.0405243E-03;  0.0000000E+00;  3.4666405E-04;  9.9963000E+02;  1.0000000E-01; -3.0650986E+02;3;  9.7322476E-01;  0.0000000E+00;  1.0497251E-01;0;  3.2853346E-02;  3.9978500E+04;  0.0000000E+00;  5.7700980E-02;  4.0000000E+04;  0.0000000E+00;  3.9992629E+04;  3.5019994E-02;  0.0000000E+00; -2.1666489E-03;  8.9678247E+02;
  2.7152929E-01;  9.9999998E-03; -7.9997152E-02;4115;  9.1250744E-03;  0.0000000E+00;  3.0045726E-04;  9.9954663E+02;  1.0000000E-01; -3.7559433E+02;3;  9.8922604E-01;  0.0000000E+00;  9.3446486E-02;0;  3.2953590E-02;  3.9971812E+04;  0.0000000E+00;  4.2131178E-02;  4.0000000E+04;  0.0000000E+00;  3.9992637E+04;  3.5076454E-02;  0.0000000E+00; -2.1228623E-03;  8.7384381E+02;
  2.7152076E-01;  9.9999998E-03; -6.9992363E-02;4116;  9.2050871E-03;  0.0000000E+00;  2.5244706E-04;  9.9945117E+02;  1.0000000E-01; -4.5470319E+02;3;  1.0031466E+00;  0.0000000E+00;  8.1482112E-02;0;  3.2860890E-02;  3.9963672E+04;  0.0000000E+00;  3.2351151E-02;  4.0000000E+04;  0.0000000E+00;  3.9993328E+04;  3.4913708E-02;  0.0000000E+00; -2.0528187E-03;  8.0025537E+02;
  2.7150741E-01;  9.9999998E-03; -5.9988890E-02;4117;  9.2772003E-03;  0.0000000E+00;  2.0458906E-04;  9.9935706E+02;  1.0000000E-01; -5.3267627E+02;3;  1.0148441E+00;  0.0000000E+00;  6.9711998E-02;0;  3.2622047E-02;  3.9955430E+04;  0.0000000E+00;  2.4966156E-02;  4.0000000E+04;  0.0000000E+00;  3.9994250E+04;  3.4582920E-02;  0.0000000E+00; -1.9608752E-03;  6.8158905E+02;
  2.7148908E-01;  9.9999998E-03; -4.9987875E-02;4118;  9.3380474E-03;  0.0000000E+00;  1.5907506E-04;  9.9926685E+02;  1.0000000E-01; -6.0739026E+02;3;  1.0247085E+00;  0.0000000E+00;  5.7675321E-02;0;  3.2292701E-02;  3.9947094E+04;  0.0000000E+00;  1.8378083E-02;  4.0000000E+04;  0.0000000E+00;  3.9995363E+04;  3.4146156E-02;  0.0000000E+00; -1.8534533E-03;  5.3377148E+02;
  2.7147374E-01;  9.9999998E-03; -3.9989620E-02;4119;  9.3863662E-03;  0.0000000E+00;  1.1776538E-04;  9.9918884E+02;  1.0000000E-01; -6.7203040E+02;3;  1.0320612E+00;  0.0000000E+00;  4.5586906E-02;0;  3.1928644E-02;  3.9939906E+04;  0.0000000E+00;  1.2304476E-02;  4.0000000E+04;  0.0000000E+00;  3.9996504E+04;  3.3668086E-02;  0.0000000E+00; -1.7394406E-03;  3.7948340E+02;
  2.7146593E-01;  9.9999998E-03; -2.9993497E-02;4120;  9.4226338E-03;  0.0000000E+00;  8.1321785E-05;  9.9912793E+02;  1.0000000E-01; -7.2249811E+02;3;  1.0372802E+00;  0.0000000E+00;  3.3612255E-02;0;  3.1582069E-02;  3.9933633E+04;  0.0000000E+00;  7.0990156E-03;  4.0000000E+04;  0.0000000E+00;  3.9997645E+04;  3.3212382E-02;  0.0000000E+00; -1.6303126E-03;  2.4135835E+02;
  2.7146491E-01;  9.9999998E-03; -1.9997496E-02;4121;  9.4482088E-03;  0.0000000E+00;  5.0370789E-05;  9.9908105E+02;  1.0000000E-01; -7.6131183E+02;3;  1.0410099E+00;  0.0000000E+00;  2.3110118E-02;0;  3.1297840E-02;  3.9929133E+04;  0.0000000E+00;  3.1837206E-03;  4.0000000E+04;  0.0000000E+00;  3.9998504E+04;  3.2836989E-02;  0.0000000E+00; -1.5391501E-03;  1.3613165E+02;
  2.7146745E-01;  9.9999998E-03; -9.9996692E-03;4122;  9.4635980E-03;  0.0000000E+00;  2.3689441E-05;  9.9905396E+02;  1.0000000E-01; -7.8378027E+02;3;  1.0438914E+00;  0.0000000E+00;  1.1767019E-02;0;  3.1111268E-02;  3.9926414E+04;  0.0000000E+00;  7.9615723E-04;  4.0000000E+04;  0.0000000E+00;  3.9998992E+04;  3.2589674E-02;  0.0000000E+00; -1.4784054E-03;  7.2045265E+01;
  2.7146867E-01;  9.9999998E-03;  5.3244992E-10;4123;  9.4687371E-03;  0.0000000E+00;  7.0902564E-09;  9.9904486E+02;  1.0000000E-01; -7.9133563E+02;3;  1.0441229E+00;  0.0000000E+00;  5.6500257E-06;0;  3.1046486E-02;  3.9925465E+04;  0.0000000E+00; -6.5298158E-13;  4.0000000E+04;  0.0000000E+00;  3.9999207E+04;  3.2503545E-02;  0.0000000E+00; -1.4570602E-03;  5.0753170E+01;
  2.7146745E-01;  9.9999998E-03;  9.9996701E-03;4124;  9.4635999E-03;  0.0000000E+00; -2.3674422E-05;  9.9905396E+02;  1.0000000E-01; -7.8378027E+02;3;  1.0438973E+00;  0.0000000E+00; -1.1739350E-02;0;  3.1111274E-02;  3.9926410E+04;  0.0000000E+00;  7.9628825E-04;  4.0000000E+04;  0.0000000E+00;  3.9998992E+04;  3.2589681E-02;  0.0000000E+00; -1.4784073E-03;  7.2038971E+01;
  2.7146491E-01;  9.9999998E-03;  1.9997496E-02;4125;  9.4482098E-03;  0.0000000E+00; -5.0355698E-05;  9.9908105E+02;  1.0000000E-01; -7.6131183E+02;3;  1.0410018E+00;  0.0000000E+00; -2.3084560E-02;0;  3.1297788E-02;  3.9929137E+04;  0.0000000E+00;  3.1842336E-03;  4.0000000E+04;  0.0000000E+00;  3.9998504E+04;  3.2836940E-02;  0.0000000E+00; -1.5391529E-03;  1.3612231E+02;
  2.7146593E-01;  9.9999998E-03;  2.9993497E-02;4126;  9.4226347E-03;  0.0000000E+00; -8.1307080E-05;  9.9912793E+02;  1.0000000E-01; -7.2249811E+02;3;  1.0372734E+00;  0.0000000E+00; -3.3591393E-02;0;  3.1582035E-02;  3.9933633E+04;  0.0000000E+00;  7.0995921E-03;  4.0000000E+04;  0.0000000E+00;  3.9997645E+04;  3.3212353E-02;  0.0000000E+00; -1.6303184E-03;  2.4134004E+02;
  2.7147374E-01;  9.9999998E-03;  3.9989620E-02;4127;  9.3863672E-03;  0.0000000E+00; -1.1775119E-04;  9.9918890E+02;  1.0000000E-01; -6.7198102E+02;3;  1.0320567E+00;  0.0000000E+00; -4.5569420E-02;0;  3.1928603E-02;  3.9939906E+04;  0.0000000E+00;  1.2305168E-02;  4.0000000E+04;  0.0000000E+00;  3.9996504E+04;  3.3668049E-02;  0.0000000E+00; -1.7394447E-03;  3.7946307E+02;
  2.7148908E-01;  9.9999998E-03;  4.9987875E-02;4128;  9.3380492E-03;  0.0000000E+00; -1.5906121E-04;  9.9926685E+02;  1.0000000E-01; -6.0739026E+02;3;  1.0247099E+00;  0.0000000E+00; -5.7671741E-02;0;  3.2292645E-02;  3.9947098E+04;  0.0000000E+00;  1.8378412E-02;  4.0000000E+04;  0.0000000E+00;  3.9995363E+04;  3.4146104E-02;  0.0000000E+00; -1.8534570E-03;  5.3376294E+02;
  2.7150741E-01;  9.9999998E-03;  5.9988890E-02;4129;  9.2772041E-03;  0.0000000E+00; -2.0457491E-04;  9.9935693E+02;  1.0000000E-01; -5.3277509E+02;3;  1.0148546E+00;  0.0000000E+00; -6.9705188E-02;0;  3.2622036E-02;  3.9955426E+04;  0.0000000E+00;  2.4967132E-02;  4.0000000E+04;  0.0000000E+00;  3.9994246E+04;  3.4582913E-02;  0.0000000E+00; -1.9608783E-03;  6.8158527E+02;
  2.8157869E-01;  9.9999998E-03; -9.9995397E-02;4174;  8.9795105E-03;  0.0000000E+00;  3.5165553E-04;  9.9974237E+02;  1.0000000E-01; -2.1342606E+02;3;  9.6605289E-01;  0.0000000E+00;  1.0213885E-01;0;  2.9010877E-02;  3.9986406E+04;  0.0000000E+00;  1.7916989E-02;  4.0000000E+04;  0.0000000E+00;  3.9994742E+04;  3.1335745E-02;  0.0000000E+00; -2.3248678E-03;  6.7927057E+02;
  2.8154826E-01;  9.9999998E-03; -8.9993820E-02;4175;  9.0585453E-03;  0.0000000E+00;  3.1080231E-04;  9.9964490E+02;  1.0000000E-01; -2.9421390E+02;3;  9.8321468E-01;  0.0000000E+00;  9.2505723E-02;0;  2.9212933E-02;  3.9978699E+04;  0.0000000E+00;  4.5952452E-03;  4.0000000E+04;  0.0000000E+00;  3.9994266E+04;  3.1514280E-02;  0.0000000E+00; -2.3013460E-03;  6.7936060E+02;
  2.8152522E-01;  9.9999998E-03; -7.9992674E-02;4176;  9.1347238E-03;  0.0000000E+00;  2.6753964E-04;  9.9952789E+02;  1.0000000E-01; -3.9114944E+02;3;  9.9815512E-01;  0.0000000E+00;  8.2784221E-02;0;  2.9195230E-02;  3.9969195E+04;  0.0000000E+00;  1.2437361E-03;  4.0000000E+04;  0.0000000E+00;  3.9994672E+04;  3.1446423E-02;  0.0000000E+00; -2.2511932E-03;  6.2851697E+02;
  2.8150481E-01;  9.9999998E-03; -6.9993094E-02;4177;  9.2035793E-03;  0.0000000E+00;  2.2287673E-04;  9.9940509E+02;  1.0000000E-01; -4.9287494E+02;3;  1.0120257E+00;  0.0000000E+00;  7.2530970E-02;0;  2.8983729E-02;  3.9958609E+04;  0.0000000E+00;  2.3626646E-03;  4.0000000E+04;  0.0000000E+00;  3.9995289E+04;  3.1161658E-02;  0.0000000E+00; -2.1779290E-03;  5.3236249E+02;
  2.8148904E-01;  9.9999998E-03; -5.9994135E-02;4178;  9.2616752E-03;  0.0000000E+00;  1.7950793E-04;  9.9929010E+02;  1.0000000E-01; -5.8813153E+02;3;  1.0237625E+00;  0.0000000E+00;  6.2233936E-02;0;  2.8623464E-02;  3.9948238E+04;  0.0000000E+00;  4.2918664E-03;  4.0000000E+04;  0.0000000E+00;  3.9996312E+04;  3.0709857E-02;  0.0000000E+00; -2.0863933E-03;  4.0438467E+02;
  2.8148443E-01;  9.9999998E-03; -4.9995020E-02;4179;  9.3081417E-03;  0.0000000E+00;  1.3887126E-04;  9.9918298E+02;  1.0000000E-01; -6.7686975E+02;3;  1.0329858E+00;  0.0000000E+00;  5.2063596E-02;0;  2.8171381E-02;  3.9938516E+04;  0.0000000E+00;  5.2173729E-03;  4.0000000E+04;  0.0000000E+00;  3.9997387E+04;  3.0154137E-02;  0.0000000E+00; -1.9827564E-03;  2.6375616E+02;
  2.8149521E-01;  9.9999998E-03; -3.9996345E-02;4180;  9.3433820E-03;  0.0000000E+00;  1.0235601E-04;  9.9909357E+02;  1.0000000E-01; -7.5094171E+02;3;  1.0405692E+00;  0.0000000E+00;  4.1410573E-02;0;  2.7689815E-02;  3.9930336E+04;  0.0000000E+00;  4.7614891E-03;  4.0000000E+04;  0.0000000E+00;  3.9998113E+04;  2.9564960E-02;  0.0000000E+00; -1.8751461E-03;  1.3085397E+02;
  2.8151482E-01;  9.9999998E-03; -2.9998692E-02;4181;  9.3679456E-03;  0.0000000E+00;  7.0801390E-05;  9.9901819E+02;  1.0000000E-01; -8.1340912E+02;3;  1.0461212E+00;  0.0000000E+00;  3.0897198E-02;0;  2.7241288E-02;  3.9923527E+04;  0.0000000E+00;  3.3612445E-03;  4.0000000E+04;  0.0000000E+00;  3.9998840E+04;  2.9015131E-02;  0.0000000E+00; -1.7738441E-03;  2.2222614E+01;
  2.8153378E-01;  9.9999998E-03; -2.0001324E-02;4182;  9.3838694E-03;  0.0000000E+00;  4.3435575E-05;  9.9896423E+02;  1.0000000E-01; -8.5809918E+02;3;  1.0495018E+00;  0.0000000E+00;  2.0534882E-02;0;  2.6880084E-02;  3.9918664E+04;  0.0000000E+00;  1.7179630E-03;  4.0000000E+04;  0.0000000E+00;  3.9999422E+04;  2.8570345E-02;  0.0000000E+00; -1.6902613E-03;  5.4863029E+01;
  2.8154621E-01;  9.9999998E-03; -1.0002173E-02;4183;  9.3944008E-03;  0.0000000E+00;  2.0626721E-05;  9.9893219E+02;  1.0000000E-01; -8.8466632E+02;3;  1.0520698E+00;  0.0000000E+00;  1.0236741E-02;0;  2.6646852E-02;  3.9915719E+04;  0.0000000E+00;  4.6294296E-04;  4.0000000E+04;  0.0000000E+00;  3.9999984E+04;  2.8281860E-02;  0.0000000E+00; -1.6350081E-03;  9.7991951E+01;
  2.8155065E-01;  9.9999998E-03;  7.9484863E-10;4184;  9.3978513E-03;  0.0000000E+00;  7.0591155E-09;  9.9891949E+02;  1.0000000E-01; -8.9518457E+02;3;  1.0529406E+00;  0.0000000E+00;  7.5566213E-06;0;  2.6566202E-02;  3.9914789E+04;  0.0000000E+00;  8.2958201E-13;  4.0000000E+04;  0.0000000E+00;  3.9999941E+04;  2.8181873E-02;  0.0000000E+00; -1.6156723E-03;  1.1165257E+02;
  2.8154621E-01;  9.9999998E-03;  1.0002174E-02;4185;  9.3944008E-03;  0.0000000E+00; -2.0612022E-05;  9.9893219E+02;  1.0000000E-01; -8.8466632E+02;3;  1.0520828E+00;  0.0000000E+00; -1.0214799E-02;0;  2.6646849E-02;  3.9915727E+04;  0.0000000E+00;  4.6319229E-04;  4.0000000E+04;  0.0000000E+00;  3.9999984E+04;  2.8281858E-02;  0.0000000E+00; -1.6350092E-03;  9.7996338E+01;
  2.8153375E-01;  9.9999998E-03;  2.0001326E-02;4186;  9.3838694E-03;  0.0000000E+00; -4.3421569E-05;  9.9896429E+02;  1.0000000E-01; -8.5804980E+02;3;  1.0495058E+00;  0.0000000E+00; -2.0523677E-02;0;  2.6880067E-02;  3.9918664E+04;  0.0000000E+00;  1.7184967E-03;  4.0000000E+04;  0.0000000E+00;  3.9999422E+04;  2.8570330E-02;  0.0000000E+00; -1.6902627E-03;  5.4872131E+01;
  2.8151482E-01;  9.9999998E-03;  2.9998692E-02;4187;  9.3679456E-03;  0.0000000E+00; -7.0786344E-05;  9.9901813E+02;  1.0000000E-01; -8.1345850E+02;3;  1.0461138E+00;  0.0000000E+00; -3.0869171E-02;0;  2.7241267E-02;  3.9923527E+04;  0.0000000E+00;  3.3623124E-03;  4.0000000E+04;  0.0000000E+00;  3.9998840E+04;  2.9015113E-02;  0.0000000E+00; -1.7738463E-03;  2.2202372E+01;
  2.8149521E-01;  9.9999998E-03;  3.9996345E-02;4188;  9.3433829E-03;  0.0000000E+00; -1.0234229E-04;  9.9909351E+02;  1.0000000E-01; -7.5099109E+02;3;  1.0405608E+00;  0.0000000E+00; -4.1398853E-02;0;  2.7689833E-02;  3.9930336E+04;  0.0000000E+00;  4.7631608E-03;  4.0000000E+04;  0.0000000E+00;  3.9998113E+04;  2.9564984E-02;  0.0000000E+00; -1.8751512E-03;  1.3084050E+02;
  2.8148443E-01;  9.9999998E-03;  4.9995020E-02;4189;  9.3081435E-03;  0.0000000E+00; -1.3885759E-04;  9.9918298E+02;  1.0000000E-01; -6.7686975E+02;3;  1.0329858E+00;  0.0000000E+00; -5.2038196E-02;0;  2.8171396E-02;  3.9938512E+04;  0.0000000E+00;  5.2184160E-03;  4.0000000E+04;  0.0000000E+00;  3.9997391E+04;  3.0154154E-02;  0.0000000E+00; -1.9827583E-03;  2.6374597E+02;
  2.8148904E-01;  9.9999998E-03;  5.9994135E-02;4190;  9.2616780E-03;  0.0000000E+00; -1.7949349E-04;  9.9929010E+02;  1.0000000E-01; -5.8813153E+02;3;  1.0237702E+00;  0.0000000E+00; -6.2225055E-02;0;  2.8623408E-02;  3.9948242E+04;  0.0000000E+00;  4.2924155E-03;  4.0000000E+04;  0.0000000E+00;  3.9996312E+04;  3.0709805E-02;  0.0000000E+00; -2.0863966E-03;  4.0438739E+02;
  2.9153860E-01;  9.9999998E-03; -9.9998273E-02;4235;  8.9726420E-03;  0.0000000E+00;  3.1026057E-04;  9.9980048E+02;  1.0000000E-01; -1.6527928E+02;3;  9.7263885E-01;  0.0000000E+00;  8.7745912E-02;0;  2.6127202E-02;  3.9990641E+04;  0.0000000E+00; -4.6586424E-02;  4.0000000E+04;  0.0000000E+00;  3.9995582E+04;  2.8538965E-02;  0.0000000E+00; -2.4117623E-03;  5.3313898E+02;
  2.9151857E-01;  9.9999998E-03; -8.9997396E-02;4236;  9.0474989E-03;  0.0000000E+00;  2.7149686E-04;  9.9967493E+02;  1.0000000E-01; -2.6932571E+02;3;  9.9051642E-01;  0.0000000E+00;  7.9923160E-02;0;  2.6215952E-02;  3.9980559E+04;  0.0000000E+00; -4.4551130E-02;  4.0000000E+04;  0.0000000E+00;  3.9995758E+04;  2.8596761E-02;  0.0000000E+00; -2.3808081E-03;  4.9896429E+02;
  2.9151005E-01;  9.9999998E-03; -7.9997487E-02;4237;  9.1151716E-03;  0.0000000E+00;  2.3143232E-04;  9.9954108E+02;  1.0000000E-01; -3.8018677E+02;3;  1.0049449E+00;  0.0000000E+00;  7.1716659E-02;0;  2.6093932E-02;  3.9968914E+04;  0.0000000E+00; -3.4693543E-02;  4.0000000E+04;  0.0000000E+00;  3.9996238E+04;  2.8420176E-02;  0.0000000E+00; -2.3262452E-03;  4.1530576E+02;
  2.9151827E-01;  9.9999998E-03; -6.9996513E-02;4238;  9.1730356E-03;  0.0000000E+00;  1.9113015E-04;  9.9940649E+02;  1.0000000E-01; -4.9168979E+02;3;  1.0191091E+00;  0.0000000E+00;  6.3016482E-02;0;  2.5783449E-02;  3.9956953E+04;  0.0000000E+00; -2.2580344E-02;  4.0000000E+04;  0.0000000E+00;  3.9997270E+04;  2.8035555E-02;  0.0000000E+00; -2.2521061E-03;  2.9766254E+02;
  2.9153711E-01;  9.9999998E-03; -5.9995238E-02;4239;  9.2185717E-03;  0.0000000E+00;  1.5264603E-04;  9.9927789E+02;  1.0000000E-01; -5.9825470E+02;3;  1.0298964E+00;  0.0000000E+00;  5.4433156E-02;0;  2.5331920E-02;  3.9945797E+04;  0.0000000E+00; -1.1882680E-02;  4.0000000E+04;  0.0000000E+00;  3.9998188E+04;  2.7495103E-02;  0.0000000E+00; -2.1631822E-03;  1.6537651E+02;
  2.9155439E-01;  9.9999998E-03; -4.9995802E-02;4240;  9.2533277E-03;  0.0000000E+00;  1.1732505E-04;  9.9916412E+02;  1.0000000E-01; -6.9252362E+02;3;  1.0396045E+00;  0.0000000E+00;  4.5536406E-02;0;  2.4802856E-02;  3.9935594E+04;  0.0000000E+00; -4.3837121E-03;  4.0000000E+04;  0.0000000E+00;  3.9999141E+04;  2.6867922E-02;  0.0000000E+00; -2.0650655E-03;  3.8319000E+01;
  2.9156604E-01;  9.9999998E-03; -3.9998386E-02;4241;  9.2777973E-03;  0.0000000E+00;  8.6295069E-05;  9.9907013E+02;  1.0000000E-01; -7.7039795E+02;3;  1.0468856E+00;  0.0000000E+00;  3.6773551E-02;0;  2.4262317E-02;  3.9927066E+04;  0.0000000E+00; -3.1298687E-04;  4.0000000E+04;  0.0000000E+00;  4.0000180E+04;  2.6227301E-02;  0.0000000E+00; -1.9649838E-03;  6.7652664E+01;
  2.9157686E-01;  9.9999998E-03; -3.0001698E-02;4242;  9.2933476E-03;  0.0000000E+00;  5.9400765E-05;  9.9899402E+02;  1.0000000E-01; -8.3345789E+02;3;  1.0526822E+00;  0.0000000E+00;  2.7414441E-02;0;  2.3770263E-02;  3.9920383E+04;  0.0000000E+00;  1.0751457E-03;  4.0000000E+04;  0.0000000E+00;  4.0000418E+04;  2.5642311E-02;  0.0000000E+00; -1.8720471E-03;  1.4296324E+02;
  2.9158941E-01;  9.9999998E-03; -2.0004153E-02;4243;  9.3027661E-03;  0.0000000E+00;  3.6797406E-05;  9.9893927E+02;  1.0000000E-01; -8.7878998E+02;3;  1.0562365E+00;  0.0000000E+00;  1.8386558E-02;0;  2.3377724E-02;  3.9915793E+04;  0.0000000E+00;  9.1374718E-04;  4.0000000E+04;  0.0000000E+00;  4.0000820E+04;  2.5173923E-02;  0.0000000E+00; -1.7961990E-03;  1.8771938E+02;
  2.9159993E-01;  9.9999998E-03; -1.0004142E-02;4244;  9.3077831E-03;  0.0000000E+00;  1.7567198E-05;  9.9890540E+02;  1.0000000E-01; -9.0683856E+02;3;  1.0584546E+00;  0.0000000E+00;  9.3306778E-03;0;  2.3124907E-02;  3.9912922E+04;  0.0000000E+00;  2.9782171E-04;  4.0000000E+04;  0.0000000E+00;  4.0000883E+04;  2.4871368E-02;  0.0000000E+00; -1.7464602E-03;  2.0854918E+02;
  2.9160416E-01;  9.9999998E-03;  9.9480546E-10;4245;  9.3093039E-03;  0.0000000E+00;  6.7654851E-09;  9.9889386E+02;  1.0000000E-01; -9.1641852E+02;3;  1.0595753E+00;  0.0000000E+00;  7.7552295E-06;0;  2.3037659E-02;  3.9912000E+04;  0.0000000E+00;  3.6150043E-13;  4.0000000E+04;  0.0000000E+00;  4.0000902E+04;  2.4766779E-02;  0.0000000E+00; -1.7291197E-03;  2.1411194E+02;
  2.9159993E-01;  9.9999998E-03;  1.0004144E-02;4246;  9.3077822E-03;  0.0000000E+00; -1.7553359E-05;  9.9890540E+02;  1.0000000E-01; -9.0683856E+02;3;  1.0584631E+00;  0.0000000E+00; -9.3248421E-03;0;  2.3124874E-02;  3.9912922E+04;  0.0000000E+00;  2.9822395E-04;  4.0000000E+04;  0.0000000E+00;  4.0000883E+04;  2.4871333E-02;  0.0000000E+00; -1.7464588E-03;  2.0855405E+02;
  2.9158941E-01;  9.9999998E-03;  2.0004153E-02;4247;  9.3027642E-03;  0.0000000E+00; -3.6783433E-05;  9.9893921E+02;  1.0000000E-01; -8.7883936E+02;3;  1.0562283E+00;  0.0000000E+00; -1.8378172E-02;0;  2.3377663E-02;  3.9915793E+04;  0.0000000E+00;  9.1445260E-04;  4.0000000E+04;  0.0000000E+00;  4.0000820E+04;  2.5173863E-02;  0.0000000E+00; -1.7962009E-03;  1.8772388E+02;
  2.9157686E-01;  9.9999998E-03;  3.0001700E-02;4248;  9.2933467E-03;  0.0000000E+00; -5.9386519E-05;  9.9899402E+02;  1.0000000E-01; -8.3345789E+02;3;  1.0526637E+00;  0.0000000E+00; -2.7396806E-02;0;  2.3770219E-02;  3.9920383E+04;  0.0000000E+00;  1.0762670E-03;  4.0000000E+04;  0.0000000E+00;  4.0000418E+04;  2.5642266E-02;  0.0000000E+00; -1.8720472E-03;  1.4297632E+02;
  2.9156604E-01;  9.9999998E-03;  3.9998386E-02;4249;  9.2777973E-03;  0.0000000E+00; -8.6280321E-05;  9.9907013E+02;  1.0000000E-01; -7.7039795E+02;3;  1.0468836E+00;  0.0000000E+00; -3.6758125E-02;0;  2.4262324E-02;  3.9927066E+04;  0.0000000E+00; -3.1156847E-04;  4.0000000E+04;  0.0000000E+00;  4.0000176E+04;  2.6227308E-02;  0.0000000E+00; -1.9649842E-03;  6.7665222E+01;
  2.9155439E-01;  9.9999998E-03;  4.9995802E-02;4250;  9.2533296E-03;  0.0000000E+00; -1.1730960E-04;  9.9916400E+02;  1.0000000E-01; -6.9262238E+02;3;  1.0396086E+00;  0.0000000E+00; -4.5516726E-02;0;  2.4802804E-02;  3.9935594E+04;  0.0000000E+00; -4.3832692E-03;  4.0000000E+04;  0.0000000E+00;  3.9999141E+04;  2.6867870E-02;  0.0000000E+00; -2.0650669E-03;  3.8314320E+01;
  2.9153711E-01;  9.9999998E-03;  5.9995238E-02;4251;  9.2185754E-03;  0.0000000E+00; -1.5263134E-04;  9.9927783E+02;  1.0000000E-01; -5.9830408E+02;3;  1.0299009E+00;  0.0000000E+00; -5.4410946E-02;0;  2.5331886E-02;  3.9945797E+04;  0.0000000E+00; -1.1882567E-02;  4.0000000E+04;  0.0000000E+00;  3.9998188E+04;  2.7495069E-02;  0.0000000E+00; -2.1631832E-03;  1.6536818E+02;
  3.0151144E-01;  9.9999998E-03; -1.0000193E-01;4296;  8.9541245E-03;  0.0000000E+00;  2.6515656E-04;  9.9986017E+02;  1.0000000E-01; -1.1584857E+02;3;  9.7630244E-01;  0.0000000E+00;  7.3378108E-02;0;  2.4465859E-02;  3.9994750E+04;  0.0000000E+00; -9.6498609E-02;  4.0000000E+04;  0.0000000E+00;  3.9996324E+04;  2.6923519E-02;  0.0000000E+00; -2.4576597E-03;  4.3756763E+02;
  3.0152175E-01;  9.9999998E-03; -8.9996830E-02;4297;  9.0234485E-03;  0.0000000E+00;  2.2940805E-04;  9.9972552E+02;  1.0000000E-01; -2.2740097E+02;3;  9.9529165E-01;  0.0000000E+00;  6.7002743E-02;0;  2.4461906E-02;  3.9983254E+04;  0.0000000E+00; -7.9326019E-02;  4.0000000E+04;  0.0000000E+00;  3.9997035E+04;  2.6882354E-02;  0.0000000E+00; -2.4204471E-03;  3.6240924E+02;
  3.0153927E-01;  9.9999998E-03; -7.9992913E-02;4298;  9.0823919E-03;  0.0000000E+00;  1.9353429E-04;  9.9958423E+02;  1.0000000E-01; -3.4443469E+02;3;  1.0101928E+00;  0.0000000E+00;  6.0154315E-02;0;  2.4266003E-02;  3.9971289E+04;  0.0000000E+00; -5.7663005E-02;  4.0000000E+04;  0.0000000E+00;  3.9997914E+04;  2.6629299E-02;  0.0000000E+00; -2.3632962E-03;  2.4736418E+02;
  3.0155674E-01;  9.9999998E-03; -6.9992401E-02;4299;  9.1298474E-03;  0.0000000E+00;  1.5864731E-04;  9.9944812E+02;  1.0000000E-01; -4.5722165E+02;3;  1.0238037E+00;  0.0000000E+00;  5.3124789E-02;0;  2.3902331E-02;  3.9959508E+04;  0.0000000E+00; -3.6734208E-02;  4.0000000E+04;  0.0000000E+00;  3.9999129E+04;  2.6192706E-02;  0.0000000E+00; -2.2903753E-03;  1.1526503E+02;
  3.0158082E-01;  9.9999998E-03; -5.9994213E-02;4300;  9.1648856E-03;  0.0000000E+00;  1.2583475E-04;  9.9932715E+02;  1.0000000E-01; -5.5746570E+02;3;  1.0346453E+00;  0.0000000E+00;  4.5929007E-02;0;  2.3414828E-02;  3.9948426E+04;  0.0000000E+00; -1.9768117E-02;  4.0000000E+04;  0.0000000E+00;  3.9999859E+04;  2.5620990E-02;  0.0000000E+00; -2.2061621E-03;  3.7428921E+01;
  3.0161062E-01;  9.9999998E-03; -4.9996786E-02;4301;  9.1893785E-03;  0.0000000E+00;  9.6636926E-05;  9.9922150E+02;  1.0000000E-01; -6.4496942E+02;3;  1.0438455E+00;  0.0000000E+00;  3.8477067E-02;0;  2.2861365E-02;  3.9939094E+04;  0.0000000E+00; -8.1163794E-03;  4.0000000E+04;  0.0000000E+00;  4.0000664E+04;  2.4976952E-02;  0.0000000E+00; -2.1155861E-03;  1.3265857E+02;
  3.0163988E-01;  9.9999998E-03; -4.0000141E-02;4302;  9.2043458E-03;  0.0000000E+00;  7.0972666E-05;  9.9913232E+02;  1.0000000E-01; -7.1884387E+02;3;  1.0518111E+00;  0.0000000E+00;  3.1170869E-02;0;  2.2304501E-02;  3.9931305E+04;  0.0000000E+00; -1.6162929E-03;  4.0000000E+04;  0.0000000E+00;  4.0001121E+04;  2.4329448E-02;  0.0000000E+00; -2.0249467E-03;  2.0645041E+02;
  3.0166247E-01;  9.9999998E-03; -3.0003430E-02;4303;  9.2124632E-03;  0.0000000E+00;  4.9012793E-05;  9.9906152E+02;  1.0000000E-01; -7.7750885E+02;3;  1.0574054E+00;  0.0000000E+00;  2.3652814E-02;0;  2.1803282E-02;  3.9925504E+04;  0.0000000E+00;  8.9422445E-04;  4.0000000E+04;  0.0000000E+00;  4.0001328E+04;  2.3745285E-02;  0.0000000E+00; -1.9420036E-03;  2.4638115E+02;
  3.0167681E-01;  9.9999998E-03; -2.0005239E-02;4304;  9.2162555E-03;  0.0000000E+00;  3.0510180E-05;  9.9901404E+02;  1.0000000E-01; -8.1686578E+02;3;  1.0616051E+00;  0.0000000E+00;  1.5969327E-02;0;  2.1407338E-02;  3.9921363E+04;  0.0000000E+00;  1.0307073E-03;  4.0000000E+04;  0.0000000E+00;  4.0001570E+04;  2.3282353E-02;  0.0000000E+00; -1.8750156E-03;  2.5940720E+02;
  3.0168456E-01;  9.9999998E-03; -1.0004356E-02;4305;  9.2177633E-03;  0.0000000E+00;  1.4553238E-05;  9.9898425E+02;  1.0000000E-01; -8.4150708E+02;3;  1.0645527E+00;  0.0000000E+00;  8.0824476E-03;0;  2.1154197E-02;  3.9918945E+04;  0.0000000E+00;  3.5934601E-04;  4.0000000E+04;  0.0000000E+00;  4.0001508E+04;  2.2985581E-02;  0.0000000E+00; -1.8313838E-03;  2.5856369E+02;
  3.0168700E-01;  9.9999998E-03;  1.0597593E-09;4306;  9.2181405E-03;  0.0000000E+00;  6.5074217E-09;  9.9897388E+02;  1.0000000E-01; -8.5009943E+02;3;  1.0655658E+00;  0.0000000E+00;  6.1523124E-06;0;  2.1067129E-02;  3.9918094E+04;  0.0000000E+00;  1.0107682E-12;  4.0000000E+04;  0.0000000E+00;  4.0001453E+04;  2.2883352E-02;  0.0000000E+00; -1.8162224E-03;  2.5648151E+02;
  3.0168456E-01;  9.9999998E-03;  1.0004357E-02;4307;  9.2177633E-03;  0.0000000E+00; -1.4540077E-05;  9.9898425E+02;  1.0000000E-01; -8.4150708E+02;3;  1.0645509E+00;  0.0000000E+00; -8.0741718E-03;0;  2.1154195E-02;  3.9918941E+04;  0.0000000E+00;  3.5960958E-04;  4.0000000E+04;  0.0000000E+00;  4.0001508E+04;  2.2985576E-02;  0.0000000E+00; -1.8313810E-03;  2.5857166E+02;
  3.0167681E-01;  9.9999998E-03;  2.0005241E-02;4308;  9.2162546E-03;  0.0000000E+00; -3.0496038E-05;  9.9901404E+02;  1.0000000E-01; -8.1686578E+02;3;  1.0615960E+00;  0.0000000E+00; -1.5967295E-02;0;  2.1407347E-02;  3.9921363E+04;  0.0000000E+00;  1.0312992E-03;  4.0000000E+04;  0.0000000E+00;  4.0001570E+04;  2.3282362E-02;  0.0000000E+00; -1.8750153E-03;  2.5942642E+02;
  3.0166247E-01;  9.9999998E-03;  3.0003432E-02;4309;  9.2124622E-03;  0.0000000E+00; -4.8998143E-05;  9.9906152E+02;  1.0000000E-01; -7.7750885E+02;3;  1.0573980E+00;  0.0000000E+00; -2.3635818E-02;0;  2.1803226E-02;  3.9925504E+04;  0.0000000E+00;  8.9478079E-04;  4.0000000E+04;  0.0000000E+00;  4.0001328E+04;  2.3745228E-02;  0.0000000E+00; -1.9420009E-03;  2.4639464E+02;
  3.0163988E-01;  9.9999998E-03;  4.0000141E-02;4310;  9.2043458E-03;  0.0000000E+00; -7.0957911E-05;  9.9913226E+02;  1.0000000E-01; -7.1889325E+02;3;  1.0518157E+00;  0.0000000E+00; -3.1160228E-02;0;  2.2304453E-02;  3.9931309E+04;  0.0000000E+00; -1.6155399E-03;  4.0000000E+04;  0.0000000E+00;  4.0001121E+04;  2.4329398E-02;  0.0000000E+00; -2.0249444E-03;  2.0646010E+02;
  3.0161062E-01;  9.9999998E-03;  4.9996786E-02;4311;  9.1893803E-03;  0.0000000E+00; -9.6622709E-05;  9.9922137E+02;  1.0000000E-01; -6.4506818E+02;3;  1.0438420E+00;  0.0000000E+00; -3.8454663E-02;0;  2.2861339E-02;  3.9939090E+04;  0.0000000E+00; -8.1161475E-03;  4.0000000E+04;  0.0000000E+00;  4.0000664E+04;  2.4976920E-02;  0.0000000E+00; -2.1155817E-03;  1.3265663E+02;
  3.0158082E-01;  9.9999998E-03;  5.9994213E-02;4312;  9.1648875E-03;  0.0000000E+00; -1.2582046E-04;  9.9932715E+02;  1.0000000E-01; -5.5746570E+02;3;  1.0346560E+00;  0.0000000E+00; -4.5904338E-02;0;  2.3414800E-02;  3.9948418E+04;  0.0000000E+00; -1.9767171E-02;  4.0000000E+04;  0.0000000E+00;  3.9999859E+04;  2.5620958E-02;  0.0000000E+00; -2.2061579E-03;  3.7426739E+01;
  3.1151745E-01;  9.9999998E-03; -9.9994935E-02;4357;  8.9336419E-03;  0.0000000E+00;  2.1695692E-04;  9.9991370E+02;  1.0000000E-01; -7.1504150E+01;3;  9.7917813E-01;  0.0000000E+00;  5.9021022E-02;0;  2.4425047E-02;  3.9998613E+04;  0.0000000E+00; -1.2406740E-01;  4.0000000E+04;  0.0000000E+00;  3.9997449E+04;  2.6907410E-02;  0.0000000E+00; -2.4823647E-03;  3.7569586E+02;
  3.1155506E-01;  9.9999998E-03; -8.9989789E-02;4358;  8.9966087E-03;  0.0000000E+00;  1.8546097E-04;  9.9978412E+02;  1.0000000E-01; -1.7885915E+02;3;  9.9863023E-01;  0.0000000E+00;  5.3591810E-02;0;  2.4370687E-02;  3.9987551E+04;  0.0000000E+00; -9.4444551E-02;  4.0000000E+04;  0.0000000E+00;  3.9998570E+04;  2.6811464E-02;  0.0000000E+00; -2.4407762E-03;  2.6281363E+02;
  3.1159806E-01;  9.9999998E-03; -7.9987526E-02;4359;  9.0469103E-03;  0.0000000E+00;  1.5496672E-04;  9.9966125E+02;  1.0000000E-01; -2.8063403E+02;3;  1.0139960E+00;  0.0000000E+00;  4.8299856E-02;0;  2.4146773E-02;  3.9976301E+04;  0.0000000E+00; -6.4404368E-02;  4.0000000E+04;  0.0000000E+00;  3.9999398E+04;  2.6530283E-02;  0.0000000E+00; -2.3835092E-03;  1.2977579E+02;
  3.1163767E-01;  9.9999998E-03; -6.9988772E-02;4360;  9.0843253E-03;  0.0000000E+00;  1.2613827E-04;  9.9954480E+02;  1.0000000E-01; -3.7712512E+02;3;  1.0276215E+00;  0.0000000E+00;  4.2784732E-02;0;  2.3775272E-02;  3.9965738E+04;  0.0000000E+00; -3.8310725E-02;  4.0000000E+04;  0.0000000E+00;  4.0000055E+04;  2.6089821E-02;  0.0000000E+00; -2.3145492E-03;  7.0394882E+01;
  3.1166804E-01;  9.9999998E-03; -5.9992719E-02;4361;  9.1097122E-03;  0.0000000E+00;  9.9898520E-05;  9.9944037E+02;  1.0000000E-01; -4.6364120E+02;3;  1.0386490E+00;  0.0000000E+00;  3.6665212E-02;0;  2.3297865E-02;  3.9956648E+04;  0.0000000E+00; -1.8569952E-02;  4.0000000E+04;  0.0000000E+00;  4.0000879E+04;  2.5535557E-02;  0.0000000E+00; -2.2376929E-03;  1.6463132E+02;
  3.1168795E-01;  9.9999998E-03; -4.9998462E-02;4362;  9.1246609E-03;  0.0000000E+00;  7.6837037E-05;  9.9935065E+02;  1.0000000E-01; -5.3796008E+02;3;  1.0483398E+00;  0.0000000E+00;  3.0982938E-02;0;  2.2767432E-02;  3.9948625E+04;  0.0000000E+00; -5.8217584E-03;  4.0000000E+04;  0.0000000E+00;  4.0001539E+04;  2.4924472E-02;  0.0000000E+00; -2.1570404E-03;  2.4513316E+02;
  3.1170049E-01;  9.9999998E-03; -4.0004212E-02;4363;  9.1311866E-03;  0.0000000E+00;  5.6776411E-05;  9.9927753E+02;  1.0000000E-01; -5.9855096E+02;3;  1.0560586E+00;  0.0000000E+00;  2.5103811E-02;0;  2.2240199E-02;  3.9942516E+04;  0.0000000E+00;  6.8223197E-04;  4.0000000E+04;  0.0000000E+00;  4.0001898E+04;  2.4318052E-02;  0.0000000E+00; -2.0778533E-03;  2.8654697E+02;
  3.1170845E-01;  9.9999998E-03; -3.0008081E-02;4364;  9.1322828E-03;  0.0000000E+00;  3.9610270E-05;  9.9922223E+02;  1.0000000E-01; -6.4437683E+02;3;  1.0615023E+00;  0.0000000E+00;  1.8783882E-02;0;  2.1768633E-02;  3.9937867E+04;  0.0000000E+00;  2.5874670E-03;  4.0000000E+04;  0.0000000E+00;  4.0001621E+04;  2.3775119E-02;  0.0000000E+00; -2.0064870E-03;  2.9234677E+02;
  3.1171378E-01;  9.9999998E-03; -2.0008886E-02;4365;  9.1306949E-03;  0.0000000E+00;  2.4897110E-05;  9.9918451E+02;  1.0000000E-01; -6.7563519E+02;3;  1.0654714E+00;  0.0000000E+00;  1.2503699E-02;0;  2.1397473E-02;  3.9934578E+04;  0.0000000E+00;  1.9236229E-03;  4.0000000E+04;  0.0000000E+00;  4.0001652E+04;  2.3347009E-02;  0.0000000E+00; -1.9495353E-03;  2.7630927E+02;
  3.1171739E-01;  9.9999998E-03; -1.0006203E-02;4366;  9.1286739E-03;  0.0000000E+00;  1.1957904E-05;  9.9915991E+02;  1.0000000E-01; -6.9598029E+02;3;  1.0678859E+00;  0.0000000E+00;  6.3254363E-03;0;  2.1160614E-02;  3.9932902E+04;  0.0000000E+00;  6.0540251E-04;  4.0000000E+04;  0.0000000E+00;  4.0001375E+04;  2.3073357E-02;  0.0000000E+00; -1.9127420E-03;  2.5625769E+02;
  3.1171894E-01;  9.9999998E-03;  1.1932679E-09;4367;  9.1278180E-03;  0.0000000E+00;  6.2984333E-09;  9.9914984E+02;  1.0000000E-01; -7.0432574E+02;3;  1.0683701E+00;  0.0000000E+00;  6.2524869E-06;0;  2.1079294E-02;  3.9932367E+04;  0.0000000E+00;  4.3357391E-13;  4.0000000E+04;  0.0000000E+00;  4.0001637E+04;  2.2979312E-02;  0.0000000E+00; -1.9000166E-03;  2.4753125E+02;
  3.1171739E-01;  9.9999998E-03;  1.0006205E-02;4368;  9.1286730E-03;  0.0000000E+00; -1.1945190E-05;  9.9915985E+02;  1.0000000E-01; -6.9602972E+02;3;  1.0678836E+00;  0.0000000E+00; -6.3138148E-03;0;  2.1160619E-02;  3.9932902E+04;  0.0000000E+00;  6.0559978E-04;  4.0000000E+04;  0.0000000E+00;  4.0001375E+04;  2.3073358E-02;  0.0000000E+00; -1.9127391E-03;  2.5626248E+02;
  3.1171378E-01;  9.9999998E-03;  2.0008888E-02;4369;  9.1306940E-03;  0.0000000E+00; -2.4884144E-05;  9.9918457E+02;  1.0000000E-01; -6.7558582E+02;3;  1.0654600E+00;  0.0000000E+00; -1.2499681E-02;0;  2.1397419E-02;  3.9934582E+04;  0.0000000E+00;  1.9239744E-03;  4.0000000E+04;  0.0000000E+00;  4.0001652E+04;  2.3346951E-02;  0.0000000E+00; -1.9495322E-03;  2.7631537E+02;
  3.1170845E-01;  9.9999998E-03;  3.0008083E-02;4370;  9.1322819E-03;  0.0000000E+00; -3.9596533E-05;  9.9922223E+02;  1.0000000E-01; -6.4437683E+02;3;  1.0614913E+00;  0.0000000E+00; -1.8772431E-02;0;  2.1768592E-02;  3.9937867E+04;  0.0000000E+00;  2.5877240E-03;  4.0000000E+04;  0.0000000E+00;  4.0001621E+04;  2.3775075E-02;  0.0000000E+00; -2.0064816E-03;  2.9236145E+02;
  3.1170049E-01;  9.9999998E-03;  4.0004212E-02;4371;  9.1311857E-03;  0.0000000E+00; -5.6761612E-05;  9.9927759E+02;  1.0000000E-01; -5.9850159E+02;3;  1.0560454E+00;  0.0000000E+00; -2.5086055E-02;0;  2.2240154E-02;  3.9942516E+04;  0.0000000E+00;  6.8226532E-04;  4.0000000E+04;  0.0000000E+00;  4.0001898E+04;  2.4317998E-02;  0.0000000E+00; -2.0778435E-03;  2.8655838E+02;
  3.1168795E-01;  9.9999998E-03;  4.9998466E-02;4372;  9.1246609E-03;  0.0000000E+00; -7.6822587E-05;  9.9935059E+02;  1.0000000E-01; -5.3800946E+02;3;  1.0483340E+00;  0.0000000E+00; -3.0961841E-02;0;  2.2767382E-02;  3.9948625E+04;  0.0000000E+00; -5.8212350E-03;  4.0000000E+04;  0.0000000E+00;  4.0001539E+04;  2.4924416E-02;  0.0000000E+00; -2.1570337E-03;  2.4513716E+02;
  3.1166804E-01;  9.9999998E-03;  5.9992723E-02;4373;  9.1097150E-03;  0.0000000E+00; -9.9883866E-05;  9.9944043E+02;  1.0000000E-01; -4.6359183E+02;3;  1.0386454E+00;  0.0000000E+00; -3.6637481E-02;0;  2.3297777E-02;  3.9956641E+04;  0.0000000E+00; -1.8569393E-02;  4.0000000E+04;  0.0000000E+00;  4.0000879E+04;  2.5535464E-02;  0.0000000E+00; -2.2376874E-03;  1.6464685E+02;
  3.2176033E-01;  9.9999998E-03; -1.0005294E-02;4427;  9.0480447E-03;  0.0000000E+00;  9.8447654E-06;  9.9940729E+02;  1.0000000E-01; -4.9104785E+02;3;  1.0739154E+00;  0.0000000E+00;  4.6154382E-03;0;  2.3303080E-02;  3.9953348E+04;  0.0000000E+00;  9.3990035E-04;  4.0000000E+04;  0.0000000E+00;  4.0001078E+04;  2.5319768E-02;  0.0000000E+00; -2.0166871E-03;  2.1732631E+02;
  3.2176051E-01;  9.9999998E-03;  1.2009924E-09;4428;  9.0462947E-03;  0.0000000E+00;  5.6122276E-09;  9.9940326E+02;  1.0000000E-01; -4.9440576E+02;3;  1.0748731E+00;  0.0000000E+00; -2.0769278E-06;0;  2.3232825E-02;  3.9953062E+04;  0.0000000E+00;  1.5804443E-12;  4.0000000E+04;  0.0000000E+00;  4.0001090E+04;  2.5239507E-02;  0.0000000E+00; -2.0066821E-03;  2.0360799E+02;
  3.2176033E-01;  9.9999998E-03;  1.0005297E-02;4429;  9.0480447E-03;  0.0000000E+00; -9.8331857E-06;  9.9940729E+02;  1.0000000E-01; -4.9104785E+02;3;  1.0739163E+00;  0.0000000E+00; -4.6165055E-03;0;  2.3303093E-02;  3.9953348E+04;  0.0000000E+00;  9.3995314E-04;  4.0000000E+04;  0.0000000E+00;  4.0001078E+04;  2.5319777E-02;  0.0000000E+00; -2.0166847E-03;  2.1733134E+02;
  3.2175949E-01;  9.9999998E-03; -2.0008331E-02;4426;  9.0528028E-03;  0.0000000E+00;  2.0121064E-05;  9.9942444E+02;  1.0000000E-01; -4.7682602E+02;3;  1.0713764E+00;  0.0000000E+00;  9.4438428E-03;0;  2.3507826E-02;  3.9954355E+04;  0.0000000E+00;  3.2317392E-03;  4.0000000E+04;  0.0000000E+00;  4.0001457E+04;  2.5553582E-02;  0.0000000E+00; -2.0457555E-03;  2.5222212E+02;
  3.2175949E-01;  9.9999998E-03;  2.0008333E-02;4430;  9.0528019E-03;  0.0000000E+00; -2.0109115E-05;  9.9942444E+02;  1.0000000E-01; -4.7682602E+02;3;  1.0713599E+00;  0.0000000E+00; -9.4422447E-03;0;  2.3507757E-02;  3.9954355E+04;  0.0000000E+00;  3.2319366E-03;  4.0000000E+04;  0.0000000E+00;  4.0001457E+04;  2.5553504E-02;  0.0000000E+00; -2.0457476E-03;  2.5222282E+02;
  3.2175633E-01;  9.9999998E-03; -3.0008921E-02;4425;  9.0590520E-03;  0.0000000E+00;  3.1325715E-05;  9.9945203E+02;  1.0000000E-01; -4.5396246E+02;3;  1.0668659E+00;  0.0000000E+00;  1.4152641E-02;0;  2.3828855E-02;  3.9956250E+04;  0.0000000E+00;  5.4096952E-03;  4.0000000E+04;  0.0000000E+00;  4.0001879E+04;  2.5920067E-02;  0.0000000E+00; -2.0912127E-03;  2.9216397E+02;
  3.2175633E-01;  9.9999998E-03;  3.0008923E-02;4431;  9.0590501E-03;  0.0000000E+00; -3.1313240E-05;  9.9945203E+02;  1.0000000E-01; -4.5396246E+02;3;  1.0668463E+00;  0.0000000E+00; -1.4146590E-02;0;  2.3828827E-02;  3.9956246E+04;  0.0000000E+00;  5.4096486E-03;  4.0000000E+04;  0.0000000E+00;  4.0001879E+04;  2.5920035E-02;  0.0000000E+00; -2.0912082E-03;  2.9217349E+02;
  3.2174906E-01;  9.9999998E-03; -4.0006906E-02;4424;  9.0642963E-03;  0.0000000E+00;  4.3948618E-05;  9.9948578E+02;  1.0000000E-01; -4.2601263E+02;3;  1.0608820E+00;  0.0000000E+00;  1.8782657E-02;0;  2.4237365E-02;  3.9959125E+04;  0.0000000E+00;  5.3766519E-03;  4.0000000E+04;  0.0000000E+00;  4.0002090E+04;  2.6386414E-02;  0.0000000E+00; -2.1490494E-03;  3.1654819E+02;
  3.2174906E-01;  9.9999998E-03;  4.0006906E-02;4432;  9.0642953E-03;  0.0000000E+00; -4.3935386E-05;  9.9948572E+02;  1.0000000E-01; -4.2606201E+02;3;  1.0608786E+00;  0.0000000E+00; -1.8767485E-02;0;  2.4237303E-02;  3.9959129E+04;  0.0000000E+00;  5.3758523E-03;  4.0000000E+04;  0.0000000E+00;  4.0002090E+04;  2.6386343E-02;  0.0000000E+00; -2.1490401E-03;  3.1656415E+02;
  3.2173559E-01;  9.9999998E-03; -5.0002597E-02;4423;  9.0654260E-03;  0.0000000E+00;  5.8481110E-05;  9.9953949E+02;  1.0000000E-01; -3.8152008E+02;3;  1.0532224E+00;  0.0000000E+00;  2.3546219E-02;0;  2.4695527E-02;  3.9963402E+04;  0.0000000E+00;  8.2301546E-04;  4.0000000E+04;  0.0000000E+00;  4.0002441E+04;  2.6910011E-02;  0.0000000E+00; -2.2144839E-03;  3.0663492E+02;
  3.2173559E-01;  9.9999998E-03;  5.0002601E-02;4433;  9.0654260E-03;  0.0000000E+00; -5.8466754E-05;  9.9953943E+02;  1.0000000E-01; -3.8156946E+02;3;  1.0532213E+00;  0.0000000E+00; -2.3525735E-02;0;  2.4695421E-02;  3.9963402E+04;  0.0000000E+00;  8.2398514E-04;  4.0000000E+04;  0.0000000E+00;  4.0002445E+04;  2.6909893E-02;  0.0000000E+00; -2.2144725E-03;  3.0664484E+02;
  3.2171670E-01;  9.9999998E-03; -5.9997067E-02;4422;  9.0592783E-03;  0.0000000E+00;  7.5261778E-05;  9.9960529E+02;  1.0000000E-01; -3.2700308E+02;3;  1.0430847E+00;  0.0000000E+00;  2.7876580E-02;0;  2.5159607E-02;  3.9968891E+04;  0.0000000E+00; -1.0298800E-02;  4.0000000E+04;  0.0000000E+00;  4.0001750E+04;  2.7442293E-02;  0.0000000E+00; -2.2826868E-03;  2.5182347E+02;
  3.2171670E-01;  9.9999998E-03;  5.9997071E-02;4434;  9.0592811E-03;  0.0000000E+00; -7.5246870E-05;  9.9960529E+02;  1.0000000E-01; -3.2700308E+02;3;  1.0430747E+00;  0.0000000E+00; -2.7846228E-02;0;  2.5159515E-02;  3.9968891E+04;  0.0000000E+00; -1.0298235E-02;  4.0000000E+04;  0.0000000E+00;  4.0001750E+04;  2.7442189E-02;  0.0000000E+00; -2.2826742E-03;  2.5182980E+02;
  3.2169572E-01;  9.9999998E-03; -6.9991015E-02;4421;  9.0428675E-03;  0.0000000E+00;  9.4509618E-05;  9.9967834E+02;  1.0000000E-01; -2.6646161E+02;3;  1.0310559E+00;  0.0000000E+00;  3.2255348E-02;0;  2.5582833E-02;  3.9975801E+04;  0.0000000E+00; -2.9307822E-02;  4.0000000E+04;  0.0000000E+00;  4.0001070E+04;  2.7932297E-02;  0.0000000E+00; -2.3494635E-03;  1.5610986E+02;
  3.2167101E-01;  9.9999998E-03; -7.9985552E-02;4420;  9.0143513E-03;  0.0000000E+00;  1.1639565E-04;  9.9976660E+02;  1.0000000E-01; -1.9337724E+02;3;  1.0179725E+00;  0.0000000E+00;  3.6557373E-02;0;  2.5918256E-02;  3.9984035E+04;  0.0000000E+00; -5.6392338E-02;  4.0000000E+04;  0.0000000E+00;  4.0000121E+04;  2.8329747E-02;  0.0000000E+00; -2.4114896E-03;  8.1593933E+01;
  3.2163808E-01;  9.9999998E-03; -8.9983568E-02;4419;  8.9719519E-03;  0.0000000E+00;  1.4051476E-04;  9.9986438E+02;  1.0000000E-01; -1.1234250E+02;3;  1.0019205E+00;  0.0000000E+00;  4.0469937E-02;0;  2.6126660E-02;  3.9993172E+04;  0.0000000E+00; -9.0268224E-02;  4.0000000E+04;  0.0000000E+00;  3.9999215E+04;  2.8592374E-02;  0.0000000E+00; -2.4657140E-03;  1.8408006E+02;
  3.2159355E-01;  9.9999998E-03; -9.9986449E-02;4418;  8.9160148E-03;  0.0000000E+00;  1.6625960E-04;  9.9996857E+02;  1.0000000E-01; -2.6023954E+01;3;  9.8242491E-01;  0.0000000E+00;  4.4553645E-02;0;  2.6185201E-02;  4.0002613E+04;  0.0000000E+00; -1.2785065E-01;  4.0000000E+04;  0.0000000E+00;  3.9998176E+04;  2.8693823E-02;  0.0000000E+00; -2.5086224E-03;  3.2183041E+02;
  3.3167669E-01;  9.9999998E-03; -9.9983044E-02;4479;  8.9040119E-03;  0.0000000E+00;  1.1476997E-04;  1.0000244E+03;  1.0000000E-01;  2.0147579E+01;3;  9.8578650E-01;  0.0000000E+00;  3.0265156E-02;0;  2.9658377E-02;  4.0006914E+04;  0.0000000E+00; -1.1172318E-01;  4.0000000E+04;  0.0000000E+00;  3.9998426E+04;  3.2217346E-02;  0.0000000E+00; -2.5589690E-03;  2.6024323E+02;
  3.3171672E-01;  9.9999998E-03; -8.9983337E-02;4480;  8.9530973E-03;  0.0000000E+00;  9.5836724E-05;  9.9995575E+02;  1.0000000E-01; -3.6640938E+01;3;  1.0045685E+00;  0.0000000E+00;  2.7405223E-02;0;  2.9639896E-02;  3.9999785E+04;  0.0000000E+00; -7.1296290E-02;  4.0000000E+04;  0.0000000E+00;  3.9999434E+04;  3.2158766E-02;  0.0000000E+00; -2.5188704E-03;  1.1525237E+02;
  3.3174187E-01;  9.9999998E-03; -7.9986967E-02;4481;  8.9877453E-03;  0.0000000E+00;  7.9093195E-05;  9.9989221E+02;  1.0000000E-01; -8.9281425E+01;3;  1.0211705E+00;  0.0000000E+00;  2.4734378E-02;0;  2.9491993E-02;  3.9993578E+04;  0.0000000E+00; -3.8007341E-02;  4.0000000E+04;  0.0000000E+00;  4.0000891E+04;  3.1963367E-02;  0.0000000E+00; -2.4713736E-03;  1.0960422E+02;
  3.3175486E-01;  9.9999998E-03; -6.9992453E-02;4482;  9.0082670E-03;  0.0000000E+00;  6.4848697E-05;  9.9983844E+02;  1.0000000E-01; -1.3387276E+02;3;  1.0347267E+00;  0.0000000E+00;  2.1666480E-02;0;  2.9236564E-02;  3.9988445E+04;  0.0000000E+00; -1.3568828E-02;  4.0000000E+04;  0.0000000E+00;  4.0001895E+04;  3.1655945E-02;  0.0000000E+00; -2.4193798E-03;  2.1968643E+02;
  3.3175898E-01;  9.9999998E-03; -5.9998628E-02;4483;  9.0166219E-03;  0.0000000E+00;  5.2928241E-05;  9.9979712E+02;  1.0000000E-01; -1.6809401E+02;3;  1.0471218E+00;  0.0000000E+00;  1.8775845E-02;0;  2.8907901E-02;  3.9983902E+04;  0.0000000E+00;  1.8748662E-03;  4.0000000E+04;  0.0000000E+00;  4.0002340E+04;  3.1273227E-02;  0.0000000E+00; -2.3653272E-03;  2.9800531E+02;
  3.3175752E-01;  9.9999998E-03; -5.0004236E-02;4484;  9.0153972E-03;  0.0000000E+00;  4.2868411E-05;  9.9976019E+02;  1.0000000E-01; -1.9866104E+02;3;  1.0571488E+00;  0.0000000E+00;  1.5750742E-02;0;  2.8545370E-02;  3.9980973E+04;  0.0000000E+00;  9.3534319E-03;  4.0000000E+04;  0.0000000E+00;  4.0002879E+04;  3.0857239E-02;  0.0000000E+00; -2.3118681E-03;  3.2636157E+02;
  3.3175379E-01;  9.9999998E-03; -4.0008087E-02;4485;  9.0079494E-03;  0.0000000E+00;  3.4001834E-05;  9.9973645E+02;  1.0000000E-01; -2.1836420E+02;3;  1.0654469E+00;  0.0000000E+00;  1.2639569E-02;0;  2.8187849E-02;  3.9978938E+04;  0.0000000E+00;  1.0723821E-02;  4.0000000E+04;  0.0000000E+00;  4.0002688E+04;  3.0449998E-02;  0.0000000E+00; -2.2621483E-03;  3.0896100E+02;
  3.3174995E-01;  9.9999998E-03; -3.0009570E-02;4486;  8.9976909E-03;  0.0000000E+00;  2.5768948E-05;  9.9971777E+02;  1.0000000E-01; -2.3382054E+02;3;  1.0719082E+00;  0.0000000E+00;  9.4896797E-03;0;  2.7870441E-02;  3.9977605E+04;  0.0000000E+00;  8.3003892E-03;  4.0000000E+04;  0.0000000E+00;  4.0001984E+04;  3.0089878E-02;  0.0000000E+00; -2.2194372E-03;  2.6114090E+02;
  3.3174700E-01;  9.9999998E-03; -2.0008493E-02;4487;  8.9879474E-03;  0.0000000E+00;  1.7518660E-05;  9.9970471E+02;  1.0000000E-01; -2.4463506E+02;3;  1.0759083E+00;  0.0000000E+00;  6.3119791E-03;0;  2.7622031E-02;  3.9977191E+04;  0.0000000E+00;  4.4573806E-03;  4.0000000E+04;  0.0000000E+00;  4.0001422E+04;  2.9808681E-02;  0.0000000E+00; -2.1866509E-03;  2.0407922E+02;
  3.3174518E-01;  9.9999998E-03; -1.0005050E-02;4488;  8.9809857E-03;  0.0000000E+00;  8.9525547E-06;  9.9969647E+02;  1.0000000E-01; -2.5144968E+02;3;  1.0779920E+00;  0.0000000E+00;  3.0004147E-03;0;  2.7464079E-02;  3.9976922E+04;  0.0000000E+00;  1.2343924E-03;  4.0000000E+04;  0.0000000E+00;  4.0000996E+04;  2.9630115E-02;  0.0000000E+00; -2.1660365E-03;  1.5916817E+02;
  3.3174455E-01;  9.9999998E-03;  1.2737895E-09;4489;  8.9783585E-03;  0.0000000E+00;  5.2063038E-09;  9.9969525E+02;  1.0000000E-01; -2.5248668E+02;3;  1.0789105E+00;  0.0000000E+00; -2.8107256E-06;0;  2.7409896E-02;  3.9976844E+04;  0.0000000E+00;  1.0979463E-12;  4.0000000E+04;  0.0000000E+00;  4.0000832E+04;  2.9568898E-02;  0.0000000E+00; -2.1590018E-03;  1.4227519E+02;
  3.3174518E-01;  9.9999998E-03;  1.0005052E-02;4490;  8.9809848E-03;  0.0000000E+00; -8.9420409E-06;  9.9969647E+02;  1.0000000E-01; -2.5144968E+02;3;  1.0779980E+00;  0.0000000E+00; -3.0046569E-03;0;  2.7464017E-02;  3.9976922E+04;  0.0000000E+00;  1.2344080E-03;  4.0000000E+04;  0.0000000E+00;  4.0000996E+04;  2.9630050E-02;  0.0000000E+00; -2.1660321E-03;  1.5917159E+02;
  3.3174700E-01;  9.9999998E-03;  2.0008495E-02;4491;  8.9879446E-03;  0.0000000E+00; -1.7507629E-05;  9.9970465E+02;  1.0000000E-01; -2.4468443E+02;3;  1.0759023E+00;  0.0000000E+00; -6.3125682E-03;0;  2.7621981E-02;  3.9977188E+04;  0.0000000E+00;  4.4571911E-03;  4.0000000E+04;  0.0000000E+00;  4.0001418E+04;  2.9808622E-02;  0.0000000E+00; -2.1866420E-03;  2.0408005E+02;
  3.3174995E-01;  9.9999998E-03;  3.0009573E-02;4492;  8.9976899E-03;  0.0000000E+00; -2.5757312E-05;  9.9971777E+02;  1.0000000E-01; -2.3382054E+02;3;  1.0719138E+00;  0.0000000E+00; -9.4856052E-03;0;  2.7870366E-02;  3.9977609E+04;  0.0000000E+00;  8.3000250E-03;  4.0000000E+04;  0.0000000E+00;  4.0001984E+04;  3.0089792E-02;  0.0000000E+00; -2.2194255E-03;  2.6114706E+02;
  3.3175379E-01;  9.9999998E-03;  4.0008090E-02;4493;  9.0079485E-03;  0.0000000E+00; -3.3989440E-05;  9.9973651E+02;  1.0000000E-01; -2.1831482E+02;3;  1.0654325E+00;  0.0000000E+00; -1.2627212E-02;0;  2.8187785E-02;  3.9978934E+04;  0.0000000E+00;  1.0723246E-02;  4.0000000E+04;  0.0000000E+00;  4.0002695E+04;  3.0449921E-02;  0.0000000E+00; -2.2621362E-03;  3.0896234E+02;
  3.3175752E-01;  9.9999998E-03;  5.0004240E-02;4494;  9.0153972E-03;  0.0000000E+00; -4.2855107E-05;  9.9976019E+02;  1.0000000E-01; -1.9866104E+02;3;  1.0571389E+00;  0.0000000E+00; -1.5727891E-02;0;  2.8545238E-02;  3.9980973E+04;  0.0000000E+00;  9.3528721E-03;  4.0000000E+04;  0.0000000E+00;  4.0002879E+04;  3.0857090E-02;  0.0000000E+00; -2.3118521E-03;  3.2636954E+02;
  3.3175898E-01;  9.9999998E-03;  5.9998631E-02;4495;  9.0166237E-03;  0.0000000E+00; -5.2914071E-05;  9.9979718E+02;  1.0000000E-01; -1.6804463E+02;3;  1.0471275E+00;  0.0000000E+00; -1.8745730E-02;0;  2.8907754E-02;  3.9983902E+04;  0.0000000E+00;  1.8734912E-03;  4.0000000E+04;  0.0000000E+00;  4.0002340E+04;  3.1273063E-02;  0.0000000E+00; -2.3653097E-03;  2.9800363E+02;
  3.4171012E-01;  9.9999998E-03; -9.9983543E-02;4540;  8.9004310E-03;  0.0000000E+00;  6.4634572E-05;  1.0000799E+03;  1.0000000E-01;  6.6170967E+01;3;  9.8834145E-01;  0.0000000E+00;  1.6251413E-02;0;  3.4477066E-02;  4.0010641E+04;  0.0000000E+00; -8.1988074E-02;  4.0000000E+04;  0.0000000E+00;  3.9999012E+04;  3.7128858E-02;  0.0000000E+00; -2.6517927E-03;  1.8838168E+02;
  3.4171760E-01;  9.9999998E-03; -8.9987189E-02;4541;  8.9429356E-03;  0.0000000E+00;  5.3021711E-05;  1.0000472E+03;  1.0000000E-01;  3.9110004E+01;3;  1.0073942E+00;  0.0000000E+00;  1.4333087E-02;0;  3.4529738E-02;  4.0006438E+04;  0.0000000E+00; -4.3519903E-02;  4.0000000E+04;  0.0000000E+00;  4.0000137E+04;  3.7148688E-02;  0.0000000E+00; -2.6189494E-03;  6.2435570E+01;
  3.4172064E-01;  9.9999998E-03; -7.9992436E-02;4542;  8.9700371E-03;  0.0000000E+00;  4.4403649E-05;  1.0000182E+03;  1.0000000E-01;  1.5110683E+01;3;  1.0236115E+00;  0.0000000E+00;  1.2787675E-02;0;  3.4480114E-02;  4.0003062E+04;  0.0000000E+00; -1.4498452E-02;  4.0000000E+04;  0.0000000E+00;  4.0001367E+04;  3.7061922E-02;  0.0000000E+00; -2.5818076E-03;  1.5214513E+02;
  3.4172124E-01;  9.9999998E-03; -6.9998227E-02;4543;  8.9834593E-03;  0.0000000E+00;  3.8251659E-05;  9.9999969E+02;  1.0000000E-01; -2.4690659E-01;3;  1.0376604E+00;  0.0000000E+00;  1.1037255E-02;0;  3.4348372E-02;  4.0000422E+04;  0.0000000E+00;  4.6251854E-03;  4.0000000E+04;  0.0000000E+00;  4.0002266E+04;  3.6891151E-02;  0.0000000E+00; -2.5427802E-03;  2.5694568E+02;
  3.4172064E-01;  9.9999998E-03; -6.0003482E-02;4544;  8.9850882E-03;  0.0000000E+00;  3.4034838E-05;  9.9998517E+02;  1.0000000E-01; -1.2295949E+01;3;  1.0504966E+00;  0.0000000E+00;  9.3642808E-03;0;  3.4161691E-02;  3.9998828E+04;  0.0000000E+00;  1.4714101E-02;  4.0000000E+04;  0.0000000E+00;  4.0002777E+04;  3.6665719E-02;  0.0000000E+00; -2.5040293E-03;  3.1379422E+02;
  3.4171909E-01;  9.9999998E-03; -5.0007589E-02;4545;  8.9778919E-03;  0.0000000E+00;  3.0797037E-05;  9.9997827E+02;  1.0000000E-01; -1.8024181E+01;3;  1.0610408E+00;  0.0000000E+00;  7.6576108E-03;0;  3.3948082E-02;  3.9998254E+04;  0.0000000E+00;  1.7518872E-02;  4.0000000E+04;  0.0000000E+00;  4.0002688E+04;  3.6415763E-02;  0.0000000E+00; -2.4676814E-03;  3.1846234E+02;
  3.4171751E-01;  9.9999998E-03; -4.0009908E-02;4546;  8.9655686E-03;  0.0000000E+00;  2.7403528E-05;  9.9997797E+02;  1.0000000E-01; -1.8271088E+01;3;  1.0694857E+00;  0.0000000E+00;  5.9728022E-03;0;  3.3734251E-02;  3.9998496E+04;  0.0000000E+00;  1.5300616E-02;  4.0000000E+04;  0.0000000E+00;  4.0002449E+04;  3.6169983E-02;  0.0000000E+00; -2.4357310E-03;  2.8019385E+02;
  3.4171617E-01;  9.9999998E-03; -3.0010214E-02;4547;  8.9517329E-03;  0.0000000E+00;  2.2873264E-05;  9.9998047E+02;  1.0000000E-01; -1.6197073E+01;3;  1.0758996E+00;  0.0000000E+00;  4.3977275E-03;0;  3.3542927E-02;  3.9999113E+04;  0.0000000E+00;  1.0472215E-02;  4.0000000E+04;  0.0000000E+00;  4.0001668E+04;  3.5952695E-02;  0.0000000E+00; -2.4097685E-03;  2.1673799E+02;
  3.4171471E-01;  9.9999998E-03; -2.0008493E-02;4548;  8.9394832E-03;  0.0000000E+00;  1.6458433E-05;  9.9998389E+02;  1.0000000E-01; -1.3332956E+01;3;  1.0802497E+00;  0.0000000E+00;  2.7408989E-03;0;  3.3392385E-02;  3.9999883E+04;  0.0000000E+00;  5.2584945E-03;  4.0000000E+04;  0.0000000E+00;  4.0001148E+04;  3.5783157E-02;  0.0000000E+00; -2.3907737E-03;  1.4976584E+02;
  3.4171411E-01;  9.9999998E-03; -1.0004739E-02;4549;  8.9312913E-03;  0.0000000E+00;  8.5675556E-06;  9.9998706E+02;  1.0000000E-01; -1.0715746E+01;3;  1.0830187E+00;  0.0000000E+00;  1.4463685E-03;0;  3.3296604E-02;  4.0000453E+04;  0.0000000E+00;  1.4056744E-03;  4.0000000E+04;  0.0000000E+00;  4.0000805E+04;  3.5675868E-02;  0.0000000E+00; -2.3792631E-03;  9.9749390E+01;
  3.4171373E-01;  9.9999998E-03;  1.4158217E-09;4550;  8.9285364E-03;  0.0000000E+00;  4.8905222E-09;  9.9998767E+02;  1.0000000E-01; -1.0221933E+01;3;  1.0841618E+00;  0.0000000E+00; -4.7515323E-06;0;  3.3263627E-02;  4.0000652E+04;  0.0000000E+00;  1.8217736E-12;  4.0000000E+04;  0.0000000E+00;  4.0000680E+04;  3.5639033E-02;  0.0000000E+00; -2.3754048E-03;  8.1329102E+01;
  3.4171411E-01;  9.9999998E-03;  1.0004742E-02;4551;  8.9312904E-03;  0.0000000E+00; -8.5576567E-06;  9.9998712E+02;  1.0000000E-01; -1.0666365E+01;3;  1.0830218E+00;  0.0000000E+00; -1.4556006E-03;0;  3.3296600E-02;  4.0000449E+04;  0.0000000E+00;  1.4054760E-03;  4.0000000E+04;  0.0000000E+00;  4.0000805E+04;  3.5675861E-02;  0.0000000E+00; -2.3792596E-03;  9.9757835E+01;
  3.4171471E-01;  9.9999998E-03;  2.0008495E-02;4552;  8.9394813E-03;  0.0000000E+00; -1.6448230E-05;  9.9998389E+02;  1.0000000E-01; -1.3332956E+01;3;  1.0802470E+00;  0.0000000E+00; -2.7479178E-03;0;  3.3392325E-02;  3.9999883E+04;  0.0000000E+00;  5.2579725E-03;  4.0000000E+04;  0.0000000E+00;  4.0001148E+04;  3.5783090E-02;  0.0000000E+00; -2.3907635E-03;  1.4976453E+02;
  3.4171617E-01;  9.9999998E-03;  3.0010218E-02;4553;  8.9517310E-03;  0.0000000E+00; -2.2862339E-05;  9.9998053E+02;  1.0000000E-01; -1.6147692E+01;3;  1.0758913E+00;  0.0000000E+00; -4.3976763E-03;0;  3.3542860E-02;  3.9999121E+04;  0.0000000E+00;  1.0471779E-02;  4.0000000E+04;  0.0000000E+00;  4.0001668E+04;  3.5952613E-02;  0.0000000E+00; -2.4097520E-03;  2.1674156E+02;
  3.4171751E-01;  9.9999998E-03;  4.0009912E-02;4554;  8.9655668E-03;  0.0000000E+00; -2.7391789E-05;  9.9997791E+02;  1.0000000E-01; -1.8320469E+01;3;  1.0694854E+00;  0.0000000E+00; -5.9627220E-03;0;  3.3734120E-02;  3.9998496E+04;  0.0000000E+00;  1.5300537E-02;  4.0000000E+04;  0.0000000E+00;  4.0002449E+04;  3.6169834E-02;  0.0000000E+00; -2.4357128E-03;  2.8019269E+02;
  3.4171909E-01;  9.9999998E-03;  5.0007593E-02;4555;  8.9778919E-03;  0.0000000E+00; -3.0784315E-05;  9.9997833E+02;  1.0000000E-01; -1.7974800E+01;3;  1.0610288E+00;  0.0000000E+00; -7.6359585E-03;0;  3.3947960E-02;  3.9998254E+04;  0.0000000E+00;  1.7517945E-02;  4.0000000E+04;  0.0000000E+00;  4.0002684E+04;  3.6415618E-02;  0.0000000E+00; -2.4676588E-03;  3.1847079E+02;
  3.4172064E-01;  9.9999998E-03;  6.0003486E-02;4556;  8.9850901E-03;  0.0000000E+00; -3.4021446E-05;  9.9998517E+02;  1.0000000E-01; -1.2295949E+01;3;  1.0504915E+00;  0.0000000E+00; -9.3343332E-03;0;  3.4161534E-02;  3.9998824E+04;  0.0000000E+00;  1.4713073E-02;  4.0000000E+04;  0.0000000E+00;  4.0002777E+04;  3.6665544E-02;  0.0000000E+00; -2.5040095E-03;  3.1378992E+02;
  3.5165963E-01;  9.9999998E-03; -9.9989951E-02;4601;  8.9082234E-03;  0.0000000E+00;  1.8030218E-05;  1.0001227E+03;  1.0000000E-01;  1.0172552E+02;3;  9.9235982E-01;  0.0000000E+00;  3.8247162E-03;0;  4.0069375E-02;  4.0013191E+04;  0.0000000E+00; -4.4886962E-02;  4.0000000E+04;  0.0000000E+00;  3.9999211E+04;  4.2867362E-02;  0.0000000E+00; -2.7979866E-03;  1.1005737E+02;
  3.5166407E-01;  9.9999998E-03; -8.9993790E-02;4602;  8.9438520E-03;  0.0000000E+00;  1.2431884E-05;  1.0001210E+03;  1.0000000E-01;  1.0024408E+02;3;  1.0095700E+00;  0.0000000E+00;  2.5743595E-03;0;  4.0252849E-02;  4.0011582E+04;  0.0000000E+00; -1.2184091E-02;  4.0000000E+04;  0.0000000E+00;  4.0000422E+04;  4.3030370E-02;  0.0000000E+00; -2.7775201E-03;  6.2231941E+01;
  3.5166737E-01;  9.9999998E-03; -7.9998218E-02;4603;  8.9654950E-03;  0.0000000E+00;  1.0626280E-05;  1.0001194E+03;  1.0000000E-01;  9.8861404E+01;3;  1.0258530E+00;  0.0000000E+00;  1.5334552E-03;0;  4.0358625E-02;  4.0010812E+04;  0.0000000E+00;  9.9467654E-03;  4.0000000E+04;  0.0000000E+00;  4.0001586E+04;  4.3113347E-02;  0.0000000E+00; -2.7547216E-03;  1.8697809E+02;
  3.5167050E-01;  9.9999998E-03; -7.0002407E-02;4604;  8.9738341E-03;  0.0000000E+00;  1.2526297E-05;  1.0001291E+03;  1.0000000E-01;  1.0695994E+02;3;  1.0405813E+00;  0.0000000E+00;  1.0408970E-03;0;  4.0402908E-02;  4.0010379E+04;  0.0000000E+00;  2.2122091E-02;  4.0000000E+04;  0.0000000E+00;  4.0002262E+04;  4.3134753E-02;  0.0000000E+00; -2.7318436E-03;  2.7356766E+02;
  3.5167348E-01;  9.9999998E-03; -6.0005862E-02;4605;  8.9713419E-03;  0.0000000E+00;  1.6151789E-05;  1.0001443E+03;  1.0000000E-01;  1.1960155E+02;3;  1.0536504E+00;  0.0000000E+00;  5.1294948E-04;0;  4.0403698E-02;  4.0011160E+04;  0.0000000E+00;  2.6037078E-02;  4.0000000E+04;  0.0000000E+00;  4.0002398E+04;  4.3114748E-02;  0.0000000E+00; -2.7110504E-03;  3.0892831E+02;
  3.5167626E-01;  9.9999998E-03; -5.0008126E-02;4606;  8.9612035E-03;  0.0000000E+00;  1.9603394E-05;  1.0001585E+03;  1.0000000E-01;  1.3135431E+02;3;  1.0645872E+00;  0.0000000E+00;  9.3677110E-05;0;  4.0377565E-02;  4.0012609E+04;  0.0000000E+00;  2.3981055E-02;  4.0000000E+04;  0.0000000E+00;  4.0002469E+04;  4.3071542E-02;  0.0000000E+00; -2.6939791E-03;  2.9495804E+02;
  3.5167819E-01;  9.9999998E-03; -4.0009212E-02;4607;  8.9470632E-03;  0.0000000E+00;  2.1159432E-05;  1.0001796E+03;  1.0000000E-01;  1.4883530E+02;3;  1.0734189E+00;  0.0000000E+00; -4.4801327E-05;0;  4.0338092E-02;  4.0014680E+04;  0.0000000E+00;  1.8425222E-02;  4.0000000E+04;  0.0000000E+00;  4.0002016E+04;  4.3019533E-02;  0.0000000E+00; -2.6814430E-03;  2.4346480E+02;
  3.5167852E-01;  9.9999998E-03; -3.0009128E-02;4608;  8.9323549E-03;  0.0000000E+00;  1.9740371E-05;  1.0001984E+03;  1.0000000E-01;  1.6434103E+02;3;  1.0801013E+00;  0.0000000E+00; -1.1472176E-04;0;  4.0295653E-02;  4.0016801E+04;  0.0000000E+00;  1.1670484E-02;  4.0000000E+04;  0.0000000E+00;  4.0001461E+04;  4.2968959E-02;  0.0000000E+00; -2.6733053E-03;  1.7251073E+02;
  3.5167766E-01;  9.9999998E-03; -2.0007560E-02;4609;  8.9197056E-03;  0.0000000E+00;  1.5257341E-05;  1.0002134E+03;  1.0000000E-01;  1.7678513E+02;3;  1.0845959E+00;  0.0000000E+00; -2.8242017E-04;0;  4.0258788E-02;  4.0018520E+04;  0.0000000E+00;  5.5829193E-03;  4.0000000E+04;  0.0000000E+00;  4.0000801E+04;  4.2927530E-02;  0.0000000E+00; -2.6687402E-03;  1.0244048E+02;
  3.5167617E-01;  9.9999998E-03; -1.0004403E-02;4610;  8.9112734E-03;  0.0000000E+00;  8.3495497E-06;  1.0002261E+03;  1.0000000E-01;  1.8735272E+02;3;  1.0874878E+00;  0.0000000E+00; -4.8741633E-05;0;  4.0233582E-02;  4.0019895E+04;  0.0000000E+00;  1.4525381E-03;  4.0000000E+04;  0.0000000E+00;  4.0000293E+04;  4.2900190E-02;  0.0000000E+00; -2.6666063E-03;  5.1701153E+01;
  3.5167518E-01;  9.9999998E-03;  1.6049914E-09;4611;  8.9084674E-03;  0.0000000E+00;  4.7164108E-09;  1.0002311E+03;  1.0000000E-01;  1.9150076E+02;3;  1.0884492E+00;  0.0000000E+00; -6.8803729E-06;0;  4.0224448E-02;  4.0020430E+04;  0.0000000E+00;  3.5792563E-13;  4.0000000E+04;  0.0000000E+00;  4.0000188E+04;  4.2890444E-02;  0.0000000E+00; -2.6659961E-03;  3.3273029E+01;
  3.5167617E-01;  9.9999998E-03;  1.0004407E-02;4612;  8.9112734E-03;  0.0000000E+00; -8.3399245E-06;  1.0002261E+03;  1.0000000E-01;  1.8735272E+02;3;  1.0874848E+00;  0.0000000E+00;  3.7160287E-05;0;  4.0233538E-02;  4.0019895E+04;  0.0000000E+00;  1.4523726E-03;  4.0000000E+04;  0.0000000E+00;  4.0000293E+04;  4.2900134E-02;  0.0000000E+00; -2.6665959E-03;  5.1708015E+01;
  3.5167766E-01;  9.9999998E-03;  2.0007564E-02;4613;  8.9197038E-03;  0.0000000E+00; -1.5247246E-05;  1.0002135E+03;  1.0000000E-01;  1.7688388E+02;3;  1.0845871E+00;  0.0000000E+00;  2.7347237E-04;0;  4.0258743E-02;  4.0018520E+04;  0.0000000E+00;  5.5824043E-03;  4.0000000E+04;  0.0000000E+00;  4.0000801E+04;  4.2927470E-02;  0.0000000E+00; -2.6687277E-03;  1.0244234E+02;
  3.5167852E-01;  9.9999998E-03;  3.0009132E-02;4614;  8.9323539E-03;  0.0000000E+00; -1.9729792E-05;  1.0001984E+03;  1.0000000E-01;  1.6434103E+02;3;  1.0800924E+00;  0.0000000E+00;  1.1167176E-04;0;  4.0295545E-02;  4.0016801E+04;  0.0000000E+00;  1.1669708E-02;  4.0000000E+04;  0.0000000E+00;  4.0001461E+04;  4.2968832E-02;  0.0000000E+00; -2.6732881E-03;  1.7250900E+02;
  3.5167819E-01;  9.9999998E-03;  4.0009215E-02;4615;  8.9470623E-03;  0.0000000E+00; -2.1147926E-05;  1.0001797E+03;  1.0000000E-01;  1.4883530E+02;3;  1.0734146E+00;  0.0000000E+00;  5.2108469E-05;0;  4.0337957E-02;  4.0014676E+04;  0.0000000E+00;  1.8423771E-02;  4.0000000E+04;  0.0000000E+00;  4.0002016E+04;  4.3019377E-02;  0.0000000E+00; -2.6814190E-03;  2.4346542E+02;
  3.5167626E-01;  9.9999998E-03;  5.0008129E-02;4616;  8.9612044E-03;  0.0000000E+00; -1.9591072E-05;  1.0001585E+03;  1.0000000E-01;  1.3135431E+02;3;  1.0645771E+00;  0.0000000E+00; -8.1390470E-05;0;  4.0377386E-02;  4.0012609E+04;  0.0000000E+00;  2.3980806E-02;  4.0000000E+04;  0.0000000E+00;  4.0002469E+04;  4.3071341E-02;  0.0000000E+00; -2.6939544E-03;  2.9495087E+02;
  3.5167348E-01;  9.9999998E-03;  6.0005866E-02;4617;  8.9713447E-03;  0.0000000E+00; -1.6138791E-05;  1.0001443E+03;  1.0000000E-01;  1.1960155E+02;3;  1.0536401E+00;  0.0000000E+00; -4.8386780E-04;0;  4.0403530E-02;  4.0011160E+04;  0.0000000E+00;  2.6035313E-02;  4.0000000E+04;  0.0000000E+00;  4.0002402E+04;  4.3114554E-02;  0.0000000E+00; -2.7110232E-03;  3.0892075E+02;
  3.6161751E-01;  9.9999998E-03; -9.9995710E-02;4662;  8.9477431E-03;  0.0000000E+00; -2.6434496E-05;  1.0001393E+03;  1.0000000E-01;  1.1535476E+02;3;  1.0087144E+00;  0.0000000E+00;  3.8034823E-03;0;  4.5823243E-02;  4.0013770E+04;  0.0000000E+00; -5.6623113E-03;  4.0000000E+04;  0.0000000E+00;  3.9999738E+04;  4.8824858E-02;  0.0000000E+00; -3.0016168E-03;  3.4121540E+01;
  3.6161691E-01;  9.9999998E-03; -8.9999437E-02;4663;  8.9683747E-03;  0.0000000E+00; -3.4883869E-05;  1.0001556E+03;  1.0000000E-01;  1.2898401E+02;3;  1.0153569E+00;  0.0000000E+00; -4.3248953E-03;0;  4.6183124E-02;  4.0013859E+04;  0.0000000E+00;  1.8608773E-02;  4.0000000E+04;  0.0000000E+00;  4.0000891E+04;  4.9181294E-02;  0.0000000E+00; -2.9981697E-03;  1.0327294E+02;
  3.6161879E-01;  9.9999998E-03; -8.0002934E-02;4664;  8.9839026E-03;  0.0000000E+00; -3.0969000E-05;  1.0001785E+03;  1.0000000E-01;  1.4794643E+02;3;  1.0291724E+00;  0.0000000E+00; -7.8727165E-03;0;  4.6487793E-02;  4.0014910E+04;  0.0000000E+00;  3.2360233E-02;  4.0000000E+04;  0.0000000E+00;  4.0001844E+04;  4.9481172E-02;  0.0000000E+00; -2.9933774E-03;  2.1037190E+02;
  3.6162388E-01;  9.9999998E-03; -7.0005476E-02;4665;  8.9886021E-03;  0.0000000E+00; -1.9849147E-05;  1.0002050E+03;  1.0000000E-01;  1.6977298E+02;3;  1.0442721E+00;  0.0000000E+00; -1.0006714E-02;0;  4.6746522E-02;  4.0016465E+04;  0.0000000E+00;  3.7039608E-02;  4.0000000E+04;  0.0000000E+00;  4.0002504E+04;  4.9736205E-02;  0.0000000E+00; -2.9896849E-03;  2.7455838E+02;
  3.6162949E-01;  9.9999998E-03; -6.0006749E-02;4666;  8.9838207E-03;  0.0000000E+00; -5.4333555E-06;  1.0002382E+03;  1.0000000E-01;  1.9732776E+02;3;  1.0572652E+00;  0.0000000E+00; -9.6218670E-03;0;  4.6965692E-02;  4.0018832E+04;  0.0000000E+00;  3.4913022E-02;  4.0000000E+04;  0.0000000E+00;  4.0002613E+04;  4.9954928E-02;  0.0000000E+00; -2.9892367E-03;  2.9124313E+02;
  3.6163330E-01;  9.9999998E-03; -5.0007299E-02;4667;  8.9733228E-03;  0.0000000E+00;  6.7761653E-06;  1.0002727E+03;  1.0000000E-01;  2.2596892E+02;3;  1.0682416E+00;  0.0000000E+00; -7.3695085E-03;0;  4.7148950E-02;  4.0021590E+04;  0.0000000E+00;  2.8532658E-02;  4.0000000E+04;  0.0000000E+00;  4.0002355E+04;  5.0142046E-02;  0.0000000E+00; -2.9930973E-03;  2.6503574E+02;
  3.6163428E-01;  9.9999998E-03; -4.0007457E-02;4668;  8.9604082E-03;  0.0000000E+00;  1.3814152E-05;  1.0003030E+03;  1.0000000E-01;  2.5105463E+02;3;  1.0773487E+00;  0.0000000E+00; -5.4632328E-03;0;  4.7297761E-02;  4.0024883E+04;  0.0000000E+00;  2.0313779E-02;  4.0000000E+04;  0.0000000E+00;  4.0002027E+04;  5.0298654E-02;  0.0000000E+00; -3.0008927E-03;  2.0802498E+02;
  3.6163279E-01;  9.9999998E-03; -3.0007143E-02;4669;  8.9474563E-03;  0.0000000E+00;  1.5754465E-05;  1.0003347E+03;  1.0000000E-01;  2.7722672E+02;3;  1.0842977E+00;  0.0000000E+00; -3.8168000E-03;0;  4.7412824E-02;  4.0027910E+04;  0.0000000E+00;  1.2228023E-02;  4.0000000E+04;  0.0000000E+00;  4.0001535E+04;  5.0423790E-02;  0.0000000E+00; -3.0109645E-03;  1.3693622E+02;
  3.6163026E-01;  9.9999998E-03; -2.0005943E-02;4670;  8.9367423E-03;  0.0000000E+00;  1.3470059E-05;  1.0003574E+03;  1.0000000E-01;  2.9609039E+02;3;  1.0890671E+00;  0.0000000E+00; -2.6373744E-03;0;  4.7494598E-02;  4.0030434E+04;  0.0000000E+00;  5.6608180E-03;  4.0000000E+04;  0.0000000E+00;  4.0000887E+04;  5.0515469E-02;  0.0000000E+00; -3.0208710E-03;  6.9502357E+01;
  3.6162740E-01;  9.9999998E-03; -1.0003522E-02;4671;  8.9298729E-03;  0.0000000E+00;  7.8854973E-06;  1.0003764E+03;  1.0000000E-01;  3.1189243E+02;3;  1.0918204E+00;  0.0000000E+00; -1.2505673E-03;0;  4.7543082E-02;  4.0031949E+04;  0.0000000E+00;  1.4459637E-03;  4.0000000E+04;  0.0000000E+00;  4.0000426E+04;  5.0571132E-02;  0.0000000E+00; -3.0280503E-03;  2.1618273E+01;
  3.6162642E-01;  9.9999998E-03;  1.8395597E-09;4672;  8.9274468E-03;  0.0000000E+00;  4.7569086E-09;  1.0003813E+03;  1.0000000E-01;  3.1594168E+02;3;  1.0927621E+00;  0.0000000E+00; -7.8374469E-06;0;  4.7559269E-02;  4.0032617E+04;  0.0000000E+00;  6.6482478E-14;  4.0000000E+04;  0.0000000E+00;  4.0000309E+04;  5.0589941E-02;  0.0000000E+00; -3.0306717E-03;  4.3609772E+00;
  3.6162740E-01;  9.9999998E-03;  1.0003526E-02;4673;  8.9298729E-03;  0.0000000E+00; -7.8757030E-06;  1.0003764E+03;  1.0000000E-01;  3.1189243E+02;3;  1.0918195E+00;  0.0000000E+00;  1.2342349E-03;0;  4.7543027E-02;  4.0031949E+04;  0.0000000E+00;  1.4457264E-03;  4.0000000E+04;  0.0000000E+00;  4.0000430E+04;  5.0571069E-02;  0.0000000E+00; -3.0280426E-03;  2.1626261E+01;
  3.6163026E-01;  9.9999998E-03;  2.0005947E-02;4674;  8.9367414E-03;  0.0000000E+00; -1.3458976E-05;  1.0003574E+03;  1.0000000E-01;  2.9609039E+02;3;  1.0890664E+00;  0.0000000E+00;  2.6248542E-03;0;  4.7494594E-02;  4.0030430E+04;  0.0000000E+00;  5.6603113E-03;  4.0000000E+04;  0.0000000E+00;  4.0000887E+04;  5.0515447E-02;  0.0000000E+00; -3.0208537E-03;  6.9507812E+01;
  3.6163279E-01;  9.9999998E-03;  3.0007146E-02;4675;  8.9474563E-03;  0.0000000E+00; -1.5742671E-05;  1.0003346E+03;  1.0000000E-01;  2.7722672E+02;3;  1.0843077E+00;  0.0000000E+00;  3.8107631E-03;0;  4.7412705E-02;  4.0027906E+04;  0.0000000E+00;  1.2227197E-02;  4.0000000E+04;  0.0000000E+00;  4.0001535E+04;  5.0423648E-02;  0.0000000E+00; -3.0109428E-03;  1.3694901E+02;
  3.6163428E-01;  9.9999998E-03;  4.0007461E-02;4676;  8.9604091E-03;  0.0000000E+00; -1.3801589E-05;  1.0003030E+03;  1.0000000E-01;  2.5105463E+02;3;  1.0773566E+00;  0.0000000E+00;  5.4662991E-03;0;  4.7297586E-02;  4.0024883E+04;  0.0000000E+00;  2.0313673E-02;  4.0000000E+04;  0.0000000E+00;  4.0002027E+04;  5.0298452E-02;  0.0000000E+00; -3.0008676E-03;  2.0801714E+02;
  3.6163330E-01;  9.9999998E-03;  5.0007302E-02;4677;  8.9733237E-03;  0.0000000E+00; -6.7632182E-06;  1.0002727E+03;  1.0000000E-01;  2.2596892E+02;3;  1.0682344E+00;  0.0000000E+00;  7.3879580E-03;0;  4.7148731E-02;  4.0021594E+04;  0.0000000E+00;  2.8531566E-02;  4.0000000E+04;  0.0000000E+00;  4.0002355E+04;  5.0141800E-02;  0.0000000E+00; -2.9930687E-03;  2.6503949E+02;
  3.6162949E-01;  9.9999998E-03;  6.0006753E-02;4678;  8.9838253E-03;  0.0000000E+00;  5.4466768E-06;  1.0002382E+03;  1.0000000E-01;  1.9732776E+02;3;  1.0572612E+00;  0.0000000E+00;  9.6466364E-03;0;  4.6965495E-02;  4.0018828E+04;  0.0000000E+00;  3.4912195E-02;  4.0000000E+04;  0.0000000E+00;  4.0002617E+04;  4.9954701E-02;  0.0000000E+00; -2.9892069E-03;  2.9122885E+02;
  3.7160009E-01;  9.9999998E-03; -9.9998429E-02;4723;  9.2584668E-03;  0.0000000E+00;  1.0534757E-05;  1.0001257E+03;  1.0000000E-01;  1.0419459E+02;3;  1.2113560E+00;  0.0000000E+00;  4.8790492E-02;0;  5.1055241E-02;  4.0011996E+04;  0.0000000E+00;  3.1572688E-02;  4.0000000E+04;  0.0000000E+00;  4.0000289E+04;  5.4312631E-02;  0.0000000E+00; -3.2573899E-03;  4.8046310E+01;
  3.7159154E-01;  9.9999998E-03; -9.0002015E-02;4724;  9.1216294E-03;  0.0000000E+00; -1.9855948E-05;  1.0001536E+03;  1.0000000E-01;  1.2730504E+02;3;  1.1228645E+00;  0.0000000E+00;  3.9165128E-02;0;  5.1633760E-02;  4.0013297E+04;  0.0000000E+00;  4.6148270E-02;  4.0000000E+04;  0.0000000E+00;  4.0001184E+04;  5.4908633E-02;  0.0000000E+00; -3.2748717E-03;  1.4209058E+02;
  3.7158626E-01;  9.9999998E-03; -8.0004118E-02;4725;  9.0635885E-03;  0.0000000E+00; -3.6062884E-05;  1.0001852E+03;  1.0000000E-01;  1.5347714E+02;3;  1.0727862E+00;  0.0000000E+00;  2.3815002E-02;0;  5.2171879E-02;  4.0015074E+04;  0.0000000E+00;  5.1269852E-02;  4.0000000E+04;  0.0000000E+00;  4.0001734E+04;  5.5463225E-02;  0.0000000E+00; -3.2913475E-03;  2.2079625E+02;
  3.7158602E-01;  9.9999998E-03; -7.0005253E-02;4726;  9.0465471E-03;  0.0000000E+00; -3.5529069E-05;  1.0002219E+03;  1.0000000E-01;  1.8389603E+02;3;  1.0623131E+00;  0.0000000E+00;  5.0598355E-03;0;  5.2668639E-02;  4.0017582E+04;  0.0000000E+00;  4.8942752E-02;  4.0000000E+04;  0.0000000E+00;  4.0002078E+04;  5.5978045E-02;  0.0000000E+00; -3.3094063E-03;  2.6298331E+02;
  3.7158838E-01;  9.9999998E-03; -6.0005903E-02;4727;  9.0372311E-03;  0.0000000E+00; -1.9584535E-05;  1.0002581E+03;  1.0000000E-01;  2.1382111E+02;3;  1.0684444E+00;  0.0000000E+00; -6.4584175E-03;0;  5.3119604E-02;  4.0020719E+04;  0.0000000E+00;  4.1655280E-02;  4.0000000E+04;  0.0000000E+00;  4.0002359E+04;  5.6450736E-02;  0.0000000E+00; -3.3311332E-03;  2.6572656E+02;
  3.7158835E-01;  9.9999998E-03; -5.0006192E-02;4728;  9.0277661E-03;  0.0000000E+00; -1.5426336E-06;  1.0003001E+03;  1.0000000E-01;  2.4868433E+02;3;  1.0783317E+00;  0.0000000E+00; -6.4797425E-03;0;  5.3516541E-02;  4.0024215E+04;  0.0000000E+00;  3.1893145E-02;  4.0000000E+04;  0.0000000E+00;  4.0002156E+04;  5.6873418E-02;  0.0000000E+00; -3.3568766E-03;  2.3396519E+02;
  3.7158495E-01;  9.9999998E-03; -4.0006090E-02;4729;  9.0177571E-03;  0.0000000E+00;  9.0537569E-06;  1.0003412E+03;  1.0000000E-01;  2.8275745E+02;3;  1.0868456E+00;  0.0000000E+00; -6.6961781E-03;0;  5.3851999E-02;  4.0027629E+04;  0.0000000E+00;  2.1745319E-02;  4.0000000E+04;  0.0000000E+00;  4.0001727E+04;  5.7237182E-02;  0.0000000E+00; -3.3851843E-03;  1.7841812E+02;
  3.7157992E-01;  9.9999998E-03; -3.0005451E-02;4730;  9.0084765E-03;  0.0000000E+00;  1.2208970E-05;  1.0003715E+03;  1.0000000E-01;  3.0784314E+02;3;  1.0936590E+00;  0.0000000E+00; -5.6888643E-03;0;  5.4119650E-02;  4.0030785E+04;  0.0000000E+00;  1.2726299E-02;  4.0000000E+04;  0.0000000E+00;  4.0001215E+04;  5.7532806E-02;  0.0000000E+00; -3.4131547E-03;  1.1316983E+02;
  3.7157506E-01;  9.9999998E-03; -2.0004204E-02;4731;  9.0007512E-03;  0.0000000E+00;  1.0236888E-05;  1.0004002E+03;  1.0000000E-01;  3.3154617E+02;3;  1.0984669E+00;  0.0000000E+00; -3.1519523E-03;0;  5.4314829E-02;  4.0033473E+04;  0.0000000E+00;  5.7905377E-03;  4.0000000E+04;  0.0000000E+00;  4.0000820E+04;  5.7751868E-02;  0.0000000E+00; -3.4370376E-03;  5.3025082E+01;
  3.7157089E-01;  9.9999998E-03; -1.0002338E-02;4732;  8.9954697E-03;  0.0000000E+00;  5.6322037E-06;  1.0004165E+03;  1.0000000E-01;  3.4507666E+02;3;  1.1012744E+00;  0.0000000E+00; -1.1397736E-03;0;  5.4432932E-02;  4.0035020E+04;  0.0000000E+00;  1.4654746E-03;  4.0000000E+04;  0.0000000E+00;  4.0000297E+04;  5.7886057E-02;  0.0000000E+00; -3.4531227E-03;  1.0916330E+01;
  3.7156904E-01;  9.9999998E-03;  2.1327522E-09;4733;  8.9937113E-03;  0.0000000E+00;  8.0828473E-09;  1.0004231E+03;  1.0000000E-01;  3.5050861E+02;3;  1.1014030E+00;  0.0000000E+00; -6.6452549E-06;0;  5.4472305E-02;  4.0035742E+04;  0.0000000E+00;  1.3158819E-12;  4.0000000E+04;  0.0000000E+00;  4.0000160E+04;  5.7931099E-02;  0.0000000E+00; -3.4587961E-03;  4.2849851E+00;
  3.7157089E-01;  9.9999998E-03;  1.0002342E-02;4734;  8.9954706E-03;  0.0000000E+00; -5.6152981E-06;  1.0004165E+03;  1.0000000E-01;  3.4507666E+02;3;  1.1012777E+00;  0.0000000E+00;  1.1334267E-03;0;  5.4432895E-02;  4.0035020E+04;  0.0000000E+00;  1.4651882E-03;  4.0000000E+04;  0.0000000E+00;  4.0000297E+04;  5.7886008E-02;  0.0000000E+00; -3.4531148E-03;  1.0911333E+01;
  3.7157506E-01;  9.9999998E-03;  2.0004209E-02;4735;  9.0007521E-03;  0.0000000E+00; -1.0220302E-05;  1.0004003E+03;  1.0000000E-01;  3.3164493E+02;3;  1.0984663E+00;  0.0000000E+00;  3.1464514E-03;0;  5.4314721E-02;  4.0033473E+04;  0.0000000E+00;  5.7900604E-03;  4.0000000E+04;  0.0000000E+00;  4.0000820E+04;  5.7751741E-02;  0.0000000E+00; -3.4370183E-03;  5.3017918E+01;
  3.7157992E-01;  9.9999998E-03;  3.0005455E-02;4736;  9.0084784E-03;  0.0000000E+00; -1.2193757E-05;  1.0003715E+03;  1.0000000E-01;  3.0784314E+02;3;  1.0936559E+00;  0.0000000E+00;  5.6875553E-03;0;  5.4119598E-02;  4.0030785E+04;  0.0000000E+00;  1.2725489E-02;  4.0000000E+04;  0.0000000E+00;  4.0001215E+04;  5.7532728E-02;  0.0000000E+00; -3.4131305E-03;  1.1317735E+02;
  3.7158495E-01;  9.9999998E-03;  4.0006094E-02;4737;  9.0177581E-03;  0.0000000E+00; -9.0375206E-06;  1.0003412E+03;  1.0000000E-01;  2.8275745E+02;3;  1.0868410E+00;  0.0000000E+00;  6.7048818E-03;0;  5.3851768E-02;  4.0027629E+04;  0.0000000E+00;  2.1744261E-02;  4.0000000E+04;  0.0000000E+00;  4.0001727E+04;  5.7236925E-02;  0.0000000E+00; -3.3851583E-03;  1.7841649E+02;
  3.7158835E-01;  9.9999998E-03;  5.0006196E-02;4738;  9.0277689E-03;  0.0000000E+00;  1.5603321E-06;  1.0003002E+03;  1.0000000E-01;  2.4868433E+02;3;  1.0783304E+00;  0.0000000E+00;  6.4946814E-03;0;  5.3516276E-02;  4.0024207E+04;  0.0000000E+00;  3.1891614E-02;  4.0000000E+04;  0.0000000E+00;  4.0002156E+04;  5.6873124E-02;  0.0000000E+00; -3.3568463E-03;  2.3395969E+02;
  3.7158838E-01;  9.9999998E-03;  6.0005907E-02;4739;  9.0372358E-03;  0.0000000E+00;  1.9604720E-05;  1.0002581E+03;  1.0000000E-01;  2.1382111E+02;3;  1.0684416E+00;  0.0000000E+00;  6.4866068E-03;0;  5.3119346E-02;  4.0020715E+04;  0.0000000E+00;  4.1654378E-02;  4.0000000E+04;  0.0000000E+00;  4.0002359E+04;  5.6450445E-02;  0.0000000E+00; -3.3310968E-03;  2.6571857E+02;
  3.8161641E-01;  9.9999998E-03; -9.9996775E-02;4784;  1.1029084E-02;  0.0000000E+00;  2.3906362E-04;  1.0000900E+03;  1.0000000E-01;  7.4565796E+01;3;  1.7438599E+00;  0.0000000E+00;  9.5425211E-02;0;  5.5159654E-02;  4.0008402E+04;  0.0000000E+00;  6.4169362E-02;  4.0000000E+04;  0.0000000E+00;  4.0000637E+04;  5.8712088E-02;  0.0000000E+00; -3.5524317E-03;  1.0476521E+02;
  3.8159910E-01;  9.9999998E-03; -9.0000071E-02;4785;  1.0438905E-02;  0.0000000E+00;  1.8844231E-04;  1.0001148E+03;  1.0000000E-01;  9.5108421E+01;3;  1.6410978E+00;  0.0000000E+00;  8.3656110E-02;0;  5.5986747E-02;  4.0009805E+04;  0.0000000E+00;  6.9164969E-02;  4.0000000E+04;  0.0000000E+00;  4.0001176E+04;  5.9580319E-02;  0.0000000E+00; -3.5935722E-03;  1.6706303E+02;
  3.8158044E-01;  9.9999998E-03; -8.0001734E-02;4786;  9.8891770E-03;  0.0000000E+00;  1.5433610E-04;  1.0001415E+03;  1.0000000E-01;  1.1723125E+02;3;  1.5165865E+00;  0.0000000E+00;  7.1837395E-02;0;  5.6777492E-02;  4.0011637E+04;  0.0000000E+00;  6.6500247E-02;  4.0000000E+04;  0.0000000E+00;  4.0001664E+04;  6.0411390E-02;  0.0000000E+00; -3.6338989E-03;  2.1698334E+02;
  3.8156545E-01;  9.9999998E-03; -7.0002548E-02;4787;  9.5515745E-03;  0.0000000E+00;  1.3433944E-04;  1.0001780E+03;  1.0000000E-01;  1.4745262E+02;3;  1.3896792E+00;  0.0000000E+00;  6.1599445E-02;0;  5.7517737E-02;  4.0013906E+04;  0.0000000E+00;  5.8369856E-02;  4.0000000E+04;  0.0000000E+00;  4.0001973E+04;  6.1193377E-02;  0.0000000E+00; -3.6756380E-03;  2.4036761E+02;
  3.8155329E-01;  9.9999998E-03; -6.0003329E-02;4788;  9.3818353E-03;  0.0000000E+00;  1.1924359E-04;  1.0002111E+03;  1.0000000E-01;  1.7480988E+02;3;  1.2911042E+00;  0.0000000E+00;  5.6900527E-02;0;  5.8192290E-02;  4.0016695E+04;  0.0000000E+00;  4.7136713E-02;  4.0000000E+04;  0.0000000E+00;  4.0002090E+04;  6.1912660E-02;  0.0000000E+00; -3.7203685E-03;  2.3457596E+02;
  3.8154289E-01;  9.9999998E-03; -5.0004162E-02;4789;  9.2989067E-03;  0.0000000E+00;  1.0380496E-04;  1.0002428E+03;  1.0000000E-01;  2.0117949E+02;3;  1.2342771E+00;  0.0000000E+00;  4.8631780E-02;0;  5.8787093E-02;  4.0019723E+04;  0.0000000E+00;  3.4913823E-02;  4.0000000E+04;  0.0000000E+00;  4.0001578E+04;  6.2555008E-02;  0.0000000E+00; -3.7679165E-03;  2.0335202E+02;
  3.8153335E-01;  9.9999998E-03; -4.0004548E-02;4790;  9.2567839E-03;  0.0000000E+00;  8.8518042E-05;  1.0002751E+03;  1.0000000E-01;  2.2794417E+02;3;  1.2028685E+00;  0.0000000E+00;  4.0411141E-02;0;  5.9289571E-02;  4.0022547E+04;  0.0000000E+00;  2.3329981E-02;  4.0000000E+04;  0.0000000E+00;  4.0001223E+04;  6.3105620E-02;  0.0000000E+00; -3.8160493E-03;  1.5508099E+02;
  3.8152415E-01;  9.9999998E-03; -3.0004220E-02;4791;  9.2351744E-03;  0.0000000E+00;  7.1942697E-05;  1.0003046E+03;  1.0000000E-01;  2.5233855E+02;3;  1.1856977E+00;  0.0000000E+00;  3.1274091E-02;0;  5.9689272E-02;  4.0025047E+04;  0.0000000E+00;  1.3498073E-02;  4.0000000E+04;  0.0000000E+00;  4.0000746E+04;  6.3550092E-02;  0.0000000E+00; -3.8608215E-03;  1.0059861E+02;
  3.8151580E-01;  9.9999998E-03; -2.0003255E-02;4792;  9.2243208E-03;  0.0000000E+00;  5.2331990E-05;  1.0003259E+03;  1.0000000E-01;  2.7001706E+02;3;  1.1765631E+00;  0.0000000E+00;  2.1586422E-02;0;  5.9979089E-02;  4.0027137E+04;  0.0000000E+00;  6.1053145E-03;  4.0000000E+04;  0.0000000E+00;  4.0000707E+04;  6.3876592E-02;  0.0000000E+00; -3.8975021E-03;  5.1304955E+01;
  3.8150999E-01;  9.9999998E-03; -1.0001749E-02;4793;  9.2194974E-03;  0.0000000E+00;  2.8476556E-05;  1.0003344E+03;  1.0000000E-01;  2.7702921E+02;3;  1.1719500E+00;  0.0000000E+00;  1.0408765E-02;0;  6.0154594E-02;  4.0028742E+04;  0.0000000E+00;  1.5410781E-03;  4.0000000E+04;  0.0000000E+00;  4.0000566E+04;  6.4076222E-02;  0.0000000E+00; -3.9216280E-03;  1.7141869E+01;
  3.8150772E-01;  9.9999998E-03;  2.4716234E-09;4794;  9.2183603E-03;  0.0000000E+00;  2.0505997E-08;  1.0003414E+03;  1.0000000E-01;  2.8285620E+02;3;  1.1721390E+00;  0.0000000E+00;  1.1731765E-06;0;  6.0213063E-02;  4.0029199E+04;  0.0000000E+00;  1.3943006E-12;  4.0000000E+04;  0.0000000E+00;  4.0000363E+04;  6.4143106E-02;  0.0000000E+00; -3.9300439E-03;  4.9814610E+00;
  3.8150999E-01;  9.9999998E-03;  1.0001754E-02;4795;  9.2194956E-03;  0.0000000E+00; -2.8436036E-05;  1.0003343E+03;  1.0000000E-01;  2.7693045E+02;3;  1.1719526E+00;  0.0000000E+00; -1.0406188E-02;0;  6.0154520E-02;  4.0028746E+04;  0.0000000E+00;  1.5408659E-03;  4.0000000E+04;  0.0000000E+00;  4.0000566E+04;  6.4076141E-02;  0.0000000E+00; -3.9216205E-03;  1.7145201E+01;
  3.8151580E-01;  9.9999998E-03;  2.0003261E-02;4796;  9.2243170E-03;  0.0000000E+00; -5.2293050E-05;  1.0003259E+03;  1.0000000E-01;  2.7001706E+02;3;  1.1765577E+00;  0.0000000E+00; -2.1582536E-02;0;  5.9979007E-02;  4.0027137E+04;  0.0000000E+00;  6.1047110E-03;  4.0000000E+04;  0.0000000E+00;  4.0000707E+04;  6.3876487E-02;  0.0000000E+00; -3.8974802E-03;  5.1314499E+01;
  3.8152415E-01;  9.9999998E-03;  3.0004226E-02;4797;  9.2351688E-03;  0.0000000E+00; -7.1904753E-05;  1.0003046E+03;  1.0000000E-01;  2.5233855E+02;3;  1.1856910E+00;  0.0000000E+00; -3.1268369E-02;0;  5.9689101E-02;  4.0025047E+04;  0.0000000E+00;  1.3497596E-02;  4.0000000E+04;  0.0000000E+00;  4.0000746E+04;  6.3549899E-02;  0.0000000E+00; -3.8607980E-03;  1.0058804E+02;
  3.8153335E-01;  9.9999998E-03;  4.0004555E-02;4798;  9.2567755E-03;  0.0000000E+00; -8.8478497E-05;  1.0002750E+03;  1.0000000E-01;  2.2784541E+02;3;  1.2028621E+00;  0.0000000E+00; -4.0397037E-02;0;  5.9289284E-02;  4.0022547E+04;  0.0000000E+00;  2.3328269E-02;  4.0000000E+04;  0.0000000E+00;  4.0001223E+04;  6.3105300E-02;  0.0000000E+00; -3.8160160E-03;  1.5506345E+02;
  3.8154289E-01;  9.9999998E-03;  5.0004166E-02;4799;  9.2988955E-03;  0.0000000E+00; -1.0376354E-04;  1.0002428E+03;  1.0000000E-01;  2.0117949E+02;3;  1.2342676E+00;  0.0000000E+00; -4.8613697E-02;0;  5.8786854E-02;  4.0019719E+04;  0.0000000E+00;  3.4913030E-02;  4.0000000E+04;  0.0000000E+00;  4.0001578E+04;  6.2554739E-02;  0.0000000E+00; -3.7678834E-03;  2.0334845E+02;
  3.8155329E-01;  9.9999998E-03;  6.0003333E-02;4800;  9.3818223E-03;  0.0000000E+00; -1.1920030E-04;  1.0002111E+03;  1.0000000E-01;  1.7480988E+02;3;  1.2910942E+00;  0.0000000E+00; -5.6873962E-02;0;  5.8192030E-02;  4.0016707E+04;  0.0000000E+00;  4.7136217E-02;  4.0000000E+04;  0.0000000E+00;  4.0002090E+04;  6.1912362E-02;  0.0000000E+00; -3.7203333E-03;  2.3455772E+02;
  3.9163512E-01;  9.9999998E-03; -9.9994034E-02;4845;  1.3211065E-02;  0.0000000E+00;  5.8227062E-04;  1.0000439E+03;  1.0000000E-01;  3.6344650E+01;3;  2.1864779E+00;  0.0000000E+00;  1.3485381E-01;0;  5.7782967E-02;  4.0003922E+04;  0.0000000E+00;  9.0787962E-02;  4.0000000E+04;  0.0000000E+00;  4.0000785E+04;  6.1651252E-02;  0.0000000E+00; -3.8682839E-03;  1.4507709E+02;
  3.9162353E-01;  9.9999998E-03; -8.9996487E-02;4846;  1.2924515E-02;  0.0000000E+00;  5.1745231E-04;  1.0000535E+03;  1.0000000E-01;  4.4344425E+01;3;  2.1418808E+00;  0.0000000E+00;  1.2139013E-01;0;  5.8853991E-02;  4.0004637E+04;  0.0000000E+00;  8.7415062E-02;  4.0000000E+04;  0.0000000E+00;  4.0001203E+04;  6.2788107E-02;  0.0000000E+00; -3.9341133E-03;  1.7548291E+02;
  3.9160439E-01;  9.9999998E-03; -7.9997823E-02;4847;  1.2595211E-02;  0.0000000E+00;  4.5817709E-04;  1.0000673E+03;  1.0000000E-01;  5.5800892E+01;3;  2.0969951E+00;  0.0000000E+00;  1.0727128E-01;0;  5.9889797E-02;  4.0005562E+04;  0.0000000E+00;  7.8422613E-02;  4.0000000E+04;  0.0000000E+00;  4.0001254E+04;  6.3889481E-02;  0.0000000E+00; -3.9996840E-03;  1.9908310E+02;
  3.9158136E-01;  9.9999998E-03; -6.9998853E-02;4848;  1.2289311E-02;  0.0000000E+00;  4.0831062E-04;  1.0000861E+03;  1.0000000E-01;  7.1306625E+01;3;  2.0575633E+00;  0.0000000E+00;  9.3169235E-02;0;  6.0857359E-02;  4.0006547E+04;  0.0000000E+00;  6.5880515E-02;  4.0000000E+04;  0.0000000E+00;  4.0001422E+04;  6.4923473E-02;  0.0000000E+00; -4.0661148E-03;  2.0737762E+02;
  3.9155731E-01;  9.9999998E-03; -5.9999738E-02;4849;  1.2064504E-02;  0.0000000E+00;  3.6416374E-04;  1.0001039E+03;  1.0000000E-01;  8.6022255E+01;3;  2.0354409E+00;  0.0000000E+00;  8.0689818E-02;0;  6.1730146E-02;  4.0008039E+04;  0.0000000E+00;  5.1775038E-02;  4.0000000E+04;  0.0000000E+00;  4.0001551E+04;  6.5864310E-02;  0.0000000E+00; -4.1341647E-03;  1.9780975E+02;
  3.9153388E-01;  9.9999998E-03; -5.0000425E-02;4850;  1.1939148E-02;  0.0000000E+00;  3.2025288E-04;  1.0001185E+03;  1.0000000E-01;  9.8170067E+01;3;  2.0292089E+00;  0.0000000E+00;  6.7773037E-02;0;  6.2488943E-02;  4.0009543E+04;  0.0000000E+00;  3.7748959E-02;  4.0000000E+04;  0.0000000E+00;  4.0001363E+04;  6.6691823E-02;  0.0000000E+00; -4.2028814E-03;  1.7235632E+02;
  3.9151284E-01;  9.9999998E-03; -4.0000819E-02;4851;  1.1905162E-02;  0.0000000E+00;  2.7105148E-04;  1.0001333E+03;  1.0000000E-01;  1.1041663E+02;3;  2.0383034E+00;  0.0000000E+00;  5.4274648E-02;0;  6.3120618E-02;  4.0010980E+04;  0.0000000E+00;  2.5019163E-02;  4.0000000E+04;  0.0000000E+00;  4.0001113E+04;  6.7389965E-02;  0.0000000E+00; -4.2693503E-03;  1.3618869E+02;
  3.9149559E-01;  9.9999998E-03; -3.0000871E-02;4852;  1.1934562E-02;  0.0000000E+00;  2.1445703E-04;  1.0001448E+03;  1.0000000E-01;  1.1989784E+02;3;  2.0572469E+00;  0.0000000E+00;  4.0978592E-02;0;  6.3617036E-02;  4.0012434E+04;  0.0000000E+00;  1.4425468E-02;  4.0000000E+04;  0.0000000E+00;  4.0000816E+04;  6.7946129E-02;  0.0000000E+00; -4.3290914E-03;  9.6589531E+01;
  3.9148244E-01;  9.9999998E-03; -2.0000689E-02;4853;  1.1989996E-02;  0.0000000E+00;  1.4841185E-04;  1.0001525E+03;  1.0000000E-01;  1.2631741E+02;3;  2.0774314E+00;  0.0000000E+00;  2.7316665E-02;0;  6.3973635E-02;  4.0013273E+04;  0.0000000E+00;  6.5184268E-03;  4.0000000E+04;  0.0000000E+00;  4.0000750E+04;  6.8350472E-02;  0.0000000E+00; -4.3768371E-03;  6.1248222E+01;
  3.9147404E-01;  9.9999998E-03; -1.0000387E-02;4854;  1.2039173E-02;  0.0000000E+00;  7.5951619E-05;  1.0001581E+03;  1.0000000E-01;  1.3095926E+02;3;  2.0927536E+00;  0.0000000E+00;  1.3817827E-02;0;  6.4188078E-02;  4.0014102E+04;  0.0000000E+00;  1.6452655E-03;  4.0000000E+04;  0.0000000E+00;  4.0000516E+04;  6.8595849E-02;  0.0000000E+00; -4.4077677E-03;  3.7065933E+01;
  3.9147094E-01;  9.9999998E-03;  2.8696612E-09;4855;  1.2058200E-02;  0.0000000E+00;  3.7083577E-08;  1.0001602E+03;  1.0000000E-01;  1.3273698E+02;3;  2.0984004E+00;  0.0000000E+00;  1.7747946E-06;0;  6.4259529E-02;  4.0014246E+04;  0.0000000E+00;  1.5880975E-12;  4.0000000E+04;  0.0000000E+00;  4.0000504E+04;  6.8677999E-02;  0.0000000E+00; -4.4184723E-03;  2.8577669E+01;
  3.9147404E-01;  9.9999998E-03;  1.0000393E-02;4856;  1.2039185E-02;  0.0000000E+00; -7.5877535E-05;  1.0001581E+03;  1.0000000E-01;  1.3095926E+02;3;  2.0927575E+00;  0.0000000E+00; -1.3813363E-02;0;  6.4188093E-02;  4.0014098E+04;  0.0000000E+00;  1.6451839E-03;  4.0000000E+04;  0.0000000E+00;  4.0000516E+04;  6.8595856E-02;  0.0000000E+00; -4.4077635E-03;  3.7069324E+01;
  3.9148244E-01;  9.9999998E-03;  2.0000694E-02;4857;  1.1990007E-02;  0.0000000E+00; -1.4833789E-04;  1.0001525E+03;  1.0000000E-01;  1.2631741E+02;3;  2.0774400E+00;  0.0000000E+00; -2.7311442E-02;0;  6.3973591E-02;  4.0013270E+04;  0.0000000E+00;  6.5180385E-03;  4.0000000E+04;  0.0000000E+00;  4.0000754E+04;  6.8350412E-02;  0.0000000E+00; -4.3768198E-03;  6.1250626E+01;
  3.9149559E-01;  9.9999998E-03;  3.0000877E-02;4858;  1.1934564E-02;  0.0000000E+00; -2.1438346E-04;  1.0001448E+03;  1.0000000E-01;  1.1989784E+02;3;  2.0572560E+00;  0.0000000E+00; -4.0968806E-02;0;  6.3616946E-02;  4.0012434E+04;  0.0000000E+00;  1.4424759E-02;  4.0000000E+04;  0.0000000E+00;  4.0000809E+04;  6.7946017E-02;  0.0000000E+00; -4.3290667E-03;  9.6578598E+01;
  3.9151284E-01;  9.9999998E-03;  4.0000826E-02;4859;  1.1905150E-02;  0.0000000E+00; -2.7097802E-04;  1.0001333E+03;  1.0000000E-01;  1.1041663E+02;3;  2.0383062E+00;  0.0000000E+00; -5.4259930E-02;0;  6.3120447E-02;  4.0010984E+04;  0.0000000E+00;  2.5018509E-02;  4.0000000E+04;  0.0000000E+00;  4.0001117E+04;  6.7389771E-02;  0.0000000E+00; -4.2693210E-03;  1.3618047E+02;
  3.9153388E-01;  9.9999998E-03;  5.0000433E-02;4860;  1.1939130E-02;  0.0000000E+00; -3.2017997E-04;  1.0001185E+03;  1.0000000E-01;  9.8170067E+01;3;  2.0292110E+00;  0.0000000E+00; -6.7752257E-02;0;  6.2488731E-02;  4.0009543E+04;  0.0000000E+00;  3.7748132E-02;  4.0000000E+04;  0.0000000E+00;  4.0001363E+04;  6.6691577E-02;  0.0000000E+00; -4.2028450E-03;  1.7233800E+02;
  3.9155731E-01;  9.9999998E-03;  5.9999745E-02;4861;  1.2064477E-02;  0.0000000E+00; -3.6408924E-04;  1.0001038E+03;  1.0000000E-01;  8.6022255E+01;3;  2.0354390E+00;  0.0000000E+00; -8.0663450E-02;0;  6.1729886E-02;  4.0008039E+04;  0.0000000E+00;  5.1774789E-02;  4.0000000E+04;  0.0000000E+00;  4.0001547E+04;  6.5864019E-02;  0.0000000E+00; -4.1341353E-03;  1.9780312E+02;
  4.0163872E-01;  9.9999998E-03; -9.9994026E-02;4906;  1.4498405E-02;  0.0000000E+00;  7.9472020E-04;  9.9998175E+02;  1.0000000E-01; -1.5110683E+01;3;  2.4806569E+00;  0.0000000E+00;  1.5910102E-01;0;  5.9021074E-02;  3.9998828E+04;  0.0000000E+00;  1.1068571E-01;  4.0000000E+04;  0.0000000E+00;  4.0000496E+04;  6.3210115E-02;  0.0000000E+00; -4.1890419E-03;  1.6813081E+02;
  4.0163213E-01;  9.9999998E-03; -8.9994982E-02;4907;  1.4486907E-02;  0.0000000E+00;  7.3008769E-04;  9.9998193E+02;  1.0000000E-01; -1.4962540E+01;3;  2.4774487E+00;  0.0000000E+00;  1.4452149E-01;0;  6.0268659E-02;  3.9998414E+04;  0.0000000E+00;  1.0080034E-01;  4.0000000E+04;  0.0000000E+00;  4.0000816E+04;  6.4546190E-02;  0.0000000E+00; -4.2775311E-03;  1.7066367E+02;
  4.0161785E-01;  9.9999998E-03; -7.9995416E-02;4908;  1.4502485E-02;  0.0000000E+00;  6.6769571E-04;  9.9996942E+02;  1.0000000E-01; -2.5332617E+01;3;  2.4843643E+00;  0.0000000E+00;  1.2882391E-01;0;  6.1478555E-02;  3.9997824E+04;  0.0000000E+00;  8.7090477E-02;  4.0000000E+04;  0.0000000E+00;  4.0001105E+04;  6.5845668E-02;  0.0000000E+00; -4.3671145E-03;  1.7104234E+02;
  4.0159798E-01;  9.9999998E-03; -6.9995925E-02;4909;  1.4573901E-02;  0.0000000E+00;  6.1010738E-04;  9.9996423E+02;  1.0000000E-01; -2.9628792E+01;3;  2.5040810E+00;  0.0000000E+00;  1.1612517E-01;0;  6.2605098E-02;  3.9996902E+04;  0.0000000E+00;  7.1372151E-02;  4.0000000E+04;  0.0000000E+00;  4.0000898E+04;  6.7062475E-02;  0.0000000E+00; -4.4573769E-03;  1.6689494E+02;
  4.0157604E-01;  9.9999998E-03; -5.9996612E-02;4910;  1.4701518E-02;  0.0000000E+00;  5.5074133E-04;  9.9995593E+02;  1.0000000E-01; -3.6492794E+01;3;  2.5327542E+00;  0.0000000E+00;  1.0201569E-01;0;  6.3612245E-02;  3.9996246E+04;  0.0000000E+00;  5.5228617E-02;  4.0000000E+04;  0.0000000E+00;  4.0000969E+04;  6.8159990E-02;  0.0000000E+00; -4.5477455E-03;  1.5662282E+02;
  4.0155497E-01;  9.9999998E-03; -4.9997285E-02;4911;  1.4873245E-02;  0.0000000E+00;  4.8623848E-04;  9.9994507E+02;  1.0000000E-01; -4.5529575E+01;3;  2.5681744E+00;  0.0000000E+00;  8.7110475E-02;0;  6.4475998E-02;  3.9995879E+04;  0.0000000E+00;  3.9907746E-02;  4.0000000E+04;  0.0000000E+00;  4.0001078E+04;  6.9112308E-02;  0.0000000E+00; -4.6363086E-03;  1.4028772E+02;
  4.0153536E-01;  9.9999998E-03; -3.9997850E-02;4912;  1.5058568E-02;  0.0000000E+00;  4.1183413E-04;  9.9993451E+02;  1.0000000E-01; -5.4270069E+01;3;  2.6040447E+00;  0.0000000E+00;  7.2041079E-02;0;  6.5182842E-02;  3.9995098E+04;  0.0000000E+00;  2.6326837E-02;  4.0000000E+04;  0.0000000E+00;  4.0000688E+04;  6.9902219E-02;  0.0000000E+00; -4.7193738E-03;  1.1981456E+02;
  4.0151826E-01;  9.9999998E-03; -2.9998405E-02;4913;  1.5234716E-02;  0.0000000E+00;  3.2538155E-04;  9.9992780E+02;  1.0000000E-01; -5.9800777E+01;3;  2.6344771E+00;  0.0000000E+00;  5.5005390E-02;0;  6.5728292E-02;  3.9994719E+04;  0.0000000E+00;  1.5147671E-02;  4.0000000E+04;  0.0000000E+00;  4.0000824E+04;  7.0520326E-02;  0.0000000E+00; -4.7920356E-03;  9.8374886E+01;
  4.0150478E-01;  9.9999998E-03; -1.9998923E-02;4914;  1.5378254E-02;  0.0000000E+00;  2.2678009E-04;  9.9991931E+02;  1.0000000E-01; -6.6862305E+01;3;  2.6608181E+00;  0.0000000E+00;  3.7354957E-02;0;  6.6113457E-02;  3.9994445E+04;  0.0000000E+00;  6.8395762E-03;  4.0000000E+04;  0.0000000E+00;  4.0000535E+04;  7.0962407E-02;  0.0000000E+00; -4.8489487E-03;  7.9723122E+01;
  4.0149605E-01;  9.9999998E-03; -9.9994335E-03;4915;  1.5467701E-02;  0.0000000E+00;  1.1663029E-04;  9.9991772E+02;  1.0000000E-01; -6.8146217E+01;3;  2.6757972E+00;  0.0000000E+00;  1.9039253E-02;0;  6.6342168E-02;  3.9994141E+04;  0.0000000E+00;  1.7260624E-03;  4.0000000E+04;  0.0000000E+00;  4.0000504E+04;  7.1227469E-02;  0.0000000E+00; -4.8853010E-03;  6.7169472E+01;
  4.0149292E-01;  9.9999998E-03;  3.1447966E-09;4916;  1.5498523E-02;  0.0000000E+00;  3.3060104E-08;  9.9991449E+02;  1.0000000E-01; -7.0862190E+01;3;  2.6809289E+00;  0.0000000E+00;  1.0019568E-06;0;  6.6417769E-02;  3.9994180E+04;  0.0000000E+00;  3.4852988E-13;  4.0000000E+04;  0.0000000E+00;  4.0000348E+04;  7.1315572E-02;  0.0000000E+00; -4.8978007E-03;  6.2791626E+01;
  4.0149608E-01;  9.9999998E-03;  9.9994401E-03;4917;  1.5467701E-02;  0.0000000E+00; -1.1656430E-04;  9.9991766E+02;  1.0000000E-01; -6.8195602E+01;3;  2.6757960E+00;  0.0000000E+00; -1.9037219E-02;0;  6.6342197E-02;  3.9994137E+04;  0.0000000E+00;  1.7258783E-03;  4.0000000E+04;  0.0000000E+00;  4.0000504E+04;  7.1227483E-02;  0.0000000E+00; -4.8852889E-03;  6.7166206E+01;
  4.0150478E-01;  9.9999998E-03;  1.9998929E-02;4918;  1.5378251E-02;  0.0000000E+00; -2.2671344E-04;  9.9991931E+02;  1.0000000E-01; -6.6862305E+01;3;  2.6608255E+00;  0.0000000E+00; -3.7351452E-02;0;  6.6113397E-02;  3.9994457E+04;  0.0000000E+00;  6.8392730E-03;  4.0000000E+04;  0.0000000E+00;  4.0000535E+04;  7.0962325E-02;  0.0000000E+00; -4.8489263E-03;  7.9718163E+01;
  4.0151826E-01;  9.9999998E-03;  2.9998410E-02;4919;  1.5234708E-02;  0.0000000E+00; -3.2531426E-04;  9.9992773E+02;  1.0000000E-01; -5.9850159E+01;3;  2.6344764E+00;  0.0000000E+00; -5.5001184E-02;0;  6.5728188E-02;  3.9994715E+04;  0.0000000E+00;  1.5146933E-02;  4.0000000E+04;  0.0000000E+00;  4.0000824E+04;  7.0520192E-02;  0.0000000E+00; -4.7920048E-03;  9.8384247E+01;
  4.0153536E-01;  9.9999998E-03;  3.9997857E-02;4920;  1.5058555E-02;  0.0000000E+00; -4.1176484E-04;  9.9993457E+02;  1.0000000E-01; -5.4220688E+01;3;  2.6040487E+00;  0.0000000E+00; -7.2031833E-02;0;  6.5182686E-02;  3.9995102E+04;  0.0000000E+00;  2.6325826E-02;  4.0000000E+04;  0.0000000E+00;  4.0000684E+04;  6.9902033E-02;  0.0000000E+00; -4.7193430E-03;  1.1981905E+02;
  4.0155497E-01;  9.9999998E-03;  4.9997292E-02;4921;  1.4873216E-02;  0.0000000E+00; -4.8616636E-04;  9.9994501E+02;  1.0000000E-01; -4.5578957E+01;3;  2.5681746E+00;  0.0000000E+00; -8.7094299E-02;0;  6.4475760E-02;  3.9995879E+04;  0.0000000E+00;  3.9907094E-02;  4.0000000E+04;  0.0000000E+00;  4.0001078E+04;  6.9112040E-02;  0.0000000E+00; -4.6362765E-03;  1.4028926E+02;
  4.0157604E-01;  9.9999998E-03;  5.9996620E-02;4922;  1.4701487E-02;  0.0000000E+00; -5.5066694E-04;  9.9995593E+02;  1.0000000E-01; -3.6492794E+01;3;  2.5327511E+00;  0.0000000E+00; -1.0199722E-01;0;  6.3612126E-02;  3.9996246E+04;  0.0000000E+00;  5.5228800E-02;  4.0000000E+04;  0.0000000E+00;  4.0000969E+04;  6.8159848E-02;  0.0000000E+00; -4.5477208E-03;  1.5662213E+02;
  4.1163138E-01;  9.9999998E-03; -9.9997044E-02;4967;  1.5079356E-02;  0.0000000E+00;  8.3903602E-04;  9.9992834E+02;  1.0000000E-01; -5.9356346E+01;3;  2.6401765E+00;  0.0000000E+00;  1.6725215E-01;0;  5.9379656E-02;  3.9994211E+04;  0.0000000E+00;  1.2310220E-01;  4.0000000E+04;  0.0000000E+00;  3.9999934E+04;  6.3887067E-02;  0.0000000E+00; -4.5074108E-03;  1.7859541E+02;
  4.1162813E-01;  9.9999998E-03; -8.9996323E-02;4968;  1.5190340E-02;  0.0000000E+00;  7.8265357E-04;  9.9990497E+02;  1.0000000E-01; -7.8713821E+01;3;  2.6617408E+00;  0.0000000E+00;  1.5264091E-01;0;  6.0719378E-02;  3.9992391E+04;  0.0000000E+00;  1.0884975E-01;  4.0000000E+04;  0.0000000E+00;  4.0000098E+04;  6.5334298E-02;  0.0000000E+00; -4.6149176E-03;  1.6179047E+02;
  4.1161859E-01;  9.9999998E-03; -7.9995483E-02;4969;  1.5332380E-02;  0.0000000E+00;  7.2494621E-04;  9.9987146E+02;  1.0000000E-01; -1.0651550E+02;3;  2.6896141E+00;  0.0000000E+00;  1.3810711E-01;0;  6.2008794E-02;  3.9989844E+04;  0.0000000E+00;  9.2045702E-02;  4.0000000E+04;  0.0000000E+00;  4.0000160E+04;  6.6734120E-02;  0.0000000E+00; -4.7253245E-03;  1.4394724E+02;
  4.1160280E-01;  9.9999998E-03; -6.9994874E-02;4970;  1.5508672E-02;  0.0000000E+00;  6.6435820E-04;  9.9983734E+02;  1.0000000E-01; -1.3476163E+02;3;  2.7202024E+00;  0.0000000E+00;  1.2331707E-01;0;  6.3195713E-02;  3.9987031E+04;  0.0000000E+00;  7.4286275E-02;  4.0000000E+04;  0.0000000E+00;  4.0000574E+04;  6.8032078E-02;  0.0000000E+00; -4.8363679E-03;  1.2807628E+02;
  4.1158438E-01;  9.9999998E-03; -5.9994519E-02;4971;  1.5713334E-02;  0.0000000E+00;  5.9879874E-04;  9.9980200E+02;  1.0000000E-01; -1.6404474E+02;3;  2.7549047E+00;  0.0000000E+00;  1.0820070E-01;0;  6.4240761E-02;  3.9984082E+04;  0.0000000E+00;  5.6873832E-02;  4.0000000E+04;  0.0000000E+00;  4.0000777E+04;  6.9186643E-02;  0.0000000E+00; -4.9458784E-03;  1.1622681E+02;
  4.1156563E-01;  9.9999998E-03; -4.9994502E-02;4972;  1.5927110E-02;  0.0000000E+00;  5.2420993E-04;  9.9976178E+02;  1.0000000E-01; -1.9737714E+02;3;  2.7916672E+00;  0.0000000E+00;  9.3283184E-02;0;  6.5120392E-02;  3.9981289E+04;  0.0000000E+00;  4.0793084E-02;  4.0000000E+04;  0.0000000E+00;  4.0000902E+04;  7.0171155E-02;  0.0000000E+00; -5.0507621E-03;  1.0894984E+02;
  4.1154808E-01;  9.9999998E-03; -3.9994933E-02;4973;  1.6130600E-02;  0.0000000E+00;  4.3791684E-04;  9.9972583E+02;  1.0000000E-01; -2.2715407E+02;3;  2.8236456E+00;  0.0000000E+00;  7.6146834E-02;0;  6.5825231E-02;  3.9978250E+04;  0.0000000E+00;  2.6774231E-02;  4.0000000E+04;  0.0000000E+00;  4.0000672E+04;  7.0972018E-02;  0.0000000E+00; -5.1467838E-03;  1.0544578E+02;
  4.1153339E-01;  9.9999998E-03; -2.9995820E-02;4974;  1.6303753E-02;  0.0000000E+00;  3.3998257E-04;  9.9969818E+02;  1.0000000E-01; -2.5006700E+02;3;  2.8543885E+00;  0.0000000E+00;  5.9594478E-02;0;  6.6357367E-02;  3.9976035E+04;  0.0000000E+00;  1.5350747E-02;  4.0000000E+04;  0.0000000E+00;  4.0000781E+04;  7.1586296E-02;  0.0000000E+00; -5.2289278E-03;  1.0416032E+02;
  4.1152182E-01;  9.9999998E-03; -1.9997042E-02;4975;  1.6435375E-02;  0.0000000E+00;  2.3252486E-04;  9.9967114E+02;  1.0000000E-01; -2.7243674E+02;3;  2.8754642E+00;  0.0000000E+00;  3.9633501E-02;0;  6.6726081E-02;  3.9974285E+04;  0.0000000E+00;  6.9153607E-03;  4.0000000E+04;  0.0000000E+00;  4.0000766E+04;  7.2018191E-02;  0.0000000E+00; -5.2921106E-03;  1.0383804E+02;
  4.1151437E-01;  9.9999998E-03; -9.9984640E-03;4976;  1.6515722E-02;  0.0000000E+00;  1.1830105E-04;  9.9966034E+02;  1.0000000E-01; -2.8142413E+02;3;  2.8937740E+00;  0.0000000E+00;  2.0271497E-02;0;  6.6941716E-02;  3.9973227E+04;  0.0000000E+00;  1.7428538E-03;  4.0000000E+04;  0.0000000E+00;  4.0000664E+04;  7.2273687E-02;  0.0000000E+00; -5.3319694E-03;  1.0380159E+02;
  4.1151169E-01;  9.9999998E-03;  3.3359429E-09;4977;  1.6542675E-02;  0.0000000E+00;  3.2580161E-08;  9.9965442E+02;  1.0000000E-01; -2.8631290E+02;3;  2.9003048E+00;  0.0000000E+00; -2.0624088E-07;0;  6.7012504E-02;  3.9973031E+04;  0.0000000E+00; -3.9520554E-13;  4.0000000E+04;  0.0000000E+00;  4.0000715E+04;  7.2358109E-02;  0.0000000E+00; -5.3456016E-03;  1.0380528E+02;
  4.1151437E-01;  9.9999998E-03;  9.9984715E-03;4978;  1.6515717E-02;  0.0000000E+00; -1.1823587E-04;  9.9966028E+02;  1.0000000E-01; -2.8147351E+02;3;  2.8937747E+00;  0.0000000E+00; -2.0271620E-02;0;  6.6941775E-02;  3.9973223E+04;  0.0000000E+00;  1.7428249E-03;  4.0000000E+04;  0.0000000E+00;  4.0000664E+04;  7.2273739E-02;  0.0000000E+00; -5.3319638E-03;  1.0379484E+02;
  4.1152182E-01;  9.9999998E-03;  1.9997047E-02;4979;  1.6435364E-02;  0.0000000E+00; -2.3245940E-04;  9.9967120E+02;  1.0000000E-01; -2.7238736E+02;3;  2.8754673E+00;  0.0000000E+00; -3.9632961E-02;0;  6.6726156E-02;  3.9974281E+04;  0.0000000E+00;  6.9150981E-03;  4.0000000E+04;  0.0000000E+00;  4.0000762E+04;  7.2018251E-02;  0.0000000E+00; -5.2920976E-03;  1.0383917E+02;
  4.1153339E-01;  9.9999998E-03;  2.9995827E-02;4980;  1.6303735E-02;  0.0000000E+00; -3.3991702E-04;  9.9969818E+02;  1.0000000E-01; -2.5006700E+02;3;  2.8543894E+00;  0.0000000E+00; -5.9590422E-02;0;  6.6357389E-02;  3.9976039E+04;  0.0000000E+00;  1.5350862E-02;  4.0000000E+04;  0.0000000E+00;  4.0000781E+04;  7.1586296E-02;  0.0000000E+00; -5.2289097E-03;  1.0415720E+02;
  4.1154808E-01;  9.9999998E-03;  3.9994940E-02;4981;  1.6130572E-02;  0.0000000E+00; -4.3784996E-04;  9.9972583E+02;  1.0000000E-01; -2.2715407E+02;3;  2.8236454E+00;  0.0000000E+00; -7.6139547E-02;0;  6.5825015E-02;  3.9978250E+04;  0.0000000E+00;  2.6773367E-02;  4.0000000E+04;  0.0000000E+00;  4.0000672E+04;  7.0971780E-02;  0.0000000E+00; -5.1467610E-03;  1.0544073E+02;
  4.1156563E-01;  9.9999998E-03;  4.9994506E-02;4982;  1.5927071E-02;  0.0000000E+00; -5.2414130E-04;  9.9976178E+02;  1.0000000E-01; -1.9737714E+02;3;  2.7916615E+00;  0.0000000E+00; -9.3274049E-02;0;  6.5120108E-02;  3.9981297E+04;  0.0000000E+00;  4.0792774E-02;  4.0000000E+04;  0.0000000E+00;  4.0000902E+04;  7.0170842E-02;  0.0000000E+00; -5.0507323E-03;  1.0894799E+02;
  4.1158438E-01;  9.9999998E-03;  5.9994522E-02;4983;  1.5713284E-02;  0.0000000E+00; -5.9872668E-04;  9.9980200E+02;  1.0000000E-01; -1.6404474E+02;3;  2.7548969E+00;  0.0000000E+00; -1.0818691E-01;0;  6.4240739E-02;  3.9984082E+04;  0.0000000E+00;  5.6873437E-02;  4.0000000E+04;  0.0000000E+00;  4.0000777E+04;  6.9186583E-02;  0.0000000E+00; -4.9458463E-03;  1.1621664E+02;
  4.2162472E-01;  9.9999998E-03; -1.0000189E-01;5028;  1.5382507E-02;  0.0000000E+00;  8.1015145E-04;  9.9988019E+02;  1.0000000E-01; -9.9256454E+01;3;  2.7389143E+00;  0.0000000E+00;  1.6586266E-01;0;  5.9567343E-02;  3.9990387E+04;  0.0000000E+00;  1.2715405E-01;  4.0000000E+04;  0.0000000E+00;  3.9999699E+04;  6.4391643E-02;  0.0000000E+00; -4.8243008E-03;  1.8232343E+02;
  4.2162725E-01;  9.9999998E-03; -8.9999825E-02;5029;  1.5543951E-02;  0.0000000E+00;  7.5380376E-04;  9.9983630E+02;  1.0000000E-01; -1.3560110E+02;3;  2.7673547E+00;  0.0000000E+00;  1.5146750E-01;0;  6.0930248E-02;  3.9987199E+04;  0.0000000E+00;  1.1086594E-01;  4.0000000E+04;  0.0000000E+00;  3.9999773E+04;  6.5877467E-02;  0.0000000E+00; -4.9472176E-03;  1.5926122E+02;
  4.2162254E-01;  9.9999998E-03; -7.9997830E-02;5030;  1.5734879E-02;  0.0000000E+00;  6.9574988E-04;  9.9978296E+02;  1.0000000E-01; -1.7979738E+02;3;  2.8000224E+00;  0.0000000E+00;  1.3678353E-01;0;  6.2223673E-02;  3.9983066E+04;  0.0000000E+00;  9.2693552E-02;  4.0000000E+04;  0.0000000E+00;  3.9999926E+04;  6.7298576E-02;  0.0000000E+00; -5.0749015E-03;  1.3290765E+02;
  4.2161328E-01;  9.9999998E-03; -6.9996066E-02;5031;  1.5948959E-02;  0.0000000E+00;  6.3361309E-04;  9.9972571E+02;  1.0000000E-01; -2.2725284E+02;3;  2.8355474E+00;  0.0000000E+00;  1.2230151E-01;0;  6.3393973E-02;  3.9978281E+04;  0.0000000E+00;  7.4119464E-02;  4.0000000E+04;  0.0000000E+00;  4.0000016E+04;  6.8597153E-02;  0.0000000E+00; -5.2031809E-03;  1.0671133E+02;
  4.2160118E-01;  9.9999998E-03; -5.9994660E-02;5032;  1.6173720E-02;  0.0000000E+00;  5.6540390E-04;  9.9966553E+02;  1.0000000E-01; -2.7712796E+02;3;  2.8712859E+00;  0.0000000E+00;  1.0682120E-01;0;  6.4403854E-02;  3.9973172E+04;  0.0000000E+00;  5.6304511E-02;  4.0000000E+04;  0.0000000E+00;  4.0000289E+04;  6.9731958E-02;  0.0000000E+00; -5.3281072E-03;  8.7054657E+01;
  4.2158762E-01;  9.9999998E-03; -4.9993839E-02;5033;  1.6389048E-02;  0.0000000E+00;  4.8878486E-04;  9.9959900E+02;  1.0000000E-01; -3.3223752E+02;3;  2.9063921E+00;  0.0000000E+00;  9.1418065E-02;0;  6.5234289E-02;  3.9968008E+04;  0.0000000E+00;  4.0116251E-02;  4.0000000E+04;  0.0000000E+00;  4.0000191E+04;  7.0679702E-02;  0.0000000E+00; -5.4454147E-03;  8.2607765E+01;
  4.2157394E-01;  9.9999998E-03; -3.9993804E-02;5034;  1.6578835E-02;  0.0000000E+00;  4.0340432E-04;  9.9954181E+02;  1.0000000E-01; -3.7959421E+02;3;  2.9424291E+00;  0.0000000E+00;  7.6122485E-02;0;  6.5883264E-02;  3.9963410E+04;  0.0000000E+00;  2.6181521E-02;  4.0000000E+04;  0.0000000E+00;  4.0000164E+04;  7.1433656E-02;  0.0000000E+00; -5.5503934E-03;  9.4690834E+01;
  4.2156154E-01;  9.9999998E-03; -2.9994551E-02;5035;  1.6729025E-02;  0.0000000E+00;  3.0896018E-04;  9.9949402E+02;  1.0000000E-01; -4.1919803E+02;3;  2.9691348E+00;  0.0000000E+00;  5.8451910E-02;0;  6.6360988E-02;  3.9959559E+04;  0.0000000E+00;  1.4941796E-02;  4.0000000E+04;  0.0000000E+00;  4.0000395E+04;  7.1999244E-02;  0.0000000E+00; -5.6382571E-03;  1.1415719E+02;
  4.2155105E-01;  9.9999998E-03; -1.9995941E-02;5036;  1.6839476E-02;  0.0000000E+00;  2.0881240E-04;  9.9945367E+02;  1.0000000E-01; -4.5262918E+02;3;  2.9940298E+00;  0.0000000E+00;  3.9786909E-02;0;  6.6684134E-02;  3.9956242E+04;  0.0000000E+00;  6.7077596E-03;  4.0000000E+04;  0.0000000E+00;  4.0000609E+04;  7.2388709E-02;  0.0000000E+00; -5.7045729E-03;  1.3236311E+02;
  4.2154455E-01;  9.9999998E-03; -9.9978372E-03;5037;  1.6905956E-02;  0.0000000E+00;  1.0550735E-04;  9.9942969E+02;  1.0000000E-01; -4.7248047E+02;3;  3.0097911E+00;  0.0000000E+00;  2.0326298E-02;0;  6.6869758E-02;  3.9954477E+04;  0.0000000E+00;  1.6868747E-03;  4.0000000E+04;  0.0000000E+00;  4.0000691E+04;  7.2615638E-02;  0.0000000E+00; -5.7458808E-03;  1.4470828E+02;
  4.2154223E-01;  9.9999998E-03;  3.5569139E-09;5038;  1.6927233E-02;  0.0000000E+00;  3.3685961E-08;  9.9942151E+02;  1.0000000E-01; -4.7924570E+02;3;  3.0178275E+00;  0.0000000E+00; -2.6205794E-07;0;  6.6930078E-02;  3.9953816E+04;  0.0000000E+00; -6.5359659E-13;  4.0000000E+04;  0.0000000E+00;  4.0000676E+04;  7.2689980E-02;  0.0000000E+00; -5.7599046E-03;  1.4903467E+02;
  4.2154455E-01;  9.9999998E-03;  9.9978438E-03;5039;  1.6905952E-02;  0.0000000E+00; -1.0543985E-04;  9.9942969E+02;  1.0000000E-01; -4.7248047E+02;3;  3.0097885E+00;  0.0000000E+00; -2.0327039E-02;0;  6.6869728E-02;  3.9954484E+04;  0.0000000E+00;  1.6868336E-03;  4.0000000E+04;  0.0000000E+00;  4.0000695E+04;  7.2615609E-02;  0.0000000E+00; -5.7458803E-03;  1.4470720E+02;
  4.2155105E-01;  9.9999998E-03;  1.9995948E-02;5040;  1.6839463E-02;  0.0000000E+00; -2.0874478E-04;  9.9945361E+02;  1.0000000E-01; -4.5267856E+02;3;  2.9940319E+00;  0.0000000E+00; -3.9786521E-02;0;  6.6684224E-02;  3.9956238E+04;  0.0000000E+00;  6.7075142E-03;  4.0000000E+04;  0.0000000E+00;  4.0000609E+04;  7.2388791E-02;  0.0000000E+00; -5.7045650E-03;  1.3236816E+02;
  4.2156154E-01;  9.9999998E-03;  2.9994557E-02;5041;  1.6729005E-02;  0.0000000E+00; -3.0889304E-04;  9.9949402E+02;  1.0000000E-01; -4.1919803E+02;3;  2.9691398E+00;  0.0000000E+00; -5.8450263E-02;0;  6.6360973E-02;  3.9959559E+04;  0.0000000E+00;  1.4941376E-02;  4.0000000E+04;  0.0000000E+00;  4.0000395E+04;  7.1999207E-02;  0.0000000E+00; -5.6382371E-03;  1.1415896E+02;
  4.2157394E-01;  9.9999998E-03;  3.9993811E-02;5042;  1.6578807E-02;  0.0000000E+00; -4.0333671E-04;  9.9954181E+02;  1.0000000E-01; -3.7959421E+02;3;  2.9424298E+00;  0.0000000E+00; -7.6119684E-02;0;  6.5883167E-02;  3.9963410E+04;  0.0000000E+00;  2.6180238E-02;  4.0000000E+04;  0.0000000E+00;  4.0000168E+04;  7.1433537E-02;  0.0000000E+00; -5.5503729E-03;  9.4689529E+01;
  4.2158762E-01;  9.9999998E-03;  4.9993847E-02;5043;  1.6389012E-02;  0.0000000E+00; -4.8871682E-04;  9.9959906E+02;  1.0000000E-01; -3.3218814E+02;3;  2.9063849E+00;  0.0000000E+00; -9.1413692E-02;0;  6.5234199E-02;  3.9968012E+04;  0.0000000E+00;  4.0116347E-02;  4.0000000E+04;  0.0000000E+00;  4.0000191E+04;  7.0679583E-02;  0.0000000E+00; -5.4453863E-03;  8.2612068E+01;
  4.2160118E-01;  9.9999998E-03;  5.9994668E-02;5044;  1.6173670E-02;  0.0000000E+00; -5.6533335E-04;  9.9966553E+02;  1.0000000E-01; -2.7712796E+02;3;  2.8712730E+00;  0.0000000E+00; -1.0681476E-01;0;  6.4403735E-02;  3.9973164E+04;  0.0000000E+00;  5.6304630E-02;  4.0000000E+04;  0.0000000E+00;  4.0000293E+04;  6.9731824E-02;  0.0000000E+00; -5.3280867E-03;  8.7055473E+01;
  4.3162617E-01;  9.9999998E-03; -1.0000765E-01;5089;  1.5562904E-02;  0.0000000E+00;  7.3573587E-04;  9.9984662E+02;  1.0000000E-01; -1.2705814E+02;3;  2.8017416E+00;  0.0000000E+00;  1.5823847E-01;0;  6.0291190E-02;  3.9988062E+04;  0.0000000E+00;  1.2215243E-01;  4.0000000E+04;  0.0000000E+00;  3.9999609E+04;  6.5438539E-02;  0.0000000E+00; -5.1473486E-03;  1.8202853E+02;
  4.3163309E-01;  9.9999998E-03; -9.0004608E-02;5090;  1.5760843E-02;  0.0000000E+00;  6.8298285E-04;  9.9978943E+02;  1.0000000E-01; -1.7446420E+02;3;  2.8363464E+00;  0.0000000E+00;  1.4432412E-01;0;  6.1635744E-02;  3.9983605E+04;  0.0000000E+00;  1.0625447E-01;  4.0000000E+04;  0.0000000E+00;  3.9999551E+04;  6.6918969E-02;  0.0000000E+00; -5.2832249E-03;  1.6487614E+02;
  4.3163574E-01;  9.9999998E-03; -8.0001540E-02;5091;  1.5977422E-02;  0.0000000E+00;  6.2655221E-04;  9.9972003E+02;  1.0000000E-01; -2.3194406E+02;3;  2.8712480E+00;  0.0000000E+00;  1.2993963E-01;0;  6.2888190E-02;  3.9978363E+04;  0.0000000E+00;  8.8610612E-02;  4.0000000E+04;  0.0000000E+00;  3.9999340E+04;  6.8314016E-02;  0.0000000E+00; -5.4258266E-03;  1.4041667E+02;
  4.3163404E-01;  9.9999998E-03; -6.9998764E-02;5092;  1.6204361E-02;  0.0000000E+00;  5.6647998E-04;  9.9964001E+02;  1.0000000E-01; -2.9826318E+02;3;  2.9063671E+00;  0.0000000E+00;  1.1557043E-01;0;  6.3996516E-02;  3.9972004E+04;  0.0000000E+00;  7.0640944E-02;  4.0000000E+04;  0.0000000E+00;  3.9999547E+04;  6.9565266E-02;  0.0000000E+00; -5.5687530E-03;  1.0894763E+02;
  4.3162912E-01;  9.9999998E-03; -5.9996583E-02;5093;  1.6424604E-02;  0.0000000E+00;  5.0001917E-04;  9.9955939E+02;  1.0000000E-01; -3.6502670E+02;3;  2.9403381E+00;  0.0000000E+00;  1.0048732E-01;0;  6.4928994E-02;  3.9965230E+04;  0.0000000E+00;  5.3476609E-02;  4.0000000E+04;  0.0000000E+00;  3.9999484E+04;  7.0635237E-02;  0.0000000E+00; -5.7062428E-03;  7.6845551E+01;
  4.3162197E-01;  9.9999998E-03; -4.9995240E-02;5094;  1.6621226E-02;  0.0000000E+00;  4.2605572E-04;  9.9947919E+02;  1.0000000E-01; -4.3149396E+02;3;  2.9763296E+00;  0.0000000E+00;  8.5765027E-02;0;  6.5674126E-02;  3.9958754E+04;  0.0000000E+00;  3.7957858E-02;  4.0000000E+04;  0.0000000E+00;  3.9999762E+04;  7.1507074E-02;  0.0000000E+00; -5.8329455E-03;  6.5609550E+01;
  4.3161291E-01;  9.9999998E-03; -3.9994758E-02;5095;  1.6786728E-02;  0.0000000E+00;  3.4582516E-04;  9.9940576E+02;  1.0000000E-01; -4.9233176E+02;3;  3.0082746E+00;  0.0000000E+00;  7.0078008E-02;0;  6.6238172E-02;  3.9952566E+04;  0.0000000E+00;  2.4677759E-02;  4.0000000E+04;  0.0000000E+00;  4.0000242E+04;  7.2182037E-02;  0.0000000E+00; -5.9438660E-03;  9.1162766E+01;
  4.3160364E-01;  9.9999998E-03; -2.9995216E-02;5096;  1.6914025E-02;  0.0000000E+00;  2.6156404E-04;  9.9934259E+02;  1.0000000E-01; -5.4467596E+02;3;  3.0368688E+00;  0.0000000E+00;  5.3258397E-02;0;  6.6639610E-02;  3.9947234E+04;  0.0000000E+00;  1.4034668E-02;  4.0000000E+04;  0.0000000E+00;  4.0000445E+04;  7.2674289E-02;  0.0000000E+00; -6.0346830E-03;  1.3039235E+02;
  4.3159568E-01;  9.9999998E-03; -1.9996392E-02;5097;  1.7001839E-02;  0.0000000E+00;  1.7436496E-04;  9.9929840E+02;  1.0000000E-01; -5.8126752E+02;3;  3.0596085E+00;  0.0000000E+00;  3.5349958E-02;0;  6.6902794E-02;  3.9943207E+04;  0.0000000E+00;  6.2828069E-03;  4.0000000E+04;  0.0000000E+00;  4.0000770E+04;  7.3004775E-02;  0.0000000E+00; -6.1019808E-03;  1.6550385E+02;
  4.3159020E-01;  9.9999998E-03; -9.9980338E-03;5098;  1.7049842E-02;  0.0000000E+00;  8.6851003E-05;  9.9926581E+02;  1.0000000E-01; -6.0827911E+02;3;  3.0723565E+00;  0.0000000E+00;  1.7712429E-02;0;  6.7049883E-02;  3.9940801E+04;  0.0000000E+00;  1.5771845E-03;  4.0000000E+04;  0.0000000E+00;  4.0000930E+04;  7.3193185E-02;  0.0000000E+00; -6.1433045E-03;  1.8901086E+02;
  4.3158853E-01;  9.9999998E-03;  3.7865528E-09;5099;  1.7064000E-02;  0.0000000E+00;  3.5358941E-08;  9.9925403E+02;  1.0000000E-01; -6.1800720E+02;3;  3.0769598E+00;  0.0000000E+00; -3.7957011E-07;0;  6.7097165E-02;  3.9939836E+04;  0.0000000E+00; -4.4805728E-13;  4.0000000E+04;  0.0000000E+00;  4.0001121E+04;  7.3254406E-02;  0.0000000E+00; -6.1572450E-03;  1.9717729E+02;
  4.3159020E-01;  9.9999998E-03;  9.9980412E-03;5100;  1.7049836E-02;  0.0000000E+00; -8.6780434E-05;  9.9926587E+02;  1.0000000E-01; -6.0822974E+02;3;  3.0723708E+00;  0.0000000E+00; -1.7714165E-02;0;  6.7049928E-02;  3.9940801E+04;  0.0000000E+00;  1.5771159E-03;  4.0000000E+04;  0.0000000E+00;  4.0000930E+04;  7.3193230E-02;  0.0000000E+00; -6.1433003E-03;  1.8901672E+02;
  4.3159568E-01;  9.9999998E-03;  1.9996399E-02;5101;  1.7001828E-02;  0.0000000E+00; -1.7429498E-04;  9.9929828E+02;  1.0000000E-01; -5.8136627E+02;3;  3.0596132E+00;  0.0000000E+00; -3.5351038E-02;0;  6.6902749E-02;  3.9943211E+04;  0.0000000E+00;  6.2827421E-03;  4.0000000E+04;  0.0000000E+00;  4.0000770E+04;  7.3004723E-02;  0.0000000E+00; -6.1019715E-03;  1.6550714E+02;
  4.3160364E-01;  9.9999998E-03;  2.9995224E-02;5102;  1.6914008E-02;  0.0000000E+00; -2.6149442E-04;  9.9934259E+02;  1.0000000E-01; -5.4467596E+02;3;  3.0368736E+00;  0.0000000E+00; -5.3259097E-02;0;  6.6639647E-02;  3.9947234E+04;  0.0000000E+00;  1.4034948E-02;  4.0000000E+04;  0.0000000E+00;  4.0000445E+04;  7.2674319E-02;  0.0000000E+00; -6.0346685E-03;  1.3038785E+02;
  4.3161291E-01;  9.9999998E-03;  3.9994765E-02;5103;  1.6786702E-02;  0.0000000E+00; -3.4575557E-04;  9.9940558E+02;  1.0000000E-01; -4.9247989E+02;3;  3.0082767E+00;  0.0000000E+00; -7.0074826E-02;0;  6.6238098E-02;  3.9952570E+04;  0.0000000E+00;  2.4677347E-02;  4.0000000E+04;  0.0000000E+00;  4.0000242E+04;  7.2181955E-02;  0.0000000E+00; -5.9438539E-03;  9.1166199E+01;
  4.3162197E-01;  9.9999998E-03;  4.9995244E-02;5104;  1.6621195E-02;  0.0000000E+00; -4.2598654E-04;  9.9947913E+02;  1.0000000E-01; -4.3154337E+02;3;  2.9763236E+00;  0.0000000E+00; -8.5764915E-02;0;  6.5673985E-02;  3.9958758E+04;  0.0000000E+00;  3.7957836E-02;  4.0000000E+04;  0.0000000E+00;  3.9999770E+04;  7.1506925E-02;  0.0000000E+00; -5.8329385E-03;  6.5605247E+01;
  4.3162912E-01;  9.9999998E-03;  5.9996590E-02;5105;  1.6424559E-02;  0.0000000E+00; -4.9994892E-04;  9.9955939E+02;  1.0000000E-01; -3.6502670E+02;3;  2.9403286E+00;  0.0000000E+00; -1.0048731E-01;0;  6.4929053E-02;  3.9965234E+04;  0.0000000E+00;  5.3474963E-02;  4.0000000E+04;  0.0000000E+00;  3.9999484E+04;  7.0635274E-02;  0.0000000E+00; -5.7062237E-03;  7.6843803E+01;
  4.4163096E-01;  9.9999998E-03; -1.0001303E-01;5150;  1.5707606E-02;  0.0000000E+00;  6.4301089E-04;  9.9983081E+02;  1.0000000E-01; -1.4019357E+02;3;  2.8555684E+00;  0.0000000E+00;  1.4922294E-01;0;  6.2091850E-02;  3.9987000E+04;  0.0000000E+00;  1.0797719E-01;  4.0000000E+04;  0.0000000E+00;  3.9999426E+04;  6.7580529E-02;  0.0000000E+00; -5.4886807E-03;  1.7504919E+02;
  4.4164160E-01;  9.9999998E-03; -9.0009071E-02;5151;  1.5924739E-02;  0.0000000E+00;  5.9155922E-04;  9.9976538E+02;  1.0000000E-01; -1.9436487E+02;3;  2.8890254E+00;  0.0000000E+00;  1.3517596E-01;0;  6.3403912E-02;  3.9982027E+04;  0.0000000E+00;  9.4759211E-02;  4.0000000E+04;  0.0000000E+00;  3.9999027E+04;  6.9041766E-02;  0.0000000E+00; -5.6378557E-03;  1.6852396E+02;
  4.4164878E-01;  9.9999998E-03; -8.0004960E-02;5152;  1.6149202E-02;  0.0000000E+00;  5.3760398E-04;  9.9969055E+02;  1.0000000E-01; -2.5638782E+02;3;  2.9218664E+00;  0.0000000E+00;  1.2046692E-01;0;  6.4599484E-02;  3.9975984E+04;  0.0000000E+00;  7.9586700E-02;  4.0000000E+04;  0.0000000E+00;  3.9999020E+04;  7.0394941E-02;  0.0000000E+00; -5.7954574E-03;  1.4903470E+02;
  4.4165251E-01;  9.9999998E-03; -7.0001282E-02;5153;  1.6370734E-02;  0.0000000E+00;  4.7998913E-04;  9.9960388E+02;  1.0000000E-01; -3.2818826E+02;3;  2.9560323E+00;  0.0000000E+00;  1.0594404E-01;0;  6.5630972E-02;  3.9968977E+04;  0.0000000E+00;  6.3794926E-02;  4.0000000E+04;  0.0000000E+00;  3.9999172E+04;  7.1583785E-02;  0.0000000E+00; -5.9528104E-03;  1.1529661E+02;
  4.4165352E-01;  9.9999998E-03; -5.9998456E-02;5154;  1.6573727E-02;  0.0000000E+00;  4.1772026E-04;  9.9951300E+02;  1.0000000E-01; -4.0344537E+02;3;  2.9908528E+00;  0.0000000E+00;  9.1737814E-02;0;  6.6473514E-02;  3.9961504E+04;  0.0000000E+00;  4.8484828E-02;  4.0000000E+04;  0.0000000E+00;  3.9999414E+04;  7.2575867E-02;  0.0000000E+00; -6.1023510E-03;  7.4038223E+01;
  4.4165233E-01;  9.9999998E-03; -4.9996682E-02;5155;  1.6749013E-02;  0.0000000E+00;  3.5078343E-04;  9.9942206E+02;  1.0000000E-01; -4.7880127E+02;3;  3.0209997E+00;  0.0000000E+00;  7.6794669E-02;0;  6.7124009E-02;  3.9954121E+04;  0.0000000E+00;  3.4504693E-02;  4.0000000E+04;  0.0000000E+00;  3.9999879E+04;  7.3361710E-02;  0.0000000E+00; -6.2376983E-03;  5.8657608E+01;
  4.4164935E-01;  9.9999998E-03; -3.9995968E-02;5156;  1.6889596E-02;  0.0000000E+00;  2.8038424E-04;  9.9934106E+02;  1.0000000E-01; -5.4591046E+02;3;  3.0514398E+00;  0.0000000E+00;  6.1811879E-02;0;  6.7596897E-02;  3.9947336E+04;  0.0000000E+00;  2.2467140E-02;  4.0000000E+04;  0.0000000E+00;  4.0000461E+04;  7.3950641E-02;  0.0000000E+00; -6.3537406E-03;  1.0026794E+02;
  4.4164452E-01;  9.9999998E-03; -2.9996200E-02;5157;  1.6991550E-02;  0.0000000E+00;  2.0901884E-04;  9.9927338E+02;  1.0000000E-01; -6.0200769E+02;3;  3.0751650E+00;  0.0000000E+00;  4.6122503E-02;0;  6.7918956E-02;  3.9941414E+04;  0.0000000E+00;  1.2786645E-02;  4.0000000E+04;  0.0000000E+00;  4.0000852E+04;  7.4365668E-02;  0.0000000E+00; -6.4467136E-03;  1.5637349E+02;
  4.4163993E-01;  9.9999998E-03; -1.9997140E-02;5158;  1.7057426E-02;  0.0000000E+00;  1.3850402E-04;  9.9921851E+02;  1.0000000E-01; -6.4743848E+02;3;  3.0938861E+00;  0.0000000E+00;  3.0849129E-02;0;  6.8120606E-02;  3.9937008E+04;  0.0000000E+00;  5.7257144E-03;  4.0000000E+04;  0.0000000E+00;  4.0001121E+04;  7.4634947E-02;  0.0000000E+00; -6.5143383E-03;  2.0493291E+02;
  4.4163677E-01;  9.9999998E-03; -9.9984771E-03;5159;  1.7094113E-02;  0.0000000E+00;  6.9576417E-05;  9.9918872E+02;  1.0000000E-01; -6.7212915E+02;3;  3.0997157E+00;  0.0000000E+00;  1.4959415E-02;0;  6.8228923E-02;  3.9934160E+04;  0.0000000E+00;  1.4374106E-03;  4.0000000E+04;  0.0000000E+00;  4.0001395E+04;  7.4784227E-02;  0.0000000E+00; -6.5553007E-03;  2.3716104E+02;
  4.4163504E-01;  9.9999998E-03;  4.0213033E-09;5160;  1.7106853E-02;  0.0000000E+00;  3.6972363E-08;  9.9917767E+02;  1.0000000E-01; -6.8126471E+02;3;  3.1010246E+00;  0.0000000E+00;  1.1935390E-07;0;  6.8262704E-02;  3.9933152E+04;  0.0000000E+00; -1.5072121E-12;  4.0000000E+04;  0.0000000E+00;  4.0001531E+04;  7.4831694E-02;  0.0000000E+00; -6.5689888E-03;  2.4841502E+02;
  4.4163677E-01;  9.9999998E-03;  9.9984845E-03;5161;  1.7094109E-02;  0.0000000E+00; -6.9502697E-05;  9.9918872E+02;  1.0000000E-01; -6.7212915E+02;3;  3.0997086E+00;  0.0000000E+00; -1.4963869E-02;0;  6.8228923E-02;  3.9934164E+04;  0.0000000E+00;  1.4374418E-03;  4.0000000E+04;  0.0000000E+00;  4.0001395E+04;  7.4784219E-02;  0.0000000E+00; -6.5552993E-03;  2.3715520E+02;
  4.4163993E-01;  9.9999998E-03;  1.9997148E-02;5162;  1.7057417E-02;  0.0000000E+00; -1.3843094E-04;  9.9921851E+02;  1.0000000E-01; -6.4743848E+02;3;  3.0938766E+00;  0.0000000E+00; -3.0849649E-02;0;  6.8120584E-02;  3.9937008E+04;  0.0000000E+00;  5.7255300E-03;  4.0000000E+04;  0.0000000E+00;  4.0001121E+04;  7.4634917E-02;  0.0000000E+00; -6.5143299E-03;  2.0492934E+02;
  4.4164452E-01;  9.9999998E-03;  2.9996207E-02;5163;  1.6991533E-02;  0.0000000E+00; -2.0894640E-04;  9.9927338E+02;  1.0000000E-01; -6.0200769E+02;3;  3.0751624E+00;  0.0000000E+00; -4.6123836E-02;0;  6.7918912E-02;  3.9941414E+04;  0.0000000E+00;  1.2786455E-02;  4.0000000E+04;  0.0000000E+00;  4.0000848E+04;  7.4365623E-02;  0.0000000E+00; -6.4467099E-03;  1.5638513E+02;
  4.4164935E-01;  9.9999998E-03;  3.9995976E-02;5164;  1.6889574E-02;  0.0000000E+00; -2.8031250E-04;  9.9934100E+02;  1.0000000E-01; -5.4595984E+02;3;  3.0514305E+00;  0.0000000E+00; -6.1814155E-02;0;  6.7596965E-02;  3.9947336E+04;  0.0000000E+00;  2.2466300E-02;  4.0000000E+04;  0.0000000E+00;  4.0000461E+04;  7.3950693E-02;  0.0000000E+00; -6.3537257E-03;  1.0026970E+02;
  4.4165233E-01;  9.9999998E-03;  4.9996689E-02;5165;  1.6748982E-02;  0.0000000E+00; -3.5071195E-04;  9.9942212E+02;  1.0000000E-01; -4.7875189E+02;3;  3.0209937E+00;  0.0000000E+00; -7.6791659E-02;0;  6.7123957E-02;  3.9954121E+04;  0.0000000E+00;  3.4504578E-02;  4.0000000E+04;  0.0000000E+00;  3.9999879E+04;  7.3361643E-02;  0.0000000E+00; -6.2376880E-03;  5.8659081E+01;
  4.4165352E-01;  9.9999998E-03;  5.9998464E-02;5166;  1.6573688E-02;  0.0000000E+00; -4.1764887E-04;  9.9951294E+02;  1.0000000E-01; -4.0354413E+02;3;  2.9908509E+00;  0.0000000E+00; -9.1739081E-02;0;  6.6473514E-02;  3.9961504E+04;  0.0000000E+00;  4.8484772E-02;  4.0000000E+04;  0.0000000E+00;  3.9999410E+04;  7.2575867E-02;  0.0000000E+00; -6.1023496E-03;  7.4042366E+01;
  4.5162416E-01;  9.9999998E-03; -1.0001516E-01;5211;  1.5843729E-02;  0.0000000E+00;  5.4150156E-04;  9.9982965E+02;  1.0000000E-01; -1.4113181E+02;3;  2.8994160E+00;  0.0000000E+00;  1.4001119E-01;0;  6.5227710E-02;  3.9986836E+04;  0.0000000E+00;  8.5174032E-02;  4.0000000E+04;  0.0000000E+00;  3.9999062E+04;  7.1089849E-02;  0.0000000E+00; -5.8621387E-03;  1.5457190E+02;
  4.5163748E-01;  9.9999998E-03; -9.0010867E-02;5212;  1.6068783E-02;  0.0000000E+00;  4.9298513E-04;  9.9976672E+02;  1.0000000E-01; -1.9327849E+02;3;  2.9342167E+00;  0.0000000E+00;  1.2554589E-01;0;  6.6514470E-02;  3.9982172E+04;  0.0000000E+00;  7.6452523E-02;  4.0000000E+04;  0.0000000E+00;  3.9998895E+04;  7.2543174E-02;  0.0000000E+00; -6.0287053E-03;  1.5589418E+02;
  4.5164895E-01;  9.9999998E-03; -8.0006331E-02;5213;  1.6289910E-02;  0.0000000E+00;  4.4229571E-04;  9.9968884E+02;  1.0000000E-01; -2.5777048E+02;3;  2.9693098E+00;  0.0000000E+00;  1.1088590E-01;0;  6.7660913E-02;  3.9975895E+04;  0.0000000E+00;  6.5483220E-02;  4.0000000E+04;  0.0000000E+00;  3.9998793E+04;  7.3866017E-02;  0.0000000E+00; -6.2051034E-03;  1.3910358E+02;
  4.5165858E-01;  9.9999998E-03; -7.0002235E-02;5214;  1.6493132E-02;  0.0000000E+00;  3.8888698E-04;  9.9960394E+02;  1.0000000E-01; -3.2813885E+02;3;  3.0012112E+00;  0.0000000E+00;  9.6524775E-02;0;  6.8624869E-02;  3.9969047E+04;  0.0000000E+00;  5.3386610E-02;  4.0000000E+04;  0.0000000E+00;  3.9999230E+04;  7.5005136E-02;  0.0000000E+00; -6.3802684E-03;  1.0385316E+02;
  4.5166612E-01;  9.9999998E-03; -5.9999038E-02;5215;  1.6670985E-02;  0.0000000E+00;  3.3228460E-04;  9.9951501E+02;  1.0000000E-01; -4.0181580E+02;3;  3.0306244E+00;  0.0000000E+00;  8.2062788E-02;0;  6.9388680E-02;  3.9961621E+04;  0.0000000E+00;  4.1161731E-02;  4.0000000E+04;  0.0000000E+00;  3.9999621E+04;  7.5933464E-02;  0.0000000E+00; -6.5447828E-03;  6.1234573E+01;
  4.5167148E-01;  9.9999998E-03; -4.9997091E-02;5216;  1.6820425E-02;  0.0000000E+00;  2.7427764E-04;  9.9942889E+02;  1.0000000E-01; -4.7317181E+02;3;  3.0572097E+00;  0.0000000E+00;  6.7851231E-02;0;  6.9956809E-02;  3.9954285E+04;  0.0000000E+00;  2.9643148E-02;  4.0000000E+04;  0.0000000E+00;  4.0000121E+04;  7.6648027E-02;  0.0000000E+00; -6.6912165E-03;  6.6060013E+01;
  4.5167491E-01;  9.9999998E-03; -3.9996333E-02;5217;  1.6935388E-02;  0.0000000E+00;  2.1587276E-04;  9.9935071E+02;  1.0000000E-01; -5.3791071E+02;3;  3.0793402E+00;  0.0000000E+00;  5.3513389E-02;0;  7.0351616E-02;  3.9947676E+04;  0.0000000E+00;  1.9485408E-02;  4.0000000E+04;  0.0000000E+00;  4.0000730E+04;  7.7165999E-02;  0.0000000E+00; -6.8143830E-03;  1.2761528E+02;
  4.5167711E-01;  9.9999998E-03; -2.9996568E-02;5218;  1.7016139E-02;  0.0000000E+00;  1.5903724E-04;  9.9928815E+02;  1.0000000E-01; -5.8976111E+02;3;  3.0971768E+00;  0.0000000E+00;  3.9182249E-02;0;  7.0606202E-02;  3.9941926E+04;  0.0000000E+00;  1.1168897E-02;  4.0000000E+04;  0.0000000E+00;  4.0001117E+04;  7.7517428E-02;  0.0000000E+00; -6.9112293E-03;  1.9544637E+02;
  4.5167804E-01;  9.9999998E-03; -1.9997511E-02;5219;  1.7069777E-02;  0.0000000E+00;  1.0490349E-04;  9.9923425E+02;  1.0000000E-01; -6.3440179E+02;3;  3.1069887E+00;  0.0000000E+00;  2.5272196E-02;0;  7.0755959E-02;  3.9937441E+04;  0.0000000E+00;  5.0255819E-03;  4.0000000E+04;  0.0000000E+00;  4.0001570E+04;  7.7736415E-02;  0.0000000E+00; -6.9804555E-03;  2.5256441E+02;
  4.5167816E-01;  9.9999998E-03; -9.9987062E-03;5220;  1.7103150E-02;  0.0000000E+00;  5.2385032E-05;  9.9920172E+02;  1.0000000E-01; -6.6136401E+02;3;  3.1109369E+00;  0.0000000E+00;  1.2541962E-02;0;  7.0831679E-02;  3.9934738E+04;  0.0000000E+00;  1.2650884E-03;  4.0000000E+04;  0.0000000E+00;  4.0001902E+04;  7.7853516E-02;  0.0000000E+00; -7.0218346E-03;  2.9024545E+02;
  4.5167807E-01;  9.9999998E-03;  4.2843489E-09;5221;  1.7114585E-02;  0.0000000E+00;  3.8686995E-08;  9.9919257E+02;  1.0000000E-01; -6.6891937E+02;3;  3.1117899E+00;  0.0000000E+00;  9.9137424E-08;0;  7.0854463E-02;  3.9933785E+04;  0.0000000E+00; -2.1468196E-12;  4.0000000E+04;  0.0000000E+00;  4.0002105E+04;  7.7890031E-02;  0.0000000E+00; -7.0355679E-03;  3.0335437E+02;
  4.5167816E-01;  9.9999998E-03;  9.9987146E-03;5222;  1.7103145E-02;  0.0000000E+00; -5.2308194E-05;  9.9920166E+02;  1.0000000E-01; -6.6141339E+02;3;  3.1109366E+00;  0.0000000E+00; -1.2545669E-02;0;  7.0831738E-02;  3.9934738E+04;  0.0000000E+00;  1.2651108E-03;  4.0000000E+04;  0.0000000E+00;  4.0001902E+04;  7.7853560E-02;  0.0000000E+00; -7.0218248E-03;  2.9024292E+02;
  4.5167804E-01;  9.9999998E-03;  1.9997520E-02;5223;  1.7069766E-02;  0.0000000E+00; -1.0482716E-04;  9.9923425E+02;  1.0000000E-01; -6.3440179E+02;3;  3.1069968E+00;  0.0000000E+00; -2.5273709E-02;0;  7.0755959E-02;  3.9937441E+04;  0.0000000E+00;  5.0256010E-03;  4.0000000E+04;  0.0000000E+00;  4.0001574E+04;  7.7736400E-02;  0.0000000E+00; -6.9804424E-03;  2.5256314E+02;
  4.5167711E-01;  9.9999998E-03;  2.9996576E-02;5224;  1.7016122E-02;  0.0000000E+00; -1.5896128E-04;  9.9928802E+02;  1.0000000E-01; -5.8985986E+02;3;  3.0971839E+00;  0.0000000E+00; -3.9182484E-02;0;  7.0606321E-02;  3.9941934E+04;  0.0000000E+00;  1.1168772E-02;  4.0000000E+04;  0.0000000E+00;  4.0001117E+04;  7.7517554E-02;  0.0000000E+00; -6.9112307E-03;  1.9545564E+02;
  4.5167491E-01;  9.9999998E-03;  3.9996341E-02;5225;  1.6935365E-02;  0.0000000E+00; -2.1579780E-04;  9.9935071E+02;  1.0000000E-01; -5.3791071E+02;3;  3.0793362E+00;  0.0000000E+00; -5.3514637E-02;0;  7.0351720E-02;  3.9947676E+04;  0.0000000E+00;  1.9486329E-02;  4.0000000E+04;  0.0000000E+00;  4.0000727E+04;  7.7166095E-02;  0.0000000E+00; -6.8143741E-03;  1.2760980E+02;
  4.5167148E-01;  9.9999998E-03;  4.9997099E-02;5226;  1.6820397E-02;  0.0000000E+00; -2.7420360E-04;  9.9942896E+02;  1.0000000E-01; -4.7312244E+02;3;  3.0572038E+00;  0.0000000E+00; -6.7852356E-02;0;  6.9956809E-02;  3.9954285E+04;  0.0000000E+00;  2.9643450E-02;  4.0000000E+04;  0.0000000E+00;  4.0000121E+04;  7.6648027E-02;  0.0000000E+00; -6.6912174E-03;  6.6067245E+01;
  4.5166612E-01;  9.9999998E-03;  5.9999045E-02;5227;  1.6670950E-02;  0.0000000E+00; -3.3221094E-04;  9.9951508E+02;  1.0000000E-01; -4.0176642E+02;3;  3.0306203E+00;  0.0000000E+00; -8.2058907E-02;0;  6.9388643E-02;  3.9961621E+04;  0.0000000E+00;  4.1163001E-02;  4.0000000E+04;  0.0000000E+00;  3.9999621E+04;  7.5933434E-02;  0.0000000E+00; -6.5447926E-03;  6.1241062E+01;
  4.6160042E-01;  9.9999998E-03; -1.0001363E-01;5272;  1.6000072E-02;  0.0000000E+00;  4.5008169E-04;  9.9983405E+02;  1.0000000E-01; -1.3747760E+02;3;  2.9440958E+00;  0.0000000E+00;  1.3188468E-01;0;  6.9617674E-02;  3.9987254E+04;  0.0000000E+00;  5.4807950E-02;  4.0000000E+04;  0.0000000E+00;  3.9999254E+04;  7.5898081E-02;  0.0000000E+00; -6.2804106E-03;  1.1416412E+02;
  4.6161723E-01;  9.9999998E-03; -9.0009756E-02;5273;  1.6220640E-02;  0.0000000E+00;  4.0342018E-04;  9.9977649E+02;  1.0000000E-01; -1.8517995E+02;3;  2.9791465E+00;  0.0000000E+00;  1.1784851E-01;0;  7.0899025E-02;  3.9982980E+04;  0.0000000E+00;  5.1588677E-02;  4.0000000E+04;  0.0000000E+00;  3.9999250E+04;  7.7371590E-02;  0.0000000E+00; -6.4725620E-03;  1.1694312E+02;
  4.6163386E-01;  9.9999998E-03; -8.0005690E-02;5274;  1.6419983E-02;  0.0000000E+00;  3.5455925E-04;  9.9971423E+02;  1.0000000E-01; -2.3673404E+02;3;  3.0102220E+00;  0.0000000E+00;  1.0311374E-01;0;  7.2018102E-02;  3.9977730E+04;  0.0000000E+00;  4.6022844E-02;  4.0000000E+04;  0.0000000E+00;  3.9999449E+04;  7.8693636E-02;  0.0000000E+00; -6.6755316E-03;  9.9544533E+01;
  4.6164939E-01;  9.9999998E-03; -7.0001990E-02;5275;  1.6596530E-02;  0.0000000E+00;  3.0469304E-04;  9.9963593E+02;  1.0000000E-01; -3.0162109E+02;3;  3.0389760E+00;  0.0000000E+00;  8.8994719E-02;0;  7.2938904E-02;  3.9971344E+04;  0.0000000E+00;  3.8856395E-02;  4.0000000E+04;  0.0000000E+00;  3.9999457E+04;  7.9814605E-02;  0.0000000E+00; -6.8757012E-03;  6.5758423E+01;
  4.6166345E-01;  9.9999998E-03; -5.9999127E-02;5276;  1.6743183E-02;  0.0000000E+00;  2.5403671E-04;  9.9956195E+02;  1.0000000E-01; -3.6290332E+02;3;  3.0631149E+00;  0.0000000E+00;  7.4728981E-02;0;  7.3650353E-02;  3.9965152E+04;  0.0000000E+00;  3.0860767E-02;  4.0000000E+04;  0.0000000E+00;  3.9999836E+04;  8.0712020E-02;  0.0000000E+00; -7.0616659E-03;  5.0077621E+01;
  4.6167532E-01;  9.9999998E-03; -4.9997341E-02;5277;  1.6860975E-02;  0.0000000E+00;  2.0479312E-04;  9.9948529E+02;  1.0000000E-01; -4.2640768E+02;3;  3.0809400E+00;  0.0000000E+00;  6.0494754E-02;0;  7.4163064E-02;  3.9958523E+04;  0.0000000E+00;  2.2776388E-02;  4.0000000E+04;  0.0000000E+00;  4.0000238E+04;  8.1387997E-02;  0.0000000E+00; -7.2249323E-03;  1.0223734E+02;
  4.6168521E-01;  9.9999998E-03; -3.9996650E-02;5278;  1.6951127E-02;  0.0000000E+00;  1.5799061E-04;  9.9942322E+02;  1.0000000E-01; -4.7786304E+02;3;  3.0968025E+00;  0.0000000E+00;  4.7138121E-02;0;  7.4505344E-02;  3.9952656E+04;  0.0000000E+00;  1.5264737E-02;  4.0000000E+04;  0.0000000E+00;  4.0000867E+04;  8.1865482E-02;  0.0000000E+00; -7.3601403E-03;  1.7643889E+02;
  4.6169263E-01;  9.9999998E-03; -2.9996911E-02;5279;  1.7017601E-02;  0.0000000E+00;  1.1423930E-04;  9.9936395E+02;  1.0000000E-01; -5.2694806E+02;3;  3.1082449E+00;  0.0000000E+00;  3.3700731E-02;0;  7.4714199E-02;  3.9947680E+04;  0.0000000E+00;  8.8778036E-03;  4.0000000E+04;  0.0000000E+00;  4.0001578E+04;  8.2178980E-02;  0.0000000E+00; -7.4647819E-03;  2.4922842E+02;
  4.6169814E-01;  9.9999998E-03; -1.9997761E-02;5280;  1.7063374E-02;  0.0000000E+00;  7.3745716E-05;  9.9932288E+02;  1.0000000E-01; -5.6097180E+02;3;  3.1143503E+00;  0.0000000E+00;  2.2057885E-02;0;  7.4828960E-02;  3.9943867E+04;  0.0000000E+00;  4.0349551E-03;  4.0000000E+04;  0.0000000E+00;  4.0001965E+04;  8.2367487E-02;  0.0000000E+00; -7.5385249E-03;  3.0936267E+02;
  4.6170178E-01;  9.9999998E-03; -9.9988636E-03;5281;  1.7091868E-02;  0.0000000E+00;  3.6632537E-05;  9.9929803E+02;  1.0000000E-01; -5.8156378E+02;3;  3.1163380E+00;  0.0000000E+00;  1.0574587E-02;0;  7.4882992E-02;  3.9941688E+04;  0.0000000E+00;  1.0216532E-03;  4.0000000E+04;  0.0000000E+00;  4.0002270E+04;  8.2465142E-02;  0.0000000E+00; -7.5821490E-03;  3.4875632E+02;
  4.6170312E-01;  9.9999998E-03;  4.5700896E-09;5282;  1.7102735E-02;  0.0000000E+00;  4.0112710E-08;  9.9928833E+02;  1.0000000E-01; -5.8961298E+02;3;  3.1187241E+00;  0.0000000E+00;  4.5142087E-08;0;  7.4898385E-02;  3.9940836E+04;  0.0000000E+00; -1.1937804E-12;  4.0000000E+04;  0.0000000E+00;  4.0002375E+04;  8.2494959E-02;  0.0000000E+00; -7.5965761E-03;  3.6245999E+02;
  4.6170178E-01;  9.9999998E-03;  9.9988729E-03;5283;  1.7091865E-02;  0.0000000E+00; -3.6552316E-05;  9.9929803E+02;  1.0000000E-01; -5.8156378E+02;3;  3.1163504E+00;  0.0000000E+00; -1.0572717E-02;0;  7.4882984E-02;  3.9941688E+04;  0.0000000E+00;  1.0218668E-03;  4.0000000E+04;  0.0000000E+00;  4.0002273E+04;  8.2465135E-02;  0.0000000E+00; -7.5821523E-03;  3.4875885E+02;
  4.6169814E-01;  9.9999998E-03;  1.9997770E-02;5284;  1.7063364E-02;  0.0000000E+00; -7.3666102E-05;  9.9932288E+02;  1.0000000E-01; -5.6097180E+02;3;  3.1143653E+00;  0.0000000E+00; -2.2056065E-02;0;  7.4828982E-02;  3.9943871E+04;  0.0000000E+00;  4.0350198E-03;  4.0000000E+04;  0.0000000E+00;  4.0001961E+04;  8.2367510E-02;  0.0000000E+00; -7.5385249E-03;  3.0935614E+02;
  4.6169263E-01;  9.9999998E-03;  2.9996920E-02;5285;  1.7017584E-02;  0.0000000E+00; -1.1416080E-04;  9.9936401E+02;  1.0000000E-01; -5.2689868E+02;3;  3.1082590E+00;  0.0000000E+00; -3.3703085E-02;0;  7.4714236E-02;  3.9947680E+04;  0.0000000E+00;  8.8783568E-03;  4.0000000E+04;  0.0000000E+00;  4.0001578E+04;  8.2179025E-02;  0.0000000E+00; -7.4647865E-03;  2.4922771E+02;
  4.6168521E-01;  9.9999998E-03;  3.9996658E-02;5286;  1.6951108E-02;  0.0000000E+00; -1.5791305E-04;  9.9942322E+02;  1.0000000E-01; -4.7786304E+02;3;  3.0968091E+00;  0.0000000E+00; -4.7140870E-02;0;  7.4505448E-02;  3.9952652E+04;  0.0000000E+00;  1.5264696E-02;  4.0000000E+04;  0.0000000E+00;  4.0000863E+04;  8.1865594E-02;  0.0000000E+00; -7.3601436E-03;  1.7643654E+02;
  4.6167529E-01;  9.9999998E-03;  4.9997348E-02;5287;  1.6860953E-02;  0.0000000E+00; -2.0471687E-04;  9.9948535E+02;  1.0000000E-01; -4.2635831E+02;3;  3.0809355E+00;  0.0000000E+00; -6.0498890E-02;0;  7.4163243E-02;  3.9958523E+04;  0.0000000E+00;  2.2775654E-02;  4.0000000E+04;  0.0000000E+00;  4.0000242E+04;  8.1388175E-02;  0.0000000E+00; -7.2249323E-03;  1.0224239E+02;
  4.6166345E-01;  9.9999998E-03;  5.9999134E-02;5288;  1.6743153E-02;  0.0000000E+00; -2.5396037E-04;  9.9956183E+02;  1.0000000E-01; -3.6300208E+02;3;  3.0631194E+00;  0.0000000E+00; -7.4729607E-02;0;  7.3650494E-02;  3.9965156E+04;  0.0000000E+00;  3.0860338E-02;  4.0000000E+04;  0.0000000E+00;  3.9999836E+04;  8.0712177E-02;  0.0000000E+00; -7.0616798E-03;  5.0080494E+01;
  4.7156113E-01;  9.9999998E-03; -1.0001169E-01;5333;  1.6218614E-02;  0.0000000E+00;  3.9296932E-04;  9.9983527E+02;  1.0000000E-01; -1.3648996E+02;3;  2.9825501E+00;  0.0000000E+00;  1.2789279E-01;0;  7.4833825E-02;  3.9987309E+04;  0.0000000E+00;  1.8382793E-02;  4.0000000E+04;  0.0000000E+00;  3.9999477E+04;  8.1585474E-02;  0.0000000E+00; -6.7516528E-03;  5.2671417E+01;
  4.7158027E-01;  9.9999998E-03; -9.0008907E-02;5334;  1.6418755E-02;  0.0000000E+00;  3.4444535E-04;  9.9979236E+02;  1.0000000E-01; -1.7204451E+02;3;  3.0183613E+00;  0.0000000E+00;  1.1344105E-01;0;  7.6127969E-02;  3.9983863E+04;  0.0000000E+00;  2.0671798E-02;  4.0000000E+04;  0.0000000E+00;  3.9999496E+04;  8.3108939E-02;  0.0000000E+00; -6.9809733E-03;  4.9186646E+01;
  4.7159982E-01;  9.9999998E-03; -8.0005869E-02;5335;  1.6587023E-02;  0.0000000E+00;  2.9533950E-04;  9.9974335E+02;  1.0000000E-01; -2.1263596E+02;3;  3.0461495E+00;  0.0000000E+00;  9.8153897E-02;0;  7.7242032E-02;  3.9979816E+04;  0.0000000E+00;  2.0983396E-02;  4.0000000E+04;  0.0000000E+00;  3.9999613E+04;  8.4463477E-02;  0.0000000E+00; -7.2214482E-03;  3.2364918E+01;
  4.7161928E-01;  9.9999998E-03; -7.0003018E-02;5336;  1.6721424E-02;  0.0000000E+00;  2.4507119E-04;  9.9968475E+02;  1.0000000E-01; -2.6117780E+02;3;  3.0693574E+00;  0.0000000E+00;  8.4820800E-02;0;  7.8147016E-02;  3.9975082E+04;  0.0000000E+00;  1.9540899E-02;  4.0000000E+04;  0.0000000E+00;  4.0000238E+04;  8.5603826E-02;  0.0000000E+00; -7.4568107E-03;  4.3718468E+01;
  4.7163787E-01;  9.9999998E-03; -6.0000669E-02;5337;  1.6827404E-02;  0.0000000E+00;  1.9644726E-04;  9.9963214E+02;  1.0000000E-01; -3.0478149E+02;3;  3.0887597E+00;  0.0000000E+00;  7.0630722E-02;0;  7.8837246E-02;  3.9970207E+04;  0.0000000E+00;  1.6737338E-02;  4.0000000E+04;  0.0000000E+00;  4.0000430E+04;  8.6510800E-02;  0.0000000E+00; -7.6735578E-03;  9.9319519E+01;
  4.7165510E-01;  9.9999998E-03; -4.9999095E-02;5338;  1.6905826E-02;  0.0000000E+00;  1.5136889E-04;  9.9957788E+02;  1.0000000E-01; -3.4971851E+02;3;  3.1032867E+00;  0.0000000E+00;  5.6715403E-02;0;  7.9328008E-02;  3.9965344E+04;  0.0000000E+00;  1.3088436E-02;  4.0000000E+04;  0.0000000E+00;  4.0001148E+04;  8.7190017E-02;  0.0000000E+00; -7.8620063E-03;  1.7067917E+02;
  4.7167018E-01;  9.9999998E-03; -3.9998326E-02;5339;  1.6966084E-02;  0.0000000E+00;  1.1116348E-04;  9.9953125E+02;  1.0000000E-01; -3.8833469E+02;3;  3.1124539E+00;  0.0000000E+00;  4.3981202E-02;0;  7.9649717E-02;  3.9961055E+04;  0.0000000E+00;  9.1613615E-03;  4.0000000E+04;  0.0000000E+00;  4.0001848E+04;  8.7666169E-02;  0.0000000E+00; -8.0164513E-03;  2.4633664E+02;
  4.7168249E-01;  9.9999998E-03; -2.9998241E-02;5340;  1.7015038E-02;  0.0000000E+00;  7.6972989E-05;  9.9949219E+02;  1.0000000E-01; -4.2072885E+02;3;  3.1142809E+00;  0.0000000E+00;  3.1476773E-02;0;  7.9841323E-02;  3.9957371E+04;  0.0000000E+00;  5.4990412E-03;  4.0000000E+04;  0.0000000E+00;  4.0002148E+04;  8.7976083E-02;  0.0000000E+00; -8.1347609E-03;  3.1709656E+02;
  4.7169164E-01;  9.9999998E-03; -1.9998655E-02;5341;  1.7051158E-02;  0.0000000E+00;  4.8008402E-05;  9.9946289E+02;  1.0000000E-01; -4.4497507E+02;3;  3.1153507E+00;  0.0000000E+00;  1.9764936E-02;0;  7.9942934E-02;  3.9954500E+04;  0.0000000E+00;  2.5534905E-03;  4.0000000E+04;  0.0000000E+00;  4.0002672E+04;  8.8160291E-02;  0.0000000E+00; -8.2173571E-03;  3.7456839E+02;
  4.7169739E-01;  9.9999998E-03; -9.9993246E-03;5342;  1.7075742E-02;  0.0000000E+00;  2.3037961E-05;  9.9944586E+02;  1.0000000E-01; -4.5909811E+02;3;  3.1205742E+00;  0.0000000E+00;  9.5559722E-03;0;  7.9988614E-02;  3.9952977E+04;  0.0000000E+00;  6.5467914E-04;  4.0000000E+04;  0.0000000E+00;  4.0003078E+04;  8.8254459E-02;  0.0000000E+00; -8.2658445E-03;  4.1197467E+02;
  4.7169939E-01;  9.9999998E-03;  4.8495883E-09;5343;  1.7084703E-02;  0.0000000E+00;  4.1600348E-08;  9.9943829E+02;  1.0000000E-01; -4.6536957E+02;3;  3.1182225E+00;  0.0000000E+00;  2.0229372E-06;0;  8.0001324E-02;  3.9952148E+04;  0.0000000E+00; -2.1003132E-12;  4.0000000E+04;  0.0000000E+00;  4.0003289E+04;  8.8283129E-02;  0.0000000E+00; -8.2818083E-03;  4.2490509E+02;
  4.7169739E-01;  9.9999998E-03;  9.9993339E-03;5344;  1.7075738E-02;  0.0000000E+00; -2.2955233E-05;  9.9944580E+02;  1.0000000E-01; -4.5914752E+02;3;  3.1205704E+00;  0.0000000E+00; -9.5515698E-03;0;  7.9988658E-02;  3.9952977E+04;  0.0000000E+00;  6.5490522E-04;  4.0000000E+04;  0.0000000E+00;  4.0003078E+04;  8.8254504E-02;  0.0000000E+00; -8.2658418E-03;  4.1197284E+02;
  4.7169164E-01;  9.9999998E-03;  1.9998664E-02;5345;  1.7051147E-02;  0.0000000E+00; -4.7925965E-05;  9.9946289E+02;  1.0000000E-01; -4.4497507E+02;3;  3.1153564E+00;  0.0000000E+00; -1.9761832E-02;0;  7.9943009E-02;  3.9954500E+04;  0.0000000E+00;  2.5538655E-03;  4.0000000E+04;  0.0000000E+00;  4.0002672E+04;  8.8160366E-02;  0.0000000E+00; -8.2173580E-03;  3.7457135E+02;
  4.7168249E-01;  9.9999998E-03;  2.9998250E-02;5346;  1.7015025E-02;  0.0000000E+00; -7.6891549E-05;  9.9949213E+02;  1.0000000E-01; -4.2077823E+02;3;  3.1142867E+00;  0.0000000E+00; -3.1473063E-02;0;  7.9841405E-02;  3.9957375E+04;  0.0000000E+00;  5.4997080E-03;  4.0000000E+04;  0.0000000E+00;  4.0002148E+04;  8.7976173E-02;  0.0000000E+00; -8.1347674E-03;  3.1709839E+02;
  4.7167018E-01;  9.9999998E-03;  3.9998334E-02;5347;  1.6966065E-02;  0.0000000E+00; -1.1108335E-04;  9.9953119E+02;  1.0000000E-01; -3.8838406E+02;3;  3.1124594E+00;  0.0000000E+00; -4.3981094E-02;0;  7.9649895E-02;  3.9961055E+04;  0.0000000E+00;  9.1615813E-03;  4.0000000E+04;  0.0000000E+00;  4.0001852E+04;  8.7666355E-02;  0.0000000E+00; -8.0164559E-03;  2.4633296E+02;
  4.7165510E-01;  9.9999998E-03;  4.9999107E-02;5348;  1.6905805E-02;  0.0000000E+00; -1.5129001E-04;  9.9957788E+02;  1.0000000E-01; -3.4971851E+02;3;  3.1032882E+00;  0.0000000E+00; -5.6716476E-02;0;  7.9328150E-02;  3.9965344E+04;  0.0000000E+00;  1.3087658E-02;  4.0000000E+04;  0.0000000E+00;  4.0001148E+04;  8.7190166E-02;  0.0000000E+00; -7.8620175E-03;  1.7068306E+02;
  4.7163787E-01;  9.9999998E-03;  6.0000680E-02;5349;  1.6827378E-02;  0.0000000E+00; -1.9636907E-04;  9.9963226E+02;  1.0000000E-01; -3.0468274E+02;3;  3.0887678E+00;  0.0000000E+00; -7.0634291E-02;0;  7.8837439E-02;  3.9970207E+04;  0.0000000E+00;  1.6737236E-02;  4.0000000E+04;  0.0000000E+00;  4.0000430E+04;  8.6511016E-02;  0.0000000E+00; -7.6735779E-03;  9.9317970E+01;
  4.8155272E-01;  9.9999998E-03; -1.0001077E-01;5394;  1.6600922E-02;  0.0000000E+00;  4.0830445E-04;  9.9984131E+02;  1.0000148E-01; -1.3145308E+02;3;  3.0228114E+00;  0.0000000E+00;  1.3064492E-01;0;  8.0157042E-02;  3.9986270E+04;  0.0000000E+00; -2.2053879E-02;  4.0000000E+04;  0.0000000E+00;  4.0000094E+04;  8.7436192E-02;  0.0000000E+00; -7.2791539E-03;  3.3770950E+01;
  4.8157516E-01;  9.9999998E-03; -9.0009078E-02;5395;  1.6777102E-02;  0.0000000E+00;  3.5576354E-04;  9.9982007E+02;  1.0000148E-01; -1.4908220E+02;3;  3.0559015E+00;  0.0000000E+00;  1.1633266E-01;0;  8.1468463E-02;  3.9984273E+04;  0.0000000E+00; -1.5193360E-02;  4.0000000E+04;  0.0000000E+00;  4.0000227E+04;  8.9028068E-02;  0.0000000E+00; -7.5596063E-03;  4.2752182E+01;
  4.8160002E-01;  9.9999998E-03; -8.0007032E-02;5396;  1.6899478E-02;  0.0000000E+00;  2.9985432E-04;  9.9979016E+02;  1.0000142E-01; -1.7387163E+02;3;  3.0853219E+00;  0.0000000E+00;  9.9115387E-02;0;  8.2590744E-02;  3.9981656E+04;  0.0000000E+00; -9.2948303E-03;  4.0000000E+04;  0.0000000E+00;  4.0000520E+04;  9.0441592E-02;  0.0000000E+00; -7.8508500E-03;  7.7768082E+01;
  4.8165092E-01;  9.9999998E-03; -6.0002979E-02;5398;  1.7007854E-02;  0.0000000E+00;  1.8735944E-04;  9.9972632E+02;  1.0000145E-01; -2.2675902E+02;3;  3.1192222E+00;  0.0000000E+00;  7.1269892E-02;0;  8.4200099E-02;  3.9975855E+04;  0.0000000E+00; -1.6560254E-03;  4.0000000E+04;  0.0000000E+00;  4.0001223E+04;  9.2592821E-02;  0.0000000E+00; -8.3927251E-03;  1.9310870E+02;
  4.8165092E-01;  9.9999998E-03;  6.0002990E-02;5410;  1.7007837E-02;  0.0000000E+00; -1.8727889E-04;  9.9972632E+02;  1.0000145E-01; -2.2675902E+02;3;  3.1192257E+00;  0.0000000E+00; -7.1274318E-02;0;  8.4200308E-02;  3.9975852E+04;  0.0000000E+00; -1.6556757E-03;  4.0000000E+04;  0.0000000E+00;  4.0001223E+04;  9.2593044E-02;  0.0000000E+00; -8.3927372E-03;  1.9310838E+02;
  4.8162571E-01;  9.9999998E-03; -7.0004940E-02;5397;  1.6971285E-02;  0.0000000E+00;  2.4271567E-04;  9.9975665E+02;  1.0000142E-01; -2.0162393E+02;3;  3.1045351E+00;  0.0000000E+00;  8.5538283E-02;0;  8.3501577E-02;  3.9978922E+04;  0.0000000E+00; -4.7402885E-03;  4.0000000E+04;  0.0000000E+00;  4.0000926E+04;  9.1635399E-02;  0.0000000E+00; -8.1338212E-03;  1.2993129E+02;
  4.8167473E-01;  9.9999998E-03; -5.0001379E-02;5399;  1.7024225E-02;  0.0000000E+00;  1.3735279E-04;  9.9970050E+02;  1.0000148E-01; -2.4814113E+02;3;  3.1248844E+00;  0.0000000E+00;  5.7839543E-02;0;  8.4702656E-02;  3.9972969E+04;  0.0000000E+00;  7.6874916E-05;  4.0000000E+04;  0.0000000E+00;  4.0001863E+04;  9.3319140E-02;  0.0000000E+00; -8.6164819E-03;  2.6209229E+02;
  4.8167473E-01;  9.9999998E-03;  5.0001390E-02;5409;  1.7024212E-02;  0.0000000E+00; -1.3727130E-04;  9.9970050E+02;  1.0000148E-01; -2.4814113E+02;3;  3.1248901E+00;  0.0000000E+00; -5.7841934E-02;0;  8.4702902E-02;  3.9972961E+04;  0.0000000E+00;  7.8885329E-05;  4.0000000E+04;  0.0000000E+00;  4.0001867E+04;  9.3319401E-02;  0.0000000E+00; -8.6165024E-03;  2.6208237E+02;
  4.8173526E-01;  9.9999998E-03; -9.9999635E-03;5403;  1.7071998E-02;  0.0000000E+00;  1.4647097E-05;  9.9963361E+02;  1.0000148E-01; -3.0354697E+02;3;  3.1168797E+00;  0.0000000E+00;  9.3928669E-03;0;  8.5413806E-02;  3.9966117E+04;  0.0000000E+00;  1.2770611E-04;  4.0000000E+04;  0.0000000E+00;  4.0003578E+04;  9.4505288E-02;  0.0000000E+00; -9.0914816E-03;  4.7519772E+02;
  4.8173794E-01;  9.9999998E-03;  5.1004818E-09;5404;  1.7076891E-02;  0.0000000E+00;  4.2677581E-08;  9.9963043E+02;  1.0000145E-01; -3.0616418E+02;3;  3.1180112E+00;  0.0000000E+00;  3.2902290E-06;0;  8.5429206E-02;  3.9965777E+04;  0.0000000E+00; -1.5012262E-12;  4.0000000E+04;  0.0000000E+00;  4.0003613E+04;  9.4539285E-02;  0.0000000E+00; -9.1100791E-03;  4.8622256E+02;
  4.8173526E-01;  9.9999998E-03;  9.9999737E-03;5405;  1.7071994E-02;  0.0000000E+00; -1.4561671E-05;  9.9963354E+02;  1.0000148E-01; -3.0359634E+02;3;  3.1168811E+00;  0.0000000E+00; -9.3863737E-03;0;  8.5413896E-02;  3.9966121E+04;  0.0000000E+00;  1.2777913E-04;  4.0000000E+04;  0.0000000E+00;  4.0003578E+04;  9.4505385E-02;  0.0000000E+00; -9.0914862E-03;  4.7519745E+02;
  4.8172694E-01;  9.9999998E-03; -1.9999858E-02;5402;  1.7055532E-02;  0.0000000E+00;  3.3014727E-05;  9.9964270E+02;  1.0000151E-01; -2.9599164E+02;3;  3.1174836E+00;  0.0000000E+00;  2.0599365E-02;0;  8.5359752E-02;  3.9967086E+04;  0.0000000E+00;  4.4388874E-04;  4.0000000E+04;  0.0000000E+00;  4.0003406E+04;  9.4394602E-02;  0.0000000E+00; -9.0348469E-03;  4.4319891E+02;
  4.8172694E-01;  9.9999998E-03;  1.9999869E-02;5406;  1.7055523E-02;  0.0000000E+00; -3.2930067E-05;  9.9964270E+02;  1.0000151E-01; -2.9599164E+02;3;  3.1174929E+00;  0.0000000E+00; -2.0594435E-02;0;  8.5359879E-02;  3.9967090E+04;  0.0000000E+00;  4.4429244E-04;  4.0000000E+04;  0.0000000E+00;  4.0003406E+04;  9.4394729E-02;  0.0000000E+00; -9.0348525E-03;  4.4320993E+02;
  4.8171374E-01;  9.9999998E-03; -2.9999897E-02;5401;  1.7041216E-02;  0.0000000E+00;  5.9013149E-05;  9.9965295E+02;  1.0000148E-01; -2.8749805E+02;3;  3.1213524E+00;  0.0000000E+00;  3.2564439E-02;0;  8.5245483E-02;  3.9968566E+04;  0.0000000E+00;  7.5349945E-04;  4.0000000E+04;  0.0000000E+00;  4.0002965E+04;  9.4183572E-02;  0.0000000E+00; -8.9380890E-03;  3.9347940E+02;
  4.8171374E-01;  9.9999998E-03;  2.9999906E-02;5407;  1.7041206E-02;  0.0000000E+00; -5.8929851E-05;  9.9965295E+02;  1.0000148E-01; -2.8749805E+02;3;  3.1213534E+00;  0.0000000E+00; -3.2562565E-02;0;  8.5245594E-02;  3.9968566E+04;  0.0000000E+00;  7.5361761E-04;  4.0000000E+04;  0.0000000E+00;  4.0002965E+04;  9.4183691E-02;  0.0000000E+00; -8.9380965E-03;  3.9349005E+02;
  4.8169607E-01;  9.9999998E-03; -4.0000319E-02;5400;  1.7032269E-02;  0.0000000E+00;  9.3623094E-05;  9.9967206E+02;  1.0000148E-01; -2.7169601E+02;3;  3.1243880E+00;  0.0000000E+00;  4.4915471E-02;0;  8.5038953E-02;  3.9970508E+04;  0.0000000E+00;  7.5499248E-04;  4.0000000E+04;  0.0000000E+00;  4.0002477E+04;  9.3837894E-02;  0.0000000E+00; -8.7989392E-03;  3.3105478E+02;
  4.8169607E-01;  9.9999998E-03;  4.0000331E-02;5408;  1.7032256E-02;  0.0000000E+00; -9.3540737E-05;  9.9967206E+02;  1.0000148E-01; -2.7169601E+02;3;  3.1243963E+00;  0.0000000E+00; -4.4915643E-02;0;  8.5039124E-02;  3.9970504E+04;  0.0000000E+00;  7.5537403E-04;  4.0000000E+04;  0.0000000E+00;  4.0002473E+04;  9.3838066E-02;  0.0000000E+00; -8.7989392E-03;  3.3105536E+02;
  4.9181372E-01;  9.9999998E-03; -9.9990405E-03;5464;  1.7124923E-02;  0.0000000E+00;  2.5331477E-05;  9.9980023E+02;  1.0000206E-01; -1.6552618E+02;3;  3.1191163E+00;  0.0000000E+00;  9.7706569E-03;0;  9.0059817E-02;  3.9978543E+04;  0.0000000E+00; -5.6215387E-04;  4.0000000E+04;  0.0000000E+00;  4.0004129E+04;  1.0010989E-01;  0.0000000E+00; -1.0050076E-02;  5.3344684E+02;
  4.9181601E-01;  9.9999998E-03;  5.2619522E-09;5465;  1.7108288E-02;  0.0000000E+00;  4.3556302E-08;  9.9980188E+02;  1.0000201E-01; -1.6414351E+02;3;  3.1117220E+00;  0.0000000E+00;  4.1841372E-06;0;  9.0084240E-02;  3.9978453E+04;  0.0000000E+00; -1.6012954E-12;  4.0000000E+04;  0.0000000E+00;  4.0004145E+04;  1.0015655E-01;  0.0000000E+00; -1.0072305E-02;  5.4170496E+02;
  4.9181372E-01;  9.9999998E-03;  9.9990517E-03;5466;  1.7124927E-02;  0.0000000E+00; -2.5246032E-05;  9.9980023E+02;  1.0000206E-01; -1.6552618E+02;3;  3.1191196E+00;  0.0000000E+00; -9.7619165E-03;0;  9.0059876E-02;  3.9978547E+04;  0.0000000E+00; -5.6195637E-04;  4.0000000E+04;  0.0000000E+00;  4.0004129E+04;  1.0010996E-01;  0.0000000E+00; -1.0050079E-02;  5.3345044E+02;
  4.9180675E-01;  9.9999998E-03; -1.9997971E-02;5463;  1.7176826E-02;  0.0000000E+00;  6.1598897E-05;  9.9980127E+02;  1.0000205E-01; -1.6463731E+02;3;  3.1325941E+00;  0.0000000E+00;  2.1562712E-02;0;  8.9980297E-02;  3.9978523E+04;  0.0000000E+00; -2.2969064E-03;  4.0000000E+04;  0.0000000E+00;  4.0003969E+04;  9.9962659E-02;  0.0000000E+00; -9.9823633E-03;  5.0928543E+02;
  4.9180675E-01;  9.9999998E-03;  1.9997982E-02;5467;  1.7176824E-02;  0.0000000E+00; -6.1513725E-05;  9.9980115E+02;  1.0000205E-01; -1.6473608E+02;3;  3.1326065E+00;  0.0000000E+00; -2.1556614E-02;0;  8.9980341E-02;  3.9978523E+04;  0.0000000E+00; -2.2965446E-03;  4.0000000E+04;  0.0000000E+00;  4.0003969E+04;  9.9962719E-02;  0.0000000E+00; -9.9823792E-03;  5.0929971E+02;
  4.9179530E-01;  9.9999998E-03; -2.9996857E-02;5462;  1.7257499E-02;  0.0000000E+00;  1.0639820E-04;  9.9979968E+02;  1.0000210E-01; -1.6597061E+02;3;  3.1500864E+00;  0.0000000E+00;  3.7314355E-02;0;  8.9828484E-02;  3.9978734E+04;  0.0000000E+00; -5.3362311E-03;  4.0000000E+04;  0.0000000E+00;  4.0003531E+04;  9.9695213E-02;  0.0000000E+00; -9.8667312E-03;  4.7099442E+02;
  4.9179530E-01;  9.9999998E-03;  2.9996866E-02;5468;  1.7257486E-02;  0.0000000E+00; -1.0631229E-04;  9.9979980E+02;  1.0000210E-01; -1.6587186E+02;3;  3.1500921E+00;  0.0000000E+00; -3.7310541E-02;0;  8.9828640E-02;  3.9978738E+04;  0.0000000E+00; -5.3356756E-03;  4.0000000E+04;  0.0000000E+00;  4.0003527E+04;  9.9695377E-02;  0.0000000E+00; -9.8667368E-03;  4.7099500E+02;
  4.9177918E-01;  9.9999998E-03; -3.9995871E-02;5461;  1.7366895E-02;  0.0000000E+00;  1.5818483E-04;  9.9979852E+02;  1.0000205E-01; -1.6690886E+02;3;  3.1713617E+00;  0.0000000E+00;  5.1398255E-02;0;  8.9578465E-02;  3.9979188E+04;  0.0000000E+00; -9.8526394E-03;  4.0000000E+04;  0.0000000E+00;  4.0003312E+04;  9.9278875E-02;  0.0000000E+00; -9.7004119E-03;  4.2159351E+02;
  4.9177918E-01;  9.9999998E-03;  3.9995883E-02;5469;  1.7366881E-02;  0.0000000E+00; -1.5809933E-04;  9.9979858E+02;  1.0000205E-01; -1.6685948E+02;3;  3.1713650E+00;  0.0000000E+00; -5.1398277E-02;0;  8.9578547E-02;  3.9979188E+04;  0.0000000E+00; -9.8524755E-03;  4.0000000E+04;  0.0000000E+00;  4.0003312E+04;  9.9278964E-02;  0.0000000E+00; -9.7004166E-03;  4.2159952E+02;
  4.9175853E-01;  9.9999998E-03; -4.9995184E-02;5460;  1.7496277E-02;  0.0000000E+00;  2.1737516E-04;  9.9979919E+02;  1.0000209E-01; -1.6636566E+02;3;  3.1828854E+00;  0.0000000E+00;  7.1989603E-02;0;  8.9200355E-02;  3.9979949E+04;  0.0000000E+00; -1.5989812E-02;  4.0000000E+04;  0.0000000E+00;  4.0002805E+04;  9.8682418E-02;  0.0000000E+00; -9.4820661E-03;  3.6484506E+02;
  4.9175853E-01;  9.9999998E-03;  4.9995195E-02;5470;  1.7496254E-02;  0.0000000E+00; -2.1728924E-04;  9.9979919E+02;  1.0000209E-01; -1.6636566E+02;3;  3.1828914E+00;  0.0000000E+00; -7.1992248E-02;0;  8.9200519E-02;  3.9979953E+04;  0.0000000E+00; -1.5990669E-02;  4.0000000E+04;  0.0000000E+00;  4.0002805E+04;  9.8682597E-02;  0.0000000E+00; -9.4820783E-03;  3.6484048E+02;
  4.9173397E-01;  9.9999998E-03; -5.9994858E-02;5459;  1.7625535E-02;  0.0000000E+00;  2.8578890E-04;  9.9980487E+02;  1.0000206E-01; -1.6167444E+02;3;  3.1884871E+00;  0.0000000E+00;  8.7165996E-02;0;  8.8664502E-02;  3.9980574E+04;  0.0000000E+00; -2.3776973E-02;  4.0000000E+04;  0.0000000E+00;  4.0002242E+04;  9.7878143E-02;  0.0000000E+00; -9.2136394E-03;  3.0484927E+02;
  4.9173397E-01;  9.9999998E-03;  5.9994869E-02;5471;  1.7625520E-02;  0.0000000E+00; -2.8570389E-04;  9.9980487E+02;  1.0000206E-01; -1.6167444E+02;3;  3.1884966E+00;  0.0000000E+00; -8.7171294E-02;0;  8.8664636E-02;  3.9980574E+04;  0.0000000E+00; -2.3778485E-02;  4.0000000E+04;  0.0000000E+00;  4.0002242E+04;  9.7878300E-02;  0.0000000E+00; -9.2136627E-03;  3.0485278E+02;
  4.9170640E-01;  9.9999998E-03; -6.9994941E-02;5458;  1.7710477E-02;  0.0000000E+00;  3.6005329E-04;  9.9980896E+02;  1.0000208E-01; -1.5826714E+02;3;  3.1798489E+00;  0.0000000E+00;  1.0514830E-01;0;  8.7946959E-02;  3.9981398E+04;  0.0000000E+00; -3.3035673E-02;  4.0000000E+04;  0.0000000E+00;  4.0001789E+04;  9.6848883E-02;  0.0000000E+00; -8.9019220E-03;  2.4588972E+02;
  4.9167687E-01;  9.9999998E-03; -7.9995409E-02;5457;  1.7709699E-02;  0.0000000E+00;  4.3412505E-04;  9.9981506E+02;  1.0000210E-01; -1.5323024E+02;3;  3.1565971E+00;  0.0000000E+00;  1.2261277E-01;0;  8.7032340E-02;  3.9982551E+04;  0.0000000E+00; -4.3314029E-02;  4.0000000E+04;  0.0000000E+00;  4.0001207E+04;  9.5591821E-02;  0.0000000E+00; -8.5594822E-03;  1.9239777E+02;
  4.9164686E-01;  9.9999998E-03; -8.9996129E-02;5456;  1.7607972E-02;  0.0000000E+00;  5.0245546E-04;  9.9982422E+02;  1.0000204E-01; -1.4562550E+02;3;  3.1165185E+00;  0.0000000E+00;  1.3864209E-01;0;  8.5917458E-02;  3.9983613E+04;  0.0000000E+00; -5.3864166E-02;  4.0000000E+04;  0.0000000E+00;  4.0001082E+04;  9.4121732E-02;  0.0000000E+00; -8.2042767E-03;  1.4966154E+02;
  4.9161839E-01;  9.9999998E-03; -9.9996820E-02;5455;  1.7424064E-02;  0.0000000E+00;  5.6140427E-04;  9.9983026E+02;  1.0000208E-01; -1.4063800E+02;3;  3.0775266E+00;  0.0000000E+00;  1.4791523E-01;0;  8.4613882E-02;  3.9984180E+04;  0.0000000E+00; -6.3679345E-02;  4.0000000E+04;  0.0000000E+00;  4.0000660E+04;  9.2472166E-02;  0.0000000E+00; -7.8582866E-03;  1.2288094E+02;
  5.0163931E-01;  9.9999998E-03; -9.9982724E-02;5516;  1.9230079E-02;  0.0000000E+00;  8.6126168E-04;  9.9980597E+02;  1.0000372E-01; -1.6073619E+02;3;  3.2048652E+00;  0.0000000E+00;  2.2363345E-01;0;  8.7055281E-02;  3.9980715E+04;  0.0000000E+00; -1.0239274E-01;  4.0000000E+04;  0.0000000E+00;  4.0001086E+04;  9.5519565E-02;  0.0000000E+00; -8.4642833E-03;  2.1304343E+02;
  5.0166351E-01;  9.9999998E-03; -8.9983501E-02;5517;  1.9572290E-02;  0.0000000E+00;  7.8444654E-04;  9.9981750E+02;  1.0000387E-01; -1.5120560E+02;3;  3.2943146E+00;  0.0000000E+00;  2.1964461E-01;0;  8.8282801E-02;  3.9980902E+04;  0.0000000E+00; -9.1510326E-02;  4.0000000E+04;  0.0000000E+00;  4.0001641E+04;  9.7168528E-02;  0.0000000E+00; -8.8857254E-03;  2.5684302E+02;
  5.0168675E-01;  9.9999998E-03; -7.9984851E-02;5518;  1.9791322E-02;  0.0000000E+00;  6.9107674E-04;  9.9983240E+02;  1.0000373E-01; -1.3886028E+02;3;  3.3744087E+00;  0.0000000E+00;  2.0149979E-01;0;  8.9337140E-02;  3.9981027E+04;  0.0000000E+00; -7.7725105E-02;  4.0000000E+04;  0.0000000E+00;  4.0002055E+04;  9.8650284E-02;  0.0000000E+00; -9.3131475E-03;  3.0864481E+02;
  5.0170785E-01;  9.9999998E-03; -6.9986664E-02;5519;  1.9852530E-02;  0.0000000E+00;  5.9044937E-04;  9.9984015E+02;  1.0000388E-01; -1.3244070E+02;3;  3.4311762E+00;  0.0000000E+00;  1.8513913E-01;0;  9.0219729E-02;  3.9981766E+04;  0.0000000E+00; -6.2598720E-02;  4.0000000E+04;  0.0000000E+00;  4.0002789E+04;  9.9941947E-02;  0.0000000E+00; -9.7222170E-03;  3.6305353E+02;
  5.0172627E-01;  9.9999998E-03; -5.9988700E-02;5520;  1.9756695E-02;  0.0000000E+00;  4.8535783E-04;  9.9985541E+02;  1.0000376E-01; -1.1979908E+02;3;  3.4680786E+00;  0.0000000E+00;  1.5683785E-01;0;  9.0938434E-02;  3.9982480E+04;  0.0000000E+00; -4.7531366E-02;  4.0000000E+04;  0.0000000E+00;  4.0003098E+04;  1.0103147E-01;  0.0000000E+00; -1.0093044E-02;  4.1579144E+02;
  5.0174147E-01;  9.9999998E-03; -4.9990915E-02;5521;  1.9524323E-02;  0.0000000E+00;  3.8404227E-04;  9.9987158E+02;  1.0000374E-01; -1.0636736E+02;3;  3.4760995E+00;  0.0000000E+00;  1.2796827E-01;0;  9.1506578E-02;  3.9983164E+04;  0.0000000E+00; -3.3644516E-02;  4.0000000E+04;  0.0000000E+00;  4.0003492E+04;  1.0191835E-01;  0.0000000E+00; -1.0411768E-02;  4.6413400E+02;
  5.0175309E-01;  9.9999998E-03; -3.9993182E-02;5522;  1.9207181E-02;  0.0000000E+00;  2.9316242E-04;  9.9988806E+02;  1.0000377E-01; -9.2738121E+01;3;  3.4623911E+00;  0.0000000E+00;  9.6762948E-02;0;  9.1939367E-02;  3.9984117E+04;  0.0000000E+00; -2.1730497E-02;  4.0000000E+04;  0.0000000E+00;  4.0004098E+04;  1.0261034E-01;  0.0000000E+00; -1.0670977E-02;  5.0615076E+02;
  5.0176120E-01;  9.9999998E-03; -2.9995296E-02;5523;  1.8870631E-02;  0.0000000E+00;  2.1162900E-04;  9.9990387E+02;  1.0000386E-01; -7.9652069E+01;3;  3.4373250E+00;  0.0000000E+00;  7.1999289E-02;0;  9.2253134E-02;  3.9985172E+04;  0.0000000E+00; -1.2257417E-02;  4.0000000E+04;  0.0000000E+00;  4.0004207E+04;  1.0312180E-01;  0.0000000E+00; -1.0868671E-02;  5.4038019E+02;
  5.0176638E-01;  9.9999998E-03; -1.9997211E-02;5524;  1.8578159E-02;  0.0000000E+00;  1.3907174E-04;  9.9991620E+02;  1.0000373E-01; -6.9430138E+01;3;  3.4083493E+00;  0.0000000E+00;  4.5743197E-02;0;  9.2463762E-02;  3.9985707E+04;  0.0000000E+00; -5.4455618E-03;  4.0000000E+04;  0.0000000E+00;  4.0004570E+04;  1.0347018E-01;  0.0000000E+00; -1.1006416E-02;  5.6552112E+02;
  5.0176919E-01;  9.9999998E-03; -9.9987350E-03;5525;  1.8371964E-02;  0.0000000E+00;  6.8005109E-05;  9.9992297E+02;  1.0000381E-01; -6.3800663E+01;3;  3.3876169E+00;  0.0000000E+00;  2.1177415E-02;0;  9.2584215E-02;  3.9986168E+04;  0.0000000E+00; -1.3596880E-03;  4.0000000E+04;  0.0000000E+00;  4.0004613E+04;  1.0367148E-01;  0.0000000E+00; -1.1087266E-02;  5.8087317E+02;
  5.0177002E-01;  9.9999998E-03;  5.4186780E-09;5526;  1.8295040E-02;  0.0000000E+00;  4.3118689E-08;  9.9992474E+02;  1.0000373E-01; -6.2368607E+01;3;  3.3801892E+00;  0.0000000E+00;  4.6393925E-06;0;  9.2623562E-02;  3.9986453E+04;  0.0000000E+00; -1.5425961E-13;  4.0000000E+04;  0.0000000E+00;  4.0004656E+04;  1.0373742E-01;  0.0000000E+00; -1.1113856E-02;  5.8599854E+02;
  5.0176919E-01;  9.9999998E-03;  9.9987453E-03;5527;  1.8371958E-02;  0.0000000E+00; -6.7918947E-05;  9.9992297E+02;  1.0000381E-01; -6.3800663E+01;3;  3.3876243E+00;  0.0000000E+00; -2.1169154E-02;0;  9.2584275E-02;  3.9986172E+04;  0.0000000E+00; -1.3595626E-03;  4.0000000E+04;  0.0000000E+00;  4.0004617E+04;  1.0367154E-01;  0.0000000E+00; -1.1087261E-02;  5.8088324E+02;
  5.0176638E-01;  9.9999998E-03;  1.9997222E-02;5528;  1.8578118E-02;  0.0000000E+00; -1.3898473E-04;  9.9991626E+02;  1.0000373E-01; -6.9380753E+01;3;  3.4083452E+00;  0.0000000E+00; -4.5736223E-02;0;  9.2463687E-02;  3.9985707E+04;  0.0000000E+00; -5.4452247E-03;  4.0000000E+04;  0.0000000E+00;  4.0004570E+04;  1.0347012E-01;  0.0000000E+00; -1.1006430E-02;  5.6551904E+02;
  5.0176120E-01;  9.9999998E-03;  2.9995305E-02;5529;  1.8870596E-02;  0.0000000E+00; -2.1154157E-04;  9.9990387E+02;  1.0000386E-01; -7.9652069E+01;3;  3.4373243E+00;  0.0000000E+00; -7.1995936E-02;0;  9.2253216E-02;  3.9985176E+04;  0.0000000E+00; -1.2257319E-02;  4.0000000E+04;  0.0000000E+00;  4.0004207E+04;  1.0312191E-01;  0.0000000E+00; -1.0868688E-02;  5.4038611E+02;
  5.0175309E-01;  9.9999998E-03;  3.9993193E-02;5530;  1.9207159E-02;  0.0000000E+00; -2.9307470E-04;  9.9988806E+02;  1.0000377E-01; -9.2738121E+01;3;  3.4623964E+00;  0.0000000E+00; -9.6761681E-02;0;  9.1939509E-02;  3.9984109E+04;  0.0000000E+00; -2.1729626E-02;  4.0000000E+04;  0.0000000E+00;  4.0004098E+04;  1.0261051E-01;  0.0000000E+00; -1.0671002E-02;  5.0615173E+02;
  5.0174147E-01;  9.9999998E-03;  4.9990926E-02;5531;  1.9524314E-02;  0.0000000E+00; -3.8395426E-04;  9.9987158E+02;  1.0000374E-01; -1.0636736E+02;3;  3.4761078E+00;  0.0000000E+00; -1.2796886E-01;0;  9.1506764E-02;  3.9983164E+04;  0.0000000E+00; -3.3643261E-02;  4.0000000E+04;  0.0000000E+00;  4.0003488E+04;  1.0191856E-01;  0.0000000E+00; -1.0411803E-02;  4.6413458E+02;
  5.0172627E-01;  9.9999998E-03;  5.9988711E-02;5532;  1.9756675E-02;  0.0000000E+00; -4.8526874E-04;  9.9985541E+02;  1.0000376E-01; -1.1979908E+02;3;  3.4680836E+00;  0.0000000E+00; -1.5683836E-01;0;  9.0938658E-02;  3.9982469E+04;  0.0000000E+00; -4.7530532E-02;  4.0000000E+04;  0.0000000E+00;  4.0003098E+04;  1.0103174E-01;  0.0000000E+00; -1.0093081E-02;  4.1578897E+02;
  5.1164234E-01;  9.9999998E-03; -9.9973164E-02;5577;  2.1862306E-02;  0.0000000E+00;  1.1780050E-03;  9.9976636E+02;  1.0000619E-01; -1.9357477E+02;3;  3.3788204E+00;  0.0000000E+00;  4.0552741E-01;0;  8.6571768E-02;  3.9974664E+04;  0.0000000E+00; -1.3273650E-01;  4.0000000E+04;  0.0000000E+00;  4.0001699E+04;  9.5642686E-02;  0.0000000E+00; -9.0709208E-03;  2.8981335E+02;
  5.1165891E-01;  9.9999998E-03; -8.9975931E-02;5578;  2.2361036E-02;  0.0000000E+00;  1.0877711E-03;  9.9978656E+02;  1.0000612E-01; -1.7683450E+02;3;  3.4695699E+00;  0.0000000E+00;  4.3227610E-01;0;  8.7640882E-02;  3.9975277E+04;  0.0000000E+00; -1.2266580E-01;  4.0000000E+04;  0.0000000E+00;  4.0002105E+04;  9.7213611E-02;  0.0000000E+00; -9.5727267E-03;  3.4945886E+02;
  5.1167345E-01;  9.9999998E-03; -7.9979166E-02;5579;  2.2728374E-02;  0.0000000E+00;  9.7664108E-04;  9.9980365E+02;  1.0000617E-01; -1.6266206E+02;3;  3.5526929E+00;  0.0000000E+00;  4.4864544E-01;0;  8.8567883E-02;  3.9976277E+04;  0.0000000E+00; -1.0745654E-01;  4.0000000E+04;  0.0000000E+00;  4.0002887E+04;  9.8643892E-02;  0.0000000E+00; -1.0076007E-02;  4.0959000E+02;
  5.1168591E-01;  9.9999998E-03; -6.9982551E-02;5580;  2.2930453E-02;  0.0000000E+00;  8.4886036E-04;  9.9982648E+02;  1.0000610E-01; -1.4374902E+02;3;  3.6373906E+00;  0.0000000E+00;  4.3018669E-01;0;  8.9366920E-02;  3.9977730E+04;  0.0000000E+00; -8.9052014E-02;  4.0000000E+04;  0.0000000E+00;  4.0003359E+04;  9.9921606E-02;  0.0000000E+00; -1.0554689E-02;  4.6427023E+02;
  5.1169604E-01;  9.9999998E-03; -5.9985865E-02;5581;  2.2961242E-02;  0.0000000E+00;  7.1228918E-04;  9.9985419E+02;  1.0000613E-01; -1.2078671E+02;3;  3.7132897E+00;  0.0000000E+00;  3.8063607E-01;0;  9.0050250E-02;  3.9978996E+04;  0.0000000E+00; -6.9417462E-02;  4.0000000E+04;  0.0000000E+00;  4.0003750E+04;  1.0103767E-01;  0.0000000E+00; -1.0987420E-02;  5.1006860E+02;
  5.1170397E-01;  9.9999998E-03; -4.9989015E-02;5582;  2.2841761E-02;  0.0000000E+00;  5.7615130E-04;  9.9987988E+02;  1.0000623E-01; -9.9503357E+01;3;  3.7634854E+00;  0.0000000E+00;  3.3293512E-01;0;  9.0626717E-02;  3.9980766E+04;  0.0000000E+00; -5.0315037E-02;  4.0000000E+04;  0.0000000E+00;  4.0004160E+04;  1.0198604E-01;  0.0000000E+00; -1.1359323E-02;  5.4600989E+02;
  5.1170939E-01;  9.9999998E-03; -3.9991926E-02;5583;  2.2606812E-02;  0.0000000E+00;  4.4308076E-04;  9.9990381E+02;  1.0000616E-01; -7.9701447E+01;3;  3.7979395E+00;  0.0000000E+00;  2.6818168E-01;0;  9.1100328E-02;  3.9982492E+04;  0.0000000E+00; -3.3172373E-02;  4.0000000E+04;  0.0000000E+00;  4.0004645E+04;  1.0276261E-01;  0.0000000E+00; -1.1662279E-02;  5.7268823E+02;
  5.1171261E-01;  9.9999998E-03; -2.9994482E-02;5584;  2.2330593E-02;  0.0000000E+00;  3.2241835E-04;  9.9992938E+02;  1.0000622E-01; -5.8516865E+01;3;  3.8172855E+00;  0.0000000E+00;  1.8507558E-01;0;  9.1471337E-02;  3.9983977E+04;  0.0000000E+00; -1.9028619E-02;  4.0000000E+04;  0.0000000E+00;  4.0004719E+04;  1.0336541E-01;  0.0000000E+00; -1.1894071E-02;  5.9123798E+02;
  5.1171452E-01;  9.9999998E-03; -1.9996705E-02;5585;  2.2066228E-02;  0.0000000E+00;  2.1233069E-04;  9.9994788E+02;  1.0000621E-01; -4.3159275E+01;3;  3.8185074E+00;  0.0000000E+00;  1.2725990E-01;0;  9.1738701E-02;  3.9985770E+04;  0.0000000E+00; -8.5594794E-03;  4.0000000E+04;  0.0000000E+00;  4.0004910E+04;  1.0379492E-01;  0.0000000E+00; -1.2056223E-02;  6.0305334E+02;
  5.1171535E-01;  9.9999998E-03; -9.9985301E-03;5586;  2.1881236E-02;  0.0000000E+00;  1.0456228E-04;  9.9995959E+02;  1.0000639E-01; -3.3480534E+01;3;  3.8184664E+00;  0.0000000E+00;  5.8679271E-02;0;  9.1900066E-02;  3.9986461E+04;  0.0000000E+00; -2.1536592E-03;  4.0000000E+04;  0.0000000E+00;  4.0004914E+04;  1.0405178E-01;  0.0000000E+00; -1.2151713E-02;  6.0949036E+02;
  5.1171583E-01;  9.9999998E-03;  5.6196856E-09;5587;  2.1814071E-02;  0.0000000E+00;  4.5675218E-08;  9.9996259E+02;  1.0000618E-01; -3.1011469E+01;3;  3.8181295E+00;  0.0000000E+00;  4.4039057E-06;0;  9.1954105E-02;  3.9986738E+04;  0.0000000E+00;  1.2625606E-12;  4.0000000E+04;  0.0000000E+00;  4.0004742E+04;  1.0413732E-01;  0.0000000E+00; -1.2183218E-02;  6.1147369E+02;
  5.1171535E-01;  9.9999998E-03;  9.9985413E-03;5588;  2.1881234E-02;  0.0000000E+00; -1.0447021E-04;  9.9995966E+02;  1.0000639E-01; -3.3431152E+01;3;  3.8184724E+00;  0.0000000E+00; -5.8669448E-02;0;  9.1900110E-02;  3.9986461E+04;  0.0000000E+00; -2.1536651E-03;  4.0000000E+04;  0.0000000E+00;  4.0004914E+04;  1.0405184E-01;  0.0000000E+00; -1.2151728E-02;  6.0949036E+02;
  5.1171452E-01;  9.9999998E-03;  1.9996716E-02;5589;  2.2066224E-02;  0.0000000E+00; -2.1223836E-04;  9.9994788E+02;  1.0000621E-01; -4.3159275E+01;3;  3.8185122E+00;  0.0000000E+00; -1.2725274E-01;0;  9.1738731E-02;  3.9985770E+04;  0.0000000E+00; -8.5592791E-03;  4.0000000E+04;  0.0000000E+00;  4.0004910E+04;  1.0379495E-01;  0.0000000E+00; -1.2056224E-02;  6.0307104E+02;
  5.1171261E-01;  9.9999998E-03;  2.9994493E-02;5590;  2.2330593E-02;  0.0000000E+00; -3.2232577E-04;  9.9992938E+02;  1.0000622E-01; -5.8516865E+01;3;  3.8172951E+00;  0.0000000E+00; -1.8506950E-01;0;  9.1471590E-02;  3.9983973E+04;  0.0000000E+00; -1.9028228E-02;  4.0000000E+04;  0.0000000E+00;  4.0004719E+04;  1.0336569E-01;  0.0000000E+00; -1.1894101E-02;  5.9123822E+02;
  5.1170939E-01;  9.9999998E-03;  3.9991938E-02;5591;  2.2606798E-02;  0.0000000E+00; -4.4298664E-04;  9.9990393E+02;  1.0000611E-01; -7.9602684E+01;3;  3.7979438E+00;  0.0000000E+00; -2.6818189E-01;0;  9.1100432E-02;  3.9982492E+04;  0.0000000E+00; -3.3172611E-02;  4.0000000E+04;  0.0000000E+00;  4.0004645E+04;  1.0276274E-01;  0.0000000E+00; -1.1662312E-02;  5.7270209E+02;
  5.1170397E-01;  9.9999998E-03;  4.9989030E-02;5592;  2.2841757E-02;  0.0000000E+00; -5.7605730E-04;  9.9987988E+02;  1.0000623E-01; -9.9503357E+01;3;  3.7634981E+00;  0.0000000E+00; -3.3293512E-01;0;  9.0626918E-02;  3.9980766E+04;  0.0000000E+00; -5.0315533E-02;  4.0000000E+04;  0.0000000E+00;  4.0004164E+04;  1.0198626E-01;  0.0000000E+00; -1.1359343E-02;  5.4601678E+02;
  5.1169604E-01;  9.9999998E-03;  5.9985880E-02;5593;  2.2961235E-02;  0.0000000E+00; -7.1219518E-04;  9.9985419E+02;  1.0000613E-01; -1.2078671E+02;3;  3.7132993E+00;  0.0000000E+00; -3.8063800E-01;0;  9.0050593E-02;  3.9978996E+04;  0.0000000E+00; -6.9415174E-02;  4.0000000E+04;  0.0000000E+00;  4.0003754E+04;  1.0103805E-01;  0.0000000E+00; -1.0987459E-02;  5.1004977E+02;
  5.2162981E-01;  9.9999998E-03; -9.9970996E-02;5638;  2.4548337E-02;  0.0000000E+00;  1.5352524E-03;  9.9970685E+02;  1.0001040E-01; -2.4285733E+02;3;  3.1079531E+00;  0.0000000E+00;  8.9354926E-01;0;  8.2658604E-02;  3.9965117E+04;  0.0000000E+00; -1.4858840E-01;  4.0000000E+04;  0.0000000E+00;  4.0001852E+04;  9.2302747E-02;  0.0000000E+00; -9.6441405E-03;  3.4263828E+02;
  5.2163976E-01;  9.9999998E-03; -8.9974642E-02;5639;  2.5115145E-02;  0.0000000E+00;  1.4525851E-03;  9.9971997E+02;  1.0001049E-01; -2.3199344E+02;3;  3.0925810E+00;  0.0000000E+00;  9.3328238E-01;0;  8.3495446E-02;  3.9965770E+04;  0.0000000E+00; -1.4100769E-01;  4.0000000E+04;  0.0000000E+00;  4.0002676E+04;  9.3719922E-02;  0.0000000E+00; -1.0224476E-02;  4.1548969E+02;
  5.2164769E-01;  9.9999998E-03; -7.9978466E-02;5640;  2.5567161E-02;  0.0000000E+00;  1.3438067E-03;  9.9973682E+02;  1.0001046E-01; -2.1801852E+02;3;  3.1124380E+00;  0.0000000E+00;  9.1436553E-01;0;  8.4230453E-02;  3.9966516E+04;  0.0000000E+00; -1.2647469E-01;  4.0000000E+04;  0.0000000E+00;  4.0003281E+04;  9.5031038E-02;  0.0000000E+00; -1.0800584E-02;  4.8244479E+02;
  5.2165365E-01;  9.9999998E-03; -6.9982208E-02;5641;  2.5886111E-02;  0.0000000E+00;  1.2071923E-03;  9.9976160E+02;  1.0001037E-01; -1.9752528E+02;3;  3.1755416E+00;  0.0000000E+00;  8.7237370E-01;0;  8.4888913E-02;  3.9967770E+04;  0.0000000E+00; -1.0706642E-01;  4.0000000E+04;  0.0000000E+00;  4.0003906E+04;  9.6234336E-02;  0.0000000E+00; -1.1345427E-02;  5.3708496E+02;
  5.2165794E-01;  9.9999998E-03; -5.9985749E-02;5642;  2.6068445E-02;  0.0000000E+00;  1.0473483E-03;  9.9978845E+02;  1.0001051E-01; -1.7525430E+02;3;  3.2914336E+00;  0.0000000E+00;  7.9602379E-01;0;  8.5486434E-02;  3.9969285E+04;  0.0000000E+00; -8.5067920E-02;  4.0000000E+04;  0.0000000E+00;  4.0004355E+04;  9.7323366E-02;  0.0000000E+00; -1.1836928E-02;  5.7650281E+02;
  5.2166080E-01;  9.9999998E-03; -4.9989026E-02;5643;  2.6128221E-02;  0.0000000E+00;  8.7195018E-04;  9.9981744E+02;  1.0001035E-01; -1.5125497E+02;3;  3.4243081E+00;  0.0000000E+00;  6.9811308E-01;0;  8.6026311E-02;  3.9971000E+04;  0.0000000E+00; -6.2701963E-02;  4.0000000E+04;  0.0000000E+00;  4.0004730E+04;  9.8285891E-02;  0.0000000E+00; -1.2259578E-02;  6.0121460E+02;
  5.2166182E-01;  9.9999998E-03; -3.9992020E-02;5644;  2.6086196E-02;  0.0000000E+00;  6.8833143E-04;  9.9984399E+02;  1.0001035E-01; -1.2923091E+02;3;  3.5660086E+00;  0.0000000E+00;  5.7028204E-01;0;  8.6502478E-02;  3.9972988E+04;  0.0000000E+00; -4.1932497E-02;  4.0000000E+04;  0.0000000E+00;  4.0004824E+04;  9.9107213E-02;  0.0000000E+00; -1.2604740E-02;  6.1387537E+02;
  5.2166200E-01;  9.9999998E-03; -2.9994566E-02;5645;  2.5981277E-02;  0.0000000E+00;  5.0839758E-04;  9.9986481E+02;  1.0001040E-01; -1.1199683E+02;3;  3.6972003E+00;  0.0000000E+00;  4.1158214E-01;0;  8.6899959E-02;  3.9974812E+04;  0.0000000E+00; -2.4330456E-02;  4.0000000E+04;  0.0000000E+00;  4.0004910E+04;  9.9769756E-02;  0.0000000E+00; -1.2869796E-02;  6.1816437E+02;
  5.2166170E-01;  9.9999998E-03; -1.9996742E-02;5646;  2.5854541E-02;  0.0000000E+00;  3.3559414E-04;  9.9988696E+02;  1.0001042E-01; -9.3626984E+01;3;  3.7916441E+00;  0.0000000E+00;  2.6950982E-01;0;  8.7201335E-02;  3.9976539E+04;  0.0000000E+00; -1.1036223E-02;  4.0000000E+04;  0.0000000E+00;  4.0004914E+04;  1.0025728E-01;  0.0000000E+00; -1.3055951E-02;  6.1780499E+02;
  5.2166140E-01;  9.9999998E-03; -9.9985339E-03;5647;  2.5755880E-02;  0.0000000E+00;  1.6645943E-04;  9.9989917E+02;  1.0001042E-01; -8.3553192E+01;3;  3.8520243E+00;  0.0000000E+00;  1.2516491E-01;0;  8.7389641E-02;  3.9977469E+04;  0.0000000E+00; -2.7909067E-03;  4.0000000E+04;  0.0000000E+00;  4.0004688E+04;  1.0055561E-01;  0.0000000E+00; -1.3165968E-02;  6.1612701E+02;
  5.2166134E-01;  9.9999998E-03;  5.8315837E-09;5648;  2.5716944E-02;  0.0000000E+00;  4.9398739E-08;  9.9990515E+02;  1.0001050E-01; -7.8565681E+01;3;  3.8700550E+00;  0.0000000E+00;  9.3261087E-06;0;  8.7453812E-02;  3.9977754E+04;  0.0000000E+00;  9.4095359E-13;  4.0000000E+04;  0.0000000E+00;  4.0004801E+04;  1.0065616E-01;  0.0000000E+00; -1.3202346E-02;  6.1522662E+02;
  5.2166140E-01;  9.9999998E-03;  9.9985451E-03;5649;  2.5755873E-02;  0.0000000E+00; -1.6636017E-04;  9.9989923E+02;  1.0001042E-01; -8.3503815E+01;3;  3.8520255E+00;  0.0000000E+00; -1.2514164E-01;0;  8.7389715E-02;  3.9977469E+04;  0.0000000E+00; -2.7911928E-03;  4.0000000E+04;  0.0000000E+00;  4.0004688E+04;  1.0055570E-01;  0.0000000E+00; -1.3165983E-02;  6.1612213E+02;
  5.2166170E-01;  9.9999998E-03;  1.9996753E-02;5650;  2.5854517E-02;  0.0000000E+00; -3.3549426E-04;  9.9988696E+02;  1.0001042E-01; -9.3626984E+01;3;  3.7916441E+00;  0.0000000E+00; -2.6948652E-01;0;  8.7201223E-02;  3.9976539E+04;  0.0000000E+00; -1.1036611E-02;  4.0000000E+04;  0.0000000E+00;  4.0004914E+04;  1.0025719E-01;  0.0000000E+00; -1.3055968E-02;  6.1781946E+02;
  5.2166200E-01;  9.9999998E-03;  2.9994577E-02;5651;  2.5981285E-02;  0.0000000E+00; -5.0829793E-04;  9.9986475E+02;  1.0001040E-01; -1.1204621E+02;3;  3.6972022E+00;  0.0000000E+00; -4.1156429E-01;0;  8.6900026E-02;  3.9974816E+04;  0.0000000E+00; -2.4330352E-02;  4.0000000E+04;  0.0000000E+00;  4.0004910E+04;  9.9769838E-02;  0.0000000E+00; -1.2869811E-02;  6.1816205E+02;
  5.2166182E-01;  9.9999998E-03;  3.9992031E-02;5652;  2.6086207E-02;  0.0000000E+00; -6.8823167E-04;  9.9984387E+02;  1.0001045E-01; -1.2932968E+02;3;  3.5660093E+00;  0.0000000E+00; -5.7026154E-01;0;  8.6502597E-02;  3.9972988E+04;  0.0000000E+00; -4.1932143E-02;  4.0000000E+04;  0.0000000E+00;  4.0004824E+04;  9.9107347E-02;  0.0000000E+00; -1.2604750E-02;  6.1387659E+02;
  5.2166080E-01;  9.9999998E-03;  4.9989041E-02;5653;  2.6128236E-02;  0.0000000E+00; -8.7185140E-04;  9.9981744E+02;  1.0001035E-01; -1.5125497E+02;3;  3.4243166E+00;  0.0000000E+00; -6.9810206E-01;0;  8.6026482E-02;  3.9971004E+04;  0.0000000E+00; -6.2702216E-02;  4.0000000E+04;  0.0000000E+00;  4.0004730E+04;  9.8286092E-02;  0.0000000E+00; -1.2259611E-02;  6.0120514E+02;
  5.2165788E-01;  9.9999998E-03;  5.9985761E-02;5654;  2.6068466E-02;  0.0000000E+00; -1.0472514E-03;  9.9978851E+02;  1.0001051E-01; -1.7520493E+02;3;  3.2914340E+00;  0.0000000E+00; -7.9602194E-01;0;  8.5486591E-02;  3.9969285E+04;  0.0000000E+00; -8.5067689E-02;  4.0000000E+04;  0.0000000E+00;  4.0004355E+04;  9.7323544E-02;  0.0000000E+00; -1.1836954E-02;  5.7650818E+02;
  5.3160596E-01;  9.9999998E-03; -9.9976093E-02;5699;  2.6441310E-02;  0.0000000E+00;  1.9308708E-03;  9.9962817E+02;  1.0001730E-01; -3.0804068E+02;3;  1.5675478E+00;  0.0000000E+00;  1.1035177E+00;0;  7.5378865E-02;  3.9952676E+04;  0.0000000E+00; -1.4429484E-01;  4.0000000E+04;  0.0000000E+00;  4.0002047E+04;  8.5525416E-02;  0.0000000E+00; -1.0146551E-02;  3.6559592E+02;
  5.3161061E-01;  9.9999998E-03; -8.9979790E-02;5700;  2.6933160E-02;  0.0000000E+00;  1.8282927E-03;  9.9962970E+02;  1.0001747E-01; -3.0680615E+02;3;  1.3331805E+00;  0.0000000E+00;  9.9573839E-01;0;  7.5940922E-02;  3.9952078E+04;  0.0000000E+00; -1.4055239E-01;  4.0000000E+04;  0.0000000E+00;  4.0002781E+04;  8.6736478E-02;  0.0000000E+00; -1.0795558E-02;  4.4815720E+02;
  5.3161341E-01;  9.9999998E-03; -7.9983458E-02;5701;  2.7339809E-02;  0.0000000E+00;  1.6915476E-03;  9.9963550E+02;  1.0001741E-01; -3.0196677E+02;3;  1.1666977E+00;  0.0000000E+00;  8.8829112E-01;0;  7.6442972E-02;  3.9952066E+04;  0.0000000E+00; -1.2896556E-01;  4.0000000E+04;  0.0000000E+00;  4.0003484E+04;  8.7876543E-02;  0.0000000E+00; -1.1433575E-02;  5.2046899E+02;
  5.3161454E-01;  9.9999998E-03; -6.9986865E-02;5702;  2.7665548E-02;  0.0000000E+00;  1.5242039E-03;  9.9964954E+02;  1.0001725E-01; -2.9036215E+02;3;  1.0700588E+00;  0.0000000E+00;  7.4482048E-01;0;  7.6917805E-02;  3.9952062E+04;  0.0000000E+00; -1.1139148E-01;  4.0000000E+04;  0.0000000E+00;  4.0004051E+04;  8.8951603E-02;  0.0000000E+00; -1.2033799E-02;  5.7551398E+02;
  5.3161430E-01;  9.9999998E-03; -5.9989922E-02;5703;  2.7917689E-02;  0.0000000E+00;  1.3344948E-03;  9.9966089E+02;  1.0001735E-01; -2.8093033E+02;3;  1.0584832E+00;  0.0000000E+00;  6.4135081E-01;0;  7.7381752E-02;  3.9953102E+04;  0.0000000E+00; -9.0080686E-02;  4.0000000E+04;  0.0000000E+00;  4.0004426E+04;  8.9956045E-02;  0.0000000E+00; -1.2574292E-02;  6.1053766E+02;
  5.3161252E-01;  9.9999998E-03; -4.9992651E-02;5704;  2.8102292E-02;  0.0000000E+00;  1.1269999E-03;  9.9968323E+02;  1.0001732E-01; -2.6246170E+02;3;  1.1315358E+00;  0.0000000E+00;  5.5745047E-01;0;  7.7835537E-02;  3.9954219E+04;  0.0000000E+00; -6.7417912E-02;  4.0000000E+04;  0.0000000E+00;  4.0004691E+04;  9.0875015E-02;  0.0000000E+00; -1.3039476E-02;  6.2682159E+02;
  5.3160971E-01;  9.9999998E-03; -3.9994936E-02;5705;  2.8226191E-02;  0.0000000E+00;  9.0559921E-04;  9.9970355E+02;  1.0001732E-01; -2.4562268E+02;3;  1.3068216E+00;  0.0000000E+00;  4.4693637E-01;0;  7.8264393E-02;  3.9955750E+04;  0.0000000E+00; -4.5663435E-02;  4.0000000E+04;  0.0000000E+00;  4.0004766E+04;  9.1684908E-02;  0.0000000E+00; -1.3420513E-02;  6.2865106E+02;
  5.3160727E-01;  9.9999998E-03; -2.9996663E-02;5706;  2.8301660E-02;  0.0000000E+00;  6.8248092E-04;  9.9972357E+02;  1.0001733E-01; -2.2903056E+02;3;  1.5130396E+00;  0.0000000E+00;  3.5580155E-01;0;  7.8641929E-02;  3.9957227E+04;  0.0000000E+00; -2.6763704E-02;  4.0000000E+04;  0.0000000E+00;  4.0004625E+04;  9.2356257E-02;  0.0000000E+00; -1.3714328E-02;  6.2160126E+02;
  5.3160495E-01;  9.9999998E-03; -1.9998113E-02;5707;  2.8337723E-02;  0.0000000E+00;  4.5712767E-04;  9.9973584E+02;  1.0001739E-01; -2.1885800E+02;3;  1.6959847E+00;  0.0000000E+00;  2.3963971E-01;0;  7.8939907E-02;  3.9958426E+04;  0.0000000E+00; -1.2229240E-02;  4.0000000E+04;  0.0000000E+00;  4.0004453E+04;  9.2861392E-02;  0.0000000E+00; -1.3921482E-02;  6.1145917E+02;
  5.3160357E-01;  9.9999998E-03; -9.9992026E-03;5708;  2.8350445E-02;  0.0000000E+00;  2.2884250E-04;  9.9974695E+02;  1.0001720E-01; -2.0967308E+02;3;  1.8431525E+00;  0.0000000E+00;  1.2076287E-01;0;  7.9131082E-02;  3.9959254E+04;  0.0000000E+00; -3.1064025E-03;  4.0000000E+04;  0.0000000E+00;  4.0004375E+04;  9.3175419E-02;  0.0000000E+00; -1.4044338E-02;  6.0309094E+02;
  5.3160316E-01;  9.9999998E-03;  6.0211689E-09;5709;  2.8351992E-02;  0.0000000E+00;  5.3539114E-08;  9.9974915E+02;  1.0001738E-01; -2.0784598E+02;3;  1.8908341E+00;  0.0000000E+00;  2.0542366E-05;0;  7.9196997E-02;  3.9959645E+04;  0.0000000E+00;  1.5162047E-12;  4.0000000E+04;  0.0000000E+00;  4.0004340E+04;  9.3282022E-02;  0.0000000E+00; -1.4085024E-02;  5.9987323E+02;
  5.3160357E-01;  9.9999998E-03;  9.9992137E-03;5710;  2.8350437E-02;  0.0000000E+00; -2.2873592E-04;  9.9974695E+02;  1.0001720E-01; -2.0967308E+02;3;  1.8431747E+00;  0.0000000E+00; -1.2073505E-01;0;  7.9131097E-02;  3.9959258E+04;  0.0000000E+00; -3.1066141E-03;  4.0000000E+04;  0.0000000E+00;  4.0004371E+04;  9.3175426E-02;  0.0000000E+00; -1.4044332E-02;  6.0308240E+02;
  5.3160495E-01;  9.9999998E-03;  1.9998124E-02;5711;  2.8337710E-02;  0.0000000E+00; -4.5701981E-04;  9.9973590E+02;  1.0001739E-01; -2.1880862E+02;3;  1.6960222E+00;  0.0000000E+00; -2.3961125E-01;0;  7.8939877E-02;  3.9958426E+04;  0.0000000E+00; -1.2229396E-02;  4.0000000E+04;  0.0000000E+00;  4.0004453E+04;  9.2861362E-02;  0.0000000E+00; -1.3921482E-02;  6.1144275E+02;
  5.3160727E-01;  9.9999998E-03;  2.9996676E-02;5712;  2.8301651E-02;  0.0000000E+00; -6.8237289E-04;  9.9972357E+02;  1.0001733E-01; -2.2903056E+02;3;  1.5130762E+00;  0.0000000E+00; -3.5577419E-01;0;  7.8642100E-02;  3.9957230E+04;  0.0000000E+00; -2.6764501E-02;  4.0000000E+04;  0.0000000E+00;  4.0004625E+04;  9.2356458E-02;  0.0000000E+00; -1.3714354E-02;  6.2158771E+02;
  5.3160971E-01;  9.9999998E-03;  3.9994948E-02;5713;  2.8226199E-02;  0.0000000E+00; -9.0549310E-04;  9.9970343E+02;  1.0001726E-01; -2.4572145E+02;3;  1.3067803E+00;  0.0000000E+00; -4.4690490E-01;0;  7.8264490E-02;  3.9955758E+04;  0.0000000E+00; -4.5663804E-02;  4.0000000E+04;  0.0000000E+00;  4.0004766E+04;  9.1685034E-02;  0.0000000E+00; -1.3420543E-02;  6.2866650E+02;
  5.3161252E-01;  9.9999998E-03;  4.9992666E-02;5714;  2.8102294E-02;  0.0000000E+00; -1.1268930E-03;  9.9968329E+02;  1.0001732E-01; -2.6241232E+02;3;  1.1315285E+00;  0.0000000E+00; -5.5742759E-01;0;  7.7835642E-02;  3.9954215E+04;  0.0000000E+00; -6.7418911E-02;  4.0000000E+04;  0.0000000E+00;  4.0004691E+04;  9.0875156E-02;  0.0000000E+00; -1.3039515E-02;  6.2682837E+02;
  5.3161430E-01;  9.9999998E-03;  5.9989937E-02;5715;  2.7917702E-02;  0.0000000E+00; -1.3343914E-03;  9.9966077E+02;  1.0001728E-01; -2.8102908E+02;3;  1.0584314E+00;  0.0000000E+00; -6.4132529E-01;0;  7.7381775E-02;  3.9953094E+04;  0.0000000E+00; -9.0082221E-02;  4.0000000E+04;  0.0000000E+00;  4.0004426E+04;  8.9956105E-02;  0.0000000E+00; -1.2574328E-02;  6.1053552E+02;
  5.4158068E-01;  9.9999998E-03; -9.9986993E-02;5760;  2.7216602E-02;  0.0000000E+00;  2.1046405E-03;  9.9956665E+02;  1.0002934E-01; -3.5900220E+02;3; -8.0176884E-01;  0.0000000E+00;  4.4652665E-01;0;  6.5332972E-02;  3.9937273E+04;  0.0000000E+00; -1.1596669E-01;  4.0000000E+04;  0.0000000E+00;  4.0001992E+04;  7.5872332E-02;  0.0000000E+00; -1.0539359E-02;  3.6052390E+02;
  5.4158151E-01;  9.9999998E-03; -8.9989945E-02;5761;  2.7591692E-02;  0.0000000E+00;  1.9511494E-03;  9.9954950E+02;  1.0002936E-01; -3.7322400E+02;3; -1.1350293E+00;  0.0000000E+00;  2.5970244E-01;0;  6.5614589E-02;  3.9935180E+04;  0.0000000E+00; -1.1700125E-01;  4.0000000E+04;  0.0000000E+00;  4.0002973E+04;  7.6854534E-02;  0.0000000E+00; -1.1239944E-02;  4.4892618E+02;
  5.4158056E-01;  9.9999998E-03; -7.9992816E-02;5762;  2.7915951E-02;  0.0000000E+00;  1.7742852E-03;  9.9953699E+02;  1.0002926E-01; -3.8359409E+02;3; -1.4075642E+00;  0.0000000E+00;  1.0622069E-01;0;  6.5873407E-02;  3.9933219E+04;  0.0000000E+00; -1.1058083E-01;  4.0000000E+04;  0.0000000E+00;  4.0003457E+04;  7.7795953E-02;  0.0000000E+00; -1.1922546E-02;  5.2517169E+02;
  5.4157794E-01;  9.9999998E-03; -6.9995344E-02;5763;  2.8193725E-02;  0.0000000E+00;  1.5782175E-03;  9.9952679E+02;  1.0002947E-01; -3.9203830E+02;3; -1.6050981E+00;  0.0000000E+00;  1.5580262E-02;0;  6.6145927E-02;  3.9932055E+04;  0.0000000E+00; -9.7966924E-02;  4.0000000E+04;  0.0000000E+00;  4.0004016E+04;  7.8707501E-02;  0.0000000E+00; -1.2561578E-02;  5.8167688E+02;
  5.4157352E-01;  9.9999998E-03; -5.9997465E-02;5764;  2.8427593E-02;  0.0000000E+00;  1.3682828E-03;  9.9952393E+02;  1.0002933E-01; -3.9440860E+02;3; -1.7292401E+00;  0.0000000E+00; -2.1127423E-02;0;  6.6450194E-02;  3.9931234E+04;  0.0000000E+00; -8.0962956E-02;  4.0000000E+04;  0.0000000E+00;  4.0004348E+04;  7.9586275E-02;  0.0000000E+00; -1.3136081E-02;  6.1526782E+02;
  5.4156739E-01;  9.9999998E-03; -4.9999163E-02;5765;  2.8624618E-02;  0.0000000E+00;  1.1561916E-03;  9.9952600E+02;  1.0002938E-01; -3.9268027E+02;3; -1.7894216E+00;  0.0000000E+00; -5.8593401E-03;0;  6.6783458E-02;  3.9931328E+04;  0.0000000E+00; -6.1710060E-02;  4.0000000E+04;  0.0000000E+00;  4.0004582E+04;  8.0414526E-02;  0.0000000E+00; -1.3631072E-02;  6.2733380E+02;
  5.4156113E-01;  9.9999998E-03; -4.0000319E-02;5766;  2.8783688E-02;  0.0000000E+00;  9.3601178E-04;  9.9952869E+02;  1.0002935E-01; -3.9045810E+02;3; -1.8294082E+00;  0.0000000E+00; -2.7188132E-02;0;  6.7125596E-02;  3.9931664E+04;  0.0000000E+00; -4.2427141E-02;  4.0000000E+04;  0.0000000E+00;  4.0004488E+04;  8.1163354E-02;  0.0000000E+00; -1.4037760E-02;  6.2272485E+02;
  5.4155546E-01;  9.9999998E-03; -3.0000897E-02;5767;  2.8904010E-02;  0.0000000E+00;  7.0735934E-04;  9.9953821E+02;  1.0002936E-01; -3.8260648E+02;3; -1.8446354E+00;  0.0000000E+00; -4.5913395E-02;0;  6.7445204E-02;  3.9932336E+04;  0.0000000E+00; -2.5157798E-02;  4.0000000E+04;  0.0000000E+00;  4.0004273E+04;  8.1797749E-02;  0.0000000E+00; -1.4352545E-02;  6.0840247E+02;
  5.4155099E-01;  9.9999998E-03; -2.0001002E-02;5768;  2.8988134E-02;  0.0000000E+00;  4.7286350E-04;  9.9954633E+02;  1.0002936E-01; -3.7584122E+02;3; -1.8336083E+00;  0.0000000E+00; -6.1193526E-02;0;  6.7707181E-02;  3.9933141E+04;  0.0000000E+00; -1.1591657E-02;  4.0000000E+04;  0.0000000E+00;  4.0004363E+04;  8.2282528E-02;  0.0000000E+00; -1.4575345E-02;  5.9153973E+02;
  5.4154825E-01;  9.9999998E-03; -1.0000698E-02;5769;  2.9036919E-02;  0.0000000E+00;  2.3637651E-04;  9.9954895E+02;  1.0002940E-01; -3.7366846E+02;3; -1.8039532E+00;  0.0000000E+00; -3.2716841E-02;0;  6.7879058E-02;  3.9933379E+04;  0.0000000E+00; -2.9592712E-03;  4.0000000E+04;  0.0000000E+00;  4.0004125E+04;  8.2586937E-02;  0.0000000E+00; -1.4707877E-02;  5.7848376E+02;
  5.4154742E-01;  9.9999998E-03;  6.1989622E-09;5770;  2.9052261E-02;  0.0000000E+00;  5.6096418E-08;  9.9955054E+02;  1.0002925E-01; -3.7238452E+02;3; -1.7854396E+00;  0.0000000E+00;  1.9239074E-05;0;  6.7938976E-02;  3.9933652E+04;  0.0000000E+00;  2.9554837E-12;  4.0000000E+04;  0.0000000E+00;  4.0004203E+04;  8.2690805E-02;  0.0000000E+00; -1.4751831E-02;  5.7357214E+02;
  5.4154825E-01;  9.9999998E-03;  1.0000711E-02;5771;  2.9036919E-02;  0.0000000E+00; -2.3626392E-04;  9.9954895E+02;  1.0002940E-01; -3.7366846E+02;3; -1.8039492E+00;  0.0000000E+00;  3.2752253E-02;0;  6.7879044E-02;  3.9933375E+04;  0.0000000E+00; -2.9595715E-03;  4.0000000E+04;  0.0000000E+00;  4.0004125E+04;  8.2586937E-02;  0.0000000E+00; -1.4707892E-02;  5.7848700E+02;
  5.4155099E-01;  9.9999998E-03;  2.0001013E-02;5772;  2.8988130E-02;  0.0000000E+00; -4.7275022E-04;  9.9954633E+02;  1.0002936E-01; -3.7584122E+02;3; -1.8336316E+00;  0.0000000E+00;  6.1224122E-02;0;  6.7707174E-02;  3.9933145E+04;  0.0000000E+00; -1.1592053E-02;  4.0000000E+04;  0.0000000E+00;  4.0004363E+04;  8.2282536E-02;  0.0000000E+00; -1.4575361E-02;  5.9154523E+02;
  5.4155546E-01;  9.9999998E-03;  3.0000910E-02;5773;  2.8904008E-02;  0.0000000E+00; -7.0724695E-04;  9.9953821E+02;  1.0002931E-01; -3.8260648E+02;3; -1.8446674E+00;  0.0000000E+00;  4.5956295E-02;0;  6.7445248E-02;  3.9932340E+04;  0.0000000E+00; -2.5158277E-02;  4.0000000E+04;  0.0000000E+00;  4.0004273E+04;  8.1797801E-02;  0.0000000E+00; -1.4352554E-02;  6.0840436E+02;
  5.4156107E-01;  9.9999998E-03;  4.0000331E-02;5774;  2.8783683E-02;  0.0000000E+00; -9.3589909E-04;  9.9952875E+02;  1.0002930E-01; -3.9040872E+02;3; -1.8294150E+00;  0.0000000E+00;  2.7223887E-02;0;  6.7125633E-02;  3.9931660E+04;  0.0000000E+00; -4.2427469E-02;  4.0000000E+04;  0.0000000E+00;  4.0004480E+04;  8.1163414E-02;  0.0000000E+00; -1.4037783E-02;  6.2272919E+02;
  5.4156739E-01;  9.9999998E-03;  4.9999174E-02;5775;  2.8624613E-02;  0.0000000E+00; -1.1560792E-03;  9.9952600E+02;  1.0002938E-01; -3.9268027E+02;3; -1.7894620E+00;  0.0000000E+00;  5.8890637E-03;0;  6.6783510E-02;  3.9931328E+04;  0.0000000E+00; -6.1710931E-02;  4.0000000E+04;  0.0000000E+00;  4.0004582E+04;  8.0414593E-02;  0.0000000E+00; -1.3631084E-02;  6.2732721E+02;
  5.4157352E-01;  9.9999998E-03;  5.9997480E-02;5776;  2.8427586E-02;  0.0000000E+00; -1.3681701E-03;  9.9952399E+02;  1.0002933E-01; -3.9435922E+02;3; -1.7292739E+00;  0.0000000E+00;  2.1136282E-02;0;  6.6450208E-02;  3.9931234E+04;  0.0000000E+00; -8.0965623E-02;  4.0000000E+04;  0.0000000E+00;  4.0004348E+04;  7.9586312E-02;  0.0000000E+00; -1.3136100E-02;  6.1525171E+02;
  5.5156827E-01;  9.9999998E-03; -9.9999547E-02;5821;  2.7406529E-02;  0.0000000E+00;  2.0614828E-03;  9.9953650E+02;  1.0004845E-01; -3.8398911E+02;3; -2.3704817E+00;  0.0000000E+00; -3.6345100E-01;0;  5.3435072E-02;  3.9918945E+04;  0.0000000E+00; -6.3032396E-02;  4.0000000E+04;  0.0000000E+00;  4.0001969E+04;  6.4221554E-02;  0.0000000E+00; -1.0786482E-02;  3.4187115E+02;
  5.5156809E-01;  9.9999998E-03; -9.0001538E-02;5822;  2.7738234E-02;  0.0000000E+00;  1.8881060E-03;  9.9949384E+02;  1.0004840E-01; -4.1934613E+02;3; -2.5639315E+00;  0.0000000E+00; -4.4932994E-01;0;  5.3454161E-02;  3.9914848E+04;  0.0000000E+00; -6.9199473E-02;  4.0000000E+04;  0.0000000E+00;  4.0002582E+04;  6.4971067E-02;  0.0000000E+00; -1.1516904E-02;  4.3038989E+02;
  5.5156523E-01;  9.9999998E-03; -8.0003269E-02;5823;  2.8036254E-02;  0.0000000E+00;  1.7048531E-03;  9.9945526E+02;  1.0004842E-01; -4.5129584E+02;3; -2.6943743E+00;  0.0000000E+00; -4.1015053E-01;0;  5.3481996E-02;  3.9910961E+04;  0.0000000E+00; -6.9784120E-02;  4.0000000E+04;  0.0000000E+00;  4.0003336E+04;  6.5704934E-02;  0.0000000E+00; -1.2222938E-02;  5.0817401E+02;
  5.5155951E-01;  9.9999998E-03; -7.0004597E-02;5824;  2.8301369E-02;  0.0000000E+00;  1.5142148E-03;  9.9942029E+02;  1.0004834E-01; -4.8028268E+02;3; -2.7960718E+00;  0.0000000E+00; -3.8901940E-01;0;  5.3556740E-02;  3.9907840E+04;  0.0000000E+00; -6.5107703E-02;  4.0000000E+04;  0.0000000E+00;  4.0003746E+04;  6.6437699E-02;  0.0000000E+00; -1.2880959E-02;  5.6660352E+02;
  5.5155152E-01;  9.9999998E-03; -6.0005523E-02;5825;  2.8531754E-02;  0.0000000E+00;  1.3144914E-03;  9.9939484E+02;  1.0004846E-01; -5.0136850E+02;3; -2.8836949E+00;  0.0000000E+00; -3.7374100E-01;0;  5.3695440E-02;  3.9905543E+04;  0.0000000E+00; -5.6096312E-02;  4.0000000E+04;  0.0000000E+00;  4.0004145E+04;  6.7167088E-02;  0.0000000E+00; -1.3471650E-02;  6.0152899E+02;
  5.5154198E-01;  9.9999998E-03; -5.0006084E-02;5826;  2.8725505E-02;  0.0000000E+00;  1.1046178E-03;  9.9937341E+02;  1.0004857E-01; -5.1909637E+02;3; -2.9494960E+00;  0.0000000E+00; -3.6248425E-01;0;  5.3894155E-02;  3.9903707E+04;  0.0000000E+00; -4.4206075E-02;  4.0000000E+04;  0.0000000E+00;  4.0003949E+04;  6.7875154E-02;  0.0000000E+00; -1.3981001E-02;  6.1351086E+02;
  5.5153251E-01;  9.9999998E-03; -4.0006116E-02;5827;  2.8882682E-02;  0.0000000E+00;  8.8915951E-04;  9.9936090E+02;  1.0004835E-01; -5.2946649E+02;3; -2.9685616E+00;  0.0000000E+00; -2.8092489E-01;0;  5.4130521E-02;  3.9902559E+04;  0.0000000E+00; -3.1195834E-02;  4.0000000E+04;  0.0000000E+00;  4.0003973E+04;  6.8531021E-02;  0.0000000E+00; -1.4400500E-02;  6.0728040E+02;
  5.5152357E-01;  9.9999998E-03; -3.0005556E-02;5828;  2.9005667E-02;  0.0000000E+00;  6.7271560E-04;  9.9935583E+02;  1.0004839E-01; -5.3366388E+02;3; -2.9626827E+00;  0.0000000E+00; -1.9990428E-01;0;  5.4371305E-02;  3.9902172E+04;  0.0000000E+00; -1.8866362E-02;  4.0000000E+04;  0.0000000E+00;  4.0003820E+04;  6.9097482E-02;  0.0000000E+00; -1.4726179E-02;  5.9007422E+02;
  5.5151612E-01;  9.9999998E-03; -2.0004429E-02;5829;  2.9093614E-02;  0.0000000E+00;  4.5145038E-04;  9.9934912E+02;  1.0004836E-01; -5.3924396E+02;3; -2.9644608E+00;  0.0000000E+00; -1.3717104E-01;0;  5.4579206E-02;  3.9901793E+04;  0.0000000E+00; -8.8141235E-03;  4.0000000E+04;  0.0000000E+00;  4.0003754E+04;  6.9536649E-02;  0.0000000E+00; -1.4957442E-02;  5.7002429E+02;
  5.5151087E-01;  9.9999998E-03; -1.0002565E-02;5830;  2.9145572E-02;  0.0000000E+00;  2.2669902E-04;  9.9934326E+02;  1.0004847E-01; -5.4408331E+02;3; -2.9698668E+00;  0.0000000E+00; -7.8498684E-02;0;  5.4720316E-02;  3.9901629E+04;  0.0000000E+00; -2.2688378E-03;  4.0000000E+04;  0.0000000E+00;  4.0003793E+04;  6.9815658E-02;  0.0000000E+00; -1.5095342E-02;  5.5446338E+02;
  5.5150902E-01;  9.9999998E-03;  6.3374057E-09;5831;  2.9162405E-02;  0.0000000E+00;  5.8279554E-08;  9.9934534E+02;  1.0004861E-01; -5.4235498E+02;3; -2.9768670E+00;  0.0000000E+00;  1.8028259E-05;0;  5.4770265E-02;  3.9901633E+04;  0.0000000E+00;  3.0620777E-12;  4.0000000E+04;  0.0000000E+00;  4.0003613E+04;  6.9911376E-02;  0.0000000E+00; -1.5141110E-02;  5.4860138E+02;
  5.5151087E-01;  9.9999998E-03;  1.0002578E-02;5832;  2.9145570E-02;  0.0000000E+00; -2.2658262E-04;  9.9934332E+02;  1.0004843E-01; -5.4403394E+02;3; -2.9698641E+00;  0.0000000E+00;  7.8537539E-02;0;  5.4720253E-02;  3.9901625E+04;  0.0000000E+00; -2.2692096E-03;  4.0000000E+04;  0.0000000E+00;  4.0003793E+04;  6.9815598E-02;  0.0000000E+00; -1.5095347E-02;  5.5445441E+02;
  5.5151612E-01;  9.9999998E-03;  2.0004442E-02;5833;  2.9093610E-02;  0.0000000E+00; -4.5133368E-04;  9.9934918E+02;  1.0004843E-01; -5.3919458E+02;3; -2.9644477E+00;  0.0000000E+00;  1.3720229E-01;0;  5.4579206E-02;  3.9901797E+04;  0.0000000E+00; -8.8147093E-03;  4.0000000E+04;  0.0000000E+00;  4.0003754E+04;  6.9536664E-02;  0.0000000E+00; -1.4957460E-02;  5.7001453E+02;
  5.5152357E-01;  9.9999998E-03;  3.0005569E-02;5834;  2.9005663E-02;  0.0000000E+00; -6.7259843E-04;  9.9935583E+02;  1.0004839E-01; -5.3366388E+02;3; -2.9626639E+00;  0.0000000E+00;  1.9993053E-01;0;  5.4371338E-02;  3.9902176E+04;  0.0000000E+00; -1.8867100E-02;  4.0000000E+04;  0.0000000E+00;  4.0003820E+04;  6.9097526E-02;  0.0000000E+00; -1.4726188E-02;  5.9007684E+02;
  5.5153251E-01;  9.9999998E-03;  4.0006127E-02;5835;  2.8882677E-02;  0.0000000E+00; -8.8904292E-04;  9.9936090E+02;  1.0004835E-01; -5.2946649E+02;3; -2.9685690E+00;  0.0000000E+00;  2.8093526E-01;0;  5.4130524E-02;  3.9902559E+04;  0.0000000E+00; -3.1196021E-02;  4.0000000E+04;  0.0000000E+00;  4.0003973E+04;  6.8531044E-02;  0.0000000E+00; -1.4400521E-02;  6.0729230E+02;
  5.5154198E-01;  9.9999998E-03;  5.0006099E-02;5836;  2.8725496E-02;  0.0000000E+00; -1.1045006E-03;  9.9937354E+02;  1.0004857E-01; -5.1899762E+02;3; -2.9495053E+00;  0.0000000E+00;  3.6250788E-01;0;  5.3894177E-02;  3.9903703E+04;  0.0000000E+00; -4.4206683E-02;  4.0000000E+04;  0.0000000E+00;  4.0003945E+04;  6.7875214E-02;  0.0000000E+00; -1.3981036E-02;  6.1350079E+02;
  5.5155152E-01;  9.9999998E-03;  6.0005538E-02;5837;  2.8531745E-02;  0.0000000E+00; -1.3143746E-03;  9.9939490E+02;  1.0004842E-01; -5.0131912E+02;3; -2.8837001E+00;  0.0000000E+00;  3.7376356E-01;0;  5.3695481E-02;  3.9905539E+04;  0.0000000E+00; -5.6097403E-02;  4.0000000E+04;  0.0000000E+00;  4.0004145E+04;  6.7167155E-02;  0.0000000E+00; -1.3471675E-02;  6.0151007E+02;
  5.6158614E-01;  9.9999998E-03; -1.0000715E-01;5882;  2.7433254E-02;  0.0000000E+00;  1.9430720E-03;  9.9954968E+02;  1.0007958E-01; -3.7307584E+02;3; -3.1613772E+00;  0.0000000E+00; -8.0278629E-01;0;  4.0678285E-02;  3.9894898E+04;  0.0000000E+00;  1.0252941E-02;  4.0000000E+04;  0.0000000E+00;  4.0001922E+04;  5.1536407E-02;  0.0000000E+00; -1.0858122E-02;  3.3992322E+02;
  5.6158841E-01;  9.9999998E-03; -9.0008192E-02;5883;  2.7757863E-02;  0.0000000E+00;  1.7779531E-03;  9.9948785E+02;  1.0007951E-01; -4.2428427E+02;3; -3.2411594E+00;  0.0000000E+00; -7.6979136E-01;0;  4.0469497E-02;  3.9889078E+04;  0.0000000E+00; -6.0683326E-04;  4.0000000E+04;  0.0000000E+00;  4.0002301E+04;  5.2063994E-02;  0.0000000E+00; -1.1594497E-02;  4.1868365E+02;
  5.6158650E-01;  9.9999998E-03; -8.0008924E-02;5884;  2.8052131E-02;  0.0000000E+00;  1.6017280E-03;  9.9942383E+02;  1.0007960E-01; -4.7736917E+02;3; -3.3090022E+00;  0.0000000E+00; -7.4499834E-01;0;  4.0295690E-02;  3.9883469E+04;  0.0000000E+00; -9.1959490E-03;  4.0000000E+04;  0.0000000E+00;  4.0003031E+04;  5.2597020E-02;  0.0000000E+00; -1.2301328E-02;  4.9193143E+02;
  5.6158024E-01;  9.9999998E-03; -7.0009276E-02;5885;  2.8313234E-02;  0.0000000E+00;  1.4156331E-03;  9.9936365E+02;  1.0007960E-01; -5.2719495E+02;3; -3.3647990E+00;  0.0000000E+00; -7.0842224E-01;0;  4.0194694E-02;  3.9878230E+04;  0.0000000E+00; -1.4654640E-02;  4.0000000E+04;  0.0000000E+00;  4.0003434E+04;  5.3152151E-02;  0.0000000E+00; -1.2957457E-02;  5.4974286E+02;
  5.6157053E-01;  9.9999998E-03; -6.0009249E-02;5886;  2.8541531E-02;  0.0000000E+00;  1.2275401E-03;  9.9931451E+02;  1.0007947E-01; -5.6793451E+02;3; -3.3577855E+00;  0.0000000E+00; -5.7326442E-01;0;  4.0181842E-02;  3.9873984E+04;  0.0000000E+00; -1.6677085E-02;  4.0000000E+04;  0.0000000E+00;  4.0003656E+04;  5.3727366E-02;  0.0000000E+00; -1.3545524E-02;  5.8628827E+02;
  5.6155902E-01;  9.9999998E-03; -5.0008945E-02;5887;  2.8735003E-02;  0.0000000E+00;  1.0332612E-03;  9.9927362E+02;  1.0007939E-01; -6.0181012E+02;3; -3.3678362E+00;  0.0000000E+00; -4.8176190E-01;0;  4.0250964E-02;  3.9870512E+04;  0.0000000E+00; -1.5614967E-02;  4.0000000E+04;  0.0000000E+00;  4.0003977E+04;  5.4303788E-02;  0.0000000E+00; -1.4052823E-02;  6.0056232E+02;
  5.6154698E-01;  9.9999998E-03; -4.0008418E-02;5888;  2.8892839E-02;  0.0000000E+00;  8.3249994E-04;  9.9924097E+02;  1.0007937E-01; -6.2882166E+02;3; -3.3820424E+00;  0.0000000E+00; -4.0371689E-01;0;  4.0380158E-02;  3.9867918E+04;  0.0000000E+00; -1.2350272E-02;  4.0000000E+04;  0.0000000E+00;  4.0003699E+04;  5.4851446E-02;  0.0000000E+00; -1.4471291E-02;  5.9616473E+02;
  5.6153560E-01;  9.9999998E-03; -3.0007470E-02;5889;  2.9015282E-02;  0.0000000E+00;  6.2716781E-04;  9.9921558E+02;  1.0007945E-01; -6.4985809E+02;3; -3.3792076E+00;  0.0000000E+00; -3.0889097E-01;0;  4.0536717E-02;  3.9866375E+04;  0.0000000E+00; -8.0624428E-03;  4.0000000E+04;  0.0000000E+00;  4.0003516E+04;  5.5333670E-02;  0.0000000E+00; -1.4796955E-02;  5.7981226E+02;
  5.6152600E-01;  9.9999998E-03; -2.0005953E-02;5890;  2.9103702E-02;  0.0000000E+00;  4.2062323E-04;  9.9920154E+02;  1.0007954E-01; -6.6151208E+02;3; -3.3609421E+00;  0.0000000E+00; -1.8445420E-01;0;  4.0683694E-02;  3.9865078E+04;  0.0000000E+00; -3.9579622E-03;  4.0000000E+04;  0.0000000E+00;  4.0003270E+04;  5.5712458E-02;  0.0000000E+00; -1.5028765E-02;  5.5975092E+02;
  5.6151891E-01;  9.9999998E-03; -1.0003608E-02;5891;  2.9157221E-02;  0.0000000E+00;  2.1146756E-04;  9.9919489E+02;  1.0007961E-01; -6.6704279E+02;3; -3.3592587E+00;  0.0000000E+00; -9.1886088E-02;0;  4.0788375E-02;  3.9864230E+04;  0.0000000E+00; -1.0478230E-03;  4.0000000E+04;  0.0000000E+00;  4.0003191E+04;  5.5955637E-02;  0.0000000E+00; -1.5167262E-02;  5.4377338E+02;
  5.6151617E-01;  9.9999998E-03;  6.4792705E-09;5892;  2.9175313E-02;  0.0000000E+00;  6.0241213E-08;  9.9918958E+02;  1.0007939E-01; -6.7143774E+02;3; -3.3540208E+00;  0.0000000E+00;  1.9147301E-05;0;  4.0826362E-02;  3.9864129E+04;  0.0000000E+00;  2.6874358E-12;  4.0000000E+04;  0.0000000E+00;  4.0003148E+04;  5.6039672E-02;  0.0000000E+00; -1.5213312E-02;  5.3772375E+02;
  5.6151891E-01;  9.9999998E-03;  1.0003621E-02;5893;  2.9157221E-02;  0.0000000E+00; -2.1134767E-04;  9.9919489E+02;  1.0007961E-01; -6.6704279E+02;3; -3.3592482E+00;  0.0000000E+00;  9.1912180E-02;0;  4.0788390E-02;  3.9864227E+04;  0.0000000E+00; -1.0481534E-03;  4.0000000E+04;  0.0000000E+00;  4.0003191E+04;  5.5955671E-02;  0.0000000E+00; -1.5167282E-02;  5.4376727E+02;
  5.6152600E-01;  9.9999998E-03;  2.0005966E-02;5894;  2.9103696E-02;  0.0000000E+00; -4.2050323E-04;  9.9920154E+02;  1.0007954E-01; -6.6151208E+02;3; -3.3609352E+00;  0.0000000E+00;  1.8447383E-01;0;  4.0683739E-02;  3.9865070E+04;  0.0000000E+00; -3.9587133E-03;  4.0000000E+04;  0.0000000E+00;  4.0003273E+04;  5.5712506E-02;  0.0000000E+00; -1.5028766E-02;  5.5974786E+02;
  5.6153560E-01;  9.9999998E-03;  3.0007483E-02;5895;  2.9015277E-02;  0.0000000E+00; -6.2704674E-04;  9.9921558E+02;  1.0007945E-01; -6.4985809E+02;3; -3.3792007E+00;  0.0000000E+00;  3.0890909E-01;0;  4.0536717E-02;  3.9866375E+04;  0.0000000E+00; -8.0641592E-03;  4.0000000E+04;  0.0000000E+00;  4.0003516E+04;  5.5333678E-02;  0.0000000E+00; -1.4796959E-02;  5.7979993E+02;
  5.6154698E-01;  9.9999998E-03;  4.0008433E-02;5896;  2.8892836E-02;  0.0000000E+00; -8.3237916E-04;  9.9924097E+02;  1.0007937E-01; -6.2882166E+02;3; -3.3820651E+00;  0.0000000E+00;  4.0374279E-01;0;  4.0380120E-02;  3.9867914E+04;  0.0000000E+00; -1.2351742E-02;  4.0000000E+04;  0.0000000E+00;  4.0003699E+04;  5.4851424E-02;  0.0000000E+00; -1.4471302E-02;  5.9616101E+02;
  5.6155896E-01;  9.9999998E-03;  5.0008956E-02;5897;  2.8734993E-02;  0.0000000E+00; -1.0331408E-03;  9.9927362E+02;  1.0007939E-01; -6.0181012E+02;3; -3.3678236E+00;  0.0000000E+00;  4.8178470E-01;0;  4.0251009E-02;  3.9870516E+04;  0.0000000E+00; -1.5615867E-02;  4.0000000E+04;  0.0000000E+00;  4.0003973E+04;  5.4303829E-02;  0.0000000E+00; -1.4052820E-02;  6.0055438E+02;
  5.6157053E-01;  9.9999998E-03;  6.0009263E-02;5898;  2.8541522E-02;  0.0000000E+00; -1.2274209E-03;  9.9931445E+02;  1.0007951E-01; -5.6798389E+02;3; -3.3577814E+00;  0.0000000E+00;  5.7326865E-01;0;  4.0181763E-02;  3.9873980E+04;  0.0000000E+00; -1.6677897E-02;  4.0000000E+04;  0.0000000E+00;  4.0003656E+04;  5.3727321E-02;  0.0000000E+00; -1.3545556E-02;  5.8628491E+02;
  5.7164931E-01;  9.9999998E-03; -1.0000543E-01;5943;  2.7407635E-02;  0.0000000E+00;  1.7979937E-03;  9.9960785E+02;  1.0013086E-01; -3.2487967E+02;3; -3.5751832E+00;  0.0000000E+00; -1.1477246E+00;0;  2.7975243E-02;  3.9858539E+04;  0.0000000E+00;  9.3375489E-02;  4.0000000E+04;  0.0000000E+00;  4.0001793E+04;  3.8709555E-02;  0.0000000E+00; -1.0734312E-02;  3.8348514E+02;
  5.7165867E-01;  9.9999998E-03; -9.0005554E-02;5944;  2.7729869E-02;  0.0000000E+00;  1.6401992E-03;  9.9952832E+02;  1.0013097E-01; -3.9075436E+02;3; -3.6176479E+00;  0.0000000E+00; -1.0691496E+00;0;  2.7585018E-02;  3.9851418E+04;  0.0000000E+00;  7.9290360E-02;  4.0000000E+04;  0.0000000E+00;  4.0002117E+04;  3.9037839E-02;  0.0000000E+00; -1.1452819E-02;  4.4318796E+02;
  5.7166272E-01;  9.9999998E-03; -8.0005459E-02;5945;  2.8023452E-02;  0.0000000E+00;  1.4778515E-03;  9.9944812E+02;  1.0013099E-01; -4.5722159E+02;3; -3.6211486E+00;  0.0000000E+00; -9.4221622E-01;0;  2.7249966E-02;  3.9844559E+04;  0.0000000E+00;  6.3099787E-02;  4.0000000E+04;  0.0000000E+00;  4.0002887E+04;  3.9388064E-02;  0.0000000E+00; -1.2138099E-02;  5.0332404E+02;
  5.7166159E-01;  9.9999998E-03; -7.0005156E-02;5946;  2.8284311E-02;  0.0000000E+00;  1.3075290E-03;  9.9936993E+02;  1.0013084E-01; -5.2200989E+02;3; -3.6374564E+00;  0.0000000E+00; -8.5400295E-01;0;  2.7004432E-02;  3.9838344E+04;  0.0000000E+00;  4.6892002E-02;  4.0000000E+04;  0.0000000E+00;  4.0002902E+04;  3.9776202E-02;  0.0000000E+00; -1.2771771E-02;  5.5410339E+02;
  5.7165557E-01;  9.9999998E-03; -6.0004767E-02;5947;  2.8510334E-02;  0.0000000E+00;  1.1307480E-03;  9.9930365E+02;  1.0013077E-01; -5.7692194E+02;3; -3.6579921E+00;  0.0000000E+00; -7.5266069E-01;0;  2.6862860E-02;  3.9832461E+04;  0.0000000E+00;  3.2375891E-02;  4.0000000E+04;  0.0000000E+00;  4.0003430E+04;  4.0201597E-02;  0.0000000E+00; -1.3338736E-02;  5.8859009E+02;
  5.7164603E-01;  9.9999998E-03; -5.0004363E-02;5948;  2.8703371E-02;  0.0000000E+00;  9.5121033E-04;  9.9924280E+02;  1.0013092E-01; -6.2734021E+02;3; -3.6314178E+00;  0.0000000E+00; -5.9906626E-01;0;  2.6819382E-02;  3.9827574E+04;  0.0000000E+00;  2.0591157E-02;  4.0000000E+04;  0.0000000E+00;  4.0003461E+04;  4.0647153E-02;  0.0000000E+00; -1.3827771E-02;  6.0399646E+02;
  5.7163435E-01;  9.9999998E-03; -4.0004127E-02;5949;  2.8861959E-02;  0.0000000E+00;  7.6770486E-04;  9.9919489E+02;  1.0013068E-01; -6.6704279E+02;3; -3.6221645E+00;  0.0000000E+00; -4.7930434E-01;0;  2.6852580E-02;  3.9824074E+04;  0.0000000E+00;  1.1871199E-02;  4.0000000E+04;  0.0000000E+00;  4.0003367E+04;  4.1084174E-02;  0.0000000E+00; -1.4231594E-02;  6.0214954E+02;
  5.7162249E-01;  9.9999998E-03; -3.0003978E-02;5950;  2.8984195E-02;  0.0000000E+00;  5.7879993E-04;  9.9915680E+02;  1.0013074E-01; -6.9859747E+02;3; -3.6275764E+00;  0.0000000E+00; -3.6657476E-01;0;  2.6931234E-02;  3.9820988E+04;  0.0000000E+00;  5.9909094E-03;  4.0000000E+04;  0.0000000E+00;  4.0003387E+04;  4.1477628E-02;  0.0000000E+00; -1.4546393E-02;  5.8855847E+02;
  5.7161218E-01;  9.9999998E-03; -2.0003697E-02;5951;  2.9071800E-02;  0.0000000E+00;  3.8687338E-04;  9.9913043E+02;  1.0013067E-01; -7.2042401E+02;3; -3.6189160E+00;  0.0000000E+00; -2.4569333E-01;0;  2.7020348E-02;  3.9819082E+04;  0.0000000E+00;  2.4161809E-03;  4.0000000E+04;  0.0000000E+00;  4.0002977E+04;  4.1791260E-02;  0.0000000E+00; -1.4770912E-02;  5.7068060E+02;
  5.7160449E-01;  9.9999998E-03; -1.0002724E-02;5952;  2.9125180E-02;  0.0000000E+00;  1.9401233E-04;  9.9911914E+02;  1.0013087E-01; -7.2975708E+02;3; -3.5888546E+00;  0.0000000E+00; -1.1331914E-01;0;  2.7089465E-02;  3.9817789E+04;  0.0000000E+00;  5.6424574E-04;  4.0000000E+04;  0.0000000E+00;  4.0003000E+04;  4.1994706E-02;  0.0000000E+00; -1.4905241E-02;  5.5596881E+02;
  5.7160145E-01;  9.9999998E-03;  6.5787731E-09;5953;  2.9143207E-02;  0.0000000E+00;  6.1863453E-08;  9.9911151E+02;  1.0013071E-01; -7.3607788E+02;3; -3.5789649E+00;  0.0000000E+00;  1.2968612E-05;0;  2.7115401E-02;  3.9817500E+04;  0.0000000E+00;  1.3544785E-12;  4.0000000E+04;  0.0000000E+00;  4.0002867E+04;  4.2065382E-02;  0.0000000E+00; -1.4949980E-02;  5.5032794E+02;
  5.7160449E-01;  9.9999998E-03;  1.0002738E-02;5954;  2.9125180E-02;  0.0000000E+00; -1.9388863E-04;  9.9911902E+02;  1.0013088E-01; -7.2985583E+02;3; -3.5888848E+00;  0.0000000E+00;  1.1334310E-01;0;  2.7089458E-02;  3.9817789E+04;  0.0000000E+00;  5.6380383E-04;  4.0000000E+04;  0.0000000E+00;  4.0003000E+04;  4.1994710E-02;  0.0000000E+00; -1.4905251E-02;  5.5596967E+02;
  5.7161218E-01;  9.9999998E-03;  2.0003710E-02;5955;  2.9071799E-02;  0.0000000E+00; -3.8675001E-04;  9.9913043E+02;  1.0013067E-01; -7.2042401E+02;3; -3.6188791E+00;  0.0000000E+00;  2.4571398E-01;0;  2.7020359E-02;  3.9819082E+04;  0.0000000E+00;  2.4154943E-03;  4.0000000E+04;  0.0000000E+00;  4.0002977E+04;  4.1791257E-02;  0.0000000E+00; -1.4770897E-02;  5.7068774E+02;
  5.7162249E-01;  9.9999998E-03;  3.0003991E-02;5956;  2.8984189E-02;  0.0000000E+00; -5.7867548E-04;  9.9915680E+02;  1.0013074E-01; -6.9859747E+02;3; -3.6275802E+00;  0.0000000E+00;  3.6660591E-01;0;  2.6931193E-02;  3.9820977E+04;  0.0000000E+00;  5.9896559E-03;  4.0000000E+04;  0.0000000E+00;  4.0003387E+04;  4.1477602E-02;  0.0000000E+00; -1.4546409E-02;  5.8856787E+02;
  5.7163435E-01;  9.9999998E-03;  4.0004142E-02;5957;  2.8861951E-02;  0.0000000E+00; -7.6758082E-04;  9.9919482E+02;  1.0013068E-01; -6.6709222E+02;3; -3.6221611E+00;  0.0000000E+00;  4.7932851E-01;0;  2.6852615E-02;  3.9824094E+04;  0.0000000E+00;  1.1869521E-02;  4.0000000E+04;  0.0000000E+00;  4.0003367E+04;  4.1084226E-02;  0.0000000E+00; -1.4231611E-02;  6.0214667E+02;
  5.7164603E-01;  9.9999998E-03;  5.0004374E-02;5958;  2.8703365E-02;  0.0000000E+00; -9.5108687E-04;  9.9924261E+02;  1.0013079E-01; -6.2748840E+02;3; -3.6314330E+00;  0.0000000E+00;  5.9907341E-01;0;  2.6819393E-02;  3.9827578E+04;  0.0000000E+00;  2.0588245E-02;  4.0000000E+04;  0.0000000E+00;  4.0003461E+04;  4.0647171E-02;  0.0000000E+00; -1.3827779E-02;  6.0399762E+02;
  5.7165557E-01;  9.9999998E-03;  6.0004782E-02;5959;  2.8510321E-02;  0.0000000E+00; -1.1306243E-03;  9.9930359E+02;  1.0013077E-01; -5.7697131E+02;3; -3.6579978E+00;  0.0000000E+00;  7.5267071E-01;0;  2.6862770E-02;  3.9832461E+04;  0.0000000E+00;  3.2371257E-02;  4.0000000E+04;  0.0000000E+00;  4.0003426E+04;  4.0201526E-02;  0.0000000E+00; -1.3338756E-02;  5.8858661E+02;
  5.8173263E-01;  9.9999998E-03; -9.9999890E-02;6004;  2.7348883E-02;  0.0000000E+00;  1.6357998E-03;  9.9965588E+02;  1.0021400E-01; -2.8507834E+02;3; -3.8215983E+00;  0.0000000E+00; -1.3494403E+00;0;  1.6093928E-02;  3.9797160E+04;  0.0000000E+00;  1.6995905E-01;  4.0000000E+04;  0.0000000E+00;  4.0001469E+04;  2.6502050E-02;  0.0000000E+00; -1.0408123E-02;  4.6610687E+02;
  5.8175749E-01;  9.9999998E-03; -8.9998439E-02;6005;  2.7672162E-02;  0.0000000E+00;  1.4922442E-03;  9.9957147E+02;  1.0021414E-01; -3.5505167E+02;3; -3.8393059E+00;  0.0000000E+00; -1.2474035E+00;0;  1.5571641E-02;  3.9789941E+04;  0.0000000E+00;  1.5518971E-01;  4.0000000E+04;  0.0000000E+00;  4.0001910E+04;  2.6658034E-02;  0.0000000E+00; -1.1086393E-02;  5.0992426E+02;
  5.8177543E-01;  9.9999998E-03; -7.9996996E-02;6006;  2.7964560E-02;  0.0000000E+00;  1.3413504E-03;  9.9948364E+02;  1.0021397E-01; -4.2779034E+02;3; -3.8603175E+00;  0.0000000E+00; -1.1440912E+00;0;  1.5120026E-02;  3.9782660E+04;  0.0000000E+00;  1.3361380E-01;  4.0000000E+04;  0.0000000E+00;  4.0002473E+04;  2.6849439E-02;  0.0000000E+00; -1.1729414E-02;  5.5457751E+02;
  5.8178496E-01;  9.9999998E-03; -6.9995910E-02;6007;  2.8225180E-02;  0.0000000E+00;  1.1876579E-03;  9.9940363E+02;  1.0021388E-01; -4.9410944E+02;3; -3.8492899E+00;  0.0000000E+00; -9.7610670E-01;0;  1.4771075E-02;  3.9776152E+04;  0.0000000E+00;  1.0830339E-01;  4.0000000E+04;  0.0000000E+00;  4.0002598E+04;  2.7092788E-02;  0.0000000E+00; -1.2321713E-02;  5.9368195E+02;
  5.8178657E-01;  9.9999998E-03; -5.9995346E-02;6008;  2.8451771E-02;  0.0000000E+00;  1.0285270E-03;  9.9932581E+02;  1.0021403E-01; -5.5855206E+02;3; -3.8482187E+00;  0.0000000E+00; -8.5359150E-01;0;  1.4535910E-02;  3.9769645E+04;  0.0000000E+00;  8.2274489E-02;  4.0000000E+04;  0.0000000E+00;  4.0003066E+04;  2.7386533E-02;  0.0000000E+00; -1.2850624E-02;  6.2149255E+02;
  5.8178180E-01;  9.9999998E-03; -4.9995407E-02;6009;  2.8643595E-02;  0.0000000E+00;  8.6375215E-04;  9.9925922E+02;  1.0021371E-01; -6.1371100E+02;3; -3.8487349E+00;  0.0000000E+00; -7.2602338E-01;0;  1.4408596E-02;  3.9764199E+04;  0.0000000E+00;  5.8019679E-02;  4.0000000E+04;  0.0000000E+00;  4.0003102E+04;  2.7715238E-02;  0.0000000E+00; -1.3306642E-02;  6.3465204E+02;
  5.8177239E-01;  9.9999998E-03; -3.9996203E-02;6010;  2.8801741E-02;  0.0000000E+00;  6.9722702E-04;  9.9920013E+02;  1.0021380E-01; -6.6269727E+02;3; -3.8160014E+00;  0.0000000E+00; -5.5291837E-01;0;  1.4368813E-02;  3.9759652E+04;  0.0000000E+00;  3.7237711E-02;  4.0000000E+04;  0.0000000E+00;  4.0003105E+04;  2.8052242E-02;  0.0000000E+00; -1.3683430E-02;  6.3370789E+02;
  5.8176112E-01;  9.9999998E-03; -2.9997556E-02;6011;  2.8924722E-02;  0.0000000E+00;  5.2649947E-04;  9.9915265E+02;  1.0021389E-01; -7.0200476E+02;3; -3.8048525E+00;  0.0000000E+00; -4.1675624E-01;0;  1.4386402E-02;  3.9756195E+04;  0.0000000E+00;  2.0855252E-02;  4.0000000E+04;  0.0000000E+00;  4.0002988E+04;  2.8363977E-02;  0.0000000E+00; -1.3977574E-02;  6.2262750E+02;
  5.8175111E-01;  9.9999998E-03; -1.9999214E-02;6012;  2.9011713E-02;  0.0000000E+00;  3.5193356E-04;  9.9912445E+02;  1.0021383E-01; -7.2536212E+02;3; -3.8038898E+00;  0.0000000E+00; -2.9101592E-01;0;  1.4428726E-02;  3.9753781E+04;  0.0000000E+00;  9.2064906E-03;  4.0000000E+04;  0.0000000E+00;  4.0002906E+04;  2.8616341E-02;  0.0000000E+00; -1.4187614E-02;  6.0748175E+02;
  5.8174378E-01;  9.9999998E-03; -1.0000460E-02;6013;  2.9064110E-02;  0.0000000E+00;  1.7634501E-04;  9.9910071E+02;  1.0021370E-01; -7.4506531E+02;3; -3.7905393E+00;  0.0000000E+00; -1.4624894E-01;0;  1.4467911E-02;  3.9752125E+04;  0.0000000E+00;  2.2891278E-03;  4.0000000E+04;  0.0000000E+00;  4.0002680E+04;  2.8781362E-02;  0.0000000E+00; -1.4313451E-02;  5.9489014E+02;
  5.8174092E-01;  9.9999998E-03;  6.6347123E-09;6014;  2.9081464E-02;  0.0000000E+00;  6.3652536E-08;  9.9909430E+02;  1.0021380E-01; -7.5034912E+02;3; -3.7809741E+00;  0.0000000E+00;  1.4081743E-05;0;  1.4483625E-02;  3.9751707E+04;  0.0000000E+00;  9.0726813E-13;  4.0000000E+04;  0.0000000E+00;  4.0002785E+04;  2.8839011E-02;  0.0000000E+00; -1.4355386E-02;  5.9000598E+02;
  5.8174378E-01;  9.9999998E-03;  1.0000473E-02;6015;  2.9064108E-02;  0.0000000E+00; -1.7621760E-04;  9.9910071E+02;  1.0021370E-01; -7.4506531E+02;3; -3.7905750E+00;  0.0000000E+00;  1.4627044E-01;0;  1.4467864E-02;  3.9752121E+04;  0.0000000E+00;  2.2886104E-03;  4.0000000E+04;  0.0000000E+00;  4.0002684E+04;  2.8781332E-02;  0.0000000E+00; -1.4313468E-02;  5.9489471E+02;
  5.8175111E-01;  9.9999998E-03;  1.9999227E-02;6016;  2.9011710E-02;  0.0000000E+00; -3.5180556E-04;  9.9912445E+02;  1.0021383E-01; -7.2536212E+02;3; -3.8038948E+00;  0.0000000E+00;  2.9103154E-01;0;  1.4428735E-02;  3.9753781E+04;  0.0000000E+00;  9.2059169E-03;  4.0000000E+04;  0.0000000E+00;  4.0002906E+04;  2.8616352E-02;  0.0000000E+00; -1.4187617E-02;  6.0749237E+02;
  5.8176112E-01;  9.9999998E-03;  2.9997569E-02;6017;  2.8924715E-02;  0.0000000E+00; -5.2637130E-04;  9.9915265E+02;  1.0021389E-01; -7.0200476E+02;3; -3.8048594E+00;  0.0000000E+00;  4.1677672E-01;0;  1.4386402E-02;  3.9756195E+04;  0.0000000E+00;  2.0853763E-02;  4.0000000E+04;  0.0000000E+00;  4.0002988E+04;  2.8363982E-02;  0.0000000E+00; -1.3977581E-02;  6.2262585E+02;
  5.8177239E-01;  9.9999998E-03;  3.9996218E-02;6018;  2.8801734E-02;  0.0000000E+00; -6.9709925E-04;  9.9920013E+02;  1.0021380E-01; -6.6269727E+02;3; -3.8159947E+00;  0.0000000E+00;  5.5294055E-01;0;  1.4368756E-02;  3.9759652E+04;  0.0000000E+00;  3.7235271E-02;  4.0000000E+04;  0.0000000E+00;  4.0003109E+04;  2.8052211E-02;  0.0000000E+00; -1.3683455E-02;  6.3370276E+02;
  5.8178180E-01;  9.9999998E-03;  4.9995422E-02;6019;  2.8643586E-02;  0.0000000E+00; -8.6362503E-04;  9.9925922E+02;  1.0021371E-01; -6.1371100E+02;3; -3.8487411E+00;  0.0000000E+00;  7.2602850E-01;0;  1.4408557E-02;  3.9764199E+04;  0.0000000E+00;  5.8016069E-02;  4.0000000E+04;  0.0000000E+00;  4.0003102E+04;  2.7715184E-02;  0.0000000E+00; -1.3306627E-02;  6.3465656E+02;
  5.8178657E-01;  9.9999998E-03;  5.9995357E-02;6020;  2.8451759E-02;  0.0000000E+00; -1.0283998E-03;  9.9932581E+02;  1.0021403E-01; -5.5855206E+02;3; -3.8482208E+00;  0.0000000E+00;  8.5360247E-01;0;  1.4535918E-02;  3.9769648E+04;  0.0000000E+00;  8.2272016E-02;  4.0000000E+04;  0.0000000E+00;  4.0003066E+04;  2.7386539E-02;  0.0000000E+00; -1.2850621E-02;  6.2147992E+02;
  5.9180260E-01;  9.9999998E-03; -9.9994466E-02;6065;  2.7264170E-02;  0.0000000E+00;  1.4624692E-03;  9.9963068E+02;  1.0034835E-01; -3.0596664E+02;3; -4.0195475E+00;  0.0000000E+00; -1.5277518E+00;0;  5.5587236E-03;  3.9690957E+04;  0.0000000E+00;  2.2068392E-01;  4.0000000E+04;  0.0000000E+00;  4.0001023E+04;  1.5445976E-02;  0.0000000E+00; -9.8872520E-03;  5.5673322E+02;
  5.9183919E-01;  9.9999998E-03; -8.9992739E-02;6066;  2.7588448E-02;  0.0000000E+00;  1.3338841E-03;  9.9955829E+02;  1.0034798E-01; -3.6596494E+02;3; -4.0258460E+00;  0.0000000E+00; -1.3782692E+00;0;  4.9696667E-03;  3.9684582E+04;  0.0000000E+00;  2.0848837E-01;  4.0000000E+04;  0.0000000E+00;  4.0001312E+04;  1.5476210E-02;  0.0000000E+00; -1.0506543E-02;  5.9754156E+02;
  5.9186929E-01;  9.9999998E-03; -7.9991482E-02;6067;  2.7882393E-02;  0.0000000E+00;  1.2000423E-03;  9.9947803E+02;  1.0034810E-01; -4.3243219E+02;3; -4.0394387E+00;  0.0000000E+00; -1.2457496E+00;0;  4.4594882E-03;  3.9678109E+04;  0.0000000E+00;  1.8551520E-01;  4.0000000E+04;  0.0000000E+00;  4.0001996E+04;  1.5549499E-02;  0.0000000E+00; -1.1090010E-02;  6.3506555E+02;
  5.9189117E-01;  9.9999998E-03; -6.9990486E-02;6068;  2.8142381E-02;  0.0000000E+00;  1.0613253E-03;  9.9940051E+02;  1.0034806E-01; -4.9667728E+02;3; -4.0524335E+00;  0.0000000E+00; -1.1139138E+00;0;  4.0552355E-03;  3.9671809E+04;  0.0000000E+00;  1.5527959E-01;  4.0000000E+04;  0.0000000E+00;  4.0002266E+04;  1.5680423E-02;  0.0000000E+00; -1.1625187E-02;  6.6586450E+02;
  5.9190208E-01;  9.9999998E-03; -5.9990015E-02;6069;  2.8370526E-02;  0.0000000E+00;  9.2009711E-04;  9.9932935E+02;  1.0034783E-01; -5.5563855E+02;3; -4.0289173E+00;  0.0000000E+00; -9.3489158E-01;0;  3.7683137E-03;  3.9665930E+04;  0.0000000E+00;  1.2166427E-01;  4.0000000E+04;  0.0000000E+00;  4.0002539E+04;  1.5870329E-02;  0.0000000E+00; -1.2102015E-02;  6.8696851E+02;
  5.9190315E-01;  9.9999998E-03; -4.9990367E-02;6070;  2.8562432E-02;  0.0000000E+00;  7.7411148E-04;  9.9925916E+02;  1.0034808E-01; -6.1376038E+02;3; -4.0240264E+00;  0.0000000E+00; -7.9044437E-01;0;  3.5919435E-03;  3.9660434E+04;  0.0000000E+00;  8.8316545E-02;  4.0000000E+04;  0.0000000E+00;  4.0002719E+04;  1.6104840E-02;  0.0000000E+00; -1.2512896E-02;  6.9639734E+02;
  5.9189743E-01;  9.9999998E-03; -3.9991707E-02;6071;  2.8720064E-02;  0.0000000E+00;  6.2408374E-04;  9.9920453E+02;  1.0034766E-01; -6.5904303E+02;3; -4.0151277E+00;  0.0000000E+00; -6.3323116E-01;0;  3.5060393E-03;  3.9656039E+04;  0.0000000E+00;  5.8175687E-02;  4.0000000E+04;  0.0000000E+00;  4.0002516E+04;  1.6358618E-02;  0.0000000E+00; -1.2852578E-02;  6.9450763E+02;
  5.9188825E-01;  9.9999998E-03; -2.9993726E-02;6072;  2.8843012E-02;  0.0000000E+00;  4.7154209E-04;  9.9915515E+02;  1.0034752E-01; -6.9993079E+02;3; -3.9954226E+00;  0.0000000E+00; -4.6673697E-01;0;  3.4832126E-03;  3.9652422E+04;  0.0000000E+00;  3.3304483E-02;  4.0000000E+04;  0.0000000E+00;  4.0002648E+04;  1.6601177E-02;  0.0000000E+00; -1.3117964E-02;  6.8459583E+02;
  5.9187877E-01;  9.9999998E-03; -1.9996196E-02;6073;  2.8930150E-02;  0.0000000E+00;  3.1609711E-04;  9.9911804E+02;  1.0034764E-01; -7.3069531E+02;3; -3.9825826E+00;  0.0000000E+00; -3.1640404E-01;0;  3.4939898E-03;  3.9649980E+04;  0.0000000E+00;  1.4949800E-02;  4.0000000E+04;  0.0000000E+00;  4.0002453E+04;  1.6801717E-02;  0.0000000E+00; -1.3307727E-02;  6.7153839E+02;
  5.9187174E-01;  9.9999998E-03; -9.9985832E-03;6074;  2.8981805E-02;  0.0000000E+00;  1.5820352E-04;  9.9909937E+02;  1.0034753E-01; -7.4615167E+02;3; -3.9814382E+00;  0.0000000E+00; -1.6910417E-01;0;  3.5125883E-03;  3.9648289E+04;  0.0000000E+00;  3.7562491E-03;  4.0000000E+04;  0.0000000E+00;  4.0002293E+04;  1.6934156E-02;  0.0000000E+00; -1.3421568E-02;  6.6082892E+02;
  5.9186894E-01;  9.9999998E-03;  6.8136488E-09;6075;  2.8999126E-02;  0.0000000E+00;  6.5368177E-08;  9.9909320E+02;  1.0034761E-01; -7.5128735E+02;3; -3.9710383E+00;  0.0000000E+00;  8.5673237E-06;0;  3.5212226E-03;  3.9647719E+04;  0.0000000E+00;  3.4784466E-13;  4.0000000E+04;  0.0000000E+00;  4.0002203E+04;  1.6980756E-02;  0.0000000E+00; -1.3459533E-02;  6.5670618E+02;
  5.9187174E-01;  9.9999998E-03;  9.9985963E-03;6076;  2.8981801E-02;  0.0000000E+00; -1.5807245E-04;  9.9909949E+02;  1.0034746E-01; -7.4605292E+02;3; -3.9814377E+00;  0.0000000E+00;  1.6912675E-01;0;  3.5126153E-03;  3.9648289E+04;  0.0000000E+00;  3.7559448E-03;  4.0000000E+04;  0.0000000E+00;  4.0002297E+04;  1.6934194E-02;  0.0000000E+00; -1.3421578E-02;  6.6081854E+02;
  5.9187877E-01;  9.9999998E-03;  1.9996211E-02;6077;  2.8930144E-02;  0.0000000E+00; -3.1596591E-04;  9.9911816E+02;  1.0034756E-01; -7.3059656E+02;3; -3.9825401E+00;  0.0000000E+00;  3.1641957E-01;0;  3.4939703E-03;  3.9649980E+04;  0.0000000E+00;  1.4949130E-02;  4.0000000E+04;  0.0000000E+00;  4.0002453E+04;  1.6801702E-02;  0.0000000E+00; -1.3307732E-02;  6.7153876E+02;
  5.9188819E-01;  9.9999998E-03;  2.9993741E-02;6078;  2.8843002E-02;  0.0000000E+00; -4.7141055E-04;  9.9915521E+02;  1.0034752E-01; -6.9988141E+02;3; -3.9954119E+00;  0.0000000E+00;  4.6676052E-01;0;  3.4831800E-03;  3.9652426E+04;  0.0000000E+00;  3.3302974E-02;  4.0000000E+04;  0.0000000E+00;  4.0002648E+04;  1.6601134E-02;  0.0000000E+00; -1.3117954E-02;  6.8458008E+02;
  5.9189743E-01;  9.9999998E-03;  3.9991718E-02;6079;  2.8720057E-02;  0.0000000E+00; -6.2395266E-04;  9.9920453E+02;  1.0034766E-01; -6.5904303E+02;3; -4.0151062E+00;  0.0000000E+00;  6.3324076E-01;0;  3.5060141E-03;  3.9656039E+04;  0.0000000E+00;  5.8173589E-02;  4.0000000E+04;  0.0000000E+00;  4.0002516E+04;  1.6358595E-02;  0.0000000E+00; -1.2852581E-02;  6.9450305E+02;
  5.9190315E-01;  9.9999998E-03;  4.9990382E-02;6080;  2.8562425E-02;  0.0000000E+00; -7.7397987E-04;  9.9925916E+02;  1.0034808E-01; -6.1376038E+02;3; -4.0240493E+00;  0.0000000E+00;  7.9046178E-01;0;  3.5918653E-03;  3.9660430E+04;  0.0000000E+00;  8.8313371E-02;  4.0000000E+04;  0.0000000E+00;  4.0002715E+04;  1.6104784E-02;  0.0000000E+00; -1.2512919E-02;  6.9638287E+02;
  5.9190208E-01;  9.9999998E-03;  5.9990026E-02;6081;  2.8370516E-02;  0.0000000E+00; -9.1996643E-04;  9.9932928E+02;  1.0034789E-01; -5.5568793E+02;3; -4.0289245E+00;  0.0000000E+00;  9.3489772E-01;0;  3.7683044E-03;  3.9665922E+04;  0.0000000E+00;  1.2166251E-01;  4.0000000E+04;  0.0000000E+00;  4.0002535E+04;  1.5870314E-02;  0.0000000E+00; -1.2102010E-02;  6.8695874E+02;
  6.0183108E-01;  9.9999998E-03; -9.9993244E-02;6126;  2.7158283E-02;  0.0000000E+00;  1.2845321E-03;  9.9949402E+02;  1.0056186E-01; -4.1919800E+02;3; -4.1796551E+00;  0.0000000E+00; -1.6265485E+00;0; -3.3644950E-03;  3.9514289E+04;  0.0000000E+00;  2.2824010E-01;  4.0000000E+04;  0.0000000E+00;  4.0000242E+04;  5.8262413E-03;  0.0000000E+00; -9.1907363E-03;  6.3082764E+02;
  6.0186821E-01;  9.9999998E-03; -8.9993797E-02;6127;  2.7484320E-02;  0.0000000E+00;  1.1707924E-03;  9.9943188E+02;  1.0056183E-01; -4.7065332E+02;3; -4.2012329E+00;  0.0000000E+00; -1.5000143E+00;0; -3.9568301E-03;  3.9509125E+04;  0.0000000E+00;  2.2245857E-01;  4.0000000E+04;  0.0000000E+00;  4.0000613E+04;  5.7804389E-03;  0.0000000E+00; -9.7372690E-03;  6.8263007E+02;
  6.0189879E-01;  9.9999998E-03; -7.9994775E-02;6128;  2.7780417E-02;  0.0000000E+00;  1.0541165E-03;  9.9936755E+02;  1.0056185E-01; -5.2398517E+02;3; -4.1957302E+00;  0.0000000E+00; -1.3317428E+00;0; -4.4653970E-03;  3.9504090E+04;  0.0000000E+00;  2.0353362E-01;  4.0000000E+04;  0.0000000E+00;  4.0001141E+04;  5.7836021E-03;  0.0000000E+00; -1.0248999E-02;  7.2655237E+02;
  6.0192198E-01;  9.9999998E-03; -6.9995455E-02;6129;  2.8042296E-02;  0.0000000E+00;  9.3304837E-04;  9.9930396E+02;  1.0056146E-01; -5.7667499E+02;3; -4.2120318E+00;  0.0000000E+00; -1.1891812E+00;0; -4.8703481E-03;  3.9498941E+04;  0.0000000E+00;  1.7469503E-01;  4.0000000E+04;  0.0000000E+00;  4.0001559E+04;  5.8458694E-03;  0.0000000E+00; -1.0716218E-02;  7.5960126E+02;
  6.0193747E-01;  9.9999998E-03; -5.9995554E-02;6130;  2.8270626E-02;  0.0000000E+00;  8.0906937E-04;  9.9924274E+02;  1.0056137E-01; -6.2738959E+02;3; -4.2035332E+00;  0.0000000E+00; -1.0176269E+00;0; -5.1655588E-03;  3.9494289E+04;  0.0000000E+00;  1.4001253E-01;  4.0000000E+04;  0.0000000E+00;  4.0001801E+04;  5.9655528E-03;  0.0000000E+00; -1.1131112E-02;  7.8020172E+02;
  6.0194570E-01;  9.9999998E-03; -4.9995076E-02;6131;  2.8463554E-02;  0.0000000E+00;  6.8130274E-04;  9.9919177E+02;  1.0056134E-01; -6.6961066E+02;3; -4.2087011E+00;  0.0000000E+00; -8.5266590E-01;0; -5.3587607E-03;  3.9490227E+04;  0.0000000E+00;  1.0368619E-01;  4.0000000E+04;  0.0000000E+00;  4.0001820E+04;  6.1290576E-03;  0.0000000E+00; -1.1487818E-02;  7.8812543E+02;
  6.0194677E-01;  9.9999998E-03; -3.9994601E-02;6132;  2.8621104E-02;  0.0000000E+00;  5.4960907E-04;  9.9914136E+02;  1.0056116E-01; -7.1138721E+02;3; -4.2045217E+00;  0.0000000E+00; -6.9357574E-01;0; -5.4657571E-03;  3.9486449E+04;  0.0000000E+00;  6.9468200E-02;  4.0000000E+04;  0.0000000E+00;  4.0001824E+04;  6.3167727E-03;  0.0000000E+00; -1.1782530E-02;  7.8524353E+02;
  6.0194206E-01;  9.9999998E-03; -2.9994858E-02;6133;  2.8744308E-02;  0.0000000E+00;  4.1578265E-04;  9.9909900E+02;  1.0056099E-01; -7.4644800E+02;3; -4.1648130E+00;  0.0000000E+00; -5.0438595E-01;0; -5.5096783E-03;  3.9483379E+04;  0.0000000E+00;  4.0311702E-02;  4.0000000E+04;  0.0000000E+00;  4.0001719E+04;  6.5032849E-03;  0.0000000E+00; -1.2012963E-02;  7.7528888E+02;
  6.0193563E-01;  9.9999998E-03; -1.9996040E-02;6134;  2.8831584E-02;  0.0000000E+00;  2.7897648E-04;  9.9906738E+02;  1.0056104E-01; -7.7266943E+02;3; -4.1595321E+00;  0.0000000E+00; -3.3860591E-01;0; -5.5176513E-03;  3.9481031E+04;  0.0000000E+00;  1.8274186E-02;  4.0000000E+04;  0.0000000E+00;  4.0001789E+04;  6.6602584E-03;  0.0000000E+00; -1.2177910E-02;  7.6294128E+02;
  6.0193068E-01;  9.9999998E-03; -9.9978745E-03;6135;  2.8883487E-02;  0.0000000E+00;  1.3993515E-04;  9.9904523E+02;  1.0056102E-01; -7.9098993E+02;3; -4.1615324E+00;  0.0000000E+00; -1.7705731E-01;0; -5.5121966E-03;  3.9479941E+04;  0.0000000E+00;  4.6184608E-03;  4.0000000E+04;  0.0000000E+00;  4.0001691E+04;  6.7646876E-03;  0.0000000E+00; -1.2276884E-02;  7.5301007E+02;
  6.0192889E-01;  9.9999998E-03;  7.0908763E-09;6136;  2.8900504E-02;  0.0000000E+00;  6.7209221E-08;  9.9904187E+02;  1.0056108E-01; -7.9380463E+02;3; -4.1664100E+00;  0.0000000E+00;  4.7973713E-06;0; -5.5085607E-03;  3.9479301E+04;  0.0000000E+00; -7.5175841E-13;  4.0000000E+04;  0.0000000E+00;  4.0001520E+04;  6.8013025E-03;  0.0000000E+00; -1.2309863E-02;  7.4925519E+02;
  6.0193068E-01;  9.9999998E-03;  9.9978885E-03;6137;  2.8883483E-02;  0.0000000E+00; -1.3980093E-04;  9.9904529E+02;  1.0056102E-01; -7.9094055E+02;3; -4.1615701E+00;  0.0000000E+00;  1.7707106E-01;0; -5.5121956E-03;  3.9479941E+04;  0.0000000E+00;  4.6184477E-03;  4.0000000E+04;  0.0000000E+00;  4.0001688E+04;  6.7646913E-03;  0.0000000E+00; -1.2276887E-02;  7.5301166E+02;
  6.0193563E-01;  9.9999998E-03;  1.9996053E-02;6138;  2.8831581E-02;  0.0000000E+00; -2.7884185E-04;  9.9906738E+02;  1.0056099E-01; -7.7266943E+02;3; -4.1594982E+00;  0.0000000E+00;  3.3862305E-01;0; -5.5176564E-03;  3.9481031E+04;  0.0000000E+00;  1.8273823E-02;  4.0000000E+04;  0.0000000E+00;  4.0001785E+04;  6.6602589E-03;  0.0000000E+00; -1.2177915E-02;  7.6294232E+02;
  6.0194206E-01;  9.9999998E-03;  2.9994873E-02;6139;  2.8744306E-02;  0.0000000E+00; -4.1564781E-04;  9.9909894E+02;  1.0056105E-01; -7.4649738E+02;3; -4.1648245E+00;  0.0000000E+00;  5.0439543E-01;0; -5.5097267E-03;  3.9483379E+04;  0.0000000E+00;  4.0310420E-02;  4.0000000E+04;  0.0000000E+00;  4.0001719E+04;  6.5032514E-03;  0.0000000E+00; -1.2012978E-02;  7.7527869E+02;
  6.0194677E-01;  9.9999998E-03;  3.9994616E-02;6140;  2.8621096E-02;  0.0000000E+00; -5.4947496E-04;  9.9914142E+02;  1.0056146E-01; -7.1133783E+02;3; -4.2045226E+00;  0.0000000E+00;  6.9358569E-01;0; -5.4657771E-03;  3.9486457E+04;  0.0000000E+00;  6.9465891E-02;  4.0000000E+04;  0.0000000E+00;  4.0001824E+04;  6.3167573E-03;  0.0000000E+00; -1.1782534E-02;  7.8522778E+02;
  6.0194570E-01;  9.9999998E-03;  4.9995091E-02;6141;  2.8463544E-02;  0.0000000E+00; -6.8116811E-04;  9.9919171E+02;  1.0056129E-01; -6.6966003E+02;3; -4.2087622E+00;  0.0000000E+00;  8.5267937E-01;0; -5.3588087E-03;  3.9490238E+04;  0.0000000E+00;  1.0368347E-01;  4.0000000E+04;  0.0000000E+00;  4.0001824E+04;  6.1290218E-03;  0.0000000E+00; -1.1487830E-02;  7.8812811E+02;
  6.0193747E-01;  9.9999998E-03;  5.9995569E-02;6142;  2.8270613E-02;  0.0000000E+00; -8.0893486E-04;  9.9924286E+02;  1.0056137E-01; -6.2729083E+02;3; -4.2035270E+00;  0.0000000E+00;  1.0176364E+00;0; -5.1656086E-03;  3.9494285E+04;  0.0000000E+00;  1.4000693E-01;  4.0000000E+04;  0.0000000E+00;  4.0001801E+04;  5.9654946E-03;  0.0000000E+00; -1.1131103E-02;  7.8019702E+02;
  6.1179775E-01;  9.9999998E-03; -1.0000240E-01;6187;  2.7031979E-02;  0.0000000E+00;  1.1044124E-03;  9.9923767E+02;  1.0089583E-01; -6.3158704E+02;3; -4.3152008E+00;  0.0000000E+00; -1.7061335E+00;0; -1.0631284E-02;  3.9237668E+04;  0.0000000E+00;  1.8210298E-01;  4.0000000E+04;  0.0000000E+00;  3.9998504E+04; -2.2874139E-03;  0.0000000E+00; -8.3438698E-03;  6.8462665E+02;
  6.1183131E-01;  9.9999998E-03; -9.0004615E-02;6188;  2.7360428E-02;  0.0000000E+00;  1.0069627E-03;  9.9919897E+02;  1.0089567E-01; -6.6363550E+02;3; -4.3445239E+00;  0.0000000E+00; -1.5673310E+00;0; -1.1182347E-02;  3.9234402E+04;  0.0000000E+00;  1.8667944E-01;  4.0000000E+04;  0.0000000E+00;  3.9999070E+04; -2.3742411E-03;  0.0000000E+00; -8.8081062E-03;  7.5793683E+02;
  6.1185771E-01;  9.9999998E-03; -8.0006391E-02;6189;  2.7658321E-02;  0.0000000E+00;  9.0639200E-04;  9.9915710E+02;  1.0089529E-01; -6.9830121E+02;3; -4.3688250E+00;  0.0000000E+00; -1.4164132E+00;0; -1.1648892E-02;  3.9231176E+04;  0.0000000E+00;  1.7797317E-01;  4.0000000E+04;  0.0000000E+00;  3.9999875E+04; -2.4091341E-03;  0.0000000E+00; -9.2397584E-03;  8.1984967E+02;
  6.1187655E-01;  9.9999998E-03; -7.0007257E-02;6190;  2.7923215E-02;  0.0000000E+00;  8.0318935E-04;  9.9911505E+02;  1.0089497E-01; -7.3316437E+02;3; -4.3826437E+00;  0.0000000E+00; -1.2506548E+00;0; -1.2016799E-02;  3.9228105E+04;  0.0000000E+00;  1.5811026E-01;  4.0000000E+04;  0.0000000E+00;  4.0000027E+04; -2.3850272E-03;  0.0000000E+00; -9.6317725E-03;  8.6560596E+02;
  6.1188847E-01;  9.9999998E-03; -6.0007002E-02;6191;  2.8152935E-02;  0.0000000E+00;  6.9677486E-04;  9.9907690E+02;  1.0089485E-01; -7.6476843E+02;3; -4.3926420E+00;  0.0000000E+00; -1.0825279E+00;0; -1.2284270E-02;  3.9224934E+04;  0.0000000E+00;  1.3044704E-01;  4.0000000E+04;  0.0000000E+00;  4.0000207E+04; -2.3057451E-03;  0.0000000E+00; -9.9785253E-03;  8.9380365E+02;
  6.1189491E-01;  9.9999998E-03; -5.0005931E-02;6192;  2.8347511E-02;  0.0000000E+00;  5.8748131E-04;  9.9903937E+02;  1.0089473E-01; -7.9587866E+02;3; -4.3983083E+00;  0.0000000E+00; -9.0665340E-01;0; -1.2460412E-02;  3.9222199E+04;  0.0000000E+00;  9.8962717E-02;  4.0000000E+04;  0.0000000E+00;  4.0000469E+04; -2.1845838E-03;  0.0000000E+00; -1.0275828E-02;  9.0538013E+02;
  6.1189735E-01;  9.9999998E-03; -4.0004317E-02;6193;  2.8506232E-02;  0.0000000E+00;  4.7476531E-04;  9.9900433E+02;  1.0089454E-01; -8.2491486E+02;3; -4.3906178E+00;  0.0000000E+00; -7.2920620E-01;0; -1.2561549E-02;  3.9219730E+04;  0.0000000E+00;  6.7616835E-02;  4.0000000E+04;  0.0000000E+00;  4.0000434E+04; -2.0406803E-03;  0.0000000E+00; -1.0520868E-02;  9.0346063E+02;
  6.1189747E-01;  9.9999998E-03; -3.0002551E-02;6194;  2.8629411E-02;  0.0000000E+00;  3.5934435E-04;  9.9897601E+02;  1.0089444E-01; -8.4837103E+02;3; -4.3781519E+00;  0.0000000E+00; -5.4321682E-01;0; -1.2608788E-02;  3.9217805E+04;  0.0000000E+00;  3.9837524E-02;  4.0000000E+04;  0.0000000E+00;  4.0000246E+04; -1.8967889E-03;  0.0000000E+00; -1.0711999E-02;  8.9292535E+02;
  6.1189640E-01;  9.9999998E-03; -2.0001097E-02;6195;  2.8716810E-02;  0.0000000E+00;  2.4132147E-04;  9.9895209E+02;  1.0089423E-01; -8.6817291E+02;3; -4.3788853E+00;  0.0000000E+00; -3.6475635E-01;0; -1.2623507E-02;  3.9216445E+04;  0.0000000E+00;  1.8255008E-02;  4.0000000E+04;  0.0000000E+00;  4.0000559E+04; -1.7749219E-03;  0.0000000E+00; -1.0848585E-02;  8.7960785E+02;
  6.1189508E-01;  9.9999998E-03; -1.0000288E-02;6196;  2.8768752E-02;  0.0000000E+00;  1.2122637E-04;  9.9894128E+02;  1.0089421E-01; -8.7711090E+02;3; -4.3818731E+00;  0.0000000E+00; -1.8681611E-01;0; -1.2623901E-02;  3.9215543E+04;  0.0000000E+00;  4.6433862E-03;  4.0000000E+04;  0.0000000E+00;  4.0000211E+04; -1.6933735E-03;  0.0000000E+00; -1.0930528E-02;  8.6901001E+02;
  6.1189485E-01;  9.9999998E-03;  7.3829978E-09;6197;  2.8785698E-02;  0.0000000E+00;  6.9158716E-08;  9.9893353E+02;  1.0089427E-01; -8.8353052E+02;3; -4.3905630E+00;  0.0000000E+00;  7.9755609E-06;0; -1.2622754E-02;  3.9215164E+04;  0.0000000E+00; -2.6656971E-12;  4.0000000E+04;  0.0000000E+00;  4.0000238E+04; -1.6649364E-03;  0.0000000E+00; -1.0957818E-02;  8.6502863E+02;
  6.1189508E-01;  9.9999998E-03;  1.0000303E-02;6198;  2.8768748E-02;  0.0000000E+00; -1.2108828E-04;  9.9894128E+02;  1.0089421E-01; -8.7711090E+02;3; -4.3819022E+00;  0.0000000E+00;  1.8682982E-01;0; -1.2623910E-02;  3.9215547E+04;  0.0000000E+00;  4.6433890E-03;  4.0000000E+04;  0.0000000E+00;  4.0000211E+04; -1.6933793E-03;  0.0000000E+00; -1.0930531E-02;  8.6901617E+02;
  6.1189640E-01;  9.9999998E-03;  2.0001112E-02;6199;  2.8716810E-02;  0.0000000E+00; -2.4118336E-04;  9.9895209E+02;  1.0089423E-01; -8.6817291E+02;3; -4.3788805E+00;  0.0000000E+00;  3.6476886E-01;0; -1.2623519E-02;  3.9216449E+04;  0.0000000E+00;  1.8254688E-02;  4.0000000E+04;  0.0000000E+00;  4.0000559E+04; -1.7749203E-03;  0.0000000E+00; -1.0848599E-02;  8.7959552E+02;
  6.1189747E-01;  9.9999998E-03;  3.0002564E-02;6200;  2.8629405E-02;  0.0000000E+00; -3.5920617E-04;  9.9897601E+02;  1.0089444E-01; -8.4837103E+02;3; -4.3781796E+00;  0.0000000E+00;  5.4322964E-01;0; -1.2608814E-02;  3.9217809E+04;  0.0000000E+00;  3.9837271E-02;  4.0000000E+04;  0.0000000E+00;  4.0000246E+04; -1.8968220E-03;  0.0000000E+00; -1.0711992E-02;  8.9291614E+02;
  6.1189735E-01;  9.9999998E-03;  4.0004332E-02;6201;  2.8506225E-02;  0.0000000E+00; -4.7462797E-04;  9.9900433E+02;  1.0089454E-01; -8.2491486E+02;3; -4.3906522E+00;  0.0000000E+00;  7.2921038E-01;0; -1.2561568E-02;  3.9219727E+04;  0.0000000E+00;  6.7615740E-02;  4.0000000E+04;  0.0000000E+00;  4.0000434E+04; -2.0407008E-03;  0.0000000E+00; -1.0520867E-02;  9.0344531E+02;
  6.1189491E-01;  9.9999998E-03;  5.0005946E-02;6202;  2.8347502E-02;  0.0000000E+00; -5.8734405E-04;  9.9903937E+02;  1.0089470E-01; -7.9587866E+02;3; -4.3983254E+00;  0.0000000E+00;  9.0666413E-01;0; -1.2460453E-02;  3.9222195E+04;  0.0000000E+00;  9.8959446E-02;  4.0000000E+04;  0.0000000E+00;  4.0000473E+04; -2.1846166E-03;  0.0000000E+00; -1.0275837E-02;  9.0535773E+02;
  6.1188847E-01;  9.9999998E-03;  6.0007013E-02;6203;  2.8152922E-02;  0.0000000E+00; -6.9663738E-04;  9.9907697E+02;  1.0089481E-01; -7.6471906E+02;3; -4.3926339E+00;  0.0000000E+00;  1.0825325E+00;0; -1.2284302E-02;  3.9224930E+04;  0.0000000E+00;  1.3044135E-01;  4.0000000E+04;  0.0000000E+00;  4.0000203E+04; -2.3057766E-03;  0.0000000E+00; -9.9785253E-03;  8.9378583E+02;
  6.2171394E-01;  9.9999998E-03; -1.0001249E-01;6248;  2.6884358E-02;  0.0000000E+00;  9.2506799E-04;  9.9899060E+02;  1.0140263E-01; -8.3627258E+02;3; -4.4682245E+00;  0.0000000E+00; -1.7718198E+00;0; -1.6379938E-02;  3.8831926E+04;  0.0000000E+00;  8.1213884E-02;  4.0000000E+04;  0.0000000E+00;  3.9995723E+04; -9.0080472E-03;  0.0000000E+00; -7.3718904E-03;  7.3956482E+02;
  6.2174338E-01;  9.9999998E-03; -9.0015255E-02;6249;  2.7215978E-02;  0.0000000E+00;  8.4340794E-04;  9.9897888E+02;  1.0140219E-01; -8.4600067E+02;3; -4.5052361E+00;  0.0000000E+00; -1.6236322E+00;0; -1.6859327E-02;  3.8831086E+04;  0.0000000E+00;  9.9174239E-02;  4.0000000E+04;  0.0000000E+00;  3.9996477E+04; -9.1118524E-03;  0.0000000E+00; -7.7474746E-03;  8.3659973E+02;
  6.2176681E-01;  9.9999998E-03; -8.0016948E-02;6250;  2.7516941E-02;  0.0000000E+00;  7.5941475E-04;  9.9896320E+02;  1.0140149E-01; -8.5898798E+02;3; -4.5375128E+00;  0.0000000E+00; -1.4722250E+00;0; -1.7257832E-02;  3.8829914E+04;  0.0000000E+00;  1.0619799E-01;  4.0000000E+04;  0.0000000E+00;  3.9997152E+04; -9.1648074E-03;  0.0000000E+00; -8.0930246E-03;  9.2036414E+02;
  6.2178326E-01;  9.9999998E-03; -7.0017360E-02;6251;  2.7784435E-02;  0.0000000E+00;  6.7327195E-04;  9.9894586E+02;  1.0140128E-01; -8.7335797E+02;3; -4.5655265E+00;  0.0000000E+00; -1.3074850E+00;0; -1.7566390E-02;  3.8828723E+04;  0.0000000E+00;  1.0264181E-01;  4.0000000E+04;  0.0000000E+00;  3.9997707E+04; -9.1621326E-03;  0.0000000E+00; -8.4042568E-03;  9.8330487E+02;
  6.2179297E-01;  9.9999998E-03; -6.0016401E-02;6252;  2.8016731E-02;  0.0000000E+00;  5.8474531E-04;  9.9893219E+02;  1.0140084E-01; -8.8466626E+02;3; -4.5854588E+00;  0.0000000E+00; -1.1329677E+00;0; -1.7786097E-02;  3.8827973E+04;  0.0000000E+00;  9.0291977E-02;  4.0000000E+04;  0.0000000E+00;  3.9998027E+04; -9.1082426E-03;  0.0000000E+00; -8.6778542E-03;  1.0229012E+03;
  6.2179703E-01;  9.9999998E-03; -5.0014194E-02;6253;  2.8213320E-02;  0.0000000E+00;  4.9361878E-04;  9.9891516E+02;  1.0140058E-01; -8.9878931E+02;3; -4.6029096E+00;  0.0000000E+00; -9.5316613E-01;0; -1.7926823E-02;  3.8826996E+04;  0.0000000E+00;  7.1974054E-02;  4.0000000E+04;  0.0000000E+00;  3.9998254E+04; -9.0153841E-03;  0.0000000E+00; -8.9114383E-03;  1.0405753E+03;
  6.2179685E-01;  9.9999998E-03; -4.0011480E-02;6254;  2.8373588E-02;  0.0000000E+00;  3.9954434E-04;  9.9890094E+02;  1.0140052E-01; -9.1054205E+02;3; -4.6070652E+00;  0.0000000E+00; -7.6667494E-01;0; -1.8004131E-02;  3.8826332E+04;  0.0000000E+00;  5.1071566E-02;  4.0000000E+04;  0.0000000E+00;  3.9998250E+04; -8.9006228E-03;  0.0000000E+00; -9.1035077E-03;  1.0406624E+03;
  6.2179404E-01;  9.9999998E-03; -3.0008720E-02;6255;  2.8497806E-02;  0.0000000E+00;  3.0272332E-04;  9.9888861E+02;  1.0140011E-01; -9.2076404E+02;3; -4.6086812E+00;  0.0000000E+00; -5.7677197E-01;0; -1.8036777E-02;  3.8825715E+04;  0.0000000E+00;  3.0943735E-02;  4.0000000E+04;  0.0000000E+00;  3.9998359E+04; -8.7835919E-03;  0.0000000E+00; -9.2531852E-03;  1.0295531E+03;
  6.2179047E-01;  9.9999998E-03; -2.0005902E-02;6256;  2.8586021E-02;  0.0000000E+00;  2.0350300E-04;  9.9887714E+02;  1.0139981E-01; -9.3029462E+02;3; -4.6137133E+00;  0.0000000E+00; -3.8792229E-01;0; -1.8043675E-02;  3.8825332E+04;  0.0000000E+00;  1.4455184E-02;  4.0000000E+04;  0.0000000E+00;  3.9997949E+04; -8.6835092E-03;  0.0000000E+00; -9.3601653E-03;  1.0143934E+03;
  6.2178737E-01;  9.9999998E-03; -1.0002912E-02;6257;  2.8638406E-02;  0.0000000E+00;  1.0226925E-04;  9.9887170E+02;  1.0140011E-01; -9.3478833E+02;3; -4.6179857E+00;  0.0000000E+00; -1.9597197E-01;0; -1.8040560E-02;  3.8824945E+04;  0.0000000E+00;  3.7183135E-03;  4.0000000E+04;  0.0000000E+00;  3.9997863E+04; -8.6161671E-03;  0.0000000E+00; -9.4243931E-03;  1.0020531E+03;
  6.2178618E-01;  9.9999998E-03;  7.6775004E-09;6258;  2.8655570E-02;  0.0000000E+00;  7.0941596E-08;  9.9886920E+02;  1.0139997E-01; -9.3686230E+02;3; -4.6260338E+00;  0.0000000E+00;  7.6392425E-06;0; -1.8038273E-02;  3.8824938E+04;  0.0000000E+00; -8.0393288E-12;  4.0000000E+04;  0.0000000E+00;  3.9997816E+04; -8.5924761E-03;  0.0000000E+00; -9.4457958E-03;  9.9729816E+02;
  6.2178737E-01;  9.9999998E-03;  1.0002927E-02;6259;  2.8638404E-02;  0.0000000E+00; -1.0212756E-04;  9.9887170E+02;  1.0140011E-01; -9.3478833E+02;3; -4.6179914E+00;  0.0000000E+00;  1.9598143E-01;0; -1.8040556E-02;  3.8824934E+04;  0.0000000E+00;  3.7188660E-03;  4.0000000E+04;  0.0000000E+00;  3.9997863E+04; -8.6161643E-03;  0.0000000E+00; -9.4243931E-03;  1.0020424E+03;
  6.2179047E-01;  9.9999998E-03;  2.0005917E-02;6260;  2.8586019E-02;  0.0000000E+00; -2.0336208E-04;  9.9887714E+02;  1.0139981E-01; -9.3029462E+02;3; -4.6136594E+00;  0.0000000E+00;  3.8792926E-01;0; -1.8043701E-02;  3.8825336E+04;  0.0000000E+00;  1.4455979E-02;  4.0000000E+04;  0.0000000E+00;  3.9997949E+04; -8.6835260E-03;  0.0000000E+00; -9.3601737E-03;  1.0143873E+03;
  6.2179404E-01;  9.9999998E-03;  3.0008735E-02;6261;  2.8497800E-02;  0.0000000E+00; -3.0258263E-04;  9.9888849E+02;  1.0140017E-01; -9.2086279E+02;3; -4.6086869E+00;  0.0000000E+00;  5.7678020E-01;0; -1.8036798E-02;  3.8825711E+04;  0.0000000E+00;  3.0943803E-02;  4.0000000E+04;  0.0000000E+00;  3.9998359E+04; -8.7835956E-03;  0.0000000E+00; -9.2532011E-03;  1.0295511E+03;
  6.2179685E-01;  9.9999998E-03;  4.0011495E-02;6262;  2.8373582E-02;  0.0000000E+00; -3.9940365E-04;  9.9890094E+02;  1.0140052E-01; -9.1054205E+02;3; -4.6070776E+00;  0.0000000E+00;  7.6668096E-01;0; -1.8004153E-02;  3.8826328E+04;  0.0000000E+00;  5.1070675E-02;  4.0000000E+04;  0.0000000E+00;  3.9998250E+04; -8.9006443E-03;  0.0000000E+00; -9.1035077E-03;  1.0406628E+03;
  6.2179703E-01;  9.9999998E-03;  5.0014209E-02;6263;  2.8213311E-02;  0.0000000E+00; -4.9347815E-04;  9.9891516E+02;  1.0140058E-01; -8.9878931E+02;3; -4.6028967E+00;  0.0000000E+00;  9.5317280E-01;0; -1.7926846E-02;  3.8826996E+04;  0.0000000E+00;  7.1972094E-02;  4.0000000E+04;  0.0000000E+00;  3.9998254E+04; -9.0154056E-03;  0.0000000E+00; -8.9114411E-03;  1.0405837E+03;
  6.2179297E-01;  9.9999998E-03;  6.0016420E-02;6264;  2.8016722E-02;  0.0000000E+00; -5.8460509E-04;  9.9893213E+02;  1.0140084E-01; -8.8471564E+02;3; -4.5854731E+00;  0.0000000E+00;  1.1329701E+00;0; -1.7786132E-02;  3.8827973E+04;  0.0000000E+00;  9.0289086E-02;  4.0000000E+04;  0.0000000E+00;  3.9998031E+04; -9.1082780E-03;  0.0000000E+00; -8.6778542E-03;  1.0229008E+03;
  6.3166052E-01;  9.9999998E-03; -1.0001577E-01;6309;  2.6713716E-02;  0.0000000E+00;  7.4723497E-04;  9.9892627E+02;  1.0214076E-01; -8.8955499E+02;3; -4.6259308E+00;  0.0000000E+00; -1.8191509E+00;0; -2.0875180E-02;  3.8272398E+04;  0.0000000E+00; -6.2544718E-02;  4.0000000E+04;  0.0000000E+00;  3.9991648E+04; -1.4585491E-02;  0.0000000E+00; -6.2896893E-03;  8.3096204E+02;
  6.3170773E-01;  9.9999998E-03; -9.0015769E-02;6310;  2.7048372E-02;  0.0000000E+00;  6.8041525E-04;  9.9894141E+02;  1.0213955E-01; -8.7701215E+02;3; -4.6810088E+00;  0.0000000E+00; -1.6752552E+00;0; -2.1271460E-02;  3.8273703E+04;  0.0000000E+00; -2.9906340E-02;  4.0000000E+04;  0.0000000E+00;  3.9992504E+04; -1.4702038E-02;  0.0000000E+00; -6.5694214E-03;  9.4153937E+02;
  6.3174850E-01;  9.9999998E-03; -8.0015130E-02;6311;  2.7352486E-02;  0.0000000E+00;  6.1233889E-04;  9.9895831E+02;  1.0213891E-01; -8.6303723E+02;3; -4.7229395E+00;  0.0000000E+00; -1.5172831E+00;0; -2.1591578E-02;  3.8275602E+04;  0.0000000E+00; -3.8113152E-03;  4.0000000E+04;  0.0000000E+00;  3.9993332E+04; -1.4769967E-02;  0.0000000E+00; -6.8216105E-03;  1.0397717E+03;
  6.3178033E-01;  9.9999998E-03; -7.0013843E-02;6312;  2.7623203E-02;  0.0000000E+00;  5.4293295E-04;  9.9897565E+02;  1.0213833E-01; -8.4866730E+02;3; -4.7611732E+00;  0.0000000E+00; -1.3528079E+00;0; -2.1831192E-02;  3.8276969E+04;  0.0000000E+00;  1.3961065E-02;  4.0000000E+04;  0.0000000E+00;  3.9993926E+04; -1.4786285E-02;  0.0000000E+00; -7.0449058E-03;  1.1149304E+03;
  6.3180256E-01;  9.9999998E-03; -6.0011942E-02;6313;  2.7858643E-02;  0.0000000E+00;  4.7180743E-04;  9.9898523E+02;  1.0213739E-01; -8.4071692E+02;3; -4.7904315E+00;  0.0000000E+00; -1.1756420E+00;0; -2.1994241E-02;  3.8278316E+04;  0.0000000E+00;  2.3128444E-02;  4.0000000E+04;  0.0000000E+00;  3.9994281E+04; -1.4755683E-02;  0.0000000E+00; -7.2385580E-03;  1.1624171E+03;
  6.3181615E-01;  9.9999998E-03; -5.0009601E-02;6314;  2.8057726E-02;  0.0000000E+00;  3.9870778E-04;  9.9899438E+02;  1.0213724E-01; -8.3311218E+02;3; -4.8184786E+00;  0.0000000E+00; -9.9143964E-01;0; -2.2091463E-02;  3.8279766E+04;  0.0000000E+00;  2.4727261E-02;  4.0000000E+04;  0.0000000E+00;  3.9994516E+04; -1.4689202E-02;  0.0000000E+00; -7.4022603E-03;  1.1833225E+03;
  6.3182259E-01;  9.9999998E-03; -4.0007222E-02;6315;  2.8220117E-02;  0.0000000E+00;  3.2320691E-04;  9.9900476E+02;  1.0213652E-01; -8.2451984E+02;3; -4.8374553E+00;  0.0000000E+00; -7.9972345E-01;0; -2.2137802E-02;  3.8281129E+04;  0.0000000E+00;  2.0830158E-02;  4.0000000E+04;  0.0000000E+00;  3.9994555E+04; -1.4601865E-02;  0.0000000E+00; -7.5359377E-03;  1.1827786E+03;
  6.3182425E-01;  9.9999998E-03; -3.0005161E-02;6316;  2.8345870E-02;  0.0000000E+00;  2.4519258E-04;  9.9901410E+02;  1.0213626E-01; -8.1681635E+02;3; -4.8488092E+00;  0.0000000E+00; -6.0397685E-01;0; -2.2150327E-02;  3.8282094E+04;  0.0000000E+00;  1.4057083E-02;  4.0000000E+04;  0.0000000E+00;  3.9994406E+04; -1.4510663E-02;  0.0000000E+00; -7.6396633E-03;  1.1685378E+03;
  6.3182342E-01;  9.9999998E-03; -2.0003589E-02;6317;  2.8435163E-02;  0.0000000E+00;  1.6497180E-04;  9.9901892E+02;  1.0213589E-01; -8.1281647E+02;3; -4.8564820E+00;  0.0000000E+00; -4.0613303E-01;0; -2.2145348E-02;  3.8282992E+04;  0.0000000E+00;  7.0227413E-03;  4.0000000E+04;  0.0000000E+00;  3.9994340E+04; -1.4431722E-02;  0.0000000E+00; -7.7136252E-03;  1.1493667E+03;
  6.3182169E-01;  9.9999998E-03; -1.0002145E-02;6318;  2.8488392E-02;  0.0000000E+00;  8.2949031E-05;  9.9902515E+02;  1.0213576E-01; -8.0763141E+02;3; -4.8626380E+00;  0.0000000E+00; -2.0497692E-01;0; -2.2136312E-02;  3.8283441E+04;  0.0000000E+00;  1.8750529E-03;  4.0000000E+04;  0.0000000E+00;  3.9994176E+04; -1.4378292E-02;  0.0000000E+00; -7.7580204E-03;  1.1336287E+03;
  6.3182068E-01;  9.9999998E-03;  7.9934708E-09;6319;  2.8505968E-02;  0.0000000E+00;  7.2446568E-08;  9.9902155E+02;  1.0213578E-01; -8.1064368E+02;3; -4.8695412E+00;  0.0000000E+00;  6.4578599E-06;0; -2.2132192E-02;  3.8283793E+04;  0.0000000E+00; -1.5952890E-11;  4.0000000E+04;  0.0000000E+00;  3.9994246E+04; -1.4359330E-02;  0.0000000E+00; -7.7728624E-03;  1.1276287E+03;
  6.3182169E-01;  9.9999998E-03;  1.0002160E-02;6320;  2.8488390E-02;  0.0000000E+00; -8.2804007E-05;  9.9902509E+02;  1.0213573E-01; -8.0768079E+02;3; -4.8626218E+00;  0.0000000E+00;  2.0498085E-01;0; -2.2136297E-02;  3.8283438E+04;  0.0000000E+00;  1.8759224E-03;  4.0000000E+04;  0.0000000E+00;  3.9994172E+04; -1.4378282E-02;  0.0000000E+00; -7.7580139E-03;  1.1336239E+03;
  6.3182342E-01;  9.9999998E-03;  2.0003604E-02;6321;  2.8435158E-02;  0.0000000E+00; -1.6482665E-04;  9.9901892E+02;  1.0213578E-01; -8.1281647E+02;3; -4.8564773E+00;  0.0000000E+00;  4.0614772E-01;0; -2.2145338E-02;  3.8282988E+04;  0.0000000E+00;  7.0242565E-03;  4.0000000E+04;  0.0000000E+00;  3.9994344E+04; -1.4431718E-02;  0.0000000E+00; -7.7136196E-03;  1.1493608E+03;
  6.3182425E-01;  9.9999998E-03;  3.0005176E-02;6322;  2.8345862E-02;  0.0000000E+00; -2.4504805E-04;  9.9901410E+02;  1.0213626E-01; -8.1681635E+02;3; -4.8488073E+00;  0.0000000E+00;  6.0399240E-01;0; -2.2150310E-02;  3.8282098E+04;  0.0000000E+00;  1.4058702E-02;  4.0000000E+04;  0.0000000E+00;  3.9994406E+04; -1.4510658E-02;  0.0000000E+00; -7.6396521E-03;  1.1685328E+03;
  6.3182259E-01;  9.9999998E-03;  4.0007237E-02;6323;  2.8220113E-02;  0.0000000E+00; -3.2306221E-04;  9.9900476E+02;  1.0213652E-01; -8.2451984E+02;3; -4.8374252E+00;  0.0000000E+00;  7.9973900E-01;0; -2.2137819E-02;  3.8281133E+04;  0.0000000E+00;  2.0831937E-02;  4.0000000E+04;  0.0000000E+00;  3.9994555E+04; -1.4601884E-02;  0.0000000E+00; -7.5359340E-03;  1.1827664E+03;
  6.3181615E-01;  9.9999998E-03;  5.0009616E-02;6324;  2.8057719E-02;  0.0000000E+00; -3.9856398E-04;  9.9899432E+02;  1.0213724E-01; -8.3316156E+02;3; -4.8184152E+00;  0.0000000E+00;  9.9143517E-01;0; -2.2091478E-02;  3.8279766E+04;  0.0000000E+00;  2.4725059E-02;  4.0000000E+04;  0.0000000E+00;  3.9994516E+04; -1.4689221E-02;  0.0000000E+00; -7.4022571E-03;  1.1833184E+03;
  6.3180256E-01;  9.9999998E-03;  6.0011957E-02;6325;  2.7858634E-02;  0.0000000E+00; -4.7166302E-04;  9.9898523E+02;  1.0213742E-01; -8.4071692E+02;3; -4.7904363E+00;  0.0000000E+00;  1.1756269E+00;0; -2.1994255E-02;  3.8278316E+04;  0.0000000E+00;  2.3123404E-02;  4.0000000E+04;  0.0000000E+00;  3.9994281E+04; -1.4755705E-02;  0.0000000E+00; -7.2385506E-03;  1.1624114E+03;
  6.4172727E-01;  9.9999998E-03; -9.9992566E-02;6370;  2.6521007E-02;  0.0000000E+00;  5.6976714E-04;  9.9917444E+02;  1.0316058E-01; -6.8398059E+02;3; -4.8029990E+00;  0.0000000E+00; -1.8672638E+00;0; -2.4414893E-02;  3.7540117E+04;  0.0000000E+00; -2.2561969E-01;  4.0000000E+04;  0.0000000E+00;  3.9985609E+04; -1.9310059E-02;  0.0000000E+00; -5.1048342E-03;  9.7816571E+02;
  6.4176977E-01;  9.9999998E-03; -8.9993849E-02;6371;  2.6858816E-02;  0.0000000E+00;  5.1804917E-04;  9.9920844E+02;  1.0315883E-01; -6.5578387E+02;3; -4.8682380E+00;  0.0000000E+00; -1.7203691E+00;0; -2.4706433E-02;  3.7543336E+04;  0.0000000E+00; -1.7920421E-01;  4.0000000E+04;  0.0000000E+00;  3.9986934E+04; -1.9419003E-02;  0.0000000E+00; -5.2874289E-03;  1.0863328E+03;
  6.4180624E-01;  9.9999998E-03; -7.9995014E-02;6372;  2.7166234E-02;  0.0000000E+00;  4.6587968E-04;  9.9924835E+02;  1.0315756E-01; -6.2274780E+02;3; -4.9260435E+00;  0.0000000E+00; -1.5615995E+00;0; -2.4928788E-02;  3.7546734E+04;  0.0000000E+00; -1.3363369E-01;  4.0000000E+04;  0.0000000E+00;  3.9987828E+04; -1.9483784E-02;  0.0000000E+00; -5.4450040E-03;  1.1846736E+03;
  6.4183629E-01;  9.9999998E-03; -6.9996007E-02;6373;  2.7440755E-02;  0.0000000E+00;  4.1312279E-04;  9.9928320E+02;  1.0315657E-01; -5.9385968E+02;3; -4.9704151E+00;  0.0000000E+00; -1.3915651E+00;0; -2.5083162E-02;  3.7550066E+04;  0.0000000E+00; -9.2910655E-02;  4.0000000E+04;  0.0000000E+00;  3.9988512E+04; -1.9504417E-02;  0.0000000E+00; -5.5787461E-03;  1.2603005E+03;
  6.4185983E-01;  9.9999998E-03; -5.9996691E-02;6374;  2.7679797E-02;  0.0000000E+00;  3.5928318E-04;  9.9931964E+02;  1.0315521E-01; -5.6368774E+02;3; -5.0077877E+00;  0.0000000E+00; -1.2121717E+00;0; -2.5176423E-02;  3.7553906E+04;  0.0000000E+00; -5.9630118E-02;  4.0000000E+04;  0.0000000E+00;  3.9988914E+04; -1.9486217E-02;  0.0000000E+00; -5.6902054E-03;  1.3065416E+03;
  6.4187753E-01;  9.9999998E-03; -4.9997292E-02;6375;  2.7882293E-02;  0.0000000E+00;  3.0398415E-04;  9.9935547E+02;  1.0315417E-01; -5.3396014E+02;3; -5.0415759E+00;  0.0000000E+00; -1.0245202E+00;0; -2.5219958E-02;  3.7557227E+04;  0.0000000E+00; -3.4834746E-02;  4.0000000E+04;  0.0000000E+00;  3.9989207E+04; -1.9438922E-02;  0.0000000E+00; -5.7810368E-03;  1.3235789E+03;
  6.4188993E-01;  9.9999998E-03; -3.9998148E-02;6376;  2.8047364E-02;  0.0000000E+00;  2.4677935E-04;  9.9938574E+02;  1.0315340E-01; -5.0892383E+02;3; -5.0707035E+00;  0.0000000E+00; -8.2852000E-01;0; -2.5227668E-02;  3.7560406E+04;  0.0000000E+00; -1.8145679E-02;  4.0000000E+04;  0.0000000E+00;  3.9989125E+04; -1.9374743E-02;  0.0000000E+00; -5.8529251E-03;  1.3168531E+03;
  6.4189810E-01;  9.9999998E-03; -2.9999308E-02;6377;  2.8175311E-02;  0.0000000E+00;  1.8752880E-04;  9.9941101E+02;  1.0315263E-01; -4.8798618E+02;3; -5.0925198E+00;  0.0000000E+00; -6.2662101E-01;0; -2.5214352E-02;  3.7563121E+04;  0.0000000E+00; -8.1372410E-03;  4.0000000E+04;  0.0000000E+00;  3.9988887E+04; -1.9307058E-02;  0.0000000E+00; -5.9072925E-03;  1.2952714E+03;
  6.4190328E-01;  9.9999998E-03; -2.0000909E-02;6378;  2.8266415E-02;  0.0000000E+00;  1.2633657E-04;  9.9943048E+02;  1.0315228E-01; -4.7183847E+02;3; -5.1065793E+00;  0.0000000E+00; -4.2148539E-01;0; -2.5193766E-02;  3.7565121E+04;  0.0000000E+00; -2.9004640E-03;  4.0000000E+04;  0.0000000E+00;  3.9988887E+04; -1.9248459E-02;  0.0000000E+00; -5.9453058E-03;  1.2691400E+03;
  6.4190614E-01;  9.9999998E-03; -1.0001626E-02;6379;  2.8320825E-02;  0.0000000E+00;  6.3578904E-05;  9.9943970E+02;  1.0315170E-01; -4.6418436E+02;3; -5.1151638E+00;  0.0000000E+00; -2.1291462E-01;0; -2.5176723E-02;  3.7566637E+04;  0.0000000E+00; -6.1286805E-04;  4.0000000E+04;  0.0000000E+00;  3.9988809E+04; -1.9208940E-02;  0.0000000E+00; -5.9677819E-03;  1.2484315E+03;
  6.4190704E-01;  9.9999998E-03;  8.4510550E-09;6380;  2.8338941E-02;  0.0000000E+00;  7.4613034E-08;  9.9944434E+02;  1.0315151E-01; -4.6033261E+02;3; -5.1180305E+00;  0.0000000E+00;  5.9953572E-06;0; -2.5170246E-02;  3.7566930E+04;  0.0000000E+00; -2.4868120E-11;  4.0000000E+04;  0.0000000E+00;  3.9988523E+04; -1.9195018E-02;  0.0000000E+00; -5.9752273E-03;  1.2405867E+03;
  6.4190614E-01;  9.9999998E-03;  1.0001643E-02;6381;  2.8320823E-02;  0.0000000E+00; -6.3430190E-05;  9.9943970E+02;  1.0315170E-01; -4.6418436E+02;3; -5.1152034E+00;  0.0000000E+00;  2.1292922E-01;0; -2.5176719E-02;  3.7566633E+04;  0.0000000E+00; -6.1129697E-04;  4.0000000E+04;  0.0000000E+00;  3.9988809E+04; -1.9208936E-02;  0.0000000E+00; -5.9677833E-03;  1.2484167E+03;
  6.4190328E-01;  9.9999998E-03;  2.0000925E-02;6382;  2.8266411E-02;  0.0000000E+00; -1.2618868E-04;  9.9943054E+02;  1.0315228E-01; -4.7178909E+02;3; -5.1065717E+00;  0.0000000E+00;  4.2149231E-01;0; -2.5193736E-02;  3.7565121E+04;  0.0000000E+00; -2.8981450E-03;  4.0000000E+04;  0.0000000E+00;  3.9988887E+04; -1.9248441E-02;  0.0000000E+00; -5.9452951E-03;  1.2691423E+03;
  6.4189810E-01;  9.9999998E-03;  2.9999325E-02;6383;  2.8175307E-02;  0.0000000E+00; -1.8738130E-04;  9.9941101E+02;  1.0315263E-01; -4.8798618E+02;3; -5.0924945E+00;  0.0000000E+00;  6.2664747E-01;0; -2.5214352E-02;  3.7563121E+04;  0.0000000E+00; -8.1344359E-03;  4.0000000E+04;  0.0000000E+00;  3.9988891E+04; -1.9307051E-02;  0.0000000E+00; -5.9072999E-03;  1.2952704E+03;
  6.4188993E-01;  9.9999998E-03;  3.9998163E-02;6384;  2.8047355E-02;  0.0000000E+00; -2.4663145E-04;  9.9938586E+02;  1.0315338E-01; -5.0877570E+02;3; -5.0706892E+00;  0.0000000E+00;  8.2853627E-01;0; -2.5227653E-02;  3.7560395E+04;  0.0000000E+00; -1.8143917E-02;  4.0000000E+04;  0.0000000E+00;  3.9989125E+04; -1.9374741E-02;  0.0000000E+00; -5.8529116E-03;  1.3168616E+03;
  6.4187753E-01;  9.9999998E-03;  4.9997307E-02;6385;  2.7882285E-02;  0.0000000E+00; -3.0383785E-04;  9.9935547E+02;  1.0315417E-01; -5.3396014E+02;3; -5.0415764E+00;  0.0000000E+00;  1.0244995E+00;0; -2.5219964E-02;  3.7557227E+04;  0.0000000E+00; -3.4833603E-02;  4.0000000E+04;  0.0000000E+00;  3.9989207E+04; -1.9438934E-02;  0.0000000E+00; -5.7810307E-03;  1.3235840E+03;
  6.4185983E-01;  9.9999998E-03;  5.9996706E-02;6386;  2.7679786E-02;  0.0000000E+00; -3.5913681E-04;  9.9931958E+02;  1.0315521E-01; -5.6373712E+02;3; -5.0077786E+00;  0.0000000E+00;  1.2121630E+00;0; -2.5176445E-02;  3.7553910E+04;  0.0000000E+00; -5.9629411E-02;  4.0000000E+04;  0.0000000E+00;  3.9988918E+04; -1.9486243E-02;  0.0000000E+00; -5.6902021E-03;  1.3065424E+03;
  6.5194595E-01;  9.9999998E-03;  8.9482750E-09;6441;  2.8155252E-02;  0.0000000E+00;  7.6475281E-08;  1.0000151E+03;  1.0447160E-01;  1.2542854E+01;3; -5.3638163E+00;  0.0000000E+00;  8.7249427E-06;0; -2.7477898E-02;  3.6664148E+04;  0.0000000E+00; -4.0468857E-11;  4.0000000E+04;  0.0000000E+00;  3.9980875E+04; -2.3393324E-02;  0.0000000E+00; -4.0845745E-03;  1.3215638E+03;
  6.5194374E-01;  9.9999998E-03; -9.9986903E-03;6440;  2.8136674E-02;  0.0000000E+00;  4.4257748E-05;  1.0000103E+03;  1.0447188E-01;  8.4935865E+00;3; -5.3613033E+00;  0.0000000E+00; -2.1813728E-01;0; -2.7487731E-02;  3.6663465E+04;  0.0000000E+00; -3.1689685E-03;  4.0000000E+04;  0.0000000E+00;  3.9981109E+04; -2.3402750E-02;  0.0000000E+00; -4.0849796E-03;  1.3317231E+03;
  6.5194374E-01;  9.9999998E-03;  9.9987080E-03;6442;  2.8136672E-02;  0.0000000E+00; -4.4105844E-05;  1.0000103E+03;  1.0447188E-01;  8.4935865E+00;3; -5.3612857E+00;  0.0000000E+00;  2.1814533E-01;0; -2.7487714E-02;  3.6663465E+04;  0.0000000E+00; -3.1667382E-03;  4.0000000E+04;  0.0000000E+00;  3.9981109E+04; -2.3402732E-02;  0.0000000E+00; -4.0849829E-03;  1.3317281E+03;
  6.5193695E-01;  9.9999998E-03; -1.9996211E-02;6439;  2.8080937E-02;  0.0000000E+00;  8.7764827E-05;  9.9998871E+02;  1.0447238E-01; -9.3330688E+00;3; -5.3517442E+00;  0.0000000E+00; -4.3423522E-01;0; -2.7515061E-02;  3.6661617E+04;  0.0000000E+00; -1.3047799E-02;  4.0000000E+04;  0.0000000E+00;  3.9981258E+04; -2.3429126E-02;  0.0000000E+00; -4.0859361E-03;  1.3590514E+03;
  6.5193695E-01;  9.9999998E-03;  1.9996230E-02;6443;  2.8080933E-02;  0.0000000E+00; -8.7613626E-05;  9.9998871E+02;  1.0447238E-01; -9.3330688E+00;3; -5.3517604E+00;  0.0000000E+00;  4.3424928E-01;0; -2.7515061E-02;  3.6661617E+04;  0.0000000E+00; -1.3043936E-02;  4.0000000E+04;  0.0000000E+00;  3.9981262E+04; -2.3429127E-02;  0.0000000E+00; -4.0859333E-03;  1.3590574E+03;
  6.5192527E-01;  9.9999998E-03; -2.9992698E-02;6438;  2.7987782E-02;  0.0000000E+00;  1.3002017E-04;  9.9995740E+02;  1.0447284E-01; -3.5307640E+01;3; -5.3332310E+00;  0.0000000E+00; -6.4643407E-01;0; -2.7554281E-02;  3.6658281E+04;  0.0000000E+00; -3.0632144E-02;  4.0000000E+04;  0.0000000E+00;  3.9981453E+04; -2.3467811E-02;  0.0000000E+00; -4.0864707E-03;  1.3951271E+03;
  6.5192527E-01;  9.9999998E-03;  2.9992715E-02;6444;  2.7987778E-02;  0.0000000E+00; -1.2986937E-04;  9.9995746E+02;  1.0447284E-01; -3.5258259E+01;3; -5.3331971E+00;  0.0000000E+00;  6.4641809E-01;0; -2.7554270E-02;  3.6658281E+04;  0.0000000E+00; -3.0626925E-02;  4.0000000E+04;  0.0000000E+00;  3.9981445E+04; -2.3467803E-02;  0.0000000E+00; -4.0864674E-03;  1.3951404E+03;
  6.5190858E-01;  9.9999998E-03; -3.9989568E-02;6437;  2.7856931E-02;  0.0000000E+00;  1.7071427E-04;  9.9992297E+02;  1.0447374E-01; -6.3800659E+01;3; -5.3076849E+00;  0.0000000E+00; -8.5323328E-01;0; -2.7596259E-02;  3.6654406E+04;  0.0000000E+00; -5.7188381E-02;  4.0000000E+04;  0.0000000E+00;  3.9981672E+04; -2.3511359E-02;  0.0000000E+00; -4.0849000E-03;  1.4285461E+03;
  6.5190858E-01;  9.9999998E-03;  3.9989587E-02;6445;  2.7856926E-02;  0.0000000E+00; -1.7056309E-04;  9.9992297E+02;  1.0447374E-01; -6.3800659E+01;3; -5.3076830E+00;  0.0000000E+00;  8.5323185E-01;0; -2.7596224E-02;  3.6654410E+04;  0.0000000E+00; -5.7184950E-02;  4.0000000E+04;  0.0000000E+00;  3.9981672E+04; -2.3511328E-02;  0.0000000E+00; -4.0848963E-03;  1.4285310E+03;
  6.5188658E-01;  9.9999998E-03; -4.9987327E-02;6436;  2.7688224E-02;  0.0000000E+00;  2.0995551E-04;  9.9987488E+02;  1.0447542E-01; -1.0365138E+02;3; -5.2775178E+00;  0.0000000E+00; -1.0543872E+00;0; -2.7629266E-02;  3.6649676E+04;  0.0000000E+00; -9.3714423E-02;  4.0000000E+04;  0.0000000E+00;  3.9981633E+04; -2.3550482E-02;  0.0000000E+00; -4.0787836E-03;  1.4475446E+03;
  6.5188658E-01;  9.9999998E-03;  4.9987342E-02;6446;  2.7688213E-02;  0.0000000E+00; -2.0980582E-04;  9.9987494E+02;  1.0447542E-01; -1.0360200E+02;3; -5.2775126E+00;  0.0000000E+00;  1.0543724E+00;0; -2.7629243E-02;  3.6649680E+04;  0.0000000E+00; -9.3712196E-02;  4.0000000E+04;  0.0000000E+00;  3.9981633E+04; -2.3550466E-02;  0.0000000E+00; -4.0787775E-03;  1.4475337E+03;
  6.5185899E-01;  9.9999998E-03; -5.9985638E-02;6435;  2.7482089E-02;  0.0000000E+00;  2.4786952E-04;  9.9982721E+02;  1.0447723E-01; -1.4315643E+02;3; -5.2396355E+00;  0.0000000E+00; -1.2467452E+00;0; -2.7640026E-02;  3.6644840E+04;  0.0000000E+00; -1.4031056E-01;  4.0000000E+04;  0.0000000E+00;  3.9981699E+04; -2.3574997E-02;  0.0000000E+00; -4.0650303E-03;  1.4421506E+03;
  6.5185899E-01;  9.9999998E-03;  5.9985653E-02;6447;  2.7482079E-02;  0.0000000E+00; -2.4771923E-04;  9.9982733E+02;  1.0447721E-01; -1.4305768E+02;3; -5.2396302E+00;  0.0000000E+00;  1.2467327E+00;0; -2.7640032E-02;  3.6644848E+04;  0.0000000E+00; -1.4030939E-01;  4.0000000E+04;  0.0000000E+00;  3.9981695E+04; -2.3575010E-02;  0.0000000E+00; -4.0650219E-03;  1.4421366E+03;
  6.5182656E-01;  9.9999998E-03; -6.9984041E-02;6434;  2.7239271E-02;  0.0000000E+00;  2.8498709E-04;  9.9977765E+02;  1.0447907E-01; -1.8419231E+02;3; -5.1931429E+00;  0.0000000E+00; -1.4306890E+00;0; -2.7615370E-02;  3.6639727E+04;  0.0000000E+00; -1.9562466E-01;  4.0000000E+04;  0.0000000E+00;  3.9981000E+04; -2.3575515E-02;  0.0000000E+00; -4.0398561E-03;  1.4066310E+03;
  6.5179014E-01;  9.9999998E-03; -7.9982206E-02;6433;  2.6961330E-02;  0.0000000E+00;  3.2174712E-04;  9.9972687E+02;  1.0448122E-01; -2.2626518E+02;3; -5.1371932E+00;  0.0000000E+00; -1.6051482E+00;0; -2.7543517E-02;  3.6634898E+04;  0.0000000E+00; -2.5656995E-01;  4.0000000E+04;  0.0000000E+00;  3.9980219E+04; -2.3544295E-02;  0.0000000E+00; -3.9992221E-03;  1.3417444E+03;
  6.5175015E-01;  9.9999998E-03; -8.9980476E-02;6432;  2.6650539E-02;  0.0000000E+00;  3.5859214E-04;  9.9968591E+02;  1.0448410E-01; -2.6023953E+02;3; -5.0705814E+00;  0.0000000E+00; -1.7678820E+00;0; -2.7415209E-02;  3.6630234E+04;  0.0000000E+00; -3.1837216E-01;  4.0000000E+04;  0.0000000E+00;  3.9979305E+04; -2.3476198E-02;  0.0000000E+00; -3.9390093E-03;  1.2553284E+03;
  6.5170789E-01;  9.9999998E-03; -9.9978901E-02;6431;  2.6310703E-02;  0.0000000E+00;  3.9597414E-04;  9.9964374E+02;  1.0448702E-01; -2.9515213E+02;3; -4.9928727E+00;  0.0000000E+00; -1.9186859E+00;0; -2.7225340E-02;  3.6626277E+04;  0.0000000E+00; -3.7493581E-01;  4.0000000E+04;  0.0000000E+00;  3.9977859E+04; -2.3370253E-02;  0.0000000E+00; -3.8550862E-03;  1.1598350E+03;
  6.6193420E-01;  9.9999998E-03; -9.9953469E-03;6501;  2.7929282E-02;  0.0000000E+00;  2.4655890E-05;  1.0004238E+03;  1.0608612E-01;  3.5110117E+02;3; -5.6198320E+00;  0.0000000E+00; -2.2380200E-01;0; -2.9395126E-02;  3.5581191E+04;  0.0000000E+00; -5.0685904E-03;  4.0000000E+04;  0.0000000E+00;  3.9971191E+04; -2.7280567E-02;  0.0000000E+00; -2.1145586E-03;  1.3661267E+03;
  6.6193622E-01;  9.9999998E-03;  9.3875352E-09;6502;  2.7948443E-02;  0.0000000E+00;  7.8057120E-08;  1.0004342E+03;  1.0608586E-01;  3.5969351E+02;3; -5.6236930E+00;  0.0000000E+00;  1.6313850E-06;0; -2.9381201E-02;  3.5581984E+04;  0.0000000E+00; -5.6159272E-11;  4.0000000E+04;  0.0000000E+00;  3.9971043E+04; -2.7275305E-02;  0.0000000E+00; -2.1058945E-03;  1.3531736E+03;
  6.6193420E-01;  9.9999998E-03;  9.9953655E-03;6503;  2.7929280E-02;  0.0000000E+00; -2.4499883E-05;  1.0004236E+03;  1.0608622E-01;  3.5100238E+02;3; -5.6197944E+00;  0.0000000E+00;  2.2381556E-01;0; -2.9395126E-02;  3.5581199E+04;  0.0000000E+00; -5.0658253E-03;  4.0000000E+04;  0.0000000E+00;  3.9971191E+04; -2.7280565E-02;  0.0000000E+00; -2.1145600E-03;  1.3661309E+03;
  6.6192842E-01;  9.9999998E-03; -1.9990543E-02;6500;  2.7871812E-02;  0.0000000E+00;  4.8701684E-05;  1.0004011E+03;  1.0608685E-01;  3.3233624E+02;3; -5.6088066E+00;  0.0000000E+00; -4.4600487E-01;0; -2.9435260E-02;  3.5578848E+04;  0.0000000E+00; -2.0586271E-02;  4.0000000E+04;  0.0000000E+00;  3.9971301E+04; -2.7295275E-02;  0.0000000E+00; -2.1399860E-03;  1.4015575E+03;
  6.6192842E-01;  9.9999998E-03;  1.9990562E-02;6504;  2.7871808E-02;  0.0000000E+00; -4.8546015E-05;  1.0004011E+03;  1.0608685E-01;  3.3233624E+02;3; -5.6088119E+00;  0.0000000E+00;  4.4598982E-01;0; -2.9435243E-02;  3.5578855E+04;  0.0000000E+00; -2.0581793E-02;  4.0000000E+04;  0.0000000E+00;  3.9971301E+04; -2.7295262E-02;  0.0000000E+00; -2.1399823E-03;  1.4015525E+03;
  6.6191900E-01;  9.9999998E-03; -2.9985510E-02;6499;  2.7775953E-02;  0.0000000E+00;  7.1830931E-05;  1.0003683E+03;  1.0608841E-01;  3.0517654E+02;3; -5.5903468E+00;  0.0000000E+00; -6.6488189E-01;0; -2.9496677E-02;  3.5574867E+04;  0.0000000E+00; -4.7314893E-02;  4.0000000E+04;  0.0000000E+00;  3.9971629E+04; -2.7316151E-02;  0.0000000E+00; -2.1805270E-03;  1.4502328E+03;
  6.6191900E-01;  9.9999998E-03;  2.9985527E-02;6505;  2.7775947E-02;  0.0000000E+00; -7.1677357E-05;  1.0003683E+03;  1.0608827E-01;  3.0507776E+02;3; -5.5903673E+00;  0.0000000E+00;  6.6486794E-01;0; -2.9496649E-02;  3.5574863E+04;  0.0000000E+00; -4.7308695E-02;  4.0000000E+04;  0.0000000E+00;  3.9971629E+04; -2.7316127E-02;  0.0000000E+00; -2.1805225E-03;  1.4502439E+03;
  6.6190565E-01;  9.9999998E-03; -3.9980400E-02;6498;  2.7641654E-02;  0.0000000E+00;  9.3854680E-05;  1.0003246E+03;  1.0609008E-01;  2.6893063E+02;3; -5.5633230E+00;  0.0000000E+00; -8.7818372E-01;0; -2.9571289E-02;  3.5569941E+04;  0.0000000E+00; -8.6023107E-02;  4.0000000E+04;  0.0000000E+00;  3.9972031E+04; -2.7337765E-02;  0.0000000E+00; -2.2335234E-03;  1.4994502E+03;
  6.6190565E-01;  9.9999998E-03;  3.9980415E-02;6506;  2.7641650E-02;  0.0000000E+00; -9.3699404E-05;  1.0003246E+03;  1.0609008E-01;  2.6893063E+02;3; -5.5633392E+00;  0.0000000E+00;  8.7818265E-01;0; -2.9571282E-02;  3.5569941E+04;  0.0000000E+00; -8.6015925E-02;  4.0000000E+04;  0.0000000E+00;  3.9972031E+04; -2.7337765E-02;  0.0000000E+00; -2.2335169E-03;  1.4994347E+03;
  6.6188794E-01;  9.9999998E-03; -4.9975783E-02;6497;  2.7469190E-02;  0.0000000E+00;  1.1494160E-04;  1.0002689E+03;  1.0609205E-01;  2.2280850E+02;3; -5.5285058E+00;  0.0000000E+00; -1.0849382E+00;0; -2.9648419E-02;  3.5564453E+04;  0.0000000E+00; -1.3692330E-01;  4.0000000E+04;  0.0000000E+00;  3.9972012E+04; -2.7353279E-02;  0.0000000E+00; -2.2951411E-03;  1.5357460E+03;
  6.6188794E-01;  9.9999998E-03;  4.9975798E-02;6507;  2.7469182E-02;  0.0000000E+00; -1.1478708E-04;  1.0002689E+03;  1.0609199E-01;  2.2270973E+02;3; -5.5284786E+00;  0.0000000E+00;  1.0849413E+00;0; -2.9648412E-02;  3.5564457E+04;  0.0000000E+00; -1.3691743E-01;  4.0000000E+04;  0.0000000E+00;  3.9972012E+04; -2.7353272E-02;  0.0000000E+00; -2.2951406E-03;  1.5357433E+03;
  6.6186601E-01;  9.9999998E-03; -5.9971526E-02;6496;  2.7259117E-02;  0.0000000E+00;  1.3543232E-04;  1.0002189E+03;  1.0609499E-01;  1.8132819E+02;3; -5.4839082E+00;  0.0000000E+00; -1.2838731E+00;0; -2.9715706E-02;  3.5558590E+04;  0.0000000E+00; -1.9902375E-01;  4.0000000E+04;  0.0000000E+00;  3.9972191E+04; -2.7355313E-02;  0.0000000E+00; -2.3603933E-03;  1.5477877E+03;
  6.6186601E-01;  9.9999998E-03;  5.9971541E-02;6508;  2.7259108E-02;  0.0000000E+00; -1.3527849E-04;  1.0002189E+03;  1.0609499E-01;  1.8132819E+02;3; -5.4839153E+00;  0.0000000E+00;  1.2838557E+00;0; -2.9715680E-02;  3.5558594E+04;  0.0000000E+00; -1.9902301E-01;  4.0000000E+04;  0.0000000E+00;  3.9972191E+04; -2.7355295E-02;  0.0000000E+00; -2.3603854E-03;  1.5477999E+03;
  6.6183996E-01;  9.9999998E-03; -6.9967769E-02;6495;  2.7012516E-02;  0.0000000E+00;  1.5580338E-04;  1.0001706E+03;  1.0609844E-01;  1.4132933E+02;3; -5.4292192E+00;  0.0000000E+00; -1.4736856E+00;0; -2.9759880E-02;  3.5552906E+04;  0.0000000E+00; -2.6956564E-01;  4.0000000E+04;  0.0000000E+00;  3.9971445E+04; -2.7336389E-02;  0.0000000E+00; -2.4234923E-03;  1.5291724E+03;
  6.6181022E-01;  9.9999998E-03; -7.9964586E-02;6494;  2.6731273E-02;  0.0000000E+00;  1.7664774E-04;  1.0001255E+03;  1.0610209E-01;  1.0399705E+02;3; -5.3627462E+00;  0.0000000E+00; -1.6525933E+00;0; -2.9768204E-02;  3.5547305E+04;  0.0000000E+00; -3.4378272E-01;  4.0000000E+04;  0.0000000E+00;  3.9970625E+04; -2.7290173E-02;  0.0000000E+00; -2.4780319E-03;  1.4806495E+03;
  6.6177708E-01;  9.9999998E-03; -8.9962251E-02;6493;  2.6418084E-02;  0.0000000E+00;  1.9843812E-04;  1.0000880E+03;  1.0610646E-01;  7.2886826E+01;3; -5.2866364E+00;  0.0000000E+00; -1.8205823E+00;0; -2.9729193E-02;  3.5542672E+04;  0.0000000E+00; -4.1503632E-01;  4.0000000E+04;  0.0000000E+00;  3.9969605E+04; -2.7212026E-02;  0.0000000E+00; -2.5171679E-03;  1.4097335E+03;
  6.6174126E-01;  9.9999998E-03; -9.9960834E-02;6492;  2.6076391E-02;  0.0000000E+00;  2.2076535E-04;  1.0000617E+03;  1.0611106E-01;  5.1159042E+01;3; -5.2034097E+00;  0.0000000E+00; -1.9952322E+00;0; -2.9633891E-02;  3.5538516E+04;  0.0000000E+00; -4.7544536E-01;  4.0000000E+04;  0.0000000E+00;  3.9968211E+04; -2.7100144E-02;  0.0000000E+00; -2.5337473E-03;  1.3266002E+03;
  6.7177421E-01;  9.9999998E-03; -9.9946149E-02;6553;  2.5806887E-02;  0.0000000E+00;  4.0276565E-05;  1.0001183E+03;  1.0800669E-01;  9.7972534E+01;3; -5.4337568E+00;  0.0000000E+00; -2.1147325E+00;0; -3.1849507E-02;  3.4300770E+04;  0.0000000E+00; -4.9496901E-01;  4.0000000E+04;  0.0000000E+00;  3.9956352E+04; -3.0697025E-02;  0.0000000E+00; -1.1524827E-03;  1.4209476E+03;
  6.7178792E-01;  9.9999998E-03; -8.9948736E-02;6554;  2.6149288E-02;  0.0000000E+00;  3.3270495E-05;  1.0001146E+03;  1.0799950E-01;  9.5009651E+01;3; -5.5264320E+00;  0.0000000E+00; -1.9383676E+00;0; -3.1861108E-02;  3.4304141E+04;  0.0000000E+00; -4.3978718E-01;  4.0000000E+04;  0.0000000E+00;  3.9957738E+04; -3.0826680E-02;  0.0000000E+00; -1.0344272E-03;  1.5002264E+03;
  6.7180032E-01;  9.9999998E-03; -7.9952635E-02;6555;  2.6464276E-02;  0.0000000E+00;  2.7671043E-05;  1.0001265E+03;  1.0799278E-01;  1.0478716E+02;3; -5.6075163E+00;  0.0000000E+00; -1.7468002E+00;0; -3.1820133E-02;  3.4308688E+04;  0.0000000E+00; -3.6956343E-01;  4.0000000E+04;  0.0000000E+00;  3.9958945E+04; -3.0926067E-02;  0.0000000E+00; -8.9406612E-04;  1.5610673E+03;
  6.7181152E-01;  9.9999998E-03; -6.9957547E-02;6556;  2.6748233E-02;  0.0000000E+00;  2.3680601E-05;  1.0001508E+03;  1.0798662E-01;  1.2493473E+02;3; -5.6749907E+00;  0.0000000E+00; -1.5342848E+00;0; -3.1738766E-02;  3.4313992E+04;  0.0000000E+00; -2.9329038E-01;  4.0000000E+04;  0.0000000E+00;  3.9959719E+04; -3.0997159E-02;  0.0000000E+00; -7.4160489E-04;  1.5957426E+03;
  6.7182171E-01;  9.9999998E-03; -5.9963256E-02;6557;  2.6998244E-02;  0.0000000E+00;  2.1083564E-05;  1.0001918E+03;  1.0798125E-01;  1.5890907E+02;3; -5.7342100E+00;  0.0000000E+00; -1.3180830E+00;0; -3.1630408E-02;  3.4320027E+04;  0.0000000E+00; -2.1882081E-01;  4.0000000E+04;  0.0000000E+00;  3.9960254E+04; -3.1043652E-02;  0.0000000E+00; -5.8675394E-04;  1.5980640E+03;
  6.7183095E-01;  9.9999998E-03; -4.9969301E-02;6558;  2.7211851E-02;  0.0000000E+00;  1.7832543E-05;  1.0002386E+03;  1.0797668E-01;  1.9762402E+02;3; -5.7881751E+00;  0.0000000E+00; -1.1186981E+00;0; -3.1508919E-02;  3.4326395E+04;  0.0000000E+00; -1.5197298E-01;  4.0000000E+04;  0.0000000E+00;  3.9960219E+04; -3.1070407E-02;  0.0000000E+00; -4.3851155E-04;  1.5680120E+03;
  6.7183870E-01;  9.9999998E-03; -3.9975647E-02;6559;  2.7387928E-02;  0.0000000E+00;  1.5032909E-05;  1.0002834E+03;  1.0797307E-01;  2.3475877E+02;3; -5.8296409E+00;  0.0000000E+00; -9.0637636E-01;0; -3.1387810E-02;  3.4332652E+04;  0.0000000E+00; -9.6285194E-02;  4.0000000E+04;  0.0000000E+00;  3.9959953E+04; -3.1082641E-02;  0.0000000E+00; -3.0516653E-04;  1.5130742E+03;
  6.7184502E-01;  9.9999998E-03; -2.9982092E-02;6560;  2.7525503E-02;  0.0000000E+00;  1.2062225E-05;  1.0003296E+03;  1.0797056E-01;  2.7307867E+02;3; -5.8604894E+00;  0.0000000E+00; -6.8593180E-01;0; -3.1279452E-02;  3.4338172E+04;  0.0000000E+00; -5.3339835E-02;  4.0000000E+04;  0.0000000E+00;  3.9959434E+04; -3.1085597E-02;  0.0000000E+00; -1.9385362E-04;  1.4464641E+03;
  6.7184943E-01;  9.9999998E-03; -1.9988159E-02;6561;  2.7623978E-02;  0.0000000E+00;  8.5540096E-06;  1.0003625E+03;  1.0796814E-01;  3.0033716E+02;3; -5.8822718E+00;  0.0000000E+00; -4.6025559E-01;0; -3.1194188E-02;  3.4342535E+04;  0.0000000E+00; -2.3343090E-02;  4.0000000E+04;  0.0000000E+00;  3.9958887E+04; -3.1083876E-02;  0.0000000E+00; -1.1031074E-04;  1.3837332E+03;
  6.7185223E-01;  9.9999998E-03; -9.9941045E-03;6562;  2.7683187E-02;  0.0000000E+00;  4.4937246E-06;  1.0003887E+03;  1.0796691E-01;  3.2196619E+02;3; -5.8953996E+00;  0.0000000E+00; -2.3110604E-01;0; -3.1139849E-02;  3.4345398E+04;  0.0000000E+00; -5.7712798E-03;  4.0000000E+04;  0.0000000E+00;  3.9958535E+04; -3.1081293E-02;  0.0000000E+00; -5.8556237E-05;  1.3391879E+03;
  6.7185313E-01;  9.9999998E-03;  9.7026973E-09;6563;  2.7702939E-02;  0.0000000E+00;  7.9876742E-08;  1.0003966E+03;  1.0796670E-01;  3.2858328E+02;3; -5.8999796E+00;  0.0000000E+00;  6.0029988E-06;0; -3.1121198E-02;  3.4346348E+04;  0.0000000E+00; -7.1822215E-11;  4.0000000E+04;  0.0000000E+00;  3.9958652E+04; -3.1080145E-02;  0.0000000E+00; -4.1052295E-05;  1.3231206E+03;
  6.7185223E-01;  9.9999998E-03;  9.9941231E-03;6564;  2.7683187E-02;  0.0000000E+00; -4.3339910E-06;  1.0003887E+03;  1.0796720E-01;  3.2206494E+02;3; -5.8954291E+00;  0.0000000E+00;  2.3110850E-01;0; -3.1139828E-02;  3.4345398E+04;  0.0000000E+00; -5.7683936E-03;  4.0000000E+04;  0.0000000E+00;  3.9958535E+04; -3.1081270E-02;  0.0000000E+00; -5.8558406E-05;  1.3392048E+03;
  6.7184943E-01;  9.9999998E-03;  1.9988177E-02;6565;  2.7623970E-02;  0.0000000E+00; -8.3961540E-06;  1.0003623E+03;  1.0796822E-01;  3.0013965E+02;3; -5.8822765E+00;  0.0000000E+00;  4.6026364E-01;0; -3.1194163E-02;  3.4342535E+04;  0.0000000E+00; -2.3337420E-02;  4.0000000E+04;  0.0000000E+00;  3.9958887E+04; -3.1083854E-02;  0.0000000E+00; -1.1030937E-04;  1.3837266E+03;
  6.7184502E-01;  9.9999998E-03;  2.9982110E-02;6566;  2.7525499E-02;  0.0000000E+00; -1.1902428E-05;  1.0003297E+03;  1.0797051E-01;  2.7317743E+02;3; -5.8604932E+00;  0.0000000E+00;  6.8594348E-01;0; -3.1279445E-02;  3.4338172E+04;  0.0000000E+00; -5.3333230E-02;  4.0000000E+04;  0.0000000E+00;  3.9959434E+04; -3.1085594E-02;  0.0000000E+00; -1.9385031E-04;  1.4464767E+03;
  6.7183876E-01;  9.9999998E-03;  3.9975666E-02;6567;  2.7387924E-02;  0.0000000E+00; -1.4876863E-05;  1.0002833E+03;  1.0797307E-01;  2.3475877E+02;3; -5.8296437E+00;  0.0000000E+00;  9.0637571E-01;0; -3.1387802E-02;  3.4332652E+04;  0.0000000E+00; -9.6277945E-02;  4.0000000E+04;  0.0000000E+00;  3.9959957E+04; -3.1082641E-02;  0.0000000E+00; -3.0516044E-04;  1.5130697E+03;
  6.7183095E-01;  9.9999998E-03;  4.9969319E-02;6568;  2.7211847E-02;  0.0000000E+00; -1.7674742E-05;  1.0002386E+03;  1.0797677E-01;  1.9772279E+02;3; -5.7881737E+00;  0.0000000E+00;  1.1186786E+00;0; -3.1508926E-02;  3.4326391E+04;  0.0000000E+00; -1.5196674E-01;  4.0000000E+04;  0.0000000E+00;  3.9960219E+04; -3.1070424E-02;  0.0000000E+00; -4.3850386E-04;  1.5680088E+03;
  6.7182171E-01;  9.9999998E-03;  5.9963275E-02;6569;  2.6998241E-02;  0.0000000E+00; -2.0926973E-05;  1.0001918E+03;  1.0798122E-01;  1.5890907E+02;3; -5.7342095E+00;  0.0000000E+00;  1.3180578E+00;0; -3.1630404E-02;  3.4320027E+04;  0.0000000E+00; -2.1881796E-01;  4.0000000E+04;  0.0000000E+00;  3.9960254E+04; -3.1043658E-02;  0.0000000E+00; -5.8674451E-04;  1.5980597E+03;
  6.8180573E-01;  9.9999998E-03; -9.9946305E-02;6614;  2.5488742E-02;  0.0000000E+00; -1.4826607E-04;  9.9973132E+02;  1.1015628E-01; -2.2261098E+02;3; -5.6598377E+00;  0.0000000E+00; -2.2327578E+00;0; -3.4016591E-02;  3.2948754E+04;  0.0000000E+00; -4.1464305E-01;  4.0000000E+04;  0.0000000E+00;  3.9943359E+04; -3.4303941E-02;  0.0000000E+00;  2.8734939E-04;  1.4070840E+03;
  6.8180031E-01;  9.9999998E-03; -8.9948669E-02;6615;  2.5829887E-02;  0.0000000E+00; -1.4167337E-04;  9.9967865E+02;  1.1014520E-01; -2.6621466E+02;3; -5.7650375E+00;  0.0000000E+00; -2.0648885E+00;0; -3.3959050E-02;  3.2951602E+04;  0.0000000E+00; -3.7561163E-01;  4.0000000E+04;  0.0000000E+00;  3.9944504E+04; -3.4471169E-02;  0.0000000E+00;  5.1211833E-04;  1.4956243E+03;
  6.8179464E-01;  9.9999998E-03; -7.9952411E-02;6616;  2.6145140E-02;  0.0000000E+00; -1.3173341E-04;  9.9965002E+02;  1.1013468E-01; -2.8996707E+02;3; -5.8582783E+00;  0.0000000E+00; -1.8788491E+00;0; -3.3849958E-02;  3.2955137E+04;  0.0000000E+00; -3.1970710E-01;  4.0000000E+04;  0.0000000E+00;  3.9945324E+04; -3.4609959E-02;  0.0000000E+00;  7.5999933E-04;  1.5588386E+03;
  6.8178904E-01;  9.9999998E-03; -6.9957249E-02;6617;  2.6430396E-02;  0.0000000E+00; -1.1902692E-04;  9.9964368E+02;  1.1012568E-01; -2.9520151E+02;3; -5.9373431E+00;  0.0000000E+00; -1.6697991E+00;0; -3.3704095E-02;  3.2959871E+04;  0.0000000E+00; -2.5567722E-01;  4.0000000E+04;  0.0000000E+00;  3.9945949E+04; -3.4721371E-02;  0.0000000E+00;  1.0172758E-03;  1.5894017E+03;
  6.8178356E-01;  9.9999998E-03; -5.9963088E-02;6618;  2.6682582E-02;  0.0000000E+00; -1.0387594E-04;  9.9965564E+02;  1.1011732E-01; -2.8527585E+02;3; -6.0029879E+00;  0.0000000E+00; -1.4422481E+00;0; -3.3536762E-02;  3.2965984E+04;  0.0000000E+00; -1.9147329E-01;  4.0000000E+04;  0.0000000E+00;  3.9946223E+04; -3.4807619E-02;  0.0000000E+00;  1.2708557E-03;  1.5821431E+03;
  6.8177849E-01;  9.9999998E-03; -4.9969494E-02;6619;  2.6899211E-02;  0.0000000E+00; -8.7032931E-05;  9.9968402E+02;  1.1011066E-01; -2.6177036E+02;3; -6.0586982E+00;  0.0000000E+00; -1.2117326E+00;0; -3.3363234E-02;  3.2972578E+04;  0.0000000E+00; -1.3309637E-01;  4.0000000E+04;  0.0000000E+00;  3.9946262E+04; -3.4871876E-02;  0.0000000E+00;  1.5086422E-03;  1.5381774E+03;
  6.8177414E-01;  9.9999998E-03; -3.9976120E-02;6620;  2.7078314E-02;  0.0000000E+00; -6.9765105E-05;  9.9971942E+02;  1.1010469E-01; -2.3243785E+02;3; -6.1035743E+00;  0.0000000E+00; -9.7415775E-01;0; -3.3198189E-02;  3.2979250E+04;  0.0000000E+00; -8.4257536E-02;  4.0000000E+04;  0.0000000E+00;  3.9945652E+04; -3.4917828E-02;  0.0000000E+00;  1.7196401E-03;  1.4668762E+03;
  6.8177027E-01;  9.9999998E-03; -2.9982643E-02;6621;  2.7218843E-02;  0.0000000E+00; -5.2087864E-05;  9.9975824E+02;  1.1010028E-01; -2.0029062E+02;3; -6.1379609E+00;  0.0000000E+00; -7.3204929E-01;0; -3.3054702E-02;  3.2985375E+04;  0.0000000E+00; -4.6625666E-02;  4.0000000E+04;  0.0000000E+00;  3.9945203E+04; -3.4948844E-02;  0.0000000E+00;  1.8941410E-03;  1.3838142E+03;
  6.8176717E-01;  9.9999998E-03; -1.9988881E-02;6622;  2.7319813E-02;  0.0000000E+00; -3.4522654E-05;  9.9979211E+02;  1.1009674E-01; -1.7224203E+02;3; -6.1618896E+00;  0.0000000E+00; -4.8991108E-01;0; -3.2943916E-02;  3.2990156E+04;  0.0000000E+00; -2.0394163E-02;  4.0000000E+04;  0.0000000E+00;  3.9944637E+04; -3.4968276E-02;  0.0000000E+00;  2.0243593E-03;  1.3069998E+03;
  6.8176496E-01;  9.9999998E-03; -9.9947760E-03;6623;  2.7380574E-02;  0.0000000E+00; -1.7386494E-05;  9.9981354E+02;  1.1009508E-01; -1.5446475E+02;3; -6.1762705E+00;  0.0000000E+00; -2.4977770E-01;0; -3.2873996E-02;  3.2993246E+04;  0.0000000E+00; -5.0411401E-03;  4.0000000E+04;  0.0000000E+00;  3.9944113E+04; -3.4978669E-02;  0.0000000E+00;  2.1046752E-03;  1.2530033E+03;
  6.8176425E-01;  9.9999998E-03;  9.8847490E-09;6624;  2.7400840E-02;  0.0000000E+00;  8.1883336E-08;  9.9982062E+02;  1.1009413E-01; -1.4863776E+02;3; -6.1813092E+00;  0.0000000E+00;  2.4316469E-06;0; -3.2850154E-02;  3.2994379E+04;  0.0000000E+00; -8.6599450E-11;  4.0000000E+04;  0.0000000E+00;  3.9944102E+04; -3.4981988E-02;  0.0000000E+00;  2.1318356E-03;  1.2335807E+03;
  6.8176496E-01;  9.9999998E-03;  9.9947955E-03;6625;  2.7380574E-02;  0.0000000E+00;  1.7550281E-05;  9.9981354E+02;  1.1009508E-01; -1.5446475E+02;3; -6.1762910E+00;  0.0000000E+00;  2.4978916E-01;0; -3.2874018E-02;  3.2993246E+04;  0.0000000E+00; -5.0381739E-03;  4.0000000E+04;  0.0000000E+00;  3.9944113E+04; -3.4978695E-02;  0.0000000E+00;  2.1046768E-03;  1.2529937E+03;
  6.8176717E-01;  9.9999998E-03;  1.9988902E-02;6626;  2.7319811E-02;  0.0000000E+00;  3.4686531E-05;  9.9979218E+02;  1.1009681E-01; -1.7219264E+02;3; -6.1619167E+00;  0.0000000E+00;  4.8992524E-01;0; -3.2943912E-02;  3.2990152E+04;  0.0000000E+00; -2.0388383E-02;  4.0000000E+04;  0.0000000E+00;  3.9944641E+04; -3.4968276E-02;  0.0000000E+00;  2.0243621E-03;  1.3069973E+03;
  6.8177027E-01;  9.9999998E-03;  2.9982664E-02;6627;  2.7218839E-02;  0.0000000E+00;  5.2251318E-05;  9.9975824E+02;  1.1010028E-01; -2.0029062E+02;3; -6.1379471E+00;  0.0000000E+00;  7.3205334E-01;0; -3.3054709E-02;  3.2985375E+04;  0.0000000E+00; -4.6619553E-02;  4.0000000E+04;  0.0000000E+00;  3.9945203E+04; -3.4948852E-02;  0.0000000E+00;  1.8941440E-03;  1.3838105E+03;
  6.8177414E-01;  9.9999998E-03;  3.9976139E-02;6628;  2.7078308E-02;  0.0000000E+00;  6.9926718E-05;  9.9971942E+02;  1.1010469E-01; -2.3243785E+02;3; -6.1035352E+00;  0.0000000E+00;  9.7415006E-01;0; -3.3198152E-02;  3.2979246E+04;  0.0000000E+00; -8.4250204E-02;  4.0000000E+04;  0.0000000E+00;  3.9945652E+04; -3.4917798E-02;  0.0000000E+00;  1.7196448E-03;  1.4668595E+03;
  6.8177849E-01;  9.9999998E-03;  4.9969517E-02;6629;  2.6899207E-02;  0.0000000E+00;  8.7194261E-05;  9.9968408E+02;  1.1011063E-01; -2.6172098E+02;3; -6.0586624E+00;  0.0000000E+00;  1.2117423E+00;0; -3.3363260E-02;  3.2972582E+04;  0.0000000E+00; -1.3309187E-01;  4.0000000E+04;  0.0000000E+00;  3.9946262E+04; -3.4871910E-02;  0.0000000E+00;  1.5086484E-03;  1.5381698E+03;
  6.8178356E-01;  9.9999998E-03;  5.9963107E-02;6630;  2.6682574E-02;  0.0000000E+00;  1.0403670E-04;  9.9965570E+02;  1.1011732E-01; -2.8522647E+02;3; -6.0029678E+00;  0.0000000E+00;  1.4422208E+00;0; -3.3536725E-02;  3.2965977E+04;  0.0000000E+00; -1.9147158E-01;  4.0000000E+04;  0.0000000E+00;  3.9946223E+04; -3.4807585E-02;  0.0000000E+00;  1.2708615E-03;  1.5821481E+03;
  6.9240183E-01;  9.9999998E-03; -9.9990189E-02;6675;  2.5095282E-02;  0.0000000E+00; -3.5661232E-04;  9.9898553E+02;  1.1264547E-01; -8.4046997E+02;3; -5.8993602E+00;  0.0000000E+00; -2.3095920E+00;0; -3.6327783E-02;  3.1470902E+04;  0.0000000E+00; -2.2870585E-01;  4.0000000E+04;  0.0000000E+00;  3.9927715E+04; -3.8201544E-02;  0.0000000E+00;  1.8737606E-03;  1.3043093E+03;
  6.9236982E-01;  9.9999998E-03; -8.9988917E-02;6676;  2.5434213E-02;  0.0000000E+00; -3.3577631E-04;  9.9887921E+02;  1.1262806E-01; -9.2856628E+02;3; -6.0168710E+00;  0.0000000E+00; -2.1390753E+00;0; -3.6205526E-02;  3.1473098E+04;  0.0000000E+00; -2.1716051E-01;  4.0000000E+04;  0.0000000E+00;  3.9928727E+04; -3.8422320E-02;  0.0000000E+00;  2.2167941E-03;  1.4129631E+03;
  6.9233167E-01;  9.9999998E-03; -7.9988904E-02;6677;  2.5748787E-02;  0.0000000E+00; -3.1013743E-04;  9.9880310E+02;  1.1261085E-01; -9.9162622E+02;3; -6.1200943E+00;  0.0000000E+00; -1.9531633E+00;0; -3.6029585E-02;  3.1477521E+04;  0.0000000E+00; -1.9008148E-01;  4.0000000E+04;  0.0000000E+00;  3.9929598E+04; -3.8613044E-02;  0.0000000E+00;  2.5834593E-03;  1.4917964E+03;
  6.9228911E-01;  9.9999998E-03; -6.9989055E-02;6678;  2.6034951E-02;  0.0000000E+00; -2.8002021E-04;  9.9875879E+02;  1.1259457E-01; -1.0283165E+03;3; -6.2083106E+00;  0.0000000E+00; -1.7507484E+00;0; -3.5817295E-02;  3.1483898E+04;  0.0000000E+00; -1.5428506E-01;  4.0000000E+04;  0.0000000E+00;  3.9930031E+04; -3.8773309E-02;  0.0000000E+00;  2.9560153E-03;  1.5305298E+03;
  6.9224489E-01;  9.9999998E-03; -5.9989631E-02;6679;  2.6289139E-02;  0.0000000E+00; -2.4610350E-04;  9.9874237E+02;  1.1257912E-01; -1.0419458E+03;3; -6.2827249E+00;  0.0000000E+00; -1.5328823E+00;0; -3.5586607E-02;  3.1492006E+04;  0.0000000E+00; -1.1613742E-01;  4.0000000E+04;  0.0000000E+00;  3.9930352E+04; -3.8904231E-02;  0.0000000E+00;  3.3176246E-03;  1.5234420E+03;
  6.9220179E-01;  9.9999998E-03; -4.9990907E-02;6680;  2.6508642E-02;  0.0000000E+00; -2.0914851E-04;  9.9875281E+02;  1.1256533E-01; -1.0332546E+03;3; -6.3429251E+00;  0.0000000E+00; -1.3009022E+00;0; -3.5355259E-02;  3.1501039E+04;  0.0000000E+00; -8.0556184E-02;  4.0000000E+04;  0.0000000E+00;  3.9930000E+04; -3.9008062E-02;  0.0000000E+00;  3.6528031E-03;  1.4729336E+03;
  6.9216263E-01;  9.9999998E-03; -3.9992899E-02;6681;  2.6690973E-02;  0.0000000E+00; -1.6986638E-04;  9.9877600E+02;  1.1255291E-01; -1.0140453E+03;3; -6.3935027E+00;  0.0000000E+00; -1.0613681E+00;0; -3.5139784E-02;  3.1510117E+04;  0.0000000E+00; -5.0637119E-02;  4.0000000E+04;  0.0000000E+00;  3.9929641E+04; -3.9087418E-02;  0.0000000E+00;  3.9476324E-03;  1.3904177E+03;
  6.9212985E-01;  9.9999998E-03; -2.9995086E-02;6682;  2.6834518E-02;  0.0000000E+00; -1.2838843E-04;  9.9880560E+02;  1.1254330E-01; -9.8955219E+02;3; -6.4323721E+00;  0.0000000E+00; -8.0352229E-01;0; -3.4955289E-02;  3.1518461E+04;  0.0000000E+00; -2.7756276E-02;  4.0000000E+04;  0.0000000E+00;  3.9928832E+04; -3.9145362E-02;  0.0000000E+00;  4.1900720E-03;  1.2941062E+03;
  6.9210505E-01;  9.9999998E-03; -1.9997057E-02;6683;  2.6937908E-02;  0.0000000E+00; -8.6145039E-05;  9.9883398E+02;  1.1253632E-01; -9.6599731E+02;3; -6.4620805E+00;  0.0000000E+00; -5.4065347E-01;0; -3.4814268E-02;  3.1524992E+04;  0.0000000E+00; -1.2028391E-02;  4.0000000E+04;  0.0000000E+00;  3.9928320E+04; -3.9184619E-02;  0.0000000E+00;  4.3703513E-03;  1.2049810E+03;
  6.9208974E-01;  9.9999998E-03; -9.9987984E-03;6684;  2.7000397E-02;  0.0000000E+00; -4.3231295E-05;  9.9885455E+02;  1.1253200E-01; -9.4896075E+02;3; -6.4768624E+00;  0.0000000E+00; -2.7384955E-01;0; -3.4725767E-02;  3.1529148E+04;  0.0000000E+00; -2.9540409E-03;  4.0000000E+04;  0.0000000E+00;  3.9927695E+04; -3.9207179E-02;  0.0000000E+00;  4.4814111E-03;  1.1423478E+03;
  6.9208449E-01;  9.9999998E-03;  1.0078210E-08;6685;  2.7021283E-02;  0.0000000E+00;  8.4031029E-08;  9.9885895E+02;  1.1253030E-01; -9.4535590E+02;3; -6.4807911E+00;  0.0000000E+00;  5.5709934E-06;0; -3.4695707E-02;  3.1530680E+04;  0.0000000E+00; -9.1225388E-11;  4.0000000E+04;  0.0000000E+00;  3.9927652E+04; -3.9214589E-02;  0.0000000E+00;  4.5188833E-03;  1.1198051E+03;
  6.9208974E-01;  9.9999998E-03;  9.9988189E-03;6686;  2.7000396E-02;  0.0000000E+00;  4.3398937E-05;  9.9885449E+02;  1.1253189E-01; -9.4901013E+02;3; -6.4768605E+00;  0.0000000E+00;  2.7385676E-01;0; -3.4725796E-02;  3.1529156E+04;  0.0000000E+00; -2.9514087E-03;  4.0000000E+04;  0.0000000E+00;  3.9927695E+04; -3.9207205E-02;  0.0000000E+00;  4.4814083E-03;  1.1423490E+03;
  6.9210505E-01;  9.9999998E-03;  1.9997075E-02;6687;  2.6937906E-02;  0.0000000E+00;  8.6311993E-05;  9.9883386E+02;  1.1253625E-01; -9.6614545E+02;3; -6.4620614E+00;  0.0000000E+00;  5.4066032E-01;0; -3.4814212E-02;  3.1524996E+04;  0.0000000E+00; -1.2023618E-02;  4.0000000E+04;  0.0000000E+00;  3.9928316E+04; -3.9184567E-02;  0.0000000E+00;  4.3703527E-03;  1.2049735E+03;
  6.9212985E-01;  9.9999998E-03;  2.9995106E-02;6688;  2.6834514E-02;  0.0000000E+00;  1.2855462E-04;  9.9880542E+02;  1.1254327E-01; -9.8970032E+02;3; -6.4323206E+00;  0.0000000E+00;  8.0352747E-01;0; -3.4955330E-02;  3.1518461E+04;  0.0000000E+00; -2.7750641E-02;  4.0000000E+04;  0.0000000E+00;  3.9928836E+04; -3.9145403E-02;  0.0000000E+00;  4.1900724E-03;  1.2940995E+03;
  6.9216263E-01;  9.9999998E-03;  3.9992917E-02;6689;  2.6690971E-02;  0.0000000E+00;  1.7003115E-04;  9.9877606E+02;  1.1255290E-01; -1.0139959E+03;3; -6.3934536E+00;  0.0000000E+00;  1.0613573E+00;0; -3.5139758E-02;  3.1510121E+04;  0.0000000E+00; -5.0629709E-02;  4.0000000E+04;  0.0000000E+00;  3.9929637E+04; -3.9087396E-02;  0.0000000E+00;  3.9476366E-03;  1.3903784E+03;
  6.9220179E-01;  9.9999998E-03;  4.9990926E-02;6690;  2.6508637E-02;  0.0000000E+00;  2.0931338E-04;  9.9875281E+02;  1.1256533E-01; -1.0332546E+03;3; -6.3429079E+00;  0.0000000E+00;  1.3008957E+00;0; -3.5355221E-02;  3.1501041E+04;  0.0000000E+00; -8.0551766E-02;  4.0000000E+04;  0.0000000E+00;  3.9930000E+04; -3.9008029E-02;  0.0000000E+00;  3.6528071E-03;  1.4729227E+03;
  6.9224489E-01;  9.9999998E-03;  5.9989650E-02;6691;  2.6289133E-02;  0.0000000E+00;  2.4626806E-04;  9.9874237E+02;  1.1257912E-01; -1.0419458E+03;3; -6.2827101E+00;  0.0000000E+00;  1.5328727E+00;0; -3.5586491E-02;  3.1492008E+04;  0.0000000E+00; -1.1613556E-01;  4.0000000E+04;  0.0000000E+00;  3.9930355E+04; -3.8904127E-02;  0.0000000E+00;  3.3176336E-03;  1.5234420E+03;
  7.0453936E-01;  9.9999998E-03; -1.0015307E-01;6736;  2.4585420E-02;  0.0000000E+00; -6.1647902E-04;  9.9831738E+02;  1.1572332E-01; -1.3940345E+03;3; -6.1704984E+00;  0.0000000E+00; -2.4465170E+00;0; -3.9002512E-02;  2.9799781E+04;  0.0000000E+00;  6.4203411E-02;  4.0000000E+04;  0.0000000E+00;  3.9909090E+04; -4.2778831E-02;  0.0000000E+00;  3.7763177E-03;  1.2348486E+03;
  7.0453554E-01;  9.9999998E-03; -9.0143405E-02;6737;  2.4918919E-02;  0.0000000E+00; -5.8255054E-04;  9.9815295E+02;  1.1571142E-01; -1.5302283E+03;3; -6.3005552E+00;  0.0000000E+00; -2.2774634E+00;0; -3.8824614E-02;  2.9795729E+04;  0.0000000E+00;  3.9626356E-02;  4.0000000E+04;  0.0000000E+00;  3.9909992E+04; -4.3098334E-02;  0.0000000E+00;  4.2737201E-03;  1.3478944E+03;
  7.0451903E-01;  9.9999998E-03; -8.0134638E-02;6738;  2.5229434E-02;  0.0000000E+00; -5.4158800E-04;  9.9802106E+02;  1.1569832E-01; -1.6395090E+03;3; -6.4172974E+00;  0.0000000E+00; -2.0945606E+00;0; -3.8588267E-02;  2.9794648E+04;  0.0000000E+00;  2.4521379E-02;  4.0000000E+04;  0.0000000E+00;  3.9910676E+04; -4.3385923E-02;  0.0000000E+00;  4.7976570E-03;  1.4366920E+03;
  7.0449120E-01;  9.9999998E-03; -7.0125908E-02;6739;  2.5513066E-02;  0.0000000E+00; -4.9297966E-04;  9.9793103E+02;  1.1568467E-01; -1.7141243E+03;3; -6.5195527E+00;  0.0000000E+00; -1.8926023E+00;0; -3.8313508E-02;  2.9796674E+04;  0.0000000E+00;  1.6000448E-02;  4.0000000E+04;  0.0000000E+00;  3.9911082E+04; -4.3638483E-02;  0.0000000E+00;  5.3249742E-03;  1.4844644E+03;
  7.0445478E-01;  9.9999998E-03; -6.0116168E-02;6740;  2.5766173E-02;  0.0000000E+00; -4.3744736E-04;  9.9787549E+02;  1.1567078E-01; -1.7600983E+03;3; -6.6076093E+00;  0.0000000E+00; -1.6727600E+00;0; -3.8021240E-02;  2.9801215E+04;  0.0000000E+00;  1.1317216E-02;  4.0000000E+04;  0.0000000E+00;  3.9911246E+04; -4.3854591E-02;  0.0000000E+00;  5.8333511E-03;  1.4826139E+03;
  7.0441359E-01;  9.9999998E-03; -5.0104540E-02;6741;  2.5985707E-02;  0.0000000E+00; -3.7498103E-04;  9.9785828E+02;  1.1565778E-01; -1.7743694E+03;3; -6.6827450E+00;  0.0000000E+00; -1.4285390E+00;0; -3.7731737E-02;  2.9807848E+04;  0.0000000E+00;  8.4196283E-03;  4.0000000E+04;  0.0000000E+00;  3.9910883E+04; -4.4033803E-02;  0.0000000E+00;  6.3020652E-03;  1.4329088E+03;
  7.0437175E-01;  9.9999998E-03; -4.0090472E-02;6742;  2.6169034E-02;  0.0000000E+00; -3.0686680E-04;  9.9786005E+02;  1.1564524E-01; -1.7728879E+03;3; -6.7432985E+00;  0.0000000E+00; -1.1680156E+00;0; -3.7464477E-02;  2.9815398E+04;  0.0000000E+00;  6.1111650E-03;  4.0000000E+04;  0.0000000E+00;  3.9910293E+04; -4.4177022E-02;  0.0000000E+00;  6.7125433E-03;  1.3472323E+03;
  7.0433390E-01;  9.9999998E-03; -3.0072976E-02;6743;  2.6313938E-02;  0.0000000E+00; -2.3420887E-04;  9.9787494E+02;  1.1563516E-01; -1.7605920E+03;3; -6.7909451E+00;  0.0000000E+00; -8.9199328E-01;0; -3.7236769E-02;  2.9822750E+04;  0.0000000E+00;  3.9365338E-03;  4.0000000E+04;  0.0000000E+00;  3.9909852E+04; -4.4285752E-02;  0.0000000E+00;  7.0489845E-03;  1.2452883E+03;
  7.0430374E-01;  9.9999998E-03; -2.0051485E-02;6744;  2.6418766E-02;  0.0000000E+00; -1.5797911E-04;  9.9789368E+02;  1.1562708E-01; -1.7450370E+03;3; -6.8248434E+00;  0.0000000E+00; -6.0406309E-01;0; -3.7063185E-02;  2.9828953E+04;  0.0000000E+00;  1.9609272E-03;  4.0000000E+04;  0.0000000E+00;  3.9908848E+04; -4.4361796E-02;  0.0000000E+00;  7.2986125E-03;  1.1500510E+03;
  7.0428461E-01;  9.9999998E-03; -1.0026800E-02;6745;  2.6482198E-02;  0.0000000E+00; -7.9401281E-05;  9.9791205E+02;  1.1562194E-01; -1.7298275E+03;3; -6.8456831E+00;  0.0000000E+00; -3.0302000E-01;0; -3.6954504E-02;  2.9833070E+04;  0.0000000E+00;  5.2829087E-04;  4.0000000E+04;  0.0000000E+00;  3.9908293E+04; -4.4406708E-02;  0.0000000E+00;  7.4522053E-03;  1.0828132E+03;
  7.0427805E-01;  9.9999998E-03;  9.9485824E-09;6746;  2.6503485E-02;  0.0000000E+00;  8.5742293E-08;  9.9791650E+02;  1.1562067E-01; -1.7261239E+03;3; -6.8519320E+00;  0.0000000E+00;  7.6908327E-06;0; -3.6917519E-02;  2.9834449E+04;  0.0000000E+00; -8.3744831E-11;  4.0000000E+04;  0.0000000E+00;  3.9908090E+04; -4.4421546E-02;  0.0000000E+00;  7.5040278E-03;  1.0585476E+03;
  7.0428461E-01;  9.9999998E-03;  1.0026820E-02;6747;  2.6482197E-02;  0.0000000E+00;  7.9572696E-05;  9.9791211E+02;  1.1562190E-01; -1.7297781E+03;3; -6.8456874E+00;  0.0000000E+00;  3.0303070E-01;0; -3.6954504E-02;  2.9833068E+04;  0.0000000E+00;  5.3018163E-04;  4.0000000E+04;  0.0000000E+00;  3.9908301E+04; -4.4406705E-02;  0.0000000E+00;  7.4522025E-03;  1.0828163E+03;
  7.0430374E-01;  9.9999998E-03;  2.0051505E-02;6748;  2.6418762E-02;  0.0000000E+00;  1.5815003E-04;  9.9789368E+02;  1.1562708E-01; -1.7450370E+03;3; -6.8248515E+00;  0.0000000E+00;  6.0407144E-01;0; -3.7063140E-02;  2.9828955E+04;  0.0000000E+00;  1.9642897E-03;  4.0000000E+04;  0.0000000E+00;  3.9908848E+04; -4.4361748E-02;  0.0000000E+00;  7.2986078E-03;  1.1500419E+03;
  7.0433384E-01;  9.9999998E-03;  3.0072995E-02;6749;  2.6313936E-02;  0.0000000E+00;  2.3437940E-04;  9.9787494E+02;  1.1563516E-01; -1.7605920E+03;3; -6.7909555E+00;  0.0000000E+00;  8.9199829E-01;0; -3.7236772E-02;  2.9822752E+04;  0.0000000E+00;  3.9407299E-03;  4.0000000E+04;  0.0000000E+00;  3.9909852E+04; -4.4285759E-02;  0.0000000E+00;  7.0489869E-03;  1.2452612E+03;
  7.0437175E-01;  9.9999998E-03;  4.0090490E-02;6750;  2.6169030E-02;  0.0000000E+00;  3.0703651E-04;  9.9786005E+02;  1.1564524E-01; -1.7728879E+03;3; -6.7432342E+00;  0.0000000E+00;  1.1680226E+00;0; -3.7464488E-02;  2.9815404E+04;  0.0000000E+00;  6.1151665E-03;  4.0000000E+04;  0.0000000E+00;  3.9910293E+04; -4.4177033E-02;  0.0000000E+00;  6.7125456E-03;  1.3472271E+03;
  7.0441359E-01;  9.9999998E-03;  5.0104558E-02;6751;  2.5985701E-02;  0.0000000E+00;  3.7515056E-04;  9.9785809E+02;  1.1565779E-01; -1.7745176E+03;3; -6.6827345E+00;  0.0000000E+00;  1.4285419E+00;0; -3.7731744E-02;  2.9807854E+04;  0.0000000E+00;  8.4240586E-03;  4.0000000E+04;  0.0000000E+00;  3.9910883E+04; -4.4033810E-02;  0.0000000E+00;  6.3020643E-03;  1.4328995E+03;
  7.0445478E-01;  9.9999998E-03;  6.0116187E-02;6752;  2.5766166E-02;  0.0000000E+00;  4.3761617E-04;  9.9787543E+02;  1.1567055E-01; -1.7601476E+03;3; -6.6075778E+00;  0.0000000E+00;  1.6727543E+00;0; -3.8021188E-02;  2.9801215E+04;  0.0000000E+00;  1.1319205E-02;  4.0000000E+04;  0.0000000E+00;  3.9911254E+04; -4.3854546E-02;  0.0000000E+00;  5.8333571E-03;  1.4826061E+03;
  7.1742344E-01;  9.9999998E-03; -1.0027783E-01;6797;  2.3986492E-02;  0.0000000E+00; -9.2887878E-04;  9.9833679E+02;  1.1931013E-01; -1.3779363E+03;3; -6.4628167E+00;  0.0000000E+00; -2.6057711E+00;0; -4.1849446E-02;  2.8060557E+04;  0.0000000E+00;  3.7862122E-01;  4.0000000E+04;  0.0000000E+00;  3.9888805E+04; -4.7760025E-02;  0.0000000E+00;  5.9105782E-03;  1.4427068E+03;
  7.1746784E-01;  9.9999998E-03; -9.0261184E-02;6798;  2.4312356E-02;  0.0000000E+00; -8.8172971E-04;  9.9815088E+02;  1.1931047E-01; -1.5319565E+03;3; -6.6077018E+00;  0.0000000E+00; -2.4373865E+00;0; -4.1619673E-02;  2.8049738E+04;  0.0000000E+00;  3.2168773E-01;  4.0000000E+04;  0.0000000E+00;  3.9889609E+04; -4.8205044E-02;  0.0000000E+00;  6.5853726E-03;  1.5036140E+03;
  7.1749741E-01;  9.9999998E-03; -8.0243200E-02;6799;  2.4615994E-02;  0.0000000E+00; -8.2360831E-04;  9.9800671E+02;  1.1931025E-01; -1.6514099E+03;3; -6.7420945E+00;  0.0000000E+00; -2.2436543E+00;0; -4.1326903E-02;  2.8041852E+04;  0.0000000E+00;  2.6396084E-01;  4.0000000E+04;  0.0000000E+00;  3.9890191E+04; -4.8617788E-02;  0.0000000E+00;  7.2908862E-03;  1.5520165E+03;
  7.1751267E-01;  9.9999998E-03; -7.0223346E-02;6800;  2.4893492E-02;  0.0000000E+00; -7.5436960E-04;  9.9790082E+02;  1.1930910E-01; -1.7391112E+03;3; -6.8632469E+00;  0.0000000E+00; -2.0357981E+00;0; -4.0994041E-02;  2.8037309E+04;  0.0000000E+00;  2.0780122E-01;  4.0000000E+04;  0.0000000E+00;  3.9890562E+04; -4.8992097E-02;  0.0000000E+00;  7.9980548E-03;  1.5718046E+03;
  7.1751493E-01;  9.9999998E-03; -6.0201220E-02;6801;  2.5141448E-02;  0.0000000E+00; -6.7305961E-04;  9.9783893E+02;  1.1930643E-01; -1.7904183E+03;3; -6.9687223E+00;  0.0000000E+00; -1.8011907E+00;0; -4.0644709E-02;  2.8035742E+04;  0.0000000E+00;  1.5552501E-01;  4.0000000E+04;  0.0000000E+00;  3.9890430E+04; -4.9322855E-02;  0.0000000E+00;  8.6781448E-03;  1.5532808E+03;
  7.1750796E-01;  9.9999998E-03; -5.0176550E-02;6802;  2.5356973E-02;  0.0000000E+00; -5.8054487E-04;  9.9780951E+02;  1.1930332E-01; -1.8147633E+03;3; -7.0588078E+00;  0.0000000E+00; -1.5385019E+00;0; -4.0302280E-02;  2.8036650E+04;  0.0000000E+00;  1.0915983E-01;  4.0000000E+04;  0.0000000E+00;  3.9890266E+04; -4.9606644E-02;  0.0000000E+00;  9.3043623E-03;  1.4957576E+03;
  7.1749300E-01;  9.9999998E-03; -4.0147953E-02;6803;  2.5537180E-02;  0.0000000E+00; -4.7750247E-04;  9.9780859E+02;  1.1929952E-01; -1.8155535E+03;3; -7.1335354E+00;  0.0000000E+00; -1.2583938E+00;0; -3.9987810E-02;  2.8039566E+04;  0.0000000E+00;  7.0189826E-02;  4.0000000E+04;  0.0000000E+00;  3.9889516E+04; -4.9839687E-02;  0.0000000E+00;  9.8518766E-03;  1.4079451E+03;
  7.1747279E-01;  9.9999998E-03; -3.0115068E-02;6804;  2.5679823E-02;  0.0000000E+00; -3.6546425E-04;  9.9782410E+02;  1.1929509E-01; -1.8027144E+03;3; -7.1959958E+00;  0.0000000E+00; -9.5033211E-01;0; -3.9720781E-02;  2.8043395E+04;  0.0000000E+00;  3.9516561E-02;  4.0000000E+04;  0.0000000E+00;  3.9888879E+04; -5.0020207E-02;  0.0000000E+00;  1.0299427E-02;  1.3068450E+03;
  7.1745235E-01;  9.9999998E-03; -2.0079022E-02;6805;  2.5783330E-02;  0.0000000E+00; -2.4695846E-04;  9.9784369E+02;  1.1929139E-01; -1.7864679E+03;3; -7.2386708E+00;  0.0000000E+00; -6.3416052E-01;0; -3.9517399E-02;  2.8047389E+04;  0.0000000E+00;  1.7545553E-02;  4.0000000E+04;  0.0000000E+00;  3.9888117E+04; -5.0147913E-02;  0.0000000E+00;  1.0630515E-02;  1.2134702E+03;
  7.1743745E-01;  9.9999998E-03; -1.0040549E-02;6806;  2.5846215E-02;  0.0000000E+00; -1.2458190E-04;  9.9785547E+02;  1.1928820E-01; -1.7766903E+03;3; -7.2614765E+00;  0.0000000E+00; -3.2301998E-01;0; -3.9390121E-02;  2.8050195E+04;  0.0000000E+00;  4.3807579E-03;  4.0000000E+04;  0.0000000E+00;  3.9887738E+04; -5.0223805E-02;  0.0000000E+00;  1.0833683E-02;  1.1477085E+03;
  7.1743208E-01;  9.9999998E-03;  9.2864765E-09;6807;  2.5867078E-02;  0.0000000E+00;  8.7361926E-08;  9.9786066E+02;  1.1928692E-01; -1.7723942E+03;3; -7.2716026E+00;  0.0000000E+00;  4.6741452E-06;0; -3.9346777E-02;  2.8051264E+04;  0.0000000E+00; -6.0029003E-11;  4.0000000E+04;  0.0000000E+00;  3.9887449E+04; -5.0248962E-02;  0.0000000E+00;  1.0902184E-02;  1.1240393E+03;
  7.1743745E-01;  9.9999998E-03;  1.0040567E-02;6808;  2.5846213E-02;  0.0000000E+00;  1.2475706E-04;  9.9785553E+02;  1.1928800E-01; -1.7766410E+03;3; -7.2614861E+00;  0.0000000E+00;  3.2303396E-01;0; -3.9390132E-02;  2.8050197E+04;  0.0000000E+00;  4.3814299E-03;  4.0000000E+04;  0.0000000E+00;  3.9887734E+04; -5.0223809E-02;  0.0000000E+00;  1.0833678E-02;  1.1476984E+03;
  7.1745235E-01;  9.9999998E-03;  2.0079043E-02;6809;  2.5783325E-02;  0.0000000E+00;  2.4713358E-04;  9.9784363E+02;  1.1929139E-01; -1.7865172E+03;3; -7.2386847E+00;  0.0000000E+00;  6.3417512E-01;0; -3.9517324E-02;  2.8047396E+04;  0.0000000E+00;  1.7546965E-02;  4.0000000E+04;  0.0000000E+00;  3.9888117E+04; -5.0147839E-02;  0.0000000E+00;  1.0630515E-02;  1.2134656E+03;
  7.1747279E-01;  9.9999998E-03;  3.0115088E-02;6810;  2.5679819E-02;  0.0000000E+00;  3.6563937E-04;  9.9782422E+02;  1.1929507E-01; -1.8026156E+03;3; -7.1959910E+00;  0.0000000E+00;  9.5033914E-01;0; -3.9720766E-02;  2.8043395E+04;  0.0000000E+00;  3.9517604E-02;  4.0000000E+04;  0.0000000E+00;  3.9888879E+04; -5.0020196E-02;  0.0000000E+00;  1.0299429E-02;  1.3068480E+03;
  7.1749300E-01;  9.9999998E-03;  4.0147971E-02;6811;  2.5537176E-02;  0.0000000E+00;  4.7767776E-04;  9.9780865E+02;  1.1929952E-01; -1.8155040E+03;3; -7.1335478E+00;  0.0000000E+00;  1.2584003E+00;0; -3.9987870E-02;  2.8039562E+04;  0.0000000E+00;  7.0189901E-02;  4.0000000E+04;  0.0000000E+00;  3.9889508E+04; -4.9839757E-02;  0.0000000E+00;  9.8518860E-03;  1.4079396E+03;
  7.1750796E-01;  9.9999998E-03;  5.0176568E-02;6812;  2.5356969E-02;  0.0000000E+00;  5.8071979E-04;  9.9780939E+02;  1.1930332E-01; -1.8148621E+03;3; -7.0588026E+00;  0.0000000E+00;  1.5385009E+00;0; -4.0302232E-02;  2.8036648E+04;  0.0000000E+00;  1.0915910E-01;  4.0000000E+04;  0.0000000E+00;  3.9890266E+04; -4.9606603E-02;  0.0000000E+00;  9.3043707E-03;  1.4957357E+03;
  7.1751493E-01;  9.9999998E-03;  6.0201239E-02;6813;  2.5141438E-02;  0.0000000E+00;  6.7323371E-04;  9.9783881E+02;  1.1930644E-01; -1.7905171E+03;3; -6.9687247E+00;  0.0000000E+00;  1.8011805E+00;0; -4.0644690E-02;  2.8035736E+04;  0.0000000E+00;  1.5552458E-01;  4.0000000E+04;  0.0000000E+00;  3.9890430E+04; -4.9322840E-02;  0.0000000E+00;  8.6781485E-03;  1.5532737E+03;
  7.2950214E-01;  9.9999998E-03; -1.0029081E-01;6858;  2.3360237E-02;  0.0000000E+00; -1.2599656E-03;  9.9857349E+02;  1.2296815E-01; -1.1818430E+03;3; -6.7478228E+00;  0.0000000E+00; -2.7538481E+00;0; -4.4519544E-02;  2.6450256E+04;  0.0000000E+00;  5.8787817E-01;  4.0000000E+04;  0.0000000E+00;  3.9868844E+04; -5.2551057E-02;  0.0000000E+00;  8.0315117E-03;  1.8062070E+03;
  7.2954714E-01;  9.9999998E-03; -9.0266429E-02;6859;  2.3679104E-02;  0.0000000E+00; -1.1958313E-03;  9.9840894E+02;  1.2296848E-01; -1.3181848E+03;3; -6.9094210E+00;  0.0000000E+00; -2.5699022E+00;0; -4.4238150E-02;  2.6441057E+04;  0.0000000E+00;  5.1441354E-01;  4.0000000E+04;  0.0000000E+00;  3.9869820E+04; -5.3108562E-02;  0.0000000E+00;  8.8704135E-03;  1.8204919E+03;
  7.2957504E-01;  9.9999998E-03; -8.0241002E-02;6860;  2.3975803E-02;  0.0000000E+00; -1.1176036E-03;  9.9828223E+02;  1.2296785E-01; -1.4231201E+03;3; -7.0602241E+00;  0.0000000E+00; -2.3679707E+00;0; -4.3890141E-02;  2.6434422E+04;  0.0000000E+00;  4.2935008E-01;  4.0000000E+04;  0.0000000E+00;  3.9870770E+04; -5.3630769E-02;  0.0000000E+00;  9.7406283E-03;  1.8164437E+03;
  7.2958559E-01;  9.9999998E-03; -7.0214711E-02;6861;  2.4246737E-02;  0.0000000E+00; -1.0233644E-03;  9.9819830E+02;  1.2296513E-01; -1.4926490E+03;3; -7.1988969E+00;  0.0000000E+00; -2.1362505E+00;0; -4.3501291E-02;  2.6430873E+04;  0.0000000E+00;  3.4019029E-01;  4.0000000E+04;  0.0000000E+00;  3.9870996E+04; -5.4108791E-02;  0.0000000E+00;  1.0607501E-02;  1.7920020E+03;
  7.2958219E-01;  9.9999998E-03; -6.0187392E-02;6862;  2.4489095E-02;  0.0000000E+00; -9.1308175E-04;  9.9816223E+02;  1.2296334E-01; -1.5225741E+03;3; -7.3166127E+00;  0.0000000E+00; -1.8891668E+00;0; -4.3098144E-02;  2.6429953E+04;  0.0000000E+00;  2.5422853E-01;  4.0000000E+04;  0.0000000E+00;  3.9871301E+04; -5.4535624E-02;  0.0000000E+00;  1.1437481E-02;  1.7450823E+03;
  7.2956830E-01;  9.9999998E-03; -5.0160058E-02;6863;  2.4699546E-02;  0.0000000E+00; -7.8688835E-04;  9.9815137E+02;  1.2296007E-01; -1.5315615E+03;3; -7.4217181E+00;  0.0000000E+00; -1.6092277E+00;0; -4.2706359E-02;  2.6431367E+04;  0.0000000E+00;  1.7723024E-01;  4.0000000E+04;  0.0000000E+00;  3.9871262E+04; -5.4904953E-02;  0.0000000E+00;  1.2198593E-02;  1.6762991E+03;
  7.2954905E-01;  9.9999998E-03; -4.0133096E-02;6864;  2.4875313E-02;  0.0000000E+00; -6.4637657E-04;  9.9816394E+02;  1.2295781E-01; -1.5211421E+03;3; -7.5102305E+00;  0.0000000E+00; -1.3072246E+00;0; -4.2349972E-02;  2.6433965E+04;  0.0000000E+00;  1.1287346E-01;  4.0000000E+04;  0.0000000E+00;  3.9870594E+04; -5.5212513E-02;  0.0000000E+00;  1.2862539E-02;  1.5912264E+03;
  7.2952753E-01;  9.9999998E-03; -3.0104261E-02;6865;  2.5014637E-02;  0.0000000E+00; -4.9479958E-04;  9.9818756E+02;  1.2295540E-01; -1.5015870E+03;3; -7.5796390E+00;  0.0000000E+00; -9.9501920E-01;0; -4.2049430E-02;  2.6437326E+04;  0.0000000E+00;  6.2894240E-02;  4.0000000E+04;  0.0000000E+00;  3.9870160E+04; -5.5454295E-02;  0.0000000E+00;  1.3404864E-02;  1.5010793E+03;
  7.2950733E-01;  9.9999998E-03; -2.0072646E-02;6866;  2.5115490E-02;  0.0000000E+00; -3.3452947E-04;  9.9821356E+02;  1.2295180E-01; -1.4800074E+03;3; -7.6307740E+00;  0.0000000E+00; -6.6935366E-01;0; -4.1821614E-02;  2.6440652E+04;  0.0000000E+00;  2.7672669E-02;  4.0000000E+04;  0.0000000E+00;  3.9869457E+04; -5.5627603E-02;  0.0000000E+00;  1.3805988E-02;  1.4207139E+03;
  7.2949284E-01;  9.9999998E-03; -1.0037897E-02;6867;  2.5176769E-02;  0.0000000E+00; -1.6850988E-04;  9.9823480E+02;  1.2294964E-01; -1.4624276E+03;3; -7.6613054E+00;  0.0000000E+00; -3.3183855E-01;0; -4.1679565E-02;  2.6443125E+04;  0.0000000E+00;  6.8669007E-03;  4.0000000E+04;  0.0000000E+00;  3.9869215E+04; -5.5731732E-02;  0.0000000E+00;  1.4052168E-02;  1.3648282E+03;
  7.2948784E-01;  9.9999998E-03;  9.7051363E-09;6868;  2.5197294E-02;  0.0000000E+00;  8.9330534E-08;  9.9824048E+02;  1.2294933E-01; -1.4577365E+03;3; -7.6699023E+00;  0.0000000E+00;  9.6900358E-06;0; -4.1631341E-02;  2.6443965E+04;  0.0000000E+00; -2.1266702E-11;  4.0000000E+04;  0.0000000E+00;  3.9869035E+04; -5.5766553E-02;  0.0000000E+00;  1.4135213E-02;  1.3447386E+03;
  7.2949284E-01;  9.9999998E-03;  1.0037917E-02;6869;  2.5176769E-02;  0.0000000E+00;  1.6868861E-04;  9.9823499E+02;  1.2295035E-01; -1.4622795E+03;3; -7.6612606E+00;  0.0000000E+00;  3.3185327E-01;0; -4.1679524E-02;  2.6443125E+04;  0.0000000E+00;  6.8665384E-03;  4.0000000E+04;  0.0000000E+00;  3.9869215E+04; -5.5731699E-02;  0.0000000E+00;  1.4052173E-02;  1.3648184E+03;
  7.2950733E-01;  9.9999998E-03;  2.0072667E-02;6870;  2.5115490E-02;  0.0000000E+00;  3.3470860E-04;  9.9821350E+02;  1.2295166E-01; -1.4800568E+03;3; -7.6307697E+00;  0.0000000E+00;  6.6936457E-01;0; -4.1821644E-02;  2.6440656E+04;  0.0000000E+00;  2.7671969E-02;  4.0000000E+04;  0.0000000E+00;  3.9869457E+04; -5.5627648E-02;  0.0000000E+00;  1.3806002E-02;  1.4206910E+03;
  7.2952753E-01;  9.9999998E-03;  3.0104281E-02;6871;  2.5014635E-02;  0.0000000E+00;  4.9497862E-04;  9.9818781E+02;  1.2295516E-01; -1.5013895E+03;3; -7.5796247E+00;  0.0000000E+00;  9.9502283E-01;0; -4.2049419E-02;  2.6437324E+04;  0.0000000E+00;  6.2892407E-02;  4.0000000E+04;  0.0000000E+00;  3.9870156E+04; -5.5454277E-02;  0.0000000E+00;  1.3404858E-02;  1.5010991E+03;
  7.2954905E-01;  9.9999998E-03;  4.0133119E-02;6872;  2.4875307E-02;  0.0000000E+00;  6.4655556E-04;  9.9816394E+02;  1.2295781E-01; -1.5211421E+03;3; -7.5102296E+00;  0.0000000E+00;  1.3072267E+00;0; -4.2350002E-02;  2.6433965E+04;  0.0000000E+00;  1.1287097E-01;  4.0000000E+04;  0.0000000E+00;  3.9870586E+04; -5.5212546E-02;  0.0000000E+00;  1.2862546E-02;  1.5912357E+03;
  7.2956830E-01;  9.9999998E-03;  5.0160080E-02;6873;  2.4699541E-02;  0.0000000E+00;  7.8706781E-04;  9.9815143E+02;  1.2296028E-01; -1.5315121E+03;3; -7.4217091E+00;  0.0000000E+00;  1.6092256E+00;0; -4.2706329E-02;  2.6431363E+04;  0.0000000E+00;  1.7722845E-01;  4.0000000E+04;  0.0000000E+00;  3.9871262E+04; -5.4904923E-02;  0.0000000E+00;  1.2198593E-02;  1.6763011E+03;
  7.2958219E-01;  9.9999998E-03;  6.0187411E-02;6874;  2.4489088E-02;  0.0000000E+00;  9.1326126E-04;  9.9816223E+02;  1.2296270E-01; -1.5225741E+03;3; -7.3166313E+00;  0.0000000E+00;  1.8891748E+00;0; -4.3098114E-02;  2.6429949E+04;  0.0000000E+00;  2.5422636E-01;  4.0000000E+04;  0.0000000E+00;  3.9871301E+04; -5.4535605E-02;  0.0000000E+00;  1.1437489E-02;  1.7450635E+03;
  7.4158287E-01;  9.9999998E-03; -1.0029657E-01;6919;  2.2674173E-02;  0.0000000E+00; -1.6212718E-03;  9.9863837E+02;  1.2681669E-01; -1.1280668E+03;3; -7.0442405E+00;  0.0000000E+00; -2.8842871E+00;0; -4.7199212E-02;  2.4891809E+04;  0.0000000E+00;  6.5796149E-01;  4.0000000E+04;  0.0000000E+00;  3.9848809E+04; -5.7463709E-02;  0.0000000E+00;  1.0264499E-02;  2.1059932E+03;
  7.4164438E-01;  9.9999998E-03; -9.0264484E-02;6920;  2.2983555E-02;  0.0000000E+00; -1.5361811E-03;  9.9854443E+02;  1.2681960E-01; -1.2058917E+03;3; -7.2242084E+00;  0.0000000E+00; -2.6827860E+00;0; -4.6883009E-02;  2.4884121E+04;  0.0000000E+00;  5.8754259E-01;  4.0000000E+04;  0.0000000E+00;  3.9850191E+04; -5.8153443E-02;  0.0000000E+00;  1.1270432E-02;  2.1303213E+03;
  7.4169010E-01;  9.9999998E-03; -8.0231749E-02;6921;  2.3270421E-02;  0.0000000E+00; -1.4328357E-03;  9.9848242E+02;  1.2682231E-01; -1.2572977E+03;3; -7.3892593E+00;  0.0000000E+00; -2.4764869E+00;0; -4.6497308E-02;  2.4878365E+04;  0.0000000E+00;  4.9554604E-01;  4.0000000E+04;  0.0000000E+00;  3.9851312E+04; -5.8803745E-02;  0.0000000E+00;  1.2306438E-02;  2.1188086E+03;
  7.4172115E-01;  9.9999998E-03; -7.0198916E-02;6922;  2.3531411E-02;  0.0000000E+00; -1.3098139E-03;  9.9845502E+02;  1.2682430E-01; -1.2800131E+03;3; -7.5444856E+00;  0.0000000E+00; -2.2354372E+00;0; -4.6070881E-02;  2.4874709E+04;  0.0000000E+00;  3.9363328E-01;  4.0000000E+04;  0.0000000E+00;  3.9852125E+04; -5.9404343E-02;  0.0000000E+00;  1.3333464E-02;  2.0830642E+03;
  7.4174190E-01;  9.9999998E-03; -6.0168173E-02;6923;  2.3763625E-02;  0.0000000E+00; -1.1656600E-03;  9.9845721E+02;  1.2682810E-01; -1.2781860E+03;3; -7.6857810E+00;  0.0000000E+00; -1.9571466E+00;0; -4.5633052E-02;  2.4872824E+04;  0.0000000E+00;  2.9320672E-01;  4.0000000E+04;  0.0000000E+00;  3.9852406E+04; -5.9946500E-02;  0.0000000E+00;  1.4313448E-02;  2.0316471E+03;
  7.4175078E-01;  9.9999998E-03; -5.0139461E-02;6924;  2.3965036E-02;  0.0000000E+00; -1.0022316E-03;  9.9848975E+02;  1.2683144E-01; -1.2512238E+03;3; -7.8040156E+00;  0.0000000E+00; -1.6640549E+00;0; -4.5210090E-02;  2.4872889E+04;  0.0000000E+00;  2.0297088E-01;  4.0000000E+04;  0.0000000E+00;  3.9852371E+04; -6.0419314E-02;  0.0000000E+00;  1.5209224E-02;  1.9699900E+03;
  7.4175096E-01;  9.9999998E-03; -4.0112533E-02;6925;  2.4133259E-02;  0.0000000E+00; -8.2225178E-04;  9.9853571E+02;  1.2683319E-01; -1.2131508E+03;3; -7.9023929E+00;  0.0000000E+00; -1.3573502E+00;0; -4.4826992E-02;  2.4874074E+04;  0.0000000E+00;  1.2812980E-01;  4.0000000E+04;  0.0000000E+00;  3.9852281E+04; -6.0815409E-02;  0.0000000E+00;  1.5988419E-02;  1.9034728E+03;
  7.4174625E-01;  9.9999998E-03; -3.0087130E-02;6926;  2.4266558E-02;  0.0000000E+00; -6.2926370E-04;  9.9858771E+02;  1.2683560E-01; -1.1700409E+03;3; -7.9796896E+00;  0.0000000E+00; -1.0379939E+00;0; -4.4505291E-02;  2.4875965E+04;  0.0000000E+00;  7.0783541E-02;  4.0000000E+04;  0.0000000E+00;  3.9851988E+04; -6.1129011E-02;  0.0000000E+00;  1.6623722E-02;  1.8386748E+03;
  7.4174094E-01;  9.9999998E-03; -2.0061612E-02;6927;  2.4362974E-02;  0.0000000E+00; -4.2508874E-04;  9.9862781E+02;  1.2683600E-01; -1.1368567E+03;3; -8.0411930E+00;  0.0000000E+00; -6.9229281E-01;0; -4.4262670E-02;  2.4877664E+04;  0.0000000E+00;  3.0932236E-02;  4.0000000E+04;  0.0000000E+00;  3.9851516E+04; -6.1356410E-02;  0.0000000E+00;  1.7093742E-02;  1.7833170E+03;
  7.4173695E-01;  9.9999998E-03; -1.0033019E-02;6928;  2.4421444E-02;  0.0000000E+00; -2.1427666E-04;  9.9866101E+02;  1.2683789E-01; -1.1093513E+03;3; -8.0744066E+00;  0.0000000E+00; -3.4788251E-01;0; -4.4111803E-02;  2.4878893E+04;  0.0000000E+00;  7.6445960E-03;  4.0000000E+04;  0.0000000E+00;  3.9851141E+04; -6.1494235E-02;  0.0000000E+00;  1.7382430E-02;  1.7453495E+03;
  7.4173540E-01;  9.9999998E-03;  1.0208950E-08;6929;  2.4441127E-02;  0.0000000E+00;  9.1538354E-08;  9.9867065E+02;  1.2683794E-01; -1.1013514E+03;3; -8.0844860E+00;  0.0000000E+00;  7.6717088E-06;0; -4.4060647E-02;  2.4879432E+04;  0.0000000E+00;  2.8645482E-11;  4.0000000E+04;  0.0000000E+00;  3.9851062E+04; -6.1540432E-02;  0.0000000E+00;  1.7479783E-02;  1.7317708E+03;
  7.4173695E-01;  9.9999998E-03;  1.0033039E-02;6930;  2.4421442E-02;  0.0000000E+00;  2.1445975E-04;  9.9866101E+02;  1.2683730E-01; -1.1093513E+03;3; -8.0744791E+00;  0.0000000E+00;  3.4789723E-01;0; -4.4111863E-02;  2.4878891E+04;  0.0000000E+00;  7.6435148E-03;  4.0000000E+04;  0.0000000E+00;  3.9851141E+04; -6.1494280E-02;  0.0000000E+00;  1.7382419E-02;  1.7453596E+03;
  7.4174094E-01;  9.9999998E-03;  2.0061633E-02;6931;  2.4362972E-02;  0.0000000E+00;  4.2527210E-04;  9.9862775E+02;  1.2683608E-01; -1.1369060E+03;3; -8.0411692E+00;  0.0000000E+00;  6.9230509E-01;0; -4.4262629E-02;  2.4877666E+04;  0.0000000E+00;  3.0929895E-02;  4.0000000E+04;  0.0000000E+00;  3.9851512E+04; -6.1356392E-02;  0.0000000E+00;  1.7093763E-02;  1.7833309E+03;
  7.4174625E-01;  9.9999998E-03;  3.0087151E-02;6932;  2.4266558E-02;  0.0000000E+00;  6.2944688E-04;  9.9858771E+02;  1.2683499E-01; -1.1700409E+03;3; -7.9796996E+00;  0.0000000E+00;  1.0379939E+00;0; -4.4505298E-02;  2.4875967E+04;  0.0000000E+00;  7.0780620E-02;  4.0000000E+04;  0.0000000E+00;  3.9851984E+04; -6.1129037E-02;  0.0000000E+00;  1.6623739E-02;  1.8386627E+03;
  7.4175096E-01;  9.9999998E-03;  4.0112555E-02;6933;  2.4133258E-02;  0.0000000E+00;  8.2243502E-04;  9.9853564E+02;  1.2683287E-01; -1.2132002E+03;3; -7.9023895E+00;  0.0000000E+00;  1.3573606E+00;0; -4.4826981E-02;  2.4874080E+04;  0.0000000E+00;  1.2812701E-01;  4.0000000E+04;  0.0000000E+00;  3.9852273E+04; -6.0815394E-02;  0.0000000E+00;  1.5988413E-02;  1.9034695E+03;
  7.4175078E-01;  9.9999998E-03;  5.0139483E-02;6934;  2.3965031E-02;  0.0000000E+00;  1.0024147E-03;  9.9848981E+02;  1.2683111E-01; -1.2511744E+03;3; -7.8040004E+00;  0.0000000E+00;  1.6640555E+00;0; -4.5210019E-02;  2.4872891E+04;  0.0000000E+00;  2.0296361E-01;  4.0000000E+04;  0.0000000E+00;  3.9852371E+04; -6.0419247E-02;  0.0000000E+00;  1.5209230E-02;  1.9700040E+03;
  7.4174190E-01;  9.9999998E-03;  6.0168196E-02;6935;  2.3763618E-02;  0.0000000E+00;  1.1658437E-03;  9.9845721E+02;  1.2682773E-01; -1.2781860E+03;3; -7.6857991E+00;  0.0000000E+00;  1.9571398E+00;0; -4.5632977E-02;  2.4872828E+04;  0.0000000E+00;  2.9320115E-01;  4.0000000E+04;  0.0000000E+00;  3.9852406E+04; -5.9946418E-02;  0.0000000E+00;  1.4313442E-02;  2.0316348E+03;
  7.5449711E-01;  9.9999998E-03; -1.0032069E-01;6980;  2.1890191E-02;  0.0000000E+00; -2.0239882E-03;  9.9868994E+02;  1.3108593E-01; -1.0853519E+03;3; -7.3662791E+00;  0.0000000E+00; -3.0061111E+00;0; -5.0130527E-02;  2.3315738E+04;  0.0000000E+00;  5.6569165E-01;  4.0000000E+04;  0.0000000E+00;  3.9827500E+04; -6.2889084E-02;  0.0000000E+00;  1.2758558E-02;  2.1954871E+03;
  7.5458735E-01;  9.9999998E-03; -9.0283327E-02;6981;  2.2187244E-02;  0.0000000E+00; -1.9114503E-03;  9.9869055E+02;  1.3109300E-01; -1.0848582E+03;3; -7.5628920E+00;  0.0000000E+00; -2.8000579E+00;0; -4.9801685E-02;  2.3309324E+04;  0.0000000E+00;  5.1745278E-01;  4.0000000E+04;  0.0000000E+00;  3.9829328E+04; -6.3740604E-02;  0.0000000E+00;  1.3938918E-02;  2.2973386E+03;
  7.5464654E-01;  9.9999998E-03; -8.0244958E-02;6982;  2.2461552E-02;  0.0000000E+00; -1.7761607E-03;  9.9870898E+02;  1.3109750E-01; -1.0695992E+03;3; -7.7501516E+00;  0.0000000E+00; -2.5761621E+00;0; -4.9395826E-02;  2.3305168E+04;  0.0000000E+00;  4.4108057E-01;  4.0000000E+04;  0.0000000E+00;  3.9830613E+04; -6.4536475E-02;  0.0000000E+00;  1.5140648E-02;  2.3413306E+03;
  7.5466895E-01;  9.9999998E-03; -7.0209354E-02;6983;  2.2711322E-02;  0.0000000E+00; -1.6163699E-03;  9.9874316E+02;  1.3109714E-01; -1.0412544E+03;3; -7.9246845E+00;  0.0000000E+00; -2.3137422E+00;0; -4.8943192E-02;  2.3304189E+04;  0.0000000E+00;  3.5056138E-01;  4.0000000E+04;  0.0000000E+00;  3.9831547E+04; -6.5261200E-02;  0.0000000E+00;  1.6318008E-02;  2.3444370E+03;
  7.5465906E-01;  9.9999998E-03; -6.0178377E-02;6984;  2.2934381E-02;  0.0000000E+00; -1.4323969E-03;  9.9879852E+02;  1.3109307E-01; -9.9537915E+02;3; -8.0788736E+00;  0.0000000E+00; -2.0283031E+00;0; -4.8475005E-02;  2.3305986E+04;  0.0000000E+00;  2.5944626E-01;  4.0000000E+04;  0.0000000E+00;  3.9832148E+04; -6.5903820E-02;  0.0000000E+00;  1.7428815E-02;  2.3225479E+03;
  7.5462914E-01;  9.9999998E-03; -5.0149325E-02;6985;  2.3128266E-02;  0.0000000E+00; -1.2269572E-03;  9.9886401E+02;  1.3108607E-01; -9.4115851E+02;3; -8.2132616E+00;  0.0000000E+00; -1.7202207E+00;0; -4.8022464E-02;  2.3309611E+04;  0.0000000E+00;  1.7765723E-01;  4.0000000E+04;  0.0000000E+00;  3.9832738E+04; -6.6458590E-02;  0.0000000E+00;  1.8436126E-02;  2.2894412E+03;
  7.5459135E-01;  9.9999998E-03; -4.0120207E-02;6986;  2.3290742E-02;  0.0000000E+00; -1.0039861E-03;  9.9893506E+02;  1.3107908E-01; -8.8229596E+02;3; -8.3213186E+00;  0.0000000E+00; -1.4058143E+00;0; -4.7613047E-02;  2.3314289E+04;  0.0000000E+00;  1.1069509E-01;  4.0000000E+04;  0.0000000E+00;  3.9832695E+04; -6.6920765E-02;  0.0000000E+00;  1.9307718E-02;  2.2557808E+03;
  7.5455332E-01;  9.9999998E-03; -3.0092347E-02;6987;  2.3419663E-02;  0.0000000E+00; -7.6598988E-04;  9.9900018E+02;  1.3107242E-01; -8.2832220E+02;3; -8.4093256E+00;  0.0000000E+00; -1.0645964E+00;0; -4.7269858E-02;  2.3318760E+04;  0.0000000E+00;  6.0376611E-02;  4.0000000E+04;  0.0000000E+00;  3.9832609E+04; -6.7285337E-02;  0.0000000E+00;  2.0015480E-02;  2.2275239E+03;
  7.5452131E-01;  9.9999998E-03; -2.0065643E-02;6988;  2.3513269E-02;  0.0000000E+00; -5.1658828E-04;  9.9905750E+02;  1.3106747E-01; -7.8086676E+02;3; -8.4759245E+00;  0.0000000E+00; -7.1255040E-01;0; -4.7011241E-02;  2.3322545E+04;  0.0000000E+00;  2.6119368E-02;  4.0000000E+04;  0.0000000E+00;  3.9832523E+04; -6.7548409E-02;  0.0000000E+00;  2.0537170E-02;  2.2064736E+03;
  7.5449812E-01;  9.9999998E-03; -1.0035843E-02;6989;  2.3570254E-02;  0.0000000E+00; -2.6015268E-04;  9.9909290E+02;  1.3106379E-01; -7.5153424E+02;3; -8.5121069E+00;  0.0000000E+00; -3.5923797E-01;0; -4.6850041E-02;  2.3325111E+04;  0.0000000E+00;  6.4173937E-03;  4.0000000E+04;  0.0000000E+00;  3.9832672E+04; -6.7706384E-02;  0.0000000E+00;  2.0856343E-02;  2.1931355E+03;
  7.5448930E-01;  9.9999998E-03;  1.0508322E-08;6990;  2.3589524E-02;  0.0000000E+00;  9.4035812E-08;  9.9910699E+02;  1.3106270E-01; -7.3983087E+02;3; -8.5231390E+00;  0.0000000E+00;  6.8179088E-06;0; -4.6795174E-02;  2.3326002E+04;  0.0000000E+00;  8.0865183E-11;  4.0000000E+04;  0.0000000E+00;  3.9832434E+04; -6.7758851E-02;  0.0000000E+00;  2.0963676E-02;  2.1885054E+03;
  7.5449812E-01;  9.9999998E-03;  1.0035864E-02;6991;  2.3570254E-02;  0.0000000E+00;  2.6034069E-04;  9.9909290E+02;  1.3106379E-01; -7.5153424E+02;3; -8.5121040E+00;  0.0000000E+00;  3.5925716E-01;0; -4.6850067E-02;  2.3325109E+04;  0.0000000E+00;  6.4155385E-03;  4.0000000E+04;  0.0000000E+00;  3.9832676E+04; -6.7706406E-02;  0.0000000E+00;  2.0856339E-02;  2.1931555E+03;
  7.5452131E-01;  9.9999998E-03;  2.0065663E-02;6992;  2.3513265E-02;  0.0000000E+00;  5.1677699E-04;  9.9905750E+02;  1.3106745E-01; -7.8086676E+02;3; -8.4759407E+00;  0.0000000E+00;  7.1256667E-01;0; -4.7011241E-02;  2.3322549E+04;  0.0000000E+00;  2.6116310E-02;  4.0000000E+04;  0.0000000E+00;  3.9832527E+04; -6.7548409E-02;  0.0000000E+00;  2.0537170E-02;  2.2064377E+03;
  7.5455332E-01;  9.9999998E-03;  3.0092370E-02;6993;  2.3419661E-02;  0.0000000E+00;  7.6617714E-04;  9.9900000E+02;  1.3107251E-01; -8.2847034E+02;3; -8.4093437E+00;  0.0000000E+00;  1.0646049E+00;0; -4.7269825E-02;  2.3318764E+04;  0.0000000E+00;  6.0371879E-02;  4.0000000E+04;  0.0000000E+00;  3.9832609E+04; -6.7285307E-02;  0.0000000E+00;  2.0015482E-02;  2.2275095E+03;
  7.5459135E-01;  9.9999998E-03;  4.0120229E-02;6994;  2.3290737E-02;  0.0000000E+00;  1.0041737E-03;  9.9893512E+02;  1.3107881E-01; -8.8224658E+02;3; -8.3213263E+00;  0.0000000E+00;  1.4058094E+00;0; -4.7612995E-02;  2.3314285E+04;  0.0000000E+00;  1.1069018E-01;  4.0000000E+04;  0.0000000E+00;  3.9832703E+04; -6.6920735E-02;  0.0000000E+00;  1.9307742E-02;  2.2557769E+03;
  7.5462914E-01;  9.9999998E-03;  5.0149348E-02;6995;  2.3128262E-02;  0.0000000E+00;  1.2271425E-03;  9.9886407E+02;  1.3108566E-01; -9.4110913E+02;3; -8.2132902E+00;  0.0000000E+00;  1.7202091E+00;0; -4.8022382E-02;  2.3309609E+04;  0.0000000E+00;  1.7765205E-01;  4.0000000E+04;  0.0000000E+00;  3.9832734E+04; -6.6458516E-02;  0.0000000E+00;  1.8436132E-02;  2.2894446E+03;
  7.5465906E-01;  9.9999998E-03;  6.0178399E-02;6996;  2.2934373E-02;  0.0000000E+00;  1.4325836E-03;  9.9879858E+02;  1.3109291E-01; -9.9532977E+02;3; -8.0788870E+00;  0.0000000E+00;  2.0282967E+00;0; -4.8475031E-02;  2.3305986E+04;  0.0000000E+00;  2.5943825E-01;  4.0000000E+04;  0.0000000E+00;  3.9832152E+04; -6.5903850E-02;  0.0000000E+00;  1.7428819E-02;  2.3225435E+03;
  7.6838237E-01;  9.9999998E-03; -1.0014397E-01;7041;  2.0999050E-02;  0.0000000E+00; -2.4514631E-03;  9.9897864E+02;  1.3590510E-01; -8.4619824E+02;3; -7.7180057E+00;  0.0000000E+00; -3.1215248E+00;0; -5.3468548E-02;  2.1717059E+04;  0.0000000E+00;  2.9983637E-01;  4.0000000E+04;  0.0000000E+00;  3.9804883E+04; -6.9019854E-02;  0.0000000E+00;  1.5551306E-02;  2.0862253E+03;
  7.6855987E-01;  9.9999998E-03; -9.0112850E-02;7042;  2.1275165E-02;  0.0000000E+00; -2.3050909E-03;  9.9906958E+02;  1.3593638E-01; -7.7084235E+02;3; -7.9397378E+00;  0.0000000E+00; -2.9037216E+00;0; -5.3169489E-02;  2.1705617E+04;  0.0000000E+00;  2.8654209E-01;  4.0000000E+04;  0.0000000E+00;  3.9806898E+04; -7.0088133E-02;  0.0000000E+00;  1.6918644E-02;  2.3183850E+03;
  7.6869375E-01;  9.9999998E-03; -8.0085620E-02;7043;  2.1528693E-02;  0.0000000E+00; -2.1307941E-03;  9.9916547E+02;  1.3596077E-01; -6.9138782E+02;3; -8.1507158E+00;  0.0000000E+00; -2.6543031E+00;0; -5.2785512E-02;  2.1697258E+04;  0.0000000E+00;  2.4720675E-01;  4.0000000E+04;  0.0000000E+00;  3.9808426E+04; -7.1078539E-02;  0.0000000E+00;  1.8293027E-02;  2.4658511E+03;
  7.6878589E-01;  9.9999998E-03; -7.0063449E-02;7044;  2.1757988E-02;  0.0000000E+00; -1.9288572E-03;  9.9926093E+02;  1.3597663E-01; -6.1232831E+02;3; -8.3441582E+00;  0.0000000E+00; -2.3743289E+00;0; -5.2350678E-02;  2.1691834E+04;  0.0000000E+00;  1.9448586E-01;  4.0000000E+04;  0.0000000E+00;  3.9809426E+04; -7.1978375E-02;  0.0000000E+00;  1.9627696E-02;  2.5420566E+03;
  7.6884234E-01;  9.9999998E-03; -6.0046267E-02;7045;  2.1961670E-02;  0.0000000E+00; -1.7013475E-03;  9.9936414E+02;  1.3598759E-01; -5.2679987E+02;3; -8.5157986E+00;  0.0000000E+00; -2.0802794E+00;0; -5.1897988E-02;  2.1688967E+04;  0.0000000E+00;  1.4016439E-01;  4.0000000E+04;  0.0000000E+00;  3.9809879E+04; -7.2777055E-02;  0.0000000E+00;  2.0879066E-02;  2.5698567E+03;
  7.6886839E-01;  9.9999998E-03; -5.0032735E-02;7046;  2.2138825E-02;  0.0000000E+00; -1.4519154E-03;  9.9946289E+02;  1.3599280E-01; -4.4497504E+02;3; -8.6612406E+00;  0.0000000E+00; -1.7740774E+00;0; -5.1457934E-02;  2.1688301E+04;  0.0000000E+00;  9.2394166E-02;  4.0000000E+04;  0.0000000E+00;  3.9810281E+04; -7.3465116E-02;  0.0000000E+00;  2.2007184E-02;  2.5757615E+03;
  7.6886785E-01;  9.9999998E-03; -4.0020190E-02;7047;  2.2287762E-02;  0.0000000E+00; -1.1839557E-03;  9.9955243E+02;  1.3599266E-01; -3.7080429E+02;3; -8.7883930E+00;  0.0000000E+00; -1.4435409E+00;0; -5.1056392E-02;  2.1689574E+04;  0.0000000E+00;  5.5031221E-02;  4.0000000E+04;  0.0000000E+00;  3.9810379E+04; -7.4033111E-02;  0.0000000E+00;  2.2976721E-02;  2.5817207E+03;
  7.6885223E-01;  9.9999998E-03; -3.0010376E-02;7048;  2.2406882E-02;  0.0000000E+00; -9.0094295E-04;  9.9963470E+02;  1.3599016E-01; -3.0265808E+02;3; -8.8874321E+00;  0.0000000E+00; -1.0896615E+00;0; -5.0717719E-02;  2.1691742E+04;  0.0000000E+00;  2.8644130E-02;  4.0000000E+04;  0.0000000E+00;  3.9810598E+04; -7.4477337E-02;  0.0000000E+00;  2.3759617E-02;  2.5964473E+03;
  7.6883817E-01;  9.9999998E-03; -2.0005792E-02;7049;  2.2493701E-02;  0.0000000E+00; -6.0662621E-04;  9.9969281E+02;  1.3598827E-01; -2.5451131E+02;3; -8.9570332E+00;  0.0000000E+00; -7.3407376E-01;0; -5.0462991E-02;  2.1693637E+04;  0.0000000E+00;  1.1890561E-02;  4.0000000E+04;  0.0000000E+00;  3.9810809E+04; -7.4798584E-02;  0.0000000E+00;  2.4335591E-02;  2.6162200E+03;
  7.6882988E-01;  9.9999998E-03; -1.0003587E-02;7050;  2.2546420E-02;  0.0000000E+00; -3.0512112E-04;  9.9973395E+02;  1.3598725E-01; -2.2043819E+02;3; -8.9994459E+00;  0.0000000E+00; -3.7252319E-01;0; -5.0305225E-02;  2.1694713E+04;  0.0000000E+00;  2.8403278E-03;  4.0000000E+04;  0.0000000E+00;  3.9811027E+04; -7.4993640E-02;  0.0000000E+00;  2.4688417E-02;  2.6328428E+03;
  7.6882809E-01;  9.9999998E-03;  1.0845711E-08;7051;  2.2564156E-02;  0.0000000E+00;  9.6510085E-08;  9.9975037E+02;  1.3598800E-01; -2.0680894E+02;3; -9.0106173E+00;  0.0000000E+00;  7.7164332E-06;0; -5.0252110E-02;  2.1695006E+04;  0.0000000E+00;  1.3439189E-10;  4.0000000E+04;  0.0000000E+00;  3.9811078E+04; -7.5059615E-02;  0.0000000E+00;  2.4807503E-02;  2.6391907E+03;
  7.6882982E-01;  9.9999998E-03;  1.0003609E-02;7052;  2.2546418E-02;  0.0000000E+00;  3.0531496E-04;  9.9973407E+02;  1.3598734E-01; -2.2033943E+02;3; -8.9994211E+00;  0.0000000E+00;  3.7254518E-01;0; -5.0305296E-02;  2.1694715E+04;  0.0000000E+00;  2.8387918E-03;  4.0000000E+04;  0.0000000E+00;  3.9811027E+04; -7.4993700E-02;  0.0000000E+00;  2.4688404E-02;  2.6328320E+03;
  7.6883817E-01;  9.9999998E-03;  2.0005815E-02;7053;  2.2493696E-02;  0.0000000E+00;  6.0682074E-04;  9.9969275E+02;  1.3598850E-01; -2.5456068E+02;3; -8.9570150E+00;  0.0000000E+00;  7.3408782E-01;0; -5.0462976E-02;  2.1693631E+04;  0.0000000E+00;  1.1887577E-02;  4.0000000E+04;  0.0000000E+00;  3.9810809E+04; -7.4798584E-02;  0.0000000E+00;  2.4335606E-02;  2.6162297E+03;
  7.6885223E-01;  9.9999998E-03;  3.0010398E-02;7054;  2.2406878E-02;  0.0000000E+00;  9.0113521E-04;  9.9963470E+02;  1.3599016E-01; -3.0265808E+02;3; -8.8874578E+00;  0.0000000E+00;  1.0896714E+00;0; -5.0717782E-02;  2.1691736E+04;  0.0000000E+00;  2.8639883E-02;  4.0000000E+04;  0.0000000E+00;  3.9810598E+04; -7.4477382E-02;  0.0000000E+00;  2.3759600E-02;  2.5964399E+03;
  7.6886785E-01;  9.9999998E-03;  4.0020213E-02;7055;  2.2287756E-02;  0.0000000E+00;  1.1841499E-03;  9.9955249E+02;  1.3599266E-01; -3.7075491E+02;3; -8.7884178E+00;  0.0000000E+00;  1.4435314E+00;0; -5.1056422E-02;  2.1689574E+04;  0.0000000E+00;  5.5028301E-02;  4.0000000E+04;  0.0000000E+00;  3.9810379E+04; -7.4033163E-02;  0.0000000E+00;  2.2976741E-02;  2.5817109E+03;
  7.6886839E-01;  9.9999998E-03;  5.0032753E-02;7056;  2.2138821E-02;  0.0000000E+00;  1.4521070E-03;  9.9946277E+02;  1.3599271E-01; -4.4507379E+02;3; -8.6612387E+00;  0.0000000E+00;  1.7740755E+00;0; -5.1457919E-02;  2.1688293E+04;  0.0000000E+00;  9.2388965E-02;  4.0000000E+04;  0.0000000E+00;  3.9810285E+04; -7.3465094E-02;  0.0000000E+00;  2.2007177E-02;  2.5757288E+03;
  7.6884234E-01;  9.9999998E-03;  6.0046289E-02;7057;  2.1961667E-02;  0.0000000E+00;  1.7015422E-03;  9.9936432E+02;  1.3598765E-01; -5.2665173E+02;3; -8.5158157E+00;  0.0000000E+00;  2.0802777E+00;0; -5.1898088E-02;  2.1688967E+04;  0.0000000E+00;  1.4016035E-01;  4.0000000E+04;  0.0000000E+00;  3.9809875E+04; -7.2777152E-02;  0.0000000E+00;  2.0879064E-02;  2.5698572E+03;
  7.8257084E-01;  9.9999998E-03; -1.0003977E-01;7102;  2.0013744E-02;  0.0000000E+00; -2.8612011E-03;  9.9951160E+02;  1.4114845E-01; -4.0463049E+02;3; -8.0795116E+00;  0.0000000E+00; -3.2315712E+00;0; -5.7223473E-02;  2.0164873E+04;  0.0000000E+00; -6.2781855E-02;  4.0000000E+04;  0.0000000E+00;  3.9781324E+04; -7.5638846E-02;  0.0000000E+00;  1.8415373E-02;  2.0756348E+03;
  7.8252840E-01;  9.9999998E-03; -9.0024509E-02;7103;  2.0284755E-02;  0.0000000E+00; -2.6657810E-03;  9.9954272E+02;  1.4110669E-01; -3.7885345E+02;3; -8.3226995E+00;  0.0000000E+00; -2.9890623E+00;0; -5.6901313E-02;  2.0171379E+04;  0.0000000E+00; -3.1722456E-02;  4.0000000E+04;  0.0000000E+00;  3.9783609E+04; -7.6794021E-02;  0.0000000E+00;  1.9892707E-02;  2.3630933E+03;
  7.8247333E-01;  9.9999998E-03; -8.0024555E-02;7104;  2.0531360E-02;  0.0000000E+00; -2.4427951E-03;  9.9958173E+02;  1.4106953E-01; -3.4650870E+02;3; -8.5521259E+00;  0.0000000E+00; -2.7135937E+00;0; -5.6494355E-02;  2.0177979E+04;  0.0000000E+00; -1.8775798E-02;  4.0000000E+04;  0.0000000E+00;  3.9785316E+04; -7.7855311E-02;  0.0000000E+00;  2.1360958E-02;  2.5390723E+03;
  7.8249204E-01;  9.9999998E-03; -7.0032671E-02;7105;  2.0746684E-02;  0.0000000E+00; -2.1957485E-03;  9.9964612E+02;  1.4106458E-01; -2.9317688E+02;3; -8.7577524E+00;  0.0000000E+00; -2.4322519E+00;0; -5.6063093E-02;  2.0177137E+04;  0.0000000E+00; -1.7551001E-02;  4.0000000E+04;  0.0000000E+00;  3.9785727E+04; -7.8857996E-02;  0.0000000E+00;  2.2794902E-02;  2.6168777E+03;
  7.8250706E-01;  9.9999998E-03; -6.0040370E-02;7106;  2.0936411E-02;  0.0000000E+00; -1.9267286E-03;  9.9971521E+02;  1.4106417E-01; -2.3594392E+02;3; -8.9418755E+00;  0.0000000E+00; -2.1342185E+00;0; -5.5618126E-02;  2.0175818E+04;  0.0000000E+00; -1.9235892E-02;  4.0000000E+04;  0.0000000E+00;  3.9785926E+04; -7.9754159E-02;  0.0000000E+00;  2.4136033E-02;  2.6373926E+03;
  7.8250492E-01;  9.9999998E-03; -5.0040804E-02;7107;  2.1101048E-02;  0.0000000E+00; -1.6386892E-03;  9.9978552E+02;  1.4106148E-01; -1.7767398E+02;3; -9.1028814E+00;  0.0000000E+00; -1.8211612E+00;0; -5.5184595E-02;  2.0175770E+04;  0.0000000E+00; -1.9296013E-02;  4.0000000E+04;  0.0000000E+00;  3.9785902E+04; -8.0526479E-02;  0.0000000E+00;  2.5341885E-02;  2.6463499E+03;
  7.8249222E-01;  9.9999998E-03; -4.0034693E-02;7108;  2.1239504E-02;  0.0000000E+00; -1.3339437E-03;  9.9985034E+02;  1.4105643E-01; -1.2399648E+02;3; -9.2400360E+00;  0.0000000E+00; -1.4834650E+00;0; -5.4790303E-02;  2.0176420E+04;  0.0000000E+00; -1.6392477E-02;  4.0000000E+04;  0.0000000E+00;  3.9786199E+04; -8.1168339E-02;  0.0000000E+00;  2.6378036E-02;  2.6740083E+03;
  7.8248149E-01;  9.9999998E-03; -3.0022701E-02;7109;  2.1349715E-02;  0.0000000E+00; -1.0136446E-03;  9.9990948E+02;  1.4105359E-01; -7.5010216E+01;3; -9.3520803E+00;  0.0000000E+00; -1.1209744E+00;0; -5.4460205E-02;  2.0176844E+04;  0.0000000E+00; -1.1327622E-02;  4.0000000E+04;  0.0000000E+00;  3.9786625E+04; -8.1677124E-02;  0.0000000E+00;  2.7216917E-02;  2.7270400E+03;
  7.8247565E-01;  9.9999998E-03; -2.0010401E-02;7110;  2.1429997E-02;  0.0000000E+00; -6.8236236E-04;  9.9995569E+02;  1.4105447E-01; -3.6690319E+01;3; -9.4301558E+00;  0.0000000E+00; -7.5491315E-01;0; -5.4212742E-02;  2.0177049E+04;  0.0000000E+00; -5.7893493E-03;  4.0000000E+04;  0.0000000E+00;  3.9787223E+04; -8.2047127E-02;  0.0000000E+00;  2.7834384E-02;  2.7893726E+03;
  7.8247309E-01;  9.9999998E-03; -1.0003598E-02;7111;  2.1478904E-02;  0.0000000E+00; -3.4312138E-04;  9.9998901E+02;  1.4105345E-01; -9.0861626E+00;3; -9.4723368E+00;  0.0000000E+00; -3.7630934E-01;0; -5.4059517E-02;  2.0176922E+04;  0.0000000E+00; -1.5671497E-03;  4.0000000E+04;  0.0000000E+00;  3.9787590E+04; -8.2271650E-02;  0.0000000E+00;  2.8212134E-02;  2.8381965E+03;
  7.8247231E-01;  9.9999998E-03;  1.1069555E-08;7112;  2.1495331E-02;  0.0000000E+00;  9.9631315E-08;  1.0000029E+03;  1.4105380E-01;  2.3703032E+00;3; -9.4868793E+00;  0.0000000E+00;  1.8645214E-05;0; -5.4007698E-02;  2.0176902E+04;  0.0000000E+00;  1.6590988E-10;  4.0000000E+04;  0.0000000E+00;  3.9787684E+04; -8.2346931E-02;  0.0000000E+00;  2.8339233E-02;  2.8565337E+03;
  7.8247309E-01;  9.9999998E-03;  1.0003620E-02;7113;  2.1478903E-02;  0.0000000E+00;  3.4331990E-04;  9.9998901E+02;  1.4105396E-01; -9.0861626E+00;3; -9.4723597E+00;  0.0000000E+00;  3.7630287E-01;0; -5.4059550E-02;  2.0176936E+04;  0.0000000E+00; -1.5678960E-03;  4.0000000E+04;  0.0000000E+00;  3.9787590E+04; -8.2271688E-02;  0.0000000E+00;  2.8212139E-02;  2.8381824E+03;
  7.8247565E-01;  9.9999998E-03;  2.0010423E-02;7114;  2.1429995E-02;  0.0000000E+00;  6.8256236E-04;  9.9995563E+02;  1.4105430E-01; -3.6739700E+01;3; -9.4301472E+00;  0.0000000E+00;  7.5492895E-01;0; -5.4212719E-02;  2.0177045E+04;  0.0000000E+00; -5.7906942E-03;  4.0000000E+04;  0.0000000E+00;  3.9787219E+04; -8.2047127E-02;  0.0000000E+00;  2.7834406E-02;  2.7893638E+03;
  7.8248149E-01;  9.9999998E-03;  3.0022724E-02;7115;  2.1349713E-02;  0.0000000E+00;  1.0138411E-03;  9.9990936E+02;  1.4105347E-01; -7.5108978E+01;3; -9.3520842E+00;  0.0000000E+00;  1.1209797E+00;0; -5.4460295E-02;  2.0176844E+04;  0.0000000E+00; -1.1329796E-02;  4.0000000E+04;  0.0000000E+00;  3.9786629E+04; -8.1677236E-02;  0.0000000E+00;  2.7216943E-02;  2.7270627E+03;
  7.8249222E-01;  9.9999998E-03;  4.0034715E-02;7116;  2.1239500E-02;  0.0000000E+00;  1.3341396E-03;  9.9985028E+02;  1.4105670E-01; -1.2404587E+02;3; -9.2399826E+00;  0.0000000E+00;  1.4834528E+00;0; -5.4790296E-02;  2.0176424E+04;  0.0000000E+00; -1.6395111E-02;  4.0000000E+04;  0.0000000E+00;  3.9786199E+04; -8.1168339E-02;  0.0000000E+00;  2.6378041E-02;  2.6739949E+03;
  7.8250492E-01;  9.9999998E-03;  5.0040826E-02;7117;  2.1101041E-02;  0.0000000E+00;  1.6388869E-03;  9.9978540E+02;  1.4106137E-01; -1.7777274E+02;3; -9.1028996E+00;  0.0000000E+00;  1.8211900E+00;0; -5.5184618E-02;  2.0175768E+04;  0.0000000E+00; -1.9299250E-02;  4.0000000E+04;  0.0000000E+00;  3.9785906E+04; -8.0526523E-02;  0.0000000E+00;  2.5341904E-02;  2.6463464E+03;
  7.8250706E-01;  9.9999998E-03;  6.0040392E-02;7118;  2.0936403E-02;  0.0000000E+00;  1.9269288E-03;  9.9971539E+02;  1.4106429E-01; -2.3579578E+02;3; -8.9418774E+00;  0.0000000E+00;  2.1341972E+00;0; -5.5618107E-02;  2.0175818E+04;  0.0000000E+00; -1.9237593E-02;  4.0000000E+04;  0.0000000E+00;  3.9785930E+04; -7.9754151E-02;  0.0000000E+00;  2.4136042E-02;  2.6374172E+03;
  7.9677653E-01;  9.9999998E-03; -1.0011578E-01;7163;  1.8927369E-02;  0.0000000E+00; -3.2266541E-03;  9.9968066E+02;  1.4676504E-01; -2.6458508E+02;3; -8.4520864E+00;  0.0000000E+00; -3.3140919E+00;0; -6.1471310E-02;  1.8667039E+04;  0.0000000E+00; -4.1652822E-01;  4.0000000E+04;  0.0000000E+00;  3.9756344E+04; -8.2638279E-02;  0.0000000E+00;  2.1166969E-02;  2.4683762E+03;
  7.9675484E-01;  9.9999998E-03; -9.0110496E-02;7164;  1.9174235E-02;  0.0000000E+00; -2.9845706E-03;  9.9964374E+02;  1.4673175E-01; -2.9515213E+02;3; -8.7156763E+00;  0.0000000E+00; -3.0565562E+00;0; -6.1207682E-02;  1.8668898E+04;  0.0000000E+00; -3.5390997E-01;  4.0000000E+04;  0.0000000E+00;  3.9757988E+04; -8.4007807E-02;  0.0000000E+00;  2.2800123E-02;  2.6309158E+03;
  7.9672593E-01;  9.9999998E-03; -8.0120057E-02;7165;  1.9397318E-02;  0.0000000E+00; -2.7167238E-03;  9.9961395E+02;  1.4669739E-01; -3.1984277E+02;3; -8.9589901E+00;  0.0000000E+00; -2.7838092E+00;0; -6.0849592E-02;  1.8671254E+04;  0.0000000E+00; -2.9526693E-01;  4.0000000E+04;  0.0000000E+00;  3.9758648E+04; -8.5257307E-02;  0.0000000E+00;  2.4407716E-02;  2.6831135E+03;
  7.9669678E-01;  9.9999998E-03; -7.0130959E-02;7166;  1.9596083E-02;  0.0000000E+00; -2.4277468E-03;  9.9959070E+02;  1.4666595E-01; -3.3910150E+02;3; -9.1862011E+00;  0.0000000E+00; -2.4882290E+00;0; -6.0436614E-02;  1.8673697E+04;  0.0000000E+00; -2.3943505E-01;  4.0000000E+04;  0.0000000E+00;  3.9758871E+04; -8.6384065E-02;  0.0000000E+00;  2.5947452E-02;  2.6511907E+03;
  7.9665428E-01;  9.9999998E-03; -6.0130186E-02;7167;  1.9771652E-02;  0.0000000E+00; -2.1213079E-03;  9.9957233E+02;  1.4663500E-01; -3.5431094E+02;3; -9.3858442E+00;  0.0000000E+00; -2.1822393E+00;0; -5.9998311E-02;  1.8677023E+04;  0.0000000E+00; -1.8569548E-01;  4.0000000E+04;  0.0000000E+00;  3.9758496E+04; -8.7373950E-02;  0.0000000E+00;  2.7375638E-02;  2.5935181E+03;
  7.9657096E-01;  9.9999998E-03; -5.0108716E-02;7168;  1.9926777E-02;  0.0000000E+00; -1.7997195E-03;  9.9955878E+02;  1.4659625E-01; -3.6552051E+02;3; -9.5593233E+00;  0.0000000E+00; -1.8580219E+00;0; -5.9555955E-02;  1.8682436E+04;  0.0000000E+00; -1.3506985E-01;  4.0000000E+04;  0.0000000E+00;  3.9758465E+04; -8.8203490E-02;  0.0000000E+00;  2.8647536E-02;  2.5723540E+03;
  7.9648256E-01;  9.9999998E-03; -4.0072888E-02;7169;  2.0057954E-02;  0.0000000E+00; -1.4631117E-03;  9.9955127E+02;  1.4656064E-01; -3.7174255E+02;3; -9.7051497E+00;  0.0000000E+00; -1.5171703E+00;0; -5.9148625E-02;  1.8688043E+04;  0.0000000E+00; -8.9663237E-02;  4.0000000E+04;  0.0000000E+00;  3.9759125E+04; -8.8883422E-02;  0.0000000E+00;  2.9734796E-02;  2.6162944E+03;
  7.9640681E-01;  9.9999998E-03; -3.0045843E-02;7170;  2.0162148E-02;  0.0000000E+00; -1.1129582E-03;  9.9955591E+02;  1.4653113E-01; -3.6794019E+02;3; -9.8208799E+00;  0.0000000E+00; -1.1618326E+00;0; -5.8805473E-02;  1.8692604E+04;  0.0000000E+00; -5.1854901E-02;  4.0000000E+04;  0.0000000E+00;  3.9759922E+04; -8.9415036E-02;  0.0000000E+00;  3.0609565E-02;  2.7077241E+03;
  7.9635262E-01;  9.9999998E-03; -2.0025168E-02;7171;  2.0237233E-02;  0.0000000E+00; -7.5011462E-04;  9.9956238E+02;  1.4651094E-01; -3.6255762E+02;3; -9.9139271E+00;  0.0000000E+00; -7.8093112E-01;0; -5.8547132E-02;  1.8695844E+04;  0.0000000E+00; -2.3491198E-02;  4.0000000E+04;  0.0000000E+00;  3.9760859E+04; -8.9798376E-02;  0.0000000E+00;  3.1251244E-02;  2.8140305E+03;
  7.9632014E-01;  9.9999998E-03; -1.0010645E-02;7172;  2.0283038E-02;  0.0000000E+00; -3.7766140E-04;  9.9956897E+02;  1.4649954E-01; -3.5707629E+02;3; -9.9657011E+00;  0.0000000E+00; -3.9038017E-01;0; -5.8386955E-02;  1.8697568E+04;  0.0000000E+00; -5.9376503E-03;  4.0000000E+04;  0.0000000E+00;  3.9761562E+04; -9.0029940E-02;  0.0000000E+00;  3.1642985E-02;  2.8963921E+03;
  7.9630923E-01;  9.9999998E-03;  1.0603263E-08;7173;  2.0298362E-02;  0.0000000E+00;  1.0139885E-07;  9.9956885E+02;  1.4649592E-01; -3.5722443E+02;3; -9.9833460E+00;  0.0000000E+00;  8.7018816E-06;0; -5.8332615E-02;  1.8698258E+04;  0.0000000E+00;  1.6606617E-10;  4.0000000E+04;  0.0000000E+00;  3.9761625E+04; -9.0107299E-02;  0.0000000E+00;  3.1774685E-02;  2.9271074E+03;
  7.9632014E-01;  9.9999998E-03;  1.0010666E-02;7174;  2.0283038E-02;  0.0000000E+00;  3.7786362E-04;  9.9956903E+02;  1.4649943E-01; -3.5702692E+02;3; -9.9657078E+00;  0.0000000E+00;  3.9040029E-01;0; -5.8387022E-02;  1.8697570E+04;  0.0000000E+00; -5.9372699E-03;  4.0000000E+04;  0.0000000E+00;  3.9761566E+04; -9.0030000E-02;  0.0000000E+00;  3.1642977E-02;  2.8963870E+03;
  7.9635262E-01;  9.9999998E-03;  2.0025190E-02;7175;  2.0237230E-02;  0.0000000E+00;  7.5031759E-04;  9.9956250E+02;  1.4651108E-01; -3.6245886E+02;3; -9.9139118E+00;  0.0000000E+00;  7.8093702E-01;0; -5.8547150E-02;  1.8695842E+04;  0.0000000E+00; -2.3491051E-02;  4.0000000E+04;  0.0000000E+00;  3.9760863E+04; -8.9798369E-02;  0.0000000E+00;  3.1251218E-02;  2.8140344E+03;
  7.9640675E-01;  9.9999998E-03;  3.0045867E-02;7176;  2.0162145E-02;  0.0000000E+00;  1.1131637E-03;  9.9955603E+02;  1.4653103E-01; -3.6784143E+02;3; -9.8208914E+00;  0.0000000E+00;  1.1618478E+00;0; -5.8805421E-02;  1.8692604E+04;  0.0000000E+00; -5.1855013E-02;  4.0000000E+04;  0.0000000E+00;  3.9759926E+04; -8.9414999E-02;  0.0000000E+00;  3.0609576E-02;  2.7076992E+03;
  7.9648256E-01;  9.9999998E-03;  4.0072914E-02;7177;  2.0057946E-02;  0.0000000E+00;  1.4633158E-03;  9.9955121E+02;  1.4656088E-01; -3.7179193E+02;3; -9.7051754E+00;  0.0000000E+00;  1.5171676E+00;0; -5.9148572E-02;  1.8688045E+04;  0.0000000E+00; -8.9663416E-02;  4.0000000E+04;  0.0000000E+00;  3.9759129E+04; -8.8883393E-02;  0.0000000E+00;  2.9734822E-02;  2.6162827E+03;
  7.9657096E-01;  9.9999998E-03;  5.0108738E-02;7178;  1.9926768E-02;  0.0000000E+00;  1.7999237E-03;  9.9955890E+02;  1.4659637E-01; -3.6542172E+02;3; -9.5593243E+00;  0.0000000E+00;  1.8579861E+00;0; -5.9555944E-02;  1.8682430E+04;  0.0000000E+00; -1.3506874E-01;  4.0000000E+04;  0.0000000E+00;  3.9758457E+04; -8.8203482E-02;  0.0000000E+00;  2.8647538E-02;  2.5723616E+03;
  7.9665434E-01;  9.9999998E-03;  6.0130209E-02;7179;  1.9771643E-02;  0.0000000E+00;  2.1215116E-03;  9.9957227E+02;  1.4663461E-01; -3.5436032E+02;3; -9.3858395E+00;  0.0000000E+00;  2.1822302E+00;0; -5.9998367E-02;  1.8677021E+04;  0.0000000E+00; -1.8569419E-01;  4.0000000E+04;  0.0000000E+00;  3.9758496E+04; -8.7374002E-02;  0.0000000E+00;  2.7375635E-02;  2.5935381E+03;
  8.1099761E-01;  9.9999998E-03; -1.0026877E-01;7224;  1.7714703E-02;  0.0000000E+00; -3.5416232E-03;  9.9921161E+02;  1.5264466E-01; -6.5316663E+02;3; -8.8210382E+00;  0.0000000E+00; -3.4005616E+00;0; -6.6282861E-02;  1.7253195E+04;  0.0000000E+00; -6.8311572E-01;  4.0000000E+04;  0.0000000E+00;  3.9730523E+04; -8.9984849E-02;  0.0000000E+00;  2.3701988E-02;  3.1037014E+03;
  8.1097013E-01;  9.9999998E-03; -9.0283550E-02;7225;  1.7936846E-02;  0.0000000E+00; -3.2550513E-03;  9.9910059E+02;  1.5261708E-01; -7.4516400E+02;3; -9.1080856E+00;  0.0000000E+00; -3.1269104E+00;0; -6.6075929E-02;  1.7252129E+04;  0.0000000E+00; -6.0356104E-01;  4.0000000E+04;  0.0000000E+00;  3.9731297E+04; -9.1567814E-02;  0.0000000E+00;  2.5491888E-02;  3.0823889E+03;
  8.1096226E-01;  9.9999998E-03; -8.0293179E-02;7226;  1.8135799E-02;  0.0000000E+00; -2.9482997E-03;  9.9900024E+02;  1.5260296E-01; -8.2827277E+02;3; -9.3729630E+00;  0.0000000E+00; -2.8449669E+00;0; -6.5768719E-02;  1.7249010E+04;  0.0000000E+00; -5.1356447E-01;  4.0000000E+04;  0.0000000E+00;  3.9731008E+04; -9.3016341E-02;  0.0000000E+00;  2.7247621E-02;  2.9463379E+03;
  8.1096768E-01;  9.9999998E-03; -7.0302069E-02;7227;  1.8310212E-02;  0.0000000E+00; -2.6269013E-03;  9.9891547E+02;  1.5259822E-01; -8.9849298E+02;3; -9.6174326E+00;  0.0000000E+00; -2.5469849E+00;0; -6.5399103E-02;  1.7244676E+04;  0.0000000E+00; -4.1784725E-01;  4.0000000E+04;  0.0000000E+00;  3.9730242E+04; -9.4320707E-02;  0.0000000E+00;  2.8921602E-02;  2.7470339E+03;
  8.1077093E-01;  9.9999998E-03; -6.0279895E-02;7228;  1.8480793E-02;  0.0000000E+00; -2.2904871E-03;  9.9882904E+02;  1.5251251E-01; -9.7009589E+02;3; -9.8318233E+00;  0.0000000E+00; -2.2331932E+00;0; -6.4922504E-02;  1.7258480E+04;  0.0000000E+00; -3.1979010E-01;  4.0000000E+04;  0.0000000E+00;  3.9729891E+04; -9.5353171E-02;  0.0000000E+00;  3.0430665E-02;  2.5690925E+03;
  8.1053936E-01;  9.9999998E-03; -5.0202969E-02;7229;  1.8631944E-02;  0.0000000E+00; -1.9392255E-03;  9.9874988E+02;  1.5241627E-01; -1.0357236E+03;3; -1.0020509E+01;  0.0000000E+00; -1.8927760E+00;0; -6.4432949E-02;  1.7274992E+04;  0.0000000E+00; -2.2748023E-01;  4.0000000E+04;  0.0000000E+00;  3.9730020E+04; -9.6202813E-02;  0.0000000E+00;  3.1769868E-02;  2.4962073E+03;
  8.1032413E-01;  9.9999998E-03; -4.0135823E-02;7230;  1.8757880E-02;  0.0000000E+00; -1.5747885E-03;  9.9869031E+02;  1.5232769E-01; -1.0850555E+03;3; -1.0178492E+01;  0.0000000E+00; -1.5333865E+00;0; -6.3981101E-02;  1.7290287E+04;  0.0000000E+00; -1.4768194E-01;  4.0000000E+04;  0.0000000E+00;  3.9731219E+04; -9.6887290E-02;  0.0000000E+00;  3.2906186E-02;  2.5353218E+03;
  8.1014615E-01;  9.9999998E-03; -3.0088531E-02;7231;  1.8856872E-02;  0.0000000E+00; -1.1972490E-03;  9.9864587E+02;  1.5225504E-01; -1.1218446E+03;3; -1.0302162E+01;  0.0000000E+00; -1.1616596E+00;0; -6.3599825E-02;  1.7302623E+04;  0.0000000E+00; -8.3785094E-02;  4.0000000E+04;  0.0000000E+00;  3.9732445E+04; -9.7415783E-02;  0.0000000E+00;  3.3815954E-02;  2.6524287E+03;
  8.1001645E-01;  9.9999998E-03; -2.0053733E-02;7232;  1.8928079E-02;  0.0000000E+00; -8.0675539E-04;  9.9861920E+02;  1.5220413E-01; -1.1439675E+03;3; -1.0391080E+01;  0.0000000E+00; -7.7808160E-01;0; -6.3312203E-02;  1.7311465E+04;  0.0000000E+00; -3.7415493E-02;  4.0000000E+04;  0.0000000E+00;  3.9733703E+04; -9.7793050E-02;  0.0000000E+00;  3.4480847E-02;  2.7915947E+03;
  8.0993712E-01;  9.9999998E-03; -1.0025368E-02;7233;  1.8971110E-02;  0.0000000E+00; -4.0599835E-04;  9.9860718E+02;  1.5217315E-01; -1.1539425E+03;3; -1.0446965E+01;  0.0000000E+00; -3.8915551E-01;0; -6.3133195E-02;  1.7316771E+04;  0.0000000E+00; -9.3732737E-03;  4.0000000E+04;  0.0000000E+00;  3.9734777E+04; -9.8019160E-02;  0.0000000E+00;  3.4885969E-02;  2.8991755E+03;
  8.0991077E-01;  9.9999998E-03;  1.1749132E-08;7234;  1.8985448E-02;  0.0000000E+00;  1.0367777E-07;  9.9860059E+02;  1.5216216E-01; -1.1593744E+03;3; -1.0465336E+01;  0.0000000E+00;  5.8847581E-06;0; -6.3072592E-02;  1.7318631E+04;  0.0000000E+00;  1.4032886E-10;  4.0000000E+04;  0.0000000E+00;  3.9735125E+04; -9.8094709E-02;  0.0000000E+00;  3.5022121E-02;  2.9390249E+03;
  8.0993712E-01;  9.9999998E-03;  1.0025392E-02;7235;  1.8971110E-02;  0.0000000E+00;  4.0620632E-04;  9.9860712E+02;  1.5217276E-01; -1.1539918E+03;3; -1.0446965E+01;  0.0000000E+00;  3.8916489E-01;0; -6.3133240E-02;  1.7316768E+04;  0.0000000E+00; -9.3722455E-03;  4.0000000E+04;  0.0000000E+00;  3.9734777E+04; -9.8019227E-02;  0.0000000E+00;  3.4885991E-02;  2.8991777E+03;
  8.1001645E-01;  9.9999998E-03;  2.0053759E-02;7236;  1.8928077E-02;  0.0000000E+00;  8.0696424E-04;  9.9861920E+02;  1.5220413E-01; -1.1439675E+03;3; -1.0391085E+01;  0.0000000E+00;  7.7809662E-01;0; -6.3312218E-02;  1.7311463E+04;  0.0000000E+00; -3.7413064E-02;  4.0000000E+04;  0.0000000E+00;  3.9733699E+04; -9.7793072E-02;  0.0000000E+00;  3.4480859E-02;  2.7915789E+03;
  8.1014615E-01;  9.9999998E-03;  3.0088557E-02;7237;  1.8856864E-02;  0.0000000E+00;  1.1974585E-03;  9.9864606E+02;  1.5225536E-01; -1.1216965E+03;3; -1.0302186E+01;  0.0000000E+00;  1.1616555E+00;0; -6.3599780E-02;  1.7302621E+04;  0.0000000E+00; -8.3782360E-02;  4.0000000E+04;  0.0000000E+00;  3.9732441E+04; -9.7415701E-02;  0.0000000E+00;  3.3815920E-02;  2.6524038E+03;
  8.1032413E-01;  9.9999998E-03;  4.0135853E-02;7238;  1.8757876E-02;  0.0000000E+00;  1.5749967E-03;  9.9869025E+02;  1.5232733E-01; -1.0851050E+03;3; -1.0178486E+01;  0.0000000E+00;  1.5333853E+00;0; -6.3981101E-02;  1.7290277E+04;  0.0000000E+00; -1.4767824E-01;  4.0000000E+04;  0.0000000E+00;  3.9731223E+04; -9.6887328E-02;  0.0000000E+00;  3.2906231E-02;  2.5353279E+03;
  8.1053936E-01;  9.9999998E-03;  5.0202996E-02;7239;  1.8631939E-02;  0.0000000E+00;  1.9394357E-03;  9.9874994E+02;  1.5241607E-01; -1.0356743E+03;3; -1.0020527E+01;  0.0000000E+00;  1.8927727E+00;0; -6.4432889E-02;  1.7274990E+04;  0.0000000E+00; -2.2747818E-01;  4.0000000E+04;  0.0000000E+00;  3.9730020E+04; -9.6202739E-02;  0.0000000E+00;  3.1769853E-02;  2.4962053E+03;
  8.1077093E-01;  9.9999998E-03;  6.0279921E-02;7240;  1.8480783E-02;  0.0000000E+00;  2.2906957E-03;  9.9882892E+02;  1.5251234E-01; -9.7019464E+02;3; -9.8318377E+00;  0.0000000E+00;  2.2331672E+00;0; -6.4922526E-02;  1.7258484E+04;  0.0000000E+00; -3.1978658E-01;  4.0000000E+04;  0.0000000E+00;  3.9729895E+04; -9.5353194E-02;  0.0000000E+00;  3.0430667E-02;  2.5690908E+03;
  8.2477242E-01;  9.9999998E-03;  1.1295361E-08;7295;  1.7421480E-02;  0.0000000E+00;  1.0687347E-07;  9.9782172E+02;  1.5846357E-01; -1.8046895E+03;3; -1.1009871E+01;  0.0000000E+00;  3.5766586E-06;0; -6.8771482E-02;  1.5974788E+04;  0.0000000E+00;  8.5794774E-11;  4.0000000E+04;  0.0000000E+00;  3.9707293E+04; -1.0723782E-01;  0.0000000E+00;  3.8466334E-02;  2.9822229E+03;
  8.2478523E-01;  9.9999998E-03; -1.0040500E-02;7294;  1.7410703E-02;  0.0000000E+00; -4.3465119E-04;  9.9782422E+02;  1.5846792E-01; -1.8026154E+03;3; -1.0989020E+01;  0.0000000E+00; -4.0716231E-01;0; -6.8830207E-02;  1.5974239E+04;  0.0000000E+00; -1.1277343E-02;  4.0000000E+04;  0.0000000E+00;  3.9706855E+04; -1.0714503E-01;  0.0000000E+00;  3.8314816E-02;  2.9391379E+03;
  8.2478523E-01;  9.9999998E-03;  1.0040524E-02;7296;  1.7410703E-02;  0.0000000E+00;  4.3486539E-04;  9.9782428E+02;  1.5846850E-01; -1.8025660E+03;3; -1.0989001E+01;  0.0000000E+00;  4.0717494E-01;0; -6.8830192E-02;  1.5974242E+04;  0.0000000E+00; -1.1275947E-02;  4.0000000E+04;  0.0000000E+00;  3.9706855E+04; -1.0714502E-01;  0.0000000E+00;  3.8314823E-02;  2.9391128E+03;
  8.2482457E-01;  9.9999998E-03; -2.0078169E-02;7293;  1.7378312E-02;  0.0000000E+00; -8.6343073E-04;  9.9783472E+02;  1.5848172E-01; -1.7938749E+03;3; -1.0926428E+01;  0.0000000E+00; -8.1373602E-01;0; -6.9003075E-02;  1.5972557E+04;  0.0000000E+00; -4.5016654E-02;  4.0000000E+04;  0.0000000E+00;  3.9706035E+04; -1.0686743E-01;  0.0000000E+00;  3.7864346E-02;  2.8218528E+03;
  8.2482457E-01;  9.9999998E-03;  2.0078195E-02;7297;  1.7378313E-02;  0.0000000E+00;  8.6364528E-04;  9.9783496E+02;  1.5848273E-01; -1.7936774E+03;3; -1.0926440E+01;  0.0000000E+00;  8.1374335E-01;0; -6.9003165E-02;  1.5972557E+04;  0.0000000E+00; -4.5013394E-02;  4.0000000E+04;  0.0000000E+00;  3.9706035E+04; -1.0686751E-01;  0.0000000E+00;  3.7864350E-02;  2.8218481E+03;
  8.2489419E-01;  9.9999998E-03; -3.0115223E-02;7292;  1.7323283E-02;  0.0000000E+00; -1.2804145E-03;  9.9785760E+02;  1.5850809E-01; -1.7749125E+03;3; -1.0822070E+01;  0.0000000E+00; -1.2128423E+00;0; -6.9281265E-02;  1.5969093E+04;  0.0000000E+00; -1.0086118E-01;  4.0000000E+04;  0.0000000E+00;  3.9704520E+04; -1.0640804E-01;  0.0000000E+00;  3.7126768E-02;  2.6684492E+03;
  8.2489419E-01;  9.9999998E-03;  3.0115250E-02;7298;  1.7323282E-02;  0.0000000E+00;  1.2806294E-03;  9.9785754E+02;  1.5850832E-01; -1.7749619E+03;3; -1.0822062E+01;  0.0000000E+00;  1.2128510E+00;0; -6.9281235E-02;  1.5969094E+04;  0.0000000E+00; -1.0085773E-01;  4.0000000E+04;  0.0000000E+00;  3.9704516E+04; -1.0640807E-01;  0.0000000E+00;  3.7126832E-02;  2.6684211E+03;
  8.2500035E-01;  9.9999998E-03; -4.0158600E-02;7291;  1.7244635E-02;  0.0000000E+00; -1.6841303E-03;  9.9789697E+02;  1.5854949E-01; -1.7423208E+03;3; -1.0679235E+01;  0.0000000E+00; -1.5972430E+00;0; -6.9650903E-02;  1.5963332E+04;  0.0000000E+00; -1.7803699E-01;  4.0000000E+04;  0.0000000E+00;  3.9703020E+04; -1.0577105E-01;  0.0000000E+00;  3.6120143E-02;  2.5420891E+03;
  8.2500035E-01;  9.9999998E-03;  4.0158629E-02;7299;  1.7244631E-02;  0.0000000E+00;  1.6843452E-03;  9.9789703E+02;  1.5854937E-01; -1.7422715E+03;3; -1.0679210E+01;  0.0000000E+00;  1.5972629E+00;0; -6.9650933E-02;  1.5963324E+04;  0.0000000E+00; -1.7803343E-01;  4.0000000E+04;  0.0000000E+00;  3.9703020E+04; -1.0577108E-01;  0.0000000E+00;  3.6120150E-02;  2.5420854E+03;
  8.2513690E-01;  9.9999998E-03; -5.0218612E-02;7290;  1.7141514E-02;  0.0000000E+00; -2.0737094E-03;  9.9795532E+02;  1.5860488E-01; -1.6939766E+03;3; -1.0506787E+01;  0.0000000E+00; -1.9584364E+00;0; -7.0087433E-02;  1.5955105E+04;  0.0000000E+00; -2.7493697E-01;  4.0000000E+04;  0.0000000E+00;  3.9702074E+04; -1.0495192E-01;  0.0000000E+00;  3.4864482E-02;  2.5166240E+03;
  8.2513690E-01;  9.9999998E-03;  5.0218638E-02;7300;  1.7141512E-02;  0.0000000E+00;  2.0739273E-03;  9.9795557E+02;  1.5860525E-01; -1.6937791E+03;3; -1.0506823E+01;  0.0000000E+00;  1.9584520E+00;0; -7.0087403E-02;  1.5955106E+04;  0.0000000E+00; -2.7492899E-01;  4.0000000E+04;  0.0000000E+00;  3.9702078E+04; -1.0495190E-01;  0.0000000E+00;  3.4864489E-02;  2.5166428E+03;
  8.2531148E-01;  9.9999998E-03; -6.0301609E-02;7289;  1.7012453E-02;  0.0000000E+00; -2.4507495E-03;  9.9803149E+02;  1.5867820E-01; -1.6308672E+03;3; -1.0301508E+01;  0.0000000E+00; -2.3037641E+00;0; -7.0566460E-02;  1.5943713E+04;  0.0000000E+00; -3.8830245E-01;  4.0000000E+04;  0.0000000E+00;  3.9701613E+04; -1.0395457E-01;  0.0000000E+00;  3.3388112E-02;  2.6419731E+03;
  8.2531148E-01;  9.9999998E-03;  6.0301635E-02;7301;  1.7012447E-02;  0.0000000E+00;  2.4509651E-03;  9.9803168E+02;  1.5867877E-01; -1.6307191E+03;3; -1.0301501E+01;  0.0000000E+00;  2.3037853E+00;0; -7.0566446E-02;  1.5943711E+04;  0.0000000E+00; -3.8829452E-01;  4.0000000E+04;  0.0000000E+00;  3.9701609E+04; -1.0395455E-01;  0.0000000E+00;  3.3388112E-02;  2.6419731E+03;
  8.2550234E-01;  9.9999998E-03; -7.0378408E-02;7288;  1.6859978E-02;  0.0000000E+00; -2.8155993E-03;  9.9813141E+02;  1.5876469E-01; -1.5481041E+03;3; -1.0063173E+01;  0.0000000E+00; -2.6311426E+00;0; -7.1044937E-02;  1.5930350E+04;  0.0000000E+00; -5.1142669E-01;  4.0000000E+04;  0.0000000E+00;  3.9702234E+04; -1.0276962E-01;  0.0000000E+00;  3.1724684E-02;  2.9071873E+03;
  8.2565439E-01;  9.9999998E-03; -8.0372758E-02;7287;  1.6690647E-02;  0.0000000E+00; -3.1666479E-03;  9.9824542E+02;  1.5884319E-01; -1.4536377E+03;3; -9.8021326E+00;  0.0000000E+00; -2.9381011E+00;0; -7.1460888E-02;  1.5918494E+04;  0.0000000E+00; -6.3335794E-01;  4.0000000E+04;  0.0000000E+00;  3.9703477E+04; -1.0137949E-01;  0.0000000E+00;  2.9918604E-02;  3.2420127E+03;
  8.2576966E-01;  9.9999998E-03; -9.0350263E-02;7286;  1.6504491E-02;  0.0000000E+00; -3.5053219E-03;  9.9836230E+02;  1.5892053E-01; -1.3568009E+03;3; -9.5115900E+00;  0.0000000E+00; -3.2385819E+00;0; -7.1777336E-02;  1.5907693E+04;  0.0000000E+00; -7.4398088E-01;  4.0000000E+04;  0.0000000E+00;  3.9704379E+04; -9.9782728E-02;  0.0000000E+00;  2.8005393E-02;  3.5247607E+03;
  8.2588297E-01;  9.9999998E-03; -1.0030985E-01;7285;  1.6299561E-02;  0.0000000E+00; -3.8271565E-03;  9.9849512E+02;  1.5899879E-01; -1.2467794E+03;3; -9.2045851E+00;  0.0000000E+00; -3.5080798E+00;0; -7.1966171E-02;  1.5896745E+04;  0.0000000E+00; -8.3170193E-01;  4.0000000E+04;  0.0000000E+00;  3.9704137E+04; -9.8005548E-02;  0.0000000E+00;  2.6039373E-02;  3.6660300E+03;
  8.4254992E-01;  9.9999998E-03;  1.2175578E-08;7356;  1.5420374E-02;  0.0000000E+00;  1.1002985E-07;  9.9781079E+02;  1.6612965E-01; -1.8137262E+03;3; -1.1656775E+01;  0.0000000E+00;  4.0737596E-06;0; -7.6299593E-02;  1.4574429E+04;  0.0000000E+00;  1.6097219E-11;  4.0000000E+04;  0.0000000E+00;  3.9675734E+04; -1.1879873E-01;  0.0000000E+00;  4.2499136E-02;  3.0509414E+03;
  8.4252995E-01;  9.9999998E-03; -1.0042348E-02;7355;  1.5415020E-02;  0.0000000E+00; -4.6788235E-04;  9.9780627E+02;  1.6612065E-01; -1.8174792E+03;3; -1.1631302E+01;  0.0000000E+00; -4.1460443E-01;0; -7.6351240E-02;  1.4575783E+04;  0.0000000E+00; -1.1607202E-02;  4.0000000E+04;  0.0000000E+00;  3.9675430E+04; -1.1866976E-01;  0.0000000E+00;  4.2318519E-02;  3.0181621E+03;
  8.4252995E-01;  9.9999998E-03;  1.0042373E-02;7357;  1.5415023E-02;  0.0000000E+00;  4.6810307E-04;  9.9780627E+02;  1.6612123E-01; -1.8174792E+03;3; -1.1631300E+01;  0.0000000E+00;  4.1461757E-01;0; -7.6351151E-02;  1.4575782E+04;  0.0000000E+00; -1.1605972E-02;  4.0000000E+04;  0.0000000E+00;  3.9675430E+04; -1.1866967E-01;  0.0000000E+00;  4.2318519E-02;  3.0181333E+03;
  8.4247333E-01;  9.9999998E-03; -2.0080658E-02;7354;  1.5398552E-02;  0.0000000E+00; -9.2970824E-04;  9.9780365E+02;  1.6609831E-01; -1.8196520E+03;3; -1.1560136E+01;  0.0000000E+00; -8.2254291E-01;0; -7.6502323E-02;  1.4579548E+04;  0.0000000E+00; -4.6137594E-02;  4.0000000E+04;  0.0000000E+00;  3.9674812E+04; -1.1828473E-01;  0.0000000E+00;  4.1782413E-02;  2.9265918E+03;
  8.4247333E-01;  9.9999998E-03;  2.0080686E-02;7358;  1.5398555E-02;  0.0000000E+00;  9.2992961E-04;  9.9780365E+02;  1.6609831E-01; -1.8196520E+03;3; -1.1560163E+01;  0.0000000E+00;  8.2254970E-01;0; -7.6502338E-02;  1.4579544E+04;  0.0000000E+00; -4.6134651E-02;  4.0000000E+04;  0.0000000E+00;  3.9674812E+04; -1.1828472E-01;  0.0000000E+00;  4.1782375E-02;  2.9265403E+03;
  8.4239084E-01;  9.9999998E-03; -3.0116614E-02;7353;  1.5369006E-02;  0.0000000E+00; -1.3803204E-03;  9.9779663E+02;  1.6606510E-01; -1.8254296E+03;3; -1.1445303E+01;  0.0000000E+00; -1.2241094E+00;0; -7.6744556E-02;  1.4584946E+04;  0.0000000E+00; -1.0287102E-01;  4.0000000E+04;  0.0000000E+00;  3.9673711E+04; -1.1765159E-01;  0.0000000E+00;  4.0907033E-02;  2.8009219E+03;
  8.4239084E-01;  9.9999998E-03;  3.0116642E-02;7359;  1.5369007E-02;  0.0000000E+00;  1.3805428E-03;  9.9779645E+02;  1.6606502E-01; -1.8255778E+03;3; -1.1445309E+01;  0.0000000E+00;  1.2241224E+00;0; -7.6744542E-02;  1.4584948E+04;  0.0000000E+00; -1.0286732E-01;  4.0000000E+04;  0.0000000E+00;  3.9673715E+04; -1.1765160E-01;  0.0000000E+00;  4.0907055E-02;  2.8008962E+03;
  8.4229875E-01;  9.9999998E-03; -4.0157862E-02;7352;  1.5323454E-02;  0.0000000E+00; -1.8167334E-03;  9.9779620E+02;  1.6603011E-01; -1.8258246E+03;3; -1.1283977E+01;  0.0000000E+00; -1.6239543E+00;0; -7.7064306E-02;  1.4590770E+04;  0.0000000E+00; -1.8085441E-01;  4.0000000E+04;  0.0000000E+00;  3.9672746E+04; -1.1678116E-01;  0.0000000E+00;  3.9716858E-02;  2.6903904E+03;
  8.4229869E-01;  9.9999998E-03;  4.0157892E-02;7360;  1.5323455E-02;  0.0000000E+00;  1.8169546E-03;  9.9779633E+02;  1.6603047E-01; -1.8257258E+03;3; -1.1283978E+01;  0.0000000E+00;  1.6239462E+00;0; -7.7064224E-02;  1.4590770E+04;  0.0000000E+00; -1.8085025E-01;  4.0000000E+04;  0.0000000E+00;  3.9672738E+04; -1.1678106E-01;  0.0000000E+00;  3.9716840E-02;  2.6903396E+03;
  8.4221244E-01;  9.9999998E-03; -5.0217338E-02;7351;  1.5258600E-02;  0.0000000E+00; -2.2377744E-03;  9.9780896E+02;  1.6599953E-01; -1.8152571E+03;3; -1.1074823E+01;  0.0000000E+00; -2.0098076E+00;0; -7.7441290E-02;  1.4595747E+04;  0.0000000E+00; -2.7863726E-01;  4.0000000E+04;  0.0000000E+00;  3.9672062E+04; -1.1568233E-01;  0.0000000E+00;  3.8241047E-02;  2.6645635E+03;
  8.4221244E-01;  9.9999998E-03;  5.0217368E-02;7361;  1.5258597E-02;  0.0000000E+00;  2.2379949E-03;  9.9780872E+02;  1.6600013E-01; -1.8154546E+03;3; -1.1074848E+01;  0.0000000E+00;  2.0098164E+00;0; -7.7441290E-02;  1.4595743E+04;  0.0000000E+00; -2.7863231E-01;  4.0000000E+04;  0.0000000E+00;  3.9672070E+04; -1.1568236E-01;  0.0000000E+00;  3.8241066E-02;  2.6645283E+03;
  8.4214377E-01;  9.9999998E-03; -6.0304526E-02;7350;  1.5171285E-02;  0.0000000E+00; -2.6444371E-03;  9.9784460E+02;  1.6598019E-01; -1.7857271E+03;3; -1.0836809E+01;  0.0000000E+00; -2.3590212E+00;0; -7.7847973E-02;  1.4598939E+04;  0.0000000E+00; -3.9336789E-01;  4.0000000E+04;  0.0000000E+00;  3.9672020E+04; -1.1436132E-01;  0.0000000E+00;  3.6513355E-02;  2.7835442E+03;
  8.4214371E-01;  9.9999998E-03;  6.0304552E-02;7362;  1.5171281E-02;  0.0000000E+00;  2.6446597E-03;  9.9784467E+02;  1.6598152E-01; -1.7856776E+03;3; -1.0836817E+01;  0.0000000E+00;  2.3589880E+00;0; -7.7847958E-02;  1.4598942E+04;  0.0000000E+00; -3.9336127E-01;  4.0000000E+04;  0.0000000E+00;  3.9672020E+04; -1.1436132E-01;  0.0000000E+00;  3.6513370E-02;  2.7835728E+03;
  8.4210563E-01;  9.9999998E-03; -7.0409693E-02;7349;  1.5059145E-02;  0.0000000E+00; -3.0395952E-03;  9.9789874E+02;  1.6597773E-01; -1.7408394E+03;3; -1.0568826E+01;  0.0000000E+00; -2.6969769E+00;0; -7.8250378E-02;  1.4599328E+04;  0.0000000E+00; -5.1933581E-01;  4.0000000E+04;  0.0000000E+00;  3.9672934E+04; -1.1282649E-01;  0.0000000E+00;  3.4576114E-02;  3.0525786E+03;
  8.4209275E-01;  9.9999998E-03; -8.0475338E-02;7348;  1.4923637E-02;  0.0000000E+00; -3.4226787E-03;  9.9797028E+02;  1.6598883E-01; -1.6815818E+03;3; -1.0275109E+01;  0.0000000E+00; -3.0225389E+00;0; -7.8601122E-02;  1.4597235E+04;  0.0000000E+00; -6.4596289E-01;  4.0000000E+04;  0.0000000E+00;  3.9674086E+04; -1.1108568E-01;  0.0000000E+00;  3.2484550E-02;  3.4055730E+03;
  8.4210652E-01;  9.9999998E-03; -9.0515018E-02;7347;  1.4767132E-02;  0.0000000E+00; -3.7916906E-03;  9.9805902E+02;  1.6601653E-01; -1.6080531E+03;3; -9.9532042E+00;  0.0000000E+00; -3.3294585E+00;0; -7.8855559E-02;  1.4592835E+04;  0.0000000E+00; -7.5947648E-01;  4.0000000E+04;  0.0000000E+00;  3.9675375E+04; -1.0914196E-01;  0.0000000E+00;  3.0286403E-02;  3.7252393E+03;
  8.4214836E-01;  9.9999998E-03; -1.0053515E-01;7346;  1.4592427E-02;  0.0000000E+00; -4.1427901E-03;  9.9815198E+02;  1.6606052E-01; -1.5310676E+03;3; -9.6168175E+00;  0.0000000E+00; -3.6038516E+00;0; -7.8966960E-02;  1.4585961E+04;  0.0000000E+00; -8.4491485E-01;  4.0000000E+04;  0.0000000E+00;  3.9675734E+04; -1.0700029E-01;  0.0000000E+00;  2.8033333E-02;  3.8969231E+03;
  8.5998154E-01;  9.9999998E-03; -1.0052460E-02;7416;  1.3268559E-02;  0.0000000E+00; -5.0478347E-04;  9.9883710E+02;  1.7428486E-01; -9.6342932E+02;3; -1.2289411E+01;  0.0000000E+00; -4.1964304E-01;0; -8.4591553E-02;  1.3305762E+04;  0.0000000E+00; -9.6045155E-03;  4.0000000E+04;  0.0000000E+00;  3.9642977E+04; -1.3073823E-01;  0.0000000E+00;  4.6146676E-02;  2.9771267E+03;
  8.5998517E-01;  9.9999998E-03;  1.3277322E-08;7417;  1.3274381E-02;  0.0000000E+00;  1.1173169E-07;  9.9885168E+02;  1.7428970E-01; -9.5138031E+02;3; -1.2313868E+01;  0.0000000E+00;  2.2636668E-06;0; -8.4524810E-02;  1.3305693E+04;  0.0000000E+00; -2.2999078E-11;  4.0000000E+04;  0.0000000E+00;  3.9642957E+04; -1.3088059E-01;  0.0000000E+00;  4.6355788E-02;  2.9913062E+03;
  8.5998154E-01;  9.9999998E-03;  1.0052487E-02;7418;  1.3268559E-02;  0.0000000E+00;  5.0500670E-04;  9.9883698E+02;  1.7428523E-01; -9.6352808E+02;3; -1.2289402E+01;  0.0000000E+00;  4.1965276E-01;0; -8.4591702E-02;  1.3305763E+04;  0.0000000E+00; -9.6039772E-03;  4.0000000E+04;  0.0000000E+00;  3.9642980E+04; -1.3073835E-01;  0.0000000E+00;  4.6146650E-02;  2.9771279E+03;
  8.5997224E-01;  9.9999998E-03; -2.0100009E-02;7415;  1.3250503E-02;  0.0000000E+00; -1.0047981E-03;  9.9880042E+02;  1.7427258E-01; -9.9384821E+02;3; -1.2212033E+01;  0.0000000E+00; -8.4298080E-01;0; -8.4787771E-02;  1.3306201E+04;  0.0000000E+00; -3.8216535E-02;  4.0000000E+04;  0.0000000E+00;  3.9642441E+04; -1.3031317E-01;  0.0000000E+00;  4.5525402E-02;  2.9345706E+03;
  8.5997224E-01;  9.9999998E-03;  2.0100037E-02;7419;  1.3250506E-02;  0.0000000E+00;  1.0050234E-03;  9.9880066E+02;  1.7427255E-01; -9.9365070E+02;3; -1.2212032E+01;  0.0000000E+00;  8.4299445E-01;0; -8.4787764E-02;  1.3306198E+04;  0.0000000E+00; -3.8215648E-02;  4.0000000E+04;  0.0000000E+00;  3.9642445E+04; -1.3031317E-01;  0.0000000E+00;  4.5525409E-02;  2.9345425E+03;
  8.5996181E-01;  9.9999998E-03; -3.0141989E-02;7414;  1.3219491E-02;  0.0000000E+00; -1.4950462E-03;  9.9874695E+02;  1.7425434E-01; -1.0381432E+03;3; -1.2081325E+01;  0.0000000E+00; -1.2650217E+00;0; -8.5098736E-02;  1.3306439E+04;  0.0000000E+00; -8.5448496E-02;  4.0000000E+04;  0.0000000E+00;  3.9642051E+04; -1.2960829E-01;  0.0000000E+00;  4.4509552E-02;  2.8699854E+03;
  8.5996181E-01;  9.9999998E-03;  3.0142019E-02;7420;  1.3219490E-02;  0.0000000E+00;  1.4952713E-03;  9.9874701E+02;  1.7425419E-01; -1.0380939E+03;3; -1.2081321E+01;  0.0000000E+00;  1.2650230E+00;0; -8.5098639E-02;  1.3306438E+04;  0.0000000E+00; -8.5446127E-02;  4.0000000E+04;  0.0000000E+00;  3.9642051E+04; -1.2960823E-01;  0.0000000E+00;  4.4509593E-02;  2.8699583E+03;
  8.5995561E-01;  9.9999998E-03; -4.0184334E-02;7413;  1.3173399E-02;  0.0000000E+00; -1.9721619E-03;  9.9868188E+02;  1.7423542E-01; -1.0920183E+03;3; -1.1910180E+01;  0.0000000E+00; -1.6535994E+00;0; -8.5501701E-02;  1.3306196E+04;  0.0000000E+00; -1.5103386E-01;  4.0000000E+04;  0.0000000E+00;  3.9641156E+04; -1.2862736E-01;  0.0000000E+00;  4.3125656E-02;  2.8077319E+03;
  8.5995561E-01;  9.9999998E-03;  4.0184367E-02;7421;  1.3173397E-02;  0.0000000E+00;  1.9723896E-03;  9.9868188E+02;  1.7423595E-01; -1.0920183E+03;3; -1.1910153E+01;  0.0000000E+00;  1.6536118E+00;0; -8.5501522E-02;  1.3306195E+04;  0.0000000E+00; -1.5102997E-01;  4.0000000E+04;  0.0000000E+00;  3.9641156E+04; -1.2862721E-01;  0.0000000E+00;  4.3125693E-02;  2.8076724E+03;
  8.5995972E-01;  9.9999998E-03; -5.0236285E-02;7412;  1.3110435E-02;  0.0000000E+00; -2.4359038E-03;  9.9861273E+02;  1.7421901E-01; -1.1493005E+03;3; -1.1692783E+01;  0.0000000E+00; -2.0284760E+00;0; -8.5965782E-02;  1.3304940E+04;  0.0000000E+00; -2.3458397E-01;  4.0000000E+04;  0.0000000E+00;  3.9640789E+04; -1.2737328E-01;  0.0000000E+00;  4.1407492E-02;  2.7959023E+03;
  8.5995972E-01;  9.9999998E-03;  5.0236318E-02;7422;  1.3110432E-02;  0.0000000E+00;  2.4361350E-03;  9.9861267E+02;  1.7421976E-01; -1.1493993E+03;3; -1.1692757E+01;  0.0000000E+00;  2.0284548E+00;0; -8.5965827E-02;  1.3304938E+04;  0.0000000E+00; -2.3457910E-01;  4.0000000E+04;  0.0000000E+00;  3.9640785E+04; -1.2737334E-01;  0.0000000E+00;  4.1407511E-02;  2.7958501E+03;
  8.5997987E-01;  9.9999998E-03; -6.0309269E-02;7411;  1.3029045E-02;  0.0000000E+00; -2.8850678E-03;  9.9855756E+02;  1.7420994E-01; -1.1950277E+03;3; -1.1433988E+01;  0.0000000E+00; -2.4014242E+00;0; -8.6453639E-02;  1.3302175E+04;  0.0000000E+00; -3.3449334E-01;  4.0000000E+04;  0.0000000E+00;  3.9640777E+04; -1.2584870E-01;  0.0000000E+00;  3.9395057E-02;  2.8904978E+03;
  8.5997987E-01;  9.9999998E-03;  6.0309302E-02;7423;  1.3029041E-02;  0.0000000E+00;  2.8853030E-03;  9.9855750E+02;  1.7420989E-01; -1.1950770E+03;3; -1.1434001E+01;  0.0000000E+00;  2.4014592E+00;0; -8.6453706E-02;  1.3302176E+04;  0.0000000E+00; -3.3448473E-01;  4.0000000E+04;  0.0000000E+00;  3.9640766E+04; -1.2584880E-01;  0.0000000E+00;  3.9395094E-02;  2.8904397E+03;
  8.6002725E-01;  9.9999998E-03; -7.0413925E-02;7410;  1.2926680E-02;  0.0000000E+00; -3.3202863E-03;  9.9852496E+02;  1.7421292E-01; -1.2220392E+03;3; -1.1134913E+01;  0.0000000E+00; -2.7793415E+00;0; -8.6924091E-02;  1.3297431E+04;  0.0000000E+00; -4.4625580E-01;  4.0000000E+04;  0.0000000E+00;  3.9641484E+04; -1.2405940E-01;  0.0000000E+00;  3.7135307E-02;  3.1155291E+03;
  8.6010343E-01;  9.9999998E-03; -8.0522284E-02;7409;  1.2803113E-02;  0.0000000E+00; -3.7391176E-03;  9.9852600E+02;  1.7423286E-01; -1.2211997E+03;3; -1.0814531E+01;  0.0000000E+00; -3.1150577E+00;0; -8.7324739E-02;  1.3290309E+04;  0.0000000E+00; -5.6115890E-01;  4.0000000E+04;  0.0000000E+00;  3.9642734E+04; -1.2201318E-01;  0.0000000E+00;  3.4688447E-02;  3.4249485E+03;
  8.6020070E-01;  9.9999998E-03; -9.0603046E-02;7408;  1.2662233E-02;  0.0000000E+00; -4.1403193E-03;  9.9855231E+02;  1.7426679E-01; -1.1993732E+03;3; -1.0470063E+01;  0.0000000E+00; -3.4316289E+00;0; -8.7596908E-02;  1.3281589E+04;  0.0000000E+00; -6.6607338E-01;  4.0000000E+04;  0.0000000E+00;  3.9644039E+04; -1.1971875E-01;  0.0000000E+00;  3.2121845E-02;  3.7121731E+03;
  8.6030871E-01;  9.9999998E-03; -1.0067070E-01;7407;  1.2508858E-02;  0.0000000E+00; -4.5188246E-03;  9.9859991E+02;  1.7430854E-01; -1.1599669E+03;3; -1.0095140E+01;  0.0000000E+00; -3.7278519E+00;0; -8.7681480E-02;  1.3272052E+04;  0.0000000E+00; -7.4608696E-01;  4.0000000E+04;  0.0000000E+00;  3.9644488E+04; -1.1717738E-01;  0.0000000E+00;  2.9495900E-02;  3.8544788E+03;
  8.7746680E-01;  9.9999998E-03; -1.0063053E-02;7477;  1.0877109E-02;  0.0000000E+00; -5.5314763E-04;  9.9931140E+02;  1.8267842E-01; -5.7050220E+02;3; -1.2968935E+01;  0.0000000E+00; -4.2916995E-01;0; -9.3715534E-02;  1.2143928E+04;  0.0000000E+00; -5.5935676E-03;  4.0000000E+04;  0.0000000E+00;  3.9610277E+04; -1.4345627E-01;  0.0000000E+00;  4.9740732E-02;  2.9692090E+03;
  8.7746972E-01;  9.9999998E-03;  1.4157859E-08;7478;  1.0882810E-02;  0.0000000E+00;  1.1292590E-07;  9.9932367E+02;  1.8268086E-01; -5.6032959E+02;3; -1.2996222E+01;  0.0000000E+00;  4.9620867E-06;0; -9.3640879E-02;  1.2144180E+04;  0.0000000E+00; -2.0830275E-11;  4.0000000E+04;  0.0000000E+00;  3.9610266E+04; -1.4363386E-01;  0.0000000E+00;  4.9992979E-02;  2.9625168E+03;
  8.7746680E-01;  9.9999998E-03;  1.0063081E-02;7479;  1.0877107E-02;  0.0000000E+00;  5.5337301E-04;  9.9931128E+02;  1.8267727E-01; -5.7060095E+02;3; -1.2968955E+01;  0.0000000E+00;  4.2916816E-01;0; -9.3715452E-02;  1.2143926E+04;  0.0000000E+00; -5.5935252E-03;  4.0000000E+04;  0.0000000E+00;  3.9610273E+04; -1.4345619E-01;  0.0000000E+00;  4.9740739E-02;  2.9691946E+03;
  8.7745810E-01;  9.9999998E-03; -2.0117672E-02;7476;  1.0860353E-02;  0.0000000E+00; -1.1017758E-03;  9.9926227E+02;  1.8267116E-01; -6.1119238E+02;3; -1.2882866E+01;  0.0000000E+00; -8.5522217E-01;0; -9.3932018E-02;  1.2143118E+04;  0.0000000E+00; -2.2660708E-02;  4.0000000E+04;  0.0000000E+00;  3.9610512E+04; -1.4292395E-01;  0.0000000E+00;  4.8991933E-02;  2.9824868E+03;
  8.7745804E-01;  9.9999998E-03;  2.0117704E-02;7480;  1.0860353E-02;  0.0000000E+00;  1.1020039E-03;  9.9926221E+02;  1.8267068E-01; -6.1124176E+02;3; -1.2882870E+01;  0.0000000E+00;  8.5521322E-01;0; -9.3931884E-02;  1.2143124E+04;  0.0000000E+00; -2.2660302E-02;  4.0000000E+04;  0.0000000E+00;  3.9610512E+04; -1.4292383E-01;  0.0000000E+00;  4.8991948E-02;  2.9824729E+03;
  8.7744445E-01;  9.9999998E-03; -3.0162590E-02;7475;  1.0832707E-02;  0.0000000E+00; -1.6419305E-03;  9.9919153E+02;  1.8265873E-01; -6.6980798E+02;3; -1.2740944E+01;  0.0000000E+00; -1.2829797E+00;0; -9.4271258E-02;  1.2141818E+04;  0.0000000E+00; -5.2061990E-02;  4.0000000E+04;  0.0000000E+00;  3.9610328E+04; -1.4204033E-01;  0.0000000E+00;  4.7769070E-02;  2.9894263E+03;
  8.7744445E-01;  9.9999998E-03;  3.0162621E-02;7481;  1.0832706E-02;  0.0000000E+00;  1.6421627E-03;  9.9919165E+02;  1.8265796E-01; -6.6970923E+02;3; -1.2740958E+01;  0.0000000E+00;  1.2829674E+00;0; -9.4271228E-02;  1.2141817E+04;  0.0000000E+00; -5.2060898E-02;  4.0000000E+04;  0.0000000E+00;  3.9610332E+04; -1.4204033E-01;  0.0000000E+00;  4.7769103E-02;  2.9894082E+03;
  8.7742805E-01;  9.9999998E-03; -4.0202890E-02;7474;  1.0793079E-02;  0.0000000E+00; -2.1694896E-03;  9.9909662E+02;  1.8264259E-01; -7.4842297E+02;3; -1.2554207E+01;  0.0000000E+00; -1.6937262E+00;0; -9.4702460E-02;  1.2140006E+04;  0.0000000E+00; -9.5184416E-02;  4.0000000E+04;  0.0000000E+00;  3.9610406E+04; -1.4080968E-01;  0.0000000E+00;  4.6107225E-02;  2.9877070E+03;
  8.7742800E-01;  9.9999998E-03;  4.0202923E-02;7482;  1.0793076E-02;  0.0000000E+00;  2.1697260E-03;  9.9909656E+02;  1.8264277E-01; -7.4847235E+02;3; -1.2554190E+01;  0.0000000E+00;  1.6937256E+00;0; -9.4702415E-02;  1.2140004E+04;  0.0000000E+00; -9.5184132E-02;  4.0000000E+04;  0.0000000E+00;  3.9610406E+04; -1.4080968E-01;  0.0000000E+00;  4.6107270E-02;  2.9876987E+03;
  8.7741089E-01;  9.9999998E-03; -5.0247677E-02;7473;  1.0741715E-02;  0.0000000E+00; -2.6815685E-03;  9.9899811E+02;  1.8262477E-01; -8.3005029E+02;3; -1.2318593E+01;  0.0000000E+00; -2.1001179E+00;0; -9.5186099E-02;  1.2137723E+04;  0.0000000E+00; -1.5356703E-01;  4.0000000E+04;  0.0000000E+00;  3.9610113E+04; -1.3923742E-01;  0.0000000E+00;  4.4051323E-02;  2.9982825E+03;
  8.7741089E-01;  9.9999998E-03;  5.0247714E-02;7483;  1.0741711E-02;  0.0000000E+00;  2.6818132E-03;  9.9899817E+02;  1.8262464E-01; -8.3000092E+02;3; -1.2318586E+01;  0.0000000E+00;  2.1001456E+00;0; -9.5186099E-02;  1.2137719E+04;  0.0000000E+00; -1.5356641E-01;  4.0000000E+04;  0.0000000E+00;  3.9610109E+04; -1.3923743E-01;  0.0000000E+00;  4.4051331E-02;  2.9982776E+03;
  8.7739873E-01;  9.9999998E-03; -6.0309593E-02;7472;  1.0677914E-02;  0.0000000E+00; -3.1745045E-03;  9.9890906E+02;  1.8260607E-01; -9.0382593E+02;3; -1.2036147E+01;  0.0000000E+00; -2.4895544E+00;0; -9.5676363E-02;  1.2134847E+04;  0.0000000E+00; -2.2775955E-01;  4.0000000E+04;  0.0000000E+00;  3.9610473E+04; -1.3733135E-01;  0.0000000E+00;  4.1654985E-02;  3.0618813E+03;
  8.7739873E-01;  9.9999998E-03;  6.0309637E-02;7484;  1.0677908E-02;  0.0000000E+00;  3.1747532E-03;  9.9890900E+02;  1.8260576E-01; -9.0387531E+02;3; -1.2036131E+01;  0.0000000E+00;  2.4895494E+00;0; -9.5676318E-02;  1.2134850E+04;  0.0000000E+00; -2.2775218E-01;  4.0000000E+04;  0.0000000E+00;  3.9610488E+04; -1.3733132E-01;  0.0000000E+00;  4.1655008E-02;  3.0618372E+03;
  8.7740415E-01;  9.9999998E-03; -7.0400834E-02;7471;  1.0600235E-02;  0.0000000E+00; -3.6462254E-03;  9.9884253E+02;  1.8259536E-01; -9.5893549E+02;3; -1.1717862E+01;  0.0000000E+00; -2.8606877E+00;0; -9.6124783E-02;  1.2130688E+04;  0.0000000E+00; -3.1557459E-01;  4.0000000E+04;  0.0000000E+00;  3.9611188E+04; -1.3510485E-01;  0.0000000E+00;  3.8980067E-02;  3.2112373E+03;
  8.7744951E-01;  9.9999998E-03; -8.0510996E-02;7470;  1.0507579E-02;  0.0000000E+00; -4.0924270E-03;  9.9881110E+02;  1.8260330E-01; -9.8495941E+02;3; -1.1358837E+01;  0.0000000E+00; -3.2143154E+00;0; -9.6483283E-02;  1.2124198E+04;  0.0000000E+00; -4.1061881E-01;  4.0000000E+04;  0.0000000E+00;  3.9612270E+04; -1.3258410E-01;  0.0000000E+00;  3.6100812E-02;  3.4258645E+03;
  8.7755817E-01;  9.9999998E-03; -9.0598710E-02;7469;  1.0398717E-02;  0.0000000E+00; -4.5112586E-03;  9.9881232E+02;  1.8264383E-01; -9.8397180E+02;3; -1.0969051E+01;  0.0000000E+00; -3.5384378E+00;0; -9.6702203E-02;  1.2114049E+04;  0.0000000E+00; -5.0225896E-01;  4.0000000E+04;  0.0000000E+00;  3.9613289E+04; -1.2980700E-01;  0.0000000E+00;  3.3104789E-02;  3.6174717E+03;
  8.7770194E-01;  9.9999998E-03; -1.0066157E-01;7468;  1.0281658E-02;  0.0000000E+00; -4.8964145E-03;  9.9884595E+02;  1.8270196E-01; -9.5612073E+02;3; -1.0563060E+01;  0.0000000E+00; -3.8266969E+00;0; -9.6707076E-02;  1.2102230E+04;  0.0000000E+00; -5.7813865E-01;  4.0000000E+04;  0.0000000E+00;  3.9613137E+04; -1.2677647E-01;  0.0000000E+00;  3.0069392E-02;  3.6774419E+03;
  8.9672267E-01;  9.9999998E-03; -1.0058663E-01;7529;  7.6200925E-03;  0.0000000E+00; -5.3002522E-03;  9.9844855E+02;  1.9209528E-01; -1.2853458E+03;3; -1.1081197E+01;  0.0000000E+00; -3.8665605E+00;0; -1.0684106E-01;  1.0947676E+04;  0.0000000E+00; -3.9685017E-01;  4.0000000E+04;  0.0000000E+00;  3.9577887E+04; -1.3659546E-01;  0.0000000E+00;  2.9754393E-02;  3.5590608E+03;
  8.9662534E-01;  9.9999998E-03; -9.0540402E-02;7530;  7.6657832E-03;  0.0000000E+00; -4.9284804E-03;  9.9841577E+02;  1.9206275E-01; -1.3125055E+03;3; -1.1548387E+01;  0.0000000E+00; -3.5912802E+00;0; -1.0705422E-01;  1.0955235E+04;  0.0000000E+00; -3.2143104E-01;  4.0000000E+04;  0.0000000E+00;  3.9578688E+04; -1.4030577E-01;  0.0000000E+00;  3.3251550E-02;  3.5954260E+03;
  8.9649606E-01;  9.9999998E-03; -8.0467604E-02;7531;  7.7209151E-03;  0.0000000E+00; -4.5106802E-03;  9.9841071E+02;  1.9201685E-01; -1.3167030E+03;3; -1.1985490E+01;  0.0000000E+00; -3.2609949E+00;0; -1.0697233E-01;  1.0965207E+04;  0.0000000E+00; -2.4597399E-01;  4.0000000E+04;  0.0000000E+00;  3.9578254E+04; -1.4371490E-01;  0.0000000E+00;  3.6742575E-02;  3.5176792E+03;
  8.9635521E-01;  9.9999998E-03; -7.0364892E-02;7532;  7.7818781E-03;  0.0000000E+00; -4.0446054E-03;  9.9844928E+02;  1.9196445E-01; -1.2847533E+03;3; -1.2380913E+01;  0.0000000E+00; -2.9027038E+00;0; -1.0666570E-01;  1.0976197E+04;  0.0000000E+00; -1.7628905E-01;  4.0000000E+04;  0.0000000E+00;  3.9577625E+04; -1.4679267E-01;  0.0000000E+00;  4.0126968E-02;  3.3968682E+03;
  8.9621395E-01;  9.9999998E-03; -6.0281128E-02;7533;  7.8444295E-03;  0.0000000E+00; -3.5364276E-03;  9.9851953E+02;  1.9190937E-01; -1.2265327E+03;3; -1.2732930E+01;  0.0000000E+00; -2.5112314E+00;0; -1.0620757E-01;  1.0987539E+04;  0.0000000E+00; -1.1764810E-01;  4.0000000E+04;  0.0000000E+00;  3.9577055E+04; -1.4949635E-01;  0.0000000E+00;  4.3288775E-02;  3.3015181E+03;
  8.9607930E-01;  9.9999998E-03; -5.0227832E-02;7534;  7.9046115E-03;  0.0000000E+00; -2.9961844E-03;  9.9861115E+02;  1.9185476E-01; -1.1506337E+03;3; -1.3033000E+01;  0.0000000E+00; -2.1267765E+00;0; -1.0567039E-01;  1.0998563E+04;  0.0000000E+00; -7.2508089E-02;  4.0000000E+04;  0.0000000E+00;  3.9576973E+04; -1.5180287E-01;  0.0000000E+00;  4.6132471E-02;  3.2464426E+03;
  8.9595586E-01;  9.9999998E-03; -4.0190477E-02;7535;  7.9601128E-03;  0.0000000E+00; -2.4265945E-03;  9.9871399E+02;  1.9180420E-01; -1.0654509E+03;3; -1.3283070E+01;  0.0000000E+00; -1.7193314E+00;0; -1.0512054E-01;  1.1008798E+04;  0.0000000E+00; -4.0602975E-02;  4.0000000E+04;  0.0000000E+00;  3.9577008E+04; -1.5370026E-01;  0.0000000E+00;  4.8579719E-02;  3.2064214E+03;
  8.9585006E-01;  9.9999998E-03; -3.0155996E-02;7536;  8.0079669E-03;  0.0000000E+00; -1.8365318E-03;  9.9880640E+02;  1.9175810E-01; -9.8886053E+02;3; -1.3481186E+01;  0.0000000E+00; -1.3047118E+00;0; -1.0461931E-01;  1.1017591E+04;  0.0000000E+00; -1.9898508E-02;  4.0000000E+04;  0.0000000E+00;  3.9576840E+04; -1.5518136E-01;  0.0000000E+00;  5.0562058E-02;  3.1573035E+03;
  8.9576858E-01;  9.9999998E-03; -2.0114318E-02;7537;  8.0451416E-03;  0.0000000E+00; -1.2316279E-03;  9.9887982E+02;  1.9172210E-01; -9.2802277E+02;3; -1.3625666E+01;  0.0000000E+00; -8.7757963E-01;0; -1.0421947E-01;  1.1024389E+04;  0.0000000E+00; -7.7860928E-03;  4.0000000E+04;  0.0000000E+00;  3.9576641E+04; -1.5624234E-01;  0.0000000E+00;  5.2022874E-02;  3.0965093E+03;
  8.9571720E-01;  9.9999998E-03; -1.0061585E-02;7538;  8.0683250E-03;  0.0000000E+00; -6.1747892E-04;  9.9892908E+02;  1.9170003E-01; -8.8723383E+02;3; -1.3722705E+01;  0.0000000E+00; -4.3461028E-01;0; -1.0396196E-01;  1.1028636E+04;  0.0000000E+00; -1.7708328E-03;  4.0000000E+04;  0.0000000E+00;  3.9576316E+04; -1.5688008E-01;  0.0000000E+00;  5.2918117E-02;  3.0429692E+03;
  8.9569962E-01;  9.9999998E-03;  1.3633222E-08;7539;  8.0762608E-03;  0.0000000E+00;  1.1676621E-07;  9.9894275E+02;  1.9169252E-01; -8.7592554E+02;3; -1.3760570E+01;  0.0000000E+00; -2.6894268E-06;0; -1.0387315E-01;  1.1030096E+04;  0.0000000E+00;  1.7594011E-11;  4.0000000E+04;  0.0000000E+00;  3.9576090E+04; -1.5709299E-01;  0.0000000E+00;  5.3219840E-02;  3.0213855E+03;
  8.9571720E-01;  9.9999998E-03;  1.0061614E-02;7540;  8.0683259E-03;  0.0000000E+00;  6.1771175E-04;  9.9892914E+02;  1.9169925E-01; -8.8718445E+02;3; -1.3722689E+01;  0.0000000E+00;  4.3460596E-01;0; -1.0396188E-01;  1.1028640E+04;  0.0000000E+00; -1.7704250E-03;  4.0000000E+04;  0.0000000E+00;  3.9576316E+04; -1.5688002E-01;  0.0000000E+00;  5.2918140E-02;  3.0429438E+03;
  8.9576858E-01;  9.9999998E-03;  2.0114344E-02;7541;  8.0451407E-03;  0.0000000E+00;  1.2318626E-03;  9.9887976E+02;  1.9172157E-01; -9.2807214E+02;3; -1.3625642E+01;  0.0000000E+00;  8.7758583E-01;0; -1.0421941E-01;  1.1024389E+04;  0.0000000E+00; -7.7851987E-03;  4.0000000E+04;  0.0000000E+00;  3.9576641E+04; -1.5624224E-01;  0.0000000E+00;  5.2022830E-02;  3.0964927E+03;
  8.9585006E-01;  9.9999998E-03;  3.0156020E-02;7542;  8.0079651E-03;  0.0000000E+00;  1.8367704E-03;  9.9880646E+02;  1.9175796E-01; -9.8881116E+02;3; -1.3481192E+01;  0.0000000E+00;  1.3047087E+00;0; -1.0461919E-01;  1.1017592E+04;  0.0000000E+00; -1.9896332E-02;  4.0000000E+04;  0.0000000E+00;  3.9576840E+04; -1.5518132E-01;  0.0000000E+00;  5.0562132E-02;  3.1572881E+03;
  8.9595586E-01;  9.9999998E-03;  4.0190507E-02;7543;  7.9601118E-03;  0.0000000E+00;  2.4268348E-03;  9.9871429E+02;  1.9180343E-01; -1.0652040E+03;3; -1.3283082E+01;  0.0000000E+00;  1.7193184E+00;0; -1.0512047E-01;  1.1008799E+04;  0.0000000E+00; -4.0601179E-02;  4.0000000E+04;  0.0000000E+00;  3.9577016E+04; -1.5370020E-01;  0.0000000E+00;  4.8579734E-02;  3.2063474E+03;
  8.9607924E-01;  9.9999998E-03;  5.0227858E-02;7544;  7.9046097E-03;  0.0000000E+00;  2.9964328E-03;  9.9861127E+02;  1.9185513E-01; -1.1505349E+03;3; -1.3032991E+01;  0.0000000E+00;  2.1267927E+00;0; -1.0567023E-01;  1.0998567E+04;  0.0000000E+00; -7.2508983E-02;  4.0000000E+04;  0.0000000E+00;  3.9576969E+04; -1.5180272E-01;  0.0000000E+00;  4.6132490E-02;  3.2463867E+03;
  8.9621395E-01;  9.9999998E-03;  6.0281161E-02;7545;  7.8444229E-03;  0.0000000E+00;  3.5366816E-03;  9.9851959E+02;  1.9191025E-01; -1.2264834E+03;3; -1.2732922E+01;  0.0000000E+00;  2.5111997E+00;0; -1.0620748E-01;  1.0987538E+04;  0.0000000E+00; -1.1764547E-01;  4.0000000E+04;  0.0000000E+00;  3.9577051E+04; -1.4949627E-01;  0.0000000E+00;  4.3288801E-02;  3.3015503E+03;
  9.1621608E-01;  9.9999998E-03; -1.0050076E-01;7590;  4.6600625E-03;  0.0000000E+00; -5.6228214E-03;  9.9737952E+02;  2.0211065E-01; -2.1709993E+03;3; -1.1607540E+01;  0.0000000E+00; -3.8721979E+00;0; -1.1687046E-01;  9.8746104E+03;  0.0000000E+00; -2.5901788E-01;  4.0000000E+04;  0.0000000E+00;  3.9540027E+04; -1.4537872E-01;  0.0000000E+00;  2.8508259E-02;  3.6528848E+03;
  9.1625577E-01;  9.9999998E-03; -9.0447716E-02;7591;  4.5900173E-03;  0.0000000E+00; -5.3001340E-03;  9.9732904E+02;  2.0214443E-01; -2.2128252E+03;3; -1.2144118E+01;  0.0000000E+00; -3.5895998E+00;0; -1.1747158E-01;  9.8739883E+03;  0.0000000E+00; -1.8260671E-01;  4.0000000E+04;  0.0000000E+00;  3.9540516E+04; -1.4987715E-01;  0.0000000E+00;  3.2405570E-02;  3.6673052E+03;
  9.1625416E-01;  9.9999998E-03; -8.0376543E-02;7592;  4.5422460E-03;  0.0000000E+00; -4.9058460E-03;  9.9731775E+02;  2.0215556E-01; -2.2222075E+03;3; -1.2640374E+01;  0.0000000E+00; -3.2631683E+00;0; -1.1772767E-01;  9.8762812E+03;  0.0000000E+00; -1.2499817E-01;  4.0000000E+04;  0.0000000E+00;  3.9540152E+04; -1.5406556E-01;  0.0000000E+00;  3.6337890E-02;  3.5794390E+03;
  9.1622162E-01;  9.9999998E-03; -7.0292935E-02;7593;  4.5156642E-03;  0.0000000E+00; -4.4469247E-03;  9.9734174E+02;  2.0214795E-01; -2.2023069E+03;3; -1.3084969E+01;  0.0000000E+00; -2.9381876E+00;0; -1.1770189E-01;  9.8807764E+03;  0.0000000E+00; -8.2567506E-02;  4.0000000E+04;  0.0000000E+00;  3.9539609E+04; -1.5788735E-01;  0.0000000E+00;  4.0185463E-02;  3.4652388E+03;
  9.1616344E-01;  9.9999998E-03; -6.0216449E-02;7594;  4.5076921E-03;  0.0000000E+00; -3.9328225E-03;  9.9739642E+02;  2.0212045E-01; -2.1570242E+03;3; -1.3480835E+01;  0.0000000E+00; -2.5936544E+00;0; -1.1746318E-01;  9.8869463E+03;  0.0000000E+00; -5.1884558E-02;  4.0000000E+04;  0.0000000E+00;  3.9539535E+04; -1.6128413E-01;  0.0000000E+00;  4.3820955E-02;  3.3803047E+03;
  9.1608083E-01;  9.9999998E-03; -5.0164185E-02;7595;  4.5142225E-03;  0.0000000E+00; -3.3686231E-03;  9.9746393E+02;  2.0207667E-01; -2.1010752E+03;3; -1.3829859E+01;  0.0000000E+00; -2.1804287E+00;0; -1.1708298E-01;  9.8944258E+03;  0.0000000E+00; -3.0314455E-02;  4.0000000E+04;  0.0000000E+00;  3.9539523E+04; -1.6420588E-01;  0.0000000E+00;  4.7122899E-02;  3.3362380E+03;
  9.1598225E-01;  9.9999998E-03; -4.0135227E-02;7596;  4.5328173E-03;  0.0000000E+00; -2.7516647E-03;  9.9753735E+02;  2.0202400E-01; -2.0402375E+03;3; -1.4109013E+01;  0.0000000E+00; -1.7471346E+00;0; -1.1663556E-01;  9.9024707E+03;  0.0000000E+00; -1.5927380E-02;  4.0000000E+04;  0.0000000E+00;  3.9539660E+04; -1.6662087E-01;  0.0000000E+00;  4.9985308E-02;  3.3083616E+03;
  9.1588002E-01;  9.9999998E-03; -3.0114863E-02;7597;  4.5574890E-03;  0.0000000E+00; -2.0961582E-03;  9.9760168E+02;  2.0196876E-01; -1.9869551E+03;3; -1.4324864E+01;  0.0000000E+00; -1.3207705E+00;0; -1.1619353E-01;  9.9102227E+03;  0.0000000E+00; -7.1564703E-03;  4.0000000E+04;  0.0000000E+00;  3.9539637E+04; -1.6851138E-01;  0.0000000E+00;  5.2317850E-02;  3.2690166E+03;
  9.1579032E-01;  9.9999998E-03; -2.0089919E-02;7598;  4.5812596E-03;  0.0000000E+00; -1.4135290E-03;  9.9764642E+02;  2.0191830E-01; -1.9498698E+03;3; -1.4484078E+01;  0.0000000E+00; -8.8785875E-01;0; -1.1582278E-01;  9.9165869E+03;  0.0000000E+00; -2.5166504E-03;  4.0000000E+04;  0.0000000E+00;  3.9539469E+04; -1.6986753E-01;  0.0000000E+00;  5.4044757E-02;  3.2137212E+03;
  9.1572893E-01;  9.9999998E-03; -1.0051236E-02;7599;  4.5985514E-03;  0.0000000E+00; -7.1167829E-04;  9.9767413E+02;  2.0188560E-01; -1.9269568E+03;3; -1.4577528E+01;  0.0000000E+00; -4.4281971E-01;0; -1.1557640E-01;  9.9208516E+03;  0.0000000E+00; -5.1868154E-04;  4.0000000E+04;  0.0000000E+00;  3.9539031E+04; -1.7068359E-01;  0.0000000E+00;  5.5107191E-02;  3.1614050E+03;
  9.1570729E-01;  9.9999998E-03;  1.5966485E-08;7600;  4.6048579E-03;  0.0000000E+00;  1.2532693E-07;  9.9768042E+02;  2.0187350E-01; -1.9217224E+03;3; -1.4608642E+01;  0.0000000E+00; -1.7859747E-07;0; -1.1549024E-01;  9.9223330E+03;  0.0000000E+00;  6.7814289E-11;  4.0000000E+04;  0.0000000E+00;  3.9539039E+04; -1.7095628E-01;  0.0000000E+00;  5.5466041E-02;  3.1396555E+03;
  9.1572899E-01;  9.9999998E-03;  1.0051266E-02;7601;  4.5985486E-03;  0.0000000E+00;  7.1192801E-04;  9.9767407E+02;  2.0188569E-01; -1.9270062E+03;3; -1.4577489E+01;  0.0000000E+00;  4.4282100E-01;0; -1.1557635E-01;  9.9208496E+03;  0.0000000E+00; -5.1726570E-04;  4.0000000E+04;  0.0000000E+00;  3.9539035E+04; -1.7068352E-01;  0.0000000E+00;  5.5107169E-02;  3.1614004E+03;
  9.1579032E-01;  9.9999998E-03;  2.0089947E-02;7602;  4.5812596E-03;  0.0000000E+00;  1.4137776E-03;  9.9764655E+02;  2.0191811E-01; -1.9497710E+03;3; -1.4484087E+01;  0.0000000E+00;  8.8785768E-01;0; -1.1582287E-01;  9.9165830E+03;  0.0000000E+00; -2.5143386E-03;  4.0000000E+04;  0.0000000E+00;  3.9539469E+04; -1.6986762E-01;  0.0000000E+00;  5.4044746E-02;  3.2136802E+03;
  9.1588002E-01;  9.9999998E-03;  3.0114893E-02;7603;  4.5574876E-03;  0.0000000E+00;  2.0964076E-03;  9.9760181E+02;  2.0196845E-01; -1.9868563E+03;3; -1.4324877E+01;  0.0000000E+00;  1.3207740E+00;0; -1.1619337E-01;  9.9102236E+03;  0.0000000E+00; -7.1540242E-03;  4.0000000E+04;  0.0000000E+00;  3.9539637E+04; -1.6851126E-01;  0.0000000E+00;  5.2317884E-02;  3.2689663E+03;
  9.1598231E-01;  9.9999998E-03;  4.0135257E-02;7604;  4.5328159E-03;  0.0000000E+00;  2.7519169E-03;  9.9753735E+02;  2.0202400E-01; -2.0402375E+03;3; -1.4108983E+01;  0.0000000E+00;  1.7471365E+00;0; -1.1663541E-01;  9.9024658E+03;  0.0000000E+00; -1.5923833E-02;  4.0000000E+04;  0.0000000E+00;  3.9539648E+04; -1.6662073E-01;  0.0000000E+00;  4.9985316E-02;  3.3082896E+03;
  9.1608083E-01;  9.9999998E-03;  5.0164215E-02;7605;  4.5142192E-03;  0.0000000E+00;  3.3688759E-03;  9.9746405E+02;  2.0207827E-01; -2.1009766E+03;3; -1.3829845E+01;  0.0000000E+00;  2.1804066E+00;0; -1.1708282E-01;  9.8944219E+03;  0.0000000E+00; -3.0311983E-02;  4.0000000E+04;  0.0000000E+00;  3.9539527E+04; -1.6420566E-01;  0.0000000E+00;  4.7122836E-02;  3.3362241E+03;
  9.1616344E-01;  9.9999998E-03;  6.0216479E-02;7606;  4.5076907E-03;  0.0000000E+00;  3.9330767E-03;  9.9739661E+02;  2.0212132E-01; -2.1568762E+03;3; -1.3480826E+01;  0.0000000E+00;  2.5936532E+00;0; -1.1746316E-01;  9.8869414E+03;  0.0000000E+00; -5.1880777E-02;  4.0000000E+04;  0.0000000E+00;  3.9539531E+04; -1.6128410E-01;  0.0000000E+00;  4.3820944E-02;  3.3802546E+03;
  9.3822885E-01;  9.9999998E-03; -1.0073734E-01;7651;  1.1756984E-03;  0.0000000E+00; -5.7569509E-03;  9.9683722E+02;  2.1385376E-01; -2.6203191E+03;3; -1.2177846E+01;  0.0000000E+00; -3.7012119E+00;0; -1.2718655E-01;  8.8169502E+03;  0.0000000E+00; -1.7396541E-01;  4.0000000E+04;  0.0000000E+00;  3.9496309E+04; -1.5321565E-01;  0.0000000E+00;  2.6029097E-02;  4.0008718E+03;
  9.3835557E-01;  9.9999998E-03; -9.0692319E-02;7652;  9.5282507E-04;  0.0000000E+00; -5.4915096E-03;  9.9677484E+02;  2.1394137E-01; -2.6719717E+03;3; -1.2777662E+01;  0.0000000E+00; -3.4858813E+00;0; -1.2833650E-01;  8.8105303E+03;  0.0000000E+00; -8.7716423E-02;  4.0000000E+04;  0.0000000E+00;  3.9496223E+04; -1.5849122E-01;  0.0000000E+00;  3.0154722E-02;  3.9421877E+03;
  9.3838280E-01;  9.9999998E-03; -8.0630057E-02;7653;  7.6625799E-04;  0.0000000E+00; -5.1599140E-03;  9.9673047E+02;  2.1397349E-01; -2.7087607E+03;3; -1.3343426E+01;  0.0000000E+00; -3.2121382E+00;0; -1.2907091E-01;  8.8092861E+03;  0.0000000E+00; -3.9140437E-02;  4.0000000E+04;  0.0000000E+00;  3.9496230E+04; -1.6341856E-01;  0.0000000E+00;  3.4347661E-02;  3.7132397E+03;
  9.3833268E-01;  9.9999998E-03; -7.0548311E-02;7654;  6.1977649E-04;  0.0000000E+00; -4.7480962E-03;  9.9670978E+02;  2.1395503E-01; -2.7258962E+03;3; -1.3847360E+01;  0.0000000E+00; -2.9243913E+00;0; -1.2944494E-01;  8.8119111E+03;  0.0000000E+00; -1.7870314E-02;  4.0000000E+04;  0.0000000E+00;  3.9495961E+04; -1.6793090E-01;  0.0000000E+00;  3.8485963E-02;  3.4567561E+03;
  9.3823272E-01;  9.9999998E-03; -6.0466502E-02;7655;  5.1152520E-04;  0.0000000E+00; -4.2533623E-03;  9.9669897E+02;  2.1390797E-01; -2.7348342E+03;3; -1.4297915E+01;  0.0000000E+00; -2.5760853E+00;0; -1.2953016E-01;  8.8170830E+03;  0.0000000E+00; -1.1514327E-02;  4.0000000E+04;  0.0000000E+00;  3.9495941E+04; -1.7196040E-01;  0.0000000E+00;  4.2430237E-02;  3.2848079E+03;
  9.3809813E-01;  9.9999998E-03; -5.0385889E-02;7656;  4.3697972E-04;  0.0000000E+00; -3.6871592E-03;  9.9669360E+02;  2.1383262E-01; -2.7392786E+03;3; -1.4685336E+01;  0.0000000E+00; -2.2232621E+00;0; -1.2940359E-01;  8.8239785E+03;  0.0000000E+00; -1.0355423E-02;  4.0000000E+04;  0.0000000E+00;  3.9496680E+04; -1.7545202E-01;  0.0000000E+00;  4.6048436E-02;  3.2291326E+03;
  9.3795580E-01;  9.9999998E-03; -4.0310528E-02;7657;  3.9027497E-04;  0.0000000E+00; -3.0487943E-03;  9.9669421E+02;  2.1375206E-01; -2.7387847E+03;3; -1.5005372E+01;  0.0000000E+00; -1.8307557E+00;0; -1.2915248E-01;  8.8311777E+03;  0.0000000E+00; -9.2243375E-03;  4.0000000E+04;  0.0000000E+00;  3.9497574E+04; -1.7836493E-01;  0.0000000E+00;  4.9212463E-02;  3.2529333E+03;
  9.3782949E-01;  9.9999998E-03; -3.0240690E-02;7658;  3.6208041E-04;  0.0000000E+00; -2.3500533E-03;  9.9668799E+02;  2.1367694E-01; -2.7439204E+03;3; -1.5263001E+01;  0.0000000E+00; -1.4058901E+00;0; -1.2886053E-01;  8.8375391E+03;  0.0000000E+00; -6.7582191E-03;  4.0000000E+04;  0.0000000E+00;  3.9498109E+04; -1.8066762E-01;  0.0000000E+00;  5.1807091E-02;  3.3008076E+03;
  9.3772686E-01;  9.9999998E-03; -2.0170644E-02;7659;  3.4718466E-04;  0.0000000E+00; -1.5987046E-03;  9.9667889E+02;  2.1361400E-01; -2.7514756E+03;3; -1.5443332E+01;  0.0000000E+00; -9.2531574E-01;0; -1.2859389E-01;  8.8426699E+03;  0.0000000E+00; -3.6072205E-03;  4.0000000E+04;  0.0000000E+00;  3.9498656E+04; -1.8233129E-01;  0.0000000E+00;  5.3737409E-02;  3.3354487E+03;
  9.3765944E-01;  9.9999998E-03; -1.0091249E-02;7660;  3.4190566E-04;  0.0000000E+00; -8.0758048E-04;  9.9666742E+02;  2.1357404E-01; -2.7609568E+03;3; -1.5551518E+01;  0.0000000E+00; -4.5292276E-01;0; -1.2840888E-01;  8.8460039E+03;  0.0000000E+00; -1.0041668E-03;  4.0000000E+04;  0.0000000E+00;  3.9499008E+04; -1.8333779E-01;  0.0000000E+00;  5.4928906E-02;  3.3486038E+03;
  9.3763554E-01;  9.9999998E-03;  1.8622544E-08;7661;  3.4076476E-04;  0.0000000E+00;  1.3677989E-07;  9.9666541E+02;  2.1355975E-01; -2.7626357E+03;3; -1.5587425E+01;  0.0000000E+00; -8.4356861E-07;0; -1.2834267E-01;  8.8471875E+03;  0.0000000E+00;  7.6915967E-11;  4.0000000E+04;  0.0000000E+00;  3.9498855E+04; -1.8367477E-01;  0.0000000E+00;  5.5332091E-02;  3.3504160E+03;
  9.3765944E-01;  9.9999998E-03;  1.0091286E-02;7662;  3.4190179E-04;  0.0000000E+00;  8.0785376E-04;  9.9666724E+02;  2.1357359E-01; -2.7611050E+03;3; -1.5551529E+01;  0.0000000E+00;  4.5292529E-01;0; -1.2840888E-01;  8.8460039E+03;  0.0000000E+00; -1.0026395E-03;  4.0000000E+04;  0.0000000E+00;  3.9499008E+04; -1.8333776E-01;  0.0000000E+00;  5.4928884E-02;  3.3485935E+03;
  9.3772686E-01;  9.9999998E-03;  2.0170677E-02;7663;  3.4718128E-04;  0.0000000E+00;  1.5989753E-03;  9.9667871E+02;  2.1361414E-01; -2.7516238E+03;3; -1.5443328E+01;  0.0000000E+00;  9.2531371E-01;0; -1.2859371E-01;  8.8426699E+03;  0.0000000E+00; -3.6042056E-03;  4.0000000E+04;  0.0000000E+00;  3.9498652E+04; -1.8233113E-01;  0.0000000E+00;  5.3737421E-02;  3.3354741E+03;
  9.3782949E-01;  9.9999998E-03;  3.0240722E-02;7664;  3.6207982E-04;  0.0000000E+00;  2.3503187E-03;  9.9668799E+02;  2.1367694E-01; -2.7439204E+03;3; -1.5263001E+01;  0.0000000E+00;  1.4058880E+00;0; -1.2886053E-01;  8.8375381E+03;  0.0000000E+00; -6.7546279E-03;  4.0000000E+04;  0.0000000E+00;  3.9498105E+04; -1.8066761E-01;  0.0000000E+00;  5.1807079E-02;  3.3007927E+03;
  9.3795580E-01;  9.9999998E-03;  4.0310562E-02;7665;  3.9027372E-04;  0.0000000E+00;  3.0490579E-03;  9.9669403E+02;  2.1375221E-01; -2.7389329E+03;3; -1.5005371E+01;  0.0000000E+00;  1.8307446E+00;0; -1.2915222E-01;  8.8311777E+03;  0.0000000E+00; -9.2220269E-03;  4.0000000E+04;  0.0000000E+00;  3.9497562E+04; -1.7836469E-01;  0.0000000E+00;  4.9212467E-02;  3.2529453E+03;
  9.3809819E-01;  9.9999998E-03;  5.0385918E-02;7666;  4.3697839E-04;  0.0000000E+00;  3.6874209E-03;  9.9669336E+02;  2.1383323E-01; -2.7394761E+03;3; -1.4685341E+01;  0.0000000E+00;  2.2232549E+00;0; -1.2940368E-01;  8.8239795E+03;  0.0000000E+00; -1.0353950E-02;  4.0000000E+04;  0.0000000E+00;  3.9496684E+04; -1.7545207E-01;  0.0000000E+00;  4.6048384E-02;  3.2291768E+03;
  9.3823278E-01;  9.9999998E-03;  6.0466528E-02;7667;  5.1152642E-04;  0.0000000E+00;  4.2536212E-03;  9.9669904E+02;  2.1390826E-01; -2.7347847E+03;3; -1.4297915E+01;  0.0000000E+00;  2.5760713E+00;0; -1.2952998E-01;  8.8170850E+03;  0.0000000E+00; -1.1512675E-02;  4.0000000E+04;  0.0000000E+00;  3.9495941E+04; -1.7196018E-01;  0.0000000E+00;  4.2430200E-02;  3.2848208E+03;
  9.6062905E-01;  9.9999998E-03; -1.0080187E-01;7712; -2.4838850E-03;  0.0000000E+00; -5.5445977E-03;  9.9716882E+02;  2.2637635E-01; -2.3455610E+03;3; -1.2744365E+01;  0.0000000E+00; -3.3907547E+00;0; -1.3697234E-01;  7.8812588E+03;  0.0000000E+00; -1.7552036E-01;  4.0000000E+04;  0.0000000E+00;  3.9449793E+04; -1.5962289E-01;  0.0000000E+00;  2.2650557E-02;  4.3749438E+03;
  9.6072149E-01;  9.9999998E-03; -9.0733051E-02;7713; -2.8785050E-03;  0.0000000E+00; -5.3206105E-03;  9.9711560E+02;  2.2644012E-01; -2.3896584E+03;3; -1.3425550E+01;  0.0000000E+00; -3.2253981E+00;0; -1.3875349E-01;  7.8763071E+03;  0.0000000E+00; -6.3841842E-02;  4.0000000E+04;  0.0000000E+00;  3.9450059E+04; -1.6544150E-01;  0.0000000E+00;  2.6688008E-02;  4.3551709E+03;
  9.6072793E-01;  9.9999998E-03; -8.0655433E-02;7714; -3.2318828E-03;  0.0000000E+00; -5.0293021E-03;  9.9707031E+02;  2.2645108E-01; -2.4271882E+03;3; -1.4067419E+01;  0.0000000E+00; -2.9787529E+00;0; -1.4008509E-01;  7.8752368E+03;  0.0000000E+00; -2.0705964E-03;  4.0000000E+04;  0.0000000E+00;  3.9450301E+04; -1.7086120E-01;  0.0000000E+00;  3.0776110E-02;  4.0433184E+03;
  9.6067709E-01;  9.9999998E-03; -7.0561819E-02;7715; -3.5425711E-03;  0.0000000E+00; -4.6671876E-03;  9.9703522E+02;  2.2642414E-01; -2.4562737E+03;3; -1.4641062E+01;  0.0000000E+00; -2.7246482E+00;0; -1.4101721E-01;  7.8768564E+03;  0.0000000E+00;  2.0218600E-02;  4.0000000E+04;  0.0000000E+00;  3.9450680E+04; -1.7582032E-01;  0.0000000E+00;  3.4803111E-02;  3.6266926E+03;
  9.6058738E-01;  9.9999998E-03; -6.0460921E-02;7716; -3.8028162E-03;  0.0000000E+00; -4.2221039E-03;  9.9700690E+02;  2.2636850E-01; -2.4797300E+03;3; -1.5148662E+01;  0.0000000E+00; -2.4677556E+00;0; -1.4160925E-01;  7.8803809E+03;  0.0000000E+00;  2.0020606E-02;  4.0000000E+04;  0.0000000E+00;  3.9451738E+04; -1.8025383E-01;  0.0000000E+00;  3.8644589E-02;  3.3083730E+03;
  9.6048719E-01;  9.9999998E-03; -5.0368682E-02;7717; -4.0132101E-03;  0.0000000E+00; -3.6850388E-03;  9.9698596E+02;  2.2630379E-01; -2.4970627E+03;3; -1.5591791E+01;  0.0000000E+00; -2.1447129E+00;0; -1.4193815E-01;  7.8844312E+03;  0.0000000E+00;  1.2017690E-02;  4.0000000E+04;  0.0000000E+00;  3.9453809E+04; -1.8410489E-01;  0.0000000E+00;  4.2166732E-02;  3.2080281E+03;
  9.6039730E-01;  9.9999998E-03; -4.0285319E-02;7718; -4.1791429E-03;  0.0000000E+00; -3.0645719E-03;  9.9696619E+02;  2.2624078E-01; -2.5134573E+03;3; -1.5962125E+01;  0.0000000E+00; -1.7574954E+00;0; -1.4208335E-01;  7.8881465E+03;  0.0000000E+00;  4.6321261E-03;  4.0000000E+04;  0.0000000E+00;  3.9455934E+04; -1.8732868E-01;  0.0000000E+00;  4.5245342E-02;  3.3050840E+03;
  9.6032411E-01;  9.9999998E-03; -3.0209834E-02;7719; -4.3036891E-03;  0.0000000E+00; -2.3695529E-03;  9.9695026E+02;  2.2618656E-01; -2.5266421E+03;3; -1.6252598E+01;  0.0000000E+00; -1.3504387E+00;0; -1.4211412E-01;  7.8912529E+03;  0.0000000E+00;  5.9939892E-04;  4.0000000E+04;  0.0000000E+00;  3.9458035E+04; -1.8988390E-01;  0.0000000E+00;  4.7769785E-02;  3.4932329E+03;
  9.6026772E-01;  9.9999998E-03; -2.0139618E-02;7720; -4.3899696E-03;  0.0000000E+00; -1.6173430E-03;  9.9693494E+02;  2.2614424E-01; -2.5393330E+03;3; -1.6460100E+01;  0.0000000E+00; -9.2886096E-01;0; -1.4208776E-01;  7.8935850E+03;  0.0000000E+00; -5.0082960E-04;  4.0000000E+04;  0.0000000E+00;  3.9459754E+04; -1.9173481E-01;  0.0000000E+00;  4.9647044E-02;  3.6754917E+03;
  9.6023220E-01;  9.9999998E-03; -1.0070717E-02;7721; -4.4398215E-03;  0.0000000E+00; -8.1954722E-04;  9.9692090E+02;  2.2611763E-01; -2.5509871E+03;3; -1.6581974E+01;  0.0000000E+00; -4.6245861E-01;0; -1.4205173E-01;  7.8950791E+03;  0.0000000E+00; -2.4705118E-04;  4.0000000E+04;  0.0000000E+00;  3.9460781E+04; -1.9285642E-01;  0.0000000E+00;  5.0804686E-02;  3.7979780E+03;
  9.6021980E-01;  9.9999998E-03;  1.8981067E-08;7722; -4.4563334E-03;  0.0000000E+00;  1.4377534E-07;  9.9691541E+02;  2.2610785E-01; -2.5555303E+03;3; -1.6626104E+01;  0.0000000E+00; -6.2168765E-06;0; -1.4203596E-01;  7.8955781E+03;  0.0000000E+00; -3.9480992E-12;  4.0000000E+04;  0.0000000E+00;  3.9460961E+04; -1.9323207E-01;  0.0000000E+00;  5.1196106E-02;  3.8401638E+03;
  9.6023214E-01;  9.9999998E-03;  1.0070756E-02;7723; -4.4398205E-03;  0.0000000E+00;  8.1983401E-04;  9.9692090E+02;  2.2611780E-01; -2.5509871E+03;3; -1.6581970E+01;  0.0000000E+00;  4.6244290E-01;0; -1.4205174E-01;  7.8950806E+03;  0.0000000E+00; -2.4784880E-04;  4.0000000E+04;  0.0000000E+00;  3.9460777E+04; -1.9285645E-01;  0.0000000E+00;  5.0804704E-02;  3.7979924E+03;
  9.6026766E-01;  9.9999998E-03;  2.0139657E-02;7724; -4.3899640E-03;  0.0000000E+00;  1.6176261E-03;  9.9693506E+02;  2.2614533E-01; -2.5392344E+03;3; -1.6460102E+01;  0.0000000E+00;  9.2885262E-01;0; -1.4208773E-01;  7.8935820E+03;  0.0000000E+00; -5.0303992E-04;  4.0000000E+04;  0.0000000E+00;  3.9459754E+04; -1.9173478E-01;  0.0000000E+00;  4.9647044E-02;  3.6755156E+03;
  9.6032411E-01;  9.9999998E-03;  3.0209871E-02;7725; -4.3036886E-03;  0.0000000E+00;  2.3698320E-03;  9.9695020E+02;  2.2618659E-01; -2.5266914E+03;3; -1.6252630E+01;  0.0000000E+00;  1.3504173E+00;0; -1.4211412E-01;  7.8912515E+03;  0.0000000E+00;  5.9498555E-04;  4.0000000E+04;  0.0000000E+00;  3.9458043E+04; -1.8988386E-01;  0.0000000E+00;  4.7769744E-02;  3.4932129E+03;
  9.6039724E-01;  9.9999998E-03;  4.0285353E-02;7726; -4.1791373E-03;  0.0000000E+00;  3.0648457E-03;  9.9696625E+02;  2.2624016E-01; -2.5134080E+03;3; -1.5962108E+01;  0.0000000E+00;  1.7574725E+00;0; -1.4208341E-01;  7.8881494E+03;  0.0000000E+00;  4.6244948E-03;  4.0000000E+04;  0.0000000E+00;  3.9455934E+04; -1.8732870E-01;  0.0000000E+00;  4.5245297E-02;  3.3050491E+03;
  9.6048719E-01;  9.9999998E-03;  5.0368711E-02;7727; -4.0132059E-03;  0.0000000E+00;  3.6853149E-03;  9.9698584E+02;  2.2630385E-01; -2.4971614E+03;3; -1.5591830E+01;  0.0000000E+00;  2.1446810E+00;0; -1.4193806E-01;  7.8844341E+03;  0.0000000E+00;  1.2008767E-02;  4.0000000E+04;  0.0000000E+00;  3.9453812E+04; -1.8410476E-01;  0.0000000E+00;  4.2166688E-02;  3.2080007E+03;
  9.6058738E-01;  9.9999998E-03;  6.0460951E-02;7728; -3.8028110E-03;  0.0000000E+00;  4.2223805E-03;  9.9700671E+02;  2.2636801E-01; -2.4798779E+03;3; -1.5148675E+01;  0.0000000E+00;  2.4677308E+00;0; -1.4160921E-01;  7.8803843E+03;  0.0000000E+00;  2.0008272E-02;  4.0000000E+04;  0.0000000E+00;  3.9451738E+04; -1.8025377E-01;  0.0000000E+00;  3.8644571E-02;  3.3083630E+03;
  9.8344207E-01;  9.9999998E-03; -1.0072315E-01;7773; -6.2382361E-03;  0.0000000E+00; -4.7901273E-03;  9.9794489E+02;  2.3968737E-01; -1.7026162E+03;3; -1.3301447E+01;  0.0000000E+00; -2.8740788E+00;0; -1.4777152E-01;  7.0492900E+03;  0.0000000E+00; -3.6640126E-01;  4.0000000E+04;  0.0000000E+00;  3.9404906E+04; -1.6583288E-01;  0.0000000E+00;  1.8061358E-02;  4.3344199E+03;
  9.8381430E-01;  9.9999998E-03; -9.0645425E-02;7774; -6.8731392E-03;  0.0000000E+00; -4.5746397E-03;  9.9793433E+02;  2.3991559E-01; -1.7113567E+03;3; -1.4069713E+01;  0.0000000E+00; -2.7680118E+00;0; -1.5046798E-01;  7.0346084E+03;  0.0000000E+00; -2.4639425E-01;  4.0000000E+04;  0.0000000E+00;  3.9404801E+04; -1.7194195E-01;  0.0000000E+00;  2.1473976E-02;  4.4092476E+03;
  9.8410279E-01;  9.9999998E-03; -8.0566123E-02;7775; -7.4660927E-03;  0.0000000E+00; -4.3093595E-03;  9.9793396E+02;  2.4009280E-01; -1.7116530E+03;3; -1.4792165E+01;  0.0000000E+00; -2.6118062E+00;0; -1.5270540E-01;  7.0234116E+03;  0.0000000E+00; -1.6511759E-01;  4.0000000E+04;  0.0000000E+00;  3.9405004E+04; -1.7757194E-01;  0.0000000E+00;  2.4866544E-02;  4.1564009E+03;
  9.8429811E-01;  9.9999998E-03; -7.0481211E-02;7776; -8.0022737E-03;  0.0000000E+00; -3.9806296E-03;  9.9794128E+02;  2.4020717E-01; -1.7056282E+03;3; -1.5456825E+01;  0.0000000E+00; -2.3873351E+00;0; -1.5449902E-01;  7.0158760E+03;  0.0000000E+00; -1.1610183E-01;  4.0000000E+04;  0.0000000E+00;  3.9405578E+04; -1.8266313E-01;  0.0000000E+00;  2.8164104E-02;  3.7475376E+03;
  9.8442537E-01;  9.9999998E-03; -6.0388196E-02;7777; -8.4737679E-03;  0.0000000E+00; -3.5888618E-03;  9.9795953E+02;  2.4027984E-01; -1.6904681E+03;3; -1.6047438E+01;  0.0000000E+00; -2.1574159E+00;0; -1.5589684E-01;  7.0109795E+03;  0.0000000E+00; -8.6139828E-02;  4.0000000E+04;  0.0000000E+00;  3.9406805E+04; -1.8717456E-01;  0.0000000E+00;  3.1277709E-02;  3.4027026E+03;
  9.8450935E-01;  9.9999998E-03; -5.0303411E-02;7778; -8.8732271E-03;  0.0000000E+00; -3.1238622E-03;  9.9798029E+02;  2.4032235E-01; -1.6732834E+03;3; -1.6564232E+01;  0.0000000E+00; -1.8833464E+00;0; -1.5695569E-01;  7.0078330E+03;  0.0000000E+00; -6.4057738E-02;  4.0000000E+04;  0.0000000E+00;  3.9409281E+04; -1.9106385E-01;  0.0000000E+00;  3.4108158E-02;  3.2897754E+03;
  9.8457992E-01;  9.9999998E-03; -4.0235858E-02;7779; -9.2010321E-03;  0.0000000E+00; -2.5900728E-03;  9.9800330E+02;  2.4035589E-01; -1.6542223E+03;3; -1.6998587E+01;  0.0000000E+00; -1.5714152E+00;0; -1.5774311E-01;  7.0052598E+03;  0.0000000E+00; -4.4369608E-02;  4.0000000E+04;  0.0000000E+00;  3.9412082E+04; -1.9430065E-01;  0.0000000E+00;  3.6557544E-02;  3.4268123E+03;
  9.8464590E-01;  9.9999998E-03; -3.0179450E-02;7780; -9.4574615E-03;  0.0000000E+00; -2.0001361E-03;  9.9803094E+02;  2.4038753E-01; -1.6313094E+03;3; -1.7338663E+01;  0.0000000E+00; -1.2173238E+00;0; -1.5831071E-01;  7.0029492E+03;  0.0000000E+00; -2.6587658E-02;  4.0000000E+04;  0.0000000E+00;  3.9414848E+04; -1.9685753E-01;  0.0000000E+00;  3.8546823E-02;  3.7040959E+03;
  9.8470032E-01;  9.9999998E-03; -2.0121420E-02;7781; -9.6403472E-03;  0.0000000E+00; -1.3596556E-03;  9.9805585E+02;  2.4041288E-01; -1.6106681E+03;3; -1.7584040E+01;  0.0000000E+00; -8.3450001E-01;0; -1.5869337E-01;  7.0011187E+03;  0.0000000E+00; -1.2308191E-02;  4.0000000E+04;  0.0000000E+00;  3.9417344E+04; -1.9870915E-01;  0.0000000E+00;  4.0015772E-02;  3.9916982E+03;
  9.8473990E-01;  9.9999998E-03; -1.0061120E-02;7782; -9.7509185E-03;  0.0000000E+00; -6.8737555E-04;  9.9807013E+02;  2.4043177E-01; -1.5988660E+03;3; -1.7726923E+01;  0.0000000E+00; -4.1903758E-01;0; -1.5891632E-01;  6.9997471E+03;  0.0000000E+00; -3.1339191E-03;  4.0000000E+04;  0.0000000E+00;  3.9419125E+04; -1.9983135E-01;  0.0000000E+00;  4.0915027E-02;  4.1959512E+03;
  9.8475403E-01;  9.9999998E-03;  1.6610084E-08;7783; -9.7880289E-03;  0.0000000E+00;  1.4458358E-07;  9.9807703E+02;  2.4043748E-01; -1.5931377E+03;3; -1.7773806E+01;  0.0000000E+00; -1.0089442E-05;0; -1.5898933E-01;  6.9992695E+03;  0.0000000E+00; -1.4673597E-10;  4.0000000E+04;  0.0000000E+00;  3.9419484E+04; -2.0020722E-01;  0.0000000E+00;  4.1217893E-02;  4.2687192E+03;
  9.8473984E-01;  9.9999998E-03;  1.0061153E-02;7784; -9.7509138E-03;  0.0000000E+00;  6.8766554E-04;  9.9807037E+02;  2.4043140E-01; -1.5986685E+03;3; -1.7726891E+01;  0.0000000E+00;  4.1899705E-01;0; -1.5891622E-01;  6.9997466E+03;  0.0000000E+00; -3.1386169E-03;  4.0000000E+04;  0.0000000E+00;  3.9419121E+04; -1.9983126E-01;  0.0000000E+00;  4.0915038E-02;  4.1959653E+03;
  9.8470038E-01;  9.9999998E-03;  2.0121453E-02;7785; -9.6403463E-03;  0.0000000E+00;  1.3599477E-03;  9.9805585E+02;  2.4041229E-01; -1.6106681E+03;3; -1.7584055E+01;  0.0000000E+00;  8.3446527E-01;0; -1.5869343E-01;  7.0011196E+03;  0.0000000E+00; -1.2317730E-02;  4.0000000E+04;  0.0000000E+00;  3.9417340E+04; -1.9870915E-01;  0.0000000E+00;  4.0015709E-02;  3.9917087E+03;
  9.8464590E-01;  9.9999998E-03;  3.0179484E-02;7786; -9.4574569E-03;  0.0000000E+00;  2.0004301E-03;  9.9803088E+02;  2.4038756E-01; -1.6313588E+03;3; -1.7338682E+01;  0.0000000E+00;  1.2172878E+00;0; -1.5831080E-01;  7.0029473E+03;  0.0000000E+00; -2.6601924E-02;  4.0000000E+04;  0.0000000E+00;  3.9414848E+04; -1.9685763E-01;  0.0000000E+00;  3.8546830E-02;  3.7041003E+03;
  9.8457986E-01;  9.9999998E-03;  4.0235888E-02;7787; -9.2010191E-03;  0.0000000E+00;  2.5903634E-03;  9.9800293E+02;  2.4035542E-01; -1.6545186E+03;3; -1.6998615E+01;  0.0000000E+00;  1.5713855E+00;0; -1.5774308E-01;  7.0052612E+03;  0.0000000E+00; -4.4389639E-02;  4.0000000E+04;  0.0000000E+00;  3.9412086E+04; -1.9430058E-01;  0.0000000E+00;  3.6557492E-02;  3.4267568E+03;
  9.8450929E-01;  9.9999998E-03;  5.0303441E-02;7788; -8.8732177E-03;  0.0000000E+00;  3.1241516E-03;  9.9798029E+02;  2.4032296E-01; -1.6732834E+03;3; -1.6564247E+01;  0.0000000E+00;  1.8833109E+00;0; -1.5695579E-01;  7.0078311E+03;  0.0000000E+00; -6.4085379E-02;  4.0000000E+04;  0.0000000E+00;  3.9409273E+04; -1.9106388E-01;  0.0000000E+00;  3.4108087E-02;  3.2897415E+03;
  9.8442537E-01;  9.9999998E-03;  6.0388230E-02;7789; -8.4737595E-03;  0.0000000E+00;  3.5891531E-03;  9.9795953E+02;  2.4027985E-01; -1.6904681E+03;3; -1.6047464E+01;  0.0000000E+00;  2.1574471E+00;0; -1.5589680E-01;  7.0109741E+03;  0.0000000E+00; -8.6172566E-02;  4.0000000E+04;  0.0000000E+00;  3.9406793E+04; -1.8717442E-01;  0.0000000E+00;  3.1277623E-02;  3.4026536E+03;
  1.0082980E+00;  9.9999998E-03; -1.0066659E-01;7834; -1.0317857E-02;  0.0000000E+00; -3.2549801E-03;  9.9869867E+02;  2.5490135E-01; -1.0781401E+03;3; -1.3842352E+01;  0.0000000E+00; -2.1774106E+00;0; -1.6330402E-01;  6.2512568E+03;  0.0000000E+00; -6.3072157E-01;  4.0000000E+04;  0.0000000E+00;  3.9360594E+04; -1.7407614E-01;  0.0000000E+00;  1.0772122E-02;  3.4277139E+03;
  1.0087641E+00;  9.9999998E-03; -9.0599470E-02;7835; -1.1171260E-02;  0.0000000E+00; -3.0384362E-03;  9.9868390E+02;  2.5518996E-01; -1.0903867E+03;3; -1.4717562E+01;  0.0000000E+00; -2.1033375E+00;0; -1.6698608E-01;  6.2349873E+03;  0.0000000E+00; -5.4385316E-01;  4.0000000E+04;  0.0000000E+00;  3.9360191E+04; -1.7997056E-01;  0.0000000E+00;  1.2984478E-02;  3.3450688E+03;
  1.0090586E+00;  9.9999998E-03; -8.0525711E-02;7836; -1.1959706E-02;  0.0000000E+00; -2.8049727E-03;  9.9867047E+02;  2.5536448E-01; -1.1014974E+03;3; -1.5533509E+01;  0.0000000E+00; -1.9952091E+00;0; -1.7012450E-01;  6.2245435E+03;  0.0000000E+00; -4.5993778E-01;  4.0000000E+04;  0.0000000E+00;  3.9359570E+04; -1.8527722E-01;  0.0000000E+00;  1.5152721E-02;  3.1282800E+03;
  1.0092690E+00;  9.9999998E-03; -7.0451289E-02;7837; -1.2681579E-02;  0.0000000E+00; -2.5475775E-03;  9.9866040E+02;  2.5548649E-01; -1.1098429E+03;3; -1.6282436E+01;  0.0000000E+00; -1.8494515E+00;0; -1.7278469E-01;  6.2169785E+03;  0.0000000E+00; -3.7840751E-01;  4.0000000E+04;  0.0000000E+00;  3.9359652E+04; -1.8999863E-01;  0.0000000E+00;  1.7213946E-02;  2.9101790E+03;
  1.0094888E+00;  9.9999998E-03; -1.0064353E-02;7843; -1.5055959E-02;  0.0000000E+00; -4.2615991E-04;  9.9858545E+02;  2.5559199E-01; -1.1719150E+03;3; -1.8871437E+01;  0.0000000E+00; -3.4165987E-01;0; -1.8028741E-01;  6.2059263E+03;  0.0000000E+00; -9.3791392E-03;  4.0000000E+04;  0.0000000E+00;  3.9372617E+04; -2.0540191E-01;  0.0000000E+00;  2.5114508E-02;  4.0985352E+03;
  1.0094997E+00;  9.9999998E-03;  1.4664450E-08;7844; -1.5108580E-02;  0.0000000E+00;  1.5045185E-07;  9.9858545E+02;  2.5559810E-01; -1.1719150E+03;3; -1.8934055E+01;  0.0000000E+00; -2.6056943E-05;0; -1.8043822E-01;  6.2054482E+03;  0.0000000E+00; -3.0152381E-10;  4.0000000E+04;  0.0000000E+00;  3.9373344E+04; -2.0573433E-01;  0.0000000E+00;  2.5296113E-02;  4.1776260E+03;
  1.0094887E+00;  9.9999998E-03;  1.0064382E-02;7845; -1.5055956E-02;  0.0000000E+00;  4.2646180E-04;  9.9858563E+02;  2.5559205E-01; -1.1717670E+03;3; -1.8871464E+01;  0.0000000E+00;  3.4161982E-01;0; -1.8028729E-01;  6.2059272E+03;  0.0000000E+00; -9.3857283E-03;  4.0000000E+04;  0.0000000E+00;  3.9372621E+04; -2.0540181E-01;  0.0000000E+00;  2.5114521E-02;  4.0985317E+03;
  1.0094634E+00;  9.9999998E-03; -2.0124568E-02;7842; -1.4901150E-02;  0.0000000E+00; -8.4404962E-04;  9.9858990E+02;  2.5557488E-01; -1.1682115E+03;3; -1.8698305E+01;  0.0000000E+00; -6.6513813E-01;0; -1.7983942E-01;  6.2071060E+03;  0.0000000E+00; -3.7364244E-02;  4.0000000E+04;  0.0000000E+00;  3.9370859E+04; -2.0441009E-01;  0.0000000E+00;  2.4570676E-02;  3.8762361E+03;
  1.0094634E+00;  9.9999998E-03;  2.0124597E-02;7846; -1.4901146E-02;  0.0000000E+00;  8.4435032E-04;  9.9858990E+02;  2.5557584E-01; -1.1682115E+03;3; -1.8698351E+01;  0.0000000E+00;  6.6508335E-01;0; -1.7983922E-01;  6.2071079E+03;  0.0000000E+00; -3.7377551E-02;  4.0000000E+04;  0.0000000E+00;  3.9370863E+04; -2.0440990E-01;  0.0000000E+00;  2.4570677E-02;  3.8762095E+03;
  1.0094401E+00;  9.9999998E-03; -3.0181004E-02;7841; -1.4648651E-02;  0.0000000E+00; -1.2460492E-03;  9.9859607E+02;  2.5556359E-01; -1.1631252E+03;3; -1.8414974E+01;  0.0000000E+00; -9.7697037E-01;0; -1.7910090E-01;  6.2084434E+03;  0.0000000E+00; -8.3133139E-02;  4.0000000E+04;  0.0000000E+00;  3.9368500E+04; -2.0277172E-01;  0.0000000E+00;  2.3670828E-02;  3.5552964E+03;
  1.0094401E+00;  9.9999998E-03;  3.0181034E-02;7847; -1.4648640E-02;  0.0000000E+00;  1.2463499E-03;  9.9859595E+02;  2.5556409E-01; -1.1632240E+03;3; -1.8415007E+01;  0.0000000E+00;  9.7691989E-01;0; -1.7910092E-01;  6.2084448E+03;  0.0000000E+00; -8.3153561E-02;  4.0000000E+04;  0.0000000E+00;  3.9368492E+04; -2.0277171E-01;  0.0000000E+00;  2.3670798E-02;  3.5552971E+03;
  1.0094396E+00;  9.9999998E-03; -4.0244509E-02;7840; -1.4303165E-02;  0.0000000E+00; -1.6181300E-03;  9.9861066E+02;  2.5556859E-01; -1.1510269E+03;3; -1.8030231E+01;  0.0000000E+00; -1.2418989E+00;0; -1.7807604E-01;  6.2091914E+03;  0.0000000E+00; -1.4454912E-01;  4.0000000E+04;  0.0000000E+00;  3.9365352E+04; -2.0050398E-01;  0.0000000E+00;  2.2427937E-02;  3.2070601E+03;
  1.0094396E+00;  9.9999998E-03;  4.0244538E-02;7848; -1.4303159E-02;  0.0000000E+00;  1.6184286E-03;  9.9861047E+02;  2.5556898E-01; -1.1511749E+03;3; -1.8030262E+01;  0.0000000E+00;  1.2418603E+00;0; -1.7807592E-01;  6.2091909E+03;  0.0000000E+00; -1.4457574E-01;  4.0000000E+04;  0.0000000E+00;  3.9365352E+04; -2.0050383E-01;  0.0000000E+00;  2.2427903E-02;  3.2070229E+03;
  1.0094301E+00;  9.9999998E-03; -6.0383711E-02;7838; -1.3327287E-02;  0.0000000E+00; -2.2634226E-03;  9.9865167E+02;  2.5557840E-01; -1.1170526E+03;3; -1.6956429E+01;  0.0000000E+00; -1.6699810E+00;0; -1.7500684E-01;  6.2110884E+03;  0.0000000E+00; -2.9734385E-01;  4.0000000E+04;  0.0000000E+00;  3.9360582E+04; -1.9412415E-01;  0.0000000E+00;  1.9117305E-02;  2.8203438E+03;
  1.0094299E+00;  9.9999998E-03;  6.0383752E-02;7850; -1.3327262E-02;  0.0000000E+00;  2.2637371E-03;  9.9865234E+02;  2.5557950E-01; -1.1165094E+03;3; -1.6956425E+01;  0.0000000E+00;  1.6699369E+00;0; -1.7500678E-01;  6.2110898E+03;  0.0000000E+00; -2.9738024E-01;  4.0000000E+04;  0.0000000E+00;  3.9360578E+04; -1.9412403E-01;  0.0000000E+00;  1.9117245E-02;  2.8203208E+03;
  1.0094560E+00;  9.9999998E-03; -5.0315879E-02;7839; -1.3865144E-02;  0.0000000E+00; -1.9572186E-03;  9.9863312E+02;  2.5558695E-01; -1.1324102E+03;3; -1.7542664E+01;  0.0000000E+00; -1.4690982E+00;0; -1.7673665E-01;  6.2094688E+03;  0.0000000E+00; -2.1772905E-01;  4.0000000E+04;  0.0000000E+00;  3.9362609E+04; -1.9762042E-01;  0.0000000E+00;  2.0883776E-02;  2.9294788E+03;
  1.0094559E+00;  9.9999998E-03;  5.0315913E-02;7849; -1.3865129E-02;  0.0000000E+00;  1.9575260E-03;  9.9863342E+02;  2.5558656E-01; -1.1321632E+03;3; -1.7542700E+01;  0.0000000E+00;  1.4690615E+00;0; -1.7673650E-01;  6.2094683E+03;  0.0000000E+00; -2.1776040E-01;  4.0000000E+04;  0.0000000E+00;  3.9362602E+04; -1.9762026E-01;  0.0000000E+00;  2.0883758E-02;  2.9294167E+03;
  1.0339864E+00;  9.9999998E-03;  1.7381520E-08;7905; -2.0332191E-02;  0.0000000E+00;  1.5742272E-07;  9.9827289E+02;  2.7118006E-01; -1.4308688E+03;3; -2.0076988E+01;  0.0000000E+00; -2.1973625E-05;0; -2.0663463E-01;  5.5193931E+03;  0.0000000E+00; -3.6229170E-10;  4.0000000E+04;  0.0000000E+00;  3.9323141E+04; -2.1117525E-01;  0.0000000E+00;  4.5406171E-03;  3.5599094E+03;
  1.0340046E+00;  9.9999998E-03; -1.0059532E-02;7904; -2.0272700E-02;  0.0000000E+00; -1.1555508E-04;  9.9829260E+02;  2.7118942E-01; -1.4145237E+03;3; -2.0013012E+01;  0.0000000E+00; -1.9521376E-01;0; -2.0645076E-01;  5.5191987E+03;  0.0000000E+00; -7.0065935E-03;  4.0000000E+04;  0.0000000E+00;  3.9322520E+04; -2.1091838E-01;  0.0000000E+00;  4.4676275E-03;  3.4944236E+03;
  1.0340047E+00;  9.9999998E-03;  1.0059565E-02;7906; -2.0272708E-02;  0.0000000E+00;  1.1586842E-04;  9.9829272E+02;  2.7119026E-01; -1.4144248E+03;3; -2.0012980E+01;  0.0000000E+00;  1.9516553E-01;0; -2.0645060E-01;  5.5191958E+03;  0.0000000E+00; -7.0087388E-03;  4.0000000E+04;  0.0000000E+00;  3.9322512E+04; -2.1091817E-01;  0.0000000E+00;  4.4675712E-03;  3.4944004E+03;
  1.0340621E+00;  9.9999998E-03; -2.0118706E-02;7903; -2.0095557E-02;  0.0000000E+00; -2.2479749E-04;  9.9834180E+02;  2.7122855E-01; -1.3737842E+03;3; -1.9821753E+01;  0.0000000E+00; -3.8363239E-01;0; -2.0590113E-01;  5.5185186E+03;  0.0000000E+00; -2.8236154E-02;  4.0000000E+04;  0.0000000E+00;  3.9321223E+04; -2.1014971E-01;  0.0000000E+00;  4.2485734E-03;  3.3117446E+03;
  1.0340621E+00;  9.9999998E-03;  2.0118738E-02;7907; -2.0095559E-02;  0.0000000E+00;  2.2511033E-04;  9.9834180E+02;  2.7122855E-01; -1.3737842E+03;3; -1.9821775E+01;  0.0000000E+00;  3.8357174E-01;0; -2.0590104E-01;  5.5185132E+03;  0.0000000E+00; -2.8240805E-02;  4.0000000E+04;  0.0000000E+00;  3.9321219E+04; -2.1014956E-01;  0.0000000E+00;  4.2485162E-03;  3.3116648E+03;
  1.0341638E+00;  9.9999998E-03; -3.0183215E-02;7902; -1.9804040E-02;  0.0000000E+00; -3.2265345E-04;  9.9841901E+02;  2.7129427E-01; -1.3098356E+03;3; -1.9505472E+01;  0.0000000E+00; -5.5629236E-01;0; -2.0498745E-01;  5.5170386E+03;  0.0000000E+00; -6.4047404E-02;  4.0000000E+04;  0.0000000E+00;  3.9318848E+04; -2.0887481E-01;  0.0000000E+00;  3.8873502E-03;  3.0513887E+03;
  1.0341638E+00;  9.9999998E-03;  3.0183244E-02;7908; -1.9804031E-02;  0.0000000E+00;  3.2296721E-04;  9.9841913E+02;  2.7129456E-01; -1.3097368E+03;3; -1.9505499E+01;  0.0000000E+00;  5.5623251E-01;0; -2.0498742E-01;  5.5170352E+03;  0.0000000E+00; -6.4054273E-02;  4.0000000E+04;  0.0000000E+00;  3.9318848E+04; -2.0887472E-01;  0.0000000E+00;  3.8872974E-03;  3.0513516E+03;
  1.0343173E+00;  9.9999998E-03; -4.0260710E-02;7901; -1.9403614E-02;  0.0000000E+00; -4.0702496E-04;  9.9851703E+02;  2.7139848E-01; -1.2286035E+03;3; -1.9069323E+01;  0.0000000E+00; -7.1211743E-01;0; -2.0370968E-01;  5.5143804E+03;  0.0000000E+00; -1.1428640E-01;  4.0000000E+04;  0.0000000E+00;  3.9316449E+04; -2.0709997E-01;  0.0000000E+00;  3.3902922E-03;  2.7748103E+03;
  1.0343173E+00;  9.9999998E-03;  4.0260743E-02;7909; -1.9403594E-02;  0.0000000E+00;  4.0734428E-04;  9.9851727E+02;  2.7139881E-01; -1.2284060E+03;3; -1.9069387E+01;  0.0000000E+00;  7.1209902E-01;0; -2.0370977E-01;  5.5143789E+03;  0.0000000E+00; -1.1429432E-01;  4.0000000E+04;  0.0000000E+00;  3.9316453E+04; -2.0710002E-01;  0.0000000E+00;  3.3902521E-03;  2.7748088E+03;
  1.0345209E+00;  9.9999998E-03; -5.0342362E-02;7900; -1.8900491E-02;  0.0000000E+00; -4.8028323E-04;  9.9861548E+02;  2.7154189E-01; -1.1470259E+03;3; -1.8520775E+01;  0.0000000E+00; -8.4773892E-01;0; -2.0205793E-01;  5.5103276E+03;  0.0000000E+00; -1.7748857E-01;  4.0000000E+04;  0.0000000E+00;  3.9314523E+04; -2.0483369E-01;  0.0000000E+00;  2.7757636E-03;  2.5574971E+03;
  1.0345209E+00;  9.9999998E-03;  5.0342396E-02;7910; -1.8900471E-02;  0.0000000E+00;  4.8059950E-04;  9.9861554E+02;  2.7154258E-01; -1.1469764E+03;3; -1.8520790E+01;  0.0000000E+00;  8.4770906E-01;0; -2.0205785E-01;  5.5103296E+03;  0.0000000E+00; -1.7750029E-01;  4.0000000E+04;  0.0000000E+00;  3.9314516E+04; -2.0483357E-01;  0.0000000E+00;  2.7757096E-03;  2.5574316E+03;
  1.0347650E+00;  9.9999998E-03; -6.0418267E-02;7899; -1.8301630E-02;  0.0000000E+00; -5.4831494E-04;  9.9871271E+02;  2.7171609E-01; -1.0664851E+03;3; -1.7868637E+01;  0.0000000E+00; -9.6271151E-01;0; -2.0001329E-01;  5.5049702E+03;  0.0000000E+00; -2.5043079E-01;  4.0000000E+04;  0.0000000E+00;  3.9313406E+04; -2.0208232E-01;  0.0000000E+00;  2.0690321E-03;  2.4596123E+03;
  1.0347650E+00;  9.9999998E-03;  6.0418304E-02;7911; -1.8301612E-02;  0.0000000E+00;  5.4863392E-04;  9.9871271E+02;  2.7171761E-01; -1.0664851E+03;3; -1.7868628E+01;  0.0000000E+00;  9.6272403E-01;0; -2.0001315E-01;  5.5049673E+03;  0.0000000E+00; -2.5044256E-01;  4.0000000E+04;  0.0000000E+00;  3.9313406E+04; -2.0208208E-01;  0.0000000E+00;  2.0689352E-03;  2.4595984E+03;
  1.0347492E+00;  9.9999998E-03; -1.0070302E-01;7895; -1.4889189E-02;  0.0000000E+00; -9.6440082E-04;  9.9886700E+02;  2.7178529E-01; -9.3868658E+02;3; -1.4366658E+01;  0.0000000E+00; -1.1797478E+00;0; -1.8632327E-01;  5.5098667E+03;  0.0000000E+00; -5.6088150E-01;  4.0000000E+04;  0.0000000E+00;  3.9317129E+04; -1.8560855E-01;  0.0000000E+00; -7.1471621E-04;  3.1104373E+03;
  1.0350025E+00;  9.9999998E-03; -7.0496000E-02;7898; -1.7606515E-02;  0.0000000E+00; -6.1998150E-04;  9.9878943E+02;  2.7189466E-01; -1.0029315E+03;3; -1.7119661E+01;  0.0000000E+00; -1.0560448E+00;0; -1.9751257E-01;  5.4995776E+03;  0.0000000E+00; -3.2889298E-01;  4.0000000E+04;  0.0000000E+00;  3.9313195E+04; -1.9883002E-01;  0.0000000E+00;  1.3174560E-03;  2.4931606E+03;
  1.0350899E+00;  9.9999998E-03; -9.0642907E-02;7896; -1.5903173E-02;  0.0000000E+00; -8.1909331E-04;  9.9885754E+02;  2.7199829E-01; -9.4648883E+02;3; -1.5359423E+01;  0.0000000E+00; -1.1648842E+00;0; -1.9075140E-01;  5.4991016E+03;  0.0000000E+00; -4.8692223E-01;  4.0000000E+04;  0.0000000E+00;  3.9315445E+04; -1.9065341E-01;  0.0000000E+00; -9.7984506E-05;  2.8692478E+03;
  1.0351453E+00;  9.9999998E-03; -8.0572702E-02;7897; -1.6809041E-02;  0.0000000E+00; -7.0632750E-04;  9.9883710E+02;  2.7201504E-01; -9.6342657E+02;3; -1.6280014E+01;  0.0000000E+00; -1.1248524E+00;0; -1.9445875E-01;  5.4965918E+03;  0.0000000E+00; -4.0878385E-01;  4.0000000E+04;  0.0000000E+00;  3.9313918E+04; -1.9503947E-01;  0.0000000E+00;  5.8071234E-04;  2.6411228E+03;
  1.0623745E+00;  9.9999998E-03; -1.0084231E-02;7965; -2.6302679E-02;  0.0000000E+00;  2.6019945E-04;  9.9740070E+02;  2.8997481E-01; -2.1534600E+03;3; -2.1249577E+01;  0.0000000E+00; -1.6383767E-02;0; -2.4003260E-01;  4.8298501E+03;  0.0000000E+00;  6.9107912E-03;  4.0000000E+04;  0.0000000E+00;  3.9258758E+04; -2.1604788E-01;  0.0000000E+00; -2.3984721E-02;  2.0188599E+03;
  1.0624071E+00;  9.9999998E-03;  2.2953271E-08;7966; -2.6379766E-02;  0.0000000E+00;  1.6425521E-07;  9.9737653E+02;  2.9000306E-01; -2.1735088E+03;3; -2.1324936E+01;  0.0000000E+00; -3.4751050E-05;0; -2.4032520E-01;  4.8286479E+03;  0.0000000E+00; -3.1206279E-10;  4.0000000E+04;  0.0000000E+00;  3.9259055E+04; -2.1621086E-01;  0.0000000E+00; -2.4114335E-02;  2.0608528E+03;
  1.0623745E+00;  9.9999998E-03;  1.0084275E-02;7967; -2.6302675E-02;  0.0000000E+00; -2.5987212E-04;  9.9740051E+02;  2.8997284E-01; -2.1536082E+03;3; -2.1249540E+01;  0.0000000E+00;  1.6320193E-02;0; -2.4003273E-01;  4.8298521E+03;  0.0000000E+00;  6.9209584E-03;  4.0000000E+04;  0.0000000E+00;  3.9258754E+04; -2.1604799E-01;  0.0000000E+00; -2.3984745E-02;  2.0188763E+03;
  1.0623130E+00;  9.9999998E-03; -2.0164350E-02;7964; -2.6081745E-02;  0.0000000E+00;  5.1400036E-04;  9.9746362E+02;  2.8991640E-01; -2.1013137E+03;3; -2.1026646E+01;  0.0000000E+00; -3.0178901E-02;0; -2.3920000E-01;  4.8324502E+03;  0.0000000E+00;  2.6830468E-02;  4.0000000E+04;  0.0000000E+00;  3.9258316E+04; -2.1555996E-01;  0.0000000E+00; -2.3640038E-02;  1.9073076E+03;
  1.0623131E+00;  9.9999998E-03;  2.0164393E-02;7968; -2.6081741E-02;  0.0000000E+00; -5.1367254E-04;  9.9746368E+02;  2.8991708E-01; -2.1012642E+03;3; -2.1026634E+01;  0.0000000E+00;  3.0128296E-02;0; -2.3920004E-01;  4.8324507E+03;  0.0000000E+00;  2.6851084E-02;  4.0000000E+04;  0.0000000E+00;  3.9258312E+04; -2.1555994E-01;  0.0000000E+00; -2.3640091E-02;  1.9073168E+03;
  1.0622430E+00;  9.9999998E-03; -3.0239187E-02;7963; -2.5725298E-02;  0.0000000E+00;  7.5666298E-04;  9.9755621E+02;  2.8984448E-01; -2.0246248E+03;3; -2.0661461E+01;  0.0000000E+00; -3.8333781E-02;0; -2.3785593E-01;  4.8358232E+03;  0.0000000E+00;  5.7155259E-02;  4.0000000E+04;  0.0000000E+00;  3.9257109E+04; -2.1474065E-01;  0.0000000E+00; -2.3115279E-02;  1.7729707E+03;
  1.0622429E+00;  9.9999998E-03;  3.0239224E-02;7969; -2.5725283E-02;  0.0000000E+00; -7.5633579E-04;  9.9755603E+02;  2.8984380E-01; -2.0247729E+03;3; -2.0661428E+01;  0.0000000E+00;  3.8277298E-02;0; -2.3785600E-01;  4.8358237E+03;  0.0000000E+00;  5.7183620E-02;  4.0000000E+04;  0.0000000E+00;  3.9257109E+04; -2.1474068E-01;  0.0000000E+00; -2.3115315E-02;  1.7729435E+03;
  1.0621727E+00;  9.9999998E-03; -4.0316589E-02;7962; -2.5240265E-02;  0.0000000E+00;  9.8350446E-04;  9.9766467E+02;  2.8976959E-01; -1.9347512E+03;3; -2.0160294E+01;  0.0000000E+00; -3.7756912E-02;0; -2.3601536E-01;  4.8395225E+03;  0.0000000E+00;  9.3149610E-02;  4.0000000E+04;  0.0000000E+00;  3.9256637E+04; -2.1357694E-01;  0.0000000E+00; -2.2438416E-02;  1.6869133E+03;
  1.0621727E+00;  9.9999998E-03;  4.0316626E-02;7970; -2.5240254E-02;  0.0000000E+00; -9.8317943E-04;  9.9766449E+02;  2.8976977E-01; -1.9348993E+03;3; -2.0160194E+01;  0.0000000E+00;  3.7719943E-02;0; -2.3601520E-01;  4.8395225E+03;  0.0000000E+00;  9.3183316E-02;  4.0000000E+04;  0.0000000E+00;  3.9256637E+04; -2.1357669E-01;  0.0000000E+00; -2.2438504E-02;  1.6868954E+03;
  1.0621259E+00;  9.9999998E-03; -5.0404355E-02;7961; -2.4638599E-02;  0.0000000E+00;  1.1906055E-03;  9.9777777E+02;  2.8970885E-01; -1.8410753E+03;3; -1.9531517E+01;  0.0000000E+00; -2.4826651E-02;0; -2.3371039E-01;  4.8427114E+03;  0.0000000E+00;  1.2768771E-01;  4.0000000E+04;  0.0000000E+00;  3.9256406E+04; -2.1205480E-01;  0.0000000E+00; -2.1655586E-02;  1.7178177E+03;
  1.0621260E+00;  9.9999998E-03;  5.0404400E-02;7971; -2.4638580E-02;  0.0000000E+00; -1.1902810E-03;  9.9777789E+02;  2.8970855E-01; -1.8409764E+03;3; -1.9531504E+01;  0.0000000E+00;  2.4785293E-02;0; -2.3371027E-01;  4.8427134E+03;  0.0000000E+00;  1.2772876E-01;  4.0000000E+04;  0.0000000E+00;  3.9256402E+04; -2.1205460E-01;  0.0000000E+00; -2.1655679E-02;  1.7178003E+03;
  1.0621308E+00;  9.9999998E-03; -6.0493529E-02;7960; -2.3935625E-02;  0.0000000E+00;  1.3750811E-03;  9.9786249E+02;  2.8969425E-01; -1.7709048E+03;3; -1.8785561E+01;  0.0000000E+00;  4.2853337E-03;0; -2.3098156E-01;  4.8443750E+03;  0.0000000E+00;  1.5058538E-01;  4.0000000E+04;  0.0000000E+00;  3.9257504E+04; -2.1016407E-01;  0.0000000E+00; -2.0817488E-02;  1.9028088E+03;
  1.0621308E+00;  9.9999998E-03;  6.0493566E-02;7972; -2.3935609E-02;  0.0000000E+00; -1.3747537E-03;  9.9786237E+02;  2.8969502E-01; -1.7710035E+03;3; -1.8785509E+01;  0.0000000E+00; -4.2956132E-03;0; -2.3098135E-01;  4.8443774E+03;  0.0000000E+00;  1.5063351E-01;  4.0000000E+04;  0.0000000E+00;  3.9257500E+04; -2.1016374E-01;  0.0000000E+00; -2.0817615E-02;  1.9028621E+03;
  1.0623225E+00;  9.9999998E-03; -7.0583031E-02;7959; -2.3173185E-02;  0.0000000E+00;  1.5452487E-03;  9.9791486E+02;  2.8982383E-01; -1.7274988E+03;3; -1.7936441E+01;  0.0000000E+00;  5.8401715E-02;0; -2.2798759E-01;  4.8410068E+03;  0.0000000E+00;  1.5082946E-01;  4.0000000E+04;  0.0000000E+00;  3.9259445E+04; -2.0792533E-01;  0.0000000E+00; -2.0062258E-02;  2.2341396E+03;
  1.0627987E+00;  9.9999998E-03; -8.0673136E-02;7958; -2.2384765E-02;  0.0000000E+00;  1.7131630E-03;  9.9791376E+02;  2.9017365E-01; -1.7283876E+03;3; -1.6994568E+01;  0.0000000E+00;  1.4783175E-01;0; -2.2483811E-01;  4.8301973E+03;  0.0000000E+00;  1.1648501E-01;  4.0000000E+04;  0.0000000E+00;  3.9261980E+04; -2.0536840E-01;  0.0000000E+00; -1.9469714E-02;  2.6764504E+03;
  1.0632715E+00;  9.9999998E-03; -9.0757199E-02;7957; -2.1509930E-02;  0.0000000E+00;  1.8598570E-03;  9.9788562E+02;  2.9052830E-01; -1.7516953E+03;3; -1.5959708E+01;  0.0000000E+00;  2.6135328E-01;0; -2.2121733E-01;  4.8193154E+03;  0.0000000E+00;  3.0310059E-02;  4.0000000E+04;  0.0000000E+00;  3.9265164E+04; -2.0240468E-01;  0.0000000E+00; -1.8812649E-02;  3.1605632E+03;
  1.0638176E+00;  9.9999998E-03; -1.0084412E-01;7956; -2.0577729E-02;  0.0000000E+00;  1.9993703E-03;  9.9783856E+02;  2.9093567E-01; -1.7907064E+03;3; -1.4841716E+01;  0.0000000E+00;  4.0435332E-01;0; -2.1721634E-01;  4.8068389E+03;  0.0000000E+00; -1.1085250E-01;  4.0000000E+04;  0.0000000E+00;  3.9267566E+04; -1.9903740E-01;  0.0000000E+00; -1.8178945E-02;  3.6208911E+03;
  1.0920600E+00;  9.9999998E-03; -1.0114592E-02;8026; -3.3151172E-02;  0.0000000E+00;  6.7482906E-04;  9.9523132E+02;  3.0999944E-01; -3.9507241E+03;3; -2.2528772E+01;  0.0000000E+00;  1.8079963E-01;0; -2.5625652E-01;  4.2173081E+03;  0.0000000E+00;  1.6363231E-02;  4.0000000E+04;  0.0000000E+00;  3.9187266E+04; -1.9975251E-01;  0.0000000E+00; -5.6504022E-02;  2.2140471E+02;
  1.0920553E+00;  9.9999998E-03;  2.7350783E-08;8027; -3.3218309E-02;  0.0000000E+00;  1.7073177E-07;  9.9521124E+02;  3.1000230E-01; -3.9673655E+03;3; -2.2614578E+01;  0.0000000E+00; -2.2923952E-05;0; -2.5655091E-01;  4.2171118E+03;  0.0000000E+00; -1.8327173E-10;  4.0000000E+04;  0.0000000E+00;  3.9187375E+04; -1.9982296E-01;  0.0000000E+00; -5.6727957E-02;  1.8789497E+02;
  1.0920599E+00;  9.9999998E-03;  1.0114643E-02;8028; -3.3151157E-02;  0.0000000E+00; -6.7448657E-04;  9.9523120E+02;  3.1000015E-01; -3.9508230E+03;3; -2.2528807E+01;  0.0000000E+00; -1.8084721E-01;0; -2.5625661E-01;  4.2173076E+03;  0.0000000E+00;  1.6385294E-02;  4.0000000E+04;  0.0000000E+00;  3.9187270E+04; -1.9975264E-01;  0.0000000E+00; -5.6503959E-02;  2.2139389E+02;
  1.0920823E+00;  9.9999998E-03; -2.0222647E-02;8025; -3.2953322E-02;  0.0000000E+00;  1.3393885E-03;  9.9528534E+02;  3.1000051E-01; -3.9059851E+03;3; -2.2273649E+01;  0.0000000E+00;  3.6491311E-01;0; -2.5536868E-01;  4.2177295E+03;  0.0000000E+00;  6.5057538E-02;  4.0000000E+04;  0.0000000E+00;  3.9186660E+04; -1.9951873E-01;  0.0000000E+00; -5.5849943E-02;  3.7855096E+02;
  1.0920823E+00;  9.9999998E-03;  2.0222697E-02;8029; -3.2953318E-02;  0.0000000E+00; -1.3390468E-03;  9.9528528E+02;  3.0999938E-01; -3.9060344E+03;3; -2.2273706E+01;  0.0000000E+00; -3.6495104E-01;0; -2.5536862E-01;  4.2177305E+03;  0.0000000E+00;  6.5100744E-02;  4.0000000E+04;  0.0000000E+00;  3.9186664E+04; -1.9951867E-01;  0.0000000E+00; -5.5849951E-02;  3.7861111E+02;
  1.0921276E+00;  9.9999998E-03; -3.0325936E-02;8024; -3.2629386E-02;  0.0000000E+00;  1.9848105E-03;  9.9535779E+02;  3.1000951E-01; -3.8459377E+03;3; -2.1854509E+01;  0.0000000E+00;  5.5577040E-01;0; -2.5390154E-01;  4.2180859E+03;  0.0000000E+00;  1.4423861E-01;  4.0000000E+04;  0.0000000E+00;  3.9186043E+04; -1.9910620E-01;  0.0000000E+00; -5.4795336E-02;  6.8481262E+02;
  1.0921276E+00;  9.9999998E-03;  3.0325983E-02;8030; -3.2629378E-02;  0.0000000E+00; -1.9844708E-03;  9.9535773E+02;  3.1000891E-01; -3.8459871E+03;3; -2.1854494E+01;  0.0000000E+00; -5.5581439E-01;0; -2.5390142E-01;  4.2180889E+03;  0.0000000E+00;  1.4430143E-01;  4.0000000E+04;  0.0000000E+00;  3.9186039E+04; -1.9910602E-01;  0.0000000E+00; -5.4795388E-02;  6.8490771E+02;
  1.0921890E+00;  9.9999998E-03; -4.0434398E-02;8023; -3.2181632E-02;  0.0000000E+00;  2.6026729E-03;  9.9544330E+02;  3.1002259E-01; -3.7751255E+03;3; -2.1278376E+01;  0.0000000E+00;  7.5648731E-01;0; -2.5189251E-01;  4.2183418E+03;  0.0000000E+00;  2.4867639E-01;  4.0000000E+04;  0.0000000E+00;  3.9186098E+04; -1.9852228E-01;  0.0000000E+00; -5.3370219E-02;  1.1100591E+03;
  1.0921890E+00;  9.9999998E-03;  4.0434439E-02;8031; -3.2181617E-02;  0.0000000E+00; -2.6023316E-03;  9.9544305E+02;  3.1002253E-01; -3.7753230E+03;3; -2.1278402E+01;  0.0000000E+00; -7.5651008E-01;0; -2.5189227E-01;  4.2183398E+03;  0.0000000E+00;  2.4875720E-01;  4.0000000E+04;  0.0000000E+00;  3.9186086E+04; -1.9852208E-01;  0.0000000E+00; -5.3370181E-02;  1.1101740E+03;
  1.0922856E+00;  9.9999998E-03; -5.0559323E-02;8022; -3.1620540E-02;  0.0000000E+00;  3.1866936E-03;  9.9550793E+02;  3.1005809E-01; -3.7215469E+03;3; -2.0554468E+01;  0.0000000E+00;  9.7065151E-01;0; -2.4934100E-01;  4.2178975E+03;  0.0000000E+00;  3.6615339E-01;  4.0000000E+04;  0.0000000E+00;  3.9186867E+04; -1.9770044E-01;  0.0000000E+00; -5.1640555E-02;  1.6104725E+03;
  1.0922858E+00;  9.9999998E-03;  5.0559368E-02;8032; -3.1620517E-02;  0.0000000E+00; -3.1863544E-03;  9.9550830E+02;  3.1005803E-01; -3.7212505E+03;3; -2.0554445E+01;  0.0000000E+00; -9.7066808E-01;0; -2.4934056E-01;  4.2178979E+03;  0.0000000E+00;  3.6625090E-01;  4.0000000E+04;  0.0000000E+00;  3.9186863E+04; -1.9769993E-01;  0.0000000E+00; -5.1640637E-02;  1.6106318E+03;
  1.0924171E+00;  9.9999998E-03; -6.0689390E-02;8021; -3.0951781E-02;  0.0000000E+00;  3.7300773E-03;  9.9554358E+02;  3.1012201E-01; -3.6920171E+03;3; -1.9694077E+01;  0.0000000E+00;  1.2004753E+00;0; -2.4628216E-01;  4.2164673E+03;  0.0000000E+00;  4.7381213E-01;  4.0000000E+04;  0.0000000E+00;  3.9189020E+04; -1.9661987E-01;  0.0000000E+00; -4.9662288E-02;  2.1237239E+03;
  1.0924171E+00;  9.9999998E-03;  6.0689442E-02;8033; -3.0951761E-02;  0.0000000E+00; -3.7297369E-03;  9.9554370E+02;  3.1012234E-01; -3.6919182E+03;3; -1.9694033E+01;  0.0000000E+00; -1.2004914E+00;0; -2.4628174E-01;  4.2164668E+03;  0.0000000E+00;  4.7392163E-01;  4.0000000E+04;  0.0000000E+00;  3.9189020E+04; -1.9661939E-01;  0.0000000E+00; -4.9662352E-02;  2.1239014E+03;
  1.0926579E+00;  9.9999998E-03; -7.0812613E-02;8020; -3.0202143E-02;  0.0000000E+00;  4.2347847E-03;  9.9552747E+02;  3.1027338E-01; -3.7053992E+03;3; -1.8711910E+01;  0.0000000E+00;  1.4518207E+00;0; -2.4263355E-01;  4.2122827E+03;  0.0000000E+00;  5.3921157E-01;  4.0000000E+04;  0.0000000E+00;  3.9192852E+04; -1.9506855E-01;  0.0000000E+00; -4.7564995E-02;  2.5844822E+03;
  1.0930886E+00;  9.9999998E-03; -8.0920249E-02;8019; -2.9399838E-02;  0.0000000E+00;  4.7098049E-03;  9.9544324E+02;  3.1057978E-01; -3.7751743E+03;3; -1.7621698E+01;  0.0000000E+00;  1.7324920E+00;0; -2.3828156E-01;  4.2036230E+03;  0.0000000E+00;  5.2686208E-01;  4.0000000E+04;  0.0000000E+00;  3.9197480E+04; -1.9281076E-01;  0.0000000E+00; -4.5470804E-02;  2.9520662E+03;
  1.0936968E+00;  9.9999998E-03; -9.1014989E-02;8018; -2.8545935E-02;  0.0000000E+00;  5.1618842E-03;  9.9529395E+02;  3.1102517E-01; -3.8988242E+03;3; -1.6432652E+01;  0.0000000E+00;  2.0449543E+00;0; -2.3323020E-01;  4.1909419E+03;  0.0000000E+00;  4.0954268E-01;  4.0000000E+04;  0.0000000E+00;  3.9202625E+04; -1.8982534E-01;  0.0000000E+00; -4.3404866E-02;  3.2389443E+03;
  1.0942538E+00;  9.9999998E-03; -1.0110161E-01;8017; -2.7579125E-02;  0.0000000E+00;  5.5758446E-03;  9.9512952E+02;  3.1142846E-01; -4.0350659E+03;3; -1.5151592E+01;  0.0000000E+00;  2.3721621E+00;0; -2.2788675E-01;  4.1794727E+03;  0.0000000E+00;  1.8003416E-01;  4.0000000E+04;  0.0000000E+00;  3.9207598E+04; -1.8667094E-01;  0.0000000E+00; -4.1215803E-02;  3.5035603E+03;
  1.1254121E+00;  9.9999998E-03; -1.0140727E-02;8087; -4.1049022E-02;  0.0000000E+00;  1.1204763E-03;  9.9233612E+02;  3.3280358E-01; -6.3493257E+03;3; -2.3934675E+01;  0.0000000E+00;  5.0484943E-01;0;  3.7433542E-02;  3.6469189E+03;  0.0000000E+00;  6.7770141E-03;  4.0000000E+04;  0.0000000E+00;  3.9102184E+04;  1.2071763E-01;  0.0000000E+00; -8.3284087E-02;  3.4854473E+03;
  1.1254399E+00;  9.9999998E-03;  2.9072847E-08;8088; -4.1116416E-02;  0.0000000E+00;  1.7394986E-07;  9.9231171E+02;  3.3283165E-01; -6.3695220E+03;3; -2.4039551E+01;  0.0000000E+00; -2.6249083E-05;0;  3.8080700E-02;  3.6461423E+03;  0.0000000E+00;  1.6172197E-10;  4.0000000E+04;  0.0000000E+00;  3.9102125E+04;  1.2162848E-01;  0.0000000E+00; -8.3547778E-02;  3.4699407E+03;
  1.1254120E+00;  9.9999998E-03;  1.0140784E-02;8089; -4.1049007E-02;  0.0000000E+00; -1.1201273E-03;  9.9233618E+02;  3.3280328E-01; -6.3492759E+03;3; -2.3934683E+01;  0.0000000E+00; -5.0486016E-01;0;  3.7433289E-02;  3.6469204E+03;  0.0000000E+00;  6.7956364E-03;  4.0000000E+04;  0.0000000E+00;  3.9102188E+04;  1.2071732E-01;  0.0000000E+00; -8.3284035E-02;  3.4854653E+03;
  1.1253405E+00;  9.9999998E-03; -2.0272592E-02;8086; -4.0850073E-02;  0.0000000E+00;  2.2253317E-03;  9.9241473E+02;  3.3272746E-01; -6.2841929E+03;3; -2.3624186E+01;  0.0000000E+00;  1.0096331E+00;0;  3.5729595E-02;  3.6489885E+03;  0.0000000E+00;  2.9270906E-02;  4.0000000E+04;  0.0000000E+00;  3.9102117E+04;  1.1823916E-01;  0.0000000E+00; -8.2509570E-02;  3.5277717E+03;
  1.1253405E+00;  9.9999998E-03;  2.0272650E-02;8090; -4.0850069E-02;  0.0000000E+00; -2.2249820E-03;  9.9241437E+02;  3.3272824E-01; -6.2844893E+03;3; -2.3624142E+01;  0.0000000E+00; -1.0096627E+00;0;  3.5729207E-02;  3.6489900E+03;  0.0000000E+00;  2.9309426E-02;  4.0000000E+04;  0.0000000E+00;  3.9102113E+04;  1.1823876E-01;  0.0000000E+00; -8.2509555E-02;  3.5278140E+03;
  1.1252383E+00;  9.9999998E-03; -3.0391691E-02;8085; -4.0524863E-02;  0.0000000E+00;  3.3009308E-03;  9.9251416E+02;  3.3261651E-01; -6.2018257E+03;3; -2.3117680E+01;  0.0000000E+00;  1.5146848E+00;0;  3.3236265E-02;  3.6520283E+03;  0.0000000E+00;  7.2433494E-02;  4.0000000E+04;  0.0000000E+00;  3.9102090E+04;  1.1450112E-01;  0.0000000E+00; -8.1264853E-02;  3.5767573E+03;
  1.1252383E+00;  9.9999998E-03;  3.0391747E-02;8091; -4.0524844E-02;  0.0000000E+00; -3.3005814E-03;  9.9251434E+02;  3.3261663E-01; -6.2016279E+03;3; -2.3117687E+01;  0.0000000E+00; -1.5147061E+00;0;  3.3236474E-02;  3.6520291E+03;  0.0000000E+00;  7.2492547E-02;  4.0000000E+04;  0.0000000E+00;  3.9102082E+04;  1.1450137E-01;  0.0000000E+00; -8.1264898E-02;  3.5767893E+03;
  1.1251665E+00;  9.9999998E-03; -4.0508479E-02;8084; -4.0090404E-02;  0.0000000E+00;  4.3388782E-03;  9.9262854E+02;  3.3251873E-01; -6.1070640E+03;3; -2.2429785E+01;  0.0000000E+00;  2.0230365E+00;0;  3.1086333E-02;  3.6546938E+03;  0.0000000E+00;  1.3971332E-01;  4.0000000E+04;  0.0000000E+00;  3.9102387E+04;  1.1070917E-01;  0.0000000E+00; -7.9622835E-02;  3.5969551E+03;
  1.1251667E+00;  9.9999998E-03;  4.0508535E-02;8092; -4.0090386E-02;  0.0000000E+00; -4.3385318E-03;  9.9262866E+02;  3.3251816E-01; -6.1069653E+03;3; -2.2429707E+01;  0.0000000E+00; -2.0230422E+00;0;  3.1087555E-02;  3.6546936E+03;  0.0000000E+00;  1.3979584E-01;  4.0000000E+04;  0.0000000E+00;  3.9102383E+04;  1.1071040E-01;  0.0000000E+00; -7.9622842E-02;  3.5971001E+03;
  1.1251475E+00;  9.9999998E-03; -5.0645035E-02;8083; -3.9553244E-02;  0.0000000E+00;  5.3332737E-03;  9.9271686E+02;  3.3245444E-01; -6.0338818E+03;3; -2.1573050E+01;  0.0000000E+00;  2.5379984E+00;0;  2.9619478E-02;  3.6564326E+03;  0.0000000E+00;  2.2808504E-01;  4.0000000E+04;  0.0000000E+00;  3.9104047E+04;  1.0727184E-01;  0.0000000E+00; -7.7652358E-02;  3.5535173E+03;
  1.1251475E+00;  9.9999998E-03;  5.0645094E-02;8093; -3.9553221E-02;  0.0000000E+00; -5.3329277E-03;  9.9271686E+02;  3.3245456E-01; -6.0338818E+03;3; -2.1573059E+01;  0.0000000E+00; -2.5380280E+00;0;  2.9620767E-02;  3.6564351E+03;  0.0000000E+00;  2.2818537E-01;  4.0000000E+04;  0.0000000E+00;  3.9104059E+04;  1.0727315E-01;  0.0000000E+00; -7.7652380E-02;  3.5536055E+03;
  1.1251880E+00;  9.9999998E-03; -6.0799316E-02;8082; -3.8914699E-02;  0.0000000E+00;  6.2774443E-03;  9.9276312E+02;  3.3243194E-01; -5.9955625E+03;3; -2.0562500E+01;  0.0000000E+00;  3.0603592E+00;0;  2.8859332E-02;  3.6569011E+03;  0.0000000E+00;  3.2303843E-01;  4.0000000E+04;  0.0000000E+00;  3.9106996E+04;  1.0428019E-01;  0.0000000E+00; -7.5420856E-02;  3.4289172E+03;
  1.1251880E+00;  9.9999998E-03;  6.0799379E-02;8094; -3.8914669E-02;  0.0000000E+00; -6.2770969E-03;  9.9276343E+02;  3.3243340E-01; -5.9953154E+03;3; -2.0562311E+01;  0.0000000E+00; -3.0603292E+00;0;  2.8861396E-02;  3.6568989E+03;  0.0000000E+00;  3.2315299E-01;  4.0000000E+04;  0.0000000E+00;  3.9106996E+04;  1.0428225E-01;  0.0000000E+00; -7.5420856E-02;  3.4289832E+03;
  1.1253278E+00;  9.9999998E-03; -7.0946880E-02;8081; -3.8184982E-02;  0.0000000E+00;  7.1684201E-03;  9.9275525E+02;  3.3249032E-01; -6.0020806E+03;3; -1.9417187E+01;  0.0000000E+00;  3.5917120E+00;0;  2.9391460E-02;  3.6552063E+03;  0.0000000E+00;  3.9691997E-01;  4.0000000E+04;  0.0000000E+00;  3.9112133E+04;  1.0239933E-01;  0.0000000E+00; -7.3007867E-02;  3.2279102E+03;
  1.1256037E+00;  9.9999998E-03; -8.1076384E-02;8080; -3.7372656E-02;  0.0000000E+00;  8.0091227E-03;  9.9266858E+02;  3.3265942E-01; -6.0738799E+03;3; -1.8155130E+01;  0.0000000E+00;  4.1350107E+00;0;  3.1710282E-02;  3.6506387E+03;  0.0000000E+00;  4.1523188E-01;  4.0000000E+04;  0.0000000E+00;  3.9118234E+04;  1.0219292E-01;  0.0000000E+00; -7.0482634E-02;  2.9654729E+03;
  1.1259990E+00;  9.9999998E-03; -9.1179907E-02;8079; -3.6471236E-02;  0.0000000E+00;  8.8023413E-03;  9.9251715E+02;  3.3292839E-01; -6.1993062E+03;3; -1.6791897E+01;  0.0000000E+00;  4.6894827E+00;0;  3.5332702E-02;  3.6436851E+03;  0.0000000E+00;  3.4816238E-01;  4.0000000E+04;  0.0000000E+00;  3.9124941E+04;  1.0321166E-01;  0.0000000E+00; -6.7878962E-02;  2.6506777E+03;
  1.1265465E+00;  9.9999998E-03; -1.0125938E-01;8078; -3.5489555E-02;  0.0000000E+00;  9.5605012E-03;  9.9232697E+02;  3.3331150E-01; -6.3568799E+03;3; -1.5341412E+01;  0.0000000E+00;  5.2595620E+00;0;  4.0596724E-02;  3.6340964E+03;  0.0000000E+00;  1.8130443E-01;  4.0000000E+04;  0.0000000E+00;  3.9130547E+04;  1.0584541E-01;  0.0000000E+00; -6.5248683E-02;  2.3315984E+03;
  1.1622587E+00;  9.9999998E-03; -1.0149923E-02;8148; -4.8066422E-02;  0.0000000E+00;  1.5589891E-03;  9.9333838E+02;  3.5695201E-01; -5.5188911E+03;3; -2.5345053E+01;  0.0000000E+00;  1.0263867E+00;0;  1.3987588E+00;  3.1852642E+03;  0.0000000E+00; -9.8527297E-03;  4.0000000E+04;  0.0000000E+00;  3.8998809E+04;  1.4458528E+00;  0.0000000E+00; -4.7093950E-02;  9.2002734E+03;
  1.1623206E+00;  9.9999998E-03;  3.6359705E-08;8149; -4.8125386E-02;  0.0000000E+00;  1.7058552E-07;  9.9331488E+02;  3.5700455E-01; -5.5383965E+03;3; -2.5479362E+01;  0.0000000E+00; -2.1032043E-05;0;  1.4039583E+00;  3.1842629E+03;  0.0000000E+00;  8.7727092E-10;  4.0000000E+04;  0.0000000E+00;  3.8998855E+04;  1.4506437E+00;  0.0000000E+00; -4.6685338E-02;  9.2006250E+03;
  1.1622587E+00;  9.9999998E-03;  1.0149997E-02;8150; -4.8066407E-02;  0.0000000E+00; -1.5586457E-03;  9.9333862E+02;  3.5695171E-01; -5.5186938E+03;3; -2.5345062E+01;  0.0000000E+00; -1.0264317E+00;0;  1.3987570E+00;  3.1852644E+03;  0.0000000E+00; -9.8500587E-03;  4.0000000E+04;  0.0000000E+00;  3.8998801E+04;  1.4458511E+00;  0.0000000E+00; -4.7094081E-02;  9.2003398E+03;
  1.1620864E+00;  9.9999998E-03; -2.0292750E-02;8147; -4.7890685E-02;  0.0000000E+00;  3.0983272E-03;  9.9340570E+02;  3.5680422E-01; -5.4631411E+03;3; -2.4950619E+01;  0.0000000E+00;  2.0493712E+00;0;  1.3839743E+00;  3.1881145E+03;  0.0000000E+00; -3.5215512E-02;  4.0000000E+04;  0.0000000E+00;  3.8999203E+04;  1.4322302E+00;  0.0000000E+00; -4.8255950E-02;  9.1978027E+03;
  1.1620864E+00;  9.9999998E-03;  2.0292826E-02;8151; -4.7890671E-02;  0.0000000E+00; -3.0979824E-03;  9.9340613E+02;  3.5680452E-01; -5.4627954E+03;3; -2.4950569E+01;  0.0000000E+00; -2.0494072E+00;0;  1.3839756E+00;  3.1881145E+03;  0.0000000E+00; -3.5207145E-02;  4.0000000E+04;  0.0000000E+00;  3.8999199E+04;  1.4322315E+00;  0.0000000E+00; -4.8255935E-02;  9.1979268E+03;
  1.1618031E+00;  9.9999998E-03; -3.0432146E-02;8146; -4.7595050E-02;  0.0000000E+00;  4.6018637E-03;  9.9350079E+02;  3.5655802E-01; -5.3843804E+03;3; -2.4325247E+01;  0.0000000E+00;  3.0564721E+00;0;  1.3597717E+00;  3.1927510E+03;  0.0000000E+00; -6.4439431E-02;  4.0000000E+04;  0.0000000E+00;  3.8999973E+04;  1.4098667E+00;  0.0000000E+00; -5.0094903E-02;  9.1709619E+03;
  1.1618031E+00;  9.9999998E-03;  3.0432234E-02;8152; -4.7595058E-02;  0.0000000E+00; -4.6015168E-03;  9.9350043E+02;  3.5655788E-01; -5.3846768E+03;3; -2.4325331E+01;  0.0000000E+00; -3.0565073E+00;0;  1.3597727E+00;  3.1927520E+03;  0.0000000E+00; -6.4420864E-02;  4.0000000E+04;  0.0000000E+00;  3.8999973E+04;  1.4098676E+00;  0.0000000E+00; -5.0094958E-02;  9.1710576E+03;
  1.1614473E+00;  9.9999998E-03; -4.0579323E-02;8145; -4.7182087E-02;  0.0000000E+00;  6.0568424E-03;  9.9360834E+02;  3.5624388E-01; -5.2952495E+03;3; -2.3491167E+01;  0.0000000E+00;  4.0467539E+00;0;  1.3285147E+00;  3.1985669E+03;  0.0000000E+00; -8.1168562E-02;  4.0000000E+04;  0.0000000E+00;  3.9001520E+04;  1.3809185E+00;  0.0000000E+00; -5.2403849E-02;  9.0686260E+03;
  1.1614473E+00;  9.9999998E-03;  4.0579408E-02;8153; -4.7182068E-02;  0.0000000E+00; -6.0564987E-03;  9.9360834E+02;  3.5624388E-01; -5.2952495E+03;3; -2.3491175E+01;  0.0000000E+00; -4.0467830E+00;0;  1.3285161E+00;  3.1985686E+03;  0.0000000E+00; -8.1133462E-02;  4.0000000E+04;  0.0000000E+00;  3.9001512E+04;  1.3809201E+00;  0.0000000E+00; -5.2403938E-02;  9.0686660E+03;
  1.1611019E+00;  9.9999998E-03; -5.0723732E-02;8144; -4.6662025E-02;  0.0000000E+00;  7.4545941E-03;  9.9371332E+02;  3.5591960E-01; -5.2082910E+03;3; -2.2480381E+01;  0.0000000E+00;  5.0109577E+00;0;  1.2949071E+00;  3.2043879E+03;  0.0000000E+00; -6.9509961E-02;  4.0000000E+04;  0.0000000E+00;  3.9004258E+04;  1.3497856E+00;  0.0000000E+00; -5.4878499E-02;  8.8110684E+03;
  1.1611019E+00;  9.9999998E-03;  5.0723813E-02;8154; -4.6661995E-02;  0.0000000E+00; -7.4542491E-03;  9.9371368E+02;  3.5591719E-01; -5.2079946E+03;3; -2.2480360E+01;  0.0000000E+00; -5.0110178E+00;0;  1.2949098E+00;  3.2043855E+03;  0.0000000E+00; -6.9458157E-02;  4.0000000E+04;  0.0000000E+00;  3.9004266E+04;  1.3497882E+00;  0.0000000E+00; -5.4878410E-02;  8.8111289E+03;
  1.1608485E+00;  9.9999998E-03; -6.0880847E-02;8143; -4.6044201E-02;  0.0000000E+00;  8.7950034E-03;  9.9379993E+02;  3.5565254E-01; -5.1365420E+03;3; -2.1312204E+01;  0.0000000E+00;  5.9545002E+00;0;  1.2632345E+00;  3.2090188E+03;  0.0000000E+00; -2.1260109E-02;  4.0000000E+04;  0.0000000E+00;  3.9008648E+04;  1.3205124E+00;  0.0000000E+00; -5.7277929E-02;  8.3367139E+03;
  1.1608485E+00;  9.9999998E-03;  6.0880937E-02;8155; -4.6044182E-02;  0.0000000E+00; -8.7946560E-03;  9.9379993E+02;  3.5565168E-01; -5.1365420E+03;3; -2.1312330E+01;  0.0000000E+00; -5.9544945E+00;0;  1.2632383E+00;  3.2090178E+03;  0.0000000E+00; -2.1188881E-02;  4.0000000E+04;  0.0000000E+00;  3.9008645E+04;  1.3205162E+00;  0.0000000E+00; -5.7277907E-02;  8.3367158E+03;
  1.1607848E+00;  9.9999998E-03; -7.1042724E-02;8142; -4.5340650E-02;  0.0000000E+00;  1.0082074E-02;  9.9385895E+02;  3.5551378E-01; -5.0876553E+03;3; -2.0005289E+01;  0.0000000E+00;  6.8843865E+00;0;  1.2382865E+00;  3.2110195E+03;  0.0000000E+00;  5.7276133E-02;  4.0000000E+04;  0.0000000E+00;  3.9014559E+04;  1.2976831E+00;  0.0000000E+00; -5.9396639E-02;  7.6500952E+03;
  1.1611651E+00;  9.9999998E-03; -8.1189990E-02;8141; -4.4593506E-02;  0.0000000E+00;  1.1338041E-02;  9.9390668E+02;  3.5569546E-01; -5.0481011E+03;3; -1.8575537E+01;  0.0000000E+00;  7.8350701E+00;0;  1.2324952E+00;  3.2072866E+03;  0.0000000E+00;  1.4319256E-01;  4.0000000E+04;  0.0000000E+00;  3.9020859E+04;  1.2933847E+00;  0.0000000E+00; -6.0889523E-02;  6.8631841E+03;
  1.1618805E+00;  9.9999998E-03; -9.1311678E-02;8140; -4.3777760E-02;  0.0000000E+00;  1.2564900E-02;  9.9392981E+02;  3.5612273E-01; -5.0289399E+03;3; -1.7039108E+01;  0.0000000E+00;  8.8020382E+00;0;  1.2394426E+00;  3.1991831E+03;  0.0000000E+00;  2.0906769E-01;  4.0000000E+04;  0.0000000E+00;  3.9026922E+04;  1.3014739E+00;  0.0000000E+00; -6.2031243E-02;  6.0917104E+03;
  1.1626567E+00;  9.9999998E-03; -1.0141179E-01;8139; -4.2834479E-02;  0.0000000E+00;  1.3748117E-02;  9.9391022E+02;  3.5659695E-01; -5.0451855E+03;3; -1.5414405E+01;  0.0000000E+00;  9.7510252E+00;0;  1.2445478E+00;  3.1901992E+03;  0.0000000E+00;  2.3210391E-01;  4.0000000E+04;  0.0000000E+00;  3.9032168E+04;  1.3077105E+00;  0.0000000E+00; -6.3162737E-02;  5.4045000E+03;
  1.2003660E+00;  9.9999998E-03; -6.0943905E-02;8204; -4.9504001E-02;  0.0000000E+00;  1.1002202E-02;  9.9988019E+02;  3.7335816E-01; -9.9252861E+01;3; -2.1257133E+01;  0.0000000E+00;  1.0415698E+01;0;  3.8700664E+00;  2.9541672E+03;  0.0000000E+00; -1.5711562E-01;  4.0000000E+04;  0.0000000E+00;  3.8908703E+04;  3.7741702E+00;  0.0000000E+00;  9.5896341E-02;  1.5529731E+04;
  1.2003660E+00;  9.9999998E-03;  6.0944021E-02;8216; -4.9503978E-02;  0.0000000E+00; -1.1001872E-02;  9.9988019E+02;  3.7335700E-01; -9.9252861E+01;3; -2.1257250E+01;  0.0000000E+00; -1.0415788E+01;0;  3.8700709E+00;  2.9541670E+03;  0.0000000E+00; -1.5710907E-01;  4.0000000E+04;  0.0000000E+00;  3.8908707E+04;  3.7741747E+00;  0.0000000E+00;  9.5896259E-02;  1.5529671E+04;
  1.2005154E+00;  9.9999998E-03; -5.0764255E-02;8205; -4.9925577E-02;  0.0000000E+00;  9.2644626E-03;  9.9989160E+02;  3.7353182E-01; -8.9821350E+01;3; -2.2493221E+01;  0.0000000E+00;  8.8431292E+00;0;  3.9205232E+00;  2.9523542E+03;  0.0000000E+00; -1.4489233E-01;  4.0000000E+04;  0.0000000E+00;  3.8904043E+04;  3.8095441E+00;  0.0000000E+00;  1.1097908E-01;  1.6105238E+04;
  1.2005153E+00;  9.9999998E-03;  5.0764356E-02;8215; -4.9925566E-02;  0.0000000E+00; -9.2641255E-03;  9.9989191E+02;  3.7353277E-01; -8.9574455E+01;3; -2.2493311E+01;  0.0000000E+00; -8.8431892E+00;0;  3.9205191E+00;  2.9523560E+03;  0.0000000E+00; -1.4489712E-01;  4.0000000E+04;  0.0000000E+00;  3.8904047E+04;  3.8095407E+00;  0.0000000E+00;  1.1097830E-01;  1.6105227E+04;
  1.2003589E+00;  9.9999998E-03; -7.1116470E-02;8203; -4.8981320E-02;  0.0000000E+00;  1.2694562E-02;  9.9987073E+02;  3.7322381E-01; -1.0710420E+02;3; -1.9872143E+01;  0.0000000E+00;  1.1919708E+01;0;  3.8229640E+00;  2.9551577E+03;  0.0000000E+00; -1.3749184E-01;  4.0000000E+04;  0.0000000E+00;  3.8915004E+04;  3.7427099E+00;  0.0000000E+00;  8.0254182E-02;  1.4747997E+04;
  1.2008007E+00;  9.9999998E-03; -4.0586125E-02;8206; -5.0247405E-02;  0.0000000E+00;  7.4811713E-03;  9.9990674E+02;  3.7373641E-01; -7.7278946E+01;3; -2.3571331E+01;  0.0000000E+00;  7.2024155E+00;0;  3.9737837E+00;  2.9499041E+03;  0.0000000E+00; -1.1177804E-01;  4.0000000E+04;  0.0000000E+00;  3.8900422E+04;  3.8486278E+00;  0.0000000E+00;  1.2515603E-01;  1.6488773E+04;
  1.2008007E+00;  9.9999998E-03;  4.0586244E-02;8214; -5.0247386E-02;  0.0000000E+00; -7.4808383E-03;  9.9990656E+02;  3.7373593E-01; -7.7427078E+01;3; -2.3571404E+01;  0.0000000E+00; -7.2025051E+00;0;  3.9737840E+00;  2.9499053E+03;  0.0000000E+00; -1.1178942E-01;  4.0000000E+04;  0.0000000E+00;  3.8900430E+04;  3.8486283E+00;  0.0000000E+00;  1.2515570E-01;  1.6488803E+04;
  1.2004559E+00;  9.9999998E-03; -8.1276536E-02;8202; -4.8352852E-02;  0.0000000E+00;  1.4340500E-02;  9.9982996E+02;  3.7312198E-01; -1.4087978E+02;3; -1.8363426E+01;  0.0000000E+00;  1.3351423E+01;0;  3.7765987E+00;  2.9553955E+03;  0.0000000E+00; -7.9420008E-02;  4.0000000E+04;  0.0000000E+00;  3.8922473E+04;  3.7123935E+00;  0.0000000E+00;  6.4205207E-02;  1.3806188E+04;
  1.2011366E+00;  9.9999998E-03; -3.0432513E-02;8207; -5.0473433E-02;  0.0000000E+00;  5.6563388E-03;  9.9993506E+02;  3.7393638E-01; -5.3823662E+01;3; -2.4524448E+01;  0.0000000E+00;  5.4936066E+00;0;  4.0236034E+00;  2.9474272E+03;  0.0000000E+00; -7.0872031E-02;  4.0000000E+04;  0.0000000E+00;  3.8898293E+04;  3.8860676E+00;  0.0000000E+00;  1.3753560E-01;  1.6729123E+04;
  1.2011366E+00;  9.9999998E-03;  3.0432621E-02;8213; -5.0473422E-02;  0.0000000E+00; -5.6560072E-03;  9.9993530E+02;  3.7393722E-01; -5.3576763E+01;3; -2.4524403E+01;  0.0000000E+00; -5.4937224E+00;0;  4.0236025E+00;  2.9474265E+03;  0.0000000E+00; -7.0887491E-02;  4.0000000E+04;  0.0000000E+00;  3.8898289E+04;  3.8860674E+00;  0.0000000E+00;  1.3753520E-01;  1.6729258E+04;
  1.2006620E+00;  9.9999998E-03; -9.1422394E-02;8201; -4.7605470E-02;  0.0000000E+00;  1.5941273E-02;  9.9975696E+02;  3.7307227E-01; -2.0136969E+02;3; -1.6749186E+01;  0.0000000E+00;  1.4714154E+01;0;  3.7313316E+00;  2.9547012E+03;  0.0000000E+00;  1.7235216E-02;  4.0000000E+04;  0.0000000E+00;  3.8930480E+04;  3.6831346E+00;  0.0000000E+00;  4.8197009E-02;  1.2807344E+04;
  1.2014380E+00;  9.9999998E-03; -2.0290716E-02;8208; -5.0610032E-02;  0.0000000E+00;  3.7943001E-03;  9.9996503E+02;  3.7409940E-01; -2.8985765E+01;3; -2.5391485E+01;  0.0000000E+00;  3.7180142E+00;0;  4.0637593E+00;  2.9453577E+03;  0.0000000E+00; -3.3841100E-02;  4.0000000E+04;  0.0000000E+00;  3.8896707E+04;  3.9165688E+00;  0.0000000E+00;  1.4719069E-01;  1.6874139E+04;
  1.2014380E+00;  9.9999998E-03;  2.0290820E-02;8212; -5.0610010E-02;  0.0000000E+00; -3.7939658E-03;  9.9996515E+02;  3.7409952E-01; -2.8887007E+01;3; -2.5391331E+01;  0.0000000E+00; -3.7180932E+00;0;  4.0637584E+00;  2.9453601E+03;  0.0000000E+00; -3.3854950E-02;  4.0000000E+04;  0.0000000E+00;  3.8896711E+04;  3.9165678E+00;  0.0000000E+00;  1.4719073E-01;  1.6874209E+04;
  1.2016226E+00;  9.9999998E-03; -1.0147883E-02;8209; -5.0676864E-02;  0.0000000E+00;  1.9043372E-03;  9.9998053E+02;  3.7419748E-01; -1.6147095E+01;3; -2.6075970E+01;  0.0000000E+00;  1.8812984E+00;0;  4.0882492E+00;  2.9440896E+03;  0.0000000E+00; -8.7860897E-03;  4.0000000E+04;  0.0000000E+00;  3.8895914E+04;  3.9350610E+00;  0.0000000E+00;  1.5318832E-01;  1.6951865E+04;
  1.2016225E+00;  9.9999998E-03;  1.0147982E-02;8211; -5.0676882E-02;  0.0000000E+00; -1.9040019E-03;  9.9998053E+02;  3.7419894E-01; -1.6147095E+01;3; -2.6075926E+01;  0.0000000E+00; -1.8813696E+00;0;  4.0882459E+00;  2.9440903E+03;  0.0000000E+00; -8.7943133E-03;  4.0000000E+04;  0.0000000E+00;  3.8895926E+04;  3.9350581E+00;  0.0000000E+00;  1.5318757E-01;  1.6951883E+04;
  1.2016773E+00;  9.9999998E-03;  4.9215181E-08;8210; -5.0697859E-02;  0.0000000E+00;  1.6677974E-07;  9.9998456E+02;  3.7422946E-01; -1.2789289E+01;3; -2.6331015E+01;  0.0000000E+00; -4.0477375E-05;0;  4.0959535E+00;  2.9436982E+03;  0.0000000E+00;  5.4623184E-10;  4.0000000E+04;  0.0000000E+00;  3.8895836E+04;  3.9407854E+00;  0.0000000E+00;  1.5516815E-01;  1.6976018E+04;
  1.2009842E+00;  9.9999998E-03; -1.0155731E-01;8200; -4.6725132E-02;  0.0000000E+00;  1.7498633E-02;  9.9963989E+02;  3.7307748E-01; -2.9835101E+02;3; -1.5042306E+01;  0.0000000E+00;  1.6012711E+01;0;  3.6875534E+00;  2.9530337E+03;  0.0000000E+00;  1.4444959E-01;  4.0000000E+04;  0.0000000E+00;  3.8937793E+04;  3.6549089E+00;  0.0000000E+00;  3.2644492E-02;  1.1882428E+04;
  1.2406923E+00;  9.9999998E-03; -8.1400737E-02;8263;  2.9974166E-01;  0.0000000E+00; -6.0084701E-02;  1.0011737E+03;  3.7266669E-01;  9.7235242E+02;3; -5.8273857E+01;  0.0000000E+00;  3.5234905E+01;0;  5.4590163E+00;  2.9741174E+03;  0.0000000E+00; -1.0595047E-02;  4.0000000E+04;  0.0000000E+00;  3.8873070E+04;  5.1517277E+00;  0.0000000E+00;  3.0728853E-01;  1.7979324E+04;
  1.2406515E+00;  9.9999998E-03; -9.1567643E-02;8262;  2.9075596E-01;  0.0000000E+00; -6.0237594E-02;  1.0010579E+03;  3.7254441E-01;  8.7636145E+02;3; -6.1347107E+01;  0.0000000E+00;  4.6231102E+01;0;  5.4439626E+00;  2.9740225E+03;  0.0000000E+00; -3.7502237E-02;  4.0000000E+04;  0.0000000E+00;  3.8880859E+04;  5.1712008E+00;  0.0000000E+00;  2.7276161E-01;  1.6985590E+04;
  1.2409488E+00;  9.9999998E-03; -7.1211599E-02;8264;  3.0945554E-01;  0.0000000E+00; -5.5958949E-02;  1.0013100E+03;  3.7278223E-01;  1.0852302E+03;3; -5.5022923E+01;  0.0000000E+00;  1.8260515E+01;0;  5.4762545E+00;  2.9742659E+03;  0.0000000E+00;  2.4958001E-02;  4.0000000E+04;  0.0000000E+00;  3.8865539E+04;  5.1322455E+00;  0.0000000E+00;  3.4400874E-01;  1.8907578E+04;
  1.2408551E+00;  9.9999998E-03; -1.0171346E-01;8261;  2.8312424E-01;  0.0000000E+00; -5.9453569E-02;  1.0009495E+03;  3.7242633E-01;  7.8659210E+02;3; -6.3898754E+01;  0.0000000E+00;  4.7676392E+01;0;  5.4325519E+00;  2.9739729E+03;  0.0000000E+00; -4.2784736E-02;  4.0000000E+04;  0.0000000E+00;  3.8888602E+04;  5.1914597E+00;  0.0000000E+00;  2.4109207E-01;  1.6043540E+04;
  1.2413387E+00;  9.9999998E-03; -6.0999546E-02;8265;  3.1905681E-01;  0.0000000E+00; -4.9041480E-02;  1.0014756E+03;  3.7288830E-01;  1.2225007E+03;3; -5.1809975E+01;  0.0000000E+00;  1.4147226E+01;0;  5.4927635E+00;  2.9744976E+03;  0.0000000E+00;  5.4039903E-02;  4.0000000E+04;  0.0000000E+00;  3.8859582E+04;  5.1124425E+00;  0.0000000E+00;  3.8032085E-01;  1.9661951E+04;
  1.2413386E+00;  9.9999998E-03;  6.0999658E-02;8277;  3.1905612E-01;  0.0000000E+00;  4.9041998E-02;  1.0014757E+03;  3.7288859E-01;  1.2225007E+03;3; -5.1810112E+01;  0.0000000E+00; -1.4147317E+01;0;  5.4927597E+00;  2.9744971E+03;  0.0000000E+00;  5.3974200E-02;  4.0000000E+04;  0.0000000E+00;  3.8859582E+04;  5.1124401E+00;  0.0000000E+00;  3.8031977E-01;  1.9661895E+04;
  1.2417340E+00;  9.9999998E-03; -1.0130488E-02;8270;  3.3683488E-01;  0.0000000E+00; -8.6150765E-03;  1.0019442E+03;  3.7323371E-01;  1.6106112E+03;3; -4.4113827E+01;  0.0000000E+00;  2.8707182E+00;0;  5.5396495E+00;  2.9735808E+03;  0.0000000E+00;  5.4933103E-03;  4.0000000E+04;  0.0000000E+00;  3.8849848E+04;  5.0558619E+00;  0.0000000E+00;  4.8378751E-01;  2.0830691E+04;
  1.2417225E+00;  9.9999998E-03;  5.6936763E-08;8271;  3.3711183E-01;  0.0000000E+00;  4.6483979E-07;  1.0019569E+03;  3.7324405E-01;  1.6211781E+03;3; -4.3935741E+01;  0.0000000E+00; -7.8658108E-05;0;  5.5411754E+00;  2.9735134E+03;  0.0000000E+00; -4.5542217E-10;  4.0000000E+04;  0.0000000E+00;  3.8849742E+04;  5.0544415E+00;  0.0000000E+00;  4.8673376E-01;  2.0839840E+04;
  1.2417339E+00;  9.9999998E-03;  1.0130604E-02;8272;  3.3683318E-01;  0.0000000E+00;  8.6159753E-03;  1.0019444E+03;  3.7323180E-01;  1.6108087E+03;3; -4.4114292E+01;  0.0000000E+00; -2.8708708E+00;0;  5.5396500E+00;  2.9735815E+03;  0.0000000E+00;  5.4827980E-03;  4.0000000E+04;  0.0000000E+00;  3.8849855E+04;  5.0558639E+00;  0.0000000E+00;  4.8378605E-01;  2.0830740E+04;
  1.2417623E+00;  9.9999998E-03; -2.0264817E-02;8269;  3.3594713E-01;  0.0000000E+00; -1.7107531E-02;  1.0019083E+03;  3.7320045E-01;  1.5808856E+03;3; -4.4660713E+01;  0.0000000E+00;  5.6233392E+00;0;  5.5351534E+00;  2.9737971E+03;  0.0000000E+00;  2.0389397E-02;  4.0000000E+04;  0.0000000E+00;  3.8850012E+04;  5.0602098E+00;  0.0000000E+00;  4.7494367E-01;  2.0796373E+04;
  1.2417623E+00;  9.9999998E-03;  2.0264938E-02;8273;  3.3594799E-01;  0.0000000E+00;  1.7108561E-02;  1.0019081E+03;  3.7319943E-01;  1.5807869E+03;3; -4.4660583E+01;  0.0000000E+00; -5.6234736E+00;0;  5.5351591E+00;  2.9737971E+03;  0.0000000E+00;  2.0367660E-02;  4.0000000E+04;  0.0000000E+00;  3.8850008E+04;  5.0602155E+00;  0.0000000E+00;  4.7494364E-01;  2.0796383E+04;
  1.2418082E+00;  9.9999998E-03; -3.0411735E-02;8268;  3.3443832E-01;  0.0000000E+00; -2.5408356E-02;  1.0018481E+03;  3.7314284E-01;  1.5310138E+03;3; -4.5555534E+01;  0.0000000E+00;  8.1573496E+00;0;  5.5278983E+00;  2.9741362E+03;  0.0000000E+00;  4.0234338E-02;  4.0000000E+04;  0.0000000E+00;  3.8850750E+04;  5.0675497E+00;  0.0000000E+00;  4.6034843E-01;  2.0711111E+04;
  1.2418081E+00;  9.9999998E-03;  3.0411856E-02;8274;  3.3443740E-01;  0.0000000E+00;  2.5409184E-02;  1.0018483E+03;  3.7314367E-01;  1.5311125E+03;3; -4.5555763E+01;  0.0000000E+00; -8.1574564E+00;0;  5.5278978E+00;  2.9741343E+03;  0.0000000E+00;  4.0199373E-02;  4.0000000E+04;  0.0000000E+00;  3.8850742E+04;  5.0675507E+00;  0.0000000E+00;  4.6034727E-01;  2.0711123E+04;
  1.2418493E+00;  9.9999998E-03; -4.0582165E-02;8267;  3.3208215E-01;  0.0000000E+00; -3.3553690E-02;  1.0017662E+03;  3.7306911E-01;  1.4631683E+03;3; -4.6829311E+01;  0.0000000E+00;  1.0407907E+01;0;  5.5182381E+00;  2.9745298E+03;  0.0000000E+00;  5.8346245E-02;  4.0000000E+04;  0.0000000E+00;  3.8852277E+04;  5.0781589E+00;  0.0000000E+00;  4.4007900E-01;  2.0527936E+04;
  1.2418493E+00;  9.9999998E-03;  4.0582292E-02;8275;  3.3208197E-01;  0.0000000E+00;  3.3554614E-02;  1.0017660E+03;  3.7307078E-01;  1.4629708E+03;3; -4.6829308E+01;  0.0000000E+00; -1.0408037E+01;0;  5.5182405E+00;  2.9745288E+03;  0.0000000E+00;  5.8301046E-02;  4.0000000E+04;  0.0000000E+00;  3.8852277E+04;  5.0781622E+00;  0.0000000E+00;  4.4007811E-01;  2.0528002E+04;
  1.2417738E+00;  9.9999998E-03; -5.0779719E-02;8266;  3.2777643E-01;  0.0000000E+00; -4.1464966E-02;  1.0016545E+03;  3.7297904E-01;  1.3706342E+03;3; -4.8731339E+01;  0.0000000E+00;  1.2368539E+01;0;  5.5066566E+00;  2.9747837E+03;  0.0000000E+00;  6.6257566E-02;  4.0000000E+04;  0.0000000E+00;  3.8855246E+04;  5.0929108E+00;  0.0000000E+00;  4.1374576E-01;  2.0190746E+04;
  1.2417738E+00;  9.9999998E-03;  5.0779849E-02;8276;  3.2777798E-01;  0.0000000E+00;  4.1465942E-02;  1.0016542E+03;  3.7297794E-01;  1.3703379E+03;3; -4.8730980E+01;  0.0000000E+00; -1.2368634E+01;0;  5.5066581E+00;  2.9747844E+03;  0.0000000E+00;  6.6199414E-02;  4.0000000E+04;  0.0000000E+00;  3.8855242E+04;  5.0929127E+00;  0.0000000E+00;  4.1374552E-01;  2.0190719E+04;
  1.2777920E+00;  9.9999998E-03; -1.0151565E-01;8322;  5.5221397E-01;  0.0000000E+00; -8.4522299E-02;  1.0033759E+03;  3.6004254E-01;  2.7965354E+03;3;  1.6283226E+01;  0.0000000E+00;  1.2682985E+01;0;  4.7740898E+00;  3.1933579E+03;  0.0000000E+00;  9.1621751E-01;  4.0000000E+04;  0.0000000E+00;  3.8903523E+04;  4.3017340E+00;  0.0000000E+00;  4.7235596E-01;  1.4403974E+04;
  1.2780739E+00;  9.9999998E-03; -9.1385722E-02;8323;  5.5573326E-01;  0.0000000E+00; -7.6984547E-02;  1.0034065E+03;  3.6005121E-01;  2.8219131E+03;3;  2.4068790E+01;  0.0000000E+00;  1.2012897E+01;0;  4.6794972E+00;  3.1944404E+03;  0.0000000E+00;  9.4272149E-01;  4.0000000E+04;  0.0000000E+00;  3.8900594E+04;  4.1736860E+00;  0.0000000E+00;  5.0581110E-01;  1.4833075E+04;
  1.2785497E+00;  9.9999998E-03; -8.1237204E-02;8324;  5.5911356E-01;  0.0000000E+00; -6.9171101E-02;  1.0034830E+03;  3.6003023E-01;  2.8853086E+03;3;  3.1815697E+01;  0.0000000E+00;  1.1323448E+01;0;  4.5851264E+00;  3.1961929E+03;  0.0000000E+00;  9.0090275E-01;  4.0000000E+04;  0.0000000E+00;  3.8897375E+04;  4.0455346E+00;  0.0000000E+00;  5.3959185E-01;  1.5274567E+04;
  1.2789834E+00;  9.9999998E-03; -7.1050309E-02;8325;  5.6144321E-01;  0.0000000E+00; -6.1013095E-02;  1.0035673E+03;  3.6001888E-01;  2.9550247E+03;3;  3.8875385E+01;  0.0000000E+00;  1.0589327E+01;0;  4.5014706E+00;  3.1976826E+03;  0.0000000E+00;  7.9263771E-01;  4.0000000E+04;  0.0000000E+00;  3.8894348E+04;  3.9296432E+00;  0.0000000E+00;  5.7182735E-01;  1.5656992E+04;
  1.2791867E+00;  9.9999998E-03; -6.0849953E-02;8326;  5.6227505E-01;  0.0000000E+00; -5.2627780E-02;  1.0036212E+03;  3.6005828E-01;  2.9996589E+03;3;  4.4659817E+01;  0.0000000E+00;  9.7376871E+00;0;  4.4384356E+00;  3.1980527E+03;  0.0000000E+00;  6.3771147E-01;  4.0000000E+04;  0.0000000E+00;  3.8891883E+04;  3.8375351E+00;  0.0000000E+00;  6.0090035E-01;  1.5947703E+04;
  1.2791867E+00;  9.9999998E-03;  6.0850088E-02;8338;  5.6227505E-01;  0.0000000E+00;  5.2628621E-02;  1.0036213E+03;  3.6005852E-01;  2.9998564E+03;3;  4.4659687E+01;  0.0000000E+00; -9.7377977E+00;0;  4.4384332E+00;  3.1980525E+03;  0.0000000E+00;  6.3761073E-01;  4.0000000E+04;  0.0000000E+00;  3.8891879E+04;  3.8375325E+00;  0.0000000E+00;  6.0090053E-01;  1.5947700E+04;
  1.2792355E+00;  9.9999998E-03; -5.0678067E-02;8327;  5.6220013E-01;  0.0000000E+00; -4.4093817E-02;  1.0036616E+03;  3.6012372E-01;  3.0332341E+03;3;  4.9288471E+01;  0.0000000E+00;  8.6758757E+00;0;  4.3928914E+00;  3.1976638E+03;  0.0000000E+00;  4.6803284E-01;  4.0000000E+04;  0.0000000E+00;  3.8889672E+04;  3.7665217E+00;  0.0000000E+00;  6.2636966E-01;  1.6120676E+04;
  1.2792356E+00;  9.9999998E-03;  5.0678208E-02;8337;  5.6220084E-01;  0.0000000E+00;  4.4094831E-02;  1.0036614E+03;  3.6012366E-01;  3.0330366E+03;3;  4.9288868E+01;  0.0000000E+00; -8.6759748E+00;0;  4.3928881E+00;  3.1976653E+03;  0.0000000E+00;  4.6795210E-01;  4.0000000E+04;  0.0000000E+00;  3.8889676E+04;  3.7665186E+00;  0.0000000E+00;  6.2636960E-01;  1.6120581E+04;
  1.2794032E+00;  9.9999998E-03; -3.0398428E-02;8329;  5.6187296E-01;  0.0000000E+00; -2.6744233E-02;  1.0037725E+03;  3.6020613E-01;  3.1250715E+03;3;  5.6414249E+01;  0.0000000E+00;  5.7651830E+00;0;  4.3248420E+00;  3.1972061E+03;  0.0000000E+00;  1.7691664E-01;  4.0000000E+04;  0.0000000E+00;  3.8888930E+04;  3.6589217E+00;  0.0000000E+00;  6.6592014E-01;  1.6153055E+04;
  1.2794031E+00;  9.9999998E-03;  3.0398564E-02;8335;  5.6187248E-01;  0.0000000E+00;  2.6745182E-02;  1.0037727E+03;  3.6020586E-01;  3.1252690E+03;3;  5.6413692E+01;  0.0000000E+00; -5.7654195E+00;0;  4.3248501E+00;  3.1972058E+03;  0.0000000E+00;  1.7687397E-01;  4.0000000E+04;  0.0000000E+00;  3.8888922E+04;  3.6589308E+00;  0.0000000E+00;  6.6591936E-01;  1.6153178E+04;
  1.2793047E+00;  9.9999998E-03; -4.0532704E-02;8328;  5.6202197E-01;  0.0000000E+00; -3.5469748E-02;  1.0037145E+03;  3.6017266E-01;  3.0769805E+03;3;  5.3208527E+01;  0.0000000E+00;  7.3486466E+00;0;  4.3554549E+00;  3.1973625E+03;  0.0000000E+00;  3.0939564E-01;  4.0000000E+04;  0.0000000E+00;  3.8888867E+04;  3.7072337E+00;  0.0000000E+00;  6.4822119E-01;  1.6172061E+04;
  1.2793047E+00;  9.9999998E-03;  4.0532842E-02;8336;  5.6202197E-01;  0.0000000E+00;  3.5470683E-02;  1.0037147E+03;  3.6017337E-01;  3.0771780E+03;3;  5.3208481E+01;  0.0000000E+00; -7.3488359E+00;0;  4.3554573E+00;  3.1973630E+03;  0.0000000E+00;  3.0933458E-01;  4.0000000E+04;  0.0000000E+00;  3.8888855E+04;  3.7072365E+00;  0.0000000E+00;  6.4822090E-01;  1.6172096E+04;
  1.2795337E+00;  9.9999998E-03;  6.3101155E-08;8332;  5.6144208E-01;  0.0000000E+00;  4.2791424E-07;  1.0038441E+03;  3.6025137E-01;  3.1843215E+03;3;  6.0579025E+01;  0.0000000E+00; -1.7313863E-04;0;  4.2864113E+00;  3.1969194E+03;  0.0000000E+00; -1.4612886E-10;  4.0000000E+04;  0.0000000E+00;  3.8889004E+04;  3.5970109E+00;  0.0000000E+00;  6.8940037E-01;  1.6089669E+04;
  1.2795191E+00;  9.9999998E-03; -1.0133409E-02;8331;  5.6150413E-01;  0.0000000E+00; -8.9515494E-03;  1.0038384E+03;  3.6024365E-01;  3.1796804E+03;3;  6.0113350E+01;  0.0000000E+00;  2.0245965E+00;0;  4.2906218E+00;  3.1969443E+03;  0.0000000E+00;  1.9794481E-02;  4.0000000E+04;  0.0000000E+00;  3.8889195E+04;  3.6038694E+00;  0.0000000E+00;  6.8675226E-01;  1.6097623E+04;
  1.2795190E+00;  9.9999998E-03;  1.0133536E-02;8333;  5.6150383E-01;  0.0000000E+00;  8.9524118E-03;  1.0038384E+03;  3.6024359E-01;  3.1796804E+03;3;  6.0113029E+01;  0.0000000E+00; -2.0249405E+00;0;  4.2906284E+00;  3.1969438E+03;  0.0000000E+00;  1.9782603E-02;  4.0000000E+04;  0.0000000E+00;  3.8889199E+04;  3.6038764E+00;  0.0000000E+00;  6.8675202E-01;  1.6097648E+04;
  1.2794826E+00;  9.9999998E-03; -2.0265428E-02;8330;  5.6168562E-01;  0.0000000E+00; -1.7879318E-02;  1.0038170E+03;  3.6023054E-01;  3.1619053E+03;3;  5.8743736E+01;  0.0000000E+00;  3.9700778E+00;0;  4.3029566E+00;  3.1970916E+03;  0.0000000E+00;  7.9095840E-02;  4.0000000E+04;  0.0000000E+00;  3.8889156E+04;  3.6240702E+00;  0.0000000E+00;  6.7888659E-01;  1.6118771E+04;
  1.2794826E+00;  9.9999998E-03;  2.0265561E-02;8334;  5.6168532E-01;  0.0000000E+00;  1.7880175E-02;  1.0038172E+03;  3.6022943E-01;  3.1621028E+03;3;  5.8743393E+01;  0.0000000E+00; -3.9703956E+00;0;  4.3029599E+00;  3.1970898E+03;  0.0000000E+00;  7.9069942E-02;  4.0000000E+04;  0.0000000E+00;  3.8889152E+04;  3.6240735E+00;  0.0000000E+00;  6.7888629E-01;  1.6118800E+04;
  1.3130662E+00;  9.9999998E-03; -1.0133839E-01;8383;  6.3889825E-01;  0.0000000E+00; -7.8220271E-02;  1.0055096E+03;  3.4339017E-01;  4.5637144E+03;3;  9.3324135E+01;  0.0000000E+00;  4.0795236E+00;0;  2.9835458E+00;  3.5142676E+03;  0.0000000E+00;  1.5408163E+00;  4.0000000E+04;  0.0000000E+00;  3.8966316E+04;  2.3881369E+00;  0.0000000E+00;  5.9540892E-01;  7.5403579E+03;
  1.3132595E+00;  9.9999998E-03; -9.1199540E-02;8384;  6.3211054E-01;  0.0000000E+00; -7.1383797E-02;  1.0052552E+03;  3.4337035E-01;  4.3529937E+03;3;  9.8004448E+01;  0.0000000E+00;  3.4361746E+00;0;  2.8536260E+00;  3.5134702E+03;  0.0000000E+00;  1.4696102E+00;  4.0000000E+04;  0.0000000E+00;  3.8967977E+04;  2.2425144E+00;  0.0000000E+00;  6.1111170E-01;  7.4694517E+03;
  1.3134408E+00;  9.9999998E-03; -8.1019163E-02;8385;  6.2555587E-01;  0.0000000E+00; -6.4005993E-02;  1.0050129E+03;  3.4336922E-01;  4.1522471E+03;3;  1.0202371E+02;  0.0000000E+00;  3.0131202E+00;0;  2.7393990E+00;  3.5124521E+03;  0.0000000E+00;  1.3066014E+00;  4.0000000E+04;  0.0000000E+00;  3.8968645E+04;  2.1129856E+00;  0.0000000E+00;  6.2641323E-01;  7.4424077E+03;
  1.3135337E+00;  9.9999998E-03; -7.0842259E-02;8386;  6.1946237E-01;  0.0000000E+00; -5.6305639E-02;  1.0047984E+03;  3.4340209E-01;  3.9746067E+03;3;  1.0533215E+02;  0.0000000E+00;  2.6775947E+00;0;  2.6450541E+00;  3.5108113E+03;  0.0000000E+00;  1.0840856E+00;  4.0000000E+04;  0.0000000E+00;  3.8968832E+04;  2.0039794E+00;  0.0000000E+00;  6.4107466E-01;  7.3797905E+03;
  1.3136570E+00;  9.9999998E-03; -6.0692217E-02;8387;  6.1396170E-01;  0.0000000E+00; -4.8414726E-02;  1.0046207E+03;  3.4343150E-01;  3.8273794E+03;3;  1.0812879E+02;  0.0000000E+00;  2.3976307E+00;0;  2.5638859E+00;  3.5093806E+03;  0.0000000E+00;  8.3685446E-01;  4.0000000E+04;  0.0000000E+00;  3.8968766E+04;  1.9091343E+00;  0.0000000E+00;  6.5475166E-01;  7.2272998E+03;
  1.3136572E+00;  9.9999998E-03;  6.0692374E-02;8399;  6.1396188E-01;  0.0000000E+00;  4.8415720E-02;  1.0046205E+03;  3.4343043E-01;  3.8272808E+03;3;  1.0812853E+02;  0.0000000E+00; -2.3975625E+00;0;  2.5638795E+00;  3.5093794E+03;  0.0000000E+00;  8.3675480E-01;  4.0000000E+04;  0.0000000E+00;  3.8968770E+04;  1.9091271E+00;  0.0000000E+00;  6.5475231E-01;  7.2271587E+03;
  1.3138086E+00;  9.9999998E-03; -5.0562847E-02;8388;  6.0920250E-01;  0.0000000E+00; -4.0403921E-02;  1.0044885E+03;  3.4344891E-01;  3.7178716E+03;3;  1.0974131E+02;  0.0000000E+00;  2.1165736E+00;0;  2.4950445E+00;  3.5082546E+03;  0.0000000E+00;  5.9563583E-01;  4.0000000E+04;  0.0000000E+00;  3.8969062E+04;  1.8280275E+00;  0.0000000E+00;  6.6701704E-01;  7.0319165E+03;
  1.3138086E+00;  9.9999998E-03;  5.0563008E-02;8398;  6.0920256E-01;  0.0000000E+00;  4.0404923E-02;  1.0044884E+03;  3.4344938E-01;  3.7177729E+03;3;  1.0974125E+02;  0.0000000E+00; -2.1166372E+00;0;  2.4950416E+00;  3.5082542E+03;  0.0000000E+00;  5.9555030E-01;  4.0000000E+04;  0.0000000E+00;  3.8969062E+04;  1.8280239E+00;  0.0000000E+00;  6.6701776E-01;  7.0318735E+03;
  1.3139628E+00;  9.9999998E-03; -4.0444646E-02;8389;  6.0526150E-01;  0.0000000E+00; -3.2309826E-02;  1.0043889E+03;  3.4345970E-01;  3.6354197E+03;3;  1.1118208E+02;  0.0000000E+00;  1.7159966E+00;0;  2.4388313E+00;  3.5073625E+03;  0.0000000E+00;  3.8345858E-01;  4.0000000E+04;  0.0000000E+00;  3.8969363E+04;  1.7613214E+00;  0.0000000E+00;  6.7750978E-01;  6.8577295E+03;
  1.3139628E+00;  9.9999998E-03;  4.0444802E-02;8397;  6.0526156E-01;  0.0000000E+00;  3.2310832E-02;  1.0043889E+03;  3.4346008E-01;  3.6354197E+03;3;  1.1118179E+02;  0.0000000E+00; -1.7161088E+00;0;  2.4388301E+00;  3.5073635E+03;  0.0000000E+00;  3.8339269E-01;  4.0000000E+04;  0.0000000E+00;  3.8969367E+04;  1.7613199E+00;  0.0000000E+00;  6.7751032E-01;  6.8576934E+03;
  1.3140973E+00;  9.9999998E-03; -3.0331885E-02;8390;  6.0214734E-01;  0.0000000E+00; -2.4187259E-02;  1.0043201E+03;  3.4346330E-01;  3.5783447E+03;3;  1.1244407E+02;  0.0000000E+00;  1.2770656E+00;0;  2.3955019E+00;  3.5066985E+03;  0.0000000E+00;  2.1437715E-01;  4.0000000E+04;  0.0000000E+00;  3.8969758E+04;  1.7095568E+00;  0.0000000E+00;  6.8594497E-01;  6.7432363E+03;
  1.3140972E+00;  9.9999998E-03;  3.0332040E-02;8396;  6.0214740E-01;  0.0000000E+00;  2.4188232E-02;  1.0043200E+03;  3.4346494E-01;  3.5783447E+03;3;  1.1244395E+02;  0.0000000E+00; -1.2772542E+00;0;  2.3955035E+00;  3.5066973E+03;  0.0000000E+00;  2.1432924E-01;  4.0000000E+04;  0.0000000E+00;  3.8969750E+04;  1.7095582E+00;  0.0000000E+00;  6.8594521E-01;  6.7432578E+03;
  1.3142012E+00;  9.9999998E-03; -2.0220352E-02;8391;  5.9991705E-01;  0.0000000E+00; -1.6105285E-02;  1.0042764E+03;  3.4346414E-01;  3.5422039E+03;3;  1.1331091E+02;  0.0000000E+00;  9.0264636E-01;0;  2.3647757E+00;  3.5062576E+03;  0.0000000E+00;  9.4214581E-02;  4.0000000E+04;  0.0000000E+00;  3.8969840E+04;  1.6726694E+00;  0.0000000E+00;  6.9210625E-01;  6.6885996E+03;
  1.3142012E+00;  9.9999998E-03;  2.0220501E-02;8395;  5.9991711E-01;  0.0000000E+00;  1.6106293E-02;  1.0042762E+03;  3.4346566E-01;  3.5421052E+03;3;  1.1331074E+02;  0.0000000E+00; -9.0286136E-01;0;  2.3647752E+00;  3.5062581E+03;  0.0000000E+00;  9.4183497E-02;  4.0000000E+04;  0.0000000E+00;  3.8969836E+04;  1.6726689E+00;  0.0000000E+00;  6.9210631E-01;  6.6885625E+03;
  1.3142638E+00;  9.9999998E-03; -1.0109934E-02;8392;  5.9860665E-01;  0.0000000E+00; -8.0480222E-03;  1.0042477E+03;  3.4346533E-01;  3.5185051E+03;3;  1.1405282E+02;  0.0000000E+00;  5.2958477E-01;0;  2.3465931E+00;  3.5059705E+03;  0.0000000E+00;  2.3325937E-02;  4.0000000E+04;  0.0000000E+00;  3.8969871E+04;  1.6507378E+00;  0.0000000E+00;  6.9585544E-01;  6.6731963E+03;
  1.3142838E+00;  9.9999998E-03;  7.2960511E-08;8393;  5.9817004E-01;  0.0000000E+00;  5.0372182E-07;  1.0042375E+03;  3.4346551E-01;  3.5100129E+03;3;  1.1418510E+02;  0.0000000E+00; -1.3617720E-04;0;  2.3406222E+00;  3.5058677E+03;  0.0000000E+00;  7.4575940E-10;  4.0000000E+04;  0.0000000E+00;  3.8969766E+04;  1.6435075E+00;  0.0000000E+00;  6.9711471E-01;  6.6719536E+03;
  1.3142638E+00;  9.9999998E-03;  1.0110082E-02;8394;  5.9860659E-01;  0.0000000E+00;  8.0490522E-03;  1.0042477E+03;  3.4346446E-01;  3.5185051E+03;3;  1.1405267E+02;  0.0000000E+00; -5.2985597E-01;0;  2.3465960E+00;  3.5059709E+03;  0.0000000E+00;  2.3310801E-02;  4.0000000E+04;  0.0000000E+00;  3.8969867E+04;  1.6507406E+00;  0.0000000E+00;  6.9585544E-01;  6.6732300E+03;
  1.3461362E+00;  9.9999998E-03; -1.0118882E-01;8444;  6.4711934E-01;  0.0000000E+00; -6.6185363E-02;  1.0042171E+03;  3.2456455E-01;  3.4926997E+03;3;  1.0974097E+02;  0.0000000E+00; -1.0587132E+01;0;  1.4903470E+00;  3.9101521E+03;  0.0000000E+00;  1.2437336E+00;  4.0000000E+04;  0.0000000E+00;  3.9039414E+04;  9.1851032E-01;  0.0000000E+00;  5.7183671E-01;  1.4564137E+03;
  1.3462628E+00;  9.9999998E-03; -9.1027111E-02;8445;  6.3742298E-01;  0.0000000E+00; -5.9773322E-02;  1.0037033E+03;  3.2454282E-01;  3.0671682E+03;3;  1.1143730E+02;  0.0000000E+00; -9.6101704E+00;0;  1.3888354E+00;  3.9066709E+03;  0.0000000E+00;  1.1663299E+00;  4.0000000E+04;  0.0000000E+00;  3.9044379E+04;  8.1807584E-01;  0.0000000E+00;  5.7075959E-01;  2.1347280E+03;
  1.3463823E+00;  9.9999998E-03; -8.0871627E-02;8446;  6.2874091E-01;  0.0000000E+00; -5.3110108E-02;  1.0032386E+03;  3.2454702E-01;  2.6823145E+03;3;  1.1318246E+02;  0.0000000E+00; -8.7665987E+00;0;  1.3006752E+00;  3.9030139E+03;  0.0000000E+00;  1.0272937E+00;  4.0000000E+04;  0.0000000E+00;  3.9048004E+04;  7.3041314E-01;  0.0000000E+00;  5.7026201E-01;  2.5692209E+03;
  1.3465264E+00;  9.9999998E-03; -7.0736401E-02;8447;  6.2096548E-01;  0.0000000E+00; -4.6280369E-02;  1.0028283E+03;  3.2455498E-01;  2.3424819E+03;3;  1.1468349E+02;  0.0000000E+00; -7.6867194E+00;0;  1.2245051E+00;  3.8996401E+03;  0.0000000E+00;  8.4919339E-01;  4.0000000E+04;  0.0000000E+00;  3.9050656E+04;  6.5424019E-01;  0.0000000E+00;  5.7026488E-01;  2.8253025E+03;
  1.3466794E+00;  9.9999998E-03; -6.0618937E-02;8448;  6.1422157E-01;  0.0000000E+00; -3.9466586E-02;  1.0025002E+03;  3.2456276E-01;  2.0707737E+03;3;  1.1532735E+02;  0.0000000E+00; -6.3907938E+00;0;  1.1601779E+00;  3.8967700E+03;  0.0000000E+00;  6.5628952E-01;  4.0000000E+04;  0.0000000E+00;  3.9052844E+04;  5.8947629E-01;  0.0000000E+00;  5.7070160E-01;  2.9690767E+03;
  1.3466794E+00;  9.9999998E-03;  6.0619101E-02;8460;  6.1422157E-01;  0.0000000E+00;  3.9467607E-02;  1.0025003E+03;  3.2456112E-01;  2.0707737E+03;3;  1.1532745E+02;  0.0000000E+00;  6.3907733E+00;0;  1.1601782E+00;  3.8967703E+03;  0.0000000E+00;  6.5622956E-01;  4.0000000E+04;  0.0000000E+00;  3.9052855E+04;  5.8947527E-01;  0.0000000E+00;  5.7070291E-01;  2.9690527E+03;
  1.3468395E+00;  9.9999998E-03; -5.0513208E-02;8449;  6.0855442E-01;  0.0000000E+00; -3.2704409E-02;  1.0022307E+03;  3.2456332E-01;  1.8475425E+03;3;  1.1662687E+02;  0.0000000E+00; -5.0669894E+00;0;  1.1069126E+00;  3.8944968E+03;  0.0000000E+00;  4.6966597E-01;  4.0000000E+04;  0.0000000E+00;  3.9054148E+04;  5.3552866E-01;  0.0000000E+00;  5.7138401E-01;  3.0506960E+03;
  1.3468395E+00;  9.9999998E-03;  5.0513372E-02;8459;  6.0855442E-01;  0.0000000E+00;  3.2705374E-02;  1.0022307E+03;  3.2456213E-01;  1.8475425E+03;3;  1.1662644E+02;  0.0000000E+00;  5.0669632E+00;0;  1.1069118E+00;  3.8944973E+03;  0.0000000E+00;  4.6961761E-01;  4.0000000E+04;  0.0000000E+00;  3.9054137E+04;  5.3552675E-01;  0.0000000E+00;  5.7138503E-01;  3.0506963E+03;
  1.3470023E+00;  9.9999998E-03; -4.0413301E-02;8450;  6.0388786E-01;  0.0000000E+00; -2.6001560E-02;  1.0020337E+03;  3.2455316E-01;  1.6843398E+03;3;  1.1767218E+02;  0.0000000E+00; -3.9075713E+00;0;  1.0639458E+00;  3.8929070E+03;  0.0000000E+00;  3.0506280E-01;  4.0000000E+04;  0.0000000E+00;  3.9054762E+04;  4.9182728E-01;  0.0000000E+00;  5.7211852E-01;  3.0932446E+03;
  1.3470023E+00;  9.9999998E-03;  4.0413469E-02;8458;  6.0388786E-01;  0.0000000E+00;  2.6002495E-02;  1.0020335E+03;  3.2455409E-01;  1.6841425E+03;3;  1.1767225E+02;  0.0000000E+00;  3.9074457E+00;0;  1.0639448E+00;  3.8929062E+03;  0.0000000E+00;  3.0502218E-01;  4.0000000E+04;  0.0000000E+00;  3.9054758E+04;  4.9182549E-01;  0.0000000E+00;  5.7211930E-01;  3.0932668E+03;
  1.3471451E+00;  9.9999998E-03; -3.0313903E-02;8451;  6.0020339E-01;  0.0000000E+00; -1.9395838E-02;  1.0018929E+03;  3.2454008E-01;  1.5677382E+03;3;  1.1853970E+02;  0.0000000E+00; -2.7712853E+00;0;  1.0310969E+00;  3.8918335E+03;  0.0000000E+00;  1.7240331E-01;  4.0000000E+04;  0.0000000E+00;  3.9055156E+04;  4.5827228E-01;  0.0000000E+00;  5.7282472E-01;  3.1010728E+03;
  1.3471450E+00;  9.9999998E-03;  3.0314073E-02;8457;  6.0020339E-01;  0.0000000E+00;  1.9396804E-02;  1.0018929E+03;  3.2453990E-01;  1.5677382E+03;3;  1.1853988E+02;  0.0000000E+00;  2.7711010E+00;0;  1.0310981E+00;  3.8918345E+03;  0.0000000E+00;  1.7237322E-01;  4.0000000E+04;  0.0000000E+00;  3.9055156E+04;  4.5827252E-01;  0.0000000E+00;  5.7282555E-01;  3.1010107E+03;
  1.3472464E+00;  9.9999998E-03; -2.0212973E-02;8452;  5.9756869E-01;  0.0000000E+00; -1.2911275E-02;  1.0018013E+03;  3.2453227E-01;  1.4919126E+03;3;  1.1896282E+02;  0.0000000E+00; -1.5484337E+00;0;  1.0082483E+00;  3.8911504E+03;  0.0000000E+00;  7.6593332E-02;  4.0000000E+04;  0.0000000E+00;  3.9054918E+04;  4.3479085E-01;  0.0000000E+00;  5.7345748E-01;  3.0805535E+03;
  1.3472463E+00;  9.9999998E-03;  2.0213142E-02;8456;  5.9756875E-01;  0.0000000E+00;  1.2912243E-02;  1.0018014E+03;  3.2452902E-01;  1.4919126E+03;3;  1.1896246E+02;  0.0000000E+00;  1.5482901E+00;0;  1.0082504E+00;  3.8911499E+03;  0.0000000E+00;  7.6573953E-02;  4.0000000E+04;  0.0000000E+00;  3.9054914E+04;  4.3479204E-01;  0.0000000E+00;  5.7345831E-01;  3.0804929E+03;
  1.3473055E+00;  9.9999998E-03; -1.0108422E-02;8453;  5.9603792E-01;  0.0000000E+00; -6.4809760E-03;  1.0017462E+03;  3.2452211E-01;  1.4462001E+03;3;  1.1916375E+02;  0.0000000E+00; -6.0207921E-01;0;  9.9482137E-01;  3.8907493E+03;  0.0000000E+00;  1.9118274E-02;  4.0000000E+04;  0.0000000E+00;  3.9054602E+04;  4.2092264E-01;  0.0000000E+00;  5.7389873E-01;  3.0533318E+03;
  1.3473054E+00;  9.9999998E-03;  1.0108585E-02;8455;  5.9603792E-01;  0.0000000E+00;  6.4819292E-03;  1.0017465E+03;  3.2452184E-01;  1.4463976E+03;3;  1.1916398E+02;  0.0000000E+00;  6.0185295E-01;0;  9.9482578E-01;  3.8907466E+03;  0.0000000E+00;  1.9108972E-02;  4.0000000E+04;  0.0000000E+00;  3.9054594E+04;  4.2092609E-01;  0.0000000E+00;  5.7389969E-01;  3.0531963E+03;
  1.3473247E+00;  9.9999998E-03;  8.1717687E-08;8454;  5.9554267E-01;  0.0000000E+00;  4.8406952E-07;  1.0017280E+03;  3.2451943E-01;  1.4311930E+03;3;  1.1926450E+02;  0.0000000E+00; -1.0256656E-04;0;  9.9039900E-01;  3.8906099E+03;  0.0000000E+00;  1.2507456E-09;  4.0000000E+04;  0.0000000E+00;  3.9054508E+04;  4.1634151E-01;  0.0000000E+00;  5.7405746E-01;  3.0411670E+03;
  1.3774654E+00;  9.9999998E-03; -1.0104117E-01;8505;  6.4450622E-01;  0.0000000E+00; -4.5330413E-02;  1.0006861E+03;  3.0370143E-01;  5.6808563E+02;3;  1.1307574E+02;  0.0000000E+00; -1.7575842E+01;0;  6.3897282E-01;  4.4219487E+03;  0.0000000E+00;  8.0966115E-01;  4.0000000E+04;  0.0000000E+00;  3.9104762E+04;  2.0616664E-01;  0.0000000E+00;  4.3280616E-01;  7.7344585E+03;
  1.3775582E+00;  9.9999998E-03; -9.0919323E-02;8506;  6.3377303E-01;  0.0000000E+00; -4.0537145E-02;  1.0000394E+03;  3.0370671E-01;  3.2673542E+01;3;  1.1405828E+02;  0.0000000E+00; -1.5707847E+01;0;  5.7825041E-01;  4.4154355E+03;  0.0000000E+00;  7.3102742E-01;  4.0000000E+04;  0.0000000E+00;  3.9111645E+04;  1.5634225E-01;  0.0000000E+00;  4.2190817E-01;  8.6417852E+03;
  1.3776896E+00;  9.9999998E-03; -8.0808900E-02;8507;  6.2433285E-01;  0.0000000E+00; -3.5816699E-02;  9.9946521E+02;  3.0371323E-01; -4.4281982E+02;3;  1.1477653E+02;  0.0000000E+00; -1.3757631E+01;0;  5.2444696E-01;  4.4096157E+03;  0.0000000E+00;  6.3039321E-01;  4.0000000E+04;  0.0000000E+00;  3.9116961E+04;  1.1219238E-01;  0.0000000E+00;  4.1225460E-01;  9.3826797E+03;
  1.3778437E+00;  9.9999998E-03; -7.0708714E-02;8508;  6.1608857E-01;  0.0000000E+00; -3.1141520E-02;  9.9899615E+02;  3.0371469E-01; -8.3124860E+02;3;  1.1601794E+02;  0.0000000E+00; -1.1974327E+01;0;  4.7782755E-01;  4.4047832E+03;  0.0000000E+00;  5.1691520E-01;  4.0000000E+04;  0.0000000E+00;  3.9121102E+04;  7.3864639E-02;  0.0000000E+00;  4.0396291E-01;  9.9589756E+03;
  1.3780191E+00;  9.9999998E-03; -6.0614571E-02;8509;  6.0889614E-01;  0.0000000E+00; -2.6467796E-02;  9.9862622E+02;  3.0370754E-01; -1.1375483E+03;3;  1.1755323E+02;  0.0000000E+00; -1.0152470E+01;0;  4.3817317E-01;  4.4011260E+03;  0.0000000E+00;  4.0029663E-01;  4.0000000E+04;  0.0000000E+00;  3.9124145E+04;  4.1225884E-02;  0.0000000E+00;  3.9694729E-01;  1.0382146E+04;
  1.3780191E+00;  9.9999998E-03;  6.0614742E-02;8521;  6.0889614E-01;  0.0000000E+00;  2.6468745E-02;  9.9862604E+02;  3.0370861E-01; -1.1376964E+03;3;  1.1755247E+02;  0.0000000E+00;  1.0152490E+01;0;  4.3817344E-01;  4.4011240E+03;  0.0000000E+00;  4.0029693E-01;  4.0000000E+04;  0.0000000E+00;  3.9124148E+04;  4.1224498E-02;  0.0000000E+00;  3.9694893E-01;  1.0382186E+04;
  1.3781974E+00;  9.9999998E-03; -5.0522730E-02;8510;  6.0276109E-01;  0.0000000E+00; -2.1864450E-02;  9.9835846E+02;  3.0369151E-01; -1.3592521E+03;3;  1.1859714E+02;  0.0000000E+00; -8.2069693E+00;0;  4.0540314E-01;  4.3985962E+03;  0.0000000E+00;  2.8933674E-01;  4.0000000E+04;  0.0000000E+00;  3.9126215E+04;  1.4216663E-02;  0.0000000E+00;  3.9118648E-01;  1.0660755E+04;
  1.3781974E+00;  9.9999998E-03;  5.0522901E-02;8520;  6.0276109E-01;  0.0000000E+00;  2.1865409E-02;  9.9835852E+02;  3.0369160E-01; -1.3592028E+03;3;  1.1859719E+02;  0.0000000E+00;  8.2068491E+00;0;  4.0540388E-01;  4.3985967E+03;  0.0000000E+00;  2.8933379E-01;  4.0000000E+04;  0.0000000E+00;  3.9126203E+04;  1.4215775E-02;  0.0000000E+00;  3.9118811E-01;  1.0660747E+04;
  1.3783646E+00;  9.9999998E-03; -4.0429510E-02;8511;  5.9773523E-01;  0.0000000E+00; -1.7325170E-02;  9.9817749E+02;  3.0366802E-01; -1.5091428E+03;3;  1.1972165E+02;  0.0000000E+00; -6.5453143E+00;0;  3.7925944E-01;  4.3971172E+03;  0.0000000E+00;  1.9085529E-01;  4.0000000E+04;  0.0000000E+00;  3.9127262E+04; -7.3495079E-03;  0.0000000E+00;  3.8660896E-01;  1.0810537E+04;
  1.3783646E+00;  9.9999998E-03;  4.0429685E-02;8519;  5.9773523E-01;  0.0000000E+00;  1.7326124E-02;  9.9817761E+02;  3.0366749E-01; -1.5090442E+03;3;  1.1972196E+02;  0.0000000E+00;  6.5452070E+00;0;  3.7926027E-01;  4.3971167E+03;  0.0000000E+00;  1.9085523E-01;  4.0000000E+04;  0.0000000E+00;  3.9127266E+04; -7.3502008E-03;  0.0000000E+00;  3.8661048E-01;  1.0810516E+04;
  1.3785061E+00;  9.9999998E-03; -3.0331319E-02;8512;  5.9377867E-01;  0.0000000E+00; -1.2835339E-02;  9.9806067E+02;  3.0364010E-01; -1.6058778E+03;3;  1.2054259E+02;  0.0000000E+00; -4.9959106E+00;0;  3.5944751E-01;  4.3963384E+03;  0.0000000E+00;  1.0977618E-01;  4.0000000E+04;  0.0000000E+00;  3.9127383E+04; -2.3707043E-02;  0.0000000E+00;  3.8315454E-01;  1.0859103E+04;
  1.3785061E+00;  9.9999998E-03;  3.0331492E-02;8518;  5.9377867E-01;  0.0000000E+00;  1.2836270E-02;  9.9806061E+02;  3.0364040E-01; -1.6059271E+03;3;  1.2054186E+02;  0.0000000E+00;  4.9958224E+00;0;  3.5944772E-01;  4.3963369E+03;  0.0000000E+00;  1.0977738E-01;  4.0000000E+04;  0.0000000E+00;  3.9127383E+04; -2.3707667E-02;  0.0000000E+00;  3.8315538E-01;  1.0859094E+04;
  1.3786089E+00;  9.9999998E-03; -2.0226924E-02;8513;  5.9091651E-01;  0.0000000E+00; -8.4542716E-03;  9.9799408E+02;  3.0361745E-01; -1.6610065E+03;3;  1.2099668E+02;  0.0000000E+00; -3.2193074E+00;0;  3.4567794E-01;  4.3960063E+03;  0.0000000E+00;  4.9555987E-02;  4.0000000E+04;  0.0000000E+00;  3.9127461E+04; -3.5104517E-02;  0.0000000E+00;  3.8078246E-01;  1.0844786E+04;
  1.3786674E+00;  9.9999998E-03; -1.0116006E-02;8514;  5.8920711E-01;  0.0000000E+00; -4.1929749E-03;  9.9795667E+02;  3.0360332E-01; -1.6919515E+03;3;  1.2128221E+02;  0.0000000E+00; -1.6001118E+00;0;  3.3763275E-01;  4.3958677E+03;  0.0000000E+00;  1.2506957E-02;  4.0000000E+04;  0.0000000E+00;  3.9127020E+04; -4.1794021E-02;  0.0000000E+00;  3.7942678E-01;  1.0811276E+04;
  1.3786674E+00;  9.9999998E-03;  1.0116179E-02;8516;  5.8920711E-01;  0.0000000E+00;  4.1938839E-03;  9.9795679E+02;  3.0360350E-01; -1.6918528E+03;3;  1.2128201E+02;  0.0000000E+00;  1.5999193E+00;0;  3.3763257E-01;  4.3958696E+03;  0.0000000E+00;  1.2507437E-02;  4.0000000E+04;  0.0000000E+00;  3.9127023E+04; -4.1794360E-02;  0.0000000E+00;  3.7942693E-01;  1.0811290E+04;
  1.3786089E+00;  9.9999998E-03;  2.0227097E-02;8517;  5.9091651E-01;  0.0000000E+00;  8.4551806E-03;  9.9799396E+02;  3.0361754E-01; -1.6611052E+03;3;  1.2099668E+02;  0.0000000E+00;  3.2190976E+00;0;  3.4567815E-01;  4.3960044E+03;  0.0000000E+00;  4.9557380E-02;  4.0000000E+04;  0.0000000E+00;  3.9127465E+04; -3.5104960E-02;  0.0000000E+00;  3.8078311E-01;  1.0844745E+04;
  1.3786857E+00;  9.9999998E-03;  8.6110255E-08;8515;  5.8863568E-01;  0.0000000E+00;  4.5170120E-07;  9.9794757E+02;  3.0360037E-01; -1.6995028E+03;3;  1.2139513E+02;  0.0000000E+00; -1.3078342E-04;0;  3.3499679E-01;  4.3958252E+03;  0.0000000E+00;  1.2036839E-09;  4.0000000E+04;  0.0000000E+00;  3.9126895E+04; -4.3993983E-02;  0.0000000E+00;  3.7899077E-01;  1.0795358E+04;
  1.4070815E+00;  9.9999998E-03; -8.0796815E-02;8568;  6.1907566E-01;  0.0000000E+00; -1.6813112E-02;  9.9554370E+02;  2.8187171E-01; -3.6889761E+03;3;  1.1559746E+02;  0.0000000E+00; -1.5786784E+01;0;  1.9664109E-01;  5.0693164E+03;  0.0000000E+00;  3.5289463E-01;  4.0000000E+04;  0.0000000E+00;  3.9168438E+04; -4.8338240E-03;  0.0000000E+00;  2.0147491E-01;  1.4129582E+04;
  1.4073076E+00;  9.9999998E-03; -6.0640778E-02;8570;  6.0257602E-01;  0.0000000E+00; -1.2179201E-02;  9.9479480E+02;  2.8192064E-01; -4.3089414E+03;3;  1.1860800E+02;  0.0000000E+00; -1.2115950E+01;0;  1.5487383E-01;  5.0583535E+03;  0.0000000E+00;  2.0868942E-01;  4.0000000E+04;  0.0000000E+00;  3.9175871E+04; -2.4178017E-02;  0.0000000E+00;  1.7905185E-01;  1.5147043E+04;
  1.4073076E+00;  9.9999998E-03;  6.0640961E-02;8582;  6.0257602E-01;  0.0000000E+00;  1.2180176E-02;  9.9479517E+02;  2.8192031E-01; -4.3086455E+03;3;  1.1860809E+02;  0.0000000E+00;  1.2115756E+01;0;  1.5487374E-01;  5.0583545E+03;  0.0000000E+00;  2.0872451E-01;  4.0000000E+04;  0.0000000E+00;  3.9175867E+04; -2.4179351E-02;  0.0000000E+00;  1.7905310E-01;  1.5147050E+04;
  1.4071833E+00;  9.9999998E-03; -7.0721798E-02;8569;  6.1026955E-01;  0.0000000E+00; -1.4487737E-02;  9.9510577E+02;  2.8190619E-01; -4.0514839E+03;3;  1.1715134E+02;  0.0000000E+00; -1.3947412E+01;0;  1.7410268E-01;  5.0628350E+03;  0.0000000E+00;  2.7747992E-01;  4.0000000E+04;  0.0000000E+00;  3.9173004E+04; -1.5354892E-02;  0.0000000E+00;  1.8945757E-01;  1.4722236E+04;
  1.4070417E+00;  9.9999998E-03; -9.0867631E-02;8567;  6.2896866E-01;  0.0000000E+00; -1.9115957E-02;  9.9610046E+02;  2.8180736E-01; -3.2280776E+03;3;  1.1388838E+02;  0.0000000E+00; -1.7710970E+01;0;  2.2218823E-01;  5.0781968E+03;  0.0000000E+00;  4.3390059E-01;  4.0000000E+04;  0.0000000E+00;  3.9163035E+04;  7.2810589E-03;  0.0000000E+00;  2.1490717E-01;  1.3372636E+04;
  1.4074389E+00;  9.9999998E-03; -5.0550852E-02;8571;  5.9602088E-01;  0.0000000E+00; -9.9471901E-03;  9.9460022E+02;  2.8191832E-01; -4.4699849E+03;3;  1.1976390E+02;  0.0000000E+00; -1.0064338E+01;0;  1.3898316E-01;  5.0556631E+03;  0.0000000E+00;  1.4807150E-01;  4.0000000E+04;  0.0000000E+00;  3.9177852E+04; -3.1283855E-02;  0.0000000E+00;  1.7026702E-01;  1.5415482E+04;
  1.4074388E+00;  9.9999998E-03;  5.0551038E-02;8581;  5.9602082E-01;  0.0000000E+00;  9.9481549E-03;  9.9460040E+02;  2.8191873E-01; -4.4698369E+03;3;  1.1976312E+02;  0.0000000E+00;  1.0064254E+01;0;  1.3898340E-01;  5.0556631E+03;  0.0000000E+00;  1.4810075E-01;  4.0000000E+04;  0.0000000E+00;  3.9177840E+04; -3.1285100E-02;  0.0000000E+00;  1.7026851E-01;  1.5415467E+04;
  1.4075718E+00;  9.9999998E-03; -4.0451448E-02;8572;  5.9065121E-01;  0.0000000E+00; -7.8255683E-03;  9.9449951E+02;  2.8189927E-01; -4.5533647E+03;3;  1.2074879E+02;  0.0000000E+00; -8.0116339E+00;0;  1.2633109E-01;  5.0545371E+03;  0.0000000E+00;  9.6748389E-02;  4.0000000E+04;  0.0000000E+00;  3.9178789E+04; -3.6703028E-02;  0.0000000E+00;  1.6303411E-01;  1.5550936E+04;
  1.4075717E+00;  9.9999998E-03;  4.0451627E-02;8580;  5.9065121E-01;  0.0000000E+00;  7.8265145E-03;  9.9449933E+02;  2.8189880E-01; -4.5535127E+03;3;  1.2074905E+02;  0.0000000E+00;  8.0114946E+00;0;  1.2633120E-01;  5.0545342E+03;  0.0000000E+00;  9.6776552E-02;  4.0000000E+04;  0.0000000E+00;  3.9178793E+04; -3.6704183E-02;  0.0000000E+00;  1.6303538E-01;  1.5550889E+04;
  1.4070783E+00;  9.9999998E-03; -1.0094132E-01;8566;  6.4000309E-01;  0.0000000E+00; -2.1406708E-02;  9.9675848E+02;  2.8171867E-01; -2.6833940E+03;3;  1.1236089E+02;  0.0000000E+00; -1.9841389E+01;0;  2.5036681E-01;  5.0892061E+03;  0.0000000E+00;  5.2174914E-01;  4.0000000E+04;  0.0000000E+00;  3.9156504E+04;  2.0638682E-02;  0.0000000E+00;  2.2972813E-01;  1.2467934E+04;
  1.4076910E+00;  9.9999998E-03; -3.0345315E-02;8573;  5.8646864E-01;  0.0000000E+00; -5.7787928E-03;  9.9446497E+02;  2.8187370E-01; -4.5819263E+03;3;  1.2159795E+02;  0.0000000E+00; -6.0863838E+00;0;  1.1677881E-01;  5.0544434E+03;  0.0000000E+00;  5.5498261E-02;  4.0000000E+04;  0.0000000E+00;  3.9178957E+04; -4.0597707E-02;  0.0000000E+00;  1.5737651E-01;  1.5586210E+04;
  1.4076911E+00;  9.9999998E-03;  3.0345498E-02;8579;  5.8646864E-01;  0.0000000E+00;  5.7797120E-03;  9.9446497E+02;  2.8187466E-01; -4.5819263E+03;3;  1.2159787E+02;  0.0000000E+00;  6.0862126E+00;0;  1.1677893E-01;  5.0544438E+03;  0.0000000E+00;  5.5519797E-02;  4.0000000E+04;  0.0000000E+00;  3.9178965E+04; -4.0598240E-02;  0.0000000E+00;  1.5737717E-01;  1.5586229E+04;
  1.4077809E+00;  9.9999998E-03; -2.0234741E-02;8574;  5.8346248E-01;  0.0000000E+00; -3.7955469E-03;  9.9446729E+02;  2.8184873E-01; -4.5800469E+03;3;  1.2212375E+02;  0.0000000E+00; -4.1532593E+00;0;  1.1015075E-01;  5.0547886E+03;  0.0000000E+00;  2.5082575E-02;  4.0000000E+04;  0.0000000E+00;  3.9178777E+04; -4.3195970E-02;  0.0000000E+00;  1.5334672E-01;  1.5563056E+04;
  1.4077810E+00;  9.9999998E-03;  2.0234924E-02;8578;  5.8346248E-01;  0.0000000E+00;  3.7964659E-03;  9.9446716E+02;  2.8184894E-01; -4.5801455E+03;3;  1.2212378E+02;  0.0000000E+00;  4.1530499E+00;0;  1.1015067E-01;  5.0547900E+03;  0.0000000E+00;  2.5097119E-02;  4.0000000E+04;  0.0000000E+00;  3.9178777E+04; -4.3196477E-02;  0.0000000E+00;  1.5334715E-01;  1.5563026E+04;
  1.4078331E+00;  9.9999998E-03; -1.0119649E-02;8575;  5.8165634E-01;  0.0000000E+00; -1.8733448E-03;  9.9447864E+02;  2.8183427E-01; -4.5706196E+03;3;  1.2252608E+02;  0.0000000E+00; -2.1535740E+00;0;  1.0626644E-01;  5.0551304E+03;  0.0000000E+00;  6.3435882E-03;  4.0000000E+04;  0.0000000E+00;  3.9178488E+04; -4.4695470E-02;  0.0000000E+00;  1.5096191E-01;  1.5525599E+04;
  1.4078501E+00;  9.9999998E-03;  9.1366026E-08;8576;  5.8104950E-01;  0.0000000E+00;  4.5932936E-07;  9.9448663E+02;  2.8182977E-01; -4.5640068E+03;3;  1.2258734E+02;  0.0000000E+00; -1.0419262E-04;0;  1.0498777E-01;  5.0552495E+03;  0.0000000E+00;  6.7340794E-10;  4.0000000E+04;  0.0000000E+00;  3.9178312E+04; -4.5185205E-02;  0.0000000E+00;  1.5017298E-01;  1.5508820E+04;
  1.4078332E+00;  9.9999998E-03;  1.0119832E-02;8577;  5.8165634E-01;  0.0000000E+00;  1.8742597E-03;  9.9447900E+02;  2.8183481E-01; -4.5703232E+03;3;  1.2252670E+02;  0.0000000E+00;  2.1533484E+00;0;  1.0626636E-01;  5.0551328E+03;  0.0000000E+00;  6.3508842E-03;  4.0000000E+04;  0.0000000E+00;  3.9178492E+04; -4.4695288E-02;  0.0000000E+00;  1.5096165E-01;  1.5525627E+04;
  1.4343611E+00;  9.9999998E-03; -8.0853060E-02;8629;  6.1344343E-01;  0.0000000E+00;  3.2934274E-03;  9.9243970E+02;  2.6061073E-01; -6.2559985E+03;3;  1.1624673E+02;  0.0000000E+00; -1.9944046E+01;0;  2.4689303E-01;  5.8899736E+03;  0.0000000E+00;  2.7083424E-01;  4.0000000E+04;  0.0000000E+00;  3.9198918E+04;  2.6711580E-01;  0.0000000E+00; -2.0222763E-02;  1.6138497E+04;
  1.4343966E+00;  9.9999998E-03; -9.0908736E-02;8628;  6.2391752E-01;  0.0000000E+00;  3.2273792E-03;  9.9298090E+02;  2.6051378E-01; -5.8081548E+03;3;  1.1427897E+02;  0.0000000E+00; -2.1809280E+01;0;  2.4525788E-01;  5.9015410E+03;  0.0000000E+00;  3.3944330E-01;  4.0000000E+04;  0.0000000E+00;  3.9194449E+04;  2.4919458E-01;  0.0000000E+00; -3.9366996E-03;  1.5519419E+04;
  1.4343888E+00;  9.9999998E-03; -7.0780694E-02;8630;  6.0413343E-01;  0.0000000E+00;  3.2942477E-03;  9.9202124E+02;  2.6067132E-01; -6.6022319E+03;3;  1.1780408E+02;  0.0000000E+00; -1.8213287E+01;0;  2.4870226E-01;  5.8817192E+03;  0.0000000E+00;  2.1043818E-01;  4.0000000E+04;  0.0000000E+00;  3.9202273E+04;  2.8369522E-01;  0.0000000E+00; -3.4992956E-02;  1.6603230E+04;
  1.4345192E+00;  9.9999998E-03; -1.0096017E-01;8627;  6.3552725E-01;  0.0000000E+00;  3.1647456E-03;  9.9363611E+02;  2.6037499E-01; -5.2659512E+03;3;  1.1182857E+02;  0.0000000E+00; -2.3620287E+01;0;  2.4374302E-01;  5.9164780E+03;  0.0000000E+00;  4.2275742E-01;  4.0000000E+04;  0.0000000E+00;  3.9188859E+04;  2.2998686E-01;  0.0000000E+00;  1.3756160E-02;  1.4766481E+04;
  1.4344585E+00;  9.9999998E-03; -6.0687691E-02;8631;  5.9602368E-01;  0.0000000E+00;  3.1852769E-03;  9.9174182E+02;  2.6070255E-01; -6.8334434E+03;3;  1.1863158E+02;  0.0000000E+00; -1.6218891E+01;0;  2.5069082E-01;  5.8764678E+03;  0.0000000E+00;  1.5623201E-01;  4.0000000E+04;  0.0000000E+00;  3.9204500E+04;  2.9881454E-01;  0.0000000E+00; -4.8123717E-02;  1.6913771E+04;
  1.4344585E+00;  9.9999998E-03;  6.0687896E-02;8643;  5.9602374E-01;  0.0000000E+00; -3.1842960E-03;  9.9174213E+02;  2.6070318E-01; -6.8331968E+03;3;  1.1863194E+02;  0.0000000E+00;  1.6218878E+01;0;  2.5069013E-01;  5.8764683E+03;  0.0000000E+00;  1.5627119E-01;  4.0000000E+04;  0.0000000E+00;  3.9204492E+04;  2.9881266E-01;  0.0000000E+00; -4.8122518E-02;  1.6913775E+04;
  1.4345328E+00;  9.9999998E-03; -5.0579742E-02;8632;  5.8917809E-01;  0.0000000E+00;  2.9298957E-03;  9.9158783E+02;  2.6071864E-01; -6.9608809E+03;3;  1.1956391E+02;  0.0000000E+00; -1.3938496E+01;0;  2.5257140E-01;  5.8733770E+03;  0.0000000E+00;  1.0882443E-01;  4.0000000E+04;  0.0000000E+00;  3.9205711E+04;  3.1189379E-01;  0.0000000E+00; -5.9322383E-02;  1.7082102E+04;
  1.4345328E+00;  9.9999998E-03;  5.0579946E-02;8642;  5.8917809E-01;  0.0000000E+00; -2.9289282E-03;  9.9158807E+02;  2.6071948E-01; -6.9606836E+03;3;  1.1956306E+02;  0.0000000E+00;  1.3938420E+01;0;  2.5257039E-01;  5.8733760E+03;  0.0000000E+00;  1.0886406E-01;  4.0000000E+04;  0.0000000E+00;  3.9205715E+04;  3.1189159E-01;  0.0000000E+00; -5.9321199E-02;  1.7081996E+04;
  1.4346057E+00;  9.9999998E-03; -4.0466100E-02;8633;  5.8358347E-01;  0.0000000E+00;  2.5368622E-03;  9.9153564E+02;  2.6072487E-01; -7.0040273E+03;3;  1.2005296E+02;  0.0000000E+00; -1.1218488E+01;0;  2.5431919E-01;  5.8720103E+03;  0.0000000E+00;  6.9481775E-02;  4.0000000E+04;  0.0000000E+00;  3.9205805E+04;  3.2287347E-01;  0.0000000E+00; -6.8554275E-02;  1.7134352E+04;
  1.4346057E+00;  9.9999998E-03;  4.0466301E-02;8641;  5.8358347E-01;  0.0000000E+00; -2.5359171E-03;  9.9153564E+02;  2.6072392E-01; -7.0040273E+03;3;  1.2005298E+02;  0.0000000E+00;  1.1218475E+01;0;  2.5431907E-01;  5.8720137E+03;  0.0000000E+00;  6.9514565E-02;  4.0000000E+04;  0.0000000E+00;  3.9205809E+04;  3.2287270E-01;  0.0000000E+00; -6.8553619E-02;  1.7134299E+04;
  1.4346770E+00;  9.9999998E-03; -3.0350842E-02;8634;  5.7924598E-01;  0.0000000E+00;  2.0159578E-03;  9.9154950E+02;  2.6071846E-01; -6.9925762E+03;3;  1.2059576E+02;  0.0000000E+00; -8.5007353E+00;0;  2.5593966E-01;  5.8719663E+03;  0.0000000E+00;  3.8921569E-02;  4.0000000E+04;  0.0000000E+00;  3.9205523E+04;  3.3177546E-01;  0.0000000E+00; -7.5835779E-02;  1.7108021E+04;
  1.4346770E+00;  9.9999998E-03;  3.0351043E-02;8640;  5.7924598E-01;  0.0000000E+00; -2.0150123E-03;  9.9154993E+02;  2.6071879E-01; -6.9922310E+03;3;  1.2059575E+02;  0.0000000E+00;  8.5005417E+00;0;  2.5593901E-01;  5.8719658E+03;  0.0000000E+00;  3.8947444E-02;  4.0000000E+04;  0.0000000E+00;  3.9205535E+04;  3.3177400E-01;  0.0000000E+00; -7.5834990E-02;  1.7107996E+04;
  1.4347382E+00;  9.9999998E-03; -2.0235213E-02;8635;  5.7615703E-01;  0.0000000E+00;  1.3936720E-03;  9.9159039E+02;  2.6070571E-01; -6.9587339E+03;3;  1.2100636E+02;  0.0000000E+00; -5.7210574E+00;0;  2.5729471E-01;  5.8725674E+03;  0.0000000E+00;  1.7241575E-02;  4.0000000E+04;  0.0000000E+00;  3.9204949E+04;  3.3840629E-01;  0.0000000E+00; -8.1111595E-02;  1.7045572E+04;
  1.4347382E+00;  9.9999998E-03;  2.0235410E-02;8639;  5.7615697E-01;  0.0000000E+00; -1.3927380E-03;  9.9158990E+02;  2.6070619E-01; -6.9591284E+03;3;  1.2100656E+02;  0.0000000E+00;  5.7209516E+00;0;  2.5729451E-01;  5.8725684E+03;  0.0000000E+00;  1.7259313E-02;  4.0000000E+04;  0.0000000E+00;  3.9204957E+04;  3.3840555E-01;  0.0000000E+00; -8.1111051E-02;  1.7045512E+04;
  1.4347786E+00;  9.9999998E-03; -1.0118368E-02;8636;  5.7429749E-01;  0.0000000E+00;  7.1364467E-04;  9.9162714E+02;  2.6069513E-01; -6.9282974E+03;3;  1.2106229E+02;  0.0000000E+00; -2.8299501E+00;0;  2.5818807E-01;  5.8731934E+03;  0.0000000E+00;  4.3016123E-03;  4.0000000E+04;  0.0000000E+00;  3.9204504E+04;  3.4248957E-01;  0.0000000E+00; -8.4301487E-02;  1.6987600E+04;
  1.4347916E+00;  9.9999998E-03;  9.7948991E-08;8637;  5.7367718E-01;  0.0000000E+00;  4.6458160E-07;  9.9163739E+02;  2.6069278E-01; -6.9198120E+03;3;  1.2105388E+02;  0.0000000E+00; -5.5877870E-05;0;  2.5848582E-01;  5.8734185E+03;  0.0000000E+00;  1.8561278E-10;  4.0000000E+04;  0.0000000E+00;  3.9204309E+04;  3.4384540E-01;  0.0000000E+00; -8.5359573E-02;  1.6964404E+04;
  1.4347786E+00;  9.9999998E-03;  1.0118565E-02;8638;  5.7429749E-01;  0.0000000E+00; -7.1272079E-04;  9.9162732E+02;  2.6069531E-01; -6.9281494E+03;3;  1.2106203E+02;  0.0000000E+00;  2.8298311E+00;0;  2.5818887E-01;  5.8731919E+03;  0.0000000E+00;  4.3104552E-03;  4.0000000E+04;  0.0000000E+00;  3.9204504E+04;  3.4249046E-01;  0.0000000E+00; -8.4301598E-02;  1.6987557E+04;
  1.4596183E+00;  9.9999998E-03; -9.0970404E-02;8689;  6.1966699E-01;  0.0000000E+00;  2.7399041E-02;  9.9069891E+02;  2.4085416E-01; -7.6921562E+03;3;  1.1161884E+02;  0.0000000E+00; -2.8818600E+01;0;  6.7600530E-01;  6.8754155E+03;  0.0000000E+00;  2.8296751E-01;  4.0000000E+04;  0.0000000E+00;  3.9205805E+04;  8.7957960E-01;  0.0000000E+00; -2.0357430E-01;  1.5419054E+04;
  1.4596670E+00;  9.9999998E-03; -1.0102209E-01;8688;  6.3144499E-01;  0.0000000E+00;  2.9495621E-02;  9.9134021E+02;  2.4075986E-01; -7.1617910E+03;3;  1.0937957E+02;  0.0000000E+00; -3.1929436E+01;0;  6.3595647E-01;  6.8901167E+03;  0.0000000E+00;  3.5705394E-01;  4.0000000E+04;  0.0000000E+00;  3.9202008E+04;  8.1786174E-01;  0.0000000E+00; -1.8190525E-01;  1.4892798E+04;
  1.4596262E+00;  9.9999998E-03; -8.0899268E-02;8690;  6.0905766E-01;  0.0000000E+00;  2.5096428E-02;  9.9014435E+02;  2.4091859E-01; -8.1507881E+03;3;  1.1296262E+02;  0.0000000E+00; -2.5739714E+01;0;  7.1327847E-01;  6.8639062E+03;  0.0000000E+00;  2.2901212E-01;  4.0000000E+04;  0.0000000E+00;  3.9208801E+04;  9.3688345E-01;  0.0000000E+00; -2.2360496E-01;  1.5820080E+04;
  1.4597398E+00;  9.9999998E-03; -4.0459543E-02;8694;  5.7906634E-01;  0.0000000E+00;  1.3666997E-02;  9.8913867E+02;  2.4107511E-01; -8.9825010E+03;3;  1.1678680E+02;  0.0000000E+00; -1.2919232E+01;0;  8.1941891E-01;  6.8414507E+03;  0.0000000E+00;  7.1223490E-02;  4.0000000E+04;  0.0000000E+00;  3.9210340E+04;  1.1013881E+00;  0.0000000E+00; -2.8196916E-01;  1.6144608E+04;
  1.4597397E+00;  9.9999998E-03;  4.0459756E-02;8702;  5.7906634E-01;  0.0000000E+00; -1.3666052E-02;  9.8913873E+02;  2.4107540E-01; -8.9824521E+03;3;  1.1678661E+02;  0.0000000E+00;  1.2919139E+01;0;  8.1941795E-01;  6.8414512E+03;  0.0000000E+00;  7.1249820E-02;  4.0000000E+04;  0.0000000E+00;  3.9210344E+04;  1.1013862E+00;  0.0000000E+00; -2.8196827E-01;  1.6144528E+04;
  1.4597136E+00;  9.9999998E-03; -5.0579000E-02;8693;  5.8467108E-01;  0.0000000E+00;  1.6816514E-02;  9.8921362E+02;  2.4104919E-01; -8.9204951E+03;3;  1.1608763E+02;  0.0000000E+00; -1.6110521E+01;0;  7.9975879E-01;  6.8440269E+03;  0.0000000E+00;  1.0624935E-01;  4.0000000E+04;  0.0000000E+00;  3.9210867E+04;  1.0706853E+00;  0.0000000E+00; -2.7092645E-01;  1.6217103E+04;
  1.4597136E+00;  9.9999998E-03;  5.0579209E-02;8703;  5.8467108E-01;  0.0000000E+00; -1.6815545E-02;  9.8921338E+02;  2.4104916E-01; -8.9206924E+03;3;  1.1608775E+02;  0.0000000E+00;  1.6110617E+01;0;  7.9975790E-01;  6.8440254E+03;  0.0000000E+00;  1.0627735E-01;  4.0000000E+04;  0.0000000E+00;  3.9210871E+04;  1.0706835E+00;  0.0000000E+00; -2.7092558E-01;  1.6217033E+04;
  1.4596893E+00;  9.9999998E-03; -6.0696214E-02;8692;  5.9153706E-01;  0.0000000E+00;  1.9794328E-02;  9.8939716E+02;  2.4101117E-01; -8.7687246E+03;3;  1.1540429E+02;  0.0000000E+00; -1.9519096E+01;0;  7.7566361E-01;  6.8485293E+03;  0.0000000E+00;  1.4448710E-01;  4.0000000E+04;  0.0000000E+00;  3.9211020E+04;  1.0331645E+00;  0.0000000E+00; -2.5750092E-01;  1.6206021E+04;
  1.4596893E+00;  9.9999998E-03;  6.0696423E-02;8704;  5.9153706E-01;  0.0000000E+00; -1.9793361E-02;  9.8939691E+02;  2.4101047E-01; -8.7689209E+03;3;  1.1540462E+02;  0.0000000E+00;  1.9519138E+01;0;  7.7566200E-01;  6.8485327E+03;  0.0000000E+00;  1.4451797E-01;  4.0000000E+04;  0.0000000E+00;  3.9211020E+04;  1.0331620E+00;  0.0000000E+00; -2.5749999E-01;  1.6206036E+04;
  1.4596609E+00;  9.9999998E-03; -7.0805438E-02;8691;  5.9968239E-01;  0.0000000E+00;  2.2550903E-02;  9.8970117E+02;  2.4096727E-01; -8.5173311E+03;3;  1.1458822E+02;  0.0000000E+00; -2.2917477E+01;0;  7.4685162E-01;  6.8551694E+03;  0.0000000E+00;  1.8485267E-01;  4.0000000E+04;  0.0000000E+00;  3.9210473E+04;  9.8855364E-01;  0.0000000E+00; -2.4170201E-01;  1.6080717E+04;
  1.4598297E+00;  9.9999998E-03;  1.0018249E-07;8698;  5.6915140E-01;  0.0000000E+00;  4.4956712E-07;  9.8920752E+02;  2.4109904E-01; -8.9255449E+03;3;  1.1752298E+02;  0.0000000E+00; -4.8951508E-05;0;  8.5515118E-01;  6.8408638E+03;  0.0000000E+00; -8.8306022E-11;  4.0000000E+04;  0.0000000E+00;  3.9207102E+04;  1.1570166E+00;  0.0000000E+00; -3.0186546E-01;  1.5771833E+04;
  1.4598045E+00;  9.9999998E-03; -2.0225774E-02;8696;  5.7161987E-01;  0.0000000E+00;  6.9727036E-03;  9.8916260E+02;  2.4109535E-01; -8.9626689E+03;3;  1.1752566E+02;  0.0000000E+00; -6.6823339E+00;0;  8.4620845E-01;  6.8405859E+03;  0.0000000E+00;  1.8844062E-02;  4.0000000E+04;  0.0000000E+00;  3.9208227E+04;  1.1430972E+00;  0.0000000E+00; -2.9688868E-01;  1.5900243E+04;
  1.4598240E+00;  9.9999998E-03; -1.0112409E-02;8697;  5.6976426E-01;  0.0000000E+00;  3.5066050E-03;  9.8919403E+02;  2.4109779E-01; -8.9366865E+03;3;  1.1757249E+02;  0.0000000E+00; -3.3462832E+00;0;  8.5294187E-01;  6.8408071E+03;  0.0000000E+00;  4.7685709E-03;  4.0000000E+04;  0.0000000E+00;  3.9207332E+04;  1.1535702E+00;  0.0000000E+00; -3.0062827E-01;  1.5806489E+04;
  1.4598241E+00;  9.9999998E-03;  1.0112610E-02;8699;  5.6976426E-01;  0.0000000E+00; -3.5057159E-03;  9.8919434E+02;  2.4109696E-01; -8.9364404E+03;3;  1.1757240E+02;  0.0000000E+00;  3.3462706E+00;0;  8.5294342E-01;  6.8408081E+03;  0.0000000E+00;  4.7753407E-03;  4.0000000E+04;  0.0000000E+00;  3.9207340E+04;  1.1535720E+00;  0.0000000E+00; -3.0062854E-01;  1.5806466E+04;
  1.4598045E+00;  9.9999998E-03;  2.0225979E-02;8700;  5.7161987E-01;  0.0000000E+00; -6.9718007E-03;  9.8916272E+02;  2.4109477E-01; -8.9625703E+03;3;  1.1752466E+02;  0.0000000E+00;  6.6823206E+00;0;  8.4620923E-01;  6.8405884E+03;  0.0000000E+00;  1.8856620E-02;  4.0000000E+04;  0.0000000E+00;  3.9208219E+04;  1.1430976E+00;  0.0000000E+00; -2.9688841E-01;  1.5900178E+04;
  1.4597722E+00;  9.9999998E-03; -3.0341364E-02;8695;  5.7472897E-01;  0.0000000E+00;  1.0362177E-02;  9.8913220E+02;  2.4108920E-01; -8.9878174E+03;3;  1.1738036E+02;  0.0000000E+00; -9.9051523E+00;0;  8.3492911E-01;  6.8405474E+03;  0.0000000E+00;  4.1452430E-02;  4.0000000E+04;  0.0000000E+00;  3.9209133E+04;  1.1255696E+00;  0.0000000E+00; -2.9064050E-01;  1.6025535E+04;
  1.4597723E+00;  9.9999998E-03;  3.0341573E-02;8701;  5.7472891E-01;  0.0000000E+00; -1.0361265E-02;  9.8913226E+02;  2.4109060E-01; -8.9877676E+03;3;  1.1738013E+02;  0.0000000E+00;  9.9053545E+00;0;  8.3492851E-01;  6.8405459E+03;  0.0000000E+00;  4.1470733E-02;  4.0000000E+04;  0.0000000E+00;  3.9209125E+04;  1.1255685E+00;  0.0000000E+00; -2.9064000E-01;  1.6025476E+04;
  1.4829483E+00;  9.9999998E-03; -1.0106415E-01;8749;  6.2957680E-01;  0.0000000E+00;  5.4918211E-02;  9.8993976E+02;  2.2322284E-01; -8.3138828E+03;3;  1.0574362E+02;  0.0000000E+00; -3.5840611E+01;0;  1.3903377E+00;  7.9996831E+03;  0.0000000E+00;  2.0282793E-01;  4.0000000E+04;  0.0000000E+00;  3.9197426E+04;  1.7317637E+00;  0.0000000E+00; -3.4142601E-01;  1.3279395E+04;
  1.4830245E+00;  9.9999998E-03; -9.0990834E-02;8750;  6.1784589E-01;  0.0000000E+00;  5.0776999E-02;  9.8935889E+02;  2.2325172E-01; -8.7938760E+03;3;  1.0730296E+02;  0.0000000E+00; -3.2723991E+01;0;  1.4785712E+00;  7.9884468E+03;  0.0000000E+00;  1.4247647E-01;  4.0000000E+04;  0.0000000E+00;  3.9199723E+04;  1.8445984E+00;  0.0000000E+00; -3.6602718E-01;  1.3577296E+04;
  1.4830635E+00;  9.9999998E-03; -8.0901094E-02;8751;  6.0732979E-01;  0.0000000E+00;  4.6192683E-02;  9.8882233E+02;  2.2329406E-01; -9.2372793E+03;3;  1.0871663E+02;  0.0000000E+00; -2.9779812E+01;0;  1.5569215E+00;  7.9773135E+03;  0.0000000E+00;  1.1203234E-01;  4.0000000E+04;  0.0000000E+00;  3.9200953E+04;  1.9452703E+00;  0.0000000E+00; -3.8834888E-01;  1.3767777E+04;
  1.4830860E+00;  9.9999998E-03; -6.0684323E-02;8753;  5.9001422E-01;  0.0000000E+00;  3.5947081E-02;  9.8801691E+02;  2.2338440E-01; -9.9028896E+03;3;  1.1035727E+02;  0.0000000E+00; -2.2109674E+01;0;  1.6834029E+00;  7.9595986E+03;  0.0000000E+00;  8.6588360E-02;  4.0000000E+04;  0.0000000E+00;  3.9200832E+04;  2.1091020E+00;  0.0000000E+00; -4.2569911E-01;  1.3816208E+04;
  1.4830860E+00;  9.9999998E-03;  6.0684543E-02;8765;  5.9001422E-01;  0.0000000E+00; -3.5946116E-02;  9.8801660E+02;  2.2338529E-01; -9.9031357E+03;3;  1.1035702E+02;  0.0000000E+00;  2.2110085E+01;0;  1.6834004E+00;  7.9596016E+03;  0.0000000E+00;  8.6604089E-02;  4.0000000E+04;  0.0000000E+00;  3.9200836E+04;  2.1090987E+00;  0.0000000E+00; -4.2569825E-01;  1.3816148E+04;
  1.4830810E+00;  9.9999998E-03; -7.0797242E-02;8752;  5.9804636E-01;  0.0000000E+00;  4.1233793E-02;  9.8836511E+02;  2.2334033E-01; -9.6151279E+03;3;  1.0961106E+02;  0.0000000E+00; -2.6303656E+01;0;  1.6251957E+00;  7.9675596E+03;  0.0000000E+00;  9.7292311E-02;  4.0000000E+04;  0.0000000E+00;  3.9201285E+04;  2.0334811E+00;  0.0000000E+00; -4.0828535E-01;  1.3843574E+04;
  1.4830774E+00;  9.9999998E-03;  1.0358996E-07;8759;  5.6799102E-01;  0.0000000E+00;  4.3194828E-07;  9.8757007E+02;  2.2352266E-01; -1.0272178E+04;3;  1.1333311E+02;  0.0000000E+00;  1.0717817E-04;0;  1.8381088E+00;  7.9451855E+03;  0.0000000E+00; -2.1252197E-10;  4.0000000E+04;  0.0000000E+00;  3.9193902E+04;  2.3121352E+00;  0.0000000E+00; -4.7402638E-01;  1.3041497E+04;
  1.4830782E+00;  9.9999998E-03; -2.0219706E-02;8757;  5.7040691E-01;  0.0000000E+00;  1.2467075E-02;  9.8756299E+02;  2.2350690E-01; -1.0277989E+04;3;  1.1268932E+02;  0.0000000E+00; -6.6824121E+00;0;  1.8214582E+00;  7.9460195E+03;  0.0000000E+00;  1.7440302E-02;  4.0000000E+04;  0.0000000E+00;  3.9195414E+04;  2.2901387E+00;  0.0000000E+00; -4.6868053E-01;  1.3199879E+04;
  1.4830779E+00;  9.9999998E-03; -1.0109263E-02;8758;  5.6859183E-01;  0.0000000E+00;  6.2487428E-03;  9.8756586E+02;  2.2351848E-01; -1.0275625E+04;3;  1.1312977E+02;  0.0000000E+00; -3.4825227E+00;0;  1.8339785E+00;  7.9453706E+03;  0.0000000E+00;  4.6105748E-03;  4.0000000E+04;  0.0000000E+00;  3.9194594E+04;  2.3066716E+00;  0.0000000E+00; -4.7269309E-01;  1.3083452E+04;
  1.4830779E+00;  9.9999998E-03;  1.0109471E-02;8760;  5.6859189E-01;  0.0000000E+00; -6.2478799E-03;  9.8756604E+02;  2.2351797E-01; -1.0275478E+04;3;  1.1312946E+02;  0.0000000E+00;  3.4823847E+00;0;  1.8339765E+00;  7.9453687E+03;  0.0000000E+00;  4.6135793E-03;  4.0000000E+04;  0.0000000E+00;  3.9194594E+04;  2.3066697E+00;  0.0000000E+00; -4.7269315E-01;  1.3083414E+04;
  1.4830784E+00;  9.9999998E-03;  2.0219916E-02;8761;  5.7040691E-01;  0.0000000E+00; -1.2466195E-02;  9.8756305E+02;  2.2350648E-01; -1.0277939E+04;3;  1.1268900E+02;  0.0000000E+00;  6.6825228E+00;0;  1.8214610E+00;  7.9460176E+03;  0.0000000E+00;  1.7445726E-02;  4.0000000E+04;  0.0000000E+00;  3.9195418E+04;  2.2901411E+00;  0.0000000E+00; -4.6868020E-01;  1.3199848E+04;
  1.4830811E+00;  9.9999998E-03; -3.0332681E-02;8756;  5.7345337E-01;  0.0000000E+00;  1.8593643E-02;  9.8757990E+02;  2.2348648E-01; -1.0264048E+04;3;  1.1223543E+02;  0.0000000E+00; -1.0106445E+01;0;  1.8005055E+00;  7.9473931E+03;  0.0000000E+00;  3.5710637E-02;  4.0000000E+04;  0.0000000E+00;  3.9196727E+04;  2.2624979E+00;  0.0000000E+00; -4.6199241E-01;  1.3365528E+04;
  1.4830811E+00;  9.9999998E-03;  3.0332897E-02;8762;  5.7345331E-01;  0.0000000E+00; -1.8592758E-02;  9.8757996E+02;  2.2348593E-01; -1.0263998E+04;3;  1.1223568E+02;  0.0000000E+00;  1.0106492E+01;0;  1.8005031E+00;  7.9473960E+03;  0.0000000E+00;  3.5719030E-02;  4.0000000E+04;  0.0000000E+00;  3.9196727E+04;  2.2624950E+00;  0.0000000E+00; -4.6199188E-01;  1.3365447E+04;
  1.4830866E+00;  9.9999998E-03; -4.0448766E-02;8755;  5.7774383E-01;  0.0000000E+00;  2.4575941E-02;  9.8764532E+02;  2.2345646E-01; -1.0209961E+04;3;  1.1181612E+02;  0.0000000E+00; -1.3791654E+01;0;  1.7708632E+00;  7.9499126E+03;  0.0000000E+00;  5.5559855E-02;  4.0000000E+04;  0.0000000E+00;  3.9198301E+04;  2.2234783E+00;  0.0000000E+00; -4.5261511E-01;  1.3546513E+04;
  1.4830866E+00;  9.9999998E-03;  4.0448986E-02;8763;  5.7774383E-01;  0.0000000E+00; -2.4575032E-02;  9.8764520E+02;  2.2345656E-01; -1.0210060E+04;3;  1.1181570E+02;  0.0000000E+00;  1.3791787E+01;0;  1.7708616E+00;  7.9499106E+03;  0.0000000E+00;  5.5570375E-02;  4.0000000E+04;  0.0000000E+00;  3.9198297E+04;  2.2234757E+00;  0.0000000E+00; -4.5261410E-01;  1.3546466E+04;
  1.4830875E+00;  9.9999998E-03; -5.0567016E-02;8754;  5.8325988E-01;  0.0000000E+00;  3.0381126E-02;  9.8777972E+02;  2.2342472E-01; -1.0098886E+04;3;  1.1116297E+02;  0.0000000E+00; -1.7697918E+01;0;  1.7318816E+00;  7.9538286E+03;  0.0000000E+00;  7.3204927E-02;  4.0000000E+04;  0.0000000E+00;  3.9199809E+04;  2.1723838E+00;  0.0000000E+00; -4.4050211E-01;  1.3707745E+04;
  1.4830875E+00;  9.9999998E-03;  5.0567236E-02;8764;  5.8325982E-01;  0.0000000E+00; -3.0380197E-02;  9.8777960E+02;  2.2342391E-01; -1.0098983E+04;3;  1.1116333E+02;  0.0000000E+00;  1.7698269E+01;0;  1.7318788E+00;  7.9538315E+03;  0.0000000E+00;  7.3219843E-02;  4.0000000E+04;  0.0000000E+00;  3.9199820E+04;  2.1723795E+00;  0.0000000E+00; -4.4050074E-01;  1.3707694E+04;
  1.5043911E+00;  9.9999998E-03; -1.0105707E-01;8810;  6.3453203E-01;  0.0000000E+00;  7.6320283E-02;  9.8950415E+02;  2.0792986E-01; -8.6656670E+03;3;  4.8745075E+01;  0.0000000E+00; -2.4340429E+01;0;  2.3369436E+00;  9.2221689E+03;  0.0000000E+00;  4.0568817E-02;  4.0000000E+04;  0.0000000E+00;  3.9179277E+04;  2.7922640E+00;  0.0000000E+00; -4.5532048E-01;  1.0480438E+04;
  1.5045669E+00;  9.9999998E-03; -9.0972058E-02;8811;  6.2613547E-01;  0.0000000E+00;  6.9943145E-02;  9.8907056E+02;  2.0790856E-01; -9.0235967E+03;3;  2.8976898E+01;  0.0000000E+00; -2.0611736E+01;0;  2.4656341E+00;  9.2164346E+03;  0.0000000E+00;  9.8464172E-03;  4.0000000E+04;  0.0000000E+00;  3.9179887E+04;  2.9456263E+00;  0.0000000E+00; -4.7999209E-01;  1.0599844E+04;
  1.5046619E+00;  9.9999998E-03; -8.0877498E-02;8812;  6.1902356E-01;  0.0000000E+00;  6.3119672E-02;  9.8862830E+02;  2.0791325E-01; -9.3886953E+03;3;  1.3260031E+01;  0.0000000E+00; -1.8279903E+01;0;  2.5782144E+00;  9.2085234E+03;  0.0000000E+00;  7.5643607E-03;  4.0000000E+04;  0.0000000E+00;  3.9180527E+04;  3.0804377E+00;  0.0000000E+00; -5.0222319E-01;  1.0663113E+04;
  1.5046978E+00;  9.9999998E-03; -7.0776351E-02;8813;  6.1295259E-01;  0.0000000E+00;  5.5958316E-02;  9.8821167E+02;  2.0794120E-01; -9.7326094E+03;3;  1.3684939E+00;  0.0000000E+00; -1.6213148E+01;0;  2.6747680E+00;  9.1999082E+03;  0.0000000E+00;  1.9751180E-02;  4.0000000E+04;  0.0000000E+00;  3.9180133E+04;  3.1966891E+00;  0.0000000E+00; -5.2192110E-01;  1.0657591E+04;
  1.5047019E+00;  9.9999998E-03; -6.0668528E-02;8814;  6.0803652E-01;  0.0000000E+00;  4.8495520E-02;  9.8787042E+02;  2.0797145E-01; -1.0014388E+04;3; -7.6423731E+00;  0.0000000E+00; -1.3707323E+01;0;  2.7561998E+00;  9.1920391E+03;  0.0000000E+00;  3.3998583E-02;  4.0000000E+04;  0.0000000E+00;  3.9179238E+04;  3.2952466E+00;  0.0000000E+00; -5.3904676E-01;  1.0587469E+04;
  1.5047019E+00;  9.9999998E-03;  6.0668748E-02;8826;  6.0803586E-01;  0.0000000E+00; -4.8494570E-02;  9.8787097E+02;  2.0797199E-01; -1.0013896E+04;3; -7.6414185E+00;  0.0000000E+00;  1.3707497E+01;0;  2.7561972E+00;  9.1920361E+03;  0.0000000E+00;  3.3995260E-02;  4.0000000E+04;  0.0000000E+00;  3.9179230E+04;  3.2952435E+00;  0.0000000E+00; -5.3904623E-01;  1.0587387E+04;
  1.5045820E+00;  9.9999998E-03;  1.0709270E-07;8820;  5.9745252E-01;  0.0000000E+00;  4.4743268E-07;  9.8717694E+02;  2.0810626E-01; -1.0586968E+04;3; -3.2778187E+01;  0.0000000E+00; -6.7520887E-09;0;  2.9660680E+00;  9.1714834E+03;  0.0000000E+00; -2.6248015E-10;  4.0000000E+04;  0.0000000E+00;  3.9172617E+04;  3.5522575E+00;  0.0000000E+00; -5.8618951E-01;  9.8672051E+03;
  1.5046066E+00;  9.9999998E-03; -2.0217836E-02;8818;  5.9832203E-01;  0.0000000E+00;  1.6542198E-02;  9.8721918E+02;  2.0808457E-01; -1.0552114E+04;3; -3.0074701E+01;  0.0000000E+00; -4.5722446E+00;0;  2.9442201E+00;  9.1735352E+03;  0.0000000E+00;  1.5758786E-02;  4.0000000E+04;  0.0000000E+00;  3.9173953E+04;  3.5252199E+00;  0.0000000E+00; -5.8099979E-01;  1.0004854E+04;
  1.5045903E+00;  9.9999998E-03; -1.0108811E-02;8819;  5.9768659E-01;  0.0000000E+00;  8.2819778E-03;  9.8718683E+02;  2.0809910E-01; -1.0578795E+04;3; -3.2181145E+01;  0.0000000E+00; -2.3636329E+00;0;  2.9607339E+00;  9.1720332E+03;  0.0000000E+00;  4.3770289E-03;  4.0000000E+04;  0.0000000E+00;  3.9173117E+04;  3.5456336E+00;  0.0000000E+00; -5.8489966E-01;  9.9033340E+03;
  1.5045903E+00;  9.9999998E-03;  1.0109023E-02;8821;  5.9768707E-01;  0.0000000E+00; -8.2810801E-03;  9.8718677E+02;  2.0809972E-01; -1.0578845E+04;3; -3.2181847E+01;  0.0000000E+00;  2.3637464E+00;0;  2.9607356E+00;  9.1720322E+03;  0.0000000E+00;  4.3767025E-03;  4.0000000E+04;  0.0000000E+00;  3.9173117E+04;  3.5456352E+00;  0.0000000E+00; -5.8489972E-01;  9.9033623E+03;
  1.5046066E+00;  9.9999998E-03;  2.0218050E-02;8822;  5.9832227E-01;  0.0000000E+00; -1.6541282E-02;  9.8721912E+02;  2.0808548E-01; -1.0552163E+04;3; -3.0075155E+01;  0.0000000E+00;  4.5723653E+00;0;  2.9442191E+00;  9.1735352E+03;  0.0000000E+00;  1.5758531E-02;  4.0000000E+04;  0.0000000E+00;  3.9173953E+04;  3.5252192E+00;  0.0000000E+00; -5.8100015E-01;  1.0004818E+04;
  1.5046891E+00;  9.9999998E-03; -5.0555646E-02;8815;  6.0423511E-01;  0.0000000E+00;  4.0754288E-02;  9.8759601E+02;  2.0800048E-01; -1.0240909E+04;3; -1.5463851E+01;  0.0000000E+00; -1.1563912E+01;0;  2.8232234E+00;  9.1855352E+03;  0.0000000E+00;  4.1802425E-02;  4.0000000E+04;  0.0000000E+00;  3.9178074E+04;  3.3767653E+00;  0.0000000E+00; -5.5354190E-01;  1.0466262E+04;
  1.5046891E+00;  9.9999998E-03;  5.0555866E-02;8825;  6.0423440E-01;  0.0000000E+00; -4.0753353E-02;  9.8759607E+02;  2.0800045E-01; -1.0240860E+04;3; -1.5462475E+01;  0.0000000E+00;  1.1564198E+01;0;  2.8232198E+00;  9.1855342E+03;  0.0000000E+00;  4.1801106E-02;  4.0000000E+04;  0.0000000E+00;  3.9178078E+04;  3.3767610E+00;  0.0000000E+00; -5.5354118E-01;  1.0466190E+04;
  1.5046315E+00;  9.9999998E-03; -3.0328527E-02;8817;  5.9950048E-01;  0.0000000E+00;  2.4752067E-02;  9.8728436E+02;  2.0806299E-01; -1.0498264E+04;3; -2.6438128E+01;  0.0000000E+00; -6.4002090E+00;0;  2.9162545E+00;  9.1762207E+03;  0.0000000E+00;  2.9517064E-02;  4.0000000E+04;  0.0000000E+00;  3.9175164E+04;  3.4907436E+00;  0.0000000E+00; -5.7448918E-01;  1.0150454E+04;
  1.5046315E+00;  9.9999998E-03;  3.0328741E-02;8823;  5.9949988E-01;  0.0000000E+00; -2.4751166E-02;  9.8728485E+02;  2.0806175E-01; -1.0497870E+04;3; -2.6437515E+01;  0.0000000E+00;  6.4001126E+00;0;  2.9162519E+00;  9.1762197E+03;  0.0000000E+00;  2.9516371E-02;  4.0000000E+04;  0.0000000E+00;  3.9175176E+04;  3.4907408E+00;  0.0000000E+00; -5.7448882E-01;  1.0150482E+04;
  1.5046619E+00;  9.9999998E-03; -4.0441487E-02;8816;  6.0142720E-01;  0.0000000E+00;  3.2829121E-02;  9.8740930E+02;  2.0803274E-01; -1.0395102E+04;3; -2.1560604E+01;  0.0000000E+00; -8.7721729E+00;0;  2.8762333E+00;  9.1802217E+03;  0.0000000E+00;  3.9802521E-02;  4.0000000E+04;  0.0000000E+00;  3.9176730E+04;  3.4415827E+00;  0.0000000E+00; -5.6534940E-01;  1.0313116E+04;
  1.5046619E+00;  9.9999998E-03;  4.0441703E-02;8824;  6.0142660E-01;  0.0000000E+00; -3.2828189E-02;  9.8740930E+02;  2.0803267E-01; -1.0395102E+04;3; -2.1559710E+01;  0.0000000E+00;  8.7723007E+00;0;  2.8762324E+00;  9.1802227E+03;  0.0000000E+00;  3.9801542E-02;  4.0000000E+04;  0.0000000E+00;  3.9176738E+04;  3.4415812E+00;  0.0000000E+00; -5.6534886E-01;  1.0313047E+04;
  1.5241799E+00;  9.9999998E-03; -1.0101262E-01;8871;  7.2905111E-01;  0.0000000E+00;  8.1596650E-02;  9.8991559E+02;  1.9472401E-01; -8.3161123E+03;3; -7.2905724E+01;  0.0000000E+00; -4.5139542E+00;0;  3.2076049E+00;  1.0536979E+04;  0.0000000E+00; -3.4005962E-02;  4.0000000E+04;  0.0000000E+00;  3.9151898E+04;  3.7305160E+00;  0.0000000E+00; -5.2291119E-01;  7.2081909E+03;
  1.5244313E+00;  9.9999998E-03; -9.0927750E-02;8872;  7.3100823E-01;  0.0000000E+00;  7.4172080E-02;  9.8969409E+02;  1.9466950E-01; -8.4986172E+03;3; -7.9285278E+01;  0.0000000E+00; -3.8503966E+00;0;  3.3514423E+00;  1.0538484E+04;  0.0000000E+00; -2.0541757E-02;  4.0000000E+04;  0.0000000E+00;  3.9151812E+04;  3.8964224E+00;  0.0000000E+00; -5.4498011E-01;  7.2025303E+03;
  1.5244377E+00;  9.9999998E-03; -1.0108253E-02;8880;  7.2699791E-01;  0.0000000E+00;  8.5869767E-03;  9.8804529E+02;  1.9476712E-01; -9.8583115E+03;3; -1.0212291E+02;  0.0000000E+00; -1.8611859E-01;0;  3.9018331E+00;  1.0499406E+04;  0.0000000E+00;  5.4913037E-03;  4.0000000E+04;  0.0000000E+00;  3.9148246E+04;  4.5384970E+00;  0.0000000E+00; -6.3666391E-01;  6.9167715E+03;
  1.5244253E+00;  9.9999998E-03;  1.0992765E-07;8881;  7.2693193E-01;  0.0000000E+00;  5.1436751E-07;  9.8802637E+02;  1.9477305E-01; -9.8739004E+03;3; -1.0240154E+02;  0.0000000E+00; -1.1561027E-04;0;  3.9078116E+00;  1.0498589E+04;  0.0000000E+00; -2.7283331E-10;  4.0000000E+04;  0.0000000E+00;  3.9148191E+04;  4.5456071E+00;  0.0000000E+00; -6.3779551E-01;  6.9011812E+03;
  1.5244377E+00;  9.9999998E-03;  1.0108473E-02;8882;  7.2699839E-01;  0.0000000E+00; -8.5859578E-03;  9.8804529E+02;  1.9476883E-01; -9.8583115E+03;3; -1.0212299E+02;  0.0000000E+00;  1.8598914E-01;0;  3.9018316E+00;  1.0499405E+04;  0.0000000E+00;  5.4888078E-03;  4.0000000E+04;  0.0000000E+00;  3.9148250E+04;  4.5384965E+00;  0.0000000E+00; -6.3666481E-01;  6.9167427E+03;
  1.5244715E+00;  9.9999998E-03; -2.0215921E-02;8879;  7.2720242E-01;  0.0000000E+00;  1.7149093E-02;  9.8810437E+02;  1.9475293E-01; -9.8095781E+03;3; -1.0126857E+02;  0.0000000E+00; -3.1703824E-01;0;  3.8836660E+00;  1.0501887E+04;  0.0000000E+00;  1.9773941E-02;  4.0000000E+04;  0.0000000E+00;  3.9148695E+04;  4.5169353E+00;  0.0000000E+00; -6.3326925E-01;  6.9593940E+03;
  1.5244715E+00;  9.9999998E-03;  2.0216139E-02;8883;  7.2720230E-01;  0.0000000E+00; -1.7148061E-02;  9.8810437E+02;  1.9475338E-01; -9.8095781E+03;3; -1.0126846E+02;  0.0000000E+00;  3.1696111E-01;0;  3.8836651E+00;  1.0501886E+04;  0.0000000E+00;  1.9769482E-02;  4.0000000E+04;  0.0000000E+00;  3.9148699E+04;  4.5169344E+00;  0.0000000E+00; -6.3326919E-01;  6.9593657E+03;
  1.5245202E+00;  9.9999998E-03; -3.0323844E-02;8878;  7.2755623E-01;  0.0000000E+00;  2.5660977E-02;  9.8820496E+02;  1.9473156E-01; -9.7265771E+03;3; -9.9843857E+01;  0.0000000E+00; -4.7056133E-01;0;  3.8527701E+00;  1.0505840E+04;  0.0000000E+00;  3.7181754E-02;  4.0000000E+04;  0.0000000E+00;  3.9149270E+04;  4.4803748E+00;  0.0000000E+00; -6.2760472E-01;  7.0186118E+03;
  1.5245202E+00;  9.9999998E-03;  3.0324062E-02;8884;  7.2755647E-01;  0.0000000E+00; -2.5659941E-02;  9.8820502E+02;  1.9473146E-01; -9.7265283E+03;3; -9.9843903E+01;  0.0000000E+00;  4.7045511E-01;0;  3.8527703E+00;  1.0505839E+04;  0.0000000E+00;  3.7175633E-02;  4.0000000E+04;  0.0000000E+00;  3.9149266E+04;  4.4803753E+00;  0.0000000E+00; -6.2760490E-01;  7.0185806E+03;
  1.5245759E+00;  9.9999998E-03; -8.0841847E-02;8873;  7.3139989E-01;  0.0000000E+00;  6.6539489E-02;  9.8940784E+02;  1.9464689E-01; -8.7346084E+03;3; -8.4246590E+01;  0.0000000E+00; -2.8704515E+00;0;  3.4769197E+00;  1.0535719E+04;  0.0000000E+00;  3.9628898E-03;  4.0000000E+04;  0.0000000E+00;  3.9151648E+04;  4.0415540E+00;  0.0000000E+00; -5.6463438E-01;  7.2088105E+03;
  1.5245763E+00;  9.9999998E-03; -4.0432535E-02;8877;  7.2812343E-01;  0.0000000E+00;  3.4106743E-02;  9.8835583E+02;  1.9470620E-01; -9.6021357E+03;3; -9.7872665E+01;  0.0000000E+00; -6.6463876E-01;0;  3.8084376E+00;  1.0511173E+04;  0.0000000E+00;  5.0806236E-02;  4.0000000E+04;  0.0000000E+00;  3.9149695E+04;  4.4280987E+00;  0.0000000E+00; -6.1966109E-01;  7.0812241E+03;
  1.5245764E+00;  9.9999998E-03;  4.0432751E-02;8885;  7.2812331E-01;  0.0000000E+00; -3.4105696E-02;  9.8835590E+02;  1.9470605E-01; -9.6020869E+03;3; -9.7872757E+01;  0.0000000E+00;  6.6450930E-01;0;  3.8084395E+00;  1.0511177E+04;  0.0000000E+00;  5.0798588E-02;  4.0000000E+04;  0.0000000E+00;  3.9149707E+04;  4.4281006E+00;  0.0000000E+00; -6.1966115E-01;  7.0812061E+03;
  1.5246404E+00;  9.9999998E-03; -7.0748843E-02;8874;  7.3068500E-01;  0.0000000E+00;  5.8679849E-02;  9.8910309E+02;  1.9464643E-01; -8.9858809E+03;3; -8.8378372E+01;  0.0000000E+00; -2.1126285E+00;0;  3.5846410E+00;  1.0530354E+04;  0.0000000E+00;  2.8936952E-02;  4.0000000E+04;  0.0000000E+00;  3.9151383E+04;  4.1665540E+00;  0.0000000E+00; -5.8191293E-01;  7.2035098E+03;
  1.5246255E+00;  9.9999998E-03; -5.0541282E-02;8876;  7.2883999E-01;  0.0000000E+00;  4.2459242E-02;  9.8856067E+02;  1.9467895E-01; -9.4331689E+03;3; -9.5323921E+01;  0.0000000E+00; -9.7480017E-01;0;  3.7496581E+00;  1.0517416E+04;  0.0000000E+00;  5.5045627E-02;  4.0000000E+04;  0.0000000E+00;  3.9150367E+04;  4.3590722E+00;  0.0000000E+00; -6.0941422E-01;  7.1369087E+03;
  1.5246257E+00;  9.9999998E-03;  5.0541498E-02;8886;  7.2883958E-01;  0.0000000E+00; -4.2458177E-02;  9.8856061E+02;  1.9467956E-01; -9.4332188E+03;3; -9.5324036E+01;  0.0000000E+00;  9.7465700E-01;0;  3.7496562E+00;  1.0517411E+04;  0.0000000E+00;  5.5036124E-02;  4.0000000E+04;  0.0000000E+00;  3.9150367E+04;  4.3590693E+00;  0.0000000E+00; -6.0941321E-01;  7.1368765E+03;
  1.5246522E+00;  9.9999998E-03; -6.0647883E-02;8875;  7.2971070E-01;  0.0000000E+00;  5.0668351E-02;  9.8881000E+02;  1.9465721E-01; -9.2275508E+03;3; -9.2158951E+01;  0.0000000E+00; -1.4454193E+00;0;  3.6753602E+00;  1.0524018E+04;  0.0000000E+00;  4.7388192E-02;  4.0000000E+04;  0.0000000E+00;  3.9151004E+04;  4.2721963E+00;  0.0000000E+00; -5.9683609E-01;  7.1790059E+03;
  1.5246522E+00;  9.9999998E-03;  6.0648099E-02;8887;  7.2971004E-01;  0.0000000E+00; -5.0667293E-02;  9.8881036E+02;  1.9465868E-01; -9.2272559E+03;3; -9.2159012E+01;  0.0000000E+00;  1.4452906E+00;0;  3.6753602E+00;  1.0524015E+04;  0.0000000E+00;  4.7377255E-02;  4.0000000E+04;  0.0000000E+00;  3.9150996E+04;  4.2721968E+00;  0.0000000E+00; -5.9683657E-01;  7.1789263E+03;
  1.5425800E+00;  9.9999998E-03; -1.0096975E-01;8931;  8.4764004E-01;  0.0000000E+00;  7.6684177E-02;  9.9093915E+02;  1.8336198E-01; -7.4611626E+03;3; -9.9797791E+01;  0.0000000E+00;  4.1020036E+00;0;  3.8375859E+00;  1.1921701E+04;  0.0000000E+00; -3.1978458E-02;  4.0000000E+04;  0.0000000E+00;  3.9119930E+04;  4.3857632E+00;  0.0000000E+00; -5.4817736E-01;  4.1098970E+03;
  1.5428671E+00;  9.9999998E-03; -9.0888895E-02;8932;  8.5387355E-01;  0.0000000E+00;  6.9336191E-02;  9.9092761E+02;  1.8329571E-01; -7.4704414E+03;3; -1.0449471E+02;  0.0000000E+00;  4.1016483E+00;0;  3.9709461E+00;  1.1930299E+04;  0.0000000E+00;  2.7559411E-02;  4.0000000E+04;  0.0000000E+00;  3.9118848E+04;  4.5370622E+00;  0.0000000E+00; -5.6611615E-01;  3.9998962E+03;
  1.5428252E+00;  9.9999998E-03;  1.1437010E-07;8941;  8.6030930E-01;  0.0000000E+00;  6.1597115E-07;  9.8974451E+02;  1.8334366E-01; -8.4447139E+03;3; -1.2268230E+02;  0.0000000E+00; -1.9326311E-05;0;  4.4975829E+00;  1.1898430E+04;  0.0000000E+00; -2.4362024E-10;  4.0000000E+04;  0.0000000E+00;  3.9121082E+04;  5.1375690E+00;  0.0000000E+00; -6.3998586E-01;  4.3092510E+03;
  1.5428427E+00;  9.9999998E-03; -1.0106256E-02;8940;  8.6044252E-01;  0.0000000E+00;  7.9122614E-03;  9.8976672E+02;  1.8333748E-01; -8.4263936E+03;3; -1.2244444E+02;  0.0000000E+00;  5.1435620E-01;0;  4.4916983E+00;  1.1899583E+04;  0.0000000E+00;  7.6672258E-03;  4.0000000E+04;  0.0000000E+00;  3.9121008E+04;  5.1307802E+00;  0.0000000E+00; -6.3908219E-01;  4.2949087E+03;
  1.5428427E+00;  9.9999998E-03;  1.0106485E-02;8942;  8.6044258E-01;  0.0000000E+00; -7.9110302E-03;  9.8976703E+02;  1.8333700E-01; -8.4261484E+03;3; -1.2244437E+02;  0.0000000E+00; -5.1445699E-01;0;  4.4917002E+00;  1.1899584E+04;  0.0000000E+00;  7.6640458E-03;  4.0000000E+04;  0.0000000E+00;  3.9121008E+04;  5.1307821E+00;  0.0000000E+00; -6.3908190E-01;  4.2949067E+03;
  1.5428938E+00;  9.9999998E-03; -2.0212097E-02;8939;  8.6080682E-01;  0.0000000E+00;  1.5802372E-02;  9.8983136E+02;  1.8332325E-01; -8.3731035E+03;3; -1.2175124E+02;  0.0000000E+00;  1.0534121E+00;0;  4.4739690E+00;  1.1903101E+04;  0.0000000E+00;  2.8501432E-02;  4.0000000E+04;  0.0000000E+00;  3.9120473E+04;  5.1103401E+00;  0.0000000E+00; -6.3637114E-01;  4.2538145E+03;
  1.5428938E+00;  9.9999998E-03;  2.0212322E-02;8943;  8.6080712E-01;  0.0000000E+00; -1.5801152E-02;  9.8983118E+02;  1.8332353E-01; -8.3732998E+03;3; -1.2175148E+02;  0.0000000E+00; -1.0534742E+00;0;  4.4739757E+00;  1.1903103E+04;  0.0000000E+00;  2.8494744E-02;  4.0000000E+04;  0.0000000E+00;  3.9120477E+04;  5.1103463E+00;  0.0000000E+00; -6.3637072E-01;  4.2538003E+03;
  1.5429664E+00;  9.9999998E-03; -3.0316738E-02;8938;  8.6121225E-01;  0.0000000E+00;  2.3652354E-02;  9.8994299E+02;  1.8330175E-01; -8.2811699E+03;3; -1.2064302E+02;  0.0000000E+00;  1.5767915E+00;0;  4.4439769E+00;  1.1908399E+04;  0.0000000E+00;  5.6785319E-02;  4.0000000E+04;  0.0000000E+00;  3.9120078E+04;  5.0758410E+00;  0.0000000E+00; -6.3186395E-01;  4.1923579E+03;
  1.5429664E+00;  9.9999998E-03;  3.0316962E-02;8944;  8.6121297E-01;  0.0000000E+00; -2.3651123E-02;  9.8994281E+02;  1.8330137E-01; -8.2813174E+03;3; -1.2064320E+02;  0.0000000E+00; -1.5768586E+00;0;  4.4439836E+00;  1.1908400E+04;  0.0000000E+00;  5.6775071E-02;  4.0000000E+04;  0.0000000E+00;  3.9120078E+04;  5.0758476E+00;  0.0000000E+00; -6.3186413E-01;  4.1922974E+03;
  1.5430473E+00;  9.9999998E-03; -8.0806285E-02;8933;  8.5798842E-01;  0.0000000E+00;  6.1883386E-02;  9.9082520E+02;  1.8325584E-01; -7.5546865E+03;3; -1.0856013E+02;  0.0000000E+00;  3.9163525E+00;0;  4.0878210E+00;  1.1933418E+04;  0.0000000E+00;  7.5822257E-02;  4.0000000E+04;  0.0000000E+00;  3.9118688E+04;  4.6697364E+00;  0.0000000E+00; -5.8191514E-01;  3.9628613E+03;
  1.5430477E+00;  9.9999998E-03; -4.0420130E-02;8937;  8.6155635E-01;  0.0000000E+00;  3.1425726E-02;  9.9009094E+02;  1.8327560E-01; -8.1592451E+03;3; -1.1907903E+02;  0.0000000E+00;  2.1154642E+00;0;  4.4011893E+00;  1.1915056E+04;  0.0000000E+00;  8.5102618E-02;  4.0000000E+04;  0.0000000E+00;  3.9119453E+04;  5.0267501E+00;  0.0000000E+00; -6.2556064E-01;  4.1199487E+03;
  1.5430477E+00;  9.9999998E-03;  4.0420350E-02;8945;  8.6155730E-01;  0.0000000E+00; -3.1424515E-02;  9.9009070E+02;  1.8327552E-01; -8.1594414E+03;3; -1.1907896E+02;  0.0000000E+00; -2.1154284E+00;0;  4.4011908E+00;  1.1915061E+04;  0.0000000E+00;  8.5091308E-02;  4.0000000E+04;  0.0000000E+00;  3.9119461E+04;  5.0267520E+00;  0.0000000E+00; -6.2556118E-01;  4.1199302E+03;
  1.5431365E+00;  9.9999998E-03; -7.0716694E-02;8934;  8.6047751E-01;  0.0000000E+00;  5.4318529E-02;  9.9065723E+02;  1.8323945E-01; -7.6929287E+03;3; -1.1204299E+02;  0.0000000E+00;  3.5309885E+00;0;  4.1887226E+00;  1.1932246E+04;  0.0000000E+00;  1.0499796E-01;  4.0000000E+04;  0.0000000E+00;  3.9118449E+04;  4.7844110E+00;  0.0000000E+00; -5.9568852E-01;  3.9655625E+03;
  1.5431180E+00;  9.9999998E-03; -5.0521486E-02;8936;  8.6174983E-01;  0.0000000E+00;  3.9106194E-02;  9.9027728E+02;  1.8325445E-01; -8.0057720E+03;3; -1.1706927E+02;  0.0000000E+00;  2.6535077E+00;0;  4.3448772E+00;  1.1922032E+04;  0.0000000E+00;  1.0624363E-01;  4.0000000E+04;  0.0000000E+00;  3.9119035E+04;  4.9623308E+00;  0.0000000E+00; -6.1745340E-01;  4.0502017E+03;
  1.5431181E+00;  9.9999998E-03;  5.0521709E-02;8946;  8.6175025E-01;  0.0000000E+00; -3.9104987E-02;  9.9027716E+02;  1.8325478E-01; -8.0058701E+03;3; -1.1706949E+02;  0.0000000E+00; -2.6535609E+00;0;  4.3448801E+00;  1.1922034E+04;  0.0000000E+00;  1.0622855E-01;  4.0000000E+04;  0.0000000E+00;  3.9119031E+04;  4.9623332E+00;  0.0000000E+00; -6.1745316E-01;  4.0501946E+03;
  1.5431535E+00;  9.9999998E-03; -6.0620844E-02;8935;  8.6161166E-01;  0.0000000E+00;  4.6698272E-02;  9.9046820E+02;  1.8324021E-01; -7.8485464E+03;3; -1.1468505E+02;  0.0000000E+00;  3.2447271E+00;0;  4.2742262E+00;  1.1928124E+04;  0.0000000E+00;  1.1430388E-01;  4.0000000E+04;  0.0000000E+00;  3.9118555E+04;  4.8817406E+00;  0.0000000E+00; -6.0751426E-01;  3.9962483E+03;
  1.5431535E+00;  9.9999998E-03;  6.0621064E-02;8947;  8.6161196E-01;  0.0000000E+00; -4.6697084E-02;  9.9046844E+02;  1.8324010E-01; -7.8483501E+03;3; -1.1468521E+02;  0.0000000E+00; -3.2447782E+00;0;  4.2742271E+00;  1.1928113E+04;  0.0000000E+00;  1.1428813E-01;  4.0000000E+04;  0.0000000E+00;  3.9118562E+04;  4.8817415E+00;  0.0000000E+00; -6.0751414E-01;  3.9962710E+03;
  1.5598056E+00;  9.9999998E-03; -1.0097851E-01;8990;  9.6065766E-01;  0.0000000E+00;  6.8772264E-02;  9.9226178E+02;  1.7362848E-01; -6.3607485E+03;3; -1.1192543E+02;  0.0000000E+00;  8.1058388E+00;0;  4.1660290E+00;  1.3345863E+04;  0.0000000E+00; -2.3673726E-03;  4.0000000E+04;  0.0000000E+00;  3.9086590E+04;  4.7055922E+00;  0.0000000E+00; -5.3956324E-01;  1.6137610E+03;
  1.5601163E+00;  9.9999998E-03; -9.0882786E-02;8991;  9.6962112E-01;  0.0000000E+00;  6.1948195E-02;  9.9242700E+02;  1.7355876E-01; -6.2247100E+03;3; -1.1518334E+02;  0.0000000E+00;  7.5058727E+00;0;  4.2722268E+00;  1.3361367E+04;  0.0000000E+00;  9.2506945E-02;  4.0000000E+04;  0.0000000E+00;  3.9084574E+04;  4.8252153E+00;  0.0000000E+00; -5.5298871E-01;  1.3926760E+03;
  1.5601480E+00;  9.9999998E-03; -1.0103647E-02;8999;  9.8402953E-01;  0.0000000E+00;  7.0118275E-03;  9.9191479E+02;  1.7355487E-01; -6.6456792E+03;3; -1.2908275E+02;  0.0000000E+00;  9.0150350E-01;0;  4.7028723E+00;  1.3345679E+04;  0.0000000E+00;  9.8149749E-03;  4.0000000E+04;  0.0000000E+00;  3.9089902E+04;  5.3093719E+00;  0.0000000E+00; -6.0649973E-01;  1.9477312E+03;
  1.5601280E+00;  9.9999998E-03;  1.1656932E-07;9000;  9.8389018E-01;  0.0000000E+00;  6.3880088E-07;  9.9189545E+02;  1.7356023E-01; -6.6616167E+03;3; -1.2929115E+02;  0.0000000E+00; -3.5558340E-05;0;  4.7081299E+00;  1.3344317E+04;  0.0000000E+00; -1.9622499E-10;  4.0000000E+04;  0.0000000E+00;  3.9089934E+04;  5.3153005E+00;  0.0000000E+00; -6.0717040E-01;  1.9890516E+03;
  1.5601480E+00;  9.9999998E-03;  1.0103879E-02;9001;  9.8402953E-01;  0.0000000E+00; -7.0105447E-03;  9.9191486E+02;  1.7355512E-01; -6.6456299E+03;3; -1.2908290E+02;  0.0000000E+00; -9.0154701E-01;0;  4.7028785E+00;  1.3345678E+04;  0.0000000E+00;  9.8112123E-03;  4.0000000E+04;  0.0000000E+00;  3.9089906E+04;  5.3093777E+00;  0.0000000E+00; -6.0649937E-01;  1.9477596E+03;
  1.5602040E+00;  9.9999998E-03; -2.0206871E-02;8998;  9.8439366E-01;  0.0000000E+00;  1.4003652E-02;  9.9197125E+02;  1.7354241E-01; -6.5992402E+03;3; -1.2844186E+02;  0.0000000E+00;  1.7873244E+00;0;  4.6871166E+00;  1.3349578E+04;  0.0000000E+00;  3.7358344E-02;  4.0000000E+04;  0.0000000E+00;  3.9088598E+04;  5.2916083E+00;  0.0000000E+00; -6.0449189E-01;  1.8335142E+03;
  1.5602040E+00;  9.9999998E-03;  2.0207101E-02;9002;  9.8439389E-01;  0.0000000E+00; -1.4002375E-02;  9.9197119E+02;  1.7354245E-01; -6.5992891E+03;3; -1.2844182E+02;  0.0000000E+00; -1.7872796E+00;0;  4.6871171E+00;  1.3349586E+04;  0.0000000E+00;  3.7351433E-02;  4.0000000E+04;  0.0000000E+00;  3.9088605E+04;  5.2916079E+00;  0.0000000E+00; -6.0449082E-01;  1.8335353E+03;
  1.5603299E+00;  9.9999998E-03; -8.0788568E-02;8992;  9.7622997E-01;  0.0000000E+00;  5.5164207E-02;  9.9249713E+02;  1.7351082E-01; -6.1668911E+03;3; -1.1807532E+02;  0.0000000E+00;  6.8055077E+00;0;  4.3657541E+00;  1.3370927E+04;  0.0000000E+00;  1.5889162E-01;  4.0000000E+04;  0.0000000E+00;  3.9083469E+04;  4.9303966E+00;  0.0000000E+00; -5.6464219E-01;  1.3097167E+03;
  1.5602835E+00;  9.9999998E-03; -3.0308938E-02;8997;  9.8480660E-01;  0.0000000E+00;  2.0957127E-02;  9.9205615E+02;  1.7352410E-01; -6.5294141E+03;3; -1.2738311E+02;  0.0000000E+00;  2.6937816E+00;0;  4.6607738E+00;  1.3355306E+04;  0.0000000E+00;  7.7341288E-02;  4.0000000E+04;  0.0000000E+00;  3.9087332E+04;  5.2619376E+00;  0.0000000E+00; -6.0116386E-01;  1.6744960E+03;
  1.5602835E+00;  9.9999998E-03;  3.0309167E-02;9003;  9.8480719E-01;  0.0000000E+00; -2.0955857E-02;  9.9205634E+02;  1.7352420E-01; -6.5292671E+03;3; -1.2738312E+02;  0.0000000E+00; -2.6938152E+00;0;  4.6607666E+00;  1.3355310E+04;  0.0000000E+00;  7.7331729E-02;  4.0000000E+04;  0.0000000E+00;  3.9087328E+04;  5.2619314E+00;  0.0000000E+00; -6.0116494E-01;  1.6744951E+03;
  1.5603698E+00;  9.9999998E-03; -4.0409777E-02;8996;  9.8503530E-01;  0.0000000E+00;  2.7844798E-02;  9.9216675E+02;  1.7350309E-01; -6.4384199E+03;3; -1.2596836E+02;  0.0000000E+00;  3.5959537E+00;0;  4.6237435E+00;  1.3362083E+04;  0.0000000E+00;  1.2203387E-01;  4.0000000E+04;  0.0000000E+00;  3.9085738E+04;  5.2202740E+00;  0.0000000E+00; -5.9653026E-01;  1.5104333E+03;
  1.5603700E+00;  9.9999998E-03;  4.0410005E-02;9004;  9.8503560E-01;  0.0000000E+00; -2.7843518E-02;  9.9216669E+02;  1.7350321E-01; -6.4384692E+03;3; -1.2596838E+02;  0.0000000E+00; -3.5959492E+00;0;  4.6237416E+00;  1.3362083E+04;  0.0000000E+00;  1.2202099E-01;  4.0000000E+04;  0.0000000E+00;  3.9085742E+04;  5.2202721E+00;  0.0000000E+00; -5.9653044E-01;  1.5104187E+03;
  1.5604427E+00;  9.9999998E-03; -7.0697218E-02;8993;  9.8061401E-01;  0.0000000E+00;  4.8373885E-02;  9.9248499E+02;  1.7348577E-01; -6.1768037E+03;3; -1.2059641E+02;  0.0000000E+00;  6.0176382E+00;0;  4.4472132E+00;  1.3374424E+04;  0.0000000E+00;  1.8960539E-01;  4.0000000E+04;  0.0000000E+00;  3.9082938E+04;  5.0219283E+00;  0.0000000E+00; -5.7471538E-01;  1.2891542E+03;
  1.5604391E+00;  9.9999998E-03; -5.0508674E-02;8995;  9.8462915E-01;  0.0000000E+00;  3.4721345E-02;  9.9229260E+02;  1.7348620E-01; -6.3349482E+03;3; -1.2445905E+02;  0.0000000E+00;  4.5263786E+00;0;  4.5759211E+00;  1.3368407E+04;  0.0000000E+00;  1.6221978E-01;  4.0000000E+04;  0.0000000E+00;  3.9084164E+04;  5.1665182E+00;  0.0000000E+00; -5.9059703E-01;  1.3816353E+03;
  1.5604391E+00;  9.9999998E-03;  5.0508901E-02;9005;  9.8462963E-01;  0.0000000E+00; -3.4720074E-02;  9.9229260E+02;  1.7348620E-01; -6.3349482E+03;3; -1.2445900E+02;  0.0000000E+00; -4.5263433E+00;0;  4.5759153E+00;  1.3368408E+04;  0.0000000E+00;  1.6220792E-01;  4.0000000E+04;  0.0000000E+00;  3.9084148E+04;  5.1665125E+00;  0.0000000E+00; -5.9059709E-01;  1.3816389E+03;
  1.5604699E+00;  9.9999998E-03; -6.0604651E-02;8994;  9.8319900E-01;  0.0000000E+00;  4.1551623E-02;  9.9240607E+02;  1.7348008E-01; -6.2416475E+03;3; -1.2273418E+02;  0.0000000E+00;  5.3497076E+00;0;  4.5171471E+00;  1.3373044E+04;  0.0000000E+00;  1.8799834E-01;  4.0000000E+04;  0.0000000E+00;  3.9083258E+04;  5.1004901E+00;  0.0000000E+00; -5.8334279E-01;  1.3095442E+03;
  1.5604700E+00;  9.9999998E-03;  6.0604878E-02;9006;  9.8319942E-01;  0.0000000E+00; -4.1550346E-02;  9.9240625E+02;  1.7347938E-01; -6.2415005E+03;3; -1.2273414E+02;  0.0000000E+00; -5.3497500E+00;0;  4.5171475E+00;  1.3373048E+04;  0.0000000E+00;  1.8798512E-01;  4.0000000E+04;  0.0000000E+00;  3.9083242E+04;  5.1004901E+00;  0.0000000E+00; -5.8334273E-01;  1.3095107E+03;
  1.5760497E+00;  9.9999998E-03; -1.0103883E-01;9049;  1.0605499E+00;  0.0000000E+00;  6.0315013E-02;  9.9366376E+02;  1.6531022E-01; -5.1972305E+03;3; -1.1335081E+02;  0.0000000E+00;  9.8792667E+00;0;  4.2094460E+00;  1.4779412E+04;  0.0000000E+00;  2.3399064E-02;  4.0000000E+04;  0.0000000E+00;  3.9053688E+04;  4.7165670E+00;  0.0000000E+00; -5.0712115E-01;  1.1595351E+02;
  1.5763792E+00;  9.9999998E-03; -9.0916693E-02;9050;  1.0714401E+00;  0.0000000E+00;  5.4237474E-02;  9.9394995E+02;  1.6524082E-01; -4.9622192E+03;3; -1.1536391E+02;  0.0000000E+00;  9.1114426E+00;0;  4.2802615E+00;  1.4801334E+04;  0.0000000E+00;  1.3284118E-01;  4.0000000E+04;  0.0000000E+00;  3.9050160E+04;  4.7964664E+00;  0.0000000E+00; -5.1620477E-01;  6.0561475E+02;
  1.5766147E+00;  9.9999998E-03; -8.0810890E-02;9051;  1.0800952E+00;  0.0000000E+00;  4.8162378E-02;  9.9415198E+02;  1.6519085E-01; -4.7963721E+03;3; -1.1696896E+02;  0.0000000E+00;  8.2417574E+00;0;  4.3427954E+00;  1.4816347E+04;  0.0000000E+00;  2.0692185E-01;  4.0000000E+04;  0.0000000E+00;  3.9047316E+04;  4.8667393E+00;  0.0000000E+00; -5.2394414E-01;  9.6412891E+02;
  1.5765810E+00;  9.9999998E-03; -1.0103062E-02;9058;  1.0944238E+00;  0.0000000E+00;  6.0670031E-03;  9.9411432E+02;  1.6519460E-01; -4.8272432E+03;3; -1.2466841E+02;  0.0000000E+00;  1.0663784E+00;0;  4.5847845E+00;  1.4807888E+04;  0.0000000E+00;  1.1004557E-02;  4.0000000E+04;  0.0000000E+00;  3.9053098E+04;  5.1362963E+00;  0.0000000E+00; -5.5151188E-01;  2.3110214E+02;
  1.5765625E+00;  9.9999998E-03;  1.1825296E-07;9059;  1.0942745E+00;  0.0000000E+00;  6.4809029E-07;  9.9410297E+02;  1.6519842E-01; -4.8365938E+03;3; -1.2485490E+02;  0.0000000E+00; -7.9442871E-06;0;  4.5889788E+00;  1.4806623E+04;  0.0000000E+00; -1.5344195E-10;  4.0000000E+04;  0.0000000E+00;  3.9053508E+04;  5.1409440E+00;  0.0000000E+00; -5.5196524E-01;  1.7574477E+02;
  1.5765810E+00;  9.9999998E-03;  1.0103297E-02;9060;  1.0944238E+00;  0.0000000E+00; -6.0657077E-03;  9.9411438E+02;  1.6519506E-01; -4.8271943E+03;3; -1.2466853E+02;  0.0000000E+00; -1.0664264E+00;0;  4.5847907E+00;  1.4807886E+04;  0.0000000E+00;  1.1000670E-02;  4.0000000E+04;  0.0000000E+00;  3.9053098E+04;  5.1363029E+00;  0.0000000E+00; -5.5151230E-01;  2.3107178E+02;
  1.5766319E+00;  9.9999998E-03; -2.0206371E-02;9057;  1.0947680E+00;  0.0000000E+00;  1.2121002E-02;  9.9415076E+02;  1.6518512E-01; -4.7973369E+03;3; -1.2411392E+02;  0.0000000E+00;  2.1305828E+00;0;  4.5723157E+00;  1.4811448E+04;  0.0000000E+00;  4.2384710E-02;  4.0000000E+04;  0.0000000E+00;  3.9051812E+04;  5.1224780E+00;  0.0000000E+00; -5.5016243E-01;  3.9043640E+02;
  1.5766319E+00;  9.9999998E-03;  2.0206606E-02;9061;  1.0947683E+00;  0.0000000E+00; -1.2119705E-02;  9.9415076E+02;  1.6518512E-01; -4.7973369E+03;3; -1.2411370E+02;  0.0000000E+00; -2.1306002E+00;0;  4.5723214E+00;  1.4811455E+04;  0.0000000E+00;  4.2378008E-02;  4.0000000E+04;  0.0000000E+00;  3.9051809E+04;  5.1224833E+00;  0.0000000E+00; -5.5016202E-01;  3.9045544E+02;
  1.5767583E+00;  9.9999998E-03; -7.0711851E-02;9052;  1.0862577E+00;  0.0000000E+00;  4.2144250E-02;  9.9427301E+02;  1.6516221E-01; -4.6969844E+03;3; -1.1851593E+02;  0.0000000E+00;  7.2146840E+00;0;  4.3981056E+00;  1.4824811E+04;  0.0000000E+00;  2.3802409E-01;  4.0000000E+04;  0.0000000E+00;  3.9046020E+04;  4.9286618E+00;  0.0000000E+00; -5.3055626E-01;  1.1455865E+03;
  1.5767033E+00;  9.9999998E-03; -3.0309478E-02;9056;  1.0949056E+00;  0.0000000E+00;  1.8183876E-02;  9.9420251E+02;  1.6517064E-01; -4.7548540E+03;3; -1.2334998E+02;  0.0000000E+00;  3.2346735E+00;0;  4.5518608E+00;  1.4816734E+04;  0.0000000E+00;  8.9261875E-02;  4.0000000E+04;  0.0000000E+00;  3.9049797E+04;  5.0997925E+00;  0.0000000E+00; -5.4793155E-01;  6.1919604E+02;
  1.5767033E+00;  9.9999998E-03;  3.0309711E-02;9062;  1.0949061E+00;  0.0000000E+00; -1.8182583E-02;  9.9420251E+02;  1.6517064E-01; -4.7548540E+03;3; -1.2335008E+02;  0.0000000E+00; -3.2346876E+00;0;  4.5518641E+00;  1.4816743E+04;  0.0000000E+00;  8.9252032E-02;  4.0000000E+04;  0.0000000E+00;  3.9049797E+04;  5.0997949E+00;  0.0000000E+00; -5.4793090E-01;  6.1919006E+02;
  1.5767752E+00;  9.9999998E-03; -4.0411789E-02;9055;  1.0943595E+00;  0.0000000E+00;  2.4217013E-02;  9.9425543E+02;  1.6515604E-01; -4.7113936E+03;3; -1.2238772E+02;  0.0000000E+00;  4.2574811E+00;0;  4.5238328E+00;  1.4822248E+04;  0.0000000E+00;  1.4364280E-01;  4.0000000E+04;  0.0000000E+00;  3.9047957E+04;  5.0686789E+00;  0.0000000E+00; -5.4484600E-01;  8.6215839E+02;
  1.5767752E+00;  9.9999998E-03;  4.0412020E-02;9063;  1.0943599E+00;  0.0000000E+00; -2.4215719E-02;  9.9425519E+02;  1.6515619E-01; -4.7115889E+03;3; -1.2238761E+02;  0.0000000E+00; -4.2575083E+00;0;  4.5238309E+00;  1.4822252E+04;  0.0000000E+00;  1.4363183E-01;  4.0000000E+04;  0.0000000E+00;  3.9047957E+04;  5.0686779E+00;  0.0000000E+00; -5.4484689E-01;  8.6213068E+02;
  1.5768228E+00;  9.9999998E-03; -6.0612973E-02;9053;  1.0903134E+00;  0.0000000E+00;  3.6144700E-02;  9.9431439E+02;  1.6514733E-01; -4.6630137E+03;3; -1.2003839E+02;  0.0000000E+00;  6.2800193E+00;0;  4.4466968E+00;  1.4827866E+04;  0.0000000E+00;  2.3052166E-01;  4.0000000E+04;  0.0000000E+00;  3.9045809E+04;  4.9828835E+00;  0.0000000E+00; -5.3618652E-01;  1.1686309E+03;
  1.5768228E+00;  9.9999998E-03;  6.0613204E-02;9065;  1.0903139E+00;  0.0000000E+00; -3.6143404E-02;  9.9431451E+02;  1.6514680E-01; -4.6629160E+03;3; -1.2003838E+02;  0.0000000E+00; -6.2799401E+00;0;  4.4466991E+00;  1.4827862E+04;  0.0000000E+00;  2.3050901E-01;  4.0000000E+04;  0.0000000E+00;  3.9045809E+04;  4.9828858E+00;  0.0000000E+00; -5.3618658E-01;  1.1686295E+03;
  1.5768226E+00;  9.9999998E-03; -5.0513081E-02;9054;  1.0929058E+00;  0.0000000E+00;  3.0195313E-02;  9.9429962E+02;  1.6514727E-01; -4.6750879E+03;3; -1.2127114E+02;  0.0000000E+00;  5.3149920E+00;0;  4.4886608E+00;  1.4826517E+04;  0.0000000E+00;  1.9486386E-01;  4.0000000E+04;  0.0000000E+00;  3.9046441E+04;  5.0295935E+00;  0.0000000E+00; -5.4093283E-01;  1.0616904E+03;
  1.5768226E+00;  9.9999998E-03;  5.0513312E-02;9064;  1.0929060E+00;  0.0000000E+00; -3.0194022E-02;  9.9429919E+02;  1.6514672E-01; -4.6754790E+03;3; -1.2127108E+02;  0.0000000E+00; -5.3150525E+00;0;  4.4886632E+00;  1.4826520E+04;  0.0000000E+00;  1.9485165E-01;  4.0000000E+04;  0.0000000E+00;  3.9046445E+04;  5.0295949E+00;  0.0000000E+00; -5.4093176E-01;  1.0617134E+03;
  1.5914735E+00;  9.9999998E-03; -1.0115755E-01;9108;  1.1451243E+00;  0.0000000E+00;  5.1599726E-02;  9.9499384E+02;  1.5821189E-01; -4.0957788E+03;3; -1.0698739E+02;  0.0000000E+00;  1.0995703E+01;0;  4.0307279E+00;  1.6194486E+04;  0.0000000E+00;  3.5572216E-02;  4.0000000E+04;  0.0000000E+00;  3.9020824E+04;  4.4905510E+00;  0.0000000E+00; -4.5982304E-01;  1.0599561E+03;
  1.5917895E+00;  9.9999998E-03; -9.1008782E-02;9109;  1.1565778E+00;  0.0000000E+00;  4.6348836E-02;  9.9532690E+02;  1.5815313E-01; -3.8230557E+03;3; -1.0778886E+02;  0.0000000E+00;  9.9996605E+00;0;  4.0651979E+00;  1.6219164E+04;  0.0000000E+00;  1.3593605E-01;  4.0000000E+04;  0.0000000E+00;  3.9015262E+04;  4.5303102E+00;  0.0000000E+00; -4.6511203E-01;  1.6480887E+03;
  1.5920395E+00;  9.9999998E-03; -8.0877639E-02;9110;  1.1661351E+00;  0.0000000E+00;  4.1139375E-02;  9.9560901E+02;  1.5810654E-01; -3.5920972E+03;3; -1.0844778E+02;  0.0000000E+00;  8.9512863E+00;0;  4.0954552E+00;  1.6238491E+04;  0.0000000E+00;  2.0425722E-01;  4.0000000E+04;  0.0000000E+00;  3.9011137E+04;  4.5648885E+00;  0.0000000E+00; -4.6943346E-01;  2.1332527E+03;
  1.5922233E+00;  9.9999998E-03; -7.0758201E-02;9111;  1.1738563E+00;  0.0000000E+00;  3.5937682E-02;  9.9582166E+02;  1.5807064E-01; -3.4180046E+03;3; -1.0903889E+02;  0.0000000E+00;  7.8924098E+00;0;  4.1225877E+00;  1.6252617E+04;  0.0000000E+00;  2.3252648E-01;  4.0000000E+04;  0.0000000E+00;  3.9008301E+04;  4.5955634E+00;  0.0000000E+00; -4.7297585E-01;  2.4722388E+03;
  1.5923376E+00;  9.9999998E-03; -6.0646277E-02;9112;  1.1797184E+00;  0.0000000E+00;  3.0722985E-02;  9.9597083E+02;  1.5805019E-01; -3.2958921E+03;3; -1.0954664E+02;  0.0000000E+00;  6.8566709E+00;0;  4.1473370E+00;  1.6260859E+04;  0.0000000E+00;  2.2419614E-01;  4.0000000E+04;  0.0000000E+00;  3.9006773E+04;  4.6232600E+00;  0.0000000E+00; -4.7592303E-01;  2.6593196E+03;
  1.5923376E+00;  9.9999998E-03;  6.0646508E-02;9124;  1.1797185E+00;  0.0000000E+00; -3.0721726E-02;  9.9597076E+02;  1.5805063E-01; -3.2959409E+03;3; -1.0954646E+02;  0.0000000E+00; -6.8566656E+00;0;  4.1473403E+00;  1.6260859E+04;  0.0000000E+00;  2.2418489E-01;  4.0000000E+04;  0.0000000E+00;  3.9006773E+04;  4.6232629E+00;  0.0000000E+00; -4.7592264E-01;  2.6593296E+03;
  1.5923040E+00;  9.9999998E-03; -1.0106937E-02;9117;  1.1886642E+00;  0.0000000E+00;  5.1656025E-03;  9.9612256E+02;  1.5805550E-01; -3.1718252E+03;3; -1.1182510E+02;  0.0000000E+00;  1.1840309E+00;0;  4.2268829E+00;  1.6257583E+04;  0.0000000E+00;  1.0584958E-02;  4.0000000E+04;  0.0000000E+00;  3.9010449E+04;  4.7108345E+00;  0.0000000E+00; -4.8395142E-01;  2.2259360E+03;
  1.5922939E+00;  9.9999998E-03;  1.1888749E-07;9118;  1.1887248E+00;  0.0000000E+00;  6.3541034E-07;  9.9612024E+02;  1.5805756E-01; -3.1737324E+03;3; -1.1188806E+02;  0.0000000E+00; -3.3816963E-05;0;  4.2295513E+00;  1.6256863E+04;  0.0000000E+00; -1.3521809E-10;  4.0000000E+04;  0.0000000E+00;  3.9010762E+04;  4.7137408E+00;  0.0000000E+00; -4.8418936E-01;  2.1812593E+03;
  1.5923040E+00;  9.9999998E-03;  1.0107175E-02;9119;  1.1886642E+00;  0.0000000E+00; -5.1643346E-03;  9.9612268E+02;  1.5805474E-01; -3.1717275E+03;3; -1.1182516E+02;  0.0000000E+00; -1.1840997E+00;0;  4.2268853E+00;  1.6257583E+04;  0.0000000E+00;  1.0582027E-02;  4.0000000E+04;  0.0000000E+00;  3.9010449E+04;  4.7108364E+00;  0.0000000E+00; -4.8395118E-01;  2.2259084E+03;
  1.5923322E+00;  9.9999998E-03; -2.0214252E-02;9116;  1.1884536E+00;  0.0000000E+00;  1.0303153E-02;  9.9611749E+02;  1.5805180E-01; -3.1759524E+03;3; -1.1160612E+02;  0.0000000E+00;  2.3627920E+00;0;  4.2190142E+00;  1.6259535E+04;  0.0000000E+00;  4.0841844E-02;  4.0000000E+04;  0.0000000E+00;  3.9009289E+04;  4.7022505E+00;  0.0000000E+00; -4.8323652E-01;  2.3459238E+03;
  1.5923322E+00;  9.9999998E-03;  2.0214489E-02;9120;  1.1884537E+00;  0.0000000E+00; -1.0301875E-02;  9.9611768E+02;  1.5805079E-01; -3.1758062E+03;3; -1.1160612E+02;  0.0000000E+00; -2.3628030E+00;0;  4.2190127E+00;  1.6259536E+04;  0.0000000E+00;  4.0835790E-02;  4.0000000E+04;  0.0000000E+00;  3.9009289E+04;  4.7022491E+00;  0.0000000E+00; -4.8323631E-01;  2.3459043E+03;
  1.5923679E+00;  9.9999998E-03; -3.0321799E-02;9115;  1.1878220E+00;  0.0000000E+00;  1.5419503E-02;  9.9611786E+02;  1.5804453E-01; -3.1756389E+03;3; -1.1119278E+02;  0.0000000E+00;  3.4788888E+00;0;  4.2063909E+00;  1.6262216E+04;  0.0000000E+00;  8.6206362E-02;  4.0000000E+04;  0.0000000E+00;  3.9007902E+04;  4.6884470E+00;  0.0000000E+00; -4.8205599E-01;  2.5019587E+03;
  1.5923679E+00;  9.9999998E-03;  3.0322032E-02;9121;  1.1878221E+00;  0.0000000E+00; -1.5418225E-02;  9.9611774E+02;  1.5804434E-01; -3.1757363E+03;3; -1.1119272E+02;  0.0000000E+00; -3.4788563E+00;0;  4.2063890E+00;  1.6262214E+04;  0.0000000E+00;  8.6199470E-02;  4.0000000E+04;  0.0000000E+00;  3.9007906E+04;  4.6884446E+00;  0.0000000E+00; -4.8205557E-01;  2.5019434E+03;
  1.5923938E+00;  9.9999998E-03; -4.0429447E-02;9114;  1.1864088E+00;  0.0000000E+00;  2.0520153E-02;  9.9610266E+02;  1.5804031E-01; -3.1880076E+03;3; -1.1064793E+02;  0.0000000E+00;  4.6244202E+00;0;  4.1897397E+00;  1.6264279E+04;  0.0000000E+00;  1.3902910E-01;  4.0000000E+04;  0.0000000E+00;  3.9006914E+04;  4.6701732E+00;  0.0000000E+00; -4.8043343E-01;  2.6399751E+03;
  1.5923938E+00;  9.9999998E-03;  4.0429678E-02;9122;  1.1864089E+00;  0.0000000E+00; -2.0518882E-02;  9.9610254E+02;  1.5804054E-01; -3.1881538E+03;3; -1.1064783E+02;  0.0000000E+00; -4.6244340E+00;0;  4.1897383E+00;  1.6264277E+04;  0.0000000E+00;  1.3901922E-01;  4.0000000E+04;  0.0000000E+00;  3.9006918E+04;  4.6701717E+00;  0.0000000E+00; -4.8043364E-01;  2.6399548E+03;
  1.5923903E+00;  9.9999998E-03; -5.0537452E-02;9113;  1.1837935E+00;  0.0000000E+00;  2.5614498E-02;  9.9606042E+02;  1.5804128E-01; -3.2225784E+03;3; -1.1006969E+02;  0.0000000E+00;  5.7661223E+00;0;  4.1698198E+00;  1.6264359E+04;  0.0000000E+00;  1.8900791E-01;  4.0000000E+04;  0.0000000E+00;  3.9006258E+04;  4.6482086E+00;  0.0000000E+00; -4.7838876E-01;  2.7063311E+03;
  1.5923903E+00;  9.9999998E-03;  5.0537679E-02;9123;  1.1837938E+00;  0.0000000E+00; -2.5613232E-02;  9.9606061E+02;  1.5804085E-01; -3.2224319E+03;3; -1.1006976E+02;  0.0000000E+00; -5.7660961E+00;0;  4.1698232E+00;  1.6264361E+04;  0.0000000E+00;  1.8899931E-01;  4.0000000E+04;  0.0000000E+00;  3.9006258E+04;  4.6482110E+00;  0.0000000E+00; -4.7838768E-01;  2.7063579E+03;
  1.6062162E+00;  9.9999998E-03; -1.0132682E-01;9166;  1.2142024E+00;  0.0000000E+00;  4.2803161E-02;  9.9619025E+02;  1.5216015E-01; -3.1074731E+03;3; -9.6204460E+01;  0.0000000E+00;  1.1083958E+01;0;  3.7004123E+00;  1.7567348E+04;  0.0000000E+00;  3.4071192E-02;  4.0000000E+04;  0.0000000E+00;  3.8986254E+04;  4.1050310E+00;  0.0000000E+00; -4.0461862E-01;  1.3959246E+03;
  1.6064966E+00;  9.9999998E-03; -9.1143973E-02;9167;  1.2254153E+00;  0.0000000E+00;  3.8391516E-02;  9.9649097E+02;  1.5211494E-01; -2.8620151E+03;3; -9.5822617E+01;  0.0000000E+00;  1.0068654E+01;0;  3.7024970E+00;  1.7591416E+04;  0.0000000E+00;  1.0539034E-01;  4.0000000E+04;  0.0000000E+00;  3.8979922E+04;  4.1092381E+00;  0.0000000E+00; -4.0674114E-01;  2.0570393E+03;
  1.6067525E+00;  9.9999998E-03; -8.0983348E-02;9168;  1.2353935E+00;  0.0000000E+00;  3.4005083E-02;  9.9679626E+02;  1.5207236E-01; -2.6128596E+03;3; -9.5329521E+01;  0.0000000E+00;  9.0292158E+00;0;  3.7031677E+00;  1.7613303E+04;  0.0000000E+00;  1.5475774E-01;  4.0000000E+04;  0.0000000E+00;  3.8974117E+04;  4.1113553E+00;  0.0000000E+00; -4.0818763E-01;  2.6607751E+03;
  1.6069653E+00;  9.9999998E-03; -7.0840590E-02;9169;  1.2438080E+00;  0.0000000E+00;  2.9651036E-02;  9.9707117E+02;  1.5203889E-01; -2.3885471E+03;3; -9.4877808E+01;  0.0000000E+00;  7.9657855E+00;0;  3.7039502E+00;  1.7631469E+04;  0.0000000E+00;  1.7551814E-01;  4.0000000E+04;  0.0000000E+00;  3.8969609E+04;  4.1131134E+00;  0.0000000E+00; -4.0916333E-01;  3.1607583E+03;
  1.6071284E+00;  9.9999998E-03; -6.0709562E-02;9170;  1.2506347E+00;  0.0000000E+00;  2.5342952E-02;  9.9729211E+02;  1.5201208E-01; -2.2082703E+03;3; -9.4479019E+01;  0.0000000E+00;  6.9169297E+00;0;  3.7056627E+00;  1.7645172E+04;  0.0000000E+00;  1.6940305E-01;  4.0000000E+04;  0.0000000E+00;  3.8965906E+04;  4.1154885E+00;  0.0000000E+00; -4.0982583E-01;  3.5365874E+03;
  1.6071284E+00;  9.9999998E-03;  6.0709793E-02;9182;  1.2506348E+00;  0.0000000E+00; -2.5341708E-02;  9.9729205E+02;  1.5201207E-01; -2.2083188E+03;3; -9.4479034E+01;  0.0000000E+00; -6.9169183E+00;0;  3.7056599E+00;  1.7645174E+04;  0.0000000E+00;  1.6939490E-01;  4.0000000E+04;  0.0000000E+00;  3.8965906E+04;  4.1154857E+00;  0.0000000E+00; -4.0982589E-01;  3.5365586E+03;
  1.6072433E+00;  9.9999998E-03; -5.0584845E-02;9171;  1.2559868E+00;  0.0000000E+00;  2.1070583E-02;  9.9746771E+02;  1.5199533E-01; -2.0650186E+03;3; -9.4178307E+01;  0.0000000E+00;  5.7938213E+00;0;  3.7085066E+00;  1.7654402E+04;  0.0000000E+00;  1.4322731E-01;  4.0000000E+04;  0.0000000E+00;  3.8963770E+04;  4.1187949E+00;  0.0000000E+00; -4.1028821E-01;  3.7842634E+03;
  1.6072433E+00;  9.9999998E-03;  5.0585076E-02;9181;  1.2559869E+00;  0.0000000E+00; -2.1069342E-02;  9.9746729E+02;  1.5199505E-01; -2.0653589E+03;3; -9.4178101E+01;  0.0000000E+00; -5.7938280E+00;0;  3.7085090E+00;  1.7654406E+04;  0.0000000E+00;  1.4322029E-01;  4.0000000E+04;  0.0000000E+00;  3.8963770E+04;  4.1187968E+00;  0.0000000E+00; -4.1028783E-01;  3.7842722E+03;
  1.6073145E+00;  9.9999998E-03; -4.0464137E-02;9172;  1.2599038E+00;  0.0000000E+00;  1.6812354E-02;  9.9759216E+02;  1.5198357E-01; -1.9634973E+03;3; -9.3984566E+01;  0.0000000E+00;  4.6362824E+00;0;  3.7122889E+00;  1.7660039E+04;  0.0000000E+00;  1.0581705E-01;  4.0000000E+04;  0.0000000E+00;  3.8962613E+04;  4.1229215E+00;  0.0000000E+00; -4.1063261E-01;  3.9143235E+03;
  1.6073145E+00;  9.9999998E-03;  4.0464368E-02;9180;  1.2599041E+00;  0.0000000E+00; -1.6811116E-02;  9.9759229E+02;  1.5198380E-01; -1.9634001E+03;3; -9.3984459E+01;  0.0000000E+00; -4.6362925E+00;0;  3.7122927E+00;  1.7660039E+04;  0.0000000E+00;  1.0581011E-01;  4.0000000E+04;  0.0000000E+00;  3.8962609E+04;  4.1229253E+00;  0.0000000E+00; -4.1063258E-01;  3.9143279E+03;
  1.6073532E+00;  9.9999998E-03; -3.0346457E-02;9173;  1.2625574E+00;  0.0000000E+00;  1.2588105E-02;  9.9767358E+02;  1.5197794E-01; -1.8970857E+03;3; -9.3931419E+01;  0.0000000E+00;  3.4980805E+00;0;  3.7163458E+00;  1.7663014E+04;  0.0000000E+00;  6.5975532E-02;  4.0000000E+04;  0.0000000E+00;  3.8962270E+04;  4.1272345E+00;  0.0000000E+00; -4.1088864E-01;  3.9516201E+03;
  1.6073532E+00;  9.9999998E-03;  3.0346692E-02;9179;  1.2625577E+00;  0.0000000E+00; -1.2586874E-02;  9.9767377E+02;  1.5197869E-01; -1.8969399E+03;3; -9.3931335E+01;  0.0000000E+00; -3.4981337E+00;0;  3.7163486E+00;  1.7663010E+04;  0.0000000E+00;  6.5971009E-02;  4.0000000E+04;  0.0000000E+00;  3.8962270E+04;  4.1272373E+00;  0.0000000E+00; -4.1088864E-01;  3.9516179E+03;
  1.6073738E+00;  9.9999998E-03; -1.0115037E-02;9175;  1.2650812E+00;  0.0000000E+00;  4.1924748E-03;  9.9776837E+02;  1.5197489E-01; -1.8197959E+03;3; -9.3909561E+01;  0.0000000E+00;  1.1748760E+00;0;  3.7225351E+00;  1.7664766E+04;  0.0000000E+00;  8.1827892E-03;  4.0000000E+04;  0.0000000E+00;  3.8962766E+04;  4.1337237E+00;  0.0000000E+00; -4.1118851E-01;  3.8998435E+03;
  1.6073745E+00;  9.9999998E-03;  1.1774849E-07;9176;  1.2653627E+00;  0.0000000E+00;  6.0862504E-07;  9.9778235E+02;  1.5197505E-01; -1.8083734E+03;3; -9.3909248E+01;  0.0000000E+00; -6.5753607E-06;0;  3.7234280E+00;  1.7664750E+04;  0.0000000E+00; -1.3811449E-10;  4.0000000E+04;  0.0000000E+00;  3.8962992E+04;  4.1346540E+00;  0.0000000E+00; -4.1122609E-01;  3.8846621E+03;
  1.6073738E+00;  9.9999998E-03;  1.0115271E-02;9177;  1.2650812E+00;  0.0000000E+00; -4.1912505E-03;  9.9776813E+02;  1.5197547E-01; -1.8199904E+03;3; -9.3909584E+01;  0.0000000E+00; -1.1748788E+00;0;  3.7225347E+00;  1.7664770E+04;  0.0000000E+00;  8.1810839E-03;  4.0000000E+04;  0.0000000E+00;  3.8962766E+04;  4.1337233E+00;  0.0000000E+00; -4.1118851E-01;  3.8998435E+03;
  1.6073688E+00;  9.9999998E-03; -2.0230198E-02;9174;  1.2641845E+00;  0.0000000E+00;  8.3890855E-03;  9.9773083E+02;  1.5197632E-01; -1.8503700E+03;3; -9.3932434E+01;  0.0000000E+00;  2.3376088E+00;0;  3.7200248E+00;  1.7664316E+04;  0.0000000E+00;  3.1434901E-02;  4.0000000E+04;  0.0000000E+00;  3.8962273E+04;  4.1311021E+00;  0.0000000E+00; -4.1107717E-01;  3.9330146E+03;
  1.6073688E+00;  9.9999998E-03;  2.0230433E-02;9178;  1.2641845E+00;  0.0000000E+00; -8.3878599E-03;  9.9773083E+02;  1.5197632E-01; -1.8503700E+03;3; -9.3932320E+01;  0.0000000E+00; -2.3376298E+00;0;  3.7200205E+00;  1.7664314E+04;  0.0000000E+00;  3.1431522E-02;  4.0000000E+04;  0.0000000E+00;  3.8962281E+04;  4.1310978E+00;  0.0000000E+00; -4.1107720E-01;  3.9330327E+03;
  1.6204875E+00;  9.9999998E-03; -1.0150621E-01;9223;  1.2701142E+00;  0.0000000E+00;  3.4202144E-02;  9.9723785E+02;  1.4698055E-01; -2.2448481E+03;3; -8.2640663E+01;  0.0000000E+00;  1.0803802E+01;0;  3.2835996E+00;  1.8886922E+04;  0.0000000E+00;  1.8982124E-02;  4.0000000E+04;  0.0000000E+00;  3.8947414E+04;  3.6296351E+00;  0.0000000E+00; -3.4603557E-01;  1.3915273E+03;
  1.6207035E+00;  9.9999998E-03; -9.1303125E-02;9224;  1.2801137E+00;  0.0000000E+00;  3.0633606E-02;  9.9744446E+02;  1.4695095E-01; -2.0768228E+03;3; -8.1395149E+01;  0.0000000E+00;  9.8215466E+00;0;  3.2595942E+00;  1.8905576E+04;  0.0000000E+00;  5.4475278E-02;  4.0000000E+04;  0.0000000E+00;  3.8941293E+04;  3.6051726E+00;  0.0000000E+00; -3.4557834E-01;  2.0050657E+03;
  1.6209280E+00;  9.9999998E-03; -8.1117116E-02;9225;  1.2894244E+00;  0.0000000E+00;  2.7104529E-02;  9.9769659E+02;  1.4692046E-01; -1.8718074E+03;3; -8.0048729E+01;  0.0000000E+00;  8.8214636E+00;0;  3.2363029E+00;  1.8925795E+04;  0.0000000E+00;  7.6190256E-02;  4.0000000E+04;  0.0000000E+00;  3.8934773E+04;  3.5810645E+00;  0.0000000E+00; -3.4476164E-01;  2.6455554E+03;
  1.6211412E+00;  9.9999998E-03; -7.0948251E-02;9226;  1.2977703E+00;  0.0000000E+00;  2.3584703E-02;  9.9797620E+02;  1.4689294E-01; -1.6444955E+03;3; -7.8665024E+01;  0.0000000E+00;  7.7934523E+00;0;  3.2152119E+00;  1.8945184E+04;  0.0000000E+00;  8.4868804E-02;  4.0000000E+04;  0.0000000E+00;  3.8928789E+04;  3.5589340E+00;  0.0000000E+00; -3.4372205E-01;  3.2540591E+03;
  1.6213335E+00;  9.9999998E-03; -6.0793396E-02;9227;  1.3049967E+00;  0.0000000E+00;  2.0087900E-02;  9.9824298E+02;  1.4686762E-01; -1.4276317E+03;3; -7.7383797E+01;  0.0000000E+00;  6.7255335E+00;0;  3.1971629E+00;  1.8962406E+04;  0.0000000E+00;  8.1280097E-02;  4.0000000E+04;  0.0000000E+00;  3.8923602E+04;  3.5397251E+00;  0.0000000E+00; -3.4256229E-01;  3.7928735E+03;
  1.6213335E+00;  9.9999998E-03;  6.0793627E-02;9239;  1.3049966E+00;  0.0000000E+00; -2.0086648E-02;  9.9824310E+02;  1.4686784E-01; -1.4275349E+03;3; -7.7383820E+01;  0.0000000E+00; -6.7255664E+00;0;  3.1971655E+00;  1.8962402E+04;  0.0000000E+00;  8.1276849E-02;  4.0000000E+04;  0.0000000E+00;  3.8923605E+04;  3.5397277E+00;  0.0000000E+00; -3.4256229E-01;  3.7928643E+03;
  1.6214958E+00;  9.9999998E-03; -5.0648764E-02;9228;  1.3109519E+00;  0.0000000E+00;  1.6644588E-02;  9.9847327E+02;  1.4684632E-01; -1.2404395E+03;3; -7.6270844E+01;  0.0000000E+00;  5.6296959E+00;0;  3.1826277E+00;  1.8976639E+04;  0.0000000E+00;  6.8517417E-02;  4.0000000E+04;  0.0000000E+00;  3.8919160E+04;  3.5240281E+00;  0.0000000E+00; -3.4140038E-01;  4.2391270E+03;
  1.6214958E+00;  9.9999998E-03;  5.0648995E-02;9238;  1.3109518E+00;  0.0000000E+00; -1.6643336E-02;  9.9847321E+02;  1.4684658E-01; -1.2404879E+03;3; -7.6270836E+01;  0.0000000E+00; -5.6296988E+00;0;  3.1826332E+00;  1.8976641E+04;  0.0000000E+00;  6.8514727E-02;  4.0000000E+04;  0.0000000E+00;  3.8919160E+04;  3.5240335E+00;  0.0000000E+00; -3.4140047E-01;  4.2390781E+03;
  1.6216228E+00;  9.9999998E-03; -4.0511593E-02;9229;  1.3156408E+00;  0.0000000E+00;  1.3250407E-02;  9.9866254E+02;  1.4683115E-01; -1.0866409E+03;3; -7.5359695E+01;  0.0000000E+00;  4.5173521E+00;0;  3.1717286E+00;  1.8987721E+04;  0.0000000E+00;  5.0664701E-02;  4.0000000E+04;  0.0000000E+00;  3.8915691E+04;  3.5120711E+00;  0.0000000E+00; -3.4034252E-01;  4.5827046E+03;
  1.6216228E+00;  9.9999998E-03;  4.0511824E-02;9237;  1.3156408E+00;  0.0000000E+00; -1.3249157E-02;  9.9866260E+02;  1.4683098E-01; -1.0865924E+03;3; -7.5359665E+01;  0.0000000E+00; -4.5173573E+00;0;  3.1717238E+00;  1.8987717E+04;  0.0000000E+00;  5.0662015E-02;  4.0000000E+04;  0.0000000E+00;  3.8915695E+04;  3.5120666E+00;  0.0000000E+00; -3.4034267E-01;  4.5826938E+03;
  1.6217142E+00;  9.9999998E-03; -3.0379785E-02;9230;  1.3191096E+00;  0.0000000E+00;  9.8946868E-03;  9.9881262E+02;  1.4681955E-01; -9.6467798E+02;3; -7.4662819E+01;  0.0000000E+00;  3.3902657E+00;0;  3.1641486E+00;  1.8995607E+04;  0.0000000E+00;  3.1727329E-02;  4.0000000E+04;  0.0000000E+00;  3.8913469E+04;  3.5036137E+00;  0.0000000E+00; -3.3946514E-01;  4.8250762E+03;
  1.6217142E+00;  9.9999998E-03;  3.0380020E-02;9236;  1.3191097E+00;  0.0000000E+00; -9.8934453E-03;  9.9881262E+02;  1.4681955E-01; -9.6467798E+02;3; -7.4662766E+01;  0.0000000E+00; -3.3903010E+00;0;  3.1641459E+00;  1.8995611E+04;  0.0000000E+00;  3.1726163E-02;  4.0000000E+04;  0.0000000E+00;  3.8913477E+04;  3.5036111E+00;  0.0000000E+00; -3.3946502E-01;  4.8250962E+03;
  1.6218109E+00;  9.9999998E-03; -1.0125211E-02;9232;  1.3228838E+00;  0.0000000E+00;  3.2756678E-03;  9.9898663E+02;  1.4680888E-01; -8.2325385E+02;3; -7.3847305E+01;  0.0000000E+00;  1.1100852E+00;0;  3.1566045E+00;  1.9003898E+04;  0.0000000E+00;  3.9804555E-03;  4.0000000E+04;  0.0000000E+00;  3.8911270E+04;  3.4950032E+00;  0.0000000E+00; -3.3839861E-01;  5.0587793E+03;
  1.6218109E+00;  9.9999998E-03;  1.0125447E-02;9234;  1.3228837E+00;  0.0000000E+00; -3.2744296E-03;  9.9898645E+02;  1.4680889E-01; -8.2344757E+02;3; -7.3847336E+01;  0.0000000E+00; -1.1100981E+00;0;  3.1566038E+00;  1.9003895E+04;  0.0000000E+00;  3.9802268E-03;  4.0000000E+04;  0.0000000E+00;  3.8911273E+04;  3.4950025E+00;  0.0000000E+00; -3.3839861E-01;  5.0587793E+03;
  1.6217749E+00;  9.9999998E-03; -2.0251490E-02;9231;  1.3214890E+00;  0.0000000E+00;  6.5717478E-03;  9.9892181E+02;  1.4681250E-01; -8.7594788E+02;3; -7.4169594E+01;  0.0000000E+00;  2.2489891E+00;0;  3.1593139E+00;  1.9000799E+04;  0.0000000E+00;  1.5211217E-02;  4.0000000E+04;  0.0000000E+00;  3.8912055E+04;  3.4981248E+00;  0.0000000E+00; -3.3881089E-01;  4.9779551E+03;
  1.6217749E+00;  9.9999998E-03;  2.0251725E-02;9235;  1.3214891E+00;  0.0000000E+00; -6.5705101E-03;  9.9892200E+02;  1.4681312E-01; -8.7580261E+02;3; -7.4169510E+01;  0.0000000E+00; -2.2490199E+00;0;  3.1593111E+00;  1.9000807E+04;  0.0000000E+00;  1.5210667E-02;  4.0000000E+04;  0.0000000E+00;  3.8912051E+04;  3.4981215E+00;  0.0000000E+00; -3.3881035E-01;  4.9779507E+03;
  1.6218226E+00;  9.9999998E-03;  1.1785671E-07;9233;  1.3233433E+00;  0.0000000E+00;  6.1913153E-07;  9.9900940E+02;  1.4680696E-01; -8.0480157E+02;3; -7.3757225E+01;  0.0000000E+00; -1.5310561E-05;0;  3.1557403E+00;  1.9004803E+04;  0.0000000E+00; -1.4367250E-10;  4.0000000E+04;  0.0000000E+00;  3.8911133E+04;  3.4939992E+00;  0.0000000E+00; -3.3825889E-01;  5.0835620E+03;
  1.6343906E+00;  9.9999998E-03; -1.0166928E-01;9280;  1.3142804E+00;  0.0000000E+00;  2.6190141E-02;  9.9814465E+02;  1.4254558E-01; -1.5014380E+03;3; -6.8013092E+01;  0.0000000E+00;  1.0262183E+01;0;  2.8341768E+00;  2.0141611E+04;  0.0000000E+00; -1.4108062E-02;  4.0000000E+04;  0.0000000E+00;  3.8900426E+04;  3.1213174E+00;  0.0000000E+00; -2.8714061E-01;  1.3844302E+03;
  1.6345166E+00;  9.9999998E-03; -9.1461763E-02;9281;  1.3224710E+00;  0.0000000E+00;  2.3360865E-02;  9.9821136E+02;  1.4253607E-01; -1.4473534E+03;3; -6.6142342E+01;  0.0000000E+00;  9.3114071E+00;0;  2.7910516E+00;  2.0150438E+04;  0.0000000E+00; -4.5753834E-03;  4.0000000E+04;  0.0000000E+00;  3.8895988E+04;  3.0756617E+00;  0.0000000E+00; -2.8461006E-01;  1.7858915E+03;
  1.6346762E+00;  9.9999998E-03; -8.1258275E-02;9282;  1.3304933E+00;  0.0000000E+00;  2.0583492E-02;  9.9836725E+02;  1.4252107E-01; -1.3211541E+03;3; -6.4142128E+01;  0.0000000E+00;  8.3765812E+00;0;  2.7501557E+00;  2.0164322E+04;  0.0000000E+00; -5.3020404E-03;  4.0000000E+04;  0.0000000E+00;  3.8890352E+04;  3.0322194E+00;  0.0000000E+00; -2.8206372E-01;  2.3258899E+03;
  1.6348596E+00;  9.9999998E-03; -7.1066670E-02;9283;  1.3380429E+00;  0.0000000E+00;  1.7847857E-02;  9.9859540E+02;  1.4250362E-01; -1.1364598E+03;3; -6.2125965E+01;  0.0000000E+00;  7.3968806E+00;0;  2.7125881E+00;  2.0181086E+04;  0.0000000E+00; -1.0104297E-02;  4.0000000E+04;  0.0000000E+00;  3.8884160E+04;  2.9921033E+00;  0.0000000E+00; -2.7951518E-01;  2.9339412E+03;
  1.6350498E+00;  9.9999998E-03; -6.0888276E-02;9284;  1.3448471E+00;  0.0000000E+00;  1.5164390E-02;  9.9884985E+02;  1.4248380E-01; -9.3051990E+02;3; -6.0204010E+01;  0.0000000E+00;  6.3770103E+00;0;  2.6793604E+00;  2.0198686E+04;  0.0000000E+00; -1.2859099E-02;  4.0000000E+04;  0.0000000E+00;  3.8877703E+04;  2.9563868E+00;  0.0000000E+00; -2.7702641E-01;  3.5514890E+03;
  1.6350498E+00;  9.9999998E-03;  6.0888510E-02;9296;  1.3448471E+00;  0.0000000E+00; -1.5163138E-02;  9.9884979E+02;  1.4248396E-01; -9.3056812E+02;3; -6.0203945E+01;  0.0000000E+00; -6.3770266E+00;0;  2.6793594E+00;  2.0198684E+04;  0.0000000E+00; -1.2858885E-02;  4.0000000E+04;  0.0000000E+00;  3.8877707E+04;  2.9563856E+00;  0.0000000E+00; -2.7702615E-01;  3.5514814E+03;
  1.6352328E+00;  9.9999998E-03; -5.0721820E-02;9285;  1.3507243E+00;  0.0000000E+00;  1.2541730E-02;  9.9910144E+02;  1.4246495E-01; -7.2692297E+02;3; -5.8450348E+01;  0.0000000E+00;  5.3513145E+00;0;  2.6511219E+00;  2.0215512E+04;  0.0000000E+00; -1.2751045E-02;  4.0000000E+04;  0.0000000E+00;  3.8871832E+04;  2.9257972E+00;  0.0000000E+00; -2.7467546E-01;  4.1333926E+03;
  1.6352328E+00;  9.9999998E-03;  5.0722055E-02;9295;  1.3507245E+00;  0.0000000E+00; -1.2540476E-02;  9.9910162E+02;  1.4246534E-01; -7.2677832E+02;3; -5.8450516E+01;  0.0000000E+00; -5.3513236E+00;0;  2.6511233E+00;  2.0215508E+04;  0.0000000E+00; -1.2750654E-02;  4.0000000E+04;  0.0000000E+00;  3.8871832E+04;  2.9257989E+00;  0.0000000E+00; -2.7467567E-01;  4.1333809E+03;
  1.6353947E+00;  9.9999998E-03; -4.0566020E-02;9286;  1.3555840E+00;  0.0000000E+00;  9.9567287E-03;  9.9933746E+02;  1.4244857E-01; -5.3598846E+02;3; -5.6877831E+01;  0.0000000E+00;  4.2950754E+00;0;  2.6282775E+00;  2.0230410E+04;  0.0000000E+00; -1.0360335E-02;  4.0000000E+04;  0.0000000E+00;  3.8866480E+04;  2.9008477E+00;  0.0000000E+00; -2.7257022E-01;  4.6457065E+03;
  1.6353947E+00;  9.9999998E-03;  4.0566254E-02;9294;  1.3555838E+00;  0.0000000E+00; -9.9554705E-03;  9.9933722E+02;  1.4244810E-01; -5.3618134E+02;3; -5.6877827E+01;  0.0000000E+00; -4.2950997E+00;0;  2.6282790E+00;  2.0230412E+04;  0.0000000E+00; -1.0359400E-02;  4.0000000E+04;  0.0000000E+00;  3.8866477E+04;  2.9008489E+00;  0.0000000E+00; -2.7256984E-01;  4.6457456E+03;
  1.6355240E+00;  9.9999998E-03; -3.0418212E-02;9287;  1.3593516E+00;  0.0000000E+00;  7.4129486E-03;  9.9952777E+02;  1.4243685E-01; -3.8201208E+02;3; -5.5615856E+01;  0.0000000E+00;  3.2111766E+00;0;  2.6109552E+00;  2.0242322E+04;  0.0000000E+00; -6.7911842E-03;  4.0000000E+04;  0.0000000E+00;  3.8862141E+04;  2.8817794E+00;  0.0000000E+00; -2.7082407E-01;  5.0636455E+03;
  1.6355240E+00;  9.9999998E-03;  3.0418448E-02;9293;  1.3593516E+00;  0.0000000E+00; -7.4116876E-03;  9.9952777E+02;  1.4243658E-01; -3.8201208E+02;3; -5.5615841E+01;  0.0000000E+00; -3.2112086E+00;0;  2.6109567E+00;  2.0242328E+04;  0.0000000E+00; -6.7889811E-03;  4.0000000E+04;  0.0000000E+00;  3.8862141E+04;  2.8817809E+00;  0.0000000E+00; -2.7082416E-01;  5.0636255E+03;
  1.6356164E+00;  9.9999998E-03; -2.0276073E-02;9288;  1.3620164E+00;  0.0000000E+00;  4.9230303E-03;  9.9967047E+02;  1.4242755E-01; -2.6657550E+02;3; -5.4674206E+01;  0.0000000E+00;  2.1195676E+00;0;  2.5989568E+00;  2.0251008E+04;  0.0000000E+00; -3.2993315E-03;  4.0000000E+04;  0.0000000E+00;  3.8858941E+04;  2.8684804E+00;  0.0000000E+00; -2.6952362E-01;  5.3705723E+03;
  1.6356164E+00;  9.9999998E-03;  2.0276310E-02;9292;  1.3620164E+00;  0.0000000E+00; -4.9217660E-03;  9.9967035E+02;  1.4242694E-01; -2.6667194E+02;3; -5.4674267E+01;  0.0000000E+00; -2.1195800E+00;0;  2.5989580E+00;  2.0251010E+04;  0.0000000E+00; -3.2978358E-03;  4.0000000E+04;  0.0000000E+00;  3.8858941E+04;  2.8684814E+00;  0.0000000E+00; -2.6952344E-01;  5.3705586E+03;
  1.6356715E+00;  9.9999998E-03; -1.0137247E-02;9289;  1.3635780E+00;  0.0000000E+00;  2.4599466E-03;  9.9975970E+02;  1.4242171E-01; -1.9434714E+02;3; -5.4101173E+01;  0.0000000E+00;  1.0754006E+00;0;  2.5919342E+00;  2.0256262E+04;  0.0000000E+00; -8.6194533E-04;  4.0000000E+04;  0.0000000E+00;  3.8857172E+04;  2.8606560E+00;  0.0000000E+00; -2.6872185E-01;  5.5572227E+03;
  1.6356715E+00;  9.9999998E-03;  1.0137484E-02;9291;  1.3635780E+00;  0.0000000E+00; -2.4586781E-03;  9.9975977E+02;  1.4242204E-01; -1.9429892E+02;3; -5.4101204E+01;  0.0000000E+00; -1.0754223E+00;0;  2.5919352E+00;  2.0256264E+04;  0.0000000E+00; -8.6094247E-04;  4.0000000E+04;  0.0000000E+00;  3.8857176E+04;  2.8606570E+00;  0.0000000E+00; -2.6872179E-01;  5.5571812E+03;
  1.6356899E+00;  9.9999998E-03;  1.1887395E-07;9290;  1.3640916E+00;  0.0000000E+00;  6.3605899E-07;  9.9978680E+02;  1.4241950E-01; -1.7245728E+02;3; -5.3924973E+01;  0.0000000E+00;  1.3699973E-06;0;  2.5896242E+00;  2.0257908E+04;  0.0000000E+00; -1.3026817E-10;  4.0000000E+04;  0.0000000E+00;  3.8856406E+04;  2.8580744E+00;  0.0000000E+00; -2.6845029E-01;  5.6196509E+03;
  1.6480231E+00;  9.9999998E-03; -1.0177792E-01;9336;  1.3487285E+00;  0.0000000E+00;  1.8895460E-02;  9.9897101E+02;  1.3875391E-01; -8.2847992E+02;3; -5.3415390E+01;  0.0000000E+00;  9.4188833E+00;0;  2.3933539E+00;  2.1325326E+04;  0.0000000E+00; -4.9134739E-02;  4.0000000E+04;  0.0000000E+00;  3.8840711E+04;  2.6229670E+00;  0.0000000E+00; -2.2961298E-01;  1.6881082E+03;
  1.6480510E+00;  9.9999998E-03; -9.1586046E-02;9337;  1.3547891E+00;  0.0000000E+00;  1.6771136E-02;  9.9886218E+02;  1.3875753E-01; -9.1604913E+02;3; -5.1277794E+01;  0.0000000E+00;  8.5376911E+00;0;  2.3369601E+00;  2.1321891E+04;  0.0000000E+00; -6.9053970E-02;  4.0000000E+04;  0.0000000E+00;  3.8840031E+04;  2.5623491E+00;  0.0000000E+00; -2.2538902E-01;  1.7220894E+03;
  1.6481239E+00;  9.9999998E-03; -8.1379890E-02;9338;  1.3609805E+00;  0.0000000E+00;  1.4687588E-02;  9.9887817E+02;  1.3875617E-01; -9.0316119E+02;3; -4.8986694E+01;  0.0000000E+00;  7.6266446E+00;0;  2.2839944E+00;  2.1325502E+04;  0.0000000E+00; -7.5523645E-02;  4.0000000E+04;  0.0000000E+00;  3.8837137E+04;  2.5055435E+00;  0.0000000E+00; -2.2154899E-01;  1.9983636E+03;
  1.6482410E+00;  9.9999998E-03; -7.1174212E-02;9339;  1.3671248E+00;  0.0000000E+00;  1.2647620E-02;  9.9900146E+02;  1.3875133E-01; -8.0388556E+02;3; -4.6597797E+01;  0.0000000E+00;  6.6776905E+00;0;  2.2352710E+00;  2.1335209E+04;  0.0000000E+00; -8.1627250E-02;  4.0000000E+04;  0.0000000E+00;  3.8832160E+04;  2.4532549E+00;  0.0000000E+00; -2.1798408E-01;  2.4544958E+03;
  1.6483908E+00;  9.9999998E-03; -6.0977396E-02;9340;  1.3729311E+00;  0.0000000E+00;  1.0691593E-02;  9.9919824E+02;  1.3874304E-01; -6.4540070E+02;3; -4.4288132E+01;  0.0000000E+00;  5.7558417E+00;0;  2.1916645E+00;  2.1348746E+04;  0.0000000E+00; -8.2939975E-02;  4.0000000E+04;  0.0000000E+00;  3.8826086E+04;  2.4063261E+00;  0.0000000E+00; -2.1466170E-01;  3.0182915E+03;
  1.6483908E+00;  9.9999998E-03;  6.0977634E-02;9352;  1.3729310E+00;  0.0000000E+00; -1.0690329E-02;  9.9919836E+02;  1.3874239E-01; -6.4530475E+02;3; -4.4288116E+01;  0.0000000E+00; -5.7558432E+00;0;  2.1916649E+00;  2.1348748E+04;  0.0000000E+00; -8.2936235E-02;  4.0000000E+04;  0.0000000E+00;  3.8826082E+04;  2.4063268E+00;  0.0000000E+00; -2.1466188E-01;  3.0182710E+03;
  1.6485559E+00;  9.9999998E-03; -5.0792351E-02;9341;  1.3781520E+00;  0.0000000E+00;  8.7966910E-03;  9.9942615E+02;  1.3873154E-01; -4.6193542E+02;3; -4.2041077E+01;  0.0000000E+00;  4.8189821E+00;0;  2.1539485E+00;  2.1364430E+04;  0.0000000E+00; -7.4234955E-02;  4.0000000E+04;  0.0000000E+00;  3.8819598E+04;  2.3655531E+00;  0.0000000E+00; -2.1160449E-01;  3.6221951E+03;
  1.6485559E+00;  9.9999998E-03;  5.0792586E-02;9351;  1.3781520E+00;  0.0000000E+00; -8.7954281E-03;  9.9942609E+02;  1.3873154E-01; -4.6198343E+02;3; -4.2041100E+01;  0.0000000E+00; -4.8190007E+00;0;  2.1539464E+00;  2.1364438E+04;  0.0000000E+00; -7.4230447E-02;  4.0000000E+04;  0.0000000E+00;  3.8819594E+04;  2.3655510E+00;  0.0000000E+00; -2.1160465E-01;  3.6221797E+03;
  1.6487180E+00;  9.9999998E-03; -4.0619053E-02;9342;  1.3825947E+00;  0.0000000E+00;  6.9534089E-03;  9.9965314E+02;  1.3871910E-01; -2.7916721E+02;3; -4.0032757E+01;  0.0000000E+00;  3.8803167E+00;0;  2.1226938E+00;  2.1379895E+04;  0.0000000E+00; -5.7111889E-02;  4.0000000E+04;  0.0000000E+00;  3.8813301E+04;  2.3315809E+00;  0.0000000E+00; -2.0888701E-01;  4.2068667E+03;
  1.6487180E+00;  9.9999998E-03;  4.0619291E-02;9350;  1.3825948E+00;  0.0000000E+00; -6.9521391E-03;  9.9965314E+02;  1.3871853E-01; -2.7916721E+02;3; -4.0032745E+01;  0.0000000E+00; -3.8803284E+00;0;  2.1226921E+00;  2.1379898E+04;  0.0000000E+00; -5.7107560E-02;  4.0000000E+04;  0.0000000E+00;  3.8813297E+04;  2.3315790E+00;  0.0000000E+00; -2.0888694E-01;  4.2068936E+03;
  1.6488583E+00;  9.9999998E-03; -3.0455867E-02;9343;  1.3861027E+00;  0.0000000E+00;  5.1700058E-03;  9.9985217E+02;  1.3870856E-01; -1.1897137E+02;3; -3.8382435E+01;  0.0000000E+00;  2.9492300E+00;0;  2.0983233E+00;  2.1393521E+04;  0.0000000E+00; -3.6552854E-02;  4.0000000E+04;  0.0000000E+00;  3.8807496E+04;  2.3049476E+00;  0.0000000E+00; -2.0662415E-01;  4.7214795E+03;
  1.6488583E+00;  9.9999998E-03;  3.0456103E-02;9349;  1.3861027E+00;  0.0000000E+00; -5.1687323E-03;  9.9985223E+02;  1.3870867E-01; -1.1892340E+02;3; -3.8382366E+01;  0.0000000E+00; -2.9492373E+00;0;  2.0983238E+00;  2.1393523E+04;  0.0000000E+00; -3.6549404E-02;  4.0000000E+04;  0.0000000E+00;  3.8807496E+04;  2.3049481E+00;  0.0000000E+00; -2.0662421E-01;  4.7214878E+03;
  1.6489626E+00;  9.9999998E-03; -2.0300312E-02;9344;  1.3886095E+00;  0.0000000E+00;  3.4255926E-03;  1.0000103E+03;  1.3870074E-01;  8.3468237E+00;3; -3.7150959E+01;  0.0000000E+00;  1.9531696E+00;0;  2.0810697E+00;  2.1403914E+04;  0.0000000E+00; -1.7681753E-02;  4.0000000E+04;  0.0000000E+00;  3.8803316E+04;  2.2860024E+00;  0.0000000E+00; -2.0493260E-01;  5.1232725E+03;
  1.6489626E+00;  9.9999998E-03;  2.0300550E-02;9348;  1.3886095E+00;  0.0000000E+00; -3.4243190E-03;  1.0000103E+03;  1.3869987E-01;  8.3468237E+00;3; -3.7150936E+01;  0.0000000E+00; -1.9531900E+00;0;  2.0810678E+00;  2.1403906E+04;  0.0000000E+00; -1.7679019E-02;  4.0000000E+04;  0.0000000E+00;  3.8803316E+04;  2.2860005E+00;  0.0000000E+00; -2.0493269E-01;  5.1232827E+03;
  1.6490451E+00;  9.9999998E-03;  1.1875475E-07;9346;  1.3906120E+00;  0.0000000E+00;  6.3725963E-07;  1.0001384E+03;  1.3869335E-01;  1.1138309E+02;3; -3.6135925E+01;  0.0000000E+00; -5.5622804E-06;0;  2.0675097E+00;  2.1412471E+04;  0.0000000E+00; -1.0528924E-10;  4.0000000E+04;  0.0000000E+00;  3.8799621E+04;  2.2710540E+00;  0.0000000E+00; -2.0354436E-01;  5.4665020E+03;
  1.6490250E+00;  9.9999998E-03; -1.0149536E-02;9345;  1.3901141E+00;  0.0000000E+00;  1.7005506E-03;  1.0001033E+03;  1.3869505E-01;  8.3178253E+01;3; -3.6379856E+01;  0.0000000E+00;  9.8363477E-01;0;  2.0708644E+00;  2.1410322E+04;  0.0000000E+00; -4.6363501E-03;  4.0000000E+04;  0.0000000E+00;  3.8800586E+04;  2.2747571E+00;  0.0000000E+00; -2.0389275E-01;  5.3788281E+03;
  1.6490250E+00;  9.9999998E-03;  1.0149773E-02;9347;  1.3901141E+00;  0.0000000E+00; -1.6992755E-03;  1.0001033E+03;  1.3869505E-01;  8.3178253E+01;3; -3.6379894E+01;  0.0000000E+00; -9.8364574E-01;0;  2.0708611E+00;  2.1410324E+04;  0.0000000E+00; -4.6348223E-03;  4.0000000E+04;  0.0000000E+00;  3.8800578E+04;  2.2747538E+00;  0.0000000E+00; -2.0389262E-01;  5.3788159E+03;
  1.6613945E+00;  9.9999998E-03; -8.1460401E-02;9393;  1.3833723E+00;  0.0000000E+00;  9.5253736E-03;  9.9931360E+02;  1.3552955E-01; -5.4932288E+02;3; -3.5146587E+01;  0.0000000E+00;  6.6163626E+00;0;  1.8623137E+00;  2.2411080E+04;  0.0000000E+00; -1.4046235E-01;  4.0000000E+04;  0.0000000E+00;  3.8770816E+04;  2.0260575E+00;  0.0000000E+00; -1.6374372E-01;  1.9440188E+03;
  1.6615895E+00;  9.9999998E-03; -5.0853685E-02;9396;  1.3960935E+00;  0.0000000E+00;  5.5679013E-03;  9.9952618E+02;  1.3553938E-01; -3.7913757E+02;3; -2.7966566E+01;  0.0000000E+00;  4.0845842E+00;0;  1.7132971E+00;  2.2424818E+04;  0.0000000E+00; -1.0011281E-01;  4.0000000E+04;  0.0000000E+00;  3.8759637E+04;  1.8660288E+00;  0.0000000E+00; -1.5273166E-01;  2.9330251E+03;
  1.6615895E+00;  9.9999998E-03;  5.0853923E-02;9406;  1.3960936E+00;  0.0000000E+00; -5.5666221E-03;  9.9952625E+02;  1.3553938E-01; -3.7908987E+02;3; -2.7966574E+01;  0.0000000E+00; -4.0846033E+00;0;  1.7132969E+00;  2.2424816E+04;  0.0000000E+00; -1.0010426E-01;  4.0000000E+04;  0.0000000E+00;  3.8759637E+04;  1.8660288E+00;  0.0000000E+00; -1.5273185E-01;  2.9330359E+03;
  1.6614847E+00;  9.9999998E-03; -6.1051480E-02;9395;  1.3920157E+00;  0.0000000E+00;  6.8264506E-03;  9.9937823E+02;  1.3554019E-01; -4.9754535E+02;3; -3.0362183E+01;  0.0000000E+00;  4.9363685E+00;0;  1.7567480E+00;  2.2415111E+04;  0.0000000E+00; -1.1900523E-01;  4.0000000E+04;  0.0000000E+00;  3.8765090E+04;  1.9127359E+00;  0.0000000E+00; -1.5598795E-01;  2.4507166E+03;
  1.6614847E+00;  9.9999998E-03;  6.1051719E-02;9407;  1.3920157E+00;  0.0000000E+00; -6.8251751E-03;  9.9937823E+02;  1.3554019E-01; -4.9754535E+02;3; -3.0362156E+01;  0.0000000E+00; -4.9363980E+00;0;  1.7567487E+00;  2.2415113E+04;  0.0000000E+00; -1.1899943E-01;  4.0000000E+04;  0.0000000E+00;  3.8765090E+04;  1.9127367E+00;  0.0000000E+00; -1.5598798E-01;  2.4507234E+03;
  1.6614156E+00;  9.9999998E-03; -7.1256183E-02;9394;  1.3876915E+00;  0.0000000E+00;  8.1462068E-03;  9.9929694E+02;  1.3553649E-01; -5.6262555E+02;3; -3.2800636E+01;  0.0000000E+00;  5.7710476E+00;0;  1.8066616E+00;  2.2410037E+04;  0.0000000E+00; -1.3311324E-01;  4.0000000E+04;  0.0000000E+00;  3.8769141E+04;  1.9662968E+00;  0.0000000E+00; -1.5963525E-01;  2.0957634E+03;
  1.6614201E+00;  9.9999998E-03; -9.1649242E-02;9392;  1.3792354E+00;  0.0000000E+00;  1.0976183E-02;  9.9944409E+02;  1.3551895E-01; -4.4490015E+02;3; -3.7361496E+01;  0.0000000E+00;  7.4603095E+00;0;  1.9231020E+00;  2.2419512E+04;  0.0000000E+00; -1.2696403E-01;  4.0000000E+04;  0.0000000E+00;  3.8769582E+04;  2.0915992E+00;  0.0000000E+00; -1.6849719E-01;  2.0610518E+03;
  1.6614703E+00;  9.9999998E-03; -1.0180384E-01;9391;  1.3752891E+00;  0.0000000E+00;  1.2500549E-02;  9.9968121E+02;  1.3550739E-01; -2.5509457E+02;3; -3.9488033E+01;  0.0000000E+00;  8.3069849E+00;0;  1.9888276E+00;  2.2434375E+04;  0.0000000E+00; -5.5159897E-02;  4.0000000E+04;  0.0000000E+00;  3.8764938E+04;  2.1630886E+00;  0.0000000E+00; -1.7426093E-01;  2.4949480E+03;
  1.6617087E+00;  9.9999998E-03; -4.0666163E-02;9397;  1.3996620E+00;  0.0000000E+00;  4.3870010E-03;  9.9970789E+02;  1.3553679E-01; -2.3374561E+02;3; -2.5815142E+01;  0.0000000E+00;  3.3132100E+00;0;  1.6770413E+00;  2.2436512E+04;  0.0000000E+00; -7.5116023E-02;  4.0000000E+04;  0.0000000E+00;  3.8753391E+04;  1.8269298E+00;  0.0000000E+00; -1.4988852E-01;  3.4644111E+03;
  1.6617087E+00;  9.9999998E-03;  4.0666401E-02;9405;  1.3996620E+00;  0.0000000E+00; -4.3857242E-03;  9.9970764E+02;  1.3553716E-01; -2.3393637E+02;3; -2.5815176E+01;  0.0000000E+00; -3.3132486E+00;0;  1.6770415E+00;  2.2436506E+04;  0.0000000E+00; -7.5110316E-02;  4.0000000E+04;  0.0000000E+00;  3.8753391E+04;  1.8269300E+00;  0.0000000E+00; -1.4988846E-01;  3.4644041E+03;
  1.6618240E+00;  9.9999998E-03; -3.0488903E-02;9398;  1.4025422E+00;  0.0000000E+00;  3.2491232E-03;  9.9988446E+02;  1.3553259E-01; -9.2424637E+01;3; -2.3953423E+01;  0.0000000E+00;  2.4963880E+00;0;  1.6484461E+00;  2.2448104E+04;  0.0000000E+00; -4.7482133E-02;  4.0000000E+04;  0.0000000E+00;  3.8747891E+04;  1.7959661E+00;  0.0000000E+00; -1.4752011E-01;  3.9705955E+03;
  1.6618240E+00;  9.9999998E-03;  3.0489141E-02;9404;  1.4025421E+00;  0.0000000E+00; -3.2478429E-03;  9.9988446E+02;  1.3553259E-01; -9.2424637E+01;3; -2.3953379E+01;  0.0000000E+00; -2.4964085E+00;0;  1.6484472E+00;  2.2448104E+04;  0.0000000E+00; -4.7477201E-02;  4.0000000E+04;  0.0000000E+00;  3.8747898E+04;  1.7959671E+00;  0.0000000E+00; -1.4751999E-01;  3.9705930E+03;
  1.6619701E+00;  9.9999998E-03; -1.0159215E-02;9400;  1.4058930E+00;  0.0000000E+00;  1.0739807E-03;  1.0001339E+03;  1.3552882E-01;  1.0710562E+02;3; -2.1673168E+01;  0.0000000E+00;  8.3042228E-01;0;  1.6157765E+00;  2.2463875E+04;  0.0000000E+00; -5.9569092E-03;  4.0000000E+04;  0.0000000E+00;  3.8739945E+04;  1.7604207E+00;  0.0000000E+00; -1.4464411E-01;  4.6603018E+03;
  1.6619874E+00;  9.9999998E-03;  1.1885930E-07;9401;  1.4063094E+00;  0.0000000E+00;  6.3946305E-07;  1.0001666E+03;  1.3552819E-01;  1.3333247E+02;3; -2.1356300E+01;  0.0000000E+00; -5.2034447E-06;0;  1.6117690E+00;  2.2465809E+04;  0.0000000E+00; -7.6560702E-11;  4.0000000E+04;  0.0000000E+00;  3.8739129E+04;  1.7560472E+00;  0.0000000E+00; -1.4427826E-01;  4.7557383E+03;
  1.6619701E+00;  9.9999998E-03;  1.0159453E-02;9402;  1.4058928E+00;  0.0000000E+00; -1.0727023E-03;  1.0001340E+03;  1.3552922E-01;  1.0720100E+02;3; -2.1673185E+01;  0.0000000E+00; -8.3044386E-01;0;  1.6157782E+00;  2.2463875E+04;  0.0000000E+00; -5.9550670E-03;  4.0000000E+04;  0.0000000E+00;  3.8739941E+04;  1.7604225E+00;  0.0000000E+00; -1.4464432E-01;  4.6602905E+03;
  1.6619151E+00;  9.9999998E-03; -2.0320836E-02;9399;  1.4046363E+00;  0.0000000E+00;  2.1471747E-03;  1.0000291E+03;  1.3552891E-01;  2.3272026E+01;3; -2.2552652E+01;  0.0000000E+00;  1.6723949E+00;0;  1.6279687E+00;  2.2457643E+04;  0.0000000E+00; -2.2807106E-02;  4.0000000E+04;  0.0000000E+00;  3.8743203E+04;  1.7737088E+00;  0.0000000E+00; -1.4574015E-01;  4.3867222E+03;
  1.6619151E+00;  9.9999998E-03;  2.0321075E-02;9403;  1.4046363E+00;  0.0000000E+00; -2.1458936E-03;  1.0000291E+03;  1.3552928E-01;  2.3272026E+01;3; -2.2552673E+01;  0.0000000E+00; -1.6724123E+00;0;  1.6279701E+00;  2.2457648E+04;  0.0000000E+00; -2.2804374E-02;  4.0000000E+04;  0.0000000E+00;  3.8743203E+04;  1.7737105E+00;  0.0000000E+00; -1.4574035E-01;  4.3867354E+03;
  1.6746285E+00;  9.9999998E-03;  1.1893828E-07;9455;  1.4145906E+00;  0.0000000E+00;  6.4248962E-07;  9.9993719E+02;  1.3282782E-01; -4.9919830E+01;3; -1.0220876E+01;  0.0000000E+00; -1.1417404E-05;0;  1.2322084E+00;  2.3423443E+04;  0.0000000E+00; -4.6846228E-11;  4.0000000E+04;  0.0000000E+00;  3.8671660E+04;  1.3230647E+00;  0.0000000E+00; -9.0856366E-02;  3.7515020E+03;
  1.6746217E+00;  9.9999998E-03; -1.0167724E-02;9454;  1.4142797E+00;  0.0000000E+00;  5.3687644E-04;  9.9991302E+02;  1.3282688E-01; -6.9101830E+01;3; -1.0519627E+01;  0.0000000E+00;  5.6716299E-01;0;  1.2364686E+00;  2.3422057E+04;  0.0000000E+00; -4.8917057E-03;  4.0000000E+04;  0.0000000E+00;  3.8672480E+04;  1.3276339E+00;  0.0000000E+00; -9.1165341E-02;  3.6656184E+03;
  1.6746217E+00;  9.9999998E-03;  1.0167963E-02;9456;  1.4142797E+00;  0.0000000E+00; -5.3558801E-04;  9.9991309E+02;  1.3282722E-01; -6.9054466E+01;3; -1.0519620E+01;  0.0000000E+00; -5.6716627E-01;0;  1.2364687E+00;  2.3422057E+04;  0.0000000E+00; -4.8907814E-03;  4.0000000E+04;  0.0000000E+00;  3.8672480E+04;  1.3276340E+00;  0.0000000E+00; -9.1165341E-02;  3.6656233E+03;
  1.6744885E+00;  9.9999998E-03; -4.0702399E-02;9451;  1.4097699E+00;  0.0000000E+00;  2.2827333E-03;  9.9964050E+02;  1.3281643E-01; -2.8566528E+02;3; -1.4701995E+01;  0.0000000E+00;  2.3555112E+00;0;  1.3020719E+00;  2.3406562E+04;  0.0000000E+00; -7.4198999E-02;  4.0000000E+04;  0.0000000E+00;  3.8683984E+04;  1.3977801E+00;  0.0000000E+00; -9.5708087E-02;  2.6866978E+03;
  1.6744885E+00;  9.9999998E-03;  4.0702637E-02;9459;  1.4097699E+00;  0.0000000E+00; -2.2814483E-03;  9.9964050E+02;  1.3281643E-01; -2.8566528E+02;3; -1.4701959E+01;  0.0000000E+00; -2.3555281E+00;0;  1.3020716E+00;  2.3406555E+04;  0.0000000E+00; -7.4193075E-02;  4.0000000E+04;  0.0000000E+00;  3.8683984E+04;  1.3977796E+00;  0.0000000E+00; -9.5707953E-02;  2.6866990E+03;
  1.6745938E+00;  9.9999998E-03; -2.0338777E-02;9453;  1.4133461E+00;  0.0000000E+00;  1.0845249E-03;  9.9984741E+02;  1.3282397E-01; -1.2124988E+02;3; -1.1400540E+01;  0.0000000E+00;  1.0702970E+00;0;  1.2495121E+00;  2.3418367E+04;  0.0000000E+00; -1.9428663E-02;  4.0000000E+04;  0.0000000E+00;  3.8675453E+04;  1.3416197E+00;  0.0000000E+00; -9.2107654E-02;  3.4252820E+03;
  1.6745938E+00;  9.9999998E-03;  2.0339016E-02;9457;  1.4133461E+00;  0.0000000E+00; -1.0832387E-03;  9.9984753E+02;  1.3282403E-01; -1.2115516E+02;3; -1.1400515E+01;  0.0000000E+00; -1.0703124E+00;0;  1.2495130E+00;  2.3418367E+04;  0.0000000E+00; -1.9426463E-02;  4.0000000E+04;  0.0000000E+00;  3.8675449E+04;  1.3416207E+00;  0.0000000E+00; -9.2107661E-02;  3.4252908E+03;
  1.6745453E+00;  9.9999998E-03; -3.0516304E-02;9452;  1.4118154E+00;  0.0000000E+00;  1.6675016E-03;  9.9974402E+02;  1.3282056E-01; -2.0343086E+02;3; -1.2846347E+01;  0.0000000E+00;  1.6654625E+00;0;  1.2714409E+00;  2.3412658E+04;  0.0000000E+00; -4.3017503E-02;  4.0000000E+04;  0.0000000E+00;  3.8679371E+04;  1.3650879E+00;  0.0000000E+00; -9.3647033E-02;  3.0765232E+03;
  1.6745453E+00;  9.9999998E-03;  3.0516542E-02;9458;  1.4118155E+00;  0.0000000E+00; -1.6662134E-03;  9.9974414E+02;  1.3282062E-01; -2.0333614E+02;3; -1.2846328E+01;  0.0000000E+00; -1.6654692E+00;0;  1.2714399E+00;  2.3412662E+04;  0.0000000E+00; -4.3014355E-02;  4.0000000E+04;  0.0000000E+00;  3.8679371E+04;  1.3650870E+00;  0.0000000E+00; -9.3647130E-02;  3.0765002E+03;
  1.6744435E+00;  9.9999998E-03; -5.0897289E-02;9450;  1.4073344E+00;  0.0000000E+00;  2.9303944E-03;  9.9956116E+02;  1.3281119E-01; -3.4876620E+02;3; -1.6824398E+01;  0.0000000E+00;  3.0917850E+00;0;  1.3409528E+00;  2.3402463E+04;  0.0000000E+00; -1.1102344E-01;  4.0000000E+04;  0.0000000E+00;  3.8687809E+04;  1.4391754E+00;  0.0000000E+00; -9.8222665E-02;  2.3366013E+03;
  1.6744434E+00;  9.9999998E-03;  5.0897531E-02;9460;  1.4073343E+00;  0.0000000E+00; -2.9291133E-03;  9.9956116E+02;  1.3281088E-01; -3.4876620E+02;3; -1.6824364E+01;  0.0000000E+00; -3.0918186E+00;0;  1.3409545E+00;  2.3402467E+04;  0.0000000E+00; -1.1101754E-01;  4.0000000E+04;  0.0000000E+00;  3.8687809E+04;  1.4391772E+00;  0.0000000E+00; -9.8222598E-02;  2.3365793E+03;
  1.6744292E+00;  9.9999998E-03; -6.1098598E-02;9449;  1.4047072E+00;  0.0000000E+00;  3.6113132E-03;  9.9954126E+02;  1.3280243E-01; -3.6454257E+02;3; -1.9052614E+01;  0.0000000E+00;  3.8843107E+00;0;  1.3875110E+00;  2.3402219E+04;  0.0000000E+00; -1.5257880E-01;  4.0000000E+04;  0.0000000E+00;  3.8690695E+04;  1.4886975E+00;  0.0000000E+00; -1.0118654E-01;  2.1117795E+03;
  1.6744292E+00;  9.9999998E-03;  6.1098836E-02;9461;  1.4047072E+00;  0.0000000E+00; -3.6100298E-03;  9.9954132E+02;  1.3280226E-01; -3.6449518E+02;3; -1.9052574E+01;  0.0000000E+00; -3.8843377E+00;0;  1.3875115E+00;  2.3402225E+04;  0.0000000E+00; -1.5257305E-01;  4.0000000E+04;  0.0000000E+00;  3.8690695E+04;  1.4886980E+00;  0.0000000E+00; -1.0118655E-01;  2.1117605E+03;
  1.6744608E+00;  9.9999998E-03; -7.1298964E-02;9448;  1.4020989E+00;  0.0000000E+00;  4.3356051E-03;  9.9959906E+02;  1.3279110E-01; -3.1863730E+02;3; -2.1226654E+01;  0.0000000E+00;  4.6274457E+00;0;  1.4410545E+00;  2.3407963E+04;  0.0000000E+00; -1.9294058E-01;  4.0000000E+04;  0.0000000E+00;  3.8691141E+04;  1.5457414E+00;  0.0000000E+00; -1.0468702E-01;  2.0899438E+03;
  1.6747086E+00;  9.9999998E-03; -1.0174705E-01;9445;  1.3952792E+00;  0.0000000E+00;  6.8780612E-03;  1.0003051E+03;  1.3275094E-01;  2.4238869E+02;3; -2.7105261E+01;  0.0000000E+00;  7.3627796E+00;0;  1.6399239E+00;  2.3461074E+04;  0.0000000E+00;  5.5453014E-03;  4.0000000E+04;  0.0000000E+00;  3.8671441E+04;  1.7617562E+00;  0.0000000E+00; -1.2183222E-01;  3.7905645E+03;
  1.6745368E+00;  9.9999998E-03; -8.1484906E-02;9447;  1.3996722E+00;  0.0000000E+00;  5.1264786E-03;  9.9974805E+02;  1.3277459E-01; -2.0021107E+02;3; -2.3239799E+01;  0.0000000E+00;  5.5361905E+00;0;  1.5010432E+00;  2.3420541E+04;  0.0000000E+00; -2.1373941E-01;  4.0000000E+04;  0.0000000E+00;  3.8688234E+04;  1.6100181E+00;  0.0000000E+00; -1.0897494E-01;  2.3351821E+03;
  1.6746337E+00;  9.9999998E-03; -9.1639422E-02;9446;  1.3974596E+00;  0.0000000E+00;  5.9739701E-03;  9.9999371E+02;  1.3276121E-01; -4.9730229E+00;3; -2.5134630E+01;  0.0000000E+00;  6.4376965E+00;0;  1.5672706E+00;  2.3439029E+04;  0.0000000E+00; -1.7315814E-01;  4.0000000E+04;  0.0000000E+00;  3.8681625E+04;  1.6817631E+00;  0.0000000E+00; -1.1449240E-01;  2.8937544E+03;
  1.6871021E+00;  9.9999998E-03;  1.1928287E-07;9508;  1.4183664E+00;  0.0000000E+00;  6.4441230E-07;  9.9965039E+02;  1.3052396E-01; -2.7558148E+02;3; -3.1125100E+00;  0.0000000E+00;  1.8936291E-05;0;  9.2781812E-01;  2.4296645E+04;  0.0000000E+00; -2.8937679E-11;  4.0000000E+04;  0.0000000E+00;  3.8592891E+04;  9.7103137E-01;  0.0000000E+00; -4.3213263E-02;  2.7774836E+03;
  1.6871073E+00;  9.9999998E-03; -1.0178987E-02;9507;  1.4181914E+00;  0.0000000E+00;  6.4497341E-05;  9.9964221E+02;  1.3052043E-01; -2.8206473E+02;3; -3.3889103E+00;  0.0000000E+00;  7.7688271E-01;0;  9.3222141E-01;  2.4296621E+04;  0.0000000E+00; -4.4032563E-03;  4.0000000E+04;  0.0000000E+00;  3.8593582E+04;  9.7563696E-01;  0.0000000E+00; -4.3415524E-02;  2.7158464E+03;
  1.6871073E+00;  9.9999998E-03;  1.0179225E-02;9509;  1.4181913E+00;  0.0000000E+00; -6.3210478E-05;  9.9964221E+02;  1.3052043E-01; -2.8206473E+02;3; -3.3888876E+00;  0.0000000E+00; -7.7682835E-01;0;  9.3222088E-01;  2.4296615E+04;  0.0000000E+00; -4.4030463E-03;  4.0000000E+04;  0.0000000E+00;  3.8593578E+04;  9.7563642E-01;  0.0000000E+00; -4.3415565E-02;  2.7158547E+03;
  1.6871135E+00;  9.9999998E-03; -2.0357810E-02;9506;  1.4176642E+00;  0.0000000E+00;  1.3567787E-04;  9.9961829E+02;  1.3051447E-01; -3.0090536E+02;3; -4.1981330E+00;  0.0000000E+00;  1.5360025E+00;0;  9.4566649E-01;  2.4296480E+04;  0.0000000E+00; -1.9103371E-02;  4.0000000E+04;  0.0000000E+00;  3.8595707E+04;  9.8970956E-01;  0.0000000E+00; -4.4043053E-02;  2.5510854E+03;
  1.6871135E+00;  9.9999998E-03;  2.0358048E-02;9510;  1.4176642E+00;  0.0000000E+00; -1.3438669E-04;  9.9961816E+02;  1.3051443E-01; -3.0099933E+02;3; -4.1981363E+00;  0.0000000E+00; -1.5359960E+00;0;  9.4566661E-01;  2.4296477E+04;  0.0000000E+00; -1.9102752E-02;  4.0000000E+04;  0.0000000E+00;  3.8595703E+04;  9.8970968E-01;  0.0000000E+00; -4.4043086E-02;  2.5510981E+03;
  1.6871195E+00;  9.9999998E-03; -3.0539691E-02;9505;  1.4168190E+00;  0.0000000E+00;  2.1605684E-04;  9.9959631E+02;  1.3050701E-01; -3.1824228E+02;3; -5.4511061E+00;  0.0000000E+00;  2.2851577E+00;0;  9.6826154E-01;  2.4296164E+04;  0.0000000E+00; -4.7617856E-02;  4.0000000E+04;  0.0000000E+00;  3.8598039E+04;  1.0133368E+00;  0.0000000E+00; -4.5075249E-02;  2.3362542E+03;
  1.6871195E+00;  9.9999998E-03;  3.0539930E-02;9511;  1.4168190E+00;  0.0000000E+00; -2.1475824E-04;  9.9959637E+02;  1.3050675E-01; -3.1819531E+02;3; -5.4510803E+00;  0.0000000E+00; -2.2852032E+00;0;  9.6826148E-01;  2.4296172E+04;  0.0000000E+00; -4.7614705E-02;  4.0000000E+04;  0.0000000E+00;  3.8598043E+04;  1.0133367E+00;  0.0000000E+00; -4.5075160E-02;  2.3362712E+03;
  1.6871396E+00;  9.9999998E-03; -4.0728211E-02;9504;  1.4157439E+00;  0.0000000E+00;  3.1700634E-04;  9.9958746E+02;  1.3049597E-01; -3.2519186E+02;3; -7.0045195E+00;  0.0000000E+00;  2.9620218E+00;0;  9.9976945E-01;  2.4297914E+04;  0.0000000E+00; -9.3751803E-02;  4.0000000E+04;  0.0000000E+00;  3.8600461E+04;  1.0462283E+00;  0.0000000E+00; -4.6458852E-02;  2.1460825E+03;
  1.6871396E+00;  9.9999998E-03;  4.0728454E-02;9512;  1.4157439E+00;  0.0000000E+00; -3.1570590E-04;  9.9958746E+02;  1.3049597E-01; -3.2519186E+02;3; -7.0044942E+00;  0.0000000E+00; -2.9620881E+00;0;  9.9977136E-01;  2.4297912E+04;  0.0000000E+00; -9.3745008E-02;  4.0000000E+04;  0.0000000E+00;  3.8600465E+04;  1.0462301E+00;  0.0000000E+00; -4.6458725E-02;  2.1460813E+03;
  1.6871915E+00;  9.9999998E-03; -5.0921958E-02;9503;  1.4145675E+00;  0.0000000E+00;  4.4525394E-04;  9.9963153E+02;  1.3048366E-01; -2.9045859E+02;3; -8.6752548E+00;  0.0000000E+00;  3.6340106E+00;0;  1.0397801E+00;  2.4303508E+04;  0.0000000E+00; -1.5970136E-01;  4.0000000E+04;  0.0000000E+00;  3.8601309E+04;  1.0879697E+00;  0.0000000E+00; -4.8189569E-02;  2.0654128E+03;
  1.6871915E+00;  9.9999998E-03;  5.0922200E-02;9513;  1.4145675E+00;  0.0000000E+00; -4.4395504E-04;  9.9963184E+02;  1.3048333E-01; -2.9022366E+02;3; -8.6751776E+00;  0.0000000E+00; -3.6341028E+00;0;  1.0397778E+00;  2.4303510E+04;  0.0000000E+00; -1.5969107E-01;  4.0000000E+04;  0.0000000E+00;  3.8601305E+04;  1.0879672E+00;  0.0000000E+00; -4.8189446E-02;  2.0654192E+03;
  1.6872836E+00;  9.9999998E-03; -6.1115459E-02;9502;  1.4134235E+00;  0.0000000E+00;  5.8164611E-04;  9.9973077E+02;  1.3046649E-01; -2.1221579E+02;3; -1.0380434E+01;  0.0000000E+00;  4.3039122E+00;0;  1.0878611E+00;  2.4314117E+04;  0.0000000E+00; -2.4108517E-01;  4.0000000E+04;  0.0000000E+00;  3.8599938E+04;  1.1382556E+00;  0.0000000E+00; -5.0394498E-02;  2.1717532E+03;
  1.6872836E+00;  9.9999998E-03;  6.1115697E-02;9514;  1.4134235E+00;  0.0000000E+00; -5.8034208E-04;  9.9973083E+02;  1.3046658E-01; -2.1216881E+02;3; -1.0380378E+01;  0.0000000E+00; -4.3039861E+00;0;  1.0878605E+00;  2.4314111E+04;  0.0000000E+00; -2.4107707E-01;  4.0000000E+04;  0.0000000E+00;  3.8599934E+04;  1.1382549E+00;  0.0000000E+00; -5.0394472E-02;  2.1717495E+03;
  1.6874171E+00;  9.9999998E-03; -7.1296811E-02;9501;  1.4124432E+00;  0.0000000E+00;  7.2636618E-04;  9.9991156E+02;  1.3044839E-01; -6.9714226E+01;3; -1.2022179E+01;  0.0000000E+00;  4.9162765E+00;0;  1.1434605E+00;  2.4330666E+04;  0.0000000E+00; -3.1707734E-01;  4.0000000E+04;  0.0000000E+00;  3.8595531E+04;  1.1968279E+00;  0.0000000E+00; -5.3367410E-02;  2.5235352E+03;
  1.6875668E+00;  9.9999998E-03; -8.1450604E-02;9500;  1.4116476E+00;  0.0000000E+00;  9.0445240E-04;  1.0001678E+03;  1.3043408E-01;  1.3218025E+02;3; -1.3541634E+01;  0.0000000E+00;  5.6042724E+00;0;  1.2062712E+00;  2.4352312E+04;  0.0000000E+00; -3.3651942E-01;  4.0000000E+04;  0.0000000E+00;  3.8587656E+04;  1.2638942E+00;  0.0000000E+00; -5.7623081E-02;  3.1585063E+03;
  1.6877291E+00;  9.9999998E-03; -1.0162350E-01;9498;  1.4100269E+00;  0.0000000E+00;  1.5450278E-03;  1.0007430E+03;  1.3041730E-01;  5.8549158E+02;3; -1.6757338E+01;  0.0000000E+00;  6.7668567E+00;0;  1.3536174E+00;  2.4399637E+04;  0.0000000E+00;  2.3536317E-01;  4.0000000E+04;  0.0000000E+00;  3.8561961E+04;  1.4262829E+00;  0.0000000E+00; -7.2665423E-02;  5.3226650E+03;
  1.6876831E+00;  9.9999998E-03; -9.1563113E-02;9499;  1.4109181E+00;  0.0000000E+00;  1.1612781E-03;  1.0004567E+03;  1.3042147E-01;  3.5987323E+02;3; -1.5057755E+01;  0.0000000E+00;  6.2273602E+00;0;  1.2763519E+00;  2.4376500E+04;  0.0000000E+00; -2.0363984E-01;  4.0000000E+04;  0.0000000E+00;  3.8575832E+04;  1.3401988E+00;  0.0000000E+00; -6.3846879E-02;  4.0912029E+03;
  1.6994885E+00;  9.9999998E-03;  1.1955096E-07;9560;  1.4202161E+00;  0.0000000E+00;  6.4372227E-07;  9.9939447E+02;  1.2855785E-01; -4.7295346E+02;3;  1.3742820E+00;  0.0000000E+00;  5.3951517E-06;0;  6.9450778E-01;  2.5096023E+04;  0.0000000E+00; -1.4650441E-11;  4.0000000E+04;  0.0000000E+00;  3.8498461E+04;  6.9597596E-01;  0.0000000E+00; -1.4682071E-03;  2.1191604E+03;
  1.6995102E+00;  9.9999998E-03; -1.0193795E-02;9559;  1.4201642E+00;  0.0000000E+00; -9.5936033E-04;  9.9940466E+02;  1.2855382E-01; -4.6498447E+02;3;  1.2153200E+00;  0.0000000E+00;  3.0436125E-01;0;  6.9894642E-01;  2.5097500E+04;  0.0000000E+00; -9.7711626E-03;  4.0000000E+04;  0.0000000E+00;  3.8498758E+04;  7.0044953E-01;  0.0000000E+00; -1.5031187E-03;  2.0891895E+03;
  1.6995102E+00;  9.9999998E-03;  1.0194034E-02;9561;  1.4201642E+00;  0.0000000E+00;  9.6064771E-04;  9.9940460E+02;  1.2855348E-01; -4.6503104E+02;3;  1.2153279E+00;  0.0000000E+00; -3.0436447E-01;0;  6.9894725E-01;  2.5097496E+04;  0.0000000E+00; -9.7711580E-03;  4.0000000E+04;  0.0000000E+00;  3.8498758E+04;  7.0045036E-01;  0.0000000E+00; -1.5031021E-03;  2.0891873E+03;
  1.6995654E+00;  9.9999998E-03; -2.0382358E-02;9558;  1.4200239E+00;  0.0000000E+00; -1.6582080E-03;  9.9943463E+02;  1.2854469E-01; -4.4154797E+02;3;  7.6152796E-01;  0.0000000E+00;  8.5954124E-01;0;  7.1243858E-01;  2.5101535E+04;  0.0000000E+00; -4.1891892E-02;  4.0000000E+04;  0.0000000E+00;  3.8499492E+04;  7.1406502E-01;  0.0000000E+00; -1.6264206E-03;  2.0207180E+03;
  1.6995654E+00;  9.9999998E-03;  2.0382596E-02;9562;  1.4200239E+00;  0.0000000E+00;  1.6595109E-03;  9.9943475E+02;  1.2854473E-01; -4.4145486E+02;3;  7.6155788E-01;  0.0000000E+00; -8.5957390E-01;0;  7.1243787E-01;  2.5101535E+04;  0.0000000E+00; -4.1890781E-02;  4.0000000E+04;  0.0000000E+00;  3.8499492E+04;  7.1406424E-01;  0.0000000E+00; -1.6263794E-03;  2.0207209E+03;
  1.6996472E+00;  9.9999998E-03; -3.0568048E-02;9557;  1.4198376E+00;  0.0000000E+00; -2.1666395E-03;  9.9951080E+02;  1.2853488E-01; -3.8202905E+02;3;  2.5571236E-02;  0.0000000E+00;  1.3824967E+00;0;  7.3513448E-01;  2.5108322E+04;  0.0000000E+00; -1.0333824E-01;  4.0000000E+04;  0.0000000E+00;  3.8500039E+04;  7.3698288E-01;  0.0000000E+00; -1.8483980E-03;  1.9695750E+03;
  1.6996472E+00;  9.9999998E-03;  3.0568289E-02;9563;  1.4198376E+00;  0.0000000E+00;  2.1679497E-03;  9.9951074E+02;  1.2853463E-01; -3.8207559E+02;3;  2.5595704E-02;  0.0000000E+00; -1.3824949E+00;0;  7.3513460E-01;  2.5108316E+04;  0.0000000E+00; -1.0333690E-01;  4.0000000E+04;  0.0000000E+00;  3.8500043E+04;  7.3698294E-01;  0.0000000E+00; -1.8483241E-03;  1.9695717E+03;
  1.6997658E+00;  9.9999998E-03; -4.0753569E-02;9556;  1.4196450E+00;  0.0000000E+00; -2.6088520E-03;  9.9961682E+02;  1.2851928E-01; -2.9923596E+02;3; -8.9479631E-01;  0.0000000E+00;  1.8507202E+00;0;  7.6685083E-01;  2.5118898E+04;  0.0000000E+00; -1.9985315E-01;  4.0000000E+04;  0.0000000E+00;  3.8499402E+04;  7.6902312E-01;  0.0000000E+00; -2.1722759E-03;  2.0101633E+03;
  1.6997658E+00;  9.9999998E-03;  4.0753812E-02;9564;  1.4196450E+00;  0.0000000E+00;  2.6101749E-03;  9.9961688E+02;  1.2851913E-01; -2.9918942E+02;3; -8.9475214E-01;  0.0000000E+00; -1.8507472E+00;0;  7.6684976E-01;  2.5118896E+04;  0.0000000E+00; -1.9985114E-01;  4.0000000E+04;  0.0000000E+00;  3.8499406E+04;  7.6902199E-01;  0.0000000E+00; -2.1722328E-03;  2.0101649E+03;
  1.6999270E+00;  9.9999998E-03; -5.0937526E-02;9555;  1.4195422E+00;  0.0000000E+00; -3.0131030E-03;  9.9977307E+02;  1.2850155E-01; -1.7717261E+02;3; -1.8630815E+00;  0.0000000E+00;  2.3360910E+00;0;  8.0731273E-01;  2.5134619E+04;  0.0000000E+00; -3.3025703E-01;  4.0000000E+04;  0.0000000E+00;  3.8496652E+04;  8.1003183E-01;  0.0000000E+00; -2.7191287E-03;  2.2157578E+03;
  1.6999270E+00;  9.9999998E-03;  5.0937768E-02;9565;  1.4195423E+00;  0.0000000E+00;  3.0144299E-03;  9.9977307E+02;  1.2850098E-01; -1.7717261E+02;3; -1.8630366E+00;  0.0000000E+00; -2.3361311E+00;0;  8.0731165E-01;  2.5134619E+04;  0.0000000E+00; -3.3025390E-01;  4.0000000E+04;  0.0000000E+00;  3.8496652E+04;  8.1003076E-01;  0.0000000E+00; -2.7190768E-03;  2.2157683E+03;
  1.7001259E+00;  9.9999998E-03; -6.1111715E-02;9554;  1.4196156E+00;  0.0000000E+00; -3.3871611E-03;  9.9998322E+02;  1.2848136E-01; -1.3121779E+01;3; -2.7957795E+00;  0.0000000E+00;  2.8593590E+00;0;  8.5611480E-01;  2.5155123E+04;  0.0000000E+00; -4.7403148E-01;  4.0000000E+04;  0.0000000E+00;  3.8490926E+04;  8.5992026E-01;  0.0000000E+00; -3.8054648E-03;  2.6376714E+03;
  1.7001259E+00;  9.9999998E-03;  6.1111957E-02;9566;  1.4196157E+00;  0.0000000E+00;  3.3885068E-03;  9.9998322E+02;  1.2848136E-01; -1.3121779E+01;3; -2.7957463E+00;  0.0000000E+00; -2.8593926E+00;0;  8.5611403E-01;  2.5155115E+04;  0.0000000E+00; -4.7403663E-01;  4.0000000E+04;  0.0000000E+00;  3.8490918E+04;  8.5991949E-01;  0.0000000E+00; -3.8054718E-03;  2.6376621E+03;
  1.7003306E+00;  9.9999998E-03; -7.1263269E-02;9553;  1.4198874E+00;  0.0000000E+00; -3.7063633E-03;  1.0002452E+03;  1.2846349E-01;  1.9139723E+02;3; -3.7364223E+00;  0.0000000E+00;  3.4085405E+00;0;  9.1296697E-01;  2.5179586E+04;  0.0000000E+00; -5.7036918E-01;  4.0000000E+04;  0.0000000E+00;  3.8481863E+04;  9.1897023E-01;  0.0000000E+00; -6.0032886E-03;  3.3002327E+03;
  1.7004946E+00;  9.9999998E-03; -8.1379086E-02;9552;  1.4202771E+00;  0.0000000E+00; -3.9179162E-03;  1.0005230E+03;  1.2844969E-01;  4.0814169E+02;3; -4.7633638E+00;  0.0000000E+00;  4.0486193E+00;0;  9.7759742E-01;  2.5205127E+04;  0.0000000E+00; -5.0056326E-01;  4.0000000E+04;  0.0000000E+00;  3.8469562E+04;  9.8764998E-01;  0.0000000E+00; -1.0052571E-02;  4.2022285E+03;
  1.7005576E+00;  9.9999998E-03; -1.0147040E-01;9550;  1.4206103E+00;  0.0000000E+00; -3.7308182E-03;  1.0009255E+03;  1.2844440E-01;  7.2228168E+02;3; -7.6214809E+00;  0.0000000E+00;  5.2275100E+00;0;  1.1288240E+00;  2.5245348E+04;  0.0000000E+00;  9.6803296E-01;  4.0000000E+04;  0.0000000E+00;  3.8441473E+04;  1.1554050E+00;  0.0000000E+00; -2.6580999E-02;  6.7606235E+03;
  1.7005831E+00;  9.9999998E-03; -9.1445990E-02;9551;  1.4205997E+00;  0.0000000E+00; -3.9389287E-03;  1.0007563E+03;  1.2844211E-01;  5.9016730E+02;3; -5.9876108E+00;  0.0000000E+00;  4.7416964E+00;0;  1.0495605E+00;  2.5228498E+04;  0.0000000E+00; -7.6000325E-02;  4.0000000E+04;  0.0000000E+00;  3.8455367E+04;  1.0662428E+00;  0.0000000E+00; -1.6682319E-02;  5.3365239E+03;
  1.7118485E+00;  9.9999998E-03;  1.2052539E-07;9610;  1.4211507E+00;  0.0000000E+00;  6.4538926E-07;  9.9927112E+02;  1.2689161E-01; -5.6323828E+02;3;  4.4467192E+00;  0.0000000E+00;  1.3803481E-05;0;  5.2427191E-01;  2.5830051E+04;  0.0000000E+00; -1.0385896E-11;  4.0000000E+04;  0.0000000E+00;  3.8384883E+04;  4.9006891E-01;  0.0000000E+00;  3.4203019E-02;  1.9139962E+03;
  1.7118906E+00;  9.9999998E-03; -1.0219994E-02;9609;  1.4211642E+00;  0.0000000E+00; -1.6022322E-03;  9.9930261E+02;  1.2688862E-01; -5.3885254E+02;3;  4.3435259E+00;  0.0000000E+00; -5.1718760E-01;0;  5.2874959E-01;  2.5833023E+04;  0.0000000E+00; -2.8115455E-02;  4.0000000E+04;  0.0000000E+00;  3.8384809E+04;  4.9435607E-01;  0.0000000E+00;  3.4393519E-02;  1.9154950E+03;
  1.7118906E+00;  9.9999998E-03;  1.0220235E-02;9611;  1.4211642E+00;  0.0000000E+00;  1.6035299E-03;  9.9930249E+02;  1.2688887E-01; -5.3894470E+02;3;  4.3435197E+00;  0.0000000E+00;  5.1721352E-01;0;  5.2874959E-01;  2.5833029E+04;  0.0000000E+00; -2.8116649E-02;  4.0000000E+04;  0.0000000E+00;  3.8384801E+04;  4.9435601E-01;  0.0000000E+00;  3.4393605E-02;  1.9154995E+03;
  1.7120017E+00;  9.9999998E-03; -2.0424165E-02;9608;  1.4212438E+00;  0.0000000E+00; -2.9848334E-03;  9.9938257E+02;  1.2687711E-01; -4.7704218E+02;3;  4.1018324E+00;  0.0000000E+00; -7.3794937E-01;0;  5.4233855E-01;  2.5841607E+04;  0.0000000E+00; -1.1427647E-01;  4.0000000E+04;  0.0000000E+00;  3.8384148E+04;  5.0740629E-01;  0.0000000E+00;  3.4932230E-02;  1.9426064E+03;
  1.7120017E+00;  9.9999998E-03;  2.0424405E-02;9612;  1.4212438E+00;  0.0000000E+00;  2.9861312E-03;  9.9938251E+02;  1.2687701E-01; -4.7708823E+02;3;  4.1018271E+00;  0.0000000E+00;  7.3796701E-01;0;  5.4233861E-01;  2.5841609E+04;  0.0000000E+00; -1.1427854E-01;  4.0000000E+04;  0.0000000E+00;  3.8384148E+04;  5.0740629E-01;  0.0000000E+00;  3.4932293E-02;  1.9426158E+03;
  1.7121693E+00;  9.9999998E-03; -3.0612817E-02;9607;  1.4214804E+00;  0.0000000E+00; -4.0435190E-03;  9.9952496E+02;  1.2686205E-01; -3.6696863E+02;3;  3.7838933E+00;  0.0000000E+00; -7.2028589E-01;0;  5.6512922E-01;  2.5855283E+04;  0.0000000E+00; -2.6029372E-01;  4.0000000E+04;  0.0000000E+00;  3.8382703E+04;  5.2935284E-01;  0.0000000E+00;  3.5776369E-02;  2.0496538E+03;
  1.7121693E+00;  9.9999998E-03;  3.0613057E-02;9613;  1.4214805E+00;  0.0000000E+00;  4.0448457E-03;  9.9952502E+02;  1.2686208E-01; -3.6692258E+02;3;  3.7839084E+00;  0.0000000E+00;  7.2024053E-01;0;  5.6512994E-01;  2.5855283E+04;  0.0000000E+00; -2.6029775E-01;  4.0000000E+04;  0.0000000E+00;  3.8382699E+04;  5.2935338E-01;  0.0000000E+00;  3.5776529E-02;  2.0496475E+03;
  1.7123948E+00;  9.9999998E-03; -4.0791638E-02;9606;  1.4219210E+00;  0.0000000E+00; -4.8893071E-03;  9.9972498E+02;  1.2684289E-01; -2.1240082E+02;3;  3.5478523E+00;  0.0000000E+00; -2.1994953E-01;0;  5.9695113E-01;  2.5874242E+04;  0.0000000E+00; -4.6032667E-01;  4.0000000E+04;  0.0000000E+00;  3.8378965E+04;  5.6011373E-01;  0.0000000E+00;  3.6837403E-02;  2.2988264E+03;
  1.7123948E+00;  9.9999998E-03;  4.0791880E-02;9614;  1.4219209E+00;  0.0000000E+00;  4.8905890E-03;  9.9972485E+02;  1.2684284E-01; -2.1249287E+02;3;  3.5478778E+00;  0.0000000E+00;  2.1992399E-01;0;  5.9695107E-01;  2.5874244E+04;  0.0000000E+00; -4.6033189E-01;  4.0000000E+04;  0.0000000E+00;  3.8378965E+04;  5.6011355E-01;  0.0000000E+00;  3.6837514E-02;  2.2988311E+03;
  1.7126654E+00;  9.9999998E-03; -5.0958470E-02;9605;  1.4226029E+00;  0.0000000E+00; -5.6165201E-03;  9.9995770E+02;  1.2682192E-01; -3.2675785E+01;3;  3.2754889E+00;  0.0000000E+00;  2.4099661E-02;0;  6.3755101E-01;  2.5898023E+04;  0.0000000E+00; -6.8671137E-01;  4.0000000E+04;  0.0000000E+00;  3.8372664E+04;  5.9972268E-01;  0.0000000E+00;  3.7828337E-02;  2.7322927E+03;
  1.7126654E+00;  9.9999998E-03;  5.0958712E-02;9615;  1.4226029E+00;  0.0000000E+00;  5.6178514E-03;  9.9995770E+02;  1.2682199E-01; -3.2675789E+01;3;  3.2755094E+00;  0.0000000E+00; -2.4113940E-02;0;  6.3755143E-01;  2.5898014E+04;  0.0000000E+00; -6.8672156E-01;  4.0000000E+04;  0.0000000E+00;  3.8372664E+04;  5.9972304E-01;  0.0000000E+00;  3.7828416E-02;  2.7322915E+03;
  1.7131069E+00;  9.9999998E-03; -1.0136873E-01;9600;  1.4274802E+00;  0.0000000E+00; -7.8895744E-03;  1.0007978E+03;  1.2679031E-01;  6.1570410E+02;3; -1.4048015E-01;  0.0000000E+00;  2.3075914E+00;0;  9.6035945E-01;  2.5989803E+04;  0.0000000E+00;  2.9251747E+00;  4.0000000E+04;  0.0000000E+00;  3.8317160E+04;  9.4397682E-01;  0.0000000E+00;  1.6382651E-02;  8.1452324E+03;
  1.7129427E+00;  9.9999998E-03; -6.1106440E-02;9604;  1.4235122E+00;  0.0000000E+00; -6.3202274E-03;  1.0002258E+03;  1.2680191E-01;  1.7428650E+02;3;  3.0379515E+00;  0.0000000E+00;  1.4910918E-01;0;  6.8664449E-01;  2.5924896E+04;  0.0000000E+00; -8.6707079E-01;  4.0000000E+04;  0.0000000E+00;  3.8363297E+04;  6.4846605E-01;  0.0000000E+00;  3.8178436E-02;  3.3597410E+03;
  1.7129427E+00;  9.9999998E-03;  6.1106682E-02;9616;  1.4235121E+00;  0.0000000E+00;  6.3215131E-03;  1.0002257E+03;  1.2680186E-01;  1.7419447E+02;3;  3.0379741E+00;  0.0000000E+00; -1.4908402E-01;0;  6.8664414E-01;  2.5924900E+04;  0.0000000E+00; -8.6708647E-01;  4.0000000E+04;  0.0000000E+00;  3.8363297E+04;  6.4846569E-01;  0.0000000E+00;  3.8178422E-02;  3.3597288E+03;
  1.7131667E+00;  9.9999998E-03; -7.1224339E-02;9603;  1.4245996E+00;  0.0000000E+00; -6.9865379E-03;  1.0004830E+03;  1.2678622E-01;  3.7269510E+02;3;  2.7640095E+00;  0.0000000E+00;  3.6639088E-01;0;  7.4393195E-01;  2.5951326E+04;  0.0000000E+00; -8.6089647E-01;  4.0000000E+04;  0.0000000E+00;  3.8351496E+04;  7.0685863E-01;  0.0000000E+00;  3.7073296E-02;  4.1631567E+03;
  1.7132976E+00;  9.9999998E-03; -9.1338433E-02;9601;  1.4268197E+00;  0.0000000E+00; -7.8819543E-03;  1.0007867E+03;  1.2677939E-01;  6.0703748E+02;3;  1.3262355E+00;  0.0000000E+00;  1.4770960E+00;0;  8.8083005E-01;  2.5987332E+04;  0.0000000E+00;  6.8875796E-01;  4.0000000E+04;  0.0000000E+00;  3.8325359E+04;  8.5378075E-01;  0.0000000E+00;  2.7049329E-02;  6.3392109E+03;
  1.7133002E+00;  9.9999998E-03; -8.1299148E-02;9602;  1.4257691E+00;  0.0000000E+00; -7.5425743E-03;  1.0006810E+03;  1.2677975E-01;  5.2544165E+02;3;  2.2681086E+00;  0.0000000E+00;  8.1753778E-01;0;  8.0876029E-01;  2.5973418E+04;  0.0000000E+00; -4.4478795E-01;  4.0000000E+04;  0.0000000E+00;  3.8337691E+04;  7.7509975E-01;  0.0000000E+00;  3.3660535E-02;  5.1281216E+03;
  1.7242168E+00;  9.9999998E-03;  1.2142631E-07;9658;  1.4216388E+00;  0.0000000E+00;  6.4053648E-07;  9.9927539E+02;  1.2548393E-01; -5.5299530E+02;3;  6.5779538E+00;  0.0000000E+00; -6.2147155E-06;0;  4.0675107E-01;  2.6506566E+04;  0.0000000E+00; -8.1661128E-12;  4.0000000E+04;  0.0000000E+00;  3.8251375E+04;  3.4306982E-01;  0.0000000E+00;  6.3681252E-02;  2.1269180E+03;
  1.7242798E+00;  9.9999998E-03; -1.0257728E-02;9657;  1.4217026E+00;  0.0000000E+00; -1.8672242E-03;  9.9932324E+02;  1.2548006E-01; -5.1643347E+02;3;  6.5339785E+00;  0.0000000E+00; -8.4579474E-01;0;  4.1131258E-01;  2.6510811E+04;  0.0000000E+00; -6.1150029E-02;  4.0000000E+04;  0.0000000E+00;  3.8251023E+04;  3.4716207E-01;  0.0000000E+00;  6.4150520E-02;  2.1552224E+03;
  1.7242798E+00;  9.9999998E-03;  1.0257971E-02;9659;  1.4217026E+00;  0.0000000E+00;  1.8685195E-03;  9.9932330E+02;  1.2548013E-01; -5.1638800E+02;3;  6.5339694E+00;  0.0000000E+00;  8.4580976E-01;0;  4.1131276E-01;  2.6510809E+04;  0.0000000E+00; -6.1153393E-02;  4.0000000E+04;  0.0000000E+00;  3.8251023E+04;  3.4716216E-01;  0.0000000E+00;  6.4150587E-02;  2.1552273E+03;
  1.7244488E+00;  9.9999998E-03; -2.0487070E-02;9656;  1.4219241E+00;  0.0000000E+00; -3.6073588E-03;  9.9942297E+02;  1.2546654E-01; -4.4025705E+02;3;  6.4507613E+00;  0.0000000E+00; -1.5910186E+00;0;  4.2507011E-01;  2.6522742E+04;  0.0000000E+00; -2.3859522E-01;  4.0000000E+04;  0.0000000E+00;  3.8249141E+04;  3.5956573E-01;  0.0000000E+00;  6.5504372E-02;  2.2614353E+03;
  1.7244488E+00;  9.9999998E-03;  2.0487312E-02;9660;  1.4219241E+00;  0.0000000E+00;  3.6086526E-03;  9.9942291E+02;  1.2546650E-01; -4.4030252E+02;3;  6.4507570E+00;  0.0000000E+00;  1.5910268E+00;0;  4.2507017E-01;  2.6522732E+04;  0.0000000E+00; -2.3860288E-01;  4.0000000E+04;  0.0000000E+00;  3.8249141E+04;  3.5956568E-01;  0.0000000E+00;  6.5504491E-02;  2.2614275E+03;
  1.7246916E+00;  9.9999998E-03; -3.0685673E-02;9655;  1.4224145E+00;  0.0000000E+00; -4.9941507E-03;  9.9963702E+02;  1.2545332E-01; -2.7687839E+02;3;  6.4740896E+00;  0.0000000E+00; -1.9823524E+00;0;  4.4808081E-01;  2.6541055E+04;  0.0000000E+00; -5.1021963E-01;  4.0000000E+04;  0.0000000E+00;  3.8245414E+04;  3.8046318E-01;  0.0000000E+00;  6.7617618E-02;  2.4909758E+03;
  1.7246916E+00;  9.9999998E-03;  3.0685917E-02;9661;  1.4224144E+00;  0.0000000E+00;  4.9954494E-03;  9.9963690E+02;  1.2545329E-01; -2.7696930E+02;3;  6.4740996E+00;  0.0000000E+00;  1.9823135E+00;0;  4.4808066E-01;  2.6541049E+04;  0.0000000E+00; -5.1023048E-01;  4.0000000E+04;  0.0000000E+00;  3.8245414E+04;  3.8046291E-01;  0.0000000E+00;  6.7617759E-02;  2.4909751E+03;
  1.7249945E+00;  9.9999998E-03; -4.0858444E-02;9654;  1.4232641E+00;  0.0000000E+00; -6.0774204E-03;  9.9985388E+02;  1.2543151E-01; -1.1139662E+02;3;  6.6344070E+00;  0.0000000E+00; -2.2133582E+00;0;  4.8010427E-01;  2.6564393E+04;  0.0000000E+00; -8.2664084E-01;  4.0000000E+04;  0.0000000E+00;  3.8239344E+04;  4.0982440E-01;  0.0000000E+00;  7.0279852E-02;  2.8743149E+03;
  1.7249945E+00;  9.9999998E-03;  4.0858686E-02;9662;  1.4232640E+00;  0.0000000E+00;  6.0786917E-03;  9.9985394E+02;  1.2543088E-01; -1.1135117E+02;3;  6.6344051E+00;  0.0000000E+00;  2.2133646E+00;0;  4.8010412E-01;  2.6564393E+04;  0.0000000E+00; -8.2665884E-01;  4.0000000E+04;  0.0000000E+00;  3.8239344E+04;  4.0982410E-01;  0.0000000E+00;  7.0280008E-02;  2.8743115E+03;
  1.7252042E+00;  9.9999998E-03; -1.0139976E-01;9648;  1.4313917E+00;  0.0000000E+00; -1.0379937E-02;  1.0003914E+03;  1.2541816E-01;  2.9835294E+02;3;  4.8889184E+00;  0.0000000E+00; -9.4879508E-01;0;  8.3798200E-01;  2.6631523E+04;  0.0000000E+00;  7.2465444E+00;  4.0000000E+04;  0.0000000E+00;  3.8194566E+04;  7.8245056E-01;  0.0000000E+00;  5.5531420E-02;  1.0459519E+04;
  1.7253177E+00;  9.9999998E-03; -5.1005051E-02;9653;  1.4243969E+00;  0.0000000E+00; -7.0875366E-03;  1.0000917E+03;  1.2541255E-01;  6.9876625E+01;3;  6.8453007E+00;  0.0000000E+00; -2.4101274E+00;0;  5.2080035E-01;  2.6590238E+04;  0.0000000E+00; -1.0930680E+00;  4.0000000E+04;  0.0000000E+00;  3.8230590E+04;  4.4779816E-01;  0.0000000E+00;  7.3002189E-02;  3.4050103E+03;
  1.7253177E+00;  9.9999998E-03;  5.1005293E-02;9663;  1.4243968E+00;  0.0000000E+00;  7.0888093E-03;  1.0000917E+03;  1.2541261E-01;  6.9967491E+01;3;  6.8452702E+00;  0.0000000E+00;  2.4101517E+00;0;  5.2079999E-01;  2.6590236E+04;  0.0000000E+00; -1.0930898E+00;  4.0000000E+04;  0.0000000E+00;  3.8230602E+04;  4.4779769E-01;  0.0000000E+00;  7.3002279E-02;  3.4050037E+03;
  1.7256042E+00;  9.9999998E-03; -9.1324255E-02;9649;  1.4303327E+00;  0.0000000E+00; -1.0071288E-02;  1.0004318E+03;  1.2539634E-01;  3.2901657E+02;3;  6.3450007E+00;  0.0000000E+00; -1.6082286E+00;0;  7.6079482E-01;  2.6643299E+04;  0.0000000E+00;  3.0121953E+00;  4.0000000E+04;  0.0000000E+00;  3.8191957E+04;  6.9423300E-01;  0.0000000E+00;  6.6561818E-02;  7.4114741E+03;
  1.7255908E+00;  9.9999998E-03; -6.1123975E-02;9652;  1.4257855E+00;  0.0000000E+00; -7.9883169E-03;  1.0003037E+03;  1.2539774E-01;  2.3145955E+02;3;  7.1279659E+00;  0.0000000E+00; -2.1972356E+00;0;  5.6981766E-01;  2.6614953E+04;  0.0000000E+00; -1.1429105E+00;  4.0000000E+04;  0.0000000E+00;  3.8219566E+04;  4.9482781E-01;  0.0000000E+00;  7.4989833E-02;  4.0521301E+03;
  1.7255908E+00;  9.9999998E-03;  6.1124217E-02;9664;  1.4257854E+00;  0.0000000E+00;  7.9896292E-03;  1.0003037E+03;  1.2539758E-01;  2.3145955E+02;3;  7.1279941E+00;  0.0000000E+00;  2.1971893E+00;0;  5.6981778E-01;  2.6614943E+04;  0.0000000E+00; -1.1429493E+00;  4.0000000E+04;  0.0000000E+00;  3.8219566E+04;  4.9482793E-01;  0.0000000E+00;  7.4989840E-02;  4.0521125E+03;
  1.7257838E+00;  9.9999998E-03; -8.1269890E-02;9650;  1.4289237E+00;  0.0000000E+00; -9.5069557E-03;  1.0004759E+03;  1.2538680E-01;  3.6255527E+02;3;  7.0990648E+00;  0.0000000E+00; -1.9023745E+00;0;  6.9025749E-01;  2.6644270E+04;  0.0000000E+00;  5.2140695E-01;  4.0000000E+04;  0.0000000E+00;  3.8197684E+04;  6.1741555E-01;  0.0000000E+00;  7.2841935E-02;  5.7740962E+03;
  1.7257617E+00;  9.9999998E-03; -7.1210742E-02;9651;  1.4273444E+00;  0.0000000E+00; -8.7963240E-03;  1.0004357E+03;  1.2538737E-01;  3.3195688E+02;3;  7.2698369E+00;  0.0000000E+00; -2.0713544E+00;0;  6.2651372E-01;  2.6634170E+04;  0.0000000E+00; -7.2061694E-01;  4.0000000E+04;  0.0000000E+00;  3.8207953E+04;  5.5122530E-01;  0.0000000E+00;  7.5288400E-02;  4.8011851E+03;
  1.7367774E+00;  9.9999998E-03; -1.0163294E-01;9695;  1.4338204E+00;  0.0000000E+00; -1.2092569E-02;  1.0000507E+03;  1.2428322E-01;  3.8106041E+01;3;  7.8260288E+00;  0.0000000E+00; -3.6453073E+00;0;  7.4839419E-01;  2.7194703E+04;  0.0000000E+00;  1.5173738E+01;  4.0000000E+04;  0.0000000E+00;  3.8071688E+04;  6.5787488E-01;  0.0000000E+00;  9.0519287E-02;  1.4904276E+04;
  1.7366415E+00;  9.9999998E-03;  1.2177375E-07;9705;  1.4220251E+00;  0.0000000E+00;  6.3748746E-07;  9.9939136E+02;  1.2429707E-01; -4.5784268E+02;3;  8.3349123E+00;  0.0000000E+00;  3.0235387E-06;0;  3.2971892E-01;  2.7130230E+04;  0.0000000E+00; -2.3254582E-12;  4.0000000E+04;  0.0000000E+00;  3.8099492E+04;  2.4258123E-01;  0.0000000E+00;  8.7137677E-02;  2.5694622E+03;
  1.7367108E+00;  9.9999998E-03; -1.0304004E-02;9704;  1.4221288E+00;  0.0000000E+00; -1.8920387E-03;  9.9942676E+02;  1.2429433E-01; -4.3117178E+02;3;  8.3614511E+00;  0.0000000E+00; -9.3593889E-01;0;  3.3441532E-01;  2.7134439E+04;  0.0000000E+00; -9.4625026E-02;  4.0000000E+04;  0.0000000E+00;  3.8098453E+04;  2.4650817E-01;  0.0000000E+00;  8.7907150E-02;  2.6175657E+03;
  1.7367108E+00;  9.9999998E-03;  1.0304248E-02;9706;  1.4221288E+00;  0.0000000E+00;  1.8933220E-03;  9.9942688E+02;  1.2429416E-01; -4.3108212E+02;3;  8.3614626E+00;  0.0000000E+00;  9.3592817E-01;0;  3.3441502E-01;  2.7134441E+04;  0.0000000E+00; -9.4632097E-02;  4.0000000E+04;  0.0000000E+00;  3.8098453E+04;  2.4650779E-01;  0.0000000E+00;  8.7907217E-02;  2.6175613E+03;
  1.7368954E+00;  9.9999998E-03; -2.0565446E-02;9703;  1.4224695E+00;  0.0000000E+00; -3.6682766E-03;  9.9953308E+02;  1.2428404E-01; -3.5115179E+02;3;  8.4502144E+00;  0.0000000E+00; -1.8768380E+00;0;  3.4846905E-01;  2.7146146E+04;  0.0000000E+00; -3.5435325E-01;  4.0000000E+04;  0.0000000E+00;  3.8095438E+04;  2.5833502E-01;  0.0000000E+00;  9.0134017E-02;  2.7741780E+03;
  1.7368954E+00;  9.9999998E-03;  2.0565690E-02;9707;  1.4224695E+00;  0.0000000E+00;  3.6695672E-03;  9.9953320E+02;  1.2428391E-01; -3.5106216E+02;3;  8.4502306E+00;  0.0000000E+00;  1.8768268E+00;0;  3.4846902E-01;  2.7146145E+04;  0.0000000E+00; -3.5436690E-01;  4.0000000E+04;  0.0000000E+00;  3.8095434E+04;  2.5833476E-01;  0.0000000E+00;  9.0134278E-02;  2.7741797E+03;
  1.7371577E+00;  9.9999998E-03; -3.0779200E-02;9702;  1.4231268E+00;  0.0000000E+00; -5.1356442E-03;  9.9968158E+02;  1.2427027E-01; -2.3937213E+02;3;  8.6670084E+00;  0.0000000E+00; -2.6982243E+00;0;  3.7171680E-01;  2.7163434E+04;  0.0000000E+00; -7.0656800E-01;  4.0000000E+04;  0.0000000E+00;  3.8090164E+04;  2.7810314E-01;  0.0000000E+00;  9.3613639E-02;  3.0579561E+03;
  1.7371577E+00;  9.9999998E-03;  3.0779444E-02;9708;  1.4231268E+00;  0.0000000E+00;  5.1369201E-03;  9.9968158E+02;  1.2427027E-01; -2.3937213E+02;3;  8.6669970E+00;  0.0000000E+00;  2.6982427E+00;0;  3.7171692E-01;  2.7163434E+04;  0.0000000E+00; -7.0659143E-01;  4.0000000E+04;  0.0000000E+00;  3.8090164E+04;  2.7810311E-01;  0.0000000E+00;  9.3613788E-02;  3.0579641E+03;
  1.7373643E+00;  9.9999998E-03; -9.1466084E-02;9696;  1.4321351E+00;  0.0000000E+00; -1.1068573E-02;  9.9991779E+02;  1.2425659E-01; -6.1776352E+01;3;  9.1611996E+00;  0.0000000E+00; -4.1060085E+00;0;  6.7553473E-01;  2.7208697E+04;  0.0000000E+00;  8.1142817E+00;  4.0000000E+04;  0.0000000E+00;  3.8058109E+04;  5.7432038E-01;  0.0000000E+00;  1.0121438E-01;  9.8006631E+03;
  1.7374594E+00;  9.9999998E-03; -4.0950000E-02;9701;  1.4241624E+00;  0.0000000E+00; -6.3021281E-03;  9.9982764E+02;  1.2425470E-01; -1.2954024E+02;3;  9.0223932E+00;  0.0000000E+00; -3.4104607E+00;0;  4.0379372E-01;  2.7183211E+04;  0.0000000E+00; -1.0214030E+00;  4.0000000E+04;  0.0000000E+00;  3.8082488E+04;  3.0583033E-01;  0.0000000E+00;  9.7963393E-02;  3.4558022E+03;
  1.7374594E+00;  9.9999998E-03;  4.0950246E-02;9709;  1.4241623E+00;  0.0000000E+00;  6.3033947E-03;  9.9982764E+02;  1.2425470E-01; -1.2954024E+02;3;  9.0223818E+00;  0.0000000E+00;  3.4104309E+00;0;  4.0379357E-01;  2.7183205E+04;  0.0000000E+00; -1.0214390E+00;  4.0000000E+04;  0.0000000E+00;  3.8082488E+04;  3.0582997E-01;  0.0000000E+00;  9.7963609E-02;  3.4557917E+03;
  1.7377357E+00;  9.9999998E-03; -5.1083665E-02;9700;  1.4255021E+00;  0.0000000E+00; -7.3346747E-03;  9.9995026E+02;  1.2424151E-01; -3.7388912E+01;3;  9.5355234E+00;  0.0000000E+00; -3.7956235E+00;0;  4.4418794E-01;  2.7201744E+04;  0.0000000E+00; -1.0968075E+00;  4.0000000E+04;  0.0000000E+00;  3.8073355E+04;  3.4168822E-01;  0.0000000E+00;  1.0249971E-01;  3.9287261E+03;
  1.7377357E+00;  9.9999998E-03;  5.1083911E-02;9710;  1.4255019E+00;  0.0000000E+00;  7.3359744E-03;  9.9995026E+02;  1.2424151E-01; -3.7388912E+01;3;  9.5355101E+00;  0.0000000E+00;  3.7955754E+00;0;  4.4418764E-01;  2.7201742E+04;  0.0000000E+00; -1.0968416E+00;  4.0000000E+04;  0.0000000E+00;  3.8073352E+04;  3.4168777E-01;  0.0000000E+00;  1.0249986E-01;  3.9287170E+03;
  1.7377597E+00;  9.9999998E-03; -8.1356838E-02;9697;  1.4304886E+00;  0.0000000E+00; -1.0175656E-02;  9.9992279E+02;  1.2423892E-01; -5.7984650E+01;3;  9.9533043E+00;  0.0000000E+00; -4.3292022E+00;0;  6.0851663E-01;  2.7218594E+04;  0.0000000E+00;  3.4635687E+00;  4.0000000E+04;  0.0000000E+00;  3.8053492E+04;  5.0169718E-01;  0.0000000E+00;  1.0681945E-01;  6.7781914E+03;
  1.7379150E+00;  9.9999998E-03; -6.1187405E-02;9699;  1.4270886E+00;  0.0000000E+00; -8.2931994E-03;  9.9999615E+02;  1.2423348E-01; -2.9098599E+00;3;  9.9537497E+00;  0.0000000E+00; -4.1747937E+00;0;  4.9226519E-01;  2.7215496E+04;  0.0000000E+00; -6.4435655E-01;  4.0000000E+04;  0.0000000E+00;  3.8063664E+04;  3.8600063E-01;  0.0000000E+00;  1.0626455E-01;  4.4714189E+03;
  1.7379150E+00;  9.9999998E-03;  6.1187651E-02;9711;  1.4270885E+00;  0.0000000E+00;  8.2945470E-03;  9.9999615E+02;  1.2423290E-01; -2.9098599E+00;3;  9.9537573E+00;  0.0000000E+00;  4.1747375E+00;0;  4.9226546E-01;  2.7215490E+04;  0.0000000E+00; -6.4440507E-01;  4.0000000E+04;  0.0000000E+00;  3.8063664E+04;  3.8600084E-01;  0.0000000E+00;  1.0626461E-01;  4.4714014E+03;
  1.7379385E+00;  9.9999998E-03; -7.1271963E-02;9698;  1.4287682E+00;  0.0000000E+00; -9.2560221E-03;  9.9997632E+02;  1.2423158E-01; -1.7772005E+01;3;  1.0133049E+01;  0.0000000E+00; -4.4374647E+00;0;  5.4725391E-01;  2.7221367E+04;  0.0000000E+00;  7.1904635E-01;  4.0000000E+04;  0.0000000E+00;  3.8055930E+04;  4.3913436E-01;  0.0000000E+00;  1.0811954E-01;  5.2502739E+03;
  1.7480896E+00;  9.9999998E-03; -1.0211652E-01;9741;  1.4373490E+00;  0.0000000E+00; -1.4452528E-02;  9.9996320E+02;  1.2334014E-01; -2.7251833E+01;3;  1.0788372E+01;  0.0000000E+00; -5.8705072E+00;0;  6.8168318E-01;  2.7710713E+04;  0.0000000E+00;  2.6527533E+01;  4.0000000E+04;  0.0000000E+00;  3.7935371E+04;  5.5860710E-01;  0.0000000E+00;  1.2307606E-01;  2.0757941E+04;
  1.7486748E+00;  9.9999998E-03; -9.1799386E-02;9742;  1.4338176E+00;  0.0000000E+00; -1.1906560E-02;  9.9971680E+02;  1.2331388E-01; -2.0967201E+02;3;  1.1287907E+01;  0.0000000E+00; -5.8706703E+00;0;  6.1168385E-01;  2.7721137E+04;  0.0000000E+00;  1.6791845E+01;  4.0000000E+04;  0.0000000E+00;  3.7918914E+04;  4.8021695E-01;  0.0000000E+00;  1.3146693E-01;  1.4119902E+04;
  1.7490740E+00;  9.9999998E-03;  1.2199017E-07;9751;  1.4225179E+00;  0.0000000E+00;  6.3043962E-07;  9.9935388E+02;  1.2330291E-01; -4.7812469E+02;3;  1.0165692E+01;  0.0000000E+00; -8.8987872E-06;0;  2.8119868E-01;  2.7691793E+04;  0.0000000E+00;  2.1331905E-12;  4.0000000E+04;  0.0000000E+00;  3.7932082E+04;  1.7628843E-01;  0.0000000E+00;  1.0491024E-01;  2.9204648E+03;
  1.7491274E+00;  9.9999998E-03; -1.0325685E-02;9750;  1.4226573E+00;  0.0000000E+00; -1.7191618E-03;  9.9937543E+02;  1.2330139E-01; -4.6216718E+02;3;  1.0248855E+01;  0.0000000E+00; -9.0325093E-01;0;  2.8594431E-01;  2.7694414E+04;  0.0000000E+00; -9.7616196E-02;  4.0000000E+04;  0.0000000E+00;  3.7930727E+04;  1.7996089E-01;  0.0000000E+00;  1.0598341E-01;  2.9779185E+03;
  1.7491274E+00;  9.9999998E-03;  1.0325930E-02;9752;  1.4226573E+00;  0.0000000E+00;  1.7204392E-03;  9.9937543E+02;  1.2330139E-01; -4.6216718E+02;3;  1.0248878E+01;  0.0000000E+00;  9.0324593E-01;0;  2.8594434E-01;  2.7694414E+04;  0.0000000E+00; -9.7627670E-02;  4.0000000E+04;  0.0000000E+00;  3.7930730E+04;  1.7996080E-01;  0.0000000E+00;  1.0598353E-01;  2.9779202E+03;
  1.7492007E+00;  9.9999998E-03; -8.1581019E-02;9743;  1.4313717E+00;  0.0000000E+00; -1.0010036E-02;  9.9947504E+02;  1.2329529E-01; -3.8838498E+02;3;  1.1738319E+01;  0.0000000E+00; -5.6694040E+00;0;  5.4885876E-01;  2.7726184E+04;  0.0000000E+00;  9.4359007E+00;  4.0000000E+04;  0.0000000E+00;  3.7905969E+04;  4.1345677E-01;  0.0000000E+00;  1.3540199E-01;  9.3264551E+03;
  1.7492740E+00;  9.9999998E-03; -2.0608433E-02;9749;  1.4230909E+00;  0.0000000E+00; -3.2847417E-03;  9.9941864E+02;  1.2329697E-01; -4.3010284E+02;3;  1.0488201E+01;  0.0000000E+00; -1.7950594E+00;0;  3.0003491E-01;  2.7701656E+04;  0.0000000E+00; -3.3904892E-01;  4.0000000E+04;  0.0000000E+00;  3.7926641E+04;  1.9093442E-01;  0.0000000E+00;  1.0910048E-01;  3.1446611E+03;
  1.7492740E+00;  9.9999998E-03;  2.0608678E-02;9753;  1.4230909E+00;  0.0000000E+00;  3.2860197E-03;  9.9941870E+02;  1.2329698E-01; -4.3005875E+02;3;  1.0488236E+01;  0.0000000E+00;  1.7950512E+00;0;  3.0003503E-01;  2.7701656E+04;  0.0000000E+00; -3.3907279E-01;  4.0000000E+04;  0.0000000E+00;  3.7926641E+04;  1.9093442E-01;  0.0000000E+00;  1.0910060E-01;  3.1446697E+03;
  1.7494770E+00;  9.9999998E-03; -3.0842930E-02;9748;  1.4238529E+00;  0.0000000E+00; -4.5784148E-03;  9.9944635E+02;  1.2328929E-01; -4.0948129E+02;3;  1.0857333E+01;  0.0000000E+00; -2.6572170E+00;0;  3.2311708E-01;  2.7711311E+04;  0.0000000E+00; -5.8225465E-01;  4.0000000E+04;  0.0000000E+00;  3.7920316E+04;  2.0916343E-01;  0.0000000E+00;  1.1395365E-01;  3.4062546E+03;
  1.7494770E+00;  9.9999998E-03;  3.0843174E-02;9754;  1.4238529E+00;  0.0000000E+00;  4.5797308E-03;  9.9944623E+02;  1.2328939E-01; -4.0956952E+02;3;  1.0857257E+01;  0.0000000E+00;  2.6571984E+00;0;  3.2311705E-01;  2.7711309E+04;  0.0000000E+00; -5.8229172E-01;  4.0000000E+04;  0.0000000E+00;  3.7920316E+04;  2.0916331E-01;  0.0000000E+00;  1.1395375E-01;  3.4062590E+03;
  1.7495812E+00;  9.9999998E-03; -7.1420975E-02;9744;  1.4294412E+00;  0.0000000E+00; -8.6197946E-03;  9.9936578E+02;  1.2328248E-01; -4.6896759E+02;3;  1.2041834E+01;  0.0000000E+00; -5.2243838E+00;0;  4.9157992E-01;  2.7729354E+04;  0.0000000E+00;  4.4770265E+00;  4.0000000E+04;  0.0000000E+00;  3.7899914E+04;  3.5636994E-01;  0.0000000E+00;  1.3520998E-01;  6.3681172E+03;
  1.7496741E+00;  9.9999998E-03; -4.1024614E-02;9747;  1.4249272E+00;  0.0000000E+00; -5.5944012E-03;  9.9943451E+02;  1.2328079E-01; -4.1809311E+02;3;  1.1299542E+01;  0.0000000E+00; -3.4575777E+00;0;  3.5460645E-01;  2.7720777E+04;  0.0000000E+00; -5.9076953E-01;  4.0000000E+04;  0.0000000E+00;  3.7912605E+04;  2.3464884E-01;  0.0000000E+00;  1.1995762E-01;  3.7331245E+03;
  1.7496741E+00;  9.9999998E-03;  4.1024860E-02;9755;  1.4249272E+00;  0.0000000E+00;  5.5957371E-03;  9.9943457E+02;  1.2328058E-01; -4.1804901E+02;3;  1.1299527E+01;  0.0000000E+00;  3.4575782E+00;0;  3.5460633E-01;  2.7720771E+04;  0.0000000E+00; -5.9081995E-01;  4.0000000E+04;  0.0000000E+00;  3.7912613E+04;  2.3464845E-01;  0.0000000E+00;  1.1995786E-01;  3.7331108E+03;
  1.7497960E+00;  9.9999998E-03; -5.1166009E-02;9746;  1.4262420E+00;  0.0000000E+00; -6.5510105E-03;  9.9940558E+02;  1.2327683E-01; -4.3943524E+02;3;  1.1733212E+01;  0.0000000E+00; -4.1597295E+00;0;  3.9373583E-01;  2.7727391E+04;  0.0000000E+00; -3.5659354E-02;  4.0000000E+04;  0.0000000E+00;  3.7905238E+04;  2.6747268E-01;  0.0000000E+00;  1.2626316E-01;  4.1433315E+03;
  1.7497962E+00;  9.9999998E-03;  5.1166255E-02;9756;  1.4262420E+00;  0.0000000E+00;  6.5523568E-03;  9.9940564E+02;  1.2327725E-01; -4.3939117E+02;3;  1.1733210E+01;  0.0000000E+00;  4.1597209E+00;0;  3.9373547E-01;  2.7727404E+04;  0.0000000E+00; -3.5715509E-02;  4.0000000E+04;  0.0000000E+00;  3.7905246E+04;  2.6747215E-01;  0.0000000E+00;  1.2626331E-01;  4.1433140E+03;
  1.7497776E+00;  9.9999998E-03; -6.1289918E-02;9745;  1.4277472E+00;  0.0000000E+00; -7.4981702E-03;  9.9936401E+02;  1.2327604E-01; -4.7015915E+02;3;  1.2021826E+01;  0.0000000E+00; -4.7412114E+00;0;  4.3966061E-01;  2.7730205E+04;  0.0000000E+00;  1.4941294E+00;  4.0000000E+04;  0.0000000E+00;  3.7900027E+04;  3.0790535E-01;  0.0000000E+00;  1.3175528E-01;  4.8499165E+03;
  1.7497776E+00;  9.9999998E-03;  6.1290164E-02;9757;  1.4277472E+00;  0.0000000E+00;  7.4995030E-03;  9.9936395E+02;  1.2327603E-01; -4.7020322E+02;3;  1.2021721E+01;  0.0000000E+00;  4.7412248E+00;0;  4.3966067E-01;  2.7730205E+04;  0.0000000E+00;  1.4940706E+00;  4.0000000E+04;  0.0000000E+00;  3.7900027E+04;  3.0790547E-01;  0.0000000E+00;  1.3175522E-01;  4.8498970E+03;
  1.7599247E+00;  9.9999998E-03; -9.2350625E-02;9786;  1.4371871E+00;  0.0000000E+00; -1.3960017E-02;  9.9961694E+02;  1.2252099E-01; -2.7895053E+02;3;  1.4222559E+01;  0.0000000E+00; -7.7869964E+00;0;  5.6307381E-01;  2.8196350E+04;  0.0000000E+00;  2.7268686E+01;  4.0000000E+04;  0.0000000E+00;  3.7760160E+04;  4.0325484E-01;  0.0000000E+00;  1.5981898E-01;  1.8632291E+04;
  1.7603937E+00;  9.9999998E-03; -8.1970528E-02;9787;  1.4330860E+00;  0.0000000E+00; -1.0666857E-02;  9.9943311E+02;  1.2250643E-01; -4.1250223E+02;3;  1.3882808E+01;  0.0000000E+00; -6.8699017E+00;0;  5.0168324E-01;  2.8201180E+04;  0.0000000E+00;  1.8221830E+01;  4.0000000E+04;  0.0000000E+00;  3.7749465E+04;  3.4145874E-01;  0.0000000E+00;  1.6022448E-01;  1.3089628E+04;
  1.7608216E+00;  9.9999998E-03; -7.1645439E-02;9788;  1.4302235E+00;  0.0000000E+00; -8.1829643E-03;  9.9918518E+02;  1.2249714E-01; -5.9248407E+02;3;  1.3735335E+01;  0.0000000E+00; -5.6741352E+00;0;  4.4761866E-01;  2.8198551E+04;  0.0000000E+00;  1.1200973E+01;  4.0000000E+04;  0.0000000E+00;  3.7740969E+04;  2.9031032E-01;  0.0000000E+00;  1.5730835E-01;  8.9000332E+03;
  1.7611552E+00;  9.9999998E-03; -6.1371539E-02;9789;  1.4281192E+00;  0.0000000E+00; -6.4023002E-03;  9.9896057E+02;  1.2248766E-01; -7.5544208E+02;3;  1.3524343E+01;  0.0000000E+00; -4.5900517E+00;0;  3.9932305E-01;  2.8193506E+04;  0.0000000E+00;  6.2150044E+00;  4.0000000E+04;  0.0000000E+00;  3.7736250E+04;  2.4765584E-01;  0.0000000E+00;  1.5166719E-01;  6.0739922E+03;
  1.7611552E+00;  9.9999998E-03;  6.1371785E-02;9801;  1.4281191E+00;  0.0000000E+00;  6.4035398E-03;  9.9896063E+02;  1.2248740E-01; -7.5539874E+02;3;  1.3524369E+01;  0.0000000E+00;  4.5900407E+00;0;  3.9932293E-01;  2.8193500E+04;  0.0000000E+00;  6.2149153E+00;  4.0000000E+04;  0.0000000E+00;  3.7736254E+04;  2.4765570E-01;  0.0000000E+00;  1.5166722E-01;  6.0739668E+03;
  1.7612872E+00;  9.9999998E-03;  1.2226981E-07;9795;  1.4229541E+00;  0.0000000E+00;  6.3181903E-07;  9.9893219E+02;  1.2248643E-01; -7.7590021E+02;3;  1.1803466E+01;  0.0000000E+00; -4.1024759E-06;0;  2.5070909E-01;  2.8175047E+04;  0.0000000E+00;  5.2539015E-12;  4.0000000E+04;  0.0000000E+00;  3.7753812E+04;  1.3314368E-01;  0.0000000E+00;  1.1756541E-01;  2.8448628E+03;
  1.7613134E+00;  9.9999998E-03; -1.0298711E-02;9794;  1.4230984E+00;  0.0000000E+00; -1.3732950E-03;  9.9891852E+02;  1.2248583E-01; -7.8578564E+02;3;  1.1888459E+01;  0.0000000E+00; -7.7798444E-01;0;  2.5527272E-01;  2.8175699E+04;  0.0000000E+00; -2.6286053E-02;  4.0000000E+04;  0.0000000E+00;  3.7752219E+04;  1.3634913E-01;  0.0000000E+00;  1.1892359E-01;  2.8955889E+03;
  1.7613134E+00;  9.9999998E-03;  1.0298956E-02;9796;  1.4230983E+00;  0.0000000E+00;  1.3745559E-03;  9.9891846E+02;  1.2248582E-01; -7.8582898E+02;3;  1.1888409E+01;  0.0000000E+00;  7.7797771E-01;0;  2.5527251E-01;  2.8175705E+04;  0.0000000E+00; -2.6302390E-02;  4.0000000E+04;  0.0000000E+00;  3.7752223E+04;  1.3634895E-01;  0.0000000E+00;  1.1892357E-01;  2.8955925E+03;
  1.7613757E+00;  9.9999998E-03; -2.0561513E-02;9793;  1.4235362E+00;  0.0000000E+00; -2.5887962E-03;  9.9887915E+02;  1.2248353E-01; -8.1433228E+02;3;  1.2125290E+01;  0.0000000E+00; -1.5397794E+00;0;  2.6878294E-01;  2.8178141E+04;  0.0000000E+00; -2.0802237E-02;  4.0000000E+04;  0.0000000E+00;  3.7748355E+04;  1.4593399E-01;  0.0000000E+00;  1.2284895E-01;  3.0386470E+03;
  1.7613757E+00;  9.9999998E-03;  2.0561762E-02;9797;  1.4235359E+00;  0.0000000E+00;  2.5900658E-03;  9.9887909E+02;  1.2248352E-01; -8.1437549E+02;3;  1.2125214E+01;  0.0000000E+00;  1.5397549E+00;0;  2.6878273E-01;  2.8178135E+04;  0.0000000E+00; -2.0841191E-02;  4.0000000E+04;  0.0000000E+00;  3.7748363E+04;  1.4593367E-01;  0.0000000E+00;  1.2284906E-01;  3.0386282E+03;
  1.7613667E+00;  9.9999998E-03; -5.1155567E-02;9790;  1.4265372E+00;  0.0000000E+00; -5.1993644E-03;  9.9883838E+02;  1.2248348E-01; -8.4396399E+02;3;  1.3233474E+01;  0.0000000E+00; -3.7347448E+00;0;  3.5678339E-01;  2.8188676E+04;  0.0000000E+00;  2.9575014E+00;  4.0000000E+04;  0.0000000E+00;  3.7735500E+04;  2.1246304E-01;  0.0000000E+00;  1.4432034E-01;  4.4378599E+03;
  1.7613668E+00;  9.9999998E-03;  5.1155817E-02;9800;  1.4265372E+00;  0.0000000E+00;  5.2007115E-03;  9.9883838E+02;  1.2248348E-01; -8.4396399E+02;3;  1.3233437E+01;  0.0000000E+00;  3.7347138E+00;0;  3.5678357E-01;  2.8188668E+04;  0.0000000E+00;  2.9573925E+00;  4.0000000E+04;  0.0000000E+00;  3.7735504E+04;  2.1246305E-01;  0.0000000E+00;  1.4432053E-01;  4.4378154E+03;
  1.7614388E+00;  9.9999998E-03; -3.0780787E-02;9792;  1.4242744E+00;  0.0000000E+00; -3.5437043E-03;  9.9883240E+02;  1.2248196E-01; -8.4819775E+02;3;  1.2472083E+01;  0.0000000E+00; -2.2756739E+00;0;  2.9073155E-01;  2.8181246E+04;  0.0000000E+00;  2.4362569E-01;  4.0000000E+04;  0.0000000E+00;  3.7742953E+04;  1.6182792E-01;  0.0000000E+00;  1.2890361E-01;  3.2651106E+03;
  1.7614388E+00;  9.9999998E-03;  3.0781031E-02;9798;  1.4242744E+00;  0.0000000E+00;  3.5450005E-03;  9.9883234E+02;  1.2248195E-01; -8.4824115E+02;3;  1.2472004E+01;  0.0000000E+00;  2.2756238E+00;0;  2.9073161E-01;  2.8181254E+04;  0.0000000E+00;  2.4358150E-01;  4.0000000E+04;  0.0000000E+00;  3.7742953E+04;  1.6182792E-01;  0.0000000E+00;  1.2890367E-01;  3.2651218E+03;
  1.7614523E+00;  9.9999998E-03; -4.0969219E-02;9791;  1.4252844E+00;  0.0000000E+00; -4.3339618E-03;  9.9880591E+02;  1.2248170E-01; -8.6744757E+02;3;  1.2863915E+01;  0.0000000E+00; -2.9931424E+00;0;  3.2035208E-01;  2.8184600E+04;  0.0000000E+00;  1.1029656E+00;  4.0000000E+04;  0.0000000E+00;  3.7738078E+04;  1.8397966E-01;  0.0000000E+00;  1.3637243E-01;  3.6443936E+03;
  1.7614523E+00;  9.9999998E-03;  4.0969465E-02;9799;  1.4252843E+00;  0.0000000E+00;  4.3352814E-03;  9.9880579E+02;  1.2248148E-01; -8.6753418E+02;3;  1.2863771E+01;  0.0000000E+00;  2.9930902E+00;0;  3.2035202E-01;  2.8184605E+04;  0.0000000E+00;  1.1029133E+00;  4.0000000E+04;  0.0000000E+00;  3.7738078E+04;  1.8397956E-01;  0.0000000E+00;  1.3637248E-01;  3.6444011E+03;
  1.7712787E+00;  9.9999998E-03; -9.3018219E-02;9828;  1.4420136E+00;  0.0000000E+00; -1.6469734E-02;  9.9919440E+02;  1.2185540E-01; -5.7578638E+02;3;  1.7874859E+01;  0.0000000E+00; -9.6108265E+00;0;  5.2743948E-01;  2.8624729E+04;  0.0000000E+00;  3.4639736E+01;  4.0000000E+04;  0.0000000E+00;  3.7573785E+04;  3.4036681E-01;  0.0000000E+00;  1.8707268E-01;  2.0573150E+04;
  1.7716604E+00;  9.9999998E-03; -8.2524352E-02;9829;  1.4361681E+00;  0.0000000E+00; -1.2407959E-02;  9.9931000E+02;  1.2184289E-01; -4.9281644E+02;3;  1.6723902E+01;  0.0000000E+00; -8.5506735E+00;0;  4.6354914E-01;  2.8638102E+04;  0.0000000E+00;  2.6437346E+01;  4.0000000E+04;  0.0000000E+00;  3.7572625E+04;  2.8040090E-01;  0.0000000E+00;  1.8314825E-01;  1.5801176E+04;
  1.7720274E+00;  9.9999998E-03; -7.2025165E-02;9830;  1.4319148E+00;  0.0000000E+00; -9.0341941E-03;  9.9928064E+02;  1.2183718E-01; -5.1347760E+02;3;  1.5724467E+01;  0.0000000E+00; -7.0890355E+00;0;  4.0993655E-01;  2.8639393E+04;  0.0000000E+00;  1.9245380E+01;  4.0000000E+04;  0.0000000E+00;  3.7572199E+04;  2.3346168E-01;  0.0000000E+00;  1.7647487E-01;  1.1663020E+04;
  1.7723444E+00;  9.9999998E-03; -6.1562590E-02;9831;  1.4288929E+00;  0.0000000E+00; -6.3264184E-03;  9.9909399E+02;  1.2182795E-01; -6.4633008E+02;3;  1.4924067E+01;  0.0000000E+00; -5.3480577E+00;0;  3.6397591E-01;  2.8634977E+04;  0.0000000E+00;  1.3208323E+01;  4.0000000E+04;  0.0000000E+00;  3.7571004E+04;  1.9632182E-01;  0.0000000E+00;  1.6765410E-01;  8.2757295E+03;
  1.7723444E+00;  9.9999998E-03;  6.1562829E-02;9843;  1.4288927E+00;  0.0000000E+00;  6.3277911E-03;  9.9909399E+02;  1.2182795E-01; -6.4633008E+02;3;  1.4924072E+01;  0.0000000E+00;  5.3480372E+00;0;  3.6397547E-01;  2.8634977E+04;  0.0000000E+00;  1.3208302E+01;  4.0000000E+04;  0.0000000E+00;  3.7571004E+04;  1.9632129E-01;  0.0000000E+00;  1.6765417E-01;  8.2757295E+03;
  1.7726027E+00;  9.9999998E-03; -5.1185962E-02;9832;  1.4268072E+00;  0.0000000E+00; -4.4806581E-03;  9.9886945E+02;  1.2182415E-01; -8.0618860E+02;3;  1.4274387E+01;  0.0000000E+00; -3.8990891E+00;0;  3.2478005E-01;  2.8626482E+04;  0.0000000E+00;  8.2875919E+00;  4.0000000E+04;  0.0000000E+00;  3.7568078E+04;  1.6690645E-01;  0.0000000E+00;  1.5787359E-01;  5.6723345E+03;
  1.7726027E+00;  9.9999998E-03;  5.1186208E-02;9842;  1.4268070E+00;  0.0000000E+00;  4.4820486E-03;  9.9886951E+02;  1.2182391E-01; -8.0614612E+02;3;  1.4274474E+01;  0.0000000E+00;  3.8991015E+00;0;  3.2477984E-01;  2.8626482E+04;  0.0000000E+00;  8.2874947E+00;  4.0000000E+04;  0.0000000E+00;  3.7568082E+04;  1.6690610E-01;  0.0000000E+00;  1.5787373E-01;  5.6723101E+03;
  1.7727830E+00;  9.9999998E-03; -4.0891569E-02;9833;  1.4253498E+00;  0.0000000E+00; -3.3128394E-03;  9.9868292E+02;  1.2182148E-01; -9.3888324E+02;3;  1.3714616E+01;  0.0000000E+00; -2.8159051E+00;0;  2.9183018E-01;  2.8618439E+04;  0.0000000E+00;  4.6528373E+00;  4.0000000E+04;  0.0000000E+00;  3.7566176E+04;  1.4374544E-01;  0.0000000E+00;  1.4808474E-01;  3.9395317E+03;
  1.7727832E+00;  9.9999998E-03;  4.0891819E-02;9841;  1.4253498E+00;  0.0000000E+00;  3.3141838E-03;  9.9868298E+02;  1.2182149E-01; -9.3884070E+02;3;  1.3714671E+01;  0.0000000E+00;  2.8158770E+00;0;  2.9183024E-01;  2.8618447E+04;  0.0000000E+00;  4.6527715E+00;  4.0000000E+04;  0.0000000E+00;  3.7566172E+04;  1.4374532E-01;  0.0000000E+00;  1.4808494E-01;  3.9395071E+03;
  1.7728909E+00;  9.9999998E-03; -3.0658230E-02;9834;  1.4243063E+00;  0.0000000E+00; -2.5193675E-03;  9.9856952E+02;  1.2182157E-01; -1.0195053E+03;3;  1.3259130E+01;  0.0000000E+00; -1.9760253E+00;0;  2.6521051E-01;  2.8611775E+04;  0.0000000E+00;  2.2384639E+00;  4.0000000E+04;  0.0000000E+00;  3.7566090E+04;  1.2598169E-01;  0.0000000E+00;  1.3922881E-01;  3.0054553E+03;
  1.7728909E+00;  9.9999998E-03;  3.0658476E-02;9840;  1.4243062E+00;  0.0000000E+00;  2.5206415E-03;  9.9856946E+02;  1.2182157E-01; -1.0195903E+03;3;  1.3259053E+01;  0.0000000E+00;  1.9759898E+00;0;  2.6521039E-01;  2.8611777E+04;  0.0000000E+00;  2.2384100E+00;  4.0000000E+04;  0.0000000E+00;  3.7566094E+04;  1.2598136E-01;  0.0000000E+00;  1.3922903E-01;  3.0054597E+03;
  1.7729412E+00;  9.9999998E-03; -2.0453947E-02;9835;  1.4235824E+00;  0.0000000E+00; -1.7904451E-03;  9.9851660E+02;  1.2182090E-01; -1.0571355E+03;3;  1.2905267E+01;  0.0000000E+00; -1.2701933E+00;0;  2.4546435E-01;  2.8607270E+04;  0.0000000E+00;  8.3756423E-01;  4.0000000E+04;  0.0000000E+00;  3.7567332E+04;  1.1330324E-01;  0.0000000E+00;  1.3216111E-01;  2.6197834E+03;
  1.7729412E+00;  9.9999998E-03;  2.0454194E-02;9839;  1.4235824E+00;  0.0000000E+00;  1.7917427E-03;  9.9851660E+02;  1.2182090E-01; -1.0571355E+03;3;  1.2905266E+01;  0.0000000E+00;  1.2701669E+00;0;  2.4546446E-01;  2.8607270E+04;  0.0000000E+00;  8.3752394E-01;  4.0000000E+04;  0.0000000E+00;  3.7567336E+04;  1.1330318E-01;  0.0000000E+00;  1.3216127E-01;  2.6197854E+03;
  1.7729585E+00;  9.9999998E-03;  1.2270927E-07;9837;  1.4230241E+00;  0.0000000E+00;  6.3483162E-07;  9.9850226E+02;  1.2181993E-01; -1.0673402E+03;3;  1.2588764E+01;  0.0000000E+00; -1.0549091E-05;0;  2.2914204E-01;  2.8604371E+04;  0.0000000E+00;  5.3338341E-12;  4.0000000E+04;  0.0000000E+00;  3.7570004E+04;  1.0313383E-01;  0.0000000E+00;  1.2600820E-01;  2.4470220E+03;
  1.7729564E+00;  9.9999998E-03; -1.0238946E-02;9836;  1.4231604E+00;  0.0000000E+00; -9.4646623E-04;  9.9850122E+02;  1.2182042E-01; -1.0680665E+03;3;  1.2669705E+01;  0.0000000E+00; -6.2542933E-01;0;  2.3326899E-01;  2.8605043E+04;  0.0000000E+00;  1.8013543E-01;  4.0000000E+04;  0.0000000E+00;  3.7569020E+04;  1.0567893E-01;  0.0000000E+00;  1.2759006E-01;  2.4835618E+03;
  1.7729564E+00;  9.9999998E-03;  1.0239194E-02;9838;  1.4231604E+00;  0.0000000E+00;  9.4773649E-04;  9.9850122E+02;  1.2182042E-01; -1.0680664E+03;3;  1.2669677E+01;  0.0000000E+00;  6.2540692E-01;0;  2.3326907E-01;  2.8605031E+04;  0.0000000E+00;  1.8011421E-01;  4.0000000E+04;  0.0000000E+00;  3.7569016E+04;  1.0567885E-01;  0.0000000E+00;  1.2759022E-01;  2.4835386E+03;
  1.7826474E+00;  9.9999998E-03; -9.3641169E-02;9867;  1.4472480E+00;  0.0000000E+00; -1.8118948E-02;  9.9887531E+02;  1.2130084E-01; -7.8746820E+02;3;  2.1508793E+01;  0.0000000E+00; -1.1537144E+01;0;  5.0163484E-01;  2.9026963E+04;  0.0000000E+00;  3.4317837E+01;  4.0000000E+04;  0.0000000E+00;  3.7372035E+04;  2.9064107E-01;  0.0000000E+00;  2.1099378E-01;  1.8525861E+04;
  1.7829858E+00;  9.9999998E-03; -8.3116353E-02;9868;  1.4400477E+00;  0.0000000E+00; -1.3941352E-02;  9.9911792E+02;  1.2129099E-01; -6.1721771E+02;3;  1.9999952E+01;  0.0000000E+00; -1.0142581E+01;0;  4.3226978E-01;  2.9040514E+04;  0.0000000E+00;  2.9242849E+01;  4.0000000E+04;  0.0000000E+00;  3.7377555E+04;  2.2896680E-01;  0.0000000E+00;  2.0330298E-01;  1.5493063E+04;
  1.7832989E+00;  9.9999998E-03; -7.2545037E-02;9869;  1.4345031E+00;  0.0000000E+00; -1.0430783E-02;  9.9929071E+02;  1.2128235E-01; -4.9601529E+02;3;  1.8218107E+01;  0.0000000E+00; -8.8280983E+00;0;  3.7665465E-01;  2.9047809E+04;  0.0000000E+00;  2.4102337E+01;  4.0000000E+04;  0.0000000E+00;  3.7385902E+04;  1.8337500E-01;  0.0000000E+00;  1.9327965E-01;  1.2493854E+04;
  1.7835765E+00;  9.9999998E-03; -6.1963119E-02;9870;  1.4305098E+00;  0.0000000E+00; -7.3416820E-03;  9.9935931E+02;  1.2127811E-01; -4.4780289E+02;3;  1.6796549E+01;  0.0000000E+00; -7.0050416E+00;0;  3.3145344E-01;  2.9048518E+04;  0.0000000E+00;  1.9014761E+01;  4.0000000E+04;  0.0000000E+00;  3.7392938E+04;  1.5019129E-01;  0.0000000E+00;  1.8126214E-01;  9.6551709E+03;
  1.7835765E+00;  9.9999998E-03;  6.1963361E-02;9882;  1.4305098E+00;  0.0000000E+00;  7.3430720E-03;  9.9935931E+02;  1.2127811E-01; -4.4780289E+02;3;  1.6796616E+01;  0.0000000E+00;  7.0049458E+00;0;  3.3145368E-01;  2.9048520E+04;  0.0000000E+00;  1.9014717E+01;  4.0000000E+04;  0.0000000E+00;  3.7392934E+04;  1.5019147E-01;  0.0000000E+00;  1.8126222E-01;  9.6551904E+03;
  1.7838093E+00;  9.9999998E-03; -5.1424515E-02;9871;  1.4276838E+00;  0.0000000E+00; -4.8011546E-03;  9.9928430E+02;  1.2127276E-01; -4.9998935E+02;3;  1.5706654E+01;  0.0000000E+00; -5.0337577E+00;0;  2.9419857E-01;  2.9045004E+04;  0.0000000E+00;  1.3989063E+01;  4.0000000E+04;  0.0000000E+00;  3.7395398E+04;  1.2561381E-01;  0.0000000E+00;  1.6858476E-01;  7.0472544E+03;
  1.7838093E+00;  9.9999998E-03;  5.1424757E-02;9881;  1.4276837E+00;  0.0000000E+00;  4.8024654E-03;  9.9928430E+02;  1.2127276E-01; -4.9998935E+02;3;  1.5706603E+01;  0.0000000E+00;  5.0337291E+00;0;  2.9419822E-01;  2.9045002E+04;  0.0000000E+00;  1.3988989E+01;  4.0000000E+04;  0.0000000E+00;  3.7395398E+04;  1.2561341E-01;  0.0000000E+00;  1.6858481E-01;  7.0472314E+03;
  1.7839942E+00;  9.9999998E-03; -4.0967684E-02;9872;  1.4257699E+00;  0.0000000E+00; -3.0864892E-03;  9.9913605E+02;  1.2127005E-01; -6.0338043E+02;3;  1.4877083E+01;  0.0000000E+00; -3.3903322E+00;0;  2.6416025E-01;  2.9038453E+04;  0.0000000E+00;  9.3058710E+00;  4.0000000E+04;  0.0000000E+00;  3.7394473E+04;  1.0751110E-01;  0.0000000E+00;  1.5664914E-01;  4.8133325E+03;
  1.7839942E+00;  9.9999998E-03;  4.0967938E-02;9880;  1.4257698E+00;  0.0000000E+00;  3.0878403E-03;  9.9913605E+02;  1.2127005E-01; -6.0338043E+02;3;  1.4877084E+01;  0.0000000E+00;  3.3902843E+00;0;  2.6415983E-01;  2.9038441E+04;  0.0000000E+00;  9.3057804E+00;  4.0000000E+04;  0.0000000E+00;  3.7394480E+04;  1.0751058E-01;  0.0000000E+00;  1.5664925E-01;  4.8133115E+03;
  1.7841280E+00;  9.9999998E-03; -3.0618032E-02;9873;  1.4244940E+00;  0.0000000E+00; -1.9872878E-03;  9.9895020E+02;  1.2126844E-01; -7.3298553E+02;3;  1.4242024E+01;  0.0000000E+00; -2.1384716E+00;0;  2.4062777E-01;  2.9031512E+04;  0.0000000E+00;  5.3142171E+00;  4.0000000E+04;  0.0000000E+00;  3.7390918E+04;  9.4317086E-02;  0.0000000E+00;  1.4631067E-01;  3.1504548E+03;
  1.7841280E+00;  9.9999998E-03;  3.0618295E-02;9879;  1.4244943E+00;  0.0000000E+00;  1.9886885E-03;  9.9895032E+02;  1.2126844E-01; -7.3290228E+02;3;  1.4242132E+01;  0.0000000E+00;  2.1385159E+00;0;  2.4062836E-01;  2.9031496E+04;  0.0000000E+00;  5.3140697E+00;  4.0000000E+04;  0.0000000E+00;  3.7390918E+04;  9.4317473E-02;  0.0000000E+00;  1.4631088E-01;  3.1503501E+03;
  1.7842147E+00;  9.9999998E-03; -2.0368934E-02;9874;  1.4237077E+00;  0.0000000E+00; -1.2202380E-03;  9.9878949E+02;  1.2126765E-01; -8.4504248E+02;3;  1.3817371E+01;  0.0000000E+00; -1.2266525E+00;0;  2.2363529E-01;  2.9025709E+04;  0.0000000E+00;  2.3387785E+00;  4.0000000E+04;  0.0000000E+00;  3.7387129E+04;  8.5328370E-02;  0.0000000E+00;  1.3830692E-01;  2.2564185E+03;
  1.7842147E+00;  9.9999998E-03;  2.0369185E-02;9878;  1.4237076E+00;  0.0000000E+00;  1.2215123E-03;  9.9878949E+02;  1.2126765E-01; -8.4504248E+02;3;  1.3817302E+01;  0.0000000E+00;  1.2266271E+00;0;  2.2363473E-01;  2.9025699E+04;  0.0000000E+00;  2.3387222E+00;  4.0000000E+04;  0.0000000E+00;  3.7387125E+04;  8.5327864E-02;  0.0000000E+00;  1.3830687E-01;  2.2563850E+03;
  1.7842760E+00;  9.9999998E-03;  1.2249512E-07;9876;  1.4231447E+00;  0.0000000E+00;  6.3779214E-07;  9.9865973E+02;  1.2126766E-01; -9.3551630E+02;3;  1.3486225E+01;  0.0000000E+00; -1.0717660E-05;0;  2.0980985E-01;  2.9020727E+04;  0.0000000E+00;  1.1431091E-11;  4.0000000E+04;  0.0000000E+00;  3.7384273E+04;  7.8315765E-02;  0.0000000E+00;  1.3149409E-01;  2.0205103E+03;
  1.7842618E+00;  9.9999998E-03; -1.0179808E-02;9875;  1.4232814E+00;  0.0000000E+00; -5.8745028E-04;  9.9869049E+02;  1.2126783E-01; -9.1407324E+02;3;  1.3569456E+01;  0.0000000E+00; -5.5505294E-01;0;  2.1329543E-01;  2.9021750E+04;  0.0000000E+00;  5.6828326E-01;  4.0000000E+04;  0.0000000E+00;  3.7385035E+04;  8.0061458E-02;  0.0000000E+00;  1.3323396E-01;  2.0280444E+03;
  1.7842618E+00;  9.9999998E-03;  1.0180054E-02;9877;  1.4232813E+00;  0.0000000E+00;  5.8873062E-04;  9.9869049E+02;  1.2126807E-01; -9.1407324E+02;3;  1.3569468E+01;  0.0000000E+00;  5.5502915E-01;0;  2.1329519E-01;  2.9021750E+04;  0.0000000E+00;  5.6826425E-01;  4.0000000E+04;  0.0000000E+00;  3.7385035E+04;  8.0060981E-02;  0.0000000E+00;  1.3323420E-01;  2.0280421E+03;
  1.7940108E+00;  9.9999998E-03; -9.4115131E-02;9903;  1.4521277E+00;  0.0000000E+00; -1.8267808E-02;  9.9918475E+02;  1.2083641E-01; -5.5819641E+02;3;  2.4692528E+01;  0.0000000E+00; -1.3103975E+01;0;  4.8123819E-01;  2.9420297E+04;  0.0000000E+00;  2.4993431E+01;  4.0000000E+04;  0.0000000E+00;  3.7178895E+04;  2.5304803E-01;  0.0000000E+00;  2.2819014E-01;  1.2995503E+04;
  1.7943168E+00;  9.9999998E-03; -8.3605520E-02;9904;  1.4439983E+00;  0.0000000E+00; -1.4375216E-02;  9.9931744E+02;  1.2082849E-01; -4.6702002E+02;3;  2.3180929E+01;  0.0000000E+00; -1.1624006E+01;0;  4.0506983E-01;  2.9427922E+04;  0.0000000E+00;  2.4179813E+01;  4.0000000E+04;  0.0000000E+00;  3.7183613E+04;  1.8682559E-01;  0.0000000E+00;  2.1824424E-01;  1.1955086E+04;
  1.7946000E+00;  9.9999998E-03; -7.3045343E-02;9905;  1.4375257E+00;  0.0000000E+00; -1.1138536E-02;  9.9947900E+02;  1.2082200E-01; -3.5628754E+02;3;  2.1237358E+01;  0.0000000E+00; -1.0117636E+01;0;  3.4594792E-01;  2.9433193E+04;  0.0000000E+00;  2.2180061E+01;  4.0000000E+04;  0.0000000E+00;  3.7192488E+04;  1.3979563E-01;  0.0000000E+00;  2.0615231E-01;  1.0453548E+04;
  1.7948507E+00;  9.9999998E-03; -6.2444720E-02;9906;  1.4326795E+00;  0.0000000E+00; -8.3362730E-03;  9.9964417E+02;  1.2081681E-01; -2.4321472E+02;3;  1.9191374E+01;  0.0000000E+00; -8.6055288E+00;0;  3.0021822E-01;  2.9436371E+04;  0.0000000E+00;  1.9460150E+01;  4.0000000E+04;  0.0000000E+00;  3.7203172E+04;  1.0807553E-01;  0.0000000E+00;  1.9214271E-01;  8.7354082E+03;
  1.7948507E+00;  9.9999998E-03;  6.2444955E-02;9918;  1.4326797E+00;  0.0000000E+00;  8.3376952E-03;  9.9964417E+02;  1.2081686E-01; -2.4321472E+02;3;  1.9191425E+01;  0.0000000E+00;  8.6055384E+00;0;  3.0021983E-01;  2.9436385E+04;  0.0000000E+00;  1.9460361E+01;  4.0000000E+04;  0.0000000E+00;  3.7203172E+04;  1.0807694E-01;  0.0000000E+00;  1.9214289E-01;  8.7354922E+03;
  1.7950613E+00;  9.9999998E-03; -5.1828269E-02;9907;  1.4291741E+00;  0.0000000E+00; -5.7399445E-03;  9.9974756E+02;  1.2081208E-01; -1.7245689E+02;3;  1.7607334E+01;  0.0000000E+00; -6.7068892E+00;0;  2.6406270E-01;  2.9437418E+04;  0.0000000E+00;  1.6186871E+01;  4.0000000E+04;  0.0000000E+00;  3.7212129E+04;  8.6863168E-02;  0.0000000E+00;  1.7719953E-01;  6.9320405E+03;
  1.7950613E+00;  9.9999998E-03;  5.1828515E-02;9917;  1.4291737E+00;  0.0000000E+00;  5.7411199E-03;  9.9974750E+02;  1.2081207E-01; -1.7249760E+02;3;  1.7607122E+01;  0.0000000E+00;  6.7067761E+00;0;  2.6406127E-01;  2.9437418E+04;  0.0000000E+00;  1.6186865E+01;  4.0000000E+04;  0.0000000E+00;  3.7212137E+04;  8.6861841E-02;  0.0000000E+00;  1.7719944E-01;  6.9320488E+03;
  1.7952338E+00;  9.9999998E-03; -4.1244786E-02;9908;  1.4267079E+00;  0.0000000E+00; -3.5717322E-03;  9.9974164E+02;  1.2080958E-01; -1.7646626E+02;3;  1.6477859E+01;  0.0000000E+00; -4.6701179E+00;0;  2.3568571E-01;  2.9435148E+04;  0.0000000E+00;  1.2290364E+01;  4.0000000E+04;  0.0000000E+00;  3.7216375E+04;  7.2600186E-02;  0.0000000E+00;  1.6308552E-01;  5.0804453E+03;
  1.7952338E+00;  9.9999998E-03;  4.1245032E-02;9916;  1.4267076E+00;  0.0000000E+00;  3.5728659E-03;  9.9974158E+02;  1.2080957E-01; -1.7650697E+02;3;  1.6477539E+01;  0.0000000E+00;  4.6700563E+00;0;  2.3568442E-01;  2.9435168E+04;  0.0000000E+00;  1.2290302E+01;  4.0000000E+04;  0.0000000E+00;  3.7216379E+04;  7.2598875E-02;  0.0000000E+00;  1.6308555E-01;  5.0804185E+03;
  1.7953676E+00;  9.9999998E-03; -3.0751839E-02;9909;  1.4250410E+00;  0.0000000E+00; -2.0239779E-03;  9.9961017E+02;  1.2080819E-01; -2.6615240E+02;3;  1.5659502E+01;  0.0000000E+00; -2.9038429E+00;0;  2.1425681E-01;  2.9430246E+04;  0.0000000E+00;  7.9924641E+00;  4.0000000E+04;  0.0000000E+00;  3.7213977E+04;  6.3090444E-02;  0.0000000E+00;  1.5116636E-01;  3.3101772E+03;
  1.7953676E+00;  9.9999998E-03;  3.0752083E-02;9915;  1.4250407E+00;  0.0000000E+00;  2.0253090E-03;  9.9961017E+02;  1.2080819E-01; -2.6615240E+02;3;  1.5659488E+01;  0.0000000E+00;  2.9038205E+00;0;  2.1425548E-01;  2.9430250E+04;  0.0000000E+00;  7.9924321E+00;  4.0000000E+04;  0.0000000E+00;  3.7213980E+04;  6.3089140E-02;  0.0000000E+00;  1.5116635E-01;  3.3101689E+03;
  1.7954640E+00;  9.9999998E-03; -2.0401072E-02;9910;  1.4240513E+00;  0.0000000E+00; -1.0275346E-03;  9.9940155E+02;  1.2080765E-01; -4.0850732E+02;3;  1.5144407E+01;  0.0000000E+00; -1.5586728E+00;0;  1.9963533E-01;  2.9424096E+04;  0.0000000E+00;  3.9142876E+00;  4.0000000E+04;  0.0000000E+00;  3.7207000E+04;  5.7394139E-02;  0.0000000E+00;  1.4224119E-01;  1.9477216E+03;
  1.7954640E+00;  9.9999998E-03;  2.0401318E-02;9914;  1.4240514E+00;  0.0000000E+00;  1.0288507E-03;  9.9940155E+02;  1.2080765E-01; -4.0850732E+02;3;  1.5144417E+01;  0.0000000E+00;  1.5586410E+00;0;  1.9963606E-01;  2.9424105E+04;  0.0000000E+00;  3.9142497E+00;  4.0000000E+04;  0.0000000E+00;  3.7207004E+04;  5.7394911E-02;  0.0000000E+00;  1.4224115E-01;  1.9477151E+03;
  1.7955230E+00;  9.9999998E-03; -1.0175144E-02;9911;  1.4235772E+00;  0.0000000E+00; -3.9473121E-04;  9.9922290E+02;  1.2080933E-01; -5.3042523E+02;3;  1.4865386E+01;  0.0000000E+00; -6.4691132E-01;0;  1.9133526E-01;  2.9418896E+04;  0.0000000E+00;  1.0191277E+00;  4.0000000E+04;  0.0000000E+00;  3.7200207E+04;  5.4595519E-02;  0.0000000E+00;  1.3673975E-01;  1.4498394E+03;
  1.7955230E+00;  9.9999998E-03;  1.0175391E-02;9913;  1.4235772E+00;  0.0000000E+00;  3.9603189E-04;  9.9922284E+02;  1.2080857E-01; -5.3046588E+02;3;  1.4865077E+01;  0.0000000E+00;  6.4687872E-01;0;  1.9133523E-01;  2.9418898E+04;  0.0000000E+00;  1.0191076E+00;  4.0000000E+04;  0.0000000E+00;  3.7200203E+04;  5.4595526E-02;  0.0000000E+00;  1.3673970E-01;  1.4498207E+03;
  1.7955425E+00;  9.9999998E-03;  1.2273465E-07;9912;  1.4234339E+00;  0.0000000E+00;  6.5512035E-07;  9.9915735E+02;  1.2080892E-01; -5.7511273E+02;3;  1.4779415E+01;  0.0000000E+00; -7.5772405E-06;0;  1.8861815E-01;  2.9417205E+04;  0.0000000E+00;  1.3416355E-11;  4.0000000E+04;  0.0000000E+00;  3.7197695E+04;  5.3730525E-02;  0.0000000E+00;  1.3488764E-01;  1.4560892E+03;
  1.8053714E+00;  9.9999998E-03; -9.4425388E-02;9937;  1.4572470E+00;  0.0000000E+00; -1.8042991E-02;  1.0002928E+03;  1.2044574E-01;  1.9568472E+02;3;  2.7587502E+01;  0.0000000E+00; -1.4572164E+01;0;  4.7748512E-01;  2.9806498E+04;  0.0000000E+00;  9.7768421E+00;  4.0000000E+04;  0.0000000E+00;  3.7013945E+04;  2.3770206E-01;  0.0000000E+00;  2.3978308E-01;  5.9983218E+03;
  1.8056488E+00;  9.9999998E-03; -8.3941534E-02;9938;  1.4482169E+00;  0.0000000E+00; -1.4201922E-02;  1.0002115E+03;  1.2044095E-01;  1.4133919E+02;3;  2.6275112E+01;  0.0000000E+00; -1.3021359E+01;0;  3.8896897E-01;  2.9806422E+04;  0.0000000E+00;  1.2618302E+01;  4.0000000E+04;  0.0000000E+00;  3.7010430E+04;  1.6134293E-01;  0.0000000E+00;  2.2762604E-01;  6.5023247E+03;
  1.8059076E+00;  9.9999998E-03; -7.3415324E-02;9939;  1.4408394E+00;  0.0000000E+00; -1.1075346E-02;  1.0002010E+03;  1.2043773E-01;  1.3425562E+02;3;  2.4316425E+01;  0.0000000E+00; -1.1340631E+01;0;  3.2126987E-01;  2.9806152E+04;  0.0000000E+00;  1.3748201E+01;  4.0000000E+04;  0.0000000E+00;  3.7012316E+04;  1.0731683E-01;  0.0000000E+00;  2.1395305E-01;  6.3556338E+03;
  1.8061395E+00;  9.9999998E-03; -6.2853128E-02;9940;  1.4351816E+00;  0.0000000E+00; -8.5875802E-03;  1.0002456E+03;  1.2043446E-01;  1.6385623E+02;3;  2.2146463E+01;  0.0000000E+00; -9.6802330E+00;0;  2.7147850E-01;  2.9805762E+04;  0.0000000E+00;  1.3498280E+01;  4.0000000E+04;  0.0000000E+00;  3.7017395E+04;  7.2477393E-02;  0.0000000E+00;  1.9900110E-01;  5.7421147E+03;
  1.8061395E+00;  9.9999998E-03;  6.2853366E-02;9952;  1.4351814E+00;  0.0000000E+00;  8.5886931E-03;  1.0002455E+03;  1.2043446E-01;  1.6385623E+02;3;  2.2145660E+01;  0.0000000E+00;  9.6799469E+00;0;  2.7147520E-01;  2.9805762E+04;  0.0000000E+00;  1.3498262E+01;  4.0000000E+04;  0.0000000E+00;  3.7017391E+04;  7.2474413E-02;  0.0000000E+00;  1.9900079E-01;  5.7421157E+03;
  1.8063374E+00;  9.9999998E-03; -5.2253883E-02;9941;  1.4310066E+00;  0.0000000E+00; -6.4095878E-03;  1.0003270E+03;  1.2043118E-01;  2.1808820E+02;3;  1.9975710E+01;  0.0000000E+00; -8.1443205E+00;0;  2.3456571E-01;  2.9806037E+04;  0.0000000E+00;  1.2415380E+01;  4.0000000E+04;  0.0000000E+00;  3.7024840E+04;  5.1392402E-02;  0.0000000E+00;  1.8317330E-01;  4.8838994E+03;
  1.8063374E+00;  9.9999998E-03;  5.2254125E-02;9951;  1.4310067E+00;  0.0000000E+00;  6.4110202E-03;  1.0003270E+03;  1.2043146E-01;  2.1808821E+02;3;  1.9975851E+01;  0.0000000E+00;  8.1443090E+00;0;  2.3456764E-01;  2.9806027E+04;  0.0000000E+00;  1.2415486E+01;  4.0000000E+04;  0.0000000E+00;  3.7024836E+04;  5.1394083E-02;  0.0000000E+00;  1.8317355E-01;  4.8839360E+03;
  1.8064997E+00;  9.9999998E-03; -4.1635029E-02;9942;  1.4280319E+00;  0.0000000E+00; -4.3095574E-03;  1.0003865E+03;  1.2042873E-01;  2.5767004E+02;3;  1.8445509E+01;  0.0000000E+00; -6.1691747E+00;0;  2.0685396E-01;  2.9805439E+04;  0.0000000E+00;  1.0601797E+01;  4.0000000E+04;  0.0000000E+00;  3.7031469E+04;  3.9153412E-02;  0.0000000E+00;  1.6770054E-01;  3.8752349E+03;
  1.8064997E+00;  9.9999998E-03;  4.1635271E-02;9950;  1.4280322E+00;  0.0000000E+00;  4.3111308E-03;  1.0003865E+03;  1.2042873E-01;  2.5767004E+02;3;  1.8446146E+01;  0.0000000E+00;  6.1692700E+00;0;  2.0685816E-01;  2.9805461E+04;  0.0000000E+00;  1.0601850E+01;  4.0000000E+04;  0.0000000E+00;  3.7031469E+04;  3.9157182E-02;  0.0000000E+00;  1.6770098E-01;  3.8752407E+03;
  1.8066276E+00;  9.9999998E-03; -3.1048112E-02;9943;  1.4259533E+00;  0.0000000E+00; -2.4740465E-03;  1.0003404E+03;  1.2042846E-01;  2.2684772E+02;3;  1.7409803E+01;  0.0000000E+00; -4.0787592E+00;0;  1.8627307E-01;  2.9802609E+04;  0.0000000E+00;  7.8571148E+00;  4.0000000E+04;  0.0000000E+00;  3.7032375E+04;  3.1896073E-02;  0.0000000E+00;  1.5437700E-01;  2.7114377E+03;
  1.8066276E+00;  9.9999998E-03;  3.1048361E-02;9949;  1.4259529E+00;  0.0000000E+00;  2.4752491E-03;  1.0003403E+03;  1.2042835E-01;  2.2684772E+02;3;  1.7409067E+01;  0.0000000E+00;  4.0786395E+00;0;  1.8627018E-01;  2.9802605E+04;  0.0000000E+00;  7.8570404E+00;  4.0000000E+04;  0.0000000E+00;  3.7032375E+04;  3.1893153E-02;  0.0000000E+00;  1.5437703E-01;  2.7114180E+03;
  1.8067216E+00;  9.9999998E-03; -2.0570770E-02;9944;  1.4246510E+00;  0.0000000E+00; -1.1675848E-03;  1.0001584E+03;  1.2042723E-01;  1.0557552E+02;3;  1.6758368E+01;  0.0000000E+00; -2.2713957E+00;0;  1.7268194E-01;  2.9798047E+04;  0.0000000E+00;  4.3431497E+00;  4.0000000E+04;  0.0000000E+00;  3.7025559E+04;  2.8162545E-02;  0.0000000E+00;  1.4451940E-01;  1.4934839E+03;
  1.8067216E+00;  9.9999998E-03;  2.0571023E-02;9948;  1.4246509E+00;  0.0000000E+00;  1.1688917E-03;  1.0001584E+03;  1.2042715E-01;  1.0557551E+02;3;  1.6758760E+01;  0.0000000E+00;  2.2714520E+00;0;  1.7268094E-01;  2.9798041E+04;  0.0000000E+00;  4.3430810E+00;  4.0000000E+04;  0.0000000E+00;  3.7025562E+04;  2.8161652E-02;  0.0000000E+00;  1.4451930E-01;  1.4934493E+03;
  1.8067805E+00;  9.9999998E-03; -1.0242189E-02;9945;  1.4240222E+00;  0.0000000E+00; -4.1858916E-04;  9.9994299E+02;  1.2042800E-01; -3.7967289E+01;3;  1.6433346E+01;  0.0000000E+00; -9.4330442E-01;0;  1.6568621E-01;  2.9792865E+04;  0.0000000E+00;  1.2251904E+00;  4.0000000E+04;  0.0000000E+00;  3.7016621E+04;  2.7074546E-02;  0.0000000E+00;  1.3861166E-01;  7.4671527E+02;
  1.8067806E+00;  9.9999998E-03;  1.0242442E-02;9947;  1.4240222E+00;  0.0000000E+00;  4.1994744E-04;  9.9994305E+02;  1.2042815E-01; -3.7927574E+01;3;  1.6433338E+01;  0.0000000E+00;  9.4332600E-01;0;  1.6568631E-01;  2.9792857E+04;  0.0000000E+00;  1.2251551E+00;  4.0000000E+04;  0.0000000E+00;  3.7016621E+04;  2.7074587E-02;  0.0000000E+00;  1.3861172E-01;  7.4665485E+02;
  1.8068005E+00;  9.9999998E-03;  1.2273793E-07;9946;  1.4238528E+00;  0.0000000E+00;  6.6966993E-07;  9.9985028E+02;  1.2042886E-01; -9.9759033E+01;3;  1.6336622E+01;  0.0000000E+00; -1.0728836E-06;0;  1.6367641E-01;  2.9790979E+04;  0.0000000E+00;  1.8928198E-11;  4.0000000E+04;  0.0000000E+00;  3.7012367E+04;  2.7020983E-02;  0.0000000E+00;  1.3665542E-01;  7.2741333E+02;
  1.8167280E+00;  9.9999998E-03; -9.4676942E-02;9968;  1.4630811E+00;  0.0000000E+00; -1.8170753E-02;  1.0016110E+03;  1.2011908E-01;  1.0494883E+03;3;  2.9942657E+01;  0.0000000E+00; -1.6233448E+01;0;  5.0640386E-01;  3.0167871E+04;  0.0000000E+00; -5.1256318E+00;  4.0000000E+04;  0.0000000E+00;  3.6860688E+04;  2.5772992E-01;  0.0000000E+00;  2.4867396E-01;  3.5221725E+02;
  1.8169788E+00;  9.9999998E-03; -8.4210843E-02;9969;  1.4532856E+00;  0.0000000E+00; -1.4178005E-02;  1.0014222E+03;  1.2011769E-01;  9.2593683E+02;3;  2.8986061E+01;  0.0000000E+00; -1.4582287E+01;0;  4.0169412E-01;  3.0165973E+04;  0.0000000E+00; -1.5648534E+00;  4.0000000E+04;  0.0000000E+00;  3.6850645E+04;  1.6816019E-01;  0.0000000E+00;  2.3353393E-01;  1.1080365E+03;
  1.8172134E+00;  9.9999998E-03; -7.3710635E-02;9970;  1.4449313E+00;  0.0000000E+00; -1.0910786E-02;  1.0012786E+03;  1.2011647E-01;  8.3195831E+02;3;  2.7317286E+01;  0.0000000E+00; -1.2740407E+01;0;  3.1803957E-01;  3.0163367E+04;  0.0000000E+00;  1.2919607E+00;  4.0000000E+04;  0.0000000E+00;  3.6844484E+04;  1.0018445E-01;  0.0000000E+00;  2.1785511E-01;  1.7146422E+03;
  1.8174256E+00;  9.9999998E-03; -6.3178271E-02;9971;  1.4383363E+00;  0.0000000E+00; -8.4386319E-03;  1.0011821E+03;  1.2011404E-01;  7.6882312E+02;3;  2.5221077E+01;  0.0000000E+00; -1.0879010E+01;0;  2.5684148E-01;  3.0160463E+04;  0.0000000E+00;  3.1214125E+00;  4.0000000E+04;  0.0000000E+00;  3.6842301E+04;  5.4865159E-02;  0.0000000E+00;  2.0197631E-01;  1.9576437E+03;
  1.8174256E+00;  9.9999998E-03;  6.3178509E-02;9983;  1.4383366E+00;  0.0000000E+00;  8.4403241E-03;  1.0011821E+03;  1.2011405E-01;  7.6882312E+02;3;  2.5220894E+01;  0.0000000E+00;  1.0879025E+01;0;  2.5684780E-01;  3.0160451E+04;  0.0000000E+00;  3.1215744E+00;  4.0000000E+04;  0.0000000E+00;  3.6842301E+04;  5.4870661E-02;  0.0000000E+00;  2.0197715E-01;  1.9576852E+03;
  1.8176105E+00;  9.9999998E-03; -5.2613761E-02;9972;  1.4332936E+00;  0.0000000E+00; -6.5002320E-03;  1.0011354E+03;  1.2011185E-01;  7.3811243E+02;3;  2.2877113E+01;  0.0000000E+00; -9.2167702E+00;0;  2.1247306E-01;  3.0157926E+04;  0.0000000E+00;  4.0562916E+00;  4.0000000E+04;  0.0000000E+00;  3.6843395E+04;  2.6599305E-02;  0.0000000E+00;  1.8587376E-01;  1.9204486E+03;
  1.8176105E+00;  9.9999998E-03;  5.2614052E-02;9982;  1.4332933E+00;  0.0000000E+00;  6.5013994E-03;  1.0011354E+03;  1.2011189E-01;  7.3818982E+02;3;  2.2877583E+01;  0.0000000E+00;  9.2166719E+00;0;  2.1246874E-01;  3.0157893E+04;  0.0000000E+00;  4.0552664E+00;  4.0000000E+04;  0.0000000E+00;  3.6843395E+04;  2.6595330E-02;  0.0000000E+00;  1.8587342E-01;  1.9202042E+03;
  1.8177644E+00;  9.9999998E-03; -4.2022489E-02;9973;  1.4296463E+00;  0.0000000E+00; -4.7860951E-03;  1.0011166E+03;  1.2011058E-01;  7.2568475E+02;3;  2.0720169E+01;  0.0000000E+00; -7.5535436E+00;0;  1.8125774E-01;  3.0155246E+04;  0.0000000E+00;  4.2678781E+00;  4.0000000E+04;  0.0000000E+00;  3.6845895E+04;  1.1056188E-02;  0.0000000E+00;  1.7020155E-01;  1.7034210E+03;
  1.8177644E+00;  9.9999998E-03;  4.2022754E-02;9981;  1.4296458E+00;  0.0000000E+00;  4.7872174E-03;  1.0011166E+03;  1.2011058E-01;  7.2568469E+02;3;  2.0719543E+01;  0.0000000E+00;  7.5534921E+00;0;  1.8125208E-01;  3.0155248E+04;  0.0000000E+00;  4.2674332E+00;  4.0000000E+04;  0.0000000E+00;  3.6845891E+04;  1.1050840E-02;  0.0000000E+00;  1.7020124E-01;  1.7033402E+03;
  1.8178856E+00;  9.9999998E-03; -3.1420812E-02;9974;  1.4271274E+00;  0.0000000E+00; -3.0612422E-03;  1.0010764E+03;  1.2011018E-01;  6.9930139E+02;3;  1.9334831E+01;  0.0000000E+00; -5.4007993E+00;0;  1.5947521E-01;  3.0152420E+04;  0.0000000E+00;  3.8089952E+00;  4.0000000E+04;  0.0000000E+00;  3.6847105E+04;  3.2794899E-03;  0.0000000E+00;  1.5619572E-01;  1.3615382E+03;
  1.8178856E+00;  9.9999998E-03;  3.1421058E-02;9980;  1.4271274E+00;  0.0000000E+00;  3.0626326E-03;  1.0010764E+03;  1.2010988E-01;  6.9930139E+02;3;  1.9334801E+01;  0.0000000E+00;  5.4007778E+00;0;  1.5947565E-01;  3.0152404E+04;  0.0000000E+00;  3.8089755E+00;  4.0000000E+04;  0.0000000E+00;  3.6847105E+04;  3.2799912E-03;  0.0000000E+00;  1.5619567E-01;  1.3615363E+03;
  1.8179742E+00;  9.9999998E-03; -2.0859774E-02;9975;  1.4254752E+00;  0.0000000E+00; -1.5580402E-03;  1.0009521E+03;  1.2010989E-01;  6.1847009E+02;3;  1.8440729E+01;  0.0000000E+00; -3.2747147E+00;0;  1.4501861E-01;  3.0148404E+04;  0.0000000E+00;  2.4922810E+00;  4.0000000E+04;  0.0000000E+00;  3.6843094E+04; -5.3185172E-04;  0.0000000E+00;  1.4555046E-01;  8.5782855E+02;
  1.8179743E+00;  9.9999998E-03;  2.0860039E-02;9979;  1.4254745E+00;  0.0000000E+00;  1.5589969E-03;  1.0009519E+03;  1.2011012E-01;  6.1831525E+02;3;  1.8439083E+01;  0.0000000E+00;  3.2744832E+00;0;  1.4500880E-01;  3.0148406E+04;  0.0000000E+00;  2.4920979E+00;  4.0000000E+04;  0.0000000E+00;  3.6843090E+04; -5.4135663E-04;  0.0000000E+00;  1.4555016E-01;  8.5780023E+02;
  1.8180298E+00;  9.9999998E-03; -1.0394585E-02;9976;  1.4245747E+00;  0.0000000E+00; -5.7525432E-04;  1.0007736E+03;  1.2011032E-01;  5.0240805E+02;3;  1.7957668E+01;  0.0000000E+00; -1.4580607E+00;0;  1.3729516E-01;  3.0144129E+04;  0.0000000E+00;  7.8375846E-01;  4.0000000E+04;  0.0000000E+00;  3.6835215E+04; -1.9034880E-03;  0.0000000E+00;  1.3919865E-01;  3.2738245E+02;
  1.8180298E+00;  9.9999998E-03;  1.0394839E-02;9978;  1.4245749E+00;  0.0000000E+00;  5.7662552E-04;  1.0007736E+03;  1.2011016E-01;  5.0240805E+02;3;  1.7957914E+01;  0.0000000E+00;  1.4580854E+00;0;  1.3729684E-01;  3.0144117E+04;  0.0000000E+00;  7.8372508E-01;  4.0000000E+04;  0.0000000E+00;  3.6835211E+04; -1.9019118E-03;  0.0000000E+00;  1.3919875E-01;  3.2734698E+02;
  1.8180488E+00;  9.9999998E-03;  1.2493754E-07;9977;  1.4243022E+00;  0.0000000E+00;  6.8385111E-07;  1.0006929E+03;  1.2011065E-01;  4.5004907E+02;3;  1.7830322E+01;  0.0000000E+00;  1.4334917E-05;0;  1.3503283E-01;  3.0142383E+04;  0.0000000E+00;  1.4265624E-11;  4.0000000E+04;  0.0000000E+00;  3.6831699E+04; -2.0913326E-03;  0.0000000E+00;  1.3712417E-01;  1.5437540E+02;
  1.8280593E+00;  9.9999998E-03; -9.4931677E-02;9995;  1.4680310E+00;  0.0000000E+00; -1.7799260E-02;  1.0024690E+03;  1.1985237E-01;  1.5657361E+03;3;  3.0771378E+01;  0.0000000E+00; -1.7838270E+01;0;  5.4311693E-01;  3.0489572E+04;  0.0000000E+00; -3.9549489E+00;  4.0000000E+04;  0.0000000E+00;  3.6692996E+04;  2.9093361E-01;  0.0000000E+00;  2.5218332E-01;  1.7209818E+03;
  1.8282927E+00;  9.9999998E-03; -8.4485054E-02;9996;  1.4585333E+00;  0.0000000E+00; -1.4010336E-02;  1.0023009E+03;  1.1985168E-01;  1.4583165E+03;3;  3.0721575E+01;  0.0000000E+00; -1.6062946E+01;0;  4.3962565E-01;  3.0491213E+04;  0.0000000E+00; -6.7229714E+00;  4.0000000E+04;  0.0000000E+00;  3.6680082E+04;  2.0374297E-01;  0.0000000E+00;  2.3588268E-01;  1.6963861E+03;
  1.8285071E+00;  9.9999998E-03; -7.4006274E-02;9997;  1.4496980E+00;  0.0000000E+00; -1.0800900E-02;  1.0021608E+03;  1.1985101E-01;  1.3688262E+03;3;  2.9607582E+01;  0.0000000E+00; -1.4164864E+01;0;  3.4495598E-01;  3.0491574E+04;  0.0000000E+00; -6.7839055E+00;  4.0000000E+04;  0.0000000E+00;  3.6670734E+04;  1.2590392E-01;  0.0000000E+00;  2.1905208E-01;  1.4909915E+03;
  1.8287010E+00;  9.9999998E-03; -6.3497789E-02;9998;  1.4423405E+00;  0.0000000E+00; -8.3016502E-03;  1.0020419E+03;  1.1985026E-01;  1.2929270E+03;3;  2.7857485E+01;  0.0000000E+00; -1.2235085E+01;0;  2.7025464E-01;  3.0490006E+04;  0.0000000E+00; -5.7136626E+00;  4.0000000E+04;  0.0000000E+00;  3.6664402E+04;  6.7864478E-02;  0.0000000E+00;  2.0239016E-01;  1.2624557E+03;
  1.8287010E+00;  9.9999998E-03;  6.3498057E-02;10010;  1.4423404E+00;  0.0000000E+00;  8.3029140E-03;  1.0020419E+03;  1.1985026E-01;  1.2929270E+03;3;  2.7857458E+01;  0.0000000E+00;  1.2234903E+01;0;  2.7025333E-01;  3.0489975E+04;  0.0000000E+00; -5.7141418E+00;  4.0000000E+04;  0.0000000E+00;  3.6664398E+04;  6.7863457E-02;  0.0000000E+00;  2.0238988E-01;  1.2625217E+03;
  1.8288714E+00;  9.9999998E-03; -5.2963316E-02;9999;  1.4364712E+00;  0.0000000E+00; -6.4123892E-03;  1.0019396E+03;  1.1984927E-01;  1.2275806E+03;3;  2.5750555E+01;  0.0000000E+00; -1.0437184E+01;0;  2.1367325E-01;  3.0487369E+04;  0.0000000E+00; -4.3767476E+00;  4.0000000E+04;  0.0000000E+00;  3.6660359E+04;  2.7576376E-02;  0.0000000E+00;  1.8609688E-01;  1.1148926E+03;
  1.8288714E+00;  9.9999998E-03;  5.2963533E-02;10009;  1.4364711E+00;  0.0000000E+00;  6.4136493E-03;  1.0019396E+03;  1.1984927E-01;  1.2275806E+03;3;  2.5750557E+01;  0.0000000E+00;  1.0437121E+01;0;  2.1367235E-01;  3.0487398E+04;  0.0000000E+00; -4.3762074E+00;  4.0000000E+04;  0.0000000E+00;  3.6660359E+04;  2.7575672E-02;  0.0000000E+00;  1.8609668E-01;  1.1148461E+03;
  1.8290142E+00;  9.9999998E-03; -4.2408485E-02;10000;  1.4320902E+00;  0.0000000E+00; -4.9802959E-03;  1.0018648E+03;  1.1984859E-01;  1.1798636E+03;3;  2.3578691E+01;  0.0000000E+00; -8.8130779E+00;0;  1.7375922E-01;  3.0484770E+04;  0.0000000E+00; -3.1184552E+00;  4.0000000E+04;  0.0000000E+00;  3.6658156E+04;  3.0266633E-03;  0.0000000E+00;  1.7073256E-01;  1.0495662E+03;
  1.8290142E+00;  9.9999998E-03;  4.2408731E-02;10008;  1.4320903E+00;  0.0000000E+00;  4.9817665E-03;  1.0018648E+03;  1.1984794E-01;  1.1798636E+03;3;  2.3578955E+01;  0.0000000E+00;  8.8130627E+00;0;  1.7376205E-01;  3.0484773E+04;  0.0000000E+00; -3.1184425E+00;  4.0000000E+04;  0.0000000E+00;  3.6658160E+04;  3.0292086E-03;  0.0000000E+00;  1.7073284E-01;  1.0495277E+03;
  1.8291262E+00;  9.9999998E-03; -3.1832974E-02;10001;  1.4290651E+00;  0.0000000E+00; -3.7611162E-03;  1.0018282E+03;  1.1984777E-01;  1.1563937E+03;3;  2.1954880E+01;  0.0000000E+00; -6.9755583E+00;0;  1.4750572E-01;  3.0482881E+04;  0.0000000E+00; -1.9533490E+00;  4.0000000E+04;  0.0000000E+00;  3.6657676E+04; -9.5487153E-03;  0.0000000E+00;  1.5705442E-01;  1.0388048E+03;
  1.8291262E+00;  9.9999998E-03;  3.1833202E-02;10007;  1.4290650E+00;  0.0000000E+00;  3.7623018E-03;  1.0018282E+03;  1.1984752E-01;  1.1563937E+03;3;  2.1955393E+01;  0.0000000E+00;  6.9754524E+00;0;  1.4750257E-01;  3.0482932E+04;  0.0000000E+00; -1.9531024E+00;  4.0000000E+04;  0.0000000E+00;  3.6657680E+04; -9.5514730E-03;  0.0000000E+00;  1.5705405E-01;  1.0387383E+03;
  1.8292058E+00;  9.9999998E-03; -2.1237595E-02;10002;  1.4271379E+00;  0.0000000E+00; -2.4398970E-03;  1.0018188E+03;  1.1984762E-01;  1.1502144E+03;3;  2.0974632E+01;  0.0000000E+00; -4.6987123E+00;0;  1.3114958E-01;  3.0482104E+04;  0.0000000E+00; -9.3503267E-01;  4.0000000E+04;  0.0000000E+00;  3.6658164E+04; -1.4842410E-02;  0.0000000E+00;  1.4599198E-01;  1.0550219E+03;
  1.8292058E+00;  9.9999998E-03;  2.1237837E-02;10006;  1.4271379E+00;  0.0000000E+00;  2.4412987E-03;  1.0018188E+03;  1.1984762E-01;  1.1502144E+03;3;  2.0974606E+01;  0.0000000E+00;  4.6987414E+00;0;  1.3115017E-01;  3.0482082E+04;  0.0000000E+00; -9.3499559E-01;  4.0000000E+04;  0.0000000E+00;  3.6658164E+04; -1.4841908E-02;  0.0000000E+00;  1.4599209E-01;  1.0550251E+03;
  1.8292536E+00;  9.9999998E-03; -1.0625463E-02;10003;  1.4260103E+00;  0.0000000E+00; -1.1230949E-03;  1.0018177E+03;  1.1984669E-01;  1.1494025E+03;3;  2.0365036E+01;  0.0000000E+00; -2.3610725E+00;0;  1.2140556E-01;  3.0481564E+04;  0.0000000E+00; -2.4700718E-01;  4.0000000E+04;  0.0000000E+00;  3.6658754E+04; -1.7511968E-02;  0.0000000E+00;  1.3891752E-01;  1.0751407E+03;
  1.8292536E+00;  9.9999998E-03;  1.0625714E-02;10005;  1.4260100E+00;  0.0000000E+00;  1.1244360E-03;  1.0018177E+03;  1.1984605E-01;  1.1494025E+03;3;  2.0363785E+01;  0.0000000E+00;  2.3610709E+00;0;  1.2140237E-01;  3.0481553E+04;  0.0000000E+00; -2.4702907E-01;  4.0000000E+04;  0.0000000E+00;  3.6658758E+04; -1.7515186E-02;  0.0000000E+00;  1.3891755E-01;  1.0751776E+03;
  1.8292694E+00;  9.9999998E-03;  1.2980362E-07;10004;  1.4256557E+00;  0.0000000E+00;  6.9676713E-07;  1.0018210E+03;  1.1984621E-01;  1.1514685E+03;3;  2.0203127E+01;  0.0000000E+00;  3.1709671E-05;0;  1.1843678E-01;  3.0481627E+04;  0.0000000E+00;  2.6496883E-11;  4.0000000E+04;  0.0000000E+00;  3.6659031E+04; -1.8105548E-02;  0.0000000E+00;  1.3654234E-01;  1.0844987E+03;
  1.8393174E+00;  9.9999998E-03; -9.5068462E-02;10017;  1.4697120E+00;  0.0000000E+00; -1.6351979E-02;  1.0036265E+03;  1.1962892E-01;  2.2369695E+03;3;  3.0291502E+01;  0.0000000E+00; -1.9678835E+01;0;  5.3400195E-01;  3.0789107E+04;  0.0000000E+00;  3.1482698E+01;  4.0000000E+04;  0.0000000E+00;  3.6547848E+04;  2.8733242E-01;  0.0000000E+00;  2.4666952E-01;  6.2732461E+03;
  1.8395567E+00;  9.9999998E-03; -8.4679574E-02;10018;  1.4613576E+00;  0.0000000E+00; -1.2693812E-02;  1.0031341E+03;  1.1963352E-01;  1.9321217E+03;3;  3.0537817E+01;  0.0000000E+00; -1.7420170E+01;0;  4.4991526E-01;  3.0785732E+04;  0.0000000E+00;  1.5611457E+01;  4.0000000E+04;  0.0000000E+00;  3.6516383E+04;  2.1996899E-01;  0.0000000E+00;  2.2994627E-01;  3.6466375E+03;
  1.8397677E+00;  9.9999998E-03; -7.4247003E-02;10019;  1.4532311E+00;  0.0000000E+00; -9.8143555E-03;  1.0028389E+03;  1.1963683E-01;  1.7492394E+03;3;  3.0238419E+01;  0.0000000E+00; -1.5244594E+01;0;  3.6739421E-01;  3.0785043E+04;  0.0000000E+00;  5.9121871E+00;  4.0000000E+04;  0.0000000E+00;  3.6495582E+04;  1.5311861E-01;  0.0000000E+00;  2.1427560E-01;  2.3122083E+03;
  1.8399532E+00;  9.9999998E-03; -6.3782737E-02;10020;  1.4455279E+00;  0.0000000E+00; -7.3890444E-03;  1.0026261E+03;  1.1963726E-01;  1.6173060E+03;3;  2.9001324E+01;  0.0000000E+00; -1.3098408E+01;0;  2.8627256E-01;  3.0784289E+04;  0.0000000E+00;  5.1774031E-01;  4.0000000E+04;  0.0000000E+00;  3.6480871E+04;  8.8297673E-02;  0.0000000E+00;  1.9797488E-01;  1.8090125E+03;
  1.8399532E+00;  9.9999998E-03;  6.3782990E-02;10032;  1.4455279E+00;  0.0000000E+00;  7.3904102E-03;  1.0026261E+03;  1.1963726E-01;  1.6173060E+03;3;  2.9001143E+01;  0.0000000E+00;  1.3098413E+01;0;  2.8627336E-01;  3.0784295E+04;  0.0000000E+00;  5.1777154E-01;  4.0000000E+04;  0.0000000E+00;  3.6480863E+04;  8.8298611E-02;  0.0000000E+00;  1.9797474E-01;  1.8090234E+03;
  1.8401132E+00;  9.9999998E-03; -5.3284518E-02;10021;  1.4392176E+00;  0.0000000E+00; -5.6133410E-03;  1.0024944E+03;  1.1963724E-01;  1.5355665E+03;3;  2.7364269E+01;  0.0000000E+00; -1.1068383E+01;0;  2.2243872E-01;  3.0783506E+04;  0.0000000E+00; -2.0498464E+00;  4.0000000E+04;  0.0000000E+00;  3.6472180E+04;  3.9936218E-02;  0.0000000E+00;  1.8250251E-01;  1.6909445E+03;
  1.8401132E+00;  9.9999998E-03;  5.3284761E-02;10031;  1.4392178E+00;  0.0000000E+00;  5.6148367E-03;  1.0024944E+03;  1.1963720E-01;  1.5356399E+03;3;  2.7363628E+01;  0.0000000E+00;  1.1068597E+01;0;  2.2244407E-01;  3.0783492E+04;  0.0000000E+00; -2.0498254E+00;  4.0000000E+04;  0.0000000E+00;  3.6472188E+04;  3.9941158E-02;  0.0000000E+00;  1.8250291E-01;  1.6909865E+03;
  1.8402464E+00;  9.9999998E-03; -4.2761303E-02;10022;  1.4341971E+00;  0.0000000E+00; -4.3041874E-03;  1.0024177E+03;  1.1963632E-01;  1.4878823E+03;3;  2.5277462E+01;  0.0000000E+00; -9.2974644E+00;0;  1.7290092E-01;  3.0782623E+04;  0.0000000E+00; -2.8635685E+00;  4.0000000E+04;  0.0000000E+00;  3.6467625E+04;  4.9171657E-03;  0.0000000E+00;  1.6798376E-01;  1.6608451E+03;
  1.8402464E+00;  9.9999998E-03;  4.2761542E-02;10030;  1.4341971E+00;  0.0000000E+00;  4.3055410E-03;  1.0024177E+03;  1.1963632E-01;  1.4878826E+03;3;  2.5277607E+01;  0.0000000E+00;  9.2974443E+00;0;  1.7290176E-01;  3.0782629E+04;  0.0000000E+00; -2.8635101E+00;  4.0000000E+04;  0.0000000E+00;  3.6467629E+04;  4.9181762E-03;  0.0000000E+00;  1.6798359E-01;  1.6608402E+03;
  1.8403506E+00;  9.9999998E-03; -3.2214843E-02;10023;  1.4304775E+00;  0.0000000E+00; -3.3425449E-03;  1.0024165E+03;  1.1963534E-01;  1.4867618E+03;3;  2.3186846E+01;  0.0000000E+00; -7.7322993E+00;0;  1.3718151E-01;  3.0782295E+04;  0.0000000E+00; -2.6577144E+00;  4.0000000E+04;  0.0000000E+00;  3.6467730E+04; -1.8018233E-02;  0.0000000E+00;  1.5519974E-01;  1.6697013E+03;
  1.8403505E+00;  9.9999998E-03;  3.2215070E-02;10029;  1.4304773E+00;  0.0000000E+00;  3.3436890E-03;  1.0024164E+03;  1.1963536E-01;  1.4866885E+03;3;  2.3185694E+01;  0.0000000E+00;  7.7319756E+00;0;  1.3717803E-01;  3.0782307E+04;  0.0000000E+00; -2.6576147E+00;  4.0000000E+04;  0.0000000E+00;  3.6467738E+04; -1.8021341E-02;  0.0000000E+00;  1.5519938E-01;  1.6695684E+03;
  1.8404235E+00;  9.9999998E-03; -2.1610891E-02;10024;  1.4279244E+00;  0.0000000E+00; -2.5422017E-03;  1.0025540E+03;  1.1963444E-01;  1.5710415E+03;3;  2.1525124E+01;  0.0000000E+00; -6.1771049E+00;0;  1.1286724E-01;  3.0784123E+04;  0.0000000E+00; -1.7820367E+00;  4.0000000E+04;  0.0000000E+00;  3.6475238E+04; -3.2029320E-02;  0.0000000E+00;  1.4489655E-01;  1.7986611E+03;
  1.8404235E+00;  9.9999998E-03;  2.1611094E-02;10028;  1.4279245E+00;  0.0000000E+00;  2.5436860E-03;  1.0025539E+03;  1.1963444E-01;  1.5710417E+03;3;  2.1525728E+01;  0.0000000E+00;  6.1771235E+00;0;  1.1286999E-01;  3.0784152E+04;  0.0000000E+00; -1.7818743E+00;  4.0000000E+04;  0.0000000E+00;  3.6475242E+04; -3.2026689E-02;  0.0000000E+00;  1.4489669E-01;  1.7985801E+03;
  1.8404649E+00;  9.9999998E-03; -1.0881735E-02;10025;  1.4263682E+00;  0.0000000E+00; -1.4526868E-03;  1.0028108E+03;  1.1963187E-01;  1.7288905E+03;3;  2.0865505E+01;  0.0000000E+00; -3.3732367E+00;0;  9.7135484E-02;  3.0787461E+04;  0.0000000E+00; -6.1033344E-01;  4.0000000E+04;  0.0000000E+00;  3.6489812E+04; -4.0622760E-02;  0.0000000E+00;  1.3775824E-01;  2.0662200E+03;
  1.8404778E+00;  9.9999998E-03;  1.3135993E-07;10026;  1.4257996E+00;  0.0000000E+00;  7.1217585E-07;  1.0029619E+03;  1.1963008E-01;  1.8217323E+03;3;  2.0646902E+01;  0.0000000E+00;  4.8518181E-05;0;  9.0939045E-02;  3.0789732E+04;  0.0000000E+00;  1.3522697E-10;  4.0000000E+04;  0.0000000E+00;  3.6498180E+04; -4.4179916E-02;  0.0000000E+00;  1.3511896E-01;  2.2332878E+03;
  1.8404648E+00;  9.9999998E-03;  1.0881999E-02;10027;  1.4263685E+00;  0.0000000E+00;  1.4541675E-03;  1.0028108E+03;  1.1963153E-01;  1.7288905E+03;3;  2.0865599E+01;  0.0000000E+00;  3.3732877E+00;0;  9.7139671E-02;  3.0787465E+04;  0.0000000E+00; -6.1035681E-01;  4.0000000E+04;  0.0000000E+00;  3.6489812E+04; -4.0618584E-02;  0.0000000E+00;  1.3775826E-01;  2.0661907E+03;
  1.8513131E+00;  9.9999998E-03; -5.3434946E-02;10036;  1.4393820E+00;  0.0000000E+00; -3.1876878E-03;  1.0031848E+03;  1.1945342E-01;  1.9060602E+03;3;  2.6510138E+01;  0.0000000E+00; -1.0575889E+01;0;  1.9352843E-01;  3.1053094E+04;  0.0000000E+00;  2.0325260E+01;  4.0000000E+04;  0.0000000E+00;  3.6308562E+04;  2.2809369E-02;  0.0000000E+00;  1.7071906E-01;  4.2382275E+03;
  1.8513131E+00;  9.9999998E-03;  5.3435184E-02;10046;  1.4393820E+00;  0.0000000E+00;  3.1890806E-03;  1.0031848E+03;  1.1945342E-01;  1.9060602E+03;3;  2.6509880E+01;  0.0000000E+00;  1.0575863E+01;0;  1.9352937E-01;  3.1053094E+04;  0.0000000E+00;  2.0325115E+01;  4.0000000E+04;  0.0000000E+00;  3.6308555E+04;  2.2810331E-02;  0.0000000E+00;  1.7071904E-01;  4.2382227E+03;
  1.8514453E+00;  9.9999998E-03; -4.2950884E-02;10037;  1.4339291E+00;  0.0000000E+00; -1.9901379E-03;  1.0029756E+03;  1.1945177E-01;  1.7803232E+03;3;  2.4398771E+01;  0.0000000E+00; -8.2859011E+00;0;  1.3879287E-01;  3.1050645E+04;  0.0000000E+00;  1.3088449E+01;  4.0000000E+04;  0.0000000E+00;  3.6296738E+04; -1.9925090E-02;  0.0000000E+00;  1.5871796E-01;  3.2942009E+03;
  1.8514453E+00;  9.9999998E-03;  4.2951141E-02;10045;  1.4339297E+00;  0.0000000E+00;  1.9919563E-03;  1.0029758E+03;  1.1945172E-01;  1.7803945E+03;3;  2.4399792E+01;  0.0000000E+00;  8.2862740E+00;0;  1.3880515E-01;  3.1050672E+04;  0.0000000E+00;  1.3088617E+01;  4.0000000E+04;  0.0000000E+00;  3.6296734E+04; -1.9914044E-02;  0.0000000E+00;  1.5871920E-01;  3.2941860E+03;
  1.8515481E+00;  9.9999998E-03; -3.2438640E-02;10038;  1.4297427E+00;  0.0000000E+00; -1.2356241E-03;  1.0029148E+03;  1.1945013E-01;  1.7434237E+03;3;  2.2065214E+01;  0.0000000E+00; -6.3359852E+00;0;  9.7470976E-02;  3.1049447E+04;  0.0000000E+00;  8.0753355E+00;  4.0000000E+04;  0.0000000E+00;  3.6294062E+04; -5.1009782E-02;  0.0000000E+00;  1.4848076E-01;  2.8419050E+03;
  1.8515481E+00;  9.9999998E-03;  3.2438897E-02;10044;  1.4297428E+00;  0.0000000E+00;  1.2371186E-03;  1.0029149E+03;  1.1945013E-01;  1.7434950E+03;3;  2.2064735E+01;  0.0000000E+00;  6.3360138E+00;0;  9.7474001E-02;  3.1049436E+04;  0.0000000E+00;  8.0754738E+00;  4.0000000E+04;  0.0000000E+00;  3.6294059E+04; -5.1006995E-02;  0.0000000E+00;  1.4848100E-01;  2.8419390E+03;
  1.8516192E+00;  9.9999998E-03; -2.1858051E-02;10039;  1.4268432E+00;  0.0000000E+00; -8.1005279E-04;  1.0031036E+03;  1.1944769E-01;  1.8560321E+03;3;  1.9928820E+01;  0.0000000E+00; -4.7551594E+00;0;  6.9717437E-02;  3.1051154E+04;  0.0000000E+00;  4.3455462E+00;  4.0000000E+04;  0.0000000E+00;  3.6305770E+04; -7.0757195E-02;  0.0000000E+00;  1.4047463E-01;  2.8568130E+03;
  1.8516192E+00;  9.9999998E-03;  2.1858299E-02;10043;  1.4268432E+00;  0.0000000E+00;  8.1143255E-04;  1.0031036E+03;  1.1944707E-01;  1.8560322E+03;3;  1.9928337E+01;  0.0000000E+00;  4.7551384E+00;0;  6.9717973E-02;  3.1051162E+04;  0.0000000E+00;  4.3455977E+00;  4.0000000E+04;  0.0000000E+00;  3.6305766E+04; -7.0756689E-02;  0.0000000E+00;  1.4047466E-01;  2.8567388E+03;
  1.8516575E+00;  9.9999998E-03; -1.1066884E-02;10040;  1.4250445E+00;  0.0000000E+00; -4.4999694E-04;  1.0035902E+03;  1.1944363E-01;  2.1468284E+03;3;  1.8203796E+01;  0.0000000E+00; -3.0969076E+00;0;  5.2273951E-02;  3.1056779E+04;  0.0000000E+00;  1.3401202E+00;  4.0000000E+04;  0.0000000E+00;  3.6334414E+04; -8.2786672E-02;  0.0000000E+00;  1.3506062E-01;  3.3147520E+03;
  1.8516685E+00;  9.9999998E-03;  1.3256960E-07;10041;  1.4243358E+00;  0.0000000E+00;  7.2370290E-07;  1.0039056E+03;  1.1944167E-01;  2.3353074E+03;3;  1.7247643E+01;  0.0000000E+00;  1.1157990E-04;0;  4.4716701E-02;  3.1060625E+04;  0.0000000E+00;  3.3641837E-10;  4.0000000E+04;  0.0000000E+00;  3.6352586E+04; -8.8365212E-02;  0.0000000E+00;  1.3308191E-01;  3.6460354E+03;
  1.8516575E+00;  9.9999998E-03;  1.1067146E-02;10042;  1.4250444E+00;  0.0000000E+00;  4.5137829E-04;  1.0035901E+03;  1.1944365E-01;  2.1467573E+03;3;  1.8202560E+01;  0.0000000E+00;  3.0970576E+00;0;  5.2274227E-02;  3.1056773E+04;  0.0000000E+00;  1.3401875E+00;  4.0000000E+04;  0.0000000E+00;  3.6334418E+04; -8.2786441E-02;  0.0000000E+00;  1.3506067E-01;  3.3147263E+03;
  3.8512843E-03;  9.9999998E-03;  6.9963925E-02;2484;  6.1994432E-03;  0.0000000E+00;  8.0179372E-05;  9.8511829E+02;  1.0000000E-01; -1.2329231E+04;3;  8.3827461E+01;  0.0000000E+00;  2.2877938E-01;0;  2.2253878E-02;  3.8834520E+04;  0.0000000E+00; -4.4093891E-03;  4.0000000E+04;  0.0000000E+00;  4.0000355E+04;  2.2887787E-02;  0.0000000E+00; -6.3390919E-04;  1.2484786E+03;
  3.8638690E-03;  9.9999998E-03;  7.9961196E-02;2485;  6.2699784E-03;  0.0000000E+00;  4.9758106E-05;  9.8512323E+02;  1.0000000E-01; -1.2325133E+04;3;  8.3359818E+01;  0.0000000E+00;  3.6671545E-02;0;  2.2605795E-02;  3.8835277E+04;  0.0000000E+00; -6.5682591E-03;  4.0000000E+04;  0.0000000E+00;  3.9999984E+04;  2.3275241E-02;  0.0000000E+00; -6.6944602E-04;  1.1885099E+03;
  3.8731769E-03;  9.9999998E-03;  8.9961141E-02;2486;  6.3290279E-03;  0.0000000E+00;  1.6764692E-05;  9.8513177E+02;  1.0000000E-01; -1.2318022E+04;3;  8.3009499E+01;  0.0000000E+00; -2.4925873E-01;0;  2.2961110E-02;  3.8836328E+04;  0.0000000E+00; -1.0407314E-02;  4.0000000E+04;  0.0000000E+00;  3.9999422E+04;  2.3637421E-02;  0.0000000E+00; -6.7631085E-04;  1.1421942E+03;
  3.8781781E-03;  9.9999998E-03;  9.9963456E-02;2487;  6.3718222E-03;  0.0000000E+00; -1.5543004E-05;  9.8514514E+02;  1.0000000E-01; -1.2306961E+04;3;  8.2801865E+01;  0.0000000E+00; -6.4065623E-01;0;  2.3308801E-02;  3.8837645E+04;  0.0000000E+00; -1.7370587E-02;  4.0000000E+04;  0.0000000E+00;  3.9999117E+04;  2.3967678E-02;  0.0000000E+00; -6.5887632E-04;  1.1106411E+03;
  3.8778202E-03;  9.9999998E-03;  1.0996689E-01;2488;  6.3957623E-03;  0.0000000E+00; -4.4154538E-05;  9.8516644E+02;  1.0000000E-01; -1.2289331E+04;3;  8.2742432E+01;  0.0000000E+00; -1.1483142E+00;0;  2.3639262E-02;  3.8839418E+04;  0.0000000E+00; -2.9601175E-02;  4.0000000E+04;  0.0000000E+00;  3.9998625E+04;  2.4265785E-02;  0.0000000E+00; -6.2652258E-04;  1.0943394E+03;
  3.8712269E-03;  9.9999998E-03;  1.1996990E-01;2489;  6.4014825E-03;  0.0000000E+00; -6.6668406E-05;  9.8519177E+02;  1.0000000E-01; -1.2268345E+04;3;  8.2886200E+01;  0.0000000E+00; -1.7817303E+00;0;  2.3943806E-02;  3.8841680E+04;  0.0000000E+00; -4.9827490E-02;  4.0000000E+04;  0.0000000E+00;  3.9999051E+04;  2.4536364E-02;  0.0000000E+00; -5.9255835E-04;  1.0952296E+03;
  3.8577914E-03;  9.9999998E-03;  1.2997162E-01;2490;  6.3925064E-03;  0.0000000E+00; -8.1582839E-05;  9.8523010E+02;  1.0000000E-01; -1.2236592E+04;3;  8.3202705E+01;  0.0000000E+00; -2.5491505E+00;0;  2.4214543E-02;  3.8844219E+04;  0.0000000E+00; -8.0926739E-02;  4.0000000E+04;  0.0000000E+00;  3.9999820E+04;  2.4786515E-02;  0.0000000E+00; -5.7197176E-04;  1.1187268E+03;
  3.8368646E-03;  9.9999998E-03;  1.3997199E-01;2491;  6.3751685E-03;  0.0000000E+00; -8.8595843E-05;  9.8528784E+02;  1.0000000E-01; -1.2188741E+04;3;  8.3694290E+01;  0.0000000E+00; -3.4595923E+00;0;  2.4444664E-02;  3.8848371E+04;  0.0000000E+00; -1.2512259E-01;  4.0000000E+04;  0.0000000E+00;  4.0000016E+04;  2.5022028E-02;  0.0000000E+00; -5.7736458E-04;  1.1749482E+03;
  3.8076199E-03;  9.9999998E-03;  1.4997295E-01;2492;  6.3570677E-03;  0.0000000E+00; -8.8063978E-05;  9.8537347E+02;  1.0000000E-01; -1.2117780E+04;3;  8.4352646E+01;  0.0000000E+00; -4.5252461E+00;0;  2.4628079E-02;  3.8854414E+04;  0.0000000E+00; -1.8316355E-01;  4.0000000E+04;  0.0000000E+00;  4.0001227E+04;  2.5243288E-02;  0.0000000E+00; -6.1521010E-04;  1.2776672E+03;
  3.7683405E-03;  9.9999998E-03;  1.5997484E-01;2493;  6.3445205E-03;  0.0000000E+00; -8.3138977E-05;  9.8550861E+02;  1.0000000E-01; -1.2005833E+04;3;  8.5066147E+01;  0.0000000E+00; -5.7856636E+00;0;  2.4757812E-02;  3.8864039E+04;  0.0000000E+00; -2.5403517E-01;  4.0000000E+04;  0.0000000E+00;  4.0001602E+04;  2.5442515E-02;  0.0000000E+00; -6.8470254E-04;  1.4395706E+03;
  3.7150367E-03;  9.9999998E-03;  1.6997637E-01;2494;  6.3404236E-03;  0.0000000E+00; -8.0095844E-05;  9.8570837E+02;  1.0000000E-01; -1.1840356E+04;3;  8.5738342E+01;  0.0000000E+00; -7.3038082E+00;0;  2.4823966E-02;  3.8877945E+04;  0.0000000E+00; -3.3430874E-01;  4.0000000E+04;  0.0000000E+00;  4.0003844E+04;  2.5601892E-02;  0.0000000E+00; -7.7792548E-04;  1.6677445E+03;
  3.6412822E-03;  9.9999998E-03;  1.7997627E-01;2495;  6.3414192E-03;  0.0000000E+00; -8.6415770E-05;  9.8599579E+02;  1.0000000E-01; -1.1602240E+04;3;  8.6166870E+01;  0.0000000E+00; -9.1425943E+00;0;  2.4812689E-02;  3.8898145E+04;  0.0000000E+00; -4.1785228E-01;  4.0000000E+04;  0.0000000E+00;  4.0006078E+04;  2.5693158E-02;  0.0000000E+00; -8.8046776E-04;  1.9600970E+03;
  3.5395480E-03;  9.9999998E-03;  1.8997371E-01;2496;  6.3367421E-03;  0.0000000E+00; -1.0833973E-04;  9.8638867E+02;  1.0000000E-01; -1.1276718E+04;3;  8.6113609E+01;  0.0000000E+00; -1.1326930E+01;0;  2.4705382E-02;  3.8925695E+04;  0.0000000E+00; -4.9619603E-01;  4.0000000E+04;  0.0000000E+00;  4.0008594E+04;  2.5677709E-02;  0.0000000E+00; -9.7232708E-04;  2.3015930E+03;
  3.4004690E-03;  9.9999998E-03;  1.9996847E-01;2497;  6.3081910E-03;  0.0000000E+00; -1.5173272E-04;  9.8689868E+02;  1.0000000E-01; -1.0854212E+04;3;  8.5297066E+01;  0.0000000E+00; -1.3813032E+01;0;  2.4479833E-02;  3.8962246E+04;  0.0000000E+00; -5.5975354E-01;  4.0000000E+04;  0.0000000E+00;  4.0011672E+04;  2.5509061E-02;  0.0000000E+00; -1.0292296E-03;  2.6607805E+03;
  3.2162988E-03;  9.9999998E-03;  2.0995954E-01;2498;  6.2311376E-03;  0.0000000E+00; -2.1996121E-04;  9.8754596E+02;  1.0000000E-01; -1.0317931E+04;3;  8.3282173E+01;  0.0000000E+00; -1.6464296E+01;0;  2.4110394E-02;  3.9008785E+04;  0.0000000E+00; -5.9985518E-01;  4.0000000E+04;  0.0000000E+00;  4.0014652E+04;  2.5135370E-02;  0.0000000E+00; -1.0249764E-03;  2.9867100E+03;
  2.9794700E-03;  9.9999998E-03;  2.1994580E-01;2499;  6.0786717E-03;  0.0000000E+00; -3.1342270E-04;  9.8832214E+02;  1.0000000E-01; -9.6748867E+03;3;  7.9781654E+01;  0.0000000E+00; -1.9083944E+01;0;  2.3570355E-02;  3.9066191E+04;  0.0000000E+00; -6.1107397E-01;  4.0000000E+04;  0.0000000E+00;  4.0017879E+04;  2.4505515E-02;  0.0000000E+00; -9.3516021E-04;  3.2113223E+03;
  2.6877027E-03;  9.9999998E-03;  2.2992693E-01;2500;  5.8245049E-03;  0.0000000E+00; -4.2988654E-04;  9.8922546E+02;  1.0000000E-01; -8.9265127E+03;3;  7.4485268E+01;  0.0000000E+00; -2.1463943E+01;0;  2.2833144E-02;  3.9134445E+04;  0.0000000E+00; -5.9314865E-01;  4.0000000E+04;  0.0000000E+00;  4.0018957E+04;  2.3575068E-02;  0.0000000E+00; -7.4192364E-04;  3.2586841E+03;
  1.3364983E-02;  9.9999998E-03;  6.9974937E-02;2544;  5.1606381E-03;  0.0000000E+00;  4.7824997E-05;  9.8846930E+02;  1.0000000E-01; -9.5529648E+03;3;  4.8958492E+01;  0.0000000E+00;  1.9995797E-01;0;  1.8850189E-02;  3.9092262E+04;  0.0000000E+00; -7.0995465E-03;  4.0000000E+04;  0.0000000E+00;  3.9999109E+04;  1.9558517E-02;  0.0000000E+00; -7.0832850E-04;  9.1673315E+02;
  1.3374110E-02;  9.9999998E-03;  7.9973266E-02;2545;  5.2372064E-03;  0.0000000E+00;  1.8643768E-05;  9.8848480E+02;  1.0000000E-01; -9.5401250E+03;3;  4.8522392E+01;  0.0000000E+00;  3.6774158E-02;0;  1.9174131E-02;  3.9093867E+04;  0.0000000E+00; -1.0023511E-02;  4.0000000E+04;  0.0000000E+00;  3.9998988E+04;  1.9907162E-02;  0.0000000E+00; -7.3303166E-04;  8.7349304E+02;
  1.3380140E-02;  9.9999998E-03;  8.9973792E-02;2546;  5.3006317E-03;  0.0000000E+00; -1.2715069E-05;  9.8849707E+02;  1.0000000E-01; -9.5299531E+03;3;  4.8278431E+01;  0.0000000E+00; -2.0549481E-01;0;  1.9507540E-02;  3.9095191E+04;  0.0000000E+00; -1.5021257E-02;  4.0000000E+04;  0.0000000E+00;  3.9999426E+04;  2.0231985E-02;  0.0000000E+00; -7.2444358E-04;  8.4875189E+02;
  1.3382301E-02;  9.9999998E-03;  9.9976219E-02;2547;  5.3453157E-03;  0.0000000E+00; -4.3448934E-05;  9.8851556E+02;  1.0000000E-01; -9.5146445E+03;3;  4.8177700E+01;  0.0000000E+00; -5.3709942E-01;0;  1.9839816E-02;  3.9096840E+04;  0.0000000E+00; -2.3947446E-02;  4.0000000E+04;  0.0000000E+00;  3.9999441E+04;  2.0527784E-02;  0.0000000E+00; -6.8796740E-04;  8.3987762E+02;
  1.3380315E-02;  9.9999998E-03;  1.0997959E-01;2548;  5.3687077E-03;  0.0000000E+00; -7.1157163E-05;  9.8853302E+02;  1.0000000E-01; -9.5001758E+03;3;  4.8274914E+01;  0.0000000E+00; -9.6723157E-01;0;  2.0160776E-02;  3.9098219E+04;  0.0000000E+00; -3.9603442E-02;  4.0000000E+04;  0.0000000E+00;  3.9999645E+04;  2.0795353E-02;  0.0000000E+00; -6.3457771E-04;  8.4289093E+02;
  1.3374207E-02;  9.9999998E-03;  1.1998292E-01;2549;  5.3715324E-03;  0.0000000E+00; -9.4097748E-05;  9.8855206E+02;  1.0000000E-01; -9.4844229E+03;3;  4.8559673E+01;  0.0000000E+00; -1.5039865E+00;0;  2.0460650E-02;  3.9099617E+04;  0.0000000E+00; -6.5622069E-02;  4.0000000E+04;  0.0000000E+00;  3.9999324E+04;  2.1040089E-02;  0.0000000E+00; -5.7943875E-04;  8.5589972E+02;
  1.3364066E-02;  9.9999998E-03;  1.2998542E-01;2550;  5.3586662E-03;  0.0000000E+00; -1.1125611E-04;  9.8856830E+02;  1.0000000E-01; -9.4709424E+03;3;  4.9081223E+01;  0.0000000E+00; -2.1548326E+00;0;  2.0730399E-02;  3.9100836E+04;  0.0000000E+00; -1.0593445E-01;  4.0000000E+04;  0.0000000E+00;  3.9999824E+04;  2.1269666E-02;  0.0000000E+00; -5.3926790E-04;  8.8264172E+02;
  1.3349725E-02;  9.9999998E-03;  1.3998720E-01;2551;  5.3380034E-03;  0.0000000E+00; -1.2233546E-04;  9.8859399E+02;  1.0000000E-01; -9.4496582E+03;3;  4.9795231E+01;  0.0000000E+00; -2.9263906E+00;0;  2.0963009E-02;  3.9102812E+04;  0.0000000E+00; -1.6372117E-01;  4.0000000E+04;  0.0000000E+00;  3.9999395E+04;  2.1490928E-02;  0.0000000E+00; -5.2791846E-04;  9.3462604E+02;
  1.3330539E-02;  9.9999998E-03;  1.4998874E-01;2552;  5.3198072E-03;  0.0000000E+00; -1.2804288E-04;  9.8863177E+02;  1.0000000E-01; -9.4183506E+03;3;  5.0743118E+01;  0.0000000E+00; -3.8303726E+00;0;  2.1153316E-02;  3.9105270E+04;  0.0000000E+00; -2.4019392E-01;  4.0000000E+04;  0.0000000E+00;  3.9999871E+04;  2.1705987E-02;  0.0000000E+00; -5.5267097E-04;  1.0293961E+03;
  1.3305129E-02;  9.9999998E-03;  1.5999071E-01;2553;  5.3133518E-03;  0.0000000E+00; -1.3110581E-04;  9.8869928E+02;  1.0000000E-01; -9.3624512E+03;3;  5.1868546E+01;  0.0000000E+00; -4.8964782E+00;0;  2.1296512E-02;  3.9109793E+04;  0.0000000E+00; -3.3393326E-01;  4.0000000E+04;  0.0000000E+00;  4.0001480E+04;  2.1909853E-02;  0.0000000E+00; -6.1334157E-04;  1.1837317E+03;
  1.3270864E-02;  9.9999998E-03;  1.6999350E-01;2554;  5.3243418E-03;  0.0000000E+00; -1.3622787E-04;  9.8881097E+02;  1.0000000E-01; -9.2699111E+03;3;  5.3127808E+01;  0.0000000E+00; -6.1718769E+00;0;  2.1385869E-02;  3.9117184E+04;  0.0000000E+00; -4.4001526E-01;  4.0000000E+04;  0.0000000E+00;  4.0002207E+04;  2.2088641E-02;  0.0000000E+00; -7.0277206E-04;  1.4088252E+03;
  1.3221703E-02;  9.9999998E-03;  1.7999540E-01;2555;  5.3518685E-03;  0.0000000E+00; -1.4910054E-04;  9.8898761E+02;  1.0000000E-01; -9.1235449E+03;3;  5.4402977E+01;  0.0000000E+00; -7.7028270E+00;0;  2.1412402E-02;  3.9128891E+04;  0.0000000E+00; -5.4962426E-01;  4.0000000E+04;  0.0000000E+00;  4.0005059E+04;  2.2219796E-02;  0.0000000E+00; -8.0739375E-04;  1.7067349E+03;
  1.3150192E-02;  9.9999998E-03;  1.8999466E-01;2556;  5.3866887E-03;  0.0000000E+00; -1.7520756E-04;  9.8924060E+02;  1.0000000E-01; -8.9139697E+03;3;  5.5572018E+01;  0.0000000E+00; -9.5043058E+00;0;  2.1363957E-02;  3.9146133E+04;  0.0000000E+00; -6.5071994E-01;  4.0000000E+04;  0.0000000E+00;  4.0007988E+04;  2.2271672E-02;  0.0000000E+00; -9.0771547E-04;  2.0673982E+03;
  1.3047652E-02;  9.9999998E-03;  1.9999039E-01;2557;  5.4106107E-03;  0.0000000E+00; -2.1881040E-04;  9.8958868E+02;  1.0000000E-01; -8.6255830E+03;3;  5.6365307E+01;  0.0000000E+00; -1.1525401E+01;0;  2.1225439E-02;  3.9169984E+04;  0.0000000E+00; -7.2988129E-01;  4.0000000E+04;  0.0000000E+00;  4.0011137E+04;  2.2204624E-02;  0.0000000E+00; -9.7918499E-04;  2.4645051E+03;
  1.2906063E-02;  9.9999998E-03;  2.0998134E-01;2558;  5.3983340E-03;  0.0000000E+00; -2.8237698E-04;  9.9004230E+02;  1.0000000E-01; -8.2497910E+03;3;  5.6457207E+01;  0.0000000E+00; -1.3633832E+01;0;  2.0979155E-02;  3.9202039E+04;  0.0000000E+00; -7.7529830E-01;  4.0000000E+04;  0.0000000E+00;  4.0014238E+04;  2.1973344E-02;  0.0000000E+00; -9.9418813E-04;  2.8508569E+03;
  1.2717058E-02;  9.9999998E-03;  2.1996550E-01;2559;  5.3207288E-03;  0.0000000E+00; -3.6663748E-04;  9.9061523E+02;  1.0000000E-01; -7.7750889E+03;3;  5.5406250E+01;  0.0000000E+00; -1.5632179E+01;0;  2.0606086E-02;  3.9243168E+04;  0.0000000E+00; -7.8018188E-01;  4.0000000E+04;  0.0000000E+00;  4.0018141E+04;  2.1531736E-02;  0.0000000E+00; -9.2565082E-04;  3.1569438E+03;
  1.2474795E-02;  9.9999998E-03;  2.2994159E-01;2560;  5.1504048E-03;  0.0000000E+00; -4.7248590E-04;  9.9128125E+02;  1.0000000E-01; -7.2233018E+03;3;  5.3012360E+01;  0.0000000E+00; -1.7372622E+01;0;  2.0085363E-02;  3.9292875E+04;  0.0000000E+00; -7.4546373E-01;  4.0000000E+04;  0.0000000E+00;  4.0020145E+04;  2.0837266E-02;  0.0000000E+00; -7.5190252E-04;  3.2984397E+03;
  2.2860425E-02;  9.9999998E-03;  6.9984198E-02;2605;  4.1345120E-03;  0.0000000E+00;  1.2665930E-05;  9.9221637E+02;  1.0000000E-01; -6.4486079E+03;3;  1.5366780E+01;  0.0000000E+00;  1.6812022E-01;0;  1.5536877E-02;  3.9385992E+04;  0.0000000E+00; -1.0007446E-02;  4.0000000E+04;  0.0000000E+00;  3.9999484E+04;  1.6298372E-02;  0.0000000E+00; -7.6149486E-04;  5.5546710E+02;
  2.2866495E-02;  9.9999998E-03;  7.9982415E-02;2606;  4.2232354E-03;  0.0000000E+00; -1.4556284E-05;  9.9224164E+02;  1.0000000E-01; -6.4276699E+03;3;  1.5020371E+01;  0.0000000E+00;  3.6794588E-02;0;  1.5813418E-02;  3.9387691E+04;  0.0000000E+00; -1.3726488E-02;  4.0000000E+04;  0.0000000E+00;  3.9999742E+04;  1.6584676E-02;  0.0000000E+00; -7.7125785E-04;  5.3591272E+02;
  2.2869470E-02;  9.9999998E-03;  8.9981452E-02;2607;  4.2953049E-03;  0.0000000E+00; -4.3145661E-05;  9.9226740E+02;  1.0000000E-01; -6.4063374E+03;3;  1.4852094E+01;  0.0000000E+00; -1.6067417E-01;0;  1.6106194E-02;  3.9389980E+04;  0.0000000E+00; -1.9701717E-02;  4.0000000E+04;  0.0000000E+00;  3.9999164E+04;  1.6849715E-02;  0.0000000E+00; -7.4352202E-04;  5.4077618E+02;
  2.2868944E-02;  9.9999998E-03;  9.9981390E-02;2608;  4.3452820E-03;  0.0000000E+00; -7.0448274E-05;  9.9229181E+02;  1.0000000E-01; -6.3860908E+03;3;  1.4873265E+01;  0.0000000E+00; -4.3117610E-01;0;  1.6405003E-02;  3.9391629E+04;  0.0000000E+00; -2.9975712E-02;  4.0000000E+04;  0.0000000E+00;  3.9999262E+04;  1.7089827E-02;  0.0000000E+00; -6.8482349E-04;  5.6207837E+02;
  2.2865281E-02;  9.9999998E-03;  1.0998239E-01;2609;  4.3703499E-03;  0.0000000E+00; -9.4721690E-05;  9.9231293E+02;  1.0000000E-01; -6.3686099E+03;3;  1.5072151E+01;  0.0000000E+00; -7.8183299E-01;0;  1.6698871E-02;  3.9393238E+04;  0.0000000E+00; -4.7701899E-02;  4.0000000E+04;  0.0000000E+00;  3.9999523E+04;  1.7306563E-02;  0.0000000E+00; -6.0769077E-04;  5.8957996E+02;
  2.2858970E-02;  9.9999998E-03;  1.1998442E-01;2610;  4.3719248E-03;  0.0000000E+00; -1.1482320E-04;  9.9232495E+02;  1.0000000E-01; -6.3586348E+03;3;  1.5466629E+01;  0.0000000E+00; -1.2200693E+00;0;  1.6976848E-02;  3.9393902E+04;  0.0000000E+00; -7.7073939E-02;  4.0000000E+04;  0.0000000E+00;  3.9999891E+04;  1.7505795E-02;  0.0000000E+00; -5.2894652E-04;  6.1612842E+02;
  2.2851182E-02;  9.9999998E-03;  1.2998685E-01;2611;  4.3558870E-03;  0.0000000E+00; -1.3020163E-04;  9.9232739E+02;  1.0000000E-01; -6.3566104E+03;3;  1.6059179E+01;  0.0000000E+00; -1.7516166E+00;0;  1.7228523E-02;  3.9393855E+04;  0.0000000E+00; -1.2276518E-01;  4.0000000E+04;  0.0000000E+00;  4.0000246E+04;  1.7695244E-02;  0.0000000E+00; -4.6672116E-04;  6.4339252E+02;
  2.2842331E-02;  9.9999998E-03;  1.3998944E-01;2612;  4.3325708E-03;  0.0000000E+00; -1.4076446E-04;  9.9232227E+02;  1.0000000E-01; -6.3608569E+03;3;  1.6868427E+01;  0.0000000E+00; -2.3822777E+00;0;  1.7446164E-02;  3.9393391E+04;  0.0000000E+00; -1.8874660E-01;  4.0000000E+04;  0.0000000E+00;  3.9999688E+04;  1.7882045E-02;  0.0000000E+00; -4.3588190E-04;  6.8554968E+02;
  2.2832425E-02;  9.9999998E-03;  1.4999238E-01;2613;  4.3151784E-03;  0.0000000E+00; -1.4700505E-04;  9.9231195E+02;  1.0000000E-01; -6.3693999E+03;3;  1.7941799E+01;  0.0000000E+00; -3.1184053E+00;0;  1.7625179E-02;  3.9392594E+04;  0.0000000E+00; -2.7673817E-01;  4.0000000E+04;  0.0000000E+00;  4.0000531E+04;  1.8069614E-02;  0.0000000E+00; -4.4443394E-04;  7.6601727E+02;
  2.2820791E-02;  9.9999998E-03;  1.5999597E-01;2614;  4.3163816E-03;  0.0000000E+00; -1.5116271E-04;  9.9231158E+02;  1.0000000E-01; -6.3696963E+03;3;  1.9266291E+01;  0.0000000E+00; -3.9749298E+00;0;  1.7762639E-02;  3.9392047E+04;  0.0000000E+00; -3.8525009E-01;  4.0000000E+04;  0.0000000E+00;  4.0000965E+04;  1.8255580E-02;  0.0000000E+00; -4.9294066E-04;  9.0544360E+02;
  2.2805221E-02;  9.9999998E-03;  1.7000075E-01;2615;  4.3452657E-03;  0.0000000E+00; -1.5697905E-04;  9.9233350E+02;  1.0000000E-01; -6.3515732E+03;3;  2.0859871E+01;  0.0000000E+00; -4.9725223E+00;0;  1.7855043E-02;  3.9392949E+04;  0.0000000E+00; -5.0854456E-01;  4.0000000E+04;  0.0000000E+00;  4.0002406E+04;  1.8430386E-02;  0.0000000E+00; -5.7534373E-04;  1.1148987E+03;
  2.2780737E-02;  9.9999998E-03;  1.8000683E-01;2616;  4.4027888E-03;  0.0000000E+00; -1.6926385E-04;  9.9239117E+02;  1.0000000E-01; -6.3037725E+03;3;  2.2722801E+01;  0.0000000E+00; -6.1297803E+00;0;  1.7898133E-02;  3.9395941E+04;  0.0000000E+00; -6.3624954E-01;  4.0000000E+04;  0.0000000E+00;  4.0003465E+04;  1.8577658E-02;  0.0000000E+00; -6.7952456E-04;  1.3974562E+03;
  2.2739712E-02;  9.9999998E-03;  1.9001305E-01;2617;  4.4784476E-03;  0.0000000E+00; -1.9255972E-04;  9.9249835E+02;  1.0000000E-01; -6.2149849E+03;3;  2.4801552E+01;  0.0000000E+00; -7.4395394E+00;0;  1.7886832E-02;  3.9402082E+04;  0.0000000E+00; -7.5417578E-01;  4.0000000E+04;  0.0000000E+00;  4.0006078E+04;  1.8674051E-02;  0.0000000E+00; -7.8721839E-04;  1.7501316E+03;
  2.2672446E-02;  9.9999998E-03;  2.0001720E-01;2618;  4.5517045E-03;  0.0000000E+00; -2.2981127E-04;  9.9267688E+02;  1.0000000E-01; -6.0670879E+03;3;  2.6883692E+01;  0.0000000E+00; -8.8347797E+00;0;  1.7814340E-02;  3.9412578E+04;  0.0000000E+00; -8.4652311E-01;  4.0000000E+04;  0.0000000E+00;  4.0009805E+04;  1.8688694E-02;  0.0000000E+00; -8.7435386E-04;  2.1580164E+03;
  2.2569640E-02;  9.9999998E-03;  2.1001732E-01;2619;  4.5972867E-03;  0.0000000E+00; -2.8351723E-04;  9.9292981E+02;  1.0000000E-01; -5.8575132E+03;3;  2.8756088E+01;  0.0000000E+00; -1.0182693E+01;0;  1.7670594E-02;  3.9428727E+04;  0.0000000E+00; -8.9941788E-01;  4.0000000E+04;  0.0000000E+00;  4.0013395E+04;  1.8583219E-02;  0.0000000E+00; -9.1262581E-04;  2.5843894E+03;
  2.2422638E-02;  9.9999998E-03;  2.2001065E-01;2620;  4.5852968E-03;  0.0000000E+00; -3.5570480E-04;  9.9326782E+02;  1.0000000E-01; -5.5774717E+03;3;  3.0035145E+01;  0.0000000E+00; -1.1310090E+01;0;  1.7443288E-02;  3.9451051E+04;  0.0000000E+00; -9.0499151E-01;  4.0000000E+04;  0.0000000E+00;  4.0017062E+04;  1.8316124E-02;  0.0000000E+00; -8.7283517E-04;  2.9637979E+03;
  2.2223089E-02;  9.9999998E-03;  2.2999436E-01;2621;  4.4868761E-03;  0.0000000E+00; -4.4639211E-04;  9.9368427E+02;  1.0000000E-01; -5.2324448E+03;3;  3.0373461E+01;  0.0000000E+00; -1.2101922E+01;0;  1.7117372E-02;  3.9480512E+04;  0.0000000E+00; -8.6472005E-01;  4.0000000E+04;  0.0000000E+00;  4.0019875E+04;  1.7847562E-02;  0.0000000E+00; -7.3019078E-04;  3.2065203E+03;
  3.2384809E-02;  9.9999998E-03;  6.9993205E-02;2666;  3.2298621E-03;  0.0000000E+00; -2.8223549E-05;  9.9587170E+02;  1.0000000E-01; -3.4201995E+03;3; -1.0657493E+01;  0.0000000E+00;  1.3740326E-01;0;  1.2784135E-02;  3.9676500E+04;  0.0000000E+00; -1.1917023E-02;  4.0000000E+04;  0.0000000E+00;  3.9998859E+04;  1.3573105E-02;  0.0000000E+00; -7.8897004E-04;  2.1806126E+02;
  3.2388117E-02;  9.9999998E-03;  7.9991259E-02;2667;  3.3247382E-03;  0.0000000E+00; -5.2788288E-05;  9.9590533E+02;  1.0000000E-01; -3.3923484E+03;3; -1.0906431E+01;  0.0000000E+00;  3.4612495E-02;0;  1.3000418E-02;  3.9679051E+04;  0.0000000E+00; -1.6321676E-02;  4.0000000E+04;  0.0000000E+00;  3.9999215E+04;  1.3781179E-02;  0.0000000E+00; -7.8076083E-04;  2.2631509E+02;
  3.2388307E-02;  9.9999998E-03;  8.9989260E-02;2668;  3.4025125E-03;  0.0000000E+00; -7.7183664E-05;  9.9593494E+02;  1.0000000E-01; -3.3678059E+03;3; -1.0939600E+01;  0.0000000E+00; -1.1963165E-01;0;  1.3238637E-02;  3.9681676E+04;  0.0000000E+00; -2.3019781E-02;  4.0000000E+04;  0.0000000E+00;  3.9999625E+04;  1.3969867E-02;  0.0000000E+00; -7.3122949E-04;  2.6635815E+02;
  3.2385282E-02;  9.9999998E-03;  9.9987432E-02;2669;  3.4563169E-03;  0.0000000E+00; -9.9487261E-05;  9.9597009E+02;  1.0000000E-01; -3.3387205E+03;3; -1.0834779E+01;  0.0000000E+00; -3.3147782E-01;0;  1.3489191E-02;  3.9683551E+04;  0.0000000E+00; -3.3953950E-02;  4.0000000E+04;  0.0000000E+00;  3.9999672E+04;  1.4137349E-02;  0.0000000E+00; -6.4815755E-04;  3.2394714E+02;
  3.2379951E-02;  9.9999998E-03;  1.0998630E-01;2670;  3.4829990E-03;  0.0000000E+00; -1.1856853E-04;  9.9599719E+02;  1.0000000E-01; -3.3162520E+03;3; -1.0564901E+01;  0.0000000E+00; -6.0729122E-01;0;  1.3740444E-02;  3.9685117E+04;  0.0000000E+00; -5.2186817E-02;  4.0000000E+04;  0.0000000E+00;  4.0000414E+04;  1.4286063E-02;  0.0000000E+00; -5.4561871E-04;  3.8117633E+02;
  3.2373473E-02;  9.9999998E-03;  1.1998603E-01;2671;  3.4838961E-03;  0.0000000E+00; -1.3401874E-04;  9.9600702E+02;  1.0000000E-01; -3.3081040E+03;3; -1.0126440E+01;  0.0000000E+00; -9.5188552E-01;0;  1.3980150E-02;  3.9685258E+04;  0.0000000E+00; -8.1866853E-02;  4.0000000E+04;  0.0000000E+00;  4.0000961E+04;  1.4422080E-02;  0.0000000E+00; -4.4193017E-04;  4.2400333E+02;
  3.2367777E-02;  9.9999998E-03;  1.2998664E-01;2672;  3.4655512E-03;  0.0000000E+00; -1.4605228E-04;  9.9599908E+02;  1.0000000E-01; -3.3146716E+03;3; -9.5367794E+00;  0.0000000E+00; -1.3708365E+00;0;  1.4196859E-02;  3.9684723E+04;  0.0000000E+00; -1.2771113E-01;  4.0000000E+04;  0.0000000E+00;  4.0001191E+04;  1.4553213E-02;  0.0000000E+00; -3.5635394E-04;  4.5091818E+02;
  3.2364257E-02;  9.9999998E-03;  1.3998786E-01;2673;  3.4399959E-03;  0.0000000E+00; -1.5470218E-04;  9.9596942E+02;  1.0000000E-01; -3.3392637E+03;3; -8.7563047E+00;  0.0000000E+00; -1.8682477E+00;0;  1.4382340E-02;  3.9682516E+04;  0.0000000E+00; -1.9387098E-01;  4.0000000E+04;  0.0000000E+00;  4.0000562E+04;  1.4686860E-02;  0.0000000E+00; -3.0451981E-04;  4.8033313E+02;
  3.2363329E-02;  9.9999998E-03;  1.4998971E-01;2674;  3.4230293E-03;  0.0000000E+00; -1.5981909E-04;  9.9592181E+02;  1.0000000E-01; -3.3787192E+03;3; -7.7444673E+00;  0.0000000E+00; -2.4461195E+00;0;  1.4532918E-02;  3.9679199E+04;  0.0000000E+00; -2.8222871E-01;  4.0000000E+04;  0.0000000E+00;  4.0000395E+04;  1.4827918E-02;  0.0000000E+00; -2.9500050E-04;  5.4468610E+02;
  3.2364316E-02;  9.9999998E-03;  1.5999269E-01;2675;  3.4307705E-03;  0.0000000E+00; -1.6245086E-04;  9.9587115E+02;  1.0000000E-01; -3.4206934E+03;3; -6.4842677E+00;  0.0000000E+00; -3.0977206E+00;0;  1.4647895E-02;  3.9674582E+04;  0.0000000E+00; -3.9128247E-01;  4.0000000E+04;  0.0000000E+00;  3.9999867E+04;  1.4977034E-02;  0.0000000E+00; -3.2913985E-04;  6.6645660E+02;
  3.2365438E-02;  9.9999998E-03;  1.6999739E-01;2676;  3.4748856E-03;  0.0000000E+00; -1.6491841E-04;  9.9580762E+02;  1.0000000E-01; -3.4733340E+03;3; -4.8031316E+00;  0.0000000E+00; -3.8135741E+00;0;  1.4727357E-02;  3.9669352E+04;  0.0000000E+00; -5.1525033E-01;  4.0000000E+04;  0.0000000E+00;  3.9999906E+04;  1.5129613E-02;  0.0000000E+00; -4.0225559E-04;  8.4709619E+02;
  3.2362517E-02;  9.9999998E-03;  1.8000440E-01;2677;  3.5574301E-03;  0.0000000E+00; -1.6991884E-04;  9.9576019E+02;  1.0000000E-01; -3.5125920E+03;3; -2.7317431E+00;  0.0000000E+00; -4.5756030E+00;0;  1.4771667E-02;  3.9664387E+04;  0.0000000E+00; -6.4377081E-01;  4.0000000E+04;  0.0000000E+00;  4.0001812E+04;  1.5275678E-02;  0.0000000E+00; -5.0401047E-04;  1.0835593E+03;
  3.2348350E-02;  9.9999998E-03;  1.9001366E-01;2678;  3.6694580E-03;  0.0000000E+00; -1.8234631E-04;  9.9573743E+02;  1.0000000E-01; -3.5314556E+03;3; -2.3062143E-01;  0.0000000E+00; -5.3467402E+00;0;  1.4780746E-02;  3.9660227E+04;  0.0000000E+00; -7.6279724E-01;  4.0000000E+04;  0.0000000E+00;  4.0004117E+04;  1.5398705E-02;  0.0000000E+00; -6.1795930E-04;  1.3827941E+03;
  3.2314353E-02;  9.9999998E-03;  2.0002396E-01;2679;  3.7903136E-03;  0.0000000E+00; -2.0640463E-04;  9.9575092E+02;  1.0000000E-01; -3.5202954E+03;3;  2.6323934E+00;  0.0000000E+00; -6.0464530E+00;0;  1.4753630E-02;  3.9657848E+04;  0.0000000E+00; -8.5687429E-01;  4.0000000E+04;  0.0000000E+00;  4.0007359E+04;  1.5475001E-02;  0.0000000E+00; -7.2137098E-04;  1.7529917E+03;
  3.2249182E-02;  9.9999998E-03;  2.1003242E-01;2680;  3.8900566E-03;  0.0000000E+00; -2.4455119E-04;  9.9581494E+02;  1.0000000E-01; -3.4672600E+03;3;  5.6544394E+00;  0.0000000E+00; -6.5368104E+00;0;  1.4688651E-02;  3.9658457E+04;  0.0000000E+00; -9.1256201E-01;  4.0000000E+04;  0.0000000E+00;  4.0011176E+04;  1.5474905E-02;  0.0000000E+00; -7.8625424E-04;  2.1794763E+03;
  3.2142673E-02;  9.9999998E-03;  2.2003591E-01;2681;  3.9361268E-03;  0.0000000E+00; -2.9799284E-04;  9.9592841E+02;  1.0000000E-01; -3.3732380E+03;3;  8.5835705E+00;  0.0000000E+00; -6.6710310E+00;0;  1.4580380E-02;  3.9662793E+04;  0.0000000E+00; -9.2241657E-01;  4.0000000E+04;  0.0000000E+00;  4.0015938E+04;  1.5362559E-02;  0.0000000E+00; -7.8217918E-04;  2.6076628E+03;
  3.1984758E-02;  9.9999998E-03;  2.3003022E-01;2682;  3.8968851E-03;  0.0000000E+00; -3.6812303E-04;  9.9609619E+02;  1.0000000E-01; -3.2342295E+03;3;  1.1042448E+01;  0.0000000E+00; -6.3836665E+00;0;  1.4419015E-02;  3.9671715E+04;  0.0000000E+00; -8.8836354E-01;  4.0000000E+04;  0.0000000E+00;  4.0018852E+04;  1.5100541E-02;  0.0000000E+00; -6.8152568E-04;  2.9442559E+03;
  4.1962922E-02;  9.9999998E-03;  7.0000991E-02;2727;  2.5589888E-03;  0.0000000E+00; -6.8855370E-05;  9.9901459E+02;  1.0000000E-01; -8.1637195E+02;3; -2.6073490E+01;  0.0000000E+00;  1.0951611E-01;0;  1.0928113E-02;  3.9930461E+04;  0.0000000E+00; -1.1444939E-02;  4.0000000E+04;  0.0000000E+00;  3.9999203E+04;  1.1716340E-02;  0.0000000E+00; -7.8822678E-04;  5.1714245E+01;
  4.1963726E-02;  9.9999998E-03;  8.0000214E-02;2728;  2.6605469E-03;  0.0000000E+00; -9.1601927E-05;  9.9905121E+02;  1.0000000E-01; -7.8605182E+02;3; -2.6214067E+01;  0.0000000E+00;  3.2145225E-02;0;  1.1071699E-02;  3.9933324E+04;  0.0000000E+00; -1.6189229E-02;  4.0000000E+04;  0.0000000E+00;  3.9999410E+04;  1.1832431E-02;  0.0000000E+00; -7.6073222E-04;  2.6969522E+01;
  4.1961212E-02;  9.9999998E-03;  8.9998908E-02;2729;  2.7432428E-03;  0.0000000E+00; -1.1225603E-04;  9.9909869E+02;  1.0000000E-01; -7.4669495E+02;3; -2.6208261E+01;  0.0000000E+00; -8.4378973E-02;0;  1.1243609E-02;  3.9935977E+04;  0.0000000E+00; -2.3245350E-02;  4.0000000E+04;  0.0000000E+00;  3.9999840E+04;  1.1931925E-02;  0.0000000E+00; -6.8831618E-04;  7.0665176E+01;
  4.1956253E-02;  9.9999998E-03;  9.9997021E-02;2730;  2.7998146E-03;  0.0000000E+00; -1.2952038E-04;  9.9914014E+02;  1.0000000E-01; -7.1237494E+02;3; -2.6023050E+01;  0.0000000E+00; -2.4486329E-01;0;  1.1434177E-02;  3.9938688E+04;  0.0000000E+00; -3.4231439E-02;  4.0000000E+04;  0.0000000E+00;  4.0000359E+04;  1.2014295E-02;  0.0000000E+00; -5.8011757E-04;  1.6492509E+02;
  4.1949816E-02;  9.9999998E-03;  1.0999469E-01;2731;  2.8254550E-03;  0.0000000E+00; -1.4383458E-04;  9.9917090E+02;  1.0000000E-01; -6.8689417E+02;3; -2.5700447E+01;  0.0000000E+00; -4.5374396E-01;0;  1.1631132E-02;  3.9940105E+04;  0.0000000E+00; -5.1662184E-02;  4.0000000E+04;  0.0000000E+00;  4.0001477E+04;  1.2082947E-02;  0.0000000E+00; -4.5181569E-04;  2.5463074E+02;
  4.1943457E-02;  9.9999998E-03;  1.1999201E-01;2732;  2.8216331E-03;  0.0000000E+00; -1.5539584E-04;  9.9918518E+02;  1.0000000E-01; -6.7504266E+02;3; -2.5278749E+01;  0.0000000E+00; -7.1524352E-01;0;  1.1820612E-02;  3.9940621E+04;  0.0000000E+00; -7.8933544E-02;  4.0000000E+04;  0.0000000E+00;  4.0002379E+04;  1.2143793E-02;  0.0000000E+00; -3.2318014E-04;  3.1501547E+02;
  4.1939706E-02;  9.9999998E-03;  1.2998943E-01;2733;  2.7958211E-03;  0.0000000E+00; -1.6521849E-04;  9.9917340E+02;  1.0000000E-01; -6.8482013E+02;3; -2.4753275E+01;  0.0000000E+00; -1.0331371E+00;0;  1.1989851E-02;  3.9939934E+04;  0.0000000E+00; -1.1988680E-01;  4.0000000E+04;  0.0000000E+00;  4.0002027E+04;  1.2204276E-02;  0.0000000E+00; -2.1442591E-04;  3.3867291E+02;
  4.1940775E-02;  9.9999998E-03;  1.3998754E-01;2734;  2.7606105E-03;  0.0000000E+00; -1.7398024E-04;  9.9913409E+02;  1.0000000E-01; -7.1736243E+02;3; -2.4111874E+01;  0.0000000E+00; -1.4109192E+00;0;  1.2130444E-02;  3.9936930E+04;  0.0000000E+00; -1.7784150E-01;  4.0000000E+04;  0.0000000E+00;  4.0002375E+04;  1.2272198E-02;  0.0000000E+00; -1.4175366E-04;  3.4856909E+02;
  4.1947685E-02;  9.9999998E-03;  1.4998673E-01;2735;  2.7333144E-03;  0.0000000E+00; -1.8163532E-04;  9.9906018E+02;  1.0000000E-01; -7.7864465E+02;3; -2.3266479E+01;  0.0000000E+00; -1.8470118E+00;0;  1.2239866E-02;  3.9931859E+04;  0.0000000E+00; -2.5400689E-01;  4.0000000E+04;  0.0000000E+00;  4.0000621E+04;  1.2354055E-02;  0.0000000E+00; -1.1418980E-04;  3.9458044E+02;
  4.1959830E-02;  9.9999998E-03;  1.5998703E-01;2736;  2.7316585E-03;  0.0000000E+00; -1.8805076E-04;  9.9896429E+02;  1.0000000E-01; -8.5804980E+02;3; -2.2172657E+01;  0.0000000E+00; -2.3164456E+00;0;  1.2320050E-02;  3.9924379E+04;  0.0000000E+00; -3.4643704E-01;  4.0000000E+04;  0.0000000E+00;  4.0000387E+04;  1.2453913E-02;  0.0000000E+00; -1.3386246E-04;  5.0144022E+02;
  4.1975401E-02;  9.9999998E-03;  1.6999005E-01;2737;  2.7724172E-03;  0.0000000E+00; -1.9145288E-04;  9.9884814E+02;  1.0000000E-01; -9.5429401E+02;3; -2.0703890E+01;  0.0000000E+00; -2.7745934E+00;0;  1.2373745E-02;  3.9914836E+04;  0.0000000E+00; -4.4969150E-01;  4.0000000E+04;  0.0000000E+00;  3.9999695E+04;  1.2571251E-02;  0.0000000E+00; -1.9750671E-04;  6.4489130E+02;
  4.1990258E-02;  9.9999998E-03;  1.7999615E-01;2738;  2.8657052E-03;  0.0000000E+00; -1.8940192E-04;  9.9871838E+02;  1.0000000E-01; -1.0617971E+03;3; -1.8742590E+01;  0.0000000E+00; -3.1664846E+00;0;  1.2403781E-02;  3.9903695E+04;  0.0000000E+00; -5.5497336E-01;  4.0000000E+04;  0.0000000E+00;  4.0000383E+04;  1.2700342E-02;  0.0000000E+00; -2.9656079E-04;  8.0246472E+02;
  4.1997921E-02;  9.9999998E-03;  1.9000542E-01;2739;  3.0073260E-03;  0.0000000E+00; -1.8341234E-04;  9.9858679E+02;  1.0000000E-01; -1.1708311E+03;3; -1.6228537E+01;  0.0000000E+00; -3.4264069E+00;0;  1.2413601E-02;  3.9890945E+04;  0.0000000E+00; -6.5110815E-01;  4.0000000E+04;  0.0000000E+00;  4.0002121E+04;  1.2830311E-02;  0.0000000E+00; -4.1671013E-04;  9.9233899E+02;
  4.1990317E-02;  9.9999998E-03;  2.0001754E-01;2740;  3.1780696E-03;  0.0000000E+00; -1.7837399E-04;  9.9846472E+02;  1.0000000E-01; -1.2719640E+03;3; -1.3165896E+01;  0.0000000E+00; -3.4507532E+00;0;  1.2407086E-02;  3.9877586E+04;  0.0000000E+00; -7.2648662E-01;  4.0000000E+04;  0.0000000E+00;  4.0005184E+04;  1.2944516E-02;  0.0000000E+00; -5.3742982E-04;  1.2654221E+03;
  4.1957784E-02;  9.9999998E-03;  2.1003087E-01;2741;  3.3310952E-03;  0.0000000E+00; -1.8758734E-04;  9.9836115E+02;  1.0000000E-01; -1.3577394E+03;3; -9.6549311E+00;  0.0000000E+00; -3.1074986E+00;0;  1.2391436E-02;  3.9864582E+04;  0.0000000E+00; -7.7159810E-01;  4.0000000E+04;  0.0000000E+00;  4.0008352E+04;  1.3023544E-02;  0.0000000E+00; -6.3210813E-04;  1.6497217E+03;
  4.1888073E-02;  9.9999998E-03;  2.2004123E-01;2742;  3.4247087E-03;  0.0000000E+00; -2.1551126E-04;  9.9828381E+02;  1.0000000E-01; -1.4218363E+03;3; -5.9142361E+00;  0.0000000E+00; -2.2709038E+00;0;  1.2368436E-02;  3.9852984E+04;  0.0000000E+00; -7.8222167E-01;  4.0000000E+04;  0.0000000E+00;  4.0013867E+04;  1.3038257E-02;  0.0000000E+00; -6.6982082E-04;  2.1044841E+03;
  4.1769352E-02;  9.9999998E-03;  2.3004410E-01;2743;  3.4311332E-03;  0.0000000E+00; -2.5999075E-04;  9.9822797E+02;  1.0000000E-01; -1.4681066E+03;3; -2.2144461E+00;  0.0000000E+00; -9.3570834E-01;0;  1.2330928E-02;  3.9843828E+04;  0.0000000E+00; -7.6183772E-01;  4.0000000E+04;  0.0000000E+00;  4.0017688E+04;  1.2951263E-02;  0.0000000E+00; -6.2033522E-04;  2.5270952E+03;
  5.1608883E-02;  9.9999998E-03;  7.0008770E-02;2788;  2.1076205E-03;  0.0000000E+00; -1.1704586E-04;  1.0013755E+03;  1.0000000E-01;  1.1396221E+03;3; -3.1313494E+01;  0.0000000E+00;  8.2444124E-02;0;  1.0166714E-02;  4.0123539E+04;  0.0000000E+00; -7.8979833E-03;  4.0000000E+04;  0.0000000E+00;  3.9999621E+04;  1.0925429E-02;  0.0000000E+00; -7.5871509E-04;  2.0653854E+02;
  5.1608350E-02;  9.9999998E-03;  8.0010541E-02;2789;  2.2118937E-03;  0.0000000E+00; -1.3675693E-04;  1.0014142E+03;  1.0000000E-01;  1.1717200E+03;3; -3.1378626E+01;  0.0000000E+00;  2.6733756E-02;0;  1.0230271E-02;  4.0126180E+04;  0.0000000E+00; -1.2364334E-02;  4.0000000E+04;  0.0000000E+00;  3.9999586E+04;  1.0943034E-02;  0.0000000E+00; -7.1276282E-04;  1.4733195E+02;
  5.1604398E-02;  9.9999998E-03;  9.0011582E-02;2790;  2.2942109E-03;  0.0000000E+00; -1.5280224E-04;  1.0014651E+03;  1.0000000E-01;  1.2137928E+03;3; -3.1303877E+01;  0.0000000E+00; -5.8128778E-02;0;  1.0329312E-02;  4.0129113E+04;  0.0000000E+00; -1.9243898E-02;  4.0000000E+04;  0.0000000E+00;  4.0000367E+04;  1.0947624E-02;  0.0000000E+00; -6.1831239E-04;  4.4282242E+01;
  5.1597822E-02;  9.9999998E-03;  1.0001139E-01;2791;  2.3485769E-03;  0.0000000E+00; -1.6392996E-04;  1.0015113E+03;  1.0000000E-01;  1.2521128E+03;3; -3.1075502E+01;  0.0000000E+00; -1.7527694E-01;0;  1.0453820E-02;  4.0131828E+04;  0.0000000E+00; -2.9731954E-02;  4.0000000E+04;  0.0000000E+00;  4.0001934E+04;  1.0939792E-02;  0.0000000E+00; -4.8597172E-04;  1.0919659E+02;
  5.1590811E-02;  9.9999998E-03;  1.1000939E-01;2792;  2.3714222E-03;  0.0000000E+00; -1.7083687E-04;  1.0015495E+03;  1.0000000E-01;  1.2837168E+03;3; -3.0751680E+01;  0.0000000E+00; -3.2759470E-01;0;  1.0589373E-02;  4.0133945E+04;  0.0000000E+00; -4.5488015E-02;  4.0000000E+04;  0.0000000E+00;  4.0002684E+04;  1.0922509E-02;  0.0000000E+00; -3.3313557E-04;  2.3142555E+02;
  5.1585395E-02;  9.9999998E-03;  1.2000524E-01;2793;  2.3634455E-03;  0.0000000E+00; -1.7521340E-04;  1.0015735E+03;  1.0000000E-01;  1.3035681E+03;3; -3.0382698E+01;  0.0000000E+00; -5.1813936E-01;0;  1.0719878E-02;  4.0135184E+04;  0.0000000E+00; -6.8579726E-02;  4.0000000E+04;  0.0000000E+00;  4.0003227E+04;  1.0900956E-02;  0.0000000E+00; -1.8107796E-04;  3.0867468E+02;
  5.1583961E-02;  9.9999998E-03;  1.2999973E-01;2794;  2.3308655E-03;  0.0000000E+00; -1.7900363E-04;  1.0015705E+03;  1.0000000E-01;  1.3010990E+03;3; -2.9973473E+01;  0.0000000E+00; -7.5013232E-01;0;  1.0831073E-02;  4.0134488E+04;  0.0000000E+00; -1.0110136E-01;  4.0000000E+04;  0.0000000E+00;  4.0003574E+04;  1.0881994E-02;  0.0000000E+00; -5.0920578E-05;  3.2131189E+02;
  5.1589262E-02;  9.9999998E-03;  1.3999385E-01;2795;  2.2877206E-03;  0.0000000E+00; -1.8446658E-04;  1.0015304E+03;  1.0000000E-01;  1.2679148E+03;3; -2.9493368E+01;  0.0000000E+00; -1.0257078E+00;0;  1.0913630E-02;  4.0131969E+04;  0.0000000E+00; -1.4441466E-01;  4.0000000E+04;  0.0000000E+00;  4.0002570E+04;  1.0872957E-02;  0.0000000E+00;  4.0672741E-05;  2.8838489E+02;
  5.1602855E-02;  9.9999998E-03;  1.4998876E-01;2796;  2.2523180E-03;  0.0000000E+00; -1.9266525E-04;  1.0014555E+03;  1.0000000E-01;  1.2058918E+03;3; -2.8900331E+01;  0.0000000E+00; -1.3407211E+00;0;  1.0965678E-02;  4.0126566E+04;  0.0000000E+00; -1.9794463E-01;  4.0000000E+04;  0.0000000E+00;  4.0002785E+04;  1.0881405E-02;  0.0000000E+00;  8.4272244E-05;  2.8900739E+02;
  5.1624093E-02;  9.9999998E-03;  1.5998498E-01;2797;  2.2442660E-03;  0.0000000E+00; -2.0359436E-04;  1.0013382E+03;  1.0000000E-01;  1.1087094E+03;3; -2.8071465E+01;  0.0000000E+00; -1.6547391E+00;0;  1.0991105E-02;  4.0118164E+04;  0.0000000E+00; -2.5838417E-01;  4.0000000E+04;  0.0000000E+00;  4.0000508E+04;  1.0914223E-02;  0.0000000E+00;  7.6881617E-05;  3.8240866E+02;
  5.1650967E-02;  9.9999998E-03;  1.6998360E-01;2798;  2.2809224E-03;  0.0000000E+00; -2.1387410E-04;  1.0011887E+03;  1.0000000E-01;  9.8476227E+02;3; -2.6910049E+01;  0.0000000E+00; -1.8944397E+00;0;  1.0996285E-02;  4.0106348E+04;  0.0000000E+00; -3.2038286E-01;  4.0000000E+04;  0.0000000E+00;  3.9998504E+04;  1.0975863E-02;  0.0000000E+00;  2.0421698E-05;  5.0182941E+02;
  5.1679276E-02;  9.9999998E-03;  1.7998673E-01;2799;  2.3737461E-03;  0.0000000E+00; -2.1841592E-04;  1.0010035E+03;  1.0000000E-01;  8.3138391E+02;3; -2.5262215E+01;  0.0000000E+00; -1.9753237E+00;0;  1.0988407E-02;  4.0090844E+04;  0.0000000E+00; -3.7762597E-01;  4.0000000E+04;  0.0000000E+00;  3.9999035E+04;  1.1066665E-02;  0.0000000E+00; -7.8258017E-05;  5.7517578E+02;
  5.1702458E-02;  9.9999998E-03;  1.8999423E-01;2800;  2.5198767E-03;  0.0000000E+00; -2.0559620E-04;  1.0008017E+03;  1.0000000E-01;  6.6417877E+02;3; -2.3071173E+01;  0.0000000E+00; -1.8026930E+00;0;  1.0975383E-02;  4.0072586E+04;  0.0000000E+00; -4.2417100E-01;  4.0000000E+04;  0.0000000E+00;  4.0000668E+04;  1.1182372E-02;  0.0000000E+00; -2.0698886E-04;  6.0367627E+02;
  5.1712811E-02;  9.9999998E-03;  2.0000604E-01;2801;  2.7057431E-03;  0.0000000E+00; -1.7646739E-04;  1.0005809E+03;  1.0000000E-01;  4.8127032E+02;3; -2.0256834E+01;  0.0000000E+00; -1.2620201E+00;0;  1.0964489E-02;  4.0051426E+04;  0.0000000E+00; -4.5563293E-01;  4.0000000E+04;  0.0000000E+00;  4.0002445E+04;  1.1312255E-02;  0.0000000E+00; -3.4776577E-04;  7.0788959E+02;
  5.1702764E-02;  9.9999998E-03;  2.1002118E-01;2802;  2.9003974E-03;  0.0000000E+00; -1.3773479E-04;  1.0003539E+03;  1.0000000E-01;  2.9322629E+02;3; -1.6862560E+01;  0.0000000E+00; -2.0317821E-01;0;  1.0963281E-02;  4.0028227E+04;  0.0000000E+00; -4.7021261E-01;  4.0000000E+04;  0.0000000E+00;  4.0006738E+04;  1.1438979E-02;  0.0000000E+00; -4.7569850E-04;  1.0278042E+03;
  5.1661797E-02;  9.9999998E-03;  2.2003654E-01;2803;  3.0493320E-03;  0.0000000E+00; -1.1549825E-04;  1.0001233E+03;  1.0000000E-01;  1.0212057E+02;3; -1.3009782E+01;  0.0000000E+00;  1.4765000E+00;0;  1.0979555E-02;  4.0004191E+04;  0.0000000E+00; -4.7032949E-01;  4.0000000E+04;  0.0000000E+00;  4.0011465E+04;  1.1539559E-02;  0.0000000E+00; -5.6000397E-04;  1.5185173E+03;
  5.1576320E-02;  9.9999998E-03;  2.3004594E-01;2804;  3.0986590E-03;  0.0000000E+00; -1.2723505E-04;  9.9990088E+02;  1.0000000E-01; -8.2121132E+01;3; -8.9482212E+00;  0.0000000E+00;  3.7421639E+00;0;  1.1014175E-02;  3.9980559E+04;  0.0000000E+00; -4.6347079E-01;  4.0000000E+04;  0.0000000E+00;  4.0015398E+04;  1.1582425E-02;  0.0000000E+00; -5.6825049E-04;  2.0338879E+03;
  6.1331369E-02;  9.9999998E-03;  7.0017062E-02;2849;  1.8714095E-03;  0.0000000E+00; -1.7005246E-04;  1.0028246E+03;  1.0000000E-01;  2.3400820E+03;3; -2.9070724E+01;  0.0000000E+00;  5.6647204E-02;0;  1.0459762E-02;  4.0243293E+04;  0.0000000E+00; -1.9739594E-03;  4.0000000E+04;  0.0000000E+00;  4.0000191E+04;  1.1161538E-02;  0.0000000E+00; -7.0177537E-04;  2.3007541E+02;
  6.1330408E-02;  9.9999998E-03;  8.0022261E-02;2850;  1.9741761E-03;  0.0000000E+00; -1.8909510E-04;  1.0028623E+03;  1.0000000E-01;  2.3713896E+03;3; -2.9088011E+01;  0.0000000E+00;  1.8358815E-02;0;  1.0439971E-02;  4.0245699E+04;  0.0000000E+00; -5.4371175E-03;  4.0000000E+04;  0.0000000E+00;  4.0001293E+04;  1.1080462E-02;  0.0000000E+00; -6.4049102E-04;  1.5081310E+02;
  6.1326489E-02;  9.9999998E-03;  9.0026796E-02;2851;  2.0553446E-03;  0.0000000E+00; -1.9993454E-04;  1.0029086E+03;  1.0000000E-01;  2.4097097E+03;3; -2.8964754E+01;  0.0000000E+00; -4.0386453E-02;0;  1.0463701E-02;  4.0248699E+04;  0.0000000E+00; -1.1445742E-02;  4.0000000E+04;  0.0000000E+00;  4.0001695E+04;  1.0990718E-02;  0.0000000E+00; -5.2701792E-04;  1.7812706E+01;
  6.1320171E-02;  9.9999998E-03;  1.0002985E-01;2852;  2.1077425E-03;  0.0000000E+00; -2.0223382E-04;  1.0029629E+03;  1.0000000E-01;  2.4547454E+03;3; -2.8743242E+01;  0.0000000E+00; -1.2204499E-01;0;  1.0520566E-02;  4.0251203E+04;  0.0000000E+00; -2.0821178E-02;  4.0000000E+04;  0.0000000E+00;  4.0003391E+04;  1.0894060E-02;  0.0000000E+00; -3.7349414E-04;  1.6876105E+02;
  6.1313182E-02;  9.9999998E-03;  1.1003002E-01;2853;  2.1268893E-03;  0.0000000E+00; -1.9630895E-04;  1.0030103E+03;  1.0000000E-01;  2.4939541E+03;3; -2.8451399E+01;  0.0000000E+00; -2.2942600E-01;0;  1.0593794E-02;  4.0254000E+04;  0.0000000E+00; -3.4312788E-02;  4.0000000E+04;  0.0000000E+00;  4.0004461E+04;  1.0792959E-02;  0.0000000E+00; -1.9916552E-04;  3.2680002E+02;
  6.1308753E-02;  9.9999998E-03;  1.2002570E-01;2854;  2.1131113E-03;  0.0000000E+00; -1.8493687E-04;  1.0030454E+03;  1.0000000E-01;  2.5230891E+03;3; -2.8147022E+01;  0.0000000E+00; -3.6508396E-01;0;  1.0663891E-02;  4.0255836E+04;  0.0000000E+00; -5.2411996E-02;  4.0000000E+04;  0.0000000E+00;  4.0005062E+04;  1.0690813E-02;  0.0000000E+00; -2.6921489E-05;  4.2255838E+02;
  6.1310053E-02;  9.9999998E-03;  1.3001728E-01;2855;  2.0754547E-03;  0.0000000E+00; -1.7461664E-04;  1.0030540E+03;  1.0000000E-01;  2.5301013E+03;3; -2.7844404E+01;  0.0000000E+00; -5.2837968E-01;0;  1.0713157E-02;  4.0256438E+04;  0.0000000E+00; -7.4944191E-02;  4.0000000E+04;  0.0000000E+00;  4.0005188E+04;  1.0591969E-02;  0.0000000E+00;  1.2118792E-04;  4.2369272E+02;
  6.1319243E-02;  9.9999998E-03;  1.4000708E-01;2856;  2.0291118E-03;  0.0000000E+00; -1.7111088E-04;  1.0030264E+03;  1.0000000E-01;  2.5073860E+03;3; -2.7528364E+01;  0.0000000E+00; -7.2109640E-01;0;  1.0730249E-02;  4.0254844E+04;  0.0000000E+00; -1.0047051E-01;  4.0000000E+04;  0.0000000E+00;  4.0005363E+04;  1.0502154E-02;  0.0000000E+00;  2.2809461E-04;  3.2981918E+02;
  6.1337866E-02;  9.9999998E-03;  1.4999709E-01;2857;  1.9923570E-03;  0.0000000E+00; -1.7670207E-04;  1.0029606E+03;  1.0000000E-01;  2.4527700E+03;3; -2.7152231E+01;  0.0000000E+00; -9.3819278E-01;0;  1.0712842E-02;  4.0250629E+04;  0.0000000E+00; -1.2562020E-01;  4.0000000E+04;  0.0000000E+00;  4.0003039E+04;  1.0428908E-02;  0.0000000E+00;  2.8393313E-04;  2.0549240E+02;
  6.1365400E-02;  9.9999998E-03;  1.5998828E-01;2858;  1.9838556E-03;  0.0000000E+00; -1.8900828E-04;  1.0028495E+03;  1.0000000E-01;  2.3607234E+03;3; -2.6611607E+01;  0.0000000E+00; -1.1293323E+00;0;  1.0666032E-02;  4.0242875E+04;  0.0000000E+00; -1.4468108E-01;  4.0000000E+04;  0.0000000E+00;  4.0001715E+04;  1.0381244E-02;  0.0000000E+00;  2.8478776E-04;  2.4121576E+02;
  6.1399642E-02;  9.9999998E-03;  1.6998200E-01;2859;  2.0215674E-03;  0.0000000E+00; -2.0232210E-04;  1.0026966E+03;  1.0000000E-01;  2.2341096E+03;3; -2.5799595E+01;  0.0000000E+00; -1.1999394E+00;0;  1.0599080E-02;  4.0231035E+04;  0.0000000E+00; -1.5158342E-01;  4.0000000E+04;  0.0000000E+00;  3.9998844E+04;  1.0367718E-02;  0.0000000E+00;  2.3136292E-04;  3.7805515E+02;
  6.1436705E-02;  9.9999998E-03;  1.7998044E-01;2860;  2.1134331E-03;  0.0000000E+00; -2.0718123E-04;  1.0024962E+03;  1.0000000E-01;  2.0679910E+03;3; -2.4577703E+01;  0.0000000E+00; -1.0413190E+00;0;  1.0523788E-02;  4.0214703E+04;  0.0000000E+00; -1.4251895E-01;  4.0000000E+04;  0.0000000E+00;  3.9998754E+04;  1.0394972E-02;  0.0000000E+00;  1.2881545E-04;  4.3393671E+02;
  6.1469823E-02;  9.9999998E-03;  1.8998551E-01;2861;  2.2587711E-03;  0.0000000E+00; -1.9427371E-04;  1.0022598E+03;  1.0000000E-01;  1.8722433E+03;3; -2.2860693E+01;  0.0000000E+00; -5.4065788E-01;0;  1.0452327E-02;  4.0193785E+04;  0.0000000E+00; -1.1782514E-01;  4.0000000E+04;  0.0000000E+00;  3.9999035E+04;  1.0465498E-02;  0.0000000E+00; -1.3171124E-05;  3.3364493E+02;
  6.1491325E-02;  9.9999998E-03;  1.9999662E-01;2862;  2.4469132E-03;  0.0000000E+00; -1.4387029E-04;  1.0019878E+03;  1.0000000E-01;  1.6468669E+03;3; -2.0562500E+01;  0.0000000E+00;  4.3311778E-01;0;  1.0396811E-02;  4.0168293E+04;  0.0000000E+00; -8.2360119E-02;  4.0000000E+04;  0.0000000E+00;  4.0001715E+04;  1.0575465E-02;  0.0000000E+00; -1.7865392E-04;  1.1262675E+02;
  6.1494436E-02;  9.9999998E-03;  2.1001305E-01;2863;  2.6501368E-03;  0.0000000E+00; -6.4506174E-05;  1.0016853E+03;  1.0000000E-01;  1.3962074E+03;3; -1.7656395E+01;  0.0000000E+00;  2.0348997E+00;0;  1.0369221E-02;  4.0138812E+04;  0.0000000E+00; -4.5007918E-02;  4.0000000E+04;  0.0000000E+00;  4.0005758E+04;  1.0713259E-02;  0.0000000E+00; -3.4403818E-04;  4.7610901E+02;
  6.1471663E-02;  9.9999998E-03;  2.2003254E-01;2864;  2.8181220E-03;  0.0000000E+00;  1.1716984E-05;  1.0013599E+03;  1.0000000E-01;  1.1266842E+03;3; -1.4202829E+01;  0.0000000E+00;  4.3718605E+00;0;  1.0380833E-02;  4.0106734E+04;  0.0000000E+00; -1.8120937E-02;  4.0000000E+04;  0.0000000E+00;  4.0009098E+04;  1.0859066E-02;  0.0000000E+00; -4.7823263E-04;  1.0647168E+03;
  6.1410423E-02;  9.9999998E-03;  2.3004857E-01;2865;  2.8931163E-03;  0.0000000E+00;  4.7350004E-05;  1.0010153E+03;  1.0000000E-01;  8.4116138E+02;3; -1.0348500E+01;  0.0000000E+00;  7.3634882E+00;0;  1.0436170E-02;  4.0072977E+04;  0.0000000E+00; -1.6829133E-02;  4.0000000E+04;  0.0000000E+00;  4.0013824E+04;  1.0983085E-02;  0.0000000E+00; -5.4691499E-04;  1.6654583E+03;
  7.1140893E-02;  9.9999998E-03;  7.0025317E-02;2910;  1.8715870E-03;  0.0000000E+00; -2.0780899E-04;  1.0034000E+03;  1.0000000E-01;  2.8168093E+03;3; -2.2910812E+01;  0.0000000E+00;  3.2333203E-02;0;  1.1540576E-02;  4.0290930E+04;  0.0000000E+00;  4.1842940E-03;  4.0000000E+04;  0.0000000E+00;  4.0001609E+04;  1.2160830E-02;  0.0000000E+00; -6.2025432E-04;  1.1314197E+02;
  7.1140267E-02;  9.9999998E-03;  8.0034107E-02;2911;  1.9691875E-03;  0.0000000E+00; -2.2935058E-04;  1.0034287E+03;  1.0000000E-01;  2.8406111E+03;3; -2.2892860E+01;  0.0000000E+00;  6.9859405E-03;0;  1.1438149E-02;  4.0292520E+04;  0.0000000E+00;  2.2352391E-03;  4.0000000E+04;  0.0000000E+00;  4.0002410E+04;  1.1986952E-02;  0.0000000E+00; -5.4880290E-04;  2.0320513E+01;
  7.1137190E-02;  9.9999998E-03;  9.0042464E-02;2912;  2.0453304E-03;  0.0000000E+00; -2.4079355E-04;  1.0034721E+03;  1.0000000E-01;  2.8765605E+03;3; -2.2767298E+01;  0.0000000E+00; -3.2090694E-02;0;  1.1389829E-02;  4.0294953E+04;  0.0000000E+00; -2.2453789E-03;  4.0000000E+04;  0.0000000E+00;  4.0003621E+04;  1.1811247E-02;  0.0000000E+00; -4.2141750E-04;  1.4942081E+02;
  7.1132392E-02;  9.9999998E-03;  1.0004912E-01;2913;  2.0928362E-03;  0.0000000E+00; -2.3786249E-04;  1.0035232E+03;  1.0000000E-01;  2.9189297E+03;3; -2.2557486E+01;  0.0000000E+00; -8.7182082E-02;0;  1.1384349E-02;  4.0297559E+04;  0.0000000E+00; -9.8185223E-03;  4.0000000E+04;  0.0000000E+00;  4.0005488E+04;  1.1636102E-02;  0.0000000E+00; -2.5175189E-04;  3.5667181E+02;
  7.1127132E-02;  9.9999998E-03;  1.1005137E-01;2914;  2.1089360E-03;  0.0000000E+00; -2.2098332E-04;  1.0035803E+03;  1.0000000E-01;  2.9662371E+03;3; -2.2318609E+01;  0.0000000E+00; -1.5965410E-01;0;  1.1401523E-02;  4.0300508E+04;  0.0000000E+00; -2.0487349E-02;  4.0000000E+04;  0.0000000E+00;  4.0006641E+04;  1.1462454E-02;  0.0000000E+00; -6.0930441E-05;  5.4660675E+02;
  7.1123987E-02;  9.9999998E-03;  1.2004722E-01;2915;  2.0946786E-03;  0.0000000E+00; -1.9343611E-04;  1.0036229E+03;  1.0000000E-01;  3.0014954E+03;3; -2.2075516E+01;  0.0000000E+00; -2.5239497E-01;0;  1.1417173E-02;  4.0303289E+04;  0.0000000E+00; -3.3299588E-02;  4.0000000E+04;  0.0000000E+00;  4.0007203E+04;  1.1290716E-02;  0.0000000E+00;  1.2645721E-04;  6.6157104E+02;
  7.1126655E-02;  9.9999998E-03;  1.3003664E-01;2916;  2.0583649E-03;  0.0000000E+00; -1.6601723E-04;  1.0036525E+03;  1.0000000E-01;  3.0260872E+03;3; -2.1876991E+01;  0.0000000E+00; -3.6426499E-01;0;  1.1409079E-02;  4.0305262E+04;  0.0000000E+00; -4.5828450E-02;  4.0000000E+04;  0.0000000E+00;  4.0006781E+04;  1.1121732E-02;  0.0000000E+00;  2.8734634E-04;  6.5874603E+02;
  7.1137577E-02;  9.9999998E-03;  1.4002225E-01;2917;  2.0140503E-03;  0.0000000E+00; -1.4978493E-04;  1.0036450E+03;  1.0000000E-01;  3.0198652E+03;3; -2.1690620E+01;  0.0000000E+00; -4.9538133E-01;0;  1.1362313E-02;  4.0305504E+04;  0.0000000E+00; -5.3607818E-02;  4.0000000E+04;  0.0000000E+00;  4.0007262E+04;  1.0958021E-02;  0.0000000E+00;  4.0429243E-04;  5.2560638E+02;
  7.1158074E-02;  9.9999998E-03;  1.5000780E-01;2918;  1.9786344E-03;  0.0000000E+00; -1.4676049E-04;  1.0036050E+03;  1.0000000E-01;  2.9866809E+03;3; -2.1492807E+01;  0.0000000E+00; -6.3743865E-01;0;  1.1272195E-02;  4.0303398E+04;  0.0000000E+00; -4.9902629E-02;  4.0000000E+04;  0.0000000E+00;  4.0004883E+04;  1.0805215E-02;  0.0000000E+00;  4.6698007E-04;  2.8751172E+02;
  7.1187869E-02;  9.9999998E-03;  1.5999493E-01;2919;  1.9695319E-03;  0.0000000E+00; -1.5171428E-04;  1.0035170E+03;  1.0000000E-01;  2.9136953E+03;3; -2.1182888E+01;  0.0000000E+00; -7.3784429E-01;0;  1.1143303E-02;  4.0298016E+04;  0.0000000E+00; -2.5987204E-02;  4.0000000E+04;  0.0000000E+00;  4.0002398E+04;  1.0672729E-02;  0.0000000E+00;  4.7057369E-04;  3.7049801E+01;
  7.1224838E-02;  9.9999998E-03;  1.6998456E-01;2920;  2.0036248E-03;  0.0000000E+00; -1.5766433E-04;  1.0033788E+03;  1.0000000E-01;  2.7993281E+03;3; -2.0663504E+01;  0.0000000E+00; -6.9251895E-01;0;  1.0986912E-02;  4.0288391E+04;  0.0000000E+00;  2.5810732E-02;  4.0000000E+04;  0.0000000E+00;  3.9999406E+04;  1.0572272E-02;  0.0000000E+00;  4.1463951E-04;  2.6232016E+02;
  7.1264982E-02;  9.9999998E-03;  1.7997919E-01;2921;  2.0896867E-03;  0.0000000E+00; -1.5115312E-04;  1.0031976E+03;  1.0000000E-01;  2.6491104E+03;3; -1.9847803E+01;  0.0000000E+00; -3.7292472E-01;0;  1.0818237E-02;  4.0273512E+04;  0.0000000E+00;  1.0760453E-01;  4.0000000E+04;  0.0000000E+00;  3.9999305E+04;  1.0515692E-02;  0.0000000E+00;  3.0254619E-04;  4.2811990E+02;
  7.1302772E-02;  9.9999998E-03;  1.8998209E-01;2922;  2.2302922E-03;  0.0000000E+00; -1.1173407E-04;  1.0029647E+03;  1.0000000E-01;  2.4562268E+03;3; -1.8619623E+01;  0.0000000E+00;  3.5110015E-01;0;  1.0654126E-02;  4.0253176E+04;  0.0000000E+00;  2.1348947E-01;  4.0000000E+04;  0.0000000E+00;  3.9999234E+04;  1.0512112E-02;  0.0000000E+00;  1.4201476E-04;  4.7467038E+02;
  7.1329996E-02;  9.9999998E-03;  1.9999357E-01;2923;  2.4163132E-03;  0.0000000E+00; -2.5416533E-05;  1.0026830E+03;  1.0000000E-01;  2.2228508E+03;3; -1.6895548E+01;  0.0000000E+00;  1.6275433E+00;0;  1.0512327E-02;  4.0227203E+04;  0.0000000E+00;  3.2962707E-01;  4.0000000E+04;  0.0000000E+00;  4.0001352E+04;  1.0564993E-02;  0.0000000E+00; -5.2666619E-05;  4.8654126E+02;
  7.1340233E-02;  9.9999998E-03;  2.1001296E-01;2924;  2.6200046E-03;  0.0000000E+00;  1.0312071E-04;  1.0023554E+03;  1.0000000E-01;  1.9514509E+03;3; -1.4609982E+01;  0.0000000E+00;  3.6298201E+00;0;  1.0412015E-02;  4.0195699E+04;  0.0000000E+00;  4.3552047E-01;  4.0000000E+04;  0.0000000E+00;  4.0004367E+04;  1.0670332E-02;  0.0000000E+00; -2.5831762E-04;  7.1090723E+02;
  7.1327113E-02;  9.9999998E-03;  2.2003734E-01;2925;  2.7820400E-03;  0.0000000E+00;  2.2217230E-04;  1.0019858E+03;  1.0000000E-01;  1.6451880E+03;3; -1.1768424E+01;  0.0000000E+00;  6.4601097E+00;0;  1.0371272E-02;  4.0159652E+04;  0.0000000E+00;  5.0564015E-01;  4.0000000E+04;  0.0000000E+00;  4.0009465E+04;  1.0814810E-02;  0.0000000E+00; -4.4353842E-04;  1.1832445E+03;
  7.1280546E-02;  9.9999998E-03;  2.3006050E-01;2926;  2.8491016E-03;  0.0000000E+00;  2.8458674E-04;  1.0015822E+03;  1.0000000E-01;  1.3108765E+03;3; -8.4551954E+00;  0.0000000E+00;  1.0001932E+01;0;  1.0400309E-02;  4.0120566E+04;  0.0000000E+00;  5.1554072E-01;  4.0000000E+04;  0.0000000E+00;  4.0013426E+04;  1.0972552E-02;  0.0000000E+00; -5.7224260E-04;  1.7264730E+03;
  8.1050262E-02;  9.9999998E-03;  7.0029914E-02;2971;  2.0833053E-03;  0.0000000E+00; -2.1029876E-04;  1.0032554E+03;  1.0000000E-01;  2.6971089E+03;3; -1.5880526E+01;  0.0000000E+00;  1.0374056E-02;0;  1.2979213E-02;  4.0278277E+04;  0.0000000E+00;  7.6422170E-03;  4.0000000E+04;  0.0000000E+00;  4.0003090E+04;  1.3496954E-02;  0.0000000E+00; -5.1774038E-04;  1.3401445E+02;
  8.1049919E-02;  9.9999998E-03;  8.0041185E-02;2972;  2.1775295E-03;  0.0000000E+00; -2.4010221E-04;  1.0032657E+03;  1.0000000E-01;  2.7056025E+03;3; -1.5840910E+01;  0.0000000E+00; -3.6694822E-03;0;  1.2798319E-02;  4.0278723E+04;  0.0000000E+00;  7.1731373E-03;  4.0000000E+04;  0.0000000E+00;  4.0004453E+04;  1.3240911E-02;  0.0000000E+00; -4.4259246E-04;  2.3481763E+02;
  8.1047542E-02;  9.9999998E-03;  9.0052374E-02;2973;  2.2499426E-03;  0.0000000E+00; -2.5852956E-04;  1.0032968E+03;  1.0000000E-01;  2.7313796E+03;3; -1.5724977E+01;  0.0000000E+00; -2.7561598E-02;0;  1.2685493E-02;  4.0279945E+04;  0.0000000E+00;  4.5345230E-03;  4.0000000E+04;  0.0000000E+00;  4.0005941E+04;  1.2993639E-02;  0.0000000E+00; -3.0814635E-04;  4.2386526E+02;
  8.1043400E-02;  9.9999998E-03;  1.0006256E-01;2974;  2.2946978E-03;  0.0000000E+00; -2.5898675E-04;  1.0033469E+03;  1.0000000E-01;  2.7728599E+03;3; -1.5557912E+01;  0.0000000E+00; -6.2794894E-02;0;  1.2628553E-02;  4.0282207E+04;  0.0000000E+00; -6.5346959E-04;  4.0000000E+04;  0.0000000E+00;  4.0007918E+04;  1.2757961E-02;  0.0000000E+00; -1.2940855E-04;  6.5780328E+02;
  8.1038408E-02;  9.9999998E-03;  1.1006782E-01;2975;  2.3073638E-03;  0.0000000E+00; -2.3582856E-04;  1.0034026E+03;  1.0000000E-01;  2.8189819E+03;3; -1.5368044E+01;  0.0000000E+00; -1.1108202E-01;0;  1.2603538E-02;  4.0284918E+04;  0.0000000E+00; -7.8904154E-03;  4.0000000E+04;  0.0000000E+00;  4.0009312E+04;  1.2532715E-02;  0.0000000E+00;  7.0823044E-05;  8.7384186E+02;
  8.1034146E-02;  9.9999998E-03;  1.2006462E-01;2976;  2.2885923E-03;  0.0000000E+00; -1.8957545E-04;  1.0034562E+03;  1.0000000E-01;  2.8634253E+03;3; -1.5194385E+01;  0.0000000E+00; -1.7534526E-01;0;  1.2580331E-02;  4.0288191E+04;  0.0000000E+00; -1.5193776E-02;  4.0000000E+04;  0.0000000E+00;  4.0010012E+04;  1.2313948E-02;  0.0000000E+00;  2.6638355E-04;  1.0050968E+03;
  8.1033841E-02;  9.9999998E-03;  1.3005319E-01;2977;  2.2495049E-03;  0.0000000E+00; -1.3882019E-04;  1.0034988E+03;  1.0000000E-01;  2.8986833E+03;3; -1.5063398E+01;  0.0000000E+00; -2.5453520E-01;0;  1.2530407E-02;  4.0291359E+04;  0.0000000E+00; -1.8390855E-02;  4.0000000E+04;  0.0000000E+00;  4.0010742E+04;  1.2097162E-02;  0.0000000E+00;  4.3324431E-04;  1.0010532E+03;
  8.1041381E-02;  9.9999998E-03;  1.4003585E-01;2978;  2.2027069E-03;  0.0000000E+00; -1.0321838E-04;  1.0035202E+03;  1.0000000E-01;  2.9164607E+03;3; -1.4972665E+01;  0.0000000E+00; -3.4209213E-01;0;  1.2432994E-02;  4.0294148E+04;  0.0000000E+00; -1.0450399E-02;  4.0000000E+04;  0.0000000E+00;  4.0010984E+04;  1.1879395E-02;  0.0000000E+00;  5.5359973E-04;  8.4556592E+02;
  8.1058182E-02;  9.9999998E-03;  1.5001756E-01;2979;  2.1644016E-03;  0.0000000E+00; -8.6231106E-05;  1.0035107E+03;  1.0000000E-01;  2.9085598E+03;3; -1.4885516E+01;  0.0000000E+00; -4.3044177E-01;0;  1.2278682E-02;  4.0295250E+04;  0.0000000E+00;  1.8584851E-02;  4.0000000E+04;  0.0000000E+00;  4.0007258E+04;  1.1662018E-02;  0.0000000E+00;  6.1666360E-04;  5.6708972E+02;
  8.1085429E-02;  9.9999998E-03;  1.6000205E-01;2980;  2.1523274E-03;  0.0000000E+00; -7.8598903E-05;  1.0034630E+03;  1.0000000E-01;  2.8689558E+03;3; -1.4736737E+01;  0.0000000E+00; -4.6867278E-01;0;  1.2069567E-02;  4.0293266E+04;  0.0000000E+00;  8.0364428E-02;  4.0000000E+04;  0.0000000E+00;  4.0004039E+04;  1.1452907E-02;  0.0000000E+00;  6.1666040E-04;  2.5818747E+02;
  8.1120551E-02;  9.9999998E-03;  1.6998968E-01;2981;  2.1811493E-03;  0.0000000E+00; -6.5019645E-05;  1.0033657E+03;  1.0000000E-01;  2.7883655E+03;3; -1.4442466E+01;  0.0000000E+00; -3.4864619E-01;0;  1.1817114E-02;  4.0287098E+04;  0.0000000E+00;  1.8446863E-01;  4.0000000E+04;  0.0000000E+00;  4.0001453E+04;  1.1265157E-02;  0.0000000E+00;  5.5195758E-04;  2.7410941E+02;
  8.1160061E-02;  9.9999998E-03;  1.7998259E-01;2982;  2.2725998E-03;  0.0000000E+00; -1.7514383E-05;  1.0032234E+03;  1.0000000E-01;  2.6705417E+03;3; -1.3929097E+01;  0.0000000E+00;  6.7837641E-02;0;  1.1539642E-02;  4.0275762E+04;  0.0000000E+00;  3.3252856E-01;  4.0000000E+04;  0.0000000E+00;  4.0000305E+04;  1.1115162E-02;  0.0000000E+00;  4.2448036E-04;  5.4324060E+02;
  8.1198007E-02;  9.9999998E-03;  1.8998463E-01;2983;  2.4180610E-03;  0.0000000E+00;  7.3154428E-05;  1.0030258E+03;  1.0000000E-01;  2.5067932E+03;3; -1.3101506E+01;  0.0000000E+00;  9.2967665E-01;0;  1.1258223E-02;  4.0258719E+04;  0.0000000E+00;  5.1539582E-01;  4.0000000E+04;  0.0000000E+00;  4.0000359E+04;  1.1017470E-02;  0.0000000E+00;  2.4075346E-04;  7.8255597E+02;
  8.1226304E-02;  9.9999998E-03;  1.9999760E-01;2984;  2.6125761E-03;  0.0000000E+00;  2.2520272E-04;  1.0027723E+03;  1.0000000E-01;  2.2968240E+03;3; -1.1868822E+01;  0.0000000E+00;  2.4193587E+00;0;  1.0998366E-02;  4.0234918E+04;  0.0000000E+00;  7.1261549E-01;  4.0000000E+04;  0.0000000E+00;  4.0001523E+04;  1.0983817E-02;  0.0000000E+00;  1.4548656E-05;  1.0179025E+03;
  8.1239395E-02;  9.9999998E-03;  2.1002170E-01;2985;  2.8056465E-03;  0.0000000E+00;  3.7646765E-04;  1.0024581E+03;  1.0000000E-01;  2.0364856E+03;3; -1.0154625E+01;  0.0000000E+00;  4.7023530E+00;0;  1.0787365E-02;  4.0204914E+04;  0.0000000E+00;  8.9277351E-01;  4.0000000E+04;  0.0000000E+00;  4.0004648E+04;  1.1019435E-02;  0.0000000E+00; -2.3207020E-04;  1.3356240E+03;
  8.1230029E-02;  9.9999998E-03;  2.2005418E-01;2986;  2.9432301E-03;  0.0000000E+00;  4.9093895E-04;  1.0020948E+03;  1.0000000E-01;  1.7354570E+03;3; -7.9424553E+00;  0.0000000E+00;  7.8667455E+00;0;  1.0653643E-02;  4.0169039E+04;  0.0000000E+00;  1.0212269E+00;  4.0000000E+04;  0.0000000E+00;  4.0009957E+04;  1.1120602E-02;  0.0000000E+00; -4.6695952E-04;  1.7690468E+03;
  8.1191257E-02;  9.9999998E-03;  2.3008549E-01;2987;  2.9818390E-03;  0.0000000E+00;  5.4836820E-04;  1.0016756E+03;  1.0000000E-01;  1.3882076E+03;3; -5.2376838E+00;  0.0000000E+00;  1.1780171E+01;0;  1.0618314E-02;  4.0128227E+04;  0.0000000E+00;  1.0705148E+00;  4.0000000E+04;  0.0000000E+00;  4.0014570E+04;  1.1269892E-02;  0.0000000E+00; -6.5157755E-04;  2.2433772E+03;
  9.1084398E-02;  9.9999998E-03;  7.0024401E-02;3032;  2.6353295E-03;  0.0000000E+00; -1.2113238E-04;  1.0026229E+03;  1.0000000E-01;  2.1730745E+03;3; -9.8733025E+00;  0.0000000E+00; -5.7193455E-03;0;  1.4293453E-02;  4.0224426E+04;  0.0000000E+00;  5.8160545E-03;  4.0000000E+04;  0.0000000E+00;  4.0005805E+04;  1.4691020E-02;  0.0000000E+00; -3.9756799E-04;  4.7812607E+02;
  9.1082424E-02;  9.9999998E-03;  8.0036923E-02;3033;  2.7383575E-03;  0.0000000E+00; -1.6713863E-04;  1.0026175E+03;  1.0000000E-01;  2.1685312E+03;3; -9.8337641E+00;  0.0000000E+00; -1.3070134E-02;0;  1.4040542E-02;  4.0223211E+04;  0.0000000E+00;  6.0325437E-03;  4.0000000E+04;  0.0000000E+00;  4.0006551E+04;  1.4366105E-02;  0.0000000E+00; -3.2556299E-04;  5.8385114E+02;
  9.1076635E-02;  9.9999998E-03;  9.0050079E-02;3034;  2.8166827E-03;  0.0000000E+00; -2.0364118E-04;  1.0026317E+03;  1.0000000E-01;  2.1802839E+03;3; -9.7420139E+00;  0.0000000E+00; -2.5102373E-02;0;  1.3874076E-02;  4.0222965E+04;  0.0000000E+00;  4.8927180E-03;  4.0000000E+04;  0.0000000E+00;  4.0008277E+04;  1.4066214E-02;  0.0000000E+00; -1.9213704E-04;  7.8728760E+02;
  9.1066927E-02;  9.9999998E-03;  1.0006295E-01;3035;  2.8573435E-03;  0.0000000E+00; -2.1649478E-04;  1.0026652E+03;  1.0000000E-01;  2.2081350E+03;3; -9.6135263E+00;  0.0000000E+00; -4.5078415E-02;0;  1.3780843E-02;  4.0223785E+04;  0.0000000E+00;  2.2390417E-03;  4.0000000E+04;  0.0000000E+00;  4.0010535E+04;  1.3794137E-02;  0.0000000E+00; -1.3293456E-05;  1.0410669E+03;
  9.1053955E-02;  9.9999998E-03;  1.1007314E-01;3036;  2.8493712E-03;  0.0000000E+00; -1.9152414E-04;  1.0027118E+03;  1.0000000E-01;  2.2466526E+03;3; -9.4751711E+00;  0.0000000E+00; -7.4778132E-02;0;  1.3732400E-02;  4.0226012E+04;  0.0000000E+00; -1.1147188E-03;  4.0000000E+04;  0.0000000E+00;  4.0011707E+04;  1.3545234E-02;  0.0000000E+00;  1.8716576E-04;  1.2757028E+03;
  9.1039501E-02;  9.9999998E-03;  1.2007367E-01;3037;  2.8015850E-03;  0.0000000E+00; -1.2262394E-04;  1.0027702E+03;  1.0000000E-01;  2.2950461E+03;3; -9.3610134E+00;  0.0000000E+00; -1.2142086E-01;0;  1.3692493E-02;  4.0229562E+04;  0.0000000E+00; -2.6237655E-03;  4.0000000E+04;  0.0000000E+00;  4.0013266E+04;  1.3310414E-02;  0.0000000E+00;  3.8207843E-04;  1.4168480E+03;
  9.1027282E-02;  9.9999998E-03;  1.3006344E-01;3038;  2.7386732E-03;  0.0000000E+00; -2.1609538E-05;  1.0028271E+03;  1.0000000E-01;  2.3422546E+03;3; -9.2847700E+00;  0.0000000E+00; -1.8608159E-01;0;  1.3625377E-02;  4.0233949E+04;  0.0000000E+00;  2.8620088E-03;  4.0000000E+04;  0.0000000E+00;  4.0013273E+04;  1.3078661E-02;  0.0000000E+00;  5.4671592E-04;  1.4085145E+03;
  9.1022260E-02;  9.9999998E-03;  1.4004526E-01;3039;  2.6692639E-03;  0.0000000E+00;  5.7588917E-05;  1.0028721E+03;  1.0000000E-01;  2.3794883E+03;3; -9.2445669E+00;  0.0000000E+00; -2.4702750E-01;0;  1.3501531E-02;  4.0238543E+04;  0.0000000E+00;  2.3954617E-02;  4.0000000E+04;  0.0000000E+00;  4.0012691E+04;  1.2838388E-02;  0.0000000E+00;  6.6314271E-04;  1.2338916E+03;
  9.1028348E-02;  9.9999998E-03;  1.5002462E-01;3040;  2.6107703E-03;  0.0000000E+00;  1.0044600E-04;  1.0028950E+03;  1.0000000E-01;  2.3984507E+03;3; -9.2136536E+00;  0.0000000E+00; -3.0068004E-01;0;  1.3304626E-02;  4.0242574E+04;  0.0000000E+00;  7.2882280E-02;  4.0000000E+04;  0.0000000E+00;  4.0010070E+04;  1.2584584E-02;  0.0000000E+00;  7.2004215E-04;  9.2801373E+02;
  9.1046594E-02;  9.9999998E-03;  1.6000767E-01;3041;  2.5836520E-03;  0.0000000E+00;  1.3324007E-04;  1.0028881E+03;  1.0000000E-01;  2.3927224E+03;3; -9.1475334E+00;  0.0000000E+00; -2.9381379E-01;0;  1.3031854E-02;  4.0244641E+04;  0.0000000E+00;  1.6351053E-01;  4.0000000E+04;  0.0000000E+00;  4.0006535E+04;  1.2321399E-02;  0.0000000E+00;  7.1045582E-04;  5.9507440E+02;
  9.1075778E-02;  9.9999998E-03;  1.6999525E-01;3042;  2.6110229E-03;  0.0000000E+00;  1.8209111E-04;  1.0028461E+03;  1.0000000E-01;  2.3579580E+03;3; -8.9861031E+00;  0.0000000E+00; -1.1909623E-01;0;  1.2693372E-02;  4.0243062E+04;  0.0000000E+00;  3.0673259E-01;  4.0000000E+04;  0.0000000E+00;  4.0003742E+04;  1.2061833E-02;  0.0000000E+00;  6.3153834E-04;  4.8261545E+02;
  9.1111585E-02;  9.9999998E-03;  1.7998824E-01;3043;  2.7030364E-03;  0.0000000E+00;  2.7303791E-04;  1.0027578E+03;  1.0000000E-01;  2.2847749E+03;3; -8.6606674E+00;  0.0000000E+00;  3.6729336E-01;0;  1.2307944E-02;  4.0236887E+04;  0.0000000E+00;  5.0493699E-01;  4.0000000E+04;  0.0000000E+00;  4.0002711E+04;  1.1823470E-02;  0.0000000E+00;  4.8447360E-04;  7.2028479E+02;
  9.1147676E-02;  9.9999998E-03;  1.8999098E-01;3044;  2.8512035E-03;  0.0000000E+00;  3.9084523E-04;  1.0026156E+03;  1.0000000E-01;  2.1669512E+03;3; -8.1005220E+00;  0.0000000E+00;  1.3236119E+00;0;  1.1901267E-02;  4.0224316E+04;  0.0000000E+00;  7.4858278E-01;  4.0000000E+04;  0.0000000E+00;  4.0002121E+04;  1.1625885E-02;  0.0000000E+00;  2.7538155E-04;  1.0676718E+03;
  9.1175422E-02;  9.9999998E-03;  2.0000666E-01;3045;  3.0243457E-03;  0.0000000E+00;  5.1524327E-04;  1.0024197E+03;  1.0000000E-01;  2.0046841E+03;3; -7.2286267E+00;  0.0000000E+00;  2.9311767E+00;0;  1.1505983E-02;  4.0205367E+04;  0.0000000E+00;  1.0136727E+00;  4.0000000E+04;  0.0000000E+00;  4.0003391E+04;  1.1488813E-02;  0.0000000E+00;  1.7169892E-05;  1.4573888E+03;
  9.1187626E-02;  9.9999998E-03;  2.1003744E-01;3046;  3.1739057E-03;  0.0000000E+00;  6.1085715E-04;  1.0021533E+03;  1.0000000E-01;  1.7839496E+03;3; -5.9798217E+00;  0.0000000E+00;  5.3444939E+00;0;  1.1161331E-02;  4.0178758E+04;  0.0000000E+00;  1.2669308E+00;  4.0000000E+04;  0.0000000E+00;  4.0006430E+04;  1.1429353E-02;  0.0000000E+00; -2.6802177E-04;  1.9186140E+03;
  9.1180779E-02;  9.9999998E-03;  2.2007494E-01;3047;  3.2721749E-03;  0.0000000E+00;  6.6590047E-04;  1.0018223E+03;  1.0000000E-01;  1.5097844E+03;3; -4.3029952E+00;  0.0000000E+00;  8.6674061E+00;0;  1.0910582E-02;  4.0145762E+04;  0.0000000E+00;  1.4765002E+00;  4.0000000E+04;  0.0000000E+00;  4.0011547E+04;  1.1458092E-02;  0.0000000E+00; -5.4751075E-04;  2.4577576E+03;
  9.1146514E-02;  9.9999998E-03;  2.3011045E-01;3048;  3.3360310E-03;  0.0000000E+00;  6.5221032E-04;  1.0014239E+03;  1.0000000E-01;  1.1796210E+03;3; -2.1611204E+00;  0.0000000E+00;  1.2741721E+01;0;  1.0789077E-02;  4.0106816E+04;  0.0000000E+00;  1.6201826E+00;  4.0000000E+04;  0.0000000E+00;  4.0016930E+04;  1.1571897E-02;  0.0000000E+00; -7.8282034E-04;  3.0061287E+03;
  1.0132196E-01;  9.9999998E-03;  6.9978207E-02;3093;  4.0615704E-03;  0.0000000E+00;  1.5769612E-04;  1.0017726E+03;  1.0000000E-01;  1.4686005E+03;3; -5.3705869E+00;  0.0000000E+00;  2.4910403E-02;0;  1.5115210E-02;  4.0150730E+04;  0.0000000E+00; -2.1221347E-03;  4.0000000E+04;  0.0000000E+00;  4.0008652E+04;  1.5377030E-02;  0.0000000E+00; -2.6182030E-04;  8.7003070E+02;
  1.0131336E-01;  9.9999998E-03;  7.9998977E-02;3094;  4.1385088E-03;  0.0000000E+00;  7.6148899E-05;  1.0017406E+03;  1.0000000E-01;  1.4420333E+03;3; -5.3211975E+00;  0.0000000E+00;  1.3657355E-02;0;  1.4797442E-02;  4.0147676E+04;  0.0000000E+00; -2.7519863E-03;  4.0000000E+04;  0.0000000E+00;  4.0009281E+04;  1.4996843E-02;  0.0000000E+00; -1.9940194E-04;  9.8028632E+02;
  1.0129938E-01;  9.9999998E-03;  9.0019234E-02;3095;  4.1820216E-03;  0.0000000E+00;  2.4731829E-05;  1.0017319E+03;  1.0000000E-01;  1.4349224E+03;3; -5.2577791E+00;  0.0000000E+00;  8.1026356E-04;0;  1.4588019E-02;  4.0145445E+04;  0.0000000E+00; -3.5957422E-03;  4.0000000E+04;  0.0000000E+00;  4.0010641E+04;  1.4663552E-02;  0.0000000E+00; -7.5533026E-05;  1.1948448E+03;
  1.0127932E-01;  9.9999998E-03;  1.0003447E-01;3096;  4.1972203E-03;  0.0000000E+00;  7.3188280E-06;  1.0017424E+03;  1.0000000E-01;  1.4436135E+03;3; -5.1858335E+00;  0.0000000E+00; -1.5334710E-02;0;  1.4475528E-02;  4.0144641E+04;  0.0000000E+00; -4.3932409E-03;  4.0000000E+04;  0.0000000E+00;  4.0012793E+04;  1.4382279E-02;  0.0000000E+00;  9.3249473E-05;  1.4624015E+03;
  1.0124994E-01;  9.9999998E-03;  1.1004291E-01;3097;  4.1825431E-03;  0.0000000E+00;  3.2712906E-05;  1.0017789E+03;  1.0000000E-01;  1.4737361E+03;3; -5.1204724E+00;  0.0000000E+00; -3.4542609E-02;0;  1.4429091E-02;  4.0145520E+04;  0.0000000E+00; -4.0211682E-03;  4.0000000E+04;  0.0000000E+00;  4.0015078E+04;  1.4145937E-02;  0.0000000E+00;  2.8315411E-04;  1.7073064E+03;
  1.0120858E-01;  9.9999998E-03;  1.2004535E-01;3098;  4.1273986E-03;  0.0000000E+00;  1.0960639E-04;  1.0018319E+03;  1.0000000E-01;  1.5176854E+03;3; -5.0860009E+00;  0.0000000E+00; -3.7286628E-02;0;  1.4403937E-02;  4.0148484E+04;  0.0000000E+00;  2.9189457E-04;  4.0000000E+04;  0.0000000E+00;  4.0015898E+04;  1.3936462E-02;  0.0000000E+00;  4.6747527E-04;  1.8498534E+03;
  1.0114422E-01;  9.9999998E-03;  1.3004351E-01;3099;  4.0062326E-03;  0.0000000E+00;  2.0528404E-04;  1.0018918E+03;  1.0000000E-01;  1.5673630E+03;3; -5.0962086E+00;  0.0000000E+00; -2.8212404E-02;0;  1.4349688E-02;  4.0153512E+04;  0.0000000E+00;  1.3955295E-02;  4.0000000E+04;  0.0000000E+00;  4.0016004E+04;  1.3727929E-02;  0.0000000E+00;  6.2175852E-04;  1.8311350E+03;
  1.0109500E-01;  9.9999998E-03;  1.4003211E-01;3100;  3.8121510E-03;  0.0000000E+00;  2.9862009E-04;  1.0019528E+03;  1.0000000E-01;  1.6178308E+03;3; -5.1429887E+00;  0.0000000E+00; -3.2822482E-02;0;  1.4224926E-02;  4.0159988E+04;  0.0000000E+00;  4.6021808E-02;  4.0000000E+04;  0.0000000E+00;  4.0015117E+04;  1.3497342E-02;  0.0000000E+00;  7.2758389E-04;  1.6349751E+03;
  1.0107536E-01;  9.9999998E-03;  1.5001406E-01;3101;  3.6124182E-03;  0.0000000E+00;  3.7168263E-04;  1.0020054E+03;  1.0000000E-01;  1.6613851E+03;3; -5.1380992E+00;  0.0000000E+00; -6.0400356E-02;0;  1.4008420E-02;  4.0166734E+04;  0.0000000E+00;  1.0948448E-01;  4.0000000E+04;  0.0000000E+00;  4.0012398E+04;  1.3235797E-02;  0.0000000E+00;  7.7262206E-04;  1.3017802E+03;
  1.0107547E-01;  9.9999998E-03;  1.5999950E-01;3102;  3.4840920E-03;  0.0000000E+00;  4.1032556E-04;  1.0020443E+03;  1.0000000E-01;  1.6936805E+03;3; -5.1032500E+00;  0.0000000E+00; -4.0101383E-02;0;  1.3695452E-02;  4.0172496E+04;  0.0000000E+00;  2.1907090E-01;  4.0000000E+04;  0.0000000E+00;  4.0008930E+04;  1.2946427E-02;  0.0000000E+00;  7.4902538E-04;  9.3931818E+02;
  1.0109336E-01;  9.9999998E-03;  1.6999131E-01;3103;  3.4356518E-03;  0.0000000E+00;  4.3507910E-04;  1.0020502E+03;  1.0000000E-01;  1.6986187E+03;3; -5.0060644E+00;  0.0000000E+00;  1.4329132E-01;0;  1.3290133E-02;  4.0175824E+04;  0.0000000E+00;  3.8591066E-01;  4.0000000E+04;  0.0000000E+00;  4.0005762E+04;  1.2637010E-02;  0.0000000E+00;  6.5312337E-04;  7.5485162E+02;
  1.0112192E-01;  9.9999998E-03;  1.7998710E-01;3104;  3.4636976E-03;  0.0000000E+00;  4.5845882E-04;  1.0020209E+03;  1.0000000E-01;  1.6742242E+03;3; -4.7967696E+00;  0.0000000E+00;  6.2895328E-01;0;  1.2809929E-02;  4.0174562E+04;  0.0000000E+00;  6.1383420E-01;  4.0000000E+04;  0.0000000E+00;  4.0004051E+04;  1.2324048E-02;  0.0000000E+00;  4.8588091E-04;  9.2189233E+02;
  1.0115437E-01;  9.9999998E-03;  1.8999067E-01;3105;  3.5543214E-03;  0.0000000E+00;  4.7633791E-04;  1.0019503E+03;  1.0000000E-01;  1.6157567E+03;3; -4.4254341E+00;  0.0000000E+00;  1.5695117E+00;0;  1.2284825E-02;  4.0167672E+04;  0.0000000E+00;  8.9482701E-01;  4.0000000E+04;  0.0000000E+00;  4.0003285E+04;  1.2031836E-02;  0.0000000E+00;  2.5298796E-04;  1.3070815E+03;
  1.0118288E-01;  9.9999998E-03;  2.0000854E-01;3106;  3.6922863E-03;  0.0000000E+00;  4.7771182E-04;  1.0018178E+03;  1.0000000E-01;  1.5060315E+03;3; -3.8249867E+00;  0.0000000E+00;  3.1467783E+00;0;  1.1757488E-02;  4.0153973E+04;  0.0000000E+00;  1.2100253E+00;  4.0000000E+04;  0.0000000E+00;  4.0005824E+04;  1.1790817E-02;  0.0000000E+00; -3.3327975E-05;  1.8079885E+03;
  1.0119970E-01;  9.9999998E-03;  2.1003787E-01;3107;  3.8528203E-03;  0.0000000E+00;  4.5424877E-04;  1.0016134E+03;  1.0000000E-01;  1.3366536E+03;3; -2.9286048E+00;  0.0000000E+00;  5.5315351E+00;0;  1.1280861E-02;  4.0132738E+04;  0.0000000E+00;  1.5379996E+00;  4.0000000E+04;  0.0000000E+00;  4.0009922E+04;  1.1632537E-02;  0.0000000E+00; -3.5167675E-04;  2.4282908E+03;
  1.0119713E-01;  9.9999998E-03;  2.2007096E-01;3108;  3.9968388E-03;  0.0000000E+00;  4.1317916E-04;  1.0013399E+03;  1.0000000E-01;  1.1100920E+03;3; -1.6620791E+00;  0.0000000E+00;  8.8419676E+00;0;  1.0911405E-02;  4.0103809E+04;  0.0000000E+00;  1.8634032E+00;  4.0000000E+04;  0.0000000E+00;  4.0014586E+04;  1.1582077E-02;  0.0000000E+00; -6.7067181E-04;  3.1590125E+03;
  1.0117884E-01;  9.9999998E-03;  2.3010141E-01;3109;  4.0975837E-03;  0.0000000E+00;  3.5574610E-04;  1.0009823E+03;  1.0000000E-01;  8.1380414E+02;3;  3.8952418E-02;  0.0000000E+00;  1.2940382E+01;0;  1.0698981E-02;  4.0068535E+04;  0.0000000E+00;  2.1791523E+00;  4.0000000E+04;  0.0000000E+00;  4.0018902E+04;  1.1650673E-02;  0.0000000E+00; -9.5169275E-04;  3.9216338E+03;
  1.1190934E-01;  9.9999998E-03;  6.9939509E-02;3154;  4.6883239E-03;  0.0000000E+00;  1.2078562E-04;  1.0009277E+03;  1.0000000E-01;  7.6857086E+02;3; -2.5904841E+00;  0.0000000E+00;  1.3905053E-02;0;  1.5078551E-02;  4.0077125E+04;  0.0000000E+00; -1.4457938E-02;  4.0000000E+04;  0.0000000E+00;  4.0010891E+04;  1.5194538E-02;  0.0000000E+00; -1.1598731E-04;  1.2419895E+03;
  1.1185898E-01;  9.9999998E-03;  7.9944216E-02;3155;  4.7182082E-03;  0.0000000E+00;  8.7642104E-05;  1.0008760E+03;  1.0000000E-01;  7.2580664E+02;3; -2.5755463E+00;  0.0000000E+00;  7.3511489E-03;0;  1.4710996E-02;  4.0072102E+04;  0.0000000E+00; -1.7819915E-02;  4.0000000E+04;  0.0000000E+00;  4.0011656E+04;  1.4778180E-02;  0.0000000E+00; -6.7183624E-05;  1.3615205E+03;
  1.1176550E-01;  9.9999998E-03;  8.9963764E-02;3156;  4.7411309E-03;  0.0000000E+00;  7.1537004E-05;  1.0008455E+03;  1.0000000E-01;  7.0052338E+02;3; -2.5525303E+00;  0.0000000E+00;  3.7892601E-03;0;  1.4477801E-02;  4.0068320E+04;  0.0000000E+00; -2.0285370E-02;  4.0000000E+04;  0.0000000E+00;  4.0013590E+04;  1.4437744E-02;  0.0000000E+00;  4.0055864E-05;  1.5877097E+03;
  1.1164676E-01;  9.9999998E-03;  9.9984467E-02;3157;  4.7552274E-03;  0.0000000E+00;  6.8972862E-05;  1.0008332E+03;  1.0000000E-01;  6.9025208E+02;3; -2.5225439E+00;  0.0000000E+00;  7.0677261E-04;0;  1.4367924E-02;  4.0065812E+04;  0.0000000E+00; -2.0901952E-02;  4.0000000E+04;  0.0000000E+00;  4.0015555E+04;  1.4177828E-02;  0.0000000E+00;  1.9009560E-04;  1.8662078E+03;
  1.1147572E-01;  9.9999998E-03;  1.1000349E-01;3158;  4.7551282E-03;  0.0000000E+00;  7.6447192E-05;  1.0008569E+03;  1.0000000E-01;  7.0990582E+02;3; -2.5024192E+00;  0.0000000E+00; -2.6093591E-03;0;  1.4349692E-02;  4.0065523E+04;  0.0000000E+00; -1.8037856E-02;  4.0000000E+04;  0.0000000E+00;  4.0017758E+04;  1.3989301E-02;  0.0000000E+00;  3.6039052E-04;  2.1159280E+03;
  1.1137560E-01;  9.9999998E-03;  1.2000965E-01;3159;  4.7391281E-03;  0.0000000E+00;  9.0361944E-05;  1.0008926E+03;  1.0000000E-01;  7.3953467E+02;3; -2.4801998E+00;  0.0000000E+00; -5.5479645E-03;0;  1.4368887E-02;  4.0067480E+04;  0.0000000E+00; -8.7704193E-03;  4.0000000E+04;  0.0000000E+00;  4.0018074E+04;  1.3842301E-02;  0.0000000E+00;  5.2658690E-04;  2.2530891E+03;
  1.1132742E-01;  9.9999998E-03;  1.2999767E-01;3160;  4.7046468E-03;  0.0000000E+00;  1.0536591E-04;  1.0009445E+03;  1.0000000E-01;  7.8249640E+02;3; -2.4652946E+00;  0.0000000E+00; -1.0754155E-02;0;  1.4371682E-02;  4.0071770E+04;  0.0000000E+00;  1.2178804E-02;  4.0000000E+04;  0.0000000E+00;  4.0018551E+04;  1.3706860E-02;  0.0000000E+00;  6.6482218E-04;  2.2164102E+03;
  1.1129597E-01;  9.9999998E-03;  1.3997592E-01;3161;  4.6571377E-03;  0.0000000E+00;  1.1107985E-04;  1.0010043E+03;  1.0000000E-01;  8.3197644E+02;3; -2.4648626E+00;  0.0000000E+00; -1.7718133E-02;0;  1.4308443E-02;  4.0078613E+04;  0.0000000E+00;  5.3317122E-02;  4.0000000E+04;  0.0000000E+00;  4.0017348E+04;  1.3552002E-02;  0.0000000E+00;  7.5644115E-04;  1.9922004E+03;
  1.1127765E-01;  9.9999998E-03;  1.4995204E-01;3162;  4.5965486E-03;  0.0000000E+00;  1.1041774E-04;  1.0010709E+03;  1.0000000E-01;  8.8718481E+02;3; -2.4750848E+00;  0.0000000E+00; -1.9692363E-02;0;  1.4139408E-02;  4.0086996E+04;  0.0000000E+00;  1.2684602E-01;  4.0000000E+04;  0.0000000E+00;  4.0013594E+04;  1.3351602E-02;  0.0000000E+00;  7.8780559E-04;  1.6274713E+03;
  1.1127087E-01;  9.9999998E-03;  1.5993744E-01;3163;  4.5361663E-03;  0.0000000E+00;  1.0594226E-04;  1.0011407E+03;  1.0000000E-01;  9.4505969E+02;3; -2.4726615E+00;  0.0000000E+00;  2.2900887E-02;0;  1.3842876E-02;  4.0095746E+04;  0.0000000E+00;  2.4645658E-01;  4.0000000E+04;  0.0000000E+00;  4.0010801E+04;  1.3093011E-02;  0.0000000E+00;  7.4986450E-04;  1.2336139E+03;
  1.1127331E-01;  9.9999998E-03;  1.6993685E-01;3164;  4.4868588E-03;  0.0000000E+00;  9.9010824E-05;  1.0011967E+03;  1.0000000E-01;  9.9137939E+02;3; -2.4367218E+00;  0.0000000E+00;  2.0849787E-01;0;  1.3416104E-02;  4.0103059E+04;  0.0000000E+00;  4.2278266E-01;  4.0000000E+04;  0.0000000E+00;  4.0007754E+04;  1.2777528E-02;  0.0000000E+00;  6.3857652E-04;  1.0007938E+03;
  1.1128401E-01;  9.9999998E-03;  1.7994039E-01;3165;  4.4594863E-03;  0.0000000E+00;  9.2817798E-05;  1.0012296E+03;  1.0000000E-01;  1.0186379E+03;3; -2.3223231E+00;  0.0000000E+00;  6.6586369E-01;0;  1.2876562E-02;  4.0106898E+04;  0.0000000E+00;  6.6039276E-01;  4.0000000E+04;  0.0000000E+00;  4.0005629E+04;  1.2421874E-02;  0.0000000E+00;  4.5468766E-04;  1.1072499E+03;
  1.1130673E-01;  9.9999998E-03;  1.8994704E-01;3166;  4.4597797E-03;  0.0000000E+00;  8.8171546E-05;  1.0012212E+03;  1.0000000E-01;  1.0117245E+03;3; -2.0877140E+00;  0.0000000E+00;  1.5598495E+00;0;  1.2260663E-02;  4.0105273E+04;  0.0000000E+00;  9.5730972E-01;  4.0000000E+04;  0.0000000E+00;  4.0005977E+04;  1.2057086E-02;  0.0000000E+00;  2.0357720E-04;  1.4984656E+03;
  1.1132952E-01;  9.9999998E-03;  1.9996062E-01;3167;  4.4822432E-03;  0.0000000E+00;  8.7407352E-05;  1.0011580E+03;  1.0000000E-01;  9.5938025E+02;3; -1.6838286E+00;  0.0000000E+00;  3.0856862E+00;0;  1.1621769E-02;  4.0097012E+04;  0.0000000E+00;  1.3101424E+00;  4.0000000E+04;  0.0000000E+00;  4.0008117E+04;  1.1724968E-02;  0.0000000E+00; -1.0319921E-04;  2.0920571E+03;
  1.1134493E-01;  9.9999998E-03;  2.0997685E-01;3168;  4.5142099E-03;  0.0000000E+00;  9.2779803E-05;  1.0010212E+03;  1.0000000E-01;  8.4609955E+02;3; -1.0536962E+00;  0.0000000E+00;  5.4539022E+00;0;  1.1026840E-02;  4.0080949E+04;  0.0000000E+00;  1.7222953E+00;  4.0000000E+04;  0.0000000E+00;  4.0012781E+04;  1.1472344E-02;  0.0000000E+00; -4.4550496E-04;  2.8917932E+03;
  1.1134104E-01;  9.9999998E-03;  2.1999785E-01;3169;  4.5406972E-03;  0.0000000E+00;  1.0112324E-04;  1.0008092E+03;  1.0000000E-01;  6.7040082E+02;3; -1.1802915E-01;  0.0000000E+00;  8.8216143E+00;0;  1.0548661E-02;  4.0056508E+04;  0.0000000E+00;  2.2079940E+00;  4.0000000E+04;  0.0000000E+00;  4.0018863E+04;  1.1342558E-02;  0.0000000E+00; -7.9389656E-04;  3.8848501E+03;
  1.1130956E-01;  9.9999998E-03;  2.3002352E-01;3170;  4.5452486E-03;  0.0000000E+00;  1.0160303E-04;  1.0004996E+03;  1.0000000E-01;  4.1391422E+02;3;  1.2315218E+00;  0.0000000E+00;  1.3050802E+01;0;  1.0254390E-02;  4.0024617E+04;  0.0000000E+00;  2.7846653E+00;  4.0000000E+04;  0.0000000E+00;  4.0024445E+04;  1.1365225E-02;  0.0000000E+00; -1.1108351E-03;  4.9911807E+03;
  1.2190800E-01;  9.9999998E-03;  6.9943421E-02;3215;  4.8263632E-03;  0.0000000E+00;  9.5229414E-05;  1.0002958E+03;  1.0000000E-01;  2.4512888E+02;3; -1.2645085E+00;  0.0000000E+00;  1.4006732E-03;0;  1.4429908E-02;  4.0021262E+04;  0.0000000E+00; -2.6109342E-02;  4.0000000E+04;  0.0000000E+00;  4.0012535E+04;  1.4412857E-02;  0.0000000E+00;  1.7051423E-05;  1.5243362E+03;
  1.2192602E-01;  9.9999998E-03;  7.9943717E-02;3216;  4.8499475E-03;  0.0000000E+00;  8.0661339E-05;  1.0002273E+03;  1.0000000E-01;  1.8834035E+02;3; -1.2482560E+00;  0.0000000E+00;  5.7638617E-04;0;  1.4026324E-02;  4.0014895E+04;  0.0000000E+00; -3.3427663E-02;  4.0000000E+04;  0.0000000E+00;  4.0013965E+04;  1.3972637E-02;  0.0000000E+00;  5.3687163E-05;  1.6592992E+03;
  1.2194567E-01;  9.9999998E-03;  8.9945689E-02;3217;  4.8728613E-03;  0.0000000E+00;  7.2403047E-05;  1.0001692E+03;  1.0000000E-01;  1.4014418E+02;3; -1.2244087E+00;  0.0000000E+00; -6.6455739E-04;0;  1.3773501E-02;  4.0008605E+04;  0.0000000E+00; -3.9607950E-02;  4.0000000E+04;  0.0000000E+00;  4.0015020E+04;  1.3628779E-02;  0.0000000E+00;  1.4472174E-04;  1.8991686E+03;
  1.2196167E-01;  9.9999998E-03;  9.9945404E-02;3218;  4.8919925E-03;  0.0000000E+00;  7.2096380E-05;  1.0001302E+03;  1.0000000E-01;  1.0784880E+02;3; -1.1964618E+00;  0.0000000E+00; -2.3758102E-03;0;  1.3663698E-02;  4.0003977E+04;  0.0000000E+00; -4.2761743E-02;  4.0000000E+04;  0.0000000E+00;  4.0017645E+04;  1.3388768E-02;  0.0000000E+00;  2.7493018E-04;  2.1866179E+03;
  1.2195858E-01;  9.9999998E-03;  1.0994019E-01;3219;  4.9034441E-03;  0.0000000E+00;  7.7290541E-05;  1.0001168E+03;  1.0000000E-01;  9.6787384E+01;3; -1.1703840E+00;  0.0000000E+00; -4.7151698E-03;0;  1.3666150E-02;  4.0000648E+04;  0.0000000E+00; -4.0303119E-02;  4.0000000E+04;  0.0000000E+00;  4.0019461E+04;  1.3242802E-02;  0.0000000E+00;  4.2334854E-04;  2.4377949E+03;
  1.2187362E-01;  9.9999998E-03;  1.1994336E-01;3220;  4.9032294E-03;  0.0000000E+00;  8.2545324E-05;  1.0001299E+03;  1.0000000E-01;  1.0765128E+02;3; -1.1549485E+00;  0.0000000E+00; -7.2838967E-03;0;  1.3735211E-02;  4.0000809E+04;  0.0000000E+00; -2.8626984E-02;  4.0000000E+04;  0.0000000E+00;  4.0020387E+04;  1.3168018E-02;  0.0000000E+00;  5.6719233E-04;  2.5672178E+03;
  1.2173497E-01;  9.9999998E-03;  1.2994121E-01;3221;  4.8891022E-03;  0.0000000E+00;  8.2648716E-05;  1.0001644E+03;  1.0000000E-01;  1.3619368E+02;3; -1.1511307E+00;  0.0000000E+00; -1.0198174E-02;0;  1.3806575E-02;  4.0004199E+04;  0.0000000E+00; -2.8028460E-03;  4.0000000E+04;  0.0000000E+00;  4.0020547E+04;  1.3121285E-02;  0.0000000E+00;  6.8529008E-04;  2.5111858E+03;
  1.2158743E-01;  9.9999998E-03;  1.3992821E-01;3222;  4.8615062E-03;  0.0000000E+00;  7.3972296E-05;  1.0002245E+03;  1.0000000E-01;  1.8606882E+02;3; -1.1556345E+00;  0.0000000E+00; -1.3943025E-02;0;  1.3815654E-02;  4.0011223E+04;  0.0000000E+00;  4.4612680E-02;  4.0000000E+04;  0.0000000E+00;  4.0017801E+04;  1.3055870E-02;  0.0000000E+00;  7.5978285E-04;  2.2572048E+03;
  1.2148105E-01;  9.9999998E-03;  1.4990902E-01;3223;  4.8241145E-03;  0.0000000E+00;  5.7946141E-05;  1.0003051E+03;  1.0000000E-01;  2.5273360E+02;3; -1.1613392E+00;  0.0000000E+00; -1.3363370E-02;0;  1.3709338E-02;  4.0020734E+04;  0.0000000E+00;  1.2394176E-01;  4.0000000E+04;  0.0000000E+00;  4.0015816E+04;  1.2933056E-02;  0.0000000E+00;  7.7628240E-04;  1.8587010E+03;
  1.2142350E-01;  9.9999998E-03;  1.5989561E-01;3224;  4.7826828E-03;  0.0000000E+00;  3.9572576E-05;  1.0003950E+03;  1.0000000E-01;  3.2729938E+02;3; -1.1580716E+00;  0.0000000E+00;  3.2974970E-02;0;  1.3456294E-02;  4.0031383E+04;  0.0000000E+00;  2.4624600E-01;  4.0000000E+04;  0.0000000E+00;  4.0012480E+04;  1.2730777E-02;  0.0000000E+00;  7.2551676E-04;  1.4322043E+03;
  1.2141197E-01;  9.9999998E-03;  1.6989574E-01;3225;  4.7427523E-03;  0.0000000E+00;  1.9991287E-05;  1.0004825E+03;  1.0000000E-01;  3.9979117E+02;3; -1.1288668E+00;  0.0000000E+00;  2.1682216E-01;0;  1.3046535E-02;  4.0041973E+04;  0.0000000E+00;  4.2056277E-01;  4.0000000E+04;  0.0000000E+00;  4.0008738E+04;  1.2443040E-02;  0.0000000E+00;  6.0349418E-04;  1.1610508E+03;
  1.2142594E-01;  9.9999998E-03;  1.7989863E-01;3226;  4.7105686E-03;  0.0000000E+00;  2.1099684E-06;  1.0005577E+03;  1.0000000E-01;  4.6211038E+02;3; -1.0491599E+00;  0.0000000E+00;  6.6511703E-01;0;  1.2494419E-02;  4.0049328E+04;  0.0000000E+00;  6.5326816E-01;  4.0000000E+04;  0.0000000E+00;  4.0006703E+04;  1.2083916E-02;  0.0000000E+00;  4.1050318E-04;  1.2252919E+03;
  1.2144819E-01;  9.9999998E-03;  1.8990190E-01;3227;  4.6906862E-03;  0.0000000E+00; -1.1407176E-05;  1.0006031E+03;  1.0000000E-01;  4.9973895E+02;3; -8.9034796E-01;  0.0000000E+00;  1.5405291E+00;0;  1.1838149E-02;  4.0052188E+04;  0.0000000E+00;  9.5330065E-01;  4.0000000E+04;  0.0000000E+00;  4.0007480E+04;  1.1686960E-02;  0.0000000E+00;  1.5118944E-04;  1.6230242E+03;
  1.2146024E-01;  9.9999998E-03;  1.9990756E-01;3228;  4.6833465E-03;  0.0000000E+00; -1.6464897E-05;  1.0006017E+03;  1.0000000E-01;  4.9845505E+02;3; -6.1660773E-01;  0.0000000E+00;  3.0565033E+00;0;  1.1137724E-02;  4.0048332E+04;  0.0000000E+00;  1.3407210E+00;  4.0000000E+04;  0.0000000E+00;  4.0010879E+04;  1.1302155E-02;  0.0000000E+00; -1.6443038E-04;  2.3120845E+03;
  1.2145300E-01;  9.9999998E-03;  2.0991640E-01;3229;  4.6837530E-03;  0.0000000E+00; -1.1539354E-05;  1.0005275E+03;  1.0000000E-01;  4.3702469E+02;3; -1.7102788E-01;  0.0000000E+00;  5.4615469E+00;0;  1.0469702E-02;  4.0036340E+04;  0.0000000E+00;  1.8530641E+00;  4.0000000E+04;  0.0000000E+00;  4.0015969E+04;  1.0988681E-02;  0.0000000E+00; -5.1897875E-04;  3.3134487E+03;
  1.2143164E-01;  9.9999998E-03;  2.1993147E-01;3230;  4.6815719E-03;  0.0000000E+00; -3.7512905E-08;  1.0003590E+03;  1.0000000E-01;  2.9747308E+02;3;  5.3880578E-01;  0.0000000E+00;  8.9331884E+00;0;  9.9186525E-03;  4.0015375E+04;  0.0000000E+00;  2.5432854E+00;  4.0000000E+04;  0.0000000E+00;  4.0023262E+04;  1.0804852E-02;  0.0000000E+00; -8.8620017E-04;  4.6236904E+03;
  1.2138543E-01;  9.9999998E-03;  2.2995098E-01;3231;  4.6642413E-03;  0.0000000E+00;  7.4821296E-06;  1.0000818E+03;  1.0000000E-01;  6.7751167E+01;3;  1.6457945E+00;  0.0000000E+00;  1.3354163E+01;0;  9.5675839E-03;  3.9985684E+04;  0.0000000E+00;  3.4621260E+00;  4.0000000E+04;  0.0000000E+00;  4.0029430E+04;  1.0798409E-02;  0.0000000E+00; -1.2308249E-03;  6.1842100E+03;
  1.3179193E-01;  9.9999998E-03;  6.9935381E-02;3276;  4.8054270E-03;  0.0000000E+00;  7.4348522E-05;  9.9986530E+02;  1.0000000E-01; -1.1160178E+02;3; -6.5195942E-01;  0.0000000E+00; -7.6380693E-03;0;  1.3584699E-02;  3.9982535E+04;  0.0000000E+00; -3.2334980E-02;  4.0000000E+04;  0.0000000E+00;  4.0013578E+04;  1.3451860E-02;  0.0000000E+00;  1.3283844E-04;  1.6667122E+03;
  1.3181844E-01;  9.9999998E-03;  7.9937801E-02;3277;  4.8237499E-03;  0.0000000E+00;  6.5909626E-05;  9.9979608E+02;  1.0000000E-01; -1.6893349E+02;3; -6.4101118E-01;  0.0000000E+00; -8.6169895E-03;0;  1.3157394E-02;  3.9975941E+04;  0.0000000E+00; -4.2864587E-02;  4.0000000E+04;  0.0000000E+00;  4.0014754E+04;  1.2999449E-02;  0.0000000E+00;  1.5794470E-04;  1.8195554E+03;
  1.3185062E-01;  9.9999998E-03;  8.9941405E-02;3278;  4.8450213E-03;  0.0000000E+00;  6.3961597E-05;  9.9973560E+02;  1.0000000E-01; -2.1905553E+02;3; -6.2745553E-01;  0.0000000E+00; -9.9500185E-03;0;  1.2896520E-02;  3.9969613E+04;  0.0000000E+00; -5.2935746E-02;  4.0000000E+04;  0.0000000E+00;  4.0016609E+04;  1.2663353E-02;  0.0000000E+00;  2.3316707E-04;  2.0733149E+03;
  1.3188384E-01;  9.9999998E-03;  9.9942476E-02;3279;  4.8665274E-03;  0.0000000E+00;  6.8881003E-05;  9.9969415E+02;  1.0000000E-01; -2.5337555E+02;3; -6.1247867E-01;  0.0000000E+00; -1.1444323E-02;0;  1.2796586E-02;  3.9964059E+04;  0.0000000E+00; -6.0184687E-02;  4.0000000E+04;  0.0000000E+00;  4.0018422E+04;  1.2452326E-02;  0.0000000E+00;  3.4426033E-04;  2.3682825E+03;
  1.3191341E-01;  9.9999998E-03;  1.0993568E-01;3280;  4.8849345E-03;  0.0000000E+00;  7.7915465E-05;  9.9966925E+02;  1.0000000E-01; -2.7401694E+02;3; -5.9742069E-01;  0.0000000E+00; -1.3176353E-02;0;  1.2826571E-02;  3.9960543E+04;  0.0000000E+00; -6.1352417E-02;  4.0000000E+04;  0.0000000E+00;  4.0020336E+04;  1.2354696E-02;  0.0000000E+00;  4.7187525E-04;  2.6185916E+03;
  1.3193528E-01;  9.9999998E-03;  1.1991835E-01;3281;  4.8964429E-03;  0.0000000E+00;  8.5794542E-05;  9.9966919E+02;  1.0000000E-01; -2.7406631E+02;3; -5.8368540E-01;  0.0000000E+00; -1.4824711E-02;0;  1.2934691E-02;  3.9959715E+04;  0.0000000E+00; -5.2181959E-02;  4.0000000E+04;  0.0000000E+00;  4.0020727E+04;  1.2339571E-02;  0.0000000E+00;  5.9511978E-04;  2.7356711E+03;
  1.3194229E-01;  9.9999998E-03;  1.2989026E-01;3282;  4.8976117E-03;  0.0000000E+00;  8.6047730E-05;  9.9968860E+02;  1.0000000E-01; -2.5796802E+02;3; -5.7262778E-01;  0.0000000E+00; -1.6547335E-02;0;  1.3056906E-02;  3.9961992E+04;  0.0000000E+00; -2.7156865E-02;  4.0000000E+04;  0.0000000E+00;  4.0021031E+04;  1.2362451E-02;  0.0000000E+00;  6.9445482E-04;  2.6571189E+03;
  1.3191140E-01;  9.9999998E-03;  1.3985850E-01;3283;  4.8865089E-03;  0.0000000E+00;  7.5895667E-05;  9.9973450E+02;  1.0000000E-01; -2.1994440E+02;3; -5.6505561E-01;  0.0000000E+00; -1.7991658E-02;0;  1.3127636E-02;  3.9968203E+04;  0.0000000E+00;  2.0811237E-02;  4.0000000E+04;  0.0000000E+00;  4.0019379E+04;  1.2374713E-02;  0.0000000E+00;  7.5292331E-04;  2.3740994E+03;
  1.3180520E-01;  9.9999998E-03;  1.4984557E-01;3284;  4.8633968E-03;  0.0000000E+00;  5.8050158E-05;  9.9980658E+02;  1.0000000E-01; -1.6024239E+02;3; -5.6067485E-01;  0.0000000E+00; -1.4800630E-02;0;  1.3088946E-02;  3.9977496E+04;  0.0000000E+00;  9.9923678E-02;  4.0000000E+04;  0.0000000E+00;  4.0015719E+04;  1.2332655E-02;  0.0000000E+00;  7.5629127E-04;  1.9461936E+03;
  1.3167529E-01;  9.9999998E-03;  1.5984730E-01;3285;  4.8307935E-03;  0.0000000E+00;  3.5184596E-05;  9.9990204E+02;  1.0000000E-01; -8.1182892E+01;3; -5.5379790E-01;  0.0000000E+00;  3.3377945E-02;0;  1.2895431E-02;  3.9989086E+04;  0.0000000E+00;  2.1772569E-01;  4.0000000E+04;  0.0000000E+00;  4.0012230E+04;  1.2199463E-02;  0.0000000E+00;  6.9596834E-04;  1.4907518E+03;
  1.3159832E-01;  9.9999998E-03;  1.6986077E-01;3286;  4.7942079E-03;  0.0000000E+00;  1.0574752E-05;  1.0000092E+03;  1.0000000E-01;  7.6047230E+00;3; -5.3097123E-01;  0.0000000E+00;  2.1773887E-01;0;  1.2525151E-02;  4.0001062E+04;  0.0000000E+00;  3.8121679E-01;  4.0000000E+04;  0.0000000E+00;  4.0008621E+04;  1.1956932E-02;  0.0000000E+00;  5.6821835E-04;  1.1876881E+03;
  1.3156599E-01;  9.9999998E-03;  1.7987379E-01;3287;  4.7586407E-03;  0.0000000E+00; -1.3342686E-05;  1.0001172E+03;  1.0000000E-01;  9.7083672E+01;3; -4.7822234E-01;  0.0000000E+00;  6.6341853E-01;0;  1.1988032E-02;  4.0011012E+04;  0.0000000E+00;  6.0125023E-01;  4.0000000E+04;  0.0000000E+00;  4.0007395E+04;  1.1614974E-02;  0.0000000E+00;  3.7305788E-04;  1.2263391E+03;
  1.3155486E-01;  9.9999998E-03;  1.8988223E-01;3288;  4.7282693E-03;  0.0000000E+00; -3.2254313E-05;  1.0002003E+03;  1.0000000E-01;  1.6592123E+02;3; -3.7823948E-01;  0.0000000E+00;  1.5340656E+00;0;  1.1321906E-02;  4.0016883E+04;  0.0000000E+00;  9.0147454E-01;  4.0000000E+04;  0.0000000E+00;  4.0008594E+04;  1.1207939E-02;  0.0000000E+00;  1.1396677E-04;  1.6438464E+03;
  1.3154541E-01;  9.9999998E-03;  1.9988720E-01;3289;  4.7047329E-03;  0.0000000E+00; -4.2919375E-05;  1.0002365E+03;  1.0000000E-01;  1.9584631E+02;3; -2.0297548E-01;  0.0000000E+00;  3.0584147E+00;0;  1.0589678E-02;  4.0015652E+04;  0.0000000E+00;  1.3285173E+00;  4.0000000E+04;  0.0000000E+00;  4.0012770E+04;  1.0790925E-02;  0.0000000E+00; -2.0124750E-04;  2.4381436E+03;
  1.3152143E-01;  9.9999998E-03;  2.0988876E-01;3290;  4.6851742E-03;  0.0000000E+00; -4.3280415E-05;  1.0002016E+03;  1.0000000E-01;  1.6700763E+02;3;  1.0332141E-01;  0.0000000E+00;  5.5183067E+00;0;  9.8745329E-03;  4.0006250E+04;  0.0000000E+00;  1.9571664E+00;  4.0000000E+04;  0.0000000E+00;  4.0018730E+04;  1.0432936E-02;  0.0000000E+00; -5.5840361E-04;  3.6581538E+03;
  1.3147542E-01;  9.9999998E-03;  2.1989070E-01;3291;  4.6627014E-03;  0.0000000E+00; -3.5954214E-05;  1.0000602E+03;  1.0000000E-01;  4.9875134E+01;3;  6.4629436E-01;  0.0000000E+00;  9.1283026E+00;0;  9.2713572E-03;  3.9986566E+04;  0.0000000E+00;  2.8824427E+00;  4.0000000E+04;  0.0000000E+00;  4.0027020E+04;  1.0206257E-02;  0.0000000E+00; -9.3490013E-04;  5.3281260E+03;
  1.3140015E-01;  9.9999998E-03;  2.2989269E-01;3292;  4.6265707E-03;  0.0000000E+00; -3.0086481E-05;  9.9980231E+02;  1.0000000E-01; -1.6379784E+02;3;  1.5960518E+00;  0.0000000E+00;  1.3819520E+01;0;  8.8755945E-03;  3.9957848E+04;  0.0000000E+00;  4.1952085E+00;  4.0000000E+04;  0.0000000E+00;  4.0034145E+04;  1.0174358E-02;  0.0000000E+00; -1.2987638E-03;  7.4380176E+03;
  1.4164795E-01;  9.9999998E-03;  6.9920316E-02;3337;  4.6830778E-03;  0.0000000E+00;  5.5031745E-05;  9.9961932E+02;  1.0000000E-01; -3.1539850E+02;3; -4.2021728E-01;  0.0000000E+00; -1.4415081E-02;0;  1.2951467E-02;  3.9959680E+04;  0.0000000E+00; -3.1493418E-02;  4.0000000E+04;  0.0000000E+00;  4.0012762E+04;  1.2729208E-02;  0.0000000E+00;  2.2225913E-04;  1.6368003E+03;
  1.4168046E-01;  9.9999998E-03;  7.9924971E-02;3338;  4.6967026E-03;  0.0000000E+00;  5.1982475E-05;  9.9956360E+02;  1.0000000E-01; -3.6157001E+02;3; -4.1157672E-01;  0.0000000E+00; -1.6342651E-02;0;  1.2504749E-02;  3.9954047E+04;  0.0000000E+00; -4.2999599E-02;  4.0000000E+04;  0.0000000E+00;  4.0014066E+04;  1.2266312E-02;  0.0000000E+00;  2.3843686E-04;  1.8070083E+03;
  1.4171948E-01;  9.9999998E-03;  8.9931823E-02;3339;  4.7153677E-03;  0.0000000E+00;  5.5784501E-05;  9.9951544E+02;  1.0000000E-01; -4.0147012E+02;3; -4.0243343E-01;  0.0000000E+00; -1.8624991E-02;0;  1.2238652E-02;  3.9948508E+04;  0.0000000E+00; -5.5402853E-02;  4.0000000E+04;  0.0000000E+00;  4.0016000E+04;  1.1937730E-02;  0.0000000E+00;  3.0092214E-04;  2.0721165E+03;
  1.4176181E-01;  9.9999998E-03;  9.9936053E-02;3340;  4.7377837E-03;  0.0000000E+00;  6.5911307E-05;  9.9948352E+02;  1.0000000E-01; -4.2788913E+02;3; -3.9240965E-01;  0.0000000E+00; -2.0945335E-02;0;  1.2149923E-02;  3.9943770E+04;  0.0000000E+00; -6.6577114E-02;  4.0000000E+04;  0.0000000E+00;  4.0018320E+04;  1.1753478E-02;  0.0000000E+00;  3.9644525E-04;  2.3711125E+03;
  1.4180255E-01;  9.9999998E-03;  1.0993267E-01;3341;  4.7621476E-03;  0.0000000E+00;  7.9088226E-05;  9.9946649E+02;  1.0000000E-01; -4.4201218E+02;3; -3.8072920E-01;  0.0000000E+00; -2.2939522E-02;0;  1.2208412E-02;  3.9941008E+04;  0.0000000E+00; -7.3190272E-02;  4.0000000E+04;  0.0000000E+00;  4.0020020E+04;  1.1701277E-02;  0.0000000E+00;  5.0713593E-04;  2.6185786E+03;
  1.4183746E-01;  9.9999998E-03;  1.1991809E-01;3342;  4.7846860E-03;  0.0000000E+00;  9.0314898E-05;  9.9947345E+02;  1.0000000E-01; -4.3623459E+02;3; -3.7112838E-01;  0.0000000E+00; -2.5133761E-02;0;  1.2361332E-02;  3.9940895E+04;  0.0000000E+00; -7.0604287E-02;  4.0000000E+04;  0.0000000E+00;  4.0020512E+04;  1.1747468E-02;  0.0000000E+00;  6.1386323E-04;  2.7262205E+03;
  1.4186361E-01;  9.9999998E-03;  1.2989193E-01;3343;  4.7999187E-03;  0.0000000E+00;  9.3795425E-05;  9.9949719E+02;  1.0000000E-01; -4.1658081E+02;3; -3.6178938E-01;  0.0000000E+00; -2.6516480E-02;0;  1.2541271E-02;  3.9943754E+04;  0.0000000E+00; -5.2860662E-02;  4.0000000E+04;  0.0000000E+00;  4.0020602E+04;  1.1842631E-02;  0.0000000E+00;  6.9863978E-04;  2.6315291E+03;
  1.4187786E-01;  9.9999998E-03;  1.3985686E-01;3344;  4.8034759E-03;  0.0000000E+00;  8.5917716E-05;  9.9954291E+02;  1.0000000E-01; -3.7870535E+02;3; -3.5228518E-01;  0.0000000E+00; -2.7519353E-02;0;  1.2675808E-02;  3.9950316E+04;  0.0000000E+00; -1.2933917E-02;  4.0000000E+04;  0.0000000E+00;  4.0019004E+04;  1.1930549E-02;  0.0000000E+00;  7.4525899E-04;  2.3257166E+03;
  1.4187548E-01;  9.9999998E-03;  1.4981984E-01;3345;  4.7934786E-03;  0.0000000E+00;  6.8933063E-05;  9.9961346E+02;  1.0000000E-01; -3.2023785E+02;3; -3.4260121E-01;  0.0000000E+00; -2.3464171E-02;0;  1.2697823E-02;  3.9959762E+04;  0.0000000E+00;  5.6170885E-02;  4.0000000E+04;  0.0000000E+00;  4.0014258E+04;  1.1957963E-02;  0.0000000E+00;  7.3986006E-04;  1.8684490E+03;
  1.4184484E-01;  9.9999998E-03;  1.5979564E-01;3346;  4.7714757E-03;  0.0000000E+00;  4.6688358E-05;  9.9970557E+02;  1.0000000E-01; -2.4394373E+02;3; -3.3118254E-01;  0.0000000E+00;  2.7858520E-02;0;  1.2557849E-02;  3.9971543E+04;  0.0000000E+00;  1.5996559E-01;  4.0000000E+04;  0.0000000E+00;  4.0010844E+04;  1.1882896E-02;  0.0000000E+00;  6.7495392E-04;  1.3812107E+03;
  1.4177695E-01;  9.9999998E-03;  1.6980845E-01;3347;  4.7398987E-03;  0.0000000E+00;  2.1568145E-05;  9.9981830E+02;  1.0000000E-01; -1.5051427E+02;3; -3.1255668E-01;  0.0000000E+00;  2.1683580E-01;0;  1.2229127E-02;  3.9983801E+04;  0.0000000E+00;  3.0527195E-01;  4.0000000E+04;  0.0000000E+00;  4.0007328E+04;  1.1681853E-02;  0.0000000E+00;  5.4727442E-04;  1.0484446E+03;
  1.4168580E-01;  9.9999998E-03;  1.7984778E-01;3348;  4.7027981E-03;  0.0000000E+00; -3.9652032E-06;  9.9993762E+02;  1.0000000E-01; -5.1702240E+01;3; -2.8216702E-01;  0.0000000E+00;  6.6601235E-01;0;  1.1713786E-02;  3.9994797E+04;  0.0000000E+00;  5.0952351E-01;  4.0000000E+04;  0.0000000E+00;  4.0005984E+04;  1.1357455E-02;  0.0000000E+00;  3.5633135E-04;  1.0736521E+03;
  1.4161621E-01;  9.9999998E-03;  1.8987553E-01;3349;  4.6646027E-03;  0.0000000E+00; -2.5605523E-05;  1.0000363E+03;  1.0000000E-01;  3.0122604E+01;3; -2.3346299E-01;  0.0000000E+00;  1.5391999E+00;0;  1.1047788E-02;  4.0001719E+04;  0.0000000E+00;  8.1272197E-01;  4.0000000E+04;  0.0000000E+00;  4.0007965E+04;  1.0942993E-02;  0.0000000E+00;  1.0479484E-04;  1.5215469E+03;
  1.4157335E-01;  9.9999998E-03;  1.9988579E-01;3350;  4.6274834E-03;  0.0000000E+00; -3.9717703E-05;  1.0000925E+03;  1.0000000E-01;  7.6639809E+01;3; -1.4551935E-01;  0.0000000E+00;  3.0757959E+00;0;  1.0295168E-02;  4.0001785E+04;  0.0000000E+00;  1.2872603E+00;  4.0000000E+04;  0.0000000E+00;  4.0012746E+04;  1.0496881E-02;  0.0000000E+00; -2.0171315E-04;  2.4240764E+03;
  1.4153223E-01;  9.9999998E-03;  2.0988299E-01;3351;  4.5891213E-03;  0.0000000E+00; -4.3636857E-05;  1.0000699E+03;  1.0000000E-01;  5.7874905E+01;3;  4.1300282E-02;  0.0000000E+00;  5.5816994E+00;0;  9.5424447E-03;  3.9992812E+04;  0.0000000E+00;  2.0405345E+00;  4.0000000E+04;  0.0000000E+00;  4.0020410E+04;  1.0094991E-02;  0.0000000E+00; -5.5254641E-04;  3.8656873E+03;
  1.4147015E-01;  9.9999998E-03;  2.1987467E-01;3352;  4.5443987E-03;  0.0000000E+00; -3.9008319E-05;  9.9994269E+02;  1.0000000E-01; -4.7504829E+01;3;  4.5783097E-01;  0.0000000E+00;  9.3296652E+00;0;  8.8910470E-03;  3.9973301E+04;  0.0000000E+00;  3.2056885E+00;  4.0000000E+04;  0.0000000E+00;  4.0029668E+04;  9.8202424E-03;  0.0000000E+00; -9.2919538E-04;  5.9112822E+03;
  1.4138030E-01;  9.9999998E-03;  2.2986217E-01;3353;  4.4881445E-03;  0.0000000E+00; -3.3257125E-05;  9.9968231E+02;  1.0000000E-01; -2.6320242E+02;3;  1.3282857E+00;  0.0000000E+00;  1.4305861E+01;0;  8.4463470E-03;  3.9943297E+04;  0.0000000E+00;  4.9158049E+00;  4.0000000E+04;  0.0000000E+00;  4.0038141E+04;  9.7497543E-03;  0.0000000E+00; -1.3034069E-03;  8.6146309E+03;
  1.5150802E-01;  9.9999998E-03;  6.9918558E-02;3398;  4.5157429E-03;  0.0000000E+00;  3.4243232E-05;  9.9952356E+02;  1.0000000E-01; -3.9470490E+02;3; -3.5961935E-01;  0.0000000E+00; -1.9973727E-02;0;  1.2921456E-02;  3.9950551E+04;  0.0000000E+00; -2.6245058E-02;  4.0000000E+04;  0.0000000E+00;  4.0010980E+04;  1.2645292E-02;  0.0000000E+00;  2.7616380E-04;  1.4290833E+03;
  1.5154837E-01;  9.9999998E-03;  7.9918236E-02;3399;  4.5241900E-03;  0.0000000E+00;  3.4491990E-05;  9.9948828E+02;  1.0000000E-01; -4.2393863E+02;3; -3.5140187E-01;  0.0000000E+00; -2.2521749E-02;0;  1.2454432E-02;  3.9946555E+04;  0.0000000E+00; -3.5989318E-02;  4.0000000E+04;  0.0000000E+00;  4.0012934E+04;  1.2168105E-02;  0.0000000E+00;  2.8632663E-04;  1.6129033E+03;
  1.5159303E-01;  9.9999998E-03;  8.9920387E-02;3400;  4.5403405E-03;  0.0000000E+00;  4.2911503E-05;  9.9946204E+02;  1.0000000E-01; -4.4571579E+02;3; -3.4330669E-01;  0.0000000E+00; -2.5020894E-02;0;  1.2180181E-02;  3.9942457E+04;  0.0000000E+00; -4.8051823E-02;  4.0000000E+04;  0.0000000E+00;  4.0014816E+04;  1.1840212E-02;  0.0000000E+00;  3.3996921E-04;  1.8828719E+03;
  1.5164120E-01;  9.9999998E-03;  9.9923611E-02;3401;  4.5643267E-03;  0.0000000E+00;  6.0312042E-05;  9.9945020E+02;  1.0000000E-01; -4.5549329E+02;3; -3.3530977E-01;  0.0000000E+00; -2.8601486E-02;0;  1.2098102E-02;  3.9939625E+04;  0.0000000E+00; -6.1322995E-02;  4.0000000E+04;  0.0000000E+00;  4.0017184E+04;  1.1673392E-02;  0.0000000E+00;  4.2471048E-04;  2.1794900E+03;
  1.5168716E-01;  9.9999998E-03;  1.0992385E-01;3402;  4.5935130E-03;  0.0000000E+00;  8.1126549E-05;  9.9945465E+02;  1.0000000E-01; -4.5178970E+02;3; -3.2750350E-01;  0.0000000E+00; -3.2502085E-02;0;  1.2179208E-02;  3.9938520E+04;  0.0000000E+00; -7.3269494E-02;  4.0000000E+04;  0.0000000E+00;  4.0018473E+04;  1.1655260E-02;  0.0000000E+00;  5.2394823E-04;  2.4206008E+03;
  1.5172651E-01;  9.9999998E-03;  1.1991458E-01;3403;  4.6244138E-03;  0.0000000E+00;  9.9358491E-05;  9.9947595E+02;  1.0000000E-01; -4.3416055E+02;3; -3.1943613E-01;  0.0000000E+00; -3.5946626E-02;0;  1.2370287E-02;  3.9939906E+04;  0.0000000E+00; -7.9715542E-02;  4.0000000E+04;  0.0000000E+00;  4.0019516E+04;  1.1750343E-02;  0.0000000E+00;  6.1994290E-04;  2.5206179E+03;
  1.5175827E-01;  9.9999998E-03;  1.2989348E-01;3404;  4.6508717E-03;  0.0000000E+00;  1.0698245E-04;  9.9951849E+02;  1.0000000E-01; -3.9890231E+02;3; -3.1013045E-01;  0.0000000E+00; -3.7823468E-02;0;  1.2601539E-02;  3.9944195E+04;  0.0000000E+00; -7.4828066E-02;  4.0000000E+04;  0.0000000E+00;  4.0019492E+04;  1.1905617E-02;  0.0000000E+00;  6.9592200E-04;  2.4177705E+03;
  1.5178034E-01;  9.9999998E-03;  1.3986391E-01;3405;  4.6681035E-03;  0.0000000E+00;  1.0231788E-04;  9.9957190E+02;  1.0000000E-01; -3.5465665E+02;3; -3.0000287E-01;  0.0000000E+00; -3.9144125E-02;0;  1.2795266E-02;  3.9951496E+04;  0.0000000E+00; -5.1636305E-02;  4.0000000E+04;  0.0000000E+00;  4.0016684E+04;  1.2058773E-02;  0.0000000E+00;  7.3649251E-04;  2.1022979E+03;
  1.5179320E-01;  9.9999998E-03;  1.4983131E-01;3406;  4.6722507E-03;  0.0000000E+00;  8.8141387E-05;  9.9964777E+02;  1.0000000E-01; -2.9184360E+02;3; -2.8985596E-01;  0.0000000E+00; -3.4900863E-02;0;  1.2876735E-02;  3.9961754E+04;  0.0000000E+00; -3.4711121E-03;  4.0000000E+04;  0.0000000E+00;  4.0013121E+04;  1.2148288E-02;  0.0000000E+00;  7.2844670E-04;  1.6308910E+03;
  1.5179721E-01;  9.9999998E-03;  1.5980676E-01;3407;  4.6609957E-03;  0.0000000E+00;  6.7890018E-05;  9.9974402E+02;  1.0000000E-01; -2.1209277E+02;3; -2.7812132E-01;  0.0000000E+00;  2.0846089E-02;0;  1.2788478E-02;  3.9974105E+04;  0.0000000E+00;  7.5049430E-02;  4.0000000E+04;  0.0000000E+00;  4.0008633E+04;  1.2123515E-02;  0.0000000E+00;  6.6496339E-04;  1.1192402E+03;
  1.5178616E-01;  9.9999998E-03;  1.6980954E-01;3408;  4.6345135E-03;  0.0000000E+00;  4.4412085E-05;  9.9985968E+02;  1.0000000E-01; -1.1624363E+02;3; -2.6609129E-01;  0.0000000E+00;  2.1706241E-01;0;  1.2497227E-02;  3.9986758E+04;  0.0000000E+00;  1.9393159E-01;  4.0000000E+04;  0.0000000E+00;  4.0005801E+04;  1.1953673E-02;  0.0000000E+00;  5.4355321E-04;  7.4995117E+02;
  1.5174118E-01;  9.9999998E-03;  1.7983831E-01;3409;  4.5966813E-03;  0.0000000E+00;  2.0553651E-05;  9.9997430E+02;  1.0000000E-01; -2.1283348E+01;3; -2.5919333E-01;  0.0000000E+00;  6.7009878E-01;0;  1.1999278E-02;  3.9998039E+04;  0.0000000E+00;  3.8009772E-01;  4.0000000E+04;  0.0000000E+00;  4.0004566E+04;  1.1635229E-02;  0.0000000E+00;  3.6404902E-04;  7.6338135E+02;
  1.5166140E-01;  9.9999998E-03;  1.8987437E-01;3410;  4.5510358E-03;  0.0000000E+00; -5.9253688E-07;  1.0000737E+03;  1.0000000E-01;  6.1035313E+01;3; -2.6205897E-01;  0.0000000E+00;  1.5417391E+00;0;  1.1326516E-02;  4.0004832E+04;  0.0000000E+00;  6.8981415E-01;  4.0000000E+04;  0.0000000E+00;  4.0005848E+04;  1.1198779E-02;  0.0000000E+00;  1.2773780E-04;  1.2431954E+03;
  1.5157887E-01;  9.9999998E-03;  1.9990106E-01;3411;  4.4994815E-03;  0.0000000E+00; -1.4983989E-05;  1.0001288E+03;  1.0000000E-01;  1.0676241E+02;3; -2.6041949E-01;  0.0000000E+00;  3.0713103E+00;0;  1.0545556E-02;  4.0004594E+04;  0.0000000E+00;  1.2162699E+00;  4.0000000E+04;  0.0000000E+00;  4.0011129E+04;  1.0707635E-02;  0.0000000E+00; -1.6207874E-04;  2.2370078E+03;
  1.5150043E-01;  9.9999998E-03;  2.0990372E-01;3412;  4.4444394E-03;  0.0000000E+00; -1.8818584E-05;  1.0001058E+03;  1.0000000E-01;  8.7602463E+01;3; -1.8430096E-01;  0.0000000E+00;  5.5793357E+00;0;  9.7478759E-03;  3.9994988E+04;  0.0000000E+00;  2.0902398E+00;  4.0000000E+04;  0.0000000E+00;  4.0019543E+04;  1.0245409E-02;  0.0000000E+00; -4.9753278E-04;  3.8726614E+03;
  1.5142891E-01;  9.9999998E-03;  2.1989399E-01;3413;  4.3775472E-03;  0.0000000E+00; -1.1712216E-05;  9.9997021E+02;  1.0000000E-01; -2.4690660E+01;3;  1.3057999E-01;  0.0000000E+00;  9.3729649E+00;0;  9.0401359E-03;  3.9974086E+04;  0.0000000E+00;  3.4696658E+00;  4.0000000E+04;  0.0000000E+00;  4.0029852E+04;  9.9036554E-03;  0.0000000E+00; -8.6351932E-04;  6.2586318E+03;
  1.5135315E-01;  9.9999998E-03;  2.2987190E-01;3414;  4.2907773E-03;  0.0000000E+00;  3.7442274E-07;  9.9969745E+02;  1.0000000E-01; -2.5065958E+02;3;  9.7570324E-01;  0.0000000E+00;  1.4533035E+01;0;  8.5337199E-03;  3.9941516E+04;  0.0000000E+00;  5.5226274E+00;  4.0000000E+04;  0.0000000E+00;  4.0040398E+04;  9.7684329E-03;  0.0000000E+00; -1.2347128E-03;  9.5161123E+03;
  1.6145007E-01;  9.9999998E-03;  6.9953009E-02;3459;  4.3252977E-03;  0.0000000E+00;  1.7792912E-05;  9.9953162E+02;  1.0000000E-01; -3.8803842E+02;3; -3.5124370E-01;  0.0000000E+00; -2.6795207E-02;0;  1.3827933E-02;  3.9951809E+04;  0.0000000E+00; -2.1972410E-02;  4.0000000E+04;  0.0000000E+00;  4.0008289E+04;  1.3541714E-02;  0.0000000E+00;  2.8621824E-04;  1.0657577E+03;
  1.6149338E-01;  9.9999998E-03;  7.9951905E-02;3460;  4.3285564E-03;  0.0000000E+00;  1.7467293E-05;  9.9952100E+02;  1.0000000E-01; -3.9682828E+02;3; -3.4369412E-01;  0.0000000E+00; -2.8985541E-02;0;  1.3334746E-02;  3.9949613E+04;  0.0000000E+00; -2.7784539E-02;  4.0000000E+04;  0.0000000E+00;  4.0009988E+04;  1.3041936E-02;  0.0000000E+00;  2.9281096E-04;  1.2603519E+03;
  1.6154055E-01;  9.9999998E-03;  8.9952037E-02;3461;  4.3412466E-03;  0.0000000E+00;  2.5015554E-05;  9.9952130E+02;  1.0000000E-01; -3.9658139E+02;3; -3.3584493E-01;  0.0000000E+00; -3.1922910E-02;0;  1.3044285E-02;  3.9947625E+04;  0.0000000E+00; -3.6733173E-02;  4.0000000E+04;  0.0000000E+00;  4.0012113E+04;  1.2702904E-02;  0.0000000E+00;  3.4138054E-04;  1.5307963E+03;
  1.6158794E-01;  9.9999998E-03;  9.9951848E-02;3462;  4.3651289E-03;  0.0000000E+00;  4.2584619E-05;  9.9953320E+02;  1.0000000E-01; -3.8675449E+02;3; -3.2768944E-01;  0.0000000E+00; -3.5118505E-02;0;  1.2958298E-02;  3.9946441E+04;  0.0000000E+00; -4.9340621E-02;  4.0000000E+04;  0.0000000E+00;  4.0014367E+04;  1.2538087E-02;  0.0000000E+00;  4.2021071E-04;  1.8190917E+03;
  1.6163108E-01;  9.9999998E-03;  1.0994824E-01;3463;  4.3994430E-03;  0.0000000E+00;  6.7843364E-05;  9.9956183E+02;  1.0000000E-01; -3.6300208E+02;3; -3.1966311E-01;  0.0000000E+00; -3.8871761E-02;0;  1.3049077E-02;  3.9947383E+04;  0.0000000E+00; -6.4785883E-02;  4.0000000E+04;  0.0000000E+00;  4.0016398E+04;  1.2535420E-02;  0.0000000E+00;  5.1365682E-04;  2.0480356E+03;
  1.6166583E-01;  9.9999998E-03;  1.1993651E-01;3464;  4.4416119E-03;  0.0000000E+00;  9.7638236E-05;  9.9960278E+02;  1.0000000E-01; -3.2907712E+02;3; -3.1170169E-01;  0.0000000E+00; -4.2578109E-02;0;  1.3263394E-02;  3.9950613E+04;  0.0000000E+00; -8.0413237E-02;  4.0000000E+04;  0.0000000E+00;  4.0017508E+04;  1.2658384E-02;  0.0000000E+00;  6.0501014E-04;  2.1385244E+03;
  1.6169055E-01;  9.9999998E-03;  1.2991424E-01;3465;  4.4826060E-03;  0.0000000E+00;  1.1690997E-04;  9.9966180E+02;  1.0000000E-01; -2.8018961E+02;3; -3.0413383E-01;  0.0000000E+00; -4.6582665E-02;0;  1.3529694E-02;  3.9956258E+04;  0.0000000E+00; -9.1532268E-02;  4.0000000E+04;  0.0000000E+00;  4.0016703E+04;  1.2851280E-02;  0.0000000E+00;  6.7841331E-04;  2.0329021E+03;
  1.6170555E-01;  9.9999998E-03;  1.3988474E-01;3466;  4.5159655E-03;  0.0000000E+00;  1.2200227E-04;  9.9973383E+02;  1.0000000E-01; -2.2053697E+02;3; -2.9531130E-01;  0.0000000E+00; -4.9940523E-02;0;  1.3766087E-02;  3.9965086E+04;  0.0000000E+00; -9.1798626E-02;  4.0000000E+04;  0.0000000E+00;  4.0013457E+04;  1.3046808E-02;  0.0000000E+00;  7.1927888E-04;  1.7207404E+03;
  1.6171643E-01;  9.9999998E-03;  1.4985463E-01;3467;  4.5336024E-03;  0.0000000E+00;  1.1385945E-04;  9.9982104E+02;  1.0000000E-01; -1.4824272E+02;3; -2.8542930E-01;  0.0000000E+00; -4.5453817E-02;0;  1.3891766E-02;  3.9976297E+04;  0.0000000E+00; -7.4415237E-02;  4.0000000E+04;  0.0000000E+00;  4.0010145E+04;  1.3176557E-02;  0.0000000E+00;  7.1520958E-04;  1.2536941E+03;
  1.6172595E-01;  9.9999998E-03;  1.5983427E-01;3468;  4.5327907E-03;  0.0000000E+00;  9.7763070E-05;  9.9992084E+02;  1.0000000E-01; -6.5578392E+01;3; -2.7576905E-01;  0.0000000E+00;  1.3302235E-02;0;  1.3841465E-02;  3.9989035E+04;  0.0000000E+00; -3.2008767E-02;  4.0000000E+04;  0.0000000E+00;  4.0006297E+04;  1.3181665E-02;  0.0000000E+00;  6.5979973E-04;  7.3610046E+02;
  1.6172947E-01;  9.9999998E-03;  1.6984119E-01;3469;  4.5122001E-03;  0.0000000E+00;  7.7588244E-05;  1.0000352E+03;  1.0000000E-01;  2.9134979E+01;3; -2.7305266E-01;  0.0000000E+00;  2.1370749E-01;0;  1.3574731E-02;  4.0002047E+04;  0.0000000E+00;  5.1899612E-02;  4.0000000E+04;  0.0000000E+00;  4.0002398E+04;  1.3023394E-02;  0.0000000E+00;  5.5133644E-04;  3.2467715E+02;
  1.6171171E-01;  9.9999998E-03;  1.7987092E-01;3470;  4.4741286E-03;  0.0000000E+00;  5.6018598E-05;  1.0001440E+03;  1.0000000E-01;  1.1930527E+02;3; -2.9391828E-01;  0.0000000E+00;  6.6585535E-01;0;  1.3082142E-02;  4.0013043E+04;  0.0000000E+00;  2.1635070E-01;  4.0000000E+04;  0.0000000E+00;  4.0001020E+04;  1.2691853E-02;  0.0000000E+00;  3.9028929E-04;  3.4378857E+02;
  1.6166249E-01;  9.9999998E-03;  1.8990308E-01;3471;  4.4230330E-03;  0.0000000E+00;  3.6522870E-05;  1.0002331E+03;  1.0000000E-01;  1.9308096E+02;3; -3.5338861E-01;  0.0000000E+00;  1.5201880E+00;0;  1.2391964E-02;  4.0019168E+04;  0.0000000E+00;  5.3329217E-01;  4.0000000E+04;  0.0000000E+00;  4.0003039E+04;  1.2214439E-02;  0.0000000E+00;  1.7752530E-04;  8.4546503E+02;
  1.6154949E-01;  9.9999998E-03;  1.9993074E-01;3472;  4.3603447E-03;  0.0000000E+00;  2.3947656E-05;  1.0002762E+03;  1.0000000E-01;  2.2883304E+02;3; -4.4147089E-01;  0.0000000E+00;  3.0032399E+00;0;  1.1563406E-02;  4.0018043E+04;  0.0000000E+00;  1.1107155E+00;  4.0000000E+04;  0.0000000E+00;  4.0008188E+04;  1.1649669E-02;  0.0000000E+00; -8.6263259E-05;  1.8896877E+03;
  1.6143420E-01;  9.9999998E-03;  2.0994917E-01;3473;  4.2823199E-03;  0.0000000E+00;  2.4233423E-05;  1.0002384E+03;  1.0000000E-01;  1.9752528E+02;3; -4.8069769E-01;  0.0000000E+00;  5.4195118E+00;0;  1.0698723E-02;  4.0007270E+04;  0.0000000E+00;  2.0896344E+00;  4.0000000E+04;  0.0000000E+00;  4.0016918E+04;  1.1094860E-02;  0.0000000E+00; -3.9613724E-04;  3.6543149E+03;
  1.6136204E-01;  9.9999998E-03;  2.1994689E-01;3474;  4.1828575E-03;  0.0000000E+00;  4.1577448E-05;  1.0000858E+03;  1.0000000E-01;  7.1109100E+01;3; -2.7226403E-01;  0.0000000E+00;  9.0838900E+00;0;  9.9176010E-03;  3.9984988E+04;  0.0000000E+00;  3.6343751E+00;  4.0000000E+04;  0.0000000E+00;  4.0028102E+04;  1.0654886E-02;  0.0000000E+00; -7.3728518E-04;  6.2865718E+03;
  1.6131866E-01;  9.9999998E-03;  2.2992501E-01;3475;  4.0551331E-03;  0.0000000E+00;  7.2915362E-05;  9.9979333E+02;  1.0000000E-01; -1.7120503E+02;3;  5.5403465E-01;  0.0000000E+00;  1.4148866E+01;0;  9.3360962E-03;  3.9949922E+04;  0.0000000E+00;  5.9246373E+00;  4.0000000E+04;  0.0000000E+00;  4.0039191E+04;  1.0419612E-02;  0.0000000E+00; -1.0835158E-03;  9.9508691E+03;
  1.7139965E-01;  9.9999998E-03;  7.0016816E-02;3520;  4.1394951E-03;  0.0000000E+00;  1.0433863E-05;  9.9960254E+02;  1.0000000E-01; -3.2927463E+02;3; -3.4945169E-01;  0.0000000E+00; -3.4496661E-02;0;  1.5878668E-02;  3.9959355E+04;  0.0000000E+00; -2.3260763E-02;  4.0000000E+04;  0.0000000E+00;  4.0004379E+04;  1.5633324E-02;  0.0000000E+00;  2.4534340E-04;  5.8220544E+02;
  1.7144203E-01;  9.9999998E-03;  8.0019079E-02;3521;  4.1377288E-03;  0.0000000E+00;  6.2863332E-06;  9.9960980E+02;  1.0000000E-01; -3.2325012E+02;3; -3.4294954E-01;  0.0000000E+00; -3.6258873E-02;0;  1.5349759E-02;  3.9958410E+04;  0.0000000E+00; -2.4345500E-02;  4.0000000E+04;  0.0000000E+00;  4.0005844E+04;  1.5099934E-02;  0.0000000E+00;  2.4982495E-04;  7.8274023E+02;
  1.7149244E-01;  9.9999998E-03;  9.0019912E-02;3522;  4.1467999E-03;  0.0000000E+00;  9.4805237E-06;  9.9962347E+02;  1.0000000E-01; -3.1194180E+02;3; -3.3573946E-01;  0.0000000E+00; -3.8729720E-02;0;  1.5031418E-02;  3.9957934E+04;  0.0000000E+00; -2.8312452E-02;  4.0000000E+04;  0.0000000E+00;  4.0007953E+04;  1.4735404E-02;  0.0000000E+00;  2.9601384E-04;  1.0485400E+03;
  1.7154756E-01;  9.9999998E-03;  1.0001897E-01;3523;  4.1685007E-03;  0.0000000E+00;  2.2383736E-05;  9.9965784E+02;  1.0000000E-01; -2.8349817E+02;3; -3.2750827E-01;  0.0000000E+00; -4.2173438E-02;0;  1.4927852E-02;  3.9958715E+04;  0.0000000E+00; -3.7513416E-02;  4.0000000E+04;  0.0000000E+00;  4.0010574E+04;  1.4555100E-02;  0.0000000E+00;  3.7275199E-04;  1.3243835E+03;
  1.7160203E-01;  9.9999998E-03;  1.1001462E-01;3524;  4.2043603E-03;  0.0000000E+00;  4.4861412E-05;  9.9970911E+02;  1.0000000E-01; -2.4098083E+02;3; -3.1677267E-01;  0.0000000E+00; -4.5535542E-02;0;  1.5012741E-02;  3.9961152E+04;  0.0000000E+00; -5.3438190E-02;  4.0000000E+04;  0.0000000E+00;  4.0011961E+04;  1.4547640E-02;  0.0000000E+00;  4.6510046E-04;  1.5397219E+03;
  1.7164779E-01;  9.9999998E-03;  1.2000335E-01;3525;  4.2528235E-03;  0.0000000E+00;  7.4326068E-05;  9.9976770E+02;  1.0000000E-01; -1.9243900E+02;3; -3.0823427E-01;  0.0000000E+00; -4.9588252E-02;0;  1.5232458E-02;  3.9965914E+04;  0.0000000E+00; -7.5965606E-02;  4.0000000E+04;  0.0000000E+00;  4.0012555E+04;  1.4675377E-02;  0.0000000E+00;  5.5708073E-04;  1.6235490E+03;
  1.7167717E-01;  9.9999998E-03;  1.2998316E-01;3526;  4.3076929E-03;  0.0000000E+00;  1.0459028E-04;  9.9984320E+02;  1.0000000E-01; -1.2992226E+02;3; -3.0041152E-01;  0.0000000E+00; -5.3562310E-02;0;  1.5512613E-02;  3.9973273E+04;  0.0000000E+00; -1.0279926E-01;  4.0000000E+04;  0.0000000E+00;  4.0012734E+04;  1.4879167E-02;  0.0000000E+00;  6.3344580E-04;  1.5245269E+03;
  1.7169175E-01;  9.9999998E-03;  1.3995545E-01;3527;  4.3587941E-03;  0.0000000E+00;  1.2646866E-04;  9.9992725E+02;  1.0000000E-01; -6.0294590E+01;3; -2.9188597E-01;  0.0000000E+00; -5.7258729E-02;0;  1.5768144E-02;  3.9982730E+04;  0.0000000E+00; -1.2927093E-01;  4.0000000E+04;  0.0000000E+00;  4.0009836E+04;  1.5087779E-02;  0.0000000E+00;  6.8036630E-04;  1.2337771E+03;
  1.7169750E-01;  9.9999998E-03;  1.4992473E-01;3528;  4.3953350E-03;  0.0000000E+00;  1.3482565E-04;  1.0000268E+03;  1.0000000E-01;  2.2221594E+01;3; -2.8359982E-01;  0.0000000E+00; -5.4735150E-02;0;  1.5912909E-02;  3.9994680E+04;  0.0000000E+00; -1.4871079E-01;  4.0000000E+04;  0.0000000E+00;  4.0005938E+04;  1.5226522E-02;  0.0000000E+00;  6.8638689E-04;  8.0163916E+02;
  1.7169991E-01;  9.9999998E-03;  1.5990089E-01;3529;  4.4107996E-03;  0.0000000E+00;  1.3130222E-04;  1.0001312E+03;  1.0000000E-01;  1.0863890E+02;3; -2.7676603E-01;  0.0000000E+00;  3.8685952E-03;0;  1.5874945E-02;  4.0007684E+04;  0.0000000E+00; -1.5038428E-01;  4.0000000E+04;  0.0000000E+00;  4.0003301E+04;  1.5229357E-02;  0.0000000E+00;  6.4558716E-04;  3.4752820E+02;
  1.7169942E-01;  9.9999998E-03;  1.6989708E-01;3530;  4.3997332E-03;  0.0000000E+00;  1.1877181E-04;  1.0002405E+03;  1.0000000E-01;  1.9920424E+02;3; -2.8526467E-01;  0.0000000E+00;  2.0154183E-01;0;  1.5608376E-02;  4.0020566E+04;  0.0000000E+00; -1.0886921E-01;  4.0000000E+04;  0.0000000E+00;  3.9999004E+04;  1.5051025E-02;  0.0000000E+00;  5.5735081E-04;  2.0729262E+02;
  1.7167719E-01;  9.9999998E-03;  1.7991850E-01;3531;  4.3642446E-03;  0.0000000E+00;  1.0306582E-04;  1.0003409E+03;  1.0000000E-01;  2.8246115E+02;3; -3.3417493E-01;  0.0000000E+00;  6.4086902E-01;0;  1.5096622E-02;  4.0030879E+04;  0.0000000E+00;  2.9260315E-02;  4.0000000E+04;  0.0000000E+00;  3.9997770E+04;  1.4673697E-02;  0.0000000E+00;  4.2292484E-04;  3.2700369E+02;
  1.7160416E-01;  9.9999998E-03;  1.8994206E-01;3532;  4.3063900E-03;  0.0000000E+00;  8.9462206E-05;  1.0004132E+03;  1.0000000E-01;  3.4231131E+02;3; -4.5121056E-01;  0.0000000E+00;  1.4541492E+00;0;  1.4360091E-02;  4.0036480E+04;  0.0000000E+00;  3.5110226E-01;  4.0000000E+04;  0.0000000E+00;  3.9999656E+04;  1.4117233E-02;  0.0000000E+00;  2.4285735E-04;  5.2904755E+02;
  1.7148282E-01;  9.9999998E-03;  1.9997330E-01;3533;  4.2272531E-03;  0.0000000E+00;  8.3211213E-05;  1.0004398E+03;  1.0000000E-01;  3.6433539E+02;3; -6.3442886E-01;  0.0000000E+00;  2.8397372E+00;0;  1.3462545E-02;  4.0034285E+04;  0.0000000E+00;  9.7397447E-01;  4.0000000E+04;  0.0000000E+00;  4.0003289E+04;  1.3446297E-02;  0.0000000E+00;  1.6248410E-05;  1.4756947E+03;
  1.7135087E-01;  9.9999998E-03;  2.1000977E-01;3534;  4.1217869E-03;  0.0000000E+00;  9.1739304E-05;  1.0003817E+03;  1.0000000E-01;  3.1623798E+02;3; -8.0342513E-01;  0.0000000E+00;  5.0518160E+00;0;  1.2507961E-02;  4.0023027E+04;  0.0000000E+00;  2.0378308E+00;  4.0000000E+04;  0.0000000E+00;  4.0011543E+04;  1.2761909E-02;  0.0000000E+00; -2.5394702E-04;  3.2734255E+03;
  1.7127556E-01;  9.9999998E-03;  2.2002599E-01;3535;  3.9837756E-03;  0.0000000E+00;  1.2670062E-04;  1.0002095E+03;  1.0000000E-01;  1.7352596E+02;3; -7.3407406E-01;  0.0000000E+00;  8.3498211E+00;0;  1.1632822E-02;  4.0000008E+04;  0.0000000E+00;  3.6937735E+00;  4.0000000E+04;  0.0000000E+00;  4.0021551E+04;  1.2182858E-02;  0.0000000E+00; -5.5003504E-04;  6.0097339E+03;
  1.7125988E-01;  9.9999998E-03;  2.3001857E-01;3536;  3.8068220E-03;  0.0000000E+00;  2.0098942E-04;  9.9988293E+02;  1.0000000E-01; -9.6984909E+01;3;  7.9974495E-03;  0.0000000E+00;  1.2849336E+01;0;  1.0972049E-02;  3.9963441E+04;  0.0000000E+00;  6.0960259E+00;  4.0000000E+04;  0.0000000E+00;  4.0032223E+04;  1.1802377E-02;  0.0000000E+00; -8.3032774E-04;  9.8390332E+03;
  1.8143047E-01;  9.9999998E-03;  7.0065081E-02;3581;  3.9812424E-03;  0.0000000E+00;  1.2541650E-05;  9.9969049E+02;  1.0000000E-01; -2.5643719E+02;3; -3.4799302E-01;  0.0000000E+00; -4.2051282E-02;0;  1.9127121E-02;  3.9969496E+04;  0.0000000E+00; -2.9070331E-02;  4.0000000E+04;  0.0000000E+00;  3.9999688E+04;  1.8978460E-02;  0.0000000E+00;  1.4866164E-04;  4.6297520E+01;
  1.8142925E-01;  9.9999998E-03;  8.0070414E-02;3582;  3.9761513E-03;  0.0000000E+00;  3.5036987E-06;  9.9969287E+02;  1.0000000E-01; -2.5446194E+02;3; -3.4075963E-01;  0.0000000E+00; -4.4120092E-02;0;  1.8536499E-02;  3.9968828E+04;  0.0000000E+00; -2.5740366E-02;  4.0000000E+04;  0.0000000E+00;  4.0001270E+04;  1.8384935E-02;  0.0000000E+00;  1.5156435E-04;  2.1974138E+02;
  1.8144739E-01;  9.9999998E-03;  9.0072498E-02;3583;  3.9826860E-03;  0.0000000E+00;  7.8122679E-07;  9.9971893E+02;  1.0000000E-01; -2.3288231E+02;3; -3.3354157E-01;  0.0000000E+00; -4.6817098E-02;0;  1.8163040E-02;  3.9968902E+04;  0.0000000E+00; -2.3981187E-02;  4.0000000E+04;  0.0000000E+00;  4.0003578E+04;  1.7966343E-02;  0.0000000E+00;  1.9669636E-04;  4.7090836E+02;
  1.8148392E-01;  9.9999998E-03;  1.0007221E-01;3584;  4.0034656E-03;  0.0000000E+00;  7.6489050E-06;  9.9976276E+02;  1.0000000E-01; -1.9653766E+02;3; -3.2583782E-01;  0.0000000E+00; -5.0040256E-02;0;  1.8014183E-02;  3.9970227E+04;  0.0000000E+00; -2.7744643E-02;  4.0000000E+04;  0.0000000E+00;  4.0005348E+04;  1.7740745E-02;  0.0000000E+00;  2.7343893E-04;  7.2839502E+02;
  1.8152985E-01;  9.9999998E-03;  1.1006888E-01;3585;  4.0397691E-03;  0.0000000E+00;  2.5015905E-05;  9.9981866E+02;  1.0000000E-01; -1.5021797E+02;3; -3.1719881E-01;  0.0000000E+00; -5.3444404E-02;0;  1.8064396E-02;  3.9973535E+04;  0.0000000E+00; -4.0895395E-02;  4.0000000E+04;  0.0000000E+00;  4.0007004E+04;  1.7696902E-02;  0.0000000E+00;  3.6749514E-04;  9.2894330E+02;
  1.8157490E-01;  9.9999998E-03;  1.2006075E-01;3586;  4.0915967E-03;  0.0000000E+00;  5.2371422E-05;  9.9989130E+02;  1.0000000E-01; -9.0071526E+01;3; -3.0940583E-01;  0.0000000E+00; -5.8384839E-02;0;  1.8260084E-02;  3.9979328E+04;  0.0000000E+00; -6.6390835E-02;  4.0000000E+04;  0.0000000E+00;  4.0007773E+04;  1.7796671E-02;  0.0000000E+00;  4.6341348E-04;  1.0114016E+03;
  1.8161215E-01;  9.9999998E-03;  1.3004538E-01;3587;  4.1542416E-03;  0.0000000E+00;  8.4473133E-05;  9.9997290E+02;  1.0000000E-01; -2.2468500E+01;3; -2.9940566E-01;  0.0000000E+00; -6.3500479E-02;0;  1.8526545E-02;  3.9987004E+04;  0.0000000E+00; -1.0532886E-01;  4.0000000E+04;  0.0000000E+00;  4.0007594E+04;  1.7980138E-02;  0.0000000E+00;  5.4640666E-04;  9.3283710E+02;
  1.8163870E-01;  9.9999998E-03;  1.4002188E-01;3588;  4.2184275E-03;  0.0000000E+00;  1.1666566E-04;  1.0000643E+03;  1.0000000E-01;  5.3331825E+01;3; -2.8839830E-01;  0.0000000E+00; -6.6173695E-02;0;  1.8774955E-02;  3.9996891E+04;  0.0000000E+00; -1.5589896E-01;  4.0000000E+04;  0.0000000E+00;  4.0005289E+04;  1.8171478E-02;  0.0000000E+00;  6.0347578E-04;  6.9296869E+02;
  1.8165112E-01;  9.9999998E-03;  1.4999323E-01;3589;  4.2721247E-03;  0.0000000E+00;  1.4261964E-04;  1.0001649E+03;  1.0000000E-01;  1.3658873E+02;3; -2.7993396E-01;  0.0000000E+00; -6.3623920E-02;0;  1.8911980E-02;  4.0008766E+04;  0.0000000E+00; -2.1251537E-01;  4.0000000E+04;  0.0000000E+00;  4.0001648E+04;  1.8287566E-02;  0.0000000E+00;  6.2441448E-04;  3.9306973E+02;
  1.8164922E-01;  9.9999998E-03;  1.5996684E-01;3590;  4.3026749E-03;  0.0000000E+00;  1.5966085E-04;  1.0002694E+03;  1.0000000E-01;  2.2320357E+02;3; -2.7620611E-01;  0.0000000E+00; -9.6970480E-03;0;  1.8857671E-02;  4.0021414E+04;  0.0000000E+00; -2.6099941E-01;  4.0000000E+04;  0.0000000E+00;  3.9998531E+04;  1.8253583E-02;  0.0000000E+00;  6.0408743E-04;  4.2511209E+02;
  1.8163301E-01;  9.9999998E-03;  1.6995332E-01;3591;  4.3048197E-03;  0.0000000E+00;  1.6735482E-04;  1.0003696E+03;  1.0000000E-01;  3.0626294E+02;3; -2.9502210E-01;  0.0000000E+00;  1.7546178E-01;0;  1.8560337E-02;  4.0033746E+04;  0.0000000E+00; -2.6584384E-01;  4.0000000E+04;  0.0000000E+00;  3.9995730E+04;  1.8017136E-02;  0.0000000E+00;  5.4320210E-04;  7.1478094E+02;
  1.8158852E-01;  9.9999998E-03;  1.7995864E-01;3592;  4.2751515E-03;  0.0000000E+00;  1.6752040E-04;  1.0004598E+03;  1.0000000E-01;  3.8092749E+02;3; -3.7096751E-01;  0.0000000E+00;  5.8443987E-01;0;  1.7999845E-02;  4.0043152E+04;  0.0000000E+00; -1.5831189E-01;  4.0000000E+04;  0.0000000E+00;  3.9993941E+04;  1.7555362E-02;  0.0000000E+00;  4.4448231E-04;  8.3824915E+02;
  1.8150078E-01;  9.9999998E-03;  1.8998320E-01;3593;  4.2123934E-03;  0.0000000E+00;  1.6598449E-04;  1.0005174E+03;  1.0000000E-01;  4.2862985E+02;3; -5.4186016E-01;  0.0000000E+00;  1.3311847E+00;0;  1.7195135E-02;  4.0047887E+04;  0.0000000E+00;  1.6371147E-01;  4.0000000E+04;  0.0000000E+00;  3.9994836E+04;  1.6886564E-02;  0.0000000E+00;  3.0857045E-04;  7.3900531E+02;
  1.8138675E-01;  9.9999998E-03;  2.0002224E-01;3594;  4.1163694E-03;  0.0000000E+00;  1.7435233E-04;  1.0005193E+03;  1.0000000E-01;  4.3021005E+02;3; -8.1551951E-01;  0.0000000E+00;  2.5680926E+00;0;  1.6214922E-02;  4.0045434E+04;  0.0000000E+00;  8.2396781E-01;  4.0000000E+04;  0.0000000E+00;  3.9998711E+04;  1.6080225E-02;  0.0000000E+00;  1.3469675E-04;  1.2228077E+03;
  1.8125685E-01;  9.9999998E-03;  2.1007501E-01;3595;  3.9815539E-03;  0.0000000E+00;  2.0585557E-04;  1.0004449E+03;  1.0000000E-01;  3.6858215E+02;3; -1.1229597E+00;  0.0000000E+00;  4.4742551E+00;0;  1.5161314E-02;  4.0034148E+04;  0.0000000E+00;  1.9553542E+00;  4.0000000E+04;  0.0000000E+00;  4.0004375E+04;  1.5233377E-02;  0.0000000E+00; -7.2062547E-05;  2.9049497E+03;
  1.8116893E-01;  9.9999998E-03;  2.2012070E-01;3596;  3.7993386E-03;  0.0000000E+00;  2.7949721E-04;  1.0002515E+03;  1.0000000E-01;  2.0829041E+02;3; -1.2412517E+00;  0.0000000E+00;  7.1574216E+00;0;  1.4185704E-02;  4.0012305E+04;  0.0000000E+00;  3.6847775E+00;  4.0000000E+04;  0.0000000E+00;  4.0012039E+04;  1.4468769E-02;  0.0000000E+00; -2.8306435E-04;  5.6030122E+03;
  1.8116224E-01;  9.9999998E-03;  2.3013902E-01;3597;  3.5742174E-03;  0.0000000E+00;  3.8373415E-04;  9.9989673E+02;  1.0000000E-01; -8.5577827E+01;3; -7.3058003E-01;  0.0000000E+00;  1.0531837E+01;0;  1.3440751E-02;  3.9976746E+04;  0.0000000E+00;  6.1093817E+00;  4.0000000E+04;  0.0000000E+00;  4.0020176E+04;  1.3891350E-02;  0.0000000E+00; -4.5059883E-04;  9.3658447E+03;
  1.9151981E-01;  9.9999998E-03;  7.0084982E-02;3642;  3.8599349E-03;  0.0000000E+00;  2.2563423E-05;  9.9976398E+02;  1.0000000E-01; -1.9555002E+02;3; -3.4524128E-01;  0.0000000E+00; -4.9390502E-02;0;  2.3382312E-02;  3.9979570E+04;  0.0000000E+00; -3.2120865E-02;  4.0000000E+04;  0.0000000E+00;  3.9995203E+04;  2.3387890E-02;  0.0000000E+00; -5.5795272E-06;  5.5363092E+02;
  1.9149105E-01;  9.9999998E-03;  8.0091566E-02;3643;  3.8505718E-03;  0.0000000E+00;  7.8810081E-06;  9.9976093E+02;  1.0000000E-01; -1.9806847E+02;3; -3.3744979E-01;  0.0000000E+00; -5.2013520E-02;0;  2.2725139E-02;  3.9978180E+04;  0.0000000E+00; -2.5314977E-02;  4.0000000E+04;  0.0000000E+00;  3.9996684E+04;  2.2730498E-02;  0.0000000E+00; -5.3581894E-06;  3.7466766E+02;
  1.9146909E-01;  9.9999998E-03;  9.0095803E-02;3644;  3.8539905E-03;  0.0000000E+00;  1.9607032E-07;  9.9977649E+02;  1.0000000E-01; -1.8517995E+02;3; -3.3048564E-01;  0.0000000E+00; -5.4563425E-02;0;  2.2274332E-02;  3.9977582E+04;  0.0000000E+00; -1.8005975E-02;  4.0000000E+04;  0.0000000E+00;  3.9998535E+04;  2.2236038E-02;  0.0000000E+00;  3.8293583E-05;  1.4533002E+02;
  1.9146122E-01;  9.9999998E-03;  1.0009830E-01;3645;  3.8752763E-03;  0.0000000E+00;  1.5080293E-06;  9.9980963E+02;  1.0000000E-01; -1.5772394E+02;3; -3.2284310E-01;  0.0000000E+00; -5.7435438E-02;0;  2.2044467E-02;  3.9978613E+04;  0.0000000E+00; -1.4980982E-02;  4.0000000E+04;  0.0000000E+00;  3.9999973E+04;  2.1929143E-02;  0.0000000E+00;  1.1532418E-04;  9.3612267E+01;
  1.9147092E-01;  9.9999998E-03;  1.1009869E-01;3646;  3.9160531E-03;  0.0000000E+00;  1.3747122E-05;  9.9985815E+02;  1.0000000E-01; -1.1752754E+02;3; -3.1419373E-01;  0.0000000E+00; -6.0345411E-02;0;  2.2018462E-02;  3.9981266E+04;  0.0000000E+00; -2.2082150E-02;  4.0000000E+04;  0.0000000E+00;  4.0001742E+04;  2.1806600E-02;  0.0000000E+00;  2.1186312E-04;  2.7658026E+02;
  1.9149469E-01;  9.9999998E-03;  1.2009554E-01;3647;  3.9741523E-03;  0.0000000E+00;  3.8421575E-05;  9.9992322E+02;  1.0000000E-01; -6.3603138E+01;3; -3.0556414E-01;  0.0000000E+00; -6.4855799E-02;0;  2.2147970E-02;  3.9986449E+04;  0.0000000E+00; -4.5371886E-02;  4.0000000E+04;  0.0000000E+00;  4.0002742E+04;  2.1835199E-02;  0.0000000E+00;  3.1277179E-04;  3.6171509E+02;
  1.9152248E-01;  9.9999998E-03;  1.3008693E-01;3648;  4.0470054E-03;  0.0000000E+00;  7.5020413E-05;  1.0000021E+03;  1.0000000E-01;  1.6789649E+00;3; -2.9684645E-01;  0.0000000E+00; -7.1231902E-02;0;  2.2357926E-02;  3.9993230E+04;  0.0000000E+00; -8.9810438E-02;  4.0000000E+04;  0.0000000E+00;  4.0002594E+04;  2.1954225E-02;  0.0000000E+00;  4.0370048E-04;  3.2220200E+02;
  1.9154458E-01;  9.9999998E-03;  1.4007117E-01;3649;  4.1260407E-03;  0.0000000E+00;  1.2002758E-04;  1.0000869E+03;  1.0000000E-01;  7.1997963E+01;3; -2.8769431E-01;  0.0000000E+00; -7.7758491E-02;0;  2.2556689E-02;  4.0002559E+04;  0.0000000E+00; -1.5743573E-01;  4.0000000E+04;  0.0000000E+00;  4.0000602E+04;  2.2084001E-02;  0.0000000E+00;  4.7268684E-04;  2.3821613E+02;
  1.9155383E-01;  9.9999998E-03;  1.5004899E-01;3650;  4.1970615E-03;  0.0000000E+00;  1.6739477E-04;  1.0001845E+03;  1.0000000E-01;  1.5288457E+02;3; -2.7723983E-01;  0.0000000E+00; -7.5983047E-02;0;  2.2647316E-02;  4.0013539E+04;  0.0000000E+00; -2.4512847E-01;  4.0000000E+04;  0.0000000E+00;  3.9998234E+04;  2.2136085E-02;  0.0000000E+00;  5.1123073E-04;  4.3267398E+02;
  1.9154698E-01;  9.9999998E-03;  1.6002476E-01;3651;  4.2426563E-03;  0.0000000E+00;  2.0937639E-04;  1.0002803E+03;  1.0000000E-01;  2.3219096E+02;3; -2.7520782E-01;  0.0000000E+00; -2.9254347E-02;0;  2.2544641E-02;  4.0024812E+04;  0.0000000E+00; -3.3655217E-01;  4.0000000E+04;  0.0000000E+00;  3.9995227E+04;  2.2028774E-02;  0.0000000E+00;  5.1586673E-04;  8.1359998E+02;
  1.9151971E-01;  9.9999998E-03;  1.7000557E-01;3652;  4.2533642E-03;  0.0000000E+00;  2.4042896E-04;  1.0003691E+03;  1.0000000E-01;  3.0586789E+02;3; -3.0129245E-01;  0.0000000E+00;  1.3459988E-01;0;  2.2191389E-02;  4.0035648E+04;  0.0000000E+00; -3.8701883E-01;  4.0000000E+04;  0.0000000E+00;  3.9991809E+04;  2.1701958E-02;  0.0000000E+00;  4.8943091E-04;  1.1621409E+03;
  1.9146681E-01;  9.9999998E-03;  1.8000111E-01;3653;  4.2229686E-03;  0.0000000E+00;  2.6183360E-04;  1.0004430E+03;  1.0000000E-01;  3.6700195E+02;3; -3.9637041E-01;  0.0000000E+00;  4.9986601E-01;0;  2.1566967E-02;  4.0044340E+04;  0.0000000E+00; -3.1335929E-01;  4.0000000E+04;  0.0000000E+00;  3.9990621E+04;  2.1130094E-02;  0.0000000E+00;  4.3687160E-04;  1.3143337E+03;
  1.9138178E-01;  9.9999998E-03;  1.9002266E-01;3654;  4.1523478E-03;  0.0000000E+00;  2.7736806E-04;  1.0004843E+03;  1.0000000E-01;  4.0127261E+02;3; -6.0907245E-01;  0.0000000E+00;  1.1586560E+00;0;  2.0689536E-02;  4.0048414E+04;  0.0000000E+00;  1.2055045E-03;  4.0000000E+04;  0.0000000E+00;  3.9991012E+04;  2.0329278E-02;  0.0000000E+00;  3.6025705E-04;  1.2021926E+03;
  1.9127561E-01;  9.9999998E-03;  2.0006871E-01;3655;  4.0374822E-03;  0.0000000E+00;  3.0820610E-04;  1.0004732E+03;  1.0000000E-01;  3.9208768E+02;3; -9.5973837E-01;  0.0000000E+00;  2.2183654E+00;0;  1.9625721E-02;  4.0046234E+04;  0.0000000E+00;  6.8731111E-01;  4.0000000E+04;  0.0000000E+00;  3.9993246E+04;  1.9364623E-02;  0.0000000E+00;  2.6109774E-04;  1.3522606E+03;
  1.9116162E-01;  9.9999998E-03;  2.1013018E-01;3656;  3.8743850E-03;  0.0000000E+00;  3.7082302E-04;  1.0003831E+03;  1.0000000E-01;  3.1732437E+02;3; -1.3989969E+00;  0.0000000E+00;  3.7616014E+00;0;  1.8486122E-02;  4.0036207E+04;  0.0000000E+00;  1.8712441E+00;  4.0000000E+04;  0.0000000E+00;  3.9997254E+04;  1.8334471E-02;  0.0000000E+00;  1.5165083E-04;  2.7766440E+03;
  1.9105752E-01;  9.9999998E-03;  2.2020495E-01;3657;  3.6623944E-03;  0.0000000E+00;  4.5497154E-04;  1.0001686E+03;  1.0000000E-01;  1.3965038E+02;3; -1.7488338E+00;  0.0000000E+00;  5.6713805E+00;0;  1.7408531E-02;  4.0016969E+04;  0.0000000E+00;  3.6618865E+00;  4.0000000E+04;  0.0000000E+00;  4.0000492E+04;  1.7350890E-02;  0.0000000E+00;  5.7641737E-05;  5.3969663E+03;
  1.9103371E-01;  9.9999998E-03;  2.3025025E-01;3658;  3.4123603E-03;  0.0000000E+00;  5.3506281E-04;  9.9979779E+02;  1.0000000E-01; -1.6755081E+02;3; -1.6377968E+00;  0.0000000E+00;  7.5692415E+00;0;  1.6546248E-02;  3.9985605E+04;  0.0000000E+00;  6.1030340E+00;  4.0000000E+04;  0.0000000E+00;  4.0002281E+04;  1.6537212E-02;  0.0000000E+00;  9.0363319E-06;  9.0675635E+03;
  2.0163035E-01;  9.9999998E-03;  7.0072331E-02;3703;  3.7899464E-03;  0.0000000E+00;  3.9566672E-05;  9.9982623E+02;  1.0000000E-01; -1.4394655E+02;3; -3.4080711E-01;  0.0000000E+00; -5.7278007E-02;0;  2.8213667E-02;  3.9988539E+04;  0.0000000E+00; -2.4257619E-02;  4.0000000E+04;  0.0000000E+00;  3.9991434E+04;  2.8428052E-02;  0.0000000E+00; -2.1438465E-04;  1.0548853E+03;
  2.0158301E-01;  9.9999998E-03;  8.0085605E-02;3704;  3.7740823E-03;  0.0000000E+00;  2.0783977E-05;  9.9980365E+02;  1.0000000E-01; -1.6266206E+02;3; -3.3416072E-01;  0.0000000E+00; -5.9608292E-02;0;  2.7499624E-02;  3.9985773E+04;  0.0000000E+00; -1.4267807E-02;  4.0000000E+04;  0.0000000E+00;  3.9992609E+04;  2.7718673E-02;  0.0000000E+00; -2.1904802E-04;  9.0614728E+02;
  2.0153594E-01;  9.9999998E-03;  9.0095542E-02;3705;  3.7748043E-03;  0.0000000E+00;  8.4055664E-06;  9.9979498E+02;  1.0000000E-01; -1.6987173E+02;3; -3.2643124E-01;  0.0000000E+00; -6.2094808E-02;0;  2.6970956E-02;  3.9983629E+04;  0.0000000E+00; -1.7602246E-03;  4.0000000E+04;  0.0000000E+00;  3.9993961E+04;  2.7150296E-02;  0.0000000E+00; -1.7933987E-04;  7.0963104E+02;
  2.0149520E-01;  9.9999998E-03;  1.0010334E-01;3706;  3.7963691E-03;  0.0000000E+00;  5.8369733E-06;  9.9980139E+02;  1.0000000E-01; -1.6453856E+02;3; -3.1827551E-01;  0.0000000E+00; -6.4803310E-02;0;  2.6645089E-02;  3.9982730E+04;  0.0000000E+00;  8.7231947E-03;  4.0000000E+04;  0.0000000E+00;  3.9995664E+04;  2.6749434E-02;  0.0000000E+00; -1.0434576E-04;  5.0699408E+02;
  2.0146693E-01;  9.9999998E-03;  1.1010920E-01;3707;  3.8411003E-03;  0.0000000E+00;  1.5023123E-05;  9.9982672E+02;  1.0000000E-01; -1.4355150E+02;3; -3.1004268E-01;  0.0000000E+00; -6.7588568E-02;0;  2.6511002E-02;  3.9983594E+04;  0.0000000E+00;  1.0514774E-02;  4.0000000E+04;  0.0000000E+00;  3.9997195E+04;  2.6518185E-02;  0.0000000E+00; -7.1829118E-06;  3.4328033E+02;
  2.0145275E-01;  9.9999998E-03;  1.2011312E-01;3708;  3.9089606E-03;  0.0000000E+00;  3.9447343E-05;  9.9986823E+02;  1.0000000E-01; -1.0918210E+02;3; -3.0119193E-01;  0.0000000E+00; -7.2618648E-02;0;  2.6527883E-02;  3.9986309E+04;  0.0000000E+00; -4.7187675E-03;  4.0000000E+04;  0.0000000E+00;  3.9998137E+04;  2.6430445E-02;  0.0000000E+00;  9.7439173E-05;  2.5960205E+02;
  2.0145078E-01;  9.9999998E-03;  1.3011296E-01;3709;  3.9967382E-03;  0.0000000E+00;  8.5136897E-05;  9.9992236E+02;  1.0000000E-01; -6.4343857E+01;3; -2.9359734E-01;  0.0000000E+00; -7.9797834E-02;0;  2.6628779E-02;  3.9991406E+04;  0.0000000E+00; -4.5646381E-02;  4.0000000E+04;  0.0000000E+00;  3.9998043E+04;  2.6433360E-02;  0.0000000E+00;  1.9541947E-04;  2.9487390E+02;
  2.0145568E-01;  9.9999998E-03;  1.4010692E-01;3710;  4.0957932E-03;  0.0000000E+00;  1.5344359E-04;  9.9999200E+02;  1.0000000E-01; -6.6170969E+00;3; -2.8450274E-01;  0.0000000E+00; -8.8764325E-02;0;  2.6727293E-02;  3.9998391E+04;  0.0000000E+00; -1.1877423E-01;  4.0000000E+04;  0.0000000E+00;  3.9996270E+04;  2.6451521E-02;  0.0000000E+00;  2.7577119E-04;  4.7031030E+02;
  2.0145558E-01;  9.9999998E-03;  1.5009359E-01;3711;  4.1889939E-03;  0.0000000E+00;  2.4118106E-04;  1.0000675E+03;  1.0000000E-01;  5.5899654E+01;3; -2.7435997E-01;  0.0000000E+00; -9.2934102E-02;0;  2.6727112E-02;  4.0006973E+04;  0.0000000E+00; -2.2499451E-01;  4.0000000E+04;  0.0000000E+00;  3.9994188E+04;  2.6394675E-02;  0.0000000E+00;  3.3243807E-04;  7.6759674E+02;
  2.0144047E-01;  9.9999998E-03;  1.6007464E-01;3712;  4.2527863E-03;  0.0000000E+00;  3.1806278E-04;  1.0001418E+03;  1.0000000E-01;  1.1742878E+02;3; -2.7363592E-01;  0.0000000E+00; -5.6121908E-02;0;  2.6541367E-02;  4.0016523E+04;  0.0000000E+00; -3.4838712E-01;  4.0000000E+04;  0.0000000E+00;  3.9992285E+04;  2.6175989E-02;  0.0000000E+00;  3.6537860E-04;  1.1340492E+03;
  2.0140356E-01;  9.9999998E-03;  1.7005509E-01;3713;  4.2710165E-03;  0.0000000E+00;  3.6516448E-04;  1.0002139E+03;  1.0000000E-01;  1.7718018E+02;3; -3.0256447E-01;  0.0000000E+00;  8.4524550E-02;0;  2.6111519E-02;  4.0025547E+04;  0.0000000E+00; -4.3834242E-01;  4.0000000E+04;  0.0000000E+00;  3.9989617E+04;  2.5730625E-02;  0.0000000E+00;  3.8089376E-04;  1.4740601E+03;
  2.0134494E-01;  9.9999998E-03;  1.8004383E-01;3714;  4.2374996E-03;  0.0000000E+00;  3.8534583E-04;  1.0002716E+03;  1.0000000E-01;  2.2498129E+02;3; -4.0642282E-01;  0.0000000E+00;  3.9750588E-01;0;  2.5417045E-02;  4.0032434E+04;  0.0000000E+00; -4.0037492E-01;  4.0000000E+04;  0.0000000E+00;  3.9987949E+04;  2.5030933E-02;  0.0000000E+00;  3.8611179E-04;  1.6523351E+03;
  2.0126270E-01;  9.9999998E-03;  1.9005559E-01;3715;  4.1556624E-03;  0.0000000E+00;  3.9811211E-04;  1.0003005E+03;  1.0000000E-01;  2.4898061E+02;3; -6.3945085E-01;  0.0000000E+00;  9.5673215E-01;0;  2.4473403E-02;  4.0035875E+04;  0.0000000E+00; -1.0462975E-01;  4.0000000E+04;  0.0000000E+00;  3.9988238E+04;  2.4089597E-02;  0.0000000E+00;  3.8380636E-04;  1.5919905E+03;
  2.0116031E-01;  9.9999998E-03;  2.0010062E-01;3716;  4.0220986E-03;  0.0000000E+00;  4.2319595E-04;  1.0002736E+03;  1.0000000E-01;  2.2666026E+02;3; -1.0423915E+00;  0.0000000E+00;  1.8227056E+00;0;  2.3337366E-02;  4.0034500E+04;  0.0000000E+00;  5.8873224E-01;  4.0000000E+04;  0.0000000E+00;  3.9988586E+04;  2.2962444E-02;  0.0000000E+00;  3.7492299E-04;  1.6916268E+03;
  2.0106374E-01;  9.9999998E-03;  2.1015911E-01;3717;  3.8400416E-03;  0.0000000E+00;  4.8023032E-04;  1.0001816E+03;  1.0000000E-01;  1.5041550E+02;3; -1.5813440E+00;  0.0000000E+00;  3.0146027E+00;0;  2.2122996E-02;  4.0026250E+04;  0.0000000E+00;  1.8051888E+00;  4.0000000E+04;  0.0000000E+00;  3.9990387E+04;  2.1749765E-02;  0.0000000E+00;  3.7323072E-04;  2.9271833E+03;
  2.0096076E-01;  9.9999998E-03;  2.2024173E-01;3718;  3.6130794E-03;  0.0000000E+00;  5.4377096E-04;  9.9996655E+02;  1.0000000E-01; -2.7702921E+01;3; -2.1511505E+00;  0.0000000E+00;  4.2396603E+00;0;  2.0946192E-02;  4.0010844E+04;  0.0000000E+00;  3.6484606E+00;  4.0000000E+04;  0.0000000E+00;  3.9989664E+04;  2.0550827E-02;  0.0000000E+00;  3.9536523E-04;  5.5339414E+03;
  2.0091031E-01;  9.9999998E-03;  2.3030145E-01;3719;  3.3682920E-03;  0.0000000E+00;  5.5530906E-04;  9.9960132E+02;  1.0000000E-01; -3.3031165E+02;3; -2.4772639E+00;  0.0000000E+00;  4.8452291E+00;0;  1.9910598E-02;  3.9986086E+04;  0.0000000E+00;  6.1609850E+00;  4.0000000E+04;  0.0000000E+00;  3.9986652E+04;  1.9497667E-02;  0.0000000E+00;  4.1293120E-04;  9.3006465E+03;
  2.1176800E-01;  9.9999998E-03;  7.0015065E-02;3764;  3.7895441E-03;  0.0000000E+00;  6.4666732E-05;  9.9986499E+02;  1.0000000E-01; -1.1184869E+02;3; -3.3677337E-01;  0.0000000E+00; -6.6652581E-02;0;  3.3032585E-02;  3.9995363E+04;  0.0000000E+00; -2.9534267E-03;  4.0000000E+04;  0.0000000E+00;  3.9988273E+04;  3.3503044E-02;  0.0000000E+00; -4.7045905E-04;  1.4279889E+03;
  2.1175833E-01;  9.9999998E-03;  8.0025114E-02;3765;  3.7646212E-03;  0.0000000E+00;  4.3219115E-05;  9.9982727E+02;  1.0000000E-01; -1.4310707E+02;3; -3.2975489E-01;  0.0000000E+00; -6.8442620E-02;0;  3.2315016E-02;  3.9991281E+04;  0.0000000E+00;  1.1011223E-02;  4.0000000E+04;  0.0000000E+00;  3.9989020E+04;  3.2799322E-02;  0.0000000E+00; -4.8430535E-04;  1.3236545E+03;
  2.1172163E-01;  9.9999998E-03;  9.0036914E-02;3766;  3.7594126E-03;  0.0000000E+00;  2.7634625E-05;  9.9979004E+02;  1.0000000E-01; -1.7397038E+02;3; -3.2217804E-01;  0.0000000E+00; -7.0689611E-02;0;  3.1735860E-02;  3.9987289E+04;  0.0000000E+00;  2.8956721E-02;  4.0000000E+04;  0.0000000E+00;  3.9990285E+04;  3.2189067E-02;  0.0000000E+00; -4.5320878E-04;  1.1710963E+03;
  2.1165577E-01;  9.9999998E-03;  1.0005447E-01;3767;  3.7791466E-03;  0.0000000E+00;  2.1091591E-05;  9.9976416E+02;  1.0000000E-01; -1.9540189E+02;3; -3.1416413E-01;  0.0000000E+00; -7.3044032E-02;0;  3.1310976E-02;  3.9984004E+04;  0.0000000E+00;  4.7509685E-02;  4.0000000E+04;  0.0000000E+00;  3.9991184E+04;  3.1695485E-02;  0.0000000E+00; -3.8450916E-04;  1.0055538E+03;
  2.1156752E-01;  9.9999998E-03;  1.1008013E-01;3768;  3.8262829E-03;  0.0000000E+00;  2.9111317E-05;  9.9975171E+02;  1.0000000E-01; -2.0572258E+02;3; -3.0573028E-01;  0.0000000E+00; -7.6565646E-02;0;  3.1036196E-02;  3.9981809E+04;  0.0000000E+00;  6.0577970E-02;  4.0000000E+04;  0.0000000E+00;  3.9993500E+04;  3.1326141E-02;  0.0000000E+00; -2.8994499E-04;  8.6283051E+02;
  2.1148618E-01;  9.9999998E-03;  1.2010639E-01;3769;  3.9032237E-03;  0.0000000E+00;  5.9953982E-05;  9.9975177E+02;  1.0000000E-01; -2.0567320E+02;3; -2.9733545E-01;  0.0000000E+00; -8.1867509E-02;0;  3.0891631E-02;  3.9981258E+04;  0.0000000E+00;  5.9049908E-02;  4.0000000E+04;  0.0000000E+00;  3.9993750E+04;  3.1075856E-02;  0.0000000E+00; -1.8422469E-04;  7.7529193E+02;
  2.1143368E-01;  9.9999998E-03;  1.3012488E-01;3770;  4.0116110E-03;  0.0000000E+00;  1.3291137E-04;  9.9976770E+02;  1.0000000E-01; -1.9243900E+02;3; -2.9003844E-01;  0.0000000E+00; -9.4283067E-02;0;  3.0829053E-02;  3.9982707E+04;  0.0000000E+00;  3.1697180E-02;  4.0000000E+04;  0.0000000E+00;  3.9993660E+04;  3.0910673E-02;  0.0000000E+00; -8.1620055E-05;  7.6628442E+02;
  2.1140042E-01;  9.9999998E-03;  1.4013535E-01;3771;  4.1427598E-03;  0.0000000E+00;  2.6421557E-04;  9.9979822E+02;  1.0000000E-01; -1.6715576E+02;3; -2.7911705E-01;  0.0000000E+00; -1.0201485E-01;0;  3.0769164E-02;  3.9986121E+04;  0.0000000E+00; -3.2334670E-02;  4.0000000E+04;  0.0000000E+00;  3.9993160E+04;  3.0760869E-02;  0.0000000E+00;  8.2937586E-06;  8.5159967E+02;
  2.1137430E-01;  9.9999998E-03;  1.5013310E-01;3772;  4.2713755E-03;  0.0000000E+00;  3.9423062E-04;  9.9984064E+02;  1.0000000E-01; -1.3204565E+02;3; -2.7055171E-01;  0.0000000E+00; -1.0650833E-01;0;  3.0625608E-02;  3.9991414E+04;  0.0000000E+00; -1.3917688E-01;  4.0000000E+04;  0.0000000E+00;  3.9991852E+04;  3.0542603E-02;  0.0000000E+00;  8.3004728E-05;  1.0396876E+03;
  2.1134497E-01;  9.9999998E-03;  1.6011885E-01;3773;  4.3600495E-03;  0.0000000E+00;  4.7792323E-04;  9.9988739E+02;  1.0000000E-01; -9.3281311E+01;3; -2.6670563E-01;  0.0000000E+00; -7.7179812E-02;0;  3.0320663E-02;  3.9997699E+04;  0.0000000E+00; -2.7683407E-01;  4.0000000E+04;  0.0000000E+00;  3.9989828E+04;  3.0173376E-02;  0.0000000E+00;  1.4728695E-04;  1.3140140E+03;
  2.1130295E-01;  9.9999998E-03;  1.7009790E-01;3774;  4.3898080E-03;  0.0000000E+00;  5.0728564E-04;  9.9993549E+02;  1.0000000E-01; -5.3430588E+01;3; -2.9069415E-01;  0.0000000E+00;  3.7169602E-02;0;  2.9800877E-02;  4.0003863E+04;  0.0000000E+00; -3.9428377E-01;  4.0000000E+04;  0.0000000E+00;  3.9988160E+04;  2.9589541E-02;  0.0000000E+00;  2.1133486E-04;  1.6076123E+03;
  2.1124296E-01;  9.9999998E-03;  1.8007912E-01;3775;  4.3609357E-03;  0.0000000E+00;  4.9409358E-04;  9.9996863E+02;  1.0000000E-01; -2.5974573E+01;3; -3.9427808E-01;  0.0000000E+00;  2.8684685E-01;0;  2.9044097E-02;  4.0009141E+04;  0.0000000E+00; -3.9168000E-01;  4.0000000E+04;  0.0000000E+00;  3.9986211E+04;  2.8760968E-02;  0.0000000E+00;  2.8312911E-04;  1.7990326E+03;
  2.1116652E-01;  9.9999998E-03;  1.9007507E-01;3776;  4.2672777E-03;  0.0000000E+00;  4.7049046E-04;  9.9998279E+02;  1.0000000E-01; -1.4271201E+01;3; -6.2814379E-01;  0.0000000E+00;  7.4347967E-01;0;  2.8059019E-02;  4.0011980E+04;  0.0000000E+00; -1.3050508E-01;  4.0000000E+04;  0.0000000E+00;  3.9985527E+04;  2.7696295E-02;  0.0000000E+00;  3.6272450E-04;  1.8012622E+03;
  2.1106979E-01;  9.9999998E-03;  2.0010321E-01;3777;  4.1156230E-03;  0.0000000E+00;  4.6817609E-04;  9.9996222E+02;  1.0000000E-01; -3.1307756E+01;3; -1.0410658E+00;  0.0000000E+00;  1.4421946E+00;0;  2.6887175E-02;  4.0011094E+04;  0.0000000E+00;  5.3901970E-01;  4.0000000E+04;  0.0000000E+00;  3.9985867E+04;  2.6438696E-02;  0.0000000E+00;  4.4847769E-04;  1.9369365E+03;
  2.1098171E-01;  9.9999998E-03;  2.1015032E-01;3778;  3.9126738E-03;  0.0000000E+00;  4.9079797E-04;  9.9987286E+02;  1.0000000E-01; -1.0533035E+02;3; -1.6360235E+00;  0.0000000E+00;  2.3437276E+00;0;  2.5621818E-02;  4.0005305E+04;  0.0000000E+00;  1.7489656E+00;  4.0000000E+04;  0.0000000E+00;  3.9986352E+04;  2.5076918E-02;  0.0000000E+00;  5.4490042E-04;  3.1005676E+03;
  2.1089697E-01;  9.9999998E-03;  2.2021514E-01;3779;  3.6790308E-03;  0.0000000E+00;  5.2115577E-04;  9.9968689E+02;  1.0000000E-01; -2.5940009E+02;3; -2.3333890E+00;  0.0000000E+00;  3.1745076E+00;0;  2.4370359E-02;  3.9993996E+04;  0.0000000E+00;  3.6042840E+00;  4.0000000E+04;  0.0000000E+00;  3.9984332E+04;  2.3709130E-02;  0.0000000E+00;  6.6122977E-04;  5.6688999E+03;
  2.1082616E-01;  9.9999998E-03;  2.3027645E-01;3780;  3.4538410E-03;  0.0000000E+00;  4.7313346E-04;  9.9937085E+02;  1.0000000E-01; -5.2121985E+02;3; -2.9789166E+00;  0.0000000E+00;  3.1578982E+00;0;  2.3162713E-02;  3.9976027E+04;  0.0000000E+00;  6.1993756E+00;  4.0000000E+04;  0.0000000E+00;  3.9977391E+04;  2.2457235E-02;  0.0000000E+00;  7.0547796E-04;  9.5877314E+03;
  2.2173786E-01;  9.9999998E-03;  6.9993779E-02;3825;  3.8610005E-03;  0.0000000E+00;  9.5623320E-05;  9.9987177E+02;  1.0000000E-01; -1.0621922E+02;3; -3.3387318E-01;  0.0000000E+00; -7.8210041E-02;0;  3.7070636E-02;  3.9998395E+04;  0.0000000E+00;  2.6183441E-02;  4.0000000E+04;  0.0000000E+00;  3.9986703E+04;  3.7826478E-02;  0.0000000E+00; -7.5584097E-04;  1.6208395E+03;
  2.2177069E-01;  9.9999998E-03;  7.9996482E-02;3826;  3.8242280E-03;  0.0000000E+00;  6.9865921E-05;  9.9982245E+02;  1.0000000E-01; -1.4710695E+02;3; -3.2619798E-01;  0.0000000E+00; -7.9640247E-02;0;  3.6393616E-02;  3.9994074E+04;  0.0000000E+00;  4.4948842E-02;  4.0000000E+04;  0.0000000E+00;  3.9987316E+04;  3.7175015E-02;  0.0000000E+00; -7.8139722E-04;  1.5602122E+03;
  2.2178644E-01;  9.9999998E-03;  8.9998074E-02;3827;  3.8097347E-03;  0.0000000E+00;  5.2434450E-05;  9.9977026E+02;  1.0000000E-01; -1.9031560E+02;3; -3.1839994E-01;  0.0000000E+00; -8.2623795E-02;0;  3.5810336E-02;  3.9988867E+04;  0.0000000E+00;  6.8806164E-02;  4.0000000E+04;  0.0000000E+00;  3.9987973E+04;  3.6574155E-02;  0.0000000E+00; -7.6381862E-04;  1.4535560E+03;
  2.2177854E-01;  9.9999998E-03;  1.0000343E-01;3828;  3.8245686E-03;  0.0000000E+00;  4.5554698E-05;  9.9971869E+02;  1.0000000E-01; -2.3307983E+02;3; -3.1065512E-01;  0.0000000E+00; -8.5068293E-02;0;  3.5332881E-02;  3.9983820E+04;  0.0000000E+00;  9.6040234E-02;  4.0000000E+04;  0.0000000E+00;  3.9989168E+04;  3.6041591E-02;  0.0000000E+00; -7.0871209E-04;  1.3314017E+03;
  2.2173788E-01;  9.9999998E-03;  1.1001756E-01;3829;  3.8748735E-03;  0.0000000E+00;  5.7828191E-05;  9.9966492E+02;  1.0000000E-01; -2.7762177E+02;3; -3.0245274E-01;  0.0000000E+00; -8.8791132E-02;0;  3.4954686E-02;  3.9978211E+04;  0.0000000E+00;  1.2226918E-01;  4.0000000E+04;  0.0000000E+00;  3.9990195E+04;  3.5580177E-02;  0.0000000E+00; -6.2549155E-04;  1.2214869E+03;
  2.2165841E-01;  9.9999998E-03;  1.2004558E-01;3830;  3.9667510E-03;  0.0000000E+00;  1.0963704E-04;  9.9961774E+02;  1.0000000E-01; -3.1668240E+02;3; -2.9538304E-01;  0.0000000E+00; -9.8642074E-02;0;  3.4651626E-02;  3.9974090E+04;  0.0000000E+00;  1.3925911E-01;  4.0000000E+04;  0.0000000E+00;  3.9990543E+04;  3.5177458E-02;  0.0000000E+00; -5.2583084E-04;  1.1430378E+03;
  2.2154112E-01;  9.9999998E-03;  1.3009053E-01;3831;  4.1095046E-03;  0.0000000E+00;  2.4341163E-04;  9.9958691E+02;  1.0000000E-01; -3.4221255E+02;3; -2.8637782E-01;  0.0000000E+00; -1.0875861E-01;0;  3.4383047E-02;  3.9971176E+04;  0.0000000E+00;  1.3479871E-01;  4.0000000E+04;  0.0000000E+00;  3.9991070E+04;  3.4804594E-02;  0.0000000E+00; -4.2154628E-04;  1.1060007E+03;
  2.2142950E-01;  9.9999998E-03;  1.4013489E-01;3832;  4.2866436E-03;  0.0000000E+00;  4.0935795E-04;  9.9956671E+02;  1.0000000E-01; -3.5895282E+02;3; -2.7174488E-01;  0.0000000E+00; -1.0866729E-01;0;  3.4105986E-02;  3.9970148E+04;  0.0000000E+00;  9.4835058E-02;  4.0000000E+04;  0.0000000E+00;  3.9990602E+04;  3.4428209E-02;  0.0000000E+00; -3.2222411E-04;  1.1193389E+03;
  2.2135097E-01;  9.9999998E-03;  1.5015174E-01;3833;  4.4625662E-03;  0.0000000E+00;  5.2215357E-04;  9.9956238E+02;  1.0000000E-01; -3.6255765E+02;3; -2.5745189E-01;  0.0000000E+00; -1.1347318E-01;0;  3.3766408E-02;  3.9970793E+04;  0.0000000E+00;  7.8869080E-03;  4.0000000E+04;  0.0000000E+00;  3.9990398E+04;  3.3994712E-02;  0.0000000E+00; -2.2830430E-04;  1.1954523E+03;
  2.2129866E-01;  9.9999998E-03;  1.6014372E-01;3834;  4.6504182E-03;  0.0000000E+00;  5.6028512E-04;  9.9957050E+02;  1.0000000E-01; -3.5584180E+02;3; -2.2658601E-01;  0.0000000E+00; -8.9174733E-02;0;  3.3307690E-02;  3.9972836E+04;  0.0000000E+00; -1.2149190E-01;  4.0000000E+04;  0.0000000E+00;  3.9988895E+04;  3.3438437E-02;  0.0000000E+00; -1.3074491E-04;  1.3492986E+03;
  2.2125627E-01;  9.9999998E-03;  1.7011982E-01;3835;  4.9148728E-03;  0.0000000E+00;  5.2468182E-04;  9.9957953E+02;  1.0000000E-01; -3.4833582E+02;3; -1.3723624E-01;  0.0000000E+00; -1.7576428E-02;0;  3.2692600E-02;  3.9975844E+04;  0.0000000E+00; -2.4881010E-01;  4.0000000E+04;  0.0000000E+00;  3.9987535E+04;  3.2710042E-02;  0.0000000E+00; -1.7440720E-05;  1.5616136E+03;
  2.2120395E-01;  9.9999998E-03;  1.8009135E-01;3836;  5.0894110E-03;  0.0000000E+00;  4.4978881E-04;  9.9958759E+02;  1.0000000E-01; -3.4166934E+02;3; -1.5013376E-01;  0.0000000E+00;  1.5550931E-01;0;  3.1899016E-02;  3.9978711E+04;  0.0000000E+00; -2.7753830E-01;  4.0000000E+04;  0.0000000E+00;  3.9986000E+04;  3.1782098E-02;  0.0000000E+00;  1.1691645E-04;  1.7392344E+03;
  2.2113006E-01;  9.9999998E-03;  1.9007218E-01;3837;  4.7835899E-03;  0.0000000E+00;  4.2366821E-04;  9.9958655E+02;  1.0000000E-01; -3.4255823E+02;3; -4.6845764E-01;  0.0000000E+00;  5.3761297E-01;0;  3.0912520E-02;  3.9980129E+04;  0.0000000E+00; -6.8478756E-02;  4.0000000E+04;  0.0000000E+00;  3.9985570E+04;  3.0637583E-02;  0.0000000E+00;  2.7493783E-04;  1.7896067E+03;
  2.2103181E-01;  9.9999998E-03;  2.0007885E-01;3838;  4.4562253E-03;  0.0000000E+00;  4.0208589E-04;  9.9956854E+02;  1.0000000E-01; -3.5747137E+02;3; -9.4549567E-01;  0.0000000E+00;  1.0998511E+00;0;  2.9762737E-02;  3.9979945E+04;  0.0000000E+00;  5.3414041E-01;  4.0000000E+04;  0.0000000E+00;  3.9985250E+04;  2.9316761E-02;  0.0000000E+00;  4.4597691E-04;  1.9573497E+03;
  2.2093929E-01;  9.9999998E-03;  2.1010904E-01;3839;  4.1605993E-03;  0.0000000E+00;  4.0440334E-04;  9.9950458E+02;  1.0000000E-01; -4.1045752E+02;3; -1.5406038E+00;  0.0000000E+00;  1.8265170E+00;0;  2.8514383E-02;  3.9976223E+04;  0.0000000E+00;  1.6724200E+00;  4.0000000E+04;  0.0000000E+00;  3.9985652E+04;  2.7886791E-02;  0.0000000E+00;  6.2759221E-04;  3.0506555E+03;
  2.2087052E-01;  9.9999998E-03;  2.2014998E-01;3840;  3.8855446E-03;  0.0000000E+00;  4.1444728E-04;  9.9937140E+02;  1.0000000E-01; -5.2077539E+02;3; -2.2762473E+00;  0.0000000E+00;  2.5163848E+00;0;  2.7255550E-02;  3.9968746E+04;  0.0000000E+00;  3.4544621E+00;  4.0000000E+04;  0.0000000E+00;  3.9984223E+04;  2.6436947E-02;  0.0000000E+00;  8.1860321E-04;  5.4646660E+03;
  2.2081506E-01;  9.9999998E-03;  2.3019513E-01;3841;  3.6562306E-03;  0.0000000E+00;  3.5933804E-04;  9.9913776E+02;  1.0000000E-01; -7.1435016E+02;3; -3.0395927E+00;  0.0000000E+00;  2.5790319E+00;0;  2.5994664E-02;  3.9956328E+04;  0.0000000E+00;  5.9768181E+00;  4.0000000E+04;  0.0000000E+00;  3.9979262E+04;  2.5076268E-02;  0.0000000E+00;  9.1839512E-04;  9.2215039E+03;
  2.3162399E-01;  9.9999998E-03;  7.0000030E-02;3886;  4.0488886E-03;  0.0000000E+00;  1.3417099E-04;  9.9983783E+02;  1.0000000E-01; -1.3436658E+02;3; -3.3308765E-01;  0.0000000E+00; -1.0628982E-01;0;  3.9744977E-02;  3.9996871E+04;  0.0000000E+00;  5.3988773E-02;  4.0000000E+04;  0.0000000E+00;  3.9986883E+04;  4.0800497E-02;  0.0000000E+00; -1.0555213E-03;  1.6481656E+03;
  2.3168011E-01;  9.9999998E-03;  7.9999201E-02;3887;  3.9714943E-03;  0.0000000E+00;  9.8862445E-05;  9.9979651E+02;  1.0000000E-01; -1.6858783E+02;3; -3.2593453E-01;  0.0000000E+00; -1.0478155E-01;0;  3.9157227E-02;  3.9993266E+04;  0.0000000E+00;  7.6942697E-02;  4.0000000E+04;  0.0000000E+00;  3.9987070E+04;  4.0250801E-02;  0.0000000E+00; -1.0935731E-03;  1.6234596E+03;
  2.3172721E-01;  9.9999998E-03;  8.9994594E-02;3888;  3.9388598E-03;  0.0000000E+00;  7.4915093E-05;  9.9974469E+02;  1.0000000E-01; -2.1150020E+02;3; -3.1670874E-01;  0.0000000E+00; -1.0337588E-01;0;  3.8600378E-02;  3.9988445E+04;  0.0000000E+00;  1.0576995E-01;  4.0000000E+04;  0.0000000E+00;  3.9987340E+04;  3.9691649E-02;  0.0000000E+00; -1.0912725E-03;  1.5527494E+03;
  2.3176256E-01;  9.9999998E-03;  9.9990584E-02;3889;  3.9449027E-03;  0.0000000E+00;  5.6642868E-05;  9.9967761E+02;  1.0000000E-01; -2.6710355E+02;3; -3.0757204E-01;  0.0000000E+00; -1.0486724E-01;0;  3.8082462E-02;  3.9982480E+04;  0.0000000E+00;  1.4067096E-01;  4.0000000E+04;  0.0000000E+00;  3.9987957E+04;  3.9135233E-02;  0.0000000E+00; -1.0527722E-03;  1.4634344E+03;
  2.3177680E-01;  9.9999998E-03;  1.0999292E-01;3890;  3.9981990E-03;  0.0000000E+00;  5.6497967E-05;  9.9960120E+02;  1.0000000E-01; -3.3041040E+02;3; -3.0005276E-01;  0.0000000E+00; -1.1350000E-01;0;  3.7600603E-02;  3.9975605E+04;  0.0000000E+00;  1.7970471E-01;  4.0000000E+04;  0.0000000E+00;  3.9988840E+04;  3.8586024E-02;  0.0000000E+00; -9.8542054E-04;  1.3793411E+03;
  2.3175770E-01;  9.9999998E-03;  1.2000658E-01;3891;  4.1108089E-03;  0.0000000E+00;  8.9175184E-05;  9.9951752E+02;  1.0000000E-01; -3.9974179E+02;3; -2.9346535E-01;  0.0000000E+00; -1.3010207E-01;0;  3.7139874E-02;  3.9968086E+04;  0.0000000E+00;  2.1709789E-01;  4.0000000E+04;  0.0000000E+00;  3.9989234E+04;  3.8038120E-02;  0.0000000E+00; -8.9824427E-04;  1.3146981E+03;
  2.3169354E-01;  9.9999998E-03;  1.3003471E-01;3892;  4.3023666E-03;  0.0000000E+00;  1.5807713E-04;  9.9943713E+02;  1.0000000E-01; -4.6630780E+02;3; -2.7969900E-01;  0.0000000E+00; -1.4721520E-01;0;  3.6674224E-02;  3.9961199E+04;  0.0000000E+00;  2.4204732E-01;  4.0000000E+04;  0.0000000E+00;  3.9989676E+04;  3.7473977E-02;  0.0000000E+00; -7.9975463E-04;  1.2725448E+03;
  2.3157641E-01;  9.9999998E-03;  1.4007610E-01;3893;  4.6373298E-03;  0.0000000E+00;  2.1528818E-04;  9.9936414E+02;  1.0000000E-01; -5.2679993E+02;3; -2.3654900E-01;  0.0000000E+00; -1.5788969E-01;0;  3.6171265E-02;  3.9955152E+04;  0.0000000E+00;  2.3902293E-01;  4.0000000E+04;  0.0000000E+00;  3.9989844E+04;  3.6865611E-02;  0.0000000E+00; -6.9434446E-04;  1.2483326E+03;
  2.3144901E-01;  9.9999998E-03;  1.5011473E-01;3894;  6.1698803E-03;  0.0000000E+00;  1.2152578E-04;  9.9930768E+02;  1.0000000E-01; -5.7356403E+02;3;  2.5060490E-01;  0.0000000E+00; -1.6014349E-01;0;  3.5627250E-02;  3.9950836E+04;  0.0000000E+00;  1.9131383E-01;  4.0000000E+04;  0.0000000E+00;  3.9989922E+04;  3.6207836E-02;  0.0000000E+00; -5.8058661E-04;  1.2433781E+03;
  2.3137341E-01;  9.9999998E-03;  1.6012374E-01;3895;  7.4700671E-03;  0.0000000E+00; -5.8107027E-05;  9.9926373E+02;  1.0000000E-01; -6.1000745E+02;3;  4.6521297E-01;  0.0000000E+00; -1.5857005E-01;0;  3.5014309E-02;  3.9948297E+04;  0.0000000E+00;  9.4054423E-02;  4.0000000E+04;  0.0000000E+00;  3.9989195E+04;  3.5467971E-02;  0.0000000E+00; -4.5366396E-04;  1.2800818E+03;
  2.3133644E-01;  9.9999998E-03;  1.7010435E-01;3896;  7.8844521E-03;  0.0000000E+00; -2.3098622E-04;  9.9923163E+02;  1.0000000E-01; -6.3657458E+02;3;  5.2649981E-01;  0.0000000E+00; -1.3065808E-01;0;  3.4294046E-02;  3.9947293E+04;  0.0000000E+00; -2.1515220E-02;  4.0000000E+04;  0.0000000E+00;  3.9988336E+04;  3.4607280E-02;  0.0000000E+00; -3.1323204E-04;  1.3814551E+03;
  2.3128475E-01;  9.9999998E-03;  1.8007220E-01;3897;  7.9008406E-03;  0.0000000E+00; -3.6472912E-04;  9.9920654E+02;  1.0000000E-01; -6.5736414E+02;3;  4.3957403E-01;  0.0000000E+00; -5.0125495E-03;0;  3.3454575E-02;  3.9946762E+04;  0.0000000E+00; -7.2231263E-02;  4.0000000E+04;  0.0000000E+00;  3.9987379E+04;  3.3624593E-02;  0.0000000E+00; -1.7001756E-04;  1.5051683E+03;
  2.3121327E-01;  9.9999998E-03;  1.9004184E-01;3898;  7.5931121E-03;  0.0000000E+00; -4.3359661E-04;  9.9918713E+02;  1.0000000E-01; -6.7346246E+02;3;  1.6656628E-01;  0.0000000E+00;  2.6291221E-01;0;  3.2487832E-02;  3.9946570E+04;  0.0000000E+00;  7.0043549E-02;  4.0000000E+04;  0.0000000E+00;  3.9986719E+04;  3.2531202E-02;  0.0000000E+00; -4.3368756E-05;  1.5646537E+03;
  2.3112062E-01;  9.9999998E-03;  2.0002645E-01;3899;  6.7811138E-03;  0.0000000E+00; -3.4784238E-04;  9.9916876E+02;  1.0000000E-01; -6.8867188E+02;3; -3.5095575E-01;  0.0000000E+00;  7.2832173E-01;0;  3.1405337E-02;  3.9945430E+04;  0.0000000E+00;  5.5343688E-01;  4.0000000E+04;  0.0000000E+00;  3.9987480E+04;  3.1316917E-02;  0.0000000E+00;  8.8421424E-05;  1.7072178E+03;
  2.3100939E-01;  9.9999998E-03;  2.1003827E-01;3900;  5.2920692E-03;  0.0000000E+00;  2.1516184E-05;  9.9913416E+02;  1.0000000E-01; -7.1731305E+02;3; -1.0957394E+00;  0.0000000E+00;  1.3779478E+00;0;  3.0324850E-02;  3.9943359E+04;  0.0000000E+00;  1.5230949E+00;  4.0000000E+04;  0.0000000E+00;  3.9988555E+04;  2.9904369E-02;  0.0000000E+00;  4.2048030E-04;  2.6436772E+03;
  2.3090568E-01;  9.9999998E-03;  2.2006787E-01;3901;  4.3437593E-03;  0.0000000E+00;  2.0586379E-04;  9.9906677E+02;  1.0000000E-01; -7.7316333E+02;3; -1.9903383E+00;  0.0000000E+00;  2.0918450E+00;0;  2.9206803E-02;  3.9939555E+04;  0.0000000E+00;  3.1155481E+00;  4.0000000E+04;  0.0000000E+00;  3.9988805E+04;  2.8425192E-02;  0.0000000E+00;  7.8161061E-04;  4.8105054E+03;
  2.3085243E-01;  9.9999998E-03;  2.3009969E-01;3902;  4.0001371E-03;  0.0000000E+00;  1.9602256E-04;  9.9892804E+02;  1.0000000E-01; -8.8812305E+02;3; -2.7537751E+00;  0.0000000E+00;  2.4506581E+00;0;  2.8034402E-02;  3.9932301E+04;  0.0000000E+00;  5.3923669E+00;  4.0000000E+04;  0.0000000E+00;  3.9986828E+04;  2.7069433E-02;  0.0000000E+00;  9.6496858E-04;  8.1554448E+03;
  2.4149641E-01;  9.9999998E-03;  7.0009090E-02;3947;  5.1944968E-03;  0.0000000E+00;  5.6644396E-05;  9.9975317E+02;  1.0000000E-01; -2.0448804E+02;3; -1.6536908E-02;  0.0000000E+00; -1.3538153E-01;0;  4.0607523E-02;  3.9990793E+04;  0.0000000E+00;  7.1647532E-02;  4.0000000E+04;  0.0000000E+00;  3.9987746E+04;  4.1960604E-02;  0.0000000E+00; -1.3530828E-03;  1.5421392E+03;
  2.4156027E-01;  9.9999998E-03;  8.0008231E-02;3948;  4.5410041E-03;  0.0000000E+00; -3.4750246E-06;  9.9973779E+02;  1.0000000E-01; -2.1722842E+02;3; -2.6598278E-01;  0.0000000E+00; -1.3505980E-01;0;  4.0167563E-02;  3.9989363E+04;  0.0000000E+00;  9.6629947E-02;  4.0000000E+04;  0.0000000E+00;  3.9987312E+04;  4.1570429E-02;  0.0000000E+00; -1.4028667E-03;  1.5462687E+03;
  2.4162199E-01;  9.9999998E-03;  9.0002306E-02;3949;  4.3522906E-03;  0.0000000E+00; -5.5329521E-05;  9.9970380E+02;  1.0000000E-01; -2.4537578E+02;3; -2.8143907E-01;  0.0000000E+00; -1.4050287E-01;0;  3.9682653E-02;  3.9986027E+04;  0.0000000E+00;  1.2795815E-01;  4.0000000E+04;  0.0000000E+00;  3.9987633E+04;  4.1098494E-02;  0.0000000E+00; -1.4158412E-03;  1.5024277E+03;
  2.4167925E-01;  9.9999998E-03;  9.9994965E-02;3950;  4.3146936E-03;  0.0000000E+00; -1.0097904E-04;  9.9965082E+02;  1.0000000E-01; -2.8927576E+02;3; -2.6982814E-01;  0.0000000E+00; -1.5082136E-01;0;  3.9152130E-02;  3.9981027E+04;  0.0000000E+00;  1.6759594E-01;  4.0000000E+04;  0.0000000E+00;  3.9988516E+04;  4.0546570E-02;  0.0000000E+00; -1.3944401E-03;  1.4344287E+03;
  2.4172851E-01;  9.9999998E-03;  1.0999033E-01;3951;  4.3978672E-03;  0.0000000E+00; -1.4595654E-04;  9.9957251E+02;  1.0000000E-01; -3.5416281E+02;3; -2.5330904E-01;  0.0000000E+00; -1.6452646E-01;0;  3.8576994E-02;  3.9974082E+04;  0.0000000E+00;  2.1625052E-01;  4.0000000E+04;  0.0000000E+00;  3.9989164E+04;  3.9920926E-02;  0.0000000E+00; -1.3439312E-03;  1.3645837E+03;
  2.4176116E-01;  9.9999998E-03;  1.1999097E-01;3952;  4.7062710E-03;  0.0000000E+00; -1.9731483E-04;  9.9947272E+02;  1.0000000E-01; -4.3682715E+02;3; -1.7168620E-01;  0.0000000E+00; -1.8821165E-01;0;  3.7952758E-02;  3.9965449E+04;  0.0000000E+00;  2.7142948E-01;  4.0000000E+04;  0.0000000E+00;  3.9989594E+04;  3.9223455E-02;  0.0000000E+00; -1.2706947E-03;  1.3074836E+03;
  2.4176440E-01;  9.9999998E-03;  1.3000046E-01;3953;  6.1636860E-03;  0.0000000E+00; -2.3747781E-04;  9.9936194E+02;  1.0000000E-01; -5.2862701E+02;3;  3.0148897E-01;  0.0000000E+00; -2.0235385E-01;0;  3.7275009E-02;  3.9955777E+04;  0.0000000E+00;  3.2551268E-01;  4.0000000E+04;  0.0000000E+00;  3.9990078E+04;  3.8454741E-02;  0.0000000E+00; -1.1797332E-03;  1.2669320E+03;
  2.4174100E-01;  9.9999998E-03;  1.4001523E-01;3954;  8.1148008E-03;  0.0000000E+00; -3.5454115E-04;  9.9924713E+02;  1.0000000E-01; -6.2373547E+02;3;  6.9066203E-01;  0.0000000E+00; -2.0550501E-01;0;  3.6551632E-02;  3.9946008E+04;  0.0000000E+00;  3.6465684E-01;  4.0000000E+04;  0.0000000E+00;  3.9990695E+04;  3.7624821E-02;  0.0000000E+00; -1.0731902E-03;  1.2366945E+03;
  2.4168311E-01;  9.9999998E-03;  1.5003914E-01;3955;  8.5787000E-03;  0.0000000E+00; -4.8629908E-04;  9.9913934E+02;  1.0000000E-01; -7.1301685E+02;3;  7.9719478E-01;  0.0000000E+00; -2.2164537E-01;0;  3.5789743E-02;  3.9937113E+04;  0.0000000E+00;  3.6986265E-01;  4.0000000E+04;  0.0000000E+00;  3.9990855E+04;  3.6735855E-02;  0.0000000E+00; -9.4611052E-04;  1.2049620E+03;
  2.4159312E-01;  9.9999998E-03;  1.6006187E-01;3956;  8.6588506E-03;  0.0000000E+00; -5.6495256E-04;  9.9904443E+02;  1.0000000E-01; -7.9168134E+02;3;  7.9748195E-01;  0.0000000E+00; -2.3362032E-01;0;  3.5003562E-02;  3.9929504E+04;  0.0000000E+00;  3.2566386E-01;  4.0000000E+04;  0.0000000E+00;  3.9990973E+04;  3.5799269E-02;  0.0000000E+00; -7.9570705E-04;  1.1717083E+03;
  2.4148539E-01;  9.9999998E-03;  1.7006245E-01;3957;  8.6445101E-03;  0.0000000E+00; -6.3248171E-04;  9.9896344E+02;  1.0000000E-01; -8.5879053E+02;3;  7.5572836E-01;  0.0000000E+00; -2.1051371E-01;0;  3.4201436E-02;  3.9924004E+04;  0.0000000E+00;  2.4481411E-01;  4.0000000E+04;  0.0000000E+00;  3.9990426E+04;  3.4830008E-02;  0.0000000E+00; -6.2857021E-04;  1.1666338E+03;
  2.4137875E-01;  9.9999998E-03;  1.8004209E-01;3958;  8.5720289E-03;  0.0000000E+00; -7.1148598E-04;  9.9890088E+02;  1.0000000E-01; -9.1059155E+02;3;  6.6554546E-01;  0.0000000E+00; -1.2267555E-01;0;  3.3376809E-02;  3.9920020E+04;  0.0000000E+00;  1.8872838E-01;  4.0000000E+04;  0.0000000E+00;  3.9990406E+04;  3.3840198E-02;  0.0000000E+00; -4.6338845E-04;  1.2088246E+03;
  2.4128130E-01;  9.9999998E-03;  1.9001174E-01;3959;  8.4318658E-03;  0.0000000E+00; -7.9347257E-04;  9.9885114E+02;  1.0000000E-01; -9.5182495E+02;3;  4.8457617E-01;  0.0000000E+00;  7.6562986E-02;0;  3.2509983E-02;  3.9917156E+04;  0.0000000E+00;  2.6498008E-01;  4.0000000E+04;  0.0000000E+00;  3.9989703E+04;  3.2844935E-02;  0.0000000E+00; -3.3495334E-04;  1.2584623E+03;
  2.4118827E-01;  9.9999998E-03;  1.9998455E-01;3960;  8.1769451E-03;  0.0000000E+00; -8.9562108E-04;  9.9882812E+02;  1.0000000E-01; -9.7088611E+02;3;  1.4409105E-01;  0.0000000E+00;  4.2173883E-01;0;  3.1551264E-02;  3.9915059E+04;  0.0000000E+00;  6.0544294E-01;  4.0000000E+04;  0.0000000E+00;  3.9991090E+04;  3.1859908E-02;  0.0000000E+00; -3.0864507E-04;  1.3939178E+03;
  2.4109809E-01;  9.9999998E-03;  2.0997205E-01;3961;  7.5563653E-03;  0.0000000E+00; -9.0125646E-04;  9.9881757E+02;  1.0000000E-01; -9.7962659E+02;3; -4.7237977E-01;  0.0000000E+00;  9.6696180E-01;0;  3.0476144E-02;  3.9913121E+04;  0.0000000E+00;  1.3391705E+00;  4.0000000E+04;  0.0000000E+00;  3.9993457E+04;  3.0865217E-02;  0.0000000E+00; -3.8907269E-04;  2.1223562E+03;
  2.4099839E-01;  9.9999998E-03;  2.1998771E-01;3962;  6.0115531E-03;  0.0000000E+00; -4.5424022E-04;  9.9880487E+02;  1.0000000E-01; -9.9014484E+02;3; -1.3099017E+00;  0.0000000E+00;  1.6846198E+00;0;  2.9651165E-02;  3.9911215E+04;  0.0000000E+00;  2.5948553E+00;  4.0000000E+04;  0.0000000E+00;  3.9996117E+04;  2.9675499E-02;  0.0000000E+00; -2.4334004E-05;  3.8799517E+03;
  2.4093843E-01;  9.9999998E-03;  2.3001932E-01;3963;  4.5536710E-03;  0.0000000E+00; -1.1129437E-05;  9.9874554E+02;  1.0000000E-01; -1.0392793E+03;3; -2.2448583E+00;  0.0000000E+00;  2.2930825E+00;0;  2.9085552E-02;  3.9908109E+04;  0.0000000E+00;  4.4343758E+00;  4.0000000E+04;  0.0000000E+00;  3.9996309E+04;  2.8299179E-02;  0.0000000E+00;  7.8637293E-04;  6.6093506E+03;
  2.5144184E-01;  9.9999998E-03;  7.0008710E-02;4008;  8.9805638E-03;  0.0000000E+00; -2.9087294E-04;  9.9964398E+02;  1.0000000E-01; -2.9495462E+02;3;  9.4669825E-01;  0.0000000E+00; -1.0116488E-01;0;  3.9502293E-02;  3.9981539E+04;  0.0000000E+00;  7.3465206E-02;  4.0000000E+04;  0.0000000E+00;  3.9989305E+04;  4.1132696E-02;  0.0000000E+00; -1.6304017E-03;  1.3398297E+03;
  2.5148267E-01;  9.9999998E-03;  8.0009349E-02;4009;  8.7536508E-03;  0.0000000E+00; -3.2404071E-04;  9.9966364E+02;  1.0000000E-01; -2.7865878E+02;3;  8.6483198E-01;  0.0000000E+00; -1.0917889E-01;0;  3.9245903E-02;  3.9983281E+04;  0.0000000E+00;  9.7128898E-02;  4.0000000E+04;  0.0000000E+00;  3.9988926E+04;  4.0934976E-02;  0.0000000E+00; -1.6890736E-03;  1.3684059E+03;
  2.5153327E-01;  9.9999998E-03;  9.0004258E-02;4010;  8.2470411E-03;  0.0000000E+00; -3.3255180E-04;  9.9966400E+02;  1.0000000E-01; -2.7836249E+02;3;  7.2107345E-01;  0.0000000E+00; -1.2186412E-01;0;  3.8865581E-02;  3.9982918E+04;  0.0000000E+00;  1.2731920E-01;  4.0000000E+04;  0.0000000E+00;  3.9989062E+04;  4.0580641E-02;  0.0000000E+00; -1.7150602E-03;  1.3463745E+03;
  2.5159600E-01;  9.9999998E-03;  9.9995971E-02;4011;  7.6000523E-03;  0.0000000E+00; -3.5892538E-04;  9.9964166E+02;  1.0000000E-01; -2.9688049E+02;3;  5.9948856E-01;  0.0000000E+00; -1.4606607E-01;0;  3.8358565E-02;  3.9980387E+04;  0.0000000E+00;  1.6744308E-01;  4.0000000E+04;  0.0000000E+00;  3.9989645E+04;  4.0067453E-02;  0.0000000E+00; -1.7088893E-03;  1.2928149E+03;
  2.5166675E-01;  9.9999998E-03;  1.0998753E-01;4012;  7.7018952E-03;  0.0000000E+00; -4.0423620E-04;  9.9958325E+02;  1.0000000E-01; -3.4527420E+02;3;  6.2223786E-01;  0.0000000E+00; -1.6270518E-01;0;  3.7724689E-02;  3.9974680E+04;  0.0000000E+00;  2.2054283E-01;  4.0000000E+04;  0.0000000E+00;  3.9990312E+04;  3.9397988E-02;  0.0000000E+00; -1.6733014E-03;  1.2285831E+03;
  2.5174358E-01;  9.9999998E-03;  1.1998070E-01;4013;  8.3729131E-03;  0.0000000E+00; -4.5198391E-04;  9.9949310E+02;  1.0000000E-01; -4.1993875E+02;3;  7.5739622E-01;  0.0000000E+00; -1.7064154E-01;0;  3.6967885E-02;  3.9966895E+04;  0.0000000E+00;  2.8740689E-01;  4.0000000E+04;  0.0000000E+00;  3.9990832E+04;  3.8579870E-02;  0.0000000E+00; -1.6119838E-03;  1.1716146E+03;
  2.5182027E-01;  9.9999998E-03;  1.2997703E-01;4014;  8.6563518E-03;  0.0000000E+00; -5.0417572E-04;  9.9937750E+02;  1.0000000E-01; -5.1573853E+02;3;  8.4165359E-01;  0.0000000E+00; -1.8087967E-01;0;  3.6114693E-02;  3.9956656E+04;  0.0000000E+00;  3.6437428E-01;  4.0000000E+04;  0.0000000E+00;  3.9991648E+04;  3.7642393E-02;  0.0000000E+00; -1.5277008E-03;  1.1335127E+03;
  2.5187197E-01;  9.9999998E-03;  1.3997835E-01;4015;  8.7293694E-03;  0.0000000E+00; -5.4281327E-04;  9.9924280E+02;  1.0000000E-01; -6.2734027E+02;3;  8.5723728E-01;  0.0000000E+00; -1.9786033E-01;0;  3.5209466E-02;  3.9944848E+04;  0.0000000E+00;  4.4119659E-01;  4.0000000E+04;  0.0000000E+00;  3.9992215E+04;  3.6629062E-02;  0.0000000E+00; -1.4195977E-03;  1.1156094E+03;
  2.5186998E-01;  9.9999998E-03;  1.4998759E-01;4016;  8.7492391E-03;  0.0000000E+00; -5.7221123E-04;  9.9910162E+02;  1.0000000E-01; -7.4427527E+02;3;  8.3942264E-01;  0.0000000E+00; -2.1017818E-01;0;  3.4306783E-02;  3.9932699E+04;  0.0000000E+00;  5.0032616E-01;  4.0000000E+04;  0.0000000E+00;  3.9992621E+04;  3.5590839E-02;  0.0000000E+00; -1.2840542E-03;  1.1057476E+03;
  2.5178429E-01;  9.9999998E-03;  1.6000117E-01;4017;  8.7526049E-03;  0.0000000E+00; -6.0889299E-04;  9.9895685E+02;  1.0000000E-01; -8.6422247E+02;3;  8.1536829E-01;  0.0000000E+00; -2.1977888E-01;0;  3.3455353E-02;  3.9921074E+04;  0.0000000E+00;  5.2033079E-01;  4.0000000E+04;  0.0000000E+00;  3.9993547E+04;  3.4574628E-02;  0.0000000E+00; -1.1192763E-03;  1.0817051E+03;
  2.5164077E-01;  9.9999998E-03;  1.7001007E-01;4018;  8.7308446E-03;  0.0000000E+00; -6.5633439E-04;  9.9883002E+02;  1.0000000E-01; -9.6930591E+02;3;  7.8020996E-01;  0.0000000E+00; -2.1018210E-01;0;  3.2675177E-02;  3.9910867E+04;  0.0000000E+00;  4.9399817E-01;  4.0000000E+04;  0.0000000E+00;  3.9993254E+04;  3.3607613E-02;  0.0000000E+00; -9.3243725E-04;  1.0385177E+03;
  2.5148743E-01;  9.9999998E-03;  1.8000463E-01;4019;  8.6686919E-03;  0.0000000E+00; -7.2268664E-04;  9.9871893E+02;  1.0000000E-01; -1.0613527E+03;3;  7.1308309E-01;  0.0000000E+00; -1.5285879E-01;0;  3.1961478E-02;  3.9902430E+04;  0.0000000E+00;  4.5440432E-01;  4.0000000E+04;  0.0000000E+00;  3.9993156E+04;  3.2704439E-02;  0.0000000E+00; -7.4296101E-04;  1.0078312E+03;
  2.5134784E-01;  9.9999998E-03;  1.8998468E-01;4020;  8.5515678E-03;  0.0000000E+00; -8.1018067E-04;  9.9863470E+02;  1.0000000E-01; -1.1311285E+03;3;  5.7615352E-01;  0.0000000E+00; -1.4586737E-02;0;  3.1288642E-02;  3.9896230E+04;  0.0000000E+00;  4.8044789E-01;  4.0000000E+04;  0.0000000E+00;  3.9993066E+04;  3.1876881E-02;  0.0000000E+00; -5.8823935E-04;  1.0251348E+03;
  2.5122923E-01;  9.9999998E-03;  1.9995740E-01;4021;  8.3704237E-03;  0.0000000E+00; -9.1282639E-04;  9.9858636E+02;  1.0000000E-01; -1.1711768E+03;3;  3.2732287E-01;  0.0000000E+00;  2.4071023E-01;0;  3.0601412E-02;  3.9892195E+04;  0.0000000E+00;  6.8155974E-01;  4.0000000E+04;  0.0000000E+00;  3.9994375E+04;  3.1132773E-02;  0.0000000E+00; -5.3136057E-04;  1.1646627E+03;
  2.5113359E-01;  9.9999998E-03;  2.0993507E-01;4022;  8.0847451E-03;  0.0000000E+00; -1.0196168E-03;  9.9858478E+02;  1.0000000E-01; -1.1724607E+03;3; -7.2591580E-02;  0.0000000E+00;  6.5634352E-01;0;  2.9805616E-02;  3.9889910E+04;  0.0000000E+00;  1.1732683E+00;  4.0000000E+04;  0.0000000E+00;  3.9997668E+04;  3.0469652E-02;  0.0000000E+00; -6.6403602E-04;  1.7553710E+03;
  2.5106624E-01;  9.9999998E-03;  2.1993193E-01;4023;  7.4311108E-03;  0.0000000E+00; -1.0097417E-03;  9.9861761E+02;  1.0000000E-01; -1.1453009E+03;3; -7.1631211E-01;  0.0000000E+00;  1.2856905E+00;0;  2.8895402E-02;  3.9888895E+04;  0.0000000E+00;  2.0488846E+00;  4.0000000E+04;  0.0000000E+00;  4.0003223E+04;  2.9827699E-02;  0.0000000E+00; -9.3229662E-04;  3.1017180E+03;
  2.5100145E-01;  9.9999998E-03;  2.2996505E-01;4024;  5.8565270E-03;  0.0000000E+00; -4.9842964E-04;  9.9861749E+02;  1.0000000E-01; -1.1453997E+03;3; -1.5516697E+00;  0.0000000E+00;  1.9445637E+00;0;  2.8683299E-02;  3.9889195E+04;  0.0000000E+00;  3.4051104E+00;  4.0000000E+04;  0.0000000E+00;  4.0004957E+04;  2.8937031E-02;  0.0000000E+00; -2.5373162E-04;  5.1409849E+03;
  2.6146698E-01;  9.9999998E-03;  7.0002638E-02;4069;  9.1549363E-03;  0.0000000E+00; -2.7810948E-04;  9.9953632E+02;  1.0000000E-01; -3.8413730E+02;3;  9.9001229E-01;  0.0000000E+00; -9.0615377E-02;0;  3.6664031E-02;  3.9971828E+04;  0.0000000E+00;  5.8798559E-02;  4.0000000E+04;  0.0000000E+00;  3.9991219E+04;  3.8532645E-02;  0.0000000E+00; -1.8686118E-03;  1.0799867E+03;
  2.6147988E-01;  9.9999998E-03;  8.0004528E-02;4070;  9.0595298E-03;  0.0000000E+00; -3.2851662E-04;  9.9959467E+02;  1.0000000E-01; -3.3579297E+02;3;  9.7351587E-01;  0.0000000E+00; -1.0384773E-01;0;  3.6599234E-02;  3.9976855E+04;  0.0000000E+00;  7.7280186E-02;  4.0000000E+04;  0.0000000E+00;  3.9991074E+04;  3.8532835E-02;  0.0000000E+00; -1.9335991E-03;  1.1314054E+03;
  2.6151392E-01;  9.9999998E-03;  9.0000562E-02;4071;  8.9633297E-03;  0.0000000E+00; -3.7392453E-04;  9.9963470E+02;  1.0000000E-01; -3.0265811E+02;3;  9.5163155E-01;  0.0000000E+00; -1.1731756E-01;0;  3.6359645E-02;  3.9979988E+04;  0.0000000E+00;  1.0214952E-01;  4.0000000E+04;  0.0000000E+00;  3.9990988E+04;  3.8329225E-02;  0.0000000E+00; -1.9695787E-03;  1.1305907E+03;
  2.6157400E-01;  9.9999998E-03;  9.9993557E-02;4072;  8.8738129E-03;  0.0000000E+00; -4.1350606E-04;  9.9964594E+02;  1.0000000E-01; -2.9332504E+02;3;  9.2282450E-01;  0.0000000E+00; -1.2922959E-01;0;  3.5927039E-02;  3.9980609E+04;  0.0000000E+00;  1.3785563E-01;  4.0000000E+04;  0.0000000E+00;  3.9991367E+04;  3.7902445E-02;  0.0000000E+00; -1.9754043E-03;  1.0900792E+03;
  2.6165289E-01;  9.9999998E-03;  1.0998490E-01;4073;  8.8128792E-03;  0.0000000E+00; -4.4884867E-04;  9.9963037E+02;  1.0000000E-01; -3.0621356E+02;3;  9.0444636E-01;  0.0000000E+00; -1.4070639E-01;0;  3.5303503E-02;  3.9978281E+04;  0.0000000E+00;  1.8922949E-01;  4.0000000E+04;  0.0000000E+00;  3.9992133E+04;  3.7254993E-02;  0.0000000E+00; -1.9514908E-03;  1.0280734E+03;
  2.6174733E-01;  9.9999998E-03;  1.1997634E-01;4074;  8.7895747E-03;  0.0000000E+00; -4.8229864E-04;  9.9957257E+02;  1.0000000E-01; -3.5411343E+02;3;  8.9918721E-01;  0.0000000E+00; -1.5421048E-01;0;  3.4511950E-02;  3.9972523E+04;  0.0000000E+00;  2.5983503E-01;  4.0000000E+04;  0.0000000E+00;  3.9992590E+04;  3.6411289E-02;  0.0000000E+00; -1.8993403E-03;  9.6599353E+02;
  2.6184386E-01;  9.9999998E-03;  1.2996899E-01;4075;  8.7796319E-03;  0.0000000E+00; -5.1087537E-04;  9.9947644E+02;  1.0000000E-01; -4.3376550E+02;3;  8.8867837E-01;  0.0000000E+00; -1.6714305E-01;0;  3.3602372E-02;  3.9963586E+04;  0.0000000E+00;  3.4974927E-01;  4.0000000E+04;  0.0000000E+00;  3.9993488E+04;  3.5422303E-02;  0.0000000E+00; -1.8199326E-03;  9.2688000E+02;
  2.6192221E-01;  9.9999998E-03;  1.3996586E-01;4076;  8.7740542E-03;  0.0000000E+00; -5.3486216E-04;  9.9934314E+02;  1.0000000E-01; -5.4418213E+02;3;  8.6981982E-01;  0.0000000E+00; -1.7751233E-01;0;  3.2644000E-02;  3.9951922E+04;  0.0000000E+00;  4.5303041E-01;  4.0000000E+04;  0.0000000E+00;  3.9994238E+04;  3.4356784E-02;  0.0000000E+00; -1.7127858E-03;  9.2889014E+02;
  2.6193967E-01;  9.9999998E-03;  1.4996633E-01;4077;  8.7735662E-03;  0.0000000E+00; -5.6160957E-04;  9.9918658E+02;  1.0000000E-01; -6.7390686E+02;3;  8.4799713E-01;  0.0000000E+00; -1.8772756E-01;0;  3.1719148E-02;  3.9938129E+04;  0.0000000E+00;  5.5570674E-01;  4.0000000E+04;  0.0000000E+00;  3.9994938E+04;  3.3294849E-02;  0.0000000E+00; -1.5757018E-03;  9.6956543E+02;
  2.6187915E-01;  9.9999998E-03;  1.5997002E-01;4078;  8.7677995E-03;  0.0000000E+00; -5.9275510E-04;  9.9901392E+02;  1.0000000E-01; -8.1696454E+02;3;  8.2490361E-01;  0.0000000E+00; -1.9594787E-01;0;  3.0894224E-02;  3.9923297E+04;  0.0000000E+00;  6.3619870E-01;  4.0000000E+04;  0.0000000E+00;  3.9995602E+04;  3.2302678E-02;  0.0000000E+00; -1.4084531E-03;  1.0190225E+03;
  2.6175731E-01;  9.9999998E-03;  1.6997586E-01;4079;  8.7427450E-03;  0.0000000E+00; -6.3387898E-04;  9.9883783E+02;  1.0000000E-01; -9.6283698E+02;3;  7.9665011E-01;  0.0000000E+00; -1.9569646E-01;0;  3.0206176E-02;  3.9909090E+04;  0.0000000E+00;  6.7336410E-01;  4.0000000E+04;  0.0000000E+00;  3.9995973E+04;  3.1423721E-02;  0.0000000E+00; -1.2175456E-03;  1.0384260E+03;
  2.6160353E-01;  9.9999998E-03;  1.7997606E-01;4080;  8.6851101E-03;  0.0000000E+00; -6.8734016E-04;  9.9867639E+02;  1.0000000E-01; -1.0965615E+03;3;  7.4714631E-01;  0.0000000E+00; -1.6528907E-01;0;  2.9664781E-02;  3.9896195E+04;  0.0000000E+00;  6.7137849E-01;  4.0000000E+04;  0.0000000E+00;  3.9996445E+04;  3.0684084E-02;  0.0000000E+00; -1.0193032E-03;  1.0224639E+03;
  2.6144409E-01;  9.9999998E-03;  1.8996476E-01;4081;  8.5822390E-03;  0.0000000E+00; -7.6106453E-04;  9.9854529E+02;  1.0000000E-01; -1.2052004E+03;3;  6.4999175E-01;  0.0000000E+00; -7.4770324E-02;0;  2.9248891E-02;  3.9885906E+04;  0.0000000E+00;  6.7460680E-01;  4.0000000E+04;  0.0000000E+00;  3.9996750E+04;  3.0095397E-02;  0.0000000E+00; -8.4650452E-04;  1.0175605E+03;
  2.6129717E-01;  9.9999998E-03;  1.9994301E-01;4082;  8.4240781E-03;  0.0000000E+00; -8.6033967E-04;  9.9846271E+02;  1.0000000E-01; -1.2735936E+03;3;  4.6801862E-01;  0.0000000E+00;  1.0422456E-01;0;  2.8894907E-02;  3.9878504E+04;  0.0000000E+00;  7.6204121E-01;  4.0000000E+04;  0.0000000E+00;  3.9998086E+04;  2.9655693E-02;  0.0000000E+00; -7.6078565E-04;  1.1252018E+03;
  2.6117501E-01;  9.9999998E-03;  2.0991850E-01;4083;  8.1968354E-03;  0.0000000E+00; -9.6539815E-04;  9.9844507E+02;  1.0000000E-01; -1.2882104E+03;3;  1.7093213E-01;  0.0000000E+00;  4.1146579E-01;0;  2.8500583E-02;  3.9874828E+04;  0.0000000E+00;  1.0311705E+00;  4.0000000E+04;  0.0000000E+00;  4.0001816E+04;  2.9349118E-02;  0.0000000E+00; -8.4853591E-04;  1.5764960E+03;
  2.6108918E-01;  9.9999998E-03;  2.1990800E-01;4084;  7.8383284E-03;  0.0000000E+00; -1.0382563E-03;  9.9848969E+02;  1.0000000E-01; -1.2512732E+03;3; -2.6548424E-01;  0.0000000E+00;  8.9498496E-01;0;  2.7960524E-02;  3.9874320E+04;  0.0000000E+00;  1.5749382E+00;  4.0000000E+04;  0.0000000E+00;  4.0008035E+04;  2.9139424E-02;  0.0000000E+00; -1.1788999E-03;  2.6072517E+03;
  2.6103735E-01;  9.9999998E-03;  2.2993059E-01;4085;  6.8450766E-03;  0.0000000E+00; -8.1746443E-04;  9.9854224E+02;  1.0000000E-01; -1.2077189E+03;3; -9.4917107E-01;  0.0000000E+00;  1.5141907E+00;0;  2.7719287E-02;  3.9876391E+04;  0.0000000E+00;  2.4550631E+00;  4.0000000E+04;  0.0000000E+00;  4.0011680E+04;  2.8865084E-02;  0.0000000E+00; -1.1457970E-03;  4.0165276E+03;
  2.7152076E-01;  9.9999998E-03;  6.9992363E-02;4130;  9.2050927E-03;  0.0000000E+00; -2.5243266E-04;  9.9945117E+02;  1.0000000E-01; -4.5470319E+02;3;  1.0031604E+00;  0.0000000E+00; -8.1485085E-02;0;  3.2860830E-02;  3.9963672E+04;  0.0000000E+00;  3.2352157E-02;  4.0000000E+04;  0.0000000E+00;  3.9993328E+04;  3.4913652E-02;  0.0000000E+00; -2.0528198E-03;  8.0026251E+02;
  2.7152926E-01;  9.9999998E-03;  7.9997152E-02;4131;  9.1250837E-03;  0.0000000E+00; -3.0044490E-04;  9.9954663E+02;  1.0000000E-01; -3.7559433E+02;3;  9.8925209E-01;  0.0000000E+00; -9.3461037E-02;0;  3.2953609E-02;  3.9971809E+04;  0.0000000E+00;  4.2133763E-02;  4.0000000E+04;  0.0000000E+00;  3.9992637E+04;  3.5076469E-02;  0.0000000E+00; -2.1228618E-03;  8.7385071E+02;
  2.7154553E-01;  9.9999998E-03;  8.9998133E-02;4132;  9.0405354E-03;  0.0000000E+00; -3.4664955E-04;  9.9963013E+02;  1.0000000E-01; -3.0641110E+02;3;  9.7324961E-01;  0.0000000E+00; -1.0497972E-01;0;  3.2853410E-02;  3.9978504E+04;  0.0000000E+00;  5.7700429E-02;  4.0000000E+04;  0.0000000E+00;  3.9992629E+04;  3.5020053E-02;  0.0000000E+00; -2.1666451E-03;  8.9679584E+02;
  2.7158526E-01;  9.9999998E-03;  9.9994764E-02;4133;  8.9602498E-03;  0.0000000E+00; -3.8808919E-04;  9.9968988E+02;  1.0000000E-01; -2.5693100E+02;3;  9.5532519E-01;  0.0000000E+00; -1.1676931E-01;0;  3.2531939E-02;  3.9982785E+04;  0.0000000E+00;  8.4176846E-02;  4.0000000E+04;  0.0000000E+00;  3.9992875E+04;  3.4713745E-02;  0.0000000E+00; -2.1818068E-03;  8.7301556E+02;
  2.7164727E-01;  9.9999998E-03;  1.0998877E-01;4134;  8.8894162E-03;  0.0000000E+00; -4.2492390E-04;  9.9971436E+02;  1.0000000E-01; -2.3663528E+02;3;  9.3577224E-01;  0.0000000E+00; -1.2756918E-01;0;  3.1991564E-02;  3.9984055E+04;  0.0000000E+00;  1.2759970E-01;  4.0000000E+04;  0.0000000E+00;  3.9993500E+04;  3.4158941E-02;  0.0000000E+00; -2.1673774E-03;  8.1465839E+02;
  2.7173018E-01;  9.9999998E-03;  1.1998208E-01;4135;  8.8350354E-03;  0.0000000E+00; -4.5651363E-04;  9.9969800E+02;  1.0000000E-01; -2.5021515E+02;3;  9.1782898E-01;  0.0000000E+00; -1.3749827E-01;0;  3.1263184E-02;  3.9981699E+04;  0.0000000E+00;  1.9356430E-01;  4.0000000E+04;  0.0000000E+00;  3.9994414E+04;  3.3386711E-02;  0.0000000E+00; -2.1235289E-03;  7.4341962E+02;
  2.7182069E-01;  9.9999998E-03;  1.2997557E-01;4136;  8.7966193E-03;  0.0000000E+00; -4.8421774E-04;  9.9963019E+02;  1.0000000E-01; -3.0636169E+02;3;  8.9800078E-01;  0.0000000E+00; -1.4685753E-01;0;  3.0408494E-02;  3.9975262E+04;  0.0000000E+00;  2.8519711E-01;  4.0000000E+04;  0.0000000E+00;  3.9995309E+04;  3.2459088E-02;  0.0000000E+00; -2.0505928E-03;  6.9464233E+02;
  2.7189437E-01;  9.9999998E-03;  1.3997002E-01;4137;  8.7725082E-03;  0.0000000E+00; -5.0920132E-04;  9.9951959E+02;  1.0000000E-01; -3.9801343E+02;3;  8.7712789E-01;  0.0000000E+00; -1.5537229E-01;0;  2.9511254E-02;  3.9965059E+04;  0.0000000E+00;  4.0052819E-01;  4.0000000E+04;  0.0000000E+00;  3.9996258E+04;  3.1459816E-02;  0.0000000E+00; -1.9485620E-03;  7.1118262E+02;
  2.7192432E-01;  9.9999998E-03;  1.4996529E-01;4138;  8.7562939E-03;  0.0000000E+00; -5.3381751E-04;  9.9936603E+02;  1.0000000E-01; -5.2521973E+02;3;  8.5537344E-01;  0.0000000E+00; -1.6377620E-01;0;  2.8661892E-02;  3.9950922E+04;  0.0000000E+00;  5.2989125E-01;  4.0000000E+04;  0.0000000E+00;  3.9997113E+04;  3.0479049E-02;  0.0000000E+00; -1.8171576E-03;  8.0792871E+02;
  2.7189544E-01;  9.9999998E-03;  1.5996273E-01;4139;  8.7386342E-03;  0.0000000E+00; -5.6205073E-04;  9.9917517E+02;  1.0000000E-01; -6.8333868E+02;3;  8.3216107E-01;  0.0000000E+00; -1.7203824E-01;0;  2.7939226E-02;  3.9934641E+04;  0.0000000E+00;  6.5528625E-01;  4.0000000E+04;  0.0000000E+00;  3.9997965E+04;  2.9596914E-02;  0.0000000E+00; -1.6576864E-03;  9.4994373E+02;
  2.7181476E-01;  9.9999998E-03;  1.6996409E-01;4140;  8.7073948E-03;  0.0000000E+00; -5.9608388E-04;  9.9896985E+02;  1.0000000E-01; -8.5345734E+02;3;  8.0709231E-01;  0.0000000E+00; -1.7694505E-01;0;  2.7398076E-02;  3.9917262E+04;  0.0000000E+00;  7.5092375E-01;  4.0000000E+04;  0.0000000E+00;  3.9998980E+04;  2.8873900E-02;  0.0000000E+00; -1.4758240E-03;  1.0779203E+03;
  2.7169278E-01;  9.9999998E-03;  1.7996462E-01;4141;  8.6498344E-03;  0.0000000E+00; -6.4011273E-04;  9.9876825E+02;  1.0000000E-01; -1.0204650E+03;3;  7.6983672E-01;  0.0000000E+00; -1.6483574E-01;0;  2.7066257E-02;  3.9900762E+04;  0.0000000E+00;  7.9932743E-01;  4.0000000E+04;  0.0000000E+00;  3.9999555E+04;  2.8351000E-02;  0.0000000E+00; -1.2847435E-03;  1.1514901E+03;
  2.7154714E-01;  9.9999998E-03;  1.8995775E-01;4142;  8.5577480E-03;  0.0000000E+00; -7.0033537E-04;  9.9858759E+02;  1.0000000E-01; -1.1701398E+03;3;  7.0413512E-01;  0.0000000E+00; -1.1438217E-01;0;  2.6933899E-02;  3.9886168E+04;  0.0000000E+00;  8.1119549E-01;  4.0000000E+04;  0.0000000E+00;  3.9999930E+04;  2.8044686E-02;  0.0000000E+00; -1.1107859E-03;  1.1821874E+03;
  2.7139547E-01;  9.9999998E-03;  1.9994166E-01;4143;  8.4174294E-03;  0.0000000E+00; -7.8143389E-04;  9.9845715E+02;  1.0000000E-01; -1.2782355E+03;3;  5.7990402E-01;  0.0000000E+00;  1.9561227E-03;0;  2.6944382E-02;  3.9875195E+04;  0.0000000E+00;  8.2980913E-01;  4.0000000E+04;  0.0000000E+00;  4.0001195E+04;  2.7948661E-02;  0.0000000E+00; -1.0042789E-03;  1.2521881E+03;
  2.7125534E-01;  9.9999998E-03;  2.0991945E-01;4144;  8.2204463E-03;  0.0000000E+00; -8.7639311E-04;  9.9839954E+02;  1.0000000E-01; -1.3259379E+03;3;  3.6547053E-01;  0.0000000E+00;  2.1142210E-01;0;  2.6989507E-02;  3.9868812E+04;  0.0000000E+00;  9.2380798E-01;  4.0000000E+04;  0.0000000E+00;  4.0004879E+04;  2.8035484E-02;  0.0000000E+00; -1.0459771E-03;  1.5509464E+03;
  2.7114135E-01;  9.9999998E-03;  2.1990453E-01;4145;  7.9362215E-03;  0.0000000E+00; -9.5006014E-04;  9.9843311E+02;  1.0000000E-01; -1.2981361E+03;3;  4.0863454E-02;  0.0000000E+00;  5.5871475E-01;0;  2.6954189E-02;  3.9866777E+04;  0.0000000E+00;  1.1769353E+00;  4.0000000E+04;  0.0000000E+00;  4.0010520E+04;  2.8259113E-02;  0.0000000E+00; -1.3049243E-03;  2.2979355E+03;
  2.7106407E-01;  9.9999998E-03;  2.2991757E-01;4146;  7.3180990E-03;  0.0000000E+00; -8.7986322E-04;  9.9849811E+02;  1.0000000E-01; -1.2443105E+03;3; -4.6975932E-01;  0.0000000E+00;  1.0531420E+00;0;  2.6988318E-02;  3.9869344E+04;  0.0000000E+00;  1.6641772E+00;  4.0000000E+04;  0.0000000E+00;  4.0015766E+04;  2.8521501E-02;  0.0000000E+00; -1.5331821E-03;  3.2608474E+03;
  2.8150481E-01;  9.9999998E-03;  6.9993094E-02;4191;  9.2035849E-03;  0.0000000E+00; -2.2286140E-04;  9.9940509E+02;  1.0000000E-01; -4.9287494E+02;3;  1.0120416E+00;  0.0000000E+00; -7.2509676E-02;0;  2.8983720E-02;  3.9958605E+04;  0.0000000E+00;  2.3643542E-03;  4.0000000E+04;  0.0000000E+00;  3.9995289E+04;  3.1161649E-02;  0.0000000E+00; -2.1779304E-03;  5.3236761E+02;
  2.8152522E-01;  9.9999998E-03;  7.9992674E-02;4192;  9.1347322E-03;  0.0000000E+00; -2.6752581E-04;  9.9952783E+02;  1.0000000E-01; -3.9119882E+02;3;  9.9817681E-01;  0.0000000E+00; -8.2771592E-02;0;  2.9195221E-02;  3.9969203E+04;  0.0000000E+00;  1.2448542E-03;  4.0000000E+04;  0.0000000E+00;  3.9994672E+04;  3.1446412E-02;  0.0000000E+00; -2.2511918E-03;  6.2850806E+02;
  2.8154826E-01;  9.9999998E-03;  8.9993820E-02;4193;  9.0585575E-03;  0.0000000E+00; -3.1078825E-04;  9.9964496E+02;  1.0000000E-01; -2.9416452E+02;3;  9.8325169E-01;  0.0000000E+00; -9.2499405E-02;0;  2.9212929E-02;  3.9978703E+04;  0.0000000E+00;  4.5947884E-03;  4.0000000E+04;  0.0000000E+00;  3.9994266E+04;  3.1514268E-02;  0.0000000E+00; -2.3013398E-03;  6.7937366E+02;
  2.8157869E-01;  9.9999998E-03;  9.9995397E-02;4194;  8.9795254E-03;  0.0000000E+00; -3.5164112E-04;  9.9974231E+02;  1.0000000E-01; -2.1347545E+02;3;  9.6608979E-01;  0.0000000E+00; -1.0212972E-01;0;  2.9010870E-02;  3.9986402E+04;  0.0000000E+00;  1.7915446E-02;  4.0000000E+04;  0.0000000E+00;  3.9994742E+04;  3.1335730E-02;  0.0000000E+00; -2.3248615E-03;  6.7929016E+02;
  2.8162271E-01;  9.9999998E-03;  1.0999442E-01;4195;  8.9038853E-03;  0.0000000E+00; -3.8836285E-04;  9.9981281E+02;  1.0000000E-01; -1.5510672E+02;3;  9.4571710E-01;  0.0000000E+00; -1.1129835E-01;0;  2.8590128E-02;  3.9991266E+04;  0.0000000E+00;  4.7963336E-02;  4.0000000E+04;  0.0000000E+00;  3.9994812E+04;  3.0909887E-02;  0.0000000E+00; -2.3197581E-03;  6.3103857E+02;
  2.8168470E-01;  9.9999998E-03;  1.1999110E-01;4196;  8.8377772E-03;  0.0000000E+00; -4.2124157E-04;  9.9983759E+02;  1.0000000E-01; -1.3456410E+02;3;  9.2529249E-01;  0.0000000E+00; -1.1991176E-01;0;  2.7982794E-02;  3.9992457E+04;  0.0000000E+00;  1.0165424E-01;  4.0000000E+04;  0.0000000E+00;  3.9995695E+04;  3.0268138E-02;  0.0000000E+00; -2.2853445E-03;  5.4916760E+02;
  2.8175527E-01;  9.9999998E-03;  1.2998681E-01;4197;  8.7855579E-03;  0.0000000E+00; -4.4992028E-04;  9.9981146E+02;  1.0000000E-01; -1.5619312E+02;3;  9.0372473E-01;  0.0000000E+00; -1.2742595E-01;0;  2.7252944E-02;  3.9989195E+04;  0.0000000E+00;  1.8428972E-01;  4.0000000E+04;  0.0000000E+00;  3.9996762E+04;  2.9474748E-02;  0.0000000E+00; -2.2218046E-03;  4.7430807E+02;
  2.8181967E-01;  9.9999998E-03;  1.3998234E-01;4198;  8.7470924E-03;  0.0000000E+00; -4.7519084E-04;  9.9972974E+02;  1.0000000E-01; -2.2389490E+02;3;  8.8225806E-01;  0.0000000E+00; -1.3456585E-01;0;  2.6485376E-02;  3.9981215E+04;  0.0000000E+00;  2.9712903E-01;  4.0000000E+04;  0.0000000E+00;  3.9998008E+04;  2.8615268E-02;  0.0000000E+00; -2.1298926E-03;  4.8487811E+02;
  2.8185490E-01;  9.9999998E-03;  1.4997624E-01;4199;  8.7165469E-03;  0.0000000E+00; -4.9873657E-04;  9.9958746E+02;  1.0000000E-01; -3.4176810E+02;3;  8.6037654E-01;  0.0000000E+00; -1.4174764E-01;0;  2.5774902E-02;  3.9968316E+04;  0.0000000E+00;  4.3466321E-01;  4.0000000E+04;  0.0000000E+00;  3.9999148E+04;  2.7785741E-02;  0.0000000E+00; -2.0108391E-03;  6.2479779E+02;
  2.8185239E-01;  9.9999998E-03;  1.5997052E-01;4200;  8.6866589E-03;  0.0000000E+00; -5.2291219E-04;  9.9940179E+02;  1.0000000E-01; -4.9559091E+02;3;  8.3734250E-01;  0.0000000E+00; -1.4940061E-01;0;  2.5207451E-02;  3.9951695E+04;  0.0000000E+00;  5.8348811E-01;  4.0000000E+04;  0.0000000E+00;  4.0000141E+04;  2.7074927E-02;  0.0000000E+00; -1.8674762E-03;  8.4192310E+02;
  2.8181323E-01;  9.9999998E-03;  1.6996862E-01;4201;  8.6466679E-03;  0.0000000E+00; -5.4934149E-04;  9.9918213E+02;  1.0000000E-01; -6.7761047E+02;3;  8.1296945E-01;  0.0000000E+00; -1.5559345E-01;0;  2.4851458E-02;  3.9932902E+04;  0.0000000E+00;  7.2110283E-01;  4.0000000E+04;  0.0000000E+00;  4.0001516E+04;  2.6556578E-02;  0.0000000E+00; -1.7051199E-03;  1.0649105E+03;
  2.8173733E-01;  9.9999998E-03;  1.7996818E-01;4202;  8.5869189E-03;  0.0000000E+00; -5.8229000E-04;  9.9895209E+02;  1.0000000E-01; -8.6817297E+02;3;  7.8462249E-01;  0.0000000E+00; -1.5470104E-01;0;  2.4749886E-02;  3.9913406E+04;  0.0000000E+00;  8.1993550E-01;  4.0000000E+04;  0.0000000E+00;  4.0002121E+04;  2.6283532E-02;  0.0000000E+00; -1.5336458E-03;  1.2377407E+03;
  2.8162372E-01;  9.9999998E-03;  1.8996356E-01;4203;  8.4981658E-03;  0.0000000E+00; -6.2822161E-04;  9.9873254E+02;  1.0000000E-01; -1.0500444E+03;3;  7.4051261E-01;  0.0000000E+00; -1.3184409E-01;0;  2.4908483E-02;  3.9895555E+04;  0.0000000E+00;  8.6534292E-01;  4.0000000E+04;  0.0000000E+00;  4.0002801E+04;  2.6280696E-02;  0.0000000E+00; -1.3722118E-03;  1.3393633E+03;
  2.8149107E-01;  9.9999998E-03;  1.9995032E-01;4204;  8.3716158E-03;  0.0000000E+00; -6.9261866E-04;  9.9855341E+02;  1.0000000E-01; -1.1984846E+03;3;  6.5928531E-01;  0.0000000E+00; -6.7738757E-02;0;  2.5280867E-02;  3.9880980E+04;  0.0000000E+00;  8.6703330E-01;  4.0000000E+04;  0.0000000E+00;  4.0003793E+04;  2.6540451E-02;  0.0000000E+00; -1.2595837E-03;  1.4136394E+03;
  2.8135422E-01;  9.9999998E-03;  2.0993099E-01;4205;  8.1968950E-03;  0.0000000E+00; -7.7336654E-04;  9.9844916E+02;  1.0000000E-01; -1.2848525E+03;3;  5.1564687E-01;  0.0000000E+00;  6.1945368E-02;0;  2.5766660E-02;  3.9870859E+04;  0.0000000E+00;  8.5991734E-01;  4.0000000E+04;  0.0000000E+00;  4.0006734E+04;  2.7030107E-02;  0.0000000E+00; -1.2634468E-03;  1.6041658E+03;
  2.8122982E-01;  9.9999998E-03;  2.1991442E-01;4206;  7.9535097E-03;  0.0000000E+00; -8.3916873E-04;  9.9843701E+02;  1.0000000E-01; -1.2949264E+03;3;  2.8425890E-01;  0.0000000E+00;  2.8817928E-01;0;  2.6253194E-02;  3.9866113E+04;  0.0000000E+00;  9.0033948E-01;  4.0000000E+04;  0.0000000E+00;  4.0012016E+04;  2.7694747E-02;  0.0000000E+00; -1.4415528E-03;  2.1212268E+03;
  2.8113389E-01;  9.9999998E-03;  2.2991882E-01;4207;  7.5219190E-03;  0.0000000E+00; -8.2153664E-04;  9.9849127E+02;  1.0000000E-01; -1.2499399E+03;3; -8.2940131E-02;  0.0000000E+00;  6.3549715E-01;0;  2.6773691E-02;  3.9867250E+04;  0.0000000E+00;  1.0541543E+00;  4.0000000E+04;  0.0000000E+00;  4.0017332E+04;  2.8452169E-02;  0.0000000E+00; -1.6784786E-03;  2.7852898E+03;
  2.9151827E-01;  9.9999998E-03;  6.9996513E-02;4252;  9.1730421E-03;  0.0000000E+00; -1.9111478E-04;  9.9940656E+02;  1.0000000E-01; -4.9164041E+02;3;  1.0191121E+00;  0.0000000E+00; -6.2993132E-02;0;  2.5783446E-02;  3.9956949E+04;  0.0000000E+00; -2.2576537E-02;  4.0000000E+04;  0.0000000E+00;  3.9997273E+04;  2.8035549E-02;  0.0000000E+00; -2.2521033E-03;  2.9766623E+02;
  2.9151005E-01;  9.9999998E-03;  7.9997495E-02;4253;  9.1151819E-03;  0.0000000E+00; -2.3141707E-04;  9.9954120E+02;  1.0000000E-01; -3.8008801E+02;3;  1.0049666E+00;  0.0000000E+00; -7.1697265E-02;0;  2.6093941E-02;  3.9968910E+04;  0.0000000E+00; -3.4691058E-02;  4.0000000E+04;  0.0000000E+00;  3.9996234E+04;  2.8420182E-02;  0.0000000E+00; -2.3262401E-03;  4.1531622E+02;
  2.9151857E-01;  9.9999998E-03;  8.9997396E-02;4254;  9.0475120E-03;  0.0000000E+00; -2.7148248E-04;  9.9967487E+02;  1.0000000E-01; -2.6937509E+02;3;  9.9055183E-01;  0.0000000E+00; -7.9916574E-02;0;  2.6215993E-02;  3.9980559E+04;  0.0000000E+00; -4.4551831E-02;  4.0000000E+04;  0.0000000E+00;  3.9995758E+04;  2.8596802E-02;  0.0000000E+00; -2.3808081E-03;  4.9898035E+02;
  2.9153860E-01;  9.9999998E-03;  9.9998273E-02;4255;  8.9726588E-03;  0.0000000E+00; -3.1024657E-04;  9.9980054E+02;  1.0000000E-01; -1.6522989E+02;3;  9.7267485E-01;  0.0000000E+00; -8.7736838E-02;0;  2.6127201E-02;  3.9990633E+04;  0.0000000E+00; -4.6585970E-02;  4.0000000E+04;  0.0000000E+00;  3.9995582E+04;  2.8538959E-02;  0.0000000E+00; -2.4117588E-03;  5.3314478E+02;
  2.9156929E-01;  9.9999998E-03;  1.1000054E-01;4256;  8.8957790E-03;  0.0000000E+00; -3.4644920E-04;  9.9990350E+02;  1.0000000E-01; -7.9948357E+01;3;  9.5189953E-01;  0.0000000E+00; -9.5518067E-02;0;  2.5831504E-02;  3.9998387E+04;  0.0000000E+00; -3.3729486E-02;  4.0000000E+04;  0.0000000E+00;  3.9996113E+04;  2.8247785E-02;  0.0000000E+00; -2.4162806E-03;  5.0895160E+02;
  2.9161212E-01;  9.9999998E-03;  1.2000167E-01;4257;  8.8236947E-03;  0.0000000E+00; -3.7936596E-04;  9.9996582E+02;  1.0000000E-01; -2.8295496E+01;3;  9.2971551E-01;  0.0000000E+00; -1.0215801E-01;0;  2.5362190E-02;  4.0002770E+04;  0.0000000E+00;  1.6987397E-03;  4.0000000E+04;  0.0000000E+00;  3.9996691E+04;  2.7755197E-02;  0.0000000E+00; -2.3930077E-03;  4.2723764E+02;
  2.9166463E-01;  9.9999998E-03;  1.3000019E-01;4258;  8.7623354E-03;  0.0000000E+00; -4.0822342E-04;  9.9997925E+02;  1.0000000E-01; -1.7184700E+01;3;  9.0697277E-01;  0.0000000E+00; -1.0880084E-01;0;  2.4780842E-02;  4.0002430E+04;  0.0000000E+00;  6.6451892E-02;  4.0000000E+04;  0.0000000E+00;  3.9997672E+04;  2.7122898E-02;  0.0000000E+00; -2.3420558E-03;  3.1139200E+02;
  2.9171759E-01;  9.9999998E-03;  1.3999698E-01;4259;  8.7123280E-03;  0.0000000E+00; -4.3306817E-04;  9.9992767E+02;  1.0000000E-01; -5.9899540E+01;3;  8.8498634E-01;  0.0000000E+00; -1.1478091E-01;0;  2.4170645E-02;  3.9997184E+04;  0.0000000E+00;  1.6425116E-01;  4.0000000E+04;  0.0000000E+00;  3.9999117E+04;  2.6435478E-02;  0.0000000E+00; -2.2648324E-03;  2.6656049E+02;
  2.9175618E-01;  9.9999998E-03;  1.4999163E-01;4260;  8.6694537E-03;  0.0000000E+00; -4.5489462E-04;  9.9981824E+02;  1.0000000E-01; -1.5056364E+02;3;  8.6250794E-01;  0.0000000E+00; -1.2087868E-01;0;  2.3625523E-02;  3.9986336E+04;  0.0000000E+00;  2.9325348E-01;  4.0000000E+04;  0.0000000E+00;  4.0000367E+04;  2.5789412E-02;  0.0000000E+00; -2.1638891E-03;  4.2385818E+02;
  2.9177171E-01;  9.9999998E-03;  1.5998559E-01;4261;  8.6272759E-03;  0.0000000E+00; -4.7492748E-04;  9.9964722E+02;  1.0000000E-01; -2.9228802E+02;3;  8.4025061E-01;  0.0000000E+00; -1.2723339E-01;0;  2.3236576E-02;  3.9970586E+04;  0.0000000E+00;  4.4450176E-01;  4.0000000E+04;  0.0000000E+00;  4.0001805E+04;  2.5279794E-02;  0.0000000E+00; -2.0432179E-03;  6.8702191E+02;
  2.9176494E-01;  9.9999998E-03;  1.6998179E-01;4262;  8.5779140E-03;  0.0000000E+00; -4.9510761E-04;  9.9942792E+02;  1.0000000E-01; -4.7396191E+02;3;  8.1729722E-01;  0.0000000E+00; -1.3340053E-01;0;  2.3080785E-02;  3.9951773E+04;  0.0000000E+00;  6.0184461E-01;  4.0000000E+04;  0.0000000E+00;  4.0003301E+04;  2.4988979E-02;  0.0000000E+00; -1.9081951E-03;  9.6917810E+02;
  2.9173154E-01;  9.9999998E-03;  1.7998049E-01;4263;  8.5129822E-03;  0.0000000E+00; -5.1855127E-04;  9.9918408E+02;  1.0000000E-01; -6.7598090E+02;3;  7.9377759E-01;  0.0000000E+00; -1.3761543E-01;0;  2.3211569E-02;  3.9931289E+04;  0.0000000E+00;  7.3895401E-01;  4.0000000E+04;  0.0000000E+00;  4.0004352E+04;  2.4977345E-02;  0.0000000E+00; -1.7657770E-03;  1.2173655E+03;
  2.9165936E-01;  9.9999998E-03;  1.8997580E-01;4264;  8.4243435E-03;  0.0000000E+00; -5.5063929E-04;  9.9894043E+02;  1.0000000E-01; -8.7785175E+02;3;  7.6220739E-01;  0.0000000E+00; -1.3183752E-01;0;  2.3647562E-02;  3.9911008E+04;  0.0000000E+00;  8.2812768E-01;  4.0000000E+04;  0.0000000E+00;  4.0005098E+04;  2.5275460E-02;  0.0000000E+00; -1.6278976E-03;  1.3956790E+03;
  2.9155260E-01;  9.9999998E-03;  1.9996531E-01;4265;  8.3051724E-03;  0.0000000E+00; -5.9804064E-04;  9.9872308E+02;  1.0000000E-01; -1.0578960E+03;3;  7.1086794E-01;  0.0000000E+00; -1.0355140E-01;0;  2.4358664E-02;  3.9893195E+04;  0.0000000E+00;  8.5468233E-01;  4.0000000E+04;  0.0000000E+00;  4.0006238E+04;  2.5879176E-02;  0.0000000E+00; -1.5205130E-03;  1.5105844E+03;
  2.9143581E-01;  9.9999998E-03;  2.0994756E-01;4266;  8.1467722E-03;  0.0000000E+00; -6.6135061E-04;  9.9857184E+02;  1.0000000E-01; -1.1832258E+03;3;  6.1750227E-01;  0.0000000E+00; -3.3657543E-02;0;  2.5259849E-02;  3.9879688E+04;  0.0000000E+00;  8.2332021E-01;  4.0000000E+04;  0.0000000E+00;  4.0008695E+04;  2.6753958E-02;  0.0000000E+00; -1.4941099E-03;  1.6643148E+03;
  2.9132009E-01;  9.9999998E-03;  2.1993062E-01;4267;  7.9322858E-03;  0.0000000E+00; -7.1659160E-04;  9.9850854E+02;  1.0000000E-01; -1.2356194E+03;3;  4.6423617E-01;  0.0000000E+00;  9.6503571E-02;0;  2.6248962E-02;  3.9871785E+04;  0.0000000E+00;  7.5941670E-01;  4.0000000E+04;  0.0000000E+00;  4.0012578E+04;  2.7841836E-02;  0.0000000E+00; -1.5928736E-03;  2.0328369E+03;
  2.9121879E-01;  9.9999998E-03;  2.2992960E-01;4268;  7.5841015E-03;  0.0000000E+00; -7.1338326E-04;  9.9851880E+02;  1.0000000E-01; -1.2271257E+03;3;  2.2161081E-01;  0.0000000E+00;  3.1227788E-01;0;  2.7326088E-02;  3.9869730E+04;  0.0000000E+00;  7.0540273E-01;  4.0000000E+04;  0.0000000E+00;  4.0016953E+04;  2.9062036E-02;  0.0000000E+00; -1.7359488E-03;  2.5067644E+03;
  3.0155674E-01;  9.9999998E-03;  6.9992401E-02;4313;  9.1298530E-03;  0.0000000E+00; -1.5863270E-04;  9.9944812E+02;  1.0000000E-01; -4.5722165E+02;3;  1.0238060E+00;  0.0000000E+00; -5.3101767E-02;0;  2.3902306E-02;  3.9959496E+04;  0.0000000E+00; -3.6731731E-02;  4.0000000E+04;  0.0000000E+00;  3.9999129E+04;  2.6192674E-02;  0.0000000E+00; -2.2903678E-03;  1.1526330E+02;
  3.0153927E-01;  9.9999998E-03;  7.9992913E-02;4314;  9.0824012E-03;  0.0000000E+00; -1.9351995E-04;  9.9958435E+02;  1.0000000E-01; -3.4433594E+02;3;  1.0102047E+00;  0.0000000E+00; -6.0142290E-02;0;  2.4265978E-02;  3.9971289E+04;  0.0000000E+00; -5.7663348E-02;  4.0000000E+04;  0.0000000E+00;  3.9997914E+04;  2.6629267E-02;  0.0000000E+00; -2.3632881E-03;  2.4737384E+02;
  3.0152175E-01;  9.9999998E-03;  8.9996837E-02;4315;  9.0234624E-03;  0.0000000E+00; -2.2939329E-04;  9.9972552E+02;  1.0000000E-01; -2.2740097E+02;3;  9.9531829E-01;  0.0000000E+00; -6.6982962E-02;0;  2.4461897E-02;  3.9983254E+04;  0.0000000E+00; -7.9325885E-02;  4.0000000E+04;  0.0000000E+00;  3.9997031E+04;  2.6882336E-02;  0.0000000E+00; -2.4204380E-03;  3.6242218E+02;
  3.0151144E-01;  9.9999998E-03;  1.0000194E-01;4316;  8.9541422E-03;  0.0000000E+00; -2.6514204E-04;  9.9986017E+02;  1.0000000E-01; -1.1584857E+02;3;  9.7631723E-01;  0.0000000E+00; -7.3362611E-02;0;  2.4465848E-02;  3.9994746E+04;  0.0000000E+00; -9.6498698E-02;  4.0000000E+04;  0.0000000E+00;  3.9996324E+04;  2.6923500E-02;  0.0000000E+00; -2.4576529E-03;  4.3759048E+02;
  3.0151612E-01;  9.9999998E-03;  1.1000641E-01;4317;  8.8792229E-03;  0.0000000E+00; -2.9944294E-04;  9.9997852E+02;  1.0000000E-01; -1.7777275E+01;3;  9.5542485E-01;  0.0000000E+00; -7.9392530E-02;0;  2.4280457E-02;  4.0004215E+04;  0.0000000E+00; -1.0224620E-01;  4.0000000E+04;  0.0000000E+00;  3.9996551E+04;  2.6752107E-02;  0.0000000E+00; -2.4716498E-03;  4.5425742E+02;
  3.0153507E-01;  9.9999998E-03;  1.2001039E-01;4318;  8.8049257E-03;  0.0000000E+00; -3.3123323E-04;  1.0000663E+03;  1.0000000E-01;  5.5010788E+01;3;  9.3341190E-01;  0.0000000E+00; -8.5147381E-02;0;  2.3937935E-02;  4.0011207E+04;  0.0000000E+00; -8.8594891E-02;  4.0000000E+04;  0.0000000E+00;  3.9996938E+04;  2.6398536E-02;  0.0000000E+00; -2.4606006E-03;  4.0098300E+02;
  3.0156794E-01;  9.9999998E-03;  1.3001163E-01;4319;  8.7372744E-03;  0.0000000E+00; -3.5917514E-04;  1.0001083E+03;  1.0000000E-01;  8.9676476E+01;3;  9.1017294E-01;  0.0000000E+00; -9.0844706E-02;0;  2.3497075E-02;  4.0013324E+04;  0.0000000E+00; -4.7815766E-02;  4.0000000E+04;  0.0000000E+00;  3.9997770E+04;  2.5921624E-02;  0.0000000E+00; -2.4245495E-03;  2.7619830E+02;
  3.0160776E-01;  9.9999998E-03;  1.4001037E-01;4320;  8.6770644E-03;  0.0000000E+00; -3.8277294E-04;  1.0000927E+03;  1.0000000E-01;  7.6837334E+01;3;  8.8834429E-01;  0.0000000E+00; -9.5839381E-02;0;  2.3038041E-02;  4.0010496E+04;  0.0000000E+00;  2.5755297E-02;  4.0000000E+04;  0.0000000E+00;  3.9999355E+04;  2.5403442E-02;  0.0000000E+00; -2.3654017E-03;  1.0789742E+02;
  3.0164540E-01;  9.9999998E-03;  1.5000668E-01;4321;  8.6223176E-03;  0.0000000E+00; -4.0250761E-04;  1.0000141E+03;  1.0000000E-01;  1.1653992E+01;3;  8.6549145E-01;  0.0000000E+00; -1.0116324E-01;0;  2.2652721E-02;  4.0002426E+04;  0.0000000E+00;  1.3345975E-01;  4.0000000E+04;  0.0000000E+00;  4.0000895E+04;  2.4939490E-02;  0.0000000E+00; -2.2867688E-03;  2.1515836E+02;
  3.0167294E-01;  9.9999998E-03;  1.6000149E-01;4322;  8.5686967E-03;  0.0000000E+00; -4.1926870E-04;  9.9986542E+02;  1.0000000E-01; -1.1150302E+02;3;  8.4224921E-01;  0.0000000E+00; -1.0609268E-01;0;  2.2434216E-02;  3.9988758E+04;  0.0000000E+00;  2.7058694E-01;  4.0000000E+04;  0.0000000E+00;  4.0002758E+04;  2.4627812E-02;  0.0000000E+00; -2.1935969E-03;  4.9991983E+02;
  3.0168810E-01;  9.9999998E-03;  1.6999789E-01;4323;  8.5097859E-03;  0.0000000E+00; -4.3410604E-04;  9.9966510E+02;  1.0000000E-01; -2.7747363E+02;3;  8.2007629E-01;  0.0000000E+00; -1.1079042E-01;0;  2.2464735E-02;  3.9970902E+04;  0.0000000E+00;  4.2623377E-01;  4.0000000E+04;  0.0000000E+00;  4.0003863E+04;  2.4555795E-02;  0.0000000E+00; -2.0910592E-03;  8.0579657E+02;
  3.0168447E-01;  9.9999998E-03;  1.7999604E-01;4324;  8.4380927E-03;  0.0000000E+00; -4.4954132E-04;  9.9942847E+02;  1.0000000E-01; -4.7351749E+02;3;  7.9770780E-01;  0.0000000E+00; -1.1576316E-01;0;  2.2804832E-02;  3.9950242E+04;  0.0000000E+00;  5.8185053E-01;  4.0000000E+04;  0.0000000E+00;  4.0005180E+04;  2.4788475E-02;  0.0000000E+00; -1.9836433E-03;  1.0952566E+03;
  3.0164889E-01;  9.9999998E-03;  1.8999134E-01;4325;  8.3477106E-03;  0.0000000E+00; -4.7007832E-04;  9.9917273E+02;  1.0000000E-01; -6.8536334E+02;3;  7.7338105E-01;  0.0000000E+00; -1.1846219E-01;0;  2.3482652E-02;  3.9929086E+04;  0.0000000E+00;  7.0896715E-01;  4.0000000E+04;  0.0000000E+00;  4.0006242E+04;  2.5359368E-02;  0.0000000E+00; -1.8767164E-03;  1.3330273E+03;
  3.0157828E-01;  9.9999998E-03;  1.9998267E-01;4326;  8.2311668E-03;  0.0000000E+00; -5.0147175E-04;  9.9892987E+02;  1.0000000E-01; -8.8659222E+02;3;  7.3737758E-01;  0.0000000E+00; -1.1096960E-01;0;  2.4484977E-02;  3.9909289E+04;  0.0000000E+00;  7.7999085E-01;  4.0000000E+04;  0.0000000E+00;  4.0007453E+04;  2.6268259E-02;  0.0000000E+00; -1.7832818E-03;  1.5022977E+03;
  3.0148545E-01;  9.9999998E-03;  2.0996754E-01;4327;  8.0812061E-03;  0.0000000E+00; -5.4752472E-04;  9.9873608E+02;  1.0000000E-01; -1.0471309E+03;3;  6.8102723E-01;  0.0000000E+00; -8.1417471E-02;0;  2.5748540E-02;  3.9893055E+04;  0.0000000E+00;  7.7902639E-01;  4.0000000E+04;  0.0000000E+00;  4.0008762E+04;  2.7483525E-02;  0.0000000E+00; -1.7349859E-03;  1.6598011E+03;
  3.0138674E-01;  9.9999998E-03;  2.1995053E-01;4328;  7.8912117E-03;  0.0000000E+00; -5.9250055E-04;  9.9862158E+02;  1.0000000E-01; -1.1419924E+03;3;  5.8355170E-01;  0.0000000E+00; -1.8958099E-02;0;  2.7185565E-02;  3.9881488E+04;  0.0000000E+00;  7.0681095E-01;  4.0000000E+04;  0.0000000E+00;  4.0012371E+04;  2.8948095E-02;  0.0000000E+00; -1.7625307E-03;  1.9456093E+03;
  3.0129251E-01;  9.9999998E-03;  2.2994526E-01;4329;  7.5783315E-03;  0.0000000E+00; -5.8496429E-04;  9.9857983E+02;  1.0000000E-01; -1.1765593E+03;3;  4.3175077E-01;  0.0000000E+00;  9.7079627E-02;0;  2.8817747E-02;  3.9875801E+04;  0.0000000E+00;  5.8025694E-01;  4.0000000E+04;  0.0000000E+00;  4.0016027E+04;  3.0582657E-02;  0.0000000E+00; -1.7649097E-03;  2.3010603E+03;
  3.1163767E-01;  9.9999998E-03;  6.9988772E-02;4374;  9.0843318E-03;  0.0000000E+00; -1.2612372E-04;  9.9954480E+02;  1.0000000E-01; -3.7712512E+02;3;  1.0276337E+00;  0.0000000E+00; -4.2762093E-02;0;  2.3775261E-02;  3.9965746E+04;  0.0000000E+00; -3.8310822E-02;  4.0000000E+04;  0.0000000E+00;  4.0000055E+04;  2.6089801E-02;  0.0000000E+00; -2.3145396E-03;  7.0390503E+01;
  3.1159806E-01;  9.9999998E-03;  7.9987533E-02;4375;  9.0469187E-03;  0.0000000E+00; -1.5495172E-04;  9.9966125E+02;  1.0000000E-01; -2.8063403E+02;3;  1.0139915E+00;  0.0000000E+00; -4.8276190E-02;0;  2.4146702E-02;  3.9976301E+04;  0.0000000E+00; -6.4403348E-02;  4.0000000E+04;  0.0000000E+00;  3.9999398E+04;  2.6530202E-02;  0.0000000E+00; -2.3835003E-03;  1.2977347E+02;
  3.1155506E-01;  9.9999998E-03;  8.9989789E-02;4376;  8.9966226E-03;  0.0000000E+00; -1.8544575E-04;  9.9978412E+02;  1.0000000E-01; -1.7885915E+02;3;  9.9864328E-01;  0.0000000E+00; -5.3563032E-02;0;  2.4370633E-02;  3.9987547E+04;  0.0000000E+00; -9.4445340E-02;  4.0000000E+04;  0.0000000E+00;  3.9998570E+04;  2.6811400E-02;  0.0000000E+00; -2.4407664E-03;  2.6282944E+02;
  3.1151745E-01;  9.9999998E-03;  9.9994935E-02;4377;  8.9336596E-03;  0.0000000E+00; -2.1694262E-04;  9.9991364E+02;  1.0000000E-01; -7.1553535E+01;3;  9.7920620E-01;  0.0000000E+00; -5.9002947E-02;0;  2.4425041E-02;  3.9998613E+04;  0.0000000E+00; -1.2406816E-01;  4.0000000E+04;  0.0000000E+00;  3.9997449E+04;  2.6907397E-02;  0.0000000E+00; -2.4823567E-03;  3.7569617E+02;
  3.1148854E-01;  9.9999998E-03;  1.1000417E-01;4378;  8.8623287E-03;  0.0000000E+00; -2.4797893E-04;  1.0000331E+03;  1.0000000E-01;  2.7456013E+01;3;  9.5937055E-01;  0.0000000E+00; -6.3737258E-02;0;  2.4311857E-02;  4.0008598E+04;  0.0000000E+00; -1.4701149E-01;  4.0000000E+04;  0.0000000E+00;  3.9996867E+04;  2.6816597E-02;  0.0000000E+00; -2.5047401E-03;  4.3955948E+02;
  3.1147343E-01;  9.9999998E-03;  1.2001339E-01;4379;  8.7871132E-03;  0.0000000E+00; -2.7737764E-04;  1.0001304E+03;  1.0000000E-01;  1.0804633E+02;3;  9.3590063E-01;  0.0000000E+00; -6.8651013E-02;0;  2.4060510E-02;  4.0016164E+04;  0.0000000E+00; -1.5549569E-01;  4.0000000E+04;  0.0000000E+00;  3.9997250E+04;  2.6566248E-02;  0.0000000E+00; -2.5057385E-03;  4.3564886E+02;
  3.1148151E-01;  9.9999998E-03;  1.3001832E-01;4380;  8.7143378E-03;  0.0000000E+00; -3.0337056E-04;  1.0001879E+03;  1.0000000E-01;  1.5564992E+02;3;  9.1266817E-01;  0.0000000E+00; -7.3319271E-02;0;  2.3726888E-02;  4.0020254E+04;  0.0000000E+00; -1.4120603E-01;  4.0000000E+04;  0.0000000E+00;  3.9997777E+04;  2.6212223E-02;  0.0000000E+00; -2.4853356E-03;  3.5471835E+02;
  3.1150559E-01;  9.9999998E-03;  1.4002013E-01;4381;  8.6458754E-03;  0.0000000E+00; -3.2522003E-04;  1.0001963E+03;  1.0000000E-01;  1.6266206E+02;3;  8.9082032E-01;  0.0000000E+00; -7.7320628E-02;0;  2.3386471E-02;  4.0019715E+04;  0.0000000E+00; -9.6873306E-02;  4.0000000E+04;  0.0000000E+00;  3.9999027E+04;  2.5832329E-02;  0.0000000E+00; -2.4458584E-03;  1.9911217E+02;
  3.1153724E-01;  9.9999998E-03;  1.5001880E-01;4382;  8.5808905E-03;  0.0000000E+00; -3.4295247E-04;  1.0001443E+03;  1.0000000E-01;  1.1950279E+02;3;  8.6791331E-01;  0.0000000E+00; -8.2001425E-02;0;  2.3128090E-02;  4.0013926E+04;  0.0000000E+00; -1.8336715E-02;  4.0000000E+04;  0.0000000E+00;  4.0000496E+04;  2.5519848E-02;  0.0000000E+00; -2.3917572E-03;  6.2468414E+01;
  3.1157058E-01;  9.9999998E-03;  1.6001520E-01;4383;  8.5162837E-03;  0.0000000E+00; -3.5684829E-04;  1.0000327E+03;  1.0000000E-01;  2.7060963E+01;3;  8.4512222E-01;  0.0000000E+00; -8.6788431E-02;0;  2.3044188E-02;  4.0002711E+04;  0.0000000E+00;  9.3635179E-02;  4.0000000E+04;  0.0000000E+00;  4.0002402E+04;  2.5372818E-02;  0.0000000E+00; -2.3286308E-03;  3.1346930E+02;
  3.1159818E-01;  9.9999998E-03;  1.7001241E-01;4384;  8.4471330E-03;  0.0000000E+00; -3.6765786E-04;  9.9985718E+02;  1.0000000E-01; -1.1831764E+02;3;  8.2254744E-01;  0.0000000E+00; -9.0939157E-02;0;  2.3218736E-02;  3.9986883E+04;  0.0000000E+00;  2.3258990E-01;  4.0000000E+04;  0.0000000E+00;  4.0004109E+04;  2.5479881E-02;  0.0000000E+00; -2.2611443E-03;  6.1172748E+02;
  3.1161165E-01;  9.9999998E-03;  1.8001111E-01;4385;  8.3681457E-03;  0.0000000E+00; -3.7693750E-04;  9.9963495E+02;  1.0000000E-01; -3.0246057E+02;3;  8.0056036E-01;  0.0000000E+00; -9.5091239E-02;0;  2.3716787E-02;  3.9967586E+04;  0.0000000E+00;  3.8638565E-01;  4.0000000E+04;  0.0000000E+00;  4.0005434E+04;  2.5908127E-02;  0.0000000E+00; -2.1913410E-03;  9.0913635E+02;
  3.1160298E-01;  9.9999998E-03;  1.9000781E-01;4386;  8.2738502E-03;  0.0000000E+00; -3.8799350E-04;  9.9938806E+02;  1.0000000E-01; -5.0699802E+02;3;  7.7826715E-01;  0.0000000E+00; -9.9624455E-02;0;  2.4575867E-02;  3.9946816E+04;  0.0000000E+00;  5.3428423E-01;  4.0000000E+04;  0.0000000E+00;  4.0006371E+04;  2.6694570E-02;  0.0000000E+00; -2.1187030E-03;  1.1749250E+03;
  3.1156963E-01;  9.9999998E-03;  2.0000102E-01;4387;  8.1574004E-03;  0.0000000E+00; -4.0683543E-04;  9.9913873E+02;  1.0000000E-01; -7.1356006E+02;3;  7.4802977E-01;  0.0000000E+00; -1.0212087E-01;0;  2.5798850E-02;  3.9926320E+04;  0.0000000E+00;  6.4734137E-01;  4.0000000E+04;  0.0000000E+00;  4.0007344E+04;  2.7843768E-02;  0.0000000E+00; -2.0449180E-03;  1.3844761E+03;
  3.1151196E-01;  9.9999998E-03;  2.0998895E-01;4388;  8.0151875E-03;  0.0000000E+00; -4.3809420E-04;  9.9891602E+02;  1.0000000E-01; -8.9804865E+02;3;  7.1486211E-01;  0.0000000E+00; -9.3364909E-02;0;  2.7345173E-02;  3.9908062E+04;  0.0000000E+00;  6.9888592E-01;  4.0000000E+04;  0.0000000E+00;  4.0008598E+04;  2.9328063E-02;  0.0000000E+00; -1.9828891E-03;  1.5568650E+03;
  3.1144047E-01;  9.9999998E-03;  2.1997310E-01;4389;  7.8391368E-03;  0.0000000E+00; -4.7229161E-04;  9.9875708E+02;  1.0000000E-01; -1.0297487E+03;3;  6.5804094E-01;  0.0000000E+00; -7.0684165E-02;0;  2.9148288E-02;  3.9893824E+04;  0.0000000E+00;  6.7279512E-01;  4.0000000E+04;  0.0000000E+00;  4.0011094E+04;  3.1093985E-02;  0.0000000E+00; -1.9456969E-03;  1.7875829E+03;
  3.1136426E-01;  9.9999998E-03;  2.2996376E-01;4390;  7.5514303E-03;  0.0000000E+00; -4.6093939E-04;  9.9866382E+02;  1.0000000E-01; -1.1069811E+03;3;  5.6612754E-01;  0.0000000E+00; -2.3233647E-02;0;  3.1249734E-02;  3.9884445E+04;  0.0000000E+00;  5.6614429E-01;  4.0000000E+04;  0.0000000E+00;  4.0014199E+04;  3.3066537E-02;  0.0000000E+00; -1.8168041E-03;  2.0713000E+03;
  3.2169572E-01;  9.9999998E-03;  6.9991015E-02;4435;  9.0428730E-03;  0.0000000E+00; -9.4494375E-05;  9.9967822E+02;  1.0000000E-01; -2.6660974E+02;3;  1.0310500E+00;  0.0000000E+00; -3.2221876E-02;0;  2.5582764E-02;  3.9975793E+04;  0.0000000E+00; -2.9306136E-02;  4.0000000E+04;  0.0000000E+00;  4.0001066E+04;  2.7932217E-02;  0.0000000E+00; -2.3494523E-03;  1.5611263E+02;
  3.2167101E-01;  9.9999998E-03;  7.9985552E-02;4436;  9.0143597E-03;  0.0000000E+00; -1.1638020E-04;  9.9976666E+02;  1.0000000E-01; -1.9332787E+02;3;  1.0179750E+00;  0.0000000E+00; -3.6519442E-02;0;  2.5918165E-02;  3.9984043E+04;  0.0000000E+00; -5.6392081E-02;  4.0000000E+04;  0.0000000E+00;  4.0000125E+04;  2.8329646E-02;  0.0000000E+00; -2.4114803E-03;  8.1593155E+01;
  3.2163808E-01;  9.9999998E-03;  8.9983575E-02;4437;  8.9719640E-03;  0.0000000E+00; -1.4049908E-04;  9.9986438E+02;  1.0000000E-01; -1.1234250E+02;3;  1.0019258E+00;  0.0000000E+00; -4.0436711E-02;0;  2.6126571E-02;  3.9993172E+04;  0.0000000E+00; -9.0267718E-02;  4.0000000E+04;  0.0000000E+00;  3.9999215E+04;  2.8592274E-02;  0.0000000E+00; -2.4657028E-03;  1.8409544E+02;
  3.2159355E-01;  9.9999998E-03;  9.9986449E-02;4438;  8.9160325E-03;  0.0000000E+00; -1.6624448E-04;  9.9996857E+02;  1.0000000E-01; -2.6023954E+01;3;  9.8243135E-01;  0.0000000E+00; -4.4526868E-02;0;  2.6185136E-02;  4.0002609E+04;  0.0000000E+00; -1.2785231E-01;  4.0000000E+04;  0.0000000E+00;  3.9998176E+04;  2.8693756E-02;  0.0000000E+00; -2.5086196E-03;  3.2184558E+02;
  3.2153502E-01;  9.9999998E-03;  1.0999516E-01;4439;  8.8486150E-03;  0.0000000E+00; -1.9270214E-04;  1.0000659E+03;  1.0000000E-01;  5.4516975E+01;3;  9.6164155E-01;  0.0000000E+00; -4.8298426E-02;0;  2.6093077E-02;  4.0011363E+04;  0.0000000E+00; -1.6404435E-01;  4.0000000E+04;  0.0000000E+00;  3.9997383E+04;  2.8629819E-02;  0.0000000E+00; -2.5367418E-03;  4.2788507E+02;
  3.2147518E-01;  9.9999998E-03;  1.2000871E-01;4440;  8.7739415E-03;  0.0000000E+00; -2.1856096E-04;  1.0001544E+03;  1.0000000E-01;  1.2789761E+02;3;  9.3806785E-01;  0.0000000E+00; -5.2220739E-02;0;  2.5878139E-02;  4.0018656E+04;  0.0000000E+00; -1.9176187E-01;  4.0000000E+04;  0.0000000E+00;  3.9997145E+04;  2.8425889E-02;  0.0000000E+00; -2.5477509E-03;  4.7542062E+02;
  3.2143864E-01;  9.9999998E-03;  1.3002054E-01;4441;  8.6974595E-03;  0.0000000E+00; -2.4197821E-04;  1.0002186E+03;  1.0000000E-01;  1.8103192E+02;3;  9.1568655E-01;  0.0000000E+00; -5.6092754E-02;0;  2.5596289E-02;  4.0023363E+04;  0.0000000E+00; -2.0255557E-01;  4.0000000E+04;  0.0000000E+00;  3.9997707E+04;  2.8137902E-02;  0.0000000E+00; -2.5416133E-03;  4.4991394E+02;
  3.2143319E-01;  9.9999998E-03;  1.4002647E-01;4442;  8.6218910E-03;  0.0000000E+00; -2.6188992E-04;  1.0002441E+03;  1.0000000E-01;  2.0226588E+02;3;  8.9261800E-01;  0.0000000E+00; -5.9589662E-02;0;  2.5320688E-02;  4.0024082E+04;  0.0000000E+00; -1.8795837E-01;  4.0000000E+04;  0.0000000E+00;  3.9998367E+04;  2.7841737E-02;  0.0000000E+00; -2.5210497E-03;  3.5069049E+02;
  3.2144821E-01;  9.9999998E-03;  1.5002790E-01;4443;  8.5480800E-03;  0.0000000E+00; -2.7761125E-04;  1.0002148E+03;  1.0000000E-01;  1.7797028E+02;3;  8.7009525E-01;  0.0000000E+00; -6.2952682E-02;0;  2.5134088E-02;  4.0020402E+04;  0.0000000E+00; -1.4137968E-01;  4.0000000E+04;  0.0000000E+00;  3.9999789E+04;  2.7625337E-02;  0.0000000E+00; -2.4912495E-03;  2.0696393E+02;
  3.2147500E-01;  9.9999998E-03;  1.6002598E-01;4444;  8.4737353E-03;  0.0000000E+00; -2.8926734E-04;  1.0001294E+03;  1.0000000E-01;  1.0715746E+02;3;  8.4727472E-01;  0.0000000E+00; -6.7321964E-02;0;  2.5125394E-02;  4.0011742E+04;  0.0000000E+00; -5.9978236E-02;  4.0000000E+04;  0.0000000E+00;  4.0001629E+04;  2.7583517E-02;  0.0000000E+00; -2.4581240E-03;  2.0273631E+02;
  3.2150507E-01;  9.9999998E-03;  1.7002334E-01;4445;  8.3949557E-03;  0.0000000E+00; -2.9758777E-04;  9.9998645E+02;  1.0000000E-01; -1.1209559E+01;3;  8.2392830E-01;  0.0000000E+00; -7.1236990E-02;0;  2.5378050E-02;  3.9998578E+04;  0.0000000E+00;  5.3899128E-02;  4.0000000E+04;  0.0000000E+00;  4.0003492E+04;  2.7803583E-02;  0.0000000E+00; -2.4255335E-03;  4.3108353E+02;
  3.2152912E-01;  9.9999998E-03;  1.8002214E-01;4446;  8.3081052E-03;  0.0000000E+00; -3.0309689E-04;  9.9979645E+02;  1.0000000E-01; -1.6863721E+02;3;  8.0172247E-01;  0.0000000E+00; -7.4958339E-02;0;  2.5959918E-02;  3.9981375E+04;  0.0000000E+00;  1.9211809E-01;  4.0000000E+04;  0.0000000E+00;  4.0004922E+04;  2.8352935E-02;  0.0000000E+00; -2.3930171E-03;  7.0785846E+02;
  3.2154259E-01;  9.9999998E-03;  1.9002131E-01;4447;  8.2087861E-03;  0.0000000E+00; -3.0780589E-04;  9.9956610E+02;  1.0000000E-01; -3.5949600E+02;3;  7.7954972E-01;  0.0000000E+00; -7.8959048E-02;0;  2.6918100E-02;  3.9961973E+04;  0.0000000E+00;  3.4107095E-01;  4.0000000E+04;  0.0000000E+00;  4.0006082E+04;  2.9272890E-02;  0.0000000E+00; -2.3547891E-03;  9.7135559E+02;
  3.2154313E-01;  9.9999998E-03;  2.0001812E-01;4448;  8.0911461E-03;  0.0000000E+00; -3.1685087E-04;  9.9932062E+02;  1.0000000E-01; -5.6284827E+02;3;  7.5419414E-01;  0.0000000E+00; -8.6110666E-02;0;  2.8271055E-02;  3.9941855E+04;  0.0000000E+00;  4.7888860E-01;  4.0000000E+04;  0.0000000E+00;  4.0007305E+04;  3.0573070E-02;  0.0000000E+00; -2.3020157E-03;  1.1888031E+03;
  3.2153317E-01;  9.9999998E-03;  2.1001005E-01;4449;  7.9514701E-03;  0.0000000E+00; -3.3801037E-04;  9.9909088E+02;  1.0000000E-01; -7.5316388E+02;3;  7.2946221E-01;  0.0000000E+00; -8.9904070E-02;0;  3.0000217E-02;  3.9922836E+04;  0.0000000E+00;  5.7751226E-01;  4.0000000E+04;  0.0000000E+00;  4.0007691E+04;  3.2233011E-02;  0.0000000E+00; -2.2327930E-03;  1.3579110E+03;
  3.2150415E-01;  9.9999998E-03;  2.1999507E-01;4450;  7.7857147E-03;  0.0000000E+00; -3.6564490E-04;  9.9889819E+02;  1.0000000E-01; -9.1281366E+02;3;  6.9773531E-01;  0.0000000E+00; -8.9661270E-02;0;  3.2056030E-02;  3.9906730E+04;  0.0000000E+00;  6.1205930E-01;  4.0000000E+04;  0.0000000E+00;  4.0009574E+04;  3.4200087E-02;  0.0000000E+00; -2.1440566E-03;  1.5614871E+03;
  3.2145321E-01;  9.9999998E-03;  2.2998217E-01;4451;  7.5445701E-03;  0.0000000E+00; -3.6661571E-04;  9.9876306E+02;  1.0000000E-01; -1.0247611E+03;3;  6.5273470E-01;  0.0000000E+00; -8.5327007E-02;0;  3.4457445E-02;  3.9894680E+04;  0.0000000E+00;  5.6728703E-01;  4.0000000E+04;  0.0000000E+00;  4.0012242E+04;  3.6402069E-02;  0.0000000E+00; -1.9446234E-03;  1.8188608E+03;
  3.3175486E-01;  9.9999998E-03;  6.9992453E-02;4496;  9.0082716E-03;  0.0000000E+00; -6.4833905E-05;  9.9983844E+02;  1.0000000E-01; -1.3387276E+02;3;  1.0347247E+00;  0.0000000E+00; -2.1629682E-02;0;  2.9236415E-02;  3.9988438E+04;  0.0000000E+00; -1.3568805E-02;  4.0000000E+04;  0.0000000E+00;  4.0001895E+04;  3.1655781E-02;  0.0000000E+00; -2.4193656E-03;  2.1969809E+02;
  3.3174187E-01;  9.9999998E-03;  7.9986967E-02;4497;  8.9877537E-03;  0.0000000E+00; -7.9077952E-05;  9.9989221E+02;  1.0000000E-01; -8.9281425E+01;3;  1.0211799E+00;  0.0000000E+00; -2.4694992E-02;0;  2.9491859E-02;  3.9993582E+04;  0.0000000E+00; -3.8007423E-02;  4.0000000E+04;  0.0000000E+00;  4.0000891E+04;  3.1963218E-02;  0.0000000E+00; -2.4713599E-03;  1.0960250E+02;
  3.3171672E-01;  9.9999998E-03;  8.9983337E-02;4498;  8.9531094E-03;  0.0000000E+00; -9.5821561E-05;  9.9995581E+02;  1.0000000E-01; -3.6591557E+01;3;  1.0045675E+00;  0.0000000E+00; -2.7372036E-02;0;  2.9639799E-02;  3.9999785E+04;  0.0000000E+00; -7.1296185E-02;  4.0000000E+04;  0.0000000E+00;  3.9999434E+04;  3.2158650E-02;  0.0000000E+00; -2.5188504E-03;  1.1525868E+02;
  3.3167669E-01;  9.9999998E-03;  9.9983051E-02;4499;  8.9040287E-03;  0.0000000E+00; -1.1475511E-04;  1.0000243E+03;  1.0000000E-01;  2.0147579E+01;3;  9.8578840E-01;  0.0000000E+00; -3.0237380E-02;0;  2.9658316E-02;  4.0006914E+04;  0.0000000E+00; -1.1172236E-01;  4.0000000E+04;  0.0000000E+00;  3.9998426E+04;  3.2217275E-02;  0.0000000E+00; -2.5589589E-03;  2.6025726E+02;
  3.3162180E-01;  9.9999998E-03;  1.0998733E-01;4500;  8.8412687E-03;  0.0000000E+00; -1.3538238E-04;  1.0000989E+03;  1.0000000E-01;  8.1972992E+01;3;  9.6440464E-01;  0.0000000E+00; -3.3158008E-02;0;  2.9545039E-02;  4.0013441E+04;  0.0000000E+00; -1.5558904E-01;  4.0000000E+04;  0.0000000E+00;  3.9997398E+04;  3.2133628E-02;  0.0000000E+00; -2.5885880E-03;  3.9752206E+02;
  3.3155283E-01;  9.9999998E-03;  1.1999881E-01;4501;  8.7687988E-03;  0.0000000E+00; -1.5658351E-04;  1.0001631E+03;  1.0000000E-01;  1.3510728E+02;3;  9.4176722E-01;  0.0000000E+00; -3.6174115E-02;0;  2.9319860E-02;  4.0019301E+04;  0.0000000E+00; -1.9696730E-01;  4.0000000E+04;  0.0000000E+00;  3.9996922E+04;  3.1925425E-02;  0.0000000E+00; -2.6055647E-03;  4.8899982E+02;
  3.3147988E-01;  9.9999998E-03;  1.3001719E-01;4502;  8.6903367E-03;  0.0000000E+00; -1.7706084E-04;  1.0002133E+03;  1.0000000E-01;  1.7668636E+02;3;  9.1913253E-01;  0.0000000E+00; -3.9790135E-02;0;  2.9029721E-02;  4.0023359E+04;  0.0000000E+00; -2.2790487E-01;  4.0000000E+04;  0.0000000E+00;  3.9997102E+04;  3.1639680E-02;  0.0000000E+00; -2.6099591E-03;  5.1445972E+02;
  3.3142483E-01;  9.9999998E-03;  1.4002945E-01;4503;  8.6095463E-03;  0.0000000E+00; -1.9507161E-04;  1.0002385E+03;  1.0000000E-01;  1.9762404E+02;3;  8.9547735E-01;  0.0000000E+00; -4.3206207E-02;0;  2.8747818E-02;  4.0024609E+04;  0.0000000E+00; -2.3934209E-01;  4.0000000E+04;  0.0000000E+00;  3.9997750E+04;  3.1352744E-02;  0.0000000E+00; -2.6049258E-03;  4.6701083E+02;
  3.3140117E-01;  9.9999998E-03;  1.5003361E-01;4504;  8.5276728E-03;  0.0000000E+00; -2.0945995E-04;  1.0002233E+03;  1.0000000E-01;  1.8498242E+02;3;  8.7307906E-01;  0.0000000E+00; -4.6510078E-02;0;  2.8559193E-02;  4.0022344E+04;  0.0000000E+00; -2.2279723E-01;  4.0000000E+04;  0.0000000E+00;  3.9998914E+04;  3.1155622E-02;  0.0000000E+00; -2.5964289E-03;  3.5848236E+02;
  3.3140537E-01;  9.9999998E-03;  1.6003248E-01;4505;  8.4442496E-03;  0.0000000E+00; -2.1970604E-04;  1.0001597E+03;  1.0000000E-01;  1.3224318E+02;3;  8.5057163E-01;  0.0000000E+00; -4.9782764E-02;0;  2.8549459E-02;  4.0015555E+04;  0.0000000E+00; -1.7237499E-01;  4.0000000E+04;  0.0000000E+00;  4.0000578E+04;  3.1139998E-02;  0.0000000E+00; -2.5905394E-03;  2.5208711E+02;
  3.3142915E-01;  9.9999998E-03;  1.7002960E-01;4506;  8.3573237E-03;  0.0000000E+00; -2.2574999E-04;  1.0000507E+03;  1.0000000E-01;  4.1974121E+01;3;  8.2748699E-01;  0.0000000E+00; -5.3989604E-02;0;  2.8800057E-02;  4.0004688E+04;  0.0000000E+00; -8.6712010E-02;  4.0000000E+04;  0.0000000E+00;  4.0002559E+04;  3.1390026E-02;  0.0000000E+00; -2.5899690E-03;  3.1426736E+02;
  3.3146378E-01;  9.9999998E-03;  1.8002813E-01;4507;  8.2624014E-03;  0.0000000E+00; -2.2895187E-04;  9.9988538E+02;  1.0000000E-01; -9.4960274E+01;3;  8.0429983E-01;  0.0000000E+00; -5.7597972E-02;0;  2.9381251E-02;  3.9990223E+04;  0.0000000E+00;  2.9694563E-02;  4.0000000E+04;  0.0000000E+00;  4.0004172E+04;  3.1972844E-02;  0.0000000E+00; -2.5915934E-03;  5.3159088E+02;
  3.3150464E-01;  9.9999998E-03;  1.9002882E-01;4508;  8.1568761E-03;  0.0000000E+00; -2.2889863E-04;  9.9968512E+02;  1.0000000E-01; -2.6088150E+02;3;  7.8217793E-01;  0.0000000E+00; -6.1059814E-02;0;  3.0347828E-02;  3.9972871E+04;  0.0000000E+00;  1.6655636E-01;  4.0000000E+04;  0.0000000E+00;  4.0005738E+04;  3.2932073E-02;  0.0000000E+00; -2.5842446E-03;  7.7477747E+02;
  3.3153647E-01;  9.9999998E-03;  2.0002922E-01;4509;  8.0375839E-03;  0.0000000E+00; -2.3041300E-04;  9.9946661E+02;  1.0000000E-01; -4.4191342E+02;3;  7.6059920E-01;  0.0000000E+00; -6.6386580E-02;0;  3.1728063E-02;  3.9954309E+04;  0.0000000E+00;  3.0847201E-01;  4.0000000E+04;  0.0000000E+00;  4.0006711E+04;  3.4277100E-02;  0.0000000E+00; -2.5490371E-03;  9.8082538E+02;
  3.3154535E-01;  9.9999998E-03;  2.1002461E-01;4510;  7.9051023E-03;  0.0000000E+00; -2.4725610E-04;  9.9923730E+02;  1.0000000E-01; -6.3188336E+02;3;  7.3845017E-01;  0.0000000E+00; -7.7082351E-02;0;  3.3513688E-02;  3.9935750E+04;  0.0000000E+00;  4.3399927E-01;  4.0000000E+04;  0.0000000E+00;  4.0007148E+04;  3.5986997E-02;  0.0000000E+00; -2.4733085E-03;  1.1411752E+03;
  3.3153149E-01;  9.9999998E-03;  2.2001274E-01;4511;  7.7604181E-03;  0.0000000E+00; -2.8526850E-04;  9.9903217E+02;  1.0000000E-01; -8.0185388E+02;3;  7.2168201E-01;  0.0000000E+00; -8.6871475E-02;0;  3.5655975E-02;  3.9918730E+04;  0.0000000E+00;  5.1950705E-01;  4.0000000E+04;  0.0000000E+00;  4.0007863E+04;  3.8019121E-02;  0.0000000E+00; -2.3631447E-03;  1.3155508E+03;
  3.3149680E-01;  9.9999998E-03;  2.2999871E-01;4512;  7.5861122E-03;  0.0000000E+00; -3.1992773E-04;  9.9886646E+02;  1.0000000E-01; -9.3913391E+02;3;  7.0108610E-01;  0.0000000E+00; -9.3614750E-02;0;  3.8131647E-02;  3.9904578E+04;  0.0000000E+00;  5.4615933E-01;  4.0000000E+04;  0.0000000E+00;  4.0010059E+04;  4.0310610E-02;  0.0000000E+00; -2.1789633E-03;  1.5538324E+03;
  3.4172124E-01;  9.9999998E-03;  6.9998227E-02;4557;  8.9834640E-03;  0.0000000E+00; -3.8237446E-05;  9.9999976E+02;  1.0000000E-01; -1.9752528E-01;3;  1.0376540E+00;  0.0000000E+00; -1.0998597E-02;0;  3.4348182E-02;  4.0000422E+04;  0.0000000E+00;  4.6256357E-03;  4.0000000E+04;  0.0000000E+00;  4.0002266E+04;  3.6890946E-02;  0.0000000E+00; -2.5427630E-03;  2.5693286E+02;
  3.4172064E-01;  9.9999998E-03;  7.9992443E-02;4558;  8.9700455E-03;  0.0000000E+00; -4.4388882E-05;  1.0000182E+03;  1.0000000E-01;  1.5110683E+01;3;  1.0236057E+00;  0.0000000E+00; -1.2746491E-02;0;  3.4479950E-02;  4.0003070E+04;  0.0000000E+00; -1.4499236E-02;  4.0000000E+04;  0.0000000E+00;  4.0001367E+04;  3.7061740E-02;  0.0000000E+00; -2.5817908E-03;  1.5213275E+02;
  3.4171760E-01;  9.9999998E-03;  8.9987196E-02;4559;  8.9429477E-03;  0.0000000E+00; -5.3006861E-05;  1.0000472E+03;  1.0000000E-01;  3.9110004E+01;3;  1.0073884E+00;  0.0000000E+00; -1.4295946E-02;0;  3.4529544E-02;  4.0006441E+04;  0.0000000E+00; -4.3519963E-02;  4.0000000E+04;  0.0000000E+00;  4.0000137E+04;  3.7148483E-02;  0.0000000E+00; -2.6189385E-03;  6.2434906E+01;
  3.4171012E-01;  9.9999998E-03;  9.9983551E-02;4560;  8.9004468E-03;  0.0000000E+00; -6.4620130E-05;  1.0000799E+03;  1.0000000E-01;  6.6170967E+01;3;  9.8834574E-01;  0.0000000E+00; -1.6224638E-02;0;  3.4476958E-02;  4.0010641E+04;  0.0000000E+00; -8.1985570E-02;  4.0000000E+04;  0.0000000E+00;  3.9999012E+04;  3.7128743E-02;  0.0000000E+00; -2.6517862E-03;  1.8839296E+02;
  3.4169376E-01;  9.9999998E-03;  1.0998304E-01;4561;  8.8438718E-03;  0.0000000E+00; -7.8757192E-05;  1.0001207E+03;  1.0000000E-01;  1.0004655E+02;3;  9.6796048E-01;  0.0000000E+00; -1.8220436E-02;0;  3.4314640E-02;  4.0014934E+04;  0.0000000E+00; -1.2761147E-01;  4.0000000E+04;  0.0000000E+00;  3.9997859E+04;  3.6992401E-02;  0.0000000E+00; -2.6777608E-03;  3.4256424E+02;
  3.4166160E-01;  9.9999998E-03;  1.1998785E-01;4562;  8.7754223E-03;  0.0000000E+00; -9.4834839E-05;  1.0001592E+03;  1.0000000E-01;  1.3194688E+02;3;  9.4661415E-01;  0.0000000E+00; -2.1103866E-02;0;  3.4053266E-02;  4.0018926E+04;  0.0000000E+00; -1.7583261E-01;  4.0000000E+04;  0.0000000E+00;  3.9996957E+04;  3.6748398E-02;  0.0000000E+00; -2.6951306E-03;  4.6488470E+02;
  3.4160739E-01;  9.9999998E-03;  1.3000058E-01;4563;  8.6976467E-03;  0.0000000E+00; -1.1162813E-04;  1.0001881E+03;  1.0000000E-01;  1.5584744E+02;3;  9.2411971E-01;  0.0000000E+00; -2.3902373E-02;0;  3.3725038E-02;  4.0021582E+04;  0.0000000E+00; -2.1968743E-01;  4.0000000E+04;  0.0000000E+00;  3.9996754E+04;  3.6429480E-02;  0.0000000E+00; -2.7044415E-03;  5.3132025E+02;
  3.4153438E-01;  9.9999998E-03;  1.4001650E-01;4564;  8.6134877E-03;  0.0000000E+00; -1.2824101E-04;  1.0001998E+03;  1.0000000E-01;  1.6552618E+02;3;  8.9972913E-01;  0.0000000E+00; -2.7575476E-02;0;  3.3387564E-02;  4.0022363E+04;  0.0000000E+00; -2.5028521E-01;  4.0000000E+04;  0.0000000E+00;  3.9996875E+04;  3.6096986E-02;  0.0000000E+00; -2.7094230E-03;  5.2924725E+02;
  3.4146821E-01;  9.9999998E-03;  1.5002836E-01;4565;  8.5259192E-03;  0.0000000E+00; -1.4331521E-04;  1.0001870E+03;  1.0000000E-01;  1.5485982E+02;3;  8.7704319E-01;  0.0000000E+00; -3.1079881E-02;0;  3.3126347E-02;  4.0020387E+04;  0.0000000E+00; -2.5807935E-01;  4.0000000E+04;  0.0000000E+00;  3.9997996E+04;  3.5843197E-02;  0.0000000E+00; -2.7168498E-03;  4.5963364E+02;
  3.4143314E-01;  9.9999998E-03;  1.6003282E-01;4566;  8.4361332E-03;  0.0000000E+00; -1.5579058E-04;  1.0001384E+03;  1.0000000E-01;  1.1466342E+02;3;  8.5469145E-01;  0.0000000E+00; -3.4584872E-02;0;  3.3035170E-02;  4.0015125E+04;  0.0000000E+00; -2.3490635E-01;  4.0000000E+04;  0.0000000E+00;  3.9999535E+04;  3.5768166E-02;  0.0000000E+00; -2.7329945E-03;  3.4907547E+02;
  3.4143239E-01;  9.9999998E-03;  1.7003287E-01;4567;  8.3432021E-03;  0.0000000E+00; -1.6414588E-04;  1.0000511E+03;  1.0000000E-01;  4.2369171E+01;3;  8.3307654E-01;  0.0000000E+00; -3.8664944E-02;0;  3.3197422E-02;  4.0006246E+04;  0.0000000E+00; -1.7638309E-01;  4.0000000E+04;  0.0000000E+00;  4.0001070E+04;  3.5956889E-02;  0.0000000E+00; -2.7594683E-03;  2.8901385E+02;
  3.4145594E-01;  9.9999998E-03;  1.8003234E-01;4568;  8.2454616E-03;  0.0000000E+00; -1.6824808E-04;  9.9991821E+02;  1.0000000E-01; -6.7751167E+01;3;  8.1170815E-01;  0.0000000E+00; -4.4557627E-02;0;  3.3683062E-02;  3.9994266E+04;  0.0000000E+00; -8.3831087E-02;  4.0000000E+04;  0.0000000E+00;  4.0002840E+04;  3.6473479E-02;  0.0000000E+00; -2.7904164E-03;  3.9907782E+02;
  3.4148562E-01;  9.9999998E-03;  1.9003317E-01;4569;  8.1393998E-03;  0.0000000E+00; -1.7167002E-04;  9.9975360E+02;  1.0000000E-01; -2.0414238E+02;3;  7.9051298E-01;  0.0000000E+00; -5.2931607E-02;0;  3.4545101E-02;  3.9979043E+04;  0.0000000E+00;  3.5179373E-02;  4.0000000E+04;  0.0000000E+00;  4.0004582E+04;  3.7356067E-02;  0.0000000E+00; -2.8109667E-03;  6.0456036E+02;
  3.4150735E-01;  9.9999998E-03;  2.0003526E-01;4570;  8.0252653E-03;  0.0000000E+00; -1.7650869E-04;  9.9955756E+02;  1.0000000E-01; -3.6655753E+02;3;  7.7235216E-01;  0.0000000E+00; -6.0491510E-02;0;  3.5821371E-02;  3.9962609E+04;  0.0000000E+00;  1.6766264E-01;  4.0000000E+04;  0.0000000E+00;  4.0005703E+04;  3.8618065E-02;  0.0000000E+00; -2.7966953E-03;  7.9563159E+02;
  3.4151942E-01;  9.9999998E-03;  2.1003565E-01;4571;  7.9092216E-03;  0.0000000E+00; -1.9669613E-04;  9.9934167E+02;  1.0000000E-01; -5.4541669E+02;3;  7.5878006E-01;  0.0000000E+00; -7.2083674E-02;0;  3.7521921E-02;  3.9945094E+04;  0.0000000E+00;  2.9767480E-01;  4.0000000E+04;  0.0000000E+00;  4.0006020E+04;  4.0249795E-02;  0.0000000E+00; -2.7278741E-03;  9.1842218E+02;
  3.4152228E-01;  9.9999998E-03;  2.2002789E-01;4572;  7.8030890E-03;  0.0000000E+00; -2.5143227E-04;  9.9913019E+02;  1.0000000E-01; -7.2062158E+02;3;  7.4922770E-01;  0.0000000E+00; -8.8534340E-02;0;  3.9589129E-02;  3.9928449E+04;  0.0000000E+00;  4.0780461E-01;  4.0000000E+04;  0.0000000E+00;  4.0006113E+04;  4.2214978E-02;  0.0000000E+00; -2.6258496E-03;  1.0356921E+03;
  3.4151059E-01;  9.9999998E-03;  2.3001291E-01;4573;  7.7049993E-03;  0.0000000E+00; -3.2632472E-04;  9.9895343E+02;  1.0000000E-01; -8.6708661E+02;3;  7.3442465E-01;  0.0000000E+00; -9.3351439E-02;0;  4.1938744E-02;  3.9913258E+04;  0.0000000E+00;  4.8017213E-01;  4.0000000E+04;  0.0000000E+00;  4.0007730E+04;  4.4453647E-02;  0.0000000E+00; -2.5149020E-03;  1.2622064E+03;
  3.5167050E-01;  9.9999998E-03;  7.0002414E-02;4618;  8.9738397E-03;  0.0000000E+00; -1.2512712E-05;  1.0001290E+03;  1.0000000E-01;  1.0686118E+02;3;  1.0405835E+00;  0.0000000E+00; -1.0041398E-03;0;  4.0402748E-02;  4.0010379E+04;  0.0000000E+00;  2.2120874E-02;  4.0000000E+04;  0.0000000E+00;  4.0002262E+04;  4.3134566E-02;  0.0000000E+00; -2.7318175E-03;  2.7356271E+02;
  3.5166737E-01;  9.9999998E-03;  7.9998225E-02;4619;  8.9655044E-03;  0.0000000E+00; -1.0611770E-05;  1.0001194E+03;  1.0000000E-01;  9.8861404E+01;3;  1.0258532E+00;  0.0000000E+00; -1.4943768E-03;0;  4.0358454E-02;  4.0010809E+04;  0.0000000E+00;  9.9459151E-03;  4.0000000E+04;  0.0000000E+00;  4.0001586E+04;  4.3113153E-02;  0.0000000E+00; -2.7547008E-03;  1.8695825E+02;
  3.5166407E-01;  9.9999998E-03;  8.9993790E-02;4620;  8.9438641E-03;  0.0000000E+00; -1.2417679E-05;  1.0001211E+03;  1.0000000E-01;  1.0034284E+02;3;  1.0095540E+00;  0.0000000E+00; -2.5405083E-03;0;  4.0252600E-02;  4.0011582E+04;  0.0000000E+00; -1.2185954E-02;  4.0000000E+04;  0.0000000E+00;  4.0000422E+04;  4.3030109E-02;  0.0000000E+00; -2.7775085E-03;  6.2210815E+01;
  3.5165963E-01;  9.9999998E-03;  9.9989951E-02;4621;  8.9082383E-03;  0.0000000E+00; -1.8016193E-05;  1.0001228E+03;  1.0000000E-01;  1.0172552E+02;3;  9.9234557E-01;  0.0000000E+00; -3.7977095E-03;0;  4.0069181E-02;  4.0013191E+04;  0.0000000E+00; -4.4885043E-02;  4.0000000E+04;  0.0000000E+00;  3.9999211E+04;  4.2867161E-02;  0.0000000E+00; -2.7979796E-03;  1.1004972E+02;
  3.5165173E-01;  9.9999998E-03;  1.0998758E-01;4622;  8.8608731E-03;  0.0000000E+00; -2.7059659E-05;  1.0001326E+03;  1.0000000E-01;  1.0992281E+02;3;  9.7495210E-01;  0.0000000E+00; -6.6255927E-03;0;  3.9800130E-02;  4.0015426E+04;  0.0000000E+00; -8.7136425E-02;  4.0000000E+04;  0.0000000E+00;  3.9998016E+04;  4.2614225E-02;  0.0000000E+00; -2.8140966E-03;  2.6806610E+02;
  3.5163635E-01;  9.9999998E-03;  1.1998753E-01;4623;  8.7995818E-03;  0.0000000E+00; -4.0233517E-05;  1.0001440E+03;  1.0000000E-01;  1.1930527E+02;3;  9.5502704E-01;  0.0000000E+00; -9.1756368E-03;0;  3.9451890E-02;  4.0017301E+04;  0.0000000E+00; -1.3572811E-01;  4.0000000E+04;  0.0000000E+00;  3.9997125E+04;  4.2276818E-02;  0.0000000E+00; -2.8249270E-03;  4.0672394E+02;
  3.5160923E-01;  9.9999998E-03;  1.2999064E-01;4624;  8.7261451E-03;  0.0000000E+00; -5.6103283E-05;  1.0001493E+03;  1.0000000E-01;  1.2365083E+02;3;  9.3294024E-01;  0.0000000E+00; -1.3378780E-02;0;  3.9049700E-02;  4.0018426E+04;  0.0000000E+00; -1.8488577E-01;  4.0000000E+04;  0.0000000E+00;  3.9996828E+04;  4.1881692E-02;  0.0000000E+00; -2.8319904E-03;  5.0118896E+02;
  3.5156766E-01;  9.9999998E-03;  1.3999848E-01;4625;  8.6434623E-03;  0.0000000E+00; -7.4116513E-05;  1.0001475E+03;  1.0000000E-01;  1.2216939E+02;3;  9.0987295E-01;  0.0000000E+00; -1.6148221E-02;0;  3.8638622E-02;  4.0018297E+04;  0.0000000E+00; -2.2641452E-01;  4.0000000E+04;  0.0000000E+00;  3.9996723E+04;  4.1478690E-02;  0.0000000E+00; -2.8400684E-03;  5.3457178E+02;
  3.5151410E-01;  9.9999998E-03;  1.5001100E-01;4626;  8.5550472E-03;  0.0000000E+00; -9.2691604E-05;  1.0001289E+03;  1.0000000E-01;  1.0676241E+02;3;  8.8730854E-01;  0.0000000E+00; -2.1437852E-02;0;  3.8283549E-02;  4.0016230E+04;  0.0000000E+00; -2.5062102E-01;  4.0000000E+04;  0.0000000E+00;  3.9997355E+04;  4.1140221E-02;  0.0000000E+00; -2.8566709E-03;  4.9998337E+02;
  3.5146496E-01;  9.9999998E-03;  1.6002218E-01;4627;  8.4629999E-03;  0.0000000E+00; -1.1031608E-04;  1.0000834E+03;  1.0000000E-01;  6.9133850E+01;3;  8.6510551E-01;  0.0000000E+00; -2.8013829E-02;0;  3.8068030E-02;  4.0011465E+04;  0.0000000E+00; -2.4821883E-01;  4.0000000E+04;  0.0000000E+00;  3.9998668E+04;  4.0956106E-02;  0.0000000E+00; -2.8880769E-03;  4.0789703E+02;
  3.5143468E-01;  9.9999998E-03;  1.7002824E-01;4628;  8.3682342E-03;  0.0000000E+00; -1.2599620E-04;  1.0000139E+03;  1.0000000E-01;  1.1456466E+01;3;  8.4430599E-01;  0.0000000E+00; -3.4186073E-02;0;  3.8077746E-02;  4.0004172E+04;  0.0000000E+00; -2.1291205E-01;  4.0000000E+04;  0.0000000E+00;  4.0000082E+04;  4.1012689E-02;  0.0000000E+00; -2.9349427E-03;  3.0700351E+02;
  3.5142758E-01;  9.9999998E-03;  1.8003088E-01;4629;  8.2714008E-03;  0.0000000E+00; -1.3786316E-04;  9.9990479E+02;  1.0000000E-01; -7.8861969E+01;3;  8.2628131E-01;  0.0000000E+00; -4.0840529E-02;0;  3.8388882E-02;  3.9993887E+04;  0.0000000E+00; -1.4369474E-01;  4.0000000E+04;  0.0000000E+00;  4.0001777E+04;  4.1378547E-02;  0.0000000E+00; -2.9896649E-03;  3.1835980E+02;
  3.5143921E-01;  9.9999998E-03;  1.9003367E-01;4630;  8.1734713E-03;  0.0000000E+00; -1.4764770E-04;  9.9976245E+02;  1.0000000E-01; -1.9678456E+02;3;  8.0944514E-01;  0.0000000E+00; -4.7758695E-02;0;  3.9062951E-02;  3.9981086E+04;  0.0000000E+00; -4.5729350E-02;  4.0000000E+04;  0.0000000E+00;  4.0003699E+04;  4.2097688E-02;  0.0000000E+00; -3.0347377E-03;  4.7326602E+02;
  3.5145980E-01;  9.9999998E-03;  2.0003830E-01;4631;  8.0765830E-03;  0.0000000E+00; -1.6446941E-04;  9.9959485E+02;  1.0000000E-01; -3.3564484E+02;3;  7.9212695E-01;  0.0000000E+00; -5.9577581E-02;0;  4.0141251E-02;  3.9966426E+04;  0.0000000E+00;  7.0442460E-02;  4.0000000E+04;  0.0000000E+00;  4.0004859E+04;  4.3187268E-02;  0.0000000E+00; -3.0460178E-03;  6.4140192E+02;
  3.5148016E-01;  9.9999998E-03;  2.1004204E-01;4632;  7.9900743E-03;  0.0000000E+00; -2.0578809E-04;  9.9939893E+02;  1.0000000E-01; -4.9796121E+02;3;  7.8416854E-01;  0.0000000E+00; -7.3772267E-02;0;  4.1625865E-02;  3.9950539E+04;  0.0000000E+00;  1.9096768E-01;  4.0000000E+04;  0.0000000E+00;  4.0005098E+04;  4.4637848E-02;  0.0000000E+00; -3.0119817E-03;  7.3252374E+02;
  3.5149384E-01;  9.9999998E-03;  2.2003731E-01;4633;  7.9358025E-03;  0.0000000E+00; -2.8606362E-04;  9.9919244E+02;  1.0000000E-01; -6.6906750E+02;3;  7.8253388E-01;  0.0000000E+00; -8.8744260E-02;0;  4.3449305E-02;  3.9934586E+04;  0.0000000E+00;  3.0110508E-01;  4.0000000E+04;  0.0000000E+00;  4.0004719E+04;  4.6414688E-02;  0.0000000E+00; -2.9653814E-03;  8.0226703E+02;
  3.5149395E-01;  9.9999998E-03;  2.3002200E-01;4634;  7.9146288E-03;  0.0000000E+00; -3.8077461E-04;  9.9901740E+02;  1.0000000E-01; -8.1405103E+02;3;  7.9945916E-01;  0.0000000E+00; -1.0853391E-01;0;  4.5538422E-02;  3.9919359E+04;  0.0000000E+00;  3.8718948E-01;  4.0000000E+04;  0.0000000E+00;  4.0005992E+04;  4.8461854E-02;  0.0000000E+00; -2.9234311E-03;  1.0222654E+03;
  3.6162388E-01;  9.9999998E-03;  7.0005484E-02;4679;  8.9886095E-03;  0.0000000E+00;  1.9863855E-05;  1.0002050E+03;  1.0000000E-01;  1.6977298E+02;3;  1.0442677E+00;  0.0000000E+00;  1.0033690E-02;0;  4.6746235E-02;  4.0016465E+04;  0.0000000E+00;  3.7038058E-02;  4.0000000E+04;  0.0000000E+00;  4.0002504E+04;  4.9735893E-02;  0.0000000E+00; -2.9896558E-03;  2.7454703E+02;
  3.6161879E-01;  9.9999998E-03;  8.0002934E-02;4680;  8.9839129E-03;  0.0000000E+00;  3.0985269E-05;  1.0001785E+03;  1.0000000E-01;  1.4794643E+02;3;  1.0291662E+00;  0.0000000E+00;  7.9078758E-03;0;  4.6487525E-02;  4.0014910E+04;  0.0000000E+00;  3.2359470E-02;  4.0000000E+04;  0.0000000E+00;  4.0001848E+04;  4.9480885E-02;  0.0000000E+00; -2.9933592E-03;  2.1036403E+02;
  3.6161691E-01;  9.9999998E-03;  8.9999445E-02;4681;  8.9683877E-03;  0.0000000E+00;  3.4901830E-05;  1.0001556E+03;  1.0000000E-01;  1.2898401E+02;3;  1.0153402E+00;  0.0000000E+00;  4.3577710E-03;0;  4.6182889E-02;  4.0013859E+04;  0.0000000E+00;  1.8608561E-02;  4.0000000E+04;  0.0000000E+00;  4.0000891E+04;  4.9181040E-02;  0.0000000E+00; -2.9981514E-03;  1.0326881E+02;
  3.6161751E-01;  9.9999998E-03;  9.9995710E-02;4682;  8.9477580E-03;  0.0000000E+00;  2.6452415E-05;  1.0001393E+03;  1.0000000E-01;  1.1535476E+02;3;  1.0086958E+00;  0.0000000E+00; -3.7779098E-03;0;  4.5822993E-02;  4.0013773E+04;  0.0000000E+00; -5.6626555E-03;  4.0000000E+04;  0.0000000E+00;  3.9999738E+04;  4.8824597E-02;  0.0000000E+00; -3.0016054E-03;  3.4131783E+01;
  3.6161536E-01;  9.9999998E-03;  1.0999215E-01;4683;  8.9256242E-03;  0.0000000E+00;  6.0081315E-06;  1.0001290E+03;  1.0000000E-01;  1.0686118E+02;3;  1.0098763E+00;  0.0000000E+00; -1.3080992E-02;0;  4.5400232E-02;  4.0013973E+04;  0.0000000E+00; -4.0518194E-02;  4.0000000E+04;  0.0000000E+00;  3.9998590E+04;  4.8402242E-02;  0.0000000E+00; -3.0020096E-03;  1.8294168E+02;
  3.6160576E-01;  9.9999998E-03;  1.1998932E-01;4684;  8.8891983E-03;  0.0000000E+00; -1.7090597E-05;  1.0001187E+03;  1.0000000E-01;  9.8268829E+01;3;  1.0014704E+00;  0.0000000E+00; -1.5703669E-02;0;  4.4918131E-02;  4.0014285E+04;  0.0000000E+00; -8.4012195E-02;  4.0000000E+04;  0.0000000E+00;  3.9997629E+04;  4.7917582E-02;  0.0000000E+00; -2.9994496E-03;  3.2154391E+02;
  3.6158675E-01;  9.9999998E-03;  1.2998810E-01;4685;  8.8288831E-03;  0.0000000E+00; -3.7268219E-05;  1.0001064E+03;  1.0000000E-01;  8.8195038E+01;3;  9.8089880E-01;  0.0000000E+00; -1.9443799E-02;0;  4.4396833E-02;  4.0014258E+04;  0.0000000E+00; -1.3167413E-01;  4.0000000E+04;  0.0000000E+00;  3.9996777E+04;  4.7393631E-02;  0.0000000E+00; -2.9967972E-03;  4.2833762E+02;
  3.6155793E-01;  9.9999998E-03;  1.3998982E-01;4686;  8.7458836E-03;  0.0000000E+00; -5.9976348E-05;  1.0000877E+03;  1.0000000E-01;  7.2689301E+01;3;  9.4998056E-01;  0.0000000E+00; -2.2436244E-02;0;  4.3873891E-02;  4.0012961E+04;  0.0000000E+00; -1.7638084E-01;  4.0000000E+04;  0.0000000E+00;  3.9996758E+04;  4.6874125E-02;  0.0000000E+00; -3.0002333E-03;  4.8471390E+02;
  3.6151919E-01;  9.9999998E-03;  1.4999609E-01;4687;  8.6538875E-03;  0.0000000E+00; -8.4629930E-05;  1.0000572E+03;  1.0000000E-01;  4.7406067E+01;3;  9.2270309E-01;  0.0000000E+00; -2.7744023E-02;0;  4.3402024E-02;  4.0010457E+04;  0.0000000E+00; -2.0897837E-01;  4.0000000E+04;  0.0000000E+00;  3.9997055E+04;  4.6420384E-02;  0.0000000E+00; -3.0183597E-03;  4.7796100E+02;
  3.6147162E-01;  9.9999998E-03;  1.6000703E-01;4688;  8.5599720E-03;  0.0000000E+00; -1.0958139E-04;  1.0000123E+03;  1.0000000E-01;  1.0172552E+01;3;  8.9732665E-01;  0.0000000E+00; -3.3402022E-02;0;  4.3046851E-02;  4.0005789E+04;  0.0000000E+00; -2.2009866E-01;  4.0000000E+04;  0.0000000E+00;  3.9997914E+04;  4.6104528E-02;  0.0000000E+00; -3.0576759E-03;  4.0774390E+02;
  3.6142987E-01;  9.9999998E-03;  1.7001773E-01;4689;  8.4683178E-03;  0.0000000E+00; -1.3375095E-04;  9.9994031E+02;  1.0000000E-01; -4.9430702E+01;3;  8.7846875E-01;  0.0000000E+00; -4.2079888E-02;0;  4.2886555E-02;  3.9999270E+04;  0.0000000E+00; -2.0270547E-01;  4.0000000E+04;  0.0000000E+00;  3.9999500E+04;  4.6004977E-02;  0.0000000E+00; -3.1184235E-03;  3.0302026E+02;
  3.6140686E-01;  9.9999998E-03;  1.8002519E-01;4690;  8.3803451E-03;  0.0000000E+00; -1.6055652E-04;  9.9985498E+02;  1.0000000E-01; -1.2014475E+02;3;  8.6348110E-01;  0.0000000E+00; -5.4724630E-02;0;  4.2995758E-02;  3.9990340E+04;  0.0000000E+00; -1.5446411E-01;  4.0000000E+04;  0.0000000E+00;  4.0001047E+04;  4.6188679E-02;  0.0000000E+00; -3.1929188E-03;  2.6363397E+02;
  3.6140290E-01;  9.9999998E-03;  1.9003090E-01;4691;  8.2991533E-03;  0.0000000E+00; -1.9143271E-04;  9.9973132E+02;  1.0000000E-01; -2.2261099E+02;3;  8.5405117E-01;  0.0000000E+00; -6.7325875E-02;0;  4.3433487E-02;  3.9979047E+04;  0.0000000E+00; -7.8743309E-02;  4.0000000E+04;  0.0000000E+00;  4.0002559E+04;  4.6699364E-02;  0.0000000E+00; -3.2658782E-03;  3.8000024E+02;
  3.6141375E-01;  9.9999998E-03;  2.0003667E-01;4692;  8.2307467E-03;  0.0000000E+00; -2.2648592E-04;  9.9958221E+02;  1.0000000E-01; -3.4611368E+02;3;  8.4923077E-01;  0.0000000E+00; -8.1470639E-02;0;  4.4240508E-02;  3.9966109E+04;  0.0000000E+00;  1.6078198E-02;  4.0000000E+04;  0.0000000E+00;  4.0003914E+04;  4.7555670E-02;  0.0000000E+00; -3.3151628E-03;  5.3893359E+02;
  3.6143228E-01;  9.9999998E-03;  2.1004140E-01;4693;  8.1907995E-03;  0.0000000E+00; -2.7952329E-04;  9.9941046E+02;  1.0000000E-01; -4.8843063E+02;3;  8.5488838E-01;  0.0000000E+00; -9.9557340E-02;0;  4.5421984E-02;  3.9951855E+04;  0.0000000E+00;  1.1838795E-01;  4.0000000E+04;  0.0000000E+00;  4.0004246E+04;  4.8749942E-02;  0.0000000E+00; -3.3279594E-03;  6.3031323E+02;
  3.6144820E-01;  9.9999998E-03;  2.2003810E-01;4694;  8.2141450E-03;  0.0000000E+00; -3.8520055E-04;  9.9922278E+02;  1.0000000E-01; -6.4393243E+02;3;  8.8123775E-01;  0.0000000E+00; -1.2284002E-01;0;  4.6878666E-02;  3.9936863E+04;  0.0000000E+00;  2.1520145E-01;  4.0000000E+04;  0.0000000E+00;  4.0004398E+04;  5.0248172E-02;  0.0000000E+00; -3.3695060E-03;  6.9473999E+02;
  3.6145297E-01;  9.9999998E-03;  2.3002344E-01;4695;  8.2937442E-03;  0.0000000E+00; -5.1177404E-04;  9.9905652E+02;  1.0000000E-01; -7.8165692E+02;3;  9.1961831E-01;  0.0000000E+00; -1.4461830E-01;0;  4.8507553E-02;  3.9921891E+04;  0.0000000E+00;  2.9384261E-01;  4.0000000E+04;  0.0000000E+00;  4.0006020E+04;  5.1996730E-02;  0.0000000E+00; -3.4891774E-03;  9.3101996E+02;
  3.7158602E-01;  9.9999998E-03;  7.0005260E-02;4740;  9.0465555E-03;  0.0000000E+00;  3.5554902E-05;  1.0002219E+03;  1.0000000E-01;  1.8389603E+02;3;  1.0622991E+00;  0.0000000E+00; -5.0269328E-03;0;  5.2668355E-02;  4.0017574E+04;  0.0000000E+00;  4.8942599E-02;  4.0000000E+04;  0.0000000E+00;  4.0002078E+04;  5.5977732E-02;  0.0000000E+00; -3.3093770E-03;  2.6296790E+02;
  3.7158626E-01;  9.9999998E-03;  8.0004118E-02;4741;  9.0635940E-03;  0.0000000E+00;  3.6094130E-05;  1.0001854E+03;  1.0000000E-01;  1.5357590E+02;3;  1.0727632E+00;  0.0000000E+00; -2.3777949E-02;0;  5.2171629E-02;  4.0015070E+04;  0.0000000E+00;  5.1270656E-02;  4.0000000E+04;  0.0000000E+00;  4.0001734E+04;  5.5462949E-02;  0.0000000E+00; -3.2913205E-03;  2.2079167E+02;
  3.7159154E-01;  9.9999998E-03;  9.0002023E-02;4742;  9.1216378E-03;  0.0000000E+00;  1.9891388E-05;  1.0001536E+03;  1.0000000E-01;  1.2730504E+02;3;  1.1228490E+00;  0.0000000E+00; -3.9129719E-02;0;  5.1633500E-02;  4.0013301E+04;  0.0000000E+00;  4.6146337E-02;  4.0000000E+04;  0.0000000E+00;  4.0001184E+04;  5.4908346E-02;  0.0000000E+00; -3.2748468E-03;  1.4208469E+02;
  3.7160009E-01;  9.9999998E-03;  9.9998437E-02;4743;  9.2584845E-03;  0.0000000E+00; -1.0500129E-05;  1.0001257E+03;  1.0000000E-01;  1.0419459E+02;3;  1.2113488E+00;  0.0000000E+00; -4.8761867E-02;0;  5.1054932E-02;  4.0012000E+04;  0.0000000E+00;  3.1571925E-02;  4.0000000E+04;  0.0000000E+00;  4.0000289E+04;  5.4312319E-02;  0.0000000E+00; -3.2573852E-03;  4.8045250E+01;
  3.7160668E-01;  9.9999998E-03;  1.0999370E-01;4744;  9.4635896E-03;  0.0000000E+00; -4.6794314E-05;  1.0001045E+03;  1.0000000E-01;  8.6614838E+01;3;  1.3055667E+00;  0.0000000E+00; -5.3443734E-02;0;  5.0436698E-02;  4.0011250E+04;  0.0000000E+00;  6.6356328E-03;  4.0000000E+04;  0.0000000E+00;  3.9999191E+04;  5.3674240E-02;  0.0000000E+00; -3.2375427E-03;  1.0717120E+02;
  3.7160546E-01;  9.9999998E-03;  1.1998866E-01;4745;  9.6053649E-03;  0.0000000E+00; -9.2776500E-05;  1.0000816E+03;  1.0000000E-01;  6.7652405E+01;3;  1.3464054E+00;  0.0000000E+00; -6.4130165E-02;0;  4.9785793E-02;  4.0010406E+04;  0.0000000E+00; -2.7847728E-02;  4.0000000E+04;  0.0000000E+00;  3.9998016E+04;  5.3002208E-02;  0.0000000E+00; -3.2164168E-03;  2.2630214E+02;
  3.7159359E-01;  9.9999998E-03;  1.2998436E-01;4746;  9.5924400E-03;  0.0000000E+00; -1.3600902E-04;  1.0000570E+03;  1.0000000E-01;  4.7208542E+01;3;  1.3377941E+00;  0.0000000E+00; -7.1212433E-02;0;  4.9120415E-02;  4.0009410E+04;  0.0000000E+00; -6.8752468E-02;  4.0000000E+04;  0.0000000E+00;  3.9997434E+04;  5.2318729E-02;  0.0000000E+00; -3.1983135E-03;  3.2779791E+02;
  3.7157282E-01;  9.9999998E-03;  1.3998199E-01;4747;  9.4378497E-03;  0.0000000E+00; -1.7354215E-04;  1.0000276E+03;  1.0000000E-01;  2.2814169E+01;3;  1.2865738E+00;  0.0000000E+00; -7.8417905E-02;0;  4.8471641E-02;  4.0007379E+04;  0.0000000E+00; -1.1033726E-01;  4.0000000E+04;  0.0000000E+00;  3.9997254E+04;  5.1662561E-02;  0.0000000E+00; -3.1909209E-03;  3.9101447E+02;
  3.7154403E-01;  9.9999998E-03;  1.4998265E-01;4748;  9.2287548E-03;  0.0000000E+00; -2.0192593E-04;  9.9999243E+02;  1.0000000E-01; -6.2714276E+00;3;  1.2158991E+00;  0.0000000E+00; -8.5882165E-02;0;  4.7880717E-02;  4.0004453E+04;  0.0000000E+00; -1.4460042E-01;  4.0000000E+04;  0.0000000E+00;  3.9997535E+04;  5.1084843E-02;  0.0000000E+00; -3.2041268E-03;  4.0006055E+02;
  3.7150833E-01;  9.9999998E-03;  1.5998746E-01;4749;  9.0291584E-03;  0.0000000E+00; -2.2434459E-04;  9.9993896E+02;  1.0000000E-01; -5.0566471E+01;3;  1.1516657E+00;  0.0000000E+00; -9.2228718E-02;0;  4.7399476E-02;  3.9999617E+04;  0.0000000E+00; -1.6285931E-01;  4.0000000E+04;  0.0000000E+00;  3.9998105E+04;  5.0644949E-02;  0.0000000E+00; -3.2454715E-03;  3.4733792E+02;
  3.7146962E-01;  9.9999998E-03;  1.6999698E-01;4750;  8.8624675E-03;  0.0000000E+00; -2.5118110E-04;  9.9987042E+02;  1.0000000E-01; -1.0735499E+02;3;  1.0939966E+00;  0.0000000E+00; -9.8893769E-02;0;  4.7087025E-02;  3.9993238E+04;  0.0000000E+00; -1.5830912E-01;  4.0000000E+04;  0.0000000E+00;  3.9999379E+04;  5.0403140E-02;  0.0000000E+00; -3.3161161E-03;  2.5057947E+02;
  3.7143582E-01;  9.9999998E-03;  1.8000804E-01;4751;  8.7414896E-03;  0.0000000E+00; -2.8609429E-04;  9.9978772E+02;  1.0000000E-01; -1.7584688E+02;3;  1.0490862E+00;  0.0000000E+00; -1.0487269E-01;0;  4.7004100E-02;  3.9984590E+04;  0.0000000E+00; -1.2822595E-01;  4.0000000E+04;  0.0000000E+00;  4.0000930E+04;  5.0414208E-02;  0.0000000E+00; -3.4101070E-03;  2.1378932E+02;
  3.7141404E-01;  9.9999998E-03;  1.9001785E-01;4752;  8.6698011E-03;  0.0000000E+00; -3.2815817E-04;  9.9968103E+02;  1.0000000E-01; -2.6423944E+02;3;  1.0263476E+00;  0.0000000E+00; -1.1566865E-01;0;  4.7201909E-02;  3.9974438E+04;  0.0000000E+00; -7.4775785E-02;  4.0000000E+04;  0.0000000E+00;  4.0002570E+04;  5.0717562E-02;  0.0000000E+00; -3.5156535E-03;  3.4608472E+02;
  3.7140548E-01;  9.9999998E-03;  2.0002648E-01;4753;  8.6462498E-03;  0.0000000E+00; -3.8118701E-04;  9.9954858E+02;  1.0000000E-01; -3.7401410E+02;3;  1.0349110E+00;  0.0000000E+00; -1.3561763E-01;0;  4.7709666E-02;  3.9962422E+04;  0.0000000E+00; -4.4503403E-03;  4.0000000E+04;  0.0000000E+00;  4.0003910E+04;  5.1329348E-02;  0.0000000E+00; -3.6196804E-03;  5.2136102E+02;
  3.7140718E-01;  9.9999998E-03;  2.1003255E-01;4754;  8.6881313E-03;  0.0000000E+00; -4.6680032E-04;  9.9939203E+02;  1.0000000E-01; -5.0368945E+02;3;  1.0733949E+00;  0.0000000E+00; -1.5878893E-01;0;  4.8504464E-02;  3.9949539E+04;  0.0000000E+00;  7.3418997E-02;  4.0000000E+04;  0.0000000E+00;  4.0004797E+04;  5.2240767E-02;  0.0000000E+00; -3.7363023E-03;  6.4022650E+02;
  3.7141237E-01;  9.9999998E-03;  2.2003067E-01;4755;  8.8386415E-03;  0.0000000E+00; -5.9244491E-04;  9.9922601E+02;  1.0000000E-01; -6.4121643E+02;3;  1.1458858E+00;  0.0000000E+00; -1.8391012E-01;0;  4.9489606E-02;  3.9935125E+04;  0.0000000E+00;  1.4814034E-01;  4.0000000E+04;  0.0000000E+00;  4.0005062E+04;  5.3418852E-02;  0.0000000E+00; -3.9292448E-03;  7.3732495E+02;
  3.7141460E-01;  9.9999998E-03;  2.3001847E-01;4756;  9.1043413E-03;  0.0000000E+00; -7.2676392E-04;  9.9906812E+02;  1.0000000E-01; -7.7202753E+02;3;  1.2526234E+00;  0.0000000E+00; -2.0903026E-01;0;  5.0568245E-02;  3.9920953E+04;  0.0000000E+00;  2.0912009E-01;  4.0000000E+04;  0.0000000E+00;  4.0007098E+04;  5.4812379E-02;  0.0000000E+00; -4.2441334E-03;  9.9866681E+02;
  3.8156545E-01;  9.9999998E-03;  7.0002556E-02;4801;  9.5515586E-03;  0.0000000E+00; -1.3429241E-04;  1.0001780E+03;  1.0000000E-01;  1.4755138E+02;3;  1.3896693E+00;  0.0000000E+00; -6.1569247E-02;0;  5.7517413E-02;  4.0013906E+04;  0.0000000E+00;  5.8368724E-02;  4.0000000E+04;  0.0000000E+00;  4.0001973E+04;  6.1193015E-02;  0.0000000E+00; -3.6756017E-03;  2.4036392E+02;
  3.8158044E-01;  9.9999998E-03;  8.0001742E-02;4802;  9.8891668E-03;  0.0000000E+00; -1.5428315E-04;  1.0001415E+03;  1.0000000E-01;  1.1723125E+02;3;  1.5165737E+00;  0.0000000E+00; -7.1799956E-02;0;  5.6777161E-02;  4.0011637E+04;  0.0000000E+00;  6.6500083E-02;  4.0000000E+04;  0.0000000E+00;  4.0001664E+04;  6.0411036E-02;  0.0000000E+00; -3.6338754E-03;  2.1698210E+02;
  3.8159907E-01;  9.9999998E-03;  9.0000078E-02;4803;  1.0438899E-02;  0.0000000E+00; -1.8838605E-04;  1.0001149E+03;  1.0000000E-01;  9.5207184E+01;3;  1.6410809E+00;  0.0000000E+00; -8.3622761E-02;0;  5.5986404E-02;  4.0009809E+04;  0.0000000E+00;  6.9163941E-02;  4.0000000E+04;  0.0000000E+00;  4.0001176E+04;  5.9579957E-02;  0.0000000E+00; -3.5935531E-03;  1.6704250E+02;
  3.8161641E-01;  9.9999998E-03;  9.9996775E-02;4804;  1.1029089E-02;  0.0000000E+00; -2.3900703E-04;  1.0000900E+03;  1.0000000E-01;  7.4565796E+01;3;  1.7438424E+00;  0.0000000E+00; -9.5397078E-02;0;  5.5159267E-02;  4.0008402E+04;  0.0000000E+00;  6.4169571E-02;  4.0000000E+04;  0.0000000E+00;  4.0000637E+04;  5.8711696E-02;  0.0000000E+00; -3.5524287E-03;  1.0476551E+02;
  3.8162571E-01;  9.9999998E-03;  1.0999174E-01;4805;  1.1468516E-02;  0.0000000E+00; -3.0256785E-04;  1.0000689E+03;  1.0000000E-01;  5.7084805E+01;3;  1.8110136E+00;  0.0000000E+00; -1.0758311E-01;0;  5.4312252E-02;  4.0007309E+04;  0.0000000E+00;  5.0027248E-02;  4.0000000E+04;  0.0000000E+00;  3.9999750E+04;  5.7821888E-02;  0.0000000E+00; -3.5096384E-03;  8.5934181E+01;
  3.8162664E-01;  9.9999998E-03;  1.1998548E-01;4806;  1.1694734E-02;  0.0000000E+00; -3.6572147E-04;  1.0000436E+03;  1.0000000E-01;  3.6147125E+01;3;  1.8455148E+00;  0.0000000E+00; -1.1673819E-01;0;  5.3466819E-02;  4.0005980E+04;  0.0000000E+00;  2.6582768E-02;  4.0000000E+04;  0.0000000E+00;  3.9998789E+04;  5.6934174E-02;  0.0000000E+00; -3.4673542E-03;  1.4891138E+02;
  3.8162079E-01;  9.9999998E-03;  1.2997924E-01;4807;  1.1719459E-02;  0.0000000E+00; -4.2447782E-04;  1.0000149E+03;  1.0000000E-01;  1.2345330E+01;3;  1.8431801E+00;  0.0000000E+00; -1.2749602E-01;0;  5.2647304E-02;  4.0004395E+04;  0.0000000E+00; -4.3808878E-03;  4.0000000E+04;  0.0000000E+00;  3.9998066E+04;  5.6078572E-02;  0.0000000E+00; -3.4312678E-03;  2.2371413E+02;
  3.8160828E-01;  9.9999998E-03;  1.3997403E-01;4808;  1.1574144E-02;  0.0000000E+00; -4.7067131E-04;  9.9997754E+02;  1.0000000E-01; -1.8616758E+01;3;  1.8149364E+00;  0.0000000E+00; -1.3869420E-01;0;  5.1879846E-02;  4.0002219E+04;  0.0000000E+00; -3.8738206E-02;  4.0000000E+04;  0.0000000E+00;  3.9997887E+04;  5.5290069E-02;  0.0000000E+00; -3.4102241E-03;  2.7522391E+02;
  3.8158989E-01;  9.9999998E-03;  1.4997096E-01;4809;  1.1292754E-02;  0.0000000E+00; -5.0366990E-04;  9.9993127E+02;  1.0000000E-01; -5.6936661E+01;3;  1.7647111E+00;  0.0000000E+00; -1.4832236E-01;0;  5.1193736E-02;  3.9998492E+04;  0.0000000E+00; -7.0102498E-02;  4.0000000E+04;  0.0000000E+00;  3.9997516E+04;  5.4608908E-02;  0.0000000E+00; -3.4151701E-03;  2.8446274E+02;
  3.8156596E-01;  9.9999998E-03;  1.5997136E-01;4810;  1.0925628E-02;  0.0000000E+00; -5.2451616E-04;  9.9987598E+02;  1.0000000E-01; -1.0276253E+02;3;  1.6996059E+00;  0.0000000E+00; -1.5718585E-01;0;  5.0623126E-02;  3.9993664E+04;  0.0000000E+00; -9.1139480E-02;  4.0000000E+04;  0.0000000E+00;  3.9998227E+04;  5.4078836E-02;  0.0000000E+00; -3.4557108E-03;  2.3918091E+02;
  3.8153622E-01;  9.9999998E-03;  1.6997609E-01;4811;  1.0537909E-02;  0.0000000E+00; -5.4449250E-04;  9.9980902E+02;  1.0000000E-01; -1.5821774E+02;3;  1.6263001E+00;  0.0000000E+00; -1.6726077E-01;0;  5.0206110E-02;  3.9986895E+04;  0.0000000E+00; -9.5937774E-02;  4.0000000E+04;  0.0000000E+00;  3.9999277E+04;  5.3742602E-02;  0.0000000E+00; -3.5364907E-03;  1.5338152E+02;
  3.8150287E-01;  9.9999998E-03;  1.7998481E-01;4812;  1.0207356E-02;  0.0000000E+00; -5.7212421E-04;  9.9971893E+02;  1.0000000E-01; -2.3288231E+02;3;  1.5614809E+00;  0.0000000E+00; -1.7874272E-01;0;  4.9981687E-02;  3.9978602E+04;  0.0000000E+00; -8.1886634E-02;  4.0000000E+04;  0.0000000E+00;  4.0000996E+04;  5.3637888E-02;  0.0000000E+00; -3.6562022E-03;  1.8273016E+02;
  3.8147244E-01;  9.9999998E-03;  1.8999562E-01;4813;  9.9917836E-03;  0.0000000E+00; -6.0910865E-04;  9.9961884E+02;  1.0000000E-01; -3.1579355E+02;3;  1.5256438E+00;  0.0000000E+00; -1.9318531E-01;0;  4.9981520E-02;  3.9968668E+04;  0.0000000E+00; -5.0233472E-02;  4.0000000E+04;  0.0000000E+00;  4.0002812E+04;  5.3790651E-02;  0.0000000E+00; -3.8091305E-03;  3.8288370E+02;
  3.8144925E-01;  9.9999998E-03;  2.0000657E-01;4814;  9.9024177E-03;  0.0000000E+00; -6.6333351E-04;  9.9949982E+02;  1.0000000E-01; -4.1440802E+02;3;  1.5189923E+00;  0.0000000E+00; -2.1005441E-01;0;  5.0215196E-02;  3.9957293E+04;  0.0000000E+00; -5.6739068E-03;  4.0000000E+04;  0.0000000E+00;  4.0004586E+04;  5.4208130E-02;  0.0000000E+00; -3.9929324E-03;  6.0459088E+02;
  3.8143256E-01;  9.9999998E-03;  2.1001521E-01;4815;  9.9541210E-03;  0.0000000E+00; -7.3700031E-04;  9.9936212E+02;  1.0000000E-01; -5.2847888E+02;3;  1.5503236E+00;  0.0000000E+00; -2.2993499E-01;0;  5.0658789E-02;  3.9944789E+04;  0.0000000E+00;  4.4742893E-02;  4.0000000E+04;  0.0000000E+00;  4.0005906E+04;  5.4876041E-02;  0.0000000E+00; -4.2172512E-03;  7.7671527E+02;
  3.8141897E-01;  9.9999998E-03;  2.2001663E-01;4816;  1.0168604E-02;  0.0000000E+00; -8.3789456E-04;  9.9920752E+02;  1.0000000E-01; -6.5657404E+02;3;  1.6202149E+00;  0.0000000E+00; -2.5198135E-01;0;  5.1230125E-02;  3.9931242E+04;  0.0000000E+00;  9.2910320E-02;  4.0000000E+04;  0.0000000E+00;  4.0006766E+04;  5.5760171E-02;  0.0000000E+00; -4.5300447E-03;  9.2450885E+02;
  3.8140440E-01;  9.9999998E-03;  2.3000909E-01;4817;  1.0528798E-02;  0.0000000E+00; -9.2609890E-04;  9.9906146E+02;  1.0000000E-01; -7.7755823E+02;3;  1.7251523E+00;  0.0000000E+00; -2.6711982E-01;0;  5.1901232E-02;  3.9917363E+04;  0.0000000E+00;  1.3090342E-01;  4.0000000E+04;  0.0000000E+00;  4.0009008E+04;  5.6812018E-02;  0.0000000E+00; -4.9107852E-03;  1.1984539E+03;
  3.9158136E-01;  9.9999998E-03;  6.9998853E-02;4862;  1.2289283E-02;  0.0000000E+00; -4.0823271E-04;  1.0000862E+03;  1.0000000E-01;  7.1405388E+01;3;  2.0575550E+00;  0.0000000E+00; -9.3139507E-02;0;  6.0857080E-02;  4.0006551E+04;  0.0000000E+00;  6.5879419E-02;  4.0000000E+04;  0.0000000E+00;  4.0001422E+04;  6.4923167E-02;  0.0000000E+00; -4.0660864E-03;  2.0737140E+02;
  3.9160439E-01;  9.9999998E-03;  7.9997830E-02;4863;  1.2595167E-02;  0.0000000E+00; -4.5809755E-04;  1.0000673E+03;  1.0000000E-01;  5.5800892E+01;3;  2.0969739E+00;  0.0000000E+00; -1.0724016E-01;0;  5.9889480E-02;  4.0005562E+04;  0.0000000E+00;  7.8422159E-02;  4.0000000E+04;  0.0000000E+00;  4.0001254E+04;  6.3889138E-02;  0.0000000E+00; -3.9996593E-03;  1.9908049E+02;
  3.9162353E-01;  9.9999998E-03;  8.9996487E-02;4864;  1.2924473E-02;  0.0000000E+00; -5.1737146E-04;  1.0000535E+03;  1.0000000E-01;  4.4344425E+01;3;  2.1418569E+00;  0.0000000E+00; -1.2135976E-01;0;  5.8853630E-02;  4.0004641E+04;  0.0000000E+00;  8.7414175E-02;  4.0000000E+04;  0.0000000E+00;  4.0001203E+04;  6.2787734E-02;  0.0000000E+00; -3.9341035E-03;  1.7547055E+02;
  3.9163512E-01;  9.9999998E-03;  9.9994041E-02;4865;  1.3211026E-02;  0.0000000E+00; -5.8218924E-04;  1.0000439E+03;  1.0000000E-01;  3.6344650E+01;3;  2.1864502E+00;  0.0000000E+00; -1.3483199E-01;0;  5.7782579E-02;  4.0003918E+04;  0.0000000E+00;  9.0787739E-02;  4.0000000E+04;  0.0000000E+00;  4.0000785E+04;  6.1650861E-02;  0.0000000E+00; -3.8682804E-03;  1.4506982E+02;
  3.9163882E-01;  9.9999998E-03;  1.0998998E-01;4866;  1.3402729E-02;  0.0000000E+00; -6.5353577E-04;  1.0000267E+03;  1.0000000E-01;  2.2122831E+01;3;  2.2144928E+00;  0.0000000E+00; -1.4905995E-01;0;  5.6713108E-02;  4.0002965E+04;  0.0000000E+00;  8.6772941E-02;  4.0000000E+04;  0.0000000E+00;  4.0000383E+04;  6.0515668E-02;  0.0000000E+00; -3.8025598E-03;  1.2430790E+02;
  3.9163619E-01;  9.9999998E-03;  1.1998457E-01;4867;  1.3483965E-02;  0.0000000E+00; -7.2102604E-04;  1.0000046E+03;  1.0000000E-01;  3.7529802E+00;3;  2.2284422E+00;  0.0000000E+00; -1.6308963E-01;0;  5.5681255E-02;  4.0002055E+04;  0.0000000E+00;  7.4443817E-02;  4.0000000E+04;  0.0000000E+00;  3.9999441E+04;  5.9421346E-02;  0.0000000E+00; -3.7400925E-03;  1.2982066E+02;
  3.9162877E-01;  9.9999998E-03;  1.2997843E-01;4868;  1.3454411E-02;  0.0000000E+00; -7.8166887E-04;  9.9997571E+02;  1.0000000E-01; -2.0147579E+01;3;  2.2242069E+00;  0.0000000E+00; -1.7595071E-01;0;  5.4718167E-02;  4.0000246E+04;  0.0000000E+00;  5.4299731E-02;  4.0000000E+04;  0.0000000E+00;  3.9998828E+04;  5.8405571E-02;  0.0000000E+00; -3.6874032E-03;  1.5363887E+02;
  3.9161816E-01;  9.9999998E-03;  1.3997258E-01;4869;  1.3324553E-02;  0.0000000E+00; -8.2816684E-04;  9.9993933E+02;  1.0000000E-01; -5.0270184E+01;3;  2.2045939E+00;  0.0000000E+00; -1.8571526E-01;0;  5.3850427E-02;  3.9997590E+04;  0.0000000E+00;  2.8772622E-02;  4.0000000E+04;  0.0000000E+00;  3.9998656E+04;  5.7504449E-02;  0.0000000E+00; -3.6540215E-03;  1.7107866E+02;
  3.9160672E-01;  9.9999998E-03;  1.4996798E-01;4870;  1.3111111E-02;  0.0000000E+00; -8.5682538E-04;  9.9989117E+02;  1.0000000E-01; -9.0170288E+01;3;  2.1716166E+00;  0.0000000E+00; -1.9422773E-01;0;  5.3100280E-02;  3.9993777E+04;  0.0000000E+00;  2.3544147E-03;  4.0000000E+04;  0.0000000E+00;  3.9998652E+04;  5.6751728E-02;  0.0000000E+00; -3.6514460E-03;  1.6046983E+02;
  3.9159319E-01;  9.9999998E-03;  1.5996560E-01;4871;  1.2824317E-02;  0.0000000E+00; -8.7118713E-04;  9.9983124E+02;  1.0000000E-01; -1.3979851E+02;3;  2.1314874E+00;  0.0000000E+00; -2.0144862E-01;0;  5.2487500E-02;  3.9988551E+04;  0.0000000E+00; -1.9417871E-02;  4.0000000E+04;  0.0000000E+00;  3.9998941E+04;  5.6178641E-02;  0.0000000E+00; -3.6911424E-03;  1.0580943E+02;
  3.9157408E-01;  9.9999998E-03;  1.6996630E-01;4872;  1.2489149E-02;  0.0000000E+00; -8.7715790E-04;  9.9975415E+02;  1.0000000E-01; -2.0369794E+02;3;  2.0849659E+00;  0.0000000E+00; -2.1171744E-01;0;  5.2031539E-02;  3.9981324E+04;  0.0000000E+00; -3.1882290E-02;  4.0000000E+04;  0.0000000E+00;  4.0000141E+04;  5.5812981E-02;  0.0000000E+00; -3.7814402E-03;  5.3067532E+01;
  3.9155021E-01;  9.9999998E-03;  1.7997062E-01;4873;  1.2148515E-02;  0.0000000E+00; -8.8166015E-04;  9.9966650E+02;  1.0000000E-01; -2.7628848E+02;3;  2.0395255E+00;  0.0000000E+00; -2.2365633E-01;0;  5.1749676E-02;  3.9973012E+04;  0.0000000E+00; -3.2641735E-02;  4.0000000E+04;  0.0000000E+00;  4.0001461E+04;  5.5674475E-02;  0.0000000E+00; -3.9248001E-03;  2.2029762E+02;
  3.9152244E-01;  9.9999998E-03;  1.8997799E-01;4874;  1.1852263E-02;  0.0000000E+00; -8.9361233E-04;  9.9956683E+02;  1.0000000E-01; -3.5885403E+02;3;  2.0043759E+00;  0.0000000E+00; -2.3544258E-01;0;  5.1651832E-02;  3.9962992E+04;  0.0000000E+00; -2.2054097E-02;  4.0000000E+04;  0.0000000E+00;  4.0003434E+04;  5.5770162E-02;  0.0000000E+00; -4.1183312E-03;  4.6416711E+02;
  3.9149386E-01;  9.9999998E-03;  1.9998714E-01;4875;  1.1646794E-02;  0.0000000E+00; -9.1852533E-04;  9.9945026E+02;  1.0000000E-01; -4.5544391E+02;3;  1.9852923E+00;  0.0000000E+00; -2.5157610E-01;0;  5.1733688E-02;  3.9951676E+04;  0.0000000E+00; -2.9664931E-03;  4.0000000E+04;  0.0000000E+00;  4.0005566E+04;  5.6091875E-02;  0.0000000E+00; -4.3581869E-03;  7.3174408E+02;
  3.9146769E-01;  9.9999998E-03;  2.0999585E-01;4876;  1.1568274E-02;  0.0000000E+00; -9.5707946E-04;  9.9932068E+02;  1.0000000E-01; -5.6279889E+02;3;  1.9947609E+00;  0.0000000E+00; -2.6568556E-01;0;  5.1971398E-02;  3.9939270E+04;  0.0000000E+00;  2.0074084E-02;  4.0000000E+04;  0.0000000E+00;  4.0007367E+04;  5.6615792E-02;  0.0000000E+00; -4.6443944E-03;  9.7369611E+02;
  3.9144424E-01;  9.9999998E-03;  2.2000039E-01;4877;  1.1644814E-02;  0.0000000E+00; -1.0044838E-03;  9.9918286E+02;  1.0000000E-01; -6.7696851E+02;3;  2.0318854E+00;  0.0000000E+00; -2.8191999E-01;0;  5.2326739E-02;  3.9926332E+04;  0.0000000E+00;  4.1736864E-02;  4.0000000E+04;  0.0000000E+00;  4.0008949E+04;  5.7304878E-02;  0.0000000E+00; -4.9781408E-03;  1.1839435E+03;
  3.9142099E-01;  9.9999998E-03;  2.2999890E-01;4878;  1.1860568E-02;  0.0000000E+00; -1.0446990E-03;  9.9903619E+02;  1.0000000E-01; -7.9849591E+02;3;  2.1028836E+00;  0.0000000E+00; -2.9917681E-01;0;  5.2787285E-02;  3.9912480E+04;  0.0000000E+00;  5.6870997E-02;  4.0000000E+04;  0.0000000E+00;  4.0011031E+04;  5.8111947E-02;  0.0000000E+00; -5.3246613E-03;  1.4384344E+03;
  4.0159798E-01;  9.9999998E-03;  6.9995932E-02;4923;  1.4573859E-02;  0.0000000E+00; -6.1002991E-04;  9.9996423E+02;  1.0000000E-01; -2.9628792E+01;3;  2.5040681E+00;  0.0000000E+00; -1.1610231E-01;0;  6.2604785E-02;  3.9996914E+04;  0.0000000E+00;  7.1371242E-02;  4.0000000E+04;  0.0000000E+00;  4.0000898E+04;  6.7062125E-02;  0.0000000E+00; -4.4573434E-03;  1.6688977E+02;
  4.0161785E-01;  9.9999998E-03;  7.9995424E-02;4924;  1.4502428E-02;  0.0000000E+00; -6.6761283E-04;  9.9996930E+02;  1.0000000E-01; -2.5431379E+01;3;  2.4843407E+00;  0.0000000E+00; -1.2879917E-01;0;  6.1478272E-02;  3.9997828E+04;  0.0000000E+00;  8.7089404E-02;  4.0000000E+04;  0.0000000E+00;  4.0001105E+04;  6.5845363E-02;  0.0000000E+00; -4.3670926E-03;  1.7104417E+02;
  4.0163213E-01;  9.9999998E-03;  8.9994989E-02;4925;  1.4486850E-02;  0.0000000E+00; -7.3000323E-04;  9.9998199E+02;  1.0000000E-01; -1.4913158E+01;3;  2.4774244E+00;  0.0000000E+00; -1.4449738E-01;0;  6.0268234E-02;  3.9998410E+04;  0.0000000E+00;  1.0079887E-01;  4.0000000E+04;  0.0000000E+00;  4.0000820E+04;  6.4545758E-02;  0.0000000E+00; -4.2775227E-03;  1.7065030E+02;
  4.0163872E-01;  9.9999998E-03;  9.9994034E-02;4926;  1.4498348E-02;  0.0000000E+00; -7.9463399E-04;  9.9998169E+02;  1.0000000E-01; -1.5160065E+01;3;  2.4806268E+00;  0.0000000E+00; -1.5908240E-01;0;  5.9020661E-02;  3.9998828E+04;  0.0000000E+00;  1.1068588E-01;  4.0000000E+04;  0.0000000E+00;  4.0000496E+04;  6.3209705E-02;  0.0000000E+00; -4.1890461E-03;  1.6813043E+02;
  4.0163806E-01;  9.9999998E-03;  1.0999197E-01;4927;  1.4502937E-02;  0.0000000E+00; -8.6054875E-04;  9.9997852E+02;  1.0000000E-01; -1.7777275E+01;3;  2.4811673E+00;  0.0000000E+00; -1.7396373E-01;0;  5.7785679E-02;  3.9998965E+04;  0.0000000E+00;  1.1493038E-01;  4.0000000E+04;  0.0000000E+00;  4.0000336E+04;  6.1889052E-02;  0.0000000E+00; -4.1033737E-03;  1.6525513E+02;
  4.0163159E-01;  9.9999998E-03;  1.1998856E-01;4928;  1.4477833E-02;  0.0000000E+00; -9.2299405E-04;  9.9996729E+02;  1.0000000E-01; -2.7110344E+01;3;  2.4808235E+00;  0.0000000E+00; -1.8802658E-01;0;  5.6611657E-02;  3.9998410E+04;  0.0000000E+00;  1.1207211E-01;  4.0000000E+04;  0.0000000E+00;  3.9999902E+04;  6.0636304E-02;  0.0000000E+00; -4.0246476E-03;  1.6172380E+02;
  4.0162089E-01;  9.9999998E-03;  1.2998414E-01;4929;  1.4408957E-02;  0.0000000E+00; -9.7969151E-04;  9.9994806E+02;  1.0000000E-01; -4.3011127E+01;3;  2.4697559E+00;  0.0000000E+00; -2.0073946E-01;0;  5.5539735E-02;  3.9996684E+04;  0.0000000E+00;  1.0152011E-01;  4.0000000E+04;  0.0000000E+00;  3.9999676E+04;  5.9499677E-02;  0.0000000E+00; -3.9599445E-03;  1.5400996E+02;
  4.0160915E-01;  9.9999998E-03;  1.3997921E-01;4930;  1.4291170E-02;  0.0000000E+00; -1.0284217E-03;  9.9991119E+02;  1.0000000E-01; -7.3578163E+01;3;  2.4486709E+00;  0.0000000E+00; -2.1269241E-01;0;  5.4601707E-02;  3.9993988E+04;  0.0000000E+00;  8.4110096E-02;  4.0000000E+04;  0.0000000E+00;  3.9999859E+04;  5.8520727E-02;  0.0000000E+00; -3.9190208E-03;  1.3544894E+02;
  4.0159637E-01;  9.9999998E-03;  1.4997458E-01;4931;  1.4115679E-02;  0.0000000E+00; -1.0691845E-03;  9.9986456E+02;  1.0000000E-01; -1.1219436E+02;3;  2.4171965E+00;  0.0000000E+00; -2.2293326E-01;0;  5.3819370E-02;  3.9989793E+04;  0.0000000E+00;  6.2397435E-02;  4.0000000E+04;  0.0000000E+00;  3.9999504E+04;  5.7732541E-02;  0.0000000E+00; -3.9131702E-03;  9.8544296E+01;
  4.0158147E-01;  9.9999998E-03;  1.5997119E-01;4932;  1.3885708E-02;  0.0000000E+00; -1.1004816E-03;  9.9980249E+02;  1.0000000E-01; -1.6364969E+02;3;  2.3749347E+00;  0.0000000E+00; -2.3058930E-01;0;  5.3206757E-02;  3.9984336E+04;  0.0000000E+00;  4.0026374E-02;  4.0000000E+04;  0.0000000E+00;  3.9999930E+04;  5.7161197E-02;  0.0000000E+00; -3.9544422E-03;  5.8116459E+01;
  4.0156609E-01;  9.9999998E-03;  1.6996983E-01;4933;  1.3615161E-02;  0.0000000E+00; -1.1169893E-03;  9.9971838E+02;  1.0000000E-01; -2.3332674E+02;3;  2.3311832E+00;  0.0000000E+00; -2.3694405E-01;0;  5.2771196E-02;  3.9977238E+04;  0.0000000E+00;  2.0420512E-02;  4.0000000E+04;  0.0000000E+00;  4.0000852E+04;  5.6824826E-02;  0.0000000E+00; -4.0536285E-03;  1.3714934E+02;
  4.0154859E-01;  9.9999998E-03;  1.7997088E-01;4934;  1.3315061E-02;  0.0000000E+00; -1.1198962E-03;  9.9962585E+02;  1.0000000E-01; -3.0996655E+02;3;  2.2941279E+00;  0.0000000E+00; -2.4437697E-01;0;  5.2512500E-02;  3.9968484E+04;  0.0000000E+00;  5.8156806E-03;  4.0000000E+04;  0.0000000E+00;  4.0002090E+04;  5.6728829E-02;  0.0000000E+00; -4.2163269E-03;  3.1359836E+02;
  4.0152776E-01;  9.9999998E-03;  1.8997435E-01;4935;  1.3008786E-02;  0.0000000E+00; -1.1155325E-03;  9.9952338E+02;  1.0000000E-01; -3.9485303E+02;3;  2.2637906E+00;  0.0000000E+00; -2.5689733E-01;0;  5.2423224E-02;  3.9957891E+04;  0.0000000E+00; -3.1590567E-03;  4.0000000E+04;  0.0000000E+00;  4.0003938E+04;  5.6863379E-02;  0.0000000E+00; -4.4401544E-03;  5.5151733E+02;
  4.0150371E-01;  9.9999998E-03;  1.9997951E-01;4936;  1.2729948E-02;  0.0000000E+00; -1.1111109E-03;  9.9940637E+02;  1.0000000E-01; -4.9178857E+02;3;  2.2466247E+00;  0.0000000E+00; -2.7410647E-01;0;  5.2488349E-02;  3.9946383E+04;  0.0000000E+00; -7.4068420E-03;  4.0000000E+04;  0.0000000E+00;  4.0006105E+04;  5.7203405E-02;  0.0000000E+00; -4.7150543E-03;  8.2912946E+02;
  4.0147832E-01;  9.9999998E-03;  2.0998496E-01;4937;  1.2522231E-02;  0.0000000E+00; -1.1133600E-03;  9.9927917E+02;  1.0000000E-01; -5.9716827E+02;3;  2.2511868E+00;  0.0000000E+00; -2.9098901E-01;0;  5.2684400E-02;  3.9933891E+04;  0.0000000E+00; -8.9533143E-03;  4.0000000E+04;  0.0000000E+00;  4.0008488E+04;  5.7711970E-02;  0.0000000E+00; -5.0275694E-03;  1.1148187E+03;
  4.0145284E-01;  9.9999998E-03;  2.1998867E-01;4938;  1.2431510E-02;  0.0000000E+00; -1.1246152E-03;  9.9914551E+02;  1.0000000E-01; -7.0793060E+02;3;  2.2693965E+00;  0.0000000E+00; -3.0510634E-01;0;  5.2981649E-02;  3.9920719E+04;  0.0000000E+00; -1.0372012E-02;  4.0000000E+04;  0.0000000E+00;  4.0010395E+04;  5.8344506E-02;  0.0000000E+00; -5.3628557E-03;  1.3912195E+03;
  4.0142593E-01;  9.9999998E-03;  2.2999041E-01;4939;  1.2472578E-02;  0.0000000E+00; -1.1358563E-03;  9.9900208E+02;  1.0000000E-01; -8.2674207E+02;3;  2.3001518E+00;  0.0000000E+00; -3.1400019E-01;0;  5.3375412E-02;  3.9907070E+04;  0.0000000E+00; -1.4122653E-02;  4.0000000E+04;  0.0000000E+00;  4.0012461E+04;  5.9052877E-02;  0.0000000E+00; -5.6774644E-03;  1.6503339E+03;
  4.1160280E-01;  9.9999998E-03;  6.9994874E-02;4984;  1.5508615E-02;  0.0000000E+00; -6.6428358E-04;  9.9983734E+02;  1.0000000E-01; -1.3476163E+02;3;  2.7201853E+00;  0.0000000E+00; -1.2330423E-01;0;  6.3195497E-02;  3.9987027E+04;  0.0000000E+00;  7.4286595E-02;  4.0000000E+04;  0.0000000E+00;  4.0000570E+04;  6.8031840E-02;  0.0000000E+00; -4.8363465E-03;  1.2806917E+02;
  4.1161859E-01;  9.9999998E-03;  7.9995483E-02;4985;  1.5332322E-02;  0.0000000E+00; -7.2486908E-04;  9.9987146E+02;  1.0000000E-01; -1.0651550E+02;3;  2.6895921E+00;  0.0000000E+00; -1.3809066E-01;0;  6.2008608E-02;  3.9989844E+04;  0.0000000E+00;  9.2044398E-02;  4.0000000E+04;  0.0000000E+00;  4.0000160E+04;  6.6733912E-02;  0.0000000E+00; -4.7253030E-03;  1.4394461E+02;
  4.1162813E-01;  9.9999998E-03;  8.9996330E-02;4986;  1.5190278E-02;  0.0000000E+00; -7.8257412E-04;  9.9990497E+02;  1.0000000E-01; -7.8713821E+01;3;  2.6617162E+00;  0.0000000E+00; -1.5262327E-01;0;  6.0718995E-02;  3.9992391E+04;  0.0000000E+00;  1.0884993E-01;  4.0000000E+04;  0.0000000E+00;  4.0000098E+04;  6.5333910E-02;  0.0000000E+00; -4.6149157E-03;  1.6179024E+02;
  4.1163138E-01;  9.9999998E-03;  9.9997051E-02;4987;  1.5079297E-02;  0.0000000E+00; -8.3895552E-04;  9.9992841E+02;  1.0000000E-01; -5.9306965E+01;3;  2.6401472E+00;  0.0000000E+00; -1.6723745E-01;0;  5.9379287E-02;  3.9994223E+04;  0.0000000E+00;  1.2310202E-01;  4.0000000E+04;  0.0000000E+00;  3.9999934E+04;  6.3886702E-02;  0.0000000E+00; -4.5074155E-03;  1.7859541E+02;
  4.1162720E-01;  9.9999998E-03;  1.0999715E-01;4988;  1.4989781E-02;  0.0000000E+00; -8.9577469E-04;  9.9993604E+02;  1.0000000E-01; -5.2986156E+01;3;  2.6247239E+00;  0.0000000E+00; -1.8024169E-01;0;  5.8049031E-02;  3.9995301E+04;  0.0000000E+00;  1.3300717E-01;  4.0000000E+04;  0.0000000E+00;  4.0000199E+04;  6.2455118E-02;  0.0000000E+00; -4.4060866E-03;  1.9098758E+02;
  4.1161755E-01;  9.9999998E-03;  1.1999603E-01;4989;  1.4909440E-02;  0.0000000E+00; -9.5587800E-04;  9.9993951E+02;  1.0000000E-01; -5.0122040E+01;3;  2.6123438E+00;  0.0000000E+00; -1.9495681E-01;0;  5.6787781E-02;  3.9995262E+04;  0.0000000E+00;  1.3678813E-01;  4.0000000E+04;  0.0000000E+00;  4.0000164E+04;  6.1103962E-02;  0.0000000E+00; -4.3161800E-03;  1.9564708E+02;
  4.1160542E-01;  9.9999998E-03;  1.2999369E-01;4990;  1.4814021E-02;  0.0000000E+00; -1.0127100E-03;  9.9992340E+02;  1.0000000E-01; -6.3454994E+01;3;  2.5983398E+00;  0.0000000E+00; -2.0916423E-01;0;  5.5648383E-02;  3.9994016E+04;  0.0000000E+00;  1.3307387E-01;  4.0000000E+04;  0.0000000E+00;  4.0000176E+04;  5.9893742E-02;  0.0000000E+00; -4.2453608E-03;  1.9006818E+02;
  4.1159064E-01;  9.9999998E-03;  1.3999051E-01;4991;  1.4696479E-02;  0.0000000E+00; -1.0647617E-03;  9.9989185E+02;  1.0000000E-01; -8.9627098E+01;3;  2.5811527E+00;  0.0000000E+00; -2.2277950E-01;0;  5.4672115E-02;  3.9991180E+04;  0.0000000E+00;  1.2138955E-01;  4.0000000E+04;  0.0000000E+00;  4.0000203E+04;  5.8875311E-02;  0.0000000E+00; -4.2031966E-03;  1.7460663E+02;
  4.1157407E-01;  9.9999998E-03;  1.4998710E-01;4992;  1.4548993E-02;  0.0000000E+00; -1.1106806E-03;  9.9984442E+02;  1.0000000E-01; -1.2888524E+02;3;  2.5550251E+00;  0.0000000E+00; -2.3481539E-01;0;  5.3887296E-02;  3.9987152E+04;  0.0000000E+00;  1.0262387E-01;  4.0000000E+04;  0.0000000E+00;  4.0000441E+04;  5.8087684E-02;  0.0000000E+00; -4.2003877E-03;  1.5951416E+02;
  4.1155747E-01;  9.9999998E-03;  1.5998405E-01;4993;  1.4364531E-02;  0.0000000E+00; -1.1477415E-03;  9.9977673E+02;  1.0000000E-01; -1.8498242E+02;3;  2.5234036E+00;  0.0000000E+00; -2.4471031E-01;0;  5.3309552E-02;  3.9981148E+04;  0.0000000E+00;  7.8775495E-02;  4.0000000E+04;  0.0000000E+00;  4.0001133E+04;  5.7557430E-02;  0.0000000E+00; -4.2478777E-03;  1.7759846E+02;
  4.1154057E-01;  9.9999998E-03;  1.6998200E-01;4994;  1.4139504E-02;  0.0000000E+00; -1.1765092E-03;  9.9969360E+02;  1.0000000E-01; -2.5381998E+02;3;  2.4867067E+00;  0.0000000E+00; -2.5385943E-01;0;  5.2942730E-02;  3.9973594E+04;  0.0000000E+00;  5.2246731E-02;  4.0000000E+04;  0.0000000E+00;  4.0001926E+04;  5.7297956E-02;  0.0000000E+00; -4.3552257E-03;  2.6435986E+02;
  4.1152358E-01;  9.9999998E-03;  1.7998131E-01;4995;  1.3875437E-02;  0.0000000E+00; -1.1963072E-03;  9.9959772E+02;  1.0000000E-01; -3.3327454E+02;3;  2.4460628E+00;  0.0000000E+00; -2.5859588E-01;0;  5.2777030E-02;  3.9964348E+04;  0.0000000E+00;  2.5285518E-02;  4.0000000E+04;  0.0000000E+00;  4.0003242E+04;  5.7305396E-02;  0.0000000E+00; -4.5283646E-03;  4.1965225E+02;
  4.1150543E-01;  9.9999998E-03;  1.8998192E-01;4996;  1.3588758E-02;  0.0000000E+00; -1.2053950E-03;  9.9948608E+02;  1.0000000E-01; -4.2576575E+02;3;  2.4103510E+00;  0.0000000E+00; -2.6870522E-01;0;  5.2790571E-02;  3.9953848E+04;  0.0000000E+00; -4.2443312E-04;  4.0000000E+04;  0.0000000E+00;  4.0004992E+04;  5.7556834E-02;  0.0000000E+00; -4.7662645E-03;  6.3113177E+02;
  4.1148597E-01;  9.9999998E-03;  1.9998337E-01;4997;  1.3294183E-02;  0.0000000E+00; -1.2032974E-03;  9.9936621E+02;  1.0000000E-01; -5.2507159E+02;3;  2.3830640E+00;  0.0000000E+00; -2.8159609E-01;0;  5.2956641E-02;  3.9941984E+04;  0.0000000E+00; -2.3975207E-02;  4.0000000E+04;  0.0000000E+00;  4.0006820E+04;  5.8013115E-02;  0.0000000E+00; -5.0564762E-03;  8.8505017E+02;
  4.1146472E-01;  9.9999998E-03;  2.0998460E-01;4998;  1.3016824E-02;  0.0000000E+00; -1.1980181E-03;  9.9923651E+02;  1.0000000E-01; -6.3252533E+02;3;  2.3696051E+00;  0.0000000E+00; -2.9982892E-01;0;  5.3246398E-02;  3.9929188E+04;  0.0000000E+00; -4.5132134E-02;  4.0000000E+04;  0.0000000E+00;  4.0008848E+04;  5.8623645E-02;  0.0000000E+00; -5.3772484E-03;  1.1693831E+03;
  4.1144225E-01;  9.9999998E-03;  2.1998435E-01;4999;  1.2809638E-02;  0.0000000E+00; -1.1956888E-03;  9.9910266E+02;  1.0000000E-01; -7.4343579E+02;3;  2.3734889E+00;  0.0000000E+00; -3.1704029E-01;0;  5.3634118E-02;  3.9915926E+04;  0.0000000E+00; -6.4157739E-02;  4.0000000E+04;  0.0000000E+00;  4.0011324E+04;  5.9333827E-02;  0.0000000E+00; -5.6997077E-03;  1.4898563E+03;
  4.1141883E-01;  9.9999998E-03;  2.2998512E-01;5000;  1.2740577E-02;  0.0000000E+00; -1.1946470E-03;  9.9896381E+02;  1.0000000E-01; -8.5844489E+02;3;  2.3845725E+00;  0.0000000E+00; -3.2854038E-01;0;  5.4118529E-02;  3.9902453E+04;  0.0000000E+00; -8.1375346E-02;  4.0000000E+04;  0.0000000E+00;  4.0013578E+04;  6.0091462E-02;  0.0000000E+00; -5.9729312E-03;  1.7930039E+03;
  4.2161328E-01;  9.9999998E-03;  6.9996074E-02;5045;  1.5948901E-02;  0.0000000E+00; -6.3354068E-04;  9.9972577E+02;  1.0000000E-01; -2.2720345E+02;3;  2.8355319E+00;  0.0000000E+00; -1.2229282E-01;0;  6.3393861E-02;  3.9978289E+04;  0.0000000E+00;  7.4119575E-02;  4.0000000E+04;  0.0000000E+00;  4.0000016E+04;  6.8597026E-02;  0.0000000E+00; -5.2031665E-03;  1.0671041E+02;
  4.2162254E-01;  9.9999998E-03;  7.9997830E-02;5046;  1.5734812E-02;  0.0000000E+00; -6.9567404E-04;  9.9978296E+02;  1.0000000E-01; -1.7979738E+02;3;  2.8000033E+00;  0.0000000E+00; -1.3677371E-01;0;  6.2223576E-02;  3.9983059E+04;  0.0000000E+00;  9.2692368E-02;  4.0000000E+04;  0.0000000E+00;  3.9999926E+04;  6.7298464E-02;  0.0000000E+00; -5.0748885E-03;  1.3290550E+02;
  4.2162725E-01;  9.9999998E-03;  8.9999825E-02;5047;  1.5543880E-02;  0.0000000E+00; -7.5372605E-04;  9.9983624E+02;  1.0000000E-01; -1.3565048E+02;3;  2.7673309E+00;  0.0000000E+00; -1.5145709E-01;0;  6.0929965E-02;  3.9987203E+04;  0.0000000E+00;  1.1086659E-01;  4.0000000E+04;  0.0000000E+00;  3.9999773E+04;  6.5877177E-02;  0.0000000E+00; -4.9472130E-03;  1.5926344E+02;
  4.2162472E-01;  9.9999998E-03;  1.0000190E-01;5048;  1.5382442E-02;  0.0000000E+00; -8.1007357E-04;  9.9988013E+02;  1.0000000E-01; -9.9305832E+01;3;  2.7388897E+00;  0.0000000E+00; -1.6585214E-01;0;  5.9567060E-02;  3.9990383E+04;  0.0000000E+00;  1.2715185E-01;  4.0000000E+04;  0.0000000E+00;  3.9999699E+04;  6.4391367E-02;  0.0000000E+00; -4.8243064E-03;  1.8232217E+02;
  4.2161608E-01;  9.9999998E-03;  1.1000361E-01;5049;  1.5243692E-02;  0.0000000E+00; -8.6427224E-04;  9.9990967E+02;  1.0000000E-01; -7.4862083E+01;3;  2.7141774E+00;  0.0000000E+00; -1.8006803E-01;0;  5.8199737E-02;  3.9992445E+04;  0.0000000E+00;  1.3979048E-01;  4.0000000E+04;  0.0000000E+00;  3.9999742E+04;  6.2911116E-02;  0.0000000E+00; -4.7113770E-03;  1.9999405E+02;
  4.2160374E-01;  9.9999998E-03;  1.2000447E-01;5050;  1.5117024E-02;  0.0000000E+00; -9.1483124E-04;  9.9992120E+02;  1.0000000E-01; -6.5282104E+01;3;  2.6916759E+00;  0.0000000E+00; -1.9425669E-01;0;  5.6896698E-02;  3.9993199E+04;  0.0000000E+00;  1.4686294E-01;  4.0000000E+04;  0.0000000E+00;  4.0000117E+04;  6.1511729E-02;  0.0000000E+00; -4.6150321E-03;  2.1088226E+02;
  4.2158848E-01;  9.9999998E-03;  1.3000417E-01;5051;  1.4991359E-02;  0.0000000E+00; -9.6282497E-04;  9.9991235E+02;  1.0000000E-01; -7.2590538E+01;3;  2.6705084E+00;  0.0000000E+00; -2.0557500E-01;0;  5.5722423E-02;  3.9992156E+04;  0.0000000E+00;  1.4654921E-01;  4.0000000E+04;  0.0000000E+00;  4.0000520E+04;  6.0265929E-02;  0.0000000E+00; -4.5435065E-03;  2.1511613E+02;
  4.2157149E-01;  9.9999998E-03;  1.4000285E-01;5052;  1.4865127E-02;  0.0000000E+00; -1.0128367E-03;  9.9988483E+02;  1.0000000E-01; -9.5404709E+01;3;  2.6507378E+00;  0.0000000E+00; -2.1947025E-01;0;  5.4730356E-02;  3.9989488E+04;  0.0000000E+00;  1.3753174E-01;  4.0000000E+04;  0.0000000E+00;  4.0000539E+04;  5.9236586E-02;  0.0000000E+00; -4.5062322E-03;  2.1719678E+02;
  4.2155439E-01;  9.9999998E-03;  1.5000087E-01;5053;  1.4723994E-02;  0.0000000E+00; -1.0586401E-03;  9.9983643E+02;  1.0000000E-01; -1.3550233E+02;3;  2.6290987E+00;  0.0000000E+00; -2.3172605E-01;0;  5.3958986E-02;  3.9985258E+04;  0.0000000E+00;  1.1949581E-01;  4.0000000E+04;  0.0000000E+00;  4.0001234E+04;  5.8472000E-02;  0.0000000E+00; -4.5130150E-03;  2.3091354E+02;
  4.2153725E-01;  9.9999998E-03;  1.5999873E-01;5054;  1.4559673E-02;  0.0000000E+00; -1.1000066E-03;  9.9976605E+02;  1.0000000E-01; -1.9382169E+02;3;  2.5987818E+00;  0.0000000E+00; -2.4411507E-01;0;  5.3431753E-02;  3.9978879E+04;  0.0000000E+00;  9.3237966E-02;  4.0000000E+04;  0.0000000E+00;  4.0001855E+04;  5.8004297E-02;  0.0000000E+00; -4.5725433E-03;  2.7789120E+02;
  4.2152017E-01;  9.9999998E-03;  1.6999693E-01;5055;  1.4364742E-02;  0.0000000E+00; -1.1353311E-03;  9.9968060E+02;  1.0000000E-01; -2.6463449E+02;3;  2.5657594E+00;  0.0000000E+00; -2.5499114E-01;0;  5.3155620E-02;  3.9970957E+04;  0.0000000E+00;  6.0516804E-02;  4.0000000E+04;  0.0000000E+00;  4.0002812E+04;  5.7846516E-02;  0.0000000E+00; -4.6908963E-03;  3.7277142E+02;
  4.2150334E-01;  9.9999998E-03;  1.7999561E-01;5056;  1.4136674E-02;  0.0000000E+00; -1.1630767E-03;  9.9957568E+02;  1.0000000E-01; -3.5154562E+02;3;  2.5306013E+00;  0.0000000E+00; -2.6407060E-01;0;  5.3119808E-02;  3.9961426E+04;  0.0000000E+00;  2.3745270E-02;  4.0000000E+04;  0.0000000E+00;  4.0004062E+04;  5.7989959E-02;  0.0000000E+00; -4.8701516E-03;  5.1524023E+02;
  4.2148679E-01;  9.9999998E-03;  1.8999460E-01;5057;  1.3874098E-02;  0.0000000E+00; -1.1833063E-03;  9.9945953E+02;  1.0000000E-01; -4.4778979E+02;3;  2.4957852E+00;  0.0000000E+00; -2.7460334E-01;0;  5.3296871E-02;  3.9950316E+04;  0.0000000E+00; -1.4445901E-02;  4.0000000E+04;  0.0000000E+00;  4.0005387E+04;  5.8403391E-02;  0.0000000E+00; -5.1065218E-03;  6.9782727E+02;
  4.2147020E-01;  9.9999998E-03;  1.9999319E-01;5058;  1.3590432E-02;  0.0000000E+00; -1.1970113E-03;  9.9933191E+02;  1.0000000E-01; -5.5351520E+02;3;  2.4662161E+00;  0.0000000E+00; -2.8508353E-01;0;  5.3648371E-02;  3.9938363E+04;  0.0000000E+00; -5.1666535E-02;  4.0000000E+04;  0.0000000E+00;  4.0006887E+04;  5.9036624E-02;  0.0000000E+00; -5.3882510E-03;  9.1416144E+02;
  4.2145354E-01;  9.9999998E-03;  2.0999031E-01;5059;  1.3313632E-02;  0.0000000E+00; -1.2066842E-03;  9.9919812E+02;  1.0000000E-01; -6.6432690E+02;3;  2.4436288E+00;  0.0000000E+00; -2.9869178E-01;0;  5.4134361E-02;  3.9925340E+04;  0.0000000E+00; -8.6023219E-02;  4.0000000E+04;  0.0000000E+00;  4.0009020E+04;  5.9827983E-02;  0.0000000E+00; -5.6936210E-03;  1.1719713E+03;
  4.2143741E-01;  9.9999998E-03;  2.1998525E-01;5060;  1.3074306E-02;  0.0000000E+00; -1.2124253E-03;  9.9906061E+02;  1.0000000E-01; -7.7824957E+02;3;  2.4333880E+00;  0.0000000E+00; -3.1196940E-01;0;  5.4728832E-02;  3.9911953E+04;  0.0000000E+00; -1.1622218E-01;  4.0000000E+04;  0.0000000E+00;  4.0011270E+04;  6.0713019E-02;  0.0000000E+00; -5.9841881E-03;  1.5104950E+03;
  4.2142284E-01;  9.9999998E-03;  2.2998312E-01;5061;  1.2944017E-02;  0.0000000E+00; -1.2154923E-03;  9.9892761E+02;  1.0000000E-01; -8.8846869E+02;3;  2.4303756E+00;  0.0000000E+00; -3.2215735E-01;0;  5.5432964E-02;  3.9898645E+04;  0.0000000E+00; -1.4140946E-01;  4.0000000E+04;  0.0000000E+00;  4.0014176E+04;  6.1632957E-02;  0.0000000E+00; -6.1999946E-03;  1.8581528E+03;
  4.3163404E-01;  9.9999998E-03;  6.9998771E-02;5106;  1.6204303E-02;  0.0000000E+00; -5.6640769E-04;  9.9964008E+02;  1.0000000E-01; -2.9821378E+02;3;  2.9063594E+00;  0.0000000E+00; -1.1556797E-01;0;  6.3996464E-02;  3.9972008E+04;  0.0000000E+00;  7.0641145E-02;  4.0000000E+04;  0.0000000E+00;  3.9999547E+04;  6.9565207E-02;  0.0000000E+00; -5.5687446E-03;  1.0894981E+02;
  4.3163574E-01;  9.9999998E-03;  8.0001548E-02;5107;  1.5977357E-02;  0.0000000E+00; -6.2647875E-04;  9.9972003E+02;  1.0000000E-01; -2.3194406E+02;3;  2.8712318E+00;  0.0000000E+00; -1.2993507E-01;0;  6.2888116E-02;  3.9978363E+04;  0.0000000E+00;  8.8609420E-02;  4.0000000E+04;  0.0000000E+00;  3.9999340E+04;  6.8313941E-02;  0.0000000E+00; -5.4258248E-03;  1.4042747E+02;
  4.3163309E-01;  9.9999998E-03;  9.0004615E-02;5108;  1.5760774E-02;  0.0000000E+00; -6.8290770E-04;  9.9978943E+02;  1.0000000E-01; -1.7446420E+02;3;  2.8363285E+00;  0.0000000E+00; -1.4431746E-01;0;  6.1635669E-02;  3.9983609E+04;  0.0000000E+00;  1.0625339E-01;  4.0000000E+04;  0.0000000E+00;  3.9999547E+04;  6.6918902E-02;  0.0000000E+00; -5.2832318E-03;  1.6487779E+02;
  4.3162617E-01;  9.9999998E-03;  1.0000766E-01;5109;  1.5562837E-02;  0.0000000E+00; -7.3566032E-04;  9.9984662E+02;  1.0000000E-01; -1.2705814E+02;3;  2.8017247E+00;  0.0000000E+00; -1.5823057E-01;0;  6.0291011E-02;  3.9988062E+04;  0.0000000E+00;  1.2214920E-01;  4.0000000E+04;  0.0000000E+00;  3.9999609E+04;  6.5438382E-02;  0.0000000E+00; -5.1473724E-03;  1.8202687E+02;
  4.3161458E-01;  9.9999998E-03;  1.1001040E-01;5110;  1.5388428E-02;  0.0000000E+00; -7.8728161E-04;  9.9988654E+02;  1.0000000E-01; -9.4022034E+01;3;  2.7721229E+00;  0.0000000E+00; -1.7218347E-01;0;  5.8921155E-02;  3.9990844E+04;  0.0000000E+00;  1.3460876E-01;  4.0000000E+04;  0.0000000E+00;  3.9999766E+04;  6.3946597E-02;  0.0000000E+00; -5.0254413E-03;  1.9392628E+02;
  4.3159869E-01;  9.9999998E-03;  1.2001239E-01;5111;  1.5233438E-02;  0.0000000E+00; -8.3737244E-04;  9.9991003E+02;  1.0000000E-01; -7.4516411E+01;3;  2.7437441E+00;  0.0000000E+00; -1.8639284E-01;0;  5.7601471E-02;  3.9991906E+04;  0.0000000E+00;  1.4173065E-01;  4.0000000E+04;  0.0000000E+00;  3.9999770E+04;  6.2527068E-02;  0.0000000E+00; -4.9255984E-03;  2.0345555E+02;
  4.3158069E-01;  9.9999998E-03;  1.3001338E-01;5112;  1.5090850E-02;  0.0000000E+00; -8.8402897E-04;  9.9990430E+02;  1.0000000E-01; -7.9306396E+01;3;  2.7187128E+00;  0.0000000E+00; -2.0032534E-01;0;  5.6406181E-02;  3.9991086E+04;  0.0000000E+00;  1.4159140E-01;  4.0000000E+04;  0.0000000E+00;  4.0000406E+04;  6.1263125E-02;  0.0000000E+00; -4.8569450E-03;  2.1447984E+02;
  4.3156230E-01;  9.9999998E-03;  1.4001344E-01;5113;  1.4947691E-02;  0.0000000E+00; -9.2693593E-04;  9.9987811E+02;  1.0000000E-01; -1.0098479E+02;3;  2.6969478E+00;  0.0000000E+00; -2.1281035E-01;0;  5.5401474E-02;  3.9988445E+04;  0.0000000E+00;  1.3252175E-01;  4.0000000E+04;  0.0000000E+00;  4.0001043E+04;  6.0230307E-02;  0.0000000E+00; -4.8288344E-03;  2.3390573E+02;
  4.3154460E-01;  9.9999998E-03;  1.5001270E-01;5114;  1.4798341E-02;  0.0000000E+00; -9.6866454E-04;  9.9983191E+02;  1.0000000E-01; -1.3925533E+02;3;  2.6693563E+00;  0.0000000E+00; -2.2416860E-01;0;  5.4638635E-02;  3.9983863E+04;  0.0000000E+00;  1.1356161E-01;  4.0000000E+04;  0.0000000E+00;  4.0001598E+04;  5.9488557E-02;  0.0000000E+00; -4.8499233E-03;  2.7343057E+02;
  4.3152824E-01;  9.9999998E-03;  1.6001152E-01;5115;  1.4644577E-02;  0.0000000E+00; -1.0100144E-03;  9.9976361E+02;  1.0000000E-01; -1.9584631E+02;3;  2.6423004E+00;  0.0000000E+00; -2.3648503E-01;0;  5.4151636E-02;  3.9977594E+04;  0.0000000E+00;  8.4793955E-02;  4.0000000E+04;  0.0000000E+00;  4.0002449E+04;  5.9077717E-02;  0.0000000E+00; -4.9260803E-03;  3.4448630E+02;
  4.3151316E-01;  9.9999998E-03;  1.7001019E-01;5116;  1.4470951E-02;  0.0000000E+00; -1.0474937E-03;  9.9967474E+02;  1.0000000E-01; -2.6947385E+02;3;  2.6139946E+00;  0.0000000E+00; -2.4793166E-01;0;  5.3955689E-02;  3.9969480E+04;  0.0000000E+00;  4.7661401E-02;  4.0000000E+04;  0.0000000E+00;  4.0003320E+04;  5.9014317E-02;  0.0000000E+00; -5.0586257E-03;  4.5073611E+02;
  4.3149930E-01;  9.9999998E-03;  1.8000869E-01;5117;  1.4270525E-02;  0.0000000E+00; -1.0810704E-03;  9.9956903E+02;  1.0000000E-01; -3.5702695E+02;3;  2.5846241E+00;  0.0000000E+00; -2.5878614E-01;0;  5.4044578E-02;  3.9959871E+04;  0.0000000E+00;  4.7944500E-03;  4.0000000E+04;  0.0000000E+00;  4.0004516E+04;  5.9288472E-02;  0.0000000E+00; -5.2438923E-03;  5.8793109E+02;
  4.3148652E-01;  9.9999998E-03;  1.9000657E-01;5118;  1.4044900E-02;  0.0000000E+00; -1.1110635E-03;  9.9944202E+02;  1.0000000E-01; -4.6225854E+02;3;  2.5558925E+00;  0.0000000E+00; -2.7001044E-01;0;  5.4391760E-02;  3.9948496E+04;  0.0000000E+00; -4.0491968E-02;  4.0000000E+04;  0.0000000E+00;  4.0005719E+04;  5.9864651E-02;  0.0000000E+00; -5.4728910E-03;  7.4883350E+02;
  4.3147442E-01;  9.9999998E-03;  2.0000309E-01;5119;  1.3793900E-02;  0.0000000E+00; -1.1393121E-03;  9.9930701E+02;  1.0000000E-01; -5.7410724E+02;3;  2.5249891E+00;  0.0000000E+00; -2.8174800E-01;0;  5.4954764E-02;  3.9936434E+04;  0.0000000E+00; -8.4864631E-02;  4.0000000E+04;  0.0000000E+00;  4.0006758E+04;  6.0685940E-02;  0.0000000E+00; -5.7311780E-03;  9.3156616E+02;
  4.3146357E-01;  9.9999998E-03;  2.0999698E-01;5120;  1.3538786E-02;  0.0000000E+00; -1.1670974E-03;  9.9917181E+02;  1.0000000E-01; -6.8615344E+02;3;  2.4983845E+00;  0.0000000E+00; -2.9329208E-01;0;  5.5685315E-02;  3.9923316E+04;  0.0000000E+00; -1.2547690E-01;  4.0000000E+04;  0.0000000E+00;  4.0008465E+04;  6.1683051E-02;  0.0000000E+00; -5.9977360E-03;  1.1594675E+03;
  4.3145451E-01;  9.9999998E-03;  2.1998829E-01;5121;  1.3303041E-02;  0.0000000E+00; -1.1879960E-03;  9.9903668E+02;  1.0000000E-01; -7.9810089E+02;3;  2.4777067E+00;  0.0000000E+00; -3.0406985E-01;0;  5.6554485E-02;  3.9910219E+04;  0.0000000E+00; -1.6024771E-01;  4.0000000E+04;  0.0000000E+00;  4.0011184E+04;  6.2783092E-02;  0.0000000E+00; -6.2286081E-03;  1.4922009E+03;
  4.3144751E-01;  9.9999998E-03;  2.2998367E-01;5122;  1.3146457E-02;  0.0000000E+00; -1.1987945E-03;  9.9890887E+02;  1.0000000E-01; -9.0397443E+02;3;  2.4656615E+00;  0.0000000E+00; -3.1425905E-01;0;  5.7576142E-02;  3.9896793E+04;  0.0000000E+00; -1.8781252E-01;  4.0000000E+04;  0.0000000E+00;  4.0013844E+04;  6.3920200E-02;  0.0000000E+00; -6.3440558E-03;  1.8543545E+03;
  4.4165248E-01;  9.9999998E-03;  7.0001289E-02;5167;  1.6370684E-02;  0.0000000E+00; -4.7991675E-04;  9.9960388E+02;  1.0000000E-01; -3.2818826E+02;3;  2.9560292E+00;  0.0000000E+00; -1.0594468E-01;0;  6.5630943E-02;  3.9968973E+04;  0.0000000E+00;  6.3795589E-02;  4.0000000E+04;  0.0000000E+00;  3.9999172E+04;  7.1583755E-02;  0.0000000E+00; -5.9528109E-03;  1.1531899E+02;
  4.4164878E-01;  9.9999998E-03;  8.0004968E-02;5168;  1.6149141E-02;  0.0000000E+00; -5.3753000E-04;  9.9969055E+02;  1.0000000E-01; -2.5638782E+02;3;  2.9218559E+00;  0.0000000E+00; -1.2046514E-01;0;  6.4599454E-02;  3.9975988E+04;  0.0000000E+00;  7.9584390E-02;  4.0000000E+04;  0.0000000E+00;  3.9999020E+04;  7.0394926E-02;  0.0000000E+00; -5.7954695E-03;  1.4904701E+02;
  4.4164160E-01;  9.9999998E-03;  9.0009078E-02;5169;  1.5924674E-02;  0.0000000E+00; -5.9148477E-04;  9.9976538E+02;  1.0000000E-01; -1.9436487E+02;3;  2.8890121E+00;  0.0000000E+00; -1.3517326E-01;0;  6.3403852E-02;  3.9982031E+04;  0.0000000E+00;  9.4756491E-02;  4.0000000E+04;  0.0000000E+00;  3.9999027E+04;  6.9041729E-02;  0.0000000E+00; -5.6378734E-03;  1.6853319E+02;
  4.4163096E-01;  9.9999998E-03;  1.0001304E-01;5170;  1.5707538E-02;  0.0000000E+00; -6.4293575E-04;  9.9983081E+02;  1.0000000E-01; -1.4019357E+02;3;  2.8555546E+00;  0.0000000E+00; -1.4921598E-01;0;  6.2091690E-02;  3.9987000E+04;  0.0000000E+00;  1.0797518E-01;  4.0000000E+04;  0.0000000E+00;  3.9999430E+04;  6.7580394E-02;  0.0000000E+00; -5.4887035E-03;  1.7505257E+02;
  4.4161707E-01;  9.9999998E-03;  1.1001623E-01;5171;  1.5505428E-02;  0.0000000E+00; -6.9153088E-04;  9.9987756E+02;  1.0000000E-01; -1.0142923E+02;3;  2.8206751E+00;  0.0000000E+00; -1.6308822E-01;0;  6.0729414E-02;  3.9990105E+04;  0.0000000E+00;  1.1771451E-01;  4.0000000E+04;  0.0000000E+00;  3.9999719E+04;  6.6086888E-02;  0.0000000E+00; -5.3574746E-03;  1.7432611E+02;
  4.4160065E-01;  9.9999998E-03;  1.2001850E-01;5172;  1.5321327E-02;  0.0000000E+00; -7.3787029E-04;  9.9990143E+02;  1.0000000E-01; -8.1676704E+01;3;  2.7878294E+00;  0.0000000E+00; -1.7570046E-01;0;  5.9395872E-02;  3.9991426E+04;  0.0000000E+00;  1.2230534E-01;  4.0000000E+04;  0.0000000E+00;  4.0000078E+04;  6.4650081E-02;  0.0000000E+00; -5.2542104E-03;  1.7516487E+02;
  4.4158205E-01;  9.9999998E-03;  1.3001996E-01;5173;  1.5151842E-02;  0.0000000E+00; -7.8333321E-04;  9.9990161E+02;  1.0000000E-01; -8.1528557E+01;3;  2.7568667E+00;  0.0000000E+00; -1.8920960E-01;0;  5.8172993E-02;  3.9991066E+04;  0.0000000E+00;  1.2001969E-01;  4.0000000E+04;  0.0000000E+00;  4.0000656E+04;  6.3361943E-02;  0.0000000E+00; -5.1889513E-03;  1.8792204E+02;
  4.4156367E-01;  9.9999998E-03;  1.4002071E-01;5174;  1.4997463E-02;  0.0000000E+00; -8.2685589E-04;  9.9987836E+02;  1.0000000E-01; -1.0078727E+02;3;  2.7285707E+00;  0.0000000E+00; -2.0280798E-01;0;  5.7138056E-02;  3.9988281E+04;  0.0000000E+00;  1.0927925E-01;  4.0000000E+04;  0.0000000E+00;  4.0000977E+04;  6.2309112E-02;  0.0000000E+00; -5.1710568E-03;  2.2198790E+02;
  4.4154644E-01;  9.9999998E-03;  1.5002067E-01;5175;  1.4845883E-02;  0.0000000E+00; -8.6719677E-04;  9.9983539E+02;  1.0000000E-01; -1.3639120E+02;3;  2.7047091E+00;  0.0000000E+00; -2.1511458E-01;0;  5.6355029E-02;  3.9983719E+04;  0.0000000E+00;  8.8973515E-02;  4.0000000E+04;  0.0000000E+00;  4.0001695E+04;  6.1562967E-02;  0.0000000E+00; -5.2079363E-03;  2.8390527E+02;
  4.4153142E-01;  9.9999998E-03;  1.6001995E-01;5176;  1.4686652E-02;  0.0000000E+00; -9.0682023E-04;  9.9976117E+02;  1.0000000E-01; -1.9787094E+02;3;  2.6776712E+00;  0.0000000E+00; -2.2727945E-01;0;  5.5870935E-02;  3.9977059E+04;  0.0000000E+00;  5.8901835E-02;  4.0000000E+04;  0.0000000E+00;  4.0002691E+04;  6.1173141E-02;  0.0000000E+00; -5.3022075E-03;  3.7554526E+02;
  4.4151890E-01;  9.9999998E-03;  1.7001876E-01;5177;  1.4525185E-02;  0.0000000E+00; -9.4616506E-04;  9.9967084E+02;  1.0000000E-01; -2.7268365E+02;3;  2.6500564E+00;  0.0000000E+00; -2.3828787E-01;0;  5.5711091E-02;  3.9968754E+04;  0.0000000E+00;  2.0339247E-02;  4.0000000E+04;  0.0000000E+00;  4.0003500E+04;  6.1160952E-02;  0.0000000E+00; -5.4498608E-03;  4.9355167E+02;
  4.4150892E-01;  9.9999998E-03;  1.8001704E-01;5178;  1.4352118E-02;  0.0000000E+00; -9.8429958E-04;  9.9956653E+02;  1.0000000E-01; -3.5910095E+02;3;  2.6248374E+00;  0.0000000E+00; -2.5021997E-01;0;  5.5877864E-02;  3.9959082E+04;  0.0000000E+00; -2.3997322E-02;  4.0000000E+04;  0.0000000E+00;  4.0004430E+04;  6.1518427E-02;  0.0000000E+00; -5.6405631E-03;  6.3068732E+02;
  4.4150132E-01;  9.9999998E-03;  1.9001420E-01;5179;  1.4161558E-02;  0.0000000E+00; -1.0219521E-03;  9.9943719E+02;  1.0000000E-01; -4.6625842E+02;3;  2.5988333E+00;  0.0000000E+00; -2.6166588E-01;0;  5.6350734E-02;  3.9947965E+04;  0.0000000E+00; -7.0537291E-02;  4.0000000E+04;  0.0000000E+00;  4.0005840E+04;  6.2209342E-02;  0.0000000E+00; -5.8586081E-03;  7.7955042E+02;
  4.4149539E-01;  9.9999998E-03;  2.0000939E-01;5180;  1.3961978E-02;  0.0000000E+00; -1.0607761E-03;  9.9930713E+02;  1.0000000E-01; -5.7400848E+02;3;  2.5719888E+00;  0.0000000E+00; -2.7287284E-01;0;  5.7090461E-02;  3.9935688E+04;  0.0000000E+00; -1.1561715E-01;  4.0000000E+04;  0.0000000E+00;  4.0006906E+04;  6.3174255E-02;  0.0000000E+00; -6.0837930E-03;  9.4151111E+02;
  4.4149074E-01;  9.9999998E-03;  2.1000157E-01;5181;  1.3748423E-02;  0.0000000E+00; -1.1034773E-03;  9.9916437E+02;  1.0000000E-01; -6.9232611E+02;3;  2.5442393E+00;  0.0000000E+00; -2.8357813E-01;0;  5.8046333E-02;  3.9922977E+04;  0.0000000E+00; -1.5609492E-01;  4.0000000E+04;  0.0000000E+00;  4.0008555E+04;  6.4339504E-02;  0.0000000E+00; -6.2931716E-03;  1.1466342E+03;
  4.4148722E-01;  9.9999998E-03;  2.1999174E-01;5182;  1.3538112E-02;  0.0000000E+00; -1.1404316E-03;  9.9903510E+02;  1.0000000E-01; -7.9938483E+02;3;  2.5177402E+00;  0.0000000E+00; -2.9371598E-01;0;  5.9186812E-02;  3.9910180E+04;  0.0000000E+00; -1.8967159E-01;  4.0000000E+04;  0.0000000E+00;  4.0010992E+04;  6.5627120E-02;  0.0000000E+00; -6.4403065E-03;  1.4510334E+03;
  4.4148442E-01;  9.9999998E-03;  2.2998634E-01;5183;  1.3375182E-02;  0.0000000E+00; -1.1665055E-03;  9.9890582E+02;  1.0000000E-01; -9.0649286E+02;3;  2.4967802E+00;  0.0000000E+00; -3.0449885E-01;0;  6.0523301E-02;  3.9897289E+04;  0.0000000E+00; -2.1476127E-01;  4.0000000E+04;  0.0000000E+00;  4.0013188E+04;  6.6964880E-02;  0.0000000E+00; -6.4415787E-03;  1.7811814E+03;
  4.5165858E-01;  9.9999998E-03;  7.0002243E-02;5228;  1.6493091E-02;  0.0000000E+00; -3.8881350E-04;  9.9960394E+02;  1.0000000E-01; -3.2813885E+02;3;  3.0012107E+00;  0.0000000E+00; -9.6529469E-02;0;  6.8624929E-02;  3.9969051E+04;  0.0000000E+00;  5.3385548E-02;  4.0000000E+04;  0.0000000E+00;  3.9999238E+04;  7.5005211E-02;  0.0000000E+00; -6.3802819E-03;  1.0385737E+02;
  4.5164895E-01;  9.9999998E-03;  8.0006339E-02;5229;  1.6289862E-02;  0.0000000E+00; -4.4222228E-04;  9.9968903E+02;  1.0000000E-01; -2.5762234E+02;3;  2.9693050E+00;  0.0000000E+00; -1.1089073E-01;0;  6.7660972E-02;  3.9975895E+04;  0.0000000E+00;  6.5482557E-02;  4.0000000E+04;  0.0000000E+00;  3.9998793E+04;  7.3866084E-02;  0.0000000E+00; -6.2051131E-03;  1.3910452E+02;
  4.5163748E-01;  9.9999998E-03;  9.0010874E-02;5230;  1.6068729E-02;  0.0000000E+00; -4.9291144E-04;  9.9976685E+02;  1.0000000E-01; -1.9317972E+02;3;  2.9342041E+00;  0.0000000E+00; -1.2554598E-01;0;  6.6514485E-02;  3.9982176E+04;  0.0000000E+00;  7.6450378E-02;  4.0000000E+04;  0.0000000E+00;  3.9998895E+04;  7.2543211E-02;  0.0000000E+00; -6.0287234E-03;  1.5590201E+02;
  4.5162416E-01;  9.9999998E-03;  1.0001516E-01;5231;  1.5843669E-02;  0.0000000E+00; -5.4142717E-04;  9.9982971E+02;  1.0000000E-01; -1.4108243E+02;3;  2.8994052E+00;  0.0000000E+00; -1.4000644E-01;0;  6.5227591E-02;  3.9986840E+04;  0.0000000E+00;  8.5174657E-02;  4.0000000E+04;  0.0000000E+00;  3.9999062E+04;  7.1089759E-02;  0.0000000E+00; -5.8621699E-03;  1.5458611E+02;
  4.5160934E-01;  9.9999998E-03;  1.1001866E-01;5232;  1.5624068E-02;  0.0000000E+00; -5.8870326E-04;  9.9987646E+02;  1.0000000E-01; -1.0236748E+02;3;  2.8665051E+00;  0.0000000E+00; -1.5324628E-01;0;  6.3863635E-02;  3.9990039E+04;  0.0000000E+00;  9.0445064E-02;  4.0000000E+04;  0.0000000E+00;  3.9999441E+04;  6.9581106E-02;  0.0000000E+00; -5.7174726E-03;  1.4149005E+02;
  4.5159391E-01;  9.9999998E-03;  1.2002118E-01;5233;  1.5416238E-02;  0.0000000E+00; -6.3427846E-04;  9.9990088E+02;  1.0000000E-01; -8.2121132E+01;3;  2.8306472E+00;  0.0000000E+00; -1.6676614E-01;0;  6.2502198E-02;  3.9991656E+04;  0.0000000E+00;  9.1016635E-02;  4.0000000E+04;  0.0000000E+00;  3.9999973E+04;  6.8108983E-02;  0.0000000E+00; -5.6067863E-03;  1.3028940E+02;
  4.5157847E-01;  9.9999998E-03;  1.3002257E-01;5234;  1.5225821E-02;  0.0000000E+00; -6.7803793E-04;  9.9990027E+02;  1.0000000E-01; -8.2614944E+01;3;  2.7965088E+00;  0.0000000E+00; -1.7979902E-01;0;  6.1229669E-02;  3.9991020E+04;  0.0000000E+00;  8.5621290E-02;  4.0000000E+04;  0.0000000E+00;  4.0000645E+04;  6.6771045E-02;  0.0000000E+00; -5.5413763E-03;  1.4169283E+02;
  4.5156318E-01;  9.9999998E-03;  1.4002314E-01;5235;  1.5045763E-02;  0.0000000E+00; -7.2176213E-04;  9.9987775E+02;  1.0000000E-01; -1.0128109E+02;3;  2.7652333E+00;  0.0000000E+00; -1.9159064E-01;0;  6.0130931E-02;  3.9988227E+04;  0.0000000E+00;  7.3065840E-02;  4.0000000E+04;  0.0000000E+00;  4.0001441E+04;  6.5661520E-02;  0.0000000E+00; -5.5305888E-03;  1.8857100E+02;
  4.5154947E-01;  9.9999998E-03;  1.5002307E-01;5236;  1.4885303E-02;  0.0000000E+00; -7.6586573E-04;  9.9983313E+02;  1.0000000E-01; -1.3826770E+02;3;  2.7318776E+00;  0.0000000E+00; -2.0409696E-01;0;  5.9280798E-02;  3.9983539E+04;  0.0000000E+00;  5.2433953E-02;  4.0000000E+04;  0.0000000E+00;  4.0002125E+04;  6.4861313E-02;  0.0000000E+00; -5.5805133E-03;  2.6820401E+02;
  4.5153856E-01;  9.9999998E-03;  1.6002242E-01;5237;  1.4736168E-02;  0.0000000E+00; -8.0827199E-04;  9.9976398E+02;  1.0000000E-01; -1.9555002E+02;3;  2.7036624E+00;  0.0000000E+00; -2.1743886E-01;0;  5.8738608E-02;  3.9977195E+04;  0.0000000E+00;  2.3505252E-02;  4.0000000E+04;  0.0000000E+00;  4.0002934E+04;  6.4428896E-02;  0.0000000E+00; -5.6902892E-03;  3.7439523E+02;
  4.5153064E-01;  9.9999998E-03;  1.7002112E-01;5238;  1.4584870E-02;  0.0000000E+00; -8.5093098E-04;  9.9967743E+02;  1.0000000E-01; -2.6725171E+02;3;  2.6782944E+00;  0.0000000E+00; -2.2754817E-01;0;  5.8541469E-02;  3.9968879E+04;  0.0000000E+00; -1.2621772E-02;  4.0000000E+04;  0.0000000E+00;  4.0003508E+04;  6.4391755E-02;  0.0000000E+00; -5.8502872E-03;  5.0094467E+02;
  4.5152575E-01;  9.9999998E-03;  1.8001892E-01;5239;  1.4432592E-02;  0.0000000E+00; -8.9608744E-04;  9.9956482E+02;  1.0000000E-01; -3.6053302E+02;3;  2.6534116E+00;  0.0000000E+00; -2.3960574E-01;0;  5.8702111E-02;  3.9959301E+04;  0.0000000E+00; -5.3482905E-02;  4.0000000E+04;  0.0000000E+00;  4.0004867E+04;  6.4745665E-02;  0.0000000E+00; -6.0435529E-03;  6.4070349E+02;
  4.5152354E-01;  9.9999998E-03;  1.9001551E-01;5240;  1.4275933E-02;  0.0000000E+00; -9.4223884E-04;  9.9944293E+02;  1.0000000E-01; -4.6151782E+02;3;  2.6305661E+00;  0.0000000E+00; -2.5127041E-01;0;  5.9208576E-02;  3.9948238E+04;  0.0000000E+00; -9.5783055E-02;  4.0000000E+04;  0.0000000E+00;  4.0005664E+04;  6.5456085E-02;  0.0000000E+00; -6.2475083E-03;  7.8765149E+02;
  4.5152375E-01;  9.9999998E-03;  2.0001033E-01;5241;  1.4119107E-02;  0.0000000E+00; -9.9156459E-04;  9.9931024E+02;  1.0000000E-01; -5.7144061E+02;3;  2.6079714E+00;  0.0000000E+00; -2.6319486E-01;0;  6.0029030E-02;  3.9936586E+04;  0.0000000E+00; -1.3615134E-01;  4.0000000E+04;  0.0000000E+00;  4.0006746E+04;  6.6465043E-02;  0.0000000E+00; -6.4360132E-03;  9.4431030E+02;
  4.5152605E-01;  9.9999998E-03;  2.1000290E-01;5242;  1.3962788E-02;  0.0000000E+00; -1.0431068E-03;  9.9917633E+02;  1.0000000E-01; -6.8240045E+02;3;  2.5821211E+00;  0.0000000E+00; -2.7483398E-01;0;  6.1121091E-02;  3.9924328E+04;  0.0000000E+00; -1.7172167E-01;  4.0000000E+04;  0.0000000E+00;  4.0008254E+04;  6.7698620E-02;  0.0000000E+00; -6.5775299E-03;  1.1350863E+03;
  4.5152956E-01;  9.9999998E-03;  2.1999462E-01;5243;  1.3813695E-02;  0.0000000E+00; -1.0908423E-03;  9.9904266E+02;  1.0000000E-01; -7.9311334E+02;3;  2.5645404E+00;  0.0000000E+00; -2.8491601E-01;0;  6.2455047E-02;  3.9911648E+04;  0.0000000E+00; -2.0035836E-01;  4.0000000E+04;  0.0000000E+00;  4.0010316E+04;  6.9077224E-02;  0.0000000E+00; -6.6221775E-03;  1.3950226E+03;
  4.5153242E-01;  9.9999998E-03;  2.2999069E-01;5244;  1.3680668E-02;  0.0000000E+00; -1.1356845E-03;  9.9891895E+02;  1.0000000E-01; -8.9562897E+02;3;  2.5430305E+00;  0.0000000E+00; -2.9601178E-01;0;  6.4021856E-02;  3.9899367E+04;  0.0000000E+00; -2.2040810E-01;  4.0000000E+04;  0.0000000E+00;  4.0012418E+04;  7.0525318E-02;  0.0000000E+00; -6.5034647E-03;  1.6439366E+03;
  4.6164939E-01;  9.9999998E-03;  7.0002005E-02;5289;  1.6596492E-02;  0.0000000E+00; -3.0461757E-04;  9.9963599E+02;  1.0000000E-01; -3.0157172E+02;3;  3.0389788E+00;  0.0000000E+00; -8.8997982E-02;0;  7.2939023E-02;  3.9971348E+04;  0.0000000E+00;  3.8857121E-02;  4.0000000E+04;  0.0000000E+00;  3.9999461E+04;  7.9814740E-02;  0.0000000E+00; -6.8757129E-03;  6.5760086E+01;
  4.6163386E-01;  9.9999998E-03;  8.0005698E-02;5290;  1.6419943E-02;  0.0000000E+00; -3.5448500E-04;  9.9971423E+02;  1.0000000E-01; -2.3673404E+02;3;  3.0102165E+00;  0.0000000E+00; -1.0311732E-01;0;  7.2018176E-02;  3.9977730E+04;  0.0000000E+00;  4.6020709E-02;  4.0000000E+04;  0.0000000E+00;  3.9999449E+04;  7.8693725E-02;  0.0000000E+00; -6.6755512E-03;  9.9552162E+01;
  4.6161723E-01;  9.9999998E-03;  9.0009764E-02;5291;  1.6220596E-02;  0.0000000E+00; -4.0334603E-04;  9.9977649E+02;  1.0000000E-01; -1.8517995E+02;3;  2.9791460E+00;  0.0000000E+00; -1.1784605E-01;0;  7.0899174E-02;  3.9982984E+04;  0.0000000E+00;  5.1586792E-02;  4.0000000E+04;  0.0000000E+00;  3.9999246E+04;  7.7371761E-02;  0.0000000E+00; -6.4725890E-03;  1.1695354E+02;
  4.6160042E-01;  9.9999998E-03;  1.0001364E-01;5292;  1.6000019E-02;  0.0000000E+00; -4.5000765E-04;  9.9983405E+02;  1.0000000E-01; -1.3747760E+02;3;  2.9440906E+00;  0.0000000E+00; -1.3188329E-01;0;  6.9617622E-02;  3.9987250E+04;  0.0000000E+00;  5.4807883E-02;  4.0000000E+04;  0.0000000E+00;  3.9999254E+04;  7.5898074E-02;  0.0000000E+00; -6.2804502E-03;  1.1418182E+02;
  4.6158445E-01;  9.9999998E-03;  1.1001682E-01;5293;  1.5772050E-02;  0.0000000E+00; -4.9553049E-04;  9.9987341E+02;  1.0000000E-01; -1.0488593E+02;3;  2.9078870E+00;  0.0000000E+00; -1.4563048E-01;0;  6.8232685E-02;  3.9990152E+04;  0.0000000E+00;  5.4975599E-02;  4.0000000E+04;  0.0000000E+00;  3.9999422E+04;  7.4346580E-02;  0.0000000E+00; -6.1138920E-03;  9.5054726E+01;
  4.6156934E-01;  9.9999998E-03;  1.2001889E-01;5294;  1.5547887E-02;  0.0000000E+00; -5.3960626E-04;  9.9989465E+02;  1.0000000E-01; -8.7256790E+01;3;  2.8738189E+00;  0.0000000E+00; -1.5867774E-01;0;  6.6820502E-02;  3.9991238E+04;  0.0000000E+00;  5.1423147E-02;  4.0000000E+04;  0.0000000E+00;  3.9999930E+04;  7.2807886E-02;  0.0000000E+00; -5.9873806E-03;  7.3894386E+01;
  4.6155632E-01;  9.9999998E-03;  1.3001990E-01;5295;  1.5334320E-02;  0.0000000E+00; -5.8551331E-04;  9.9989600E+02;  1.0000000E-01; -8.6170403E+01;3;  2.8379884E+00;  0.0000000E+00; -1.7026900E-01;0;  6.5468222E-02;  3.9990613E+04;  0.0000000E+00;  4.3473363E-02;  4.0000000E+04;  0.0000000E+00;  4.0000230E+04;  7.1381845E-02;  0.0000000E+00; -5.9136190E-03;  8.6723045E+01;
  4.6154550E-01;  9.9999998E-03;  1.4001997E-01;5296;  1.5141325E-02;  0.0000000E+00; -6.3138519E-04;  9.9986987E+02;  1.0000000E-01; -1.0779942E+02;3;  2.7998269E+00;  0.0000000E+00; -1.8394899E-01;0;  6.4264491E-02;  3.9987809E+04;  0.0000000E+00;  3.0456362E-02;  4.0000000E+04;  0.0000000E+00;  4.0000957E+04;  7.0166610E-02;  0.0000000E+00; -5.9021180E-03;  1.4667696E+02;
  4.6153751E-01;  9.9999998E-03;  1.5001926E-01;5297;  1.4968393E-02;  0.0000000E+00; -6.7848968E-04;  9.9982281E+02;  1.0000000E-01; -1.4681067E+02;3;  2.7677360E+00;  0.0000000E+00; -1.9306864E-01;0;  6.3290879E-02;  3.9983383E+04;  0.0000000E+00;  1.1773476E-02;  4.0000000E+04;  0.0000000E+00;  4.0001746E+04;  6.9248430E-02;  0.0000000E+00; -5.9575522E-03;  2.3610301E+02;
  4.6153346E-01;  9.9999998E-03;  1.6001803E-01;5298;  1.4813119E-02;  0.0000000E+00; -7.2987343E-04;  9.9975690E+02;  1.0000000E-01; -2.0142641E+02;3;  2.7314970E+00;  0.0000000E+00; -2.0704092E-01;0;  6.2616006E-02;  3.9977113E+04;  0.0000000E+00; -1.2761160E-02;  4.0000000E+04;  0.0000000E+00;  4.0002426E+04;  6.8691567E-02;  0.0000000E+00; -6.0755624E-03;  3.4765604E+02;
  4.6153358E-01;  9.9999998E-03;  1.7001618E-01;5299;  1.4675705E-02;  0.0000000E+00; -7.8115286E-04;  9.9967065E+02;  1.0000000E-01; -2.7288116E+02;3;  2.7043397E+00;  0.0000000E+00; -2.2019465E-01;0;  6.2288396E-02;  3.9969402E+04;  0.0000000E+00; -4.2369794E-02;  4.0000000E+04;  0.0000000E+00;  4.0003816E+04;  6.8529524E-02;  0.0000000E+00; -6.2411278E-03;  4.7721948E+02;
  4.6153772E-01;  9.9999998E-03;  1.8001375E-01;5300;  1.4549541E-02;  0.0000000E+00; -8.3237747E-04;  9.9956824E+02;  1.0000000E-01; -3.5771829E+02;3;  2.6807880E+00;  0.0000000E+00; -2.3276103E-01;0;  6.2331807E-02;  3.9959875E+04;  0.0000000E+00; -7.5246714E-02;  4.0000000E+04;  0.0000000E+00;  4.0004727E+04;  6.8762504E-02;  0.0000000E+00; -6.4306972E-03;  6.2038263E+02;
  4.6154475E-01;  9.9999998E-03;  1.9001068E-01;5301;  1.4431265E-02;  0.0000000E+00; -8.8708673E-04;  9.9945203E+02;  1.0000000E-01; -4.5396246E+02;3;  2.6617205E+00;  0.0000000E+00; -2.4391805E-01;0;  6.2744625E-02;  3.9949457E+04;  0.0000000E+00; -1.0892745E-01;  4.0000000E+04;  0.0000000E+00;  4.0005797E+04;  6.9360130E-02;  0.0000000E+00; -6.6155023E-03;  7.7290833E+02;
  4.6155369E-01;  9.9999998E-03;  2.0000671E-01;5302;  1.4324624E-02;  0.0000000E+00; -9.4752049E-04;  9.9932233E+02;  1.0000000E-01; -5.6141620E+02;3;  2.6421566E+00;  0.0000000E+00; -2.5520152E-01;0;  6.3503161E-02;  3.9938051E+04;  0.0000000E+00; -1.4086273E-01;  4.0000000E+04;  0.0000000E+00;  4.0007145E+04;  7.0267677E-02;  0.0000000E+00; -6.7645158E-03;  9.3506677E+02;
  4.6156389E-01;  9.9999998E-03;  2.1000209E-01;5303;  1.4225308E-02;  0.0000000E+00; -1.0116337E-03;  9.9919647E+02;  1.0000000E-01; -6.6570959E+02;3;  2.6222534E+00;  0.0000000E+00; -2.6746231E-01;0;  6.4572237E-02;  3.9926082E+04;  0.0000000E+00; -1.6884096E-01;  4.0000000E+04;  0.0000000E+00;  4.0008137E+04;  7.1414664E-02;  0.0000000E+00; -6.8424288E-03;  1.1130332E+03;
  4.6157321E-01;  9.9999998E-03;  2.1999788E-01;5304;  1.4144346E-02;  0.0000000E+00; -1.0794483E-03;  9.9905957E+02;  1.0000000E-01; -7.7913843E+02;3;  2.6063647E+00;  0.0000000E+00; -2.7987379E-01;0;  6.5914094E-02;  3.9914008E+04;  0.0000000E+00; -1.9105035E-01;  4.0000000E+04;  0.0000000E+00;  4.0009758E+04;  7.2723597E-02;  0.0000000E+00; -6.8095024E-03;  1.3069269E+03;
  4.6158043E-01;  9.9999998E-03;  2.2999592E-01;5305;  1.4081767E-02;  0.0000000E+00; -1.1540344E-03;  9.9892755E+02;  1.0000000E-01; -8.8851807E+02;3;  2.5877993E+00;  0.0000000E+00; -2.9406261E-01;0;  6.7489780E-02;  3.9902293E+04;  0.0000000E+00; -2.0554580E-01;  4.0000000E+04;  0.0000000E+00;  4.0010828E+04;  7.4119084E-02;  0.0000000E+00; -6.6293022E-03;  1.4664541E+03;
  4.7161928E-01;  9.9999998E-03;  7.0003025E-02;5350;  1.6721398E-02;  0.0000000E+00; -2.4499404E-04;  9.9968475E+02;  1.0000000E-01; -2.6117780E+02;3;  3.0693645E+00;  0.0000000E+00; -8.4825069E-02;0;  7.8147151E-02;  3.9975086E+04;  0.0000000E+00;  1.9540083E-02;  4.0000000E+04;  0.0000000E+00;  4.0000234E+04;  8.5603982E-02;  0.0000000E+00; -7.4568326E-03;  4.3718613E+01;
  4.7159982E-01;  9.9999998E-03;  8.0005877E-02;5351;  1.6586991E-02;  0.0000000E+00; -2.9526322E-04;  9.9974335E+02;  1.0000000E-01; -2.1263596E+02;3;  3.0461502E+00;  0.0000000E+00; -9.8162383E-02;0;  7.7242158E-02;  3.9979812E+04;  0.0000000E+00;  2.0982590E-02;  4.0000000E+04;  0.0000000E+00;  3.9999613E+04;  8.4463634E-02;  0.0000000E+00; -7.2214776E-03;  3.2367344E+01;
  4.7158027E-01;  9.9999998E-03;  9.0008914E-02;5352;  1.6418718E-02;  0.0000000E+00; -3.4436907E-04;  9.9979236E+02;  1.0000000E-01; -1.7204451E+02;3;  3.0183599E+00;  0.0000000E+00; -1.1344633E-01;0;  7.6128118E-02;  3.9983855E+04;  0.0000000E+00;  2.0669652E-02;  4.0000000E+04;  0.0000000E+00;  3.9999496E+04;  8.3109125E-02;  0.0000000E+00; -6.9810059E-03;  4.9186169E+01;
  4.7156113E-01;  9.9999998E-03;  1.0001170E-01;5353;  1.6218565E-02;  0.0000000E+00; -3.9289228E-04;  9.9983527E+02;  1.0000000E-01; -1.3648996E+02;3;  2.9825501E+00;  0.0000000E+00; -1.2789425E-01;0;  7.4833795E-02;  3.9987312E+04;  0.0000000E+00;  1.8382890E-02;  4.0000000E+04;  0.0000000E+00;  3.9999473E+04;  8.1585504E-02;  0.0000000E+00; -6.7517054E-03;  5.2680931E+01;
  4.7154379E-01;  9.9999998E-03;  1.1001375E-01;5354;  1.5992681E-02;  0.0000000E+00; -4.3787627E-04;  9.9986407E+02;  1.0000000E-01; -1.1258941E+02;3;  2.9468839E+00;  0.0000000E+00; -1.4227319E-01;0;  7.3411182E-02;  3.9989324E+04;  0.0000000E+00;  1.4030285E-02;  4.0000000E+04;  0.0000000E+00;  3.9999824E+04;  7.9962410E-02;  0.0000000E+00; -6.5512299E-03;  3.7922886E+01;
  4.7152936E-01;  9.9999998E-03;  1.2001473E-01;5355;  1.5756980E-02;  0.0000000E+00; -4.8235836E-04;  9.9987860E+02;  1.0000000E-01; -1.0058974E+02;3;  2.9122918E+00;  0.0000000E+00; -1.5404637E-01;0;  7.1930461E-02;  3.9990105E+04;  0.0000000E+00;  7.5850864E-03;  4.0000000E+04;  0.0000000E+00;  4.0000113E+04;  7.8327097E-02;  0.0000000E+00; -6.3966354E-03;  1.1144531E+01;
  4.7151867E-01;  9.9999998E-03;  1.3001463E-01;5356;  1.5528039E-02;  0.0000000E+00; -5.2802422E-04;  9.9987183E+02;  1.0000000E-01; -1.0616984E+02;3;  2.8742034E+00;  0.0000000E+00; -1.6678733E-01;0;  7.0473947E-02;  3.9989203E+04;  0.0000000E+00; -1.0169229E-03;  4.0000000E+04;  0.0000000E+00;  4.0000102E+04;  7.6776162E-02;  0.0000000E+00; -6.3022138E-03;  4.7311100E+01;
  4.7151184E-01;  9.9999998E-03;  1.4001350E-01;5357;  1.5315736E-02;  0.0000000E+00; -5.7597330E-04;  9.9984650E+02;  1.0000000E-01; -1.2715690E+02;3;  2.8405468E+00;  0.0000000E+00; -1.7610224E-01;0;  6.9128335E-02;  3.9986715E+04;  0.0000000E+00; -1.1973823E-02;  4.0000000E+04;  0.0000000E+00;  4.0000855E+04;  7.5406060E-02;  0.0000000E+00; -6.2777265E-03;  1.1298600E+02;
  4.7150901E-01;  9.9999998E-03;  1.5001179E-01;5358;  1.5127119E-02;  0.0000000E+00; -6.3100184E-04;  9.9980139E+02;  1.0000000E-01; -1.6453856E+02;3;  2.8022032E+00;  0.0000000E+00; -1.8908697E-01;0;  6.7976721E-02;  3.9982406E+04;  0.0000000E+00; -2.5643347E-02;  4.0000000E+04;  0.0000000E+00;  4.0001348E+04;  7.4303277E-02;  0.0000000E+00; -6.3265529E-03;  1.9776903E+02;
  4.7151053E-01;  9.9999998E-03;  1.6000986E-01;5359;  1.4973632E-02;  0.0000000E+00; -6.8887864E-04;  9.9973920E+02;  1.0000000E-01; -2.1609265E+02;3;  2.7668035E+00;  0.0000000E+00; -2.0286860E-01;0;  6.7092791E-02;  3.9976574E+04;  0.0000000E+00; -4.2331263E-02;  4.0000000E+04;  0.0000000E+00;  4.0002324E+04;  7.3533759E-02;  0.0000000E+00; -6.4409641E-03;  3.0295374E+02;
  4.7151640E-01;  9.9999998E-03;  1.7000794E-01;5360;  1.4846725E-02;  0.0000000E+00; -7.5065379E-04;  9.9965393E+02;  1.0000000E-01; -2.8670795E+02;3;  2.7395995E+00;  0.0000000E+00; -2.1216844E-01;0;  6.6533156E-02;  3.9968945E+04;  0.0000000E+00; -6.1846152E-02;  4.0000000E+04;  0.0000000E+00;  4.0002973E+04;  7.3134281E-02;  0.0000000E+00; -6.6011264E-03;  4.2841623E+02;
  4.7152627E-01;  9.9999998E-03;  1.8000613E-01;5361;  1.4744748E-02;  0.0000000E+00; -8.1965898E-04;  9.9956018E+02;  1.0000000E-01; -3.6438477E+02;3;  2.7137356E+00;  0.0000000E+00; -2.2604774E-01;0;  6.6330798E-02;  3.9960141E+04;  0.0000000E+00; -8.3395615E-02;  4.0000000E+04;  0.0000000E+00;  4.0003820E+04;  7.3109969E-02;  0.0000000E+00; -6.7791711E-03;  5.7239514E+02;
  4.7153911E-01;  9.9999998E-03;  1.9000451E-01;5362;  1.4670402E-02;  0.0000000E+00; -8.8997767E-04;  9.9944635E+02;  1.0000000E-01; -4.5870306E+02;3;  2.6925843E+00;  0.0000000E+00; -2.4011059E-01;0;  6.6493519E-02;  3.9949816E+04;  0.0000000E+00; -1.0575666E-01;  4.0000000E+04;  0.0000000E+00;  4.0005230E+04;  7.3435955E-02;  0.0000000E+00; -6.9424342E-03;  7.3095569E+02;
  4.7155264E-01;  9.9999998E-03;  2.0000322E-01;5363;  1.4627790E-02;  0.0000000E+00; -9.6347253E-04;  9.9932642E+02;  1.0000000E-01; -5.5805829E+02;3;  2.6746132E+00;  0.0000000E+00; -2.5437146E-01;0;  6.7006968E-02;  3.9938844E+04;  0.0000000E+00; -1.2751210E-01;  4.0000000E+04;  0.0000000E+00;  4.0006469E+04;  7.4063584E-02;  0.0000000E+00; -7.0566186E-03;  8.9691852E+02;
  4.7156486E-01;  9.9999998E-03;  2.1000250E-01;5364;  1.4622427E-02;  0.0000000E+00; -1.0441249E-03;  9.9919672E+02;  1.0000000E-01; -6.6551202E+02;3;  2.6613984E+00;  0.0000000E+00; -2.6768526E-01;0;  6.7838207E-02;  3.9927480E+04;  0.0000000E+00; -1.4719357E-01;  4.0000000E+04;  0.0000000E+00;  4.0007859E+04;  7.4928030E-02;  0.0000000E+00; -7.0898253E-03;  1.0554991E+03;
  4.7157365E-01;  9.9999998E-03;  2.2000231E-01;5365;  1.4665371E-02;  0.0000000E+00; -1.1387450E-03;  9.9906158E+02;  1.0000000E-01; -7.7745947E+02;3;  2.6553810E+00;  0.0000000E+00; -2.8085384E-01;0;  6.8933293E-02;  3.9915828E+04;  0.0000000E+00; -1.6312337E-01;  4.0000000E+04;  0.0000000E+00;  4.0008723E+04;  7.5957790E-02;  0.0000000E+00; -7.0244963E-03;  1.1821743E+03;
  4.7157839E-01;  9.9999998E-03;  2.3000109E-01;5366;  1.4765179E-02;  0.0000000E+00; -1.2549856E-03;  9.9892688E+02;  1.0000000E-01; -8.8906128E+02;3;  2.6481645E+00;  0.0000000E+00; -2.9502413E-01;0;  7.0201032E-02;  3.9904305E+04;  0.0000000E+00; -1.7281729E-01;  4.0000000E+04;  0.0000000E+00;  4.0009586E+04;  7.7082068E-02;  0.0000000E+00; -6.8810377E-03;  1.2828579E+03;
  4.8153371E-01;  9.9999998E-03;  1.1001180E-01;5415;  1.6382772E-02;  0.0000000E+00; -4.5557503E-04;  9.9985681E+02;  1.0000146E-01; -1.1861393E+02;3;  2.9882109E+00;  0.0000000E+00; -1.4381383E-01;0;  7.8697480E-02;  3.9987406E+04;  0.0000000E+00; -2.9322525E-02;  4.0000000E+04;  0.0000000E+00;  4.0000004E+04;  8.5727699E-02;  0.0000000E+00; -7.0302207E-03;  4.1931038E+01;
  4.8151934E-01;  9.9999998E-03;  1.2001181E-01;5416;  1.6139437E-02;  0.0000000E+00; -5.0050556E-04;  9.9985950E+02;  1.0000150E-01; -1.1639177E+02;3;  2.9504859E+00;  0.0000000E+00; -1.5638331E-01;0;  7.7148736E-02;  3.9987871E+04;  0.0000000E+00; -3.6417842E-02;  4.0000000E+04;  0.0000000E+00;  3.9999938E+04;  8.3981089E-02;  0.0000000E+00; -6.8323519E-03;  5.2734413E+01;
  4.8155272E-01;  9.9999998E-03;  1.0001078E-01;5414;  1.6600875E-02;  0.0000000E+00; -4.0822235E-04;  9.9984137E+02;  1.0000148E-01; -1.3140369E+02;3;  3.0228140E+00;  0.0000000E+00; -1.3064973E-01;0;  8.0157146E-02;  3.9986273E+04;  0.0000000E+00; -2.2056686E-02;  4.0000000E+04;  0.0000000E+00;  4.0000094E+04;  8.7436356E-02;  0.0000000E+00; -7.2792065E-03;  3.3770332E+01;
  4.8150975E-01;  9.9999998E-03;  1.3001072E-01;5417;  1.5890233E-02;  0.0000000E+00; -5.4665504E-04;  9.9985144E+02;  1.0000146E-01; -1.2305825E+02;3;  2.9125919E+00;  0.0000000E+00; -1.6992399E-01;0;  7.5582236E-02;  3.9986480E+04;  0.0000000E+00; -4.2932142E-02;  4.0000000E+04;  0.0000000E+00;  4.0000180E+04;  8.2283884E-02;  0.0000000E+00; -6.7016506E-03;  6.9723473E+01;
  4.8157516E-01;  9.9999998E-03;  9.0009093E-02;5413;  1.6777067E-02;  0.0000000E+00; -3.5568228E-04;  9.9982007E+02;  1.0000148E-01; -1.4908220E+02;3;  3.0559075E+00;  0.0000000E+00; -1.1633508E-01;0;  8.1468672E-02;  3.9984270E+04;  0.0000000E+00; -1.5195139E-02;  4.0000000E+04;  0.0000000E+00;  4.0000227E+04;  8.9028314E-02;  0.0000000E+00; -7.5596436E-03;  4.2748505E+01;
  4.8159999E-01;  9.9999998E-03;  8.0007046E-02;5412;  1.6899448E-02;  0.0000000E+00; -2.9977379E-04;  9.9979028E+02;  1.0000142E-01; -1.7372348E+02;3;  3.0853240E+00;  0.0000000E+00; -9.9120289E-02;0;  8.2590856E-02;  3.9981656E+04;  0.0000000E+00; -9.2960158E-03;  4.0000000E+04;  0.0000000E+00;  4.0000520E+04;  9.0441748E-02;  0.0000000E+00; -7.8508928E-03;  7.7767769E+01;
  4.8150435E-01;  9.9999998E-03;  1.4000878E-01;5418;  1.5653113E-02;  0.0000000E+00; -5.9742579E-04;  9.9981982E+02;  1.0000150E-01; -1.4927972E+02;3;  2.8730106E+00;  0.0000000E+00; -1.7925516E-01;0;  7.4076116E-02;  3.9984383E+04;  0.0000000E+00; -4.8779272E-02;  4.0000000E+04;  0.0000000E+00;  4.0000227E+04;  8.0724396E-02;  0.0000000E+00; -6.6482760E-03;  1.0330887E+02;
  4.8162571E-01;  9.9999998E-03;  7.0004947E-02;5411;  1.6971264E-02;  0.0000000E+00; -2.4263545E-04;  9.9975659E+02;  1.0000142E-01; -2.0167331E+02;3;  3.1045442E+00;  0.0000000E+00; -8.5542046E-02;0;  8.3501883E-02;  3.9978922E+04;  0.0000000E+00; -4.7408761E-03;  4.0000000E+04;  0.0000000E+00;  4.0000926E+04;  9.1635726E-02;  0.0000000E+00; -8.1338417E-03;  1.2992899E+02;
  4.8150226E-01;  9.9999998E-03;  1.5000644E-01;5419;  1.5454207E-02;  0.0000000E+00; -6.5722800E-04;  9.9977576E+02;  1.0000141E-01; -1.8577252E+02;3;  2.8361197E+00;  0.0000000E+00; -1.9249484E-01;0;  7.2707906E-02;  3.9980230E+04;  0.0000000E+00; -5.4307543E-02;  4.0000000E+04;  0.0000000E+00;  4.0000988E+04;  7.9382397E-02;  0.0000000E+00; -6.6744871E-03;  1.6147566E+02;
  4.8150262E-01;  9.9999998E-03;  1.6000424E-01;5420;  1.5295438E-02;  0.0000000E+00; -7.2441000E-04;  9.9971851E+02;  1.0000144E-01; -2.3322797E+02;3;  2.8040719E+00;  0.0000000E+00; -2.0427513E-01;0;  7.1550503E-02;  3.9974570E+04;  0.0000000E+00; -6.0219355E-02;  4.0000000E+04;  0.0000000E+00;  4.0001699E+04;  7.8320391E-02;  0.0000000E+00; -6.7698890E-03;  2.4774205E+02;
  4.8150498E-01;  9.9999998E-03;  1.7000249E-01;5421;  1.5185078E-02;  0.0000000E+00; -8.0460293E-04;  9.9963867E+02;  1.0000145E-01; -2.9934955E+02;3;  2.7740765E+00;  0.0000000E+00; -2.1557514E-01;0;  7.0664048E-02;  3.9967168E+04;  0.0000000E+00; -6.7221627E-02;  4.0000000E+04;  0.0000000E+00;  4.0002652E+04;  7.7575542E-02;  0.0000000E+00; -6.9114966E-03;  3.6266608E+02;
  4.8150852E-01;  9.9999998E-03;  1.8000165E-01;5422;  1.5131585E-02;  0.0000000E+00; -8.9260016E-04;  9.9954462E+02;  1.0000140E-01; -3.7727328E+02;3;  2.7475653E+00;  0.0000000E+00; -2.3085648E-01;0;  7.0087679E-02;  3.9958812E+04;  0.0000000E+00; -7.5807989E-02;  4.0000000E+04;  0.0000000E+00;  4.0003656E+04;  7.7156961E-02;  0.0000000E+00; -7.0692850E-03;  5.0417114E+02;
  4.8151270E-01;  9.9999998E-03;  1.9000192E-01;5423;  1.5134100E-02;  0.0000000E+00; -9.8614662E-04;  9.9943829E+02;  1.0000148E-01; -4.6536957E+02;3;  2.7262523E+00;  0.0000000E+00; -2.4330753E-01;0;  6.9835275E-02;  3.9949031E+04;  0.0000000E+00; -8.6139418E-02;  4.0000000E+04;  0.0000000E+00;  4.0004832E+04;  7.7047370E-02;  0.0000000E+00; -7.2120973E-03;  6.6508038E+02;
  4.8151675E-01;  9.9999998E-03;  2.0000362E-01;5424;  1.5192756E-02;  0.0000000E+00; -1.0861742E-03;  9.9931561E+02;  1.0000140E-01; -5.6699634E+02;3;  2.7093396E+00;  0.0000000E+00; -2.5475565E-01;0;  6.9894798E-02;  3.9937973E+04;  0.0000000E+00; -9.7916760E-02;  4.0000000E+04;  0.0000000E+00;  4.0006070E+04;  7.7207267E-02;  0.0000000E+00; -7.3124683E-03;  8.2677625E+02;
  4.8151875E-01;  9.9999998E-03;  2.1000618E-01;5425;  1.5338953E-02;  0.0000000E+00; -1.1994287E-03;  9.9918481E+02;  1.0000147E-01; -6.7538831E+02;3;  2.6880875E+00;  0.0000000E+00; -2.7022254E-01;0;  7.0225269E-02;  3.9926664E+04;  0.0000000E+00; -1.1025561E-01;  4.0000000E+04;  0.0000000E+00;  4.0007062E+04;  7.7581853E-02;  0.0000000E+00; -7.3565803E-03;  9.5833008E+02;
  4.8151958E-01;  9.9999998E-03;  2.2000770E-01;5426;  1.5632307E-02;  0.0000000E+00; -1.3345386E-03;  9.9904773E+02;  1.0000146E-01; -7.8891595E+02;3;  2.6718135E+00;  0.0000000E+00; -2.8661218E-01;0;  7.0746072E-02;  3.9915102E+04;  0.0000000E+00; -1.2147119E-01;  4.0000000E+04;  0.0000000E+00;  4.0007559E+04;  7.8109734E-02;  0.0000000E+00; -7.3636649E-03;  1.0394867E+03;
  4.8152098E-01;  9.9999998E-03;  2.3000486E-01;5427;  1.6065987E-02;  0.0000000E+00; -1.4941791E-03;  9.9891486E+02;  1.0000141E-01; -8.9903632E+02;3;  2.6613071E+00;  0.0000000E+00; -3.0214325E-01;0;  7.1328416E-02;  3.9903688E+04;  0.0000000E+00; -1.2881622E-01;  4.0000000E+04;  0.0000000E+00;  4.0008316E+04;  7.8729205E-02;  0.0000000E+00; -7.4007879E-03;  1.1431381E+03;
  4.9170640E-01;  9.9999998E-03;  6.9994956E-02;5472;  1.7710462E-02;  0.0000000E+00; -3.5996895E-04;  9.9980884E+02;  1.0000208E-01; -1.5836589E+02;3;  3.1798556E+00;  0.0000000E+00; -1.0515429E-01;0;  8.7947100E-02;  3.9981406E+04;  0.0000000E+00; -3.3034872E-02;  4.0000000E+04;  0.0000000E+00;  4.0001789E+04;  9.6849054E-02;  0.0000000E+00; -8.9019509E-03;  2.4588380E+02;
  4.9167687E-01;  9.9999998E-03;  7.9995424E-02;5473;  1.7709684E-02;  0.0000000E+00; -4.3404079E-04;  9.9981506E+02;  1.0000209E-01; -1.5323024E+02;3;  3.1565979E+00;  0.0000000E+00; -1.2262063E-01;0;  8.7032489E-02;  3.9982551E+04;  0.0000000E+00; -4.3313459E-02;  4.0000000E+04;  0.0000000E+00;  4.0001211E+04;  9.5592000E-02;  0.0000000E+00; -8.5595073E-03;  1.9239099E+02;
  4.9164686E-01;  9.9999998E-03;  8.9996137E-02;5474;  1.7607942E-02;  0.0000000E+00; -5.0236931E-04;  9.9982422E+02;  1.0000204E-01; -1.4562550E+02;3;  3.1165180E+00;  0.0000000E+00; -1.3864939E-01;0;  8.5917458E-02;  3.9983613E+04;  0.0000000E+00; -5.3866155E-02;  4.0000000E+04;  0.0000000E+00;  4.0001082E+04;  9.4121784E-02;  0.0000000E+00; -8.2043242E-03;  1.4965643E+02;
  4.9161839E-01;  9.9999998E-03;  9.9996835E-02;5475;  1.7424019E-02;  0.0000000E+00; -5.6131661E-04;  9.9983032E+02;  1.0000208E-01; -1.4058862E+02;3;  3.0775278E+00;  0.0000000E+00; -1.4792177E-01;0;  8.4614053E-02;  3.9984184E+04;  0.0000000E+00; -6.3683458E-02;  4.0000000E+04;  0.0000000E+00;  4.0000660E+04;  9.2472397E-02;  0.0000000E+00; -7.8583434E-03;  1.2288447E+02;
  4.9159327E-01;  9.9999998E-03;  1.0999721E-01;5476;  1.7187713E-02;  0.0000000E+00; -6.1128318E-04;  9.9982806E+02;  1.0000202E-01; -1.4246510E+02;3;  3.0354166E+00;  0.0000000E+00; -1.6081217E-01;0;  8.3149143E-02;  3.9984605E+04;  0.0000000E+00; -7.1657762E-02;  4.0000000E+04;  0.0000000E+00;  4.0000094E+04;  9.0694398E-02;  0.0000000E+00; -7.5452519E-03;  1.1284303E+02;
  4.9157339E-01;  9.9999998E-03;  1.1999687E-01;5477;  1.6908333E-02;  0.0000000E+00; -6.5759942E-04;  9.9982117E+02;  1.0000196E-01; -1.4814395E+02;3;  2.9868903E+00;  0.0000000E+00; -1.7442374E-01;0;  8.1565216E-02;  3.9984457E+04;  0.0000000E+00; -7.6770030E-02;  4.0000000E+04;  0.0000000E+00;  4.0000094E+04;  8.8852622E-02;  0.0000000E+00; -7.2874022E-03;  1.1257441E+02;
  4.9155965E-01;  9.9999998E-03;  1.2999567E-01;5478;  1.6616097E-02;  0.0000000E+00; -7.0304348E-04;  9.9980573E+02;  1.0000198E-01; -1.6093372E+02;3;  2.9448471E+00;  0.0000000E+00; -1.8265714E-01;0;  7.9916537E-02;  3.9982891E+04;  0.0000000E+00; -7.8365095E-02;  4.0000000E+04;  0.0000000E+00;  4.0000070E+04;  8.7019280E-02;  0.0000000E+00; -7.1027447E-03;  1.1375506E+02;
  4.9155200E-01;  9.9999998E-03;  1.3999377E-01;5479;  1.6351882E-02;  0.0000000E+00; -7.5589592E-04;  9.9977979E+02;  1.0000201E-01; -1.8246397E+02;3;  2.9035974E+00;  0.0000000E+00; -1.9308805E-01;0;  7.8265630E-02;  3.9980434E+04;  0.0000000E+00; -7.6351956E-02;  4.0000000E+04;  0.0000000E+00;  4.0000164E+04;  8.5267782E-02;  0.0000000E+00; -7.0021502E-03;  1.1596551E+02;
  4.9154976E-01;  9.9999998E-03;  1.4999162E-01;5480;  1.6129570E-02;  0.0000000E+00; -8.1912847E-04;  9.9973041E+02;  1.0000207E-01; -2.2335172E+02;3;  2.8670337E+00;  0.0000000E+00; -2.0653355E-01;0;  7.6678306E-02;  3.9976664E+04;  0.0000000E+00; -7.1351267E-02;  4.0000000E+04;  0.0000000E+00;  4.0000500E+04;  8.3665535E-02;  0.0000000E+00; -6.9872281E-03;  1.3407956E+02;
  4.9155197E-01;  9.9999998E-03;  1.5998986E-01;5481;  1.5960652E-02;  0.0000000E+00; -8.9712744E-04;  9.9967194E+02;  1.0000201E-01; -2.7179477E+02;3;  2.8313742E+00;  0.0000000E+00; -2.1569557E-01;0;  7.5220041E-02;  3.9971141E+04;  0.0000000E+00; -6.4761184E-02;  4.0000000E+04;  0.0000000E+00;  4.0000957E+04;  8.2266353E-02;  0.0000000E+00; -7.0463116E-03;  1.9172798E+02;
  4.9155694E-01;  9.9999998E-03;  1.6998917E-01;5482;  1.5880719E-02;  0.0000000E+00; -9.9544681E-04;  9.9959460E+02;  1.0000210E-01; -3.3584235E+02;3;  2.7915103E+00;  0.0000000E+00; -2.3201489E-01;0;  7.3947482E-02;  3.9964488E+04;  0.0000000E+00; -5.8448456E-02;  4.0000000E+04;  0.0000000E+00;  4.0002051E+04;  8.1103437E-02;  0.0000000E+00; -7.1559516E-03;  2.9761630E+02;
  4.9156302E-01;  9.9999998E-03;  1.7998981E-01;5483;  1.5900683E-02;  0.0000000E+00; -1.1052074E-03;  9.9950659E+02;  1.0000210E-01; -4.0877856E+02;3;  2.7628779E+00;  0.0000000E+00; -2.4519208E-01;0;  7.2899818E-02;  3.9955773E+04;  0.0000000E+00; -5.4375928E-02;  4.0000000E+04;  0.0000000E+00;  4.0003074E+04;  8.0188110E-02;  0.0000000E+00; -7.2882902E-03;  4.4722415E+02;
  4.9156728E-01;  9.9999998E-03;  1.8999219E-01;5484;  1.6018361E-02;  0.0000000E+00; -1.2291989E-03;  9.9939972E+02;  1.0000215E-01; -4.9731927E+02;3;  2.7357345E+00;  0.0000000E+00; -2.5474396E-01;0;  7.2090022E-02;  3.9945941E+04;  0.0000000E+00; -5.4134615E-02;  4.0000000E+04;  0.0000000E+00;  4.0004609E+04;  7.9510592E-02;  0.0000000E+00; -7.4205711E-03;  6.2896069E+02;
  4.9156764E-01;  9.9999998E-03;  1.9999617E-01;5485;  1.6279617E-02;  0.0000000E+00; -1.3629164E-03;  9.9927887E+02;  1.0000195E-01; -5.9746460E+02;3;  2.7078705E+00;  0.0000000E+00; -2.7218816E-01;0;  7.1501955E-02;  3.9934785E+04;  0.0000000E+00; -5.8470674E-02;  4.0000000E+04;  0.0000000E+00;  4.0006047E+04;  7.9042718E-02;  0.0000000E+00; -7.5407620E-03;  8.1869910E+02;
  4.9156669E-01;  9.9999998E-03;  2.1000180E-01;5486;  1.6697185E-02;  0.0000000E+00; -1.4963300E-03;  9.9914563E+02;  1.0000203E-01; -7.0783185E+02;3;  2.6813736E+00;  0.0000000E+00; -2.8910312E-01;0;  7.1101107E-02;  3.9923270E+04;  0.0000000E+00; -6.6996112E-02;  4.0000000E+04;  0.0000000E+00;  4.0007160E+04;  7.8745045E-02;  0.0000000E+00; -7.6439399E-03;  9.6842657E+02;
  4.9156436E-01;  9.9999998E-03;  2.2000645E-01;5487;  1.7325038E-02;  0.0000000E+00; -1.6468005E-03;  9.9900568E+02;  1.0000205E-01; -8.2377917E+02;3;  2.6648338E+00;  0.0000000E+00; -3.0944523E-01;0;  7.0800677E-02;  3.9911355E+04;  0.0000000E+00; -7.8048922E-02;  4.0000000E+04;  0.0000000E+00;  4.0007383E+04;  7.8571193E-02;  0.0000000E+00; -7.7705127E-03;  1.0400605E+03;
  4.9155965E-01;  9.9999998E-03;  2.3000406E-01;5488;  1.8067367E-02;  0.0000000E+00; -1.8110345E-03;  9.9886365E+02;  1.0000207E-01; -9.4145483E+02;3;  2.6697552E+00;  0.0000000E+00; -3.2396367E-01;0;  7.0485801E-02;  3.9899418E+04;  0.0000000E+00; -8.8610679E-02;  4.0000000E+04;  0.0000000E+00;  4.0008309E+04;  7.8475885E-02;  0.0000000E+00; -7.9900809E-03;  1.1571378E+03;
  5.0170785E-01;  9.9999998E-03;  6.9986679E-02;5533;  1.9852515E-02;  0.0000000E+00; -5.9036014E-04;  9.9984009E+02;  1.0000388E-01; -1.3249008E+02;3;  3.4311774E+00;  0.0000000E+00; -1.8514392E-01;0;  9.0219870E-02;  3.9981766E+04;  0.0000000E+00; -6.2597185E-02;  4.0000000E+04;  0.0000000E+00;  4.0002789E+04;  9.9942125E-02;  0.0000000E+00; -9.7222589E-03;  3.6305035E+02;
  5.0168675E-01;  9.9999998E-03;  7.9984859E-02;5534;  1.9791307E-02;  0.0000000E+00; -6.9098704E-04;  9.9983240E+02;  1.0000373E-01; -1.3886028E+02;3;  3.3744154E+00;  0.0000000E+00; -2.0150909E-01;0;  8.9337461E-02;  3.9981023E+04;  0.0000000E+00; -7.7725865E-02;  4.0000000E+04;  0.0000000E+00;  4.0002051E+04;  9.8650642E-02;  0.0000000E+00; -9.3131820E-03;  3.0863794E+02;
  5.0166351E-01;  9.9999998E-03;  8.9983508E-02;5535;  1.9572282E-02;  0.0000000E+00; -7.8435650E-04;  9.9981750E+02;  1.0000387E-01; -1.5120560E+02;3;  3.2943187E+00;  0.0000000E+00; -2.1965164E-01;0;  8.8282950E-02;  3.9980895E+04;  0.0000000E+00; -9.1509335E-02;  4.0000000E+04;  0.0000000E+00;  4.0001641E+04;  9.7168721E-02;  0.0000000E+00; -8.8857682E-03;  2.5683344E+02;
  5.0163931E-01;  9.9999998E-03;  9.9982731E-02;5536;  1.9230058E-02;  0.0000000E+00; -8.6117064E-04;  9.9980603E+02;  1.0000372E-01; -1.6068681E+02;3;  3.2048683E+00;  0.0000000E+00; -2.2364117E-01;0;  8.7055415E-02;  3.9980715E+04;  0.0000000E+00; -1.0239116E-01;  4.0000000E+04;  0.0000000E+00;  4.0001090E+04;  9.5519751E-02;  0.0000000E+00; -8.4643392E-03;  2.1302411E+02;
  5.0161612E-01;  9.9999998E-03;  1.0998225E-01;5537;  1.8816115E-02;  0.0000000E+00; -9.2097680E-04;  9.9979797E+02;  1.0000384E-01; -1.6735329E+02;3;  3.1210823E+00;  0.0000000E+00; -2.2288302E-01;0;  8.5662872E-02;  3.9980215E+04;  0.0000000E+00; -1.0885543E-01;  4.0000000E+04;  0.0000000E+00;  4.0000594E+04;  9.3738146E-02;  0.0000000E+00; -8.0752783E-03;  1.8186574E+02;
  5.0159568E-01;  9.9999998E-03;  1.1998167E-01;5538;  1.8376177E-02;  0.0000000E+00; -9.6974795E-04;  9.9978027E+02;  1.0000389E-01; -1.8201955E+02;3;  3.0447330E+00;  0.0000000E+00; -2.2401373E-01;0;  8.4124088E-02;  3.9979625E+04;  0.0000000E+00; -1.0968567E-01;  4.0000000E+04;  0.0000000E+00;  4.0000207E+04;  9.1867559E-02;  0.0000000E+00; -7.7434708E-03;  1.6302466E+02;
  5.0157946E-01;  9.9999998E-03;  1.2998071E-01;5539;  1.7951820E-02;  0.0000000E+00; -1.0151251E-03;  9.9976172E+02;  1.0000384E-01; -1.9742651E+02;3;  2.9803472E+00;  0.0000000E+00; -2.2469270E-01;0;  8.2469523E-02;  3.9978156E+04;  0.0000000E+00; -1.0425370E-01;  4.0000000E+04;  0.0000000E+00;  4.0000008E+04;  8.9958407E-02;  0.0000000E+00; -7.4888859E-03;  1.4933241E+02;
  5.0156796E-01;  9.9999998E-03;  1.3997954E-01;5540;  1.7594263E-02;  0.0000000E+00; -1.0670027E-03;  9.9972955E+02;  1.0000389E-01; -2.2404305E+02;3;  2.9255188E+00;  0.0000000E+00; -2.3282111E-01;0;  8.0739550E-02;  3.9975641E+04;  0.0000000E+00; -9.2739686E-02;  4.0000000E+04;  0.0000000E+00;  3.9999945E+04;  8.8062987E-02;  0.0000000E+00; -7.3234397E-03;  1.3236063E+02;
  5.0156134E-01;  9.9999998E-03;  1.4997852E-01;5541;  1.7307177E-02;  0.0000000E+00; -1.1329447E-03;  9.9968488E+02;  1.0000379E-01; -2.6107904E+02;3;  2.8766189E+00;  0.0000000E+00; -2.4154299E-01;0;  7.8981012E-02;  3.9971848E+04;  0.0000000E+00; -7.6291144E-02;  4.0000000E+04;  0.0000000E+00;  3.9999938E+04;  8.6229861E-02;  0.0000000E+00; -7.2488510E-03;  1.1694848E+02;
  5.0155938E-01;  9.9999998E-03;  1.5997815E-01;5542;  1.7126072E-02;  0.0000000E+00; -1.2190191E-03;  9.9962183E+02;  1.0000366E-01; -3.1332446E+02;3;  2.8312352E+00;  0.0000000E+00; -2.4964616E-01;0;  7.7245682E-02;  3.9966613E+04;  0.0000000E+00; -5.7187807E-02;  4.0000000E+04;  0.0000000E+00;  4.0000906E+04;  8.4499732E-02;  0.0000000E+00; -7.2540506E-03;  1.4402409E+02;
  5.0156093E-01;  9.9999998E-03;  1.6997895E-01;5543;  1.7070798E-02;  0.0000000E+00; -1.3259472E-03;  9.9954889E+02;  1.0000373E-01; -3.7371783E+02;3;  2.7892325E+00;  0.0000000E+00; -2.6246443E-01;0;  7.5581916E-02;  3.9959699E+04;  0.0000000E+00; -3.8537472E-02;  4.0000000E+04;  0.0000000E+00;  4.0001414E+04;  8.2900107E-02;  0.0000000E+00; -7.3181894E-03;  2.4719385E+02;
  5.0156444E-01;  9.9999998E-03;  1.7998113E-01;5544;  1.7142868E-02;  0.0000000E+00; -1.4495919E-03;  9.9945789E+02;  1.0000380E-01; -4.4912311E+02;3;  2.7517395E+00;  0.0000000E+00; -2.7676916E-01;0;  7.4024729E-02;  3.9951117E+04;  0.0000000E+00; -2.3661235E-02;  4.0000000E+04;  0.0000000E+00;  4.0002863E+04;  8.1443980E-02;  0.0000000E+00; -7.4192490E-03;  4.1191107E+02;
  5.0156778E-01;  9.9999998E-03;  1.8998472E-01;5545;  1.7385151E-02;  0.0000000E+00; -1.5902109E-03;  9.9934955E+02;  1.0000368E-01; -5.3889832E+02;3;  2.7171230E+00;  0.0000000E+00; -2.9504609E-01;0;  7.2585985E-02;  3.9940793E+04;  0.0000000E+00; -1.5308448E-02;  4.0000000E+04;  0.0000000E+00;  4.0004492E+04;  8.0130629E-02;  0.0000000E+00; -7.5446442E-03;  6.1900232E+02;
  5.0157195E-01;  9.9999998E-03;  1.9998980E-01;5546;  1.7798506E-02;  0.0000000E+00; -1.7346886E-03;  9.9922760E+02;  1.0000372E-01; -6.3993250E+02;3;  2.6916780E+00;  0.0000000E+00; -3.1360999E-01;0;  7.1252659E-02;  3.9929234E+04;  0.0000000E+00; -1.5011617E-02;  4.0000000E+04;  0.0000000E+00;  4.0006305E+04;  7.8946836E-02;  0.0000000E+00; -7.6941778E-03;  8.4103882E+02;
  5.0157696E-01;  9.9999998E-03;  2.0999633E-01;5547;  1.8390907E-02;  0.0000000E+00; -1.8614352E-03;  9.9908936E+02;  1.0000365E-01; -7.5444781E+02;3;  2.6545107E+00;  0.0000000E+00; -3.3427149E-01;0;  7.0007630E-02;  3.9917203E+04;  0.0000000E+00; -2.2802031E-02;  4.0000000E+04;  0.0000000E+00;  4.0007703E+04;  7.7871323E-02;  0.0000000E+00; -7.8636948E-03;  1.0277205E+03;
  5.0158179E-01;  9.9999998E-03;  2.2000168E-01;5548;  1.9146297E-02;  0.0000000E+00; -1.9937393E-03;  9.9893927E+02;  1.0000384E-01; -8.7878998E+02;3;  2.6376989E+00;  0.0000000E+00; -3.4569255E-01;0;  6.8787463E-02;  3.9904445E+04;  0.0000000E+00; -3.7197348E-02;  4.0000000E+04;  0.0000000E+00;  4.0008430E+04;  7.6880060E-02;  0.0000000E+00; -8.0925953E-03;  1.1396509E+03;
  5.0158477E-01;  9.9999998E-03;  2.3000039E-01;5549;  1.9976767E-02;  0.0000000E+00; -2.1336828E-03;  9.9879663E+02;  1.0000373E-01; -9.9695947E+02;3;  2.6460357E+00;  0.0000000E+00; -3.6594200E-01;0;  6.7507684E-02;  3.9891914E+04;  0.0000000E+00; -5.5248741E-02;  4.0000000E+04;  0.0000000E+00;  4.0009551E+04;  7.5951152E-02;  0.0000000E+00; -8.4434655E-03;  1.2831711E+03;
  5.1168585E-01;  9.9999998E-03;  6.9982558E-02;5594;  2.2930440E-02;  0.0000000E+00; -8.4876461E-04;  9.9982666E+02;  1.0000610E-01; -1.4360088E+02;3;  3.6374021E+00;  0.0000000E+00; -4.3019390E-01;0;  8.9367062E-02;  3.9977738E+04;  0.0000000E+00; -8.9052424E-02;  4.0000000E+04;  0.0000000E+00;  4.0003359E+04;  9.9921785E-02;  0.0000000E+00; -1.0554727E-02;  4.6427042E+02;
  5.1167345E-01;  9.9999998E-03;  7.9979181E-02;5595;  2.2728387E-02;  0.0000000E+00; -9.7654754E-04;  9.9980359E+02;  1.0000617E-01; -1.6271144E+02;3;  3.5526991E+00;  0.0000000E+00; -4.4865918E-01;0;  8.8568136E-02;  3.9976289E+04;  0.0000000E+00; -1.0745484E-01;  4.0000000E+04;  0.0000000E+00;  4.0002883E+04;  9.8644182E-02;  0.0000000E+00; -1.0076046E-02;  4.0958920E+02;
  5.1165891E-01;  9.9999998E-03;  8.9975946E-02;5596;  2.2361038E-02;  0.0000000E+00; -1.0876766E-03;  9.9978662E+02;  1.0000612E-01; -1.7678513E+02;3;  3.4695764E+00;  0.0000000E+00; -4.3228713E-01;0;  8.7640993E-02;  3.9975277E+04;  0.0000000E+00; -1.2266836E-01;  4.0000000E+04;  0.0000000E+00;  4.0002105E+04;  9.7213775E-02;  0.0000000E+00; -9.5727826E-03;  3.4944525E+02;
  5.1164234E-01;  9.9999998E-03;  9.9973172E-02;5597;  2.1862313E-02;  0.0000000E+00; -1.1779115E-03;  9.9976636E+02;  1.0000619E-01; -1.9357477E+02;3;  3.3788228E+00;  0.0000000E+00; -4.0553814E-01;0;  8.6571738E-02;  3.9974664E+04;  0.0000000E+00; -1.3273653E-01;  4.0000000E+04;  0.0000000E+00;  4.0001703E+04;  9.5642731E-02;  0.0000000E+00; -9.0709887E-03;  2.8980246E+02;
  5.1162446E-01;  9.9999998E-03;  1.0997105E-01;5598;  2.1266963E-02;  0.0000000E+00; -1.2529637E-03;  9.9974725E+02;  1.0000629E-01; -2.0937680E+02;3;  3.2754257E+00;  0.0000000E+00; -3.7612656E-01;0;  8.5347518E-02;  3.9973773E+04;  0.0000000E+00; -1.3596195E-01;  4.0000000E+04;  0.0000000E+00;  4.0000918E+04;  9.3946435E-02;  0.0000000E+00; -8.5989190E-03;  2.3793053E+02;
  5.1160657E-01;  9.9999998E-03;  1.1996949E-01;5599;  2.0628149E-02;  0.0000000E+00; -1.3149707E-03;  9.9972864E+02;  1.0000619E-01; -2.2483315E+02;3;  3.1638167E+00;  0.0000000E+00; -3.5275018E-01;0;  8.3960257E-02;  3.9973074E+04;  0.0000000E+00; -1.3117427E-01;  4.0000000E+04;  0.0000000E+00;  4.0000477E+04;  9.2143781E-02;  0.0000000E+00; -8.1835249E-03;  1.9869760E+02;
  5.1159018E-01;  9.9999998E-03;  1.2996837E-01;5600;  1.9998875E-02;  0.0000000E+00; -1.3703828E-03;  9.9970496E+02;  1.0000630E-01; -2.4443753E+02;3;  3.0549128E+00;  0.0000000E+00; -3.3584341E-01;0;  8.2410820E-02;  3.9971551E+04;  0.0000000E+00; -1.1800702E-01;  4.0000000E+04;  0.0000000E+00;  3.9999816E+04;  9.0257451E-02;  0.0000000E+00; -7.8466292E-03;  1.6904466E+02;
  5.1157647E-01;  9.9999998E-03;  1.3996769E-01;5601;  1.9445708E-02;  0.0000000E+00; -1.4278155E-03;  9.9967474E+02;  1.0000619E-01; -2.6947385E+02;3;  2.9596272E+00;  0.0000000E+00; -3.2495525E-01;0;  8.0710322E-02;  3.9969254E+04;  0.0000000E+00; -9.7105324E-02;  4.0000000E+04;  0.0000000E+00;  3.9999750E+04;  8.8311918E-02;  0.0000000E+00; -7.6015992E-03;  1.3812355E+02;
  5.1156640E-01;  9.9999998E-03;  1.4996774E-01;5602;  1.9010652E-02;  0.0000000E+00; -1.4981433E-03;  9.9963092E+02;  1.0000607E-01; -3.0576913E+02;3;  2.8785508E+00;  0.0000000E+00; -3.1808040E-01;0;  7.8880474E-02;  3.9965844E+04;  0.0000000E+00; -7.0243306E-02;  4.0000000E+04;  0.0000000E+00;  4.0000008E+04;  8.6331494E-02;  0.0000000E+00; -7.4510179E-03;  1.0207325E+02;
  5.1156026E-01;  9.9999998E-03;  1.5996879E-01;5603;  1.8730998E-02;  0.0000000E+00; -1.5861390E-03;  9.9957178E+02;  1.0000635E-01; -3.5475540E+02;3;  2.8163106E+00;  0.0000000E+00; -3.1772450E-01;0;  7.6953135E-02;  3.9960395E+04;  0.0000000E+00; -4.0568858E-02;  4.0000000E+04;  0.0000000E+00;  4.0000598E+04;  8.4339008E-02;  0.0000000E+00; -7.3858723E-03;  1.1367068E+02;
  5.1155758E-01;  9.9999998E-03;  1.6997115E-01;5604;  1.8619053E-02;  0.0000000E+00; -1.6935965E-03;  9.9949396E+02;  1.0000616E-01; -4.1924741E+02;3;  2.7640772E+00;  0.0000000E+00; -3.2218969E-01;0;  7.4964911E-02;  3.9953406E+04;  0.0000000E+00; -1.2307556E-02;  4.0000000E+04;  0.0000000E+00;  4.0001684E+04;  8.2354441E-02;  0.0000000E+00; -7.3895338E-03;  2.3119058E+02;
  5.1155704E-01;  9.9999998E-03;  1.7997478E-01;5605;  1.8666120E-02;  0.0000000E+00; -1.8171312E-03;  9.9940210E+02;  1.0000625E-01; -4.9534402E+02;3;  2.7197204E+00;  0.0000000E+00; -3.2922739E-01;0;  7.2945967E-02;  3.9944473E+04;  0.0000000E+00;  1.0150588E-02;  4.0000000E+04;  0.0000000E+00;  4.0002898E+04;  8.0392227E-02;  0.0000000E+00; -7.4462569E-03;  4.1879767E+02;
  5.1155865E-01;  9.9999998E-03;  1.8997951E-01;5606;  1.8895829E-02;  0.0000000E+00; -1.9538659E-03;  9.9928973E+02;  1.0000610E-01; -5.8842780E+02;3;  2.6802130E+00;  0.0000000E+00; -3.3971968E-01;0;  7.0911251E-02;  3.9933758E+04;  0.0000000E+00;  2.3273570E-02;  4.0000000E+04;  0.0000000E+00;  4.0004828E+04;  7.8462109E-02;  0.0000000E+00; -7.5508552E-03;  6.5196399E+02;
  5.1156235E-01;  9.9999998E-03;  1.9998521E-01;5607;  1.9327493E-02;  0.0000000E+00; -2.0949750E-03;  9.9915735E+02;  1.0000618E-01; -6.9810370E+02;3;  2.6387074E+00;  0.0000000E+00; -3.6423448E-01;0;  6.8855442E-02;  3.9921656E+04;  0.0000000E+00;  2.5114177E-02;  4.0000000E+04;  0.0000000E+00;  4.0006566E+04;  7.6568946E-02;  0.0000000E+00; -7.7135023E-03;  9.0307068E+02;
  5.1156700E-01;  9.9999998E-03;  2.0999157E-01;5608;  1.9892873E-02;  0.0000000E+00; -2.2037213E-03;  9.9901617E+02;  1.0000617E-01; -8.1508807E+02;3;  2.5979712E+00;  0.0000000E+00; -3.8198569E-01;0;  6.6790216E-02;  3.9908496E+04;  0.0000000E+00;  1.5526856E-02;  4.0000000E+04;  0.0000000E+00;  4.0008387E+04;  7.4717060E-02;  0.0000000E+00; -7.9268459E-03;  1.1270078E+03;
  5.1157099E-01;  9.9999998E-03;  2.1999612E-01;5609;  2.0580651E-02;  0.0000000E+00; -2.3099948E-03;  9.9885889E+02;  1.0000622E-01; -9.4540533E+02;3;  2.5552065E+00;  0.0000000E+00; -3.9793241E-01;0;  6.4683601E-02;  3.9894938E+04;  0.0000000E+00; -3.9650495E-03;  4.0000000E+04;  0.0000000E+00;  4.0009477E+04;  7.2910286E-02;  0.0000000E+00; -8.2266890E-03;  1.2956384E+03;
  5.1157320E-01;  9.9999998E-03;  2.2999504E-01;5610;  2.1293333E-02;  0.0000000E+00; -2.4175304E-03;  9.9870892E+02;  1.0000625E-01; -1.0696488E+03;3;  2.5405939E+00;  0.0000000E+00; -4.1115427E-01;0;  6.2495079E-02;  3.9881367E+04;  0.0000000E+00; -3.0361405E-02;  4.0000000E+04;  0.0000000E+00;  4.0011035E+04;  7.1155801E-02;  0.0000000E+00; -8.6607225E-03;  1.4906256E+03;
  5.2165365E-01;  9.9999998E-03;  6.9982223E-02;5655;  2.5886150E-02;  0.0000000E+00; -1.2070987E-03;  9.9976160E+02;  1.0001037E-01; -1.9752528E+02;3;  3.1755340E+00;  0.0000000E+00; -8.7238169E-01;0;  8.4889323E-02;  3.9967770E+04;  0.0000000E+00; -1.0706525E-01;  4.0000000E+04;  0.0000000E+00;  4.0003906E+04;  9.6234776E-02;  0.0000000E+00; -1.1345457E-02;  5.3708405E+02;
  5.2164769E-01;  9.9999998E-03;  7.9978473E-02;5656;  2.5567194E-02;  0.0000000E+00; -1.3437137E-03;  9.9973688E+02;  1.0001046E-01; -2.1796915E+02;3;  3.1124220E+00;  0.0000000E+00; -9.1438025E-01;0;  8.4230661E-02;  3.9966516E+04;  0.0000000E+00; -1.2647478E-01;  4.0000000E+04;  0.0000000E+00;  4.0003281E+04;  9.5031276E-02;  0.0000000E+00; -1.0800615E-02;  4.8244000E+02;
  5.2163976E-01;  9.9999998E-03;  8.9974649E-02;5657;  2.5115175E-02;  0.0000000E+00; -1.4524919E-03;  9.9971997E+02;  1.0001046E-01; -2.3199344E+02;3;  3.0925765E+00;  0.0000000E+00; -9.3329549E-01;0;  8.3495557E-02;  3.9965773E+04;  0.0000000E+00; -1.4100721E-01;  4.0000000E+04;  0.0000000E+00;  4.0002672E+04;  9.3720071E-02;  0.0000000E+00; -1.0224514E-02;  4.1548450E+02;
  5.2162981E-01;  9.9999998E-03;  9.9971011E-02;5658;  2.4548387E-02;  0.0000000E+00; -1.5351631E-03;  9.9970679E+02;  1.0001040E-01; -2.4290671E+02;3;  3.1079366E+00;  0.0000000E+00; -8.9356345E-01;0;  8.2658693E-02;  3.9965117E+04;  0.0000000E+00; -1.4859183E-01;  4.0000000E+04;  0.0000000E+00;  4.0001844E+04;  9.2302874E-02;  0.0000000E+00; -9.6441805E-03;  3.4263901E+02;
  5.2161771E-01;  9.9999998E-03;  1.0996792E-01;5659;  2.3877861E-02;  0.0000000E+00; -1.5960748E-03;  9.9968951E+02;  1.0001045E-01; -2.5722729E+02;3;  3.1245008E+00;  0.0000000E+00; -8.2741779E-01;0;  8.1688829E-02;  3.9964930E+04;  0.0000000E+00; -1.4760867E-01;  4.0000000E+04;  0.0000000E+00;  4.0001250E+04;  9.0777732E-02;  0.0000000E+00; -9.0889009E-03;  2.7303687E+02;
  5.2160436E-01;  9.9999998E-03;  1.1996561E-01;5660;  2.3139900E-02;  0.0000000E+00; -1.6432968E-03;  9.9967712E+02;  1.0001054E-01; -2.6749860E+02;3;  3.1154296E+00;  0.0000000E+00; -7.4613017E-01;0;  8.0552652E-02;  3.9964609E+04;  0.0000000E+00; -1.3715573E-01;  4.0000000E+04;  0.0000000E+00;  4.0000672E+04;  8.9139484E-02;  0.0000000E+00; -8.5868333E-03;  2.1502089E+02;
  5.2159083E-01;  9.9999998E-03;  1.2996426E-01;5661;  2.2384750E-02;  0.0000000E+00; -1.6857259E-03;  9.9965723E+02;  1.0001041E-01; -2.8399197E+02;3;  3.0813990E+00;  0.0000000E+00; -6.4276868E-01;0;  7.9220898E-02;  3.9963629E+04;  0.0000000E+00; -1.1727902E-01;  4.0000000E+04;  0.0000000E+00;  4.0000102E+04;  8.7382279E-02;  0.0000000E+00; -8.1613790E-03;  1.6966164E+02;
  5.2157819E-01;  9.9999998E-03;  1.3996400E-01;5662;  2.1667536E-02;  0.0000000E+00; -1.7361721E-03;  9.9962878E+02;  1.0001052E-01; -3.0754684E+02;3;  3.0078368E+00;  0.0000000E+00; -5.5043936E-01;0;  7.7673487E-02;  3.9961656E+04;  0.0000000E+00; -8.9127183E-02;  4.0000000E+04;  0.0000000E+00;  3.9999777E+04;  8.5500948E-02;  0.0000000E+00; -7.8274598E-03;  1.2705470E+02;
  5.2156752E-01;  9.9999998E-03;  1.4996493E-01;5663;  2.1052247E-02;  0.0000000E+00; -1.8010982E-03;  9.9958734E+02;  1.0001054E-01; -3.4186688E+02;3;  2.9098718E+00;  0.0000000E+00; -4.9918950E-01;0;  7.5903289E-02;  3.9958277E+04;  0.0000000E+00; -5.4995906E-02;  4.0000000E+04;  0.0000000E+00;  3.9999781E+04;  8.3492517E-02;  0.0000000E+00; -7.5892261E-03;  8.3520355E+01;
  5.2155954E-01;  9.9999998E-03;  1.5996704E-01;5664;  2.0592256E-02;  0.0000000E+00; -1.8843054E-03;  9.9952844E+02;  1.0001034E-01; -3.9065561E+02;3;  2.8192580E+00;  0.0000000E+00; -4.5567033E-01;0;  7.3917963E-02;  3.9953008E+04;  0.0000000E+00; -1.8633528E-02;  4.0000000E+04;  0.0000000E+00;  4.0000422E+04;  8.1358418E-02;  0.0000000E+00; -7.4404562E-03;  1.1659326E+02;
  5.2155399E-01;  9.9999998E-03;  1.6997029E-01;5665;  2.0320253E-02;  0.0000000E+00; -1.9853504E-03;  9.9944897E+02;  1.0001042E-01; -4.5653030E+02;3;  2.7402630E+00;  0.0000000E+00; -4.2785642E-01;0;  7.1738489E-02;  3.9945914E+04;  0.0000000E+00;  1.4993040E-02;  4.0000000E+04;  0.0000000E+00;  4.0001742E+04;  7.9107210E-02;  0.0000000E+00; -7.3687220E-03;  2.6136295E+02;
  5.2155095E-01;  9.9999998E-03;  1.7997456E-01;5666;  2.0223996E-02;  0.0000000E+00; -2.1014542E-03;  9.9935004E+02;  1.0001040E-01; -5.3850330E+02;3;  2.6710191E+00;  0.0000000E+00; -4.1201645E-01;0;  6.9391362E-02;  3.9936547E+04;  0.0000000E+00;  4.0865593E-02;  4.0000000E+04;  0.0000000E+00;  4.0003242E+04;  7.6754525E-02;  0.0000000E+00; -7.3631639E-03;  4.7013409E+02;
  5.2155060E-01;  9.9999998E-03;  1.8997958E-01;5667;  2.0340603E-02;  0.0000000E+00; -2.2304163E-03;  9.9923328E+02;  1.0001057E-01; -6.3519189E+02;3;  2.6128831E+00;  0.0000000E+00; -3.9946365E-01;0;  6.6895969E-02;  3.9925020E+04;  0.0000000E+00;  5.5109408E-02;  4.0000000E+04;  0.0000000E+00;  4.0005328E+04;  7.4319951E-02;  0.0000000E+00; -7.4239816E-03;  7.2161749E+02;
  5.2155262E-01;  9.9999998E-03;  1.9998479E-01;5668;  2.0614261E-02;  0.0000000E+00; -2.3539877E-03;  9.9909686E+02;  1.0001054E-01; -7.4822577E+02;3;  2.5469499E+00;  0.0000000E+00; -4.0284380E-01;0;  6.4269088E-02;  3.9912172E+04;  0.0000000E+00;  5.5684552E-02;  4.0000000E+04;  0.0000000E+00;  4.0007172E+04;  7.1830451E-02;  0.0000000E+00; -7.5613605E-03;  9.9011102E+02;
  5.2155614E-01;  9.9999998E-03;  2.0998947E-01;5669;  2.1051519E-02;  0.0000000E+00; -2.4636043E-03;  9.9894293E+02;  1.0001054E-01; -8.7577771E+02;3;  2.5026922E+00;  0.0000000E+00; -4.3082228E-01;0;  6.1523646E-02;  3.9898062E+04;  0.0000000E+00;  4.2506304E-02;  4.0000000E+04;  0.0000000E+00;  4.0009160E+04;  6.9315411E-02;  0.0000000E+00; -7.7917655E-03;  1.2422058E+03;
  5.2155918E-01;  9.9999998E-03;  2.1999188E-01;5670;  2.1554569E-02;  0.0000000E+00; -2.5501940E-03;  9.9877832E+02;  1.0001040E-01; -1.0121195E+03;3;  2.4294515E+00;  0.0000000E+00; -4.2349800E-01;0;  5.8688443E-02;  3.9883434E+04;  0.0000000E+00;  1.7159509E-02;  4.0000000E+04;  0.0000000E+00;  4.0010578E+04;  6.6810571E-02;  0.0000000E+00; -8.1221275E-03;  1.4638824E+03;
  5.2156025E-01;  9.9999998E-03;  2.2999027E-01;5671;  2.2064162E-02;  0.0000000E+00; -2.6302526E-03;  9.9862024E+02;  1.0001051E-01; -1.1431282E+03;3;  2.3380091E+00;  0.0000000E+00; -4.0902701E-01;0;  5.5762120E-02;  3.9868719E+04;  0.0000000E+00; -1.7315574E-02;  4.0000000E+04;  0.0000000E+00;  4.0012672E+04;  6.4352386E-02;  0.0000000E+00; -8.5902652E-03;  1.7059152E+03;
  5.3161454E-01;  9.9999998E-03;  6.9986880E-02;5716;  2.7665565E-02;  0.0000000E+00; -1.5241028E-03;  9.9964948E+02;  1.0001725E-01; -2.9041153E+02;3;  1.0700057E+00;  0.0000000E+00; -7.4479330E-01;0;  7.6917760E-02;  3.9952062E+04;  0.0000000E+00; -1.1139010E-01;  4.0000000E+04;  0.0000000E+00;  4.0004051E+04;  8.8951588E-02;  0.0000000E+00; -1.2033826E-02;  5.7550372E+02;
  5.3161341E-01;  9.9999998E-03;  7.9983473E-02;5717;  2.7339822E-02;  0.0000000E+00; -1.6914466E-03;  9.9963544E+02;  1.0001741E-01; -3.0201614E+02;3;  1.1666591E+00;  0.0000000E+00; -8.8827676E-01;0;  7.6443017E-02;  3.9952074E+04;  0.0000000E+00; -1.2896496E-01;  4.0000000E+04;  0.0000000E+00;  4.0003480E+04;  8.7876625E-02;  0.0000000E+00; -1.1433608E-02;  5.2047528E+02;
  5.3161061E-01;  9.9999998E-03;  8.9979805E-02;5718;  2.6933173E-02;  0.0000000E+00; -1.8281928E-03;  9.9962976E+02;  1.0001743E-01; -3.0675674E+02;3;  1.3331589E+00;  0.0000000E+00; -9.9571908E-01;0;  7.5941056E-02;  3.9952078E+04;  0.0000000E+00; -1.4055237E-01;  4.0000000E+04;  0.0000000E+00;  4.0002785E+04;  8.6736634E-02;  0.0000000E+00; -1.0795579E-02;  4.4814636E+02;
  5.3160596E-01;  9.9999998E-03;  9.9976100E-02;5719;  2.6441328E-02;  0.0000000E+00; -1.9307730E-03;  9.9962823E+02;  1.0001730E-01; -3.0799130E+02;3;  1.5675094E+00;  0.0000000E+00; -1.1035060E+00;0;  7.5378954E-02;  3.9952672E+04;  0.0000000E+00; -1.4429481E-01;  4.0000000E+04;  0.0000000E+00;  4.0002047E+04;  8.5525535E-02;  0.0000000E+00; -1.0146581E-02;  3.6558957E+02;
  5.3159887E-01;  9.9999998E-03;  1.0997290E-01;5720;  2.5866095E-02;  0.0000000E+00; -1.9967314E-03;  9.9962720E+02;  1.0001743E-01; -3.0888016E+02;3;  1.8604912E+00;  0.0000000E+00; -1.1572816E+00;0;  7.4712306E-02;  3.9953582E+04;  0.0000000E+00; -1.3895296E-01;  4.0000000E+04;  0.0000000E+00;  4.0001316E+04;  8.4228165E-02;  0.0000000E+00; -9.5158583E-03;  2.8292737E+02;
  5.3158963E-01;  9.9999998E-03;  1.1997060E-01;5721;  2.5212139E-02;  0.0000000E+00; -2.0318001E-03;  9.9962256E+02;  1.0001743E-01; -3.1268253E+02;3;  2.1351440E+00;  0.0000000E+00; -1.1948737E+00;0;  7.3888712E-02;  3.9954078E+04;  0.0000000E+00; -1.2408426E-01;  4.0000000E+04;  0.0000000E+00;  4.0000559E+04;  8.2820743E-02;  0.0000000E+00; -8.9320336E-03;  2.1042717E+02;
  5.3157902E-01;  9.9999998E-03;  1.2996948E-01;5722;  2.4503026E-02;  0.0000000E+00; -2.0459720E-03;  9.9961346E+02;  1.0001732E-01; -3.2023785E+02;3;  2.3998342E+00;  0.0000000E+00; -1.1581019E+00;0;  7.2854459E-02;  3.9953891E+04;  0.0000000E+00; -1.0018699E-01;  4.0000000E+04;  0.0000000E+00;  3.9999926E+04;  8.1273898E-02;  0.0000000E+00; -8.4194373E-03;  1.5238750E+02;
  5.3156781E-01;  9.9999998E-03;  1.3996957E-01;5723;  2.3769120E-02;  0.0000000E+00; -2.0531665E-03;  9.9959418E+02;  1.0001726E-01; -3.3623740E+02;3;  2.6004314E+00;  0.0000000E+00; -1.0703003E+00;0;  7.1562752E-02;  3.9952504E+04;  0.0000000E+00; -6.8787217E-02;  4.0000000E+04;  0.0000000E+00;  3.9999938E+04;  7.9557352E-02;  0.0000000E+00; -7.9945996E-03;  1.0370630E+02;
  5.3155690E-01;  9.9999998E-03;  1.4997111E-01;5724;  2.3064431E-02;  0.0000000E+00; -2.0710833E-03;  9.9956049E+02;  1.0001729E-01; -3.6413785E+02;3;  2.7195935E+00;  0.0000000E+00; -9.2324132E-01;0;  6.9978990E-02;  3.9949645E+04;  0.0000000E+00; -3.2401886E-02;  4.0000000E+04;  0.0000000E+00;  4.0000016E+04;  7.7642769E-02;  0.0000000E+00; -7.6637776E-03;  8.2833206E+01;
  5.3154713E-01;  9.9999998E-03;  1.5997401E-01;5725;  2.2456670E-02;  0.0000000E+00; -2.1153975E-03;  9.9950378E+02;  1.0001763E-01; -4.1109949E+02;3;  2.7199969E+00;  0.0000000E+00; -7.8804904E-01;0;  6.8085231E-02;  3.9944680E+04;  0.0000000E+00;  5.1289396E-03;  4.0000000E+04;  0.0000000E+00;  4.0000883E+04;  7.5509302E-02;  0.0000000E+00; -7.4240696E-03;  1.6750951E+02;
  5.3153944E-01;  9.9999998E-03;  1.6997793E-01;5726;  2.2000782E-02;  0.0000000E+00; -2.1877224E-03;  9.9942792E+02;  1.0001736E-01; -4.7396191E+02;3;  2.6600139E+00;  0.0000000E+00; -6.7437023E-01;0;  6.5884635E-02;  3.9937426E+04;  0.0000000E+00;  3.8746152E-02;  4.0000000E+04;  0.0000000E+00;  4.0002141E+04;  7.3151335E-02;  0.0000000E+00; -7.2667035E-03;  3.3492065E+02;
  5.3153431E-01;  9.9999998E-03;  1.7998245E-01;5727;  2.1720354E-02;  0.0000000E+00; -2.2805973E-03;  9.9932660E+02;  1.0001744E-01; -5.5791016E+02;3;  2.5860021E+00;  0.0000000E+00; -5.9171581E-01;0;  6.3397616E-02;  3.9927551E+04;  0.0000000E+00;  6.3396208E-02;  4.0000000E+04;  0.0000000E+00;  4.0003879E+04;  7.0581160E-02;  0.0000000E+00; -7.1835448E-03;  5.5653168E+02;
  5.3153217E-01;  9.9999998E-03;  1.8998712E-01;5728;  2.1626994E-02;  0.0000000E+00; -2.3897416E-03;  9.9920160E+02;  1.0001754E-01; -6.6146277E+02;3;  2.5107248E+00;  0.0000000E+00; -5.2056879E-01;0;  6.0651775E-02;  3.9915727E+04;  0.0000000E+00;  7.5305820E-02;  4.0000000E+04;  0.0000000E+00;  4.0005668E+04;  6.7827910E-02;  0.0000000E+00; -7.1761361E-03;  8.1168689E+02;
  5.3153312E-01;  9.9999998E-03;  1.9999114E-01;5729;  2.1717332E-02;  0.0000000E+00; -2.5006949E-03;  9.9905487E+02;  1.0001753E-01; -7.8303961E+02;3;  2.4268606E+00;  0.0000000E+00; -4.7045553E-01;0;  5.7676811E-02;  3.9902211E+04;  0.0000000E+00;  7.2595209E-02;  4.0000000E+04;  0.0000000E+00;  4.0007926E+04;  6.4934522E-02;  0.0000000E+00; -7.2577121E-03;  1.0740806E+03;
  5.3153688E-01;  9.9999998E-03;  2.0999314E-01;5730;  2.1931818E-02;  0.0000000E+00; -2.6069719E-03;  9.9889056E+02;  1.0001735E-01; -9.1913452E+02;3;  2.3464265E+00;  0.0000000E+00; -4.1902256E-01;0;  5.4501489E-02;  3.9887188E+04;  0.0000000E+00;  5.5280205E-02;  4.0000000E+04;  0.0000000E+00;  4.0009633E+04;  6.1956864E-02;  0.0000000E+00; -7.4553746E-03;  1.3236047E+03;
  5.3154224E-01;  9.9999998E-03;  2.1999176E-01;5731;  2.2222860E-02;  0.0000000E+00; -2.6975744E-03;  9.9871771E+02;  1.0001730E-01; -1.0623403E+03;3;  2.2192237E+00;  0.0000000E+00; -4.2921019E-01;0;  5.1167782E-02;  3.9871703E+04;  0.0000000E+00;  2.4908947E-02;  4.0000000E+04;  0.0000000E+00;  4.0011715E+04;  5.8956061E-02;  0.0000000E+00; -7.7882768E-03;  1.5742795E+03;
  5.3154731E-01;  9.9999998E-03;  2.2998761E-01;5732;  2.2515610E-02;  0.0000000E+00; -2.7666250E-03;  9.9854932E+02;  1.0001736E-01; -1.2018425E+03;3;  1.8187813E+00;  0.0000000E+00; -4.5774511E-01;0;  4.7741704E-02;  3.9855910E+04;  0.0000000E+00; -1.5641997E-02;  4.0000000E+04;  0.0000000E+00;  4.0013750E+04;  5.5994891E-02;  0.0000000E+00; -8.2531860E-03;  1.8652723E+03;
  5.4157794E-01;  9.9999998E-03;  6.9995351E-02;5777;  2.8193718E-02;  0.0000000E+00; -1.5781056E-03;  9.9952686E+02;  1.0002947E-01; -3.9198892E+02;3; -1.6051192E+00;  0.0000000E+00; -1.5552354E-02;0;  6.6146038E-02;  3.9932059E+04;  0.0000000E+00; -9.7966306E-02;  4.0000000E+04;  0.0000000E+00;  4.0004016E+04;  7.8707650E-02;  0.0000000E+00; -1.2561611E-02;  5.8167780E+02;
  5.4158056E-01;  9.9999998E-03;  7.9992823E-02;5778;  2.7915943E-02;  0.0000000E+00; -1.7741747E-03;  9.9953699E+02;  1.0002926E-01; -3.8359409E+02;3; -1.4076183E+00;  0.0000000E+00; -1.0619796E-01;0;  6.5873533E-02;  3.9933223E+04;  0.0000000E+00; -1.1058036E-01;  4.0000000E+04;  0.0000000E+00;  4.0003461E+04;  7.7796109E-02;  0.0000000E+00; -1.1922576E-02;  5.2518024E+02;
  5.4158151E-01;  9.9999998E-03;  8.9989960E-02;5779;  2.7591690E-02;  0.0000000E+00; -1.9510398E-03;  9.9954944E+02;  1.0002936E-01; -3.7327341E+02;3; -1.1350957E+00;  0.0000000E+00; -2.5965992E-01;0;  6.5614760E-02;  3.9935184E+04;  0.0000000E+00; -1.1700386E-01;  4.0000000E+04;  0.0000000E+00;  4.0002969E+04;  7.6854743E-02;  0.0000000E+00; -1.1239981E-02;  4.4892633E+02;
  5.4158068E-01;  9.9999998E-03;  9.9987008E-02;5780;  2.7216600E-02;  0.0000000E+00; -2.1045334E-03;  9.9956665E+02;  1.0002934E-01; -3.5900220E+02;3; -8.0182040E-01;  0.0000000E+00; -4.4649401E-01;0;  6.5332972E-02;  3.9937270E+04;  0.0000000E+00; -1.1596825E-01;  4.0000000E+04;  0.0000000E+00;  4.0001988E+04;  7.5872362E-02;  0.0000000E+00; -1.0539391E-02;  3.6052557E+02;
  5.4157740E-01;  9.9999998E-03;  1.0998432E-01;5781;  2.6786989E-02;  0.0000000E+00; -2.2277702E-03;  9.9958496E+02;  1.0002936E-01; -3.4384213E+02;3; -3.9910579E-01;  0.0000000E+00; -6.4924407E-01;0;  6.4975418E-02;  3.9939707E+04;  0.0000000E+00; -1.0689460E-01;  4.0000000E+04;  0.0000000E+00;  4.0001430E+04;  7.4824415E-02;  0.0000000E+00; -9.8489961E-03;  2.7081241E+02;
  5.4157138E-01;  9.9999998E-03;  1.1998232E-01;5782;  2.6302356E-02;  0.0000000E+00; -2.3173892E-03;  9.9959906E+02;  1.0002952E-01; -3.3218814E+02;3;  4.3817336E-04;  0.0000000E+00; -8.5260707E-01;0;  6.4477585E-02;  3.9941770E+04;  0.0000000E+00; -8.9933641E-02;  4.0000000E+04;  0.0000000E+00;  4.0000676E+04;  7.3674351E-02;  0.0000000E+00; -9.1967639E-03;  1.9131921E+02;
  5.4156286E-01;  9.9999998E-03;  1.2998138E-01;5783;  2.5762955E-02;  0.0000000E+00; -2.3706853E-03;  9.9960645E+02;  1.0002955E-01; -3.2606485E+02;3;  4.1735741E-01;  0.0000000E+00; -1.0526059E+00;0;  6.3770294E-02;  3.9942668E+04;  0.0000000E+00; -6.5988898E-02;  4.0000000E+04;  0.0000000E+00;  4.0000336E+04;  7.2377540E-02;  0.0000000E+00; -8.6072488E-03;  1.3066704E+02;
  5.4155236E-01;  9.9999998E-03;  1.3998179E-01;5784;  2.5180118E-02;  0.0000000E+00; -2.3906443E-03;  9.9960278E+02;  1.0002943E-01; -3.2907712E+02;3;  8.8226593E-01;  0.0000000E+00; -1.1959097E+00;0;  6.2788270E-02;  3.9942344E+04;  0.0000000E+00; -3.6676180E-02;  4.0000000E+04;  0.0000000E+00;  4.0000184E+04;  7.0886396E-02;  0.0000000E+00; -8.0981283E-03;  9.9749001E+01;
  5.4154098E-01;  9.9999998E-03;  1.4998370E-01;5785;  2.4574000E-02;  0.0000000E+00; -2.3883658E-03;  9.9957269E+02;  1.0002962E-01; -3.5401468E+02;3;  1.3228474E+00;  0.0000000E+00; -1.2578804E+00;0;  6.1476171E-02;  3.9940039E+04;  0.0000000E+00; -4.2504393E-03;  4.0000000E+04;  0.0000000E+00;  4.0000461E+04;  6.9154248E-02;  0.0000000E+00; -7.6780776E-03;  1.3740213E+02;
  5.4152960E-01;  9.9999998E-03;  1.5998702E-01;5786;  2.3979770E-02;  0.0000000E+00; -2.3819867E-03;  9.9952417E+02;  1.0002933E-01; -3.9421106E+02;3;  1.7108278E+00;  0.0000000E+00; -1.2257103E+00;0;  5.9795555E-02;  3.9935223E+04;  0.0000000E+00;  2.8023958E-02;  4.0000000E+04;  0.0000000E+00;  4.0001461E+04;  6.7144006E-02;  0.0000000E+00; -7.3484532E-03;  2.5737314E+02;
  5.4151964E-01;  9.9999998E-03;  1.6999124E-01;5787;  2.3449307E-02;  0.0000000E+00; -2.3935130E-03;  9.9944952E+02;  1.0002951E-01; -4.5603650E+02;3;  1.9658800E+00;  0.0000000E+00; -1.1391791E+00;0;  5.7731599E-02;  3.9928121E+04;  0.0000000E+00;  5.5809624E-02;  4.0000000E+04;  0.0000000E+00;  4.0002754E+04;  6.4836100E-02;  0.0000000E+00; -7.1045025E-03;  4.3981137E+02;
  5.4151249E-01;  9.9999998E-03;  1.7999583E-01;5788;  2.3035284E-02;  0.0000000E+00; -2.4320458E-03;  9.9935065E+02;  1.0002954E-01; -5.3796008E+02;3;  2.0921254E+00;  0.0000000E+00; -1.0055035E+00;0;  5.5296838E-02;  3.9918230E+04;  0.0000000E+00;  7.4703909E-02;  4.0000000E+04;  0.0000000E+00;  4.0004652E+04;  6.2236167E-02;  0.0000000E+00; -6.9393287E-03;  6.6581165E+02;
  5.4150945E-01;  9.9999998E-03;  1.9000001E-01;5789;  2.2775773E-02;  0.0000000E+00; -2.4953033E-03;  9.9922107E+02;  1.0002946E-01; -6.4531506E+02;3;  2.0944395E+00;  0.0000000E+00; -8.5378188E-01;0;  5.2521769E-02;  3.9906297E+04;  0.0000000E+00;  8.1412874E-02;  4.0000000E+04;  0.0000000E+00;  4.0006492E+04;  5.9374038E-02;  0.0000000E+00; -6.8522682E-03;  9.0965009E+02;
  5.4151177E-01;  9.9999998E-03;  2.0000260E-01;5790;  2.2665160E-02;  0.0000000E+00; -2.5765041E-03;  9.9906671E+02;  1.0002949E-01; -7.7321271E+02;3;  1.9894816E+00;  0.0000000E+00; -7.4729109E-01;0;  4.9449198E-02;  3.9892246E+04;  0.0000000E+00;  7.4290641E-02;  4.0000000E+04;  0.0000000E+00;  4.0008289E+04;  5.6304794E-02;  0.0000000E+00; -6.8555954E-03;  1.1422760E+03;
  5.4151946E-01;  9.9999998E-03;  2.1000163E-01;5791;  2.2669360E-02;  0.0000000E+00; -2.6666315E-03;  9.9889233E+02;  1.0002949E-01; -9.1770245E+02;3;  1.7464993E+00;  0.0000000E+00; -6.7709494E-01;0;  4.6123847E-02;  3.9876879E+04;  0.0000000E+00;  5.3338952E-02;  4.0000000E+04;  0.0000000E+00;  4.0009734E+04;  5.3101107E-02;  0.0000000E+00; -6.9772583E-03;  1.3556968E+03;
  5.4153186E-01;  9.9999998E-03;  2.1999559E-01;5792;  2.2737499E-02;  0.0000000E+00; -2.7618438E-03;  9.9871088E+02;  1.0002942E-01; -1.0680192E+03;3;  1.2401569E+00;  0.0000000E+00; -6.6080660E-01;0;  4.2580262E-02;  3.9860707E+04;  0.0000000E+00;  1.9922525E-02;  4.0000000E+04;  0.0000000E+00;  4.0011641E+04;  4.9844954E-02;  0.0000000E+00; -7.2646933E-03;  1.6019778E+03;
  5.4154688E-01;  9.9999998E-03;  2.2998767E-01;5793;  2.2802712E-02;  0.0000000E+00; -2.8410095E-03;  9.9853845E+02;  1.0002951E-01; -1.2108794E+03;3;  3.2732469E-01;  0.0000000E+00; -6.7872381E-01;0;  3.8883217E-02;  3.9844500E+04;  0.0000000E+00; -2.3438124E-02;  4.0000000E+04;  0.0000000E+00;  4.0014082E+04;  4.6618711E-02;  0.0000000E+00; -7.7354945E-03;  1.9207217E+03;
  5.5155951E-01;  9.9999998E-03;  7.0004612E-02;5838;  2.8301362E-02;  0.0000000E+00; -1.5140993E-03;  9.9942023E+02;  1.0004856E-01; -4.8033206E+02;3; -2.7960937E+00;  0.0000000E+00;  3.8904738E-01;0;  5.3556792E-02;  3.9907832E+04;  0.0000000E+00; -6.5107904E-02;  4.0000000E+04;  0.0000000E+00;  4.0003746E+04;  6.6437759E-02;  0.0000000E+00; -1.2880968E-02;  5.6659399E+02;
  5.5156523E-01;  9.9999998E-03;  8.0003276E-02;5839;  2.8036244E-02;  0.0000000E+00; -1.7047372E-03;  9.9945526E+02;  1.0004842E-01; -4.5129584E+02;3; -2.6943839E+00;  0.0000000E+00;  4.1017601E-01;0;  5.3481944E-02;  3.9910965E+04;  0.0000000E+00; -6.9786623E-02;  4.0000000E+04;  0.0000000E+00;  4.0003336E+04;  6.5704897E-02;  0.0000000E+00; -1.2222951E-02;  5.0815216E+02;
  5.5156809E-01;  9.9999998E-03;  9.0001553E-02;5840;  2.7738223E-02;  0.0000000E+00; -1.8879895E-03;  9.9949396E+02;  1.0004833E-01; -4.1924738E+02;3; -2.5639277E+00;  0.0000000E+00;  4.4935310E-01;0;  5.3454142E-02;  3.9914840E+04;  0.0000000E+00; -6.9200851E-02;  4.0000000E+04;  0.0000000E+00;  4.0002582E+04;  6.4971089E-02;  0.0000000E+00; -1.1516947E-02;  4.3036987E+02;
  5.5156827E-01;  9.9999998E-03;  9.9999562E-02;5841;  2.7406516E-02;  0.0000000E+00; -2.0613661E-03;  9.9953662E+02;  1.0004845E-01; -3.8389035E+02;3; -2.3704808E+00;  0.0000000E+00;  3.6348692E-01;0;  5.3434968E-02;  3.9918941E+04;  0.0000000E+00; -6.3030824E-02;  4.0000000E+04;  0.0000000E+00;  4.0001969E+04;  6.4221494E-02;  0.0000000E+00; -1.0786528E-02;  3.4186096E+02;
  5.5156553E-01;  9.9999998E-03;  1.0999747E-01;5842;  2.7041126E-02;  0.0000000E+00; -2.2170707E-03;  9.9957965E+02;  1.0004858E-01; -3.4823703E+02;3; -2.1234858E+00;  0.0000000E+00;  2.3754919E-01;0;  5.3367652E-02;  3.9923016E+04;  0.0000000E+00; -5.1571343E-02;  4.0000000E+04;  0.0000000E+00;  4.0001402E+04;  6.3425556E-02;  0.0000000E+00; -1.0057906E-02;  2.5448422E+02;
  5.5155963E-01;  9.9999998E-03;  1.1999584E-01;5843;  2.6642038E-02;  0.0000000E+00; -2.3515765E-03;  9.9961267E+02;  1.0004846E-01; -3.2087979E+02;3; -1.8404722E+00;  0.0000000E+00;  6.2390700E-02;0;  5.3181406E-02;  3.9926504E+04;  0.0000000E+00; -3.5594877E-02;  4.0000000E+04;  0.0000000E+00;  4.0000742E+04;  6.2538944E-02;  0.0000000E+00; -9.3575381E-03;  1.8252116E+02;
  5.5155110E-01;  9.9999998E-03;  1.2999512E-01;5844;  2.6211465E-02;  0.0000000E+00; -2.4593335E-03;  9.9963708E+02;  1.0004845E-01; -3.0068283E+02;3; -1.5243968E+00;  0.0000000E+00; -1.5550314E-01;0;  5.2797727E-02;  3.9929020E+04;  0.0000000E+00; -1.6220128E-02;  4.0000000E+04;  0.0000000E+00;  4.0000656E+04;  6.1506938E-02;  0.0000000E+00; -8.7092090E-03;  1.4251482E+02;
  5.5154020E-01;  9.9999998E-03;  1.3999577E-01;5845;  2.5752528E-02;  0.0000000E+00; -2.5377756E-03;  9.9965125E+02;  1.0004857E-01; -2.8893008E+02;3; -1.1986083E+00;  0.0000000E+00; -3.9227352E-01;0;  5.2140120E-02;  3.9929641E+04;  0.0000000E+00;  5.2503454E-03;  4.0000000E+04;  0.0000000E+00;  4.0000742E+04;  6.0271181E-02;  0.0000000E+00; -8.1310598E-03;  1.5427792E+02;
  5.5152816E-01;  9.9999998E-03;  1.4999790E-01;5846;  2.5272388E-02;  0.0000000E+00; -2.5842711E-03;  9.9963550E+02;  1.0004828E-01; -3.0196674E+02;3; -8.1779832E-01;  0.0000000E+00; -6.2009865E-01;0;  5.1140703E-02;  3.9928184E+04;  0.0000000E+00;  2.7405242E-02;  4.0000000E+04;  0.0000000E+00;  4.0001191E+04;  5.8774285E-02;  0.0000000E+00; -7.6335799E-03;  2.3042313E+02;
  5.5151582E-01;  9.9999998E-03;  1.6000140E-01;5847;  2.4780970E-02;  0.0000000E+00; -2.6022366E-03;  9.9959644E+02;  1.0004862E-01; -3.3436090E+02;3; -4.1335472E-01;  0.0000000E+00; -8.3043164E-01;0;  4.9746655E-02;  3.9924180E+04;  0.0000000E+00;  4.8265051E-02;  4.0000000E+04;  0.0000000E+00;  4.0002188E+04;  5.6969360E-02;  0.0000000E+00; -7.2227041E-03;  3.6936160E+02;
  5.5150485E-01;  9.9999998E-03;  1.7000580E-01;5848;  2.4307476E-02;  0.0000000E+00; -2.6053358E-03;  9.9952832E+02;  1.0004863E-01; -3.9075436E+02;3; -4.6693206E-02;  0.0000000E+00; -9.7713894E-01;0;  4.7928341E-02;  3.9917293E+04;  0.0000000E+00;  6.5002792E-02;  4.0000000E+04;  0.0000000E+00;  4.0003535E+04;  5.4828577E-02;  0.0000000E+00; -6.9002346E-03;  5.6086041E+02;
  5.5149770E-01;  9.9999998E-03;  1.8001042E-01;5849;  2.3888931E-02;  0.0000000E+00; -2.6125798E-03;  9.9942889E+02;  1.0004853E-01; -4.7317175E+02;3;  1.8144059E-01;  0.0000000E+00; -1.0450412E+00;0;  4.5686930E-02;  3.9907809E+04;  0.0000000E+00;  7.4494444E-02;  4.0000000E+04;  0.0000000E+00;  4.0005570E+04;  5.2350558E-02;  0.0000000E+00; -6.6636293E-03;  7.8311786E+02;
  5.5149662E-01;  9.9999998E-03;  1.9001427E-01;5850;  2.3554647E-02;  0.0000000E+00; -2.6343332E-03;  9.9930206E+02;  1.0004846E-01; -5.7820581E+02;3;  2.6320213E-01;  0.0000000E+00; -1.0017117E+00;0;  4.3053605E-02;  3.9896051E+04;  0.0000000E+00;  7.4189626E-02;  4.0000000E+04;  0.0000000E+00;  4.0007094E+04;  4.9565326E-02;  0.0000000E+00; -6.5117208E-03;  1.0031001E+03;
  5.5150336E-01;  9.9999998E-03;  2.0001575E-01;5851;  2.3313036E-02;  0.0000000E+00; -2.6759794E-03;  9.9914264E+02;  1.0004871E-01; -7.1030084E+02;3;  1.2045686E-01;  0.0000000E+00; -9.2272246E-01;0;  4.0077291E-02;  3.9882031E+04;  0.0000000E+00;  6.2618457E-02;  4.0000000E+04;  0.0000000E+00;  4.0008531E+04;  4.6531599E-02;  0.0000000E+00; -6.4543067E-03;  1.1870486E+03;
  5.5151898E-01;  9.9999998E-03;  2.1001200E-01;5852;  2.3151323E-02;  0.0000000E+00; -2.7340190E-03;  9.9896558E+02;  1.0004868E-01; -8.5701276E+02;3; -2.5412047E-01;  0.0000000E+00; -8.2063496E-01;0;  3.6811918E-02;  3.9866660E+04;  0.0000000E+00;  3.9582867E-02;  4.0000000E+04;  0.0000000E+00;  4.0009773E+04;  4.3329883E-02;  0.0000000E+00; -6.5179672E-03;  1.3391901E+03;
  5.5154246E-01;  9.9999998E-03;  2.2000158E-01;5853;  2.3032822E-02;  0.0000000E+00; -2.7985414E-03;  9.9878027E+02;  1.0004873E-01; -1.0105392E+03;3; -8.3811617E-01;  0.0000000E+00; -6.7479712E-01;0;  3.3311252E-02;  3.9850574E+04;  0.0000000E+00;  6.0203937E-03;  4.0000000E+04;  0.0000000E+00;  4.0011379E+04;  4.0054236E-02;  0.0000000E+00; -6.7429836E-03;  1.5461632E+03;
  5.5157179E-01;  9.9999998E-03;  2.2998981E-01;5854;  2.2938659E-02;  0.0000000E+00; -2.8515835E-03;  9.9860455E+02;  1.0004845E-01; -1.1561154E+03;3; -1.6086361E+00;  0.0000000E+00; -4.6295625E-01;0;  2.9643761E-02;  3.9834332E+04;  0.0000000E+00; -3.6250882E-02;  4.0000000E+04;  0.0000000E+00;  4.0013477E+04;  3.6793634E-02;  0.0000000E+00; -7.1498728E-03;  1.8575554E+03;
  5.6158024E-01;  9.9999998E-03;  7.0009291E-02;5899;  2.8313225E-02;  0.0000000E+00; -1.4155135E-03;  9.9936365E+02;  1.0007960E-01; -5.2719495E+02;3; -3.3647926E+00;  0.0000000E+00;  7.0842963E-01;0;  4.0194660E-02;  3.9878238E+04;  0.0000000E+00; -1.4656928E-02;  4.0000000E+04;  0.0000000E+00;  4.0003434E+04;  5.3152148E-02;  0.0000000E+00; -1.2957489E-02;  5.4973993E+02;
  5.6158650E-01;  9.9999998E-03;  8.0008939E-02;5900;  2.8052121E-02;  0.0000000E+00; -1.6016079E-03;  9.9942371E+02;  1.0007960E-01; -4.7746796E+02;3; -3.3090477E+00;  0.0000000E+00;  7.4501520E-01;0;  4.0295564E-02;  3.9883465E+04;  0.0000000E+00; -9.1961510E-03;  4.0000000E+04;  0.0000000E+00;  4.0003031E+04;  5.2596912E-02;  0.0000000E+00; -1.2301346E-02;  4.9191251E+02;
  5.6158841E-01;  9.9999998E-03;  9.0008207E-02;5901;  2.7757851E-02;  0.0000000E+00; -1.7778334E-03;  9.9948785E+02;  1.0007951E-01; -4.2428427E+02;3; -3.2411664E+00;  0.0000000E+00;  7.6981229E-01;0;  4.0469449E-02;  3.9889078E+04;  0.0000000E+00; -6.0943299E-04;  4.0000000E+04;  0.0000000E+00;  4.0002305E+04;  5.2063953E-02;  0.0000000E+00; -1.1594505E-02;  4.1867215E+02;
  5.6158614E-01;  9.9999998E-03;  1.0000716E-01;5902;  2.7433243E-02;  0.0000000E+00; -1.9429519E-03;  9.9954962E+02;  1.0007958E-01; -3.7312521E+02;3; -3.1614122E+00;  0.0000000E+00;  8.0281210E-01;0;  4.0678240E-02;  3.9894906E+04;  0.0000000E+00;  1.0248433E-02;  4.0000000E+04;  0.0000000E+00;  4.0001922E+04;  5.1536396E-02;  0.0000000E+00; -1.0858157E-02;  3.3991348E+02;
  5.6158006E-01;  9.9999998E-03;  1.1000590E-01;5903;  2.7081864E-02;  0.0000000E+00; -2.0975927E-03;  9.9961340E+02;  1.0007960E-01; -3.2028720E+02;3; -3.0573490E+00;  0.0000000E+00;  8.6033970E-01;0;  4.0864497E-02;  3.9900652E+04;  0.0000000E+00;  2.2137836E-02;  4.0000000E+04;  0.0000000E+00;  4.0001113E+04;  5.0980341E-02;  0.0000000E+00; -1.0115842E-02;  2.6905414E+02;
  5.6157082E-01;  9.9999998E-03;  1.2000483E-01;5904;  2.6706466E-02;  0.0000000E+00; -2.2424257E-03;  9.9967181E+02;  1.0007966E-01; -2.7189352E+02;3; -2.9215307E+00;  0.0000000E+00;  8.0277777E-01;0;  4.0955793E-02;  3.9905523E+04;  0.0000000E+00;  3.3770908E-02;  4.0000000E+04;  0.0000000E+00;  4.0000910E+04;  5.0347563E-02;  0.0000000E+00; -9.3917698E-03;  2.2112016E+02;
  5.6155902E-01;  9.9999998E-03;  1.3000445E-01;5905;  2.6309343E-02;  0.0000000E+00; -2.3699549E-03;  9.9971655E+02;  1.0007964E-01; -2.3480815E+02;3; -2.7517676E+00;  0.0000000E+00;  6.9866228E-01;0;  4.0871345E-02;  3.9909027E+04;  0.0000000E+00;  4.4132911E-02;  4.0000000E+04;  0.0000000E+00;  4.0001148E+04;  4.9579494E-02;  0.0000000E+00; -8.7081501E-03;  2.1005966E+02;
  5.6154501E-01;  9.9999998E-03;  1.4000537E-01;5906;  2.5895871E-02;  0.0000000E+00; -2.4761229E-03;  9.9973822E+02;  1.0007980E-01; -2.1688274E+02;3; -2.5530097E+00;  0.0000000E+00;  5.7182837E-01;0;  4.0530019E-02;  3.9910793E+04;  0.0000000E+00;  5.2729301E-02;  4.0000000E+04;  0.0000000E+00;  4.0000977E+04;  4.8612729E-02;  0.0000000E+00; -8.0827102E-03;  2.4613293E+02;
  5.6153023E-01;  9.9999998E-03;  1.5000790E-01;5907;  2.5470408E-02;  0.0000000E+00; -2.5590537E-03;  9.9973596E+02;  1.0007989E-01; -2.1875923E+02;3; -2.3266432E+00;  0.0000000E+00;  4.1039738E-01;0;  3.9857481E-02;  3.9910195E+04;  0.0000000E+00;  5.9566174E-02;  4.0000000E+04;  0.0000000E+00;  4.0001820E+04;  4.7384243E-02;  0.0000000E+00; -7.5267642E-03;  3.3777304E+02;
  5.6151682E-01;  9.9999998E-03;  1.6001190E-01;5908;  2.5039315E-02;  0.0000000E+00; -2.6170535E-03;  9.9971069E+02;  1.0007964E-01; -2.3969690E+02;3; -2.1088119E+00;  0.0000000E+00;  2.1166474E-01;0;  3.8791120E-02;  3.9906734E+04;  0.0000000E+00;  6.4515851E-02;  4.0000000E+04;  0.0000000E+00;  4.0003055E+04;  4.5840155E-02;  0.0000000E+00; -7.0490371E-03;  4.8680722E+02;
  5.6150764E-01;  9.9999998E-03;  1.7001672E-01;5909;  2.4615642E-02;  0.0000000E+00; -2.6509068E-03;  9.9965021E+02;  1.0007987E-01; -2.8981894E+02;3; -1.8887507E+00;  0.0000000E+00;  3.5920333E-02;0;  3.7290074E-02;  3.9900766E+04;  0.0000000E+00;  6.6773400E-02;  4.0000000E+04;  0.0000000E+00;  4.0004504E+04;  4.3947011E-02;  0.0000000E+00; -6.6569392E-03;  6.8097992E+02;
  5.6150454E-01;  9.9999998E-03;  1.8002154E-01;5910;  2.4218310E-02;  0.0000000E+00; -2.6713295E-03;  9.9956317E+02;  1.0007997E-01; -3.6191565E+02;3; -1.7526395E+00;  0.0000000E+00; -1.0831010E-01;0;  3.5346258E-02;  3.9892098E+04;  0.0000000E+00;  6.4920209E-02;  4.0000000E+04;  0.0000000E+00;  4.0006227E+04;  4.1701235E-02;  0.0000000E+00; -6.3549774E-03;  8.9233618E+02;
  5.6151009E-01;  9.9999998E-03;  1.9002530E-01;5911;  2.3866419E-02;  0.0000000E+00; -2.6865408E-03;  9.9944025E+02;  1.0007988E-01; -4.6373993E+02;3; -1.7353919E+00;  0.0000000E+00; -1.7571805E-01;0;  3.2985479E-02;  3.9880891E+04;  0.0000000E+00;  5.7301417E-02;  4.0000000E+04;  0.0000000E+00;  4.0007734E+04;  3.9131042E-02;  0.0000000E+00; -6.1455611E-03;  1.0804779E+03;
  5.6152582E-01;  9.9999998E-03;  2.0002604E-01;5912;  2.3570253E-02;  0.0000000E+00; -2.7060967E-03;  9.9928729E+02;  1.0007979E-01; -5.9045239E+02;3; -1.8642447E+00;  0.0000000E+00; -1.4429739E-01;0;  3.0259809E-02;  3.9867820E+04;  0.0000000E+00;  4.2519614E-02;  4.0000000E+04;  0.0000000E+00;  4.0008605E+04;  3.6295418E-02;  0.0000000E+00; -6.0356087E-03;  1.2076967E+03;
  5.6155282E-01;  9.9999998E-03;  2.1002035E-01;5913;  2.3326393E-02;  0.0000000E+00; -2.7371047E-03;  9.9911127E+02;  1.0007975E-01; -7.3627539E+02;3; -2.1529012E+00;  0.0000000E+00; -6.6713527E-02;0;  2.7230620E-02;  3.9853316E+04;  0.0000000E+00;  1.9900350E-02;  4.0000000E+04;  0.0000000E+00;  4.0009219E+04;  3.3276059E-02;  0.0000000E+00; -6.0454393E-03;  1.2864091E+03;
  5.6159037E-01;  9.9999998E-03;  2.2000688E-01;5914;  2.3124026E-02;  0.0000000E+00; -2.7737855E-03;  9.9892517E+02;  1.0008001E-01; -8.9049329E+02;3; -2.5353432E+00;  0.0000000E+00;  6.9144554E-02;0;  2.3962479E-02;  3.9837832E+04;  0.0000000E+00; -1.0636789E-02;  4.0000000E+04;  0.0000000E+00;  4.0010180E+04;  3.0166635E-02;  0.0000000E+00; -6.2041553E-03;  1.4280975E+03;
  5.6163514E-01;  9.9999998E-03;  2.2999267E-01;5915;  2.2949519E-02;  0.0000000E+00; -2.8028227E-03;  9.9874811E+02;  1.0007983E-01; -1.0371558E+03;3; -2.9246099E+00;  0.0000000E+00;  2.1040958E-01;0;  2.0541374E-02;  3.9821984E+04;  0.0000000E+00; -4.8981529E-02;  4.0000000E+04;  0.0000000E+00;  4.0011953E+04;  2.7058911E-02;  0.0000000E+00; -6.5175369E-03;  1.6845811E+03;
  5.7166159E-01;  9.9999998E-03;  7.0005171E-02;5960;  2.8284298E-02;  0.0000000E+00; -1.3074049E-03;  9.9937006E+02;  1.0013084E-01; -5.2191113E+02;3; -3.6374607E+00;  0.0000000E+00;  8.5401702E-01;0;  2.7004316E-02;  3.9838344E+04;  0.0000000E+00;  4.6888590E-02;  4.0000000E+04;  0.0000000E+00;  4.0002902E+04;  3.9776117E-02;  0.0000000E+00; -1.2771800E-02;  5.5410706E+02;
  5.7166272E-01;  9.9999998E-03;  8.0005474E-02;5961;  2.8023440E-02;  0.0000000E+00; -1.4777288E-03;  9.9944818E+02;  1.0013099E-01; -4.5717221E+02;3; -3.6211584E+00;  0.0000000E+00;  9.4221586E-01;0;  2.7249884E-02;  3.9844555E+04;  0.0000000E+00;  6.3098870E-02;  4.0000000E+04;  0.0000000E+00;  4.0002887E+04;  3.9388001E-02;  0.0000000E+00; -1.2138116E-02;  5.0332101E+02;
  5.7165867E-01;  9.9999998E-03;  9.0005569E-02;5962;  2.7729854E-02;  0.0000000E+00; -1.6400758E-03;  9.9952838E+02;  1.0013097E-01; -3.9070496E+02;3; -3.6176732E+00;  0.0000000E+00;  1.0691450E+00;0;  2.7584894E-02;  3.9851422E+04;  0.0000000E+00;  7.9285957E-02;  4.0000000E+04;  0.0000000E+00;  4.0002109E+04;  3.9037738E-02;  0.0000000E+00; -1.1452844E-02;  4.4316364E+02;
  5.7164931E-01;  9.9999998E-03;  1.0000544E-01;5963;  2.7407622E-02;  0.0000000E+00; -1.7978697E-03;  9.9960785E+02;  1.0013086E-01; -3.2487967E+02;3; -3.5751872E+00;  0.0000000E+00;  1.1477447E+00;0;  2.7975131E-02;  3.9858539E+04;  0.0000000E+00;  9.3371771E-02;  4.0000000E+04;  0.0000000E+00;  4.0001793E+04;  3.8709477E-02;  0.0000000E+00; -1.0734347E-02;  3.8347864E+02;
  5.7163483E-01;  9.9999998E-03;  1.1000522E-01;5964;  2.7058009E-02;  0.0000000E+00; -1.9457351E-03;  9.9968469E+02;  1.0013118E-01; -2.6122717E+02;3; -3.5180399E+00;  0.0000000E+00;  1.1977258E+00;0;  2.8366964E-02;  3.9865266E+04;  0.0000000E+00;  1.0328605E-01;  4.0000000E+04;  0.0000000E+00;  4.0001262E+04;  3.8370345E-02;  0.0000000E+00; -1.0003381E-02;  3.3471350E+02;
  5.7161677E-01;  9.9999998E-03;  1.2000504E-01;5965;  2.6684707E-02;  0.0000000E+00; -2.0820764E-03;  9.9975482E+02;  1.0013115E-01; -2.0310535E+02;3; -3.4642408E+00;  0.0000000E+00;  1.2293745E+00;0;  2.8689751E-02;  3.9871051E+04;  0.0000000E+00;  1.0752349E-01;  4.0000000E+04;  0.0000000E+00;  4.0000887E+04;  3.7971120E-02;  0.0000000E+00; -9.2813689E-03;  3.0617245E+02;
  5.7159686E-01;  9.9999998E-03;  1.3000527E-01;5966;  2.6293691E-02;  0.0000000E+00; -2.2061674E-03;  9.9980981E+02;  1.0013101E-01; -1.5757578E+02;3; -3.3949492E+00;  0.0000000E+00;  1.2735292E+00;0;  2.8863862E-02;  3.9875492E+04;  0.0000000E+00;  1.0558645E-01;  4.0000000E+04;  0.0000000E+00;  4.0001004E+04;  3.7452251E-02;  0.0000000E+00; -8.5883886E-03;  3.0613229E+02;
  5.7157695E-01;  9.9999998E-03;  1.4000665E-01;5967;  2.5889240E-02;  0.0000000E+00; -2.3171094E-03;  9.9984863E+02;  1.0013114E-01; -1.2542854E+02;3; -3.3037934E+00;  0.0000000E+00;  1.2554653E+00;0;  2.8808100E-02;  3.9877945E+04;  0.0000000E+00;  9.8255172E-02;  4.0000000E+04;  0.0000000E+00;  4.0001504E+04;  3.6748949E-02;  0.0000000E+00; -7.9408493E-03;  3.4669446E+02;
  5.7155967E-01;  9.9999998E-03;  1.5000950E-01;5968;  2.5476966E-02;  0.0000000E+00; -2.4101429E-03;  9.9986328E+02;  1.0013122E-01; -1.1328074E+02;3; -3.2017763E+00;  0.0000000E+00;  1.1880096E+00;0;  2.8446514E-02;  3.9878020E+04;  0.0000000E+00;  8.7323263E-02;  4.0000000E+04;  0.0000000E+00;  4.0002492E+04;  3.5796419E-02;  0.0000000E+00; -7.3499051E-03;  4.4149854E+02;
  5.7154703E-01;  9.9999998E-03;  1.6001378E-01;5969;  2.5064673E-02;  0.0000000E+00; -2.4827905E-03;  9.9984564E+02;  1.0013103E-01; -1.2789761E+02;3; -3.0943317E+00;  0.0000000E+00;  1.1139667E+00;0;  2.7714610E-02;  3.9875680E+04;  0.0000000E+00;  7.4735314E-02;  4.0000000E+04;  0.0000000E+00;  4.0003652E+04;  3.4539741E-02;  0.0000000E+00; -6.8251300E-03;  5.9254694E+02;
  5.7154143E-01;  9.9999998E-03;  1.7001890E-01;5970;  2.4660138E-02;  0.0000000E+00; -2.5362684E-03;  9.9980359E+02;  1.0013123E-01; -1.6271144E+02;3; -3.0142653E+00;  0.0000000E+00;  1.0119926E+00;0;  2.6567277E-02;  3.9870734E+04;  0.0000000E+00;  6.1874945E-02;  4.0000000E+04;  0.0000000E+00;  4.0005258E+04;  3.2943785E-02;  0.0000000E+00; -6.3765086E-03;  7.8293365E+02;
  5.7154530E-01;  9.9999998E-03;  1.8002382E-01;5971;  2.4275700E-02;  0.0000000E+00; -2.5721127E-03;  9.9972308E+02;  1.0013138E-01; -2.2942560E+02;3; -2.9730260E+00;  0.0000000E+00;  9.1689354E-01;0;  2.4988730E-02;  3.9863188E+04;  0.0000000E+00;  4.9120840E-02;  4.0000000E+04;  0.0000000E+00;  4.0006621E+04;  3.1001583E-02;  0.0000000E+00; -6.0128537E-03;  9.7911066E+02;
  5.7156032E-01;  9.9999998E-03;  1.9002749E-01;5972;  2.3921870E-02;  0.0000000E+00; -2.5950251E-03;  9.9961438E+02;  1.0013139E-01; -3.1949710E+02;3; -2.9767985E+00;  0.0000000E+00;  8.7331420E-01;0;  2.2998877E-02;  3.9853262E+04;  0.0000000E+00;  3.5700280E-02;  4.0000000E+04;  0.0000000E+00;  4.0007969E+04;  2.8739547E-02;  0.0000000E+00; -5.7406714E-03;  1.1365403E+03;
  5.7158828E-01;  9.9999998E-03;  2.0002778E-01;5973;  2.3604551E-02;  0.0000000E+00; -2.6127703E-03;  9.9946820E+02;  1.0013146E-01; -4.4058011E+02;3; -3.0825884E+00;  0.0000000E+00;  8.5468322E-01;0;  2.0646391E-02;  3.9841242E+04;  0.0000000E+00;  2.0125316E-02;  4.0000000E+04;  0.0000000E+00;  4.0008539E+04;  2.6212316E-02;  0.0000000E+00; -5.5659241E-03;  1.2162457E+03;
  5.7162929E-01;  9.9999998E-03;  2.1002132E-01;5974;  2.3330865E-02;  0.0000000E+00; -2.6335830E-03;  9.9929834E+02;  1.0013153E-01; -5.8131683E+02;3; -3.2421334E+00;  0.0000000E+00;  8.9226234E-01;0;  1.7994495E-02;  3.9827703E+04;  0.0000000E+00;  7.5925956E-04;  4.0000000E+04;  0.0000000E+00;  4.0008352E+04;  2.3497161E-02;  0.0000000E+00; -5.5026649E-03;  1.2348986E+03;
  5.7168186E-01;  9.9999998E-03;  2.2000724E-01;5975;  2.3094734E-02;  0.0000000E+00; -2.6592165E-03;  9.9912122E+02;  1.0013144E-01; -7.2807812E+02;3; -3.4084055E+00;  0.0000000E+00;  9.2939758E-01;0;  1.5109416E-02;  3.9813266E+04;  0.0000000E+00; -2.4424238E-02;  4.0000000E+04;  0.0000000E+00;  4.0008957E+04;  2.0683024E-02;  0.0000000E+00; -5.5736084E-03;  1.3073398E+03;
  5.7174158E-01;  9.9999998E-03;  2.2999357E-01;5976;  2.2895629E-02;  0.0000000E+00; -2.6845010E-03;  9.9894806E+02;  1.0013144E-01; -8.7153082E+02;3; -3.4825406E+00;  0.0000000E+00;  9.4027758E-01;0;  1.2061957E-02;  3.9798590E+04;  0.0000000E+00; -5.8851153E-02;  4.0000000E+04;  0.0000000E+00;  4.0010043E+04;  1.7856266E-02;  0.0000000E+00; -5.7943086E-03;  1.4660714E+03;
  5.8178496E-01;  9.9999998E-03;  6.9995925E-02;6021;  2.8225167E-02;  0.0000000E+00; -1.1875299E-03;  9.9940363E+02;  1.0021388E-01; -4.9410944E+02;3; -3.8492799E+00;  0.0000000E+00;  9.7612268E-01;0;  1.4770988E-02;  3.9776148E+04;  0.0000000E+00;  1.0829998E-01;  4.0000000E+04;  0.0000000E+00;  4.0002598E+04;  2.7092719E-02;  0.0000000E+00; -1.2321731E-02;  5.9367279E+02;
  5.8177543E-01;  9.9999998E-03;  7.9997011E-02;6022;  2.7964547E-02;  0.0000000E+00; -1.3412220E-03;  9.9948364E+02;  1.0021397E-01; -4.2779034E+02;3; -3.8603225E+00;  0.0000000E+00;  1.1441022E+00;0;  1.5119925E-02;  3.9782656E+04;  0.0000000E+00;  1.3361149E-01;  4.0000000E+04;  0.0000000E+00;  4.0002473E+04;  2.6849357E-02;  0.0000000E+00; -1.1729432E-02;  5.5457007E+02;
  5.8175749E-01;  9.9999998E-03;  8.9998454E-02;6023;  2.7672144E-02;  0.0000000E+00; -1.4921165E-03;  9.9957153E+02;  1.0021431E-01; -3.5495291E+02;3; -3.8393140E+00;  0.0000000E+00;  1.2474216E+00;0;  1.5571558E-02;  3.9789941E+04;  0.0000000E+00;  1.5518451E-01;  4.0000000E+04;  0.0000000E+00;  4.0001910E+04;  2.6657946E-02;  0.0000000E+00; -1.1086388E-02;  5.0989984E+02;
  5.8173263E-01;  9.9999998E-03;  9.9999905E-02;6024;  2.7348869E-02;  0.0000000E+00; -1.6356721E-03;  9.9965594E+02;  1.0021400E-01; -2.8502896E+02;3; -3.8216074E+00;  0.0000000E+00;  1.3494457E+00;0;  1.6093841E-02;  3.9797164E+04;  0.0000000E+00;  1.6995682E-01;  4.0000000E+04;  0.0000000E+00;  4.0001473E+04;  2.6501967E-02;  0.0000000E+00; -1.0408126E-02;  4.6608771E+02;
  5.8170402E-01;  9.9999998E-03;  1.1000109E-01;6025;  2.6998287E-02;  0.0000000E+00; -1.7710484E-03;  9.9973853E+02;  1.0021417E-01; -2.1663583E+02;3; -3.8033237E+00;  0.0000000E+00;  1.4669266E+00;0;  1.6635083E-02;  3.9804031E+04;  0.0000000E+00;  1.7542218E-01;  4.0000000E+04;  0.0000000E+00;  4.0001195E+04;  2.6347239E-02;  0.0000000E+00; -9.7121568E-03;  4.2876114E+02;
  5.8167470E-01;  9.9999998E-03;  1.2000212E-01;6026;  2.6624886E-02;  0.0000000E+00; -1.8983289E-03;  9.9980884E+02;  1.0021426E-01; -1.5836588E+02;3; -3.7630045E+00;  0.0000000E+00;  1.5462171E+00;0;  1.7129857E-02;  3.9809871E+04;  0.0000000E+00;  1.7027827E-01;  4.0000000E+04;  0.0000000E+00;  4.0000758E+04;  2.6146745E-02;  0.0000000E+00; -9.0168873E-03;  4.0370337E+02;
  5.8164680E-01;  9.9999998E-03;  1.3000327E-01;6027;  2.6233463E-02;  0.0000000E+00; -2.0145094E-03;  9.9987134E+02;  1.0021437E-01; -1.0661426E+02;3; -3.7140768E+00;  0.0000000E+00;  1.6041483E+00;0;  1.7504219E-02;  3.9814531E+04;  0.0000000E+00;  1.5493977E-01;  4.0000000E+04;  0.0000000E+00;  4.0001285E+04;  2.5844110E-02;  0.0000000E+00; -8.3398921E-03;  4.0020782E+02;
  5.8162326E-01;  9.9999998E-03;  1.4000499E-01;6028;  2.5828291E-02;  0.0000000E+00; -2.1184331E-03;  9.9991498E+02;  1.0021447E-01; -7.0417755E+01;3; -3.6732233E+00;  0.0000000E+00;  1.6428419E+00;0;  1.7681278E-02;  3.9817297E+04;  0.0000000E+00;  1.3165966E-01;  4.0000000E+04;  0.0000000E+00;  4.0001688E+04;  2.5377011E-02;  0.0000000E+00; -7.6957336E-03;  4.3485672E+02;
  5.8160561E-01;  9.9999998E-03;  1.5000774E-01;6029;  2.5417069E-02;  0.0000000E+00; -2.2080110E-03;  9.9993707E+02;  1.0021443E-01; -5.2146667E+01;3; -3.6230979E+00;  0.0000000E+00;  1.6708406E+00;0;  1.7590489E-02;  3.9818180E+04;  0.0000000E+00;  1.0400476E-01;  4.0000000E+04;  0.0000000E+00;  4.0002617E+04;  2.4685025E-02;  0.0000000E+00; -7.0945369E-03;  5.2443091E+02;
  5.8159578E-01;  9.9999998E-03;  1.6001159E-01;6030;  2.5005881E-02;  0.0000000E+00; -2.2824267E-03;  9.9993573E+02;  1.0021445E-01; -5.3233059E+01;3; -3.5785756E+00;  0.0000000E+00;  1.6584951E+00;0;  1.7170221E-02;  3.9816574E+04;  0.0000000E+00;  7.5848714E-02;  4.0000000E+04;  0.0000000E+00;  4.0003789E+04;  2.3715712E-02;  0.0000000E+00; -6.5454924E-03;  6.6897510E+02;
  5.8159590E-01;  9.9999998E-03;  1.7001589E-01;6031;  2.4604110E-02;  0.0000000E+00; -2.3402395E-03;  9.9990302E+02;  1.0021455E-01; -8.0343399E+01;3; -3.5559196E+00;  0.0000000E+00;  1.6240953E+00;0;  1.6374603E-02;  3.9812703E+04;  0.0000000E+00;  5.0494932E-02;  4.0000000E+04;  0.0000000E+00;  4.0005172E+04;  2.2433557E-02;  0.0000000E+00; -6.0589537E-03;  8.4721307E+02;
  5.8160794E-01;  9.9999998E-03;  1.8001977E-01;6032;  2.4221329E-02;  0.0000000E+00; -2.3819578E-03;  9.9984033E+02;  1.0021462E-01; -1.3229254E+02;3; -3.5278401E+00;  0.0000000E+00;  1.5923938E+00;0;  1.5184792E-02;  3.9806262E+04;  0.0000000E+00;  2.9758044E-02;  4.0000000E+04;  0.0000000E+00;  4.0006480E+04;  2.0829959E-02;  0.0000000E+00; -5.6451666E-03;  1.0225165E+03;
  5.8163369E-01;  9.9999998E-03;  1.9002216E-01;6033;  2.3864508E-02;  0.0000000E+00; -2.4113897E-03;  9.9974146E+02;  1.0021471E-01; -2.1421614E+02;3; -3.5396960E+00;  0.0000000E+00;  1.5561461E+00;0;  1.3613108E-02;  3.9797551E+04;  0.0000000E+00;  1.3442779E-02;  4.0000000E+04;  0.0000000E+00;  4.0007527E+04;  1.8925378E-02;  0.0000000E+00; -5.3122705E-03;  1.1509409E+03;
  5.8167398E-01;  9.9999998E-03;  2.0002101E-01;6034;  2.3542045E-02;  0.0000000E+00; -2.4333091E-03;  9.9961322E+02;  1.0021479E-01; -3.2043536E+02;3; -3.5770650E+00;  0.0000000E+00;  1.5160924E+00;0;  1.1701303E-02;  3.9787062E+04;  0.0000000E+00; -2.6592816E-04;  4.0000000E+04;  0.0000000E+00;  4.0007840E+04;  1.6767725E-02;  0.0000000E+00; -5.0664232E-03;  1.1993042E+03;
  5.8172846E-01;  9.9999998E-03;  2.1001339E-01;6035;  2.3259701E-02;  0.0000000E+00; -2.4566045E-03;  9.9945715E+02;  1.0021475E-01; -4.4971564E+02;3; -3.5919909E+00;  0.0000000E+00;  1.4694506E+00;0;  9.5059620E-03;  3.9775246E+04;  0.0000000E+00; -1.4317630E-02;  4.0000000E+04;  0.0000000E+00;  4.0007645E+04;  1.4426146E-02;  0.0000000E+00; -4.9201837E-03;  1.1929159E+03;
  5.8179474E-01;  9.9999998E-03;  2.1999989E-01;6036;  2.3020202E-02;  0.0000000E+00; -2.4833465E-03;  9.9929510E+02;  1.0021487E-01; -5.8398346E+02;3; -3.5581477E+00;  0.0000000E+00;  1.3898128E+00;0;  7.0878807E-03;  3.9762145E+04;  0.0000000E+00; -3.3322927E-02;  4.0000000E+04;  0.0000000E+00;  4.0007848E+04;  1.1979204E-02;  0.0000000E+00; -4.8913229E-03;  1.2336259E+03;
  5.8186829E-01;  9.9999998E-03;  2.2998922E-01;6037;  2.2823026E-02;  0.0000000E+00; -2.5138177E-03;  9.9912823E+02;  1.0021494E-01; -7.2225110E+02;3; -3.4482763E+00;  0.0000000E+00;  1.3337969E+00;0;  4.4870568E-03;  3.9748742E+04;  0.0000000E+00; -6.5475687E-02;  4.0000000E+04;  0.0000000E+00;  4.0008398E+04;  9.5043872E-03;  0.0000000E+00; -5.0173304E-03;  1.3067825E+03;
  5.9189117E-01;  9.9999998E-03;  6.9990493E-02;6082;  2.8142370E-02;  0.0000000E+00; -1.0611947E-03;  9.9940051E+02;  1.0034806E-01; -4.9667728E+02;3; -4.0524435E+00;  0.0000000E+00;  1.1139320E+00;0;  4.0551675E-03;  3.9671801E+04;  0.0000000E+00;  1.5527335E-01;  4.0000000E+04;  0.0000000E+00;  4.0002266E+04;  1.5680356E-02;  0.0000000E+00; -1.1625188E-02;  6.6585657E+02;
  5.9186929E-01;  9.9999998E-03;  7.9991497E-02;6083;  2.7882380E-02;  0.0000000E+00; -1.1999123E-03;  9.9947803E+02;  1.0034810E-01; -4.3243219E+02;3; -4.0394278E+00;  0.0000000E+00;  1.2457416E+00;0;  4.4593774E-03;  3.9678109E+04;  0.0000000E+00;  1.8550955E-01;  4.0000000E+04;  0.0000000E+00;  4.0002000E+04;  1.5549405E-02;  0.0000000E+00; -1.1090028E-02;  6.3505682E+02;
  5.9183919E-01;  9.9999998E-03;  8.9992754E-02;6084;  2.7588433E-02;  0.0000000E+00; -1.3337528E-03;  9.9955829E+02;  1.0034801E-01; -3.6596494E+02;3; -4.0258288E+00;  0.0000000E+00;  1.3782763E+00;0;  4.9695419E-03;  3.9684586E+04;  0.0000000E+00;  2.0848460E-01;  4.0000000E+04;  0.0000000E+00;  4.0001312E+04;  1.5476093E-02;  0.0000000E+00; -1.0506551E-02;  5.9751880E+02;
  5.9180260E-01;  9.9999998E-03;  9.9994481E-02;6085;  2.7264157E-02;  0.0000000E+00; -1.4623376E-03;  9.9963062E+02;  1.0034835E-01; -3.0601602E+02;3; -4.0195355E+00;  0.0000000E+00;  1.5277702E+00;0;  5.5585811E-03;  3.9690953E+04;  0.0000000E+00;  2.2068313E-01;  4.0000000E+04;  0.0000000E+00;  4.0001023E+04;  1.5445839E-02;  0.0000000E+00; -9.8872576E-03;  5.5670636E+02;
  5.9176195E-01;  9.9999998E-03;  1.0999688E-01;6086;  2.6912991E-02;  0.0000000E+00; -1.5855166E-03;  9.9970721E+02;  1.0034828E-01; -2.4256102E+02;3; -3.9885447E+00;  0.0000000E+00;  1.6374247E+00;0;  6.1835479E-03;  3.9696820E+04;  0.0000000E+00;  2.1966958E-01;  4.0000000E+04;  0.0000000E+00;  4.0000680E+04;  1.5430080E-02;  0.0000000E+00; -9.2465319E-03;  5.1665576E+02;
  5.9172106E-01;  9.9999998E-03;  1.1999983E-01;6087;  2.6537981E-02;  0.0000000E+00; -1.7004737E-03;  9.9977209E+02;  1.0034828E-01; -1.8883415E+02;3; -3.9592781E+00;  0.0000000E+00;  1.7406126E+00;0;  6.7859553E-03;  3.9702211E+04;  0.0000000E+00;  2.0476268E-01;  4.0000000E+04;  0.0000000E+00;  4.0000590E+04;  1.5385560E-02;  0.0000000E+00; -8.5996045E-03;  4.8361853E+02;
  5.9168434E-01;  9.9999998E-03;  1.3000315E-01;6088;  2.6144071E-02;  0.0000000E+00; -1.8063142E-03;  9.9983185E+02;  1.0034844E-01; -1.3930469E+02;3; -3.9302812E+00;  0.0000000E+00;  1.8289881E+00;0;  7.2982870E-03;  3.9706445E+04;  0.0000000E+00;  1.7747627E-01;  4.0000000E+04;  0.0000000E+00;  4.0000562E+04;  1.5259430E-02;  0.0000000E+00; -7.9611428E-03;  4.6966830E+02;
  5.9165549E-01;  9.9999998E-03;  1.4000663E-01;6089;  2.5737554E-02;  0.0000000E+00; -1.9018636E-03;  9.9987097E+02;  1.0034855E-01; -1.0691055E+02;3; -3.8813124E+00;  0.0000000E+00;  1.8904569E+00;0;  7.6509928E-03;  3.9709000E+04;  0.0000000E+00;  1.4140575E-01;  4.0000000E+04;  0.0000000E+00;  4.0001117E+04;  1.4994457E-02;  0.0000000E+00; -7.3434645E-03;  4.9387912E+02;
  5.9163642E-01;  9.9999998E-03;  1.5001032E-01;6090;  2.5324790E-02;  0.0000000E+00; -1.9851883E-03;  9.9989307E+02;  1.0034860E-01; -8.8590080E+01;3; -3.8217740E+00;  0.0000000E+00;  1.9350580E+00;0;  7.7801985E-03;  3.9709906E+04;  0.0000000E+00;  1.0152022E-01;  4.0000000E+04;  0.0000000E+00;  4.0002121E+04;  1.4535316E-02;  0.0000000E+00; -6.7551178E-03;  5.7270697E+02;
  5.9162885E-01;  9.9999998E-03;  1.6001418E-01;6091;  2.4912532E-02;  0.0000000E+00; -2.0556923E-03;  9.9989557E+02;  1.0034893E-01; -8.6516068E+01;3; -3.7842822E+00;  0.0000000E+00;  1.9583217E+00;0;  7.6291137E-03;  3.9708820E+04;  0.0000000E+00;  6.3035220E-02;  4.0000000E+04;  0.0000000E+00;  4.0003152E+04;  1.3833258E-02;  0.0000000E+00; -6.2041446E-03;  7.0263672E+02;
  5.9163392E-01;  9.9999998E-03;  1.7001773E-01;6092;  2.4510264E-02;  0.0000000E+00; -2.1126282E-03;  9.9987341E+02;  1.0034908E-01; -1.0488592E+02;3; -3.7556264E+00;  0.0000000E+00;  1.9555910E+00;0;  7.1550850E-03;  3.9705766E+04;  0.0000000E+00;  3.0419361E-02;  4.0000000E+04;  0.0000000E+00;  4.0004379E+04;  1.2855434E-02;  0.0000000E+00; -5.7003489E-03;  8.5769775E+02;
  5.9165281E-01;  9.9999998E-03;  1.8001997E-01;6093;  2.4125587E-02;  0.0000000E+00; -2.1572013E-03;  9.9982367E+02;  1.0034906E-01; -1.4606993E+02;3; -3.7324152E+00;  0.0000000E+00;  1.9408851E+00;0;  6.3370722E-03;  3.9700293E+04;  0.0000000E+00;  6.2016090E-03;  4.0000000E+04;  0.0000000E+00;  4.0005555E+04;  1.1591005E-02;  0.0000000E+00; -5.2539329E-03;  9.9874609E+02;
  5.9168679E-01;  9.9999998E-03;  1.9001985E-01;6094;  2.3768464E-02;  0.0000000E+00; -2.1929787E-03;  9.9974286E+02;  1.0034942E-01; -2.1303099E+02;3; -3.7129395E+00;  0.0000000E+00;  1.8863599E+00;0;  5.1806988E-03;  3.9693148E+04;  0.0000000E+00; -9.6311392E-03;  4.0000000E+04;  0.0000000E+00;  4.0006047E+04;  1.0054378E-02;  0.0000000E+00; -4.8736790E-03;  1.0850437E+03;
  5.9173548E-01;  9.9999998E-03;  2.0001532E-01;6095;  2.3449313E-02;  0.0000000E+00; -2.2253525E-03;  9.9962598E+02;  1.0034940E-01; -3.0986777E+02;3; -3.6394787E+00;  0.0000000E+00;  1.8086975E+00;0;  3.7156790E-03;  3.9684031E+04;  0.0000000E+00; -1.9180609E-02;  4.0000000E+04;  0.0000000E+00;  4.0006262E+04;  8.2848221E-03;  0.0000000E+00; -4.5691431E-03;  1.0971401E+03;
  5.9179807E-01;  9.9999998E-03;  2.1000361E-01;6096;  2.3173157E-02;  0.0000000E+00; -2.2596885E-03;  9.9949011E+02;  1.0034940E-01; -4.2240778E+02;3; -3.5576723E+00;  0.0000000E+00;  1.7178782E+00;0;  1.9827159E-03;  3.9673172E+04;  0.0000000E+00; -2.6212575E-02;  4.0000000E+04;  0.0000000E+00;  4.0005922E+04;  6.3397144E-03;  0.0000000E+00; -4.3569985E-03;  1.0887146E+03;
  5.9187275E-01;  9.9999998E-03;  2.1998733E-01;6097;  2.2940947E-02;  0.0000000E+00; -2.2909497E-03;  9.9934485E+02;  1.0034967E-01; -5.4279944E+02;3; -3.4755921E+00;  0.0000000E+00;  1.6557215E+00;0;  3.0173920E-05;  3.9661602E+04;  0.0000000E+00; -3.7106846E-02;  4.0000000E+04;  0.0000000E+00;  4.0006391E+04;  4.2860871E-03;  0.0000000E+00; -4.2559132E-03;  1.1776765E+03;
  5.9195536E-01;  9.9999998E-03;  2.2997829E-01;6098;  2.2745881E-02;  0.0000000E+00; -2.3209124E-03;  9.9919580E+02;  1.0034961E-01; -6.6625269E+02;3; -3.4191465E+00;  0.0000000E+00;  1.6225313E+00;0; -2.1038344E-03;  3.9649375E+04;  0.0000000E+00; -6.3480794E-02;  4.0000000E+04;  0.0000000E+00;  4.0007258E+04;  2.1921061E-03;  0.0000000E+00; -4.2959405E-03;  1.2748402E+03;
  6.0192198E-01;  9.9999998E-03;  6.9995470E-02;6143;  2.8042283E-02;  0.0000000E+00; -9.3291543E-04;  9.9930396E+02;  1.0056140E-01; -5.7667499E+02;3; -4.2120519E+00;  0.0000000E+00;  1.1891966E+00;0; -4.8703952E-03;  3.9498945E+04;  0.0000000E+00;  1.7468803E-01;  4.0000000E+04;  0.0000000E+00;  4.0001559E+04;  5.8458140E-03;  0.0000000E+00; -1.0716209E-02;  7.5960309E+02;
  6.0189879E-01;  9.9999998E-03;  7.9994790E-02;6144;  2.7780406E-02;  0.0000000E+00; -1.0539817E-03;  9.9936749E+02;  1.0056169E-01; -5.2403455E+02;3; -4.1957340E+00;  0.0000000E+00;  1.3317540E+00;0; -4.4654715E-03;  3.9504090E+04;  0.0000000E+00;  2.0352609E-01;  4.0000000E+04;  0.0000000E+00;  4.0001141E+04;  5.7835304E-03;  0.0000000E+00; -1.0249002E-02;  7.2655835E+02;
  6.0186821E-01;  9.9999998E-03;  8.9993812E-02;6145;  2.7484307E-02;  0.0000000E+00; -1.1706576E-03;  9.9943170E+02;  1.0056166E-01; -4.7080145E+02;3; -4.2012868E+00;  0.0000000E+00;  1.5000082E+00;0; -3.9569107E-03;  3.9509129E+04;  0.0000000E+00;  2.2245595E-01;  4.0000000E+04;  0.0000000E+00;  4.0000613E+04;  5.7803574E-03;  0.0000000E+00; -9.7372681E-03;  6.8262134E+02;
  6.0183108E-01;  9.9999998E-03;  9.9993259E-02;6146;  2.7158266E-02;  0.0000000E+00; -1.2843976E-03;  9.9949408E+02;  1.0056184E-01; -4.1914862E+02;3; -4.1796327E+00;  0.0000000E+00;  1.6265465E+00;0; -3.3646058E-03;  3.9514289E+04;  0.0000000E+00;  2.2823554E-01;  4.0000000E+04;  0.0000000E+00;  4.0000238E+04;  5.8261305E-03;  0.0000000E+00; -9.1907363E-03;  6.3081952E+02;
  6.0178906E-01;  9.9999998E-03;  1.0999373E-01;6147;  2.6804462E-02;  0.0000000E+00; -1.3926142E-03;  9.9955066E+02;  1.0056213E-01; -3.7228574E+02;3; -4.1455517E+00;  0.0000000E+00;  1.7566652E+00;0; -2.7232771E-03;  3.9518988E+04;  0.0000000E+00;  2.1912995E-01;  4.0000000E+04;  0.0000000E+00;  3.9999871E+04;  5.8974135E-03;  0.0000000E+00; -8.6206906E-03;  5.7651013E+02;
  6.0174489E-01;  9.9999998E-03;  1.1999567E-01;6148;  2.6427783E-02;  0.0000000E+00; -1.4949092E-03;  9.9959723E+02;  1.0056242E-01; -3.3366956E+02;3; -4.0937471E+00;  0.0000000E+00;  1.8731145E+00;0; -2.0808489E-03;  3.9522676E+04;  0.0000000E+00;  1.9547935E-01;  4.0000000E+04;  0.0000000E+00;  3.9999355E+04;  5.9582707E-03;  0.0000000E+00; -8.0391197E-03;  5.2881494E+02;
  6.0170215E-01;  9.9999998E-03;  1.2999929E-01;6149;  2.6032299E-02;  0.0000000E+00; -1.5898030E-03;  9.9964099E+02;  1.0056223E-01; -2.9742368E+02;3; -4.0504699E+00;  0.0000000E+00;  1.9649621E+00;0; -1.4942796E-03;  3.9525723E+04;  0.0000000E+00;  1.5987360E-01;  4.0000000E+04;  0.0000000E+00;  3.9999629E+04;  5.9633325E-03;  0.0000000E+00; -7.4576121E-03;  5.0226273E+02;
  6.0166544E-01;  9.9999998E-03;  1.4000443E-01;6150;  2.5623513E-02;  0.0000000E+00; -1.6761367E-03;  9.9967285E+02;  1.0056274E-01; -2.7105405E+02;3; -4.0106697E+00;  0.0000000E+00;  2.0377421E+00;0; -1.0243682E-03;  3.9527414E+04;  0.0000000E+00;  1.1682942E-01;  4.0000000E+04;  0.0000000E+00;  3.9999824E+04;  5.8613284E-03;  0.0000000E+00; -6.8856967E-03;  5.1581116E+02;
  6.0163939E-01;  9.9999998E-03;  1.5001035E-01;6151;  2.5209369E-02;  0.0000000E+00; -1.7526380E-03;  9.9969141E+02;  1.0056295E-01; -2.5564706E+02;3; -3.9543633E+00;  0.0000000E+00;  2.0935755E+00;0; -7.2912825E-04;  3.9528074E+04;  0.0000000E+00;  7.1922883E-02;  4.0000000E+04;  0.0000000E+00;  4.0000441E+04;  5.6006806E-03;  0.0000000E+00; -6.3298088E-03;  5.8189972E+02;
  6.0162759E-01;  9.9999998E-03;  1.6001590E-01;6152;  2.4797501E-02;  0.0000000E+00; -1.8187301E-03;  9.9969189E+02;  1.0056322E-01; -2.5525201E+02;3; -3.8936810E+00;  0.0000000E+00;  2.1253679E+00;0; -6.6063274E-04;  3.9526941E+04;  0.0000000E+00;  3.0650230E-02;  4.0000000E+04;  0.0000000E+00;  4.0001715E+04;  5.1357797E-03;  0.0000000E+00; -5.7964125E-03;  6.9205811E+02;
  6.0163176E-01;  9.9999998E-03;  1.7001982E-01;6153;  2.4395151E-02;  0.0000000E+00; -1.8753073E-03;  9.9967468E+02;  1.0056351E-01; -2.6952322E+02;3; -3.8362401E+00;  0.0000000E+00;  2.1260452E+00;0; -8.5921353E-04;  3.9524121E+04;  0.0000000E+00; -2.4369597E-03;  4.0000000E+04;  0.0000000E+00;  4.0002555E+04;  4.4351043E-03;  0.0000000E+00; -5.2943178E-03;  8.1657159E+02;
  6.0165256E-01;  9.9999998E-03;  1.8002103E-01;6154;  2.4013545E-02;  0.0000000E+00; -1.9242954E-03;  9.9962549E+02;  1.0056404E-01; -3.1026282E+02;3; -3.7617955E+00;  0.0000000E+00;  2.0932012E+00;0; -1.3472659E-03;  3.9519500E+04;  0.0000000E+00; -2.4900956E-02;  4.0000000E+04;  0.0000000E+00;  4.0003270E+04;  3.4860584E-03;  0.0000000E+00; -4.8333243E-03;  9.1564600E+02;
  6.0168946E-01;  9.9999998E-03;  1.9001815E-01;6155;  2.3662139E-02;  0.0000000E+00; -1.9700087E-03;  9.9954639E+02;  1.0056406E-01; -3.7579181E+02;3; -3.6890497E+00;  0.0000000E+00;  2.0235171E+00;0; -2.1267589E-03;  3.9513090E+04;  0.0000000E+00; -3.6740404E-02;  4.0000000E+04;  0.0000000E+00;  4.0003547E+04;  2.2972748E-03;  0.0000000E+00; -4.4240337E-03;  9.5487769E+02;
  6.0174090E-01;  9.9999998E-03;  2.0000878E-01;6156;  2.3350658E-02;  0.0000000E+00; -2.0151141E-03;  9.9943726E+02;  1.0056403E-01; -4.6620901E+02;3; -3.5930517E+00;  0.0000000E+00;  1.9622035E+00;0; -3.1819749E-03;  3.9504500E+04;  0.0000000E+00; -3.9677136E-02;  4.0000000E+04;  0.0000000E+00;  4.0003305E+04;  8.9926680E-04;  0.0000000E+00; -4.0812418E-03;  9.3758862E+02;
  6.0180569E-01;  9.9999998E-03;  2.0999071E-01;6157;  2.3080012E-02;  0.0000000E+00; -2.0601826E-03;  9.9931659E+02;  1.0056417E-01; -5.6620618E+02;3; -3.5305183E+00;  0.0000000E+00;  1.9189739E+00;0; -4.4885841E-03;  3.9494750E+04;  0.0000000E+00; -3.7055533E-02;  4.0000000E+04;  0.0000000E+00;  4.0003453E+04; -6.6105282E-04;  0.0000000E+00; -3.8275311E-03;  9.6308081E+02;
  6.0188150E-01;  9.9999998E-03;  2.1996897E-01;6158;  2.2850981E-02;  0.0000000E+00; -2.0948900E-03;  9.9920038E+02;  1.0056438E-01; -6.6245038E+02;3; -3.4688592E+00;  0.0000000E+00;  1.8924426E+00;0; -6.0056737E-03;  3.9483812E+04;  0.0000000E+00; -3.4759600E-02;  4.0000000E+04;  0.0000000E+00;  4.0005230E+04; -2.3276426E-03;  0.0000000E+00; -3.6780313E-03;  1.1894523E+03;
  6.0196579E-01;  9.9999998E-03;  2.2996040E-01;6159;  2.2654623E-02;  0.0000000E+00; -2.1164909E-03;  9.9908020E+02;  1.0056425E-01; -7.6205249E+02;3; -3.4718499E+00;  0.0000000E+00;  1.8726449E+00;0; -7.6831747E-03;  3.9472773E+04;  0.0000000E+00; -4.4129159E-02;  4.0000000E+04;  0.0000000E+00;  4.0007211E+04; -4.0441309E-03;  0.0000000E+00; -3.6390435E-03;  1.4377949E+03;
  6.1187655E-01;  9.9999998E-03;  7.0007272E-02;6204;  2.7923202E-02;  0.0000000E+00; -8.0305198E-04;  9.9911511E+02;  1.0089495E-01; -7.3311499E+02;3; -4.3826442E+00;  0.0000000E+00;  1.2506548E+00;0; -1.2016853E-02;  3.9228102E+04;  0.0000000E+00;  1.5810424E-01;  4.0000000E+04;  0.0000000E+00;  4.0000027E+04; -2.3850841E-03;  0.0000000E+00; -9.6317697E-03;  8.6559302E+02;
  6.1185771E-01;  9.9999998E-03;  8.0006406E-02;6205;  2.7658306E-02;  0.0000000E+00; -9.0625382E-04;  9.9915717E+02;  1.0089531E-01; -6.9825183E+02;3; -4.3688555E+00;  0.0000000E+00;  1.4164209E+00;0; -1.1648942E-02;  3.9231176E+04;  0.0000000E+00;  1.7796694E-01;  4.0000000E+04;  0.0000000E+00;  3.9999879E+04; -2.4091939E-03;  0.0000000E+00; -9.2397481E-03;  8.1982916E+02;
  6.1183131E-01;  9.9999998E-03;  9.0004623E-02;6206;  2.7360413E-02;  0.0000000E+00; -1.0068242E-03;  9.9919891E+02;  1.0089567E-01; -6.6368488E+02;3; -4.3445401E+00;  0.0000000E+00;  1.5673440E+00;0; -1.1182427E-02;  3.9234398E+04;  0.0000000E+00;  1.8667337E-01;  4.0000000E+04;  0.0000000E+00;  3.9999062E+04; -2.3743224E-03;  0.0000000E+00; -8.8081053E-03;  7.5792627E+02;
  6.1179775E-01;  9.9999998E-03;  1.0000242E-01;6207;  2.7031964E-02;  0.0000000E+00; -1.1042735E-03;  9.9923773E+02;  1.0089583E-01; -6.3153766E+02;3; -4.3151813E+00;  0.0000000E+00;  1.7061327E+00;0; -1.0631375E-02;  3.9237664E+04;  0.0000000E+00;  1.8210204E-01;  4.0000000E+04;  0.0000000E+00;  3.9998512E+04; -2.2875001E-03;  0.0000000E+00; -8.3438745E-03;  6.8462036E+02;
  6.1175907E-01;  9.9999998E-03;  1.1000035E-01;6208;  2.6675515E-02;  0.0000000E+00; -1.1978598E-03;  9.9927246E+02;  1.0089607E-01; -6.0274835E+02;3; -4.2832761E+00;  0.0000000E+00;  1.8380349E+00;0; -1.0023059E-02;  3.9240297E+04;  0.0000000E+00;  1.6385080E-01;  4.0000000E+04;  0.0000000E+00;  3.9998020E+04; -2.1678268E-03;  0.0000000E+00; -7.8552328E-03;  6.0871521E+02;
  6.1171818E-01;  9.9999998E-03;  1.1999892E-01;6209;  2.6295954E-02;  0.0000000E+00; -1.2870183E-03;  9.9930835E+02;  1.0089671E-01; -5.7302081E+02;3; -4.2321005E+00;  0.0000000E+00;  1.9560765E+00;0; -9.3956897E-03;  3.9242504E+04;  0.0000000E+00;  1.3352004E-01;  4.0000000E+04;  0.0000000E+00;  3.9997453E+04; -2.0447455E-03;  0.0000000E+00; -7.3509440E-03;  5.4318640E+02;
  6.1167860E-01;  9.9999998E-03;  1.2999871E-01;6210;  2.5898809E-02;  0.0000000E+00; -1.3702561E-03;  9.9932983E+02;  1.0089687E-01; -5.5524353E+02;3; -4.1675053E+00;  0.0000000E+00;  2.0571067E+00;0; -8.7957196E-03;  3.9244277E+04;  0.0000000E+00;  9.4580665E-02;  4.0000000E+04;  0.0000000E+00;  3.9997574E+04; -1.9563301E-03;  0.0000000E+00; -6.8393890E-03;  5.0462283E+02;
  6.1164385E-01;  9.9999998E-03;  1.4000024E-01;6211;  2.5489448E-02;  0.0000000E+00; -1.4474351E-03;  9.9934485E+02;  1.0089706E-01; -5.4279944E+02;3; -4.1019058E+00;  0.0000000E+00;  2.1303730E+00;0; -8.2727671E-03;  3.9244855E+04;  0.0000000E+00;  5.1817100E-02;  4.0000000E+04;  0.0000000E+00;  3.9997613E+04; -1.9455330E-03;  0.0000000E+00; -6.3272342E-03;  5.0889429E+02;
  6.1161816E-01;  9.9999998E-03;  1.5000337E-01;6212;  2.5075953E-02;  0.0000000E+00; -1.5169614E-03;  9.9935126E+02;  1.0089783E-01; -5.3746625E+02;3; -4.0256729E+00;  0.0000000E+00;  2.1841891E+00;0; -7.8753773E-03;  3.9244379E+04;  0.0000000E+00;  1.0355554E-02;  4.0000000E+04;  0.0000000E+00;  3.9997805E+04; -2.0569167E-03;  0.0000000E+00; -5.8184611E-03;  5.6108075E+02;
  6.1160547E-01;  9.9999998E-03;  1.6000709E-01;6213;  2.4664788E-02;  0.0000000E+00; -1.5796076E-03;  9.9934503E+02;  1.0089833E-01; -5.4265131E+02;3; -3.9436357E+00;  0.0000000E+00;  2.2120080E+00;0; -7.6488815E-03;  3.9242855E+04;  0.0000000E+00; -2.5275962E-02;  4.0000000E+04;  0.0000000E+00;  3.9998594E+04; -2.3311435E-03;  0.0000000E+00; -5.3177378E-03;  6.4798242E+02;
  6.1160851E-01;  9.9999998E-03;  1.7000967E-01;6214;  2.4266437E-02;  0.0000000E+00; -1.6372672E-03;  9.9932141E+02;  1.0089871E-01; -5.6220630E+02;3; -3.8564551E+00;  0.0000000E+00;  2.1959856E+00;0; -7.6313419E-03;  3.9239871E+04;  0.0000000E+00; -5.1622715E-02;  4.0000000E+04;  0.0000000E+00;  3.9999281E+04; -2.7988437E-03;  0.0000000E+00; -4.8324983E-03;  7.4117151E+02;
  6.1162823E-01;  9.9999998E-03;  1.8000905E-01;6215;  2.3891069E-02;  0.0000000E+00; -1.6916344E-03;  9.9927441E+02;  1.0089894E-01; -6.0111877E+02;3; -3.7524662E+00;  0.0000000E+00;  2.1772749E+00;0; -7.8471228E-03;  3.9234977E+04;  0.0000000E+00; -6.7008100E-02;  4.0000000E+04;  0.0000000E+00;  3.9999895E+04; -3.4747482E-03;  0.0000000E+00; -4.3723751E-03;  8.0688538E+02;
  6.1166418E-01;  9.9999998E-03;  1.9000295E-01;6216;  2.3546752E-02;  0.0000000E+00; -1.7450362E-03;  9.9919470E+02;  1.0089947E-01; -6.6719098E+02;3; -3.6630766E+00;  0.0000000E+00;  2.1457360E+00;0; -8.3052441E-03;  3.9228484E+04;  0.0000000E+00; -7.1138561E-02;  4.0000000E+04;  0.0000000E+00;  3.9999969E+04; -4.3553724E-03;  0.0000000E+00; -3.9498722E-03;  8.2493494E+02;
  6.1171383E-01;  9.9999998E-03;  1.9998874E-01;6217;  2.3238970E-02;  0.0000000E+00; -1.7992612E-03;  9.9909119E+02;  1.0089987E-01; -7.5291693E+02;3; -3.6092618E+00;  0.0000000E+00;  2.1272736E+00;0; -9.0024481E-03;  3.9220379E+04;  0.0000000E+00; -6.4524919E-02;  4.0000000E+04;  0.0000000E+00;  3.9999934E+04; -5.4183770E-03;  0.0000000E+00; -3.5840711E-03;  8.2857440E+02;
  6.1177510E-01;  9.9999998E-03;  2.0996471E-01;6218;  2.2970825E-02;  0.0000000E+00; -1.8518200E-03;  9.9898285E+02;  1.0089972E-01; -8.4269214E+02;3; -3.5497677E+00;  0.0000000E+00;  2.1097679E+00;0; -9.9290339E-03;  3.9210559E+04;  0.0000000E+00; -4.8710994E-02;  4.0000000E+04;  0.0000000E+00;  4.0000949E+04; -6.6268304E-03;  0.0000000E+00; -3.3022035E-03;  9.6906561E+02;
  6.1184639E-01;  9.9999998E-03;  2.1993978E-01;6219;  2.2739546E-02;  0.0000000E+00; -1.8855291E-03;  9.9888910E+02;  1.0089993E-01; -9.2036896E+02;3; -3.5376551E+00;  0.0000000E+00;  2.1008360E+00;0; -1.1050051E-02;  3.9199973E+04;  0.0000000E+00; -2.7407035E-02;  4.0000000E+04;  0.0000000E+00;  4.0004449E+04; -7.9372302E-03;  0.0000000E+00; -3.1128211E-03;  1.4213625E+03;
  6.1192662E-01;  9.9999998E-03;  2.2993577E-01;6220;  2.2539172E-02;  0.0000000E+00; -1.8933620E-03;  9.9880139E+02;  1.0090013E-01; -9.9300885E+02;3; -3.5677445E+00;  0.0000000E+00;  2.1036160E+00;0; -1.2299324E-02;  3.9189328E+04;  0.0000000E+00; -9.2658959E-03;  4.0000000E+04;  0.0000000E+00;  4.0008086E+04; -9.3038520E-03;  0.0000000E+00; -2.9954722E-03;  1.8661281E+03;
  6.2178326E-01;  9.9999998E-03;  7.0017375E-02;6265;  2.7784426E-02;  0.0000000E+00; -6.7313138E-04;  9.9894586E+02;  1.0140128E-01; -8.7335797E+02;3; -4.5655041E+00;  0.0000000E+00;  1.3074772E+00;0; -1.7566429E-02;  3.8828723E+04;  0.0000000E+00;  1.0263602E-01;  4.0000000E+04;  0.0000000E+00;  3.9997707E+04; -9.1621811E-03;  0.0000000E+00; -8.4042484E-03;  9.8330316E+02;
  6.2176681E-01;  9.9999998E-03;  8.0016963E-02;6266;  2.7516926E-02;  0.0000000E+00; -7.5927324E-04;  9.9896320E+02;  1.0140149E-01; -8.5898798E+02;3; -4.5375113E+00;  0.0000000E+00;  1.4722232E+00;0; -1.7257888E-02;  3.8829914E+04;  0.0000000E+00;  1.0619297E-01;  4.0000000E+04;  0.0000000E+00;  3.9997156E+04; -9.1648586E-03;  0.0000000E+00; -8.0930283E-03;  9.2035229E+02;
  6.2174338E-01;  9.9999998E-03;  9.0015270E-02;6267;  2.7215961E-02;  0.0000000E+00; -8.4326655E-04;  9.9897888E+02;  1.0140219E-01; -8.4600067E+02;3; -4.5052752E+00;  0.0000000E+00;  1.6236331E+00;0; -1.6859373E-02;  3.8831078E+04;  0.0000000E+00;  9.9166490E-02;  4.0000000E+04;  0.0000000E+00;  3.9996477E+04; -9.1119111E-03;  0.0000000E+00; -7.7474625E-03;  8.3658313E+02;
  6.2171394E-01;  9.9999998E-03;  1.0001251E-01;6268;  2.6884342E-02;  0.0000000E+00; -9.2492602E-04;  9.9899054E+02;  1.0140278E-01; -8.3632196E+02;3; -4.4682336E+00;  0.0000000E+00;  1.7718261E+00;0; -1.6379992E-02;  3.8831922E+04;  0.0000000E+00;  8.1211172E-02;  4.0000000E+04;  0.0000000E+00;  3.9995727E+04; -9.0081114E-03;  0.0000000E+00; -7.3718801E-03;  7.3955249E+02;
  6.2167996E-01;  9.9999998E-03;  1.1000930E-01;6269;  2.6525106E-02;  0.0000000E+00; -1.0041187E-03;  9.9900000E+02;  1.0140337E-01; -8.2847034E+02;3; -4.4138126E+00;  0.0000000E+00;  1.8975747E+00;0; -1.5838923E-02;  3.8832625E+04;  0.0000000E+00;  5.3642828E-02;  4.0000000E+04;  0.0000000E+00;  3.9995105E+04; -8.8673597E-03;  0.0000000E+00; -6.9715627E-03;  6.4215582E+02;
  6.2164390E-01;  9.9999998E-03;  1.2000603E-01;6270;  2.6143070E-02;  0.0000000E+00; -1.0800754E-03;  9.9900708E+02;  1.0140344E-01; -8.2259393E+02;3; -4.3566542E+00;  0.0000000E+00;  2.0172071E+00;0; -1.5265140E-02;  3.8833031E+04;  0.0000000E+00;  1.9408433E-02;  4.0000000E+04;  0.0000000E+00;  3.9994438E+04; -8.7130284E-03;  0.0000000E+00; -6.5521114E-03;  5.6093396E+02;
  6.2160939E-01;  9.9999998E-03;  1.3000308E-01;6271;  2.5744803E-02;  0.0000000E+00; -1.1522435E-03;  9.9901245E+02;  1.0140459E-01; -8.1814966E+02;3; -4.2725558E+00;  0.0000000E+00;  2.1151364E+00;0; -1.4694748E-02;  3.8833082E+04;  0.0000000E+00; -1.7454602E-02;  4.0000000E+04;  0.0000000E+00;  3.9994008E+04; -8.5759899E-03;  0.0000000E+00; -6.1187590E-03;  5.1239087E+02;
  6.2158036E-01;  9.9999998E-03;  1.4000066E-01;6272;  2.5335750E-02;  0.0000000E+00; -1.2197997E-03;  9.9901202E+02;  1.0140541E-01; -8.1849530E+02;3; -4.1915350E+00;  0.0000000E+00;  2.1906016E+00;0; -1.4167391E-02;  3.8832305E+04;  0.0000000E+00; -5.2617311E-02;  4.0000000E+04;  0.0000000E+00;  3.9993848E+04; -8.4922099E-03;  0.0000000E+00; -5.6751803E-03;  5.0607123E+02;
  6.2156081E-01;  9.9999998E-03;  1.4999889E-01;6273;  2.4922805E-02;  0.0000000E+00; -1.2830659E-03;  9.9900592E+02;  1.0140602E-01; -8.2358160E+02;3; -4.1030393E+00;  0.0000000E+00;  2.2379887E+00;0; -1.3722175E-02;  3.8830641E+04;  0.0000000E+00; -8.2393862E-02;  4.0000000E+04;  0.0000000E+00;  3.9994000E+04; -8.4992275E-03;  0.0000000E+00; -5.2229473E-03;  5.3858295E+02;
  6.2155348E-01;  9.9999998E-03;  1.5999752E-01;6274;  2.4516094E-02;  0.0000000E+00; -1.3425956E-03;  9.9898553E+02;  1.0140680E-01; -8.4046997E+02;3; -3.9868643E+00;  0.0000000E+00;  2.2640777E+00;0; -1.3396759E-02;  3.8828258E+04;  0.0000000E+00; -1.0441924E-01;  4.0000000E+04;  0.0000000E+00;  3.9994531E+04; -8.6318897E-03;  0.0000000E+00; -4.7648684E-03;  5.9472449E+02;
  6.2156045E-01;  9.9999998E-03;  1.6999508E-01;6275;  2.4123190E-02;  0.0000000E+00; -1.3998536E-03;  9.9894916E+02;  1.0140770E-01; -8.7059259E+02;3; -3.8900156E+00;  0.0000000E+00;  2.2755408E+00;0; -1.3224771E-02;  3.8824496E+04;  0.0000000E+00; -1.1747054E-01;  4.0000000E+04;  0.0000000E+00;  3.9994676E+04; -8.9177750E-03;  0.0000000E+00; -4.3069958E-03;  6.5279584E+02;
  6.2158233E-01;  9.9999998E-03;  1.7998946E-01;6276;  2.3753088E-02;  0.0000000E+00; -1.4563821E-03;  9.9889288E+02;  1.0140860E-01; -9.1720856E+02;3; -3.7979784E+00;  0.0000000E+00;  2.2788899E+00;0; -1.3230922E-02;  3.8819027E+04;  0.0000000E+00; -1.2090321E-01;  4.0000000E+04;  0.0000000E+00;  3.9995371E+04; -9.3722902E-03;  0.0000000E+00; -3.8586317E-03;  6.9254657E+02;
  6.2161809E-01;  9.9999998E-03;  1.8997811E-01;6277;  2.3412272E-02;  0.0000000E+00; -1.5138967E-03;  9.9880829E+02;  1.0140942E-01; -9.8733002E+02;3; -3.7281289E+00;  0.0000000E+00;  2.2851660E+00;0; -1.3429540E-02;  3.8811609E+04;  0.0000000E+00; -1.1361846E-01;  4.0000000E+04;  0.0000000E+00;  3.9995340E+04; -9.9957446E-03;  0.0000000E+00; -3.4337954E-03;  7.1527545E+02;
  6.2166458E-01;  9.9999998E-03;  1.9995832E-01;6278;  2.3106080E-02;  0.0000000E+00; -1.5731564E-03;  9.9871112E+02;  1.0140961E-01; -1.0678215E+03;3; -3.6571412E+00;  0.0000000E+00;  2.2880247E+00;0; -1.3827940E-02;  3.8802961E+04;  0.0000000E+00; -9.4027877E-02;  4.0000000E+04;  0.0000000E+00;  3.9995883E+04; -1.0773014E-02;  0.0000000E+00; -3.0549262E-03;  7.8959351E+02;
  6.2172025E-01;  9.9999998E-03;  2.0993021E-01;6279;  2.2834921E-02;  0.0000000E+00; -1.6285514E-03;  9.9861420E+02;  1.0141014E-01; -1.1481156E+03;3; -3.6323826E+00;  0.0000000E+00;  2.2914436E+00;0; -1.4429946E-02;  3.8792855E+04;  0.0000000E+00; -6.1085366E-02;  4.0000000E+04;  0.0000000E+00;  3.9998516E+04; -1.1677913E-02;  0.0000000E+00; -2.7520333E-03;  1.1061194E+03;
  6.2178391E-01;  9.9999998E-03;  2.1990672E-01;6280;  2.2598222E-02;  0.0000000E+00; -1.6556336E-03;  9.9854431E+02;  1.0141039E-01; -1.2059905E+03;3; -3.6490517E+00;  0.0000000E+00;  2.3001647E+00;0; -1.5200567E-02;  3.8782047E+04;  0.0000000E+00; -1.6130669E-02;  4.0000000E+04;  0.0000000E+00;  4.0003926E+04; -1.2677175E-02;  0.0000000E+00; -2.5233927E-03;  1.8112350E+03;
  6.2185651E-01;  9.9999998E-03;  2.2991133E-01;6281;  2.2390608E-02;  0.0000000E+00; -1.6477485E-03;  9.9846338E+02;  1.0141005E-01; -1.2730503E+03;3; -3.6726711E+00;  0.0000000E+00;  2.3192456E+00;0; -1.6063817E-02;  3.8771121E+04;  0.0000000E+00;  3.5032179E-02;  4.0000000E+04;  0.0000000E+00;  4.0008930E+04; -1.3735442E-02;  0.0000000E+00; -2.3283754E-03;  2.4405464E+03;
  6.3178033E-01;  9.9999998E-03;  7.0013858E-02;6326;  2.7623191E-02;  0.0000000E+00; -5.4278784E-04;  9.9897571E+02;  1.0213829E-01; -8.4861792E+02;3; -4.7611518E+00;  0.0000000E+00;  1.3528179E+00;0; -2.1831207E-02;  3.8276969E+04;  0.0000000E+00;  1.3956965E-02;  4.0000000E+04;  0.0000000E+00;  3.9993926E+04; -1.4786304E-02;  0.0000000E+00; -7.0449035E-03;  1.1149205E+03;
  6.3174850E-01;  9.9999998E-03;  8.0015145E-02;6327;  2.7352471E-02;  0.0000000E+00; -6.1219453E-04;  9.9895837E+02;  1.0213865E-01; -8.6298785E+02;3; -4.7229562E+00;  0.0000000E+00;  1.5172849E+00;0; -2.1591600E-02;  3.8275598E+04;  0.0000000E+00; -3.8173737E-03;  4.0000000E+04;  0.0000000E+00;  3.9993332E+04; -1.4770003E-02;  0.0000000E+00; -6.8215965E-03;  1.0397592E+03;
  6.3170773E-01;  9.9999998E-03;  9.0015791E-02;6328;  2.7048357E-02;  0.0000000E+00; -6.8027072E-04;  9.9894147E+02;  1.0213952E-01; -8.7696277E+02;3; -4.6810112E+00;  0.0000000E+00;  1.6752626E+00;0; -2.1271497E-02;  3.8273703E+04;  0.0000000E+00; -2.9913194E-02;  4.0000000E+04;  0.0000000E+00;  3.9992504E+04; -1.4702073E-02;  0.0000000E+00; -6.5694246E-03;  9.4153113E+02;
  6.3166052E-01;  9.9999998E-03;  1.0001578E-01;6329;  2.6713703E-02;  0.0000000E+00; -7.4709050E-04;  9.9892633E+02;  1.0214072E-01; -8.8950562E+02;3; -4.6259189E+00;  0.0000000E+00;  1.8191468E+00;0; -2.0875217E-02;  3.8272398E+04;  0.0000000E+00; -6.2548116E-02;  4.0000000E+04;  0.0000000E+00;  3.9991648E+04; -1.4585542E-02;  0.0000000E+00; -6.2896758E-03;  8.3096094E+02;
  6.3161141E-01;  9.9999998E-03;  1.1001486E-01;6330;  2.6352089E-02;  0.0000000E+00; -8.1242452E-04;  9.9890906E+02;  1.0214174E-01; -9.0382623E+02;3; -4.5598774E+00;  0.0000000E+00;  1.9502028E+00;0; -2.0416211E-02;  3.8270961E+04;  0.0000000E+00; -9.8516278E-02;  4.0000000E+04;  0.0000000E+00;  3.9990543E+04; -1.4431926E-02;  0.0000000E+00; -5.9842849E-03;  7.2385193E+02;
  6.3156581E-01;  9.9999998E-03;  1.2001257E-01;6331;  2.5969172E-02;  0.0000000E+00; -8.7588595E-04;  9.9889215E+02;  1.0214268E-01; -9.1785052E+02;3; -4.4833226E+00;  0.0000000E+00;  2.0669858E+00;0; -1.9915964E-02;  3.8269234E+04;  0.0000000E+00; -1.3365455E-01;  4.0000000E+04;  0.0000000E+00;  3.9989871E+04; -1.4260374E-02;  0.0000000E+00; -5.6555914E-03;  6.3689288E+02;
  6.3152772E-01;  9.9999998E-03;  1.3000904E-01;6332;  2.5569979E-02;  0.0000000E+00; -9.3706191E-04;  9.9887811E+02;  1.0214432E-01; -9.2945514E+02;3; -4.4001255E+00;  0.0000000E+00;  2.1648624E+00;0; -1.9401362E-02;  3.8267539E+04;  0.0000000E+00; -1.6373564E-01;  4.0000000E+04;  0.0000000E+00;  3.9989141E+04; -1.4095572E-02;  0.0000000E+00; -5.3057899E-03;  5.8127258E+02;
  6.3149983E-01;  9.9999998E-03;  1.4000469E-01;6333;  2.5161859E-02;  0.0000000E+00; -9.9565426E-04;  9.9885913E+02;  1.0214541E-01; -9.4520776E+02;3; -4.2926207E+00;  0.0000000E+00;  2.2413166E+00;0; -1.8901750E-02;  3.8265246E+04;  0.0000000E+00; -1.8546432E-01;  4.0000000E+04;  0.0000000E+00;  3.9988676E+04; -1.3965813E-02;  0.0000000E+00; -4.9359365E-03;  5.5789783E+02;
  6.3148373E-01;  9.9999998E-03;  1.4999986E-01;6334;  2.4752235E-02;  0.0000000E+00; -1.0518593E-03;  9.9883832E+02;  1.0214674E-01; -9.6244183E+02;3; -4.1828222E+00;  0.0000000E+00;  2.2962604E+00;0; -1.8446699E-02;  3.8262125E+04;  0.0000000E+00; -1.9735441E-01;  4.0000000E+04;  0.0000000E+00;  3.9988688E+04; -1.3901182E-02;  0.0000000E+00; -4.5455163E-03;  5.5877478E+02;
  6.3148046E-01;  9.9999998E-03;  1.5999430E-01;6335;  2.4349239E-02;  0.0000000E+00; -1.1064493E-03;  9.9880316E+02;  1.0214814E-01; -9.9157684E+02;3; -4.0763550E+00;  0.0000000E+00;  2.3393588E+00;0; -1.8066341E-02;  3.8258359E+04;  0.0000000E+00; -2.0000643E-01;  4.0000000E+04;  0.0000000E+00;  3.9988797E+04; -1.3930653E-02;  0.0000000E+00; -4.1356883E-03;  5.7219598E+02;
  6.3149071E-01;  9.9999998E-03;  1.6998707E-01;6336;  2.3960939E-02;  0.0000000E+00; -1.1603406E-03;  9.9875446E+02;  1.0214947E-01; -1.0319214E+03;3; -3.9704382E+00;  0.0000000E+00;  2.3727899E+00;0; -1.7789472E-02;  3.8253387E+04;  0.0000000E+00; -1.9496247E-01;  4.0000000E+04;  0.0000000E+00;  3.9988660E+04; -1.4078187E-02;  0.0000000E+00; -3.7112851E-03;  5.8625922E+02;
  6.3151407E-01;  9.9999998E-03;  1.7997640E-01;6337;  2.3594420E-02;  0.0000000E+00; -1.2151182E-03;  9.9868079E+02;  1.0215106E-01; -1.0929567E+03;3; -3.8937228E+00;  0.0000000E+00;  2.4041944E+00;0; -1.7640213E-02;  3.8247027E+04;  0.0000000E+00; -1.8243147E-01;  4.0000000E+04;  0.0000000E+00;  3.9989016E+04; -1.4358888E-02;  0.0000000E+00; -3.2813237E-03;  5.9443256E+02;
  6.3154817E-01;  9.9999998E-03;  1.8996012E-01;6338;  2.3256036E-02;  0.0000000E+00; -1.2723339E-03;  9.9858893E+02;  1.0215215E-01; -1.1690532E+03;3; -3.8089712E+00;  0.0000000E+00;  2.4264514E+00;0; -1.7636664E-02;  3.8238664E+04;  0.0000000E+00; -1.6003758E-01;  4.0000000E+04;  0.0000000E+00;  3.9989383E+04; -1.4775764E-02;  0.0000000E+00; -2.8608998E-03;  6.1713342E+02;
  6.3159013E-01;  9.9999998E-03;  1.9993614E-01;6339;  2.2946917E-02;  0.0000000E+00; -1.3321909E-03;  9.9847876E+02;  1.0215345E-01; -1.2603099E+03;3; -3.7708297E+00;  0.0000000E+00;  2.4479132E+00;0; -1.7795311E-02;  3.8228695E+04;  0.0000000E+00; -1.2381115E-01;  4.0000000E+04;  0.0000000E+00;  3.9990348E+04; -1.5320257E-02;  0.0000000E+00; -2.4750540E-03;  7.5248956E+02;
  6.3163775E-01;  9.9999998E-03;  2.0990674E-01;6340;  2.2669779E-02;  0.0000000E+00; -1.3866134E-03;  9.9838721E+02;  1.0215411E-01; -1.3361597E+03;3; -3.7576013E+00;  0.0000000E+00;  2.4638360E+00;0; -1.8128935E-02;  3.8217582E+04;  0.0000000E+00; -7.0520282E-02;  4.0000000E+04;  0.0000000E+00;  3.9994188E+04; -1.5973698E-02;  0.0000000E+00; -2.1552374E-03;  1.2150803E+03;
  6.3169038E-01;  9.9999998E-03;  2.1988761E-01;6341;  2.2424169E-02;  0.0000000E+00; -1.4071873E-03;  9.9832019E+02;  1.0215443E-01; -1.3917136E+03;3; -3.7641258E+00;  0.0000000E+00;  2.4867346E+00;0; -1.8606156E-02;  3.8205777E+04;  0.0000000E+00; -7.1033271E-04;  4.0000000E+04;  0.0000000E+00;  4.0001164E+04; -1.6712068E-02;  0.0000000E+00; -1.8940882E-03;  2.0983601E+03;
  6.3175017E-01;  9.9999998E-03;  2.2990030E-01;6342;  2.2205783E-02;  0.0000000E+00; -1.3848004E-03;  9.9823645E+02;  1.0215427E-01; -1.4610450E+03;3; -3.7902668E+00;  0.0000000E+00;  2.5256240E+00;0; -1.9141270E-02;  3.8193527E+04;  0.0000000E+00;  7.9840817E-02;  4.0000000E+04;  0.0000000E+00;  4.0007238E+04; -1.7508687E-02;  0.0000000E+00; -1.6325819E-03;  2.8564368E+03;
  6.4183629E-01;  9.9999998E-03;  6.9996022E-02;6387;  2.7440742E-02;  0.0000000E+00; -4.1297518E-04;  9.9928333E+02;  1.0315657E-01; -5.9376093E+02;3; -4.9704103E+00;  0.0000000E+00;  1.3915858E+00;0; -2.5083210E-02;  3.7550070E+04;  0.0000000E+00; -9.2916250E-02;  4.0000000E+04;  0.0000000E+00;  3.9988512E+04; -1.9504476E-02;  0.0000000E+00; -5.5787344E-03;  1.2602979E+03;
  6.4180624E-01;  9.9999998E-03;  7.9995029E-02;6388;  2.7166221E-02;  0.0000000E+00; -4.6573207E-04;  9.9924835E+02;  1.0315756E-01; -6.2274780E+02;3; -4.9260278E+00;  0.0000000E+00;  1.5615939E+00;0; -2.4928808E-02;  3.7546738E+04;  0.0000000E+00; -1.3363823E-01;  4.0000000E+04;  0.0000000E+00;  3.9987828E+04; -1.9483814E-02;  0.0000000E+00; -5.4449951E-03;  1.1846632E+03;
  6.4176977E-01;  9.9999998E-03;  8.9993864E-02;6389;  2.6858801E-02;  0.0000000E+00; -5.1790080E-04;  9.9920850E+02;  1.0315905E-01; -6.5573450E+02;3; -4.8682361E+00;  0.0000000E+00;  1.7203742E+00;0; -2.4706433E-02;  3.7543336E+04;  0.0000000E+00; -1.7921008E-01;  4.0000000E+04;  0.0000000E+00;  3.9986930E+04; -1.9419018E-02;  0.0000000E+00; -5.2874144E-03;  1.0863254E+03;
  6.4172727E-01;  9.9999998E-03;  9.9992581E-02;6390;  2.6520992E-02;  0.0000000E+00; -5.6961895E-04;  9.9917432E+02;  1.0316058E-01; -6.8407935E+02;3; -4.8029914E+00;  0.0000000E+00;  1.8672689E+00;0; -2.4414930E-02;  3.7540125E+04;  0.0000000E+00; -2.2562371E-01;  4.0000000E+04;  0.0000000E+00;  3.9985609E+04; -1.9310109E-02;  0.0000000E+00; -5.1048216E-03;  9.7816461E+02;
  6.4168054E-01;  9.9999998E-03;  1.0999144E-01;6391;  2.6157679E-02;  0.0000000E+00; -6.2108092E-04;  9.9914197E+02;  1.0316254E-01; -7.1084406E+02;3; -4.7255135E+00;  0.0000000E+00;  2.0003278E+00;0; -2.4059825E-02;  3.7537246E+04;  0.0000000E+00; -2.6784539E-01;  4.0000000E+04;  0.0000000E+00;  3.9984668E+04; -1.9163521E-02;  0.0000000E+00; -4.8963041E-03;  8.7566327E+02;
  6.4163238E-01;  9.9999998E-03;  1.1999064E-01;6392;  2.5773419E-02;  0.0000000E+00; -6.7193335E-04;  9.9911444E+02;  1.0316449E-01; -7.3365820E+02;3; -4.6389127E+00;  0.0000000E+00;  2.1200430E+00;0; -2.3653194E-02;  3.7533914E+04;  0.0000000E+00; -3.0070868E-01;  4.0000000E+04;  0.0000000E+00;  3.9983535E+04; -1.8992033E-02;  0.0000000E+00; -4.6611605E-03;  7.9089197E+02;
  6.4158607E-01;  9.9999998E-03;  1.2999004E-01;6393;  2.5375050E-02;  0.0000000E+00; -7.2211085E-04;  9.9908081E+02;  1.0316669E-01; -7.6150928E+02;3; -4.5307684E+00;  0.0000000E+00;  2.2201104E+00;0; -2.3212442E-02;  3.7530832E+04;  0.0000000E+00; -3.2019356E-01;  4.0000000E+04;  0.0000000E+00;  3.9982543E+04; -1.8813998E-02;  0.0000000E+00; -4.3984451E-03;  7.2738605E+02;
  6.4154458E-01;  9.9999998E-03;  1.3998953E-01;6394;  2.4968633E-02;  0.0000000E+00; -7.7090459E-04;  9.9904987E+02;  1.0316910E-01; -7.8718756E+02;3; -4.4227486E+00;  0.0000000E+00;  2.3070545E+00;0; -2.2758245E-02;  3.7527215E+04;  0.0000000E+00; -3.2458547E-01;  4.0000000E+04;  0.0000000E+00;  3.9982102E+04; -1.8652001E-02;  0.0000000E+00; -4.1062450E-03;  6.8029102E+02;
  6.4150947E-01;  9.9999998E-03;  1.4998911E-01;6395;  2.4562342E-02;  0.0000000E+00; -8.1895367E-04;  9.9901483E+02;  1.0317156E-01; -8.1617438E+02;3; -4.3028131E+00;  0.0000000E+00;  2.3761618E+00;0; -2.2312243E-02;  3.7523066E+04;  0.0000000E+00; -3.1509489E-01;  4.0000000E+04;  0.0000000E+00;  3.9981797E+04; -1.8530523E-02;  0.0000000E+00; -3.7817196E-03;  6.4229694E+02;
  6.4148140E-01;  9.9999998E-03;  1.5998867E-01;6396;  2.4163678E-02;  0.0000000E+00; -8.6675765E-04;  9.9896735E+02;  1.0317384E-01; -8.5553131E+02;3; -4.1919937E+00;  0.0000000E+00;  2.4353781E+00;0; -2.1898456E-02;  3.7517785E+04;  0.0000000E+00; -2.9560483E-01;  4.0000000E+04;  0.0000000E+00;  3.9981508E+04; -1.8474022E-02;  0.0000000E+00; -3.4244338E-03;  6.0845093E+02;
  6.4146358E-01;  9.9999998E-03;  1.6998619E-01;6397;  2.3779918E-02;  0.0000000E+00; -9.1497763E-04;  9.9889917E+02;  1.0317647E-01; -9.1202350E+02;3; -4.0950713E+00;  0.0000000E+00;  2.4912617E+00;0; -2.1543514E-02;  3.7511207E+04;  0.0000000E+00; -2.7014977E-01;  4.0000000E+04;  0.0000000E+00;  3.9981395E+04; -1.8505434E-02;  0.0000000E+00; -3.0380809E-03;  5.7501270E+02;
  6.4146411E-01;  9.9999998E-03;  1.7997713E-01;6398;  2.3416907E-02;  0.0000000E+00; -9.6441922E-04;  9.9881409E+02;  1.0317879E-01; -9.8249066E+02;3; -4.0000763E+00;  0.0000000E+00;  2.5339050E+00;0; -2.1274384E-02;  3.7503336E+04;  0.0000000E+00; -2.3926398E-01;  4.0000000E+04;  0.0000000E+00;  3.9981273E+04; -1.8643213E-02;  0.0000000E+00; -2.6311709E-03;  5.4228540E+02;
  6.4148438E-01;  9.9999998E-03;  1.8995988E-01;6399;  2.3077285E-02;  0.0000000E+00; -1.0159587E-03;  9.9870386E+02;  1.0318115E-01; -1.0738461E+03;3; -3.9410498E+00;  0.0000000E+00;  2.5769475E+00;0; -2.1113584E-02;  3.7493383E+04;  0.0000000E+00; -1.9922152E-01;  4.0000000E+04;  0.0000000E+00;  3.9981383E+04; -1.8894287E-02;  0.0000000E+00; -2.2192970E-03;  5.3992908E+02;
  6.4151543E-01;  9.9999998E-03;  1.9993608E-01;6400;  2.2764809E-02;  0.0000000E+00; -1.0704719E-03;  9.9858466E+02;  1.0318273E-01; -1.1726088E+03;3; -3.9012628E+00;  0.0000000E+00;  2.6078801E+00;0; -2.1080470E-02;  3.7482105E+04;  0.0000000E+00; -1.4434344E-01;  4.0000000E+04;  0.0000000E+00;  3.9982945E+04; -1.9251900E-02;  0.0000000E+00; -1.8285696E-03;  6.8022314E+02;
  6.4155048E-01;  9.9999998E-03;  2.0991084E-01;6401;  2.2479428E-02;  0.0000000E+00; -1.1202485E-03;  9.9847528E+02;  1.0318427E-01; -1.2632234E+03;3; -3.8862751E+00;  0.0000000E+00;  2.6322329E+00;0; -2.1194501E-02;  3.7469379E+04;  0.0000000E+00; -7.1579300E-02;  4.0000000E+04;  0.0000000E+00;  3.9986840E+04; -1.9702304E-02;  0.0000000E+00; -1.4921974E-03;  1.1710593E+03;
  6.4158744E-01;  9.9999998E-03;  2.1989821E-01;6402;  2.2221819E-02;  0.0000000E+00; -1.1358677E-03;  9.9839111E+02;  1.0318518E-01; -1.3329498E+03;3; -3.8863835E+00;  0.0000000E+00;  2.6727600E+00;0; -2.1431688E-02;  3.7456125E+04;  0.0000000E+00;  1.6242966E-02;  4.0000000E+04;  0.0000000E+00;  3.9993977E+04; -2.0227691E-02;  0.0000000E+00; -1.2039969E-03;  2.0579778E+03;
  6.4162815E-01;  9.9999998E-03;  2.2991458E-01;6403;  2.1990059E-02;  0.0000000E+00; -1.1070956E-03;  9.9827960E+02;  1.0318498E-01; -1.4252930E+03;3; -3.9150243E+00;  0.0000000E+00;  2.7214622E+00;0; -2.1709381E-02;  3.7442523E+04;  0.0000000E+00;  1.0653699E-01;  4.0000000E+04;  0.0000000E+00;  4.0000363E+04; -2.0808024E-02;  0.0000000E+00; -9.0135593E-04;  2.8377410E+03;
  6.5182656E-01;  9.9999998E-03;  6.9984056E-02;6448;  2.7239259E-02;  0.0000000E+00; -2.8483575E-04;  9.9977771E+02;  1.0447907E-01; -1.8414293E+02;3; -5.1931190E+00;  0.0000000E+00;  1.4306901E+00;0; -2.7615363E-02;  3.6639730E+04;  0.0000000E+00; -1.9562463E-01;  4.0000000E+04;  0.0000000E+00;  3.9981004E+04; -2.3575518E-02;  0.0000000E+00; -4.0398450E-03;  1.4066245E+03;
  6.5179014E-01;  9.9999998E-03;  7.9982229E-02;6449;  2.6961317E-02;  0.0000000E+00; -3.2159724E-04;  9.9972681E+02;  1.0448135E-01; -2.2631458E+02;3; -5.1371865E+00;  0.0000000E+00;  1.6051450E+00;0; -2.7543504E-02;  3.6634891E+04;  0.0000000E+00; -2.5657257E-01;  4.0000000E+04;  0.0000000E+00;  3.9980223E+04; -2.3544297E-02;  0.0000000E+00; -3.9992062E-03;  1.3417505E+03;
  6.5175015E-01;  9.9999998E-03;  8.9980491E-02;6450;  2.6650522E-02;  0.0000000E+00; -3.5844144E-04;  9.9968585E+02;  1.0448404E-01; -2.6028891E+02;3; -5.0705943E+00;  0.0000000E+00;  1.7678884E+00;0; -2.7415210E-02;  3.6630242E+04;  0.0000000E+00; -3.1837571E-01;  4.0000000E+04;  0.0000000E+00;  3.9979309E+04; -2.3476213E-02;  0.0000000E+00; -3.9389967E-03;  1.2553358E+03;
  6.5170789E-01;  9.9999998E-03;  9.9978916E-02;6451;  2.6310688E-02;  0.0000000E+00; -3.9582170E-04;  9.9964380E+02;  1.0448698E-01; -2.9510275E+02;3; -4.9929166E+00;  0.0000000E+00;  1.9186929E+00;0; -2.7225344E-02;  3.6626273E+04;  0.0000000E+00; -3.7494195E-01;  4.0000000E+04;  0.0000000E+00;  3.9977859E+04; -2.3370270E-02;  0.0000000E+00; -3.8550731E-03;  1.1598358E+03;
  6.5166503E-01;  9.9999998E-03;  1.0997786E-01;6452;  2.5945710E-02;  0.0000000E+00; -4.3361285E-04;  9.9961072E+02;  1.0449031E-01; -3.2250937E+02;3; -4.9048977E+00;  0.0000000E+00;  2.0580513E+00;0; -2.6973596E-02;  3.6622391E+04;  0.0000000E+00; -4.1964671E-01;  4.0000000E+04;  0.0000000E+00;  3.9976688E+04; -2.3230050E-02;  0.0000000E+00; -3.7435465E-03;  1.0670774E+03;
  6.5162343E-01;  9.9999998E-03;  1.1997719E-01;6453;  2.5561294E-02;  0.0000000E+00; -4.7138883E-04;  9.9957855E+02;  1.0449348E-01; -3.4917529E+02;3; -4.8064919E+00;  0.0000000E+00;  2.1905293E+00;0; -2.6664719E-02;  3.6618402E+04;  0.0000000E+00; -4.4669414E-01;  4.0000000E+04;  0.0000000E+00;  3.9975324E+04; -2.3063933E-02;  0.0000000E+00; -3.6007848E-03;  9.8306067E+02;
  6.5158606E-01;  9.9999998E-03;  1.2997684E-01;6454;  2.5163552E-02;  0.0000000E+00; -5.0890190E-04;  9.9955023E+02;  1.0449734E-01; -3.7263141E+02;3; -4.6973367E+00;  0.0000000E+00;  2.3059812E+00;0; -2.6308272E-02;  3.6614934E+04;  0.0000000E+00; -4.5270997E-01;  4.0000000E+04;  0.0000000E+00;  3.9974469E+04; -2.2885323E-02;  0.0000000E+00; -3.4229490E-03;  9.0619934E+02;
  6.5155596E-01;  9.9999998E-03;  1.3997675E-01;6455;  2.4759579E-02;  0.0000000E+00; -5.4649054E-04;  9.9952039E+02;  1.0450092E-01; -3.9737146E+02;3; -4.5751920E+00;  0.0000000E+00;  2.4002087E+00;0; -2.5917094E-02;  3.6610527E+04;  0.0000000E+00; -4.3791121E-01;  4.0000000E+04;  0.0000000E+00;  3.9973762E+04; -2.2711584E-02;  0.0000000E+00; -3.2055106E-03;  8.3114740E+02;
  6.5153551E-01;  9.9999998E-03;  1.4997667E-01;6456;  2.4356896E-02;  0.0000000E+00; -5.8431760E-04;  9.9948425E+02;  1.0450477E-01; -4.2729654E+02;3; -4.4568739E+00;  0.0000000E+00;  2.4814351E+00;0; -2.5506243E-02;  3.6605617E+04;  0.0000000E+00; -4.0633437E-01;  4.0000000E+04;  0.0000000E+00;  3.9973230E+04; -2.2562705E-02;  0.0000000E+00; -2.9435391E-03;  7.5466638E+02;
  6.5152621E-01;  9.9999998E-03;  1.5997608E-01;6457;  2.3962352E-02;  0.0000000E+00; -6.2248704E-04;  9.9943182E+02;  1.0450928E-01; -4.7070270E+02;3; -4.3415551E+00;  0.0000000E+00;  2.5536199E+00;0; -2.5094587E-02;  3.6599418E+04;  0.0000000E+00; -3.6486906E-01;  4.0000000E+04;  0.0000000E+00;  3.9972594E+04; -2.2459392E-02;  0.0000000E+00; -2.6351965E-03;  6.7919250E+02;
  6.5152758E-01;  9.9999998E-03;  1.6997455E-01;6458;  2.3582062E-02;  0.0000000E+00; -6.6091312E-04;  9.9936035E+02;  1.0451332E-01; -5.2996027E+02;3; -4.2342558E+00;  0.0000000E+00;  2.6179354E+00;0; -2.4704173E-02;  3.6592008E+04;  0.0000000E+00; -3.1923309E-01;  4.0000000E+04;  0.0000000E+00;  3.9972492E+04; -2.2420291E-02;  0.0000000E+00; -2.2838826E-03;  6.0967700E+02;
  6.5153778E-01;  9.9999998E-03;  1.7997105E-01;6459;  2.3220072E-02;  0.0000000E+00; -6.9989829E-04;  9.9926691E+02;  1.0451718E-01; -6.0734082E+02;3; -4.1507158E+00;  0.0000000E+00;  2.6784112E+00;0; -2.4358001E-02;  3.6582891E+04;  0.0000000E+00; -2.6984236E-01;  4.0000000E+04;  0.0000000E+00;  3.9972500E+04; -2.2459215E-02;  0.0000000E+00; -1.8987869E-03;  5.5199664E+02;
  6.5155268E-01;  9.9999998E-03;  1.8996471E-01;6460;  2.2880189E-02;  0.0000000E+00; -7.4040430E-04;  9.9914709E+02;  1.0452078E-01; -7.0659723E+02;3; -4.0864110E+00;  0.0000000E+00;  2.7299619E+00;0; -2.4078762E-02;  3.6571906E+04;  0.0000000E+00; -2.1195863E-01;  4.0000000E+04;  0.0000000E+00;  3.9972816E+04; -2.2582898E-02;  0.0000000E+00; -1.4958651E-03;  5.2923291E+02;
  6.5156448E-01;  9.9999998E-03;  1.9995610E-01;6461;  2.2563389E-02;  0.0000000E+00; -7.8306010E-04;  9.9901117E+02;  1.0452393E-01; -8.1923602E+02;3; -4.0417552E+00;  0.0000000E+00;  2.7707505E+00;0; -2.3889624E-02;  3.6558973E+04;  0.0000000E+00; -1.4017476E-01;  4.0000000E+04;  0.0000000E+00;  3.9974078E+04; -2.2789409E-02;  0.0000000E+00; -1.1002141E-03;  6.2251678E+02;
  6.5156263E-01;  9.9999998E-03;  2.0994909E-01;6462;  2.2270435E-02;  0.0000000E+00; -8.2444388E-04;  9.9886438E+02;  1.0452615E-01; -9.4086218E+02;3; -4.0173159E+00;  0.0000000E+00;  2.8122883E+00;0; -2.3816343E-02;  3.6544961E+04;  0.0000000E+00; -5.3836007E-02;  4.0000000E+04;  0.0000000E+00;  3.9976762E+04; -2.3069499E-02;  0.0000000E+00; -7.4684364E-04;  9.5279077E+02;
  6.5155107E-01;  9.9999998E-03;  2.2995956E-01;6464;  2.1755885E-02;  0.0000000E+00; -8.2354015E-04;  9.9859076E+02;  1.0452833E-01; -1.1675225E+03;3; -4.0424643E+00;  0.0000000E+00;  2.9103076E+00;0; -2.3965364E-02;  3.6514941E+04;  0.0000000E+00;  1.0055856E-01;  4.0000000E+04;  0.0000000E+00;  3.9987117E+04; -2.3811275E-02;  0.0000000E+00; -1.5408898E-04;  2.2758342E+03;
  6.5155011E-01;  9.9999998E-03;  2.1994792E-01;6463;  2.2001479E-02;  0.0000000E+00; -8.4602158E-04;  9.9872986E+02;  1.0452796E-01; -1.0522665E+03;3; -4.0180068E+00;  0.0000000E+00;  2.8575644E+00;0; -2.3864435E-02;  3.6529891E+04;  0.0000000E+00;  3.5826743E-02;  4.0000000E+04;  0.0000000E+00;  3.9981719E+04; -2.3412758E-02;  0.0000000E+00; -4.5167602E-04;  1.5684991E+03;
  6.6184002E-01;  9.9999998E-03;  6.9967791E-02;6509;  2.7012503E-02;  0.0000000E+00; -1.5565136E-04;  1.0001706E+03;  1.0609844E-01;  1.4132933E+02;3; -5.4292216E+00;  0.0000000E+00;  1.4736661E+00;0; -2.9759873E-02;  3.5552906E+04;  0.0000000E+00; -2.6956722E-01;  4.0000000E+04;  0.0000000E+00;  3.9971445E+04; -2.7336391E-02;  0.0000000E+00; -2.4234820E-03;  1.5291576E+03;
  6.6181022E-01;  9.9999998E-03;  7.9964608E-02;6510;  2.6731262E-02;  0.0000000E+00; -1.7649352E-04;  1.0001255E+03;  1.0610209E-01;  1.0399705E+02;3; -5.3627539E+00;  0.0000000E+00;  1.6525933E+00;0; -2.9768201E-02;  3.5547309E+04;  0.0000000E+00; -3.4378374E-01;  4.0000000E+04;  0.0000000E+00;  3.9970625E+04; -2.7290178E-02;  0.0000000E+00; -2.4780214E-03;  1.4806362E+03;
  6.6177708E-01;  9.9999998E-03;  8.9962274E-02;6511;  2.6418075E-02;  0.0000000E+00; -1.9828462E-04;  1.0000880E+03;  1.0610646E-01;  7.2886826E+01;3; -5.2865944E+00;  0.0000000E+00;  1.8205667E+00;0; -2.9729195E-02;  3.5542668E+04;  0.0000000E+00; -4.1503996E-01;  4.0000000E+04;  0.0000000E+00;  3.9969605E+04; -2.7212044E-02;  0.0000000E+00; -2.5171516E-03;  1.4097305E+03;
  6.6174126E-01;  9.9999998E-03;  9.9960849E-02;6512;  2.6076378E-02;  0.0000000E+00; -2.2061050E-04;  1.0000618E+03;  1.0611106E-01;  5.1257805E+01;3; -5.2033978E+00;  0.0000000E+00;  1.9952484E+00;0; -2.9633930E-02;  3.5538516E+04;  0.0000000E+00; -4.7544649E-01;  4.0000000E+04;  0.0000000E+00;  3.9968211E+04; -2.7100194E-02;  0.0000000E+00; -2.5337350E-03;  1.3265782E+03;
  6.6170406E-01;  9.9999998E-03;  1.0996039E-01;6513;  2.5710851E-02;  0.0000000E+00; -2.4371843E-04;  1.0000455E+03;  1.0611635E-01;  3.7727325E+01;3; -5.1103263E+00;  0.0000000E+00;  2.1589377E+00;0; -2.9476902E-02;  3.5535023E+04;  0.0000000E+00; -5.1713681E-01;  4.0000000E+04;  0.0000000E+00;  3.9966828E+04; -2.6956189E-02;  0.0000000E+00; -2.5207114E-03;  1.2385496E+03;
  6.6166729E-01;  9.9999998E-03;  1.1996114E-01;6514;  2.5327202E-02;  0.0000000E+00; -2.6785216E-04;  1.0000353E+03;  1.0612210E-01;  2.9233738E+01;3; -5.0010676E+00;  0.0000000E+00;  2.2961566E+00;0; -2.9256869E-02;  3.5531512E+04;  0.0000000E+00; -5.3413290E-01;  4.0000000E+04;  0.0000000E+00;  3.9965590E+04; -2.6785586E-02;  0.0000000E+00; -2.4712831E-03;  1.1473223E+03;
  6.6163272E-01;  9.9999998E-03;  1.2996323E-01;6515;  2.4931701E-02;  0.0000000E+00; -2.9314891E-04;  1.0000284E+03;  1.0612793E-01;  2.3505507E+01;3; -4.8782859E+00;  0.0000000E+00;  2.4115779E+00;0; -2.8976399E-02;  3.5527898E+04;  0.0000000E+00; -5.2419704E-01;  4.0000000E+04;  0.0000000E+00;  3.9964426E+04; -2.6597675E-02;  0.0000000E+00; -2.3787252E-03;  1.0503008E+03;
  6.6160280E-01;  9.9999998E-03;  1.3996656E-01;6516;  2.4531525E-02;  0.0000000E+00; -3.1947071E-04;  1.0000220E+03;  1.0613424E-01;  1.8172325E+01;3; -4.7526560E+00;  0.0000000E+00;  2.5121739E+00;0; -2.8641708E-02;  3.5524078E+04;  0.0000000E+00; -4.8978081E-01;  4.0000000E+04;  0.0000000E+00;  3.9963719E+04; -2.6405700E-02;  0.0000000E+00; -2.2360091E-03;  9.4549329E+02;
  6.6157985E-01;  9.9999998E-03;  1.4997084E-01;6517;  2.4133349E-02;  0.0000000E+00; -3.4655430E-04;  1.0000010E+03;  1.0614111E-01;  7.9010105E-01;3; -4.6243997E+00;  0.0000000E+00;  2.6007392E+00;0; -2.8262008E-02;  3.5519102E+04;  0.0000000E+00; -4.3762901E-01;  4.0000000E+04;  0.0000000E+00;  3.9963031E+04; -2.6225727E-02;  0.0000000E+00; -2.0362809E-03;  8.3555103E+02;
  6.6156560E-01;  9.9999998E-03;  1.5997590E-01;6518;  2.3743166E-02;  0.0000000E+00; -3.7375570E-04;  9.9995667E+02;  1.0614753E-01; -3.5900215E+01;3; -4.5046239E+00;  0.0000000E+00;  2.6833575E+00;0; -2.7851898E-02;  3.5513008E+04;  0.0000000E+00; -3.7673745E-01;  4.0000000E+04;  0.0000000E+00;  3.9962418E+04; -2.6075225E-02;  0.0000000E+00; -1.7766732E-03;  7.2929669E+02;
  6.6156101E-01;  9.9999998E-03;  1.6998146E-01;6519;  2.3366384E-02;  0.0000000E+00; -4.0068565E-04;  9.9989435E+02;  1.0615346E-01; -8.7553070E+01;3; -4.3983459E+00;  0.0000000E+00;  2.7573271E+00;0; -2.7431360E-02;  3.5504949E+04;  0.0000000E+00; -3.1333762E-01;  4.0000000E+04;  0.0000000E+00;  3.9962324E+04; -2.5970813E-02;  0.0000000E+00; -1.4605471E-03;  6.3671753E+02;
  6.6156608E-01;  9.9999998E-03;  1.7998676E-01;6520;  2.3006862E-02;  0.0000000E+00; -4.2683349E-04;  9.9980579E+02;  1.0615946E-01; -1.6088432E+02;3; -4.3091245E+00;  0.0000000E+00;  2.8257945E+00;0; -2.7023742E-02;  3.5495176E+04;  0.0000000E+00; -2.4743916E-01;  4.0000000E+04;  0.0000000E+00;  3.9962359E+04; -2.5926065E-02;  0.0000000E+00; -1.0976777E-03;  5.6714539E+02;
  6.6157913E-01;  9.9999998E-03;  1.8999223E-01;6521;  2.2666790E-02;  0.0000000E+00; -4.5277659E-04;  9.9968121E+02;  1.0616504E-01; -2.6409128E+02;3; -4.2362900E+00;  0.0000000E+00;  2.8855369E+00;0; -2.6653022E-02;  3.5483352E+04;  0.0000000E+00; -1.7471489E-01;  4.0000000E+04;  0.0000000E+00;  3.9962824E+04; -2.5949055E-02;  0.0000000E+00; -7.0396654E-04;  5.3934735E+02;
  6.6159630E-01;  9.9999998E-03;  1.9999900E-01;6522;  2.2347275E-02;  0.0000000E+00; -4.7886369E-04;  9.9952722E+02;  1.0617018E-01; -3.9169260E+02;3; -4.1825914E+00;  0.0000000E+00;  2.9353642E+00;0; -2.6343852E-02;  3.5469641E+04;  0.0000000E+00; -9.1741949E-02;  4.0000000E+04;  0.0000000E+00;  3.9963551E+04; -2.6041653E-02;  0.0000000E+00; -3.0220003E-04;  5.8943414E+02;
  6.6161346E-01;  9.9999998E-03;  2.1000792E-01;6523;  2.2048190E-02;  0.0000000E+00; -5.0528842E-04;  9.9934814E+02;  1.0617392E-01; -5.4003406E+02;3; -4.1537948E+00;  0.0000000E+00;  2.9858661E+00;0; -2.6125371E-02;  3.5453922E+04;  0.0000000E+00; -3.2104168E-03;  4.0000000E+04;  0.0000000E+00;  3.9964770E+04; -2.6199982E-02;  0.0000000E+00;  7.4610296E-05;  7.4431555E+02;
  6.6162658E-01;  9.9999998E-03;  2.2001787E-01;6524;  2.1769639E-02;  0.0000000E+00; -5.2922510E-04;  9.9915479E+02;  1.0617704E-01; -7.0022705E+02;3; -4.1519156E+00;  0.0000000E+00;  3.0365810E+00;0; -2.6031788E-02;  3.5437316E+04;  0.0000000E+00;  6.9630370E-02;  4.0000000E+04;  0.0000000E+00;  3.9966551E+04; -2.6415171E-02;  0.0000000E+00;  3.8338228E-04;  1.0128035E+03;
  6.6163266E-01;  9.9999998E-03;  2.3002577E-01;6525;  2.1511231E-02;  0.0000000E+00; -5.2880455E-04;  9.9896484E+02;  1.0617924E-01; -8.5760529E+02;3; -4.1711421E+00;  0.0000000E+00;  3.0944498E+00;0; -2.6047712E-02;  3.5420512E+04;  0.0000000E+00;  7.8464925E-02;  4.0000000E+04;  0.0000000E+00;  3.9970422E+04; -2.6675291E-02;  0.0000000E+00;  6.2757864E-04;  1.4749092E+03;
  6.7181152E-01;  9.9999998E-03;  6.9957569E-02;6570;  2.6748221E-02;  0.0000000E+00; -2.3521152E-05;  1.0001508E+03;  1.0798641E-01;  1.2493473E+02;3; -5.6749582E+00;  0.0000000E+00;  1.5342993E+00;0; -3.1738728E-02;  3.4313996E+04;  0.0000000E+00; -2.9329148E-01;  4.0000000E+04;  0.0000000E+00;  3.9959719E+04; -3.0997133E-02;  0.0000000E+00; -7.4159645E-04;  1.5957307E+03;
  6.7180032E-01;  9.9999998E-03;  7.9952650E-02;6571;  2.6464263E-02;  0.0000000E+00; -2.7514701E-05;  1.0001265E+03;  1.0799275E-01;  1.0478716E+02;3; -5.6074648E+00;  0.0000000E+00;  1.7467927E+00;0; -3.1820130E-02;  3.4308688E+04;  0.0000000E+00; -3.6956650E-01;  4.0000000E+04;  0.0000000E+00;  3.9958941E+04; -3.0926071E-02;  0.0000000E+00; -8.9405983E-04;  1.5610463E+03;
  6.7178792E-01;  9.9999998E-03;  8.9948758E-02;6572;  2.6149273E-02;  0.0000000E+00; -3.3113891E-05;  1.0001146E+03;  1.0799950E-01;  9.5009651E+01;3; -5.5264382E+00;  0.0000000E+00;  1.9383658E+00;0; -3.1861085E-02;  3.4304145E+04;  0.0000000E+00; -4.3979174E-01;  4.0000000E+04;  0.0000000E+00;  3.9957738E+04; -3.0826671E-02;  0.0000000E+00; -1.0344160E-03;  1.5002131E+03;
  6.7177421E-01;  9.9999998E-03;  9.9946171E-02;6573;  2.5806872E-02;  0.0000000E+00; -4.0118819E-05;  1.0001183E+03;  1.0800669E-01;  9.7972534E+01;3; -5.4337687E+00;  0.0000000E+00;  2.1147506E+00;0; -3.1849511E-02;  3.4300789E+04;  0.0000000E+00; -4.9497530E-01;  4.0000000E+04;  0.0000000E+00;  3.9956352E+04; -3.0697040E-02;  0.0000000E+00; -1.1524723E-03;  1.4209329E+03;
  6.7175931E-01;  9.9999998E-03;  1.0994501E-01;6574;  2.5442148E-02;  0.0000000E+00; -4.9237751E-05;  1.0001396E+03;  1.0801467E-01;  1.1565104E+02;3; -5.3252044E+00;  0.0000000E+00;  2.2687635E+00;0; -3.1775609E-02;  3.4298219E+04;  0.0000000E+00; -5.2677613E-01;  4.0000000E+04;  0.0000000E+00;  3.9955273E+04; -3.0537581E-02;  0.0000000E+00; -1.2380278E-03;  1.3278528E+03;
  6.7174381E-01;  9.9999998E-03;  1.1994596E-01;6575;  2.5060531E-02;  0.0000000E+00; -6.0275292E-05;  1.0001689E+03;  1.0802379E-01;  1.3994666E+02;3; -5.2041926E+00;  0.0000000E+00;  2.4062912E+00;0; -3.1633180E-02;  3.4295746E+04;  0.0000000E+00; -5.2968055E-01;  4.0000000E+04;  0.0000000E+00;  3.9953906E+04; -3.0352036E-02;  0.0000000E+00; -1.2811432E-03;  1.2217738E+03;
  6.7172855E-01;  9.9999998E-03;  1.2994939E-01;6576;  2.4668600E-02;  0.0000000E+00; -7.3264724E-05;  1.0001973E+03;  1.0803253E-01;  1.6345215E+02;3; -5.0741625E+00;  0.0000000E+00;  2.5258584E+00;0; -3.1419344E-02;  3.4293246E+04;  0.0000000E+00; -5.0286692E-01;  4.0000000E+04;  0.0000000E+00;  3.9952934E+04; -3.0147113E-02;  0.0000000E+00; -1.2722298E-03;  1.1026583E+03;
  6.7171478E-01;  9.9999998E-03;  1.3995510E-01;6577;  2.4272831E-02;  0.0000000E+00; -8.7532295E-05;  1.0002281E+03;  1.0804205E-01;  1.8893291E+02;3; -4.9382038E+00;  0.0000000E+00;  2.6331530E+00;0; -3.1134870E-02;  3.4290184E+04;  0.0000000E+00; -4.5070004E-01;  4.0000000E+04;  0.0000000E+00;  3.9952066E+04; -2.9932996E-02;  0.0000000E+00; -1.2018745E-03;  9.7398993E+02;
  6.7170340E-01;  9.9999998E-03;  1.4996281E-01;6578;  2.3879316E-02;  0.0000000E+00; -1.0233370E-04;  1.0002358E+03;  1.0805163E-01;  1.9535248E+02;3; -4.8063440E+00;  0.0000000E+00;  2.7331581E+00;0; -3.0783750E-02;  3.4286258E+04;  0.0000000E+00; -3.8173506E-01;  4.0000000E+04;  0.0000000E+00;  3.9951750E+04; -2.9722081E-02;  0.0000000E+00; -1.0616679E-03;  8.4536066E+02;
  6.7169601E-01;  9.9999998E-03;  1.5997241E-01;6579;  2.3493929E-02;  0.0000000E+00; -1.1687269E-04;  1.0002267E+03;  1.0806111E-01;  1.8784653E+02;3; -4.6823788E+00;  0.0000000E+00;  2.8239310E+00;0; -3.0376744E-02;  3.4280469E+04;  0.0000000E+00; -3.0587754E-01;  4.0000000E+04;  0.0000000E+00;  3.9951477E+04; -2.9528685E-02;  0.0000000E+00; -8.4805861E-04;  7.3379987E+02;
  6.7169321E-01;  9.9999998E-03;  1.6998425E-01;6580;  2.3121245E-02;  0.0000000E+00; -1.3071044E-04;  1.0001806E+03;  1.0807063E-01;  1.4962538E+02;3; -4.5691900E+00;  0.0000000E+00;  2.9052873E+00;0; -2.9931914E-02;  3.4272816E+04;  0.0000000E+00; -2.2919573E-01;  4.0000000E+04;  0.0000000E+00;  3.9951352E+04; -2.9366827E-02;  0.0000000E+00; -5.6508830E-04;  6.5978284E+02;
  6.7169434E-01;  9.9999998E-03;  1.7999910E-01;6581;  2.2764685E-02;  0.0000000E+00; -1.4305415E-04;  1.0001055E+03;  1.0807890E-01;  8.7404930E+01;3; -4.4709754E+00;  0.0000000E+00;  2.9789543E+00;0; -2.9472152E-02;  3.4262727E+04;  0.0000000E+00; -1.5209010E-01;  4.0000000E+04;  0.0000000E+00;  3.9951738E+04; -2.9248320E-02;  0.0000000E+00; -2.2383250E-04;  6.4282739E+02;
  6.7169666E-01;  9.9999998E-03;  1.9001818E-01;6582;  2.2426143E-02;  0.0000000E+00; -1.5331624E-04;  9.9999078E+02;  1.0808765E-01; -7.6541038E+00;3; -4.3886380E+00;  0.0000000E+00;  3.0430675E+00;0; -2.9021742E-02;  3.4250516E+04;  0.0000000E+00; -7.2129548E-02;  4.0000000E+04;  0.0000000E+00;  3.9952406E+04; -2.9181071E-02;  0.0000000E+00;  1.5932927E-04;  6.8786499E+02;
  6.7169785E-01;  9.9999998E-03;  2.0004232E-01;6583;  2.2106409E-02;  0.0000000E+00; -1.6177617E-04;  9.9984015E+02;  1.0809516E-01; -1.3244069E+02;3; -4.3290334E+00;  0.0000000E+00;  3.1007333E+00;0; -2.8605098E-02;  3.4236020E+04;  0.0000000E+00;  1.0114677E-02;  4.0000000E+04;  0.0000000E+00;  3.9952934E+04; -2.9168803E-02;  0.0000000E+00;  5.6370575E-04;  7.5611932E+02;
  6.7169511E-01;  9.9999998E-03;  2.1007001E-01;6584;  2.1805832E-02;  0.0000000E+00; -1.7333606E-04;  9.9963922E+02;  1.0810217E-01; -2.9890509E+02;3; -4.2931352E+00;  0.0000000E+00;  3.1581085E+00;0; -2.8253464E-02;  3.4219680E+04;  0.0000000E+00;  8.2299024E-02;  4.0000000E+04;  0.0000000E+00;  3.9952684E+04; -2.9210771E-02;  0.0000000E+00;  9.5730636E-04;  7.5533234E+02;
  6.7168826E-01;  9.9999998E-03;  2.2009180E-01;6585;  2.1524079E-02;  0.0000000E+00; -1.9893801E-04;  9.9940704E+02;  1.0810784E-01; -4.9124533E+02;3; -4.2810097E+00;  0.0000000E+00;  3.2128341E+00;0; -2.8030699E-02;  3.4202449E+04;  0.0000000E+00;  1.0868532E-01;  4.0000000E+04;  0.0000000E+00;  3.9951926E+04; -2.9302726E-02;  0.0000000E+00;  1.2720273E-03;  6.7987634E+02;
  6.7167610E-01;  9.9999998E-03;  2.3009610E-01;6586;  2.1258004E-02;  0.0000000E+00; -2.1760940E-04;  9.9918384E+02;  1.0811196E-01; -6.7617834E+02;3; -4.2901816E+00;  0.0000000E+00;  3.2719648E+00;0; -2.7975423E-02;  3.4184809E+04;  0.0000000E+00;  1.3468348E-02;  4.0000000E+04;  0.0000000E+00;  3.9953449E+04; -2.9437412E-02;  0.0000000E+00;  1.4619875E-03;  9.0794385E+02;
  6.8178898E-01;  9.9999998E-03;  6.9957264E-02;6631;  2.6430385E-02;  0.0000000E+00;  1.1918641E-04;  9.9964355E+02;  1.1012562E-01; -2.9530026E+02;3; -5.9373317E+00;  0.0000000E+00;  1.6697997E+00;0; -3.3704061E-02;  3.2959871E+04;  0.0000000E+00; -2.5567833E-01;  4.0000000E+04;  0.0000000E+00;  3.9945949E+04; -3.4721345E-02;  0.0000000E+00;  1.0172846E-03;  1.5894023E+03;
  6.8179464E-01;  9.9999998E-03;  7.9952426E-02;6632;  2.6145127E-02;  0.0000000E+00;  1.3189341E-04;  9.9965002E+02;  1.1013468E-01; -2.8996707E+02;3; -5.8582749E+00;  0.0000000E+00;  1.8788345E+00;0; -3.3849947E-02;  3.2955133E+04;  0.0000000E+00; -3.1970975E-01;  4.0000000E+04;  0.0000000E+00;  3.9945324E+04; -3.4609955E-02;  0.0000000E+00;  7.6000631E-04;  1.5588284E+03;
  6.8180031E-01;  9.9999998E-03;  8.9948684E-02;6633;  2.5829880E-02;  0.0000000E+00;  1.4183529E-04;  9.9967877E+02;  1.1014516E-01; -2.6611591E+02;3; -5.7650399E+00;  0.0000000E+00;  2.0649066E+00;0; -3.3959042E-02;  3.2951602E+04;  0.0000000E+00; -3.7561584E-01;  4.0000000E+04;  0.0000000E+00;  3.9944504E+04; -3.4471169E-02;  0.0000000E+00;  5.1212747E-04;  1.4956241E+03;
  6.8180573E-01;  9.9999998E-03;  9.9946328E-02;6634;  2.5488725E-02;  0.0000000E+00;  1.4842802E-04;  9.9973145E+02;  1.1015628E-01; -2.2251221E+02;3; -5.6598220E+00;  0.0000000E+00;  2.2327604E+00;0; -3.4016553E-02;  3.2948766E+04;  0.0000000E+00; -4.1465172E-01;  4.0000000E+04;  0.0000000E+00;  3.9943355E+04; -3.4303915E-02;  0.0000000E+00;  2.8736060E-04;  1.4070944E+03;
  6.8181086E-01;  9.9999998E-03;  1.0994618E-01;6635;  2.5126358E-02;  0.0000000E+00;  1.5187536E-04;  9.9980035E+02;  1.1016810E-01; -1.6542741E+02;3; -5.5404754E+00;  0.0000000E+00;  2.3789542E+00;0; -3.4009982E-02;  3.2947438E+04;  0.0000000E+00; -4.2918363E-01;  4.0000000E+04;  0.0000000E+00;  3.9942074E+04; -3.4109376E-02;  0.0000000E+00;  9.9393495E-05;  1.2990417E+03;
  6.8181539E-01;  9.9999998E-03;  1.1994892E-01;6636;  2.4748499E-02;  0.0000000E+00;  1.5266018E-04;  9.9988477E+02;  1.1018109E-01; -9.5454086E+01;3; -5.4105487E+00;  0.0000000E+00;  2.5117049E+00;0; -3.3929057E-02;  3.2946660E+04;  0.0000000E+00; -4.1489291E-01;  4.0000000E+04;  0.0000000E+00;  3.9940949E+04; -3.3890434E-02;  0.0000000E+00; -3.8624359E-05;  1.1758573E+03;
  6.8181974E-01;  9.9999998E-03;  1.2995467E-01;6637;  2.4361141E-02;  0.0000000E+00;  1.5137982E-04;  9.9997028E+02;  1.1019445E-01; -2.4641277E+01;3; -5.2717266E+00;  0.0000000E+00;  2.6298773E+00;0; -3.3767108E-02;  3.2945453E+04;  0.0000000E+00; -3.7225801E-01;  4.0000000E+04;  0.0000000E+00;  3.9939902E+04; -3.3652943E-02;  0.0000000E+00; -1.1416579E-04;  1.0438126E+03;
  6.8182468E-01;  9.9999998E-03;  1.3996330E-01;6638;  2.3970373E-02;  0.0000000E+00;  1.4919123E-04;  1.0000447E+03;  1.1020771E-01;  3.7035988E+01;3; -5.1311684E+00;  0.0000000E+00;  2.7428858E+00;0; -3.3520598E-02;  3.2943777E+04;  0.0000000E+00; -3.0665144E-01;  4.0000000E+04;  0.0000000E+00;  3.9939121E+04; -3.3405021E-02;  0.0000000E+00; -1.1557600E-04;  9.1455267E+02;
  6.8183124E-01;  9.9999998E-03;  1.4997445E-01;6639;  2.3582174E-02;  0.0000000E+00;  1.4679176E-04;  1.0001013E+03;  1.1022161E-01;  8.3849472E+01;3; -4.9936795E+00;  0.0000000E+00;  2.8474042E+00;0; -3.3189654E-02;  3.2940398E+04;  0.0000000E+00; -2.2702555E-01;  4.0000000E+04;  0.0000000E+00;  3.9939043E+04; -3.3156548E-02;  0.0000000E+00; -3.3107441E-05;  8.0747168E+02;
  6.8184048E-01;  9.9999998E-03;  1.5998761E-01;6640;  2.3201814E-02;  0.0000000E+00;  1.4498948E-04;  1.0001249E+03;  1.1023516E-01;  1.0350323E+02;3; -4.8621340E+00;  0.0000000E+00;  2.9414065E+00;0; -3.2782082E-02;  3.2935230E+04;  0.0000000E+00; -1.4278278E-01;  4.0000000E+04;  0.0000000E+00;  3.9938883E+04; -3.2918978E-02;  0.0000000E+00;  1.3689852E-04;  7.4986255E+02;
  6.8185371E-01;  9.9999998E-03;  1.7000322E-01;6641;  2.2833528E-02;  0.0000000E+00;  1.4484550E-04;  1.0001093E+03;  1.1024840E-01;  9.0466568E+01;3; -4.7409916E+00;  0.0000000E+00;  3.0268753E+00;0; -3.2314572E-02;  3.2927137E+04;  0.0000000E+00; -5.9723090E-02;  4.0000000E+04;  0.0000000E+00;  3.9939746E+04; -3.2703802E-02;  0.0000000E+00;  3.8922791E-04;  7.6770532E+02;
  6.8187082E-01;  9.9999998E-03;  1.8002348E-01;6642;  2.2480367E-02;  0.0000000E+00;  1.4734388E-04;  1.0000536E+03;  1.1026175E-01;  4.4443184E+01;3; -4.6339407E+00;  0.0000000E+00;  3.1106672E+00;0; -3.1809937E-02;  3.2916699E+04;  0.0000000E+00;  2.0204531E-02;  4.0000000E+04;  0.0000000E+00;  3.9940508E+04; -3.2520983E-02;  0.0000000E+00;  7.1104435E-04;  8.6893036E+02;
  6.8189055E-01;  9.9999998E-03;  1.9004995E-01;6643;  2.2144046E-02;  0.0000000E+00;  1.5399743E-04;  9.9995276E+02;  1.1027423E-01; -3.9159382E+01;3; -4.5448136E+00;  0.0000000E+00;  3.1947660E+00;0; -3.1292763E-02;  3.2903496E+04;  0.0000000E+00;  9.5837489E-02;  4.0000000E+04;  0.0000000E+00;  3.9941445E+04; -3.2377787E-02;  0.0000000E+00;  1.0850255E-03;  1.0262969E+03;
  6.8191135E-01;  9.9999998E-03;  2.0008394E-01;6644;  2.1825718E-02;  0.0000000E+00;  1.6454057E-04;  9.9980487E+02;  1.1028607E-01; -1.6167442E+02;3; -4.4766412E+00;  0.0000000E+00;  3.2734387E+00;0; -3.0786864E-02;  3.2887785E+04;  0.0000000E+00;  1.6147527E-01;  4.0000000E+04;  0.0000000E+00;  3.9942324E+04; -3.2278579E-02;  0.0000000E+00;  1.4917144E-03;  1.1550426E+03;
  6.8193132E-01;  9.9999998E-03;  2.1012431E-01;6645;  2.1526348E-02;  0.0000000E+00;  1.7065376E-04;  9.9959906E+02;  1.1029655E-01; -3.3218811E+02;3; -4.4274087E+00;  0.0000000E+00;  3.3487217E+00;0; -3.0323692E-02;  3.2870273E+04;  0.0000000E+00;  1.9834794E-01;  4.0000000E+04;  0.0000000E+00;  3.9941266E+04; -3.2223899E-02;  0.0000000E+00;  1.9002069E-03;  1.0866040E+03;
  6.8194789E-01;  9.9999998E-03;  2.2015631E-01;6646;  2.1244762E-02;  0.0000000E+00;  1.4808659E-04;  9.9934082E+02;  1.1030682E-01; -5.4610797E+02;3; -4.4054308E+00;  0.0000000E+00;  3.3911712E+00;0; -2.9989716E-02;  3.2851641E+04;  0.0000000E+00;  1.6027117E-01;  4.0000000E+04;  0.0000000E+00;  3.9938922E+04; -3.2211360E-02;  0.0000000E+00;  2.2216435E-03;  7.7504163E+02;
  6.8195099E-01;  9.9999998E-03;  2.3015985E-01;6647;  2.0975597E-02;  0.0000000E+00;  1.2134468E-04;  9.9910486E+02;  1.1031567E-01; -7.4160858E+02;3; -4.4048452E+00;  0.0000000E+00;  3.4481139E+00;0; -2.9857770E-02;  3.2832664E+04;  0.0000000E+00; -4.7713626E-02;  4.0000000E+04;  0.0000000E+00;  3.9939082E+04; -3.2235384E-02;  0.0000000E+00;  2.3776146E-03;  8.7103992E+02;
  6.9228911E-01;  9.9999998E-03;  6.9989078E-02;6692;  2.6034942E-02;  0.0000000E+00;  2.8018374E-04;  9.9875879E+02;  1.1259435E-01; -1.0283165E+03;3; -6.2083073E+00;  0.0000000E+00;  1.7507460E+00;0; -3.5817277E-02;  3.1483900E+04;  0.0000000E+00; -1.5428604E-01;  4.0000000E+04;  0.0000000E+00;  3.9930031E+04; -3.8773298E-02;  0.0000000E+00;  2.9560216E-03;  1.5304943E+03;
  6.9233167E-01;  9.9999998E-03;  7.9988927E-02;6693;  2.5748776E-02;  0.0000000E+00;  3.1030146E-04;  9.9880310E+02;  1.1261085E-01; -9.9162622E+02;3; -6.1200790E+00;  0.0000000E+00;  1.9531585E+00;0; -3.6029570E-02;  3.1477523E+04;  0.0000000E+00; -1.9008467E-01;  4.0000000E+04;  0.0000000E+00;  3.9929602E+04; -3.8613033E-02;  0.0000000E+00;  2.5834627E-03;  1.4917974E+03;
  6.9236982E-01;  9.9999998E-03;  8.9988939E-02;6694;  2.5434202E-02;  0.0000000E+00;  3.3593996E-04;  9.9887933E+02;  1.1262813E-01; -9.2846747E+02;3; -6.0168219E+00;  0.0000000E+00;  2.1390636E+00;0; -3.6205541E-02;  3.1473105E+04;  0.0000000E+00; -2.1716546E-01;  4.0000000E+04;  0.0000000E+00;  3.9928727E+04; -3.8422346E-02;  0.0000000E+00;  2.2168052E-03;  1.4129722E+03;
  6.9240183E-01;  9.9999998E-03;  9.9990204E-02;6695;  2.5095267E-02;  0.0000000E+00;  3.5677670E-04;  9.9898566E+02;  1.1264545E-01; -8.4037122E+02;3; -5.8993731E+00;  0.0000000E+00;  2.3095794E+00;0; -3.6327764E-02;  3.1470902E+04;  0.0000000E+00; -2.2871536E-01;  4.0000000E+04;  0.0000000E+00;  3.9927715E+04; -3.8201533E-02;  0.0000000E+00;  1.8737689E-03;  1.3043030E+03;
  6.9242769E-01;  9.9999998E-03;  1.0999384E-01;6696;  2.4736842E-02;  0.0000000E+00;  3.7286599E-04;  9.9912500E+02;  1.1266281E-01; -7.2491772E+02;3; -5.7692957E+00;  0.0000000E+00;  2.4650300E+00;0; -3.6380742E-02;  3.1470506E+04;  0.0000000E+00; -2.1917088E-01;  4.0000000E+04;  0.0000000E+00;  3.9926895E+04; -3.7952989E-02;  0.0000000E+00;  1.5722486E-03;  1.1782207E+03;
  6.9244736E-01;  9.9999998E-03;  1.2000009E-01;6697;  2.4363816E-02;  0.0000000E+00;  3.8528891E-04;  9.9926532E+02;  1.1267979E-01; -6.0867407E+02;3; -5.6297021E+00;  0.0000000E+00;  2.6085763E+00;0; -3.6351316E-02;  3.1471225E+04;  0.0000000E+00; -1.8599948E-01;  4.0000000E+04;  0.0000000E+00;  3.9925719E+04; -3.7680600E-02;  0.0000000E+00;  1.3292829E-03;  1.0489274E+03;
  6.9246256E-01;  9.9999998E-03;  1.3000879E-01;6698;  2.3982234E-02;  0.0000000E+00;  3.9525511E-04;  9.9941833E+02;  1.1269707E-01; -4.8191226E+02;3; -5.4832497E+00;  0.0000000E+00;  2.7385912E+00;0; -3.6229562E-02;  3.1472305E+04;  0.0000000E+00; -1.3064565E-01;  4.0000000E+04;  0.0000000E+00;  3.9924957E+04; -3.7390433E-02;  0.0000000E+00;  1.1608717E-03;  9.3458789E+02;
  6.9247490E-01;  9.9999998E-03;  1.4001970E-01;6699;  2.3597658E-02;  0.0000000E+00;  4.0401780E-04;  9.9955054E+02;  1.1271384E-01; -3.7238449E+02;3; -5.3349032E+00;  0.0000000E+00;  2.8588729E+00;0; -3.6008678E-02;  3.1472416E+04;  0.0000000E+00; -5.8355097E-02;  4.0000000E+04;  0.0000000E+00;  3.9924758E+04; -3.7089784E-02;  0.0000000E+00;  1.0811042E-03;  8.5866071E+02;
  6.9248778E-01;  9.9999998E-03;  1.5003242E-01;6700;  2.3215614E-02;  0.0000000E+00;  4.1364765E-04;  9.9965765E+02;  1.1273111E-01; -2.8364627E+02;3; -5.1890774E+00;  0.0000000E+00;  2.9716563E+00;0; -3.5686411E-02;  3.1470846E+04;  0.0000000E+00;  2.3158887E-02;  4.0000000E+04;  0.0000000E+00;  3.9924699E+04; -3.6787454E-02;  0.0000000E+00;  1.1010440E-03;  8.4452258E+02;
  6.9250411E-01;  9.9999998E-03;  1.6004677E-01;6701;  2.2841057E-02;  0.0000000E+00;  4.2515446E-04;  9.9972253E+02;  1.1274821E-01; -2.2987003E+02;3; -5.0495181E+00;  0.0000000E+00;  3.0805311E+00;0; -3.5268493E-02;  3.1466621E+04;  0.0000000E+00;  1.0635280E-01;  4.0000000E+04;  0.0000000E+00;  3.9925180E+04; -3.6492594E-02;  0.0000000E+00;  1.2241005E-03;  9.0532117E+02;
  6.9252592E-01;  9.9999998E-03;  1.7006373E-01;6702;  2.2478161E-02;  0.0000000E+00;  4.3920564E-04;  9.9974341E+02;  1.1276562E-01; -2.1258656E+02;3; -4.9200587E+00;  0.0000000E+00;  3.1840878E+00;0; -3.4770753E-02;  3.1459051E+04;  0.0000000E+00;  1.8589637E-01;  4.0000000E+04;  0.0000000E+00;  3.9925969E+04; -3.6213960E-02;  0.0000000E+00;  1.4432059E-03;  1.0382882E+03;
  6.9255364E-01;  9.9999998E-03;  1.8008518E-01;6703;  2.2129808E-02;  0.0000000E+00;  4.5704344E-04;  9.9971576E+02;  1.1278380E-01; -2.3549950E+02;3; -4.8046198E+00;  0.0000000E+00;  3.2745514E+00;0; -3.4216244E-02;  3.1448148E+04;  0.0000000E+00;  2.5773692E-01;  4.0000000E+04;  0.0000000E+00;  3.9927250E+04; -3.5959341E-02;  0.0000000E+00;  1.7430960E-03;  1.2275186E+03;
  6.9258851E-01;  9.9999998E-03;  1.9011326E-01;6704;  2.1797949E-02;  0.0000000E+00;  4.8041987E-04;  9.9963184E+02;  1.1280183E-01; -3.0502838E+02;3; -4.7072225E+00;  0.0000000E+00;  3.3637848E+00;0; -3.3630360E-02;  3.1433816E+04;  0.0000000E+00;  3.1724417E-01;  4.0000000E+04;  0.0000000E+00;  3.9928520E+04; -3.5735190E-02;  0.0000000E+00;  2.1048309E-03;  1.4348057E+03;
  6.9263369E-01;  9.9999998E-03;  2.0015083E-01;6705;  2.1484204E-02;  0.0000000E+00;  5.0872337E-04;  9.9949292E+02;  1.1282057E-01; -4.2008685E+02;3; -4.6227598E+00;  0.0000000E+00;  3.4601264E+00;0; -3.3038042E-02;  3.1416078E+04;  0.0000000E+00;  3.5568169E-01;  4.0000000E+04;  0.0000000E+00;  3.9929285E+04; -3.5546485E-02;  0.0000000E+00;  2.5084412E-03;  1.5561436E+03;
  6.9269437E-01;  9.9999998E-03;  2.1019453E-01;6706;  2.1189008E-02;  0.0000000E+00;  5.2753120E-04;  9.9928418E+02;  1.1284044E-01; -5.9302020E+02;3; -4.5648708E+00;  0.0000000E+00;  3.5337300E+00;0; -3.2477744E-02;  3.1395141E+04;  0.0000000E+00;  3.5237902E-01;  4.0000000E+04;  0.0000000E+00;  3.9927891E+04; -3.5396233E-02;  0.0000000E+00;  2.9184876E-03;  1.4013075E+03;
  6.9277346E-01;  9.9999998E-03;  2.2022370E-01;6707;  2.0910334E-02;  0.0000000E+00;  5.1083363E-04;  9.9902991E+02;  1.1286342E-01; -8.0368091E+02;3; -4.5257540E+00;  0.0000000E+00;  3.5986273E+00;0; -3.2055471E-02;  3.1371385E+04;  0.0000000E+00;  2.6232484E-01;  4.0000000E+04;  0.0000000E+00;  3.9924559E+04; -3.5285581E-02;  0.0000000E+00;  3.2301100E-03;  9.9241046E+02;
  6.9286507E-01;  9.9999998E-03;  2.3021901E-01;6708;  2.0639142E-02;  0.0000000E+00;  4.9762463E-04;  9.9880731E+02;  1.1288901E-01; -9.8812012E+02;3; -4.5157671E+00;  0.0000000E+00;  3.6466103E+00;0; -3.1827558E-02;  3.1345803E+04;  0.0000000E+00;  2.3109524E-03;  4.0000000E+04;  0.0000000E+00;  3.9925227E+04; -3.5213128E-02;  0.0000000E+00;  3.3855708E-03;  1.1406006E+03;
  7.0449114E-01;  9.9999998E-03;  7.0125930E-02;6753;  2.5513057E-02;  0.0000000E+00;  4.9314840E-04;  9.9793097E+02;  1.1568473E-01; -1.7141736E+03;3; -6.5195484E+00;  0.0000000E+00;  1.8925977E+00;0; -3.8313504E-02;  2.9796676E+04;  0.0000000E+00;  1.5998414E-02;  4.0000000E+04;  0.0000000E+00;  3.9911082E+04; -4.3638483E-02;  0.0000000E+00;  5.3249779E-03;  1.4844568E+03;
  7.0451897E-01;  9.9999998E-03;  8.0134660E-02;6754;  2.5229422E-02;  0.0000000E+00;  5.4175640E-04;  9.9802106E+02;  1.1569861E-01; -1.6395090E+03;3; -6.4172821E+00;  0.0000000E+00;  2.0945501E+00;0; -3.8588230E-02;  2.9794645E+04;  0.0000000E+00;  2.4517208E-02;  4.0000000E+04;  0.0000000E+00;  3.9910680E+04; -4.3385889E-02;  0.0000000E+00;  4.7976607E-03;  1.4366907E+03;
  7.0453554E-01;  9.9999998E-03;  9.0143427E-02;6755;  2.4918905E-02;  0.0000000E+00;  5.8271951E-04;  9.9815295E+02;  1.1571141E-01; -1.5302283E+03;3; -6.3005576E+00;  0.0000000E+00;  2.2774584E+00;0; -3.8824670E-02;  2.9795730E+04;  0.0000000E+00;  3.9617378E-02;  4.0000000E+04;  0.0000000E+00;  3.9909992E+04; -4.3098401E-02;  0.0000000E+00;  4.2737327E-03;  1.3478744E+03;
  7.0453936E-01;  9.9999998E-03;  1.0015309E-01;6756;  2.4585404E-02;  0.0000000E+00;  6.1664800E-04;  9.9831732E+02;  1.1572305E-01; -1.3940840E+03;3; -6.1704450E+00;  0.0000000E+00;  2.4465082E+00;0; -3.9002482E-02;  2.9799787E+04;  0.0000000E+00;  6.4194739E-02;  4.0000000E+04;  0.0000000E+00;  3.9909086E+04; -4.2778805E-02;  0.0000000E+00;  3.7763214E-03;  1.2348319E+03;
  7.0453215E-01;  9.9999998E-03;  1.1016366E-01;6757;  2.4233546E-02;  0.0000000E+00;  6.4401468E-04;  9.9851636E+02;  1.1573505E-01; -1.2291503E+03;3; -6.0281382E+00;  0.0000000E+00;  2.5977521E+00;0; -3.9103832E-02;  2.9806064E+04;  0.0000000E+00;  1.0032166E-01;  4.0000000E+04;  0.0000000E+00;  3.9908230E+04; -4.2432457E-02;  0.0000000E+00;  3.3286235E-03;  1.1202498E+03;
  7.0451611E-01;  9.9999998E-03;  1.2017482E-01;6758;  2.3868142E-02;  0.0000000E+00;  6.6690403E-04;  9.9872772E+02;  1.1574621E-01; -1.0540442E+03;3; -5.8763275E+00;  0.0000000E+00;  2.7410779E+00;0; -3.9112747E-02;  2.9813551E+04;  0.0000000E+00;  1.4839092E-01;  4.0000000E+04;  0.0000000E+00;  3.9907688E+04; -4.2065188E-02;  0.0000000E+00;  2.9524420E-03;  1.0298418E+03;
  7.0449626E-01;  9.9999998E-03;  1.3018605E-01;6759;  2.3494262E-02;  0.0000000E+00;  6.8713340E-04;  9.9893433E+02;  1.1575768E-01; -8.8288855E+02;3; -5.7203889E+00;  0.0000000E+00;  2.8727770E+00;0; -3.9016757E-02;  2.9820904E+04;  0.0000000E+00;  2.0690113E-01;  4.0000000E+04;  0.0000000E+00;  3.9907105E+04; -4.1684430E-02;  0.0000000E+00;  2.6676743E-03;  9.8726135E+02;
  7.0447850E-01;  9.9999998E-03;  1.4019699E-01;6760;  2.3117531E-02;  0.0000000E+00;  7.0657546E-04;  9.9912189E+02;  1.1577031E-01; -7.2748553E+02;3; -5.5624623E+00;  0.0000000E+00;  2.9966049E+00;0; -3.8806774E-02;  2.9826516E+04;  0.0000000E+00;  2.7265531E-01;  4.0000000E+04;  0.0000000E+00;  3.9907223E+04; -4.1297842E-02;  0.0000000E+00;  2.4910688E-03;  1.0067427E+03;
  7.0446807E-01;  9.9999998E-03;  1.5020792E-01;6761;  2.2743152E-02;  0.0000000E+00;  7.2751823E-04;  9.9927655E+02;  1.1578479E-01; -5.9934100E+02;3; -5.4057689E+00;  0.0000000E+00;  3.1148400E+00;0; -3.8478475E-02;  2.9828926E+04;  0.0000000E+00;  3.4143278E-01;  4.0000000E+04;  0.0000000E+00;  3.9907359E+04; -4.0912744E-02;  0.0000000E+00;  2.4342691E-03;  1.0883179E+03;
  7.0447069E-01;  9.9999998E-03;  1.6021934E-01;6762;  2.2375692E-02;  0.0000000E+00;  7.5212342E-04;  9.9937634E+02;  1.1580241E-01; -5.1667670E+02;3; -5.2556019E+00;  0.0000000E+00;  3.2302215E+00;0; -3.8036708E-02;  2.9827131E+04;  0.0000000E+00;  4.0938428E-01;  4.0000000E+04;  0.0000000E+00;  3.9908160E+04; -4.0536314E-02;  0.0000000E+00;  2.4996079E-03;  1.2193652E+03;
  7.0448846E-01;  9.9999998E-03;  1.7023315E-01;6763;  2.2019561E-02;  0.0000000E+00;  7.8050140E-04;  9.9942371E+02;  1.1582272E-01; -4.7746796E+02;3; -5.1165729E+00;  0.0000000E+00;  3.3394339E+00;0; -3.7496503E-02;  2.9820393E+04;  0.0000000E+00;  4.7249338E-01;  4.0000000E+04;  0.0000000E+00;  3.9909055E+04; -4.0173825E-02;  0.0000000E+00;  2.6773217E-03;  1.3772783E+03;
  7.0452338E-01;  9.9999998E-03;  1.8025176E-01;6764;  2.1678302E-02;  0.0000000E+00;  8.1347069E-04;  9.9940033E+02;  1.1584578E-01; -4.9682541E+02;3; -4.9889021E+00;  0.0000000E+00;  3.4420373E+00;0; -3.6881428E-02;  2.9808662E+04;  0.0000000E+00;  5.2604061E-01;  4.0000000E+04;  0.0000000E+00;  3.9910047E+04; -3.9830323E-02;  0.0000000E+00;  2.9488960E-03;  1.5267277E+03;
  7.0457900E-01;  9.9999998E-03;  1.9027635E-01;6765;  2.1354251E-02;  0.0000000E+00;  8.5068512E-04;  9.9931805E+02;  1.1587207E-01; -5.6497162E+02;3; -4.8743992E+00;  0.0000000E+00;  3.5407231E+00;0; -3.6219578E-02;  2.9791850E+04;  0.0000000E+00;  5.6525475E-01;  4.0000000E+04;  0.0000000E+00;  3.9910289E+04; -3.9510887E-02;  0.0000000E+00;  3.2913091E-03;  1.6046210E+03;
  7.0465404E-01;  9.9999998E-03;  2.0030583E-01;6766;  2.1049397E-02;  0.0000000E+00;  8.8607031E-04;  9.9917603E+02;  1.1590143E-01; -6.8264734E+02;3; -4.7812738E+00;  0.0000000E+00;  3.6333303E+00;0; -3.5541777E-02;  2.9770928E+04;  0.0000000E+00;  5.8312982E-01;  4.0000000E+04;  0.0000000E+00;  3.9909246E+04; -3.9217610E-02;  0.0000000E+00;  3.6758319E-03;  1.5003464E+03;
  7.0476103E-01;  9.9999998E-03;  2.1032707E-01;6767;  2.0762898E-02;  0.0000000E+00;  9.0069562E-04;  9.9896509E+02;  1.1593702E-01; -8.5740778E+02;3; -4.7033501E+00;  0.0000000E+00;  3.7229652E+00;0; -3.4909945E-02;  2.9745164E+04;  0.0000000E+00;  5.6433642E-01;  4.0000000E+04;  0.0000000E+00;  3.9906234E+04; -3.8956594E-02;  0.0000000E+00;  4.0466501E-03;  1.1518333E+03;
  7.0489943E-01;  9.9999998E-03;  2.2031653E-01;6768;  2.0488214E-02;  0.0000000E+00;  8.9097407E-04;  9.9876166E+02;  1.1598000E-01; -1.0259462E+03;3; -4.6545544E+00;  0.0000000E+00;  3.7846892E+00;0; -3.4424230E-02;  2.9715072E+04;  0.0000000E+00;  4.7561923E-01;  4.0000000E+04;  0.0000000E+00;  3.9904227E+04; -3.8730554E-02;  0.0000000E+00;  4.3063220E-03;  8.6483557E+02;
  7.0504862E-01;  9.9999998E-03;  2.3028596E-01;6769;  2.0221198E-02;  0.0000000E+00;  9.3129184E-04;  9.9863672E+02;  1.1602523E-01; -1.1294495E+03;3; -4.6211462E+00;  0.0000000E+00;  3.8780210E+00;0; -3.4021363E-02;  2.9684209E+04;  0.0000000E+00;  2.5415841E-01;  4.0000000E+04;  0.0000000E+00;  3.9907887E+04; -3.8533680E-02;  0.0000000E+00;  4.5123193E-03;  1.2332915E+03;
  7.1751267E-01;  9.9999998E-03;  7.0223369E-02;6814;  2.4893487E-02;  0.0000000E+00;  7.5454387E-04;  9.9790088E+02;  1.1930912E-01; -1.7390618E+03;3; -6.8632460E+00;  0.0000000E+00;  2.0357916E+00;0; -4.0994070E-02;  2.8037305E+04;  0.0000000E+00;  2.0779842E-01;  4.0000000E+04;  0.0000000E+00;  3.9890566E+04; -4.8992123E-02;  0.0000000E+00;  7.9980530E-03;  1.5717938E+03;
  7.1749741E-01;  9.9999998E-03;  8.0243222E-02;6815;  2.4615988E-02;  0.0000000E+00;  8.2378200E-04;  9.9800690E+02;  1.1931010E-01; -1.6512618E+03;3; -6.7420731E+00;  0.0000000E+00;  2.2436488E+00;0; -4.1326888E-02;  2.8041855E+04;  0.0000000E+00;  2.6395404E-01;  4.0000000E+04;  0.0000000E+00;  3.9890191E+04; -4.8617776E-02;  0.0000000E+00;  7.2908900E-03;  1.5519960E+03;
  7.1746784E-01;  9.9999998E-03;  9.0261206E-02;6816;  2.4312342E-02;  0.0000000E+00;  8.8190346E-04;  9.9815070E+02;  1.1931022E-01; -1.5321047E+03;3; -6.6077247E+00;  0.0000000E+00;  2.4373765E+00;0; -4.1619718E-02;  2.8049738E+04;  0.0000000E+00;  3.2167983E-01;  4.0000000E+04;  0.0000000E+00;  3.9889605E+04; -4.8205096E-02;  0.0000000E+00;  6.5853773E-03;  1.5036124E+03;
  7.1742338E-01;  9.9999998E-03;  1.0027785E-01;6817;  2.3986476E-02;  0.0000000E+00;  9.2905248E-04;  9.9833661E+02;  1.1931024E-01; -1.3780844E+03;3; -6.4628038E+00;  0.0000000E+00;  2.6057582E+00;0; -4.1849490E-02;  2.8060557E+04;  0.0000000E+00;  3.7861067E-01;  4.0000000E+04;  0.0000000E+00;  3.9888805E+04; -4.7760069E-02;  0.0000000E+00;  5.9105791E-03;  1.4426831E+03;
  7.1736550E-01;  9.9999998E-03;  1.1029340E-01;6818;  2.3642801E-02;  0.0000000E+00;  9.6766703E-04;  9.9855334E+02;  1.1930890E-01; -1.1985339E+03;3; -6.3057785E+00;  0.0000000E+00;  2.7618313E+00;0; -4.1994765E-02;  2.8073473E+04;  0.0000000E+00;  4.3264481E-01;  4.0000000E+04;  0.0000000E+00;  3.9887840E+04; -4.7289748E-02;  0.0000000E+00;  5.2949828E-03;  1.3867974E+03;
  7.1729654E-01;  9.9999998E-03;  1.2030787E-01;6819;  2.3285769E-02;  0.0000000E+00;  9.9931052E-04;  9.9878296E+02;  1.1930835E-01; -1.0083171E+03;3; -6.1407151E+00;  0.0000000E+00;  2.9004006E+00;0; -4.2036317E-02;  2.8087428E+04;  0.0000000E+00;  4.8245269E-01;  4.0000000E+04;  0.0000000E+00;  3.9887219E+04; -4.6801515E-02;  0.0000000E+00;  4.7651990E-03;  1.3504150E+03;
  7.1722263E-01;  9.9999998E-03;  1.3032095E-01;6820;  2.2920227E-02;  0.0000000E+00;  1.0277621E-03;  9.9900354E+02;  1.1930798E-01; -8.2555682E+02;3; -5.9715796E+00;  0.0000000E+00;  3.0326595E+00;0; -4.1958466E-02;  2.8100705E+04;  0.0000000E+00;  5.2794254E-01;  4.0000000E+04;  0.0000000E+00;  3.9887047E+04; -4.6303537E-02;  0.0000000E+00;  4.3450687E-03;  1.3431305E+03;
  7.1715224E-01;  9.9999998E-03;  1.4033283E-01;6821;  2.2551557E-02;  0.0000000E+00;  1.0547934E-03;  9.9920538E+02;  1.1931024E-01; -6.5830231E+02;3; -5.8013639E+00;  0.0000000E+00;  3.1598876E+00;0; -4.1749611E-02;  2.8111686E+04;  0.0000000E+00;  5.7010818E-01;  4.0000000E+04;  0.0000000E+00;  3.9887168E+04; -4.5803443E-02;  0.0000000E+00;  4.0538292E-03;  1.3710845E+03;
  7.1709436E-01;  9.9999998E-03;  1.5034398E-01;6822;  2.2184629E-02;  0.0000000E+00;  1.0835452E-03;  9.9936761E+02;  1.1931631E-01; -5.2393573E+02;3; -5.6331758E+00;  0.0000000E+00;  3.2779522E+00;0; -4.1403983E-02;  2.8118539E+04;  0.0000000E+00;  6.1041129E-01;  4.0000000E+04;  0.0000000E+00;  3.9887762E+04; -4.5307688E-02;  0.0000000E+00;  3.9037068E-03;  1.4391439E+03;
  7.1705616E-01;  9.9999998E-03;  1.6035664E-01;6823;  2.1824155E-02;  0.0000000E+00;  1.1167842E-03;  9.9947015E+02;  1.1932792E-01; -4.3895050E+02;3; -5.4695954E+00;  0.0000000E+00;  3.3965843E+00;0; -4.0925521E-02;  2.8119936E+04;  0.0000000E+00;  6.4983380E-01;  4.0000000E+04;  0.0000000E+00;  3.9888590E+04; -4.4821072E-02;  0.0000000E+00;  3.8955503E-03;  1.5442982E+03;
  7.1704215E-01;  9.9999998E-03;  1.7037365E-01;6824;  2.1474920E-02;  0.0000000E+00;  1.1548108E-03;  9.9951013E+02;  1.1934406E-01; -4.0586502E+02;3; -5.3173923E+00;  0.0000000E+00;  3.5069501E+00;0; -4.0329430E-02;  2.8115279E+04;  0.0000000E+00;  6.8654817E-01;  4.0000000E+04;  0.0000000E+00;  3.9889629E+04; -4.4346470E-02;  0.0000000E+00;  4.0170415E-03;  1.6631650E+03;
  7.1705753E-01;  9.9999998E-03;  1.8039505E-01;6825;  2.1141140E-02;  0.0000000E+00;  1.1994315E-03;  9.9947839E+02;  1.1936616E-01; -4.3213589E+02;3; -5.1742697E+00;  0.0000000E+00;  3.6176958E+00;0; -3.9640903E-02;  2.8104357E+04;  0.0000000E+00;  7.1641386E-01;  4.0000000E+04;  0.0000000E+00;  3.9890398E+04; -4.3886822E-02;  0.0000000E+00;  4.2459201E-03;  1.7432000E+03;
  7.1710604E-01;  9.9999998E-03;  1.9041875E-01;6826;  2.0825729E-02;  0.0000000E+00;  1.2494612E-03;  9.9937964E+02;  1.1939484E-01; -5.1396075E+02;3; -5.0427775E+00;  0.0000000E+00;  3.7305737E+00;0; -3.8890928E-02;  2.8087396E+04;  0.0000000E+00;  7.3449379E-01;  4.0000000E+04;  0.0000000E+00;  3.9889930E+04; -4.3445148E-02;  0.0000000E+00;  4.5542181E-03;  1.6994275E+03;
  7.1718776E-01;  9.9999998E-03;  2.0043613E-01;6827;  2.0529943E-02;  0.0000000E+00;  1.2954322E-03;  9.9921552E+02;  1.1942969E-01; -6.4990747E+02;3; -4.9315424E+00;  0.0000000E+00;  3.8311412E+00;0; -3.8117256E-02;  2.8065436E+04;  0.0000000E+00;  7.3321193E-01;  4.0000000E+04;  0.0000000E+00;  3.9887395E+04; -4.3023381E-02;  0.0000000E+00;  4.9061254E-03;  1.4511605E+03;
  7.1729082E-01;  9.9999998E-03;  2.1043044E-01;6828;  2.0252805E-02;  0.0000000E+00;  1.3204089E-03;  9.9901154E+02;  1.1946791E-01; -8.1893976E+02;3; -4.8389626E+00;  0.0000000E+00;  3.9261642E+00;0; -3.7383787E-02;  2.8040660E+04;  0.0000000E+00;  6.9605923E-01;  4.0000000E+04;  0.0000000E+00;  3.9883746E+04; -4.2621162E-02;  0.0000000E+00;  5.2373735E-03;  1.0711931E+03;
  7.1740329E-01;  9.9999998E-03;  2.2039036E-01;6829;  1.9987440E-02;  0.0000000E+00;  1.3421763E-03;  9.9885315E+02;  1.1950751E-01; -9.5014587E+02;3; -4.7671885E+00;  0.0000000E+00;  4.0135641E+00;0; -3.6756314E-02;  2.8014939E+04;  0.0000000E+00;  5.8899873E-01;  4.0000000E+04;  0.0000000E+00;  3.9883816E+04; -4.2239554E-02;  0.0000000E+00;  5.4832380E-03;  8.9610101E+02;
  7.1752769E-01;  9.9999998E-03;  2.3035304E-01;6830;  1.9732352E-02;  0.0000000E+00;  1.4246005E-03;  9.9875964E+02;  1.1954949E-01; -1.0276251E+03;3; -4.7157125E+00;  0.0000000E+00;  4.1119208E+00;0; -3.6141682E-02;  2.7989061E+04;  0.0000000E+00;  3.5101810E-01;  4.0000000E+04;  0.0000000E+00;  3.9887844E+04; -4.1879728E-02;  0.0000000E+00;  5.7380460E-03;  1.2635498E+03;
  7.2958559E-01;  9.9999998E-03;  7.0214733E-02;6875;  2.4246732E-02;  0.0000000E+00;  1.0235433E-03;  9.9819830E+02;  1.2296513E-01; -1.4926490E+03;3; -7.1988797E+00;  0.0000000E+00;  2.1362469E+00;0; -4.3501284E-02;  2.6430875E+04;  0.0000000E+00;  3.4018657E-01;  4.0000000E+04;  0.0000000E+00;  3.9870996E+04; -5.4108784E-02;  0.0000000E+00;  1.0607499E-02;  1.7920127E+03;
  7.2957504E-01;  9.9999998E-03;  8.0241024E-02;6876;  2.3975790E-02;  0.0000000E+00;  1.1177834E-03;  9.9828217E+02;  1.2296785E-01; -1.4231696E+03;3; -7.0602140E+00;  0.0000000E+00;  2.3679633E+00;0; -4.3890107E-02;  2.6434420E+04;  0.0000000E+00;  4.2934227E-01;  4.0000000E+04;  0.0000000E+00;  3.9870773E+04; -5.3630739E-02;  0.0000000E+00;  9.7406330E-03;  1.8164426E+03;
  7.2954708E-01;  9.9999998E-03;  9.0266451E-02;6877;  2.3679093E-02;  0.0000000E+00;  1.1960111E-03;  9.9840881E+02;  1.2296876E-01; -1.3182836E+03;3; -6.9094353E+00;  0.0000000E+00;  2.5698876E+00;0; -4.4238124E-02;  2.6441055E+04;  0.0000000E+00;  5.1440245E-01;  4.0000000E+04;  0.0000000E+00;  3.9869820E+04; -5.3108558E-02;  0.0000000E+00;  8.8704340E-03;  1.8204889E+03;
  7.2950214E-01;  9.9999998E-03;  1.0029083E-01;6878;  2.3360223E-02;  0.0000000E+00;  1.2601446E-03;  9.9857355E+02;  1.2296785E-01; -1.1817937E+03;3; -6.7478395E+00;  0.0000000E+00;  2.7538354E+00;0; -4.4519491E-02;  2.6450258E+04;  0.0000000E+00;  5.8786356E-01;  4.0000000E+04;  0.0000000E+00;  3.9868852E+04; -5.2551009E-02;  0.0000000E+00;  8.0315173E-03;  1.8062001E+03;
  7.2943962E-01;  9.9999998E-03;  1.1031371E-01;6879;  2.3023233E-02;  0.0000000E+00;  1.3116184E-03;  9.9876398E+02;  1.2296823E-01; -1.0240204E+03;3; -6.5773973E+00;  0.0000000E+00;  2.9139175E+00;0; -4.4709183E-02;  2.6461314E+04;  0.0000000E+00;  6.4387047E-01;  4.0000000E+04;  0.0000000E+00;  3.9867832E+04; -5.1966492E-02;  0.0000000E+00;  7.2573102E-03;  1.7745005E+03;
  7.2936350E-01;  9.9999998E-03;  1.2033519E-01;6880;  2.2672648E-02;  0.0000000E+00;  1.3537682E-03;  9.9896375E+02;  1.2296773E-01; -8.5849420E+02;3; -6.3974094E+00;  0.0000000E+00;  3.0608039E+00;0; -4.4784568E-02;  2.6473344E+04;  0.0000000E+00;  6.8022847E-01;  4.0000000E+04;  0.0000000E+00;  3.9866941E+04; -5.1364057E-02;  0.0000000E+00;  6.5794885E-03;  1.7276970E+03;
  7.2928321E-01;  9.9999998E-03;  1.3035552E-01;6881;  2.2312714E-02;  0.0000000E+00;  1.3899602E-03;  9.9916339E+02;  1.2296836E-01; -6.9311615E+02;3; -6.2155380E+00;  0.0000000E+00;  3.1972146E+00;0; -4.4727001E-02;  2.6484381E+04;  0.0000000E+00;  6.9930619E-01;  4.0000000E+04;  0.0000000E+00;  3.9866762E+04; -5.0753221E-02;  0.0000000E+00;  6.0262186E-03;  1.6737577E+03;
  7.2920972E-01;  9.9999998E-03;  1.4037463E-01;6882;  2.1948688E-02;  0.0000000E+00;  1.4228917E-03;  9.9933502E+02;  1.2297361E-01; -5.5089795E+02;3; -6.0328765E+00;  0.0000000E+00;  3.3221419E+00;0; -4.4522502E-02;  2.6492475E+04;  0.0000000E+00;  7.0725793E-01;  4.0000000E+04;  0.0000000E+00;  3.9866559E+04; -5.0141919E-02;  0.0000000E+00;  5.6194197E-03;  1.6288120E+03;
  7.2915632E-01;  9.9999998E-03;  1.5039431E-01;6883;  2.1585241E-02;  0.0000000E+00;  1.4569274E-03;  9.9946753E+02;  1.2298520E-01; -4.4112329E+02;3; -5.8509107E+00;  0.0000000E+00;  3.4403424E+00;0; -4.4164378E-02;  2.6495400E+04;  0.0000000E+00;  7.1175659E-01;  4.0000000E+04;  0.0000000E+00;  3.9867199E+04; -4.9536567E-02;  0.0000000E+00;  5.3721899E-03;  1.6151398E+03;
  7.2913510E-01;  9.9999998E-03;  1.6041563E-01;6884;  2.1227118E-02;  0.0000000E+00;  1.4955828E-03;  9.9954077E+02;  1.2300464E-01; -3.8048303E+02;3; -5.6739922E+00;  0.0000000E+00;  3.5629475E+00;0; -4.3656241E-02;  2.6491564E+04;  0.0000000E+00;  7.1844053E-01;  4.0000000E+04;  0.0000000E+00;  3.9867879E+04; -4.8941139E-02;  0.0000000E+00;  5.2848980E-03;  1.6459095E+03;
  7.2915584E-01;  9.9999998E-03;  1.7043950E-01;6885;  2.0879239E-02;  0.0000000E+00;  1.5393776E-03;  9.9955096E+02;  1.2303516E-01; -3.7203882E+02;3; -5.5075631E+00;  0.0000000E+00;  3.6750314E+00;0; -4.3014031E-02;  2.6479850E+04;  0.0000000E+00;  7.2782266E-01;  4.0000000E+04;  0.0000000E+00;  3.9868926E+04; -4.8357334E-02;  0.0000000E+00;  5.3433040E-03;  1.7045123E+03;
  7.2922111E-01;  9.9999998E-03;  1.8046221E-01;6886;  2.0546727E-02;  0.0000000E+00;  1.5913552E-03;  9.9949359E+02;  1.2307692E-01; -4.1954367E+02;3; -5.3516417E+00;  0.0000000E+00;  3.7880707E+00;0; -4.2264234E-02;  2.6460248E+04;  0.0000000E+00;  7.3606759E-01;  4.0000000E+04;  0.0000000E+00;  3.9869332E+04; -4.7785085E-02;  0.0000000E+00;  5.5208500E-03;  1.7358540E+03;
  7.2931916E-01;  9.9999998E-03;  1.9047906E-01;6887;  2.0233583E-02;  0.0000000E+00;  1.6502391E-03;  9.9936279E+02;  1.2312236E-01; -5.2793567E+02;3; -5.2030110E+00;  0.0000000E+00;  3.9070654E+00;0; -4.1437972E-02;  2.6435293E+04;  0.0000000E+00;  7.3618567E-01;  4.0000000E+04;  0.0000000E+00;  3.9868707E+04; -4.7220711E-02;  0.0000000E+00;  5.7827397E-03;  1.6613123E+03;
  7.2942972E-01;  9.9999998E-03;  2.0048341E-01;6888;  1.9941630E-02;  0.0000000E+00;  1.7076439E-03;  9.9917743E+02;  1.2316846E-01; -6.8146216E+02;3; -5.0716553E+00;  0.0000000E+00;  4.0223074E+00;0; -4.0573440E-02;  2.6408357E+04;  0.0000000E+00;  7.1627450E-01;  4.0000000E+04;  0.0000000E+00;  3.9866766E+04; -4.6660144E-02;  0.0000000E+00;  6.0867053E-03;  1.4310646E+03;
  7.2951734E-01;  9.9999998E-03;  2.1045947E-01;6889;  1.9670842E-02;  0.0000000E+00;  1.7581222E-03;  9.9897882E+02;  1.2320583E-01; -8.4605011E+02;3; -4.9636068E+00;  0.0000000E+00;  4.1159310E+00;0; -3.9719962E-02;  2.6384555E+04;  0.0000000E+00;  6.5471601E-01;  4.0000000E+04;  0.0000000E+00;  3.9865430E+04; -4.6098191E-02;  0.0000000E+00;  6.3782283E-03;  1.1967461E+03;
  7.2957933E-01;  9.9999998E-03;  2.2041824E-01;6890;  1.9416155E-02;  0.0000000E+00;  1.8267409E-03;  9.9881561E+02;  1.2323205E-01; -9.8125610E+02;3; -4.8646727E+00;  0.0000000E+00;  4.2224054E+00;0; -3.8904130E-02;  2.6364809E+04;  0.0000000E+00;  5.1341808E-01;  4.0000000E+04;  0.0000000E+00;  3.9867422E+04; -4.5539964E-02;  0.0000000E+00;  6.6358335E-03;  1.3166379E+03;
  7.2962135E-01;  9.9999998E-03;  2.3039550E-01;6891;  1.9176943E-02;  0.0000000E+00;  1.9499426E-03;  9.9869781E+02;  1.2324934E-01; -1.0788336E+03;3; -4.7876987E+00;  0.0000000E+00;  4.3321733E+00;0; -3.8035467E-02;  2.6349389E+04;  0.0000000E+00;  2.3127896E-01;  4.0000000E+04;  0.0000000E+00;  3.9871484E+04; -4.4991054E-02;  0.0000000E+00;  6.9555864E-03;  1.8190532E+03;
  7.4172115E-01;  9.9999998E-03;  7.0198938E-02;6936;  2.3531405E-02;  0.0000000E+00;  1.3099982E-03;  9.9845520E+02;  1.2682469E-01; -1.2798156E+03;3; -7.5444894E+00;  0.0000000E+00;  2.2354391E+00;0; -4.6070896E-02;  2.4874711E+04;  0.0000000E+00;  3.9362898E-01;  4.0000000E+04;  0.0000000E+00;  3.9852125E+04; -5.9404343E-02;  0.0000000E+00;  1.3333449E-02;  2.0830593E+03;
  7.4169010E-01;  9.9999998E-03;  8.0231771E-02;6937;  2.3270411E-02;  0.0000000E+00;  1.4330215E-03;  9.9848254E+02;  1.2682205E-01; -1.2571990E+03;3; -7.3892789E+00;  0.0000000E+00;  2.4764791E+00;0; -4.6497259E-02;  2.4878367E+04;  0.0000000E+00;  4.9554136E-01;  4.0000000E+04;  0.0000000E+00;  3.9851316E+04; -5.8803692E-02;  0.0000000E+00;  1.2306434E-02;  2.1187908E+03;
  7.4164438E-01;  9.9999998E-03;  9.0264507E-02;6938;  2.2983542E-02;  0.0000000E+00;  1.5363659E-03;  9.9854449E+02;  1.2681964E-01; -1.2058424E+03;3; -7.2242322E+00;  0.0000000E+00;  2.6827731E+00;0; -4.6883047E-02;  2.4884129E+04;  0.0000000E+00;  5.8753502E-01;  4.0000000E+04;  0.0000000E+00;  3.9850191E+04; -5.8153495E-02;  0.0000000E+00;  1.1270447E-02;  2.1303201E+03;
  7.4158287E-01;  9.9999998E-03;  1.0029659E-01;6939;  2.2674158E-02;  0.0000000E+00;  1.6214541E-03;  9.9863837E+02;  1.2681700E-01; -1.1280668E+03;3; -7.0442510E+00;  0.0000000E+00;  2.8842652E+00;0; -4.7199253E-02;  2.4891807E+04;  0.0000000E+00;  6.5795612E-01;  4.0000000E+04;  0.0000000E+00;  3.9848816E+04; -5.7463743E-02;  0.0000000E+00;  1.0264491E-02;  2.1059822E+03;
  7.4150932E-01;  9.9999998E-03;  1.1032692E-01;6940;  2.2345385E-02;  0.0000000E+00;  1.6898196E-03;  9.9876624E+02;  1.2681632E-01; -1.0221439E+03;3; -6.8556323E+00;  0.0000000E+00;  3.0607498E+00;0; -4.7418568E-02;  2.4900363E+04;  0.0000000E+00;  6.9834024E-01;  4.0000000E+04;  0.0000000E+00;  3.9847492E+04; -5.6746177E-02;  0.0000000E+00;  9.3276100E-03;  2.0348400E+03;
  7.4143183E-01;  9.9999998E-03;  1.2035588E-01;6941;  2.2001404E-02;  0.0000000E+00;  1.7446778E-03;  9.9889825E+02;  1.2681842E-01; -9.1276422E+02;3; -6.6614704E+00;  0.0000000E+00;  3.2133670E+00;0; -4.7515709E-02;  2.4908004E+04;  0.0000000E+00;  7.0667267E-01;  4.0000000E+04;  0.0000000E+00;  3.9846359E+04; -5.6012120E-02;  0.0000000E+00;  8.4964102E-03;  1.9150389E+03;
  7.4135965E-01;  9.9999998E-03;  1.3038346E-01;6942;  2.1646263E-02;  0.0000000E+00;  1.7909453E-03;  9.9903027E+02;  1.2682627E-01; -8.0338464E+02;3; -6.4648848E+00;  0.0000000E+00;  3.3538051E+00;0; -4.7468387E-02;  2.4913518E+04;  0.0000000E+00;  6.8858385E-01;  4.0000000E+04;  0.0000000E+00;  3.9845367E+04; -5.5270929E-02;  0.0000000E+00;  7.8025409E-03;  1.7598838E+03;
  7.4130225E-01;  9.9999998E-03;  1.4040785E-01;6943;  2.1285350E-02;  0.0000000E+00;  1.8312107E-03;  9.9913971E+02;  1.2684135E-01; -7.1272052E+02;3; -6.2649379E+00;  0.0000000E+00;  3.4890854E+00;0; -4.7259513E-02;  2.4914973E+04;  0.0000000E+00;  6.5582764E-01;  4.0000000E+04;  0.0000000E+00;  3.9844836E+04; -5.4529306E-02;  0.0000000E+00;  7.2697937E-03;  1.5991592E+03;
  7.4126875E-01;  9.9999998E-03;  1.5042663E-01;6944;  2.0923618E-02;  0.0000000E+00;  1.8701145E-03;  9.9921075E+02;  1.2686396E-01; -6.5385797E+02;3; -6.0692854E+00;  0.0000000E+00;  3.6071749E+00;0; -4.6879828E-02;  2.4911094E+04;  0.0000000E+00;  6.2230468E-01;  4.0000000E+04;  0.0000000E+00;  3.9844953E+04; -5.3791042E-02;  0.0000000E+00;  6.9112135E-03;  1.4733015E+03;
  7.4126345E-01;  9.9999998E-03;  1.6044082E-01;6945;  2.0566761E-02;  0.0000000E+00;  1.9111655E-03;  9.9922644E+02;  1.2689367E-01; -6.4087073E+02;3; -5.8778701E+00;  0.0000000E+00;  3.7332027E+00;0; -4.6330128E-02;  2.4901316E+04;  0.0000000E+00;  5.9825253E-01;  4.0000000E+04;  0.0000000E+00;  3.9845477E+04; -5.3055502E-02;  0.0000000E+00;  6.7253741E-03;  1.4134259E+03;
  7.4128485E-01;  9.9999998E-03;  1.7045121E-01;6946;  2.0220293E-02;  0.0000000E+00;  1.9549574E-03;  9.9918329E+02;  1.2692891E-01; -6.7662280E+02;3; -5.6956272E+00;  0.0000000E+00;  3.8406432E+00;0; -4.5624502E-02;  2.4886100E+04;  0.0000000E+00;  5.8670861E-01;  4.0000000E+04;  0.0000000E+00;  3.9846297E+04; -5.2319631E-02;  0.0000000E+00;  6.6951271E-03;  1.4191669E+03;
  7.4133241E-01;  9.9999998E-03;  1.8045728E-01;6947;  1.9889498E-02;  0.0000000E+00;  2.0055985E-03;  9.9906732E+02;  1.2696859E-01; -7.7271881E+02;3; -5.5239611E+00;  0.0000000E+00;  3.9545288E+00;0; -4.4791035E-02;  2.4865852E+04;  0.0000000E+00;  5.8279812E-01;  4.0000000E+04;  0.0000000E+00;  3.9846848E+04; -5.1581681E-02;  0.0000000E+00;  6.7906464E-03;  1.4556050E+03;
  7.4140733E-01;  9.9999998E-03;  1.9045831E-01;6948;  1.9577736E-02;  0.0000000E+00;  2.0621843E-03;  9.9890625E+02;  1.2701222E-01; -9.0614716E+02;3; -5.3580332E+00;  0.0000000E+00;  4.0696435E+00;0; -4.3868586E-02;  2.4841596E+04;  0.0000000E+00;  5.7481068E-01;  4.0000000E+04;  0.0000000E+00;  3.9847391E+04; -5.0842173E-02;  0.0000000E+00;  6.9735874E-03;  1.4801035E+03;
  7.4147093E-01;  9.9999998E-03;  2.0044135E-01;6949;  1.9288911E-02;  0.0000000E+00;  2.1237256E-03;  9.9871423E+02;  1.2704656E-01; -1.0652538E+03;3; -5.2071700E+00;  0.0000000E+00;  4.1830235E+00;0; -4.2896688E-02;  2.4818633E+04;  0.0000000E+00;  5.4583937E-01;  4.0000000E+04;  0.0000000E+00;  3.9848309E+04; -5.0093908E-02;  0.0000000E+00;  7.1972203E-03;  1.5565649E+03;
  7.4151248E-01;  9.9999998E-03;  2.1041231E-01;6950;  1.9022828E-02;  0.0000000E+00;  2.2028040E-03;  9.9852209E+02;  1.2706946E-01; -1.2244097E+03;3; -5.0782313E+00;  0.0000000E+00;  4.2840633E+00;0; -4.1910298E-02;  2.4798803E+04;  0.0000000E+00;  4.7346449E-01;  4.0000000E+04;  0.0000000E+00;  3.9851070E+04; -4.9339868E-02;  0.0000000E+00;  7.4295709E-03;  1.8926488E+03;
  7.4154365E-01;  9.9999998E-03;  2.2039439E-01;6951;  1.8777210E-02;  0.0000000E+00;  2.3331160E-03;  9.9836755E+02;  1.2708716E-01; -1.3524554E+03;3; -4.9502244E+00;  0.0000000E+00;  4.4147644E+00;0; -4.0878188E-02;  2.4781455E+04;  0.0000000E+00;  3.3058128E-01;  4.0000000E+04;  0.0000000E+00;  3.9856504E+04; -4.8589479E-02;  0.0000000E+00;  7.7112918E-03;  2.5597329E+03;
  7.4155170E-01;  9.9999998E-03;  2.3040704E-01;6952;  1.8552311E-02;  0.0000000E+00;  2.5053802E-03;  9.9820245E+02;  1.2709424E-01; -1.4892417E+03;3; -4.8438921E+00;  0.0000000E+00;  4.5363283E+00;0; -3.9719429E-02;  2.4768287E+04;  0.0000000E+00;  8.6030066E-02;  4.0000000E+04;  0.0000000E+00;  3.9860172E+04; -4.7846731E-02;  0.0000000E+00;  8.1273010E-03;  3.0974370E+03;
  7.5466895E-01;  9.9999998E-03;  7.0209377E-02;6997;  2.2711311E-02;  0.0000000E+00;  1.6165560E-03;  9.9874323E+02;  1.3109747E-01; -1.0412051E+03;3; -7.9247341E+00;  0.0000000E+00;  2.3137124E+00;0; -4.8943125E-02;  2.3304189E+04;  0.0000000E+00;  3.5055503E-01;  4.0000000E+04;  0.0000000E+00;  3.9831547E+04; -6.5261133E-02;  0.0000000E+00;  1.6318008E-02;  2.3444509E+03;
  7.5464654E-01;  9.9999998E-03;  8.0244981E-02;6998;  2.2461539E-02;  0.0000000E+00;  1.7763493E-03;  9.9870905E+02;  1.3109778E-01; -1.0695499E+03;3; -7.7501659E+00;  0.0000000E+00;  2.5761497E+00;0; -4.9395815E-02;  2.3305170E+04;  0.0000000E+00;  4.4107530E-01;  4.0000000E+04;  0.0000000E+00;  3.9830605E+04; -6.4536467E-02;  0.0000000E+00;  1.5140653E-02;  2.3413440E+03;
  7.5458735E-01;  9.9999998E-03;  9.0283349E-02;6999;  2.2187231E-02;  0.0000000E+00;  1.9116395E-03;  9.9869055E+02;  1.3109300E-01; -1.0848582E+03;3; -7.5629067E+00;  0.0000000E+00;  2.8000386E+00;0; -4.9801596E-02;  2.3309328E+04;  0.0000000E+00;  5.1744771E-01;  4.0000000E+04;  0.0000000E+00;  3.9829340E+04; -6.3740537E-02;  0.0000000E+00;  1.3938941E-02;  2.2973269E+03;
  7.5449711E-01;  9.9999998E-03;  1.0032071E-01;7000;  2.1890175E-02;  0.0000000E+00;  2.0241751E-03;  9.9868994E+02;  1.3108547E-01; -1.0853519E+03;3; -7.3663192E+00;  0.0000000E+00;  3.0060744E+00;0; -5.0130483E-02;  2.3315734E+04;  0.0000000E+00;  5.6568754E-01;  4.0000000E+04;  0.0000000E+00;  3.9827500E+04; -6.2889032E-02;  0.0000000E+00;  1.2758548E-02;  2.1954661E+03;
  7.5438750E-01;  9.9999998E-03;  1.1035088E-01;7001;  2.1573320E-02;  0.0000000E+00;  2.1155174E-03;  9.9871112E+02;  1.3107891E-01; -1.0678215E+03;3; -7.1569200E+00;  0.0000000E+00;  3.1983633E+00;0; -5.0353404E-02;  2.3323006E+04;  0.0000000E+00;  5.7620233E-01;  4.0000000E+04;  0.0000000E+00;  3.9825598E+04; -6.1998870E-02;  0.0000000E+00;  1.1645466E-02;  2.0236576E+03;
  7.5426573E-01;  9.9999998E-03;  1.2037200E-01;7002;  2.1240143E-02;  0.0000000E+00;  2.1878853E-03;  9.9874377E+02;  1.3107409E-01; -1.0407606E+03;3; -6.9435415E+00;  0.0000000E+00;  3.3678474E+00;0; -5.0441422E-02;  2.3329967E+04;  0.0000000E+00;  5.4831868E-01;  4.0000000E+04;  0.0000000E+00;  3.9823812E+04; -6.1082415E-02;  0.0000000E+00;  1.0640996E-02;  1.7838295E+03;
  7.5414300E-01;  9.9999998E-03;  1.3038875E-01;7003;  2.0894622E-02;  0.0000000E+00;  2.2454963E-03;  9.9877722E+02;  1.3107230E-01; -1.0130577E+03;3; -6.7265429E+00;  0.0000000E+00;  3.5128412E+00;0; -5.0369687E-02;  2.3335502E+04;  0.0000000E+00;  4.9157342E-01;  4.0000000E+04;  0.0000000E+00;  3.9822531E+04; -6.0150087E-02;  0.0000000E+00;  9.7803986E-03;  1.4994255E+03;
  7.5403339E-01;  9.9999998E-03;  1.4040278E-01;7004;  2.0541200E-02;  0.0000000E+00;  2.2941576E-03;  9.9879425E+02;  1.3107625E-01; -9.9893463E+02;3; -6.5106730E+00;  0.0000000E+00;  3.6496384E+00;0; -5.0119720E-02;  2.3337908E+04;  0.0000000E+00;  4.2315882E-01;  4.0000000E+04;  0.0000000E+00;  3.9821359E+04; -5.9210174E-02;  0.0000000E+00;  9.0904515E-03;  1.2160068E+03;
  7.5394899E-01;  9.9999998E-03;  1.5041313E-01;7005;  2.0185528E-02;  0.0000000E+00;  2.3376562E-03;  9.9878253E+02;  1.3108575E-01; -1.0086628E+03;3; -6.2961240E+00;  0.0000000E+00;  3.7773931E+00;0; -4.9681757E-02;  2.3335975E+04;  0.0000000E+00;  3.6239976E-01;  4.0000000E+04;  0.0000000E+00;  3.9821016E+04; -5.8267180E-02;  0.0000000E+00;  8.5854223E-03;  9.9444336E+02;
  7.5393134E-01;  9.9999998E-03;  1.6041821E-01;7006;  1.9831067E-02;  0.0000000E+00;  2.3815134E-03;  9.9874133E+02;  1.3111444E-01; -1.0427853E+03;3; -6.0882211E+00;  0.0000000E+00;  3.8985896E+00;0; -4.9063969E-02;  2.3325674E+04;  0.0000000E+00;  3.2258758E-01;  4.0000000E+04;  0.0000000E+00;  3.9821164E+04; -5.7332668E-02;  0.0000000E+00;  8.2687000E-03;  8.8705573E+02;
  7.5399691E-01;  9.9999998E-03;  1.7041568E-01;7007;  1.9482946E-02;  0.0000000E+00;  2.4276548E-03;  9.9866248E+02;  1.3116385E-01; -1.1081167E+03;3; -5.8868618E+00;  0.0000000E+00;  4.0109844E+00;0; -4.8283890E-02;  2.3305570E+04;  0.0000000E+00;  3.0766964E-01;  4.0000000E+04;  0.0000000E+00;  3.9821617E+04; -5.6407265E-02;  0.0000000E+00;  8.1233755E-03;  9.0657684E+02;
  7.5410634E-01;  9.9999998E-03;  1.8040805E-01;7008;  1.9148350E-02;  0.0000000E+00;  2.4794373E-03;  9.9853735E+02;  1.3122156E-01; -1.2117681E+03;3; -5.6928468E+00;  0.0000000E+00;  4.1296244E+00;0; -4.7362216E-02;  2.3279588E+04;  0.0000000E+00;  3.1099048E-01;  4.0000000E+04;  0.0000000E+00;  3.9822355E+04; -5.5474557E-02;  0.0000000E+00;  8.1123430E-03;  1.0350574E+03;
  7.5424105E-01;  9.9999998E-03;  1.9039676E-01;7009;  1.8831460E-02;  0.0000000E+00;  2.5349534E-03;  9.9837946E+02;  1.3128249E-01; -1.3425792E+03;3; -5.5116906E+00;  0.0000000E+00;  4.2329087E+00;0; -4.6338182E-02;  2.3249799E+04;  0.0000000E+00;  3.1536373E-01;  4.0000000E+04;  0.0000000E+00;  3.9824027E+04; -5.4529630E-02;  0.0000000E+00;  8.1914477E-03;  1.2836543E+03;
  7.5437617E-01;  9.9999998E-03;  2.0038010E-01;7010;  1.8537056E-02;  0.0000000E+00;  2.6033260E-03;  9.9819910E+02;  1.3133937E-01; -1.4920071E+03;3; -5.3375568E+00;  0.0000000E+00;  4.3501239E+00;0; -4.5256760E-02;  2.3219463E+04;  0.0000000E+00;  2.9853061E-01;  4.0000000E+04;  0.0000000E+00;  3.9827492E+04; -5.3570889E-02;  0.0000000E+00;  8.3141280E-03;  1.7565671E+03;
  7.5449610E-01;  9.9999998E-03;  2.1037142E-01;7011;  1.8267190E-02;  0.0000000E+00;  2.7050748E-03;  9.9803235E+02;  1.3138728E-01; -1.6301760E+03;3; -5.1830616E+00;  0.0000000E+00;  4.4574790E+00;0; -4.4142921E-02;  2.3190609E+04;  0.0000000E+00;  2.4003279E-01;  4.0000000E+04;  0.0000000E+00;  3.9833344E+04; -5.2601829E-02;  0.0000000E+00;  8.4589086E-03;  2.5473408E+03;
  7.5460124E-01;  9.9999998E-03;  2.2038682E-01;7012;  1.8023539E-02;  0.0000000E+00;  2.8730300E-03;  9.9787457E+02;  1.3142803E-01; -1.7608883E+03;3; -5.0289154E+00;  0.0000000E+00;  4.5898929E+00;0; -4.2939339E-02;  2.3164385E+04;  0.0000000E+00;  1.2952924E-01;  4.0000000E+04;  0.0000000E+00;  3.9840121E+04; -5.1632449E-02;  0.0000000E+00;  8.6931111E-03;  3.4885293E+03;
  7.5468218E-01;  9.9999998E-03;  2.3043090E-01;7013;  1.7806191E-02;  0.0000000E+00;  3.0803566E-03;  9.9767786E+02;  1.3145682E-01; -1.9238467E+03;3; -4.8877954E+00;  0.0000000E+00;  4.7186689E+00;0; -4.1563883E-02;  2.3142381E+04;  0.0000000E+00; -2.2057744E-02;  4.0000000E+04;  0.0000000E+00;  3.9843926E+04; -5.0672527E-02;  0.0000000E+00;  9.1086421E-03;  4.0233313E+03;
  7.6878589E-01;  9.9999998E-03;  7.0063472E-02;7058;  2.1757983E-02;  0.0000000E+00;  1.9290491E-03;  9.9926080E+02;  1.3597657E-01; -6.1242706E+02;3; -8.3441916E+00;  0.0000000E+00;  2.3743091E+00;0; -5.2350640E-02;  2.1691826E+04;  0.0000000E+00;  1.9448352E-01;  4.0000000E+04;  0.0000000E+00;  3.9809426E+04; -7.1978346E-02;  0.0000000E+00;  1.9627703E-02;  2.5420676E+03;
  7.6869375E-01;  9.9999998E-03;  8.0085643E-02;7059;  2.1528684E-02;  0.0000000E+00;  2.1309874E-03;  9.9916565E+02;  1.3596080E-01; -6.9123969E+02;3; -8.1507349E+00;  0.0000000E+00;  2.6542816E+00;0; -5.2785486E-02;  2.1697262E+04;  0.0000000E+00;  2.4720336E-01;  4.0000000E+04;  0.0000000E+00;  3.9808426E+04; -7.1078509E-02;  0.0000000E+00;  1.8293025E-02;  2.4658486E+03;
  7.6855987E-01;  9.9999998E-03;  9.0112865E-02;7060;  2.1275153E-02;  0.0000000E+00;  2.3052848E-03;  9.9906946E+02;  1.3593656E-01; -7.7094110E+02;3; -7.9397440E+00;  0.0000000E+00;  2.9036915E+00;0; -5.3169511E-02;  2.1705607E+04;  0.0000000E+00;  2.8653935E-01;  4.0000000E+04;  0.0000000E+00;  3.9806898E+04; -7.0088163E-02;  0.0000000E+00;  1.6918654E-02;  2.3184065E+03;
  7.6838231E-01;  9.9999998E-03;  1.0014399E-01;7061;  2.0999037E-02;  0.0000000E+00;  2.4516569E-03;  9.9897888E+02;  1.3590516E-01; -8.4600067E+02;3; -7.7179995E+00;  0.0000000E+00;  3.1214931E+00;0; -5.3468596E-02;  2.1717055E+04;  0.0000000E+00;  2.9983813E-01;  4.0000000E+04;  0.0000000E+00;  3.9804883E+04; -6.9019891E-02;  0.0000000E+00;  1.5551294E-02;  2.0862168E+03;
  7.6817358E-01;  9.9999998E-03;  1.1018050E-01;7062;  2.0701982E-02;  0.0000000E+00;  2.5718273E-03;  9.9890063E+02;  1.3587196E-01; -9.1078900E+02;3; -7.4877214E+00;  0.0000000E+00;  3.3217878E+00;0; -5.3651091E-02;  2.1730410E+04;  0.0000000E+00;  2.7835196E-01;  4.0000000E+04;  0.0000000E+00;  3.9802449E+04; -6.7891613E-02;  0.0000000E+00;  1.4240522E-02;  1.7702139E+03;
  7.6796144E-01;  9.9999998E-03;  1.2021711E-01;7063;  2.0385804E-02;  0.0000000E+00;  2.6692152E-03;  9.9883905E+02;  1.3584073E-01; -9.6184924E+02;3; -7.2497826E+00;  0.0000000E+00;  3.5074174E+00;0; -5.3689696E-02;  2.1743006E+04;  0.0000000E+00;  2.2196543E-01;  4.0000000E+04;  0.0000000E+00;  3.9800098E+04; -6.6726431E-02;  0.0000000E+00;  1.3036736E-02;  1.3926826E+03;
  7.6780188E-01;  9.9999998E-03;  1.3024896E-01;7064;  2.0051884E-02;  0.0000000E+00;  2.7481862E-03;  9.9879395E+02;  1.3582994E-01; -9.9918152E+02;3; -7.0100946E+00;  0.0000000E+00;  3.6724856E+00;0; -5.3566940E-02;  2.1749699E+04;  0.0000000E+00;  1.4133613E-01;  4.0000000E+04;  0.0000000E+00;  3.9797695E+04; -6.5554336E-02;  0.0000000E+00;  1.1987394E-02;  1.0004950E+03;
  7.6775432E-01;  9.9999998E-03;  1.4027584E-01;7065;  1.9701920E-02;  0.0000000E+00;  2.8161758E-03;  9.9878595E+02;  1.3585638E-01; -1.0057986E+03;3; -6.7709889E+00;  0.0000000E+00;  3.8205678E+00;0; -5.3272042E-02;  2.1745018E+04;  0.0000000E+00;  5.6147151E-02;  4.0000000E+04;  0.0000000E+00;  3.9795895E+04; -6.4399086E-02;  0.0000000E+00;  1.1127044E-02;  6.7490509E+02;
  7.6773530E-01;  9.9999998E-03;  1.5029910E-01;7066;  1.9347396E-02;  0.0000000E+00;  2.8751809E-03;  9.9876532E+02;  1.3588943E-01; -1.0228846E+03;3; -6.5394940E+00;  0.0000000E+00;  3.9474025E+00;0; -5.2770194E-02;  2.1736465E+04;  0.0000000E+00; -8.6577339E-03;  4.0000000E+04;  0.0000000E+00;  3.9794641E+04; -6.3224591E-02;  0.0000000E+00;  1.0454397E-02;  5.3617200E+02;
  7.6772690E-01;  9.9999998E-03;  1.6031861E-01;7067;  1.8996002E-02;  0.0000000E+00;  2.9288179E-03;  9.9871600E+02;  1.3592249E-01; -1.0637723E+03;3; -6.3073912E+00;  0.0000000E+00;  4.0765839E+00;0; -5.2055977E-02;  2.1725584E+04;  0.0000000E+00; -3.6627017E-02;  4.0000000E+04;  0.0000000E+00;  3.9794332E+04; -6.2022600E-02;  0.0000000E+00;  9.9666221E-03;  5.9508679E+02;
  7.6773345E-01;  9.9999998E-03;  1.7033610E-01;7068;  1.8652936E-02;  0.0000000E+00;  2.9805738E-03;  9.9862445E+02;  1.3595586E-01; -1.1396219E+03;3; -6.0797739E+00;  0.0000000E+00;  4.1977806E+00;0; -5.1144999E-02;  2.1711768E+04;  0.0000000E+00; -2.4744501E-02;  4.0000000E+04;  0.0000000E+00;  3.9794418E+04; -6.0794041E-02;  0.0000000E+00;  9.6490430E-03;  7.2471881E+02;
  7.6781476E-01;  9.9999998E-03;  1.8034440E-01;7069;  1.8320058E-02;  0.0000000E+00;  3.0360224E-03;  9.9851782E+02;  1.3600737E-01; -1.2279652E+03;3; -5.8634725E+00;  0.0000000E+00;  4.3090677E+00;0; -5.0081737E-02;  2.1689979E+04;  0.0000000E+00;  1.4677338E-02;  4.0000000E+04;  0.0000000E+00;  3.9795922E+04; -5.9559476E-02;  0.0000000E+00;  9.4777392E-03;  9.0820831E+02;
  7.6794356E-01;  9.9999998E-03;  1.9034986E-01;7070;  1.8002553E-02;  0.0000000E+00;  3.0992182E-03;  9.9839026E+02;  1.3606787E-01; -1.3336412E+03;3; -5.6559863E+00;  0.0000000E+00;  4.4152818E+00;0; -4.8904534E-02;  2.1663092E+04;  0.0000000E+00;  5.7800602E-02;  4.0000000E+04;  0.0000000E+00;  3.9798449E+04; -5.8312230E-02;  0.0000000E+00;  9.4076963E-03;  1.2491758E+03;
  7.6809323E-01;  9.9999998E-03;  2.0035750E-01;7071;  1.7706729E-02;  0.0000000E+00;  3.1823453E-03;  9.9825568E+02;  1.3612954E-01; -1.4451442E+03;3; -5.4561591E+00;  0.0000000E+00;  4.5315499E+00;0; -4.7656231E-02;  2.1634041E+04;  0.0000000E+00;  7.4879698E-02;  4.0000000E+04;  0.0000000E+00;  3.9803379E+04; -5.7052355E-02;  0.0000000E+00;  9.3961237E-03;  1.8799261E+03;
  7.6825464E-01;  9.9999998E-03;  2.1038574E-01;7072;  1.7435661E-02;  0.0000000E+00;  3.3074664E-03;  9.9812823E+02;  1.3618739E-01; -1.5507214E+03;3; -5.2672124E+00;  0.0000000E+00;  4.6460295E+00;0; -4.6354067E-02;  2.1604324E+04;  0.0000000E+00;  4.1625153E-02;  4.0000000E+04;  0.0000000E+00;  3.9809832E+04; -5.5787720E-02;  0.0000000E+00;  9.4336541E-03;  2.7435339E+03;
  7.6842290E-01;  9.9999998E-03;  2.2043955E-01;7073;  1.7193243E-02;  0.0000000E+00;  3.4880363E-03;  9.9797601E+02;  1.3624454E-01; -1.6768413E+03;3; -5.0872521E+00;  0.0000000E+00;  4.7637496E+00;0; -4.4952914E-02;  2.1574871E+04;  0.0000000E+00; -4.9052075E-02;  4.0000000E+04;  0.0000000E+00;  3.9815340E+04; -5.4531842E-02;  0.0000000E+00;  9.5789274E-03;  3.5059041E+03;
  7.6854020E-01;  9.9999998E-03;  2.3050544E-01;7074;  1.6981810E-02;  0.0000000E+00;  3.6745197E-03;  9.9776794E+02;  1.3628069E-01; -1.8492316E+03;3; -4.9137340E+00;  0.0000000E+00;  4.8718910E+00;0; -4.3446973E-02;  2.1551314E+04;  0.0000000E+00; -1.7001989E-01;  4.0000000E+04;  0.0000000E+00;  3.9816996E+04; -5.3291533E-02;  0.0000000E+00;  9.8445592E-03;  3.7852095E+03;
  7.8249204E-01;  9.9999998E-03;  7.0032686E-02;7119;  2.0746676E-02;  0.0000000E+00;  2.1959443E-03;  9.9964575E+02;  1.4106424E-01; -2.9347314E+02;3; -8.7577028E+00;  0.0000000E+00;  2.4322238E+00;0; -5.6063071E-02;  2.0177133E+04;  0.0000000E+00; -1.7553546E-02;  4.0000000E+04;  0.0000000E+00;  3.9785727E+04; -7.8857981E-02;  0.0000000E+00;  2.2794912E-02;  2.6168687E+03;
  7.8247333E-01;  9.9999998E-03;  8.0024578E-02;7120;  2.0531349E-02;  0.0000000E+00;  2.4429935E-03;  9.9958179E+02;  1.4106974E-01; -3.4645932E+02;3; -8.5521345E+00;  0.0000000E+00;  2.7135880E+00;0; -5.6494288E-02;  2.0177971E+04;  0.0000000E+00; -1.8776314E-02;  4.0000000E+04;  0.0000000E+00;  3.9785316E+04; -7.7855244E-02;  0.0000000E+00;  2.1360956E-02;  2.5390986E+03;
  7.8252840E-01;  9.9999998E-03;  9.0024531E-02;7121;  2.0284742E-02;  0.0000000E+00;  2.6659793E-03;  9.9954279E+02;  1.4110643E-01; -3.7880408E+02;3; -8.3226719E+00;  0.0000000E+00;  2.9890530E+00;0; -5.6901354E-02;  2.0171379E+04;  0.0000000E+00; -3.1720251E-02;  4.0000000E+04;  0.0000000E+00;  3.9783609E+04; -7.6794051E-02;  0.0000000E+00;  1.9892696E-02;  2.3630872E+03;
  7.8257084E-01;  9.9999998E-03;  1.0003980E-01;7122;  2.0013727E-02;  0.0000000E+00;  2.8613973E-03;  9.9951160E+02;  1.4114805E-01; -4.0463049E+02;3; -8.0794954E+00;  0.0000000E+00;  3.2315485E+00;0; -5.7223529E-02;  2.0164875E+04;  0.0000000E+00; -6.2778190E-02;  4.0000000E+04;  0.0000000E+00;  3.9781324E+04; -7.5638905E-02;  0.0000000E+00;  1.8415378E-02;  2.0756394E+03;
  7.8255421E-01;  9.9999998E-03;  1.1007220E-01;7123;  1.9722957E-02;  0.0000000E+00;  3.0275153E-03;  9.9947382E+02;  1.4117557E-01; -4.3593826E+02;3; -7.8315229E+00;  0.0000000E+00;  3.4396319E+00;0; -5.7409711E-02;  2.0162238E+04;  0.0000000E+00; -1.1538044E-01;  4.0000000E+04;  0.0000000E+00;  3.9778199E+04; -7.4377209E-02;  0.0000000E+00;  1.6967500E-02;  1.7027833E+03;
  7.8249514E-01;  9.9999998E-03;  1.2011611E-01;7124;  1.9414444E-02;  0.0000000E+00;  3.1665168E-03;  9.9944128E+02;  1.4119343E-01; -4.6290045E+02;3; -7.5770516E+00;  0.0000000E+00;  3.6268466E+00;0; -5.7426535E-02;  2.0162562E+04;  0.0000000E+00; -1.8707089E-01;  4.0000000E+04;  0.0000000E+00;  3.9775223E+04; -7.3027819E-02;  0.0000000E+00;  1.5601285E-02;  1.3204272E+03;
  7.8241664E-01;  9.9999998E-03;  1.3016140E-01;7125;  1.9091135E-02;  0.0000000E+00;  3.2814532E-03;  9.9942065E+02;  1.4120543E-01; -4.7998639E+02;3; -7.3146372E+00;  0.0000000E+00;  3.8081636E+00;0; -5.7245847E-02;  2.0163875E+04;  0.0000000E+00; -2.6619554E-01;  4.0000000E+04;  0.0000000E+00;  3.9771941E+04; -7.1610518E-02;  0.0000000E+00;  1.4364672E-02;  1.0504067E+03;
  7.8233856E-01;  9.9999998E-03;  1.4020480E-01;7126;  1.8756805E-02;  0.0000000E+00;  3.3768888E-03;  9.9940735E+02;  1.4121808E-01; -4.9099841E+02;3; -7.0485897E+00;  0.0000000E+00;  3.9734342E+00;0; -5.6846496E-02;  2.0164320E+04;  0.0000000E+00; -3.3364034E-01;  4.0000000E+04;  0.0000000E+00;  3.9769000E+04; -7.0139244E-02;  0.0000000E+00;  1.3292749E-02;  9.9438544E+02;
  7.8226876E-01;  9.9999998E-03;  1.5024242E-01;7127;  1.8417412E-02;  0.0000000E+00;  3.4572561E-03;  9.9938464E+02;  1.4123148E-01; -5.0981271E+02;3; -6.7860355E+00;  0.0000000E+00;  4.1178284E+00;0; -5.6216870E-02;  2.0162936E+04;  0.0000000E+00; -3.6864793E-01;  4.0000000E+04;  0.0000000E+00;  3.9767160E+04; -6.8620481E-02;  0.0000000E+00;  1.2403611E-02;  1.0842603E+03;
  7.8221649E-01;  9.9999998E-03;  1.6027428E-01;7128;  1.8078731E-02;  0.0000000E+00;  3.5295095E-03;  9.9934943E+02;  1.4124838E-01; -5.3899707E+02;3; -6.5279369E+00;  0.0000000E+00;  4.2487683E+00;0; -5.5358242E-02;  2.0158590E+04;  0.0000000E+00; -3.5672292E-01;  4.0000000E+04;  0.0000000E+00;  3.9765996E+04; -6.7058757E-02;  0.0000000E+00;  1.1700515E-02;  1.1649340E+03;
  7.8219783E-01;  9.9999998E-03;  1.7030914E-01;7129;  1.7745610E-02;  0.0000000E+00;  3.5992921E-03;  9.9929883E+02;  1.4127026E-01; -5.8092181E+02;3; -6.2730398E+00;  0.0000000E+00;  4.3727102E+00;0; -5.4288272E-02;  2.0149887E+04;  0.0000000E+00; -2.9652092E-01;  4.0000000E+04;  0.0000000E+00;  3.9766070E+04; -6.5460779E-02;  0.0000000E+00;  1.1172508E-02;  1.1626865E+03;
  7.8223300E-01;  9.9999998E-03;  1.8034822E-01;7130;  1.7422248E-02;  0.0000000E+00;  3.6729430E-03;  9.9922821E+02;  1.4130592E-01; -6.3938928E+02;3; -6.0217199E+00;  0.0000000E+00;  4.4993372E+00;0; -5.3041898E-02;  2.0135365E+04;  0.0000000E+00; -2.0306087E-01;  4.0000000E+04;  0.0000000E+00;  3.9767676E+04; -6.3837603E-02;  0.0000000E+00;  1.0795703E-02;  1.1227798E+03;
  7.8234661E-01;  9.9999998E-03;  1.9038710E-01;7131;  1.7111797E-02;  0.0000000E+00;  3.7584319E-03;  9.9915601E+02;  1.4135993E-01; -6.9923944E+02;3; -5.7840724E+00;  0.0000000E+00;  4.6109838E+00;0; -5.1667627E-02;  2.0113217E+04;  0.0000000E+00; -1.0542663E-01;  4.0000000E+04;  0.0000000E+00;  3.9770480E+04; -6.2205009E-02;  0.0000000E+00;  1.0537381E-02;  1.2238436E+03;
  7.8253001E-01;  9.9999998E-03;  2.0042795E-01;7132;  1.6819805E-02;  0.0000000E+00;  3.8691813E-03;  9.9908423E+02;  1.4143266E-01; -7.5869452E+02;3; -5.5483098E+00;  0.0000000E+00;  4.7321410E+00;0; -5.0204773E-02;  2.0084613E+04;  0.0000000E+00; -3.9268911E-02;  4.0000000E+04;  0.0000000E+00;  3.9775035E+04; -6.0571734E-02;  0.0000000E+00;  1.0366960E-02;  1.6513922E+03;
  7.8276736E-01;  9.9999998E-03;  2.1049149E-01;7133;  1.6551483E-02;  0.0000000E+00;  4.0209293E-03;  9.9899695E+02;  1.4151636E-01; -8.3098877E+02;3; -5.3180676E+00;  0.0000000E+00;  4.8460236E+00;0; -4.8658632E-02;  2.0051482E+04;  0.0000000E+00; -3.6404409E-02;  4.0000000E+04;  0.0000000E+00;  3.9779121E+04; -5.8946669E-02;  0.0000000E+00;  1.0288036E-02;  2.1983867E+03;
  7.8301299E-01;  9.9999998E-03;  2.2057380E-01;7134;  1.6311729E-02;  0.0000000E+00;  4.1845236E-03;  9.9885327E+02;  1.4160019E-01; -9.5004712E+02;3; -5.1079745E+00;  0.0000000E+00;  4.9356894E+00;0; -4.7033586E-02;  2.0018129E+04;  0.0000000E+00; -1.1334085E-01;  4.0000000E+04;  0.0000000E+00;  3.9779711E+04; -5.7340447E-02;  0.0000000E+00;  1.0306862E-02;  2.3825925E+03;
  7.8319657E-01;  9.9999998E-03;  2.3063999E-01;7135;  1.6105112E-02;  0.0000000E+00;  4.3068929E-03;  9.9864532E+02;  1.4166120E-01; -1.1223385E+03;3; -4.9132142E+00;  0.0000000E+00;  4.9978352E+00;0; -4.5441289E-02;  1.9990426E+04;  0.0000000E+00; -2.5649273E-01;  4.0000000E+04;  0.0000000E+00;  3.9777918E+04; -5.5768155E-02;  0.0000000E+00;  1.0326865E-02;  2.2929551E+03;
  7.9669684E-01;  9.9999998E-03;  7.0130982E-02;7180;  1.9596074E-02;  0.0000000E+00;  2.4279484E-03;  9.9959033E+02;  1.4666586E-01; -3.3939780E+02;3; -9.1861897E+00;  0.0000000E+00;  2.4882228E+00;0; -6.0436599E-02;  1.8673695E+04;  0.0000000E+00; -2.3943259E-01;  4.0000000E+04;  0.0000000E+00;  3.9758867E+04; -8.6384051E-02;  0.0000000E+00;  2.5947450E-02;  2.6512068E+03;
  7.9672593E-01;  9.9999998E-03;  8.0120079E-02;7181;  1.9397307E-02;  0.0000000E+00;  2.7169236E-03;  9.9961401E+02;  1.4669745E-01; -3.1979340E+02;3; -8.9589739E+00;  0.0000000E+00;  2.7837863E+00;0; -6.0849536E-02;  1.8671246E+04;  0.0000000E+00; -2.9526266E-01;  4.0000000E+04;  0.0000000E+00;  3.9758645E+04; -8.5257247E-02;  0.0000000E+00;  2.4407711E-02;  2.6831191E+03;
  7.9675484E-01;  9.9999998E-03;  9.0110518E-02;7182;  1.9174222E-02;  0.0000000E+00;  2.9847694E-03;  9.9964362E+02;  1.4673124E-01; -2.9525089E+02;3; -8.7156906E+00;  0.0000000E+00;  3.0565197E+00;0; -6.1207578E-02;  1.8668898E+04;  0.0000000E+00; -3.5390213E-01;  4.0000000E+04;  0.0000000E+00;  3.9757988E+04; -8.4007718E-02;  0.0000000E+00;  2.2800138E-02;  2.6309041E+03;
  7.9677653E-01;  9.9999998E-03;  1.0011580E-01;7183;  1.8927356E-02;  0.0000000E+00;  3.2268530E-03;  9.9968066E+02;  1.4676543E-01; -2.6458508E+02;3; -8.4520617E+00;  0.0000000E+00;  3.3140945E+00;0; -6.1471343E-02;  1.8667035E+04;  0.0000000E+00; -4.1652161E-01;  4.0000000E+04;  0.0000000E+00;  3.9756348E+04; -8.2638294E-02;  0.0000000E+00;  2.1166952E-02;  2.4683779E+03;
  7.9679424E-01;  9.9999998E-03;  1.1014391E-01;7184;  1.8657381E-02;  0.0000000E+00;  3.4390306E-03;  9.9972656E+02;  1.4680076E-01; -2.2656148E+02;3; -8.1740065E+00;  0.0000000E+00;  3.5493159E+00;0; -6.1601117E-02;  1.8665516E+04;  0.0000000E+00; -4.8290497E-01;  4.0000000E+04;  0.0000000E+00;  3.9753238E+04; -8.1156671E-02;  0.0000000E+00;  1.9555552E-02;  2.2250671E+03;
  7.9678655E-01;  9.9999998E-03;  1.2019292E-01;7185;  1.8368114E-02;  0.0000000E+00;  3.6228874E-03;  9.9977832E+02;  1.4682902E-01; -1.8364911E+02;3; -7.8927684E+00;  0.0000000E+00;  3.7543936E+00;0; -6.1548922E-02;  1.8666029E+04;  0.0000000E+00; -5.4834086E-01;  4.0000000E+04;  0.0000000E+00;  3.9749586E+04; -7.9560049E-02;  0.0000000E+00;  1.8011127E-02;  1.9798799E+03;
  7.9673284E-01;  9.9999998E-03;  1.3024798E-01;7186;  1.8065719E-02;  0.0000000E+00;  3.7776039E-03;  9.9982794E+02;  1.4684072E-01; -1.4256386E+02;3; -7.6063685E+00;  0.0000000E+00;  3.9339330E+00;0; -6.1271764E-02;  1.8669889E+04;  0.0000000E+00; -6.0278875E-01;  4.0000000E+04;  0.0000000E+00;  3.9746012E+04; -7.7849388E-02;  0.0000000E+00;  1.6577622E-02;  1.8177297E+03;
  7.9664707E-01;  9.9999998E-03;  1.4029282E-01;7187;  1.7754670E-02;  0.0000000E+00;  3.9083962E-03;  9.9987433E+02;  1.4684093E-01; -1.0409581E+02;3; -7.3170385E+00;  0.0000000E+00;  4.1017470E+00;0; -6.0747635E-02;  1.8675412E+04;  0.0000000E+00; -6.3260949E-01;  4.0000000E+04;  0.0000000E+00;  3.9742918E+04; -7.6042131E-02;  0.0000000E+00;  1.5294496E-02;  1.7563816E+03;
  7.9656440E-01;  9.9999998E-03;  1.5033697E-01;7188;  1.7437661E-02;  0.0000000E+00;  4.0219673E-03;  9.9991107E+02;  1.4684150E-01; -7.3676926E+01;3; -7.0239663E+00;  0.0000000E+00;  4.2586884E+00;0; -5.9974018E-02;  1.8678918E+04;  0.0000000E+00; -6.2416363E-01;  4.0000000E+04;  0.0000000E+00;  3.9740500E+04; -7.4158408E-02;  0.0000000E+00;  1.4184389E-02;  1.7315392E+03;
  7.9652411E-01;  9.9999998E-03;  1.6038869E-01;7189;  1.7118556E-02;  0.0000000E+00;  4.1257027E-03;  9.9994098E+02;  1.4685549E-01; -4.8887501E+01;3; -6.7335043E+00;  0.0000000E+00;  4.4051394E+00;0; -5.8960367E-02;  1.8677293E+04;  0.0000000E+00; -5.6821758E-01;  4.0000000E+04;  0.0000000E+00;  3.9738848E+04; -7.2216168E-02;  0.0000000E+00;  1.3255802E-02;  1.6565220E+03;
  7.9656219E-01;  9.9999998E-03;  1.7044838E-01;7190;  1.6801387E-02;  0.0000000E+00;  4.2287395E-03;  9.9996704E+02;  1.4689325E-01; -2.7307867E+01;3; -6.4480820E+00;  0.0000000E+00;  4.5385942E+00;0; -5.7728924E-02;  1.8666984E+04;  0.0000000E+00; -4.6607801E-01;  4.0000000E+04;  0.0000000E+00;  3.9738492E+04; -7.0232362E-02;  0.0000000E+00;  1.2503437E-02;  1.4821279E+03;
  7.9670292E-01;  9.9999998E-03;  1.8051498E-01;7191;  1.6490895E-02;  0.0000000E+00;  4.3379613E-03;  9.9997852E+02;  1.4696315E-01; -1.7777273E+01;3; -6.1670918E+00;  0.0000000E+00;  4.6662226E+00;0; -5.6313220E-02;  1.8646660E+04;  0.0000000E+00; -3.3332029E-01;  4.0000000E+04;  0.0000000E+00;  3.9739008E+04; -6.8221740E-02;  0.0000000E+00;  1.1908521E-02;  1.2345769E+03;
  7.9695094E-01;  9.9999998E-03;  1.9058727E-01;7192;  1.6192237E-02;  0.0000000E+00;  4.4589704E-03;  9.9997217E+02;  1.4706431E-01; -2.3061075E+01;3; -5.8892989E+00;  0.0000000E+00;  4.7897501E+00;0; -5.4751977E-02;  1.8616578E+04;  0.0000000E+00; -1.9749339E-01;  4.0000000E+04;  0.0000000E+00;  3.9740074E+04; -6.6197172E-02;  0.0000000E+00;  1.1445193E-02;  1.0098978E+03;
  7.9728317E-01;  9.9999998E-03;  2.0065837E-01;7193;  1.5911842E-02;  0.0000000E+00;  4.5948997E-03;  9.9993860E+02;  1.4718816E-01; -5.0862755E+01;3; -5.6097860E+00;  0.0000000E+00;  4.9126697E+00;0; -5.3078614E-02;  1.8579400E+04;  0.0000000E+00; -9.0961501E-02;  4.0000000E+04;  0.0000000E+00;  3.9740594E+04; -6.4171337E-02;  0.0000000E+00;  1.1092724E-02;  8.7574969E+02;
  7.9765993E-01;  9.9999998E-03;  2.1073310E-01;7194;  1.5654892E-02;  0.0000000E+00;  4.7274698E-03;  9.9985541E+02;  1.4732112E-01; -1.1979907E+02;3; -5.3498268E+00;  0.0000000E+00;  4.9941406E+00;0; -5.1325694E-02;  1.8538598E+04;  0.0000000E+00; -4.2606346E-02;  4.0000000E+04;  0.0000000E+00;  3.9738570E+04; -6.2157635E-02;  0.0000000E+00;  1.0831943E-02;  6.8254218E+02;
  7.9800415E-01;  9.9999998E-03;  2.2078806E-01;7195;  1.5429238E-02;  0.0000000E+00;  4.8162681E-03;  9.9969928E+02;  1.4744078E-01; -2.4912874E+02;3; -5.0989656E+00;  0.0000000E+00;  5.0749578E+00;0; -4.9588256E-02;  1.8500311E+04;  0.0000000E+00; -7.3941521E-02;  4.0000000E+04;  0.0000000E+00;  3.9734363E+04; -6.0173415E-02;  0.0000000E+00;  1.0585159E-02;  6.0182312E+02;
  7.9825824E-01;  9.9999998E-03;  2.3080271E-01;7196;  1.5242136E-02;  0.0000000E+00;  4.9038087E-03;  9.9954535E+02;  1.4752544E-01; -3.7668066E+02;3; -4.8743725E+00;  0.0000000E+00;  5.1028242E+00;0; -4.7881030E-02;  1.8469611E+04;  0.0000000E+00; -1.8815732E-01;  4.0000000E+04;  0.0000000E+00;  3.9733645E+04; -5.8244869E-02;  0.0000000E+00;  1.0363841E-02;  7.5912738E+02;
  8.1096768E-01;  9.9999998E-03;  7.0302092E-02;7241;  1.8310200E-02;  0.0000000E+00;  2.6271089E-03;  9.9891541E+02;  1.5259784E-01; -8.9854236E+02;3; -9.6174383E+00;  0.0000000E+00;  2.5469711E+00;0; -6.5399021E-02;  1.7244664E+04;  0.0000000E+00; -4.1784090E-01;  4.0000000E+04;  0.0000000E+00;  3.9730246E+04; -9.4320625E-02;  0.0000000E+00;  2.8921608E-02;  2.7470208E+03;
  8.1096226E-01;  9.9999998E-03;  8.0293193E-02;7242;  1.8135788E-02;  0.0000000E+00;  2.9485063E-03;  9.9900031E+02;  1.5260272E-01; -8.2822339E+02;3; -9.3729420E+00;  0.0000000E+00;  2.8449597E+00;0; -6.5768719E-02;  1.7249012E+04;  0.0000000E+00; -5.1355684E-01;  4.0000000E+04;  0.0000000E+00;  3.9731004E+04; -9.3016319E-02;  0.0000000E+00;  2.7247602E-02;  2.9463293E+03;
  8.1097013E-01;  9.9999998E-03;  9.0283565E-02;7243;  1.7936833E-02;  0.0000000E+00;  3.2552548E-03;  9.9910040E+02;  1.5261720E-01; -7.4531213E+02;3; -9.1081190E+00;  0.0000000E+00;  3.1268682E+00;0; -6.6075854E-02;  1.7252127E+04;  0.0000000E+00; -6.0355049E-01;  4.0000000E+04;  0.0000000E+00;  3.9731297E+04; -9.1567740E-02;  0.0000000E+00;  2.5491888E-02;  3.0823918E+03;
  8.1099761E-01;  9.9999998E-03;  1.0026880E-01;7244;  1.7714689E-02;  0.0000000E+00;  3.5418274E-03;  9.9921143E+02;  1.5264413E-01; -6.5331476E+02;3; -8.8210659E+00;  0.0000000E+00;  3.4005938E+00;0; -6.6282801E-02;  1.7253189E+04;  0.0000000E+00; -6.8311262E-01;  4.0000000E+04;  0.0000000E+00;  3.9730527E+04; -8.9984775E-02;  0.0000000E+00;  2.3701971E-02;  3.1037092E+03;
  8.1095594E-01;  9.9999998E-03;  1.1026824E-01;7245;  1.7477300E-02;  0.0000000E+00;  3.8001623E-03;  9.9931604E+02;  1.5265442E-01; -5.6665057E+02;3; -8.5186119E+00;  0.0000000E+00;  3.6465101E+00;0; -6.6316336E-02;  1.7258186E+04;  0.0000000E+00; -7.4797541E-01;  4.0000000E+04;  0.0000000E+00;  3.9728418E+04; -8.8224582E-02;  0.0000000E+00;  2.1908244E-02;  2.9947896E+03;
  8.1085998E-01;  9.9999998E-03;  1.2030084E-01;7246;  1.7225375E-02;  0.0000000E+00;  4.0258071E-03;  9.9941144E+02;  1.5264933E-01; -4.8759106E+02;3; -8.2027998E+00;  0.0000000E+00;  3.8684993E+00;0; -6.6140063E-02;  1.7266291E+04;  0.0000000E+00; -7.9298276E-01;  4.0000000E+04;  0.0000000E+00;  3.9725406E+04; -8.6301573E-02;  0.0000000E+00;  2.0161511E-02;  2.7895964E+03;
  8.1076431E-01;  9.9999998E-03;  1.3035320E-01;7247;  1.6957201E-02;  0.0000000E+00;  4.2213965E-03;  9.9951459E+02;  1.5264326E-01; -4.0216141E+02;3; -7.8847370E+00;  0.0000000E+00;  4.0597482E+00;0; -6.5734759E-02;  1.7274406E+04;  0.0000000E+00; -8.1184083E-01;  4.0000000E+04;  0.0000000E+00;  3.9721770E+04; -8.4254198E-02;  0.0000000E+00;  1.8519443E-02;  2.5466477E+03;
  8.1065792E-01;  9.9999998E-03;  1.4041524E-01;7248;  1.6678980E-02;  0.0000000E+00;  4.3921866E-03;  9.9961731E+02;  1.5262903E-01; -3.1702802E+02;3; -7.5634899E+00;  0.0000000E+00;  4.2363882E+00;0; -6.5069273E-02;  1.7283305E+04;  0.0000000E+00; -7.9909265E-01;  4.0000000E+04;  0.0000000E+00;  3.9718621E+04; -8.2087338E-02;  0.0000000E+00;  1.7018061E-02;  2.3041631E+03;
  8.1058997E-01;  9.9999998E-03;  1.5048663E-01;7249;  1.6391980E-02;  0.0000000E+00;  4.5467387E-03;  9.9971881E+02;  1.5262471E-01; -2.3298103E+02;3; -7.2506523E+00;  0.0000000E+00;  4.3856049E+00;0; -6.4147517E-02;  1.7288594E+04;  0.0000000E+00; -7.5110042E-01;  4.0000000E+04;  0.0000000E+00;  3.9716090E+04; -7.9830401E-02;  0.0000000E+00;  1.5682885E-02;  2.0639756E+03;
  8.1063002E-01;  9.9999998E-03;  1.6056800E-01;7250;  1.6099263E-02;  0.0000000E+00;  4.6926513E-03;  9.9982562E+02;  1.5265697E-01; -1.4448972E+02;3; -6.9313250E+00;  0.0000000E+00;  4.5299520E+00;0; -6.2989607E-02;  1.7283941E+04;  0.0000000E+00; -6.6676134E-01;  4.0000000E+04;  0.0000000E+00;  3.9714469E+04; -7.7515811E-02;  0.0000000E+00;  1.4526202E-02;  1.8000206E+03;
  8.1080264E-01;  9.9999998E-03;  1.7065702E-01;7251;  1.5806751E-02;  0.0000000E+00;  4.8357458E-03;  9.9992194E+02;  1.5273334E-01; -6.4689522E+01;3; -6.6075020E+00;  0.0000000E+00;  4.6749101E+00;0; -6.1613049E-02;  1.7267256E+04;  0.0000000E+00; -5.5036861E-01;  4.0000000E+04;  0.0000000E+00;  3.9713641E+04; -7.5156599E-02;  0.0000000E+00;  1.3543550E-02;  1.4933254E+03;
  8.1109524E-01;  9.9999998E-03;  1.8074429E-01;7252;  1.5522561E-02;  0.0000000E+00;  4.9801990E-03;  9.9999817E+02;  1.5284823E-01; -1.5308207E+00;3; -6.2843022E+00;  0.0000000E+00;  4.8149223E+00;0; -6.0040660E-02;  1.7239934E+04;  0.0000000E+00; -4.1321144E-01;  4.0000000E+04;  0.0000000E+00;  3.9713199E+04; -7.2760388E-02;  0.0000000E+00;  1.2719729E-02;  1.1537462E+03;
  8.1146640E-01;  9.9999998E-03;  1.9082250E-01;7253;  1.5255877E-02;  0.0000000E+00;  5.1284176E-03;  1.0000292E+03;  1.5298550E-01;  2.4196842E+01;3; -5.9637432E+00;  0.0000000E+00;  4.9431024E+00;0; -5.8297329E-02;  1.7205725E+04;  0.0000000E+00; -2.7049440E-01;  4.0000000E+04;  0.0000000E+00;  3.9711758E+04; -7.0334695E-02;  0.0000000E+00;  1.2037365E-02;  7.8677362E+02;
  8.1188911E-01;  9.9999998E-03;  2.0087531E-01;7254;  1.5012664E-02;  0.0000000E+00;  5.2728220E-03;  9.9999908E+02;  1.5313484E-01; -7.4071968E-01;3; -5.6478205E+00;  0.0000000E+00;  5.0401731E+00;0; -5.6419380E-02;  1.7166996E+04;  0.0000000E+00; -1.3655645E-01;  4.0000000E+04;  0.0000000E+00;  3.9709238E+04; -6.7905731E-02;  0.0000000E+00;  1.1486353E-02;  3.9984927E+02;
  8.1230837E-01;  9.9999998E-03;  2.1091200E-01;7255;  1.4796500E-02;  0.0000000E+00;  5.3880913E-03;  9.9989868E+02;  1.5327872E-01; -8.3948227E+01;3; -5.3450766E+00;  0.0000000E+00;  5.1163383E+00;0; -5.4450132E-02;  1.7127850E+04;  0.0000000E+00; -2.3306698E-02;  4.0000000E+04;  0.0000000E+00;  3.9705070E+04; -6.5492555E-02;  0.0000000E+00;  1.1042425E-02;  3.8287262E+02;
  8.1268102E-01;  9.9999998E-03;  2.2092584E-01;7256;  1.4609946E-02;  0.0000000E+00;  5.4495507E-03;  9.9974255E+02;  1.5340507E-01; -2.1327789E+02;3; -5.0631270E+00;  0.0000000E+00;  5.1599808E+00;0; -5.2496828E-02;  1.7091529E+04;  0.0000000E+00;  5.9874121E-02;  4.0000000E+04;  0.0000000E+00;  3.9700820E+04; -6.3126706E-02;  0.0000000E+00;  1.0629879E-02;  8.2608307E+02;
  8.1297779E-01;  9.9999998E-03;  2.3091467E-01;7257;  1.4457807E-02;  0.0000000E+00;  5.5095786E-03;  9.9959625E+02;  1.5350166E-01; -3.3450900E+02;3; -4.7950563E+00;  0.0000000E+00;  5.1694756E+00;0; -5.0581958E-02;  1.7060875E+04;  0.0000000E+00;  1.0911658E-01;  4.0000000E+04;  0.0000000E+00;  3.9701059E+04; -6.0841151E-02;  0.0000000E+00;  1.0259193E-02;  7.3738013E+02;
  8.2550234E-01;  9.9999998E-03;  7.0378430E-02;7302;  1.6859967E-02;  0.0000000E+00;  2.8158121E-03;  9.9813123E+02;  1.5876471E-01; -1.5482523E+03;3; -1.0063202E+01;  0.0000000E+00;  2.6311316E+00;0; -7.1044967E-02;  1.5930354E+04;  0.0000000E+00; -5.1141787E-01;  4.0000000E+04;  0.0000000E+00;  3.9702230E+04; -1.0276967E-01;  0.0000000E+00;  3.1724710E-02;  2.9071931E+03;
  8.2555151E-01;  9.9999998E-03;  1.3036831E-01;7308;  1.5653299E-02;  0.0000000E+00;  4.6372968E-03;  9.9890564E+02;  1.5894768E-01; -9.0664087E+02;3; -8.1846647E+00;  0.0000000E+00;  4.1829386E+00;0; -7.1074888E-02;  1.5922619E+04;  0.0000000E+00; -8.9028829E-01;  4.0000000E+04;  0.0000000E+00;  3.9697480E+04; -9.1278881E-02;  0.0000000E+00;  2.0203995E-02;  2.9975845E+03;
  8.2561439E-01;  9.9999998E-03;  1.2031495E-01;7307;  1.5887184E-02;  0.0000000E+00;  4.3925489E-03;  9.9875586E+02;  1.5894744E-01; -1.0307361E+03;3; -8.5312490E+00;  0.0000000E+00;  3.9752607E+00;0; -7.1592189E-02;  1.5917129E+04;  0.0000000E+00; -9.0637118E-01;  4.0000000E+04;  0.0000000E+00;  3.9700684E+04; -9.3659081E-02;  0.0000000E+00;  2.2066891E-02;  3.3690054E+03;
  8.2557732E-01;  9.9999998E-03;  1.4045168E-01;7309;  1.5403999E-02;  0.0000000E+00;  4.8586973E-03;  9.9906488E+02;  1.5897925E-01; -7.7474341E+02;3; -7.8334689E+00;  0.0000000E+00;  4.3627610E+00;0; -7.0310064E-02;  1.5921472E+04;  0.0000000E+00; -8.4412205E-01;  4.0000000E+04;  0.0000000E+00;  3.9694258E+04; -8.8788368E-02;  0.0000000E+00;  1.8478302E-02;  2.5689021E+03;
  8.2565439E-01;  9.9999998E-03;  8.0372781E-02;7303;  1.6690640E-02;  0.0000000E+00;  3.1668576E-03;  9.9824542E+02;  1.5884319E-01; -1.4536377E+03;3; -9.8021383E+00;  0.0000000E+00;  2.9380803E+00;0; -7.1460903E-02;  1.5918486E+04;  0.0000000E+00; -6.3335240E-01;  4.0000000E+04;  0.0000000E+00;  3.9703477E+04; -1.0137951E-01;  0.0000000E+00;  2.9918615E-02;  3.2419993E+03;
  8.2562542E-01;  9.9999998E-03;  1.5054868E-01;7310;  1.5151665E-02;  0.0000000E+00;  5.0562131E-03;  9.9922009E+02;  1.5901192E-01; -6.4615448E+02;3; -7.4764295E+00;  0.0000000E+00;  4.5262070E+00;0; -6.9260754E-02;  1.5918492E+04;  0.0000000E+00; -7.7685523E-01;  4.0000000E+04;  0.0000000E+00;  3.9691770E+04; -8.6167052E-02;  0.0000000E+00;  1.6906299E-02;  2.1520232E+03;
  8.2566577E-01;  9.9999998E-03;  1.6064127E-01;7311;  1.4905939E-02;  0.0000000E+00;  5.2352804E-03;  9.9934784E+02;  1.5903653E-01; -5.4028094E+02;3; -7.1142273E+00;  0.0000000E+00;  4.6783471E+00;0; -6.7919753E-02;  1.5915275E+04;  0.0000000E+00; -6.9659430E-01;  4.0000000E+04;  0.0000000E+00;  3.9690258E+04; -8.3419427E-02;  0.0000000E+00;  1.5499677E-02;  1.7921337E+03;
  8.2576966E-01;  9.9999998E-03;  9.0350285E-02;7304;  1.6504481E-02;  0.0000000E+00;  3.5055301E-03;  9.9836261E+02;  1.5892063E-01; -1.3565541E+03;3; -9.5115862E+00;  0.0000000E+00;  3.2385566E+00;0; -7.1777329E-02;  1.5907690E+04;  0.0000000E+00; -7.4397653E-01;  4.0000000E+04;  0.0000000E+00;  3.9704379E+04; -9.9782735E-02;  0.0000000E+00;  2.8005410E-02;  3.5247500E+03;
  8.2578331E-01;  9.9999998E-03;  1.1029526E-01;7306;  1.6097872E-02;  0.0000000E+00;  4.1235886E-03;  9.9862244E+02;  1.5898912E-01; -1.1413009E+03;3; -8.8729572E+00;  0.0000000E+00;  3.7505298E+00;0; -7.1899250E-02;  1.5903727E+04;  0.0000000E+00; -8.8709658E-01;  4.0000000E+04;  0.0000000E+00;  3.9702891E+04; -9.5934056E-02;  0.0000000E+00;  2.4034807E-02;  3.6102517E+03;
  8.2574970E-01;  9.9999998E-03;  1.7072020E-01;7312;  1.4669030E-02;  0.0000000E+00;  5.4025999E-03;  9.9946124E+02;  1.5906936E-01; -4.4635767E+02;3; -6.7570834E+00;  0.0000000E+00;  4.8042035E+00;0; -6.6321746E-02;  1.5908152E+04;  0.0000000E+00; -6.0774112E-01;  4.0000000E+04;  0.0000000E+00;  3.9689746E+04; -8.0587409E-02;  0.0000000E+00;  1.4265664E-02;  1.5053711E+03;
  8.2588297E-01;  9.9999998E-03;  1.0030987E-01;7305;  1.6299544E-02;  0.0000000E+00;  3.8273681E-03;  9.9849500E+02;  1.5899917E-01; -1.2468782E+03;3; -9.2045622E+00;  0.0000000E+00;  3.5080867E+00;0; -7.1966216E-02;  1.5896746E+04;  0.0000000E+00; -8.3169401E-01;  4.0000000E+04;  0.0000000E+00;  3.9704137E+04; -9.8005578E-02;  0.0000000E+00;  2.6039360E-02;  3.6660144E+03;
  8.2589316E-01;  9.9999998E-03;  1.8078883E-01;7313;  1.4447060E-02;  0.0000000E+00;  5.5618035E-03;  9.9952649E+02;  1.5911798E-01; -3.9228516E+02;3; -6.3979168E+00;  0.0000000E+00;  4.9017410E+00;0; -6.4499892E-02;  1.5896098E+04;  0.0000000E+00; -5.0793880E-01;  4.0000000E+04;  0.0000000E+00;  3.9689547E+04; -7.7699974E-02;  0.0000000E+00;  1.3200083E-02;  1.2792075E+03;
  8.2610977E-01;  9.9999998E-03;  1.9084816E-01;7314;  1.4246486E-02;  0.0000000E+00;  5.7193125E-03;  9.9954565E+02;  1.5918748E-01; -3.7643375E+02;3; -6.0294285E+00;  0.0000000E+00;  5.0091071E+00;0; -6.2494539E-02;  1.5877948E+04;  0.0000000E+00; -3.8800818E-01;  4.0000000E+04;  0.0000000E+00;  3.9688996E+04; -7.4792378E-02;  0.0000000E+00;  1.2297841E-02;  1.0641810E+03;
  8.2641315E-01;  9.9999998E-03;  2.0088182E-01;7315;  1.4069396E-02;  0.0000000E+00;  5.8726151E-03;  9.9950769E+02;  1.5928763E-01; -4.0788965E+02;3; -5.6684198E+00;  0.0000000E+00;  5.1009798E+00;0; -6.0348950E-02;  1.5852270E+04;  0.0000000E+00; -2.3612246E-01;  4.0000000E+04;  0.0000000E+00;  3.9687910E+04; -7.1910441E-02;  0.0000000E+00;  1.1561490E-02;  9.0303259E+02;
  8.2670808E-01;  9.9999998E-03;  2.1090905E-01;7316;  1.3919877E-02;  0.0000000E+00;  6.0107191E-03;  9.9940082E+02;  1.5937988E-01; -4.9643033E+02;3; -5.3232455E+00;  0.0000000E+00;  5.1513147E+00;0; -5.8062766E-02;  1.5826566E+04;  0.0000000E+00; -3.9034933E-02;  4.0000000E+04;  0.0000000E+00;  3.9686926E+04; -6.9063120E-02;  0.0000000E+00;  1.1000355E-02;  9.1970758E+02;
  8.2694131E-01;  9.9999998E-03;  2.2094017E-01;7317;  1.3798630E-02;  0.0000000E+00;  6.1022304E-03;  9.9922449E+02;  1.5944427E-01; -6.4250024E+02;3; -4.9869380E+00;  0.0000000E+00;  5.1712074E+00;0; -5.5693269E-02;  1.5805032E+04;  0.0000000E+00;  2.0916378E-01;  4.0000000E+04;  0.0000000E+00;  3.9684719E+04; -6.6280045E-02;  0.0000000E+00;  1.0586775E-02;  1.1904812E+03;
  8.2702768E-01;  9.9999998E-03;  2.3096113E-01;7318;  1.3707139E-02;  0.0000000E+00;  6.1190473E-03;  9.9900366E+02;  1.5945144E-01; -8.2545801E+02;3; -4.6779280E+00;  0.0000000E+00;  5.1575880E+00;0; -5.3406749E-02;  1.5794285E+04;  0.0000000E+00;  4.9930602E-01;  4.0000000E+04;  0.0000000E+00;  3.9682922E+04; -6.3590609E-02;  0.0000000E+00;  1.0183861E-02;  1.7911505E+03;
  8.4210563E-01;  9.9999998E-03;  7.0409723E-02;7363;  1.5059138E-02;  0.0000000E+00;  3.0398190E-03;  9.9789874E+02;  1.6597660E-01; -1.7408394E+03;3; -1.0568840E+01;  0.0000000E+00;  2.6969721E+00;0; -7.8250267E-02;  1.4599330E+04;  0.0000000E+00; -5.1932549E-01;  4.0000000E+04;  0.0000000E+00;  3.9672930E+04; -1.1282638E-01;  0.0000000E+00;  3.4576118E-02;  3.0525698E+03;
  8.4209275E-01;  9.9999998E-03;  8.0475368E-02;7364;  1.4923627E-02;  0.0000000E+00;  3.4228980E-03;  9.9797034E+02;  1.6598874E-01; -1.6815325E+03;3; -1.0275106E+01;  0.0000000E+00;  3.0225344E+00;0; -7.8601129E-02;  1.4597230E+04;  0.0000000E+00; -6.4595789E-01;  4.0000000E+04;  0.0000000E+00;  3.9674082E+04; -1.1108570E-01;  0.0000000E+00;  3.2484569E-02;  3.4056050E+03;
  8.4210646E-01;  9.9999998E-03;  9.0515047E-02;7365;  1.4767123E-02;  0.0000000E+00;  3.7919106E-03;  9.9805896E+02;  1.6601647E-01; -1.6081024E+03;3; -9.9532270E+00;  0.0000000E+00;  3.3294668E+00;0; -7.8855462E-02;  1.4592838E+04;  0.0000000E+00; -7.5946462E-01;  4.0000000E+04;  0.0000000E+00;  3.9675371E+04; -1.0914183E-01;  0.0000000E+00;  3.0286374E-02;  3.7252498E+03;
  8.4214842E-01;  9.9999998E-03;  1.0053518E-01;7366;  1.4592413E-02;  0.0000000E+00;  4.1430118E-03;  9.9815210E+02;  1.6606075E-01; -1.5309689E+03;3; -9.6168175E+00;  0.0000000E+00;  3.6038425E+00;0; -7.8966998E-02;  1.4585955E+04;  0.0000000E+00; -8.4491253E-01;  4.0000000E+04;  0.0000000E+00;  3.9675734E+04; -1.0700031E-01;  0.0000000E+00;  2.8033309E-02;  3.8969551E+03;
  8.4217328E-01;  9.9999998E-03;  1.1052647E-01;7367;  1.4406957E-02;  0.0000000E+00;  4.4736401E-03;  9.9825195E+02;  1.6610029E-01; -1.4482057E+03;3; -9.2653379E+00;  0.0000000E+00;  3.8600793E+00;0; -7.8868948E-02;  1.4580434E+04;  0.0000000E+00; -8.9070773E-01;  4.0000000E+04;  0.0000000E+00;  3.9675023E+04; -1.0464671E-01;  0.0000000E+00;  2.5777755E-02;  3.8489053E+03;
  8.4211242E-01;  9.9999998E-03;  1.2053290E-01;7368;  1.4220982E-02;  0.0000000E+00;  4.7773225E-03;  9.9835919E+02;  1.6610277E-01; -1.3593688E+03;3; -8.8932247E+00;  0.0000000E+00;  4.0931072E+00;0; -7.8486934E-02;  1.4581206E+04;  0.0000000E+00; -8.9398932E-01;  4.0000000E+04;  0.0000000E+00;  3.9673348E+04; -1.0204801E-01;  0.0000000E+00;  2.3561075E-02;  3.5742754E+03;
  8.4193134E-01;  9.9999998E-03;  1.3055220E-01;7369;  1.4041143E-02;  0.0000000E+00;  5.0497134E-03;  9.9846722E+02;  1.6605966E-01; -1.2698898E+03;3; -8.5031919E+00;  0.0000000E+00;  4.3073583E+00;0; -7.7770412E-02;  1.4590427E+04;  0.0000000E+00; -8.6158890E-01;  4.0000000E+04;  0.0000000E+00;  3.9670980E+04; -9.9207141E-02;  0.0000000E+00;  2.1436727E-02;  3.1376587E+03;
  8.4160292E-01;  9.9999998E-03;  1.4058149E-01;7370;  1.3873854E-02;  0.0000000E+00;  5.2884822E-03;  9.9857159E+02;  1.6595390E-01; -1.1834231E+03;3; -8.1041470E+00;  0.0000000E+00;  4.4888420E+00;0; -7.6688185E-02;  1.4610188E+04;  0.0000000E+00; -8.0896753E-01;  4.0000000E+04;  0.0000000E+00;  3.9668820E+04; -9.6137188E-02;  0.0000000E+00;  1.9449003E-02;  2.6461057E+03;
  8.4129137E-01;  9.9999998E-03;  1.5061823E-01;7371;  1.3707230E-02;  0.0000000E+00;  5.4998016E-03;  9.9868665E+02;  1.6584441E-01; -1.0880679E+03;3; -7.7012110E+00;  0.0000000E+00;  4.6468816E+00;0; -7.5308397E-02;  1.4630060E+04;  0.0000000E+00; -7.5628769E-01;  4.0000000E+04;  0.0000000E+00;  3.9667012E+04; -9.2939422E-02;  0.0000000E+00;  1.7631022E-02;  2.2074546E+03;
  8.4109187E-01;  9.9999998E-03;  1.6064659E-01;7372;  1.3538411E-02;  0.0000000E+00;  5.6915297E-03;  9.9879846E+02;  1.6576853E-01; -9.9542847E+02;3; -7.2961712E+00;  0.0000000E+00;  4.7827277E+00;0; -7.3676951E-02;  1.4643390E+04;  0.0000000E+00; -7.1959722E-01;  4.0000000E+04;  0.0000000E+00;  3.9665898E+04; -8.9674972E-02;  0.0000000E+00;  1.5998023E-02;  1.8979572E+03;
  8.4106857E-01;  9.9999998E-03;  1.7066897E-01;7373;  1.3370415E-02;  0.0000000E+00;  5.8708522E-03;  9.9889746E+02;  1.6575176E-01; -9.1345551E+02;3; -6.8919520E+00;  0.0000000E+00;  4.8841891E+00;0; -7.1831696E-02;  1.4645394E+04;  0.0000000E+00; -7.0056796E-01;  4.0000000E+04;  0.0000000E+00;  3.9665438E+04; -8.6383171E-02;  0.0000000E+00;  1.4551474E-02;  1.7403989E+03;
  8.4228528E-01;  9.9999998E-03;  2.3100512E-01;7379;  1.2826906E-02;  0.0000000E+00;  6.6222963E-03;  9.9848633E+02;  1.6596593E-01; -1.2540385E+03;3; -4.5381732E+00;  0.0000000E+00;  5.0844769E+00;0; -5.7181668E-02;  1.4575651E+04;  0.0000000E+00;  6.2866855E-01;  4.0000000E+04;  0.0000000E+00;  3.9663883E+04; -6.6892020E-02;  0.0000000E+00;  9.7103519E-03;  3.1948398E+03;
  8.4119511E-01;  9.9999998E-03;  1.8069281E-01;7374;  1.3213317E-02;  0.0000000E+00;  6.0420381E-03;  9.9897473E+02;  1.6578287E-01; -8.4940796E+02;3; -6.4838099E+00;  0.0000000E+00;  4.9728217E+00;0; -6.9783911E-02;  1.4637657E+04;  0.0000000E+00; -6.8087220E-01;  4.0000000E+04;  0.0000000E+00;  3.9665664E+04; -8.3069921E-02;  0.0000000E+00;  1.3286011E-02;  1.7343021E+03;
  8.4140992E-01;  9.9999998E-03;  1.9072680E-01;7375;  1.3079189E-02;  0.0000000E+00;  6.2010828E-03;  9.9901776E+02;  1.6583617E-01; -8.1375464E+02;3; -6.0745206E+00;  0.0000000E+00;  5.0327907E+00;0; -6.7542456E-02;  1.4624685E+04;  0.0000000E+00; -6.2435520E-01;  4.0000000E+04;  0.0000000E+00;  3.9667039E+04; -7.9740897E-02;  0.0000000E+00;  1.2198443E-02;  1.8812516E+03;
  8.4210521E-01;  9.9999998E-03;  2.2093472E-01;7378;  1.2853214E-02;  0.0000000E+00;  6.6349017E-03;  9.9878491E+02;  1.6594769E-01; -1.0066874E+03;3; -4.8894773E+00;  0.0000000E+00;  5.1165452E+00;0; -5.9756987E-02;  1.4586434E+04;  0.0000000E+00;  1.4240515E-01;  4.0000000E+04;  0.0000000E+00;  3.9669613E+04; -6.9941595E-02;  0.0000000E+00;  1.0184610E-02;  2.7517832E+03;
  8.4165370E-01;  9.9999998E-03;  2.0076501E-01;7376;  1.2973445E-02;  0.0000000E+00;  6.3601648E-03;  9.9902704E+02;  1.6588798E-01; -8.0610052E+02;3; -5.6624675E+00;  0.0000000E+00;  5.0917325E+00;0; -6.5120429E-02;  1.4610649E+04;  0.0000000E+00; -4.8801669E-01;  4.0000000E+04;  0.0000000E+00;  3.9670523E+04; -7.6421030E-02;  0.0000000E+00;  1.1300600E-02;  2.2488098E+03;
  8.4188426E-01;  9.9999998E-03;  2.1083261E-01;7377;  1.2899276E-02;  0.0000000E+00;  6.5294085E-03;  9.9897351E+02;  1.6592273E-01; -8.5044495E+02;3; -5.2666798E+00;  0.0000000E+00;  5.1207428E+00;0; -6.2498420E-02;  1.4598301E+04;  0.0000000E+00; -2.3607418E-01;  4.0000000E+04;  0.0000000E+00;  3.9673035E+04; -7.3137820E-02;  0.0000000E+00;  1.0639398E-02;  2.6962666E+03;
  8.6002725E-01;  9.9999998E-03;  7.0413962E-02;7424;  1.2926673E-02;  0.0000000E+00;  3.3205214E-03;  9.9852509E+02;  1.7421354E-01; -1.2219404E+03;3; -1.1134905E+01;  0.0000000E+00;  2.7793436E+00;0; -8.6923972E-02;  1.3297428E+04;  0.0000000E+00; -4.4624844E-01;  4.0000000E+04;  0.0000000E+00;  3.9641480E+04; -1.2405930E-01;  0.0000000E+00;  3.7135329E-02;  3.1155273E+03;
  8.6010343E-01;  9.9999998E-03;  8.0522321E-02;7425;  1.2803103E-02;  0.0000000E+00;  3.7393540E-03;  9.9852594E+02;  1.7423300E-01; -1.2212491E+03;3; -1.0814529E+01;  0.0000000E+00;  3.1150916E+00;0; -8.7324776E-02;  1.3290306E+04;  0.0000000E+00; -5.6115133E-01;  4.0000000E+04;  0.0000000E+00;  3.9642734E+04; -1.2201324E-01;  0.0000000E+00;  3.4688465E-02;  3.4249653E+03;
  8.6020070E-01;  9.9999998E-03;  9.0603083E-02;7426;  1.2662225E-02;  0.0000000E+00;  4.1405549E-03;  9.9855231E+02;  1.7426743E-01; -1.1993732E+03;3; -1.0470041E+01;  0.0000000E+00;  3.4316206E+00;0; -8.7596953E-02;  1.3281587E+04;  0.0000000E+00; -6.6606778E-01;  4.0000000E+04;  0.0000000E+00;  3.9644035E+04; -1.1971878E-01;  0.0000000E+00;  3.2121822E-02;  3.7122021E+03;
  8.6030871E-01;  9.9999998E-03;  1.0067073E-01;7427;  1.2508848E-02;  0.0000000E+00;  4.5190565E-03;  9.9860004E+02;  1.7430921E-01; -1.1598188E+03;3; -1.0095134E+01;  0.0000000E+00;  3.7278225E+00;0; -8.7681547E-02;  1.3272047E+04;  0.0000000E+00; -7.4607682E-01;  4.0000000E+04;  0.0000000E+00;  3.9644500E+04; -1.1717739E-01;  0.0000000E+00;  2.9495846E-02;  3.8544883E+03;
  8.6037123E-01;  9.9999998E-03;  1.1071238E-01;7428;  1.2354078E-02;  0.0000000E+00;  4.8680846E-03;  9.9866650E+02;  1.7433612E-01; -1.1047587E+03;3; -9.6965570E+00;  0.0000000E+00;  3.9966176E+00;0; -8.7498769E-02;  1.3265812E+04;  0.0000000E+00; -7.9065943E-01;  4.0000000E+04;  0.0000000E+00;  3.9643777E+04; -1.1437710E-01;  0.0000000E+00;  2.6878338E-02;  3.7730100E+03;
  8.6032832E-01;  9.9999998E-03;  1.2075318E-01;7429;  1.2209736E-02;  0.0000000E+00;  5.1791719E-03;  9.9874530E+02;  1.7432062E-01; -1.0394766E+03;3; -9.2747869E+00;  0.0000000E+00;  4.2269773E+00;0; -8.6973570E-02;  1.3266694E+04;  0.0000000E+00; -7.9924333E-01;  4.0000000E+04;  0.0000000E+00;  3.9642086E+04; -1.1130261E-01;  0.0000000E+00;  2.4329046E-02;  3.4632427E+03;
  8.6012244E-01;  9.9999998E-03;  1.3078916E-01;7430;  1.2085689E-02;  0.0000000E+00;  5.4533295E-03;  9.9882971E+02;  1.7424043E-01; -9.6955261E+02;3; -8.8331957E+00;  0.0000000E+00;  4.4473267E+00;0; -8.6046442E-02;  1.3277909E+04;  0.0000000E+00; -7.8381395E-01;  4.0000000E+04;  0.0000000E+00;  3.9639840E+04; -1.0795763E-01;  0.0000000E+00;  2.1911191E-02;  3.0039597E+03;
  8.5992414E-01;  9.9999998E-03;  1.4083833E-01;7431;  1.1966610E-02;  0.0000000E+00;  5.6927609E-03;  9.9892511E+02;  1.7416249E-01; -8.9054254E+02;3; -8.3801470E+00;  0.0000000E+00;  4.6213751E+00;0; -8.4780991E-02;  1.3289397E+04;  0.0000000E+00; -7.6860893E-01;  4.0000000E+04;  0.0000000E+00;  3.9637844E+04; -1.0444856E-01;  0.0000000E+00;  1.9667562E-02;  2.5322524E+03;
  8.5977399E-01;  9.9999998E-03;  1.5087897E-01;7432;  1.1853443E-02;  0.0000000E+00;  5.9035160E-03;  9.9902667E+02;  1.7409915E-01; -8.0639679E+02;3; -7.9216142E+00;  0.0000000E+00;  4.7766442E+00;0; -8.3199412E-02;  1.3298734E+04;  0.0000000E+00; -7.8232956E-01;  4.0000000E+04;  0.0000000E+00;  3.9635680E+04; -1.0082211E-01;  0.0000000E+00;  1.7622698E-02;  2.1620500E+03;
  8.5968781E-01;  9.9999998E-03;  1.6090652E-01;7433;  1.1750346E-02;  0.0000000E+00;  6.0945963E-03;  9.9912305E+02;  1.7405540E-01; -7.2654718E+02;3; -7.4605684E+00;  0.0000000E+00;  4.8959036E+00;0; -8.1321925E-02;  1.3304727E+04;  0.0000000E+00; -8.4565061E-01;  4.0000000E+04;  0.0000000E+00;  3.9634281E+04; -9.7106561E-02;  0.0000000E+00;  1.5784634E-02;  1.9306011E+03;
  8.5965943E-01;  9.9999998E-03;  1.7092110E-01;7434;  1.1664765E-02;  0.0000000E+00;  6.2696799E-03;  9.9920038E+02;  1.7402758E-01; -6.6245026E+02;3; -6.9954534E+00;  0.0000000E+00;  4.9743490E+00;0; -7.9167522E-02;  1.3307863E+04;  0.0000000E+00; -9.5713192E-01;  4.0000000E+04;  0.0000000E+00;  3.9633180E+04; -9.3323044E-02;  0.0000000E+00;  1.4155520E-02;  1.8206927E+03;
  8.5964280E-01;  9.9999998E-03;  1.8093042E-01;7435;  1.1607368E-02;  0.0000000E+00;  6.4257886E-03;  9.9923779E+02;  1.7399618E-01; -6.3148816E+02;3; -6.5288863E+00;  0.0000000E+00;  4.9944057E+00;0; -7.6749794E-02;  1.3310909E+04;  0.0000000E+00; -1.0857373E+00;  4.0000000E+04;  0.0000000E+00;  3.9632742E+04; -8.9483313E-02;  0.0000000E+00;  1.2733517E-02;  1.8301848E+03;
  8.5959518E-01;  9.9999998E-03;  1.9094519E-01;7436;  1.1583728E-02;  0.0000000E+00;  6.5684831E-03;  9.9922546E+02;  1.7393924E-01; -6.4171008E+02;3; -6.0628748E+00;  0.0000000E+00;  5.0499258E+00;0; -7.4095741E-02;  1.3316496E+04;  0.0000000E+00; -1.1754712E+00;  4.0000000E+04;  0.0000000E+00;  3.9632656E+04; -8.5610531E-02;  0.0000000E+00;  1.1514788E-02;  1.9155828E+03;
  8.5944670E-01;  9.9999998E-03;  2.0095868E-01;7437;  1.1597362E-02;  0.0000000E+00;  6.7033833E-03;  9.9916138E+02;  1.7383799E-01; -6.9479498E+02;3; -5.6062531E+00;  0.0000000E+00;  5.0790429E+00;0; -7.1228333E-02;  1.3327776E+04;  0.0000000E+00; -1.1510497E+00;  4.0000000E+04;  0.0000000E+00;  3.9633965E+04; -8.1736498E-02;  0.0000000E+00;  1.0508163E-02;  1.9913104E+03;
  8.5925686E-01;  9.9999998E-03;  2.1098284E-01;7438;  1.1640945E-02;  0.0000000E+00;  6.8444610E-03;  9.9904932E+02;  1.7371903E-01; -7.8763190E+02;3; -5.1638446E+00;  0.0000000E+00;  5.0808330E+00;0; -6.8184324E-02;  1.3340858E+04;  0.0000000E+00; -9.5404905E-01;  4.0000000E+04;  0.0000000E+00;  3.9636266E+04; -7.7928849E-02;  0.0000000E+00;  9.7445277E-03;  2.0455333E+03;
  8.5906947E-01;  9.9999998E-03;  2.2103630E-01;7439;  1.1707675E-02;  0.0000000E+00;  6.9600302E-03;  9.9883997E+02;  1.7360125E-01; -9.6105902E+02;3; -4.7453647E+00;  0.0000000E+00;  5.0403533E+00;0; -6.4999975E-02;  1.3352615E+04;  0.0000000E+00; -5.6033999E-01;  4.0000000E+04;  0.0000000E+00;  3.9636457E+04; -7.4242868E-02;  0.0000000E+00;  9.2428913E-03;  2.0139542E+03;
  8.5890400E-01;  9.9999998E-03;  2.3107773E-01;7440;  1.1782804E-02;  0.0000000E+00;  7.0407726E-03;  9.9858325E+02;  1.7350245E-01; -1.1737443E+03;3; -4.3446040E+00;  0.0000000E+00;  4.9970078E+00;0; -6.1732467E-02;  1.3361246E+04;  0.0000000E+00; -1.0374758E-04;  4.0000000E+04;  0.0000000E+00;  3.9637102E+04; -7.0745714E-02;  0.0000000E+00;  9.0132467E-03;  2.6738665E+03;
  8.7740415E-01;  9.9999998E-03;  7.0400871E-02;7485;  1.0600229E-02;  0.0000000E+00;  3.6464743E-03;  9.9884259E+02;  1.8259530E-01; -9.5888611E+02;3; -1.1717850E+01;  0.0000000E+00;  2.8606539E+00;0; -9.6124843E-02;  1.2130683E+04;  0.0000000E+00; -3.1556866E-01;  4.0000000E+04;  0.0000000E+00;  3.9611184E+04; -1.3510488E-01;  0.0000000E+00;  3.8980033E-02;  3.2112126E+03;
  8.7744951E-01;  9.9999998E-03;  8.0511034E-02;7486;  1.0507567E-02;  0.0000000E+00;  4.0926798E-03;  9.9881097E+02;  1.8260297E-01; -9.8510754E+02;3; -1.1358838E+01;  0.0000000E+00;  3.2143025E+00;0; -9.6483201E-02;  1.2124199E+04;  0.0000000E+00; -4.1060749E-01;  4.0000000E+04;  0.0000000E+00;  3.9612273E+04; -1.3258398E-01;  0.0000000E+00;  3.6100779E-02;  3.4259075E+03;
  8.7755811E-01;  9.9999998E-03;  9.0598747E-02;7487;  1.0398710E-02;  0.0000000E+00;  4.5115063E-03;  9.9881213E+02;  1.8264329E-01; -9.8411993E+02;3; -1.0969056E+01;  0.0000000E+00;  3.5384319E+00;0; -9.6702144E-02;  1.2114055E+04;  0.0000000E+00; -5.0225240E-01;  4.0000000E+04;  0.0000000E+00;  3.9613285E+04; -1.2980691E-01;  0.0000000E+00;  3.3104759E-02;  3.6175059E+03;
  8.7770188E-01;  9.9999998E-03;  1.0066161E-01;7488;  1.0281648E-02;  0.0000000E+00;  4.8966599E-03;  9.9884583E+02;  1.8270209E-01; -9.5621948E+02;3; -1.0563054E+01;  0.0000000E+00;  3.8266919E+00;0; -9.6706949E-02;  1.2102234E+04;  0.0000000E+00; -5.7812864E-01;  4.0000000E+04;  0.0000000E+00;  3.9613133E+04; -1.2677629E-01;  0.0000000E+00;  3.0069346E-02;  3.6774827E+03;
  8.7783492E-01;  9.9999998E-03;  1.1071415E-01;7489;  1.0167900E-02;  0.0000000E+00;  5.2405586E-03;  9.9890338E+02;  1.8275839E-01; -9.0851715E+02;3; -1.0117716E+01;  0.0000000E+00;  4.0931735E+00;0; -9.6417882E-02;  1.2091688E+04;  0.0000000E+00; -6.3004619E-01;  4.0000000E+04;  0.0000000E+00;  3.9612203E+04; -1.2348744E-01;  0.0000000E+00;  2.7069556E-02;  3.5391094E+03;
  8.7791389E-01;  9.9999998E-03;  1.2076180E-01;7490;  1.0065963E-02;  0.0000000E+00;  5.5391039E-03;  9.9898724E+02;  1.8279004E-01; -8.3903766E+02;3; -9.6502590E+00;  0.0000000E+00;  4.3303657E+00;0; -9.5765911E-02;  1.2085450E+04;  0.0000000E+00; -6.5938675E-01;  4.0000000E+04;  0.0000000E+00;  3.9609734E+04; -1.1994747E-01;  0.0000000E+00;  2.4181562E-02;  3.1958145E+03;
  8.7790483E-01;  9.9999998E-03;  1.3081202E-01;7491;  9.9828988E-03;  0.0000000E+00;  5.7939556E-03;  9.9908771E+02;  1.8278028E-01; -7.5583020E+02;3; -9.1593647E+00;  0.0000000E+00;  4.5387645E+00;0; -9.4701976E-02;  1.2085743E+04;  0.0000000E+00; -6.8020600E-01;  4.0000000E+04;  0.0000000E+00;  3.9606621E+04; -1.1617421E-01;  0.0000000E+00;  2.1472227E-02;  2.7347754E+03;
  8.7782073E-01;  9.9999998E-03;  1.4086246E-01;7492;  9.9220639E-03;  0.0000000E+00;  6.0041253E-03;  9.9921234E+02;  1.8273579E-01; -6.5257391E+02;3; -8.6470003E+00;  0.0000000E+00;  4.7027755E+00;0; -9.3220703E-02;  1.2091716E+04;  0.0000000E+00; -7.1685487E-01;  4.0000000E+04;  0.0000000E+00;  3.9603441E+04; -1.1221167E-01;  0.0000000E+00;  1.8990973E-02;  2.2794314E+03;
  8.7769330E-01;  9.9999998E-03;  1.5090768E-01;7493;  9.8838983E-03;  0.0000000E+00;  6.1764275E-03;  9.9934949E+02;  1.8266758E-01; -5.3894751E+02;3; -8.1281071E+00;  0.0000000E+00;  4.8170209E+00;0; -9.1349401E-02;  1.2101415E+04;  0.0000000E+00; -7.9581964E-01;  4.0000000E+04;  0.0000000E+00;  3.9600777E+04; -1.0810914E-01;  0.0000000E+00;  1.6759736E-02;  1.9107513E+03;
  8.7756646E-01;  9.9999998E-03;  1.6094193E-01;7494;  9.8674353E-03;  0.0000000E+00;  6.3277469E-03;  9.9948254E+02;  1.8259653E-01; -4.2867908E+02;3; -7.6109357E+00;  0.0000000E+00;  4.8991556E+00;0; -8.9133278E-02;  1.2111656E+04;  0.0000000E+00; -9.3444157E-01;  4.0000000E+04;  0.0000000E+00;  3.9599020E+04; -1.0391566E-01;  0.0000000E+00;  1.4782382E-02;  1.6316283E+03;
  8.7750250E-01;  9.9999998E-03;  1.7096572E-01;7495;  9.8724924E-03;  0.0000000E+00;  6.4643687E-03;  9.9958881E+02;  1.8255207E-01; -3.4068158E+02;3; -7.0823050E+00;  0.0000000E+00;  4.9667225E+00;0; -8.6631142E-02;  1.2118534E+04;  0.0000000E+00; -1.1294897E+00;  4.0000000E+04;  0.0000000E+00;  3.9597703E+04; -9.9680729E-02;  0.0000000E+00;  1.3049589E-02;  1.4734421E+03;
  8.7749434E-01;  9.9999998E-03;  1.8098342E-01;7496;  9.9046212E-03;  0.0000000E+00;  6.5931701E-03;  9.9966034E+02;  1.8252812E-01; -2.8142404E+02;3; -6.5449872E+00;  0.0000000E+00;  5.0056548E+00;0; -8.3880834E-02;  1.2122174E+04;  0.0000000E+00; -1.3485904E+00;  4.0000000E+04;  0.0000000E+00;  3.9596914E+04; -9.5429085E-02;  0.0000000E+00;  1.1548249E-02;  1.5710739E+03;
  8.7750030E-01;  9.9999998E-03;  1.9100334E-01;7497;  9.9685742E-03;  0.0000000E+00;  6.7160982E-03;  9.9967224E+02;  1.8250306E-01; -2.7154776E+02;3; -6.0212870E+00;  0.0000000E+00;  5.0183325E+00;0; -8.0915228E-02;  1.2125145E+04;  0.0000000E+00; -1.5347570E+00;  4.0000000E+04;  0.0000000E+00;  3.9596957E+04; -9.1180101E-02;  0.0000000E+00;  1.0264871E-02;  1.9035809E+03;
  8.7750083E-01;  9.9999998E-03;  2.0103091E-01;7498;  1.0064745E-02;  0.0000000E+00;  6.8452037E-03;  9.9962292E+02;  1.8246873E-01; -3.1238611E+02;3; -5.5046225E+00;  0.0000000E+00;  5.0161762E+00;0; -7.7771410E-02;  1.2128404E+04;  0.0000000E+00; -1.6217424E+00;  4.0000000E+04;  0.0000000E+00;  3.9597969E+04; -8.6969227E-02;  0.0000000E+00;  9.1978135E-03;  2.2276250E+03;
  8.7748307E-01;  9.9999998E-03;  2.1106507E-01;7499;  1.0190957E-02;  0.0000000E+00;  6.9941799E-03;  9.9950427E+02;  1.8241715E-01; -4.1070428E+02;3; -4.9981527E+00;  0.0000000E+00;  5.0135479E+00;0; -7.4453674E-02;  1.2132167E+04;  0.0000000E+00; -1.5544376E+00;  4.0000000E+04;  0.0000000E+00;  3.9600395E+04; -8.2840867E-02;  0.0000000E+00;  8.3871912E-03;  2.3873276E+03;
  8.7744462E-01;  9.9999998E-03;  2.2112612E-01;7500;  1.0344728E-02;  0.0000000E+00;  7.1396204E-03;  9.9928259E+02;  1.8235548E-01; -5.9435333E+02;3; -4.5169539E+00;  0.0000000E+00;  4.9708543E+00;0; -7.0941359E-02;  1.2136044E+04;  0.0000000E+00; -1.3041511E+00;  4.0000000E+04;  0.0000000E+00;  3.9600816E+04; -7.8831844E-02;  0.0000000E+00;  7.8904843E-03;  2.1311865E+03;
  8.7733537E-01;  9.9999998E-03;  2.3118308E-01;7501;  1.0516154E-02;  0.0000000E+00;  7.2339019E-03;  9.9897144E+02;  1.8226853E-01; -8.5212372E+02;3; -4.0632582E+00;  0.0000000E+00;  4.9141250E+00;0; -6.7301035E-02;  1.2142493E+04;  0.0000000E+00; -8.7706023E-01;  4.0000000E+04;  0.0000000E+00;  3.9600410E+04; -7.4991167E-02;  0.0000000E+00;  7.6901317E-03;  1.7481383E+03;
  8.9635521E-01;  9.9999998E-03;  7.0364922E-02;7546;  7.7818730E-03;  0.0000000E+00;  4.0448676E-03;  9.9844940E+02;  1.9196421E-01; -1.2846545E+03;3; -1.2380934E+01;  0.0000000E+00;  2.9027135E+00;0; -1.0666580E-01;  1.0976190E+04;  0.0000000E+00; -1.7628697E-01;  4.0000000E+04;  0.0000000E+00;  3.9577625E+04; -1.4679272E-01;  0.0000000E+00;  4.0126920E-02;  3.3969045E+03;
  8.9649606E-01;  9.9999998E-03;  8.0467641E-02;7547;  7.7209072E-03;  0.0000000E+00;  4.5109391E-03;  9.9841071E+02;  1.9201675E-01; -1.3167030E+03;3; -1.1985508E+01;  0.0000000E+00;  3.2610221E+00;0; -1.0697234E-01;  1.0965205E+04;  0.0000000E+00; -2.4597046E-01;  4.0000000E+04;  0.0000000E+00;  3.9578250E+04; -1.4371487E-01;  0.0000000E+00;  3.6742538E-02;  3.5177056E+03;
  8.9662528E-01;  9.9999998E-03;  9.0540439E-02;7548;  7.6657766E-03;  0.0000000E+00;  4.9287337E-03;  9.9841534E+02;  1.9206360E-01; -1.3128512E+03;3; -1.1548398E+01;  0.0000000E+00;  3.5912628E+00;0; -1.0705413E-01;  1.0955241E+04;  0.0000000E+00; -3.2142612E-01;  4.0000000E+04;  0.0000000E+00;  3.9578691E+04; -1.4030564E-01;  0.0000000E+00;  3.3251509E-02;  3.5954749E+03;
  8.9672261E-01;  9.9999998E-03;  1.0058666E-01;7549;  7.6200869E-03;  0.0000000E+00;  5.3005004E-03;  9.9844836E+02;  1.9209443E-01; -1.2854939E+03;3; -1.1081169E+01;  0.0000000E+00;  3.8665149E+00;0; -1.0684089E-01;  1.0947679E+04;  0.0000000E+00; -3.9684573E-01;  4.0000000E+04;  0.0000000E+00;  3.9577887E+04; -1.3659522E-01;  0.0000000E+00;  2.9754328E-02;  3.5591245E+03;
  8.9676160E-01;  9.9999998E-03;  1.1061520E-01;7550;  7.5912927E-03;  0.0000000E+00;  5.6166244E-03;  9.9851727E+02;  1.9210123E-01; -1.2284092E+03;3; -1.0576890E+01;  0.0000000E+00;  4.1396132E+00;0; -1.0626520E-01;  1.0944028E+04;  0.0000000E+00; -4.6921945E-01;  4.0000000E+04;  0.0000000E+00;  3.9576465E+04; -1.3261341E-01;  0.0000000E+00;  2.6348203E-02;  3.3575681E+03;
  8.9670676E-01;  9.9999998E-03;  1.2065539E-01;7551;  7.5858752E-03;  0.0000000E+00;  5.8711432E-03;  9.9860968E+02;  1.9206530E-01; -1.1518682E+03;3; -1.0045699E+01;  0.0000000E+00;  4.3650374E+00;0; -1.0526588E-01;  1.0946554E+04;  0.0000000E+00; -5.4108047E-01;  4.0000000E+04;  0.0000000E+00;  3.9573496E+04; -1.2838162E-01;  0.0000000E+00;  2.3115747E-02;  2.9961702E+03;
  8.9656317E-01;  9.9999998E-03;  1.3071620E-01;7552;  7.6054544E-03;  0.0000000E+00;  6.0686232E-03;  9.9873840E+02;  1.9198895E-01; -1.0452046E+03;3; -9.4877300E+00;  0.0000000E+00;  4.5304699E+00;0; -1.0381927E-01;  1.0954990E+04;  0.0000000E+00; -6.2138706E-01;  4.0000000E+04;  0.0000000E+00;  3.9569906E+04; -1.2394726E-01;  0.0000000E+00;  2.0127997E-02;  2.5366458E+03;
  8.9637715E-01;  9.9999998E-03;  1.4078853E-01;7553;  7.6456927E-03;  0.0000000E+00;  6.2219864E-03;  9.9889539E+02;  1.9189326E-01; -9.1513428E+02;3; -8.9159298E+00;  0.0000000E+00;  4.6547518E+00;0; -1.0194474E-01;  1.0967136E+04;  0.0000000E+00; -7.2377163E-01;  4.0000000E+04;  0.0000000E+00;  3.9566270E+04; -1.1937690E-01;  0.0000000E+00;  1.7432161E-02;  2.0522214E+03;
  8.9619672E-01;  9.9999998E-03;  1.5085849E-01;7554;  7.7054119E-03;  0.0000000E+00;  6.3382816E-03;  9.9908203E+02;  1.9179833E-01; -7.6052142E+02;3; -8.3358011E+00;  0.0000000E+00;  4.7503738E+00;0; -9.9684194E-02;  1.0980274E+04;  0.0000000E+00; -8.6152911E-01;  4.0000000E+04;  0.0000000E+00;  3.9562871E+04; -1.1472895E-01;  0.0000000E+00;  1.5044760E-02;  1.5871206E+03;
  8.9607650E-01;  9.9999998E-03;  1.6091926E-01;7555;  7.7815247E-03;  0.0000000E+00;  6.4324681E-03;  9.9928632E+02;  1.9173136E-01; -5.9129169E+02;3; -7.7349148E+00;  0.0000000E+00;  4.8521075E+00;0; -9.7093254E-02;  1.0991207E+04;  0.0000000E+00; -1.0410390E+00;  4.0000000E+04;  0.0000000E+00;  3.9560504E+04; -1.1005197E-01;  0.0000000E+00;  1.2958724E-02;  1.1671716E+03;
  8.9603585E-01;  9.9999998E-03;  1.7097007E-01;7556;  7.8759398E-03;  0.0000000E+00;  6.5108337E-03;  9.9948535E+02;  1.9170290E-01; -4.2635815E+02;3; -7.1327295E+00;  0.0000000E+00;  4.9091878E+00;0; -9.4219118E-02;  1.0998158E+04;  0.0000000E+00; -1.2537796E+00;  4.0000000E+04;  0.0000000E+00;  3.9558625E+04; -1.0537532E-01;  0.0000000E+00;  1.1156199E-02;  9.5116003E+02;
  8.9597785E-01;  9.9999998E-03;  1.8099235E-01;7557;  8.0022085E-03;  0.0000000E+00;  6.5878984E-03;  9.9964716E+02;  1.9167008E-01; -2.9233731E+02;3; -6.5376406E+00;  0.0000000E+00;  4.9360085E+00;0; -9.1083638E-02;  1.1005652E+04;  0.0000000E+00; -1.4685684E+00;  4.0000000E+04;  0.0000000E+00;  3.9558566E+04; -1.0070832E-01;  0.0000000E+00;  9.6246833E-03;  1.2338005E+03;
  8.9594936E-01;  9.9999998E-03;  1.9101155E-01;7558;  8.1573725E-03;  0.0000000E+00;  6.6761170E-03;  9.9976569E+02;  1.9164978E-01; -1.9411789E+02;3; -5.9426656E+00;  0.0000000E+00;  4.9215541E+00;0; -8.7759376E-02;  1.1011210E+04;  0.0000000E+00; -1.6369172E+00;  4.0000000E+04;  0.0000000E+00;  3.9559723E+04; -9.6085817E-02;  0.0000000E+00;  8.3264392E-03;  1.7821544E+03;
  8.9594156E-01;  9.9999998E-03;  2.0104803E-01;7559;  8.3425548E-03;  0.0000000E+00;  6.7872112E-03;  9.9982446E+02;  1.9163409E-01; -1.4542793E+02;3; -5.3504319E+00;  0.0000000E+00;  4.8968034E+00;0; -8.4283650E-02;  1.1015103E+04;  0.0000000E+00; -1.7039258E+00;  4.0000000E+04;  0.0000000E+00;  3.9562809E+04; -9.1532387E-02;  0.0000000E+00;  7.2487360E-03;  2.2591746E+03;
  8.9593327E-01;  9.9999998E-03;  2.1110523E-01;7560;  8.5599944E-03;  0.0000000E+00;  6.9409399E-03;  9.9980640E+02;  1.9161281E-01; -1.6039047E+02;3; -4.7801747E+00;  0.0000000E+00;  4.8699059E+00;0; -8.0635980E-02;  1.1018198E+04;  0.0000000E+00; -1.6269959E+00;  4.0000000E+04;  0.0000000E+00;  3.9566527E+04; -8.7081462E-02;  0.0000000E+00;  6.4454838E-03;  2.5102529E+03;
  8.9590734E-01;  9.9999998E-03;  2.2119784E-01;7561;  8.8109411E-03;  0.0000000E+00;  7.0944522E-03;  9.9966278E+02;  1.9158152E-01; -2.7939941E+02;3; -4.2275248E+00;  0.0000000E+00;  4.8244033E+00;0; -7.6791227E-02;  1.1021187E+04;  0.0000000E+00; -1.3894849E+00;  4.0000000E+04;  0.0000000E+00;  3.9566316E+04; -8.2763538E-02;  0.0000000E+00;  5.9723090E-03;  2.1824399E+03;
  8.9578146E-01;  9.9999998E-03;  2.3128553E-01;7562;  9.0921409E-03;  0.0000000E+00;  7.1680639E-03;  9.9939886E+02;  1.9151010E-01; -4.9801041E+02;3; -3.7063811E+00;  0.0000000E+00;  4.7563596E+00;0; -7.2892770E-02;  1.1028156E+04;  0.0000000E+00; -1.0116131E+00;  4.0000000E+04;  0.0000000E+00;  3.9562660E+04; -7.8622378E-02;  0.0000000E+00;  5.7296054E-03;  1.4045409E+03;
  9.1622162E-01;  9.9999998E-03;  7.0292972E-02;7607;  4.5156628E-03;  0.0000000E+00;  4.4471803E-03;  9.9734186E+02;  2.0214716E-01; -2.2022083E+03;3; -1.3084970E+01;  0.0000000E+00;  2.9381609E+00;0; -1.1770195E-01;  9.8807744E+03;  0.0000000E+00; -8.2563885E-02;  4.0000000E+04;  0.0000000E+00;  3.9539621E+04; -1.5788735E-01;  0.0000000E+00;  4.0185407E-02;  3.4652783E+03;
  9.1625416E-01;  9.9999998E-03;  8.0376580E-02;7608;  4.5422446E-03;  0.0000000E+00;  4.9061039E-03;  9.9731769E+02;  2.0215566E-01; -2.2222571E+03;3; -1.2640376E+01;  0.0000000E+00;  3.2631800E+00;0; -1.1772767E-01;  9.8762812E+03;  0.0000000E+00; -1.2499818E-01;  4.0000000E+04;  0.0000000E+00;  3.9540152E+04; -1.5406550E-01;  0.0000000E+00;  3.6337834E-02;  3.5794907E+03;
  9.1625577E-01;  9.9999998E-03;  9.0447746E-02;7609;  4.5900159E-03;  0.0000000E+00;  5.3003896E-03;  9.9732916E+02;  2.0214486E-01; -2.2127263E+03;3; -1.2144119E+01;  0.0000000E+00;  3.5895877E+00;0; -1.1747143E-01;  9.8739902E+03;  0.0000000E+00; -1.8260598E-01;  4.0000000E+04;  0.0000000E+00;  3.9540504E+04; -1.4987694E-01;  0.0000000E+00;  3.2405507E-02;  3.6673589E+03;
  9.1621602E-01;  9.9999998E-03;  1.0050078E-01;7610;  4.6600616E-03;  0.0000000E+00;  5.6230742E-03;  9.9737946E+02;  2.0211077E-01; -2.1710486E+03;3; -1.1607553E+01;  0.0000000E+00;  3.8721955E+00;0; -1.1687038E-01;  9.8746133E+03;  0.0000000E+00; -2.5901979E-01;  4.0000000E+04;  0.0000000E+00;  3.9540031E+04; -1.4537857E-01;  0.0000000E+00;  2.8508192E-02;  3.6528821E+03;
  9.1612160E-01;  9.9999998E-03;  1.1053555E-01;7611;  4.7514904E-03;  0.0000000E+00;  5.8817449E-03;  9.9745361E+02;  2.0204788E-01; -2.1096182E+03;3; -1.1034591E+01;  0.0000000E+00;  4.1029468E+00;0; -1.1587233E-01;  9.8790332E+03;  0.0000000E+00; -3.5682142E-01;  4.0000000E+04;  0.0000000E+00;  3.9538445E+04; -1.4062722E-01;  0.0000000E+00;  2.4754891E-02;  3.4705320E+03;
  9.1594696E-01;  9.9999998E-03;  1.2058467E-01;7612;  4.8688701E-03;  0.0000000E+00;  6.0788626E-03;  9.9757379E+02;  2.0194362E-01; -2.0100656E+03;3; -1.0438197E+01;  0.0000000E+00;  4.2736363E+00;0; -1.1442889E-01;  9.8887559E+03;  0.0000000E+00; -4.7628018E-01;  4.0000000E+04;  0.0000000E+00;  3.9535504E+04; -1.3566034E-01;  0.0000000E+00;  2.1231448E-02;  3.0978018E+03;
  9.1570860E-01;  9.9999998E-03;  1.3064960E-01;7613;  5.0097229E-03;  0.0000000E+00;  6.2224739E-03;  9.9772748E+02;  2.0180704E-01; -1.8827606E+03;3; -9.8268671E+00;  0.0000000E+00;  4.3874726E+00;0; -1.1253152E-01;  9.9030283E+03;  0.0000000E+00; -6.1460739E-01;  4.0000000E+04;  0.0000000E+00;  3.9531836E+04; -1.3054267E-01;  0.0000000E+00;  1.8011147E-02;  2.5661541E+03;
  9.1544986E-01;  9.9999998E-03;  1.4072263E-01;7614;  5.1691760E-03;  0.0000000E+00;  6.3201268E-03;  9.9791797E+02;  2.0166151E-01; -1.7249380E+03;3; -9.1779757E+00;  0.0000000E+00;  4.5153008E+00;0; -1.1020562E-01;  9.9196494E+03;  0.0000000E+00; -7.6609331E-01;  4.0000000E+04;  0.0000000E+00;  3.9527812E+04; -1.2534371E-01;  0.0000000E+00;  1.5138089E-02;  1.9435930E+03;
  9.1522276E-01;  9.9999998E-03;  1.5079755E-01;7615;  5.3405352E-03;  0.0000000E+00;  6.3788267E-03;  9.9814008E+02;  2.0153484E-01; -1.5408939E+03;3; -8.5133982E+00;  0.0000000E+00;  4.6080141E+00;0; -1.0750108E-01;  9.9357529E+03;  0.0000000E+00; -9.2273402E-01;  4.0000000E+04;  0.0000000E+00;  3.9524082E+04; -1.2012131E-01;  0.0000000E+00;  1.2620226E-02;  1.3106049E+03;
  9.1507709E-01;  9.9999998E-03;  1.6087052E-01;7616;  5.5207107E-03;  0.0000000E+00;  6.4101149E-03;  9.9838446E+02;  2.0144722E-01; -1.3384305E+03;3; -7.8498349E+00;  0.0000000E+00;  4.6513128E+00;0; -1.0447540E-01;  9.9486016E+03;  0.0000000E+00; -1.0749145E+00;  4.0000000E+04;  0.0000000E+00;  3.9520918E+04; -1.1491770E-01;  0.0000000E+00;  1.0442294E-02;  7.5584052E+02;
  9.1503960E-01;  9.9999998E-03;  1.7093639E-01;7617;  5.7107839E-03;  0.0000000E+00;  6.4288625E-03;  9.9862659E+02;  2.0141883E-01; -1.1378438E+03;3; -7.1674337E+00;  0.0000000E+00;  4.6990328E+00;0; -1.0118532E-01;  9.9563955E+03;  0.0000000E+00; -1.2104461E+00;  4.0000000E+04;  0.0000000E+00;  3.9518957E+04; -1.0976196E-01;  0.0000000E+00;  8.5766353E-03;  4.9861597E+02;
  9.1513199E-01;  9.9999998E-03;  1.8099232E-01;7618;  5.9110741E-03;  0.0000000E+00;  6.4453208E-03;  9.9885413E+02;  2.0145491E-01; -9.4935535E+02;3; -6.4920087E+00;  0.0000000E+00;  4.7086363E+00;0; -9.7698219E-02;  9.9577812E+03;  0.0000000E+00; -1.3129898E+00;  4.0000000E+04;  0.0000000E+00;  3.9518645E+04; -1.0467958E-01;  0.0000000E+00;  6.9813635E-03;  7.5129889E+02;
  9.1537362E-01;  9.9999998E-03;  1.9104421E-01;7619;  6.1242282E-03;  0.0000000E+00;  6.4734160E-03;  9.9904596E+02;  2.0156552E-01; -7.9039697E+02;3; -5.8120604E+00;  0.0000000E+00;  4.6976709E+00;0; -9.4083413E-02;  9.9515264E+03;  0.0000000E+00; -1.3628438E+00;  4.0000000E+04;  0.0000000E+00;  3.9520262E+04; -9.9693716E-02;  0.0000000E+00;  5.6102998E-03;  1.1528129E+03;
  9.1575611E-01;  9.9999998E-03;  2.0110619E-01;7620;  6.3555758E-03;  0.0000000E+00;  6.5246471E-03;  9.9918536E+02;  2.0174268E-01; -6.7489417E+02;3; -5.1351895E+00;  0.0000000E+00;  4.6615820E+00;0; -9.0386428E-02;  9.9377754E+03;  0.0000000E+00; -1.3450080E+00;  4.0000000E+04;  0.0000000E+00;  3.9523656E+04; -9.4822690E-02;  0.0000000E+00;  4.4362596E-03;  1.5826962E+03;
  9.1606677E-01;  9.9999998E-03;  2.1117826E-01;7621;  6.6303788E-03;  0.0000000E+00;  6.6217170E-03;  9.9924268E+02;  2.0188937E-01; -6.2743872E+02;3; -4.4801974E+00;  0.0000000E+00;  4.6130018E+00;0; -8.6549543E-02;  9.9256582E+03;  0.0000000E+00; -1.2565678E+00;  4.0000000E+04;  0.0000000E+00;  3.9528004E+04; -9.0075634E-02;  0.0000000E+00;  3.5260890E-03;  2.0597688E+03;
  9.1623139E-01;  9.9999998E-03;  2.2128701E-01;7622;  6.9590127E-03;  0.0000000E+00;  6.7236791E-03;  9.9914038E+02;  2.0197231E-01; -7.1217700E+02;3; -3.8406577E+00;  0.0000000E+00;  4.5741029E+00;0; -8.2558416E-02;  9.9182158E+03;  0.0000000E+00; -1.0971830E+00;  4.0000000E+04;  0.0000000E+00;  3.9528664E+04; -8.5476585E-02;  0.0000000E+00;  2.9181712E-03;  2.0442982E+03;
  9.1625392E-01;  9.9999998E-03;  2.3139055E-01;7623;  7.3328670E-03;  0.0000000E+00;  6.7494917E-03;  9.9891113E+02;  2.0199525E-01; -9.0209747E+02;3; -3.2374520E+00;  0.0000000E+00;  4.4946928E+00;0; -7.8614548E-02;  9.9160850E+03;  0.0000000E+00; -8.8629836E-01;  4.0000000E+04;  0.0000000E+00;  3.9525148E+04; -8.1085540E-02;  0.0000000E+00;  2.4709890E-03;  1.5385585E+03;
  9.3833262E-01;  9.9999998E-03;  7.0548341E-02;7668;  6.1977957E-04;  0.0000000E+00;  4.7483547E-03;  9.9670996E+02;  2.1395601E-01; -2.7257480E+03;3; -1.3847359E+01;  0.0000000E+00;  2.9243596E+00;0; -1.2944481E-01;  8.8119053E+03;  0.0000000E+00; -1.7873006E-02;  4.0000000E+04;  0.0000000E+00;  3.9495953E+04; -1.6793074E-01;  0.0000000E+00;  3.8485937E-02;  3.4567722E+03;
  9.3838286E-01;  9.9999998E-03;  8.0630086E-02;7669;  7.6625589E-04;  0.0000000E+00;  5.1601748E-03;  9.9673041E+02;  2.1397300E-01; -2.7088103E+03;3; -1.3343434E+01;  0.0000000E+00;  3.2120886E+00;0; -1.2907100E-01;  8.8092871E+03;  0.0000000E+00; -3.9145954E-02;  4.0000000E+04;  0.0000000E+00;  3.9496230E+04; -1.6341861E-01;  0.0000000E+00;  3.4347616E-02;  3.7132710E+03;
  9.3835557E-01;  9.9999998E-03;  9.0692349E-02;7670;  9.5282361E-04;  0.0000000E+00;  5.4917699E-03;  9.9677496E+02;  2.1394125E-01; -2.6718730E+03;3; -1.2777663E+01;  0.0000000E+00;  3.4858530E+00;0; -1.2833647E-01;  8.8105312E+03;  0.0000000E+00; -8.7725759E-02;  4.0000000E+04;  0.0000000E+00;  3.9496219E+04; -1.5849110E-01;  0.0000000E+00;  3.0154627E-02;  3.9422280E+03;
  9.3822885E-01;  9.9999998E-03;  1.0073737E-01;7671;  1.1756914E-03;  0.0000000E+00;  5.7572150E-03;  9.9683710E+02;  2.1385390E-01; -2.6204177E+03;3; -1.2177876E+01;  0.0000000E+00;  3.7012086E+00;0; -1.2718651E-01;  8.8169473E+03;  0.0000000E+00; -1.7397721E-01;  4.0000000E+04;  0.0000000E+00;  3.9496305E+04; -1.5321551E-01;  0.0000000E+00;  2.6029011E-02;  4.0008723E+03;
  9.3800390E-01;  9.9999998E-03;  1.1074816E-01;7672;  1.4313209E-03;  0.0000000E+00;  5.9615271E-03;  9.9691980E+02;  2.1370982E-01; -2.5518765E+03;3; -1.1534672E+01;  0.0000000E+00;  3.8776135E+00;0; -1.2559359E-01;  8.8284062E+03;  0.0000000E+00; -2.9979265E-01;  4.0000000E+04;  0.0000000E+00;  3.9494746E+04; -1.4768094E-01;  0.0000000E+00;  2.2087349E-02;  3.7884260E+03;
  9.3767977E-01;  9.9999998E-03;  1.2076404E-01;7673;  1.7155579E-03;  0.0000000E+00;  6.1088270E-03;  9.9702454E+02;  2.1351205E-01; -2.4651135E+03;3; -1.0855975E+01;  0.0000000E+00;  4.0354915E+00;0; -1.2353541E-01;  8.8452266E+03;  0.0000000E+00; -4.5439711E-01;  4.0000000E+04;  0.0000000E+00;  3.9492188E+04; -1.4194396E-01;  0.0000000E+00;  1.8408548E-02;  3.2871992E+03;
  9.3730342E-01;  9.9999998E-03;  1.3079081E-01;7674;  2.0179092E-03;  0.0000000E+00;  6.1941999E-03;  9.9716260E+02;  2.1329033E-01; -2.3507466E+03;3; -1.0150620E+01;  0.0000000E+00;  4.1582646E+00;0; -1.2102798E-01;  8.8653311E+03;  0.0000000E+00; -6.1442828E-01;  4.0000000E+04;  0.0000000E+00;  3.9488617E+04; -1.3608581E-01;  0.0000000E+00;  1.5057836E-02;  2.5765127E+03;
  9.3695515E-01;  9.9999998E-03;  1.4082919E-01;7675;  2.3247015E-03;  0.0000000E+00;  6.2327199E-03;  9.9733209E+02;  2.1308278E-01; -2.2103062E+03;3; -9.4306641E+00;  0.0000000E+00;  4.2271233E+00;0; -1.1811702E-01;  8.8850400E+03;  0.0000000E+00; -7.4859190E-01;  4.0000000E+04;  0.0000000E+00;  3.9484344E+04; -1.3018474E-01;  0.0000000E+00;  1.2067720E-02;  1.8089083E+03;
  9.3671191E-01;  9.9999998E-03;  1.5087941E-01;7676;  2.6266100E-03;  0.0000000E+00;  6.2384908E-03;  9.9752930E+02;  2.1293531E-01; -2.0469529E+03;3; -8.6804152E+00;  0.0000000E+00;  4.2961607E+00;0; -1.1486196E-01;  8.9007891E+03;  0.0000000E+00; -8.2600904E-01;  4.0000000E+04;  0.0000000E+00;  3.9480148E+04; -1.2429956E-01;  0.0000000E+00;  9.4376067E-03;  1.1702865E+03;
  9.3658936E-01;  9.9999998E-03;  1.6093469E-01;7677;  2.9227943E-03;  0.0000000E+00;  6.2223198E-03;  9.9774042E+02;  2.1285620E-01; -1.8720444E+03;3; -7.9260883E+00;  0.0000000E+00;  4.3148675E+00;0; -1.1131053E-01;  8.9113896E+03;  0.0000000E+00; -8.2590216E-01;  4.0000000E+04;  0.0000000E+00;  3.9477020E+04; -1.1846588E-01;  0.0000000E+00;  7.1553467E-03;  8.6804486E+02;
  9.3658310E-01;  9.9999998E-03;  1.7099182E-01;7678;  3.2179796E-03;  0.0000000E+00;  6.1961161E-03;  9.9795959E+02;  2.1284096E-01; -1.6904200E+03;3; -7.1532760E+00;  0.0000000E+00;  4.3363094E+00;0; -1.0751297E-01;  8.9168584E+03;  0.0000000E+00; -7.4516869E-01;  4.0000000E+04;  0.0000000E+00;  3.9475160E+04; -1.1270797E-01;  0.0000000E+00;  5.1950044E-03;  9.7664435E+02;
  9.3670678E-01;  9.9999998E-03;  1.8105015E-01;7679;  3.5145762E-03;  0.0000000E+00;  6.1645075E-03;  9.9816888E+02;  2.1289676E-01; -1.5170424E+03;3; -6.3821330E+00;  0.0000000E+00;  4.3252931E+00;0; -1.0353786E-01;  8.9160977E+03;  0.0000000E+00; -6.0077286E-01;  4.0000000E+04;  0.0000000E+00;  3.9475199E+04; -1.0705058E-01;  0.0000000E+00;  3.5127173E-03;  1.2994561E+03;
  9.3698734E-01;  9.9999998E-03;  1.9111162E-01;7680;  3.8155974E-03;  0.0000000E+00;  6.1346116E-03;  9.9835229E+02;  2.1303804E-01; -1.3650962E+03;3; -5.6088104E+00;  0.0000000E+00;  4.3010745E+00;0; -9.9463366E-02;  8.9078438E+03;  0.0000000E+00; -4.2461073E-01;  4.0000000E+04;  0.0000000E+00;  3.9477348E+04; -1.0151882E-01;  0.0000000E+00;  2.0554611E-03;  1.6952721E+03;
  9.3740374E-01;  9.9999998E-03;  2.0118086E-01;7681;  4.1306359E-03;  0.0000000E+00;  6.1195977E-03;  9.9849432E+02;  2.1325375E-01; -1.2474205E+03;3; -4.8398390E+00;  0.0000000E+00;  4.2656732E+00;0; -9.5345087E-02;  8.8924658E+03;  0.0000000E+00; -2.5729379E-01;  4.0000000E+04;  0.0000000E+00;  3.9481801E+04; -9.6136920E-02;  0.0000000E+00;  7.9183566E-04;  2.1319346E+03;
  9.3785822E-01;  9.9999998E-03;  2.1126826E-01;7682;  4.4772886E-03;  0.0000000E+00;  6.1362260E-03;  9.9855475E+02;  2.1349473E-01; -1.1973479E+03;3; -4.0829511E+00;  0.0000000E+00;  4.2036152E+00;0; -9.1179624E-02;  8.8736650E+03;  0.0000000E+00; -1.4391740E-01;  4.0000000E+04;  0.0000000E+00;  3.9487223E+04; -9.0930007E-02;  0.0000000E+00; -2.4961733E-04;  2.5490613E+03;
  9.3826604E-01;  9.9999998E-03;  2.2140034E-01;7683;  4.8690322E-03;  0.0000000E+00;  6.1368602E-03;  9.9843176E+02;  2.1372300E-01; -1.2992709E+03;3; -3.3433459E+00;  0.0000000E+00;  4.1293125E+00;0; -8.7003022E-02;  8.8545498E+03;  0.0000000E+00; -1.1916531E-01;  4.0000000E+04;  0.0000000E+00;  3.9486766E+04; -8.5926712E-02;  0.0000000E+00; -1.0763127E-03;  2.3324155E+03;
  9.3849003E-01;  9.9999998E-03;  2.3151313E-01;7684;  5.3181043E-03;  0.0000000E+00;  6.0681342E-03;  9.9814740E+02;  2.1387824E-01; -1.5348196E+03;3; -2.6365662E+00;  0.0000000E+00;  4.0654039E+00;0; -8.3023198E-02;  8.8410234E+03;  0.0000000E+00; -2.0646921E-01;  4.0000000E+04;  0.0000000E+00;  3.9483777E+04; -8.1203811E-02;  0.0000000E+00; -1.8193901E-03;  1.6390222E+03;
  9.6067709E-01;  9.9999998E-03;  7.0561849E-02;7729; -3.5425664E-03;  0.0000000E+00;  4.6674642E-03;  9.9703510E+02;  2.2642371E-01; -2.4563726E+03;3; -1.4641086E+01;  0.0000000E+00;  2.7246325E+00;0; -1.4101718E-01;  7.8768623E+03;  0.0000000E+00;  2.0197427E-02;  4.0000000E+04;  0.0000000E+00;  3.9450680E+04; -1.7582028E-01;  0.0000000E+00;  3.4803096E-02;  3.6266582E+03;
  9.6072787E-01;  9.9999998E-03;  8.0655463E-02;7730; -3.2318770E-03;  0.0000000E+00;  5.0295782E-03;  9.9707043E+02;  2.2645047E-01; -2.4270894E+03;3; -1.4067430E+01;  0.0000000E+00;  2.9787405E+00;0; -1.4008504E-01;  7.8752402E+03;  0.0000000E+00; -2.0943428E-03;  4.0000000E+04;  0.0000000E+00;  3.9450285E+04; -1.7086107E-01;  0.0000000E+00;  3.0776022E-02;  4.0433062E+03;
  9.6072155E-01;  9.9999998E-03;  9.0733089E-02;7731; -2.8785069E-03;  0.0000000E+00;  5.3208857E-03;  9.9711530E+02;  2.2644019E-01; -2.3899053E+03;3; -1.3425536E+01;  0.0000000E+00;  3.2253904E+00;0; -1.3875343E-01;  7.8763062E+03;  0.0000000E+00; -6.3864671E-02;  4.0000000E+04;  0.0000000E+00;  3.9450055E+04; -1.6544132E-01;  0.0000000E+00;  2.6687892E-02;  4.3551470E+03;
  9.6062905E-01;  9.9999998E-03;  1.0080190E-01;7732; -2.4838832E-03;  0.0000000E+00;  5.5448702E-03;  9.9716901E+02;  2.2637700E-01; -2.3454128E+03;3; -1.2744378E+01;  0.0000000E+00;  3.3907435E+00;0; -1.3697238E-01;  7.8812578E+03;  0.0000000E+00; -1.7554478E-01;  4.0000000E+04;  0.0000000E+00;  3.9449797E+04; -1.5962282E-01;  0.0000000E+00;  2.2650434E-02;  4.3749395E+03;
  9.6042758E-01;  9.9999998E-03;  1.1084121E-01;7733; -2.0529593E-03;  0.0000000E+00;  5.7033664E-03;  9.9723413E+02;  2.2624765E-01; -2.2914885E+03;3; -1.2021626E+01;  0.0000000E+00;  3.5304775E+00;0; -1.3471684E-01;  7.8910884E+03;  0.0000000E+00; -3.3058786E-01;  4.0000000E+04;  0.0000000E+00;  3.9448484E+04; -1.5349132E-01;  0.0000000E+00;  1.8774487E-02;  4.0158694E+03;
  9.6014637E-01;  9.9999998E-03;  1.2086322E-01;7734; -1.5996288E-03;  0.0000000E+00;  5.8009238E-03;  9.9731653E+02;  2.2606960E-01; -2.2231941E+03;3; -1.1261682E+01;  0.0000000E+00;  3.6300609E+00;0; -1.3199493E-01;  7.9047412E+03;  0.0000000E+00; -5.0039613E-01;  4.0000000E+04;  0.0000000E+00;  3.9446250E+04; -1.4713036E-01;  0.0000000E+00;  1.5135429E-02;  3.3314231E+03;
  9.5981699E-01;  9.9999998E-03;  1.3088043E-01;7735; -1.1346786E-03;  0.0000000E+00;  5.8472604E-03;  9.9741364E+02;  2.2586301E-01; -2.1427522E+03;3; -1.0469269E+01;  0.0000000E+00;  3.7086077E+00;0; -1.2882785E-01;  7.9211680E+03;  0.0000000E+00; -6.3704145E-01;  4.0000000E+04;  0.0000000E+00;  3.9442965E+04; -1.4061913E-01;  0.0000000E+00;  1.1791280E-02;  2.5126101E+03;
  9.5950860E-01;  9.9999998E-03;  1.4090514E-01;7736; -6.7355507E-04;  0.0000000E+00;  5.8538518E-03;  9.9755109E+02;  2.2566664E-01; -2.0288789E+03;3; -9.6509428E+00;  0.0000000E+00;  3.7591360E+00;0; -1.2526447E-01;  7.9374707E+03;  0.0000000E+00; -6.8400389E-01;  4.0000000E+04;  0.0000000E+00;  3.9439180E+04; -1.3403550E-01;  0.0000000E+00;  8.7710340E-03;  1.8585100E+03;
  9.5929027E-01;  9.9999998E-03;  1.5094438E-01;7737; -2.2722188E-04;  0.0000000E+00;  5.8327513E-03;  9.9771985E+02;  2.2552145E-01; -1.8890806E+03;3; -8.8121758E+00;  0.0000000E+00;  3.7799845E+00;0; -1.2136710E-01;  7.9506982E+03;  0.0000000E+00; -5.9290665E-01;  4.0000000E+04;  0.0000000E+00;  3.9435188E+04; -1.2744357E-01;  0.0000000E+00;  6.0764640E-03;  1.7620055E+03;
  9.5918143E-01;  9.9999998E-03;  1.6099669E-01;7738;  2.0315139E-04;  0.0000000E+00;  5.7927826E-03;  9.9789905E+02;  2.2543970E-01; -1.7405911E+03;3; -7.9565868E+00;  0.0000000E+00;  3.7845523E+00;0; -1.1719053E-01;  7.9596221E+03;  0.0000000E+00; -3.4111431E-01;  4.0000000E+04;  0.0000000E+00;  3.9432121E+04; -1.2088902E-01;  0.0000000E+00;  3.6984817E-03;  2.4582651E+03;
  9.5922089E-01;  9.9999998E-03;  1.7105679E-01;7739;  6.1728188E-04;  0.0000000E+00;  5.7404605E-03;  9.9808533E+02;  2.2544490E-01; -1.5862745E+03;3; -7.0872960E+00;  0.0000000E+00;  3.7765696E+00;0; -1.1279986E-01;  7.9621904E+03;  0.0000000E+00;  5.5025622E-02;  4.0000000E+04;  0.0000000E+00;  3.9430570E+04; -1.1441226E-01;  0.0000000E+00;  1.6124009E-03;  3.7726755E+03;
  9.5944852E-01;  9.9999998E-03;  1.8112564E-01;7740;  1.0175811E-03;  0.0000000E+00;  5.6795622E-03;  9.9825409E+02;  2.2555959E-01; -1.4464762E+03;3; -6.2133083E+00;  0.0000000E+00;  3.7415793E+00;0; -1.0826535E-01;  7.9564580E+03;  0.0000000E+00;  5.3586191E-01;  4.0000000E+04;  0.0000000E+00;  3.9430531E+04; -1.0804548E-01;  0.0000000E+00; -2.1986431E-04;  5.3861836E+03;
  9.5987946E-01;  9.9999998E-03;  1.9120376E-01;7741;  1.4118591E-03;  0.0000000E+00;  5.6147510E-03;  9.9839502E+02;  2.2579342E-01; -1.3296895E+03;3; -5.3344703E+00;  0.0000000E+00;  3.6972144E+00;0; -1.0365556E-01;  7.9415425E+03;  0.0000000E+00;  1.0089855E+00;  4.0000000E+04;  0.0000000E+00;  3.9432457E+04; -1.0181862E-01;  0.0000000E+00; -1.8369419E-03;  6.8845737E+03;
  9.6048719E-01;  9.9999998E-03;  2.0129865E-01;7742;  1.8134360E-03;  0.0000000E+00;  5.5527543E-03;  9.9848810E+02;  2.2613297E-01; -1.2526053E+03;3; -4.4553242E+00;  0.0000000E+00;  3.6349657E+00;0; -9.9020064E-02;  7.9183774E+03;  0.0000000E+00;  1.3737509E+00;  4.0000000E+04;  0.0000000E+00;  3.9436344E+04; -9.5762931E-02;  0.0000000E+00; -3.2571303E-03;  7.8334800E+03;
  9.6122611E-01;  9.9999998E-03;  2.1141087E-01;7743;  2.2354079E-03;  0.0000000E+00;  5.4982239E-03;  9.9851086E+02;  2.2655265E-01; -1.2337417E+03;3; -3.5823019E+00;  0.0000000E+00;  3.5542283E+00;0; -9.4378091E-02;  7.8888896E+03;  0.0000000E+00;  1.5473117E+00;  4.0000000E+04;  0.0000000E+00;  3.9439688E+04; -8.9916505E-02;  0.0000000E+00; -4.4615860E-03;  7.9111704E+03;
  9.6189940E-01;  9.9999998E-03;  2.2155166E-01;7744;  2.6996611E-03;  0.0000000E+00;  5.4141581E-03;  9.9836627E+02;  2.2694707E-01; -1.3534912E+03;3; -2.7243764E+00;  0.0000000E+00;  3.4645391E+00;0; -8.9758269E-02;  7.8601987E+03;  0.0000000E+00;  1.4564939E+00;  4.0000000E+04;  0.0000000E+00;  3.9437289E+04; -8.4326431E-02;  0.0000000E+00; -5.4318383E-03;  6.8077642E+03;
  9.6223432E-01;  9.9999998E-03;  2.3166499E-01;7745;  3.2348479E-03;  0.0000000E+00;  5.2432120E-03;  9.9798114E+02;  2.2717758E-01; -1.6725930E+03;3; -1.9023824E+00;  0.0000000E+00;  3.3756886E+00;0; -8.5419789E-02;  7.8417612E+03;  0.0000000E+00;  1.0458738E+00;  4.0000000E+04;  0.0000000E+00;  3.9432449E+04; -7.9101026E-02;  0.0000000E+00; -6.3187624E-03;  4.5019204E+03;
  9.8429811E-01;  9.9999998E-03;  7.0481248E-02;7790; -8.0022626E-03;  0.0000000E+00;  3.9809239E-03;  9.9794153E+02;  2.4020824E-01; -1.7053813E+03;3; -1.5456872E+01;  0.0000000E+00;  2.3873630E+00;0; -1.5449905E-01;  7.0158789E+03;  0.0000000E+00; -1.1613642E-01;  4.0000000E+04;  0.0000000E+00;  3.9405578E+04; -1.8266310E-01;  0.0000000E+00;  2.8164051E-02;  3.7474963E+03;
  9.8410279E-01;  9.9999998E-03;  8.0566168E-02;7791; -7.4660853E-03;  0.0000000E+00;  4.3096514E-03;  9.9793396E+02;  2.4009396E-01; -1.7116530E+03;3; -1.4792140E+01;  0.0000000E+00;  2.6118097E+00;0; -1.5270527E-01;  7.0234097E+03;  0.0000000E+00; -1.6515756E-01;  4.0000000E+04;  0.0000000E+00;  3.9405012E+04; -1.7757167E-01;  0.0000000E+00;  2.4866402E-02;  4.1563608E+03;
  9.8381430E-01;  9.9999998E-03;  9.0645462E-02;7792; -6.8731299E-03;  0.0000000E+00;  4.5749289E-03;  9.9793451E+02;  2.3991670E-01; -1.7112085E+03;3; -1.4069688E+01;  0.0000000E+00;  2.7679896E+00;0; -1.5046790E-01;  7.0346069E+03;  0.0000000E+00; -2.4643117E-01;  4.0000000E+04;  0.0000000E+00;  3.9404805E+04; -1.7194173E-01;  0.0000000E+00;  2.1473831E-02;  4.4091934E+03;
  9.8344207E-01;  9.9999998E-03;  1.0072319E-01;7793; -6.2382347E-03;  0.0000000E+00;  4.7904132E-03;  9.9794470E+02;  2.3968628E-01; -1.7027644E+03;3; -1.3301442E+01;  0.0000000E+00;  2.8740799E+00;0; -1.4777148E-01;  7.0492866E+03;  0.0000000E+00; -3.6643112E-01;  4.0000000E+04;  0.0000000E+00;  3.9404910E+04; -1.6583267E-01;  0.0000000E+00;  1.8061183E-02;  4.3343857E+03;
  9.8300600E-01;  9.9999998E-03;  1.1078984E-01;7794; -5.5767940E-03;  0.0000000E+00;  4.9489657E-03;  9.9797626E+02;  2.3941520E-01; -1.6766416E+03;3; -1.2485248E+01;  0.0000000E+00;  2.9505386E+00;0; -1.4462237E-01;  7.0668408E+03;  0.0000000E+00; -5.1359737E-01;  4.0000000E+04;  0.0000000E+00;  3.9404051E+04; -1.5932615E-01;  0.0000000E+00;  1.4703781E-02;  3.8789446E+03;
  9.8254508E-01;  9.9999998E-03;  1.2084570E-01;7795; -4.9078213E-03;  0.0000000E+00;  5.0511272E-03;  9.9802576E+02;  2.3912460E-01; -1.6356058E+03;3; -1.1630593E+01;  0.0000000E+00;  3.0125225E+00;0; -1.4104393E-01;  7.0859634E+03;  0.0000000E+00; -6.5172541E-01;  4.0000000E+04;  0.0000000E+00;  3.9402234E+04; -1.5251218E-01;  0.0000000E+00;  1.1468246E-02;  3.1537375E+03;
  9.8210663E-01;  9.9999998E-03;  1.3091883E-01;7796; -4.2454018E-03;  0.0000000E+00;  5.1032249E-03;  9.9810687E+02;  2.3884198E-01; -1.5683979E+03;3; -1.0737526E+01;  0.0000000E+00;  3.0599751E+00;0; -1.3706282E-01;  7.1050806E+03;  0.0000000E+00; -7.2288674E-01;  4.0000000E+04;  0.0000000E+00;  3.9399176E+04; -1.4546725E-01;  0.0000000E+00;  8.4044328E-03;  2.4312930E+03;
  9.8175544E-01;  9.9999998E-03;  1.4100266E-01;7797; -3.6056647E-03;  0.0000000E+00;  5.1172329E-03;  9.9822729E+02;  2.3860723E-01; -1.4686478E+03;3; -9.8200178E+00;  0.0000000E+00;  3.0715852E+00;0; -1.3273624E-01;  7.1217954E+03;  0.0000000E+00; -6.6158241E-01;  4.0000000E+04;  0.0000000E+00;  3.9395574E+04; -1.3829078E-01;  0.0000000E+00;  5.5545368E-03;  2.1365583E+03;
  9.8160666E-01;  9.9999998E-03;  1.5109019E-01;7798; -3.0058122E-03;  0.0000000E+00;  5.0991126E-03;  9.9838721E+02;  2.3848900E-01; -1.3361580E+03;3; -8.8788443E+00;  0.0000000E+00;  3.0759792E+00;0; -1.2815340E-01;  7.1316499E+03;  0.0000000E+00; -4.1663039E-01;  4.0000000E+04;  0.0000000E+00;  3.9391922E+04; -1.3108014E-01;  0.0000000E+00;  2.9267329E-03;  2.7145596E+03;
  9.8166889E-01;  9.9999998E-03;  1.6118705E-01;7799; -2.4421513E-03;  0.0000000E+00;  5.0562588E-03;  9.9857532E+02;  2.3849881E-01; -1.1803107E+03;3; -7.9198298E+00;  0.0000000E+00;  3.0483882E+00;0; -1.2335697E-01;  7.1337827E+03;  0.0000000E+00;  2.7978336E-02;  4.0000000E+04;  0.0000000E+00;  3.9388727E+04; -1.2388024E-01;  0.0000000E+00;  5.2327372E-04;  4.2464883E+03;
  9.8193562E-01;  9.9999998E-03;  1.7129241E-01;7800; -1.9065066E-03;  0.0000000E+00;  4.9932483E-03;  9.9876166E+02;  2.3863001E-01; -1.0259449E+03;3; -6.9461150E+00;  0.0000000E+00;  2.9967198E+00;0; -1.1839075E-01;  7.1280566E+03;  0.0000000E+00;  6.3527340E-01;  4.0000000E+04;  0.0000000E+00;  3.9386449E+04; -1.1673087E-01;  0.0000000E+00; -1.6598844E-03;  6.4911694E+03;
  9.8240685E-01;  9.9999998E-03;  1.8139961E-01;7801; -1.3897807E-03;  0.0000000E+00;  4.9129683E-03;  9.9891742E+02;  2.3888646E-01; -8.9691168E+02;3; -5.9608760E+00;  0.0000000E+00;  2.9224672E+00;0; -1.1331271E-01;  7.1141367E+03;  0.0000000E+00;  1.3128989E+00;  4.0000000E+04;  0.0000000E+00;  3.9385023E+04; -1.0968054E-01;  0.0000000E+00; -3.6321697E-03;  8.9829512E+03;
  9.8305422E-01;  9.9999998E-03;  1.9149697E-01;7802; -8.7919598E-04;  0.0000000E+00;  4.8174062E-03;  9.9902765E+02;  2.3925611E-01; -8.0555640E+02;3; -4.9709182E+00;  0.0000000E+00;  2.8310134E+00;0; -1.0818141E-01;  7.0928130E+03;  0.0000000E+00;  1.9332988E+00;  4.0000000E+04;  0.0000000E+00;  3.9384164E+04; -1.0278130E-01;  0.0000000E+00; -5.4001091E-03;  1.1073451E+04;
  9.8376870E-01;  9.9999998E-03;  2.0157275E-01;7803; -3.5379638E-04;  0.0000000E+00;  4.7110519E-03;  9.9905493E+02;  2.3967032E-01; -7.8298914E+02;3; -3.9844668E+00;  0.0000000E+00;  2.7269182E+00;0; -1.0303434E-01;  7.0678677E+03;  0.0000000E+00;  2.3669069E+00;  4.0000000E+04;  0.0000000E+00;  3.9383766E+04; -9.6089676E-02;  0.0000000E+00; -6.9446666E-03;  1.2103462E+04;
  9.8445672E-01;  9.9999998E-03;  2.1162763E-01;7804;  2.0467972E-04;  0.0000000E+00;  4.6017603E-03;  9.9901508E+02;  2.4007165E-01; -8.1597571E+02;3; -3.0100019E+00;  0.0000000E+00;  2.6138678E+00;0; -9.7888239E-02;  7.0425776E+03;  0.0000000E+00;  2.5117948E+00;  4.0000000E+04;  0.0000000E+00;  3.9385535E+04; -8.9667432E-02;  0.0000000E+00; -8.2208058E-03;  1.1622105E+04;
  9.8519701E-01;  9.9999998E-03;  2.2171208E-01;7805;  7.9375744E-04;  0.0000000E+00;  4.4681355E-03;  9.9886273E+02;  2.4052125E-01; -9.4219415E+02;3; -2.0468094E+00;  0.0000000E+00;  2.4893241E+00;0; -9.2753880E-02;  7.0139204E+03;  0.0000000E+00;  2.3238580E+00;  4.0000000E+04;  0.0000000E+00;  3.9385246E+04; -8.3551764E-02;  0.0000000E+00; -9.2021171E-03;  9.6121533E+03;
  9.8576003E-01;  9.9999998E-03;  2.3180568E-01;7806;  1.4330476E-03;  0.0000000E+00;  4.2508096E-03;  9.9849988E+02;  2.4089439E-01; -1.2428271E+03;3; -1.1095577E+00;  0.0000000E+00;  2.3631556E+00;0; -8.7783717E-02;  6.9890840E+03;  0.0000000E+00;  1.7785383E+00;  4.0000000E+04;  0.0000000E+00;  3.9381328E+04; -7.7801101E-02;  0.0000000E+00; -9.9826157E-03;  6.2886426E+03;
  1.0066880E+00;  9.9999998E-03;  1.4100857E-01;7858; -6.8736635E-03;  0.0000000E+00;  3.7336259E-03;  9.9904297E+02;  2.5382385E-01; -7.9286487E+02;3; -9.9350290E+00;  0.0000000E+00;  2.0953987E+00;0; -1.4476423E-01;  6.3158604E+03;  0.0000000E+00; -6.5264797E-01;  4.0000000E+04;  0.0000000E+00;  3.9352375E+04; -1.4633170E-01;  0.0000000E+00;  1.5674667E-03;  2.6684607E+03;
  1.0066489E+00;  9.9999998E-03;  1.5114927E-01;7859; -6.0857669E-03;  0.0000000E+00;  3.7405088E-03;  9.9924231E+02;  2.5375357E-01; -6.2773407E+02;3; -8.8804474E+00;  0.0000000E+00;  2.0197618E+00;0; -1.3945709E-01;  6.3221538E+03;  0.0000000E+00; -4.0489271E-01;  4.0000000E+04;  0.0000000E+00;  3.9348852E+04; -1.3880359E-01;  0.0000000E+00; -6.5350358E-04;  3.3902358E+03;
  1.0067906E+00;  9.9999998E-03;  1.3087858E-01;7857; -7.6807532E-03;  0.0000000E+00;  3.6938130E-03;  9.9888025E+02;  2.5391412E-01; -9.2767560E+02;3; -1.0964767E+01;  0.0000000E+00;  2.1566646E+00;0; -1.4978603E-01;  6.3080640E+03;  0.0000000E+00; -7.6438427E-01;  4.0000000E+04;  0.0000000E+00;  3.9356477E+04; -1.5366969E-01;  0.0000000E+00;  3.8836596E-03;  2.6304453E+03;
  1.0066704E+00;  9.9999998E-03;  1.6128039E-01;7860; -5.3168102E-03;  0.0000000E+00;  3.7203082E-03;  9.9945471E+02;  2.5370944E-01; -4.5173938E+02;3; -7.8051467E+00;  0.0000000E+00;  1.9449077E+00;0; -1.3392884E-01;  6.3266021E+03;  0.0000000E+00; -1.3732929E-02;  4.0000000E+04;  0.0000000E+00;  3.9345613E+04; -1.3116290E-01;  0.0000000E+00; -2.7659377E-03;  4.8233594E+03;
  1.0070966E+00;  9.9999998E-03;  1.2077881E-01;7856; -8.5269837E-03;  0.0000000E+00;  3.6016437E-03;  9.9877655E+02;  2.5412503E-01; -1.0135989E+03;3; -1.1963585E+01;  0.0000000E+00;  2.1938202E+00;0; -1.5455715E-01;  6.2945200E+03;  0.0000000E+00; -7.7070856E-01;  4.0000000E+04;  0.0000000E+00;  3.9359191E+04; -1.6079149E-01;  0.0000000E+00;  6.2343283E-03;  2.9565056E+03;
  1.0068467E+00;  9.9999998E-03;  1.7139028E-01;7861; -4.5741573E-03;  0.0000000E+00;  3.6726266E-03;  9.9965698E+02;  2.5375298E-01; -2.8418890E+02;3; -6.7152863E+00;  0.0000000E+00;  1.8604311E+00;0; -1.2829000E-01;  6.3255796E+03;  0.0000000E+00;  4.8843831E-01;  4.0000000E+04;  0.0000000E+00;  3.9343930E+04; -1.2352255E-01;  0.0000000E+00; -4.7674514E-03;  6.7270815E+03;
  1.0072750E+00;  9.9999998E-03;  1.8149638E-01;7862; -3.8578426E-03;  0.0000000E+00;  3.5940849E-03;  9.9982599E+02;  2.5396487E-01; -1.4414378E+02;3; -5.6160555E+00;  0.0000000E+00;  1.7459683E+00;0; -1.2263274E-01;  6.3155293E+03;  0.0000000E+00;  1.0258340E+00;  4.0000000E+04;  0.0000000E+00;  3.9342328E+04; -1.1598324E-01;  0.0000000E+00; -6.6495012E-03;  8.6667051E+03;
  1.0077002E+00;  9.9999998E-03;  1.1072157E-01;7855; -9.4245365E-03;  0.0000000E+00;  3.4479555E-03;  9.9872009E+02;  2.5451979E-01; -1.0603629E+03;3; -1.2919655E+01;  0.0000000E+00;  2.2099729E+00;0; -1.5912665E-01;  6.2723672E+03;  0.0000000E+00; -7.1363556E-01;  4.0000000E+04;  0.0000000E+00;  3.9360754E+04; -1.6765000E-01;  0.0000000E+00;  8.5233478E-03;  3.2886841E+03;
  1.0077631E+00;  9.9999998E-03;  1.9158132E-01;7863; -3.1363687E-03;  0.0000000E+00;  3.5007284E-03;  9.9992371E+02;  2.5421792E-01; -6.3207962E+01;3; -4.5170197E+00;  0.0000000E+00;  1.6223352E+00;0; -1.1692835E-01;  6.3023247E+03;  0.0000000E+00;  1.5068356E+00;  4.0000000E+04;  0.0000000E+00;  3.9341480E+04; -1.0857210E-01;  0.0000000E+00; -8.3562611E-03;  1.0129722E+04;
  1.0082982E+00;  9.9999998E-03;  1.0066663E-01;7854; -1.0317856E-02;  0.0000000E+00;  3.2552790E-03;  9.9869824E+02;  2.5490043E-01; -1.0784858E+03;3; -1.3842366E+01;  0.0000000E+00;  2.1774161E+00;0; -1.6330387E-01;  6.2512568E+03;  0.0000000E+00; -6.3075006E-01;  4.0000000E+04;  0.0000000E+00;  3.9360609E+04; -1.7407581E-01;  0.0000000E+00;  1.0771950E-02;  3.4276653E+03;
  1.0083270E+00;  9.9999998E-03;  2.0165700E-01;7864; -2.4016302E-03;  0.0000000E+00;  3.3928109E-03;  9.9992474E+02;  2.5452772E-01; -6.2368481E+01;3; -3.4231610E+00;  0.0000000E+00;  1.4798837E+00;0; -1.1122947E-01;  6.2852476E+03;  0.0000000E+00;  1.8396314E+00;  4.0000000E+04;  0.0000000E+00;  3.9341340E+04; -1.0138231E-01;  0.0000000E+00; -9.8471660E-03;  1.0642883E+04;
  1.0087641E+00;  9.9999998E-03;  9.0599515E-02;7853; -1.1171256E-02;  0.0000000E+00;  3.0387377E-03;  9.9868384E+02;  2.5519052E-01; -1.0904360E+03;3; -1.4717568E+01;  0.0000000E+00;  2.1032789E+00;0; -1.6698605E-01;  6.2349824E+03;  0.0000000E+00; -5.4389113E-01;  4.0000000E+04;  0.0000000E+00;  3.9360180E+04; -1.7997035E-01;  0.0000000E+00;  1.2984313E-02;  3.3450298E+03;
  1.0089718E+00;  9.9999998E-03;  2.1172856E-01;7865; -1.6450864E-03;  0.0000000E+00;  3.2724470E-03;  9.9985327E+02;  2.5490806E-01; -1.2157656E+02;3; -2.3397405E+00;  0.0000000E+00;  1.3295527E+00;0; -1.0554829E-01;  6.2641104E+03;  0.0000000E+00;  1.9520938E+00;  4.0000000E+04;  0.0000000E+00;  3.9342164E+04; -9.4510093E-02;  0.0000000E+00; -1.1038202E-02;  9.9154932E+03;
  1.0090586E+00;  9.9999998E-03;  8.0525763E-02;7852; -1.1959692E-02;  0.0000000E+00;  2.8052856E-03;  9.9867090E+02;  2.5536460E-01; -1.1011519E+03;3; -1.5533510E+01;  0.0000000E+00;  1.9951773E+00;0; -1.7012458E-01;  6.2245459E+03;  0.0000000E+00; -4.5997721E-01;  4.0000000E+04;  0.0000000E+00;  3.9359578E+04; -1.8527718E-01;  0.0000000E+00;  1.5152598E-02;  3.1282471E+03;
  1.0096605E+00;  9.9999998E-03;  2.2182493E-01;7866; -8.5769256E-04;  0.0000000E+00;  3.1276366E-03;  9.9966364E+02;  2.5534195E-01; -2.7865820E+02;3; -1.2694547E+00;  0.0000000E+00;  1.1663834E+00;0; -9.9820025E-02;  6.2399844E+03;  0.0000000E+00;  1.7996259E+00;  4.0000000E+04;  0.0000000E+00;  3.9340938E+04; -8.8009216E-02;  0.0000000E+00; -1.1810812E-02;  7.9328838E+03;
  1.0092690E+00;  9.9999998E-03;  7.0451334E-02;7851; -1.2681562E-02;  0.0000000E+00;  2.5478876E-03;  9.9866052E+02;  2.5548658E-01; -1.1097441E+03;3; -1.6282452E+01;  0.0000000E+00;  1.8494806E+00;0; -1.7278461E-01;  6.2169775E+03;  0.0000000E+00; -3.7844497E-01;  4.0000000E+04;  0.0000000E+00;  3.9359645E+04; -1.8999846E-01;  0.0000000E+00;  1.7213847E-02;  2.9101533E+03;
  1.0103766E+00;  9.9999998E-03;  2.3193179E-01;7867; -3.8901118E-05;  0.0000000E+00;  2.8921063E-03;  9.9931683E+02;  2.5582588E-01; -5.6600751E+02;3; -2.1776006E-01;  0.0000000E+00;  9.9446189E-01;0; -9.4134428E-02;  6.2133184E+03;  0.0000000E+00;  1.3654898E+00;  4.0000000E+04;  0.0000000E+00;  3.9334723E+04; -8.1952289E-02;  0.0000000E+00; -1.2182141E-02;  5.0036138E+03;
  1.0346724E+00;  9.9999998E-03;  1.1077954E-01;7916; -1.3892206E-02;  0.0000000E+00;  1.0816676E-03;  9.9890704E+02;  2.7175251E-01; -9.0550244E+02;3; -1.3324688E+01;  0.0000000E+00;  1.1494381E+00;0; -1.8172961E-01;  5.5138501E+03;  0.0000000E+00; -6.2210447E-01;  4.0000000E+04;  0.0000000E+00;  3.9317457E+04; -1.8015371E-01;  0.0000000E+00; -1.5759032E-03;  3.2999324E+03;
  1.0347492E+00;  9.9999998E-03;  1.0070305E-01;7915; -1.4889170E-02;  0.0000000E+00;  9.6471357E-04;  9.9886700E+02;  2.7178621E-01; -9.3868658E+02;3; -1.4366635E+01;  0.0000000E+00;  1.1797438E+00;0; -1.8632315E-01;  5.5098657E+03;  0.0000000E+00; -5.6087613E-01;  4.0000000E+04;  0.0000000E+00;  3.9317141E+04; -1.8560827E-01;  0.0000000E+00; -7.1488338E-04;  3.1104470E+03;
  1.0350025E+00;  9.9999998E-03;  7.0496045E-02;7912; -1.7606501E-02;  0.0000000E+00;  6.2029104E-04;  9.9878912E+02;  2.7189359E-01; -1.0031784E+03;3; -1.7119629E+01;  0.0000000E+00;  1.0560834E+00;0; -1.9751245E-01;  5.4995771E+03;  0.0000000E+00; -3.2890496E-01;  4.0000000E+04;  0.0000000E+00;  3.9313195E+04; -1.9882976E-01;  0.0000000E+00;  1.3173104E-03;  2.4931555E+03;
  1.0343519E+00;  9.9999998E-03;  1.5116391E-01;7920; -9.7587127E-03;  0.0000000E+00;  1.3507074E-03;  9.9949969E+02;  2.7141082E-01; -4.1450555E+02;3; -8.7418852E+00;  0.0000000E+00;  5.6698626E-01;0; -1.5949467E-01;  5.5390596E+03;  0.0000000E+00; -6.8814313E-01;  4.0000000E+04;  0.0000000E+00;  3.9307137E+04; -1.5367839E-01;  0.0000000E+00; -5.8162799E-03;  3.8766721E+03;
  1.0341231E+00;  9.9999998E-03;  1.6125004E-01;7921; -8.7044919E-03;  0.0000000E+00;  1.3683207E-03;  9.9973169E+02;  2.7115801E-01; -2.2231403E+02;3; -7.5403786E+00;  0.0000000E+00;  4.0241528E-01;0; -1.5309013E-01;  5.5509878E+03;  0.0000000E+00; -6.0912329E-01;  4.0000000E+04;  0.0000000E+00;  3.9304145E+04; -1.4605938E-01;  0.0000000E+00; -7.0307557E-03;  4.3310723E+03;
  1.0340496E+00;  9.9999998E-03;  1.7135751E-01;7922; -7.6757828E-03;  0.0000000E+00;  1.3501357E-03;  9.9995886E+02;  2.7099997E-01; -3.4073009E+01;3; -6.3274708E+00;  0.0000000E+00;  2.5108171E-01;0; -1.4663802E-01;  5.5582583E+03;  0.0000000E+00; -4.8624742E-01;  4.0000000E+04;  0.0000000E+00;  3.9301871E+04; -1.3831232E-01;  0.0000000E+00; -8.3257006E-03;  4.8806426E+03;
  1.0350899E+00;  9.9999998E-03;  9.0642944E-02;7914; -1.5903158E-02;  0.0000000E+00;  8.1940967E-04;  9.9885767E+02;  2.7199727E-01; -9.4639008E+02;3; -1.5359408E+01;  0.0000000E+00;  1.1648791E+00;0; -1.9075114E-01;  5.4991016E+03;  0.0000000E+00; -4.8692828E-01;  4.0000000E+04;  0.0000000E+00;  3.9315441E+04; -1.9065298E-01;  0.0000000E+00; -9.8147437E-05;  2.8693196E+03;
  1.0349674E+00;  9.9999998E-03;  1.2088682E-01;7917; -1.2939496E-02;  0.0000000E+00;  1.1479190E-03;  9.9899921E+02;  2.7196655E-01; -8.2915918E+02;3; -1.2234674E+01;  0.0000000E+00;  1.0694273E+00;0; -1.7706108E-01;  5.5083325E+03;  0.0000000E+00; -6.7049557E-01;  4.0000000E+04;  0.0000000E+00;  3.9315777E+04; -1.7439179E-01;  0.0000000E+00; -2.6692916E-03;  3.4175049E+03;
  1.0347197E+00;  9.9999998E-03;  1.4108343E-01;7919; -1.0843527E-02;  0.0000000E+00;  1.2940384E-03;  9.9928857E+02;  2.7173752E-01; -5.8941364E+02;3; -9.9294853E+00;  0.0000000E+00;  7.5445205E-01;0; -1.6579646E-01;  5.5234780E+03;  0.0000000E+00; -7.1827847E-01;  4.0000000E+04;  0.0000000E+00;  3.9310332E+04; -1.6107170E-01;  0.0000000E+00; -4.7247522E-03;  3.6099604E+03;
  1.0351453E+00;  9.9999998E-03;  8.0572739E-02;7913; -1.6809031E-02;  0.0000000E+00;  7.0663769E-04;  9.9883685E+02;  2.7201241E-01; -9.6362408E+02;3; -1.6280041E+01;  0.0000000E+00;  1.1248827E+00;0; -1.9445872E-01;  5.4965874E+03;  0.0000000E+00; -4.0878817E-01;  4.0000000E+04;  0.0000000E+00;  3.9313918E+04; -1.9503927E-01;  0.0000000E+00;  5.8054348E-04;  2.6411345E+03;
  1.0339830E+00;  9.9999998E-03;  1.8147480E-01;7923; -6.6453246E-03;  0.0000000E+00;  1.3181211E-03;  1.0001439E+03;  2.7083760E-01;  1.1920615E+02;3; -5.1128283E+00;  0.0000000E+00;  1.1541303E-01;0; -1.4008176E-01;  5.5644624E+03;  0.0000000E+00; -3.3166561E-01;  4.0000000E+04;  0.0000000E+00;  3.9300934E+04; -1.3046108E-01;  0.0000000E+00; -9.6206833E-03;  5.3670913E+03;
  1.0339080E+00;  9.9999998E-03;  1.9160120E-01;7924; -5.6061447E-03;  0.0000000E+00;  1.2779632E-03;  1.0002382E+03;  2.7068180E-01;  1.9732716E+02;3; -3.9051640E+00;  0.0000000E+00; -2.4602907E-02;0; -1.3347289E-01;  5.5694814E+03;  0.0000000E+00; -1.6708599E-01;  4.0000000E+04;  0.0000000E+00;  3.9301000E+04; -1.2262687E-01;  0.0000000E+00; -1.0846012E-02;  5.6374414E+03;
  1.0349830E+00;  9.9999998E-03;  1.3098998E-01;7918; -1.1918069E-02;  0.0000000E+00;  1.2199619E-03;  9.9912085E+02;  2.7196249E-01; -7.2837219E+02;3; -1.1098129E+01;  0.0000000E+00;  9.3160361E-01;0; -1.7172943E-01;  5.5115366E+03;  0.0000000E+00; -7.0704782E-01;  4.0000000E+04;  0.0000000E+00;  3.9313543E+04; -1.6802558E-01;  0.0000000E+00; -3.7038454E-03;  3.4912097E+03;
  1.0340290E+00;  9.9999998E-03;  2.0172355E-01;7925; -4.5752088E-03;  0.0000000E+00;  1.2123622E-03;  1.0002310E+03;  2.7068788E-01;  1.9130266E+02;3; -2.7060802E+00;  0.0000000E+00; -1.8607607E-01;0; -1.2701970E-01;  5.5671904E+03;  0.0000000E+00; -3.7878465E-02;  4.0000000E+04;  0.0000000E+00;  3.9301000E+04; -1.1509869E-01;  0.0000000E+00; -1.1921015E-02;  5.5300234E+03;
  1.0342804E+00;  9.9999998E-03;  2.1182011E-01;7926; -3.5362758E-03;  0.0000000E+00;  1.1324940E-03;  1.0001191E+03;  2.7081281E-01;  9.8663582E+01;3; -1.5246019E+00;  0.0000000E+00; -3.5960171E-01;0; -1.2067626E-01;  5.5592603E+03;  0.0000000E+00;  2.6568729E-02;  4.0000000E+04;  0.0000000E+00;  3.9301973E+04; -1.0798124E-01;  0.0000000E+00; -1.2695014E-02;  4.9896748E+03;
  1.0347514E+00;  9.9999998E-03;  2.2191519E-01;7927; -2.4855249E-03;  0.0000000E+00;  1.0330772E-03;  9.9992029E+02;  2.7111843E-01; -6.6022621E+01;3; -3.5771289E-01;  0.0000000E+00; -5.5915022E-01;0; -1.1440141E-01;  5.5432505E+03;  0.0000000E+00; -1.2532267E-02;  4.0000000E+04;  0.0000000E+00;  3.9303605E+04; -1.0143583E-01;  0.0000000E+00; -1.2965578E-02;  4.0260007E+03;
  1.0353693E+00;  9.9999998E-03;  2.3203461E-01;7928; -1.4077305E-03;  0.0000000E+00;  8.6296775E-04;  9.9955103E+02;  2.7156669E-01; -3.7198834E+02;3;  7.9302138E-01;  0.0000000E+00; -7.6993638E-01;0; -1.0806011E-01;  5.5214229E+03;  0.0000000E+00; -1.7778932E-01;  4.0000000E+04;  0.0000000E+00;  3.9299430E+04; -9.5486201E-02;  0.0000000E+00; -1.2573915E-02;  2.5500862E+03;
  1.0623225E+00;  9.9999998E-03;  7.0583068E-02;7973; -2.3173165E-02;  0.0000000E+00; -1.5449215E-03;  9.9791473E+02;  2.8982359E-01; -1.7275975E+03;3; -1.7936474E+01;  0.0000000E+00; -5.8418579E-02;0; -2.2798729E-01;  4.8410103E+03;  0.0000000E+00;  1.5087989E-01;  4.0000000E+04;  0.0000000E+00;  3.9259457E+04; -2.0792492E-01;  0.0000000E+00; -2.0062367E-02;  2.2341328E+03;
  1.0613322E+00;  9.9999998E-03;  2.3219296E-01;7989; -3.3890693E-03;  0.0000000E+00; -2.4857661E-03;  9.9898297E+02;  2.8836367E-01; -8.4258966E+02;3;  2.0276992E+00;  0.0000000E+00; -2.9386997E+00;0; -1.3128532E-01;  4.8964229E+03;  0.0000000E+00; -2.0711479E+00;  4.0000000E+04;  0.0000000E+00;  3.9259113E+04; -1.1859795E-01;  0.0000000E+00; -1.2687374E-02;  3.2621262E+03;
  1.0610107E+00;  9.9999998E-03;  2.2208495E-01;7988; -4.7509689E-03;  0.0000000E+00; -2.3489380E-03;  9.9933795E+02;  2.8809950E-01; -5.4847583E+02;3;  7.9816526E-01;  0.0000000E+00; -2.6989362E+00;0; -1.3771652E-01;  4.9088062E+03;  0.0000000E+00; -2.1266296E+00;  4.0000000E+04;  0.0000000E+00;  3.9261633E+04; -1.2393421E-01;  0.0000000E+00; -1.3782309E-02;  3.7077622E+03;
  1.0627989E+00;  9.9999998E-03;  8.0673181E-02;7974; -2.2384748E-02;  0.0000000E+00; -1.7128391E-03;  9.9791394E+02;  2.9017302E-01; -1.7282395E+03;3; -1.6994528E+01;  0.0000000E+00; -1.4781775E-01;0; -2.2483796E-01;  4.8301982E+03;  0.0000000E+00;  1.1654250E-01;  4.0000000E+04;  0.0000000E+00;  3.9261973E+04; -2.0536809E-01;  0.0000000E+00; -1.9469880E-02;  2.6765078E+03;
  1.0608562E+00;  9.9999998E-03;  2.1202031E-01;7987; -6.0940273E-03;  0.0000000E+00; -2.2763251E-03;  9.9948566E+02;  2.8799805E-01; -4.2610947E+02;3; -4.5468050E-01;  0.0000000E+00; -2.4487314E+00;0; -1.4422035E-01;  4.9150977E+03;  0.0000000E+00; -2.1332808E+00;  4.0000000E+04;  0.0000000E+00;  3.9258473E+04; -1.2994228E-01;  0.0000000E+00; -1.4278077E-02;  3.8772871E+03;
  1.0608379E+00;  9.9999998E-03;  2.0195910E-01;7986; -7.4348846E-03;  0.0000000E+00; -2.2065241E-03;  9.9952252E+02;  2.8802678E-01; -3.9559195E+02;3; -1.7352545E+00;  0.0000000E+00; -2.2073529E+00;0; -1.5085575E-01;  4.9159800E+03;  0.0000000E+00; -2.0737376E+00;  4.0000000E+04;  0.0000000E+00;  3.9257926E+04; -1.3652003E-01;  0.0000000E+00; -1.4335724E-02;  4.3136548E+03;
  1.0632715E+00;  9.9999998E-03;  9.0757236E-02;7975; -2.1509903E-02;  0.0000000E+00; -1.8595337E-03;  9.9788550E+02;  2.9052821E-01; -1.7517941E+03;3; -1.5959697E+01;  0.0000000E+00; -2.6133794E-01;0; -2.2121716E-01;  4.8193154E+03;  0.0000000E+00;  3.0366622E-02;  4.0000000E+04;  0.0000000E+00;  3.9265160E+04; -2.0240435E-01;  0.0000000E+00; -1.8812800E-02;  3.1606575E+03;
  1.0609223E+00;  9.9999998E-03;  1.9187170E-01;7985; -8.7763304E-03;  0.0000000E+00; -2.1484103E-03;  9.9944098E+02;  2.8816858E-01; -4.6314529E+02;3; -3.0439472E+00;  0.0000000E+00; -1.9720900E+00;0; -1.5769957E-01;  4.9122969E+03;  0.0000000E+00; -1.9517030E+00;  4.0000000E+04;  0.0000000E+00;  3.9259184E+04; -1.4352770E-01;  0.0000000E+00; -1.4171875E-02;  4.8766318E+03;
  1.0611216E+00;  9.9999998E-03;  1.8176517E-01;7984; -1.0122144E-02;  0.0000000E+00; -2.1072496E-03;  9.9924652E+02;  2.8842068E-01; -6.2422644E+02;3; -4.3728571E+00;  0.0000000E+00; -1.7493192E+00;0; -1.6475853E-01;  4.9040859E+03;  0.0000000E+00; -1.7872349E+00;  4.0000000E+04;  0.0000000E+00;  3.9260730E+04; -1.5081182E-01;  0.0000000E+00; -1.3946719E-02;  5.3438901E+03;
  1.0615972E+00;  9.9999998E-03;  1.7165688E-01;7983; -1.1505412E-02;  0.0000000E+00; -2.1082484E-03;  9.9895874E+02;  2.8889075E-01; -8.6263837E+02;3; -5.7085934E+00;  0.0000000E+00; -1.5507898E+00;0; -1.7213678E-01;  4.8876919E+03;  0.0000000E+00; -1.6056744E+00;  4.0000000E+04;  0.0000000E+00;  3.9261992E+04; -1.5830100E-01;  0.0000000E+00; -1.3835795E-02;  5.5680757E+03;
  1.0638177E+00;  9.9999998E-03;  1.0084416E-01;7976; -2.0577714E-02;  0.0000000E+00; -1.9990595E-03;  9.9783838E+02;  2.9093581E-01; -1.7908546E+03;3; -1.4841722E+01;  0.0000000E+00; -4.0441710E-01;0; -2.1721613E-01;  4.8068359E+03;  0.0000000E+00; -1.1080017E-01;  4.0000000E+04;  0.0000000E+00;  3.9267559E+04; -1.9903696E-01;  0.0000000E+00; -1.8179171E-02;  3.6210012E+03;
  1.0623649E+00;  9.9999998E-03;  1.6155218E-01;7982; -1.2940018E-02;  0.0000000E+00; -2.1545042E-03;  9.9863568E+02;  2.8957349E-01; -1.1302838E+03;3; -7.0474324E+00;  0.0000000E+00; -1.3803766E+00;0; -1.7977686E-01;  4.8634941E+03;  0.0000000E+00; -1.4164423E+00;  4.0000000E+04;  0.0000000E+00;  3.9263699E+04; -1.6579863E-01;  0.0000000E+00; -1.3978223E-02;  5.4941523E+03;
  1.0642549E+00;  9.9999998E-03;  1.1094760E-01;7977; -1.9551979E-02;  0.0000000E+00; -2.1189877E-03;  9.9780511E+02;  2.9125988E-01; -1.8184092E+03;3; -1.3645659E+01;  0.0000000E+00; -5.6780493E-01;0; -2.1264026E-01;  4.7976221E+03;  0.0000000E+00; -3.0324510E-01;  4.0000000E+04;  0.0000000E+00;  3.9269309E+04; -1.9516262E-01;  0.0000000E+00; -1.7477635E-02;  3.9794502E+03;
  1.0630971E+00;  9.9999998E-03;  1.5142959E-01;7981; -1.4369788E-02;  0.0000000E+00; -2.1973057E-03;  9.9832788E+02;  2.9021689E-01; -1.3853370E+03;3; -8.3959351E+00;  0.0000000E+00; -1.2156206E+00;0; -1.8727899E-01;  4.8402339E+03;  0.0000000E+00; -1.2122225E+00;  4.0000000E+04;  0.0000000E+00;  3.9265676E+04; -1.7291363E-01;  0.0000000E+00; -1.4365361E-02;  5.1662173E+03;
  1.0643210E+00;  9.9999998E-03;  1.2105978E-01;7978; -1.8383108E-02;  0.0000000E+00; -2.1899038E-03;  9.9782086E+02;  2.9129338E-01; -1.8053724E+03;3; -1.2385042E+01;  0.0000000E+00; -7.2979546E-01;0; -2.0723124E-01;  4.7982373E+03;  0.0000000E+00; -5.2945828E-01;  4.0000000E+04;  0.0000000E+00;  3.9269996E+04; -1.9061351E-01;  0.0000000E+00; -1.6617732E-02;  4.2266797E+03;
  1.0637050E+00;  9.9999998E-03;  1.4130209E-01;7980; -1.5769223E-02;  0.0000000E+00; -2.2232840E-03;  9.9808032E+02;  2.9074740E-01; -1.5904167E+03;3; -9.7443247E+00;  0.0000000E+00; -1.0533302E+00;0; -1.9445267E-01;  4.8204839E+03;  0.0000000E+00; -9.9455339E-01;  4.0000000E+04;  0.0000000E+00;  3.9267715E+04; -1.7947404E-01;  0.0000000E+00; -1.4978638E-02;  4.7669609E+03;
  1.0641184E+00;  9.9999998E-03;  1.3117892E-01;7979; -1.7112445E-02;  0.0000000E+00; -2.2218933E-03;  9.9790839E+02;  2.9111177E-01; -1.7328318E+03;3; -1.1078961E+01;  0.0000000E+00; -8.9155841E-01;0; -2.0113218E-01;  4.8063086E+03;  0.0000000E+00; -7.6493597E-01;  4.0000000E+04;  0.0000000E+00;  3.9269211E+04; -1.8538077E-01;  0.0000000E+00; -1.5751401E-02;  4.4526240E+03;
  1.0904950E+00;  9.9999998E-03;  2.3241521E-01;8050; -6.9798874E-03;  0.0000000E+00; -7.9146475E-03;  9.9738043E+02;  3.0777422E-01; -2.1702444E+03;3;  3.7088118E+00;  0.0000000E+00; -5.7627873E+00;0; -1.6097929E-01;  4.2878145E+03;  0.0000000E+00; -3.9010062E+00;  4.0000000E+04;  0.0000000E+00;  3.9211734E+04; -1.4744548E-01;  0.0000000E+00; -1.3533804E-02;  4.4770225E+03;
  1.0902826E+00;  9.9999998E-03;  2.2230130E-01;8049; -8.5951751E-03;  0.0000000E+00; -7.6521127E-03;  9.9770721E+02;  3.0754563E-01; -1.8995381E+03;3;  2.3622730E+00;  0.0000000E+00; -5.5019693E+00;0; -1.6517042E-01;  4.2966226E+03;  0.0000000E+00; -3.9217501E+00;  4.0000000E+04;  0.0000000E+00;  3.9215887E+04; -1.4972752E-01;  0.0000000E+00; -1.5442895E-02;  5.6368394E+03;
  1.0902179E+00;  9.9999998E-03;  2.1223138E-01;8048; -1.0213437E-02;  0.0000000E+00; -7.4897991E-03;  9.9772217E+02;  3.0748886E-01; -1.8871434E+03;3;  9.7475851E-01;  0.0000000E+00; -5.2233362E+00;0; -1.7002976E-01;  4.2999565E+03;  0.0000000E+00; -3.7884922E+00;  4.0000000E+04;  0.0000000E+00;  3.9213117E+04; -1.5268868E-01;  0.0000000E+00; -1.7341072E-02;  6.3347065E+03;
  1.0902694E+00;  9.9999998E-03;  2.0218731E-01;8047; -1.1848854E-02;  0.0000000E+00; -7.3273191E-03;  9.9757391E+02;  3.0755484E-01; -2.0099539E+03;3; -4.4879213E-01;  0.0000000E+00; -4.9480896E+00;0; -1.7528114E-01;  4.2987036E+03;  0.0000000E+00; -3.5297089E+00;  4.0000000E+04;  0.0000000E+00;  3.9211113E+04; -1.5623318E-01;  0.0000000E+00; -1.9047955E-02;  7.1443467E+03;
  1.0906229E+00;  9.9999998E-03;  1.9212583E-01;8046; -1.3547846E-02;  0.0000000E+00; -7.2041666E-03;  9.9726849E+02;  3.0788890E-01; -2.2629819E+03;3; -1.8957317E+00;  0.0000000E+00; -4.7024393E+00;0; -1.8088290E-01;  4.2888823E+03;  0.0000000E+00; -3.1905227E+00;  4.0000000E+04;  0.0000000E+00;  3.9211414E+04; -1.6017288E-01;  0.0000000E+00; -2.0710016E-02;  7.9018057E+03;
  1.0926580E+00;  9.9999998E-03;  7.0812665E-02;8034; -3.0202128E-02;  0.0000000E+00; -4.2344476E-03;  9.9552734E+02;  3.1027314E-01; -3.7054980E+03;3; -1.8711832E+01;  0.0000000E+00; -1.4518203E+00;0; -2.4263309E-01;  4.2122827E+03;  0.0000000E+00;  5.3932738E-01;  4.0000000E+04;  0.0000000E+00;  3.9192836E+04; -1.9506796E-01;  0.0000000E+00; -4.7565129E-02;  2.5846702E+03;
  1.0911602E+00;  9.9999998E-03;  1.8204688E-01;8045; -1.5280063E-02;  0.0000000E+00; -7.1019782E-03;  9.9684656E+02;  3.0840150E-01; -2.6125498E+03;3; -3.3665867E+00;  0.0000000E+00; -4.4706812E+00;0; -1.8662518E-01;  4.2734487E+03;  0.0000000E+00; -2.8070257E+00;  4.0000000E+04;  0.0000000E+00;  3.9211809E+04; -1.6420716E-01;  0.0000000E+00; -2.2418020E-02;  8.2631934E+03;
  1.0930886E+00;  9.9999998E-03;  8.0920294E-02;8035; -2.9399797E-02;  0.0000000E+00; -4.7094617E-03;  9.9544318E+02;  3.1057808E-01; -3.7752236E+03;3; -1.7621597E+01;  0.0000000E+00; -1.7324868E+00;0; -2.3828126E-01;  4.2036270E+03;  0.0000000E+00;  5.2697521E-01;  4.0000000E+04;  0.0000000E+00;  3.9197484E+04; -1.9281040E-01;  0.0000000E+00; -4.5470867E-02;  2.9522559E+03;
  1.0918841E+00;  9.9999998E-03;  1.7194815E-01;8044; -1.7043529E-02;  0.0000000E+00; -7.0203021E-03;  9.9634479E+02;  3.0907667E-01; -3.0282383E+03;3; -4.8553004E+00;  0.0000000E+00; -4.2533278E+00;0; -1.9229332E-01;  4.2530293E+03;  0.0000000E+00; -2.4168987E+00;  4.0000000E+04;  0.0000000E+00;  3.9212137E+04; -1.6800943E-01;  0.0000000E+00; -2.4283886E-02;  8.0065537E+03;
  1.0936968E+00;  9.9999998E-03;  9.1015033E-02;8036; -2.8545905E-02;  0.0000000E+00; -5.1615490E-03;  9.9529382E+02;  3.1102455E-01; -3.8989724E+03;3; -1.6432528E+01;  0.0000000E+00; -2.0449824E+00;0; -2.3322982E-01;  4.1909409E+03;  0.0000000E+00;  4.0965006E-01;  4.0000000E+04;  0.0000000E+00;  3.9202625E+04; -1.8982482E-01;  0.0000000E+00; -4.3404993E-02;  3.2391304E+03;
  1.0927436E+00;  9.9999998E-03;  1.6182423E-01;8043; -1.8823911E-02;  0.0000000E+00; -6.9483584E-03;  9.9584406E+02;  3.0985257E-01; -3.4430876E+03;3; -6.3584957E+00;  0.0000000E+00; -4.0427165E+00;0; -1.9767570E-01;  4.2295093E+03;  0.0000000E+00; -2.0395298E+00;  4.0000000E+04;  0.0000000E+00;  3.9212258E+04; -1.7128494E-01;  0.0000000E+00; -2.6390761E-02;  7.1349717E+03;
  1.0942539E+00;  9.9999998E-03;  1.0110165E-01;8037; -2.7579099E-02;  0.0000000E+00; -5.5755144E-03;  9.9512933E+02;  3.1142932E-01; -4.0352141E+03;3; -1.5151525E+01;  0.0000000E+00; -2.3721721E+00;0; -2.2788638E-01;  4.1794697E+03;  0.0000000E+00;  1.8012555E-01;  4.0000000E+04;  0.0000000E+00;  3.9207590E+04; -1.8667042E-01;  0.0000000E+00; -4.1215949E-02;  3.5037075E+03;
  1.0935541E+00;  9.9999998E-03;  1.5167943E-01;8042; -2.0568978E-02;  0.0000000E+00; -6.8514301E-03;  9.9540491E+02;  3.1058696E-01; -3.8069263E+03;3; -7.8739653E+00;  0.0000000E+00; -3.8206084E+00;0; -2.0274460E-01;  4.2072705E+03;  0.0000000E+00; -1.6719906E+00;  4.0000000E+04;  0.0000000E+00;  3.9212641E+04; -1.7402788E-01;  0.0000000E+00; -2.8716721E-02;  5.9461929E+03;
  1.0946274E+00;  9.9999998E-03;  1.1118869E-01;8038; -2.6467504E-02;  0.0000000E+00; -5.9416015E-03;  9.9498950E+02;  3.1169212E-01; -4.1510620E+03;3; -1.3791184E+01;  0.0000000E+00; -2.6988871E+00;0; -2.2255071E-01;  4.1723232E+03;  0.0000000E+00; -1.4247927E-01;  4.0000000E+04;  0.0000000E+00;  3.9211090E+04; -1.8369047E-01;  0.0000000E+00; -3.8860232E-02;  3.7797100E+03;
  1.0941755E+00;  9.9999998E-03;  1.4153115E-01;8041; -2.2228252E-02;  0.0000000E+00; -6.7051076E-03;  9.9510364E+02;  3.1116274E-01; -4.0564973E+03;3; -9.3913927E+00;  0.0000000E+00; -3.5744355E+00;0; -2.0764154E-01;  4.1896362E+03;  0.0000000E+00; -1.3008327E+00;  4.0000000E+04;  0.0000000E+00;  3.9213434E+04; -1.7644912E-01;  0.0000000E+00; -3.1192420E-02;  4.9217471E+03;
  1.0947300E+00;  9.9999998E-03;  1.2128211E-01;8039; -2.5195621E-02;  0.0000000E+00; -6.2510534E-03;  9.9491492E+02;  3.1173187E-01; -4.2128862E+03;3; -1.2366967E+01;  0.0000000E+00; -3.0111609E+00;0; -2.1743409E-01;  4.1716968E+03;  0.0000000E+00; -5.2072406E-01;  4.0000000E+04;  0.0000000E+00;  3.9213480E+04; -1.8108808E-01;  0.0000000E+00; -3.6346015E-02;  4.0394551E+03;
  1.0945609E+00;  9.9999998E-03;  1.3139404E-01;8040; -2.3773644E-02;  0.0000000E+00; -6.5032854E-03;  9.9494067E+02;  3.1154048E-01; -4.1915049E+03;3; -1.0895187E+01;  0.0000000E+00; -3.3027470E+00;0; -2.1251914E-01;  4.1778745E+03;  0.0000000E+00; -9.1527683E-01;  4.0000000E+04;  0.0000000E+00;  3.9214000E+04; -1.7876686E-01;  0.0000000E+00; -3.3752285E-02;  4.3379048E+03;
  1.1253278E+00;  9.9999998E-03;  7.0946947E-02;8095; -3.8184952E-02;  0.0000000E+00; -7.1680704E-03;  9.9275519E+02;  3.3249098E-01; -6.0021299E+03;3; -1.9417261E+01;  0.0000000E+00; -3.5917051E+00;0;  2.9393137E-02;  3.6552048E+03;  0.0000000E+00;  3.9704648E-01;  4.0000000E+04;  0.0000000E+00;  3.9112137E+04;  1.0240103E-01;  0.0000000E+00; -7.3007897E-02;  3.2280300E+03;
  1.1256038E+00;  9.9999998E-03;  8.1076451E-02;8096; -3.7372630E-02;  0.0000000E+00; -8.0087762E-03;  9.9266821E+02;  3.3266026E-01; -6.0741758E+03;3; -1.8155092E+01;  0.0000000E+00; -4.1350369E+00;0;  3.1712137E-02;  3.6506396E+03;  0.0000000E+00;  4.1535348E-01;  4.0000000E+04;  0.0000000E+00;  3.9118223E+04;  1.0219480E-01;  0.0000000E+00; -7.0482664E-02;  2.9656353E+03;
  1.1259991E+00;  9.9999998E-03;  9.1179967E-02;8097; -3.6471196E-02;  0.0000000E+00; -8.8019948E-03;  9.9251709E+02;  3.3292490E-01; -6.1993555E+03;3; -1.6791891E+01;  0.0000000E+00; -4.6894908E+00;0;  3.5334788E-02;  3.6436841E+03;  0.0000000E+00;  3.4827706E-01;  4.0000000E+04;  0.0000000E+00;  3.9124934E+04;  1.0321376E-01;  0.0000000E+00; -6.7878976E-02;  2.6508635E+03;
  1.1265466E+00;  9.9999998E-03;  1.0125943E-01;8098; -3.5489507E-02;  0.0000000E+00; -9.5601566E-03;  9.9232709E+02;  3.3331278E-01; -6.3567808E+03;3; -1.5341417E+01;  0.0000000E+00; -5.2596078E+00;0;  4.0598966E-02;  3.6340952E+03;  0.0000000E+00;  1.8139368E-01;  4.0000000E+04;  0.0000000E+00;  3.9130551E+04;  1.0584777E-01;  0.0000000E+00; -6.5248802E-02;  2.3317832E+03;
  1.1233903E+00;  9.9999998E-03;  2.3267674E-01;8111; -1.2517210E-02;  0.0000000E+00; -1.5295270E-02;  9.9525647E+02;  3.3003551E-01; -3.9298684E+03;3;  5.9034095E+00;  0.0000000E+00; -9.6392612E+00;0; -1.2297848E-01;  3.7146738E+03;  0.0000000E+00; -4.3814092E+00;  4.0000000E+04;  0.0000000E+00;  3.9158457E+04; -1.0454446E-01;  0.0000000E+00; -1.8434022E-02;  2.8503694E+03;
  1.1231161E+00;  9.9999998E-03;  2.2254172E-01;8110; -1.4254359E-02;  0.0000000E+00; -1.4790447E-02;  9.9552625E+02;  3.2970813E-01; -3.7063716E+03;3;  4.3558903E+00;  0.0000000E+00; -9.3511219E+00;0; -1.1339062E-01;  3.7237700E+03;  0.0000000E+00; -4.2107525E+00;  4.0000000E+04;  0.0000000E+00;  3.9162406E+04; -9.2780426E-02;  0.0000000E+00; -2.0610189E-02;  4.1741738E+03;
  1.1229966E+00;  9.9999998E-03;  2.1244664E-01;8109; -1.6056394E-02;  0.0000000E+00; -1.4420544E-02;  9.9538074E+02;  3.2958797E-01; -3.8269099E+03;3;  2.7546515E+00;  0.0000000E+00; -9.0730953E+00;0; -1.0367146E-01;  3.7272373E+03;  0.0000000E+00; -3.9281557E+00;  4.0000000E+04;  0.0000000E+00;  3.9157422E+04; -7.9686433E-02;  0.0000000E+00; -2.3985030E-02;  5.1847651E+03;
  1.1230273E+00;  9.9999998E-03;  2.0239200E-01;8108; -1.7925091E-02;  0.0000000E+00; -1.4062373E-02;  9.9499084E+02;  3.2964125E-01; -4.1499590E+03;3;  1.1204685E+00;  0.0000000E+00; -8.8123341E+00;0; -9.2937350E-02;  3.7256262E+03;  0.0000000E+00; -3.5647106E+00;  4.0000000E+04;  0.0000000E+00;  3.9151602E+04; -6.5145098E-02;  0.0000000E+00; -2.7792254E-02;  6.3153667E+03;
  1.1273263E+00;  9.9999998E-03;  1.1133679E-01;8099; -3.4450531E-02;  0.0000000E+00; -1.0308322E-02;  9.9211963E+02;  3.3386436E-01; -6.5286743E+03;3; -1.3812057E+01;  0.0000000E+00; -5.8563781E+00;0;  4.8576862E-02;  3.6210659E+03;  0.0000000E+00; -7.8251854E-02;  4.0000000E+04;  0.0000000E+00;  3.9134211E+04;  1.1124021E-01;  0.0000000E+00; -6.2663347E-02;  2.1211289E+03;
  1.1233870E+00;  9.9999998E-03;  1.9232032E-01;8107; -1.9904776E-02;  0.0000000E+00; -1.3740093E-02;  9.9445593E+02;  3.2998586E-01; -4.5931016E+03;3; -5.5049759E-01;  0.0000000E+00; -8.6026373E+00;0; -7.9342142E-02;  3.7164355E+03;  0.0000000E+00; -3.1463501E+00;  4.0000000E+04;  0.0000000E+00;  3.9147746E+04; -4.7441516E-02;  0.0000000E+00; -3.1900622E-02;  7.2446016E+03;
  1.1239288E+00;  9.9999998E-03;  1.8220951E-01;8106; -2.1937447E-02;  0.0000000E+00; -1.3427627E-02;  9.9383130E+02;  3.3050722E-01; -5.1106113E+03;3; -2.2142391E+00;  0.0000000E+00; -8.3681803E+00;0; -6.3362658E-02;  3.7028879E+03;  0.0000000E+00; -2.7093475E+00;  4.0000000E+04;  0.0000000E+00;  3.9145195E+04; -2.7201625E-02;  0.0000000E+00; -3.6161032E-02;  7.5496978E+03;
  1.1278473E+00;  9.9999998E-03;  1.2141838E-01;8100; -3.3219337E-02;  0.0000000E+00; -1.0999023E-02;  9.9195703E+02;  3.3420447E-01; -6.6633843E+03;3; -1.2219176E+01;  0.0000000E+00; -6.4180517E+00;0;  5.0429545E-02;  3.6132339E+03;  0.0000000E+00; -4.0536761E-01;  4.0000000E+04;  0.0000000E+00;  3.9136156E+04;  1.1028156E-01;  0.0000000E+00; -5.9852012E-02;  2.1197083E+03;
  1.1246505E+00;  9.9999998E-03;  1.7206399E-01;8105; -2.3996748E-02;  0.0000000E+00; -1.3119821E-02;  9.9320050E+02;  3.3119217E-01; -5.6332075E+03;3; -3.8911488E+00;  0.0000000E+00; -8.1311531E+00;0; -4.4639677E-02;  3.6855464E+03;  0.0000000E+00; -2.2865033E+00;  4.0000000E+04;  0.0000000E+00;  3.9142422E+04; -4.1523119E-03;  0.0000000E+00; -4.0487364E-02;  7.0474380E+03;
  1.1278089E+00;  9.9999998E-03;  1.3150857E-01;8101; -3.1719029E-02;  0.0000000E+00; -1.1587538E-02;  9.9189587E+02;  3.3409488E-01; -6.7140488E+03;3; -1.0584969E+01;  0.0000000E+00; -6.8948102E+00;0;  4.1126423E-02;  3.6157334E+03;  0.0000000E+00; -7.6868206E-01;  4.0000000E+04;  0.0000000E+00;  3.9137457E+04;  9.7746722E-02;  0.0000000E+00; -5.6620300E-02;  2.3947271E+03;
  1.1255207E+00;  9.9999998E-03;  1.6190176E-01;8104; -2.6054591E-02;  0.0000000E+00; -1.2806282E-02;  9.9264026E+02;  3.3199647E-01; -6.0973354E+03;3; -5.5730615E+00;  0.0000000E+00; -7.8793507E+00;0; -2.3169994E-02;  3.6656416E+03;  0.0000000E+00; -1.8893030E+00;  4.0000000E+04;  0.0000000E+00;  3.9140285E+04;  2.1628924E-02;  0.0000000E+00; -4.4798918E-02;  5.8596489E+03;
  1.1264575E+00;  9.9999998E-03;  1.5174685E-01;8103; -2.8071139E-02;  0.0000000E+00; -1.2467962E-02;  9.9221204E+02;  3.3284295E-01; -6.4520859E+03;3; -7.2547750E+00;  0.0000000E+00; -7.6066570E+00;0;  2.4889037E-04;  3.6451650E+03;  0.0000000E+00; -1.5122150E+00;  4.0000000E+04;  0.0000000E+00;  3.9138934E+04;  4.9254321E-02;  0.0000000E+00; -4.9005430E-02;  4.3808042E+03;
  1.1272427E+00;  9.9999998E-03;  1.4161368E-01;8102; -2.9970463E-02;  0.0000000E+00; -1.2063997E-02;  9.9197028E+02;  3.3356094E-01; -6.6523730E+03;3; -8.9281569E+00;  0.0000000E+00; -7.2793150E+00;0;  2.2333864E-02;  3.6280964E+03;  0.0000000E+00; -1.1417453E+00;  4.0000000E+04;  0.0000000E+00;  3.9138230E+04;  7.5287640E-02;  0.0000000E+00; -5.2953776E-02;  3.1236377E+03;
  1.1607848E+00;  9.9999998E-03;  7.1042813E-02;8156; -4.5340620E-02;  0.0000000E+00; -1.0081726E-02;  9.9385901E+02;  3.5551330E-01; -5.0876060E+03;3; -2.0005360E+01;  0.0000000E+00; -6.8844199E+00;0;  1.2382910E+00;  3.2110166E+03;  0.0000000E+00;  5.7358656E-02;  4.0000000E+04;  0.0000000E+00;  3.9014547E+04;  1.2976876E+00;  0.0000000E+00; -5.9396576E-02;  7.6500640E+03;
  1.1611652E+00;  9.9999998E-03;  8.1190072E-02;8157; -4.4593479E-02;  0.0000000E+00; -1.1337692E-02;  9.9390613E+02;  3.5569447E-01; -5.0485454E+03;3; -1.8575476E+01;  0.0000000E+00; -7.8350825E+00;0;  1.2325004E+00;  3.2072837E+03;  0.0000000E+00;  1.4328153E-01;  4.0000000E+04;  0.0000000E+00;  3.9020859E+04;  1.2933900E+00;  0.0000000E+00; -6.0889550E-02;  6.8631519E+03;
  1.1595651E+00;  9.9999998E-03;  2.3301655E-01;8172; -1.8612450E-02;  0.0000000E+00; -2.2956135E-02;  9.9512616E+02;  3.5342854E-01; -4.0377815E+03;3;  8.0516558E+00;  0.0000000E+00; -1.5318066E+01;0;  3.7281269E-01;  3.2420391E+03;  0.0000000E+00; -1.9865381E+00;  4.0000000E+04;  0.0000000E+00;  3.9090820E+04;  4.2455235E-01;  0.0000000E+00; -5.1739648E-02;  3.7612783E+03;
  1.1618805E+00;  9.9999998E-03;  9.1311760E-02;8158; -4.3777708E-02;  0.0000000E+00; -1.2564546E-02;  9.9392944E+02;  3.5612288E-01; -5.0292363E+03;3; -1.7039087E+01;  0.0000000E+00; -8.8020830E+00;0;  1.2394450E+00;  3.1991829E+03;  0.0000000E+00;  2.0915101E-01;  4.0000000E+04;  0.0000000E+00;  3.9026922E+04;  1.3014762E+00;  0.0000000E+00; -6.2031284E-02;  6.0917085E+03;
  1.1594148E+00;  9.9999998E-03;  2.2286043E-01;8171; -2.0470798E-02;  0.0000000E+00; -2.2320574E-02;  9.9544379E+02;  3.5321194E-01; -3.7746831E+03;3;  6.1895757E+00;  0.0000000E+00; -1.5216020E+01;0;  4.2915136E-01;  3.2473953E+03;  0.0000000E+00; -1.7779069E+00;  4.0000000E+04;  0.0000000E+00;  3.9095145E+04;  4.7716224E-01;  0.0000000E+00; -4.8010901E-02;  2.4161941E+03;
  1.1593597E+00;  9.9999998E-03;  2.1271001E-01;8170; -2.2429226E-02;  0.0000000E+00; -2.1850735E-02;  9.9537140E+02;  3.5314846E-01; -3.8346309E+03;3;  4.4026709E+00;  0.0000000E+00; -1.4981789E+01;0;  4.8912054E-01;  3.2494519E+03;  0.0000000E+00; -1.5972527E+00;  4.0000000E+04;  0.0000000E+00;  3.9090949E+04;  5.3705794E-01;  0.0000000E+00; -4.7937408E-02;  1.6307379E+03;
  1.1626567E+00;  9.9999998E-03;  1.0141186E-01;8159; -4.2834416E-02;  0.0000000E+00; -1.3747770E-02;  9.9391028E+02;  3.5659626E-01; -5.0451362E+03;3; -1.5414504E+01;  0.0000000E+00; -9.7510500E+00;0;  1.2445519E+00;  3.1901990E+03;  0.0000000E+00;  2.3217981E-01;  4.0000000E+04;  0.0000000E+00;  3.9032176E+04;  1.3077147E+00;  0.0000000E+00; -6.3162804E-02;  5.4045107E+03;
  1.1593966E+00;  9.9999998E-03;  2.0259173E-01;8169; -2.4447707E-02;  0.0000000E+00; -2.1370929E-02;  9.9502075E+02;  3.5321972E-01; -4.1251353E+03;3;  2.6003897E+00;  0.0000000E+00; -1.4719338E+01;0;  5.5359751E-01;  3.2484341E+03;  0.0000000E+00; -1.4122217E+00;  4.0000000E+04;  0.0000000E+00;  3.9081457E+04;  6.0341716E-01;  0.0000000E+00; -4.9819674E-02;  2.2949832E+03;
  1.1633596E+00;  9.9999998E-03;  1.1150309E-01;8160; -4.1731391E-02;  0.0000000E+00; -1.4880601E-02;  9.9384332E+02;  3.5702369E-01; -5.1005889E+03;3; -1.3717746E+01;  0.0000000E+00; -1.0658568E+01;0;  1.2405002E+00;  3.1820662E+03;  0.0000000E+00;  2.0089039E-01;  4.0000000E+04;  0.0000000E+00;  3.9036242E+04;  1.3048052E+00;  0.0000000E+00; -6.4304955E-02;  4.8613101E+03;
  1.1595273E+00;  9.9999998E-03;  1.9247131E-01;8168; -2.6527770E-02;  0.0000000E+00; -2.0835554E-02;  9.9454639E+02;  3.5340634E-01; -4.5181040E+03;3;  7.6904929E-01;  0.0000000E+00; -1.4437145E+01;0;  6.2263793E-01;  3.2448037E+03;  0.0000000E+00; -1.2150006E+00;  4.0000000E+04;  0.0000000E+00;  3.9072395E+04;  6.7545825E-01;  0.0000000E+00; -5.2820340E-02;  3.6367161E+03;
  1.1638581E+00;  9.9999998E-03;  1.2159459E-01;8161; -4.0440854E-02;  0.0000000E+00; -1.5951416E-02;  9.9373401E+02;  3.5730398E-01; -5.1911519E+03;3; -1.1965641E+01;  0.0000000E+00; -1.1496144E+01;0;  1.2204071E+00;  3.1765808E+03;  0.0000000E+00;  1.1787378E-01;  4.0000000E+04;  0.0000000E+00;  3.9039293E+04;  1.2857711E+00;  0.0000000E+00; -6.5364055E-02;  4.5170928E+03;
  1.1598057E+00;  9.9999998E-03;  1.8232195E-01;8167; -2.8659754E-02;  0.0000000E+00; -2.0260600E-02;  9.9404694E+02;  3.5372746E-01; -4.9319111E+03;3; -1.0791792E+00;  0.0000000E+00; -1.4134495E+01;0;  6.9761562E-01;  3.2384358E+03;  0.0000000E+00; -1.0086482E+00;  4.0000000E+04;  0.0000000E+00;  3.9064633E+04;  7.5399190E-01;  0.0000000E+00; -5.6376252E-02;  4.6100322E+03;
  1.1603712E+00;  9.9999998E-03;  1.7215273E-01;8166; -3.0834123E-02;  0.0000000E+00; -1.9676119E-02;  9.9362531E+02;  3.5427010E-01; -5.2812271E+03;3; -2.9268422E+00;  0.0000000E+00; -1.3828659E+01;0;  7.8331894E-01;  3.2281965E+03;  0.0000000E+00; -7.9299593E-01;  4.0000000E+04;  0.0000000E+00;  3.9057984E+04;  8.4332001E-01;  0.0000000E+00; -6.0001090E-02;  5.0329126E+03;
  1.1639050E+00;  9.9999998E-03;  1.3168871E-01;8162; -3.8917400E-02;  0.0000000E+00; -1.6924251E-02;  9.9357812E+02;  3.5725436E-01; -5.3202812E+03;3; -1.0179660E+01;  0.0000000E+00; -1.2211977E+01;0;  1.1725479E+00;  3.1767905E+03;  0.0000000E+00; -8.4616188E-03;  4.0000000E+04;  0.0000000E+00;  3.9041211E+04;  1.2387167E+00;  0.0000000E+00; -6.6168815E-02;  4.3980396E+03;
  1.1612693E+00;  9.9999998E-03;  1.6199620E-01;8165; -3.3017382E-02;  0.0000000E+00; -1.9088333E-02;  9.9335931E+02;  3.5504952E-01; -5.5015605E+03;3; -4.7604222E+00;  0.0000000E+00; -1.3522132E+01;0;  8.8207948E-01;  3.2141001E+03;  0.0000000E+00; -5.7430989E-01;  4.0000000E+04;  0.0000000E+00;  3.9052312E+04;  9.4524199E-01;  0.0000000E+00; -6.3162528E-02;  4.9947319E+03;
  1.1632557E+00;  9.9999998E-03;  1.4178234E-01;8163; -3.7119273E-02;  0.0000000E+00; -1.7746260E-02;  9.9338818E+02;  3.5670069E-01; -5.4776567E+03;3; -8.3839722E+00;  0.0000000E+00; -1.2752132E+01;0;  1.0874200E+00;  3.1857251E+03;  0.0000000E+00; -1.7407958E-01;  4.0000000E+04;  0.0000000E+00;  3.9044234E+04;  1.1537498E+00;  0.0000000E+00; -6.6329837E-02;  4.4744692E+03;
  1.1623099E+00;  9.9999998E-03;  1.5187737E-01;8164; -3.5135135E-02;  0.0000000E+00; -1.8458987E-02;  9.9329462E+02;  3.5591719E-01; -5.5551855E+03;3; -6.5781555E+00;  0.0000000E+00; -1.3177850E+01;0;  9.8696464E-01;  3.1989343E+03;  0.0000000E+00; -3.6507767E-01;  4.0000000E+04;  0.0000000E+00;  3.9047383E+04;  1.0523224E+00;  0.0000000E+00; -6.5357730E-02;  4.7261284E+03;
  1.1986692E+00;  9.9999998E-03;  2.1298958E-01;8231; -2.8338125E-02;  0.0000000E+00; -2.8291676E-02;  9.9892926E+02;  3.7122455E-01; -8.8705463E+02;3;  5.8313465E+00;  0.0000000E+00; -2.3480824E+01;0;  2.3457787E+00;  2.9671865E+03;  0.0000000E+00;  1.0601677E+00;  4.0000000E+04;  0.0000000E+00;  3.9028719E+04;  2.4649572E+00;  0.0000000E+00; -1.1917865E-01;  2.5830037E+03;
  1.1987700E+00;  9.9999998E-03;  2.0281096E-01;8230; -3.0183185E-02;  0.0000000E+00; -2.7836926E-02;  9.9895605E+02;  3.7134224E-01; -8.6483380E+02;3;  3.9137216E+00;  0.0000000E+00; -2.3170460E+01;0;  2.4860468E+00;  2.9673789E+03;  0.0000000E+00;  9.8488563E-01;  4.0000000E+04;  0.0000000E+00;  3.9016926E+04;  2.5861101E+00;  0.0000000E+00; -1.0006320E-01;  3.9554282E+03;
  1.1985806E+00;  9.9999998E-03;  2.2319014E-01;8232; -2.6651321E-02;  0.0000000E+00; -2.8772851E-02;  9.9852020E+02;  3.7116781E-01; -1.2259468E+03;3;  7.7296157E+00;  0.0000000E+00; -2.3720465E+01;0;  2.2058351E+00;  2.9653149E+03;  0.0000000E+00;  1.0228916E+00;  4.0000000E+04;  0.0000000E+00;  3.9030941E+04;  2.3506989E+00;  0.0000000E+00; -1.4486389E-01;  1.2244805E+03;
  1.1985755E+00;  9.9999998E-03;  2.3338108E-01;8233; -2.5166886E-02;  0.0000000E+00; -2.9653881E-02;  9.9764453E+02;  3.7121046E-01; -1.9513821E+03;3;  9.7455177E+00;  0.0000000E+00; -2.4080748E+01;0;  2.0699553E+00;  2.9614729E+03;  0.0000000E+00;  7.4230391E-01;  4.0000000E+04;  0.0000000E+00;  3.9019422E+04;  2.2506750E+00;  0.0000000E+00; -1.8071951E-01;  1.9896080E+03;
  1.1989645E+00;  9.9999998E-03;  1.9264358E-01;8229; -3.2144517E-02;  0.0000000E+00; -2.7295947E-02;  9.9880438E+02;  3.7152568E-01; -9.9050476E+02;3;  1.9830931E+00;  0.0000000E+00; -2.2806362E+01;0;  2.6311800E+00;  2.9658831E+03;  0.0000000E+00;  8.8476110E-01;  4.0000000E+04;  0.0000000E+00;  3.9002789E+04;  2.7166660E+00;  0.0000000E+00; -8.5486010E-02;  5.4984111E+03;
  1.1992693E+00;  9.9999998E-03;  1.8247642E-01;8228; -3.4165643E-02;  0.0000000E+00; -2.6651794E-02;  9.9860620E+02;  3.7176418E-01; -1.1546915E+03;3;  4.1701417E-02;  0.0000000E+00; -2.2398903E+01;0;  2.7808959E+00;  2.9631885E+03;  0.0000000E+00;  7.9998654E-01;  4.0000000E+04;  0.0000000E+00;  3.8989395E+04;  2.8545117E+00;  0.0000000E+00; -7.3615730E-02;  6.9545869E+03;
  1.1997054E+00;  9.9999998E-03;  1.7231080E-01;8227; -3.6189254E-02;  0.0000000E+00; -2.5906254E-02;  9.9846429E+02;  3.7204337E-01; -1.2722639E+03;3; -1.9013852E+00;  0.0000000E+00; -2.1941038E+01;0;  2.9349396E+00;  2.9597319E+03;  0.0000000E+00;  7.4063939E-01;  4.0000000E+04;  0.0000000E+00;  3.8977801E+04;  2.9977794E+00;  0.0000000E+00; -6.2839635E-02;  8.1477231E+03;
  1.2005954E+00;  9.9999998E-03;  1.6218252E-01;8226; -3.8185727E-02;  0.0000000E+00; -2.5110267E-02;  9.9849298E+02;  3.7247291E-01; -1.2485118E+03;3; -3.8104541E+00;  0.0000000E+00; -2.1497667E+01;0;  3.1135252E+00;  2.9542014E+03;  0.0000000E+00;  7.0900840E-01;  4.0000000E+04;  0.0000000E+00;  3.8967887E+04;  3.1649663E+00;  0.0000000E+00; -5.1441289E-02;  9.0813203E+03;
  1.2003589E+00;  9.9999998E-03;  7.1116589E-02;8217; -4.8981287E-02;  0.0000000E+00; -1.2694225E-02;  9.9987030E+02;  3.7322402E-01; -1.0744986E+02;3; -1.9872238E+01;  0.0000000E+00; -1.1919827E+01;0;  3.8229702E+00;  2.9551572E+03;  0.0000000E+00; -1.3747346E-01;  4.0000000E+04;  0.0000000E+00;  3.8914988E+04;  3.7427161E+00;  0.0000000E+00;  8.0254078E-02;  1.4747957E+04;
  1.2004559E+00;  9.9999998E-03;  8.1276640E-02;8218; -4.8352823E-02;  0.0000000E+00; -1.4340163E-02;  9.9982983E+02;  3.7312204E-01; -1.4097855E+02;3; -1.8363468E+01;  0.0000000E+00; -1.3351450E+01;0;  3.7765996E+00;  2.9553950E+03;  0.0000000E+00; -7.9391442E-02;  4.0000000E+04;  0.0000000E+00;  3.8922469E+04;  3.7123947E+00;  0.0000000E+00;  6.4204827E-02;  1.3806053E+04;
  1.2006620E+00;  9.9999998E-03;  9.1422491E-02;8219; -4.7605414E-02;  0.0000000E+00; -1.5940934E-02;  9.9975708E+02;  3.7307152E-01; -2.0127092E+02;3; -1.6749275E+01;  0.0000000E+00; -1.4714189E+01;0;  3.7313328E+00;  2.9547017E+03;  0.0000000E+00;  1.7270379E-02;  4.0000000E+04;  0.0000000E+00;  3.8930477E+04;  3.6831362E+00;  0.0000000E+00;  4.8196539E-02;  1.2807236E+04;
  1.2009844E+00;  9.9999998E-03;  1.0155740E-01;8220; -4.6725065E-02;  0.0000000E+00; -1.7498298E-02;  9.9964001E+02;  3.7307689E-01; -2.9825226E+02;3; -1.5042336E+01;  0.0000000E+00; -1.6012701E+01;0;  3.6875591E+00;  2.9530356E+03;  0.0000000E+00;  1.4449343E-01;  4.0000000E+04;  0.0000000E+00;  3.8937793E+04;  3.6549149E+00;  0.0000000E+00;  3.2644358E-02;  1.1882366E+04;
  1.2014270E+00;  9.9999998E-03;  1.1167967E-01;8221; -4.5701824E-02;  0.0000000E+00; -1.9013230E-02;  9.9949261E+02;  3.7314343E-01; -4.2036768E+02;3; -1.3253612E+01;  0.0000000E+00; -1.7249451E+01;0;  3.6453731E+00;  2.9505061E+03;  0.0000000E+00;  2.8652298E-01;  4.0000000E+04;  0.0000000E+00;  3.8943492E+04;  3.6275182E+00;  0.0000000E+00;  1.7854901E-02;  1.1153443E+04;
  1.2016500E+00;  9.9999998E-03;  1.5208890E-01;8225; -4.0055376E-02;  0.0000000E+00; -2.4212599E-02;  9.9867883E+02;  3.7294662E-01; -1.0945459E+03;3; -5.6947827E+00;  0.0000000E+00; -2.0976324E+01;0;  3.2962663E+00;  2.9483376E+03;  0.0000000E+00;  6.7864883E-01;  4.0000000E+04;  0.0000000E+00;  3.8960082E+04;  3.3346241E+00;  0.0000000E+00; -3.8357694E-02;  9.7317773E+03;
  1.2019833E+00;  9.9999998E-03;  1.2178337E-01;8222; -4.4533305E-02;  0.0000000E+00; -2.0484421E-02;  9.9933160E+02;  3.7326744E-01; -5.5374152E+02;3; -1.1394625E+01;  0.0000000E+00; -1.8422302E+01;0;  3.6040196E+00;  2.9472500E+03;  0.0000000E+00;  4.2396960E-01;  4.0000000E+04;  0.0000000E+00;  3.8947824E+04;  3.6000662E+00;  0.0000000E+00;  3.9535048E-03;  1.0675459E+04;
  1.2025025E+00;  9.9999998E-03;  1.3188398E-01;8223; -4.3219611E-02;  0.0000000E+00; -2.1892497E-02;  9.9916559E+02;  3.7338540E-01; -6.9126318E+02;3; -9.4868917E+00;  0.0000000E+00; -1.9498621E+01;0;  3.5526056E+00;  2.9442488E+03;  0.0000000E+00;  5.4016858E-01;  4.0000000E+04;  0.0000000E+00;  3.8950828E+04;  3.5621359E+00;  0.0000000E+00; -9.5303906E-03;  1.0387881E+04;
  1.2024508E+00;  9.9999998E-03;  1.4199173E-01;8224; -4.1738596E-02;  0.0000000E+00; -2.3155151E-02;  9.9894208E+02;  3.7330422E-01; -8.7643616E+02;3; -7.5795245E+00;  0.0000000E+00; -2.0361023E+01;0;  3.4540701E+00;  2.9442786E+03;  0.0000000E+00;  6.2630105E-01;  4.0000000E+04;  0.0000000E+00;  3.8954766E+04;  3.4778864E+00;  0.0000000E+00; -2.3816409E-02;  1.0133420E+04;
  1.2386831E+00;  9.9999998E-03;  2.0295106E-01;8291;  8.5022934E-02;  0.0000000E+00;  4.1450225E-02;  9.9946899E+02;  3.7185854E-01; -4.3990982E+02;3; -9.9317528E+01;  0.0000000E+00; -5.4570702E+01;0;  5.0939412E+00;  2.9669919E+03;  0.0000000E+00;  1.3328537E+00;  4.0000000E+04;  0.0000000E+00;  3.8974617E+04;  5.1651030E+00;  0.0000000E+00; -7.1161762E-02;  9.4086006E+03;
  1.2388165E+00;  9.9999998E-03;  1.9282092E-01;8290;  1.1391930E-01;  0.0000000E+00;  4.3317549E-02;  9.9957593E+02;  3.7193391E-01; -3.5132541E+02;3; -9.6092003E+01;  0.0000000E+00; -5.3878723E+01;0;  5.1417980E+00;  2.9681367E+03;  0.0000000E+00;  1.0888150E+00;  4.0000000E+04;  0.0000000E+00;  3.8958383E+04;  5.1814947E+00;  0.0000000E+00; -3.9696559E-02;  9.8872803E+03;
  1.2387848E+00;  9.9999998E-03;  2.1311934E-01;8292;  5.4815207E-02;  0.0000000E+00;  4.0254679E-02;  9.9917542E+02;  3.7178281E-01; -6.8309711E+02;3; -1.0014711E+02;  0.0000000E+00; -5.5516270E+01;0;  5.0594201E+00;  2.9650315E+03;  0.0000000E+00;  1.4947084E+00;  4.0000000E+04;  0.0000000E+00;  3.8987883E+04;  5.1622314E+00;  0.0000000E+00; -1.0281136E-01;  9.2726855E+03;
  1.2391825E+00;  9.9999998E-03;  1.8270445E-01;8289;  1.4264268E-01;  0.0000000E+00;  4.5867622E-02;  9.9963660E+02;  3.7200651E-01; -3.0105835E+02;3; -9.2109528E+01;  0.0000000E+00; -5.3022434E+01;0;  5.1976905E+00;  2.9688250E+03;  0.0000000E+00;  8.3624595E-01;  4.0000000E+04;  0.0000000E+00;  3.8943387E+04;  5.2055888E+00;  0.0000000E+00; -7.8981761E-03;  1.0672131E+04;
  1.2397158E+00;  9.9999998E-03;  1.7258772E-01;8288;  1.7077670E-01;  0.0000000E+00;  4.8817836E-02;  9.9970618E+02;  3.7206632E-01; -2.4343398E+02;3; -8.7770683E+01;  0.0000000E+00; -5.2001812E+01;0;  5.2549663E+00;  2.9694121E+03;  0.0000000E+00;  6.1446100E-01;  4.0000000E+04;  0.0000000E+00;  3.8930477E+04;  5.2303953E+00;  0.0000000E+00;  2.4570925E-02;  1.1578729E+04;
  1.2389625E+00;  9.9999998E-03;  2.2333327E-01;8293;  2.3534151E-02;  0.0000000E+00;  3.8912006E-02;  9.9845001E+02;  3.7171435E-01; -1.2840288E+03;3; -8.8873581E+01;  0.0000000E+00; -5.8934669E+01;0;  5.0319042E+00;  2.9618977E+03;  0.0000000E+00;  1.4510722E+00;  4.0000000E+04;  0.0000000E+00;  3.8990039E+04;  5.1674891E+00;  0.0000000E+00; -1.3558488E-01;  8.9389219E+03;
  1.2401437E+00;  9.9999998E-03;  1.6245700E-01;8287;  1.9475543E-01;  0.0000000E+00;  5.1297616E-02;  9.9980389E+02;  3.7210688E-01; -1.6245383E+02;3; -8.3788414E+01;  0.0000000E+00; -5.0941299E+01;0;  5.3022294E+00;  2.9699436E+03;  0.0000000E+00;  4.4116125E-01;  4.0000000E+04;  0.0000000E+00;  3.8920566E+04;  5.2453432E+00;  0.0000000E+00;  5.6886416E-02;  1.2420534E+04;
  1.2405945E+00;  9.9999998E-03;  1.5233228E-01;8286;  2.1688688E-01;  0.0000000E+00;  5.3612784E-02;  9.9995752E+02;  3.7213752E-01; -3.5206547E+01;3; -7.9772675E+01;  0.0000000E+00; -5.0035172E+01;0;  5.3432035E+00;  2.9707061E+03;  0.0000000E+00;  3.0395842E-01;  4.0000000E+04;  0.0000000E+00;  3.8913066E+04;  5.2540102E+00;  0.0000000E+00;  8.9193121E-02;  1.3108521E+04;
  1.2406921E+00;  9.9999998E-03;  8.1400849E-02;8279;  2.9974136E-01;  0.0000000E+00;  6.0085338E-02;  1.0011739E+03;  3.7266588E-01;  9.7245117E+02;3; -5.8273956E+01;  0.0000000E+00; -3.5234516E+01;0;  5.4590182E+00;  2.9741160E+03;  0.0000000E+00; -1.0651651E-02;  4.0000000E+04;  0.0000000E+00;  3.8873082E+04;  5.1517301E+00;  0.0000000E+00;  3.0728823E-01;  1.7979254E+04;
  1.2406514E+00;  9.9999998E-03;  9.1567755E-02;8280;  2.9075477E-01;  0.0000000E+00;  6.0238272E-02;  1.0010581E+03;  3.7254715E-01;  8.7655896E+02;3; -6.1347397E+01;  0.0000000E+00; -4.6231113E+01;0;  5.4439616E+00;  2.9740261E+03;  0.0000000E+00; -3.7547424E-02;  4.0000000E+04;  0.0000000E+00;  3.8880855E+04;  5.1712008E+00;  0.0000000E+00;  2.7276069E-01;  1.6985564E+04;
  1.2411160E+00;  9.9999998E-03;  1.4221698E-01;8285;  2.3810683E-01;  0.0000000E+00;  5.5832542E-02;  1.0001913E+03;  3.7215814E-01;  1.5850343E+02;3; -7.5560089E+01;  0.0000000E+00; -4.9368103E+01;0;  5.3782234E+00;  2.9717729E+03;  0.0000000E+00;  1.8994431E-01;  4.0000000E+04;  0.0000000E+00;  3.8907805E+04;  5.2566485E+00;  0.0000000E+00;  1.2157475E-01;  1.3636930E+04;
  1.2409487E+00;  9.9999998E-03;  7.1211703E-02;8278;  3.0945453E-01;  0.0000000E+00;  5.5959430E-02;  1.0013101E+03;  3.7278432E-01;  1.0853290E+03;3; -5.5023071E+01;  0.0000000E+00; -1.8260635E+01;0;  5.4762564E+00;  2.9742656E+03;  0.0000000E+00;  2.4890782E-02;  4.0000000E+04;  0.0000000E+00;  3.8865539E+04;  5.1322489E+00;  0.0000000E+00;  3.4400764E-01;  1.8907537E+04;
  1.2408551E+00;  9.9999998E-03;  1.0171359E-01;8281;  2.8312573E-01;  0.0000000E+00;  5.9454389E-02;  1.0009492E+03;  3.7242651E-01;  7.8639459E+02;3; -6.3898495E+01;  0.0000000E+00; -4.7676689E+01;0;  5.4325542E+00;  2.9739727E+03;  0.0000000E+00; -4.2816322E-02;  4.0000000E+04;  0.0000000E+00;  3.8888605E+04;  5.1914616E+00;  0.0000000E+00;  2.4109280E-01;  1.6043593E+04;
  1.2393861E+00;  9.9999998E-03;  2.3354094E-01;8294;  1.2545353E-03;  0.0000000E+00;  3.7842825E-02;  9.9724902E+02;  3.7167838E-01; -2.2789968E+03;3; -6.4346100E+01;  0.0000000E+00; -6.1439850E+01;0;  5.0173755E+00;  2.9580105E+03;  0.0000000E+00;  1.0360693E+00;  4.0000000E+04;  0.0000000E+00;  3.8976281E+04;  5.1866460E+00;  0.0000000E+00; -1.6927029E-01;  7.9743506E+03;
  1.2412024E+00;  9.9999998E-03;  1.3210544E-01;8284;  2.5236148E-01;  0.0000000E+00;  5.6972660E-02;  1.0004023E+03;  3.7219194E-01;  3.3330161E+02;3; -7.2368774E+01;  0.0000000E+00; -4.8636711E+01;0;  5.3974981E+00;  2.9725264E+03;  0.0000000E+00;  9.8426498E-02;  4.0000000E+04;  0.0000000E+00;  3.8904102E+04;  5.2459803E+00;  0.0000000E+00;  1.5151767E-01;  1.4090991E+04;
  1.2411697E+00;  9.9999998E-03;  1.2198325E-01;8283;  2.6429644E-01;  0.0000000E+00;  5.7881489E-02;  1.0006161E+03;  3.7224790E-01;  5.1046997E+02;3; -6.9380119E+01;  0.0000000E+00; -4.8034344E+01;0;  5.4113383E+00;  2.9731868E+03;  0.0000000E+00;  2.6179569E-02;  4.0000000E+04;  0.0000000E+00;  3.8899992E+04;  5.2303662E+00;  0.0000000E+00;  1.8097210E-01;  1.4598024E+04;
  1.2411155E+00;  9.9999998E-03;  1.1184855E-01;8282;  2.7525976E-01;  0.0000000E+00;  5.8756102E-02;  1.0008098E+03;  3.7232640E-01;  6.7084979E+02;3; -6.6366196E+01;  0.0000000E+00; -4.7646839E+01;0;  5.4232059E+00;  2.9737468E+03;  0.0000000E+00; -2.1643970E-02;  4.0000000E+04;  0.0000000E+00;  3.8894902E+04;  5.2121248E+00;  0.0000000E+00;  2.1108083E-01;  1.5239166E+04;
  1.2752393E+00;  9.9999998E-03;  1.9265223E-01;8351;  4.7340524E-01;  0.0000000E+00;  1.0792665E-01;  1.0021093E+03;  3.6028168E-01;  1.7473113E+03;3; -6.9331367E+01;  0.0000000E+00; -4.4120079E+01;0;  5.8071404E+00;  3.1791348E+03;  0.0000000E+00; -2.6851574E-01;  4.0000000E+04;  0.0000000E+00;  3.8944180E+04;  5.7124438E+00;  0.0000000E+00;  9.4696529E-02;  1.0586715E+04;
  1.2751874E+00;  9.9999998E-03;  2.0276782E-01;8352;  4.5838067E-01;  0.0000000E+00;  1.0705749E-01;  1.0018829E+03;  3.6022538E-01;  1.5597822E+03;3; -8.0206902E+01;  0.0000000E+00; -4.4737427E+01;0;  5.9099288E+00;  3.1775288E+03;  0.0000000E+00; -7.8355074E-02;  4.0000000E+04;  0.0000000E+00;  3.8958973E+04;  5.8653445E+00;  0.0000000E+00;  4.4584177E-02;  1.0311055E+04;
  1.2756757E+00;  9.9999998E-03;  1.8255818E-01;8350;  4.8918885E-01;  0.0000000E+00;  1.0936322E-01;  1.0023571E+03;  3.6026162E-01;  1.9526145E+03;3; -5.8029572E+01;  0.0000000E+00; -4.3324371E+01;0;  5.6948071E+00;  3.1817058E+03;  0.0000000E+00; -3.9009336E-01;  4.0000000E+04;  0.0000000E+00;  3.8931887E+04;  5.5480871E+00;  0.0000000E+00;  1.4672001E-01;  1.1286804E+04;
  1.2755783E+00;  9.9999998E-03;  2.1293584E-01;8353;  4.4373125E-01;  0.0000000E+00;  1.0674137E-01;  1.0016226E+03;  3.6008045E-01;  1.3442064E+03;3; -9.0567444E+01;  0.0000000E+00; -4.4904774E+01;0;  6.0074530E+00;  3.1772332E+03;  0.0000000E+00;  9.7632892E-02;  4.0000000E+04;  0.0000000E+00;  3.8972203E+04;  6.0099936E+00;  0.0000000E+00; -2.5407460E-03;  1.0511563E+04;
  1.2761834E+00;  9.9999998E-03;  1.7244904E-01;8349;  5.0345725E-01;  0.0000000E+00;  1.1089088E-01;  1.0025751E+03;  3.6021796E-01;  2.1332292E+03;3; -4.6870804E+01;  0.0000000E+00; -4.2835682E+01;0;  5.5750279E+00;  3.1841340E+03;  0.0000000E+00; -3.9182651E-01;  4.0000000E+04;  0.0000000E+00;  3.8922148E+04;  5.3768034E+00;  0.0000000E+00;  1.9822448E-01;  1.2179079E+04;
  1.2764626E+00;  9.9999998E-03;  1.6229996E-01;8348;  5.1416624E-01;  0.0000000E+00;  1.1210993E-01;  1.0027210E+03;  3.6020064E-01;  2.2540012E+03;3; -3.6635967E+01;  0.0000000E+00; -4.2054379E+01;0;  5.4552932E+00;  3.1855100E+03;  0.0000000E+00; -2.6807937E-01;  4.0000000E+04;  0.0000000E+00;  3.8914973E+04;  5.2088695E+00;  0.0000000E+00;  2.4642378E-01;  1.3026897E+04;
  1.2762510E+00;  9.9999998E-03;  2.2314765E-01;8354;  4.2692551E-01;  0.0000000E+00;  1.0690413E-01;  1.0011465E+03;  3.5987392E-01;  9.4979156E+02;3; -1.0072695E+02;  0.0000000E+00; -4.4739243E+01;0;  6.1056776E+00;  3.1777407E+03;  0.0000000E+00;  1.4488408E-01;  4.0000000E+04;  0.0000000E+00;  3.8976887E+04;  6.1509013E+00;  0.0000000E+00; -4.5223493E-02;  1.0611787E+04;
  1.2768053E+00;  9.9999998E-03;  1.5212925E-01;8347;  5.2356422E-01;  0.0000000E+00;  1.1321343E-01;  1.0028793E+03;  3.6014658E-01;  2.3851418E+03;3; -2.6693916E+01;  0.0000000E+00; -3.9219055E+01;0;  5.3318872E+00;  3.1872852E+03;  0.0000000E+00; -5.4528363E-02;  4.0000000E+04;  0.0000000E+00;  3.8910453E+04;  5.0400605E+00;  0.0000000E+00;  2.9182673E-01;  1.3622177E+04;
  1.2772850E+00;  9.9999998E-03;  1.4197539E-01;8346;  5.3246588E-01;  0.0000000E+00;  1.1226520E-01;  1.0030749E+03;  3.6005613E-01;  2.5471907E+03;3; -1.7127155E+01;  0.0000000E+00; -2.4186098E+01;0;  5.2035518E+00;  3.1897747E+03;  0.0000000E+00;  2.0279589E-01;  4.0000000E+04;  0.0000000E+00;  3.8908582E+04;  4.8692365E+00;  0.0000000E+00;  3.3431545E-01;  1.3887752E+04;
  1.2771368E+00;  9.9999998E-03;  2.3334721E-01;8355;  4.0926909E-01;  0.0000000E+00;  1.0739517E-01;  1.0004063E+03;  3.5963362E-01;  3.3654446E+02;3; -1.1014509E+02;  0.0000000E+00; -4.4343884E+01;0;  6.2078786E+00;  3.1788794E+03;  0.0000000E+00; -8.3614029E-02;  4.0000000E+04;  0.0000000E+00;  3.8971223E+04;  6.2875757E+00;  0.0000000E+00; -7.9697311E-02;  9.6685518E+03;
  1.2776222E+00;  9.9999998E-03;  1.3185018E-01;8345;  5.3963423E-01;  0.0000000E+00;  1.0608140E-01;  1.0032401E+03;  3.5999602E-01;  2.6840586E+03;3; -7.9514127E+00;  0.0000000E+00; -1.5452369E+01;0;  5.0804853E+00;  3.1916909E+03;  0.0000000E+00;  4.5572814E-01;  4.0000000E+04;  0.0000000E+00;  3.8908238E+04;  4.7077637E+00;  0.0000000E+00;  3.7272155E-01;  1.3937360E+04;
  1.2777777E+00;  9.9999998E-03;  1.2173490E-01;8344;  5.4509079E-01;  0.0000000E+00;  9.8866925E-02;  1.0033416E+03;  3.5997671E-01;  2.7680950E+03;3;  7.0642567E-01;  0.0000000E+00; -1.4088956E+01;0;  4.9673033E+00;  3.1928342E+03;  0.0000000E+00;  6.7028111E-01;  4.0000000E+04;  0.0000000E+00;  3.8907703E+04;  4.5597043E+00;  0.0000000E+00;  4.0759906E-01;  1.3949932E+04;
  1.2777472E+00;  9.9999998E-03;  1.1162909E-01;8343;  5.4888111E-01;  0.0000000E+00;  9.1785833E-02;  1.0033696E+03;  3.6000705E-01;  2.7913018E+03;3;  8.6089602E+00;  0.0000000E+00; -1.3339892E+01;0;  4.8678198E+00;  3.1930688E+03;  0.0000000E+00;  8.2489944E-01;  4.0000000E+04;  0.0000000E+00;  3.8906109E+04;  4.4278345E+00;  0.0000000E+00;  4.3998542E-01;  1.4090848E+04;
  1.2777921E+00;  9.9999998E-03;  1.0151578E-01;8342;  5.5221540E-01;  0.0000000E+00;  8.4523268E-02;  1.0033756E+03;  3.6004573E-01;  2.7963379E+03;3;  1.6283817E+01;  0.0000000E+00; -1.2682981E+01;0;  4.7740817E+00;  3.1933586E+03;  0.0000000E+00;  9.1612250E-01;  4.0000000E+04;  0.0000000E+00;  3.8903520E+04;  4.3017244E+00;  0.0000000E+00;  4.7235727E-01;  1.4403812E+04;
  1.2780739E+00;  9.9999998E-03;  9.1385849E-02;8341;  5.5573332E-01;  0.0000000E+00;  7.6985240E-02;  1.0034067E+03;  3.6005008E-01;  2.8221106E+03;3;  2.4068895E+01;  0.0000000E+00; -1.2012915E+01;0;  4.6794939E+00;  3.1944402E+03;  0.0000000E+00;  9.4261134E-01;  4.0000000E+04;  0.0000000E+00;  3.8900598E+04;  4.1736822E+00;  0.0000000E+00;  5.0581157E-01;  1.4833081E+04;
  1.2785498E+00;  9.9999998E-03;  8.1237346E-02;8340;  5.5911434E-01;  0.0000000E+00;  6.9172099E-02;  1.0034828E+03;  3.6002761E-01;  2.8851113E+03;3;  3.1816273E+01;  0.0000000E+00; -1.1323455E+01;0;  4.5851221E+00;  3.1961931E+03;  0.0000000E+00;  9.0078837E-01;  4.0000000E+04;  0.0000000E+00;  3.8897379E+04;  4.0455298E+00;  0.0000000E+00;  5.3959244E-01;  1.5274488E+04;
  1.2789835E+00;  9.9999998E-03;  7.1050443E-02;8339;  5.6144387E-01;  0.0000000E+00;  6.1013989E-02;  1.0035674E+03;  3.6001930E-01;  2.9551235E+03;3;  3.8875874E+01;  0.0000000E+00; -1.0589374E+01;0;  4.5014625E+00;  3.1976836E+03;  0.0000000E+00;  7.9252607E-01;  4.0000000E+04;  0.0000000E+00;  3.8894324E+04;  3.9296346E+00;  0.0000000E+00;  5.7182783E-01;  1.5656798E+04;
  1.3095382E+00;  9.9999998E-03;  2.0260119E-01;8413;  6.8688560E-01;  0.0000000E+00;  1.5482314E-01;  1.0058550E+03;  3.4421960E-01;  4.8499214E+03;3; -1.4655157E+01;  0.0000000E+00; -1.4659266E+01;0;  4.8744087E+00;  3.5039875E+03;  0.0000000E+00; -6.4699399E-01;  4.0000000E+04;  0.0000000E+00;  3.8958234E+04;  4.6444716E+00;  0.0000000E+00;  2.2993706E-01;  8.8018584E+03;
  1.3096613E+00;  9.9999998E-03;  1.9249916E-01;8412;  6.8319672E-01;  0.0000000E+00;  1.4980486E-01;  1.0059855E+03;  3.4424964E-01;  4.9579458E+03;3; -2.1711037E+00;  0.0000000E+00; -7.6046600E+00;0;  4.6873260E+00;  3.5045898E+03;  0.0000000E+00; -7.6610816E-01;  4.0000000E+04;  0.0000000E+00;  3.8951043E+04;  4.4030442E+00;  0.0000000E+00;  2.8428179E-01;  9.5284619E+03;
  1.3099184E+00;  9.9999998E-03;  2.1274070E-01;8414;  6.9187498E-01;  0.0000000E+00;  1.5831786E-01;  1.0057415E+03;  3.4405088E-01;  4.7558135E+03;3; -2.8054008E+01;  0.0000000E+00; -2.2611023E+01;0;  5.0368390E+00;  3.5058469E+03;  0.0000000E+00; -4.6111345E-01;  4.0000000E+04;  0.0000000E+00;  3.8966176E+04;  4.8535414E+00;  0.0000000E+00;  1.8329750E-01;  8.3558857E+03;
  1.3101668E+00;  9.9999998E-03;  1.8239500E-01;8411;  6.8074435E-01;  0.0000000E+00;  1.4302692E-01;  1.0061262E+03;  3.4417209E-01;  5.0744565E+03;3;  1.0252733E+01;  0.0000000E+00; -2.6169703E+00;0;  4.4797864E+00;  3.5067141E+03;  0.0000000E+00; -7.4385113E-01;  4.0000000E+04;  0.0000000E+00;  3.8946270E+04;  4.1381278E+00;  0.0000000E+00;  3.4165838E-01;  1.0252920E+04;
  1.3106664E+00;  9.9999998E-03;  2.2293523E-01;8415;  6.9536144E-01;  0.0000000E+00;  1.5924251E-01;  1.0055250E+03;  3.4377694E-01;  4.5764839E+03;3; -4.1925339E+01;  0.0000000E+00; -2.7069412E+01;0;  5.1812925E+00;  3.5097288E+03;  0.0000000E+00; -3.3111367E-01;  4.0000000E+04;  0.0000000E+00;  3.8967250E+04;  5.0353155E+00;  0.0000000E+00;  1.4597715E-01;  8.5650947E+03;
  1.3107618E+00;  9.9999998E-03;  1.7225589E-01;8410;  6.7796248E-01;  0.0000000E+00;  1.3411745E-01;  1.0062164E+03;  3.4407100E-01;  5.1491973E+03;3;  2.2660507E+01;  0.0000000E+00; -5.8995587E-01;0;  4.2658777E+00;  3.5087488E+03;  0.0000000E+00; -5.5371189E-01;  4.0000000E+04;  0.0000000E+00;  3.8943914E+04;  3.8691549E+00;  0.0000000E+00;  3.9672282E-01;  1.0792406E+04;
  1.3112345E+00;  9.9999998E-03;  1.6208009E-01;8409;  6.7406088E-01;  0.0000000E+00;  1.2369641E-01;  1.0062355E+03;  3.4398291E-01;  5.1649893E+03;3;  3.4761009E+01;  0.0000000E+00; -1.2229172E+00;0;  4.0572262E+00;  3.5100110E+03;  0.0000000E+00; -2.1624674E-01;  4.0000000E+04;  0.0000000E+00;  3.8942836E+04;  3.6120665E+00;  0.0000000E+00;  4.4515982E-01;  1.0991598E+04;
  1.3117412E+00;  9.9999998E-03;  2.3313040E-01;8416;  6.9567841E-01;  0.0000000E+00;  1.5875377E-01;  1.0051719E+03;  3.4341103E-01;  4.2839917E+03;3; -5.3691177E+01;  0.0000000E+00; -2.7655014E+01;0;  5.3101120E+00;  3.5158281E+03;  0.0000000E+00; -4.1305116E-01;  4.0000000E+04;  0.0000000E+00;  3.8958637E+04;  5.1885390E+00;  0.0000000E+00;  1.2157280E-01;  9.1928447E+03;
  1.3116013E+00;  9.9999998E-03;  1.5189269E-01;8408;  6.6931266E-01;  0.0000000E+00;  1.1353082E-01;  1.0062073E+03;  3.4388161E-01;  5.1416807E+03;3;  4.6559013E+01;  0.0000000E+00; -2.7789898E+00;0;  3.8550186E+00;  3.5110647E+03;  0.0000000E+00;  2.1089776E-01;  4.0000000E+04;  0.0000000E+00;  3.8944195E+04;  3.3700087E+00;  0.0000000E+00;  4.8501003E-01;  1.0743539E+04;
  1.3119627E+00;  9.9999998E-03;  1.4173102E-01;8407;  6.6413784E-01;  0.0000000E+00;  1.0482818E-01;  1.0061513E+03;  3.4375867E-01;  5.0952661E+03;3;  5.8041454E+01;  0.0000000E+00; -4.0343108E+00;0;  3.6571381E+00;  3.5123660E+03;  0.0000000E+00;  6.5415144E-01;  4.0000000E+04;  0.0000000E+00;  3.8948219E+04;  3.1405969E+00;  0.0000000E+00;  5.1654118E-01;  1.0084014E+04;
  1.3123347E+00;  9.9999998E-03;  1.3162310E-01;8406;  6.5855139E-01;  0.0000000E+00;  9.7530574E-02;  1.0060757E+03;  3.4362018E-01;  5.0326567E+03;3;  6.8966469E+01;  0.0000000E+00; -4.7175174E+00;0;  3.4663198E+00;  3.5137666E+03;  0.0000000E+00;  1.0430390E+00;  4.0000000E+04;  0.0000000E+00;  3.8953531E+04;  2.9249225E+00;  0.0000000E+00;  5.4139733E-01;  9.2091719E+03;
  1.3126944E+00;  9.9999998E-03;  1.2154040E-01;8405;  6.5245831E-01;  0.0000000E+00;  9.1008499E-02;  1.0059425E+03;  3.4348887E-01;  4.9222563E+03;3;  7.8832062E+01;  0.0000000E+00; -4.8655052E+00;0;  3.2864144E+00;  3.5149590E+03;  0.0000000E+00;  1.3316860E+00;  4.0000000E+04;  0.0000000E+00;  3.8959008E+04;  2.7246521E+00;  0.0000000E+00;  5.6176239E-01;  8.3679492E+03;
  1.3128997E+00;  9.9999998E-03;  1.1145082E-01;8404;  6.4580303E-01;  0.0000000E+00;  8.4729664E-02;  1.0057437E+03;  3.4342155E-01;  4.7576484E+03;3;  8.6868614E+01;  0.0000000E+00; -4.5843835E+00;0;  3.1269746E+00;  3.5149192E+03;  0.0000000E+00;  1.4982902E+00;  4.0000000E+04;  0.0000000E+00;  3.8963480E+04;  2.5477612E+00;  0.0000000E+00;  5.7921350E-01;  7.8006167E+03;
  1.3130662E+00;  9.9999998E-03;  1.0133854E-01;8403;  6.3889849E-01;  0.0000000E+00;  7.8221448E-02;  1.0055095E+03;  3.4338966E-01;  4.5636157E+03;3;  9.3324326E+01;  0.0000000E+00; -4.0794015E+00;0;  2.9835422E+00;  3.5142705E+03;  0.0000000E+00;  1.5407416E+00;  4.0000000E+04;  0.0000000E+00;  3.8966316E+04;  2.3881319E+00;  0.0000000E+00;  5.9541029E-01;  7.5402432E+03;
  1.3132595E+00;  9.9999998E-03;  9.1199689E-02;8402;  6.3211066E-01;  0.0000000E+00;  7.1384877E-02;  1.0052554E+03;  3.4337017E-01;  4.3531909E+03;3;  9.8004387E+01;  0.0000000E+00; -3.4361038E+00;0;  2.8536232E+00;  3.5134712E+03;  0.0000000E+00;  1.4695177E+00;  4.0000000E+04;  0.0000000E+00;  3.8967988E+04;  2.2425103E+00;  0.0000000E+00;  6.1111289E-01;  7.4693379E+03;
  1.3134409E+00;  9.9999998E-03;  8.1019312E-02;8401;  6.2555599E-01;  0.0000000E+00;  6.4007014E-02;  1.0050128E+03;  3.4336907E-01;  4.1521479E+03;3;  1.0202352E+02;  0.0000000E+00; -3.0130315E+00;0;  2.7393939E+00;  3.5124558E+03;  0.0000000E+00;  1.3064932E+00;  4.0000000E+04;  0.0000000E+00;  3.8968648E+04;  2.1129804E+00;  0.0000000E+00;  6.2641364E-01;  7.4422798E+03;
  1.3135338E+00;  9.9999998E-03;  7.0842408E-02;8400;  6.1946243E-01;  0.0000000E+00;  5.6306642E-02;  1.0047983E+03;  3.4340340E-01;  3.9745081E+03;3;  1.0533208E+02;  0.0000000E+00; -2.6775508E+00;0;  2.6450503E+00;  3.5108130E+03;  0.0000000E+00;  1.0839843E+00;  4.0000000E+04;  0.0000000E+00;  3.8968832E+04;  2.0039749E+00;  0.0000000E+00;  6.4107543E-01;  7.3796768E+03;
  1.3428689E+00;  9.9999998E-03;  2.0247267E-01;8474;  7.9711825E-01;  0.0000000E+00;  1.5207349E-01;  1.0074886E+03;  3.2564810E-01;  6.2022632E+03;3;  6.7765274E+01;  0.0000000E+00;  1.7085461E+01;0;  3.0795658E+00;  3.9204136E+03;  0.0000000E+00;  2.0896848E-01;  4.0000000E+04;  0.0000000E+00;  3.8986598E+04;  2.6900592E+00;  0.0000000E+00;  3.8950655E-01;  6.9543809E+03;
  1.3430437E+00;  9.9999998E-03;  1.9237880E-01;8473;  7.7942294E-01;  0.0000000E+00;  1.4293365E-01;  1.0074154E+03;  3.2566866E-01;  6.1416372E+03;3;  7.3852982E+01;  0.0000000E+00;  1.6555576E+01;0;  2.9104764E+00;  3.9185413E+03;  0.0000000E+00;  3.8333353E-02;  4.0000000E+04;  0.0000000E+00;  3.8988906E+04;  2.4788210E+00;  0.0000000E+00;  4.3165535E-01;  7.2138926E+03;
  1.3430446E+00;  9.9999998E-03;  2.1257892E-01;8475;  8.1502289E-01;  0.0000000E+00;  1.6060711E-01;  1.0075520E+03;  3.2552114E-01;  6.2547842E+03;3;  6.2213608E+01;  0.0000000E+00;  1.8683355E+01;0;  3.2338870E+00;  3.9240676E+03;  0.0000000E+00;  4.0826908E-01;  4.0000000E+04;  0.0000000E+00;  3.8986098E+04;  2.8797917E+00;  0.0000000E+00;  3.5409513E-01;  6.7043203E+03;
  1.3435352E+00;  9.9999998E-03;  1.8227254E-01;8472;  7.6150626E-01;  0.0000000E+00;  1.3190514E-01;  1.0072956E+03;  3.2558611E-01;  6.0423975E+03;3;  8.0110268E+01;  0.0000000E+00;  1.6145653E+01;0;  2.7273443E+00;  3.9184055E+03;  0.0000000E+00; -2.0130837E-02;  4.0000000E+04;  0.0000000E+00;  3.8991953E+04;  2.2534354E+00;  0.0000000E+00;  4.7390890E-01;  7.2591606E+03;
  1.3436351E+00;  9.9999998E-03;  2.2272116E-01;8476;  8.3334595E-01;  0.0000000E+00;  1.6894698E-01;  1.0075772E+03;  3.2526585E-01;  6.2755996E+03;3;  5.6060574E+01;  0.0000000E+00;  1.6956581E+01;0;  3.3741634E+00;  3.9303423E+03;  0.0000000E+00;  4.9873355E-01;  4.0000000E+04;  0.0000000E+00;  3.8983176E+04;  3.0388048E+00;  0.0000000E+00;  3.3535868E-01;  6.9520039E+03;
  1.3443016E+00;  9.9999998E-03;  1.7215002E-01;8471;  7.4399602E-01;  0.0000000E+00;  1.2028532E-01;  1.0071068E+03;  3.2539374E-01;  5.8859854E+03;3;  8.5524368E+01;  0.0000000E+00;  1.5064345E+01;0;  2.5331554E+00;  3.9201626E+03;  0.0000000E+00;  6.1496627E-02;  4.0000000E+04;  0.0000000E+00;  3.8995379E+04;  2.0220008E+00;  0.0000000E+00;  5.1115465E-01;  6.9320723E+03;
  1.3444041E+00;  9.9999998E-03;  2.3289123E-01;8477;  8.4998590E-01;  0.0000000E+00;  1.7354202E-01;  1.0074798E+03;  3.2497677E-01;  6.1949136E+03;3;  4.7531208E+01;  0.0000000E+00;  1.1656871E+01;0;  3.5121949E+00;  3.9373298E+03;  0.0000000E+00;  2.7753398E-01;  4.0000000E+04;  0.0000000E+00;  3.8973008E+04;  3.1764641E+00;  0.0000000E+00;  3.3573088E-01;  8.3984619E+03;
  1.3451163E+00;  9.9999998E-03;  1.6199854E-01;8470;  7.2709805E-01;  0.0000000E+00;  1.0963427E-01;  1.0068425E+03;  3.2514325E-01;  5.6670752E+03;3;  9.0891373E+01;  0.0000000E+00;  1.3714992E+01;0;  2.3397362E+00;  3.9225671E+03;  0.0000000E+00;  2.5422686E-01;  4.0000000E+04;  0.0000000E+00;  3.8999582E+04;  1.8002056E+00;  0.0000000E+00;  5.3953063E-01;  6.1836260E+03;
  1.3457216E+00;  9.9999998E-03;  1.5181856E-01;8469;  7.1099210E-01;  0.0000000E+00;  1.0040814E-01;  1.0065085E+03;  3.2491410E-01;  5.3904146E+03;3;  9.5131355E+01;  0.0000000E+00;  1.3050517E+01;0;  2.1597521E+00;  3.9238689E+03;  0.0000000E+00;  5.0129050E-01;  4.0000000E+04;  0.0000000E+00;  3.9004668E+04;  1.6016716E+00;  0.0000000E+00;  5.5808061E-01;  5.0861313E+03;
  1.3457394E+00;  9.9999998E-03;  1.3149895E-01;8467;  6.8204427E-01;  0.0000000E+00;  8.5541606E-02;  1.0057002E+03;  3.2479575E-01;  4.7210181E+03;3;  1.0202415E+02;  0.0000000E+00;  1.2186936E+01;0;  1.8686140E+00;  3.9180688E+03;  0.0000000E+00;  9.8581105E-01;  4.0000000E+04;  0.0000000E+00;  3.9017691E+04;  1.2955043E+00;  0.0000000E+00;  5.7310957E-01;  2.4075588E+03;
  1.3458298E+00;  9.9999998E-03;  1.4163743E-01;8468;  6.9590539E-01;  0.0000000E+00;  9.2526220E-02;  1.0061259E+03;  3.2482758E-01;  5.0735840E+03;3;  9.8658867E+01;  0.0000000E+00;  1.2597270E+01;0;  2.0065534E+00;  3.9216821E+03;  0.0000000E+00;  7.5665814E-01;  4.0000000E+04;  0.0000000E+00;  3.9010465E+04;  1.4381444E+00;  0.0000000E+00;  5.6840903E-01;  3.7928960E+03;
  1.3457837E+00;  9.9999998E-03;  1.2140113E-01;8466;  6.6941196E-01;  0.0000000E+00;  7.9002954E-02;  1.0052364E+03;  3.2472518E-01;  4.3368550E+03;3;  1.0524105E+02;  0.0000000E+00;  1.1807906E+01;0;  1.7344649E+00;  3.9152310E+03;  0.0000000E+00;  1.1554940E+00;  4.0000000E+04;  0.0000000E+00;  3.9025398E+04;  1.1602758E+00;  0.0000000E+00;  5.7418913E-01;  1.0751543E+03;
  1.3459616E+00;  9.9999998E-03;  1.1130690E-01;8465;  6.5778750E-01;  0.0000000E+00;  7.2587647E-02;  1.0047327E+03;  3.2463184E-01;  3.9197136E+03;3;  1.0764106E+02;  0.0000000E+00;  1.1305511E+01;0;  1.6062211E+00;  3.9129441E+03;  0.0000000E+00;  1.2428226E+00;  4.0000000E+04;  0.0000000E+00;  3.9033082E+04;  1.0329404E+00;  0.0000000E+00;  5.7328069E-01;  6.2989734E+02;
  1.3461363E+00;  9.9999998E-03;  1.0118897E-01;8464;  6.4711946E-01;  0.0000000E+00;  6.6186570E-02;  1.0042166E+03;  3.2456595E-01;  3.4922061E+03;3;  1.0974107E+02;  0.0000000E+00;  1.0587221E+01;0;  1.4903414E+00;  3.9101497E+03;  0.0000000E+00;  1.2436987E+00;  4.0000000E+04;  0.0000000E+00;  3.9039406E+04;  9.1850394E-01;  0.0000000E+00;  5.7183743E-01;  1.4563917E+03;
  1.3462628E+00;  9.9999998E-03;  9.1027267E-02;8463;  6.3742304E-01;  0.0000000E+00;  5.9774533E-02;  1.0037034E+03;  3.2454303E-01;  3.0671682E+03;3;  1.1143682E+02;  0.0000000E+00;  9.6103420E+00;0;  1.3888350E+00;  3.9066711E+03;  0.0000000E+00;  1.1662726E+00;  4.0000000E+04;  0.0000000E+00;  3.9044387E+04;  8.1807381E-01;  0.0000000E+00;  5.7076108E-01;  2.1346558E+03;
  1.3463823E+00;  9.9999998E-03;  8.0871783E-02;8462;  6.2874097E-01;  0.0000000E+00;  5.3111222E-02;  1.0032386E+03;  3.2454666E-01;  2.6822156E+03;3;  1.1318230E+02;  0.0000000E+00;  8.7667122E+00;0;  1.3006737E+00;  3.9030132E+03;  0.0000000E+00;  1.0272346E+00;  4.0000000E+04;  0.0000000E+00;  3.9048004E+04;  7.3040992E-01;  0.0000000E+00;  5.7026386E-01;  2.5691638E+03;
  1.3465264E+00;  9.9999998E-03;  7.0736565E-02;8461;  6.2096554E-01;  0.0000000E+00;  4.6281409E-02;  1.0028284E+03;  3.2455546E-01;  2.3424819E+03;3;  1.1468314E+02;  0.0000000E+00;  7.6867805E+00;0;  1.2245026E+00;  3.8996411E+03;  0.0000000E+00;  8.4912920E-01;  4.0000000E+04;  0.0000000E+00;  3.9050656E+04;  6.5423638E-01;  0.0000000E+00;  5.7026613E-01;  2.8252610E+03;
  1.3736644E+00;  9.9999998E-03;  2.0230752E-01;8535;  8.1004435E-01;  0.0000000E+00;  1.1301196E-01;  1.0059797E+03;  3.0546191E-01;  4.9517168E+03;3;  8.8442436E+01;  0.0000000E+00;  3.5612061E+01;0;  1.6078339E+00;  4.4341807E+03;  0.0000000E+00;  1.2240344E+00;  4.0000000E+04;  0.0000000E+00;  3.9038781E+04;  1.1622849E+00;  0.0000000E+00;  4.4554904E-01;  4.5491328E+03;
  1.3737797E+00;  9.9999998E-03;  2.1238863E-01;8536;  8.2905501E-01;  0.0000000E+00;  1.2044380E-01;  1.0061632E+03;  3.0537131E-01;  5.1036338E+03;3;  8.6206131E+01;  0.0000000E+00;  3.8379658E+01;0;  1.7026778E+00;  4.4390146E+03;  0.0000000E+00;  1.2594383E+00;  4.0000000E+04;  0.0000000E+00;  3.9033285E+04;  1.2760028E+00;  0.0000000E+00;  4.2667508E-01;  4.5649351E+03;
  1.3740221E+00;  9.9999998E-03;  1.9222176E-01;8534;  7.9130602E-01;  0.0000000E+00;  1.0595535E-01;  1.0057582E+03;  3.0535746E-01;  4.7682925E+03;3;  9.0749290E+01;  0.0000000E+00;  3.2868992E+01;0;  1.4979771E+00;  4.4338936E+03;  0.0000000E+00;  1.1045486E+00;  4.0000000E+04;  0.0000000E+00;  3.9046180E+04;  1.0325148E+00;  0.0000000E+00;  4.6546230E-01;  4.6046250E+03;
  1.3742920E+00;  9.9999998E-03;  2.2248609E-01;8537;  8.4866643E-01;  0.0000000E+00;  1.2849072E-01;  1.0063423E+03;  3.0511031E-01;  5.2518833E+03;3;  8.4353546E+01;  0.0000000E+00;  3.8146122E+01;0;  1.7878010E+00;  4.4477217E+03;  0.0000000E+00;  1.0607387E+00;  4.0000000E+04;  0.0000000E+00;  3.9029754E+04;  1.3710365E+00;  0.0000000E+00;  4.1676444E-01;  4.9470713E+03;
  1.3748485E+00;  9.9999998E-03;  1.8213624E-01;8533;  7.7261937E-01;  0.0000000E+00;  9.8252714E-02;  1.0054665E+03;  3.0506021E-01;  4.5266123E+03;3;  9.3686005E+01;  0.0000000E+00;  3.1148914E+01;0;  1.3745909E+00;  4.4381528E+03;  0.0000000E+00;  9.9441540E-01;  4.0000000E+04;  0.0000000E+00;  3.9052980E+04;  8.9344490E-01;  0.0000000E+00;  4.8114598E-01;  4.5428047E+03;
  1.3751819E+00;  9.9999998E-03;  2.3261862E-01;8538;  8.6888713E-01;  0.0000000E+00;  1.3572089E-01;  1.0064543E+03;  3.0468959E-01;  5.3446387E+03;3;  8.2821571E+01;  0.0000000E+00;  3.5705254E+01;0;  1.8671125E+00;  4.4605864E+03;  0.0000000E+00;  4.3770477E-01;  4.0000000E+04;  0.0000000E+00;  3.9023680E+04;  1.4435085E+00;  0.0000000E+00;  4.2360398E-01;  6.3995308E+03;
  1.3760939E+00;  9.9999998E-03;  1.7205623E-01;8532;  7.5371623E-01;  0.0000000E+00;  8.9416862E-02;  1.0050777E+03;  3.0456135E-01;  4.2046680E+03;3;  9.6879608E+01;  0.0000000E+00;  2.9922932E+01;0;  1.2422049E+00;  4.4469487E+03;  0.0000000E+00;  9.3083924E-01;  4.0000000E+04;  0.0000000E+00;  3.9059566E+04;  7.5274599E-01;  0.0000000E+00;  4.8945895E-01;  4.3132441E+03;
  1.3772428E+00;  9.9999998E-03;  1.6194469E-01;8531;  7.3486519E-01;  0.0000000E+00;  8.0623753E-02;  1.0045905E+03;  3.0405807E-01;  3.8011956E+03;3;  9.9959328E+01;  0.0000000E+00;  2.8442019E+01;0;  1.1186359E+00;  4.4551133E+03;  0.0000000E+00;  9.0102273E-01;  4.0000000E+04;  0.0000000E+00;  3.9065047E+04;  6.2850302E-01;  0.0000000E+00;  4.9013287E-01;  4.0191641E+03;
  1.3777628E+00;  9.9999998E-03;  1.5178043E-01;8530;  7.1654916E-01;  0.0000000E+00;  7.2843246E-02;  1.0040425E+03;  3.0378428E-01;  3.3474036E+03;3;  1.0241884E+02;  0.0000000E+00;  2.6752350E+01;0;  1.0172489E+00;  4.4562964E+03;  0.0000000E+00;  8.8512743E-01;  4.0000000E+04;  0.0000000E+00;  3.9069738E+04;  5.3144640E-01;  0.0000000E+00;  4.8580241E-01;  3.8174219E+03;
  1.3778156E+00;  9.9999998E-03;  1.4159475E-01;8529;  6.9946104E-01;  0.0000000E+00;  6.6116385E-02;  1.0034337E+03;  3.0368775E-01;  2.8432832E+03;3;  1.0460715E+02;  0.0000000E+00;  2.5065937E+01;0;  9.3061727E-01;  4.4519526E+03;  0.0000000E+00;  8.8084775E-01;  4.0000000E+04;  0.0000000E+00;  3.9074871E+04;  4.5256439E-01;  0.0000000E+00;  4.7805288E-01;  3.9683933E+03;
  1.3774471E+00;  9.9999998E-03;  1.2129053E-01;8527;  6.6935128E-01;  0.0000000E+00;  5.5056788E-02;  1.0020879E+03;  3.0371970E-01;  1.7288365E+03;3;  1.0904627E+02;  0.0000000E+00;  2.1106466E+01;0;  7.7834523E-01;  4.4360762E+03;  0.0000000E+00;  8.8239801E-01;  4.0000000E+04;  0.0000000E+00;  3.9088938E+04;  3.2146186E-01;  0.0000000E+00;  4.5688340E-01;  5.5728384E+03;
  1.3776457E+00;  9.9999998E-03;  1.3142067E-01;8528;  6.8370873E-01;  0.0000000E+00;  6.0279213E-02;  1.0027828E+03;  3.0368680E-01;  2.3043220E+03;3;  1.0709457E+02;  0.0000000E+00;  2.3039644E+01;0;  8.5212469E-01;  4.4445459E+03;  0.0000000E+00;  8.8384521E-01;  4.0000000E+04;  0.0000000E+00;  3.9081457E+04;  3.8404194E-01;  0.0000000E+00;  4.6808279E-01;  4.5998701E+03;
  1.3774267E+00;  9.9999998E-03;  1.1117360E-01;8526;  6.5634012E-01;  0.0000000E+00;  5.0090104E-02;  1.0013796E+03;  3.0370787E-01;  1.1423905E+03;3;  1.1123148E+02;  0.0000000E+00;  1.9340763E+01;0;  7.0600200E-01;  4.4289478E+03;  0.0000000E+00;  8.6022162E-01;  4.0000000E+04;  0.0000000E+00;  3.9097223E+04;  2.6136073E-01;  0.0000000E+00;  4.4464123E-01;  6.6842700E+03;
  1.3774655E+00;  9.9999998E-03;  1.0104134E-01;8525;  6.4450622E-01;  0.0000000E+00;  4.5331478E-02;  1.0006861E+03;  3.0370268E-01;  5.6808563E+02;3;  1.1307555E+02;  0.0000000E+00;  1.7575918E+01;0;  6.3897055E-01;  4.4219507E+03;  0.0000000E+00;  8.0965179E-01;  4.0000000E+04;  0.0000000E+00;  3.9104754E+04;  2.0616339E-01;  0.0000000E+00;  4.3280715E-01;  7.7344497E+03;
  1.3775582E+00;  9.9999998E-03;  9.0919495E-02;8524;  6.3377303E-01;  0.0000000E+00;  4.0538218E-02;  1.0000390E+03;  3.0370736E-01;  3.2278694E+01;3;  1.1405762E+02;  0.0000000E+00;  1.5708034E+01;0;  5.7824892E-01;  4.4154399E+03;  0.0000000E+00;  7.3102176E-01;  4.0000000E+04;  0.0000000E+00;  3.9111648E+04;  1.5633963E-01;  0.0000000E+00;  4.2190930E-01;  8.6417891E+03;
  1.3776895E+00;  9.9999998E-03;  8.0809072E-02;8523;  6.2433290E-01;  0.0000000E+00;  3.5817742E-02;  9.9946539E+02;  3.0371317E-01; -4.4267175E+02;3;  1.1477598E+02;  0.0000000E+00;  1.3757783E+01;0;  5.2444708E-01;  4.4096177E+03;  0.0000000E+00;  6.3038230E-01;  4.0000000E+04;  0.0000000E+00;  3.9116957E+04;  1.1219071E-01;  0.0000000E+00;  4.1225639E-01;  9.3827236E+03;
  1.3778436E+00;  9.9999998E-03;  7.0708886E-02;8522;  6.1608863E-01;  0.0000000E+00;  3.1142551E-02;  9.9899646E+02;  3.0371588E-01; -8.3100183E+02;3;  1.1601743E+02;  0.0000000E+00;  1.1974414E+01;0;  4.7782773E-01;  4.4047837E+03;  0.0000000E+00;  5.1691192E-01;  4.0000000E+04;  0.0000000E+00;  3.9121105E+04;  7.3863223E-02;  0.0000000E+00;  4.0396452E-01;  9.9589814E+03;
  1.4029256E+00;  9.9999998E-03;  2.1221162E-01;8597;  8.2652342E-01;  0.0000000E+00;  6.3859470E-02;  1.0022621E+03;  2.8397381E-01;  1.8727037E+03;3;  8.8203781E+01;  0.0000000E+00;  4.0566719E+01;0;  7.6410973E-01;  5.0863589E+03;  0.0000000E+00;  1.3977374E+00;  4.0000000E+04;  0.0000000E+00;  3.9088875E+04;  3.6336437E-01;  0.0000000E+00;  4.0074539E-01;  5.8367085E+03;
  1.4030324E+00;  9.9999998E-03;  2.0215324E-01;8596;  8.0763483E-01;  0.0000000E+00;  6.0424916E-02;  1.0020296E+03;  2.8390980E-01;  1.6802600E+03;3;  8.9957596E+01;  0.0000000E+00;  3.8421047E+01;0;  7.1629453E-01;  5.0857559E+03;  0.0000000E+00;  1.6217854E+00;  4.0000000E+04;  0.0000000E+00;  3.9095855E+04;  3.1549183E-01;  0.0000000E+00;  4.0080267E-01;  5.9539688E+03;
  1.4033788E+00;  9.9999998E-03;  2.2227058E-01;8598;  8.4577161E-01;  0.0000000E+00;  6.7638442E-02;  1.0025350E+03;  2.8374898E-01;  2.0985896E+03;3;  8.6778923E+01;  0.0000000E+00;  4.4453037E+01;0;  7.9876846E-01;  5.0959551E+03;  0.0000000E+00;  8.6303043E-01;  4.0000000E+04;  0.0000000E+00;  3.9087582E+04;  4.0026683E-01;  0.0000000E+00;  3.9850163E-01;  6.6433926E+03;
  1.4036251E+00;  9.9999998E-03;  1.9208038E-01;8595;  7.8898853E-01;  0.0000000E+00;  5.6838948E-02;  1.0018015E+03;  2.8361467E-01;  1.4913613E+03;3;  9.2112679E+01;  0.0000000E+00;  3.6638710E+01;0;  6.5814519E-01;  5.0922817E+03;  0.0000000E+00;  1.6615690E+00;  4.0000000E+04;  0.0000000E+00;  3.9104469E+04;  2.6240298E-01;  0.0000000E+00;  3.9574224E-01;  6.4901191E+03;
  1.4042150E+00;  9.9999998E-03;  2.3237312E-01;8599;  8.6542302E-01;  0.0000000E+00;  7.3522113E-02;  1.0028248E+03;  2.8332123E-01;  2.3384766E+03;3;  8.5392365E+01;  0.0000000E+00;  4.8788708E+01;0;  8.2943189E-01;  5.1120132E+03;  0.0000000E+00; -1.4093864E-01;  4.0000000E+04;  0.0000000E+00;  3.9087535E+04;  4.2646575E-01;  0.0000000E+00;  4.0296614E-01;  8.5538945E+03;
  1.4045146E+00;  9.9999998E-03;  1.8199585E-01;8594;  7.7038598E-01;  0.0000000E+00;  5.2864388E-02;  1.0015371E+03;  2.8318226E-01;  1.2724600E+03;3;  9.4247971E+01;  0.0000000E+00;  3.5551014E+01;0;  5.9585291E-01;  5.1028457E+03;  0.0000000E+00;  1.6054900E+00;  4.0000000E+04;  0.0000000E+00;  3.9111660E+04;  2.1099485E-01;  0.0000000E+00;  3.8485807E-01;  7.0361235E+03;
  1.4054960E+00;  9.9999998E-03;  1.7189877E-01;8593;  7.5173014E-01;  0.0000000E+00;  4.8191424E-02;  1.0012136E+03;  2.8269166E-01;  1.0047128E+03;3;  9.7075050E+01;  0.0000000E+00;  3.4799507E+01;0;  5.3492790E-01;  5.1147446E+03;  0.0000000E+00;  1.5026473E+00;  4.0000000E+04;  0.0000000E+00;  3.9117035E+04;  1.6617779E-01;  0.0000000E+00;  3.6875010E-01;  7.4582349E+03;
  1.4063916E+00;  9.9999998E-03;  1.6178492E-01;8592;  7.3290193E-01;  0.0000000E+00;  4.2924281E-02;  1.0008002E+03;  2.8220806E-01;  6.6236719E+02;3;  9.9576622E+01;  0.0000000E+00;  3.3986542E+01;0;  4.7885263E-01;  5.1254683E+03;  0.0000000E+00;  1.3712690E+00;  4.0000000E+04;  0.0000000E+00;  3.9120805E+04;  1.3011944E-01;  0.0000000E+00;  3.4873319E-01;  7.8037485E+03;
  1.4070815E+00;  9.9999998E-03;  8.0796994E-02;8584;  6.1907566E-01;  0.0000000E+00;  1.6814116E-02;  9.9554352E+02;  2.8187209E-01; -3.6891240E+03;3;  1.1559666E+02;  0.0000000E+00;  1.5786785E+01;0;  1.9664045E-01;  5.0693174E+03;  0.0000000E+00;  3.5293174E-01;  4.0000000E+04;  0.0000000E+00;  3.9168430E+04; -4.8354403E-03;  0.0000000E+00;  2.0147589E-01;  1.4129605E+04;
  1.4071833E+00;  9.9999998E-03;  7.0721976E-02;8583;  6.1026961E-01;  0.0000000E+00;  1.4488726E-02;  9.9510547E+02;  2.8190723E-01; -4.0517800E+03;3;  1.1715155E+02;  0.0000000E+00;  1.3947301E+01;0;  1.7410251E-01;  5.0628315E+03;  0.0000000E+00;  2.7751788E-01;  4.0000000E+04;  0.0000000E+00;  3.9173000E+04; -1.5356519E-02;  0.0000000E+00;  1.8945904E-01;  1.4722241E+04;
  1.4070417E+00;  9.9999998E-03;  9.0867810E-02;8585;  6.2896878E-01;  0.0000000E+00;  1.9116953E-02;  9.9610016E+02;  2.8180847E-01; -3.2283245E+03;3;  1.1388852E+02;  0.0000000E+00;  1.7710915E+01;0;  2.2218749E-01;  5.0781943E+03;  0.0000000E+00;  4.3393198E-01;  4.0000000E+04;  0.0000000E+00;  3.9163035E+04;  7.2793677E-03;  0.0000000E+00;  2.1490812E-01;  1.3372650E+04;
  1.4071403E+00;  9.9999998E-03;  1.5164375E-01;8591;  7.1453935E-01;  0.0000000E+00;  3.7671883E-02;  1.0002829E+03;  2.8176868E-01;  2.3417509E+02;3;  1.0149842E+02;  0.0000000E+00;  3.2140503E+01;0;  4.2804211E-01;  5.1334849E+03;  0.0000000E+00;  1.2153621E+00;  4.0000000E+04;  0.0000000E+00;  3.9124590E+04;  1.0201955E-01;  0.0000000E+00;  3.2602257E-01;  8.2091553E+03;
  1.4070783E+00;  9.9999998E-03;  1.0094149E-01;8586;  6.4000309E-01;  0.0000000E+00;  2.1407742E-02;  9.9675867E+02;  2.8171858E-01; -2.6832461E+03;3;  1.1235966E+02;  0.0000000E+00;  1.9841656E+01;0;  2.5036561E-01;  5.0892080E+03;  0.0000000E+00;  5.2177227E-01;  4.0000000E+04;  0.0000000E+00;  3.9156504E+04;  2.0636881E-02;  0.0000000E+00;  2.2972874E-01;  1.2468008E+04;
  1.4072155E+00;  9.9999998E-03;  1.1103311E-01;8587;  6.5235335E-01;  0.0000000E+00;  2.3841102E-02;  9.9748383E+02;  2.8160474E-01; -2.0829033E+03;3;  1.1022649E+02;  0.0000000E+00;  2.2717438E+01;0;  2.8054929E-01;  5.1021714E+03;  0.0000000E+00;  6.2100244E-01;  4.0000000E+04;  0.0000000E+00;  3.9149191E+04;  3.4774773E-02;  0.0000000E+00;  2.4577452E-01;  1.1464868E+04;
  1.4074451E+00;  9.9999998E-03;  1.2115678E-01;8588;  6.6593391E-01;  0.0000000E+00;  2.6430018E-02;  9.9823840E+02;  2.8147405E-01; -1.4582848E+03;3;  1.0815775E+02;  0.0000000E+00;  2.5306660E+01;0;  3.1223646E-01;  5.1162275E+03;  0.0000000E+00;  7.3861933E-01;  4.0000000E+04;  0.0000000E+00;  3.9141605E+04;  4.9264487E-02;  0.0000000E+00;  2.6297197E-01;  1.0452041E+04;
  1.4076051E+00;  9.9999998E-03;  1.4148040E-01;8590;  6.9708848E-01;  0.0000000E+00;  3.3082243E-02;  9.9966443E+02;  2.8146458E-01; -2.7779150E+02;3;  1.0375446E+02;  0.0000000E+00;  2.9972410E+01;0;  3.8355088E-01;  5.1355991E+03;  0.0000000E+00;  1.0450385E+00;  4.0000000E+04;  0.0000000E+00;  3.9129227E+04;  8.0709860E-02;  0.0000000E+00;  3.0284104E-01;  8.7785537E+03;
  1.4076453E+00;  9.9999998E-03;  1.3131572E-01;8589;  6.8084109E-01;  0.0000000E+00;  2.9408654E-02;  9.9897748E+02;  2.8139287E-01; -8.4644946E+02;3;  1.0587893E+02;  0.0000000E+00;  2.7745718E+01;0;  3.4592113E-01;  5.1287349E+03;  0.0000000E+00;  8.8068396E-01;  4.0000000E+04;  0.0000000E+00;  3.9134914E+04;  6.4129032E-02;  0.0000000E+00;  2.8179210E-01;  9.5307305E+03;
  1.4303820E+00;  9.9999998E-03;  2.0204420E-01;8657;  8.0348724E-01;  0.0000000E+00;  1.2125808E-02;  9.9747662E+02;  2.6266336E-01; -2.0881753E+03;3;  8.9497856E+01;  0.0000000E+00;  4.1865288E+01;0;  3.0381671E-01;  5.8827192E+03;  0.0000000E+00;  1.4631617E+00;  4.0000000E+04;  0.0000000E+00;  3.9142879E+04;  1.8731506E-03;  0.0000000E+00;  3.0194354E-01;  9.2663975E+03;
  1.4304898E+00;  9.9999998E-03;  2.1208867E-01;8658;  8.2186121E-01;  0.0000000E+00;  1.2678895E-02;  9.9762579E+02;  2.6264760E-01; -1.9647604E+03;3;  8.7883057E+01;  0.0000000E+00;  4.3067467E+01;0;  3.1809232E-01;  5.8851221E+03;  0.0000000E+00;  1.0696014E+00;  4.0000000E+04;  0.0000000E+00;  3.9137723E+04; -3.7722713E-03;  0.0000000E+00;  3.2186458E-01;  9.1752100E+03;
  1.4306881E+00;  9.9999998E-03;  1.9197488E-01;8656;  7.8506482E-01;  0.0000000E+00;  1.1072896E-02;  9.9740118E+02;  2.6246792E-01; -2.1506094E+03;3;  9.1832695E+01;  0.0000000E+00;  4.0846893E+01;0;  2.8569609E-01;  5.8890576E+03;  0.0000000E+00;  1.6279430E+00;  4.0000000E+04;  0.0000000E+00;  3.9149926E+04;  9.1075385E-03;  0.0000000E+00;  2.7658856E-01;  9.8826074E+03;
  1.4309903E+00;  9.9999998E-03;  2.2213520E-01;8659;  8.4032005E-01;  0.0000000E+00;  1.3327406E-02;  9.9791254E+02;  2.6242959E-01; -1.7274432E+03;3;  8.6323540E+01;  0.0000000E+00;  4.4714718E+01;0;  3.2593769E-01;  5.8960669E+03;  0.0000000E+00;  3.1441391E-01;  4.0000000E+04;  0.0000000E+00;  3.9138004E+04; -1.0279766E-02;  0.0000000E+00;  3.3621746E-01;  1.0398541E+04;
  1.4314266E+00;  9.9999998E-03;  1.8188357E-01;8655;  7.6649421E-01;  0.0000000E+00;  9.1373259E-03;  9.9731201E+02;  2.6204854E-01; -2.2243711E+03;3;  9.4096451E+01;  0.0000000E+00;  4.0421326E+01;0;  2.6675761E-01;  5.9046060E+03;  0.0000000E+00;  1.6499599E+00;  4.0000000E+04;  0.0000000E+00;  3.9155883E+04;  2.0637020E-02;  0.0000000E+00;  2.4612057E-01;  1.0465194E+04;
  1.4318238E+00;  9.9999998E-03;  2.3222263E-01;8660;  8.5900033E-01;  0.0000000E+00;  1.4670935E-02;  9.9831958E+02;  2.6203409E-01; -1.3905859E+03;3;  8.5458435E+01;  0.0000000E+00;  4.6504230E+01;0;  3.2638434E-01;  5.9148711E+03;  0.0000000E+00; -9.8359734E-01;  4.0000000E+04;  0.0000000E+00;  3.9141355E+04; -1.9398363E-02;  0.0000000E+00;  3.4578270E-01;  1.3462348E+04;
  1.4324148E+00;  9.9999998E-03;  1.7177892E-01;8654;  7.4785042E-01;  0.0000000E+00;  6.5803095E-03;  9.9718677E+02;  2.6149747E-01; -2.3279607E+03;3;  9.6262993E+01;  0.0000000E+00;  4.0350292E+01;0;  2.5073451E-01;  5.9252129E+03;  0.0000000E+00;  1.5824482E+00;  4.0000000E+04;  0.0000000E+00;  3.9159414E+04;  3.8816325E-02;  0.0000000E+00;  2.1191819E-01;  1.0854956E+04;
  1.4334407E+00;  9.9999998E-03;  1.6166726E-01;8653;  7.2922343E-01;  0.0000000E+00;  3.5420540E-03;  9.9698016E+02;  2.6091892E-01; -2.4988699E+03;3;  9.8507469E+01;  0.0000000E+00;  3.9632580E+01;0;  2.3996201E-01;  5.9459663E+03;  0.0000000E+00;  1.4540807E+00;  4.0000000E+04;  0.0000000E+00;  3.9161965E+04;  6.4070873E-02;  0.0000000E+00;  1.7589113E-01;  1.1114271E+04;
  1.4343516E+00;  9.9999998E-03;  1.5153807E-01;8652;  7.1094573E-01;  0.0000000E+00;  7.0181058E-04;  9.9667194E+02;  2.6039240E-01; -2.7539202E+03;3;  1.0024442E+02;  0.0000000E+00;  3.7761753E+01;0;  2.3503965E-01;  5.9631660E+03;  0.0000000E+00;  1.2772374E+00;  4.0000000E+04;  0.0000000E+00;  3.9164184E+04;  9.4994724E-02;  0.0000000E+00;  1.4004493E-01;  1.1383839E+04;
  1.4343611E+00;  9.9999998E-03;  8.0853261E-02;8645;  6.1344349E-01;  0.0000000E+00; -3.2924621E-03;  9.9243964E+02;  2.6061112E-01; -6.2560479E+03;3;  1.1624699E+02;  0.0000000E+00;  1.9943855E+01;0;  2.4689224E-01;  5.8899746E+03;  0.0000000E+00;  2.7088487E-01;  4.0000000E+04;  0.0000000E+00;  3.9198922E+04;  2.6711416E-01;  0.0000000E+00; -2.0221913E-02;  1.6138532E+04;
  1.4343967E+00;  9.9999998E-03;  9.0908930E-02;8646;  6.2391758E-01;  0.0000000E+00; -3.2264201E-03;  9.9298090E+02;  2.6051360E-01; -5.8081548E+03;3;  1.1427819E+02;  0.0000000E+00;  2.1809324E+01;0;  2.4525729E-01;  5.9015410E+03;  0.0000000E+00;  3.3949035E-01;  4.0000000E+04;  0.0000000E+00;  3.9194449E+04;  2.4919337E-01;  0.0000000E+00; -3.9360793E-03;  1.5519438E+04;
  1.4343888E+00;  9.9999998E-03;  7.0780896E-02;8644;  6.0413349E-01;  0.0000000E+00; -3.2932605E-03;  9.9202118E+02;  2.6067269E-01; -6.6022812E+03;3;  1.1780346E+02;  0.0000000E+00;  1.8213230E+01;0;  2.4870127E-01;  5.8817197E+03;  0.0000000E+00;  2.1048300E-01;  4.0000000E+04;  0.0000000E+00;  3.9202277E+04;  2.8369305E-01;  0.0000000E+00; -3.4991775E-02;  1.6603299E+04;
  1.4345193E+00;  9.9999998E-03;  1.0096037E-01;8647;  6.3552725E-01;  0.0000000E+00; -3.1637815E-03;  9.9363623E+02;  2.6037508E-01; -5.2658525E+03;3;  1.1182826E+02;  0.0000000E+00;  2.3620298E+01;0;  2.4374208E-01;  5.9164810E+03;  0.0000000E+00;  4.2279828E-01;  4.0000000E+04;  0.0000000E+00;  3.9188867E+04;  2.2998540E-01;  0.0000000E+00;  1.3756679E-02;  1.4766497E+04;
  1.4348963E+00;  9.9999998E-03;  1.4138517E-01;8651;  6.9348019E-01;  0.0000000E+00; -1.3321649E-03;  9.9624707E+02;  2.6006579E-01; -3.1054536E+03;3;  1.0156357E+02;  0.0000000E+00;  3.5141537E+01;0;  2.3496133E-01;  5.9699307E+03;  0.0000000E+00;  1.0686971E+00;  4.0000000E+04;  0.0000000E+00;  3.9167230E+04;  1.2767695E-01;  0.0000000E+00;  1.0728437E-01;  1.1778456E+04;
  1.4347147E+00;  9.9999998E-03;  1.1101872E-01;8648;  6.4820576E-01;  0.0000000E+00; -3.1097222E-03;  9.9433643E+02;  2.6020998E-01; -4.6864570E+03;3;  1.0808028E+02;  0.0000000E+00;  2.6212997E+01;0;  2.4203840E-01;  5.9336865E+03;  0.0000000E+00;  5.3131229E-01;  4.0000000E+04;  0.0000000E+00;  3.9182867E+04;  2.0898095E-01;  0.0000000E+00;  3.3057444E-02;  1.3931919E+04;
  1.4349537E+00;  9.9999998E-03;  1.2110554E-01;8649;  6.6202182E-01;  0.0000000E+00; -3.0000585E-03;  9.9504279E+02;  2.6003969E-01; -4.1019331E+03;3;  1.0462388E+02;  0.0000000E+00;  2.9236521E+01;0;  2.3999837E-01;  5.9516177E+03;  0.0000000E+00;  6.7551732E-01;  4.0000000E+04;  0.0000000E+00;  3.9176582E+04;  1.8571793E-01;  0.0000000E+00;  5.4280441E-02;  1.3099072E+04;
  1.4350674E+00;  9.9999998E-03;  1.3123064E-01;8650;  6.7711890E-01;  0.0000000E+00; -2.4922998E-03;  9.9569574E+02;  2.5996104E-01; -3.5616626E+03;3;  1.0277623E+02;  0.0000000E+00;  3.2193707E+01;0;  2.3732488E-01;  5.9652886E+03;  0.0000000E+00;  8.5846812E-01;  4.0000000E+04;  0.0000000E+00;  3.9171414E+04;  1.5861741E-01;  0.0000000E+00;  7.8707471E-02;  1.2356938E+04;
  1.4556516E+00;  9.9999998E-03;  2.0201059E-01;8718;  7.9993528E-01;  0.0000000E+00; -3.0944882E-02;  9.9351447E+02;  2.4284989E-01; -5.3641943E+03;3;  8.8827332E+01;  0.0000000E+00;  4.4113434E+01;0;  2.2592826E-01;  6.8236943E+03;  0.0000000E+00;  1.3271420E+00;  4.0000000E+04;  0.0000000E+00;  3.9174625E+04;  3.6406238E-02;  0.0000000E+00;  1.8952203E-01;  1.1538136E+04;
  1.4558874E+00;  9.9999998E-03;  2.1204644E-01;8719;  8.1778729E-01;  0.0000000E+00; -3.1725470E-02;  9.9363861E+02;  2.4281295E-01; -5.2614731E+03;3;  8.6262962E+01;  0.0000000E+00;  4.4692104E+01;0;  2.1125358E-01;  6.8262939E+03;  0.0000000E+00;  8.2533699E-01;  4.0000000E+04;  0.0000000E+00;  3.9171719E+04; -1.5050617E-02;  0.0000000E+00;  2.2630420E-01;  1.1537954E+04;
  1.4559048E+00;  9.9999998E-03;  1.9194703E-01;8717;  7.8169966E-01;  0.0000000E+00; -3.0963674E-02;  9.9352875E+02;  2.4264178E-01; -5.3523774E+03;3;  9.0897026E+01;  0.0000000E+00;  4.3793358E+01;0;  2.4354762E-01;  6.8344956E+03;  0.0000000E+00;  1.5266972E+00;  4.0000000E+04;  0.0000000E+00;  3.9180234E+04;  9.5710851E-02;  0.0000000E+00;  1.4783676E-01;  1.2098484E+04;
  1.4565934E+00;  9.9999998E-03;  2.2208934E-01;8720;  8.3536530E-01;  0.0000000E+00; -3.3048283E-02;  9.9395178E+02;  2.4254449E-01; -5.0023677E+03;3;  8.4732330E+01;  0.0000000E+00;  4.5748562E+01;0;  1.9476500E-01;  6.8419810E+03;  0.0000000E+00; -1.7662962E-01;  4.0000000E+04;  0.0000000E+00;  3.9173922E+04; -6.1867900E-02;  0.0000000E+00;  2.5663289E-01;  1.3235797E+04;
  1.4565495E+00;  9.9999998E-03;  1.8185636E-01;8716;  7.6318896E-01;  0.0000000E+00; -3.1719826E-02;  9.9360510E+02;  2.4225210E-01; -5.2891401E+03;3;  9.3092331E+01;  0.0000000E+00;  4.3503754E+01;0;  2.6792413E-01;  6.8555664E+03;  0.0000000E+00;  1.5499001E+00;  4.0000000E+04;  0.0000000E+00;  3.9184336E+04;  1.6505828E-01;  0.0000000E+00;  1.0286584E-01;  1.2539713E+04;
  1.4576380E+00;  9.9999998E-03;  2.3217246E-01;8721;  8.5272402E-01;  0.0000000E+00; -3.4233417E-02;  9.9443024E+02;  2.4210550E-01; -4.6065303E+03;3;  8.3712997E+01;  0.0000000E+00;  4.7239567E+01;0;  1.7189366E-01;  6.8682070E+03;  0.0000000E+00; -1.9734513E+00;  4.0000000E+04;  0.0000000E+00;  3.9178996E+04; -1.0681036E-01;  0.0000000E+00;  2.7870402E-01;  1.8072205E+04;
  1.4574426E+00;  9.9999998E-03;  1.7174783E-01;8715;  7.4453956E-01;  0.0000000E+00; -3.2922283E-02;  9.9368860E+02;  2.4175309E-01; -5.2199551E+03;3;  9.6096947E+01;  0.0000000E+00;  4.3320408E+01;0;  3.0143291E-01;  6.8824175E+03;  0.0000000E+00;  1.4744657E+00;  4.0000000E+04;  0.0000000E+00;  3.9186059E+04;  2.4507695E-01;  0.0000000E+00;  5.6355946E-02;  1.2707133E+04;
  1.4583831E+00;  9.9999998E-03;  1.6162114E-01;8714;  7.2588968E-01;  0.0000000E+00; -3.4129269E-02;  9.9372656E+02;  2.4124306E-01; -5.1884272E+03;3;  9.8887138E+01;  0.0000000E+00;  4.3125885E+01;0;  3.4423202E-01;  6.9090293E+03;  0.0000000E+00;  1.3453870E+00;  4.0000000E+04;  0.0000000E+00;  3.9186117E+04;  3.3379993E-01;  0.0000000E+00;  1.0432102E-02;  1.2697348E+04;
  1.4591408E+00;  9.9999998E-03;  1.5148018E-01;8713;  7.0755947E-01;  0.0000000E+00; -3.4854621E-02;  9.9367004E+02;  2.4083909E-01; -5.2350566E+03;3;  1.0031269E+02;  0.0000000E+00;  4.2191238E+01;0;  3.9362130E-01;  6.9283193E+03;  0.0000000E+00;  1.1821473E+00;  4.0000000E+04;  0.0000000E+00;  3.9186207E+04;  4.2601329E-01;  0.0000000E+00; -3.2392003E-02;  1.2684237E+04;
  1.4596126E+00;  9.9999998E-03;  1.4133620E-01;8712;  6.9007218E-01;  0.0000000E+00; -3.4829240E-02;  9.9347766E+02;  2.4059415E-01; -5.3941123E+03;3;  1.0077398E+02;  0.0000000E+00;  4.0898109E+01;0;  4.4585586E-01;  6.9366597E+03;  0.0000000E+00;  9.9095803E-01;  4.0000000E+04;  0.0000000E+00;  3.9187254E+04;  5.1636881E-01;  0.0000000E+00; -7.0512958E-02;  1.2814174E+04;
  1.4596183E+00;  9.9999998E-03;  9.0970606E-02;8707;  6.1966693E-01;  0.0000000E+00; -2.7398020E-02;  9.9069910E+02;  2.4085470E-01; -7.6920083E+03;3;  1.1161872E+02;  0.0000000E+00;  2.8818785E+01;0;  6.7600328E-01;  6.8754180E+03;  0.0000000E+00;  2.8301087E-01;  4.0000000E+04;  0.0000000E+00;  3.9205805E+04;  8.7957668E-01;  0.0000000E+00; -2.0357341E-01;  1.5419118E+04;
  1.4596670E+00;  9.9999998E-03;  1.0102230E-01;8708;  6.3144493E-01;  0.0000000E+00; -2.9494613E-02;  9.9133997E+02;  2.4075897E-01; -7.1619883E+03;3;  1.0937946E+02;  0.0000000E+00;  3.1929506E+01;0;  6.3595521E-01;  6.8901226E+03;  0.0000000E+00;  3.5708967E-01;  4.0000000E+04;  0.0000000E+00;  3.9201996E+04;  8.1785977E-01;  0.0000000E+00; -1.8190454E-01;  1.4892788E+04;
  1.4596262E+00;  9.9999998E-03;  8.0899477E-02;8706;  6.0905772E-01;  0.0000000E+00; -2.5095418E-02;  9.9014435E+02;  2.4091932E-01; -8.1507881E+03;3;  1.1296272E+02;  0.0000000E+00;  2.5739906E+01;0;  7.1327633E-01;  6.8639077E+03;  0.0000000E+00;  2.2905222E-01;  4.0000000E+04;  0.0000000E+00;  3.9208789E+04;  9.3687999E-01;  0.0000000E+00; -2.2360365E-01;  1.5820167E+04;
  1.4597536E+00;  9.9999998E-03;  1.1107375E-01;8709;  6.4439625E-01;  0.0000000E+00; -3.1395484E-02;  9.9200494E+02;  2.4064703E-01; -6.6120483E+03;3;  1.0688808E+02;  0.0000000E+00;  3.4791748E+01;0;  5.9299719E-01;  6.9066123E+03;  0.0000000E+00;  4.6318904E-01;  4.0000000E+04;  0.0000000E+00;  3.9197602E+04;  7.5141907E-01;  0.0000000E+00; -1.5842186E-01;  1.4282601E+04;
  1.4598163E+00;  9.9999998E-03;  1.3122010E-01;8711;  6.7363775E-01;  0.0000000E+00; -3.4167681E-02;  9.9312500E+02;  2.4051136E-01; -5.6857065E+03;3;  1.0165336E+02;  0.0000000E+00;  3.9620132E+01;0;  4.9765632E-01;  6.9337935E+03;  0.0000000E+00;  7.9041719E-01;  4.0000000E+04;  0.0000000E+00;  3.9189730E+04;  6.0133249E-01;  0.0000000E+00; -1.0367617E-01;  1.3149929E+04;
  1.4596609E+00;  9.9999998E-03;  7.0805646E-02;8705;  5.9968245E-01;  0.0000000E+00; -2.2549914E-02;  9.8970093E+02;  2.4096636E-01; -8.5175283E+03;3;  1.1458770E+02;  0.0000000E+00;  2.2917665E+01;0;  7.4684918E-01;  6.8551724E+03;  0.0000000E+00;  1.8489316E-01;  4.0000000E+04;  0.0000000E+00;  3.9210465E+04;  9.8855007E-01;  0.0000000E+00; -2.4170092E-01;  1.6080679E+04;
  1.4598348E+00;  9.9999998E-03;  1.2113761E-01;8710;  6.5843147E-01;  0.0000000E+00; -3.2988816E-02;  9.9261108E+02;  2.4054517E-01; -6.1107153E+03;3;  1.0280795E+02;  0.0000000E+00;  3.8017300E+01;0;  5.4699272E-01;  6.9225308E+03;  0.0000000E+00;  6.0877860E-01;  4.0000000E+04;  0.0000000E+00;  3.9193086E+04;  6.7965341E-01;  0.0000000E+00; -1.3266067E-01;  1.3667662E+04;
  1.4793169E+00;  9.9999998E-03;  2.0199454E-01;8779;  7.9685754E-01;  0.0000000E+00; -6.9844343E-02;  9.9075336E+02;  2.2480160E-01; -7.6425244E+03;3;  8.9464035E+01;  0.0000000E+00;  4.7723869E+01;0;  4.0730813E-01;  7.9149355E+03;  0.0000000E+00;  1.2927080E+00;  4.0000000E+04;  0.0000000E+00;  3.9195031E+04;  3.2970795E-01;  0.0000000E+00;  7.7600174E-02;  1.2933022E+04;
  1.4791973E+00;  9.9999998E-03;  1.9193435E-01;8778;  7.7850300E-01;  0.0000000E+00; -6.9150716E-02;  9.9076978E+02;  2.2477803E-01; -7.6289600E+03;3;  9.0863533E+01;  0.0000000E+00;  4.8835800E+01;0;  4.7114259E-01;  7.9174600E+03;  0.0000000E+00;  1.5946450E+00;  4.0000000E+04;  0.0000000E+00;  3.9196324E+04;  4.4400176E-01;  0.0000000E+00;  2.7140817E-02;  1.3152710E+04;
  1.4799531E+00;  9.9999998E-03;  2.1203269E-01;8780;  8.1453240E-01;  0.0000000E+00; -7.1611241E-02;  9.9090436E+02;  2.2460604E-01; -7.5175679E+03;3;  8.4826271E+01;  0.0000000E+00;  4.6592358E+01;0;  3.5269934E-01;  7.9285625E+03;  0.0000000E+00;  5.1093894E-01;  4.0000000E+04;  0.0000000E+00;  3.9195965E+04;  2.2885916E-01;  0.0000000E+00;  1.2384020E-01;  1.3314256E+04;
  1.4795436E+00;  9.9999998E-03;  1.8184668E-01;8777;  7.6012278E-01;  0.0000000E+00; -6.9163874E-02;  9.9090656E+02;  2.2455281E-01; -7.5158550E+03;3;  9.2232994E+01;  0.0000000E+00;  4.7790470E+01;0;  5.4839915E-01;  7.9347051E+03;  0.0000000E+00;  1.6152192E+00;  4.0000000E+04;  0.0000000E+00;  3.9197520E+04;  5.7394701E-01;  0.0000000E+00; -2.5547860E-02;  1.3235943E+04;
  1.4810402E+00;  9.9999998E-03;  2.2208361E-01;8781;  8.3126819E-01;  0.0000000E+00; -7.4015714E-02;  9.9125812E+02;  2.2422357E-01; -7.2248579E+03;3;  8.2409485E+01;  0.0000000E+00;  4.7256790E+01;0;  3.0104998E-01;  7.9560249E+03;  0.0000000E+00; -1.0843543E+00;  4.0000000E+04;  0.0000000E+00;  3.9202113E+04;  1.3736613E-01;  0.0000000E+00;  1.6368385E-01;  1.5968842E+04;
  1.4802210E+00;  9.9999998E-03;  1.7173970E-01;8776;  7.4170119E-01;  0.0000000E+00; -6.9236763E-02;  9.9109491E+02;  2.2419667E-01; -7.3600029E+03;3;  9.6162392E+01;  0.0000000E+00;  4.5957439E+01;0;  6.4057344E-01;  7.9613774E+03;  0.0000000E+00;  1.4845585E+00;  4.0000000E+04;  0.0000000E+00;  3.9196566E+04;  7.1916384E-01;  0.0000000E+00; -7.8590401E-02;  1.3046284E+04;
  1.4822901E+00;  9.9999998E-03;  2.3217675E-01;8782;  8.4733069E-01;  0.0000000E+00; -7.6157875E-02;  9.9171991E+02;  2.2378001E-01; -6.8429165E+03;3;  8.1973915E+01;  0.0000000E+00;  4.8138325E+01;0;  2.4425563E-01;  7.9893750E+03;  0.0000000E+00; -3.9812348E+00;  4.0000000E+04;  0.0000000E+00;  3.9209055E+04;  4.9619712E-02;  0.0000000E+00;  1.9463593E-01;  2.3567316E+04;
  1.4809859E+00;  9.9999998E-03;  1.6161311E-01;8775;  7.2311294E-01;  0.0000000E+00; -6.8976916E-02;  9.9128986E+02;  2.2383112E-01; -7.1986650E+03;3;  9.9594978E+01;  0.0000000E+00;  4.4993568E+01;0;  7.4472183E-01;  7.9883857E+03;  0.0000000E+00;  1.2879347E+00;  4.0000000E+04;  0.0000000E+00;  3.9194125E+04;  8.7426043E-01;  0.0000000E+00; -1.2953858E-01;  1.2699608E+04;
  1.4815828E+00;  9.9999998E-03;  1.5146843E-01;8774;  7.0488960E-01;  0.0000000E+00; -6.8072416E-02;  9.9142383E+02;  2.2357547E-01; -7.0877715E+03;3;  1.0018521E+02;  0.0000000E+00;  4.4181557E+01;0;  8.5407162E-01;  8.0063022E+03;  0.0000000E+00;  1.0739903E+00;  4.0000000E+04;  0.0000000E+00;  3.9191762E+04;  1.0299081E+00;  0.0000000E+00; -1.7583643E-01;  1.2380464E+04;
  1.4820118E+00;  9.9999998E-03;  1.4134514E-01;8773;  6.8765283E-01;  0.0000000E+00; -6.6450566E-02;  9.9143341E+02;  2.2341670E-01; -7.0797783E+03;3;  1.0060470E+02;  0.0000000E+00;  4.3520004E+01;0;  9.6544725E-01;  8.0154995E+03;  0.0000000E+00;  8.5722613E-01;  4.0000000E+04;  0.0000000E+00;  3.9190602E+04;  1.1821430E+00;  0.0000000E+00; -2.1669573E-01;  1.2232659E+04;
  1.4823507E+00;  9.9999998E-03;  1.3125083E-01;8772;  6.7153847E-01;  0.0000000E+00; -6.4269193E-02;  9.9127539E+02;  2.2330725E-01; -7.2102744E+03;3;  1.0082672E+02;  0.0000000E+00;  4.2551758E+01;0;  1.0776299E+00;  8.0185117E+03;  0.0000000E+00;  6.4412880E-01;  4.0000000E+04;  0.0000000E+00;  3.9190844E+04;  1.3304578E+00;  0.0000000E+00; -2.5282791E-01;  1.2300277E+04;
  1.4826291E+00;  9.9999998E-03;  1.2118029E-01;8771;  6.5648872E-01;  0.0000000E+00; -6.1669461E-02;  9.9095251E+02;  2.2323476E-01; -7.4770327E+03;3;  1.0167023E+02;  0.0000000E+00;  4.1235176E+01;0;  1.1881756E+00;  8.0166084E+03;  0.0000000E+00;  4.5428470E-01;  4.0000000E+04;  0.0000000E+00;  3.9192574E+04;  1.4734294E+00;  0.0000000E+00; -2.8525385E-01;  1.2554453E+04;
  1.4828268E+00;  9.9999998E-03;  1.1112371E-01;8770;  6.4249194E-01;  0.0000000E+00; -5.8557805E-02;  9.9049359E+02;  2.2321078E-01; -7.8562158E+03;3;  1.0382510E+02;  0.0000000E+00;  3.9110996E+01;0;  1.2932589E+00;  8.0098486E+03;  0.0000000E+00;  3.0516008E-01;  4.0000000E+04;  0.0000000E+00;  3.9195059E+04;  1.6078709E+00;  0.0000000E+00; -3.1461200E-01;  1.2912992E+04;
  1.4829483E+00;  9.9999998E-03;  1.0106437E-01;8769;  6.2957674E-01;  0.0000000E+00; -5.4917146E-02;  9.8993982E+02;  2.2322172E-01; -8.3138340E+03;3;  1.0574358E+02;  0.0000000E+00;  3.5840733E+01;0;  1.3903341E+00;  7.9996846E+03;  0.0000000E+00;  2.0284151E-01;  4.0000000E+04;  0.0000000E+00;  3.9197430E+04;  1.7317591E+00;  0.0000000E+00; -3.4142500E-01;  1.3279478E+04;
  1.4830245E+00;  9.9999998E-03;  9.0991050E-02;8768;  6.1784583E-01;  0.0000000E+00; -5.0775979E-02;  9.8935889E+02;  2.2325175E-01; -8.7938760E+03;3;  1.0730317E+02;  0.0000000E+00;  3.2724102E+01;0;  1.4785676E+00;  7.9884487E+03;  0.0000000E+00;  1.4249505E-01;  4.0000000E+04;  0.0000000E+00;  3.9199723E+04;  1.8445938E+00;  0.0000000E+00; -3.6602610E-01;  1.3577336E+04;
  1.4830635E+00;  9.9999998E-03;  8.0901310E-02;8767;  6.0732979E-01;  0.0000000E+00; -4.6191666E-02;  9.8882202E+02;  2.2329369E-01; -9.2375264E+03;3;  1.0871637E+02;  0.0000000E+00;  2.9780104E+01;0;  1.5569181E+00;  7.9773159E+03;  0.0000000E+00;  1.1205076E-01;  4.0000000E+04;  0.0000000E+00;  3.9200949E+04;  1.9452659E+00;  0.0000000E+00; -3.8834774E-01;  1.3767853E+04;
  1.4830810E+00;  9.9999998E-03;  7.0797458E-02;8766;  5.9804636E-01;  0.0000000E+00; -4.1232817E-02;  9.8836517E+02;  2.2334190E-01; -9.6150791E+03;3;  1.0961136E+02;  0.0000000E+00;  2.6303904E+01;0;  1.6251936E+00;  7.9675649E+03;  0.0000000E+00;  9.7305648E-02;  4.0000000E+04;  0.0000000E+00;  3.9201293E+04;  2.0334783E+00;  0.0000000E+00; -4.0828463E-01;  1.3843552E+04;
  1.5006483E+00;  9.9999998E-03;  1.9195279E-01;8839;  7.7473778E-01;  0.0000000E+00; -1.0286945E-01;  9.8928741E+02;  2.0915444E-01; -8.8462559E+03;3;  9.3318321E+01;  0.0000000E+00;  4.8935963E+01;0;  9.1461551E-01;  9.1147578E+03;  0.0000000E+00;  1.6786931E+00;  4.0000000E+04;  0.0000000E+00;  3.9200426E+04;  9.9556005E-01;  0.0000000E+00; -8.0944546E-02;  1.3211731E+04;
  1.5007355E+00;  9.9999998E-03;  1.8187371E-01;8838;  7.5647920E-01;  0.0000000E+00; -1.0190547E-01;  9.8935571E+02;  2.0907742E-01; -8.7898613E+03;3;  9.3087044E+01;  0.0000000E+00;  4.9101589E+01;0;  1.0482622E+00;  9.1239297E+03;  0.0000000E+00;  1.7673527E+00;  4.0000000E+04;  0.0000000E+00;  3.9197859E+04;  1.1835150E+00;  0.0000000E+00; -1.3525267E-01;  1.2888285E+04;
  1.5010810E+00;  9.9999998E-03;  2.0200679E-01;8840;  7.9308808E-01;  0.0000000E+00; -1.0449826E-01;  9.8936969E+02;  2.0903887E-01; -8.7781465E+03;3;  9.2710686E+01;  0.0000000E+00;  4.8176884E+01;0;  7.9825044E-01;  9.1237021E+03;  0.0000000E+00;  1.1526777E+00;  4.0000000E+04;  0.0000000E+00;  3.9203395E+04;  8.2768661E-01;  0.0000000E+00; -2.9436143E-02;  1.3422834E+04;
  1.5011617E+00;  9.9999998E-03;  1.7177269E-01;8837;  7.3862159E-01;  0.0000000E+00; -1.0116705E-01;  9.8954572E+02;  2.0889078E-01; -8.6327676E+03;3;  9.3705162E+01;  0.0000000E+00;  4.9066692E+01;0;  1.1979132E+00;  9.1439297E+03;  0.0000000E+00;  1.5833637E+00;  4.0000000E+04;  0.0000000E+00;  3.9193871E+04;  1.3874490E+00;  0.0000000E+00; -1.8953583E-01;  1.2296921E+04;
  1.5020683E+00;  9.9999998E-03;  2.1205032E-01;8841;  8.1073248E-01;  0.0000000E+00; -1.0642549E-01;  9.8963293E+02;  2.0872669E-01; -8.5603262E+03;3;  8.7465057E+01;  0.0000000E+00;  5.0629181E+01;0;  6.9510734E-01;  9.1507910E+03;  0.0000000E+00; -6.1886553E-02;  4.0000000E+04;  0.0000000E+00;  3.9209832E+04;  6.7821854E-01;  0.0000000E+00;  1.6888779E-02;  1.4337708E+04;
  1.5017065E+00;  9.9999998E-03;  1.6165109E-01;8836;  7.2091305E-01;  0.0000000E+00; -9.9940725E-02;  9.8978595E+02;  2.0869505E-01; -8.4341377E+03;3;  9.8202904E+01;  0.0000000E+00;  4.5665810E+01;0;  1.3586292E+00;  9.1653057E+03;  0.0000000E+00;  1.2712392E+00;  4.0000000E+04;  0.0000000E+00;  3.9188836E+04;  1.5996900E+00;  0.0000000E+00; -2.4106075E-01;  1.1593941E+04;
  1.5022433E+00;  9.9999998E-03;  1.5151742E-01;8835;  7.0344287E-01;  0.0000000E+00; -9.7669207E-02;  9.9002075E+02;  2.0852898E-01; -8.2400488E+03;3;  9.9276733E+01;  0.0000000E+00;  4.3146648E+01;0;  1.5255736E+00;  9.1832256E+03;  0.0000000E+00;  9.4349796E-01;  4.0000000E+04;  0.0000000E+00;  3.9183895E+04;  1.8134468E+00;  0.0000000E+00; -2.8787315E-01;  1.0967328E+04;
  1.5027720E+00;  9.9999998E-03;  1.4138795E-01;8834;  6.8674022E-01;  0.0000000E+00; -9.4838910E-02;  9.9018329E+02;  2.0837103E-01; -8.1056201E+03;3;  9.8354576E+01;  0.0000000E+00;  3.9839230E+01;0;  1.6966500E+00;  9.1990117E+03;  0.0000000E+00;  6.5586013E-01;  4.0000000E+04;  0.0000000E+00;  3.9180375E+04;  2.0260377E+00;  0.0000000E+00; -3.2938766E-01;  1.0526693E+04;
  1.5034374E+00;  9.9999998E-03;  2.2211777E-01;8842;  8.2758087E-01;  0.0000000E+00; -1.0794248E-01;  9.8995880E+02;  2.0829143E-01; -8.2906865E+03;3;  8.5193542E+01;  0.0000000E+00;  4.9548172E+01;0;  5.9734029E-01;  9.1893193E+03;  0.0000000E+00; -2.4511020E+00;  4.0000000E+04;  0.0000000E+00;  3.9219738E+04;  5.4038966E-01;  0.0000000E+00;  5.6950625E-02;  1.7890119E+04;
  1.5032865E+00;  9.9999998E-03;  1.3128100E-01;8833;  6.7108470E-01;  0.0000000E+00; -9.1368973E-02;  9.9022687E+02;  2.0821077E-01; -8.0694346E+03;3;  9.5431633E+01;  0.0000000E+00;  3.7080078E+01;0;  1.8684951E+00;  9.2123984E+03;  0.0000000E+00;  4.1892895E-01;  4.0000000E+04;  0.0000000E+00;  3.9178457E+04;  2.2344913E+00;  0.0000000E+00; -3.6599627E-01;  1.0298424E+04;
  1.5037490E+00;  9.9999998E-03;  1.2120083E-01;8832;  6.5694779E-01;  0.0000000E+00; -8.7133132E-02;  9.9011517E+02;  2.0807648E-01; -8.1614697E+03;3;  8.6811798E+01;  0.0000000E+00;  3.3452549E+01;0;  2.0356846E+00;  9.2212227E+03;  0.0000000E+00;  2.3721281E-01;  4.0000000E+04;  0.0000000E+00;  3.9177875E+04;  2.4343550E+00;  0.0000000E+00; -3.9867043E-01;  1.0258076E+04;
  1.5047288E+00;  9.9999998E-03;  2.3222288E-01;8843;  8.4274215E-01;  0.0000000E+00; -1.0970198E-01;  9.9020245E+02;  2.0788606E-01; -8.0890146E+03;3;  8.1240776E+01;  0.0000000E+00;  4.3569595E+01;0;  4.9061576E-01;  9.2250371E+03;  0.0000000E+00; -6.7140627E+00;  4.0000000E+04;  0.0000000E+00;  3.9228719E+04;  4.0398973E-01;  0.0000000E+00;  8.6626031E-02;  2.7695527E+04;
  1.5041188E+00;  9.9999998E-03;  1.1113153E-01;8831;  6.4471847E-01;  0.0000000E+00; -8.2059897E-02;  9.8986890E+02;  2.0798236E-01; -8.3646602E+03;3;  7.1543793E+01;  0.0000000E+00;  2.9650093E+01;0;  2.1929145E+00;  9.2241543E+03;  0.0000000E+00;  1.1290106E-01;  4.0000000E+04;  0.0000000E+00;  3.9178473E+04;  2.6211715E+00;  0.0000000E+00; -4.2825702E-01;  1.0344651E+04;
  1.5043911E+00;  9.9999998E-03;  1.0105730E-01;8830;  6.3453156E-01;  0.0000000E+00; -7.6319292E-02;  9.8950391E+02;  2.0792919E-01; -8.6658633E+03;3;  4.8747498E+01;  0.0000000E+00;  2.4340637E+01;0;  2.3369398E+00;  9.2221709E+03;  0.0000000E+00;  4.0557750E-02;  4.0000000E+04;  0.0000000E+00;  3.9179270E+04;  2.7922595E+00;  0.0000000E+00; -4.5531961E-01;  1.0480504E+04;
  1.5045669E+00;  9.9999998E-03;  9.0972275E-02;8829;  6.2613475E-01;  0.0000000E+00; -6.9942191E-02;  9.8907050E+02;  2.0790941E-01; -9.0236455E+03;3;  2.8979967E+01;  0.0000000E+00;  2.0612125E+01;0;  2.4656322E+00;  9.2164404E+03;  0.0000000E+00;  9.8392144E-03;  4.0000000E+04;  0.0000000E+00;  3.9179879E+04;  2.9456234E+00;  0.0000000E+00; -4.7999126E-01;  1.0599885E+04;
  1.5046619E+00;  9.9999998E-03;  8.0877721E-02;8828;  6.1902279E-01;  0.0000000E+00; -6.3118741E-02;  9.8862811E+02;  2.0791501E-01; -9.3888428E+03;3;  1.3262985E+01;  0.0000000E+00;  1.8279764E+01;0;  2.5782173E+00;  9.2085244E+03;  0.0000000E+00;  7.5612944E-03;  4.0000000E+04;  0.0000000E+00;  3.9180527E+04;  3.0804396E+00;  0.0000000E+00; -5.0222236E-01;  1.0663055E+04;
  1.5046977E+00;  9.9999998E-03;  7.0776567E-02;8827;  6.1295146E-01;  0.0000000E+00; -5.5957403E-02;  9.8821179E+02;  2.0794070E-01; -9.7325107E+03;3;  1.3712969E+00;  0.0000000E+00;  1.6213503E+01;0;  2.6747656E+00;  9.1999082E+03;  0.0000000E+00;  1.9749677E-02;  4.0000000E+04;  0.0000000E+00;  3.9180121E+04;  3.1966858E+00;  0.0000000E+00; -5.2192020E-01;  1.0657552E+04;
  1.5206044E+00;  9.9999998E-03;  1.8195057E-01;8899;  7.5444198E-01;  0.0000000E+00; -1.2706183E-01;  9.8899561E+02;  1.9564521E-01; -9.0769707E+03;3;  8.4208046E+01;  0.0000000E+00;  3.1754839E+01;0;  1.6789001E+00;  1.0412302E+04;  0.0000000E+00;  1.7769307E+00;  4.0000000E+04;  0.0000000E+00;  3.9187473E+04;  1.9042454E+00;  0.0000000E+00; -2.2534528E-01;  1.1742816E+04;
  1.5207639E+00;  9.9999998E-03;  1.7185204E-01;8898;  7.3780698E-01;  0.0000000E+00; -1.2436900E-01;  9.8907642E+02;  1.9560653E-01; -9.0102090E+03;3;  7.5105797E+01;  0.0000000E+00;  2.7344345E+01;0;  1.8700902E+00;  1.0420606E+04;  0.0000000E+00;  1.6055665E+00;  4.0000000E+04;  0.0000000E+00;  3.9181301E+04;  2.1457248E+00;  0.0000000E+00; -2.7563450E-01;  1.0866191E+04;
  1.5208191E+00;  9.9999998E-03;  1.9202948E-01;8900;  7.7181935E-01;  0.0000000E+00; -1.2932338E-01;  9.8904700E+02;  1.9557305E-01; -9.0344639E+03;3;  8.5709465E+01;  0.0000000E+00;  3.4382305E+01;0;  1.5005022E+00;  1.0417856E+04;  0.0000000E+00;  1.5433462E+00;  4.0000000E+04;  0.0000000E+00;  3.9192605E+04;  1.6764505E+00;  0.0000000E+00; -1.7594826E-01;  1.2305118E+04;
  1.5211486E+00;  9.9999998E-03;  1.6173093E-01;8897;  7.2415870E-01;  0.0000000E+00; -1.2051642E-01;  9.8926038E+02;  1.9551605E-01; -8.8582646E+03;3;  5.0341366E+01;  0.0000000E+00;  1.8906185E+01;0;  2.0696583E+00;  1.0436323E+04;  0.0000000E+00;  1.2114847E+00;  4.0000000E+04;  0.0000000E+00;  3.9173848E+04;  2.3935459E+00;  0.0000000E+00; -3.2388765E-01;  9.8664785E+03;
  1.5216613E+00;  9.9999998E-03;  1.5158263E-01;8896;  7.1722209E-01;  0.0000000E+00; -1.1477348E-01;  9.8950299E+02;  1.9538824E-01; -8.6578760E+03;3;  9.0475893E+00;  0.0000000E+00;  1.1016872E+01;0;  2.2734737E+00;  1.0456341E+04;  0.0000000E+00;  7.7904487E-01;  4.0000000E+04;  0.0000000E+00;  3.9166750E+04;  2.6415000E+00;  0.0000000E+00; -3.6802614E-01;  8.9721943E+03;
  1.5215442E+00;  9.9999998E-03;  2.0208672E-01;8901;  7.8887194E-01;  0.0000000E+00; -1.3108976E-01;  9.8924164E+02;  1.9535691E-01; -8.8734688E+03;3;  8.4916412E+01;  0.0000000E+00;  3.6547756E+01;0;  1.3372347E+00;  1.0440529E+04;  0.0000000E+00;  7.4933249E-01;  4.0000000E+04;  0.0000000E+00;  3.9198340E+04;  1.4678917E+00;  0.0000000E+00; -1.3065694E-01;  1.2768477E+04;
  1.5222347E+00;  9.9999998E-03;  1.4142357E-01;8895;  7.1648574E-01;  0.0000000E+00; -1.0838885E-01;  9.8975818E+02;  1.9523786E-01; -8.4470430E+03;3; -2.2548109E+01;  0.0000000E+00;  9.5307407E+00;0;  2.4777100E+00;  1.0478541E+04;  0.0000000E+00;  4.2602828E-01;  4.0000000E+04;  0.0000000E+00;  3.9160477E+04;  2.8847740E+00;  0.0000000E+00; -4.0706393E-01;  8.2703857E+03;
  1.5228159E+00;  9.9999998E-03;  1.3128723E-01;8894;  7.1799362E-01;  0.0000000E+00; -1.0223673E-01;  9.8996143E+02;  1.9507600E-01; -8.2790850E+03;3; -4.2390202E+01;  0.0000000E+00;  9.1096544E+00;0;  2.6778910E+00;  1.0500038E+04;  0.0000000E+00;  1.8512106E-01;  4.0000000E+04;  0.0000000E+00;  3.9156176E+04;  3.1190639E+00;  0.0000000E+00; -4.4117278E-01;  7.7616650E+03;
  1.5227575E+00;  9.9999998E-03;  2.1213911E-01;8902;  8.0559069E-01;  0.0000000E+00; -1.3269734E-01;  9.8948303E+02;  1.9501141E-01; -8.6736592E+03;3;  8.4560173E+01;  0.0000000E+00;  3.5836967E+01;0;  1.1844614E+00;  1.0477334E+04;  0.0000000E+00; -8.7450135E-01;  4.0000000E+04;  0.0000000E+00;  3.9206930E+04;  1.2769910E+00;  0.0000000E+00; -9.2529692E-02;  1.3935577E+04;
  1.5233582E+00;  9.9999998E-03;  1.2118398E-01;8893;  7.2149318E-01;  0.0000000E+00; -9.5707238E-02;  9.9006268E+02;  1.9492638E-01; -8.1953135E+03;3; -5.5687557E+01;  0.0000000E+00;  7.2075996E+00;0;  2.8687696E+00;  1.0517970E+04;  0.0000000E+00;  4.3781441E-02;  4.0000000E+04;  0.0000000E+00;  3.9153621E+04;  3.3400877E+00;  0.0000000E+00; -4.7131810E-01;  7.4355293E+03;
  1.5238198E+00;  9.9999998E-03;  1.1109763E-01;8892;  7.2559196E-01;  0.0000000E+00; -8.8793635E-02;  9.9005115E+02;  1.9480816E-01; -8.2045410E+03;3; -6.5351059E+01;  0.0000000E+00;  6.1478271E+00;0;  3.0462012E+00;  1.0530330E+04;  0.0000000E+00; -2.0266252E-02;  4.0000000E+04;  0.0000000E+00;  3.9152270E+04;  3.5446053E+00;  0.0000000E+00; -4.9840415E-01;  7.2672788E+03;
  1.5241799E+00;  9.9999998E-03;  1.0101284E-01;8891;  7.2904986E-01;  0.0000000E+00; -8.1595600E-02;  9.8991577E+02;  1.9472405E-01; -8.3159648E+03;3; -7.2905807E+01;  0.0000000E+00;  4.5140510E+00;0;  3.2076039E+00;  1.0536981E+04;  0.0000000E+00; -3.4026474E-02;  4.0000000E+04;  0.0000000E+00;  3.9151906E+04;  3.7305140E+00;  0.0000000E+00; -5.2291024E-01;  7.2081978E+03;
  1.5241688E+00;  9.9999998E-03;  2.2221285E-01;8903;  8.2205611E-01;  0.0000000E+00; -1.3387509E-01;  9.8958020E+02;  1.9462854E-01; -8.5927031E+03;3;  8.5334366E+01;  0.0000000E+00;  3.4664951E+01;0;  1.0304128E+00;  1.0516000E+04;  0.0000000E+00; -3.9509065E+00;  4.0000000E+04;  0.0000000E+00;  3.9218367E+04;  1.0941808E+00;  0.0000000E+00; -6.3768066E-02;  1.7806068E+04;
  1.5244313E+00;  9.9999998E-03;  9.0927973E-02;8890;  7.3100680E-01;  0.0000000E+00; -7.4171007E-02;  9.8969409E+02;  1.9466950E-01; -8.4986172E+03;3; -7.9285385E+01;  0.0000000E+00;  3.8503013E+00;0;  3.3514442E+00;  1.0538485E+04;  0.0000000E+00; -2.0559179E-02;  4.0000000E+04;  0.0000000E+00;  3.9151809E+04;  3.8964233E+00;  0.0000000E+00; -5.4497921E-01;  7.2024917E+03;
  1.5245759E+00;  9.9999998E-03;  8.0842070E-02;8889;  7.3139912E-01;  0.0000000E+00; -6.6538401E-02;  9.8940771E+02;  1.9464789E-01; -8.7347070E+03;3; -8.4246727E+01;  0.0000000E+00;  2.8704045E+00;0;  3.4769187E+00;  1.0535721E+04;  0.0000000E+00;  3.9481176E-03;  4.0000000E+04;  0.0000000E+00;  3.9151648E+04;  4.0415525E+00;  0.0000000E+00; -5.6463385E-01;  7.2087783E+03;
  1.5246404E+00;  9.9999998E-03;  7.0749059E-02;8888;  7.3068416E-01;  0.0000000E+00; -5.8678769E-02;  9.8910303E+02;  1.9464760E-01; -8.9859297E+03;3; -8.8378616E+01;  0.0000000E+00;  2.1125898E+00;0;  3.5846405E+00;  1.0530354E+04;  0.0000000E+00;  2.8925277E-02;  4.0000000E+04;  0.0000000E+00;  3.9151395E+04;  4.1665530E+00;  0.0000000E+00; -5.8191240E-01;  7.2035088E+03;
  1.5252060E+00;  9.9999998E-03;  2.3231554E-01;8904;  8.3773965E-01;  0.0000000E+00; -1.3393569E-01;  9.8937219E+02;  1.9437125E-01; -8.7636162E+03;3;  8.5442467E+01;  0.0000000E+00;  3.5362057E+01;0;  8.6043072E-01;  1.0536813E+04;  0.0000000E+00; -9.2398710E+00;  4.0000000E+04;  0.0000000E+00;  3.9229910E+04;  9.0500087E-01;  0.0000000E+00; -4.4570174E-02;  2.8252826E+04;
  1.5392953E+00;  9.9999998E-03;  1.7194739E-01;8958;  7.8057659E-01;  0.0000000E+00; -1.2341083E-01;  9.8961603E+02;  1.8413410E-01; -8.5531543E+03;3; -2.7997007E+01;  0.0000000E+00; -2.3469765E+00;0;  2.5229883E+00;  1.1775858E+04;  0.0000000E+00;  1.4308475E+00;  4.0000000E+04;  0.0000000E+00;  3.9161266E+04;  2.8577769E+00;  0.0000000E+00; -3.3478862E-01;  9.1144404E+03;
  1.5392865E+00;  9.9999998E-03;  1.8203825E-01;8959;  7.8086227E-01;  0.0000000E+00; -1.2879150E-01;  9.8969183E+02;  1.8411063E-01; -8.4907109E+03;3; -3.4756374E+00;  0.0000000E+00; -3.0659676E+00;0;  2.3163660E+00;  1.1775697E+04;  0.0000000E+00;  1.5080502E+00;  4.0000000E+04;  0.0000000E+00;  3.9168941E+04;  2.6075945E+00;  0.0000000E+00; -2.9122856E-01;  1.0091121E+04;
  1.5395805E+00;  9.9999998E-03;  1.6182989E-01;8957;  7.8680581E-01;  0.0000000E+00; -1.1746142E-01;  9.8967731E+02;  1.8408495E-01; -8.5024756E+03;3; -4.6642597E+01;  0.0000000E+00; -2.0332103E+00;0;  2.7321954E+00;  1.1788126E+04;  0.0000000E+00;  1.0527955E+00;  4.0000000E+04;  0.0000000E+00;  3.9152562E+04;  3.1091838E+00;  0.0000000E+00; -3.7698835E-01;  7.9711963E+03;
  1.5396558E+00;  9.9999998E-03;  1.9211748E-01;8960;  7.8743160E-01;  0.0000000E+00; -1.3337749E-01;  9.8987830E+02;  1.8398701E-01; -8.3368740E+03;3;  1.9900944E+01;  0.0000000E+00; -1.2775468E+00;0;  2.1149414E+00;  1.1790977E+04;  0.0000000E+00;  1.1440079E+00;  4.0000000E+04;  0.0000000E+00;  3.9175367E+04;  2.3642602E+00;  0.0000000E+00; -2.4931885E-01;  1.0761820E+04;
  1.5400261E+00;  9.9999998E-03;  1.5166505E-01;8956;  7.9710507E-01;  0.0000000E+00; -1.1115589E-01;  9.8984161E+02;  1.8398634E-01; -8.3667969E+03;3; -6.0129669E+01;  0.0000000E+00; -2.4615154E+00;0;  2.9404192E+00;  1.1808509E+04;  0.0000000E+00;  5.8844727E-01;  4.0000000E+04;  0.0000000E+00;  3.9143648E+04;  3.3561227E+00;  0.0000000E+00; -4.1570356E-01;  6.9192324E+03;
  1.5405573E+00;  9.9999998E-03;  1.4147682E-01;8955;  8.0767429E-01;  0.0000000E+00; -1.0475769E-01;  9.9010291E+02;  1.8385966E-01; -8.1512461E+03;3; -7.1144325E+01;  0.0000000E+00; -2.8135903E+00;0;  3.1439140E+00;  1.1833756E+04;  0.0000000E+00;  2.1527712E-01;  4.0000000E+04;  0.0000000E+00;  3.9135516E+04;  3.5937321E+00;  0.0000000E+00; -4.4981819E-01;  6.0518838E+03;
  1.5405049E+00;  9.9999998E-03;  2.0217976E-01;8961;  7.9901332E-01;  0.0000000E+00; -1.3672547E-01;  9.9009406E+02;  1.8374956E-01; -8.1585483E+03;3;  3.5300919E+01;  0.0000000E+00; -3.1578891E-02;0;  1.9213717E+00;  1.1821489E+04;  0.0000000E+00;  2.6488787E-01;  4.0000000E+04;  0.0000000E+00;  3.9182414E+04;  2.1339014E+00;  0.0000000E+00; -2.1252967E-01;  1.1383618E+04;
  1.5411192E+00;  9.9999998E-03;  1.3130741E-01;8954;  8.1789351E-01;  0.0000000E+00; -9.8168455E-02;  9.9038776E+02;  1.8372066E-01; -7.9162505E+03;3; -8.0277138E+01;  0.0000000E+00; -3.5655084E+00;0;  3.3383334E+00;  1.1860255E+04;  0.0000000E+00; -3.5241991E-03;  4.0000000E+04;  0.0000000E+00;  3.9129195E+04;  3.8176908E+00;  0.0000000E+00; -4.7935745E-01;  5.3328955E+03;
  1.5416709E+00;  9.9999998E-03;  1.2117475E-01;8953;  8.2871491E-01;  0.0000000E+00; -9.1278791E-02;  9.9065662E+02;  1.8358408E-01; -7.6944375E+03;3; -8.7957184E+01;  0.0000000E+00; -3.8270376E+00;0;  3.5201120E+00;  1.1885235E+04;  0.0000000E+00; -8.8590465E-02;  4.0000000E+04;  0.0000000E+00;  3.9124746E+04;  4.0252342E+00;  0.0000000E+00; -5.0512224E-01;  4.7563960E+03;
  1.5417311E+00;  9.9999998E-03;  2.1224356E-01;8962;  8.1196809E-01;  0.0000000E+00; -1.3923167E-01;  9.9014789E+02;  1.8343924E-01; -8.1133389E+03;3;  4.3637749E+01;  0.0000000E+00;  1.6976190E+00;0;  1.7309384E+00;  1.1858751E+04;  0.0000000E+00; -1.3889347E+00;  4.0000000E+04;  0.0000000E+00;  3.9191320E+04;  1.9151288E+00;  0.0000000E+00; -1.8419045E-01;  1.2409457E+04;
  1.5421727E+00;  9.9999998E-03;  1.1106291E-01;8952;  8.3903372E-01;  0.0000000E+00; -8.4014460E-02;  9.9084863E+02;  1.8346085E-01; -7.5359458E+03;3; -9.4307388E+01;  0.0000000E+00; -4.1859555E+00;0;  3.6871102E+00;  1.1906372E+04;  0.0000000E+00; -8.2625888E-02;  4.0000000E+04;  0.0000000E+00;  3.9121719E+04;  4.2150340E+00;  0.0000000E+00; -5.2792382E-01;  4.3480449E+03;
  1.5425800E+00;  9.9999998E-03;  1.0096998E-01;8951;  8.4763956E-01;  0.0000000E+00; -7.6683022E-02;  9.9093921E+02;  1.8336239E-01; -7.4611138E+03;3; -9.9797981E+01;  0.0000000E+00; -4.1020179E+00;0;  3.8375845E+00;  1.1921697E+04;  0.0000000E+00; -3.1996414E-02;  4.0000000E+04;  0.0000000E+00;  3.9119926E+04;  4.3857617E+00;  0.0000000E+00; -5.4817736E-01;  4.1099561E+03;
  1.5428671E+00;  9.9999998E-03;  9.0889119E-02;8950;  8.5387319E-01;  0.0000000E+00; -6.9334999E-02;  9.9092755E+02;  1.8329543E-01; -7.4704907E+03;3; -1.0449519E+02;  0.0000000E+00; -4.1016240E+00;0;  3.9709496E+00;  1.1930297E+04;  0.0000000E+00;  2.7544172E-02;  4.0000000E+04;  0.0000000E+00;  3.9118859E+04;  4.5370646E+00;  0.0000000E+00; -5.6611502E-01;  3.9999473E+03;
  1.5430473E+00;  9.9999998E-03;  8.0806509E-02;8949;  8.5798824E-01;  0.0000000E+00; -6.1882194E-02;  9.9082532E+02;  1.8325491E-01; -7.5545874E+03;3; -1.0856033E+02;  0.0000000E+00; -3.9163971E+00;0;  4.0878205E+00;  1.1933419E+04;  0.0000000E+00;  7.5806536E-02;  4.0000000E+04;  0.0000000E+00;  3.9118691E+04;  4.6697359E+00;  0.0000000E+00; -5.8191550E-01;  3.9628555E+03;
  1.5429636E+00;  9.9999998E-03;  2.2232126E-01;8963;  8.2380509E-01;  0.0000000E+00; -1.4132923E-01;  9.8981445E+02;  1.8315989E-01; -8.3869883E+03;3;  5.4693623E+01;  0.0000000E+00;  4.8401289E+00;0;  1.5303349E+00;  1.1884723E+04;  0.0000000E+00; -4.5599647E+00;  4.0000000E+04;  0.0000000E+00;  3.9203328E+04;  1.6976862E+00;  0.0000000E+00; -1.6735129E-01;  1.5299278E+04;
  1.5431365E+00;  9.9999998E-03;  7.0716918E-02;8948;  8.6047751E-01;  0.0000000E+00; -5.4317337E-02;  9.9065778E+02;  1.8324035E-01; -7.6924873E+03;3; -1.1204340E+02;  0.0000000E+00; -3.5310719E+00;0;  4.1887274E+00;  1.1932244E+04;  0.0000000E+00;  1.0498197E-01;  4.0000000E+04;  0.0000000E+00;  3.9118445E+04;  4.7844157E+00;  0.0000000E+00; -5.9568840E-01;  3.9655833E+03;
  1.5436820E+00;  9.9999998E-03;  2.3241882E-01;8964;  8.3452433E-01;  0.0000000E+00; -1.4321232E-01;  9.8903058E+02;  1.8303744E-01; -9.0318418E+03;3;  7.1007065E+01;  0.0000000E+00;  1.0724956E+01;0;  1.3025606E+00;  1.1881550E+04;  0.0000000E+00; -1.0055614E+01;  4.0000000E+04;  0.0000000E+00;  3.9218016E+04;  1.4675622E+00;  0.0000000E+00; -1.6500166E-01;  2.3841607E+04;
  1.5568879E+00;  9.9999998E-03;  1.7204683E-01;9017;  8.6615604E-01;  0.0000000E+00; -1.1348996E-01;  9.9095874E+02;  1.7426224E-01; -7.4342900E+03;3; -6.8881248E+01;  0.0000000E+00; -8.3887815E+00;0;  3.0452814E+00;  1.3188337E+04;  0.0000000E+00;  1.0820477E+00;  4.0000000E+04;  0.0000000E+00;  3.9135152E+04;  3.4151993E+00;  0.0000000E+00; -3.6991790E-01;  7.2534336E+03;
  1.5569845E+00;  9.9999998E-03;  1.8211921E-01;9018;  8.5753930E-01;  0.0000000E+00; -1.1835414E-01;  9.9117133E+02;  1.7421201E-01; -7.2594399E+03;3; -6.0575420E+01;  0.0000000E+00; -7.1052370E+00;0;  2.8489401E+00;  1.3195129E+04;  0.0000000E+00;  1.0523840E+00;  4.0000000E+04;  0.0000000E+00;  3.9142719E+04;  3.1841724E+00;  0.0000000E+00; -3.3523223E-01;  8.1569111E+03;
  1.5570703E+00;  9.9999998E-03;  1.6194721E-01;9016;  8.7844777E-01;  0.0000000E+00; -1.0800809E-01;  9.9086401E+02;  1.7424156E-01; -7.5120151E+03;3; -7.7173347E+01;  0.0000000E+00; -8.5409498E+00;0;  3.2377715E+00;  1.3195188E+04;  0.0000000E+00;  8.0910689E-01;  4.0000000E+04;  0.0000000E+00;  3.9126793E+04;  3.6414282E+00;  0.0000000E+00; -4.0365669E-01;  6.1951919E+03;
  1.5574166E+00;  9.9999998E-03;  1.5178758E-01;9015;  8.9289659E-01;  0.0000000E+00; -1.0190880E-01;  9.9089856E+02;  1.7417420E-01; -7.4833472E+03;3; -8.4788834E+01;  0.0000000E+00; -9.1365719E+00;0;  3.4232082E+00;  1.3212472E+04;  0.0000000E+00;  3.9951050E-01;  4.0000000E+04;  0.0000000E+00;  3.9117293E+04;  3.8579650E+00;  0.0000000E+00; -4.3475667E-01;  5.1628853E+03;
  1.5574284E+00;  9.9999998E-03;  1.9217768E-01;9019;  8.5352433E-01;  0.0000000E+00; -1.2252469E-01;  9.9140729E+02;  1.7407882E-01; -7.0650566E+03;3; -5.2376080E+01;  0.0000000E+00; -6.6497016E+00;0;  2.6511517E+00;  1.3215660E+04;  0.0000000E+00;  7.0578063E-01;  4.0000000E+04;  0.0000000E+00;  3.9149957E+04;  2.9531178E+00;  0.0000000E+00; -3.0196628E-01;  8.9702100E+03;
  1.5578641E+00;  9.9999998E-03;  1.4158738E-01;9014;  9.0748131E-01;  0.0000000E+00; -9.5619023E-02;  9.9107220E+02;  1.7407729E-01; -7.3402163E+03;3; -9.1791664E+01;  0.0000000E+00; -9.2887049E+00;0;  3.5989010E+00;  1.3237085E+04;  0.0000000E+00;  5.3900957E-02;  4.0000000E+04;  0.0000000E+00;  3.9108629E+04;  4.0611668E+00;  0.0000000E+00; -4.6226573E-01;  4.2687295E+03;
  1.5583780E+00;  9.9999998E-03;  1.3138850E-01;9013;  9.2182279E-01;  0.0000000E+00; -8.9082897E-02;  9.9135675E+02;  1.7395858E-01; -7.1058501E+03;3; -9.7999565E+01;  0.0000000E+00; -9.3499651E+00;0;  3.7624178E+00;  1.3266342E+04;  0.0000000E+00; -1.2707348E-01;  4.0000000E+04;  0.0000000E+00;  3.9100816E+04;  4.2484384E+00;  0.0000000E+00; -4.8602054E-01;  3.4538970E+03;
  1.5582707E+00;  9.9999998E-03;  2.0222554E-01;9020;  8.5678095E-01;  0.0000000E+00; -1.2615542E-01;  9.9152356E+02;  1.7387325E-01; -6.9687773E+03;3; -4.8028198E+01;  0.0000000E+00; -4.8670712E+00;0;  2.4537070E+00;  1.3244919E+04;  0.0000000E+00;  9.1208078E-02;  4.0000000E+04;  0.0000000E+00;  3.9158949E+04;  2.7269320E+00;  0.0000000E+00; -2.7322513E-01;  1.0067891E+04;
  1.5589131E+00;  9.9999998E-03;  1.2121713E-01;9012;  9.3604428E-01;  0.0000000E+00; -8.2388625E-02;  9.9168970E+02;  1.7383207E-01; -6.8317026E+03;3; -1.0320813E+02;  0.0000000E+00; -8.8639498E+00;0;  3.9119072E+00;  1.3296869E+04;  0.0000000E+00; -1.6139886E-01;  4.0000000E+04;  0.0000000E+00;  3.9094633E+04;  4.4183531E+00;  0.0000000E+00; -5.0644577E-01;  2.6918091E+03;
  1.5594033E+00;  9.9999998E-03;  1.1108278E-01;9011;  9.4921863E-01;  0.0000000E+00; -7.5616665E-02;  9.9200775E+02;  1.7371805E-01; -6.5698696E+03;3; -1.0797611E+02;  0.0000000E+00; -8.6009674E+00;0;  4.0463381E+00;  1.3324249E+04;  0.0000000E+00; -1.0157780E-01;  4.0000000E+04;  0.0000000E+00;  3.9089875E+04;  4.5704856E+00;  0.0000000E+00; -5.2414745E-01;  2.0500298E+03;
  1.5593385E+00;  9.9999998E-03;  2.1228781E-01;9021;  8.6137742E-01;  0.0000000E+00; -1.2953240E-01;  9.9126422E+02;  1.7364353E-01; -7.1811089E+03;3; -4.6564224E+01;  0.0000000E+00; -1.4873303E+00;0;  2.2519009E+00;  1.3269303E+04;  0.0000000E+00; -1.0663688E+00;  4.0000000E+04;  0.0000000E+00;  3.9172211E+04;  2.5041704E+00;  0.0000000E+00; -2.5226945E-01;  1.1570328E+04;
  1.5598056E+00;  9.9999998E-03;  1.0097873E-01;9010;  9.6065706E-01;  0.0000000E+00; -6.8771027E-02;  9.9226178E+02;  1.7362815E-01; -6.3607485E+03;3; -1.1192533E+02;  0.0000000E+00; -8.1059961E+00;0;  4.1660314E+00;  1.3345865E+04;  0.0000000E+00; -2.3782647E-03;  4.0000000E+04;  0.0000000E+00;  3.9086586E+04;  4.7055950E+00;  0.0000000E+00; -5.3956378E-01;  1.6137682E+03;
  1.5601163E+00;  9.9999998E-03;  9.0883017E-02;9009;  9.6962118E-01;  0.0000000E+00; -6.1946947E-02;  9.9242694E+02;  1.7355935E-01; -6.2247593E+03;3; -1.1518334E+02;  0.0000000E+00; -7.5058427E+00;0;  4.2722306E+00;  1.3361372E+04;  0.0000000E+00;  9.2491262E-02;  4.0000000E+04;  0.0000000E+00;  3.9084570E+04;  4.8252192E+00;  0.0000000E+00; -5.5298871E-01;  1.3926644E+03;
  1.5603300E+00;  9.9999998E-03;  8.0788799E-02;9008;  9.7623044E-01;  0.0000000E+00; -5.5162936E-02;  9.9249707E+02;  1.7350926E-01; -6.1669399E+03;3; -1.1807507E+02;  0.0000000E+00; -6.8055325E+00;0;  4.3657546E+00;  1.3370930E+04;  0.0000000E+00;  1.5887624E-01;  4.0000000E+04;  0.0000000E+00;  3.9083469E+04;  4.9303970E+00;  0.0000000E+00; -5.6464225E-01;  1.3096467E+03;
  1.5602994E+00;  9.9999998E-03;  2.2237368E-01;9022;  8.5912704E-01;  0.0000000E+00; -1.3238148E-01;  9.9041705E+02;  1.7347446E-01; -7.8766211E+03;3; -4.3057983E+01;  0.0000000E+00;  7.8932774E-01;0;  2.0351999E+00;  1.3271235E+04;  0.0000000E+00; -3.6994565E+00;  4.0000000E+04;  0.0000000E+00;  3.9189852E+04;  2.2762311E+00;  0.0000000E+00; -2.4103108E-01;  1.3386098E+04;
  1.5604427E+00;  9.9999998E-03;  7.0697449E-02;9007;  9.8061442E-01;  0.0000000E+00; -4.8372611E-02;  9.9248511E+02;  1.7348608E-01; -6.1767056E+03;3; -1.2059621E+02;  0.0000000E+00; -6.0176334E+00;0;  4.4472189E+00;  1.3374427E+04;  0.0000000E+00;  1.8959281E-01;  4.0000000E+04;  0.0000000E+00;  3.9082938E+04;  5.0219340E+00;  0.0000000E+00; -5.7471532E-01;  1.2891407E+03;
  1.5607008E+00;  9.9999998E-03;  2.3248601E-01;9023;  8.4696871E-01;  0.0000000E+00; -1.3594018E-01;  9.8904968E+02;  1.7346276E-01; -9.0001113E+03;3;  5.0978291E-01;  0.0000000E+00; -7.4478602E+00;0;  1.7824428E+00;  1.3237536E+04;  0.0000000E+00; -8.6368256E+00;  4.0000000E+04;  0.0000000E+00;  3.9208938E+04;  2.0258720E+00;  0.0000000E+00; -2.4342920E-01;  1.7730566E+04;
  1.5736736E+00;  9.9999998E-03;  1.7213513E-01;9076;  9.6078277E-01;  0.0000000E+00; -1.0120873E-01;  9.9283563E+02;  1.6579874E-01; -5.8784849E+03;3; -8.7784805E+01;  0.0000000E+00; -1.4049132E+01;0;  3.3802025E+00;  1.4632387E+04;  0.0000000E+00;  6.8301928E-01;  4.0000000E+04;  0.0000000E+00;  3.9102883E+04;  3.7644746E+00;  0.0000000E+00; -3.8427207E-01;  5.3531138E+03;
  1.5737594E+00;  9.9999998E-03;  1.6206767E-01;9075;  9.7387600E-01;  0.0000000E+00; -9.5997423E-02;  9.9260223E+02;  1.6579480E-01; -6.0699292E+03;3; -9.2004776E+01;  0.0000000E+00; -1.3825526E+01;0;  3.5360932E+00;  1.4633185E+04;  0.0000000E+00;  5.3249723E-01;  4.0000000E+04;  0.0000000E+00;  3.9096449E+04;  3.9444883E+00;  0.0000000E+00; -4.0839499E-01;  4.5587695E+03;
  1.5738130E+00;  9.9999998E-03;  1.8217808E-01;9077;  9.4943011E-01;  0.0000000E+00; -1.0589150E-01;  9.9309644E+02;  1.6574672E-01; -5.6644058E+03;3; -8.3635025E+01;  0.0000000E+00; -1.4451610E+01;0;  3.2148986E+00;  1.4642821E+04;  0.0000000E+00;  6.6385090E-01;  4.0000000E+04;  0.0000000E+00;  3.9109016E+04;  3.5747232E+00;  0.0000000E+00; -3.5982460E-01;  6.1746113E+03;
  1.5740073E+00;  9.9999998E-03;  1.5194228E-01;9074;  9.8853606E-01;  0.0000000E+00; -9.0441965E-02;  9.9248682E+02;  1.6575049E-01; -6.1643921E+03;3; -9.6207436E+01;  0.0000000E+00; -1.3334346E+01;0;  3.6808946E+00;  1.4644984E+04;  0.0000000E+00;  2.4002568E-01;  4.0000000E+04;  0.0000000E+00;  3.9088590E+04;  4.1118588E+00;  0.0000000E+00; -4.3096429E-01;  3.7447639E+03;
  1.5743499E+00;  9.9999998E-03;  1.4175045E-01;9073;  1.0034657E+00;  0.0000000E+00; -8.4631056E-02;  9.9251239E+02;  1.6567823E-01; -6.1431099E+03;3; -1.0069846E+02;  0.0000000E+00; -1.2919525E+01;0;  3.8132119E+00;  1.4665570E+04;  0.0000000E+00; -3.8376294E-02;  4.0000000E+04;  0.0000000E+00;  3.9079977E+04;  4.2644477E+00;  0.0000000E+00; -4.5123589E-01;  2.9783552E+03;
  1.5742532E+00;  9.9999998E-03;  1.9220853E-01;9078;  9.4214594E-01;  0.0000000E+00; -1.1044852E-01;  9.9327124E+02;  1.6563094E-01; -5.5206157E+03;3; -8.0348831E+01;  0.0000000E+00; -1.4553612E+01;0;  3.0426443E+00;  1.4662208E+04;  0.0000000E+00;  6.4195842E-01;  4.0000000E+04;  0.0000000E+00;  3.9116910E+04;  3.3797107E+00;  0.0000000E+00; -3.3706632E-01;  7.4975928E+03;
  1.5747683E+00;  9.9999998E-03;  1.3153706E-01;9072;  1.0186994E+00;  0.0000000E+00; -7.8650631E-02;  9.9268536E+02;  1.6558471E-01; -6.0008330E+03;3; -1.0452622E+02;  0.0000000E+00; -1.2224223E+01;0;  3.9319739E+00;  1.4692845E+04;  0.0000000E+00; -1.8055438E-01;  4.0000000E+04;  0.0000000E+00;  3.9071836E+04;  4.4007912E+00;  0.0000000E+00; -4.6881723E-01;  2.2211477E+03;
  1.5749940E+00;  9.9999998E-03;  2.0224637E-01;9079;  9.3978733E-01;  0.0000000E+00; -1.1478289E-01;  9.9314557E+02;  1.6547059E-01; -5.6231001E+03;3; -7.9444237E+01;  0.0000000E+00; -1.4053158E+01;0;  2.8648987E+00;  1.4681530E+04;  0.0000000E+00;  7.4666607E-01;  4.0000000E+04;  0.0000000E+00;  3.9129809E+04;  3.1836014E+00;  0.0000000E+00; -3.1870276E-01;  1.0096305E+04;
  1.5752200E+00;  9.9999998E-03;  1.2134362E-01;9071;  1.0339581E+00;  0.0000000E+00; -7.2536424E-02;  9.9298022E+02;  1.6548617E-01; -5.7585513E+03;3; -1.0785697E+02;  0.0000000E+00; -1.1487875E+01;0;  4.0368648E+00;  1.4723201E+04;  0.0000000E+00; -1.8085605E-01;  4.0000000E+04;  0.0000000E+00;  3.9064586E+04;  4.5206051E+00;  0.0000000E+00; -4.8374024E-01;  1.4274755E+03;
  1.5756527E+00;  9.9999998E-03;  1.1118211E-01;9070;  1.0480245E+00;  0.0000000E+00; -6.6414408E-02;  9.9333099E+02;  1.6539462E-01; -5.4704531E+03;3; -1.1085548E+02;  0.0000000E+00; -1.0766830E+01;0;  4.1288252E+00;  1.4752603E+04;  0.0000000E+00; -9.5763773E-02;  4.0000000E+04;  0.0000000E+00;  3.9058504E+04;  4.6252217E+00;  0.0000000E+00; -4.9639672E-01;  6.5022168E+02;
  1.5758768E+00;  9.9999998E-03;  2.1231706E-01;9080;  9.3683016E-01;  0.0000000E+00; -1.1894192E-01;  9.9243243E+02;  1.6531231E-01; -6.2073540E+03;3; -8.0151917E+01;  0.0000000E+00; -1.3397837E+01;0;  2.6786170E+00;  1.4685436E+04;  0.0000000E+00;  5.2980661E-01;  4.0000000E+04;  0.0000000E+00;  3.9148672E+04;  2.9863706E+00;  0.0000000E+00; -3.0775362E-01;  1.3676018E+04;
  1.5760497E+00;  9.9999998E-03;  1.0103906E-01;9069;  1.0605493E+00;  0.0000000E+00; -6.0313739E-02;  9.9366351E+02;  1.6530968E-01; -5.1974263E+03;3; -1.1335088E+02;  0.0000000E+00; -9.8793058E+00;0;  4.2094460E+00;  1.4779417E+04;  0.0000000E+00;  2.3388950E-02;  4.0000000E+04;  0.0000000E+00;  3.9053691E+04;  4.7165670E+00;  0.0000000E+00; -5.0712132E-01;  1.1595242E+02;
  1.5763792E+00;  9.9999998E-03;  9.0916932E-02;9068;  1.0714401E+00;  0.0000000E+00; -5.4236207E-02;  9.9395020E+02;  1.6524105E-01; -4.9620239E+03;3; -1.1536385E+02;  0.0000000E+00; -9.1114454E+00;0;  4.2802610E+00;  1.4801328E+04;  0.0000000E+00;  1.3282752E-01;  4.0000000E+04;  0.0000000E+00;  3.9050160E+04;  4.7964654E+00;  0.0000000E+00; -5.1620454E-01;  6.0560620E+02;
  1.5766147E+00;  9.9999998E-03;  8.0811128E-02;9067;  1.0800953E+00;  0.0000000E+00; -4.8161104E-02;  9.9415198E+02;  1.6519052E-01; -4.7963721E+03;3; -1.1696897E+02;  0.0000000E+00; -8.2417049E+00;0;  4.3427949E+00;  1.4816355E+04;  0.0000000E+00;  2.0690852E-01;  4.0000000E+04;  0.0000000E+00;  3.9047316E+04;  4.8667388E+00;  0.0000000E+00; -5.2394384E-01;  9.6414636E+02;
  1.5766057E+00;  9.9999998E-03;  2.2242710E-01;9081;  9.2537755E-01;  0.0000000E+00; -1.2231003E-01;  9.9096948E+02;  1.6522208E-01; -7.4065361E+03;3; -8.1556419E+01;  0.0000000E+00; -1.2238009E+01;0;  2.4744558E+00;  1.4658115E+04;  0.0000000E+00; -1.3077559E+00;  4.0000000E+04;  0.0000000E+00;  3.9171059E+04;  2.7795448E+00;  0.0000000E+00; -3.0508906E-01;  1.5907473E+04;
  1.5767584E+00;  9.9999998E-03;  7.0712082E-02;9066;  1.0862578E+00;  0.0000000E+00; -4.2142969E-02;  9.9427307E+02;  1.6516142E-01; -4.6969355E+03;3; -1.1851575E+02;  0.0000000E+00; -7.2147732E+00;0;  4.3981047E+00;  1.4824819E+04;  0.0000000E+00;  2.3801415E-01;  4.0000000E+04;  0.0000000E+00;  3.9046027E+04;  4.9286613E+00;  0.0000000E+00; -5.3055668E-01;  1.1455850E+03;
  1.5767757E+00;  9.9999998E-03;  2.3256379E-01;9082;  8.9884496E-01;  0.0000000E+00; -1.2485638E-01;  9.8897632E+02;  1.6527452E-01; -9.0410469E+03;3; -8.1599831E+01;  0.0000000E+00; -9.6499996E+00;0;  2.2338138E+00;  1.4592524E+04;  0.0000000E+00; -5.6303453E+00;  4.0000000E+04;  0.0000000E+00;  3.9193105E+04;  2.5425391E+00;  0.0000000E+00; -3.0872530E-01;  1.6158536E+04;
  1.5896440E+00;  9.9999998E-03;  1.7219539E-01;9135;  1.0484588E+00;  0.0000000E+00; -8.7148480E-02;  9.9488977E+02;  1.5855779E-01; -4.1822690E+03;3; -9.4649490E+01;  0.0000000E+00; -1.7708471E+01;0;  3.5232501E+00;  1.6079914E+04;  0.0000000E+00;  4.5787749E-01;  4.0000000E+04;  0.0000000E+00;  3.9062688E+04;  3.9053898E+00;  0.0000000E+00; -3.8213977E-01;  3.5523110E+03;
  1.5897633E+00;  9.9999998E-03;  1.8220568E-01;9136;  1.0351783E+00;  0.0000000E+00; -9.1420271E-02;  9.9511060E+02;  1.5852048E-01; -4.0014971E+03;3; -9.3615891E+01;  0.0000000E+00; -1.8595819E+01;0;  3.4040990E+00;  1.6088710E+04;  0.0000000E+00;  7.3505408E-01;  4.0000000E+04;  0.0000000E+00;  3.9067488E+04;  3.7718191E+00;  0.0000000E+00; -3.6772022E-01;  4.9001528E+03;
  1.5897045E+00;  9.9999998E-03;  1.6216415E-01;9134;  1.0622351E+00;  0.0000000E+00; -8.2598753E-02;  9.9460706E+02;  1.5855533E-01; -4.4136396E+03;3; -9.6344582E+01;  0.0000000E+00; -1.6714897E+01;0;  3.6312733E+00;  1.6077425E+04;  0.0000000E+00;  3.1572828E-01;  4.0000000E+04;  0.0000000E+00;  3.9059090E+04;  4.0280056E+00;  0.0000000E+00; -3.9673242E-01;  2.9440723E+03;
  1.5901266E+00;  9.9999998E-03;  1.9221522E-01;9137;  1.0251410E+00;  0.0000000E+00; -9.5712975E-02;  9.9511487E+02;  1.5844199E-01; -3.9977219E+03;3; -9.2812439E+01;  0.0000000E+00; -1.9012848E+01;0;  3.2756276E+00;  1.6098442E+04;  0.0000000E+00;  1.4932305E+00;  4.0000000E+04;  0.0000000E+00;  3.9077812E+04;  3.6304350E+00;  0.0000000E+00; -3.5480732E-01;  8.1758926E+03;
  1.5898880E+00;  9.9999998E-03;  1.5208629E-01;9133;  1.0766151E+00;  0.0000000E+00; -7.7735297E-02;  9.9435669E+02;  1.5852699E-01; -4.6183662E+03;3; -9.8392113E+01;  0.0000000E+00; -1.5809286E+01;0;  3.7270894E+00;  1.6082699E+04;  0.0000000E+00;  1.3217124E-01;  4.0000000E+04;  0.0000000E+00;  3.9054586E+04;  4.1378598E+00;  0.0000000E+00; -4.1077045E-01;  2.4705808E+03;
  1.5901369E+00;  9.9999998E-03;  1.4193681E-01;9132;  1.0904458E+00;  0.0000000E+00; -7.2686478E-02;  9.9421844E+02;  1.5847546E-01; -4.7312720E+03;3; -1.0056395E+02;  0.0000000E+00; -1.4920248E+01;0;  3.8105333E+00;  1.6095562E+04;  0.0000000E+00; -6.1693911E-02;  4.0000000E+04;  0.0000000E+00;  3.9048348E+04;  4.2343307E+00;  0.0000000E+00; -4.2379731E-01;  1.9806534E+03;
  1.5907161E+00;  9.9999998E-03;  2.0226102E-01;9138;  1.0168463E+00;  0.0000000E+00; -9.9949680E-02;  9.9465253E+02;  1.5833779E-01; -4.3756167E+03;3; -9.3895424E+01;  0.0000000E+00; -1.9322369E+01;0;  3.1391351E+00;  1.6098631E+04;  0.0000000E+00;  2.8419375E+00;  4.0000000E+04;  0.0000000E+00;  3.9095922E+04;  3.4844592E+00;  0.0000000E+00; -3.4532404E-01;  1.4018788E+04;
  1.5904317E+00;  9.9999998E-03;  1.3173656E-01;9131;  1.1045333E+00;  0.0000000E+00; -6.7475282E-02;  9.9422223E+02;  1.5841518E-01; -4.7279463E+03;3; -1.0273279E+02;  0.0000000E+00; -1.3927704E+01;0;  3.8816466E+00;  1.6115033E+04;  0.0000000E+00; -1.6976112E-01;  4.0000000E+04;  0.0000000E+00;  3.9041125E+04;  4.3170295E+00;  0.0000000E+00; -4.3538278E-01;  1.4314968E+03;
  1.5907639E+00;  9.9999998E-03;  1.2153039E-01;9130;  1.1184775E+00;  0.0000000E+00; -6.2197797E-02;  9.9438171E+02;  1.5834844E-01; -4.5971475E+03;3; -1.0446036E+02;  0.0000000E+00; -1.2928253E+01;0;  3.9410067E+00;  1.6139474E+04;  0.0000000E+00; -1.5847504E-01;  4.0000000E+04;  0.0000000E+00;  3.9034094E+04;  4.3862128E+00;  0.0000000E+00; -4.4520628E-01;  8.3110913E+02;
  1.5914259E+00;  9.9999998E-03;  2.1236856E-01;9139;  1.0071275E+00;  0.0000000E+00; -1.0375423E-01;  9.9340265E+02;  1.5824308E-01; -5.3976099E+03;3; -9.6640068E+01;  0.0000000E+00; -1.9750263E+01;0;  2.9937282E+00;  1.6074994E+04;  0.0000000E+00;  3.9320116E+00;  4.0000000E+04;  0.0000000E+00;  3.9118395E+04;  3.3345737E+00;  0.0000000E+00; -3.4084561E-01;  2.0742084E+04;
  1.5911164E+00;  9.9999998E-03;  1.1133353E-01;9129;  1.1321748E+00;  0.0000000E+00; -5.6893468E-02;  9.9466339E+02;  1.5828137E-01; -4.3663711E+03;3; -1.0592427E+02;  0.0000000E+00; -1.1979239E+01;0;  3.9901004E+00;  1.6166676E+04;  0.0000000E+00; -7.3851936E-02;  4.0000000E+04;  0.0000000E+00;  3.9026852E+04;  4.4433908E+00;  0.0000000E+00; -4.5329058E-01;  5.7750867E+02;
  1.5914735E+00;  9.9999998E-03;  1.0115778E-01;9128;  1.1451237E+00;  0.0000000E+00; -5.1598482E-02;  9.9499365E+02;  1.5821154E-01; -4.0959253E+03;3; -1.0698742E+02;  0.0000000E+00; -1.0995672E+01;0;  4.0307269E+00;  1.6194486E+04;  0.0000000E+00;  3.5563283E-02;  4.0000000E+04;  0.0000000E+00;  3.9020828E+04;  4.4905496E+00;  0.0000000E+00; -4.5982277E-01;  1.0599907E+03;
  1.5919851E+00;  9.9999998E-03;  2.3267762E-01;9141;  9.5842481E-01;  0.0000000E+00; -1.0980795E-01;  9.8867560E+02;  1.5829977E-01; -9.2640947E+03;3; -1.0696923E+02;  0.0000000E+00; -1.9393446E+01;0;  2.6324148E+00;  1.5918436E+04;  0.0000000E+00; -1.0562953E+00;  4.0000000E+04;  0.0000000E+00;  3.9163609E+04;  2.9762006E+00;  0.0000000E+00; -3.4378573E-01;  2.3017785E+04;
  1.5919763E+00;  9.9999998E-03;  2.2251749E-01;9140;  9.8959470E-01;  0.0000000E+00; -1.0682288E-01;  9.9124994E+02;  1.5821116E-01; -7.1581431E+03;3; -1.0187991E+02;  0.0000000E+00; -2.0252937E+01;0;  2.8318639E+00;  1.6014695E+04;  0.0000000E+00;  2.9039578E+00;  4.0000000E+04;  0.0000000E+00;  3.9141445E+04;  3.1725082E+00;  0.0000000E+00; -3.4064427E-01;  2.4343713E+04;
  1.5917895E+00;  9.9999998E-03;  9.1009013E-02;9127;  1.1565776E+00;  0.0000000E+00; -4.6347588E-02;  9.9532660E+02;  1.5815276E-01; -3.8232996E+03;3; -1.0778881E+02;  0.0000000E+00; -9.9996376E+00;0;  4.0651979E+00;  1.6219160E+04;  0.0000000E+00;  1.3592523E-01;  4.0000000E+04;  0.0000000E+00;  3.9015262E+04;  4.5303097E+00;  0.0000000E+00; -4.6511152E-01;  1.6481451E+03;
  1.5920395E+00;  9.9999998E-03;  8.0877878E-02;9126;  1.1661352E+00;  0.0000000E+00; -4.1138116E-02;  9.9560919E+02;  1.5810597E-01; -3.5919509E+03;3; -1.0844759E+02;  0.0000000E+00; -8.9512844E+00;0;  4.0954542E+00;  1.6238489E+04;  0.0000000E+00;  2.0424612E-01;  4.0000000E+04;  0.0000000E+00;  3.9011125E+04;  4.5648880E+00;  0.0000000E+00; -4.6943367E-01;  2.1332095E+03;
  1.5922233E+00;  9.9999998E-03;  7.0758432E-02;9125;  1.1738565E+00;  0.0000000E+00; -3.5936430E-02;  9.9582166E+02;  1.5807064E-01; -3.4180046E+03;3; -1.0903878E+02;  0.0000000E+00; -7.8923936E+00;0;  4.1225934E+00;  1.6252625E+04;  0.0000000E+00;  2.3251651E-01;  4.0000000E+04;  0.0000000E+00;  3.9008301E+04;  4.5955691E+00;  0.0000000E+00; -4.7297576E-01;  2.4722378E+03;
  1.6049694E+00;  9.9999998E-03;  1.8217874E-01;9194;  1.1113111E+00;  0.0000000E+00; -7.6837711E-02;  9.9696118E+02;  1.5235713E-01; -2.4793564E+03;3; -9.5838371E+01;  0.0000000E+00; -1.7518026E+01;0;  3.4378328E+00;  1.7503695E+04;  0.0000000E+00;  1.7624607E+00;  4.0000000E+04;  0.0000000E+00;  3.9020102E+04;  3.8010983E+00;  0.0000000E+00; -3.6326557E-01;  6.6443408E+03;
  1.6048974E+00;  9.9999998E-03;  1.7219746E-01;9193;  1.1247057E+00;  0.0000000E+00; -7.2779149E-02;  9.9685730E+02;  1.5237294E-01; -2.5641616E+03;3; -9.5371437E+01;  0.0000000E+00; -1.7172735E+01;0;  3.5030363E+00;  1.7502279E+04;  0.0000000E+00;  7.4809748E-01;  4.0000000E+04;  0.0000000E+00;  3.9013922E+04;  3.8715336E+00;  0.0000000E+00; -3.6849731E-01;  3.1940774E+03;
  1.6049628E+00;  9.9999998E-03;  1.6220525E-01;9192;  1.1387073E+00;  0.0000000E+00; -6.8830810E-02;  9.9659338E+02;  1.5236838E-01; -2.7794624E+03;3; -9.4796677E+01;  0.0000000E+00; -1.6435604E+01;0;  3.5583339E+00;  1.7499459E+04;  0.0000000E+00;  3.3790991E-01;  4.0000000E+04;  0.0000000E+00;  3.9012270E+04;  3.9326539E+00;  0.0000000E+00; -3.7432003E-01;  1.6448246E+03;
  1.6052268E+00;  9.9999998E-03;  1.9218828E-01;9195;  1.0989928E+00;  0.0000000E+00; -8.0873832E-02;  9.9672485E+02;  1.5231720E-01; -2.6720237E+03;3; -9.7345787E+01;  0.0000000E+00; -1.7979952E+01;0;  3.3637323E+00;  1.7497184E+04;  0.0000000E+00;  3.8352764E+00;  4.0000000E+04;  0.0000000E+00;  3.9036039E+04;  3.7230506E+00;  0.0000000E+00; -3.5931838E-01;  1.3082136E+04;
  1.6051028E+00;  9.9999998E-03;  1.5217915E-01;9191;  1.1523706E+00;  0.0000000E+00; -6.4764790E-02;  9.9627563E+02;  1.5234736E-01; -3.0385710E+03;3; -9.4824799E+01;  0.0000000E+00; -1.5652724E+01;0;  3.6035469E+00;  1.7498836E+04;  0.0000000E+00;  1.3530050E-01;  4.0000000E+04;  0.0000000E+00;  3.9011934E+04;  3.9839439E+00;  0.0000000E+00; -3.8039708E-01;  1.1073296E+03;
  1.6056789E+00;  9.9999998E-03;  2.0227550E-01;9196;  1.0870750E+00;  0.0000000E+00; -8.4500022E-02;  9.9585419E+02;  1.5226427E-01; -3.3819910E+03;3; -9.9980560E+01;  0.0000000E+00; -1.8168985E+01;0;  3.2822871E+00;  1.7471941E+04;  0.0000000E+00;  6.8498774E+00;  4.0000000E+04;  0.0000000E+00;  3.9060059E+04;  3.6395535E+00;  0.0000000E+00; -3.5726634E-01;  2.2493750E+04;
  1.6052808E+00;  9.9999998E-03;  1.4209478E-01;9190;  1.1654161E+00;  0.0000000E+00; -6.0474496E-02;  9.9600446E+02;  1.5231797E-01; -3.2597051E+03;3; -9.5206856E+01;  0.0000000E+00; -1.4844149E+01;0;  3.6390276E+00;  1.7502260E+04;  0.0000000E+00; -1.6238976E-02;  4.0000000E+04;  0.0000000E+00;  3.9009426E+04;  4.0255504E+00;  0.0000000E+00; -3.8652271E-01;  9.4314282E+02;
  1.6054715E+00;  9.9999998E-03;  1.3194008E-01;9189;  1.1778224E+00;  0.0000000E+00; -5.6068454E-02;  9.9583826E+02;  1.5228586E-01; -3.3951328E+03;3; -9.5756035E+01;  0.0000000E+00; -1.3926766E+01;0;  3.6656041E+00;  1.7510547E+04;  0.0000000E+00; -1.0894210E-01;  4.0000000E+04;  0.0000000E+00;  3.9005164E+04;  4.0579910E+00;  0.0000000E+00; -3.9238700E-01;  7.5969843E+02;
  1.6062386E+00;  9.9999998E-03;  2.1244487E-01;9197;  1.0733414E+00;  0.0000000E+00; -8.7816991E-02;  9.9398248E+02;  1.5222429E-01; -4.9082339E+03;3; -1.0508775E+02;  0.0000000E+00; -1.8190445E+01;0;  3.1932337E+00;  1.7414963E+04;  0.0000000E+00;  9.2655268E+00;  4.0000000E+04;  0.0000000E+00;  3.9083887E+04;  3.5508611E+00;  0.0000000E+00; -3.5762742E-01;  3.1864344E+04;
  1.6056787E+00;  9.9999998E-03;  1.2174097E-01;9188;  1.1900530E+00;  0.0000000E+00; -5.1630944E-02;  9.9581860E+02;  1.5225081E-01; -3.4110190E+03;3; -9.6144821E+01;  0.0000000E+00; -1.2968176E+01;0;  3.6840780E+00;  1.7524035E+04;  0.0000000E+00; -1.1048870E-01;  4.0000000E+04;  0.0000000E+00;  3.8999359E+04;  4.0816360E+00;  0.0000000E+00; -3.9755791E-01;  5.5468732E+02;
  1.6064334E+00;  9.9999998E-03;  2.3281781E-01;9199;  1.0186950E+00;  0.0000000E+00; -9.4488665E-02;  9.8824927E+02;  1.5236138E-01; -9.5841855E+03;3; -1.1916422E+02;  0.0000000E+00; -1.6511915E+01;0;  2.9435363E+00;  1.7195344E+04;  0.0000000E+00;  5.0144339E+00;  4.0000000E+04;  0.0000000E+00;  3.9127016E+04;  3.3060277E+00;  0.0000000E+00; -3.6249125E-01;  3.5001594E+04;
  1.6066127E+00;  9.9999998E-03;  2.2263566E-01;9198;  1.0525872E+00;  0.0000000E+00; -9.0940669E-02;  9.9118829E+02;  1.5224217E-01; -7.1867368E+03;3; -1.1220734E+02;  0.0000000E+00; -1.7528875E+01;0;  3.0883973E+00;  1.7318594E+04;  0.0000000E+00;  8.7150545E+00;  4.0000000E+04;  0.0000000E+00;  3.9105973E+04;  3.4479589E+00;  0.0000000E+00; -3.5956165E-01;  3.6342328E+04;
  1.6059331E+00;  9.9999998E-03;  1.1152826E-01;9187;  1.2022829E+00;  0.0000000E+00; -4.7196820E-02;  9.9595184E+02;  1.5221003E-01; -3.3021558E+03;3; -9.6280922E+01;  0.0000000E+00; -1.2061829E+01;0;  3.6950502E+00;  1.7543734E+04;  0.0000000E+00; -4.5843512E-02;  4.0000000E+04;  0.0000000E+00;  3.8993117E+04;  4.0966763E+00;  0.0000000E+00; -4.0162608E-01;  7.8883911E+02;
  1.6062162E+00;  9.9999998E-03;  1.0132705E-01;9186;  1.2142022E+00;  0.0000000E+00; -4.2801898E-02;  9.9619025E+02;  1.5216130E-01; -3.1074731E+03;3; -9.6204422E+01;  0.0000000E+00; -1.1083993E+01;0;  3.7004113E+00;  1.7567346E+04;  0.0000000E+00;  3.4072623E-02;  4.0000000E+04;  0.0000000E+00;  3.8986254E+04;  4.1050305E+00;  0.0000000E+00; -4.0461910E-01;  1.3959016E+03;
  1.6064966E+00;  9.9999998E-03;  9.1144204E-02;9185;  1.2254149E+00;  0.0000000E+00; -3.8390256E-02;  9.9649103E+02;  1.5211523E-01; -2.8619666E+03;3; -9.5822617E+01;  0.0000000E+00; -1.0068644E+01;0;  3.7024941E+00;  1.7591412E+04;  0.0000000E+00;  1.0538699E-01;  4.0000000E+04;  0.0000000E+00;  3.8979922E+04;  4.1092358E+00;  0.0000000E+00; -4.0674150E-01;  2.0570510E+03;
  1.6067525E+00;  9.9999998E-03;  8.0983579E-02;9184;  1.2353936E+00;  0.0000000E+00; -3.4003835E-02;  9.9679633E+02;  1.5207225E-01; -2.6128110E+03;3; -9.5329437E+01;  0.0000000E+00; -9.0291948E+00;0;  3.7031665E+00;  1.7613305E+04;  0.0000000E+00;  1.5475145E-01;  4.0000000E+04;  0.0000000E+00;  3.8974113E+04;  4.1113544E+00;  0.0000000E+00; -4.0818787E-01;  2.6607805E+03;
  1.6069653E+00;  9.9999998E-03;  7.0840821E-02;9183;  1.2438082E+00;  0.0000000E+00; -2.9649790E-02;  9.9707129E+02;  1.5203880E-01; -2.3884497E+03;3; -9.4877617E+01;  0.0000000E+00; -7.9657664E+00;0;  3.7039504E+00;  1.7631475E+04;  0.0000000E+00;  1.7550918E-01;  4.0000000E+04;  0.0000000E+00;  3.8969609E+04;  4.1131139E+00;  0.0000000E+00; -4.0916336E-01;  3.1607341E+03;
  1.6195427E+00;  9.9999998E-03;  1.8209516E-01;9251;  1.1768786E+00;  0.0000000E+00; -6.3309766E-02;  9.9845471E+02;  1.4710973E-01; -1.2562356E+03;3; -9.3262733E+01;  0.0000000E+00; -1.7007193E+01;0;  3.3522637E+00;  1.8859467E+04;  0.0000000E+00;  4.2919273E+00;  4.0000000E+04;  0.0000000E+00;  3.8970688E+04;  3.7027965E+00;  0.0000000E+00; -3.5053271E-01;  1.2111421E+04;
  1.6195493E+00;  9.9999998E-03;  1.7212015E-01;9250;  1.1907822E+00;  0.0000000E+00; -5.9557594E-02;  9.9851318E+02;  1.4710546E-01; -1.2086993E+03;3; -9.0640533E+01;  0.0000000E+00; -1.6311205E+01;0;  3.3624432E+00;  1.8870395E+04;  0.0000000E+00;  1.9830041E+00;  4.0000000E+04;  0.0000000E+00;  3.8957418E+04;  3.7100780E+00;  0.0000000E+00; -3.4763485E-01;  6.2439966E+03;
  1.6196784E+00;  9.9999998E-03;  1.9214961E-01;9252;  1.1629826E+00;  0.0000000E+00; -6.6808045E-02;  9.9795001E+02;  1.4710248E-01; -1.6664386E+03;3; -9.6863907E+01;  0.0000000E+00; -1.7171637E+01;0;  3.3357477E+00;  1.8831064E+04;  0.0000000E+00;  8.2178736E+00;  4.0000000E+04;  0.0000000E+00;  3.8995422E+04;  3.6900105E+00;  0.0000000E+00; -3.5426283E-01;  2.1866025E+04;
  1.6196370E+00;  9.9999998E-03;  1.6216443E-01;9249;  1.2043521E+00;  0.0000000E+00; -5.5952184E-02;  9.9834027E+02;  1.4709479E-01; -1.3492333E+03;3; -8.8713310E+01;  0.0000000E+00; -1.5552477E+01;0;  3.3661146E+00;  1.8871367E+04;  0.0000000E+00;  8.7075227E-01;  4.0000000E+04;  0.0000000E+00;  3.8955094E+04;  3.7117825E+00;  0.0000000E+00; -3.4566778E-01;  3.1363740E+03;
  1.6197611E+00;  9.9999998E-03;  1.5219001E-01;9248;  1.2169094E+00;  0.0000000E+00; -5.2444629E-02;  9.9803381E+02;  1.4707911E-01; -1.5982775E+03;3; -8.7122536E+01;  0.0000000E+00; -1.4923487E+01;0;  3.3637383E+00;  1.8867545E+04;  0.0000000E+00;  3.7683448E-01;  4.0000000E+04;  0.0000000E+00;  3.8957355E+04;  3.7083199E+00;  0.0000000E+00; -3.4458151E-01;  1.4639669E+03;
  1.6200119E+00;  9.9999998E-03;  2.0232670E-01;9253;  1.1495875E+00;  0.0000000E+00; -6.9955774E-02;  9.9657788E+02;  1.4709356E-01; -2.7816145E+03;3; -1.0207192E+02;  0.0000000E+00; -1.7248737E+01;0;  3.3143024E+00;  1.8775193E+04;  0.0000000E+00;  1.3081938E+01;  4.0000000E+04;  0.0000000E+00;  3.9022824E+04;  3.6728258E+00;  0.0000000E+00; -3.5852343E-01;  3.4409191E+04;
  1.6198869E+00;  9.9999998E-03;  1.4217131E-01;9247;  1.2284241E+00;  0.0000000E+00; -4.8868105E-02;  9.9769379E+02;  1.4706214E-01; -1.8746293E+03;3; -8.6047867E+01;  0.0000000E+00; -1.4255869E+01;0;  3.3561080E+00;  1.8862820E+04;  0.0000000E+00;  1.3209692E-01;  4.0000000E+04;  0.0000000E+00;  3.8959414E+04;  3.7004814E+00;  0.0000000E+00; -3.4437355E-01;  5.2961481E+02;
  1.6200051E+00;  9.9999998E-03;  1.3208468E-01;9246;  1.2391263E+00;  0.0000000E+00; -4.5193542E-02;  9.9739636E+02;  1.4704676E-01; -2.1163254E+03;3; -8.5241501E+01;  0.0000000E+00; -1.3445200E+01;0;  3.3438382E+00;  1.8860295E+04;  0.0000000E+00; -1.9647379E-03;  4.0000000E+04;  0.0000000E+00;  3.8959586E+04;  3.6886907E+00;  0.0000000E+00; -3.4485254E-01;  3.1441187E+02;
  1.6203300E+00;  9.9999998E-03;  2.3299147E-01;9256;  1.0791355E+00;  0.0000000E+00; -7.9780042E-02;  9.8765845E+02;  1.4729270E-01; -1.0030686E+04;3; -1.2529618E+02;  0.0000000E+00; -1.6154003E+01;0;  3.1677988E+00;  1.8408932E+04;  0.0000000E+00;  1.1275433E+01;  4.0000000E+04;  0.0000000E+00;  3.9082293E+04;  3.5343211E+00;  0.0000000E+00; -3.6652237E-01;  4.6180070E+04;
  1.6204635E+00;  9.9999998E-03;  2.1257111E-01;9254;  1.1352617E+00;  0.0000000E+00; -7.3031925E-02;  9.9400177E+02;  1.4709951E-01; -4.8749390E+03;3; -1.0876307E+02;  0.0000000E+00; -1.7275133E+01;0;  3.2882671E+00;  1.8680867E+04;  0.0000000E+00;  1.6294596E+01;  4.0000000E+04;  0.0000000E+00;  3.9042391E+04;  3.6514134E+00;  0.0000000E+00; -3.6314631E-01;  4.4909051E+04;
  1.6201347E+00;  9.9999998E-03;  1.2192497E-01;9245;  1.2494462E+00;  0.0000000E+00; -4.1502926E-02;  9.9719525E+02;  1.4702909E-01; -2.2797085E+03;3; -8.4574341E+01;  0.0000000E+00; -1.2600763E+01;0;  3.3272014E+00;  1.8863023E+04;  0.0000000E+00; -4.8947919E-02;  4.0000000E+04;  0.0000000E+00;  3.8957340E+04;  3.6727688E+00;  0.0000000E+00; -3.4556735E-01;  5.5072290E+02;
  1.6206832E+00;  9.9999998E-03;  2.2279337E-01;9255;  1.1136783E+00;  0.0000000E+00; -7.6198861E-02;  9.9068219E+02;  1.4715798E-01; -7.5723682E+03;3; -1.1681375E+02;  0.0000000E+00; -1.7062010E+01;0;  3.2479110E+00;  1.8549643E+04;  0.0000000E+00;  1.5334663E+01;  4.0000000E+04;  0.0000000E+00;  3.9062680E+04;  3.6144619E+00;  0.0000000E+00; -3.6655089E-01;  4.8440273E+04;
  1.6202950E+00;  9.9999998E-03;  1.1172029E-01;9244;  1.2597884E+00;  0.0000000E+00; -3.7818525E-02;  9.9714764E+02;  1.4700688E-01; -2.3183137E+03;3; -8.3733734E+01;  0.0000000E+00; -1.1720687E+01;0;  3.3066857E+00;  1.8872232E+04;  0.0000000E+00; -2.7019221E-02;  4.0000000E+04;  0.0000000E+00;  3.8953066E+04;  3.6527245E+00;  0.0000000E+00; -3.4603885E-01;  8.8812360E+02;
  1.6204875E+00;  9.9999998E-03;  1.0150645E-01;9243;  1.2701137E+00;  0.0000000E+00; -3.4200866E-02;  9.9723773E+02;  1.4698063E-01; -2.2449451E+03;3; -8.2640678E+01;  0.0000000E+00; -1.0803782E+01;0;  3.2836003E+00;  1.8886920E+04;  0.0000000E+00;  1.8983012E-02;  4.0000000E+04;  0.0000000E+00;  3.8947418E+04;  3.6296360E+00;  0.0000000E+00; -3.4603560E-01;  1.3915176E+03;
  1.6207035E+00;  9.9999998E-03;  9.1303356E-02;9242;  1.2801135E+00;  0.0000000E+00; -3.0632328E-02;  9.9744452E+02;  1.4695130E-01; -2.0767744E+03;3; -8.1395149E+01;  0.0000000E+00; -9.8215370E+00;0;  3.2595968E+00;  1.8905578E+04;  0.0000000E+00;  5.4475915E-02;  4.0000000E+04;  0.0000000E+00;  3.8941301E+04;  3.6051745E+00;  0.0000000E+00; -3.4557769E-01;  2.0051033E+03;
  1.6209279E+00;  9.9999998E-03;  8.1117354E-02;9241;  1.2894243E+00;  0.0000000E+00; -2.7103264E-02;  9.9769666E+02;  1.4691997E-01; -1.8717589E+03;3; -8.0048820E+01;  0.0000000E+00; -8.8215055E+00;0;  3.2363040E+00;  1.8925789E+04;  0.0000000E+00;  7.6186702E-02;  4.0000000E+04;  0.0000000E+00;  3.8934773E+04;  3.5810659E+00;  0.0000000E+00; -3.4476188E-01;  2.6455522E+03;
  1.6211412E+00;  9.9999998E-03;  7.0948482E-02;9240;  1.2977701E+00;  0.0000000E+00; -2.3583444E-02;  9.9797632E+02;  1.4689267E-01; -1.6443987E+03;3; -7.8665009E+01;  0.0000000E+00; -7.7934871E+00;0;  3.2152135E+00;  1.8945180E+04;  0.0000000E+00;  8.4862754E-02;  4.0000000E+04;  0.0000000E+00;  3.8928781E+04;  3.5589352E+00;  0.0000000E+00; -3.4372172E-01;  3.2540698E+03;
  1.6337262E+00;  9.9999998E-03;  2.3320822E-01;9313;  1.1329942E+00;  0.0000000E+00; -6.6432737E-02;  9.8700916E+02;  1.4295700E-01; -1.0515034E+04;3; -1.2914059E+02;  0.0000000E+00; -1.5716309E+01;0;  3.2951379E+00;  1.9555055E+04;  0.0000000E+00;  1.6826706E+01;  4.0000000E+04;  0.0000000E+00;  3.9025406E+04;  3.6564856E+00;  0.0000000E+00; -3.6134756E-01;  5.4405145E+04;
  1.6335160E+00;  9.9999998E-03;  1.9217727E-01;9309;  1.2171166E+00;  0.0000000E+00; -5.3645488E-02;  9.9865314E+02;  1.4268403E-01; -1.0902731E+03;3; -9.3324783E+01;  0.0000000E+00; -1.6436071E+01;0;  3.2246385E+00;  2.0074053E+04;  0.0000000E+00;  1.5144815E+01;  4.0000000E+04;  0.0000000E+00;  3.8953727E+04;  3.5672913E+00;  0.0000000E+00; -3.4265277E-01;  3.3860328E+04;
  1.6334747E+00;  9.9999998E-03;  1.8201807E-01;9308;  1.2312723E+00;  0.0000000E+00; -5.0709743E-02;  9.9950897E+02;  1.4266253E-01; -3.9747729E+02;3; -8.7817490E+01;  0.0000000E+00; -1.6333460E+01;0;  3.1864171E+00;  2.0127471E+04;  0.0000000E+00;  8.9377441E+00;  4.0000000E+04;  0.0000000E+00;  3.8921930E+04;  3.5192094E+00;  0.0000000E+00; -3.3279234E-01;  2.0628070E+04;
  1.6338279E+00;  9.9999998E-03;  2.0247084E-01;9310;  1.2046938E+00;  0.0000000E+00; -5.6465816E-02;  9.9660400E+02;  1.4270274E-01; -2.7486741E+03;3; -1.0006931E+02;  0.0000000E+00; -1.6371468E+01;0;  3.2617342E+00;  1.9985502E+04;  0.0000000E+00;  2.1369463E+01;  4.0000000E+04;  0.0000000E+00;  3.8975426E+04;  3.6136363E+00;  0.0000000E+00; -3.5190192E-01;  4.8182574E+04;
  1.6342657E+00;  9.9999998E-03;  2.2300141E-01;9312;  1.1675968E+00;  0.0000000E+00; -6.2626705E-02;  9.8971576E+02;  1.4282082E-01; -8.3227510E+03;3; -1.1819418E+02;  0.0000000E+00; -1.6374590E+01;0;  3.3167081E+00;  1.9696361E+04;  0.0000000E+00;  2.1498543E+01;  4.0000000E+04;  0.0000000E+00;  3.9008910E+04;  3.6801639E+00;  0.0000000E+00; -3.6345577E-01;  5.8099160E+04;
  1.6336014E+00;  9.9999998E-03;  1.7199934E-01;9307;  1.2455776E+00;  0.0000000E+00; -4.7451168E-02;  9.9973798E+02;  1.4263658E-01; -2.1209465E+02;3; -8.3421837E+01;  0.0000000E+00; -1.6091379E+01;0;  3.1454041E+00;  2.0156654E+04;  0.0000000E+00;  4.6795669E+00;  4.0000000E+04;  0.0000000E+00;  3.8898160E+04;  3.4684248E+00;  0.0000000E+00; -3.2302073E-01;  1.1745312E+04;
  1.6342268E+00;  9.9999998E-03;  2.1276554E-01;9311;  1.1909237E+00;  0.0000000E+00; -5.9384983E-02;  9.9330438E+02;  1.4273748E-01; -5.4186558E+03;3; -1.0808853E+02;  0.0000000E+00; -1.6649826E+01;0;  3.2975225E+00;  1.9853662E+04;  0.0000000E+00;  2.3925190E+01;  4.0000000E+04;  0.0000000E+00;  3.8989230E+04;  3.6570902E+00;  0.0000000E+00; -3.5956752E-01;  5.7173207E+04;
  1.6337773E+00;  9.9999998E-03;  1.6205192E-01;9306;  1.2588089E+00;  0.0000000E+00; -4.4209145E-02;  9.9968842E+02;  1.4261231E-01; -2.5222141E+02;3; -7.9912216E+01;  0.0000000E+00; -1.5086788E+01;0;  3.1020243E+00;  2.0168568E+04;  0.0000000E+00;  2.2874570E+00;  4.0000000E+04;  0.0000000E+00;  3.8888785E+04;  3.4162290E+00;  0.0000000E+00; -3.1420460E-01;  6.7781787E+03;
  1.6339434E+00;  9.9999998E-03;  1.5211475E-01;9305;  1.2704902E+00;  0.0000000E+00; -4.1154139E-02;  9.9946741E+02;  1.4259164E-01; -4.3103900E+02;3; -7.6964035E+01;  0.0000000E+00; -1.4478949E+01;0;  3.0574167E+00;  2.0168422E+04;  0.0000000E+00;  1.0817869E+00;  4.0000000E+04;  0.0000000E+00;  3.8889723E+04;  3.3640993E+00;  0.0000000E+00; -3.0668250E-01;  4.1131733E+03;
  1.6340783E+00;  9.9999998E-03;  1.4214878E-01;9304;  1.2806425E+00;  0.0000000E+00; -3.8103588E-02;  9.9914203E+02;  1.4257571E-01; -6.9435840E+02;3; -7.4649452E+01;  0.0000000E+00; -1.3702917E+01;0;  3.0124006E+00;  2.0161258E+04;  0.0000000E+00;  4.9026638E-01;  4.0000000E+04;  0.0000000E+00;  3.8894855E+04;  3.3130128E+00;  0.0000000E+00; -3.0061215E-01;  2.5557500E+03;
  1.6341702E+00;  9.9999998E-03;  1.3212675E-01;9303;  1.2896597E+00;  0.0000000E+00; -3.5052240E-02;  9.9878455E+02;  1.4256568E-01; -9.8366791E+02;3; -7.2801727E+01;  0.0000000E+00; -1.2966067E+01;0;  2.9675808E+00;  2.0151369E+04;  0.0000000E+00;  1.8920934E-01;  4.0000000E+04;  0.0000000E+00;  3.8900223E+04;  3.2635655E+00;  0.0000000E+00; -2.9598463E-01;  1.6343267E+03;
  1.6342368E+00;  9.9999998E-03;  1.2202984E-01;9302;  1.2980162E+00;  0.0000000E+00; -3.2017022E-02;  9.9845776E+02;  1.4255810E-01; -1.2480800E+03;3; -7.1162910E+01;  0.0000000E+00; -1.2132008E+01;0;  2.9229105E+00;  2.0143061E+04;  0.0000000E+00;  3.9153505E-02;  4.0000000E+04;  0.0000000E+00;  3.8903070E+04;  3.2154031E+00;  0.0000000E+00; -2.9249266E-01;  1.2202681E+03;
  1.6343035E+00;  9.9999998E-03;  1.1186665E-01;9301;  1.3061345E+00;  0.0000000E+00; -2.9064940E-02;  9.9823798E+02;  1.4255300E-01; -1.4259452E+03;3; -6.9660858E+01;  0.0000000E+00; -1.1213010E+01;0;  2.8783166E+00;  2.0139260E+04;  0.0000000E+00; -1.4153342E-02;  4.0000000E+04;  0.0000000E+00;  3.8902750E+04;  3.1680002E+00;  0.0000000E+00; -2.8968364E-01;  1.1790206E+03;
  1.6343906E+00;  9.9999998E-03;  1.0166951E-01;9300;  1.3142803E+00;  0.0000000E+00; -2.6188897E-02;  9.9814471E+02;  1.4254592E-01; -1.5013898E+03;3; -6.8013161E+01;  0.0000000E+00; -1.0262183E+01;0;  2.8341761E+00;  2.0141619E+04;  0.0000000E+00; -1.4105141E-02;  4.0000000E+04;  0.0000000E+00;  3.8900426E+04;  3.1213169E+00;  0.0000000E+00; -2.8714082E-01;  1.3844214E+03;
  1.6345166E+00;  9.9999998E-03;  9.1462001E-02;9299;  1.3224710E+00;  0.0000000E+00; -2.3359621E-02;  9.9821161E+02;  1.4253584E-01; -1.4471604E+03;3; -6.6142334E+01;  0.0000000E+00; -9.3114176E+00;0;  2.7910511E+00;  2.0150434E+04;  0.0000000E+00; -4.5730378E-03;  4.0000000E+04;  0.0000000E+00;  3.8895992E+04;  3.0756614E+00;  0.0000000E+00; -2.8461027E-01;  1.7858728E+03;
  1.6346762E+00;  9.9999998E-03;  8.1258506E-02;9298;  1.3304932E+00;  0.0000000E+00; -2.0582248E-02;  9.9836725E+02;  1.4252107E-01; -1.3211541E+03;3; -6.4142181E+01;  0.0000000E+00; -8.3765793E+00;0;  2.7501552E+00;  2.0164322E+04;  0.0000000E+00; -5.2986774E-03;  4.0000000E+04;  0.0000000E+00;  3.8890348E+04;  3.0322189E+00;  0.0000000E+00; -2.8206369E-01;  2.3258684E+03;
  1.6348596E+00;  9.9999998E-03;  7.1066909E-02;9297;  1.3380429E+00;  0.0000000E+00; -1.7846609E-02;  9.9859534E+02;  1.4250386E-01; -1.1365081E+03;3; -6.2126080E+01;  0.0000000E+00; -7.3968925E+00;0;  2.7125876E+00;  2.0181084E+04;  0.0000000E+00; -1.0099811E-02;  4.0000000E+04;  0.0000000E+00;  3.8884164E+04;  2.9921033E+00;  0.0000000E+00; -2.7951580E-01;  2.9339348E+03;
  1.6466634E+00;  9.9999998E-03;  2.3346426E-01;9369;  1.1815382E+00;  0.0000000E+00; -5.4716248E-02;  9.8669470E+02;  1.3925093E-01; -1.0718289E+04;3; -1.2718478E+02;  0.0000000E+00; -1.4311771E+01;0;  3.3331101E+00;  2.0640436E+04;  0.0000000E+00;  2.1225363E+01;  4.0000000E+04;  0.0000000E+00;  3.8955770E+04;  3.6844094E+00;  0.0000000E+00; -3.5129920E-01;  5.8926562E+04;
  1.6469340E+00;  9.9999998E-03;  1.9232985E-01;9365;  1.2636219E+00;  0.0000000E+00; -4.1854773E-02;  9.9868079E+02;  1.3892914E-01; -1.0626091E+03;3; -8.8166862E+01;  0.0000000E+00; -1.5979289E+01;0;  3.0611358E+00;  2.1213467E+04;  0.0000000E+00;  2.4425463E+01;  4.0000000E+04;  0.0000000E+00;  3.8904195E+04;  3.3886304E+00;  0.0000000E+00; -3.2749468E-01;  4.7759535E+04;
  1.6473700E+00;  9.9999998E-03;  2.2325541E-01;9368;  1.2156640E+00;  0.0000000E+00; -5.0826978E-02;  9.8861084E+02;  1.3912399E-01; -9.1720654E+03;3; -1.1579237E+02;  0.0000000E+00; -1.5347778E+01;0;  3.3076897E+00;  2.0758445E+04;  0.0000000E+00;  2.6544760E+01;  4.0000000E+04;  0.0000000E+00;  3.8944305E+04;  3.6631057E+00;  0.0000000E+00; -3.5541600E-01;  6.4389426E+04;
  1.6468940E+00;  9.9999998E-03;  1.8201938E-01;9364;  1.2757177E+00;  0.0000000E+00; -3.9350618E-02;  1.0000790E+03;  1.3889049E-01;  6.3662518E+01;3; -8.1125092E+01;  0.0000000E+00; -1.5702689E+01;0;  2.9750390E+00;  2.1293969E+04;  0.0000000E+00;  1.6179449E+01;  4.0000000E+04;  0.0000000E+00;  3.8875379E+04;  3.2876976E+00;  0.0000000E+00; -3.1265867E-01;  3.1927721E+04;
  1.6472882E+00;  9.9999998E-03;  2.0271300E-01;9366;  1.2539585E+00;  0.0000000E+00; -4.4644166E-02;  9.9577502E+02;  1.3896756E-01; -3.4026167E+03;3; -9.5581154E+01;  0.0000000E+00; -1.5750421E+01;0;  3.1502414E+00;  2.1088434E+04;  0.0000000E+00;  3.0363478E+01;  4.0000000E+04;  0.0000000E+00;  3.8913684E+04;  3.4915574E+00;  0.0000000E+00; -3.4131598E-01;  6.1058242E+04;
  1.6475697E+00;  9.9999998E-03;  2.1301763E-01;9367;  1.2400956E+00;  0.0000000E+00; -4.7546938E-02;  9.9197498E+02;  1.3902467E-01; -6.4623252E+03;3; -1.0462460E+02;  0.0000000E+00; -1.5496152E+01;0;  3.2387962E+00;  2.0923279E+04;  0.0000000E+00;  3.0670040E+01;  4.0000000E+04;  0.0000000E+00;  3.8925508E+04;  3.5904608E+00;  0.0000000E+00; -3.5166463E-01;  6.6263195E+04;
  1.6471337E+00;  9.9999998E-03;  1.7189217E-01;9363;  1.2895741E+00;  0.0000000E+00; -3.6624998E-02;  1.0005064E+03;  1.3884592E-01;  4.0786142E+02;3; -7.4934135E+01;  0.0000000E+00; -1.5283722E+01;0;  2.8901768E+00;  2.1344197E+04;  0.0000000E+00;  9.3878565E+00;  4.0000000E+04;  0.0000000E+00;  3.8840434E+04;  3.1872978E+00;  0.0000000E+00; -2.9712108E-01;  1.9472508E+04;
  1.6474422E+00;  9.9999998E-03;  1.6190159E-01;9362;  1.3025538E+00;  0.0000000E+00; -3.3731878E-02;  1.0005699E+03;  1.3880447E-01;  4.5897861E+02;3; -6.9851555E+01;  0.0000000E+00; -1.4458893E+01;0;  2.8070281E+00;  2.1372287E+04;  0.0000000E+00;  5.0470762E+00;  4.0000000E+04;  0.0000000E+00;  3.8818512E+04;  3.0892570E+00;  0.0000000E+00; -2.8222904E-01;  1.1816512E+04;
  1.6477031E+00;  9.9999998E-03;  1.5196854E-01;9361;  1.3136079E+00;  0.0000000E+00; -3.1015471E-02;  1.0004650E+03;  1.3877435E-01;  3.7445828E+02;3; -6.5641068E+01;  0.0000000E+00; -1.3629071E+01;0;  2.7273309E+00;  2.1382385E+04;  0.0000000E+00;  2.5858324E+00;  4.0000000E+04;  0.0000000E+00;  3.8812145E+04;  2.9962244E+00;  0.0000000E+00; -2.6889351E-01;  7.6146489E+03;
  1.6478866E+00;  9.9999998E-03;  1.4203620E-01;9360;  1.3227094E+00;  0.0000000E+00; -2.8408026E-02;  1.0002213E+03;  1.3875310E-01;  1.7824065E+02;3; -6.2296467E+01;  0.0000000E+00; -1.2916431E+01;0;  2.6520624E+00;  2.1378818E+04;  0.0000000E+00;  1.2667272E+00;  4.0000000E+04;  0.0000000E+00;  3.8816254E+04;  2.9095085E+00;  0.0000000E+00; -2.5744614E-01;  5.2032852E+03;
  1.6479875E+00;  9.9999998E-03;  1.3206631E-01;9359;  1.3302374E+00;  0.0000000E+00; -2.5889924E-02;  9.9990729E+02;  1.3874543E-01; -7.4623795E+01;3; -5.9647438E+01;  0.0000000E+00; -1.2106272E+01;0;  2.5815170E+00;  2.1366580E+04;  0.0000000E+00;  5.7036668E-01;  4.0000000E+04;  0.0000000E+00;  3.8824758E+04;  2.8295329E+00;  0.0000000E+00; -2.4801579E-01;  3.6271580E+03;
  1.6480238E+00;  9.9999998E-03;  1.2203357E-01;9358;  1.3367587E+00;  0.0000000E+00; -2.3439789E-02;  9.9953204E+02;  1.3874206E-01; -3.7676056E+02;3; -5.7407990E+01;  0.0000000E+00; -1.1289573E+01;0;  2.5152793E+00;  2.1350604E+04;  0.0000000E+00;  2.0358123E-01;  4.0000000E+04;  0.0000000E+00;  3.8832762E+04;  2.7557564E+00;  0.0000000E+00; -2.4047703E-01;  2.5698152E+03;
  1.6480248E+00;  9.9999998E-03;  1.1193424E-01;9357;  1.3427868E+00;  0.0000000E+00; -2.1090982E-02;  9.9920184E+02;  1.3874617E-01; -6.4261859E+02;3; -5.5392536E+01;  0.0000000E+00; -1.0339001E+01;0;  2.4527280E+00;  2.1335670E+04;  0.0000000E+00;  2.3230704E-02;  4.0000000E+04;  0.0000000E+00;  3.8838480E+04;  2.6872227E+00;  0.0000000E+00; -2.3449479E-01;  1.9475626E+03;
  1.6480231E+00;  9.9999998E-03;  1.0177815E-01;9356;  1.3487284E+00;  0.0000000E+00; -1.8894212E-02;  9.9897089E+02;  1.3875382E-01; -8.2857587E+02;3; -5.3415340E+01;  0.0000000E+00; -9.4188814E+00;0;  2.3933566E+00;  2.1325330E+04;  0.0000000E+00; -4.9127232E-02;  4.0000000E+04;  0.0000000E+00;  3.8840711E+04;  2.6229696E+00;  0.0000000E+00; -2.2961296E-01;  1.6881201E+03;
  1.6480510E+00;  9.9999998E-03;  9.1586284E-02;9355;  1.3547890E+00;  0.0000000E+00; -1.6769879E-02;  9.9886230E+02;  1.3875721E-01; -9.1595319E+02;3; -5.1277733E+01;  0.0000000E+00; -8.5377064E+00;0;  2.3369598E+00;  2.1321883E+04;  0.0000000E+00; -6.9051184E-02;  4.0000000E+04;  0.0000000E+00;  3.8840012E+04;  2.5623486E+00;  0.0000000E+00; -2.2538885E-01;  1.7220795E+03;
  1.6481239E+00;  9.9999998E-03;  8.1380129E-02;9354;  1.3609804E+00;  0.0000000E+00; -1.4686333E-02;  9.9887817E+02;  1.3875626E-01; -9.0316119E+02;3; -4.8986683E+01;  0.0000000E+00; -7.6266341E+00;0;  2.2839961E+00;  2.1325500E+04;  0.0000000E+00; -7.5513907E-02;  4.0000000E+04;  0.0000000E+00;  3.8837133E+04;  2.5055449E+00;  0.0000000E+00; -2.2154881E-01;  1.9983909E+03;
  1.6482410E+00;  9.9999998E-03;  7.1174450E-02;9353;  1.3671247E+00;  0.0000000E+00; -1.2646359E-02;  9.9900153E+02;  1.3875218E-01; -8.0383759E+02;3; -4.6597740E+01;  0.0000000E+00; -6.6777320E+00;0;  2.2352703E+00;  2.1335209E+04;  0.0000000E+00; -8.1616409E-02;  4.0000000E+04;  0.0000000E+00;  3.8832168E+04;  2.4532547E+00;  0.0000000E+00; -2.1798435E-01;  2.4544954E+03;
  1.6592005E+00;  9.9999998E-03;  2.3375875E-01;9424;  1.2249023E+00;  0.0000000E+00; -4.3996233E-02;  9.8709900E+02;  1.3607492E-01; -1.0335505E+04;3; -1.2498440E+02;  0.0000000E+00; -1.2909572E+01;0;  3.2988610E+00;  2.1681773E+04;  0.0000000E+00;  2.3928556E+01;  4.0000000E+04;  0.0000000E+00;  3.8870641E+04;  3.6318464E+00;  0.0000000E+00; -3.3298552E-01;  5.8920098E+04;
  1.6600295E+00;  9.9999998E-03;  2.2355580E-01;9423;  1.2564617E+00;  0.0000000E+00; -4.0499065E-02;  9.8779291E+02;  1.3597248E-01; -9.7756846E+03;3; -1.1319834E+02;  0.0000000E+00; -1.3848830E+01;0;  3.2330389E+00;  2.1750646E+04;  0.0000000E+00;  3.0060547E+01;  4.0000000E+04;  0.0000000E+00;  3.8865152E+04;  3.5763826E+00;  0.0000000E+00; -3.4334370E-01;  6.6711836E+04;
  1.6600822E+00;  9.9999998E-03;  1.9263776E-01;9420;  1.3050185E+00;  0.0000000E+00; -3.1451993E-02;  9.9778278E+02;  1.3574523E-01; -1.7755599E+03;3; -8.1448112E+01;  0.0000000E+00; -1.4816451E+01;0;  2.8715525E+00;  2.2235744E+04;  0.0000000E+00;  3.4685276E+01;  4.0000000E+04;  0.0000000E+00;  3.8833566E+04;  3.1823828E+00;  0.0000000E+00; -3.1083035E-01;  6.0865277E+04;
  1.6599094E+00;  9.9999998E-03;  1.8219033E-01;9419;  1.3130265E+00;  0.0000000E+00; -2.9157558E-02;  1.0000595E+03;  1.3570026E-01;  4.7639900E+01;3; -7.3928528E+01;  0.0000000E+00; -1.4572014E+01;0;  2.7467325E+00;  2.2348578E+04;  0.0000000E+00;  2.6144545E+01;  4.0000000E+04;  0.0000000E+00;  3.8821195E+04;  3.0385046E+00;  0.0000000E+00; -2.9177222E-01;  4.5288008E+04;
  1.6604710E+00;  9.9999998E-03;  2.1332395E-01;9422;  1.2810600E+00;  0.0000000E+00; -3.7120502E-02;  9.9037811E+02;  1.3587268E-01; -7.7037310E+03;3; -1.0046784E+02;  0.0000000E+00; -1.4410510E+01;0;  3.1288633E+00;  2.1894537E+04;  0.0000000E+00;  3.5519886E+01;  4.0000000E+04;  0.0000000E+00;  3.8849098E+04;  3.4688227E+00;  0.0000000E+00; -3.3995938E-01;  7.0981188E+04;
  1.6604284E+00;  9.9999998E-03;  2.0303658E-01;9421;  1.2967438E+00;  0.0000000E+00; -3.4152716E-02;  9.9411188E+02;  1.3579631E-01; -4.7144019E+03;3; -8.9406624E+01;  0.0000000E+00; -1.4895084E+01;0;  3.0022929E+00;  2.2073520E+04;  0.0000000E+00;  3.7990318E+01;  4.0000000E+04;  0.0000000E+00;  3.8835305E+04;  3.3302560E+00;  0.0000000E+00; -3.2796302E-01;  6.9937109E+04;
  1.6601390E+00;  9.9999998E-03;  1.7189498E-01;9418;  1.3244612E+00;  0.0000000E+00; -2.6987953E-02;  1.0008824E+03;  1.3564864E-01;  7.0659613E+02;3; -6.6376900E+01;  0.0000000E+00; -1.4179361E+01;0;  2.6279538E+00;  2.2418869E+04;  0.0000000E+00;  1.6787992E+01;  4.0000000E+04;  0.0000000E+00;  3.8785250E+04;  2.8995719E+00;  0.0000000E+00; -2.7161813E-01;  2.9733100E+04;
  1.6605613E+00;  9.9999998E-03;  1.6179928E-01;9417;  1.3366066E+00;  0.0000000E+00; -2.4598319E-02;  1.0010623E+03;  1.3559812E-01;  8.5047107E+02;3; -5.9780975E+01;  0.0000000E+00; -1.3231424E+01;0;  2.5145307E+00;  2.2463688E+04;  0.0000000E+00;  9.7947674E+00;  4.0000000E+04;  0.0000000E+00;  3.8749723E+04;  2.7660282E+00;  0.0000000E+00; -2.5149763E-01;  1.8652398E+04;
  1.6609596E+00;  9.9999998E-03;  1.5181857E-01;9416;  1.3470770E+00;  0.0000000E+00; -2.2224177E-02;  1.0010281E+03;  1.3555337E-01;  8.2291980E+02;3; -5.4244434E+01;  0.0000000E+00; -1.2515896E+01;0;  2.4079299E+00;  2.2488654E+04;  0.0000000E+00;  5.3958721E+00;  4.0000000E+04;  0.0000000E+00;  3.8730621E+04;  2.6407678E+00;  0.0000000E+00; -2.3283800E-01;  1.2094406E+04;
  1.6612546E+00;  9.9999998E-03;  1.4187844E-01;9415;  1.3554083E+00;  0.0000000E+00; -1.9958233E-02;  1.0009061E+03;  1.3552314E-01;  7.2519806E+02;3; -4.9890232E+01;  0.0000000E+00; -1.1903855E+01;0;  2.3093636E+00;  2.2496012E+04;  0.0000000E+00;  2.8193452E+00;  4.0000000E+04;  0.0000000E+00;  3.8727875E+04;  2.5256979E+00;  0.0000000E+00; -2.1633436E-01;  8.3972012E+03;
  1.6614319E+00;  9.9999998E-03;  1.3193227E-01;9414;  1.3618579E+00;  0.0000000E+00; -1.7838506E-02;  1.0006801E+03;  1.3550550E-01;  5.4425659E+02;3; -4.6572617E+01;  0.0000000E+00; -1.1146244E+01;0;  2.2190046E+00;  2.2489203E+04;  0.0000000E+00;  1.3596082E+00;  4.0000000E+04;  0.0000000E+00;  3.8734906E+04;  2.4213011E+00;  0.0000000E+00; -2.0229654E-01;  6.0969619E+03;
  1.6615041E+00;  9.9999998E-03;  1.2194753E-01;9413;  1.3669809E+00;  0.0000000E+00; -1.5889293E-02;  1.0003679E+03;  1.3549979E-01;  2.9439368E+02;3; -4.3941299E+01;  0.0000000E+00; -1.0318151E+01;0;  2.1362257E+00;  2.2473232E+04;  0.0000000E+00;  5.5717069E-01;  4.0000000E+04;  0.0000000E+00;  3.8745996E+04;  2.3269985E+00;  0.0000000E+00; -1.9077270E-01;  4.4680342E+03;
  1.6615064E+00;  9.9999998E-03;  1.1190621E-01;9412;  1.3713144E+00;  0.0000000E+00; -1.4108197E-02;  1.0000093E+03;  1.3550039E-01;  7.4409208E+00;3; -4.1620686E+01;  0.0000000E+00; -9.2065735E+00;0;  2.0597925E+00;  2.2453432E+04;  0.0000000E+00;  1.3946633E-01;  4.0000000E+04;  0.0000000E+00;  3.8756754E+04;  2.2413375E+00;  0.0000000E+00; -1.8154502E-01;  3.2860867E+03;
  1.6613945E+00;  9.9999998E-03;  8.1460640E-02;9409;  1.3833723E+00;  0.0000000E+00; -9.5241005E-03;  9.9931335E+02;  1.3552941E-01; -5.4951367E+02;3; -3.5146584E+01;  0.0000000E+00; -6.6163592E+00;0;  1.8623121E+00;  2.2411074E+04;  0.0000000E+00; -1.4045247E-01;  4.0000000E+04;  0.0000000E+00;  3.8770820E+04;  2.0260558E+00;  0.0000000E+00; -1.6374367E-01;  1.9440146E+03;
  1.6614156E+00;  9.9999998E-03;  7.1256422E-02;9408;  1.3876915E+00;  0.0000000E+00; -8.1449356E-03;  9.9929675E+02;  1.3553759E-01; -5.6281641E+02;3; -3.2800602E+01;  0.0000000E+00; -5.7710648E+00;0;  1.8066614E+00;  2.2410049E+04;  0.0000000E+00; -1.3310225E-01;  4.0000000E+04;  0.0000000E+00;  3.8769141E+04;  1.9662966E+00;  0.0000000E+00; -1.5963522E-01;  2.0957659E+03;
  1.6614201E+00;  9.9999998E-03;  9.1649480E-02;9410;  1.3792353E+00;  0.0000000E+00; -1.0974911E-02;  9.9944415E+02;  1.3551870E-01; -4.4485245E+02;3; -3.7361359E+01;  0.0000000E+00; -7.4603405E+00;0;  1.9231005E+00;  2.2419518E+04;  0.0000000E+00; -1.2695438E-01;  4.0000000E+04;  0.0000000E+00;  3.8769582E+04;  2.0915976E+00;  0.0000000E+00; -1.6849715E-01;  2.0610452E+03;
  1.6614703E+00;  9.9999998E-03;  1.0180408E-01;9411;  1.3752891E+00;  0.0000000E+00; -1.2499283E-02;  9.9968121E+02;  1.3550825E-01; -2.5509457E+02;3; -3.9487976E+01;  0.0000000E+00; -8.3069601E+00;0;  1.9888254E+00;  2.2434381E+04;  0.0000000E+00; -5.5152323E-02;  4.0000000E+04;  0.0000000E+00;  3.8764938E+04;  2.1630867E+00;  0.0000000E+00; -1.7426126E-01;  2.4949453E+03;
  1.6714166E+00;  9.9999998E-03;  2.3408403E-01;9478;  1.2620896E+00;  0.0000000E+00; -3.5488360E-02;  9.8863751E+02;  1.3334416E-01; -9.0453916E+03;3; -1.2079346E+02;  0.0000000E+00; -1.1431917E+01;0;  3.1826668E+00;  2.2701348E+04;  0.0000000E+00;  2.3889463E+01;  4.0000000E+04;  0.0000000E+00;  3.8770422E+04;  3.5045879E+00;  0.0000000E+00; -3.2192114E-01;  5.3497121E+04;
  1.6723170E+00;  9.9999998E-03;  2.2389300E-01;9477;  1.2911879E+00;  0.0000000E+00; -3.1838153E-02;  9.8781171E+02;  1.3327605E-01; -9.6978662E+03;3; -1.0718150E+02;  0.0000000E+00; -1.2361062E+01;0;  3.1005528E+00;  2.2698473E+04;  0.0000000E+00;  3.1328129E+01;  4.0000000E+04;  0.0000000E+00;  3.8770375E+04;  3.4323516E+00;  0.0000000E+00; -3.3179888E-01;  6.4314988E+04;
  1.6729443E+00;  9.9999998E-03;  2.1367404E-01;9476;  1.3150098E+00;  0.0000000E+00; -2.8301641E-02;  9.8907825E+02;  1.3319197E-01; -8.6870059E+03;3; -9.4555374E+01;  0.0000000E+00; -1.3648791E+01;0;  2.9791739E+00;  2.2790994E+04;  0.0000000E+00;  3.7984428E+01;  4.0000000E+04;  0.0000000E+00;  3.8758348E+04;  3.3067064E+00;  0.0000000E+00; -3.2753256E-01;  7.1085922E+04;
  1.6727375E+00;  9.9999998E-03;  1.8256661E-01;9473;  1.3468052E+00;  0.0000000E+00; -2.0018354E-02;  9.9917737E+02;  1.3299845E-01; -6.5436334E+02;3; -6.6008148E+01;  0.0000000E+00; -1.3853168E+01;0;  2.5218160E+00;  2.3284365E+04;  0.0000000E+00;  3.7476166E+01;  4.0000000E+04;  0.0000000E+00;  3.8743309E+04;  2.7925861E+00;  0.0000000E+00; -2.7077001E-01;  5.8183344E+04;
  1.6731920E+00;  9.9999998E-03;  2.0341040E-01;9475;  1.3318633E+00;  0.0000000E+00; -2.5111884E-02;  9.9205151E+02;  1.3311085E-01; -6.3211763E+03;3; -8.2857208E+01;  0.0000000E+00; -1.4283810E+01;0;  2.8310111E+00;  2.2950932E+04;  0.0000000E+00;  4.2646519E+01;  4.0000000E+04;  0.0000000E+00;  3.8743336E+04;  3.1446402E+00;  0.0000000E+00; -3.1362906E-01;  7.3281703E+04;
  1.6730292E+00;  9.9999998E-03;  1.9305438E-01;9474;  1.3415056E+00;  0.0000000E+00; -2.2360649E-02;  9.9587317E+02;  1.3304663E-01; -3.2822678E+03;3; -7.3507179E+01;  0.0000000E+00; -1.4250957E+01;0;  2.6742146E+00;  2.3132988E+04;  0.0000000E+00;  4.3173347E+01;  4.0000000E+04;  0.0000000E+00;  3.8739258E+04;  2.9679339E+00;  0.0000000E+00; -2.9371935E-01;  6.9503906E+04;
  1.6727663E+00;  9.9999998E-03;  1.7209420E-01;9472;  1.3534852E+00;  0.0000000E+00; -1.8230585E-02;  1.0008439E+03;  1.3295172E-01;  6.7127911E+02;3; -5.8276115E+01;  0.0000000E+00; -1.3025808E+01;0;  2.3786271E+00;  2.3381738E+04;  0.0000000E+00;  2.7301500E+01;  4.0000000E+04;  0.0000000E+00;  3.8724520E+04;  2.6255469E+00;  0.0000000E+00; -2.4691987E-01;  4.2266312E+04;
  1.6731796E+00;  9.9999998E-03;  1.6181900E-01;9471;  1.3629827E+00;  0.0000000E+00; -1.6468175E-02;  1.0012635E+03;  1.3289590E-01;  1.0048311E+03;3; -5.0629730E+01;  0.0000000E+00; -1.1942125E+01;0;  2.2446320E+00;  2.3441838E+04;  0.0000000E+00;  1.7422390E+01;  4.0000000E+04;  0.0000000E+00;  3.8685203E+04;  2.4671905E+00;  0.0000000E+00; -2.2255853E-01;  2.7933697E+04;
  1.6737105E+00;  9.9999998E-03;  1.5172775E-01;9470;  1.3723843E+00;  0.0000000E+00; -1.4513732E-02;  1.0012734E+03;  1.3284369E-01;  1.0123894E+03;3; -4.4017956E+01;  0.0000000E+00; -1.1281519E+01;0;  2.1197376E+00;  2.3481066E+04;  0.0000000E+00;  1.0290122E+01;  4.0000000E+04;  0.0000000E+00;  3.8652066E+04;  2.3188210E+00;  0.0000000E+00; -1.9908342E-01;  1.8151367E+04;
  1.6741688E+00;  9.9999998E-03;  1.4173073E-01;9469;  1.3800036E+00;  0.0000000E+00; -1.2514993E-02;  1.0012230E+03;  1.3280110E-01;  9.7204034E+02;3; -3.8781776E+01;  0.0000000E+00; -1.0815920E+01;0;  2.0048647E+00;  2.3503205E+04;  0.0000000E+00;  5.7323918E+00;  4.0000000E+04;  0.0000000E+00;  3.8636277E+04;  2.1826441E+00;  0.0000000E+00; -1.7777947E-01;  1.2326731E+04;
  1.6744897E+00;  9.9999998E-03;  1.3176391E-01;9468;  1.3856653E+00;  0.0000000E+00; -1.0709493E-02;  1.0011100E+03;  1.3277104E-01;  8.8205188E+02;3; -3.4739079E+01;  0.0000000E+00; -1.0223608E+01;0;  1.9003112E+00;  2.3508885E+04;  0.0000000E+00;  2.9588299E+00;  4.0000000E+04;  0.0000000E+00;  3.8636285E+04;  2.0596313E+00;  0.0000000E+00; -1.5932009E-01;  8.9021494E+03;
  1.6746684E+00;  9.9999998E-03;  1.2179439E-01;9467;  1.3897611E+00;  0.0000000E+00; -9.1766082E-03;  1.0008983E+03;  1.3275273E-01;  7.1373267E+02;3; -3.1739706E+01;  0.0000000E+00; -9.4541798E+00;0;  1.8054976E+00;  2.3500770E+04;  0.0000000E+00;  1.3378946E+00;  4.0000000E+04;  0.0000000E+00;  3.8645578E+04;  1.9494179E+00;  0.0000000E+00; -1.4392033E-01;  6.6741943E+03;
  1.6747260E+00;  9.9999998E-03;  1.1179789E-01;9466;  1.3928244E+00;  0.0000000E+00; -7.9153292E-03;  1.0006282E+03;  1.3274860E-01;  4.9916971E+02;3; -2.9249502E+01;  0.0000000E+00; -8.3040056E+00;0;  1.7192354E+00;  2.3482941E+04;  0.0000000E+00;  4.4645396E-01;  4.0000000E+04;  0.0000000E+00;  3.8658574E+04;  1.8507625E+00;  0.0000000E+00; -1.3152704E-01;  5.0374780E+03;
  1.6744608E+00;  9.9999998E-03;  7.1299203E-02;9462;  1.4020990E+00;  0.0000000E+00; -4.3343268E-03;  9.9959906E+02;  1.3279110E-01; -3.1863730E+02;3; -2.1226629E+01;  0.0000000E+00; -4.6274548E+00;0;  1.4410543E+00;  2.3407953E+04;  0.0000000E+00; -1.9292989E-01;  4.0000000E+04;  0.0000000E+00;  3.8691141E+04;  1.5457413E+00;  0.0000000E+00; -1.0468696E-01;  2.0899365E+03;
  1.6747087E+00;  9.9999998E-03;  1.0174728E-01;9465;  1.3952792E+00;  0.0000000E+00; -6.8767886E-03;  1.0003052E+03;  1.3275129E-01;  2.4248340E+02;3; -2.7105177E+01;  0.0000000E+00; -7.3627715E+00;0;  1.6399250E+00;  2.3461076E+04;  0.0000000E+00;  5.5403467E-03;  4.0000000E+04;  0.0000000E+00;  3.8671445E+04;  1.7617575E+00;  0.0000000E+00; -1.2183255E-01;  3.7905649E+03;
  1.6745368E+00;  9.9999998E-03;  8.1485145E-02;9463;  1.3996722E+00;  0.0000000E+00; -5.1251990E-03;  9.9974792E+02;  1.3277511E-01; -2.0030580E+02;3; -2.3239769E+01;  0.0000000E+00; -5.5362124E+00;0;  1.5010444E+00;  2.3420537E+04;  0.0000000E+00; -2.1372874E-01;  4.0000000E+04;  0.0000000E+00;  3.8688238E+04;  1.6100194E+00;  0.0000000E+00; -1.0897502E-01;  2.3351846E+03;
  1.6746337E+00;  9.9999998E-03;  9.1639660E-02;9464;  1.3974596E+00;  0.0000000E+00; -5.9726951E-03;  9.9999384E+02;  1.3276069E-01; -4.8782988E+00;3; -2.5134565E+01;  0.0000000E+00; -6.4377570E+00;0;  1.5672717E+00;  2.3439039E+04;  0.0000000E+00; -1.7315388E-01;  4.0000000E+04;  0.0000000E+00;  3.8681621E+04;  1.6817641E+00;  0.0000000E+00; -1.1449243E-01;  2.8937468E+03;
  1.6834152E+00;  9.9999998E-03;  2.3443116E-01;9531;  1.2964395E+00;  0.0000000E+00; -2.7278362E-02;  9.9139862E+02;  1.3099073E-01; -6.7974780E+03;3; -1.1520948E+02;  0.0000000E+00; -1.0628891E+01;0;  3.0249777E+00;  2.3711965E+04;  0.0000000E+00;  1.9296246E+01;  4.0000000E+04;  0.0000000E+00;  3.8656898E+04;  3.3260002E+00;  0.0000000E+00; -3.0102244E-01;  4.1430934E+04;
  1.6843127E+00;  9.9999998E-03;  2.2425732E-01;9530;  1.3219247E+00;  0.0000000E+00; -2.3859762E-02;  9.8907617E+02;  1.3095735E-01; -8.6277256E+03;3; -1.0132318E+02;  0.0000000E+00; -1.1524831E+01;0;  2.9312921E+00;  2.3631270E+04;  0.0000000E+00;  2.9316481E+01;  4.0000000E+04;  0.0000000E+00;  3.8659801E+04;  3.2457848E+00;  0.0000000E+00; -3.1449273E-01;  5.6443070E+04;
  1.6850451E+00;  9.9999998E-03;  2.1405771E-01;9529;  1.3437753E+00;  0.0000000E+00; -2.0331571E-02;  9.8872186E+02;  1.3090295E-01; -8.9032334E+03;3; -8.8310570E+01;  0.0000000E+00; -1.2423326E+01;0;  2.8041818E+00;  2.3648293E+04;  0.0000000E+00;  3.7747013E+01;  4.0000000E+04;  0.0000000E+00;  3.8650863E+04;  3.1155558E+00;  0.0000000E+00; -3.1137386E-01;  6.6465219E+04;
  1.6852754E+00;  9.9999998E-03;  1.7253731E-01;9525;  1.3806620E+00;  0.0000000E+00; -9.9850520E-03;  1.0000330E+03;  1.3066551E-01;  2.6063480E+01;3; -5.0525402E+01;  0.0000000E+00; -1.1943748E+01;0;  2.1546059E+00;  2.4232090E+04;  0.0000000E+00;  3.9708130E+01;  4.0000000E+04;  0.0000000E+00;  3.8639109E+04;  2.3768113E+00;  0.0000000E+00; -2.2220543E-01;  5.4824383E+04;
  1.6855173E+00;  9.9999998E-03;  2.0382063E-01;9528;  1.3607111E+00;  0.0000000E+00; -1.6863558E-02;  9.9035693E+02;  1.3083556E-01; -7.6100469E+03;3; -7.6350983E+01;  0.0000000E+00; -1.3470445E+01;0;  2.6509802E+00;  2.3754762E+04;  0.0000000E+00;  4.4342995E+01;  4.0000000E+04;  0.0000000E+00;  3.8636305E+04;  2.9467883E+00;  0.0000000E+00; -2.9580814E-01;  7.1791430E+04;
  1.6854563E+00;  9.9999998E-03;  1.8309014E-01;9526;  1.3777140E+00;  0.0000000E+00; -1.1628795E-02;  9.9717896E+02;  1.3070987E-01; -2.2263684E+03;3; -5.7703728E+01;  0.0000000E+00; -1.3502789E+01;0;  2.3147337E+00;  2.4095740E+04;  0.0000000E+00;  4.7027542E+01;  4.0000000E+04;  0.0000000E+00;  3.8632746E+04;  2.5636728E+00;  0.0000000E+00; -2.4893896E-01;  6.6807188E+04;
  1.6856424E+00;  9.9999998E-03;  1.9351733E-01;9527;  1.3719012E+00;  0.0000000E+00; -1.3929216E-02;  9.9347607E+02;  1.3076697E-01; -5.1480498E+03;3; -6.5823288E+01;  0.0000000E+00; -1.3928255E+01;0;  2.4830308E+00;  2.3919857E+04;  0.0000000E+00;  4.8113651E+01;  4.0000000E+04;  0.0000000E+00;  3.8626789E+04;  2.7571197E+00;  0.0000000E+00; -2.7408889E-01;  7.2273539E+04;
  1.6854713E+00;  9.9999998E-03;  1.6204976E-01;9524;  1.3850648E+00;  0.0000000E+00; -8.9054601E-03;  1.0012071E+03;  1.3061623E-01;  9.5264966E+02;3; -4.2644051E+01;  0.0000000E+00; -1.0596229E+01;0;  2.0066259E+00;  2.4314934E+04;  0.0000000E+00;  2.8621380E+01;  4.0000000E+04;  0.0000000E+00;  3.8617414E+04;  2.2015102E+00;  0.0000000E+00; -1.9488430E-01;  3.9707363E+04;
  1.6860199E+00;  9.9999998E-03;  1.5176879E-01;9523;  1.3917361E+00;  0.0000000E+00; -7.5342008E-03;  1.0013615E+03;  1.3056193E-01;  1.0740834E+03;3; -3.5501881E+01;  0.0000000E+00; -1.0161999E+01;0;  1.8710306E+00;  2.4365164E+04;  0.0000000E+00;  1.8364416E+01;  4.0000000E+04;  0.0000000E+00;  3.8579535E+04;  2.0384021E+00;  0.0000000E+00; -1.6737145E-01;  2.6659076E+04;
  1.6866376E+00;  9.9999998E-03;  1.4165266E-01;9522;  1.3982472E+00;  0.0000000E+00; -5.8854907E-03;  1.0012856E+03;  1.3050796E-01;  1.0137493E+03;3; -2.9545748E+01;  0.0000000E+00; -9.6313715E+00;0;  1.7467840E+00;  2.4399674E+04;  0.0000000E+00;  1.0936123E+01;  4.0000000E+04;  0.0000000E+00;  3.8549863E+04;  1.8884276E+00;  0.0000000E+00; -1.4164366E-01;  1.7741678E+04;
  1.6871476E+00;  9.9999998E-03;  1.3162075E-01;9521;  1.4031636E+00;  0.0000000E+00; -4.3082852E-03;  1.0012155E+03;  1.3046528E-01;  9.5813831E+02;3; -2.4964943E+01;  0.0000000E+00; -9.0928230E+00;0;  1.6336334E+00;  2.4420020E+04;  0.0000000E+00;  6.0587893E+00;  4.0000000E+04;  0.0000000E+00;  3.8536688E+04;  1.7526350E+00;  0.0000000E+00; -1.1900157E-01;  1.2294496E+04;
  1.6874987E+00;  9.9999998E-03;  1.2162402E-01;9520;  1.4065040E+00;  0.0000000E+00; -3.0131913E-03;  1.0011244E+03;  1.3043539E-01;  8.8612854E+02;3; -2.1516161E+01;  0.0000000E+00; -8.2515831E+00;0;  1.5310223E+00;  2.4425688E+04;  0.0000000E+00;  3.0084391E+00;  4.0000000E+04;  0.0000000E+00;  3.8537707E+04;  1.6309539E+00;  0.0000000E+00; -9.9931620E-02;  9.0244375E+03;
  1.6874171E+00;  9.9999998E-03;  7.1297057E-02;9515;  1.4124433E+00;  0.0000000E+00; -7.2506181E-04;  9.9991132E+02;  1.3044843E-01; -6.9902138E+01;3; -1.2022176E+01;  0.0000000E+00; -4.9163122E+00;0;  1.1434611E+00;  2.4330664E+04;  0.0000000E+00; -3.1706765E-01;  4.0000000E+04;  0.0000000E+00;  3.8595523E+04;  1.1968286E+00;  0.0000000E+00; -5.3367458E-02;  2.5235300E+03;
  1.6875668E+00;  9.9999998E-03;  8.1450842E-02;9516;  1.4116474E+00;  0.0000000E+00; -9.0316741E-04;  1.0001677E+03;  1.3043396E-01;  1.3208630E+02;3; -1.3541576E+01;  0.0000000E+00; -5.6043196E+00;0;  1.2062734E+00;  2.4352318E+04;  0.0000000E+00; -3.3651844E-01;  4.0000000E+04;  0.0000000E+00;  3.8587652E+04;  1.2638966E+00;  0.0000000E+00; -5.7623185E-02;  3.1584866E+03;
  1.6876850E+00;  9.9999998E-03;  1.1163354E-01;9519;  1.4086678E+00;  0.0000000E+00; -2.1110734E-03;  1.0009684E+03;  1.3041943E-01;  7.6314441E+02;3; -1.8891117E+01;  0.0000000E+00; -7.3254962E+00;0;  1.4380636E+00;  2.4417670E+04;  0.0000000E+00;  1.2044797E+00;  4.0000000E+04;  0.0000000E+00;  3.8548008E+04;  1.5226071E+00;  0.0000000E+00; -8.4543519E-02;  6.8934136E+03;
  1.6877291E+00;  9.9999998E-03;  1.0162374E-01;9518;  1.4100269E+00;  0.0000000E+00; -1.5437265E-03;  1.0007429E+03;  1.3041714E-01;  5.8539764E+02;3; -1.6757305E+01;  0.0000000E+00; -6.7668791E+00;0;  1.3536181E+00;  2.4399643E+04;  0.0000000E+00;  2.3535062E-01;  4.0000000E+04;  0.0000000E+00;  3.8561961E+04;  1.4262837E+00;  0.0000000E+00; -7.2665580E-02;  5.3226562E+03;
  1.6876831E+00;  9.9999998E-03;  9.1563351E-02;9517;  1.4109181E+00;  0.0000000E+00; -1.1599803E-03;  1.0004565E+03;  1.3042158E-01;  3.5968536E+02;3; -1.5057724E+01;  0.0000000E+00; -6.2274113E+00;0;  1.2763531E+00;  2.4376494E+04;  0.0000000E+00; -2.0364736E-01;  4.0000000E+04;  0.0000000E+00;  3.8575836E+04;  1.3402002E+00;  0.0000000E+00; -6.3847095E-02;  4.0911851E+03;
  1.6953195E+00;  9.9999998E-03;  2.3478818E-01;9583;  1.3274728E+00;  0.0000000E+00; -1.9533083E-02;  9.9497137E+02;  1.2896761E-01; -3.9405447E+03;3; -1.0841688E+02;  0.0000000E+00; -1.0596271E+01;0;  2.8296022E+00;  2.4699621E+04;  0.0000000E+00;  8.9878311E+00;  4.0000000E+04;  0.0000000E+00;  3.8535375E+04;  3.1028643E+00;  0.0000000E+00; -2.7326205E-01;  2.3023098E+04;
  1.6961240E+00;  9.9999998E-03;  2.2463515E-01;9582;  1.3493869E+00;  0.0000000E+00; -1.6294250E-02;  9.9176263E+02;  1.2895964E-01; -6.4510190E+03;3; -9.4888580E+01;  0.0000000E+00; -1.1816941E+01;0;  2.7355337E+00;  2.4565154E+04;  0.0000000E+00;  2.2163683E+01;  4.0000000E+04;  0.0000000E+00;  3.8536918E+04;  3.0248208E+00;  0.0000000E+00; -2.8928721E-01;  4.2206973E+04;
  1.6968787E+00;  9.9999998E-03;  2.1445848E-01;9581;  1.3684715E+00;  0.0000000E+00; -1.2963153E-02;  9.8979932E+02;  1.2893650E-01; -7.9838955E+03;3; -8.2484703E+01;  0.0000000E+00; -1.2649947E+01;0;  2.6109645E+00;  2.4499326E+04;  0.0000000E+00;  3.3569431E+01;  4.0000000E+04;  0.0000000E+00;  3.8528777E+04;  2.9003723E+00;  0.0000000E+00; -2.8940773E-01;  5.6352746E+04;
  1.6974747E+00;  9.9999998E-03;  2.0425129E-01;9580;  1.3846431E+00;  0.0000000E+00; -9.4254883E-03;  9.8974084E+02;  1.2889411E-01; -8.0259155E+03;3; -7.0494316E+01;  0.0000000E+00; -1.3544121E+01;0;  2.4663694E+00;  2.4527824E+04;  0.0000000E+00;  4.2862385E+01;  4.0000000E+04;  0.0000000E+00;  3.8514074E+04;  2.7404430E+00;  0.0000000E+00; -2.7407366E-01;  6.5629625E+04;
  1.6977898E+00;  9.9999998E-03;  1.7315042E-01;9577;  1.4064767E+00;  0.0000000E+00; -1.7424992E-03;  9.9799689E+02;  1.2872438E-01; -1.5666979E+03;3; -4.2200947E+01;  0.0000000E+00; -1.1373245E+01;0;  1.9644612E+00;  2.4960635E+04;  0.0000000E+00;  5.0329838E+01;  4.0000000E+04;  0.0000000E+00;  3.8516133E+04;  2.1592419E+00;  0.0000000E+00; -1.9478071E-01;  6.3293262E+04;
  1.6977497E+00;  9.9999998E-03;  1.6254507E-01;9576;  1.4068385E+00;  0.0000000E+00; -1.1753226E-03;  1.0004099E+03;  1.2867898E-01;  3.2065015E+02;3; -3.4912277E+01;  0.0000000E+00; -1.0059097E+01;0;  1.8058127E+00;  2.5081406E+04;  0.0000000E+00;  4.2063770E+01;  4.0000000E+04;  0.0000000E+00;  3.8525219E+04;  1.9719448E+00;  0.0000000E+00; -1.6613211E-01;  5.1674262E+04;
  1.6978335E+00;  9.9999998E-03;  1.9399303E-01;9579;  1.3965173E+00;  0.0000000E+00; -6.0348292E-03;  9.9151770E+02;  1.2883669E-01; -6.6339604E+03;3; -5.9015827E+01;  0.0000000E+00; -1.4144718E+01;0;  2.3040388E+00;  2.4638871E+04;  0.0000000E+00;  4.9609852E+01;  4.0000000E+04;  0.0000000E+00;  3.8501422E+04;  2.5539103E+00;  0.0000000E+00; -2.4987152E-01;  7.0104086E+04;
  1.6979169E+00;  9.9999998E-03;  1.8364546E-01;9578;  1.4035803E+00;  0.0000000E+00; -3.4462959E-03;  9.9458478E+02;  1.2877671E-01; -4.2349321E+03;3; -4.9666183E+01;  0.0000000E+00; -1.3382515E+01;0;  2.1325154E+00;  2.4798322E+04;  0.0000000E+00;  5.2555481E+01;  4.0000000E+04;  0.0000000E+00;  3.8500875E+04;  2.3556101E+00;  0.0000000E+00; -2.2309473E-01;  6.9443867E+04;
  1.6980895E+00;  9.9999998E-03;  1.5203226E-01;9575;  1.4083695E+00;  0.0000000E+00; -6.5648003E-04;  1.0012703E+03;  1.2863190E-01;  9.9329187E+02;3; -2.7966572E+01;  0.0000000E+00; -9.1530838E+00;0;  1.6629220E+00;  2.5151344E+04;  0.0000000E+00;  3.0394608E+01;  4.0000000E+04;  0.0000000E+00;  3.8505148E+04;  1.7992355E+00;  0.0000000E+00; -1.3631345E-01;  3.7692891E+04;
  1.6987329E+00;  9.9999998E-03;  1.4172107E-01;9574;  1.4120729E+00;  0.0000000E+00;  3.3025959E-04;  1.0012722E+03;  1.2857886E-01;  9.9427472E+02;3; -2.1705402E+01;  0.0000000E+00; -8.2622747E+00;0;  1.5347612E+00;  2.5193686E+04;  0.0000000E+00;  1.9675957E+01;  4.0000000E+04;  0.0000000E+00;  3.8470770E+04;  1.6419294E+00;  0.0000000E+00; -1.0716822E-01;  2.5653758E+04;
  1.6994239E+00;  9.9999998E-03;  1.3156793E-01;9573;  1.4158791E+00;  0.0000000E+00;  1.5473907E-03;  1.0011461E+03;  1.2852913E-01;  8.9520850E+02;3; -1.6594131E+01;  0.0000000E+00; -7.1470604E+00;0;  1.4183052E+00;  2.5224211E+04;  0.0000000E+00;  1.1731758E+01;  4.0000000E+04;  0.0000000E+00;  3.8443355E+04;  1.4991165E+00;  0.0000000E+00; -8.0811366E-02;  1.7206730E+04;
  1.6999882E+00;  9.9999998E-03;  1.2150329E-01;9572;  1.4185407E+00;  0.0000000E+00;  2.5746974E-03;  1.0010857E+03;  1.2848824E-01;  8.4761279E+02;3; -1.2712345E+01;  0.0000000E+00; -6.2923322E+00;0;  1.3123503E+00;  2.5244297E+04;  0.0000000E+00;  6.3777280E+00;  4.0000000E+04;  0.0000000E+00;  3.8430938E+04;  1.3707809E+00;  0.0000000E+00; -5.8430720E-02;  1.1911372E+04;
  1.7003682E+00;  9.9999998E-03;  1.1148053E-01;9571;  1.4200196E+00;  0.0000000E+00;  3.2972053E-03;  1.0010273E+03;  1.2845965E-01;  8.0175964E+02;3; -9.8117990E+00;  0.0000000E+00; -5.6755280E+00;0;  1.2161305E+00;  2.5251342E+04;  0.0000000E+00;  2.9748511E+00;  4.0000000E+04;  0.0000000E+00;  3.8431723E+04;  1.2565050E+00;  0.0000000E+00; -4.0374465E-02;  8.7446768E+03;
  1.7003306E+00;  9.9999998E-03;  7.1263507E-02;9567;  1.4198874E+00;  0.0000000E+00;  3.7076855E-03;  1.0002453E+03;  1.2846355E-01;  1.9149028E+02;3; -3.7363632E+00;  0.0000000E+00; -3.4086151E+00;0;  9.1296750E-01;  2.5179584E+04;  0.0000000E+00; -5.7037264E-01;  4.0000000E+04;  0.0000000E+00;  3.8481863E+04;  9.1897088E-01;  0.0000000E+00; -6.0033747E-03;  3.3002295E+03;
  1.7004946E+00;  9.9999998E-03;  8.1379332E-02;9568;  1.4202771E+00;  0.0000000E+00;  3.9192368E-03;  1.0005230E+03;  1.2844969E-01;  4.0814169E+02;3; -4.7633567E+00;  0.0000000E+00; -4.0486994E+00;0;  9.7759885E-01;  2.5205123E+04;  0.0000000E+00; -5.0057918E-01;  4.0000000E+04;  0.0000000E+00;  3.8469555E+04;  9.8765159E-01;  0.0000000E+00; -1.0052723E-02;  4.2022241E+03;
  1.7005576E+00;  9.9999998E-03;  1.0147063E-01;9570;  1.4206102E+00;  0.0000000E+00;  3.7320959E-03;  1.0009255E+03;  1.2844406E-01;  7.2218866E+02;3; -7.6214318E+00;  0.0000000E+00; -5.2275500E+00;0;  1.1288241E+00;  2.5245354E+04;  0.0000000E+00;  9.6799839E-01;  4.0000000E+04;  0.0000000E+00;  3.8441469E+04;  1.1554055E+00;  0.0000000E+00; -2.6581362E-02;  6.7606128E+03;
  1.7005831E+00;  9.9999998E-03;  9.1446228E-02;9569;  1.4205996E+00;  0.0000000E+00;  3.9402037E-03;  1.0007561E+03;  1.2844272E-01;  5.9007428E+02;3; -5.9875832E+00;  0.0000000E+00; -4.7417402E+00;0;  1.0495591E+00;  2.5228494E+04;  0.0000000E+00; -7.6029770E-02;  4.0000000E+04;  0.0000000E+00;  3.8455371E+04;  1.0662416E+00;  0.0000000E+00; -1.6682526E-02;  5.3365200E+03;
  1.7072535E+00;  9.9999998E-03;  2.3514374E-01;9633;  1.3580426E+00;  0.0000000E+00; -1.1896680E-02;  9.9822485E+02;  1.2723947E-01; -1.3774370E+03;3; -1.0142536E+02;  0.0000000E+00; -1.1645783E+01;0;  2.6311460E+00;  2.5609326E+04;  0.0000000E+00; -2.5974898E+00;  4.0000000E+04;  0.0000000E+00;  3.8412832E+04;  2.8667357E+00;  0.0000000E+00; -2.3558979E-01;  4.2437603E+03;
  1.7078805E+00;  9.9999998E-03;  2.2501189E-01;9632;  1.3747317E+00;  0.0000000E+00; -9.0155341E-03;  9.9534503E+02;  1.2724017E-01; -3.6100249E+03;3; -8.8842827E+01;  0.0000000E+00; -1.2091060E+01;0;  2.5253417E+00;  2.5482268E+04;  0.0000000E+00;  8.8355608E+00;  4.0000000E+04;  0.0000000E+00;  3.8410055E+04;  2.7811897E+00;  0.0000000E+00; -2.5584784E-01;  2.2345287E+04;
  1.7085625E+00;  9.9999998E-03;  2.1485925E-01;9631;  1.3911455E+00;  0.0000000E+00; -5.6930310E-03;  9.9239355E+02;  1.2724042E-01; -5.8953857E+03;3; -7.6039787E+01;  0.0000000E+00; -1.2481529E+01;0;  2.4138758E+00;  2.5359184E+04;  0.0000000E+00;  2.3670155E+01;  4.0000000E+04;  0.0000000E+00;  3.8399062E+04;  2.6711562E+00;  0.0000000E+00; -2.5728032E-01;  4.0363613E+04;
  1.7091923E+00;  9.9999998E-03;  2.0468220E-01;9630;  1.4059389E+00;  0.0000000E+00; -2.3055526E-03;  9.9067743E+02;  1.2722638E-01; -7.2213716E+03;3; -6.4997215E+01;  0.0000000E+00; -1.3912985E+01;0;  2.2859955E+00;  2.5303668E+04;  0.0000000E+00;  3.6781876E+01;  4.0000000E+04;  0.0000000E+00;  3.8381254E+04;  2.5306451E+00;  0.0000000E+00; -2.4464956E-01;  5.4117020E+04;
  1.7096891E+00;  9.9999998E-03;  1.9446662E-01;9629;  1.4174002E+00;  0.0000000E+00;  1.3948720E-03;  9.9073218E+02;  1.2719391E-01; -7.1756997E+03;3; -5.3686005E+01;  0.0000000E+00; -1.4281815E+01;0;  2.1401958E+00;  2.5334617E+04;  0.0000000E+00;  4.7075954E+01;  4.0000000E+04;  0.0000000E+00;  3.8364004E+04;  2.3592868E+00;  0.0000000E+00; -2.1909100E-01;  6.2982688E+04;
  1.7100016E+00;  9.9999998E-03;  1.8418480E-01;9628;  1.4246391E+00;  0.0000000E+00;  4.3240562E-03;  9.9243964E+02;  1.2714508E-01; -5.8520298E+03;3; -4.3698906E+01;  0.0000000E+00; -1.3462095E+01;0;  1.9763612E+00;  2.5438639E+04;  0.0000000E+00;  5.3840446E+01;  4.0000000E+04;  0.0000000E+00;  3.8356758E+04;  2.1676190E+00;  0.0000000E+00; -1.9125782E-01;  6.6785414E+04;
  1.7101170E+00;  9.9999998E-03;  1.7379236E-01;9627;  1.4281253E+00;  0.0000000E+00;  6.2349555E-03;  9.9526611E+02;  1.2709157E-01; -3.6638091E+03;3; -3.5132290E+01;  0.0000000E+00; -1.2083684E+01;0;  1.8089758E+00;  2.5583510E+04;  0.0000000E+00;  5.6188431E+01;  4.0000000E+04;  0.0000000E+00;  3.8366055E+04;  1.9713168E+00;  0.0000000E+00; -1.6234097E-01;  6.5540938E+04;
  1.7101055E+00;  9.9999998E-03;  1.6324115E-01;9626;  1.4281108E+00;  0.0000000E+00;  7.0004617E-03;  9.9831604E+02;  1.2704012E-01; -1.3033206E+03;3; -2.7267237E+01;  0.0000000E+00; -1.0863453E+01;0;  1.6472008E+00;  2.5729127E+04;  0.0000000E+00;  5.3278202E+01;  4.0000000E+04;  0.0000000E+00;  3.8389746E+04;  1.7800431E+00;  0.0000000E+00; -1.3284224E-01;  5.9391797E+04;
  1.7102119E+00;  9.9999998E-03;  1.5259664E-01;9625;  1.4258106E+00;  0.0000000E+00;  6.7072376E-03;  1.0004068E+03;  1.2699504E-01;  3.1477396E+02;3; -2.0455235E+01;  0.0000000E+00; -8.4144640E+00;0;  1.4971578E+00;  2.5836041E+04;  0.0000000E+00;  4.4538441E+01;  4.0000000E+04;  0.0000000E+00;  3.8402461E+04;  1.6003540E+00;  0.0000000E+00; -1.0319616E-01;  4.8634625E+04;
  1.7106510E+00;  9.9999998E-03;  1.4205150E-01;9624;  1.4243679E+00;  0.0000000E+00;  6.3219890E-03;  1.0010958E+03;  1.2694944E-01;  8.4766510E+02;3; -1.4824483E+01;  0.0000000E+00; -5.5877209E+00;0;  1.3646660E+00;  2.5896762E+04;  0.0000000E+00;  3.2527763E+01;  4.0000000E+04;  0.0000000E+00;  3.8386777E+04;  1.4378541E+00;  0.0000000E+00; -7.3188014E-02;  3.5895734E+04;
  1.7113596E+00;  9.9999998E-03;  1.3170080E-01;9623;  1.4251332E+00;  0.0000000E+00;  6.5449718E-03;  1.0010191E+03;  1.2690158E-01;  7.8785187E+02;3; -9.8016415E+00;  0.0000000E+00; -4.0178385E+00;0;  1.2481754E+00;  2.5932475E+04;  0.0000000E+00;  2.1264370E+01;  4.0000000E+04;  0.0000000E+00;  3.8356039E+04;  1.2926220E+00;  0.0000000E+00; -4.4446539E-02;  2.4659088E+04;
  1.7121058E+00;  9.9999998E-03;  1.2151058E-01;9622;  1.4266026E+00;  0.0000000E+00;  7.0952158E-03;  1.0008532E+03;  1.2685546E-01;  6.5910944E+02;3; -5.5474887E+00;  0.0000000E+00; -3.4243643E+00;0;  1.1432207E+00;  2.5959449E+04;  0.0000000E+00;  1.2655911E+01;  4.0000000E+04;  0.0000000E+00;  3.8330547E+04;  1.1625216E+00;  0.0000000E+00; -1.9300938E-02;  1.6481756E+04;
  1.7127075E+00;  9.9999998E-03;  1.1141604E-01;9621;  1.4274670E+00;  0.0000000E+00;  7.6001189E-03;  1.0007894E+03;  1.2681665E-01;  6.0949420E+02;3; -2.3877597E+00;  0.0000000E+00; -2.9251311E+00;0;  1.0476385E+00;  2.5979816E+04;  0.0000000E+00;  6.7295141E+00;  4.0000000E+04;  0.0000000E+00;  3.8317734E+04;  1.0466018E+00;  0.0000000E+00;  1.0367575E-03;  1.1234614E+04;
  1.7131069E+00;  9.9999998E-03;  1.0136896E-01;9620;  1.4274801E+00;  0.0000000E+00;  7.8908717E-03;  1.0007979E+03;  1.2679103E-01;  6.1579608E+02;3; -1.4046285E-01;  0.0000000E+00; -2.3076301E+00;0;  9.6035957E-01;  2.5989793E+04;  0.0000000E+00;  2.9251120E+00;  4.0000000E+04;  0.0000000E+00;  3.8317156E+04;  9.4397730E-01;  0.0000000E+00;  1.6382270E-02;  8.1451978E+03;
  1.7131667E+00;  9.9999998E-03;  7.1224578E-02;9617;  1.4245996E+00;  0.0000000E+00;  6.9878683E-03;  1.0004827E+03;  1.2678719E-01;  3.7251111E+02;3;  2.7639771E+00;  0.0000000E+00; -3.6645877E-01;0;  7.4393201E-01;  2.5951322E+04;  0.0000000E+00; -8.6091852E-01;  4.0000000E+04;  0.0000000E+00;  3.8351492E+04;  7.0685881E-01;  0.0000000E+00;  3.7073214E-02;  4.1631572E+03;
  1.7132976E+00;  9.9999998E-03;  9.1338679E-02;9619;  1.4268197E+00;  0.0000000E+00;  7.8832768E-03;  1.0007867E+03;  1.2677932E-01;  6.0712946E+02;3;  1.3262795E+00;  0.0000000E+00; -1.4771376E+00;0;  8.8083029E-01;  2.5987336E+04;  0.0000000E+00;  6.8871880E-01;  4.0000000E+04;  0.0000000E+00;  3.8325359E+04;  8.5378116E-01;  0.0000000E+00;  2.7049100E-02;  6.3392026E+03;
  1.7133002E+00;  9.9999998E-03;  8.1299387E-02;9618;  1.4257691E+00;  0.0000000E+00;  7.5439001E-03;  1.0006808E+03;  1.2677948E-01;  5.2534967E+02;3;  2.2680929E+00;  0.0000000E+00; -8.1764656E-01;0;  8.0876034E-01;  2.5973420E+04;  0.0000000E+00; -4.4481575E-01;  4.0000000E+04;  0.0000000E+00;  3.8337699E+04;  7.7510005E-01;  0.0000000E+00;  3.3660308E-02;  5.1281299E+03;
  1.7192080E+00;  9.9999998E-03;  2.3549007E-01;9681;  1.3876501E+00;  0.0000000E+00; -4.3874909E-03;  1.0003845E+03;  1.2577812E-01;  2.9494272E+02;3; -9.3666130E+01;  0.0000000E+00; -1.2885038E+01;0;  2.4480944E+00;  2.6397178E+04;  0.0000000E+00;  1.4256622E+00;  4.0000000E+04;  0.0000000E+00;  3.8290266E+04;  2.6378040E+00;  0.0000000E+00; -1.8970978E-01;  2.5814910E+03;
  1.7196965E+00;  9.9999998E-03;  2.2537906E-01;9680;  1.4006740E+00;  0.0000000E+00; -1.4848808E-03;  9.9859613E+02;  1.2577583E-01; -1.0764833E+03;3; -8.1869766E+01;  0.0000000E+00; -1.2949572E+01;0;  2.3378799E+00;  2.6321963E+04;  0.0000000E+00; -5.1571541E+00;  4.0000000E+04;  0.0000000E+00;  3.8283477E+04;  2.5460668E+00;  0.0000000E+00; -2.0818684E-01;  3.4379607E+03;
  1.7202282E+00;  9.9999998E-03;  2.1524748E-01;9679;  1.4132812E+00;  0.0000000E+00;  1.4111385E-03;  9.9589783E+02;  1.2578349E-01; -3.1438162E+03;3; -7.0300385E+01;  0.0000000E+00; -1.2738447E+01;0;  2.2265816E+00;  2.6203727E+04;  0.0000000E+00;  7.4109836E+00;  4.0000000E+04;  0.0000000E+00;  3.8269250E+04;  2.4419155E+00;  0.0000000E+00; -2.1533388E-01;  1.9769312E+04;
  1.7208018E+00;  9.9999998E-03;  2.0509623E-01;9678;  1.4250921E+00;  0.0000000E+00;  4.4005280E-03;  9.9317694E+02;  1.2578849E-01; -5.2259463E+03;3; -5.9795670E+01;  0.0000000E+00; -1.3559427E+01;0;  2.1088507E+00;  2.6092031E+04;  0.0000000E+00;  2.4118341E+01;  4.0000000E+04;  0.0000000E+00;  3.8246902E+04;  2.3167937E+00;  0.0000000E+00; -2.0794299E-01;  3.6980836E+04;
  1.7213365E+00;  9.9999998E-03;  1.9491826E-01;9677;  1.4353667E+00;  0.0000000E+00;  8.0557521E-03;  9.9157501E+02;  1.2578101E-01; -6.4493135E+03;3; -4.8930305E+01;  0.0000000E+00; -1.4028056E+01;0;  1.9852402E+00;  2.6041143E+04;  0.0000000E+00;  3.9002388E+01;  4.0000000E+04;  0.0000000E+00;  3.8222234E+04;  2.1683347E+00;  0.0000000E+00; -1.8309444E-01;  5.0471215E+04;
  1.7217753E+00;  9.9999998E-03;  1.8469466E-01;9676;  1.4423630E+00;  0.0000000E+00;  1.1315934E-02;  9.9158508E+02;  1.2575620E-01; -6.4386411E+03;3; -3.8563721E+01;  0.0000000E+00; -1.2981116E+01;0;  1.8412349E+00;  2.6066682E+04;  0.0000000E+00;  5.0188660E+01;  4.0000000E+04;  0.0000000E+00;  3.8204406E+04;  1.9949535E+00;  0.0000000E+00; -1.5371859E-01;  5.8940176E+04;
  1.7220826E+00;  9.9999998E-03;  1.7439187E-01;9675;  1.4458694E+00;  0.0000000E+00;  1.3736810E-02;  9.9308722E+02;  1.2571378E-01; -5.2875640E+03;3; -2.9511311E+01;  0.0000000E+00; -1.1660198E+01;0;  1.6853824E+00;  2.6157551E+04;  0.0000000E+00;  5.7029945E+01;  4.0000000E+04;  0.0000000E+00;  3.8202570E+04;  1.8085707E+00;  0.0000000E+00; -1.2318844E-01;  6.2318590E+04;
  1.7222626E+00;  9.9999998E-03;  1.6396354E-01;9674;  1.4460582E+00;  0.0000000E+00;  1.5158911E-02;  9.9559003E+02;  1.2566447E-01; -3.3725371E+03;3; -2.1171551E+01;  0.0000000E+00; -1.0526184E+01;0;  1.5284880E+00;  2.6284289E+04;  0.0000000E+00;  5.9016155E+01;  4.0000000E+04;  0.0000000E+00;  3.8220086E+04;  1.6209694E+00;  0.0000000E+00; -9.2481345E-02;  6.0878953E+04;
  1.7223836E+00;  9.9999998E-03;  1.5337905E-01;9673;  1.4431926E+00;  0.0000000E+00;  1.5292754E-02;  9.9827008E+02;  1.2561762E-01; -1.3227812E+03;3; -1.4148910E+01;  0.0000000E+00; -7.9361200E+00;0;  1.3776414E+00;  2.6411291E+04;  0.0000000E+00;  5.5667133E+01;  4.0000000E+04;  0.0000000E+00;  3.8249488E+04;  1.4405752E+00;  0.0000000E+00; -6.2933765E-02;  5.5041641E+04;
  1.7226177E+00;  9.9999998E-03;  1.4271574E-01;9672;  1.4383802E+00;  0.0000000E+00;  1.3751214E-02;  1.0000928E+03;  1.2557290E-01;  7.0900238E+01;3; -8.4988737E+00;  0.0000000E+00; -4.5140972E+00;0;  1.2384077E+00;  2.6505688E+04;  0.0000000E+00;  4.6824478E+01;  4.0000000E+04;  0.0000000E+00;  3.8266641E+04;  1.2738091E+00;  0.0000000E+00; -3.5401352E-02;  4.5387109E+04;
  1.7231166E+00;  9.9999998E-03;  1.3214342E-01;9671;  1.4344277E+00;  0.0000000E+00;  1.1822022E-02;  1.0007219E+03;  1.2553187E-01;  5.5150806E+02;3; -4.1264610E+00;  0.0000000E+00; -2.4361565E+00;0;  1.1178161E+00;  2.6559551E+04;  0.0000000E+00;  3.4745186E+01;  4.0000000E+04;  0.0000000E+00;  3.8256992E+04;  1.1260936E+00;  0.0000000E+00; -8.2775773E-03;  3.3973520E+04;
  1.7238395E+00;  9.9999998E-03;  1.2175512E-01;9670;  1.4326272E+00;  0.0000000E+00;  1.0762553E-02;  1.0006422E+03;  1.2549123E-01;  4.9028485E+02;3; -4.8633978E-01;  0.0000000E+00; -1.0662740E+00;0;  1.0141870E+00;  2.6589629E+04;  0.0000000E+00;  2.3031929E+01;  4.0000000E+04;  0.0000000E+00;  3.8231688E+04;  9.9681151E-01;  0.0000000E+00;  1.7375490E-02;  2.3561584E+04;
  1.7245927E+00;  9.9999998E-03;  1.1152782E-01;9669;  1.4320095E+00;  0.0000000E+00;  1.0485093E-02;  1.0004496E+03;  1.2545131E-01;  3.4302051E+02;3;  2.5924053E+00;  0.0000000E+00;  2.2406131E-04;0;  9.2203230E-01;  2.6612428E+04;  0.0000000E+00;  1.3770068E+01;  4.0000000E+04;  0.0000000E+00;  3.8208035E+04;  8.8291681E-01;  0.0000000E+00;  3.9115511E-02;  1.5674989E+04;
  1.7252042E+00;  9.9999998E-03;  1.0140000E-01;9668;  1.4313917E+00;  0.0000000E+00;  1.0381288E-02;  1.0003914E+03;  1.2541816E-01;  2.9835294E+02;3;  4.8889046E+00;  0.0000000E+00;  9.4869274E-01;0;  8.3798236E-01;  2.6631527E+04;  0.0000000E+00;  7.2464676E+00;  4.0000000E+04;  0.0000000E+00;  3.8194566E+04;  7.8245139E-01;  0.0000000E+00;  5.5530988E-02;  1.0459479E+04;
  1.7256042E+00;  9.9999998E-03;  9.1324501E-02;9667;  1.4303328E+00;  0.0000000E+00;  1.0072682E-02;  1.0004319E+03;  1.2539637E-01;  3.2910742E+02;3;  6.3450255E+00;  0.0000000E+00;  1.6082139E+00;0;  7.6079500E-01;  2.6643311E+04;  0.0000000E+00;  3.0121214E+00;  4.0000000E+04;  0.0000000E+00;  3.8191953E+04;  6.9423348E-01;  0.0000000E+00;  6.6561513E-02;  7.4114561E+03;
  1.7257838E+00;  9.9999998E-03;  8.1270136E-02;9666;  1.4289237E+00;  0.0000000E+00;  9.5083360E-03;  1.0004760E+03;  1.2538680E-01;  3.6264609E+02;3;  7.0990944E+00;  0.0000000E+00;  1.9022713E+00;0;  6.9025725E-01;  2.6644273E+04;  0.0000000E+00;  5.2135915E-01;  4.0000000E+04;  0.0000000E+00;  3.8197684E+04;  6.1741543E-01;  0.0000000E+00;  7.2841808E-02;  5.7740718E+03;
  1.7257617E+00;  9.9999998E-03;  7.1210980E-02;9665;  1.4273444E+00;  0.0000000E+00;  8.7976567E-03;  1.0004358E+03;  1.2538756E-01;  3.3204770E+02;3;  7.2698684E+00;  0.0000000E+00;  2.0713241E+00;0;  6.2651390E-01;  2.6634170E+04;  0.0000000E+00; -7.2066218E-01;  4.0000000E+04;  0.0000000E+00;  3.8207953E+04;  5.5122560E-01;  0.0000000E+00;  7.5288281E-02;  4.8011768E+03;
  1.7309456E+00;  9.9999998E-03;  2.3581763E-01;9728;  1.4130410E+00;  0.0000000E+00;  2.4484578E-03;  1.0030461E+03;  1.2453479E-01;  2.3071338E+03;3; -8.6378738E+01;  0.0000000E+00; -1.3146338E+01;0;  2.2688856E+00;  2.7142656E+04;  0.0000000E+00;  3.7766460E+01;  4.0000000E+04;  0.0000000E+00;  3.8167016E+04;  2.4139063E+00;  0.0000000E+00; -1.4502083E-01;  1.5240630E+04;
  1.7315505E+00;  9.9999998E-03;  2.2573157E-01;9727;  1.4261937E+00;  0.0000000E+00;  5.8067823E-03;  1.0006996E+03;  1.2454357E-01;  5.2954797E+02;3; -7.3625679E+01;  0.0000000E+00; -1.3321324E+01;0;  2.1812036E+00;  2.7038994E+04;  0.0000000E+00; -8.4609413E-01;  4.0000000E+04;  0.0000000E+00;  3.8156285E+04;  2.3351185E+00;  0.0000000E+00; -1.5391493E-01;  2.6710864E+03;
  1.7319713E+00;  9.9999998E-03;  2.1561834E-01;9726;  1.4352988E+00;  0.0000000E+00;  8.4006609E-03;  9.9900806E+02;  1.2454684E-01; -7.5041602E+02;3; -6.2820583E+01;  0.0000000E+00; -1.2612659E+01;0;  2.0631902E+00;  2.6969178E+04;  0.0000000E+00; -8.0395575E+00;  4.0000000E+04;  0.0000000E+00;  3.8141535E+04;  2.2272542E+00;  0.0000000E+00; -1.6406383E-01;  2.2128999E+03;
  1.7324164E+00;  9.9999998E-03;  2.0548661E-01;9725;  1.4439303E+00;  0.0000000E+00;  1.1010165E-02;  9.9655566E+02;  1.2455619E-01; -2.6043008E+03;3; -5.2793964E+01;  0.0000000E+00; -1.2313684E+01;0;  1.9506942E+00;  2.6865586E+04;  0.0000000E+00;  5.2367401E+00;  4.0000000E+04;  0.0000000E+00;  3.8116621E+04;  2.1122375E+00;  0.0000000E+00; -1.6154321E-01;  1.6411680E+04;
  1.7329004E+00;  9.9999998E-03;  1.9533662E-01;9724;  1.4520150E+00;  0.0000000E+00;  1.4217920E-02;  9.9404694E+02;  1.2456506E-01; -4.4986309E+03;3; -4.2917744E+01;  0.0000000E+00; -1.2801155E+01;0;  1.8432279E+00;  2.6765500E+04;  0.0000000E+00;  2.3585281E+01;  4.0000000E+04;  0.0000000E+00;  3.8084391E+04;  1.9839405E+00;  0.0000000E+00; -1.4071263E-01;  3.2689125E+04;
  1.7333653E+00;  9.9999998E-03;  1.8515797E-01;9723;  1.4580971E+00;  0.0000000E+00;  1.7527964E-02;  9.9249829E+02;  1.2456221E-01; -5.6657764E+03;3; -3.2947449E+01;  0.0000000E+00; -1.1355601E+01;0;  1.7233566E+00;  2.6716863E+04;  0.0000000E+00;  3.9882545E+01;  4.0000000E+04;  0.0000000E+00;  3.8053680E+04;  1.8341734E+00;  0.0000000E+00; -1.1081686E-01;  4.5590348E+04;
  1.7337685E+00;  9.9999998E-03;  1.7492698E-01;9722;  1.4612175E+00;  0.0000000E+00;  2.0160254E-02;  9.9238531E+02;  1.2454266E-01; -5.7483081E+03;3; -2.3964403E+01;  0.0000000E+00; -9.9766808E+00;0;  1.5864341E+00;  2.6734803E+04;  0.0000000E+00;  5.1754711E+01;  4.0000000E+04;  0.0000000E+00;  3.8035223E+04;  1.6657510E+00;  0.0000000E+00; -7.9316847E-02;  5.3569539E+04;
  1.7340897E+00;  9.9999998E-03;  1.6460699E-01;9721;  1.4612538E+00;  0.0000000E+00;  2.1988826E-02;  9.9363019E+02;  1.2450740E-01; -4.8067202E+03;3; -1.5937338E+01;  0.0000000E+00; -8.5488701E+00;0;  1.4413093E+00;  2.6809500E+04;  0.0000000E+00;  5.8635338E+01;  4.0000000E+04;  0.0000000E+00;  3.8037289E+04;  1.4888409E+00;  0.0000000E+00; -4.7531657E-02;  5.6608840E+04;
  1.7343431E+00;  9.9999998E-03;  1.5415533E-01;9720;  1.4583316E+00;  0.0000000E+00;  2.2587324E-02;  9.9575897E+02;  1.2446401E-01; -3.1993501E+03;3; -9.0910091E+00;  0.0000000E+00; -5.5965514E+00;0;  1.2953184E+00;  2.6915008E+04;  0.0000000E+00;  6.0432735E+01;  4.0000000E+04;  0.0000000E+00;  3.8060797E+04;  1.3132770E+00;  0.0000000E+00; -1.7958693E-02;  5.5218031E+04;
  1.7345842E+00;  9.9999998E-03;  1.4356229E-01;9719;  1.4527928E+00;  0.0000000E+00;  2.1448685E-02;  9.9802539E+02;  1.2442133E-01; -1.4891453E+03;3; -3.0042496E+00;  0.0000000E+00; -2.9900124E+00;0;  1.1549448E+00;  2.7021357E+04;  0.0000000E+00;  5.6935658E+01;  4.0000000E+04;  0.0000000E+00;  3.8093531E+04;  1.1465508E+00;  0.0000000E+00;  8.3940476E-03;  4.9949957E+04;
  1.7349147E+00;  9.9999998E-03;  1.3290818E-01;9718;  1.4459457E+00;  0.0000000E+00;  1.8796096E-02;  9.9964349E+02;  1.2438316E-01; -2.6874576E+02;3;  1.3315215E+00;  0.0000000E+00; -4.7982708E-01;0;  1.0280373E+00;  2.7103076E+04;  0.0000000E+00;  4.8325783E+01;  4.0000000E+04;  0.0000000E+00;  3.8113801E+04;  9.9576962E-01;  0.0000000E+00;  3.2267652E-02;  4.1541012E+04;
  1.7354149E+00;  9.9999998E-03;  1.2232532E-01;9717;  1.4399900E+00;  0.0000000E+00;  1.5780276E-02;  1.0002902E+03;  1.2434671E-01;  2.1860176E+02;3;  4.0614853E+00;  0.0000000E+00;  1.4593879E+00;0;  9.1991723E-01;  2.7152740E+04;  0.0000000E+00;  3.6662731E+01;  4.0000000E+04;  0.0000000E+00;  3.8110625E+04;  8.6533248E-01;  0.0000000E+00;  5.4584756E-02;  3.1662893E+04;
  1.7360777E+00;  9.9999998E-03;  1.1190259E-01;9716;  1.4360970E+00;  0.0000000E+00;  1.3543963E-02;  1.0002628E+03;  1.2431436E-01;  1.9787401E+02;3;  6.0907202E+00;  0.0000000E+00;  2.7969201E+00;0;  8.2856321E-01;  2.7178531E+04;  0.0000000E+00;  2.4898336E+01;  4.0000000E+04;  0.0000000E+00;  3.8092191E+04;  7.5392711E-01;  0.0000000E+00;  7.4636079E-02;  2.2321906E+04;
  1.7367774E+00;  9.9999998E-03;  1.0163318E-01;9715;  1.4338202E+00;  0.0000000E+00;  1.2093855E-02;  1.0000506E+03;  1.2428333E-01;  3.8016376E+01;3;  7.8258929E+00;  0.0000000E+00;  3.6452584E+00;0;  7.4839383E-01;  2.7194699E+04;  0.0000000E+00;  1.5173641E+01;  4.0000000E+04;  0.0000000E+00;  3.8071695E+04;  6.5787512E-01;  0.0000000E+00;  9.0518713E-02;  1.4904264E+04;
  1.7373643E+00;  9.9999998E-03;  9.1466337E-02;9714;  1.4321352E+00;  0.0000000E+00;  1.1070041E-02;  9.9991791E+02;  1.2425631E-01; -6.1686752E+01;3;  9.1612797E+00;  0.0000000E+00;  4.1060100E+00;0;  6.7553538E-01;  2.7208703E+04;  0.0000000E+00;  8.1141815E+00;  4.0000000E+04;  0.0000000E+00;  3.8058113E+04;  5.7432115E-01;  0.0000000E+00;  1.0121424E-01;  9.8006104E+03;
  1.7377597E+00;  9.9999998E-03;  8.1357084E-02;9713;  1.4304886E+00;  0.0000000E+00;  1.0177030E-02;  9.9992285E+02;  1.2423893E-01; -5.7939873E+01;3;  9.9533119E+00;  0.0000000E+00;  4.3291874E+00;0;  6.0851663E-01;  2.7218596E+04;  0.0000000E+00;  3.4635153E+00;  4.0000000E+04;  0.0000000E+00;  3.8053488E+04;  5.0169742E-01;  0.0000000E+00;  1.0681920E-01;  6.7781538E+03;
  1.7379385E+00;  9.9999998E-03;  7.1272209E-02;9712;  1.4287680E+00;  0.0000000E+00;  9.2572700E-03;  9.9997614E+02;  1.2423126E-01; -1.7906301E+01;3;  1.0132902E+01;  0.0000000E+00;  4.4373341E+00;0;  5.4725367E-01;  2.7221365E+04;  0.0000000E+00;  7.1899515E-01;  4.0000000E+04;  0.0000000E+00;  3.8055934E+04;  4.3913433E-01;  0.0000000E+00;  1.0811935E-01;  5.2502744E+03;
  1.7432032E+00;  9.9999998E-03;  2.2605585E-01;9773;  1.4473574E+00;  0.0000000E+00;  1.2555801E-02;  1.0033271E+03;  1.2349775E-01;  2.4819075E+03;3; -6.6484642E+01;  0.0000000E+00; -1.2318491E+01;0;  2.0339117E+00;  2.7719631E+04;  0.0000000E+00;  4.0842102E+01;  4.0000000E+04;  0.0000000E+00;  3.8031422E+04;  2.1329465E+00;  0.0000000E+00; -9.9034674E-02;  1.5779635E+04;
  1.7437477E+00;  9.9999998E-03;  2.1596935E-01;9772;  1.4568071E+00;  0.0000000E+00;  1.5777046E-02;  1.0009940E+03;  1.2351281E-01;  7.4092316E+02;3; -5.4589176E+01;  0.0000000E+00; -1.1429338E+01;0;  1.9450109E+00;  2.7616826E+04;  0.0000000E+00; -1.6571411E+00;  4.0000000E+04;  0.0000000E+00;  3.8011691E+04;  2.0432746E+00;  0.0000000E+00; -9.8263785E-02;  2.4323342E+03;
  1.7441137E+00;  9.9999998E-03;  2.0585220E-01;9771;  1.4627968E+00;  0.0000000E+00;  1.8024713E-02;  9.9947192E+02;  1.2351726E-01; -3.9346188E+02;3; -4.5224186E+01;  0.0000000E+00; -1.0550944E+01;0;  1.8304455E+00;  2.7557455E+04;  0.0000000E+00; -1.0744507E+01;  4.0000000E+04;  0.0000000E+00;  3.7989641E+04;  1.9305716E+00;  0.0000000E+00; -1.0012603E-01;  1.8923063E+03;
  1.7444894E+00;  9.9999998E-03;  1.9571702E-01;9770;  1.4682820E+00;  0.0000000E+00;  2.0479474E-02;  9.9732672E+02;  1.2352607E-01; -1.9907310E+03;3; -3.6229847E+01;  0.0000000E+00; -1.0069222E+01;0;  1.7269818E+00;  2.7472051E+04;  0.0000000E+00;  2.2427192E+00;  4.0000000E+04;  0.0000000E+00;  3.7956559E+04;  1.8144408E+00;  0.0000000E+00; -8.7459043E-02;  1.2564806E+04;
  1.7449034E+00;  9.9999998E-03;  1.8556404E-01;9769;  1.4726765E+00;  0.0000000E+00;  2.3199230E-02;  9.9506006E+02;  1.2353685E-01; -3.6766074E+03;3; -2.6934620E+01;  0.0000000E+00; -8.7954235E+00;0;  1.6229993E+00;  2.7385791E+04;  0.0000000E+00;  2.1362228E+01;  4.0000000E+04;  0.0000000E+00;  3.7916371E+04;  1.6850737E+00;  0.0000000E+00; -6.2074445E-02;  2.7340658E+04;
  1.7453164E+00;  9.9999998E-03;  1.7538039E-01;9768;  1.4749122E+00;  0.0000000E+00;  2.5592556E-02;  9.9357593E+02;  1.2353664E-01; -4.7785454E+03;3; -1.8319756E+01;  0.0000000E+00; -7.6743293E+00;0;  1.5059284E+00;  2.7340301E+04;  0.0000000E+00;  3.8420906E+01;  4.0000000E+04;  0.0000000E+00;  3.7880586E+04;  1.5376023E+00;  0.0000000E+00; -3.1673908E-02;  3.9205180E+04;
  1.7456992E+00;  9.9999998E-03;  1.6513883E-01;9767;  1.4744382E+00;  0.0000000E+00;  2.7430540E-02;  9.9332788E+02;  1.2352181E-01; -4.9604961E+03;3; -1.0957818E+01;  0.0000000E+00; -5.6852789E+00;0;  1.3764988E+00;  2.7349777E+04;  0.0000000E+00;  5.0672237E+01;  4.0000000E+04;  0.0000000E+00;  3.7861508E+04;  1.3762672E+00;  0.0000000E+00;  2.3163250E-04;  4.6532977E+04;
  1.7460425E+00;  9.9999998E-03;  1.5480518E-01;9766;  1.4712875E+00;  0.0000000E+00;  2.8178938E-02;  9.9425610E+02;  1.2349547E-01; -4.2683994E+03;3; -3.9699938E+00;  0.0000000E+00; -3.4194243E+00;0;  1.2399857E+00;  2.7406174E+04;  0.0000000E+00;  5.7618664E+01;  4.0000000E+04;  0.0000000E+00;  3.7865398E+04;  1.2103049E+00;  0.0000000E+00;  2.9680809E-02;  4.9334980E+04;
  1.7463558E+00;  9.9999998E-03;  1.4434898E-01;9765;  1.4655910E+00;  0.0000000E+00;  2.7539926E-02;  9.9595087E+02;  1.2345825E-01; -3.0076792E+03;3;  2.1105111E+00;  0.0000000E+00; -9.6681958E-01;0;  1.1035789E+00;  2.7489207E+04;  0.0000000E+00;  5.9460026E+01;  4.0000000E+04;  0.0000000E+00;  3.7889617E+04;  1.0480818E+00;  0.0000000E+00;  5.5497169E-02;  4.8223363E+04;
  1.7466735E+00;  9.9999998E-03;  1.3377422E-01;9764;  1.4579600E+00;  0.0000000E+00;  2.5217775E-02;  9.9779999E+02;  1.2342183E-01; -1.6334487E+03;3;  6.2454958E+00;  0.0000000E+00;  2.1083255E+00;0;  9.7424906E-01;  2.7575166E+04;  0.0000000E+00;  5.6270687E+01;  4.0000000E+04;  0.0000000E+00;  3.7921445E+04;  8.9734328E-01;  0.0000000E+00;  7.6905794E-02;  4.3836297E+04;
  1.7470478E+00;  9.9999998E-03;  1.2314651E-01;9763;  1.4497602E+00;  0.0000000E+00;  2.1551115E-02;  9.9920410E+02;  1.2338809E-01; -5.9063141E+02;3;  8.9577265E+00;  0.0000000E+00;  3.7528913E+00;0;  8.5931563E-01;  2.7644701E+04;  0.0000000E+00;  4.8498035E+01;  4.0000000E+04;  0.0000000E+00;  3.7943562E+04;  7.6439774E-01;  0.0000000E+00;  9.4917923E-02;  3.6940004E+04;
  1.7475148E+00;  9.9999998E-03;  1.1256672E-01;9762;  1.4425346E+00;  0.0000000E+00;  1.7786099E-02;  9.9988123E+02;  1.2335876E-01; -8.8097725E+01;3;  1.0267392E+01;  0.0000000E+00;  5.1537271E+00;0;  7.6257241E-01;  2.7689682E+04;  0.0000000E+00;  3.7816269E+01;  4.0000000E+04;  0.0000000E+00;  3.7947309E+04;  6.5194631E-01;  0.0000000E+00;  1.1062613E-01;  2.8778158E+04;
  1.7480896E+00;  9.9999998E-03;  1.0211676E-01;9761;  1.4373485E+00;  0.0000000E+00;  1.4453625E-02;  9.9996307E+02;  1.2334027E-01; -2.7384340E+01;3;  1.0788164E+01;  0.0000000E+00;  5.8704200E+00;0;  6.8168259E-01;  2.7710717E+04;  0.0000000E+00;  2.6527626E+01;  4.0000000E+04;  0.0000000E+00;  3.7935371E+04;  5.5860734E-01;  0.0000000E+00;  1.2307525E-01;  2.0758004E+04;
  1.7486748E+00;  9.9999998E-03;  9.1799639E-02;9760;  1.4338177E+00;  0.0000000E+00;  1.1908092E-02;  9.9971692E+02;  1.2331387E-01; -2.0958372E+02;3;  1.1288045E+01;  0.0000000E+00;  5.8705983E+00;0;  6.1168396E-01;  2.7721139E+04;  0.0000000E+00;  1.6791655E+01;  4.0000000E+04;  0.0000000E+00;  3.7918914E+04;  4.8021725E-01;  0.0000000E+00;  1.3146672E-01;  1.4119826E+04;
  1.7492007E+00;  9.9999998E-03;  8.1581265E-02;9759;  1.4313717E+00;  0.0000000E+00;  1.0011435E-02;  9.9947510E+02;  1.2329535E-01; -3.8834088E+02;3;  1.1738350E+01;  0.0000000E+00;  5.6693802E+00;0;  5.4885840E-01;  2.7726191E+04;  0.0000000E+00;  9.4358578E+00;  4.0000000E+04;  0.0000000E+00;  3.7905965E+04;  4.1345668E-01;  0.0000000E+00;  1.3540170E-01;  9.3264434E+03;
  1.7495811E+00;  9.9999998E-03;  7.1421221E-02;9758;  1.4294411E+00;  0.0000000E+00;  8.6210920E-03;  9.9936560E+02;  1.2328276E-01; -4.6909982E+02;3;  1.2041621E+01;  0.0000000E+00;  5.2243123E+00;0;  4.9157959E-01;  2.7729363E+04;  0.0000000E+00;  4.4769630E+00;  4.0000000E+04;  0.0000000E+00;  3.7899914E+04;  3.5636970E-01;  0.0000000E+00;  1.3520987E-01;  6.3681055E+03;
  1.7553201E+00;  9.9999998E-03;  2.1628119E-01;9816;  1.4734155E+00;  0.0000000E+00;  2.1770384E-02;  1.0036672E+03;  1.2263341E-01;  2.6892681E+03;3; -4.8693996E+01;  0.0000000E+00; -1.0082804E+01;0;  1.8186802E+00;  2.8241818E+04;  0.0000000E+00;  4.6723686E+01;  4.0000000E+04;  0.0000000E+00;  3.7887051E+04;  1.8610406E+00;  0.0000000E+00; -4.2360377E-02;  1.7009627E+04;
  1.7558223E+00;  9.9999998E-03;  2.0619357E-01;9815;  1.4801545E+00;  0.0000000E+00;  2.4591291E-02;  1.0013061E+03;  1.2264755E-01;  9.5704077E+02;3; -3.8130726E+01;  0.0000000E+00; -9.4587154E+00;0;  1.7396574E+00;  2.8141537E+04;  0.0000000E+00; -2.5380668E-01;  4.0000000E+04;  0.0000000E+00;  3.7857516E+04;  1.7735209E+00;  0.0000000E+00; -3.3863496E-02;  1.5450026E+03;
  1.7561553E+00;  9.9999998E-03;  1.9606833E-01;9814;  1.4838638E+00;  0.0000000E+00;  2.6706124E-02;  9.9999695E+02;  1.2265768E-01; -2.2263887E+00;3; -2.9167439E+01;  0.0000000E+00; -8.2968073E+00;0;  1.6416034E+00;  2.8093006E+04;  0.0000000E+00; -1.2907481E+01;  4.0000000E+04;  0.0000000E+00;  3.7830215E+04;  1.6658702E+00;  0.0000000E+00; -2.4266887E-02;  2.7115435E+03;
  1.7564794E+00;  9.9999998E-03;  1.8592127E-01;9813;  1.4865375E+00;  0.0000000E+00;  2.8667847E-02;  9.9824457E+02;  1.2266478E-01; -1.2850452E+03;3; -2.0909575E+01;  0.0000000E+00; -6.6247425E+00;0;  1.5465164E+00;  2.8029814E+04;  0.0000000E+00; -1.8926750E+00;  4.0000000E+04;  0.0000000E+00;  3.7792547E+04;  1.5522878E+00;  0.0000000E+00; -5.7714242E-03;  8.2463496E+03;
  1.7568398E+00;  9.9999998E-03;  1.7575538E-01;9812;  1.4874061E+00;  0.0000000E+00;  3.0500863E-02;  9.9630347E+02;  1.2267248E-01; -2.7045750E+03;3; -1.3146688E+01;  0.0000000E+00; -5.2525673E+00;0;  1.4435725E+00;  2.7961654E+04;  0.0000000E+00;  1.6672096E+01;  4.0000000E+04;  0.0000000E+00;  3.7748047E+04;  1.4226681E+00;  0.0000000E+00;  2.0904452E-02;  2.0856254E+04;
  1.7572157E+00;  9.9999998E-03;  1.6555756E-01;9811;  1.4860823E+00;  0.0000000E+00;  3.1875376E-02;  9.9493164E+02;  1.2267547E-01; -3.7061299E+03;3; -6.0072112E+00;  0.0000000E+00; -2.9558713E+00;0;  1.3284194E+00;  2.7920832E+04;  0.0000000E+00;  3.3693474E+01;  4.0000000E+04;  0.0000000E+00;  3.7709590E+04;  1.2781305E+00;  0.0000000E+00;  5.0288875E-02;  3.1273488E+04;
  1.7575847E+00;  9.9999998E-03;  1.5530367E-01;9810;  1.4824362E+00;  0.0000000E+00;  3.2434732E-02;  9.9454047E+02;  1.2266607E-01; -3.9899294E+03;3;  8.6241406E-01;  0.0000000E+00; -9.1861898E-01;0;  1.2033657E+00;  2.7922369E+04;  0.0000000E+00;  4.6021290E+01;  4.0000000E+04;  0.0000000E+00;  3.7688270E+04;  1.1247751E+00;  0.0000000E+00;  7.8590624E-02;  3.7857184E+04;
  1.7579401E+00;  9.9999998E-03;  1.4496501E-01;9809;  1.4765162E+00;  0.0000000E+00;  3.1903174E-02;  9.9511658E+02;  1.2264577E-01; -3.5669373E+03;3;  6.6132131E+00;  0.0000000E+00;  1.6494629E+00;0;  1.0737100E+00;  2.7960877E+04;  0.0000000E+00;  5.3128250E+01;  4.0000000E+04;  0.0000000E+00;  3.7689453E+04;  9.7041035E-01;  0.0000000E+00;  1.0329957E-01;  4.0570016E+04;
  1.7582866E+00;  9.9999998E-03;  1.3452019E-01;9808;  1.4686960E+00;  0.0000000E+00;  2.9871896E-02;  9.9634021E+02;  1.2261659E-01; -2.6717563E+03;3;  1.0786007E+01;  0.0000000E+00;  4.3928680E+00;0;  9.4556606E-01;  2.8021475E+04;  0.0000000E+00;  5.5348103E+01;  4.0000000E+04;  0.0000000E+00;  3.7709387E+04;  8.2299364E-01;  0.0000000E+00;  1.2257242E-01;  3.9985719E+04;
  1.7586415E+00;  9.9999998E-03;  1.2397467E-01;9807;  1.4598280E+00;  0.0000000E+00;  2.6521549E-02;  9.9776172E+02;  1.2258704E-01; -1.6331161E+03;3;  1.3561933E+01;  0.0000000E+00;  6.0201745E+00;0;  8.2705760E-01;  2.8087023E+04;  0.0000000E+00;  5.3022854E+01;  4.0000000E+04;  0.0000000E+00;  3.7737559E+04;  6.8965781E-01;  0.0000000E+00;  1.3739978E-01;  3.6739199E+04;
  1.7590265E+00;  9.9999998E-03;  1.1338086E-01;9806;  1.4508377E+00;  0.0000000E+00;  2.2347063E-02;  9.9889441E+02;  1.2255856E-01; -8.0620593E+02;3;  1.4804271E+01;  0.0000000E+00;  7.3246951E+00;0;  7.2274059E-01;  2.8142008E+04;  0.0000000E+00;  4.6623390E+01;  4.0000000E+04;  0.0000000E+00;  3.7759492E+04;  5.7434016E-01;  0.0000000E+00;  1.4840041E-01;  3.1482764E+04;
  1.7594578E+00;  9.9999998E-03;  1.0281936E-01;9805;  1.4431049E+00;  0.0000000E+00;  1.7892800E-02;  9.9950574E+02;  1.2253651E-01; -3.6015884E+02;3;  1.4764353E+01;  0.0000000E+00;  7.9019775E+00;0;  6.3538867E-01;  2.8178240E+04;  0.0000000E+00;  3.7379654E+01;  4.0000000E+04;  0.0000000E+00;  3.7766512E+04;  4.7963428E-01;  0.0000000E+00;  1.5575440E-01;  2.5083654E+04;
  1.7599247E+00;  9.9999998E-03;  9.2350870E-02;9804;  1.4371871E+00;  0.0000000E+00;  1.3961417E-02;  9.9961694E+02;  1.2252070E-01; -2.7895056E+02;3;  1.4222492E+01;  0.0000000E+00;  7.7869959E+00;0;  5.6307387E-01;  2.8196357E+04;  0.0000000E+00;  2.7268633E+01;  4.0000000E+04;  0.0000000E+00;  3.7760156E+04;  4.0325505E-01;  0.0000000E+00;  1.5981884E-01;  1.8632314E+04;
  1.7603937E+00;  9.9999998E-03;  8.1970774E-02;9803;  1.4330859E+00;  0.0000000E+00;  1.0668146E-02;  9.9943304E+02;  1.2250642E-01; -4.1254559E+02;3;  1.3882658E+01;  0.0000000E+00;  6.8698225E+00;0;  5.0168300E-01;  2.8201182E+04;  0.0000000E+00;  1.8221756E+01;  4.0000000E+04;  0.0000000E+00;  3.7749449E+04;  3.4145892E-01;  0.0000000E+00;  1.6022408E-01;  1.3089630E+04;
  1.7608216E+00;  9.9999998E-03;  7.1645692E-02;9802;  1.4302237E+00;  0.0000000E+00;  8.1844945E-03;  9.9918530E+02;  1.2249699E-01; -5.9239734E+02;3;  1.3735386E+01;  0.0000000E+00;  5.6741791E+00;0;  4.4761887E-01;  2.8198547E+04;  0.0000000E+00;  1.1200800E+01;  4.0000000E+04;  0.0000000E+00;  3.7740969E+04;  2.9031053E-01;  0.0000000E+00;  1.5730834E-01;  8.8999492E+03;
  1.7673134E+00;  9.9999998E-03;  2.0648152E-01;9857;  1.4923236E+00;  0.0000000E+00;  2.9878434E-02;  1.0041738E+03;  1.2191256E-01;  3.0031941E+03;3; -3.3883766E+01;  0.0000000E+00; -8.4040861E+00;0;  1.6324606E+00;  2.8721348E+04;  0.0000000E+00;  5.6529793E+01;  4.0000000E+04;  0.0000000E+00;  3.7736484E+04;  1.6084763E+00;  0.0000000E+00;  2.3984311E-02;  1.9173406E+04;
  1.7677985E+00;  9.9999998E-03;  1.9639178E-01;9856;  1.4971490E+00;  0.0000000E+00;  3.2548439E-02;  1.0017136E+03;  1.2193207E-01;  1.2319464E+03;3; -2.3668892E+01;  0.0000000E+00; -6.6501689E+00;0;  1.5760247E+00;  2.8619727E+04;  0.0000000E+00;  4.6808734E+00;  4.0000000E+04;  0.0000000E+00;  3.7695211E+04;  1.5325053E+00;  0.0000000E+00;  4.3519337E-02;  4.1045660E+02;
  1.7681159E+00;  9.9999998E-03;  1.8625078E-01;9855;  1.4988151E+00;  0.0000000E+00;  3.4116346E-02;  1.0005894E+03;  1.2193891E-01;  4.2350772E+02;3; -1.5492752E+01;  0.0000000E+00; -4.7825670E+00;0;  1.4920837E+00;  2.8583566E+04;  0.0000000E+00; -1.3627055E+01;  4.0000000E+04;  0.0000000E+00;  3.7665113E+04;  1.4330014E+00;  0.0000000E+00;  5.9082292E-02;  3.4833489E+03;
  1.7684120E+00;  9.9999998E-03;  1.7608108E-01;9854;  1.4985015E+00;  0.0000000E+00;  3.5151999E-02;  9.9928448E+02;  1.2194467E-01; -5.1388092E+02;3; -8.1395283E+00;  0.0000000E+00; -3.0633113E+00;0;  1.3979843E+00;  2.8542328E+04;  0.0000000E+00; -7.0818901E+00;  4.0000000E+04;  0.0000000E+00;  3.7627957E+04;  1.3189930E+00;  0.0000000E+00;  7.8991331E-02;  3.7370872E+03;
  1.7687347E+00;  9.9999998E-03;  1.6589111E-01;9853;  1.4963558E+00;  0.0000000E+00;  3.5799671E-02;  9.9776599E+02;  1.2195077E-01; -1.6036134E+03;3; -1.0306003E+00;  0.0000000E+00; -8.6310446E-01;0;  1.2951577E+00;  2.8494973E+04;  0.0000000E+00;  9.0957136E+00;  4.0000000E+04;  0.0000000E+00;  3.7583652E+04;  1.1918737E+00;  0.0000000E+00;  1.0328395E-01;  1.3496309E+04;
  1.7690790E+00;  9.9999998E-03;  1.5567040E-01;9852;  1.4922140E+00;  0.0000000E+00;  3.5915092E-02;  9.9657648E+02;  1.2195273E-01; -2.4560596E+03;3;  5.5212002E+00;  0.0000000E+00;  1.5213946E+00;0;  1.1824594E+00;  2.8463219E+04;  0.0000000E+00;  2.5296196E+01;  4.0000000E+04;  0.0000000E+00;  3.7544422E+04;  1.0537819E+00;  0.0000000E+00;  1.2867753E-01;  2.2261469E+04;
  1.7694325E+00;  9.9999998E-03;  1.4540018E-01;9851;  1.4859657E+00;  0.0000000E+00;  3.5042897E-02;  9.9607098E+02;  1.2194762E-01; -2.8170244E+03;3;  1.0808429E+01;  0.0000000E+00;  4.6296067E+00;0;  1.0598282E+00;  2.8458639E+04;  0.0000000E+00;  3.7531643E+01;  4.0000000E+04;  0.0000000E+00;  3.7520145E+04;  9.0952295E-01;  0.0000000E+00;  1.5030526E-01;  2.8139672E+04;
  1.7697868E+00;  9.9999998E-03;  1.3505602E-01;9850;  1.4779545E+00;  0.0000000E+00;  3.2925200E-02;  9.9629749E+02;  1.2193242E-01; -2.6530300E+03;3;  1.4906070E+01;  0.0000000E+00;  6.9756036E+00;0;  9.3395293E-01;  2.8481135E+04;  0.0000000E+00;  4.5039783E+01;  4.0000000E+04;  0.0000000E+00;  3.7516328E+04;  7.6732463E-01;  0.0000000E+00;  1.6662833E-01;  3.0940527E+04;
  1.7701453E+00;  9.9999998E-03;  1.2462224E-01;9849;  1.4687966E+00;  0.0000000E+00;  2.9785065E-02;  9.9706238E+02;  1.2191322E-01; -2.1036509E+03;3;  1.7483805E+01;  0.0000000E+00;  8.6418905E+00;0;  8.1350732E-01;  2.8519865E+04;  0.0000000E+00;  4.8015755E+01;  4.0000000E+04;  0.0000000E+00;  3.7529656E+04;  6.3509947E-01;  0.0000000E+00;  1.7840788E-01;  3.1036051E+04;
  1.7705110E+00;  9.9999998E-03;  1.1410724E-01;9848;  1.4590088E+00;  0.0000000E+00;  2.5713427E-02;  9.9799286E+02;  1.2189078E-01; -1.4364205E+03;3;  1.8922089E+01;  0.0000000E+00;  9.6504469E+00;0;  7.0235163E-01;  2.8563105E+04;  0.0000000E+00;  4.6873264E+01;  4.0000000E+04;  0.0000000E+00;  3.7550508E+04;  5.1699704E-01;  0.0000000E+00;  1.8535458E-01;  2.8967477E+04;
  1.7708901E+00;  9.9999998E-03;  1.0355270E-01;9847;  1.4498098E+00;  0.0000000E+00;  2.1027874E-02;  9.9877417E+02;  1.2187122E-01; -8.7670599E+02;3;  1.8780663E+01;  0.0000000E+00;  1.0087370E+01;0;  6.0648555E-01;  2.8599834E+04;  0.0000000E+00;  4.2071999E+01;  4.0000000E+04;  0.0000000E+00;  3.7567711E+04;  4.1861907E-01;  0.0000000E+00;  1.8786648E-01;  2.5257570E+04;
  1.7712787E+00;  9.9999998E-03;  9.3018465E-02;9846;  1.4420135E+00;  0.0000000E+00;  1.6471006E-02;  9.9919440E+02;  1.2185540E-01; -5.7578638E+02;3;  1.7874901E+01;  0.0000000E+00;  9.6107769E+00;0;  5.2743858E-01;  2.8624729E+04;  0.0000000E+00;  3.4639652E+01;  4.0000000E+04;  0.0000000E+00;  3.7573781E+04;  3.4036636E-01;  0.0000000E+00;  1.8707222E-01;  2.0573164E+04;
  1.7716603E+00;  9.9999998E-03;  8.2524598E-02;9845;  1.4361681E+00;  0.0000000E+00;  1.2409372E-02;  9.9931000E+02;  1.2184289E-01; -4.9281644E+02;3;  1.6723969E+01;  0.0000000E+00;  8.5506458E+00;0;  4.6354938E-01;  2.8638086E+04;  0.0000000E+00;  2.6437281E+01;  4.0000000E+04;  0.0000000E+00;  3.7572625E+04;  2.8040117E-01;  0.0000000E+00;  1.8314821E-01;  1.5801185E+04;
  1.7720273E+00;  9.9999998E-03;  7.2025411E-02;9844;  1.4319146E+00;  0.0000000E+00;  9.0354960E-03;  9.9928064E+02;  1.2183718E-01; -5.1347766E+02;3;  1.5724424E+01;  0.0000000E+00;  7.0890121E+00;0;  4.0993610E-01;  2.8639393E+04;  0.0000000E+00;  1.9245304E+01;  4.0000000E+04;  0.0000000E+00;  3.7572199E+04;  2.3346131E-01;  0.0000000E+00;  1.7647479E-01;  1.1663004E+04;
  1.7796869E+00;  9.9999998E-03;  1.8654352E-01;9894;  1.5079342E+00;  0.0000000E+00;  3.9383747E-02;  1.0023065E+03;  1.2133817E-01;  1.6238772E+03;3; -1.1704900E+01;  0.0000000E+00; -1.9976966E+00;0;  1.4434993E+00;  2.9062443E+04;  0.0000000E+00;  1.5559613E+01;  4.0000000E+04;  0.0000000E+00;  3.7529777E+04;  1.3138652E+00;  0.0000000E+00;  1.2963414E-01;  3.8177859E+03;
  1.7800144E+00;  9.9999998E-03;  1.7638370E-01;9893;  1.5078813E+00;  0.0000000E+00;  4.0341273E-02;  1.0012368E+03;  1.2134459E-01;  8.7024603E+02;3; -3.5454178E+00;  0.0000000E+00;  4.0513092E-01;0;  1.3751878E+00;  2.9031109E+04;  0.0000000E+00; -1.0826336E+01;  4.0000000E+04;  0.0000000E+00;  3.7496660E+04;  1.2259144E+00;  0.0000000E+00;  1.4927344E-01;  3.2307913E+03;
  1.7803012E+00;  9.9999998E-03;  1.6618484E-01;9892;  1.5050631E+00;  0.0000000E+00;  3.9934762E-02;  1.0003558E+03;  1.2134958E-01;  2.5016223E+02;3;  3.3473728E+00;  0.0000000E+00;  2.9729404E+00;0;  1.2779156E+00;  2.9009062E+04;  0.0000000E+00; -1.1758369E+01;  4.0000000E+04;  0.0000000E+00;  3.7463160E+04;  1.1147798E+00;  0.0000000E+00;  1.6313574E-01;  1.0857605E+03;
  1.7805984E+00;  9.9999998E-03;  1.5595976E-01;9891;  1.5005215E+00;  0.0000000E+00;  3.9020281E-02;  9.9931543E+02;  1.2135071E-01; -4.8115396E+02;3;  9.3154860E+00;  0.0000000E+00;  5.5186944E+00;0;  1.1732924E+00;  2.8983736E+04;  0.0000000E+00; -9.8079123E-02;  4.0000000E+04;  0.0000000E+00;  3.7424855E+04;  9.9356848E-01;  0.0000000E+00;  1.7972395E-01;  6.3672490E+03;
  1.7809185E+00;  9.9999998E-03;  1.4570689E-01;9890;  1.4941739E+00;  0.0000000E+00;  3.7418045E-02;  9.9837207E+02;  1.2135278E-01; -1.1435300E+03;3;  1.4338050E+01;  0.0000000E+00;  7.7804260E+00;0;  1.0591773E+00;  2.8962117E+04;  0.0000000E+00;  1.4089542E+01;  4.0000000E+04;  0.0000000E+00;  3.7388031E+04;  8.6369842E-01;  0.0000000E+00;  1.9547890E-01;  1.3255827E+04;
  1.7812527E+00;  9.9999998E-03;  1.3541226E-01;9889;  1.4860140E+00;  0.0000000E+00;  3.4931116E-02;  9.9781158E+02;  1.2134791E-01; -1.5363079E+03;3;  1.8248346E+01;  0.0000000E+00;  9.4964371E+00;0;  9.3662041E-01;  2.8955438E+04;  0.0000000E+00;  2.5872015E+01;  4.0000000E+04;  0.0000000E+00;  3.7361805E+04;  7.2903854E-01;  0.0000000E+00;  2.0758189E-01;  1.8379914E+04;
  1.7815969E+00;  9.9999998E-03;  1.2505792E-01;9888;  1.4764553E+00;  0.0000000E+00;  3.1543080E-02;  9.9774176E+02;  1.2133966E-01; -1.5842847E+03;3;  2.1032259E+01;  0.0000000E+00;  1.1184897E+01;0;  8.1215566E-01;  2.8964248E+04;  0.0000000E+00;  3.3687366E+01;  4.0000000E+04;  0.0000000E+00;  3.7351078E+04;  5.9722489E-01;  0.0000000E+00;  2.1493076E-01;  2.1211307E+04;
  1.7819463E+00;  9.9999998E-03;  1.1463508E-01;9887;  1.4662391E+00;  0.0000000E+00;  2.7419465E-02;  9.9804462E+02;  1.2132736E-01; -1.3709178E+03;3;  2.2435097E+01;  0.0000000E+00;  1.2441989E+01;0;  6.9427061E-01;  2.8983967E+04;  0.0000000E+00;  3.7446823E+01;  4.0000000E+04;  0.0000000E+00;  3.7354219E+04;  4.7660634E-01;  0.0000000E+00;  2.1766430E-01;  2.1916842E+04;
  1.7822971E+00;  9.9999998E-03;  1.0415260E-01;9886;  1.4562030E+00;  0.0000000E+00;  2.2713827E-02;  9.9849182E+02;  1.2131312E-01; -1.0566796E+03;3;  2.2413898E+01;  0.0000000E+00;  1.2167277E+01;0;  5.8911669E-01;  2.9007334E+04;  0.0000000E+00;  3.7493740E+01;  4.0000000E+04;  0.0000000E+00;  3.7363855E+04;  3.7324712E-01;  0.0000000E+00;  2.1586956E-01;  2.0881230E+04;
  1.7826474E+00;  9.9999998E-03;  9.3641415E-02;9885;  1.4472479E+00;  0.0000000E+00;  1.8120261E-02;  9.9887531E+02;  1.2130044E-01; -7.8746820E+02;3;  2.1508741E+01;  0.0000000E+00;  1.1537045E+01;0;  5.0163406E-01;  2.9026955E+04;  0.0000000E+00;  3.4317768E+01;  4.0000000E+04;  0.0000000E+00;  3.7372035E+04;  2.9064083E-01;  0.0000000E+00;  2.1099323E-01;  1.8525857E+04;
  1.7829858E+00;  9.9999998E-03;  8.3116598E-02;9884;  1.4400476E+00;  0.0000000E+00;  1.3942662E-02;  9.9911792E+02;  1.2129085E-01; -6.1721765E+02;3;  1.9999826E+01;  0.0000000E+00;  1.0142546E+01;0;  4.3226919E-01;  2.9040506E+04;  0.0000000E+00;  2.9242632E+01;  4.0000000E+04;  0.0000000E+00;  3.7377555E+04;  2.2896650E-01;  0.0000000E+00;  2.0330268E-01;  1.5492978E+04;
  1.7832989E+00;  9.9999998E-03;  7.2545290E-02;9883;  1.4345034E+00;  0.0000000E+00;  1.0432451E-02;  9.9929083E+02;  1.2128235E-01; -4.9593188E+02;3;  1.8218388E+01;  0.0000000E+00;  8.8282566E+00;0;  3.7665725E-01;  2.9047799E+04;  0.0000000E+00;  2.4102074E+01;  4.0000000E+04;  0.0000000E+00;  3.7385895E+04;  1.8337722E-01;  0.0000000E+00;  1.9328003E-01;  1.2493770E+04;
  1.7914897E+00;  9.9999998E-03;  1.7663066E-01;9929;  1.5128173E+00;  0.0000000E+00;  4.4582844E-02;  1.0032029E+03;  1.2084161E-01;  2.2042097E+03;3; -1.3483219E+00;  0.0000000E+00;  4.1049838E+00;0;  1.3262979E+00;  2.9480205E+04;  0.0000000E+00;  3.5160908E+01;  4.0000000E+04;  0.0000000E+00;  3.7365957E+04;  1.1096725E+00;  0.0000000E+00;  2.1662533E-01;  9.1941768E+03;
  1.7918488E+00;  9.9999998E-03;  1.6645761E-01;9928;  1.5112591E+00;  0.0000000E+00;  4.4076186E-02;  1.0019274E+03;  1.2085263E-01;  1.3254384E+03;3;  5.6498013E+00;  0.0000000E+00;  7.5318775E+00;0;  1.2639862E+00;  2.9441238E+04;  0.0000000E+00; -1.0729439E+00;  4.0000000E+04;  0.0000000E+00;  3.7325570E+04;  1.0354233E+00;  0.0000000E+00;  2.2856298E-01;  1.3598251E+03;
  1.7921408E+00;  9.9999998E-03;  1.5623131E-01;9927;  1.5069152E+00;  0.0000000E+00;  4.1973818E-02;  1.0013032E+03;  1.2085503E-01;  8.9566687E+02;3;  1.1793109E+01;  0.0000000E+00;  9.6225681E+00;0;  1.1689131E+00;  2.9432100E+04;  0.0000000E+00; -1.2406160E+01;  4.0000000E+04;  0.0000000E+00;  3.7295621E+04;  9.3647957E-01;  0.0000000E+00;  2.3243359E-01;  2.5423523E+03;
  1.7924267E+00;  9.9999998E-03;  1.4596990E-01;9926;  1.5008413E+00;  0.0000000E+00;  3.9472196E-02;  1.0006777E+03;  1.2085394E-01;  4.6550684E+02;3;  1.6956512E+01;  0.0000000E+00;  1.1246989E+01;0;  1.0659993E+00;  2.9424117E+04;  0.0000000E+00; -8.1640291E+00;  4.0000000E+04;  0.0000000E+00;  3.7264664E+04;  8.2675028E-01;  0.0000000E+00;  2.3924905E-01;  9.0198993E+02;
  1.7927278E+00;  9.9999998E-03;  1.3567877E-01;9925;  1.4927943E+00;  0.0000000E+00;  3.6323249E-02;  1.0000183E+03;  1.2085465E-01;  1.2602338E+01;3;  2.1008736E+01;  0.0000000E+00;  1.2880899E+01;0;  9.4890237E-01;  2.9413400E+04;  0.0000000E+00;  2.0368497E+00;  4.0000000E+04;  0.0000000E+00;  3.7233410E+04;  7.0444661E-01;  0.0000000E+00;  2.4445574E-01;  5.4874038E+03;
  1.7930427E+00;  9.9999998E-03;  1.2535454E-01;9924;  1.4829825E+00;  0.0000000E+00;  3.2208979E-02;  9.9949402E+02;  1.2085368E-01; -3.4711960E+02;3;  2.3759228E+01;  0.0000000E+00;  1.4085972E+01;0;  8.1960189E-01;  2.9407016E+04;  0.0000000E+00;  1.2164330E+01;  4.0000000E+04;  0.0000000E+00;  3.7206809E+04;  5.7492495E-01;  0.0000000E+00;  2.4467696E-01;  9.5330771E+03;
  1.7933655E+00;  9.9999998E-03;  1.1498877E-01;9923;  1.4724443E+00;  0.0000000E+00;  2.7593017E-02;  9.9919879E+02;  1.2085004E-01; -5.4928900E+02;3;  2.5329168E+01;  0.0000000E+00;  1.4373759E+01;0;  6.9373518E-01;  2.9407264E+04;  0.0000000E+00;  1.9602703E+01;  4.0000000E+04;  0.0000000E+00;  3.7188918E+04;  4.5188284E-01;  0.0000000E+00;  2.4185233E-01;  1.2127851E+04;
  1.7936907E+00;  9.9999998E-03;  1.0457502E-01;9922;  1.4618591E+00;  0.0000000E+00;  2.2868058E-02;  9.9912421E+02;  1.2084400E-01; -6.0001105E+02;3;  2.5560640E+01;  0.0000000E+00;  1.4154799E+01;0;  5.7878399E-01;  2.9412742E+04;  0.0000000E+00;  2.3788103E+01;  4.0000000E+04;  0.0000000E+00;  3.7180508E+04;  3.4237149E-01;  0.0000000E+00;  2.3641248E-01;  1.3199237E+04;
  1.7940108E+00;  9.9999998E-03;  9.4115376E-02;9921;  1.4521277E+00;  0.0000000E+00;  1.8269204E-02;  9.9918475E+02;  1.2083641E-01; -5.5819641E+02;3;  2.4692419E+01;  0.0000000E+00;  1.3104019E+01;0;  4.8123890E-01;  2.9420305E+04;  0.0000000E+00;  2.4993582E+01;  4.0000000E+04;  0.0000000E+00;  3.7178898E+04;  2.5304872E-01;  0.0000000E+00;  2.2819018E-01;  1.2995567E+04;
  1.7943168E+00;  9.9999998E-03;  8.3605736E-02;9920;  1.4439982E+00;  0.0000000E+00;  1.4376488E-02;  9.9931738E+02;  1.2082846E-01; -4.6706085E+02;3;  2.3180820E+01;  0.0000000E+00;  1.1623953E+01;0;  4.0506941E-01;  2.9427928E+04;  0.0000000E+00;  2.4180647E+01;  4.0000000E+04;  0.0000000E+00;  3.7183621E+04;  1.8682559E-01;  0.0000000E+00;  2.1824384E-01;  1.1955364E+04;
  1.7946000E+00;  9.9999998E-03;  7.3045604E-02;9919;  1.4375262E+00;  0.0000000E+00;  1.1140364E-02;  9.9947913E+02;  1.2082201E-01; -3.5620602E+02;3;  2.1237740E+01;  0.0000000E+00;  1.0117885E+01;0;  3.4595293E-01;  2.9433193E+04;  0.0000000E+00;  2.2179766E+01;  4.0000000E+04;  0.0000000E+00;  3.7192492E+04;  1.3979986E-01;  0.0000000E+00;  2.0615308E-01;  1.0453469E+04;
  1.8032053E+00;  9.9999998E-03;  1.6663882E-01;9962;  1.5131172E+00;  0.0000000E+00;  4.7525741E-02;  1.0045567E+03;  1.2042920E-01;  3.0599541E+03;3;  6.6456656E+00;  0.0000000E+00;  1.0807740E+01;0;  1.2169615E+00;  2.9881088E+04;  0.0000000E+00;  6.4725594E+01;  4.0000000E+04;  0.0000000E+00;  3.7211828E+04;  9.2364472E-01;  0.0000000E+00;  2.9331681E-01;  1.6179801E+04;
  1.8036040E+00;  9.9999998E-03;  1.5646403E-01;9961;  1.5103483E+00;  0.0000000E+00;  4.4586323E-02;  1.0028059E+03;  1.2044558E-01;  1.8826642E+03;3;  1.2879091E+01;  0.0000000E+00;  1.3799762E+01;0;  1.1490669E+00;  2.9825955E+04;  0.0000000E+00;  1.8802341E+01;  4.0000000E+04;  0.0000000E+00;  3.7155680E+04;  8.6385244E-01;  0.0000000E+00;  2.8521448E-01;  4.4483433E+03;
  1.8039211E+00;  9.9999998E-03;  1.4622523E-01;9960;  1.5050435E+00;  0.0000000E+00;  4.0935293E-02;  1.0020659E+03;  1.2045132E-01;  1.3851686E+03;3;  1.8075388E+01;  0.0000000E+00;  1.5352435E+01;0;  1.0593209E+00;  2.9813461E+04;  0.0000000E+00; -4.7082782E+00;  4.0000000E+04;  0.0000000E+00;  3.7120488E+04;  7.8082693E-01;  0.0000000E+00;  2.7849403E-01;  1.8796184E+03;
  1.8042089E+00;  9.9999998E-03;  1.3593668E-01;9959;  1.4975846E+00;  0.0000000E+00;  3.6713321E-02;  1.0016503E+03;  1.2045119E-01;  1.1057633E+03;3;  2.2211403E+01;  0.0000000E+00;  1.6195114E+01;0;  9.5161307E-01;  2.9813338E+04;  0.0000000E+00; -1.0890712E+01;  4.0000000E+04;  0.0000000E+00;  3.7093535E+04;  6.7909104E-01;  0.0000000E+00;  2.7252203E-01;  1.9584775E+03;
  1.8044965E+00;  9.9999998E-03;  1.2561196E-01;9958;  1.4885441E+00;  0.0000000E+00;  3.2218039E-02;  1.0012350E+03;  1.2045148E-01;  8.2702643E+02;3;  2.5506353E+01;  0.0000000E+00;  1.6489214E+01;0;  8.3382404E-01;  2.9811834E+04;  0.0000000E+00; -7.6092792E+00;  4.0000000E+04;  0.0000000E+00;  3.7067648E+04;  5.6660455E-01;  0.0000000E+00;  2.6721945E-01;  1.1541805E+02;
  1.8047881E+00;  9.9999998E-03;  1.1525220E-01;9957;  1.4781110E+00;  0.0000000E+00;  2.7358957E-02;  1.0008480E+03;  1.2045041E-01;  5.6754071E+02;3;  2.7300352E+01;  0.0000000E+00;  1.6497898E+01;0;  7.0643479E-01;  2.9809709E+04;  0.0000000E+00; -1.0184593E+00;  4.0000000E+04;  0.0000000E+00;  3.7044602E+04;  4.4677711E-01;  0.0000000E+00;  2.5965768E-01;  2.6587996E+03;
  1.8050829E+00;  9.9999998E-03;  1.0486024E-01;9956;  1.4674256E+00;  0.0000000E+00;  2.2456147E-02;  1.0005028E+03;  1.2044872E-01;  3.3628671E+02;3;  2.8063629E+01;  0.0000000E+00;  1.5688147E+01;0;  5.8461654E-01;  2.9806842E+04;  0.0000000E+00;  5.1782007E+00;  4.0000000E+04;  0.0000000E+00;  3.7025543E+04;  3.3441812E-01;  0.0000000E+00;  2.5019842E-01;  4.7267925E+03;
  1.8053714E+00;  9.9999998E-03;  9.4425634E-02;9955;  1.4572468E+00;  0.0000000E+00;  1.8044153E-02;  1.0002928E+03;  1.2044574E-01;  1.9568472E+02;3;  2.7587343E+01;  0.0000000E+00;  1.4572075E+01;0;  4.7748223E-01;  2.9806504E+04;  0.0000000E+00;  9.7768631E+00;  4.0000000E+04;  0.0000000E+00;  3.7013934E+04;  2.3770016E-01;  0.0000000E+00;  2.3978207E-01;  5.9983145E+03;
  1.8056488E+00;  9.9999998E-03;  8.3941780E-02;9954;  1.4482167E+00;  0.0000000E+00;  1.4203104E-02;  1.0002115E+03;  1.2044095E-01;  1.4133919E+02;3;  2.6275064E+01;  0.0000000E+00;  1.3021263E+01;0;  3.8896674E-01;  2.9806424E+04;  0.0000000E+00;  1.2618240E+01;  4.0000000E+04;  0.0000000E+00;  3.7010426E+04;  1.6134122E-01;  0.0000000E+00;  2.2762550E-01;  6.5022798E+03;
  1.8059076E+00;  9.9999998E-03;  7.3415577E-02;9953;  1.4408393E+00;  0.0000000E+00;  1.1076604E-02;  1.0002010E+03;  1.2043709E-01;  1.3425560E+02;3;  2.4316195E+01;  0.0000000E+00;  1.1340575E+01;0;  3.2126892E-01;  2.9806148E+04;  0.0000000E+00;  1.3747902E+01;  4.0000000E+04;  0.0000000E+00;  3.7012320E+04;  1.0731624E-01;  0.0000000E+00;  2.1395266E-01;  6.3555278E+03;
  1.8152708E+00;  9.9999998E-03;  1.4638391E-01;9991;  1.5065131E+00;  0.0000000E+00;  4.2510103E-02;  1.0040848E+03;  1.2010818E-01;  2.6700544E+03;3;  1.7919703E+01;  0.0000000E+00;  1.8932814E+01;0;  1.0349796E+00;  3.0193447E+04;  0.0000000E+00;  5.0109711E+01;  4.0000000E+04;  0.0000000E+00;  3.6998180E+04;  7.1453518E-01;  0.0000000E+00;  3.2044443E-01;  1.1255914E+04;
  1.8156177E+00;  9.9999998E-03;  1.3614897E-01;9990;  1.5002663E+00;  0.0000000E+00;  3.7293110E-02;  1.0029014E+03;  1.2011722E-01;  1.8950123E+03;3;  2.2281208E+01;  0.0000000E+00;  1.9517246E+01;0;  9.4278455E-01;  3.0167650E+04;  0.0000000E+00;  1.5511435E+01;  4.0000000E+04;  0.0000000E+00;  3.6946789E+04;  6.4237708E-01;  0.0000000E+00;  3.0040744E-01;  3.7090789E+03;
  1.8159177E+00;  9.9999998E-03;  1.2585090E-01;9989;  1.4926496E+00;  0.0000000E+00;  3.2185484E-02;  1.0023531E+03;  1.2012112E-01;  1.5357959E+03;3;  2.5813223E+01;  0.0000000E+00;  1.9220142E+01;0;  8.4593308E-01;  3.0163740E+04;  0.0000000E+00; -2.4972520E+00;  4.0000000E+04;  0.0000000E+00;  3.6914301E+04;  5.5989212E-01;  0.0000000E+00;  2.8604099E-01;  1.7049093E+03;
  1.8161963E+00;  9.9999998E-03;  1.1550269E-01;9988;  1.4832826E+00;  0.0000000E+00;  2.7175706E-02;  1.0020486E+03;  1.2012116E-01;  1.3362205E+03;3;  2.8277277E+01;  0.0000000E+00;  1.8478765E+01;0;  7.3325235E-01;  3.0166307E+04;  0.0000000E+00; -8.7311258E+00;  4.0000000E+04;  0.0000000E+00;  3.6891027E+04;  4.5967501E-01;  0.0000000E+00;  2.7357733E-01;  1.8489352E+03;
  1.8164653E+00;  9.9999998E-03;  1.0510927E-01;9987;  1.4733288E+00;  0.0000000E+00;  2.2570478E-02;  1.0018266E+03;  1.2011970E-01;  1.1906990E+03;3;  2.9698675E+01;  0.0000000E+00;  1.7516798E+01;0;  6.2007731E-01;  3.0168799E+04;  0.0000000E+00; -8.3127985E+00;  4.0000000E+04;  0.0000000E+00;  3.6874098E+04;  3.5791892E-01;  0.0000000E+00;  2.6215839E-01;  1.1125409E+03;
  1.8167280E+00;  9.9999998E-03;  9.4677180E-02;9986;  1.4630811E+00;  0.0000000E+00;  1.8172126E-02;  1.0016110E+03;  1.2011933E-01;  1.0494883E+03;3;  2.9942678E+01;  0.0000000E+00;  1.6233385E+01;0;  5.0640517E-01;  3.0167869E+04;  0.0000000E+00; -5.1252708E+00;  4.0000000E+04;  0.0000000E+00;  3.6860699E+04;  2.5773123E-01;  0.0000000E+00;  2.4867393E-01;  3.5225247E+02;
  1.8169788E+00;  9.9999998E-03;  8.4211111E-02;9985;  1.4532853E+00;  0.0000000E+00;  1.4179191E-02;  1.0014222E+03;  1.2011793E-01;  9.2593671E+02;3;  2.8986101E+01;  0.0000000E+00;  1.4582003E+01;0;  4.0169114E-01;  3.0165951E+04;  0.0000000E+00; -1.5656185E+00;  4.0000000E+04;  0.0000000E+00;  3.6850645E+04;  1.6815788E-01;  0.0000000E+00;  2.3353326E-01;  1.1078468E+03;
  1.8172134E+00;  9.9999998E-03;  7.3710866E-02;9984;  1.4449303E+00;  0.0000000E+00;  1.0911562E-02;  1.0012785E+03;  1.2011644E-01;  8.3195831E+02;3;  2.7316757E+01;  0.0000000E+00;  1.2739681E+01;0;  3.1802791E-01;  3.0163367E+04;  0.0000000E+00;  1.2924638E+00;  4.0000000E+04;  0.0000000E+00;  3.6844484E+04;  1.0017456E-01;  0.0000000E+00;  2.1785334E-01;  1.7147616E+03;
  1.8272181E+00;  9.9999998E-03;  1.2597121E-01;10016;  1.4938713E+00;  0.0000000E+00;  3.2280158E-02;  1.0041641E+03;  1.1984180E-01;  2.6461355E+03;3;  2.5502987E+01;  0.0000000E+00;  2.2207462E+01;0;  8.2912838E-01;  3.0505084E+04;  0.0000000E+00;  4.8621994E+01;  4.0000000E+04;  0.0000000E+00;  3.6792422E+04;  5.2451223E-01;  0.0000000E+00;  3.0461618E-01;  1.0066860E+04;
  1.8275316E+00;  9.9999998E-03;  1.1568268E-01;10015;  1.4861490E+00;  0.0000000E+00;  2.6891535E-02;  1.0032112E+03;  1.1984890E-01;  2.0390950E+03;3;  2.7865322E+01;  0.0000000E+00;  2.1204268E+01;0;  7.4067533E-01;  3.0489713E+04;  0.0000000E+00;  2.0553772E+01;  4.0000000E+04;  0.0000000E+00;  3.6743367E+04;  4.5646411E-01;  0.0000000E+00;  2.8421125E-01;  4.5891553E+03;
  1.8278072E+00;  9.9999998E-03;  1.0533442E-01;10014;  1.4772999E+00;  0.0000000E+00;  2.2060249E-02;  1.0027283E+03;  1.1985199E-01;  1.7312970E+03;3;  2.9647686E+01;  0.0000000E+00;  1.9711229E+01;0;  6.4320612E-01;  3.0487926E+04;  0.0000000E+00;  4.0692382E+00;  4.0000000E+04;  0.0000000E+00;  3.6712301E+04;  3.7558296E-01;  0.0000000E+00;  2.6762319E-01;  2.0638506E+03;
  1.8280593E+00;  9.9999998E-03;  9.4931915E-02;10013;  1.4680303E+00;  0.0000000E+00;  1.7800028E-02;  1.0024689E+03;  1.1985214E-01;  1.5657363E+03;3;  3.0771360E+01;  0.0000000E+00;  1.7838324E+01;0;  5.4310310E-01;  3.0489547E+04;  0.0000000E+00; -3.9549000E+00;  4.0000000E+04;  0.0000000E+00;  3.6692977E+04;  2.9092315E-01;  0.0000000E+00;  2.5217995E-01;  1.7209764E+03;
  1.8282927E+00;  9.9999998E-03;  8.4485322E-02;10012;  1.4585340E+00;  0.0000000E+00;  1.4012169E-02;  1.0023010E+03;  1.1985167E-01;  1.4583920E+03;3;  3.0722267E+01;  0.0000000E+00;  1.6063604E+01;0;  4.3963996E-01;  3.0491195E+04;  0.0000000E+00; -6.7232223E+00;  4.0000000E+04;  0.0000000E+00;  3.6680082E+04;  2.0375517E-01;  0.0000000E+00;  2.3588479E-01;  1.6964313E+03;
  1.8285071E+00;  9.9999998E-03;  7.4006535E-02;10011;  1.4496977E+00;  0.0000000E+00;  1.0802107E-02;  1.0021608E+03;  1.1985044E-01;  1.3688262E+03;3;  2.9607702E+01;  0.0000000E+00;  1.4164641E+01;0;  3.4495282E-01;  3.0491553E+04;  0.0000000E+00; -6.7841563E+00;  4.0000000E+04;  0.0000000E+00;  3.6670734E+04;  1.2590125E-01;  0.0000000E+00;  2.1905158E-01;  1.4910294E+03;
  1.8393174E+00;  9.9999998E-03;  9.5068701E-02;10035;  1.4697119E+00;  0.0000000E+00;  1.6353253E-02;  1.0036265E+03;  1.1962892E-01;  2.2369695E+03;3;  3.0291382E+01;  0.0000000E+00;  1.9678873E+01;0;  5.3400064E-01;  3.0789113E+04;  0.0000000E+00;  3.1482592E+01;  4.0000000E+04;  0.0000000E+00;  3.6547848E+04;  2.8733191E-01;  0.0000000E+00;  2.4666871E-01;  6.2732324E+03;
  1.8395567E+00;  9.9999998E-03;  8.4679812E-02;10034;  1.4613575E+00;  0.0000000E+00;  1.2695163E-02;  1.0031341E+03;  1.1963352E-01;  1.9321217E+03;3;  3.0537788E+01;  0.0000000E+00;  1.7420067E+01;0;  4.4991434E-01;  3.0785748E+04;  0.0000000E+00;  1.5611428E+01;  4.0000000E+04;  0.0000000E+00;  3.6516387E+04;  2.1996814E-01;  0.0000000E+00;  2.2994618E-01;  3.6466335E+03;
  1.8397676E+00;  9.9999998E-03;  7.4247248E-02;10033;  1.4532310E+00;  0.0000000E+00;  9.8156361E-03;  1.0028389E+03;  1.1963683E-01;  1.7492394E+03;3;  3.0238541E+01;  0.0000000E+00;  1.5244334E+01;0;  3.6739326E-01;  3.0785039E+04;  0.0000000E+00;  5.9122024E+00;  4.0000000E+04;  0.0000000E+00;  3.6495578E+04;  1.5311787E-01;  0.0000000E+00;  2.1427538E-01;  2.3122139E+03;
  2.3455818E-03;  9.9999998E-03;  2.3990245E-01;2501;  5.4480364E-03;  0.0000000E+00; -5.6475884E-04;  9.9023816E+02;  1.0000000E-01; -8.0875244E+03;3;  6.7323059E+01;  0.0000000E+00; -2.3482700E+01;0;  2.1874694E-02;  3.9212805E+04;  0.0000000E+00; -5.5161446E-01;  4.0000000E+04;  0.0000000E+00;  4.0017078E+04;  2.2314008E-02;  0.0000000E+00; -4.3931406E-04;  3.0603809E+03;
  1.9604450E-03;  9.9999998E-03;  2.4987398E-01;2502;  4.9383752E-03;  0.0000000E+00; -7.0965319E-04;  9.9133179E+02;  1.0000000E-01; -7.1814268E+03;3;  5.8546387E+01;  0.0000000E+00; -2.5188637E+01;0;  2.0677445E-02;  3.9300152E+04;  0.0000000E+00; -4.9636754E-01;  4.0000000E+04;  0.0000000E+00;  4.0014723E+04;  2.0715712E-02;  0.0000000E+00; -3.8265949E-05;  2.5787085E+03;
  1.5341042E-03;  9.9999998E-03;  2.5984675E-01;2503;  4.2951196E-03;  0.0000000E+00; -8.4833242E-04;  9.9246545E+02;  1.0000000E-01; -6.2422432E+03;3;  4.8808266E+01;  0.0000000E+00; -2.6805723E+01;0;  1.9234659E-02;  3.9393164E+04;  0.0000000E+00; -4.3849838E-01;  4.0000000E+04;  0.0000000E+00;  4.0007594E+04;  1.8804837E-02;  0.0000000E+00;  4.2982236E-04;  1.8330784E+03;
  1.0815837E-03;  9.9999998E-03;  2.6983461E-01;2504;  3.5096889E-03;  0.0000000E+00; -9.4757800E-04;  9.9361310E+02;  1.0000000E-01; -5.2914058E+03;3;  3.8939915E+01;  0.0000000E+00; -2.8512474E+01;0;  1.7549459E-02;  3.9488488E+04;  0.0000000E+00; -3.8670000E-01;  4.0000000E+04;  0.0000000E+00;  4.0001406E+04;  1.6637105E-02;  0.0000000E+00;  9.1235363E-04;  9.4410352E+02;
  6.3778157E-04;  9.9999998E-03;  2.7985063E-01;2505;  2.5768215E-03;  0.0000000E+00; -9.2332478E-04;  9.9471887E+02;  1.0000000E-01; -4.3753330E+03;3;  3.0032187E+01;  0.0000000E+00; -3.0271832E+01;0;  1.5635356E-02;  3.9582176E+04;  0.0000000E+00; -3.4458682E-01;  4.0000000E+04;  0.0000000E+00;  3.9994703E+04;  1.4298253E-02;  0.0000000E+00;  1.3371038E-03;  5.5196484E+02;
  2.2741139E-04;  9.9999998E-03;  2.8991261E-01;2506;  1.1311222E-03;  0.0000000E+00; -2.1210145E-04;  9.9576031E+02;  1.0000000E-01; -3.5124932E+03;3;  2.2953175E+01;  0.0000000E+00; -3.0682693E+01;0;  1.3513987E-02;  3.9670418E+04;  0.0000000E+00; -3.0976662E-01;  4.0000000E+04;  0.0000000E+00;  3.9987801E+04;  1.1922050E-02;  0.0000000E+00;  1.5919367E-03;  1.2738185E+03;
  1.2180414E-02;  9.9999998E-03;  2.3990944E-01;2561;  4.8653153E-03;  0.0000000E+00; -6.0081226E-04;  9.9204651E+02;  1.0000000E-01; -6.5892949E+03;3;  4.8939644E+01;  0.0000000E+00; -1.8796349E+01;0;  1.9394344E-02;  3.9352176E+04;  0.0000000E+00; -6.8063939E-01;  4.0000000E+04;  0.0000000E+00;  4.0019766E+04;  1.9856889E-02;  0.0000000E+00; -4.6254543E-04;  3.1930837E+03;
  1.1839733E-02;  9.9999998E-03;  2.4986859E-01;2562;  4.4502015E-03;  0.0000000E+00; -7.4440968E-04;  9.9288098E+02;  1.0000000E-01; -5.8979565E+03;3;  4.3293770E+01;  0.0000000E+00; -2.0084782E+01;0;  1.8511657E-02;  3.9419266E+04;  0.0000000E+00; -6.0165370E-01;  4.0000000E+04;  0.0000000E+00;  4.0016449E+04;  1.8576708E-02;  0.0000000E+00; -6.5050088E-05;  2.7832854E+03;
  1.1448849E-02;  9.9999998E-03;  2.5982490E-01;2563;  3.8870631E-03;  0.0000000E+00; -8.8926568E-04;  9.9376489E+02;  1.0000000E-01; -5.1656812E+03;3;  3.6432701E+01;  0.0000000E+00; -2.1564144E+01;0;  1.7423633E-02;  3.9492312E+04;  0.0000000E+00; -5.2564263E-01;  4.0000000E+04;  0.0000000E+00;  4.0010328E+04;  1.7012397E-02;  0.0000000E+00;  4.1123689E-04;  2.0724314E+03;
  1.1015422E-02;  9.9999998E-03;  2.6979226E-01;2564;  3.1787443E-03;  0.0000000E+00; -1.0129713E-03;  9.9465454E+02;  1.0000000E-01; -4.4286157E+03;3;  2.9150070E+01;  0.0000000E+00; -2.3608294E+01;0;  1.6115716E-02;  3.9568777E+04;  0.0000000E+00; -4.6509317E-01;  4.0000000E+04;  0.0000000E+00;  4.0003605E+04;  1.5201604E-02;  0.0000000E+00;  9.1411243E-04;  1.1692350E+03;
  1.0582767E-02;  9.9999998E-03;  2.7977967E-01;2565;  2.3446691E-03;  0.0000000E+00; -1.0668812E-03;  9.9553101E+02;  1.0000000E-01; -3.7024631E+03;3;  2.2200373E+01;  0.0000000E+00; -2.6239769E+01;0;  1.4577891E-02;  3.9644949E+04;  0.0000000E+00; -4.2369005E-01;  4.0000000E+04;  0.0000000E+00;  3.9996160E+04;  1.3207192E-02;  0.0000000E+00;  1.3706991E-03;  6.1190546E+02;
  1.0195800E-02;  9.9999998E-03;  2.8979623E-01;2566;  1.2258526E-03;  0.0000000E+00; -7.7334984E-04;  9.9636090E+02;  1.0000000E-01; -3.0149270E+03;3;  1.6269934E+01;  0.0000000E+00; -2.8946318E+01;0;  1.2826151E-02;  3.9718320E+04;  0.0000000E+00; -3.9493617E-01;  4.0000000E+04;  0.0000000E+00;  3.9988633E+04;  1.1136502E-02;  0.0000000E+00;  1.6896494E-03;  1.2973300E+03;
  9.8827071E-03;  9.9999998E-03;  2.9984170E-01;2567; -6.1758103E-05;  0.0000000E+00;  4.0961273E-05;  9.9711853E+02;  1.0000000E-01; -2.3872412E+03;3;  1.1114358E+01;  0.0000000E+00; -2.9968431E+01;0;  1.0900659E-02;  3.9784484E+04;  0.0000000E+00; -3.6581951E-01;  4.0000000E+04;  0.0000000E+00;  3.9982145E+04;  9.0823108E-03;  0.0000000E+00;  1.8183482E-03;  2.0859470E+03;
  2.1969991E-02;  9.9999998E-03;  2.3996623E-01;2622;  4.2757466E-03;  0.0000000E+00; -5.5650016E-04;  9.9417004E+02;  1.0000000E-01; -4.8299868E+03;3;  2.9466555E+01;  0.0000000E+00; -1.2623842E+01;0;  1.6673099E-02;  3.9517434E+04;  0.0000000E+00; -7.9033750E-01;  4.0000000E+04;  0.0000000E+00;  4.0019926E+04;  1.7143831E-02;  0.0000000E+00; -4.7073141E-04;  3.2152095E+03;
  2.1668177E-02;  9.9999998E-03;  2.4992500E-01;2623;  3.9316663E-03;  0.0000000E+00; -6.8403495E-04;  9.9472009E+02;  1.0000000E-01; -4.3742959E+03;3;  2.7136486E+01;  0.0000000E+00; -1.3179059E+01;0;  1.6086452E-02;  3.9561637E+04;  0.0000000E+00; -7.0149612E-01;  4.0000000E+04;  0.0000000E+00;  4.0018496E+04;  1.6184760E-02;  0.0000000E+00; -9.8308781E-05;  2.9137610E+03;
  2.1312334E-02;  9.9999998E-03;  2.5987640E-01;2624;  3.4394350E-03;  0.0000000E+00; -8.1768853E-04;  9.9530688E+02;  1.0000000E-01; -3.8881370E+03;3;  2.3624598E+01;  0.0000000E+00; -1.4303061E+01;0;  1.5333998E-02;  3.9611621E+04;  0.0000000E+00; -6.1916345E-01;  4.0000000E+04;  0.0000000E+00;  4.0013449E+04;  1.4973784E-02;  0.0000000E+00;  3.6021415E-04;  2.2882998E+03;
  2.0903060E-02;  9.9999998E-03;  2.6983652E-01;2625;  2.8086125E-03;  0.0000000E+00; -9.3976152E-04;  9.9591412E+02;  1.0000000E-01; -3.3850894E+03;3;  1.9405611E+01;  0.0000000E+00; -1.6439535E+01;0;  1.4386549E-02;  3.9665457E+04;  0.0000000E+00; -5.5804050E-01;  4.0000000E+04;  0.0000000E+00;  4.0006477E+04;  1.3532619E-02;  0.0000000E+00;  8.5392990E-04;  1.4321536E+03;
  2.0478643E-02;  9.9999998E-03;  2.7981555E-01;2626;  2.0397671E-03;  0.0000000E+00; -1.0063921E-03;  9.9651892E+02;  1.0000000E-01; -2.8840171E+03;3;  1.5091218E+01;  0.0000000E+00; -1.9731491E+01;0;  1.3217936E-02;  3.9720875E+04;  0.0000000E+00; -5.2127695E-01;  4.0000000E+04;  0.0000000E+00;  3.9998617E+04;  1.1907692E-02;  0.0000000E+00;  1.3102442E-03;  7.4487518E+02;
  2.0095184E-02;  9.9999998E-03;  2.8981462E-01;2627;  9.9445519E-04;  0.0000000E+00; -7.7705149E-04;  9.9711047E+02;  1.0000000E-01; -2.3939077E+03;3;  1.1083178E+01;  0.0000000E+00; -2.3699106E+01;0;  1.1826958E-02;  3.9775410E+04;  0.0000000E+00; -4.9891081E-01;  4.0000000E+04;  0.0000000E+00;  3.9990191E+04;  1.0183289E-02;  0.0000000E+00;  1.6436686E-03;  1.2092565E+03;
  1.9797962E-02;  9.9999998E-03;  2.9982880E-01;2628; -1.5257180E-04;  0.0000000E+00; -1.0355273E-04;  9.9766370E+02;  1.0000000E-01; -1.9355996E+03;3;  7.2581596E+00;  0.0000000E+00; -2.6837093E+01;0;  1.0228176E-02;  3.9826668E+04;  0.0000000E+00; -4.7249487E-01;  4.0000000E+04;  0.0000000E+00;  3.9983363E+04;  8.4286630E-03;  0.0000000E+00;  1.7995125E-03;  2.0177850E+03;
  3.1772140E-02;  9.9999998E-03;  2.4001084E-01;2683;  3.7451710E-03;  0.0000000E+00; -4.5633479E-04;  9.9631073E+02;  1.0000000E-01; -3.0565061E+03;3;  1.2691661E+01;  0.0000000E+00; -5.8413692E+00;0;  1.4186332E-02;  3.9686461E+04;  0.0000000E+00; -8.2272917E-01;  4.0000000E+04;  0.0000000E+00;  4.0020559E+04;  1.4653060E-02;  0.0000000E+00; -4.6672800E-04;  3.0767407E+03;
  3.1506427E-02;  9.9999998E-03;  2.4997540E-01;2684;  3.4614152E-03;  0.0000000E+00; -5.6312938E-04;  9.9657007E+02;  1.0000000E-01; -2.8416479E+03;3;  1.3262087E+01;  0.0000000E+00; -5.5118484E+00;0;  1.3855167E-02;  3.9706812E+04;  0.0000000E+00; -7.4569029E-01;  4.0000000E+04;  0.0000000E+00;  4.0019566E+04;  1.3993228E-02;  0.0000000E+00; -1.3806112E-04;  2.9086885E+03;
  3.1179370E-02;  9.9999998E-03;  2.5993088E-01;2685;  3.0356802E-03;  0.0000000E+00; -6.8065675E-04;  9.9686035E+02;  1.0000000E-01; -2.6011609E+03;3;  1.2772874E+01;  0.0000000E+00; -6.1100326E+00;0;  1.3392072E-02;  3.9733227E+04;  0.0000000E+00; -6.7842579E-01;  4.0000000E+04;  0.0000000E+00;  4.0015484E+04;  1.3111404E-02;  0.0000000E+00;  2.8066779E-04;  2.4062068E+03;
  3.0788882E-02;  9.9999998E-03;  2.6989520E-01;2686;  2.4576634E-03;  0.0000000E+00; -7.8563055E-04;  9.9718158E+02;  1.0000000E-01; -2.3349956E+03;3;  1.1427075E+01;  0.0000000E+00; -8.2347193E+00;0;  1.2757280E-02;  3.9763555E+04;  0.0000000E+00; -6.3483787E-01;  4.0000000E+04;  0.0000000E+00;  4.0008266E+04;  1.2016567E-02;  0.0000000E+00;  7.4071274E-04;  1.6435671E+03;
  3.0369027E-02;  9.9999998E-03;  2.7987877E-01;2687;  1.7265504E-03;  0.0000000E+00; -8.2858850E-04;  9.9751770E+02;  1.0000000E-01; -2.0565344E+03;3;  9.6386299E+00;  0.0000000E+00; -1.2085633E+01;0;  1.1908333E-02;  3.9797398E+04;  0.0000000E+00; -6.1537105E-01;  4.0000000E+04;  0.0000000E+00;  4.0000793E+04;  1.0736549E-02;  0.0000000E+00;  1.1717833E-03;  9.3370459E+02;
  2.9978247E-02;  9.9999998E-03;  2.8988194E-01;2688;  6.9454545E-04;  0.0000000E+00; -5.4887944E-04;  9.9786481E+02;  1.0000000E-01; -1.7689871E+03;3;  7.6370344E+00;  0.0000000E+00; -1.7128765E+01;0;  1.0830745E-02;  3.9832910E+04;  0.0000000E+00; -6.0578573E-01;  4.0000000E+04;  0.0000000E+00;  3.9992438E+04;  9.3345782E-03;  0.0000000E+00;  1.4961665E-03;  1.1341315E+03;
  2.9689558E-02;  9.9999998E-03;  2.9988804E-01;2689; -2.5458867E-04;  0.0000000E+00; -1.1139349E-04;  9.9820874E+02;  1.0000000E-01; -1.4840074E+03;3;  4.9011712E+00;  0.0000000E+00; -2.1545895E+01;0;  9.5174992E-03;  3.9868023E+04;  0.0000000E+00; -5.8340257E-01;  4.0000000E+04;  0.0000000E+00;  3.9985590E+04;  7.8520337E-03;  0.0000000E+00;  1.6654655E-03;  1.8818522E+03;
  4.1594993E-02;  9.9999998E-03;  2.4003410E-01;2744;  3.3248218E-03;  0.0000000E+00; -3.2242382E-04;  9.9820190E+02;  1.0000000E-01; -1.4896863E+03;3;  1.0712421E+00;  0.0000000E+00;  6.5487075E-01;0;  1.2261811E-02;  3.9838434E+04;  0.0000000E+00; -7.2239876E-01;  4.0000000E+04;  0.0000000E+00;  4.0019988E+04;  1.2723973E-02;  0.0000000E+00; -4.6216231E-04;  2.7864785E+03;
  4.1363303E-02;  9.9999998E-03;  2.5000724E-01;2745;  3.0867872E-03;  0.0000000E+00; -4.0537224E-04;  9.9820874E+02;  1.0000000E-01; -1.4840074E+03;3;  3.6272750E+00;  0.0000000E+00;  1.9003992E+00;0;  1.2130517E-02;  3.9837516E+04;  0.0000000E+00; -6.8185663E-01;  4.0000000E+04;  0.0000000E+00;  4.0019145E+04;  1.2322130E-02;  0.0000000E+00; -1.9161345E-04;  2.7640757E+03;
  4.1064870E-02;  9.9999998E-03;  2.5996971E-01;2746;  2.7034073E-03;  0.0000000E+00; -4.9936492E-04;  9.9823608E+02;  1.0000000E-01; -1.4613907E+03;3;  5.3571825E+00;  0.0000000E+00;  1.8922347E+00;0;  1.1894787E-02;  3.9841508E+04;  0.0000000E+00; -6.5749413E-01;  4.0000000E+04;  0.0000000E+00;  4.0016781E+04;  1.1723845E-02;  0.0000000E+00;  1.7094123E-04;  2.4043657E+03;
  4.0695947E-02;  9.9999998E-03;  2.6993904E-01;2747;  2.1663492E-03;  0.0000000E+00; -5.8509386E-04;  9.9829260E+02;  1.0000000E-01; -1.4145280E+03;3;  6.2585564E+00;  0.0000000E+00; -1.6281115E-01;0;  1.1501661E-02;  3.9850512E+04;  0.0000000E+00; -6.5803450E-01;  4.0000000E+04;  0.0000000E+00;  4.0010555E+04;  1.0921919E-02;  0.0000000E+00;  5.7974202E-04;  1.7608928E+03;
  4.0284328E-02;  9.9999998E-03;  2.7992967E-01;2748;  1.4056438E-03;  0.0000000E+00; -5.4906990E-04;  9.9838312E+02;  1.0000000E-01; -1.3395670E+03;3;  6.4565506E+00;  0.0000000E+00; -4.5341268E+00;0;  1.0902732E-02;  3.9864195E+04;  0.0000000E+00; -6.7763680E-01;  4.0000000E+04;  0.0000000E+00;  4.0002781E+04;  9.9329706E-03;  0.0000000E+00;  9.6976105E-04;  1.0943003E+03;
  3.9884761E-02;  9.9999998E-03;  2.8994688E-01;2749;  3.2470029E-04;  0.0000000E+00; -1.1402829E-04;  9.9850775E+02;  1.0000000E-01; -1.2363107E+03;3;  6.0746188E+00;  0.0000000E+00; -1.0561039E+01;0;  1.0067288E-02;  3.9882203E+04;  0.0000000E+00; -6.9574004E-01;  4.0000000E+04;  0.0000000E+00;  3.9994215E+04;  8.7928744E-03;  0.0000000E+00;  1.2744131E-03;  1.1130773E+03;
  3.9597932E-02;  9.9999998E-03;  2.9995793E-01;2750; -3.3479510E-04;  0.0000000E+00; -2.2503174E-05;  9.9866156E+02;  1.0000000E-01; -1.1088575E+03;3;  4.0983095E+00;  0.0000000E+00; -1.5751874E+01;0;  8.9623323E-03;  3.9901621E+04;  0.0000000E+00; -6.8554437E-01;  4.0000000E+04;  0.0000000E+00;  3.9987445E+04;  7.5237667E-03;  0.0000000E+00;  1.4385658E-03;  1.7590409E+03;
  5.1436979E-02;  9.9999998E-03;  2.4004430E-01;2805;  3.0240437E-03;  0.0000000E+00; -1.6642020E-04;  9.9968201E+02;  1.0000000E-01; -2.6344934E+02;3; -4.9481277E+00;  0.0000000E+00;  6.2451038E+00;0;  1.1051574E-02;  3.9958406E+04;  0.0000000E+00; -4.6188512E-01;  4.0000000E+04;  0.0000000E+00;  4.0018809E+04;  1.1526236E-02;  0.0000000E+00; -4.7466246E-04;  2.4169224E+03;
  5.1238753E-02;  9.9999998E-03;  2.5002652E-01;2806;  2.8177162E-03;  0.0000000E+00; -2.2502214E-04;  9.9947705E+02;  1.0000000E-01; -4.3327170E+02;3; -1.3199475E+00;  0.0000000E+00;  8.2720289E+00;0;  1.1057142E-02;  3.9939770E+04;  0.0000000E+00; -4.7978377E-01;  4.0000000E+04;  0.0000000E+00;  4.0019328E+04;  1.1327971E-02;  0.0000000E+00; -2.7082820E-04;  2.5314973E+03;
  5.0969880E-02;  9.9999998E-03;  2.5999710E-01;2807;  2.4645794E-03;  0.0000000E+00; -2.9584049E-04;  9.9928925E+02;  1.0000000E-01; -5.8882288E+02;3;  1.7243092E+00;  0.0000000E+00;  8.7830076E+00;0;  1.0979729E-02;  3.9925684E+04;  0.0000000E+00; -5.2700830E-01;  4.0000000E+04;  0.0000000E+00;  4.0016738E+04;  1.0952950E-02;  0.0000000E+00;  2.6778784E-05;  2.3053367E+03;
  5.0626412E-02;  9.9999998E-03;  2.6997039E-01;2808;  1.9271527E-03;  0.0000000E+00; -3.3803395E-04;  9.9913416E+02;  1.0000000E-01; -7.1731305E+02;3;  4.0476003E+00;  0.0000000E+00;  6.8240161E+00;0;  1.0756537E-02;  3.9916805E+04;  0.0000000E+00; -6.0188019E-01;  4.0000000E+04;  0.0000000E+00;  4.0011227E+04;  1.0380058E-02;  0.0000000E+00;  3.7647923E-04;  1.7752277E+03;
  5.0227169E-02;  9.9999998E-03;  2.7996922E-01;2809;  1.1015676E-03;  0.0000000E+00; -1.8464330E-04;  9.9902252E+02;  1.0000000E-01; -8.0980426E+02;3;  5.6179285E+00;  0.0000000E+00;  2.0979440E+00;0;  1.0329093E-02;  3.9913723E+04;  0.0000000E+00; -6.8740469E-01;  4.0000000E+04;  0.0000000E+00;  4.0004926E+04;  9.6073654E-03;  0.0000000E+00;  7.2172738E-04;  1.1737052E+03;
  4.9830396E-02;  9.9999998E-03;  2.8999093E-01;2810;  1.1895099E-04;  0.0000000E+00;  1.4600433E-04;  9.9895959E+02;  1.0000000E-01; -8.6195093E+02;3;  6.1760731E+00;  0.0000000E+00; -4.3044386E+00;0;  9.6418634E-03;  3.9916418E+04;  0.0000000E+00; -7.5413662E-01;  4.0000000E+04;  0.0000000E+00;  3.9996164E+04;  8.6448807E-03;  0.0000000E+00;  9.9698291E-04;  1.1254420E+03;
  4.9544543E-02;  9.9999998E-03;  3.0000541E-01;2811; -3.7176147E-04;  0.0000000E+00;  1.0597212E-04;  9.9896387E+02;  1.0000000E-01; -8.5839545E+02;3;  4.6724982E+00;  0.0000000E+00; -1.0679310E+01;0;  8.6805560E-03;  3.9924094E+04;  0.0000000E+00; -7.7022725E-01;  4.0000000E+04;  0.0000000E+00;  3.9988781E+04;  7.5305584E-03;  0.0000000E+00;  1.1499971E-03;  1.6988271E+03;
  6.1299652E-02;  9.9999998E-03;  2.4005365E-01;2866;  2.8433243E-03;  0.0000000E+00;  3.5939662E-05;  1.0006618E+03;  1.0000000E-01;  5.4833020E+02;3; -6.3317690E+00;  0.0000000E+00;  1.0597423E+01;0;  1.0523303E-02;  4.0039160E+04;  0.0000000E+00; -5.6263421E-02;  4.0000000E+04;  0.0000000E+00;  4.0017484E+04;  1.1043973E-02;  0.0000000E+00; -5.2067015E-04;  2.1337617E+03;
  6.1131012E-02;  9.9999998E-03;  2.5004345E-01;2867;  2.6565795E-03;  0.0000000E+00; -1.0739301E-05;  1.0003034E+03;  1.0000000E-01;  2.5135092E+02;3; -2.4041779E+00;  0.0000000E+00;  1.3224785E+01;0;  1.0607130E-02;  4.0007473E+04;  0.0000000E+00; -1.4530684E-01;  4.0000000E+04;  0.0000000E+00;  4.0018547E+04;  1.0993335E-02;  0.0000000E+00; -3.8620568E-04;  2.3330930E+03;
  6.0891796E-02;  9.9999998E-03;  2.6002195E-01;2868;  2.3155657E-03;  0.0000000E+00; -6.7670728E-05;  9.9995898E+02;  1.0000000E-01; -3.3974346E+01;3;  1.1836294E+00;  0.0000000E+00;  1.4108272E+01;0;  1.0628788E-02;  3.9979758E+04;  0.0000000E+00; -2.8183267E-01;  4.0000000E+04;  0.0000000E+00;  4.0016547E+04;  1.0783480E-02;  0.0000000E+00; -1.5469271E-04;  2.1826060E+03;
  6.0576830E-02;  9.9999998E-03;  2.6999927E-01;2869;  1.7657264E-03;  0.0000000E+00; -6.5972374E-05;  9.9963947E+02;  1.0000000E-01; -2.9870761E+02;3;  4.2541986E+00;  0.0000000E+00;  1.2159567E+01;0;  1.0513536E-02;  3.9957203E+04;  0.0000000E+00; -4.4982669E-01;  4.0000000E+04;  0.0000000E+00;  4.0012613E+04;  1.0375598E-02;  0.0000000E+00;  1.3793758E-04;  1.7066439E+03;
  6.0197379E-02;  9.9999998E-03;  2.7999881E-01;2870;  9.1774767E-04;  0.0000000E+00;  1.3903744E-04;  9.9937189E+02;  1.0000000E-01; -5.2038037E+02;3;  6.6158848E+00;  0.0000000E+00;  7.2317290E+00;0;  1.0186858E-02;  3.9941766E+04;  0.0000000E+00; -6.1935121E-01;  4.0000000E+04;  0.0000000E+00;  4.0004621E+04;  9.7457729E-03;  0.0000000E+00;  4.4108462E-04;  1.1317651E+03;
  5.9814889E-02;  9.9999998E-03;  2.9001623E-01;2871;  1.0801909E-04;  0.0000000E+00;  2.8425344E-04;  9.9918188E+02;  1.0000000E-01; -6.7780798E+02;3;  7.3988414E+00;  0.0000000E+00;  3.0768582E-01;0;  9.5774140E-03;  3.9933508E+04;  0.0000000E+00; -7.5161296E-01;  4.0000000E+04;  0.0000000E+00;  3.9996883E+04;  8.8938242E-03;  0.0000000E+00;  6.8359007E-04;  1.1025868E+03;
  5.9526552E-02;  9.9999998E-03;  3.0004081E-01;2872; -3.5726224E-04;  0.0000000E+00;  2.4639998E-04;  9.9907056E+02;  1.0000000E-01; -7.7000293E+02;3;  6.3132706E+00;  0.0000000E+00; -7.4350042E+00;0;  8.7026423E-03;  3.9932027E+04;  0.0000000E+00; -8.0991882E-01;  4.0000000E+04;  0.0000000E+00;  3.9989297E+04;  7.8675430E-03;  0.0000000E+00;  8.3509949E-04;  1.7028826E+03;
  7.1189843E-02;  9.9999998E-03;  2.4007371E-01;2927;  2.7923186E-03;  0.0000000E+00;  2.8939525E-04;  1.0011478E+03;  1.0000000E-01;  9.5098547E+02;3; -4.8189125E+00;  0.0000000E+00;  1.3769351E+01;0;  1.0492089E-02;  4.0079613E+04;  0.0000000E+00;  4.4968170E-01;  4.0000000E+04;  0.0000000E+00;  4.0017531E+04;  1.1103276E-02;  0.0000000E+00; -6.1118725E-04;  2.1635991E+03;
  7.1044728E-02;  9.9999998E-03;  2.5007093E-01;2928;  2.6062368E-03;  0.0000000E+00;  2.4024001E-04;  1.0006976E+03;  1.0000000E-01;  5.7795898E+02;3; -1.0750510E+00;  0.0000000E+00;  1.6801552E+01;0;  1.0611128E-02;  4.0039727E+04;  0.0000000E+00;  3.0602390E-01;  4.0000000E+04;  0.0000000E+00;  4.0018711E+04;  1.1153782E-02;  0.0000000E+00; -5.4265326E-04;  2.3401301E+03;
  7.0833951E-02;  9.9999998E-03;  2.6005381E-01;2929;  2.2779019E-03;  0.0000000E+00;  1.8156315E-04;  1.0002426E+03;  1.0000000E-01;  2.0098196E+02;3;  2.5778341E+00;  0.0000000E+00;  1.7818733E+01;0;  1.0692333E-02;  4.0003152E+04;  0.0000000E+00;  9.7308718E-02;  4.0000000E+04;  0.0000000E+00;  4.0017352E+04;  1.1063853E-02;  0.0000000E+00; -3.7152017E-04;  2.1554736E+03;
  7.0549607E-02;  9.9999998E-03;  2.7003068E-01;2930;  1.7287853E-03;  0.0000000E+00;  1.9022309E-04;  9.9981665E+02;  1.0000000E-01; -1.5189694E+02;3;  5.8966951E+00;  0.0000000E+00;  1.5726684E+01;0;  1.0647016E-02;  3.9971977E+04;  0.0000000E+00; -1.4992684E-01;  4.0000000E+04;  0.0000000E+00;  4.0013074E+04;  1.0774620E-02;  0.0000000E+00; -1.2760400E-04;  1.6085311E+03;
  7.0200510E-02;  9.9999998E-03;  2.8001893E-01;2931;  9.2552707E-04;  0.0000000E+00;  3.3935288E-04;  9.9944647E+02;  1.0000000E-01; -4.5860431E+02;3;  8.5394974E+00;  0.0000000E+00;  1.0307229E+01;0;  1.0379681E-02;  3.9948188E+04;  0.0000000E+00; -3.9722267E-01;  4.0000000E+04;  0.0000000E+00;  4.0005469E+04;  1.0239388E-02;  0.0000000E+00;  1.4029350E-04;  9.0159851E+02;
  6.9837257E-02;  9.9999998E-03;  2.9002979E-01;2932;  1.8034714E-04;  0.0000000E+00;  4.1374785E-04;  9.9916364E+02;  1.0000000E-01; -6.9291870E+02;3;  9.5539980E+00;  0.0000000E+00;  2.3921006E+00;0;  9.8182792E-03;  3.9932672E+04;  0.0000000E+00; -5.9995633E-01;  4.0000000E+04;  0.0000000E+00;  3.9996594E+04;  9.4513791E-03;  0.0000000E+00;  3.6690012E-04;  9.1621906E+02;
  6.9545791E-02;  9.9999998E-03;  3.0007058E-01;2933; -2.8442533E-04;  0.0000000E+00;  3.8144062E-04;  9.9898224E+02;  1.0000000E-01; -8.4318604E+02;3;  8.6359434E+00;  0.0000000E+00; -6.6529107E+00;0;  8.9830533E-03;  3.9925969E+04;  0.0000000E+00; -7.1768838E-01;  4.0000000E+04;  0.0000000E+00;  3.9988352E+04;  8.4542008E-03;  0.0000000E+00;  5.2885199E-04;  1.7194675E+03;
  8.1114098E-02;  9.9999998E-03;  2.4010660E-01;2988;  2.9090112E-03;  0.0000000E+00;  5.3825550E-04;  1.0012126E+03;  1.0000000E-01;  1.0046136E+03;3; -2.1337047E+00;  0.0000000E+00;  1.5892725E+01;0;  1.0681731E-02;  4.0084980E+04;  0.0000000E+00;  1.0269740E+00;  4.0000000E+04;  0.0000000E+00;  4.0018215E+04;  1.1431793E-02;  0.0000000E+00; -7.5006235E-04;  2.6117747E+03;
  8.0988705E-02;  9.9999998E-03;  2.5010964E-01;2989;  2.7426302E-03;  0.0000000E+00;  4.5500626E-04;  1.0007115E+03;  1.0000000E-01;  5.8941541E+02;3;  1.2381809E+00;  0.0000000E+00;  1.9078056E+01;0;  1.0810966E-02;  4.0041238E+04;  0.0000000E+00;  8.9189506E-01;  4.0000000E+04;  0.0000000E+00;  4.0019105E+04;  1.1551694E-02;  0.0000000E+00; -7.4072788E-04;  2.7134834E+03;
  8.0806896E-02;  9.9999998E-03;  2.6009169E-01;2990;  2.4288648E-03;  0.0000000E+00;  3.5783270E-04;  1.0002017E+03;  1.0000000E-01;  1.6710638E+02;3;  4.6899023E+00;  0.0000000E+00;  1.9975538E+01;0;  1.0936167E-02;  3.9999859E+04;  0.0000000E+00;  6.7943060E-01;  4.0000000E+04;  0.0000000E+00;  4.0018113E+04;  1.1557674E-02;  0.0000000E+00; -6.2150648E-04;  2.4274214E+03;
  8.0556303E-02;  9.9999998E-03;  2.7006090E-01;2991;  1.9068754E-03;  0.0000000E+00;  3.3764305E-04;  9.9970972E+02;  1.0000000E-01; -2.4048703E+02;3;  8.0220575E+00;  0.0000000E+00;  1.7419186E+01;0;  1.0955565E-02;  3.9963664E+04;  0.0000000E+00;  4.1360080E-01;  4.0000000E+04;  0.0000000E+00;  4.0013031E+04;  1.1369090E-02;  0.0000000E+00; -4.1352457E-04;  1.7172753E+03;
  8.0242760E-02;  9.9999998E-03;  2.8003347E-01;2992;  1.1316208E-03;  0.0000000E+00;  4.3792118E-04;  9.9927698E+02;  1.0000000E-01; -5.9899542E+02;3;  1.0795190E+01;  0.0000000E+00;  1.1061734E+01;0;  1.0750369E-02;  3.9935562E+04;  0.0000000E+00;  1.2930630E-01;  4.0000000E+04;  0.0000000E+00;  4.0004438E+04;  1.0911775E-02;  0.0000000E+00; -1.6140565E-04;  6.5813373E+02;
  7.9900086E-02;  9.9999998E-03;  2.9003781E-01;2993;  3.5113993E-04;  0.0000000E+00;  5.1534583E-04;  9.9894183E+02;  1.0000000E-01; -8.7666656E+02;3;  1.2118490E+01;  0.0000000E+00;  1.8503858E+00;0;  1.0234557E-02;  3.9917082E+04;  0.0000000E+00; -1.3127355E-01;  4.0000000E+04;  0.0000000E+00;  3.9995055E+04;  1.0160546E-02;  0.0000000E+00;  7.4010808E-05;  5.7797150E+02;
  7.9607449E-02;  9.9999998E-03;  3.0009386E-01;2994; -1.4979937E-04;  0.0000000E+00;  4.9352559E-04;  9.9872559E+02;  1.0000000E-01; -1.0558220E+03;3;  1.1339100E+01;  0.0000000E+00; -8.5356474E+00;0;  9.4209919E-03;  3.9908891E+04;  0.0000000E+00; -3.2625270E-01;  4.0000000E+04;  0.0000000E+00;  3.9985500E+04;  9.1592912E-03;  0.0000000E+00;  2.6170071E-04;  1.7826472E+03;
  9.1081947E-02;  9.9999998E-03;  2.4013579E-01;3049;  3.3639299E-03;  0.0000000E+00;  5.6867860E-04;  1.0009661E+03;  1.0000000E-01;  8.0037244E+02;3;  4.4914025E-01;  0.0000000E+00;  1.6952826E+01;0;  1.0808882E-02;  4.0064203E+04;  0.0000000E+00;  1.6876614E+00;  4.0000000E+04;  0.0000000E+00;  4.0020172E+04;  1.1745182E-02;  0.0000000E+00; -9.3629968E-04;  3.4267812E+03;
  9.0976022E-02;  9.9999998E-03;  2.5014189E-01;3050;  3.2915326E-03;  0.0000000E+00;  4.3968894E-04;  1.0004573E+03;  1.0000000E-01;  3.7885349E+02;3;  3.4669313E+00;  0.0000000E+00;  2.0155926E+01;0;  1.0944378E-02;  4.0019641E+04;  0.0000000E+00;  1.6757683E+00;  4.0000000E+04;  0.0000000E+00;  4.0021168E+04;  1.1924360E-02;  0.0000000E+00; -9.7998255E-04;  3.5612859E+03;
  9.0819977E-02;  9.9999998E-03;  2.6012158E-01;3051;  2.9900107E-03;  0.0000000E+00;  3.1995086E-04;  9.9992090E+02;  1.0000000E-01; -6.5529015E+01;3;  6.7271128E+00;  0.0000000E+00;  2.0777372E+01;0;  1.1122136E-02;  3.9977012E+04;  0.0000000E+00;  1.5841157E+00;  4.0000000E+04;  0.0000000E+00;  4.0018859E+04;  1.2025191E-02;  0.0000000E+00; -9.0305402E-04;  3.2925264E+03;
  9.0599917E-02;  9.9999998E-03;  2.7008182E-01;3052;  2.4049331E-03;  0.0000000E+00;  2.8764215E-04;  9.9939526E+02;  1.0000000E-01; -5.0102286E+02;3;  9.9823713E+00;  0.0000000E+00;  1.7435078E+01;0;  1.1226526E-02;  3.9939094E+04;  0.0000000E+00;  1.4133978E+00;  4.0000000E+04;  0.0000000E+00;  4.0012633E+04;  1.1942520E-02;  0.0000000E+00; -7.1599393E-04;  2.6141965E+03;
  9.0323351E-02;  9.9999998E-03;  2.8003889E-01;3053;  1.5765621E-03;  0.0000000E+00;  3.9519940E-04;  9.9892615E+02;  1.0000000E-01; -8.8965387E+02;3;  1.2899405E+01;  0.0000000E+00;  9.7763777E+00;0;  1.1117781E-02;  3.9909477E+04;  0.0000000E+00;  1.1750102E+00;  4.0000000E+04;  0.0000000E+00;  4.0003059E+04;  1.1572195E-02;  0.0000000E+00; -4.5441440E-04;  1.7631510E+03;
  9.0004370E-02;  9.9999998E-03;  2.9003462E-01;3054;  6.6995999E-04;  0.0000000E+00;  5.4199330E-04;  9.9856909E+02;  1.0000000E-01; -1.1854973E+03;3;  1.4630807E+01;  0.0000000E+00; -1.0455632E+00;0;  1.0673616E-02;  3.9890543E+04;  0.0000000E+00;  8.9450538E-01;  4.0000000E+04;  0.0000000E+00;  3.9991898E+04;  1.0853508E-02;  0.0000000E+00; -1.7989194E-04;  1.5666234E+03;
  8.9717887E-02;  9.9999998E-03;  3.0010337E-01;3055;  4.9509646E-05;  0.0000000E+00;  5.6364638E-04;  9.9834973E+02;  1.0000000E-01; -1.3672206E+03;3;  1.4230958E+01;  0.0000000E+00; -1.2867841E+01;0;  9.8906439E-03;  3.9883027E+04;  0.0000000E+00;  6.0901535E-01;  4.0000000E+04;  0.0000000E+00;  3.9980770E+04;  9.8363506E-03;  0.0000000E+00;  5.4292846E-05;  2.4368179E+03;
  1.0113227E-01;  9.9999998E-03;  2.4012406E-01;3110;  4.1186232E-03;  0.0000000E+00;  2.8040665E-04;  1.0005495E+03;  1.0000000E-01;  4.5529578E+02;3;  2.2345695E+00;  0.0000000E+00;  1.7214087E+01;0;  1.0671346E-02;  4.0027758E+04;  0.0000000E+00;  2.4793932E+00;  4.0000000E+04;  0.0000000E+00;  4.0023727E+04;  1.1825755E-02;  0.0000000E+00; -1.1544084E-03;  4.5767300E+03;
  1.0104475E-01;  9.9999998E-03;  2.5012913E-01;3111;  4.0464192E-03;  0.0000000E+00;  1.8667946E-04;  1.0000458E+03;  1.0000000E-01;  3.7924854E+01;3;  4.9599800E+00;  0.0000000E+00;  2.0407598E+01;0;  1.0820156E-02;  3.9984500E+04;  0.0000000E+00;  2.7479334E+00;  4.0000000E+04;  0.0000000E+00;  4.0024074E+04;  1.2065546E-02;  0.0000000E+00; -1.2453897E-03;  4.9717295E+03;
  1.0090259E-01;  9.9999998E-03;  2.6010740E-01;3112;  3.8466037E-03;  0.0000000E+00;  6.2191604E-05;  9.9949945E+02;  1.0000000E-01; -4.1470432E+02;3;  8.1504173E+00;  0.0000000E+00;  2.0761509E+01;0;  1.1082229E-02;  3.9941969E+04;  0.0000000E+00;  2.9510989E+00;  4.0000000E+04;  0.0000000E+00;  4.0020586E+04;  1.2291675E-02;  0.0000000E+00; -1.2094460E-03;  5.0091084E+03;
  1.0070176E-01;  9.9999998E-03;  2.7006036E-01;3113;  3.4341896E-03;  0.0000000E+00; -6.8522393E-05;  9.9895544E+02;  1.0000000E-01; -8.6540759E+02;3;  1.1561440E+01;  0.0000000E+00;  1.6641882E+01;0;  1.1331643E-02;  3.9904059E+04;  0.0000000E+00;  3.0428410E+00;  4.0000000E+04;  0.0000000E+00;  4.0013457E+04;  1.2383251E-02;  0.0000000E+00; -1.0516073E-03;  4.7158604E+03;
  1.0045030E-01;  9.9999998E-03;  2.8000969E-01;3114;  2.5227882E-03;  0.0000000E+00;  1.9963161E-05;  9.9846832E+02;  1.0000000E-01; -1.2689518E+03;3;  1.4664424E+01;  0.0000000E+00;  7.3187923E+00;0;  1.1373974E-02;  3.9874699E+04;  0.0000000E+00;  2.9823954E+00;  4.0000000E+04;  0.0000000E+00;  4.0002035E+04;  1.2145397E-02;  0.0000000E+00; -7.7142275E-04;  4.3085029E+03;
  1.0015929E-01;  9.9999998E-03;  2.8999880E-01;3115;  1.3346855E-03;  0.0000000E+00;  3.3053328E-04;  9.9809686E+02;  1.0000000E-01; -1.5766962E+03;3;  1.6833622E+01;  0.0000000E+00; -5.6443295E+00;0;  1.1041455E-02;  3.9856957E+04;  0.0000000E+00;  2.7572925E+00;  4.0000000E+04;  0.0000000E+00;  3.9988867E+04;  1.1459071E-02;  0.0000000E+00; -4.1761668E-04;  4.1730073E+03;
  9.9887758E-02;  9.9999998E-03;  3.0008119E-01;3116;  4.0320831E-04;  0.0000000E+00;  5.3601351E-04;  9.9788086E+02;  1.0000000E-01; -1.7556541E+03;3;  1.7141851E+01;  0.0000000E+00; -1.9412806E+01;0;  1.0299380E-02;  3.9851922E+04;  0.0000000E+00;  2.3835073E+00;  4.0000000E+04;  0.0000000E+00;  3.9974758E+04;  1.0393975E-02;  0.0000000E+00; -9.4595365E-05;  4.5429102E+03;
  1.1125153E-01;  9.9999998E-03;  2.4004425E-01;3171;  4.5130583E-03;  0.0000000E+00;  7.8660756E-05;  1.0000898E+03;  1.0000000E-01;  7.4467033E+01;3;  3.1057310E+00;  0.0000000E+00;  1.7465349E+01;0;  1.0189943E-02;  3.9986371E+04;  0.0000000E+00;  3.4545813E+00;  4.0000000E+04;  0.0000000E+00;  4.0028645E+04;  1.1545415E-02;  0.0000000E+00; -1.3554725E-03;  6.0809663E+03;
  1.1115489E-01;  9.9999998E-03;  2.5004712E-01;3172;  4.4265646E-03;  0.0000000E+00;  1.1458601E-05;  9.9959546E+02;  1.0000000E-01; -3.3515100E+02;3;  5.5829716E+00;  0.0000000E+00;  2.0721817E+01;0;  1.0361857E-02;  3.9944551E+04;  0.0000000E+00;  4.1829953E+00;  4.0000000E+04;  0.0000000E+00;  4.0028430E+04;  1.1854231E-02;  0.0000000E+00; -1.4923749E-03;  7.0212246E+03;
  1.1102274E-01;  9.9999998E-03;  2.6002011E-01;3173;  4.2716200E-03;  0.0000000E+00; -1.0653565E-04;  9.9904303E+02;  1.0000000E-01; -7.9281708E+02;3;  8.6681576E+00;  0.0000000E+00;  2.0955135E+01;0;  1.0722491E-02;  3.9902195E+04;  0.0000000E+00;  4.8892899E+00;  4.0000000E+04;  0.0000000E+00;  4.0024723E+04;  1.2222029E-02;  0.0000000E+00; -1.4995384E-03;  7.7174243E+03;
  1.1085619E-01;  9.9999998E-03;  2.6995939E-01;3174;  4.0164310E-03;  0.0000000E+00; -2.7087802E-04;  9.9847583E+02;  1.0000000E-01; -1.2627297E+03;3;  1.2220286E+01;  0.0000000E+00;  1.6401402E+01;0;  1.1160662E-02;  3.9864156E+04;  0.0000000E+00;  5.4584489E+00;  4.0000000E+04;  0.0000000E+00;  4.0015703E+04;  1.2535247E-02;  0.0000000E+00; -1.3745843E-03;  8.1429517E+03;
  1.1063737E-01;  9.9999998E-03;  2.7989438E-01;3175;  3.5825612E-03;  0.0000000E+00; -4.5135952E-04;  9.9795746E+02;  1.0000000E-01; -1.6921991E+03;3;  1.5840138E+01;  0.0000000E+00;  6.0942822E+00;0;  1.1496592E-02;  3.9834629E+04;  0.0000000E+00;  5.7709661E+00;  4.0000000E+04;  0.0000000E+00;  4.0002441E+04;  1.2628851E-02;  0.0000000E+00; -1.1322596E-03;  8.3364922E+03;
  1.1037861E-01;  9.9999998E-03;  2.8987741E-01;3176;  2.7960837E-03;  0.0000000E+00; -4.8642894E-04;  9.9756354E+02;  1.0000000E-01; -2.0185602E+03;3;  1.8820219E+01;  0.0000000E+00; -9.2210817E+00;0;  1.1480689E-02;  3.9817508E+04;  0.0000000E+00;  5.7368846E+00;  4.0000000E+04;  0.0000000E+00;  3.9986137E+04;  1.2259810E-02;  0.0000000E+00; -7.7912118E-04;  8.4033076E+03;
  1.1013048E-01;  9.9999998E-03;  2.9998049E-01;3177;  1.3789239E-03;  0.0000000E+00;  4.0657676E-05;  9.9733020E+02;  1.0000000E-01; -2.2118879E+03;3;  1.9850397E+01;  0.0000000E+00; -2.6755257E+01;0;  1.0797501E-02;  3.9814523E+04;  0.0000000E+00;  5.3094864E+00;  4.0000000E+04;  0.0000000E+00;  3.9969320E+04;  1.1087388E-02;  0.0000000E+00; -2.8988704E-04;  8.4548701E+03;
  1.2129715E-01;  9.9999998E-03;  2.3996417E-01;3232;  4.6184878E-03;  0.0000000E+00; -4.9369605E-06;  9.9969135E+02;  1.0000000E-01; -2.5569647E+02;3;  3.3095529E+00;  0.0000000E+00;  1.8027590E+01;0;  9.4812308E-03;  3.9949000E+04;  0.0000000E+00;  4.6276693E+00;  4.0000000E+04;  0.0000000E+00;  4.0034090E+04;  1.0993367E-02;  0.0000000E+00; -1.5121358E-03;  7.9047705E+03;
  1.2117897E-01;  9.9999998E-03;  2.4995810E-01;3233;  4.5334850E-03;  0.0000000E+00; -5.5166063E-05;  9.9920184E+02;  1.0000000E-01; -6.6126526E+02;3;  5.6716366E+00;  0.0000000E+00;  2.1539742E+01;0;  9.6838698E-03;  3.9907762E+04;  0.0000000E+00;  5.9917965E+00;  4.0000000E+04;  0.0000000E+00;  4.0033703E+04;  1.1375819E-02;  0.0000000E+00; -1.6919496E-03;  9.6825205E+03;
  1.2103789E-01;  9.9999998E-03;  2.5992027E-01;3234;  4.3998053E-03;  0.0000000E+00; -1.6481819E-04;  9.9863953E+02;  1.0000000E-01; -1.1271287E+03;3;  8.7668457E+00;  0.0000000E+00;  2.1920887E+01;0;  1.0143153E-02;  3.9865559E+04;  0.0000000E+00;  7.4267507E+00;  4.0000000E+04;  0.0000000E+00;  4.0029797E+04;  1.1887979E-02;  0.0000000E+00; -1.7448249E-03;  1.1403761E+04;
  1.2088385E-01;  9.9999998E-03;  2.6984802E-01;3235;  4.2110914E-03;  0.0000000E+00; -3.3511329E-04;  9.9805133E+02;  1.0000000E-01; -1.6144235E+03;3;  1.2473000E+01;  0.0000000E+00;  1.7344585E+01;0;  1.0766247E-02;  3.9826465E+04;  0.0000000E+00;  8.7354288E+00;  4.0000000E+04;  0.0000000E+00;  4.0020305E+04;  1.2427425E-02;  0.0000000E+00; -1.6611780E-03;  1.2920588E+04;
  1.2073040E-01;  9.9999998E-03;  2.7975410E-01;3236;  3.9432673E-03;  0.0000000E+00; -5.6198268E-04;  9.9749536E+02;  1.0000000E-01; -2.0750525E+03;3;  1.6424482E+01;  0.0000000E+00;  6.9311352E+00;0;  1.1393261E-02;  3.9794719E+04;  0.0000000E+00;  9.6979008E+00;  4.0000000E+04;  0.0000000E+00;  4.0006742E+04;  1.2845971E-02;  0.0000000E+00; -1.4527095E-03;  1.4061021E+04;
  1.2057306E-01;  9.9999998E-03;  2.8969011E-01;3237;  3.5191118E-03;  0.0000000E+00; -7.9931127E-04;  9.9703455E+02;  1.0000000E-01; -2.4568193E+03;3;  1.9971428E+01;  0.0000000E+00; -8.8794765E+00;0;  1.1792280E-02;  3.9774199E+04;  0.0000000E+00;  1.0101837E+01;  4.0000000E+04;  0.0000000E+00;  3.9988496E+04;  1.2931458E-02;  0.0000000E+00; -1.1391775E-03;  1.4638164E+04;
  1.2042772E-01;  9.9999998E-03;  2.9975626E-01;3238;  2.8878548E-03;  0.0000000E+00; -9.2492049E-04;  9.9670709E+02;  1.0000000E-01; -2.7281204E+03;3;  2.2392990E+01;  0.0000000E+00; -2.8515368E+01;0;  1.1715454E-02;  3.9766766E+04;  0.0000000E+00;  9.7482986E+00;  4.0000000E+04;  0.0000000E+00;  3.9969207E+04;  1.2452166E-02;  0.0000000E+00; -7.3671155E-04;  1.4507521E+04;
  1.3129303E-01;  9.9999998E-03;  2.3988934E-01;3293;  4.5688143E-03;  0.0000000E+00; -4.2369167E-05;  9.9941809E+02;  1.0000000E-01; -4.8210983E+02;3;  3.1724887E+00;  0.0000000E+00;  1.8909290E+01;0;  8.7663736E-03;  3.9920980E+04;  0.0000000E+00;  5.9427600E+00;  4.0000000E+04;  0.0000000E+00;  4.0039637E+04;  1.0378086E-02;  0.0000000E+00; -1.6117122E-03;  9.9594893E+03;
  1.3115595E-01;  9.9999998E-03;  2.4986757E-01;3294;  4.4835838E-03;  0.0000000E+00; -9.1399124E-05;  9.9892517E+02;  1.0000000E-01; -8.9049335E+02;3;  5.5842934E+00;  0.0000000E+00;  2.2985003E+01;0;  8.9869509E-03;  3.9878680E+04;  0.0000000E+00;  8.0871725E+00;  4.0000000E+04;  0.0000000E+00;  4.0041992E+04;  1.0822541E-02;  0.0000000E+00; -1.8355902E-03;  1.2841003E+04;
  1.3099940E-01;  9.9999998E-03;  2.5981411E-01;3295;  4.3722265E-03;  0.0000000E+00; -1.9785823E-04;  9.9835547E+02;  1.0000000E-01; -1.3624800E+03;3;  8.9380980E+00;  0.0000000E+00;  2.4120878E+01;0;  9.5269503E-03;  3.9835164E+04;  0.0000000E+00;  1.0476656E+01;  4.0000000E+04;  0.0000000E+00;  4.0037434E+04;  1.1469464E-02;  0.0000000E+00; -1.9425137E-03;  1.5953815E+04;
  1.3084565E-01;  9.9999998E-03;  2.6972556E-01;3296;  4.2362595E-03;  0.0000000E+00; -3.7849485E-04;  9.9775378E+02;  1.0000000E-01; -1.8609351E+03;3;  1.3107270E+01;  0.0000000E+00;  2.0462770E+01;0;  1.0313354E-02;  3.9795105E+04;  0.0000000E+00;  1.2850427E+01;  4.0000000E+04;  0.0000000E+00;  4.0028422E+04;  1.2235783E-02;  0.0000000E+00; -1.9224281E-03;  1.9033945E+04;
  1.3070951E-01;  9.9999998E-03;  2.7962038E-01;3297;  4.0816278E-03;  0.0000000E+00; -6.4111804E-04;  9.9717761E+02;  1.0000000E-01; -2.3383042E+03;3;  1.7647240E+01;  0.0000000E+00;  1.0954765E+01;0;  1.1220898E-02;  3.9761566E+04;  0.0000000E+00;  1.4857329E+01;  4.0000000E+04;  0.0000000E+00;  4.0015539E+04;  1.3005813E-02;  0.0000000E+00; -1.7849146E-03;  2.1658449E+04;
  1.3061462E-01;  9.9999998E-03;  2.8953302E-01;3298;  3.8728565E-03;  0.0000000E+00; -9.5412106E-04;  9.9665155E+02;  1.0000000E-01; -2.7741438E+03;3;  2.1843122E+01;  0.0000000E+00; -4.2688313E+00;0;  1.2063602E-02;  3.9736281E+04;  0.0000000E+00;  1.6097509E+01;  4.0000000E+04;  0.0000000E+00;  3.9997953E+04;  1.3607400E-02;  0.0000000E+00; -1.5437980E-03;  2.3313029E+04;
  1.3058740E-01;  9.9999998E-03;  2.9957053E-01;3299;  3.5625552E-03;  0.0000000E+00; -1.2400155E-03;  9.9615533E+02;  1.0000000E-01; -3.1852432E+03;3;  2.4778181E+01;  0.0000000E+00; -2.5151348E+01;0;  1.2616406E-02;  3.9717539E+04;  0.0000000E+00;  1.6054817E+01;  4.0000000E+04;  0.0000000E+00;  3.9976469E+04;  1.3827737E-02;  0.0000000E+00; -1.2113312E-03;  2.3354109E+04;
  1.4126681E-01;  9.9999998E-03;  2.3983853E-01;3354;  4.4103949E-03;  0.0000000E+00; -4.2821888E-05;  9.9929346E+02;  1.0000000E-01; -5.8536615E+02;3;  2.9542680E+00;  0.0000000E+00;  1.9950832E+01;0;  8.2990257E-03;  3.9904219E+04;  0.0000000E+00;  7.2669668E+00;  4.0000000E+04;  0.0000000E+00;  4.0045586E+04;  9.9390866E-03;  0.0000000E+00; -1.6400610E-03;  1.2037692E+04;
  1.4112921E-01;  9.9999998E-03;  2.4979140E-01;3355;  4.3117371E-03;  0.0000000E+00; -8.8222849E-05;  9.9878815E+02;  1.0000000E-01; -1.0040210E+03;3;  5.6636939E+00;  0.0000000E+00;  2.4992882E+01;0;  8.5062319E-03;  3.9859238E+04;  0.0000000E+00;  1.0273584E+01;  4.0000000E+04;  0.0000000E+00;  4.0050039E+04;  1.0410630E-02;  0.0000000E+00; -1.9043984E-03;  1.6221429E+04;
  1.4096540E-01;  9.9999998E-03;  2.5971505E-01;3356;  4.2053959E-03;  0.0000000E+00; -1.9014876E-04;  9.9821173E+02;  1.0000000E-01; -1.4815383E+03;3;  9.7030087E+00;  0.0000000E+00;  2.7695318E+01;0;  9.0796873E-03;  3.9813246E+04;  0.0000000E+00;  1.3834456E+01;  4.0000000E+04;  0.0000000E+00;  4.0048934E+04;  1.1150613E-02;  0.0000000E+00; -2.0709257E-03;  2.1095625E+04;
  1.4078835E-01;  9.9999998E-03;  2.6961589E-01;3357;  4.1083354E-03;  0.0000000E+00; -3.7666553E-04;  9.9762299E+02;  1.0000000E-01; -1.9693270E+03;3;  1.5006575E+01;  0.0000000E+00;  2.6185545E+01;0;  9.9768769E-03;  3.9771395E+04;  0.0000000E+00;  1.7673735E+01;  4.0000000E+04;  0.0000000E+00;  4.0042734E+04;  1.2112875E-02;  0.0000000E+00; -2.1359972E-03;  2.6329957E+04;
  1.4065139E-01;  9.9999998E-03;  2.7949759E-01;3358;  4.0415213E-03;  0.0000000E+00; -6.4983690E-04;  9.9705139E+02;  1.0000000E-01; -2.4428445E+03;3;  2.1086786E+01;  0.0000000E+00;  1.9301683E+01;0;  1.1128547E-02;  3.9736090E+04;  0.0000000E+00;  2.1297371E+01;  4.0000000E+04;  0.0000000E+00;  4.0031891E+04;  1.3232612E-02;  0.0000000E+00; -2.1040654E-03;  3.1263924E+04;
  1.4058891E-01;  9.9999998E-03;  2.8939795E-01;3359;  4.0080869E-03;  0.0000000E+00; -9.9910493E-04;  9.9648120E+02;  1.0000000E-01; -2.9152756E+03;3;  2.6886608E+01;  0.0000000E+00;  6.2413740E+00;0;  1.2440101E-02;  3.9705832E+04;  0.0000000E+00;  2.3984152E+01;  4.0000000E+04;  0.0000000E+00;  4.0015879E+04;  1.4430162E-02;  0.0000000E+00; -1.9900613E-03;  3.4872492E+04;
  1.4065853E-01;  9.9999998E-03;  2.9941833E-01;3360;  3.9879759E-03;  0.0000000E+00; -1.3918470E-03;  9.9574915E+02;  1.0000000E-01; -3.5217769E+03;3;  3.0780676E+01;  0.0000000E+00; -1.5482238E+01;0;  1.3794440E-02;  3.9669957E+04;  0.0000000E+00;  2.4634193E+01;  4.0000000E+04;  0.0000000E+00;  3.9994109E+04;  1.5610734E-02;  0.0000000E+00; -1.8162942E-03;  3.5633969E+04;
  1.5125462E-01;  9.9999998E-03;  2.3983026E-01;3415;  4.1786884E-03;  0.0000000E+00;  2.1409692E-06;  9.9928876E+02;  1.0000000E-01; -5.8926727E+02;3;  2.7795637E+00;  0.0000000E+00;  2.0682627E+01;0;  8.3256355E-03;  3.9898895E+04;  0.0000000E+00;  8.4094973E+00;  4.0000000E+04;  0.0000000E+00;  4.0049883E+04;  9.9048205E-03;  0.0000000E+00; -1.5791849E-03;  1.3815069E+04;
  1.5112525E-01;  9.9999998E-03;  2.4976242E-01;3416;  4.0526907E-03;  0.0000000E+00; -2.6426413E-05;  9.9876447E+02;  1.0000000E-01; -1.0236254E+03;3;  6.0715775E+00;  0.0000000E+00;  2.6853252E+01;0;  8.4835300E-03;  3.9849680E+04;  0.0000000E+00;  1.2258478E+01;  4.0000000E+04;  0.0000000E+00;  4.0057328E+04;  1.0349844E-02;  0.0000000E+00; -1.8663137E-03;  1.9352576E+04;
  1.5096594E-01;  9.9999998E-03;  2.5966716E-01;3417;  3.9241766E-03;  0.0000000E+00; -1.0412746E-04;  9.9817993E+02;  1.0000000E-01; -1.5079080E+03;3;  1.1378036E+01;  0.0000000E+00;  3.1643097E+01;0;  9.0317875E-03;  3.9798336E+04;  0.0000000E+00;  1.7116964E+01;  4.0000000E+04;  0.0000000E+00;  4.0060324E+04;  1.1106293E-02;  0.0000000E+00; -2.0745057E-03;  2.6241449E+04;
  1.5077636E-01;  9.9999998E-03;  2.6955482E-01;3418;  3.8285770E-03;  0.0000000E+00; -2.5104007E-04;  9.9761029E+02;  1.0000000E-01; -1.9798452E+03;3;  1.8911036E+01;  0.0000000E+00;  3.3334259E+01;0;  9.9689625E-03;  3.9753422E+04;  0.0000000E+00;  2.2823071E+01;  4.0000000E+04;  0.0000000E+00;  4.0059762E+04;  1.2168676E-02;  0.0000000E+00; -2.1997131E-03;  3.4263090E+04;
  1.5059942E-01;  9.9999998E-03;  2.7944523E-01;3419;  3.8157827E-03;  0.0000000E+00; -4.8000607E-04;  9.9709576E+02;  1.0000000E-01; -2.4061047E+03;3;  2.8093363E+01;  0.0000000E+00;  2.9940714E+01;0;  1.1310857E-02;  3.9717840E+04;  0.0000000E+00;  2.8753227E+01;  4.0000000E+04;  0.0000000E+00;  4.0052930E+04;  1.3562871E-02;  0.0000000E+00; -2.2520141E-03;  4.2501707E+04;
  1.5054578E-01;  9.9999998E-03;  2.8936076E-01;3420;  3.9247628E-03;  0.0000000E+00; -8.0006383E-04;  9.9648743E+02;  1.0000000E-01; -2.9100906E+03;3;  3.7293797E+01;  0.0000000E+00;  1.9077307E+01;0;  1.3109580E-02;  3.9682809E+04;  0.0000000E+00;  3.3575279E+01;  4.0000000E+04;  0.0000000E+00;  4.0040699E+04;  1.5371539E-02;  0.0000000E+00; -2.2619595E-03;  4.9055523E+04;
  1.5070046E-01;  9.9999998E-03;  2.9938915E-01;3421;  4.1881581E-03;  0.0000000E+00; -1.2522514E-03;  9.9541760E+02;  1.0000000E-01; -3.7964358E+03;3;  4.3284710E+01;  0.0000000E+00; -4.8205676E+00;0;  1.5465983E-02;  3.9622082E+04;  0.0000000E+00;  3.5084927E+01;  4.0000000E+04;  0.0000000E+00;  4.0017238E+04;  1.7792612E-02;  0.0000000E+00; -2.3266291E-03;  5.0806078E+04;
  1.6126941E-01;  9.9999998E-03;  2.3987746E-01;3476;  3.9012684E-03;  0.0000000E+00;  1.0928489E-04;  9.9934473E+02;  1.0000000E-01; -5.4289825E+02;3;  2.5856194E+00;  0.0000000E+00;  2.0403814E+01;0;  9.0581411E-03;  3.9902520E+04;  0.0000000E+00;  9.1664143E+00;  4.0000000E+04;  0.0000000E+00;  4.0050281E+04;  1.0456668E-02;  0.0000000E+00; -1.3985268E-03;  1.4900404E+04;
  1.6118991E-01;  9.9999998E-03;  2.4980251E-01;3477;  3.7238114E-03;  0.0000000E+00;  1.2463596E-04;  9.9876746E+02;  1.0000000E-01; -1.0211563E+03;3;  6.6296921E+00;  0.0000000E+00;  2.7178961E+01;0;  9.1464072E-03;  3.9845578E+04;  0.0000000E+00;  1.3621840E+01;  4.0000000E+04;  0.0000000E+00;  4.0061094E+04;  1.0801064E-02;  0.0000000E+00; -1.6546570E-03;  2.1509832E+04;
  1.6103923E-01;  9.9999998E-03;  2.5970399E-01;3478;  3.5468636E-03;  0.0000000E+00;  9.9397112E-05;  9.9815021E+02;  1.0000000E-01; -1.5324999E+03;3;  1.3632336E+01;  0.0000000E+00;  3.3449326E+01;0;  9.6249934E-03;  3.9786957E+04;  0.0000000E+00;  1.9627857E+01;  4.0000000E+04;  0.0000000E+00;  4.0069211E+04;  1.1462282E-02;  0.0000000E+00; -1.8372892E-03;  3.0257992E+04;
  1.6083848E-01;  9.9999998E-03;  2.6959690E-01;3479;  3.4313155E-03;  0.0000000E+00;  4.0309456E-05;  9.9757233E+02;  1.0000000E-01; -2.0113011E+03;3;  2.4336241E+01;  0.0000000E+00;  3.7471832E+01;0;  1.0567834E-02;  3.9735684E+04;  0.0000000E+00;  2.7281992E+01;  4.0000000E+04;  0.0000000E+00;  4.0073602E+04;  1.2487071E-02;  0.0000000E+00; -1.9192372E-03;  4.1233836E+04;
  1.6064422E-01;  9.9999998E-03;  2.7952167E-01;3480;  3.4976881E-03;  0.0000000E+00; -7.4500349E-05;  9.9703461E+02;  1.0000000E-01; -2.4567700E+03;3;  3.8065319E+01;  0.0000000E+00;  3.5308380E+01;0;  1.2187259E-02;  3.9696480E+04;  0.0000000E+00;  3.5758934E+01;  4.0000000E+04;  0.0000000E+00;  4.0069652E+04;  1.4106542E-02;  0.0000000E+00; -1.9192826E-03;  5.3128020E+04;
  1.6059460E-01;  9.9999998E-03;  2.8950849E-01;3481;  3.8616329E-03;  0.0000000E+00; -3.4235939E-04;  9.9626031E+02;  1.0000000E-01; -3.0982827E+03;3;  5.1450470E+01;  0.0000000E+00;  2.1017971E+01;0;  1.4817883E-02;  3.9651246E+04;  0.0000000E+00;  4.2502960E+01;  4.0000000E+04;  0.0000000E+00;  4.0053512E+04;  1.6830282E-02;  0.0000000E+00; -2.0123993E-03;  6.2269176E+04;
  1.6085739E-01;  9.9999998E-03;  2.9958689E-01;3482;  4.5590629E-03;  0.0000000E+00; -9.0176205E-04;  9.9451929E+02;  1.0000000E-01; -4.5406616E+03;3;  5.8963947E+01;  0.0000000E+00; -1.1836628E+01;0;  1.8869366E-02;  3.9544484E+04;  0.0000000E+00;  4.3346737E+01;  4.0000000E+04;  0.0000000E+00;  4.0023043E+04;  2.1380117E-02;  0.0000000E+00; -2.5107516E-03;  6.2864340E+04;
  1.7126995E-01;  9.9999998E-03;  2.3998767E-01;3537;  3.5930593E-03;  0.0000000E+00;  2.9362124E-04;  9.9937872E+02;  1.0000000E-01; -5.1470148E+02;3;  2.1275933E+00;  0.0000000E+00;  1.8295164E+01;0;  1.0633439E-02;  3.9911711E+04;  0.0000000E+00;  9.4264727E+00;  4.0000000E+04;  0.0000000E+00;  4.0043777E+04;  1.1681102E-02;  0.0000000E+00; -1.0476632E-03;  1.4992855E+04;
  1.7125389E-01;  9.9999998E-03;  2.4993011E-01;3538;  3.3537310E-03;  0.0000000E+00;  3.7236122E-04;  9.9870746E+02;  1.0000000E-01; -1.0708339E+03;3;  6.6639724E+00;  0.0000000E+00;  2.4055258E+01;0;  1.0669185E-02;  3.9846953E+04;  0.0000000E+00;  1.4005396E+01;  4.0000000E+04;  0.0000000E+00;  4.0054000E+04;  1.1842840E-02;  0.0000000E+00; -1.1736556E-03;  2.1940326E+04;
  1.7115863E-01;  9.9999998E-03;  2.5984615E-01;3539;  3.1241924E-03;  0.0000000E+00;  4.4352189E-04;  9.9797388E+02;  1.0000000E-01; -1.6786191E+03;3;  1.5008318E+01;  0.0000000E+00;  2.9442276E+01;0;  1.1134006E-02;  3.9777273E+04;  0.0000000E+00;  2.0422503E+01;  4.0000000E+04;  0.0000000E+00;  4.0064645E+04;  1.2297637E-02;  0.0000000E+00; -1.1636304E-03;  3.1515500E+04;
  1.7099306E-01;  9.9999998E-03;  2.6976818E-01;3540;  3.0193720E-03;  0.0000000E+00;  4.9870275E-04;  9.9724988E+02;  1.0000000E-01; -2.2784048E+03;3;  2.8331491E+01;  0.0000000E+00;  3.1866728E+01;0;  1.2197053E-02;  3.9712727E+04;  0.0000000E+00;  2.9091574E+01;  4.0000000E+04;  0.0000000E+00;  4.0069898E+04;  1.3199583E-02;  0.0000000E+00; -1.0025295E-03;  4.4149359E+04;
  1.7084181E-01;  9.9999998E-03;  2.7974138E-01;3541;  3.3263725E-03;  0.0000000E+00;  4.1032577E-04;  9.9645172E+02;  1.0000000E-01; -2.9396699E+03;3;  4.5482365E+01;  0.0000000E+00;  2.4463781E+01;0;  1.4378561E-02;  3.9655309E+04;  0.0000000E+00;  3.8772549E+01;  4.0000000E+04;  0.0000000E+00;  4.0063004E+04;  1.5324986E-02;  0.0000000E+00; -9.4642467E-04;  5.7863336E+04;
  1.7088759E-01;  9.9999998E-03;  2.8979278E-01;3542;  4.3475181E-03;  0.0000000E+00;  6.3625380E-06;  9.9504510E+02;  1.0000000E-01; -4.1050195E+03;3;  6.0318241E+01;  0.0000000E+00; -1.9255377E+00;0;  1.8938821E-02;  3.9569281E+04;  0.0000000E+00;  4.4754936E+01;  4.0000000E+04;  0.0000000E+00;  4.0036492E+04;  2.0423109E-02;  0.0000000E+00; -1.4842880E-03;  6.5889781E+04;
  1.7129950E-01;  9.9999998E-03;  2.9988796E-01;3543;  5.2095517E-03;  0.0000000E+00; -9.0863853E-04;  9.9206555E+02;  1.0000000E-01; -6.5735425E+03;3;  6.4916214E+01;  0.0000000E+00; -4.8536366E+01;0;  2.3973396E-02;  3.9372008E+04;  0.0000000E+00;  4.1065945E+01;  4.0000000E+04;  0.0000000E+00;  3.9999000E+04;  2.7219243E-02;  0.0000000E+00; -3.2458478E-03;  5.9891516E+04;
  1.8119760E-01;  9.9999998E-03;  2.4013530E-01;3598;  3.3163114E-03;  0.0000000E+00;  4.9186579E-04;  9.9933936E+02;  1.0000000E-01; -5.4734253E+02;3;  1.1165388E+00;  0.0000000E+00;  1.4053611E+01;0;  1.3025795E-02;  3.9925066E+04;  0.0000000E+00;  9.3326750E+00;  4.0000000E+04;  0.0000000E+00;  4.0026777E+04;  1.3556294E-02;  0.0000000E+00; -5.3049863E-04;  1.4331062E+04;
  1.8121846E-01;  9.9999998E-03;  2.5010145E-01;3599;  3.0480397E-03;  0.0000000E+00;  5.7620357E-04;  9.9859070E+02;  1.0000000E-01; -1.1675719E+03;3;  5.3955035E+00;  0.0000000E+00;  1.6954926E+01;0;  1.2982264E-02;  3.9857852E+04;  0.0000000E+00;  1.3635231E+01;  4.0000000E+04;  0.0000000E+00;  4.0033398E+04;  1.3488251E-02;  0.0000000E+00; -5.0598697E-04;  2.0950209E+04;
  1.8119669E-01;  9.9999998E-03;  2.6004034E-01;3600;  2.8324462E-03;  0.0000000E+00;  6.7265006E-04;  9.9770532E+02;  1.0000000E-01; -1.9010820E+03;3;  1.3673550E+01;  0.0000000E+00;  1.8404232E+01;0;  1.3455585E-02;  3.9778785E+04;  0.0000000E+00;  1.9562704E+01;  4.0000000E+04;  0.0000000E+00;  4.0041168E+04;  1.3746320E-02;  0.0000000E+00; -2.9073539E-04;  3.0012672E+04;
  1.8114626E-01;  9.9999998E-03;  2.6998827E-01;3601;  2.8810203E-03;  0.0000000E+00;  7.4352534E-04;  9.9667761E+02;  1.0000000E-01; -2.7525146E+03;3;  2.7118433E+01;  0.0000000E+00;  1.4851665E+01;0;  1.4825867E-02;  3.9692738E+04;  0.0000000E+00;  2.7309736E+01;  4.0000000E+04;  0.0000000E+00;  4.0043621E+04;  1.4757176E-02;  0.0000000E+00;  6.8692025E-05;  4.1616559E+04;
  1.8115382E-01;  9.9999998E-03;  2.7996951E-01;3602;  3.5488091E-03;  0.0000000E+00;  5.4392579E-04;  9.9530322E+02;  1.0000000E-01; -3.8911985E+03;3;  4.4164204E+01;  0.0000000E+00; -9.2454505E-01;0;  1.7782580E-02;  3.9590828E+04;  0.0000000E+00;  3.4863453E+01;  4.0000000E+04;  0.0000000E+00;  4.0034508E+04;  1.7922420E-02;  0.0000000E+00; -1.3983948E-04;  5.2654762E+04;
  1.8135814E-01;  9.9999998E-03;  2.8997886E-01;3603;  4.7941427E-03;  0.0000000E+00; -2.1770142E-05;  9.9301788E+02;  1.0000000E-01; -5.7845278E+03;3;  5.8273849E+01;  0.0000000E+00; -3.3147808E+01;0;  2.3275970E-02;  3.9429730E+04;  0.0000000E+00;  3.6702984E+01;  4.0000000E+04;  0.0000000E+00;  4.0013832E+04;  2.4774458E-02;  0.0000000E+00; -1.4984888E-03;  5.5006562E+04;
  1.8171163E-01;  9.9999998E-03;  2.9993469E-01;3604;  4.2625498E-03;  0.0000000E+00; -7.9200324E-04;  9.8974933E+02;  1.0000000E-01; -8.4925010E+03;3;  6.8887840E+01;  0.0000000E+00; -6.7140175E+01;0;  2.3160117E-02;  3.9179844E+04;  0.0000000E+00;  3.2008396E+01;  4.0000000E+04;  0.0000000E+00;  4.0004840E+04;  2.6845129E-02;  0.0000000E+00; -3.6850125E-03;  4.7072578E+04;
  1.9106619E-01;  9.9999998E-03;  2.4026126E-01;3659;  3.1528319E-03;  0.0000000E+00;  5.7115726E-04;  9.9922272E+02;  1.0000000E-01; -6.4398181E+02;3; -4.2230481E-01;  0.0000000E+00;  8.6524420E+00;0;  1.5959539E-02;  3.9938715E+04;  0.0000000E+00;  9.2147532E+00;  4.0000000E+04;  0.0000000E+00;  4.0003812E+04;  1.5965013E-02;  0.0000000E+00; -5.4737320E-06;  1.3829645E+04;
  1.9110227E-01;  9.9999998E-03;  2.5023124E-01;3660;  2.9270852E-03;  0.0000000E+00;  5.7045644E-04;  9.9847620E+02;  1.0000000E-01; -1.2624335E+03;3;  2.9797852E+00;  0.0000000E+00;  8.2868757E+00;0;  1.5708391E-02;  3.9875461E+04;  0.0000000E+00;  1.3207197E+01;  4.0000000E+04;  0.0000000E+00;  4.0006316E+04;  1.5697541E-02;  0.0000000E+00;  1.0849093E-05;  2.0037766E+04;
  1.9112773E-01;  9.9999998E-03;  2.6017514E-01;3661;  2.8386097E-03;  0.0000000E+00;  6.1636709E-04;  9.9755396E+02;  1.0000000E-01; -2.0265106E+03;3;  1.0131403E+01;  0.0000000E+00;  5.6211042E+00;0;  1.6165126E-02;  3.9796215E+04;  0.0000000E+00;  1.8453550E+01;  4.0000000E+04;  0.0000000E+00;  4.0011125E+04;  1.5924051E-02;  0.0000000E+00;  2.4107564E-04;  2.8239588E+04;
  1.9117874E-01;  9.9999998E-03;  2.7012840E-01;3662;  3.1464356E-03;  0.0000000E+00;  6.0723466E-04;  9.9633112E+02;  1.0000000E-01; -3.0396177E+03;3;  2.1859783E+01;  0.0000000E+00; -3.2506666E+00;0;  1.7868478E-02;  3.9695699E+04;  0.0000000E+00;  2.4429857E+01;  4.0000000E+04;  0.0000000E+00;  4.0012578E+04;  1.7398430E-02;  0.0000000E+00;  4.7004689E-04;  3.7538676E+04;
  1.9136174E-01;  9.9999998E-03;  2.8008461E-01;3663;  3.9024157E-03;  0.0000000E+00;  4.1010624E-04;  9.9445612E+02;  1.0000000E-01; -4.5930059E+03;3;  3.6687462E+01;  0.0000000E+00; -2.1609007E+01;0;  2.1318963E-02;  3.9546984E+04;  0.0000000E+00;  2.7573483E+01;  4.0000000E+04;  0.0000000E+00;  4.0010195E+04;  2.1201972E-02;  0.0000000E+00;  1.1699088E-04;  4.2530531E+04;
  1.9165391E-01;  9.9999998E-03;  2.9000038E-01;3664;  3.5737369E-03;  0.0000000E+00;  2.1935183E-04;  9.9182874E+02;  1.0000000E-01; -6.7697344E+03;3;  5.3490463E+01;  0.0000000E+00; -4.2012600E+01;0;  2.2628637E-02;  3.9328023E+04;  0.0000000E+00;  2.5375643E+01;  4.0000000E+04;  0.0000000E+00;  4.0018270E+04;  2.2934018E-02;  0.0000000E+00; -3.0537997E-04;  3.9020062E+04;
  1.9181141E-01;  9.9999998E-03;  2.9990700E-01;3665;  1.3659549E-03;  0.0000000E+00;  1.0779022E-03;  9.8912341E+02;  1.0000000E-01; -9.0110537E+03;3;  7.3755974E+01;  0.0000000E+00; -5.6462246E+01;0;  1.8948728E-02;  3.9095262E+04;  0.0000000E+00;  2.4227928E+01;  4.0000000E+04;  0.0000000E+00;  4.0034090E+04;  1.5149370E-02;  0.0000000E+00;  3.7993584E-03;  3.5298734E+04;
  2.0092219E-01;  9.9999998E-03;  2.4031036E-01;3720;  3.1409496E-03;  0.0000000E+00;  4.8944098E-04;  9.9907904E+02;  1.0000000E-01; -7.6299078E+02;3; -1.9646940E+00;  0.0000000E+00;  4.1328416E+00;0;  1.9043509E-02;  3.9947801E+04;  0.0000000E+00;  9.3377361E+00;  4.0000000E+04;  0.0000000E+00;  3.9983441E+04;  1.8696271E-02;  0.0000000E+00;  3.4723745E-04;  1.4150063E+04;
  2.0095962E-01;  9.9999998E-03;  2.5027037E-01;3721;  2.9875238E-03;  0.0000000E+00;  4.2813460E-04;  9.9842987E+02;  1.0000000E-01; -1.3008027E+03;3;  5.1557028E-01;  0.0000000E+00;  1.8917654E+00;0;  1.8542981E-02;  3.9894039E+04;  0.0000000E+00;  1.3328688E+01;  4.0000000E+04;  0.0000000E+00;  3.9985168E+04;  1.8262446E-02;  0.0000000E+00;  2.8053403E-04;  2.0303803E+04;
  2.0100980E-01;  9.9999998E-03;  2.6021528E-01;3722;  3.0652306E-03;  0.0000000E+00;  4.4044579E-04;  9.9760120E+02;  1.0000000E-01; -1.9873512E+03;3;  6.3544874E+00;  0.0000000E+00; -3.0665162E+00;0;  1.9007551E-02;  3.9821906E+04;  0.0000000E+00;  1.8282812E+01;  4.0000000E+04;  0.0000000E+00;  3.9989660E+04;  1.8553099E-02;  0.0000000E+00;  4.5445119E-04;  2.8055312E+04;
  2.0113225E-01;  9.9999998E-03;  2.7017415E-01;3723;  3.6983090E-03;  0.0000000E+00;  3.7592137E-04;  9.9633966E+02;  1.0000000E-01; -3.0325068E+03;3;  1.5836236E+01;  0.0000000E+00; -1.4640251E+01;0;  2.1188864E-02;  3.9717770E+04;  0.0000000E+00;  2.2607502E+01;  4.0000000E+04;  0.0000000E+00;  3.9990586E+04;  2.0732544E-02;  0.0000000E+00;  4.5631989E-04;  3.4999766E+04;
  2.0140296E-01;  9.9999998E-03;  2.8012282E-01;3724;  4.5187948E-03;  0.0000000E+00;  2.8925081E-04;  9.9431262E+02;  1.0000000E-01; -4.7118667E+03;3;  2.7722708E+01;  0.0000000E+00; -3.1631231E+01;0;  2.5530890E-02;  3.9548340E+04;  0.0000000E+00;  2.1766716E+01;  4.0000000E+04;  0.0000000E+00;  3.9996480E+04;  2.5158869E-02;  0.0000000E+00;  3.7202064E-04;  3.4051344E+04;
  2.0163724E-01;  9.9999998E-03;  2.9004422E-01;3725;  3.1476847E-03;  0.0000000E+00;  5.5796624E-04;  9.9186371E+02;  1.0000000E-01; -6.7407476E+03;3;  4.3142605E+01;  0.0000000E+00; -4.5875126E+01;0;  2.5312489E-02;  3.9331496E+04;  0.0000000E+00;  1.8324310E+01;  4.0000000E+04;  0.0000000E+00;  4.0015891E+04;  2.3170518E-02;  0.0000000E+00;  2.1419714E-03;  2.7906262E+04;
  2.0164469E-01;  9.9999998E-03;  3.0000862E-01;3726;  2.3025842E-03;  0.0000000E+00;  1.4291842E-03;  9.8962018E+02;  1.0000000E-01; -8.5995098E+03;3;  6.0620136E+01;  0.0000000E+00; -6.6269653E+01;0;  2.8931543E-02;  3.9141754E+04;  0.0000000E+00;  2.1356844E+01;  4.0000000E+04;  0.0000000E+00;  4.0023992E+04;  2.1451591E-02;  0.0000000E+00;  7.4799517E-03;  2.9333475E+04;
  2.1081565E-01;  9.9999998E-03;  2.4028002E-01;3781;  3.2639802E-03;  0.0000000E+00;  3.5268324E-04;  9.9895013E+02;  1.0000000E-01; -8.6980255E+02;3; -2.9978104E+00;  0.0000000E+00;  1.8634033E+00;0;  2.2034861E-02;  3.9947539E+04;  0.0000000E+00;  9.5582905E+00;  4.0000000E+04;  0.0000000E+00;  3.9973875E+04;  2.1457264E-02;  0.0000000E+00;  5.7759625E-04;  1.4653243E+04;
  2.1084076E-01;  9.9999998E-03;  2.5023788E-01;3782;  3.1780431E-03;  0.0000000E+00;  2.7720406E-04;  9.9846045E+02;  1.0000000E-01; -1.2754701E+03;3; -1.2631426E+00;  0.0000000E+00; -7.2980100E-01;0;  2.1334089E-02;  3.9905848E+04;  0.0000000E+00;  1.3831407E+01;  4.0000000E+04;  0.0000000E+00;  3.9976055E+04;  2.0871637E-02;  0.0000000E+00;  4.6245137E-04;  2.1088449E+04;
  2.1090564E-01;  9.9999998E-03;  2.6019505E-01;3783;  3.4619193E-03;  0.0000000E+00;  2.5377641E-04;  9.9776715E+02;  1.0000000E-01; -1.8498737E+03;3;  3.2496033E+00;  0.0000000E+00; -6.5210958E+00;0;  2.1798283E-02;  3.9845637E+04;  0.0000000E+00;  1.8783901E+01;  4.0000000E+04;  0.0000000E+00;  3.9980016E+04;  2.1297291E-02;  0.0000000E+00;  5.0099270E-04;  2.8751020E+04;
  2.1113113E-01;  9.9999998E-03;  2.7016073E-01;3784;  4.4364533E-03;  0.0000000E+00;  1.3671782E-04;  9.9646912E+02;  1.0000000E-01; -2.9252505E+03;3;  1.0318255E+01;  0.0000000E+00; -1.8035772E+01;0;  2.4346728E-02;  3.9737066E+04;  0.0000000E+00;  2.0431690E+01;  4.0000000E+04;  0.0000000E+00;  3.9982887E+04;  2.4203803E-02;  0.0000000E+00;  1.4292373E-04;  3.1750656E+04;
  2.1140918E-01;  9.9999998E-03;  2.8011319E-01;3785;  4.7930363E-03;  0.0000000E+00;  7.1275826E-05;  9.9457745E+02;  1.0000000E-01; -4.4924653E+03;3;  1.9487635E+01;  0.0000000E+00; -3.1737461E+01;0;  2.7489726E-02;  3.9571762E+04;  0.0000000E+00;  1.7149755E+01;  4.0000000E+04;  0.0000000E+00;  3.9994676E+04;  2.7527425E-02;  0.0000000E+00; -3.7700403E-05;  2.6891426E+04;
  2.1153770E-01;  9.9999998E-03;  2.9006866E-01;3786;  4.2512361E-03;  0.0000000E+00;  1.2572497E-04;  9.9253967E+02;  1.0000000E-01; -6.1807637E+03;3;  3.0876602E+01;  0.0000000E+00; -4.7678421E+01;0;  2.9437799E-02;  3.9391270E+04;  0.0000000E+00;  1.5481376E+01;  4.0000000E+04;  0.0000000E+00;  4.0008734E+04;  2.8892614E-02;  0.0000000E+00;  5.4518599E-04;  2.2656863E+04;
  2.1154191E-01;  9.9999998E-03;  3.0004892E-01;3787;  4.9230498E-03;  0.0000000E+00;  2.0760372E-04;  9.9044690E+02;  1.0000000E-01; -7.9145415E+03;3;  4.4075085E+01;  0.0000000E+00; -7.0651505E+01;0;  3.7688144E-02;  3.9215375E+04;  0.0000000E+00;  1.8356756E+01;  4.0000000E+04;  0.0000000E+00;  4.0015355E+04;  3.6301542E-02;  0.0000000E+00;  1.3866015E-03;  2.3391703E+04;
  2.2078654E-01;  9.9999998E-03;  2.4020402E-01;3842;  3.4865991E-03;  0.0000000E+00;  2.1569911E-04;  9.9883105E+02;  1.0000000E-01; -9.6846643E+02;3; -3.3936787E+00;  0.0000000E+00;  1.5137849E+00;0;  2.4683030E-02;  3.9936945E+04;  0.0000000E+00;  9.3648014E+00;  4.0000000E+04;  0.0000000E+00;  3.9975453E+04;  2.3937458E-02;  0.0000000E+00;  7.4557262E-04;  1.4288657E+04;
  2.2080432E-01;  9.9999998E-03;  2.5017497E-01;3843;  3.4471641E-03;  0.0000000E+00;  1.3709953E-04;  9.9847772E+02;  1.0000000E-01; -1.2611989E+03;3; -2.3454394E+00;  0.0000000E+00; -7.4077392E-01;0;  2.3810303E-02;  3.9906641E+04;  0.0000000E+00;  1.3653727E+01;  4.0000000E+04;  0.0000000E+00;  3.9978258E+04;  2.3222974E-02;  0.0000000E+00;  5.8732968E-04;  2.0686742E+04;
  2.2091319E-01;  9.9999998E-03;  2.6014629E-01;3844;  3.8959088E-03;  0.0000000E+00;  8.5817650E-05;  9.9787335E+02;  1.0000000E-01; -1.7618761E+03;3;  7.9563266E-01;  0.0000000E+00; -5.9671960E+00;0;  2.4160603E-02;  3.9853461E+04;  0.0000000E+00;  1.7676142E+01;  4.0000000E+04;  0.0000000E+00;  3.9982102E+04;  2.3702232E-02;  0.0000000E+00;  4.5837072E-04;  2.6938312E+04;
  2.2119211E-01;  9.9999998E-03;  2.7011853E-01;3845;  4.6607992E-03;  0.0000000E+00; -9.1030388E-06;  9.9666608E+02;  1.0000000E-01; -2.7620947E+03;3;  5.7718229E+00;  0.0000000E+00; -1.5068010E+01;0;  2.6009893E-02;  3.9749152E+04;  0.0000000E+00;  1.6675688E+01;  4.0000000E+04;  0.0000000E+00;  3.9988863E+04;  2.5968408E-02;  0.0000000E+00;  4.1485691E-05;  2.5985717E+04;
  2.2141378E-01;  9.9999998E-03;  2.8008714E-01;3846;  4.8124399E-03;  0.0000000E+00; -6.8532885E-05;  9.9508136E+02;  1.0000000E-01; -4.0749958E+03;3;  1.1988941E+01;  0.0000000E+00; -2.6568785E+01;0;  2.8115170E-02;  3.9608434E+04;  0.0000000E+00;  1.3049056E+01;  4.0000000E+04;  0.0000000E+00;  3.9999930E+04;  2.8374329E-02;  0.0000000E+00; -2.5916004E-04;  2.0431326E+04;
  2.2150144E-01;  9.9999998E-03;  2.9005954E-01;3847;  4.9223560E-03;  0.0000000E+00; -1.0236150E-04;  9.9336420E+02;  1.0000000E-01; -5.4976221E+03;3;  1.9802446E+01;  0.0000000E+00; -4.1340393E+01;0;  3.1431872E-02;  3.9456613E+04;  0.0000000E+00;  1.2011349E+01;  4.0000000E+04;  0.0000000E+00;  4.0010758E+04;  3.1834625E-02;  0.0000000E+00; -4.0275164E-04;  1.7133584E+04;
  2.2151232E-01;  9.9999998E-03;  3.0004087E-01;3848;  5.2359663E-03;  0.0000000E+00; -1.0567551E-04;  9.9151312E+02;  1.0000000E-01; -7.0312085E+03;3;  2.9506483E+01;  0.0000000E+00; -6.0356941E+01;0;  3.7243474E-02;  3.9298273E+04;  0.0000000E+00;  1.4356927E+01;  4.0000000E+04;  0.0000000E+00;  4.0018695E+04;  3.7515428E-02;  0.0000000E+00; -2.7195236E-04;  1.7449879E+04;
  2.3084041E-01;  9.9999998E-03;  2.4011406E-01;3903;  3.7896177E-03;  0.0000000E+00;  1.0631537E-04;  9.9872607E+02;  1.0000000E-01; -1.0554269E+03;3; -3.2631598E+00;  0.0000000E+00;  2.0192955E+00;0;  2.6795711E-02;  3.9919180E+04;  0.0000000E+00;  8.3713369E+00;  4.0000000E+04;  0.0000000E+00;  3.9985141E+04;  2.5891043E-02;  0.0000000E+00;  9.0466870E-04;  1.2605105E+04;
  2.3086248E-01;  9.9999998E-03;  2.5010708E-01;3904;  3.7583788E-03;  0.0000000E+00;  2.7712133E-05;  9.9845966E+02;  1.0000000E-01; -1.2761615E+03;3; -2.8801455E+00;  0.0000000E+00;  3.8067800E-01;0;  2.5823550E-02;  3.9897184E+04;  0.0000000E+00;  1.2030788E+01;  4.0000000E+04;  0.0000000E+00;  3.9986957E+04;  2.5098821E-02;  0.0000000E+00;  7.2472997E-04;  1.8118908E+04;
  2.3101707E-01;  9.9999998E-03;  2.6009345E-01;3905;  4.1302736E-03;  0.0000000E+00; -2.2049901E-05;  9.9792578E+02;  1.0000000E-01; -1.7184700E+03;3; -1.1256156E+00;  0.0000000E+00; -3.5357215E+00;0;  2.5838604E-02;  3.9850348E+04;  0.0000000E+00;  1.4167348E+01;  4.0000000E+04;  0.0000000E+00;  3.9991449E+04;  2.5281623E-02;  0.0000000E+00;  5.5698148E-04;  2.1616400E+04;
  2.3123938E-01;  9.9999998E-03;  2.7007839E-01;3906;  4.6790903E-03;  0.0000000E+00; -1.0535431E-04;  9.9698767E+02;  1.0000000E-01; -2.4956331E+03;3;  1.8101950E+00;  0.0000000E+00; -1.0463517E+01;0;  2.6829883E-02;  3.9768383E+04;  0.0000000E+00;  1.2704679E+01;  4.0000000E+04;  0.0000000E+00;  3.9997211E+04;  2.6741326E-02;  0.0000000E+00;  8.8558387E-05;  1.9911006E+04;
  2.3141131E-01;  9.9999998E-03;  2.8005889E-01;3907;  4.7868257E-03;  0.0000000E+00; -1.5745536E-04;  9.9574396E+02;  1.0000000E-01; -3.5260730E+03;3;  5.4297361E+00;  0.0000000E+00; -1.9663731E+01;0;  2.8221594E-02;  3.9657555E+04;  0.0000000E+00;  9.3282928E+00;  4.0000000E+04;  0.0000000E+00;  4.0005832E+04;  2.8495494E-02;  0.0000000E+00; -2.7389947E-04;  1.4829188E+04;
  2.3148502E-01;  9.9999998E-03;  2.9003942E-01;3908;  4.9020923E-03;  0.0000000E+00; -2.2360761E-04;  9.9434326E+02;  1.0000000E-01; -4.6864849E+03;3;  1.0127873E+01;  0.0000000E+00; -3.1546043E+01;0;  3.0471357E-02;  3.9532480E+04;  0.0000000E+00;  8.1813822E+00;  4.0000000E+04;  0.0000000E+00;  4.0015500E+04;  3.1294301E-02;  0.0000000E+00; -8.2294404E-04;  1.1877545E+04;
  2.3150244E-01;  9.9999998E-03;  3.0002210E-01;3909;  5.1216339E-03;  0.0000000E+00; -2.5489429E-04;  9.9278406E+02;  1.0000000E-01; -5.9782505E+03;3;  1.6707865E+01;  0.0000000E+00; -4.6028694E+01;0;  3.4622550E-02;  3.9396590E+04;  0.0000000E+00;  9.8092146E+00;  4.0000000E+04;  0.0000000E+00;  4.0024281E+04;  3.5664517E-02;  0.0000000E+00; -1.0419660E-03;  1.1995028E+04;
  2.4093495E-01;  9.9999998E-03;  2.4004275E-01;3964;  4.1586440E-03;  0.0000000E+00; -6.4699634E-06;  9.9862769E+02;  1.0000000E-01; -1.1369554E+03;3; -2.9043264E+00;  0.0000000E+00;  2.3585353E+00;0;  2.8134206E-02;  3.9900887E+04;  0.0000000E+00;  6.7471709E+00;  4.0000000E+04;  0.0000000E+00;  3.9996184E+04;  2.7192188E-02;  0.0000000E+00;  9.4201707E-04;  1.0094137E+04;
  2.4098921E-01;  9.9999998E-03;  2.5005203E-01;3965;  4.0484248E-03;  0.0000000E+00; -7.1492294E-05;  9.9841846E+02;  1.0000000E-01; -1.3102839E+03;3; -3.0879962E+00;  0.0000000E+00;  1.4242016E+00;0;  2.7175210E-02;  3.9884574E+04;  0.0000000E+00;  9.0889034E+00;  4.0000000E+04;  0.0000000E+00;  3.9997324E+04;  2.6387915E-02;  0.0000000E+00;  7.8729633E-04;  1.3715744E+04;
  2.4111497E-01;  9.9999998E-03;  2.6005241E-01;3966;  4.2632227E-03;  0.0000000E+00; -1.5380578E-04;  9.9802643E+02;  1.0000000E-01; -1.6350648E+03;3; -2.5505164E+00;  0.0000000E+00; -1.2385640E+00;0;  2.6619973E-02;  3.9851414E+04;  0.0000000E+00;  1.0117664E+01;  4.0000000E+04;  0.0000000E+00;  3.9999734E+04;  2.6256220E-02;  0.0000000E+00;  3.6375248E-04;  1.5571052E+04;
  2.4125899E-01;  9.9999998E-03;  2.7004632E-01;3967;  4.6762493E-03;  0.0000000E+00; -2.2530166E-04;  9.9739429E+02;  1.0000000E-01; -2.1588032E+03;3; -1.3183703E+00;  0.0000000E+00; -6.1872926E+00;0;  2.6925134E-02;  3.9796340E+04;  0.0000000E+00;  9.1576052E+00;  4.0000000E+04;  0.0000000E+00;  4.0003895E+04;  2.7117232E-02;  0.0000000E+00; -1.9209782E-04;  1.4556940E+04;
  2.4139725E-01;  9.9999998E-03;  2.8003475E-01;3968;  4.7524413E-03;  0.0000000E+00; -2.8247442E-04;  9.9648132E+02;  1.0000000E-01; -2.9151768E+03;3;  1.5109158E-01;  0.0000000E+00; -1.3072287E+01;0;  2.7534068E-02;  3.9714238E+04;  0.0000000E+00;  6.0889425E+00;  4.0000000E+04;  0.0000000E+00;  4.0010242E+04;  2.8300367E-02;  0.0000000E+00; -7.6630019E-04;  1.0183796E+04;
  2.4145894E-01;  9.9999998E-03;  2.9002160E-01;3969;  4.9170698E-03;  0.0000000E+00; -3.4637115E-04;  9.9540790E+02;  1.0000000E-01; -3.8044851E+03;3;  2.2606921E+00;  0.0000000E+00; -2.2153341E+01;0;  2.9100772E-02;  3.9617734E+04;  0.0000000E+00;  5.0093751E+00;  4.0000000E+04;  0.0000000E+00;  4.0018227E+04;  3.0577352E-02;  0.0000000E+00; -1.4765796E-03;  7.9944502E+03;
  2.4148504E-01;  9.9999998E-03;  3.0000749E-01;3970;  5.0589456E-03;  0.0000000E+00; -3.9565813E-04;  9.9413904E+02;  1.0000000E-01; -4.8557144E+03;3;  5.8186417E+00;  0.0000000E+00; -3.2676464E+01;0;  3.1799745E-02;  3.9505043E+04;  0.0000000E+00;  5.7057137E+00;  4.0000000E+04;  0.0000000E+00;  4.0027008E+04;  3.3814836E-02;  0.0000000E+00; -2.0150905E-03;  7.8038711E+03;
  2.5099388E-01;  9.9999998E-03;  2.3999885E-01;4025;  4.6853484E-03;  0.0000000E+00; -1.9328110E-04;  9.9855627E+02;  1.0000000E-01; -1.1961144E+03;3; -2.4236050E+00;  0.0000000E+00;  2.2480745E+00;0;  2.8491672E-02;  3.9887578E+04;  0.0000000E+00;  5.1065245E+00;  4.0000000E+04;  0.0000000E+00;  4.0003879E+04;  2.7935725E-02;  0.0000000E+00;  5.5594667E-04;  7.6896182E+03;
  2.5106201E-01;  9.9999998E-03;  2.5001651E-01;4026;  4.3974589E-03;  0.0000000E+00; -2.3704575E-04;  9.9843243E+02;  1.0000000E-01; -1.2986793E+03;3; -3.0362976E+00;  0.0000000E+00;  1.8649700E+00;0;  2.7599355E-02;  3.9879422E+04;  0.0000000E+00;  6.5005860E+00;  4.0000000E+04;  0.0000000E+00;  4.0004059E+04;  2.7250186E-02;  0.0000000E+00;  3.4916931E-04;  9.8993105E+03;
  2.5115794E-01;  9.9999998E-03;  2.6002285E-01;4027;  4.4183880E-03;  0.0000000E+00; -3.0761186E-04;  9.9820032E+02;  1.0000000E-01; -1.4910195E+03;3; -3.3217342E+00;  0.0000000E+00;  3.2418174E-01;0;  2.6771255E-02;  3.9860805E+04;  0.0000000E+00;  6.9380908E+00;  4.0000000E+04;  0.0000000E+00;  4.0005742E+04;  2.6971346E-02;  0.0000000E+00; -2.0009102E-04;  1.0845025E+04;
  2.5125033E-01;  9.9999998E-03;  2.7002206E-01;4028;  4.6683033E-03;  0.0000000E+00; -3.6144000E-04;  9.9782806E+02;  1.0000000E-01; -1.7994059E+03;3; -3.3558626E+00;  0.0000000E+00; -2.9004657E+00;0;  2.6553327E-02;  3.9828016E+04;  0.0000000E+00;  6.3402791E+00;  4.0000000E+04;  0.0000000E+00;  4.0008637E+04;  2.7388010E-02;  0.0000000E+00; -8.3468237E-04;  1.0343132E+04;
  2.5135440E-01;  9.9999998E-03;  2.8001654E-01;4029;  4.8115854E-03;  0.0000000E+00; -4.3319401E-04;  9.9722955E+02;  1.0000000E-01; -2.2952437E+03;3; -3.4014847E+00;  0.0000000E+00; -7.8608918E+00;0;  2.6544267E-02;  3.9774117E+04;  0.0000000E+00;  4.1973114E+00;  4.0000000E+04;  0.0000000E+00;  4.0013199E+04;  2.8321801E-02;  0.0000000E+00; -1.7775343E-03;  7.5080425E+03;
  2.5142586E-01;  9.9999998E-03;  2.9000795E-01;4030;  4.8630699E-03;  0.0000000E+00; -4.8675571E-04;  9.9642944E+02;  1.0000000E-01; -2.9581387E+03;3; -3.2780783E+00;  0.0000000E+00; -1.4172895E+01;0;  2.7187772E-02;  3.9701230E+04;  0.0000000E+00;  2.3702853E+00;  4.0000000E+04;  0.0000000E+00;  4.0019363E+04;  2.9773071E-02;  0.0000000E+00; -2.5852995E-03;  4.9855181E+03;
  2.5145805E-01;  9.9999998E-03;  2.9999781E-01;4031;  4.9697282E-03;  0.0000000E+00; -5.2312744E-04;  9.9545319E+02;  1.0000000E-01; -3.7669551E+03;3; -2.2106817E+00;  0.0000000E+00; -2.1543013E+01;0;  2.9028082E-02;  3.9613020E+04;  0.0000000E+00;  2.3089008E+00;  4.0000000E+04;  0.0000000E+00;  4.0026215E+04;  3.2121968E-02;  0.0000000E+00; -3.0938855E-03;  4.8127900E+03;
  2.6101795E-01;  9.9999998E-03;  2.3997007E-01;4086;  5.4608611E-03;  0.0000000E+00; -4.1552898E-04;  9.9852893E+02;  1.0000000E-01; -1.2187310E+03;3; -1.8128831E+00;  0.0000000E+00;  1.9246908E+00;0;  2.8157532E-02;  3.9879645E+04;  0.0000000E+00;  3.6424031E+00;  4.0000000E+04;  0.0000000E+00;  4.0009762E+04;  2.8349629E-02;  0.0000000E+00; -1.9209577E-04;  5.6661211E+03;
  2.6106945E-01;  9.9999998E-03;  2.4999262E-01;4087;  4.7475765E-03;  0.0000000E+00; -3.5112503E-04;  9.9849176E+02;  1.0000000E-01; -1.2495449E+03;3; -2.6855738E+00;  0.0000000E+00;  1.9039682E+00;0;  2.7818285E-02;  3.9879906E+04;  0.0000000E+00;  4.6042547E+00;  4.0000000E+04;  0.0000000E+00;  4.0008930E+04;  2.7866919E-02;  0.0000000E+00; -4.8632835E-05;  7.1494805E+03;
  2.6114586E-01;  9.9999998E-03;  2.6000199E-01;4088;  4.5629451E-03;  0.0000000E+00; -4.0676180E-04;  9.9840533E+02;  1.0000000E-01; -1.3211478E+03;3; -3.4753320E+00;  0.0000000E+00;  1.1618119E+00;0;  2.7024275E-02;  3.9873980E+04;  0.0000000E+00;  4.8309822E+00;  4.0000000E+04;  0.0000000E+00;  4.0009996E+04;  2.7640542E-02;  0.0000000E+00; -6.1626732E-04;  7.7215972E+03;
  2.6120996E-01;  9.9999998E-03;  2.7000448E-01;4089;  4.6778708E-03;  0.0000000E+00; -4.6769143E-04;  9.9823328E+02;  1.0000000E-01; -1.4637117E+03;3; -4.2622209E+00;  0.0000000E+00; -7.4744010E-01;0;  2.6418760E-02;  3.9859590E+04;  0.0000000E+00;  4.5050011E+00;  4.0000000E+04;  0.0000000E+00;  4.0011441E+04;  2.7868044E-02;  0.0000000E+00; -1.4492840E-03;  7.5705454E+03;
  2.6129180E-01;  9.9999998E-03;  2.8000301E-01;4090;  4.8206295E-03;  0.0000000E+00; -5.4657587E-04;  9.9789465E+02;  1.0000000E-01; -1.7442469E+03;3; -5.2640915E+00;  0.0000000E+00; -4.0151272E+00;0;  2.5906341E-02;  3.9829105E+04;  0.0000000E+00;  3.0459418E+00;  4.0000000E+04;  0.0000000E+00;  4.0013766E+04;  2.8558545E-02;  0.0000000E+00; -2.6522041E-03;  5.8200986E+03;
  2.6137230E-01;  9.9999998E-03;  2.8999838E-01;4091;  4.8394566E-03;  0.0000000E+00; -5.9538294E-04;  9.9735242E+02;  1.0000000E-01; -2.1934688E+03;3; -6.4150205E+00;  0.0000000E+00; -8.2426720E+00;0;  2.6008351E-02;  3.9779070E+04;  0.0000000E+00;  8.7593973E-01;  4.0000000E+04;  0.0000000E+00;  4.0018199E+04;  2.9558405E-02;  0.0000000E+00; -3.5500545E-03;  3.3923875E+03;
  2.6141974E-01;  9.9999998E-03;  2.9999152E-01;4092;  4.8375209E-03;  0.0000000E+00; -6.1955128E-04;  9.9662537E+02;  1.0000000E-01; -2.7958223E+03;3; -7.0844316E+00;  0.0000000E+00; -1.3080373E+01;0;  2.7047543E-02;  3.9712773E+04;  0.0000000E+00; -2.7381811E-01;  4.0000000E+04;  0.0000000E+00;  4.0024137E+04;  3.1011492E-02;  0.0000000E+00; -3.9639496E-03;  3.3147642E+03;
  2.7102381E-01;  9.9999998E-03;  2.3995340E-01;4147;  6.0621332E-03;  0.0000000E+00; -5.3318782E-04;  9.9852814E+02;  1.0000000E-01; -1.2194222E+03;3; -1.2104440E+00;  0.0000000E+00;  1.4738652E+00;0;  2.7862759E-02;  3.9875305E+04;  0.0000000E+00;  2.4134579E+00;  4.0000000E+04;  0.0000000E+00;  4.0014172E+04;  2.8603150E-02;  0.0000000E+00; -7.4038969E-04;  4.1350435E+03;
  2.7104220E-01;  9.9999998E-03;  2.4997725E-01;4148;  5.1226928E-03;  0.0000000E+00; -4.0188900E-04;  9.9855707E+02;  1.0000000E-01; -1.1954230E+03;3; -2.0923214E+00;  0.0000000E+00;  1.6547426E+00;0;  2.8281916E-02;  3.9881844E+04;  0.0000000E+00;  3.1610539E+00;  4.0000000E+04;  0.0000000E+00;  4.0012184E+04;  2.8558053E-02;  0.0000000E+00; -2.7613662E-04;  5.1371553E+03;
  2.7109134E-01;  9.9999998E-03;  2.5998810E-01;4149;  4.7122869E-03;  0.0000000E+00; -4.4098313E-04;  9.9857874E+02;  1.0000000E-01; -1.1774976E+03;3; -3.0876067E+00;  0.0000000E+00;  1.4101982E+00;0;  2.7854493E-02;  3.9886367E+04;  0.0000000E+00;  3.5196135E+00;  4.0000000E+04;  0.0000000E+00;  4.0012188E+04;  2.8565887E-02;  0.0000000E+00; -7.1139500E-04;  5.7821064E+03;
  2.7114001E-01;  9.9999998E-03;  2.6999244E-01;4150;  4.6864366E-03;  0.0000000E+00; -5.1858783E-04;  9.9856201E+02;  1.0000000E-01; -1.1913243E+03;3; -4.2350240E+00;  0.0000000E+00;  4.2341667E-01;0;  2.7112259E-02;  3.9885758E+04;  0.0000000E+00;  3.4701741E+00;  4.0000000E+04;  0.0000000E+00;  4.0012887E+04;  2.8812815E-02;  0.0000000E+00; -1.7005560E-03;  5.9373076E+03;
  2.7119997E-01;  9.9999998E-03;  2.7999347E-01;4151;  4.8087304E-03;  0.0000000E+00; -6.0127483E-04;  9.9843451E+02;  1.0000000E-01; -1.2970004E+03;3; -5.6789470E+00;  0.0000000E+00; -1.5368973E+00;0;  2.6393346E-02;  3.9874570E+04;  0.0000000E+00;  2.7705908E+00;  4.0000000E+04;  0.0000000E+00;  4.0013629E+04;  2.9396851E-02;  0.0000000E+00; -3.0035037E-03;  5.2181123E+03;
  2.7128327E-01;  9.9999998E-03;  2.8999180E-01;4152;  4.8549576E-03;  0.0000000E+00; -6.5829663E-04;  9.9812897E+02;  1.0000000E-01; -1.5501290E+03;3; -7.4607077E+00;  0.0000000E+00; -4.2484536E+00;0;  2.6165616E-02;  3.9846434E+04;  0.0000000E+00;  8.1390357E-01;  4.0000000E+04;  0.0000000E+00;  4.0016082E+04;  3.0219797E-02;  0.0000000E+00; -4.0541813E-03;  3.0770491E+03;
  2.7135873E-01;  9.9999998E-03;  2.9998758E-01;4153;  4.7461116E-03;  0.0000000E+00; -6.7956367E-04;  9.9762006E+02;  1.0000000E-01; -1.9717467E+03;3; -9.1552095E+00;  0.0000000E+00; -7.2518210E+00;0;  2.6657533E-02;  3.9799859E+04;  0.0000000E+00; -1.6547272E+00;  4.0000000E+04;  0.0000000E+00;  4.0020270E+04;  3.1084433E-02;  0.0000000E+00; -4.4268998E-03;  3.0925791E+03;
  2.8105533E-01;  9.9999998E-03;  2.3994736E-01;4208;  6.5192911E-03;  0.0000000E+00; -5.7509780E-04;  9.9853131E+02;  1.0000000E-01; -1.2168051E+03;3; -6.2993211E-01;  0.0000000E+00;  9.7963309E-01;0;  2.8006980E-02;  3.9873324E+04;  0.0000000E+00;  1.4106716E+00;  4.0000000E+04;  0.0000000E+00;  4.0016496E+04;  2.9128667E-02;  0.0000000E+00; -1.1216867E-03;  3.0811738E+03;
  2.8102148E-01;  9.9999998E-03;  2.4996908E-01;4209;  5.4854741E-03;  0.0000000E+00; -4.2027177E-04;  9.9859064E+02;  1.0000000E-01; -1.1676213E+03;3; -1.4272592E+00;  0.0000000E+00;  1.2431617E+00;0;  2.9172054E-02;  3.9882875E+04;  0.0000000E+00;  1.9368501E+00;  4.0000000E+04;  0.0000000E+00;  4.0014121E+04;  2.9628372E-02;  0.0000000E+00; -4.5631838E-04;  3.5604531E+03;
  2.8102690E-01;  9.9999998E-03;  2.5997987E-01;4210;  4.8655351E-03;  0.0000000E+00; -4.3383593E-04;  9.9868304E+02;  1.0000000E-01; -1.0910802E+03;3; -2.3930087E+00;  0.0000000E+00;  1.2732167E+00;0;  2.9430320E-02;  3.9893762E+04;  0.0000000E+00;  2.4375021E+00;  4.0000000E+04;  0.0000000E+00;  4.0013398E+04;  3.0023942E-02;  0.0000000E+00; -5.9362210E-04;  4.2306128E+03;
  2.8105402E-01;  9.9999998E-03;  2.6998475E-01;4211;  4.6970285E-03;  0.0000000E+00; -5.1748782E-04;  9.9876953E+02;  1.0000000E-01; -1.0194280E+03;3; -3.5527744E+00;  0.0000000E+00;  8.7301290E-01;0;  2.8956905E-02;  3.9902449E+04;  0.0000000E+00;  2.7209640E+00;  4.0000000E+04;  0.0000000E+00;  4.0013188E+04;  3.0474981E-02;  0.0000000E+00; -1.5180764E-03;  4.7279951E+03;
  2.8109857E-01;  9.9999998E-03;  2.7998704E-01;4212;  4.7435681E-03;  0.0000000E+00; -6.1036536E-04;  9.9879230E+02;  1.0000000E-01; -1.0005643E+03;3; -5.0458760E+00;  0.0000000E+00; -1.5734124E-01;0;  2.8217409E-02;  3.9905047E+04;  0.0000000E+00;  2.5253706E+00;  4.0000000E+04;  0.0000000E+00;  4.0012984E+04;  3.1073840E-02;  0.0000000E+00; -2.8564313E-03;  4.6140166E+03;
  2.8116181E-01;  9.9999998E-03;  2.8998730E-01;4213;  4.8246081E-03;  0.0000000E+00; -6.7765289E-04;  9.9869849E+02;  1.0000000E-01; -1.0782905E+03;3; -6.9446092E+00;  0.0000000E+00; -1.7649567E+00;0;  2.7853547E-02;  3.9897035E+04;  0.0000000E+00;  1.4432411E+00;  4.0000000E+04;  0.0000000E+00;  4.0013691E+04;  3.1847987E-02;  0.0000000E+00; -3.9944411E-03;  3.4087783E+03;
  2.8123829E-01;  9.9999998E-03;  2.9998544E-01;4214;  4.8108152E-03;  0.0000000E+00; -7.1549165E-04;  9.9843457E+02;  1.0000000E-01; -1.2969509E+03;3; -9.0817509E+00;  0.0000000E+00; -3.6667018E+00;0;  2.8133180E-02;  3.9873379E+04;  0.0000000E+00; -8.5706758E-01;  4.0000000E+04;  0.0000000E+00;  4.0015898E+04;  3.2701816E-02;  0.0000000E+00; -4.5686364E-03;  2.1421846E+03;
  2.9113686E-01;  9.9999998E-03;  2.3994945E-01;4269;  6.8096481E-03;  0.0000000E+00; -5.5620319E-04;  9.9853613E+02;  1.0000000E-01; -1.2128052E+03;3; -1.6429560E-01;  0.0000000E+00;  5.5361831E-01;0;  2.8939100E-02;  3.9873414E+04;  0.0000000E+00;  7.1378303E-01;  4.0000000E+04;  0.0000000E+00;  4.0016906E+04;  3.0281471E-02;  0.0000000E+00; -1.3423706E-03;  2.5199783E+03;
  2.9106495E-01;  9.9999998E-03;  2.4996658E-01;4270;  5.8522061E-03;  0.0000000E+00; -4.2324307E-04;  9.9859039E+02;  1.0000000E-01; -1.1678188E+03;3; -7.3001528E-01;  0.0000000E+00;  7.8301483E-01;0;  3.0708140E-02;  3.9882199E+04;  0.0000000E+00;  8.6835259E-01;  4.0000000E+04;  0.0000000E+00;  4.0014762E+04;  3.1360451E-02;  0.0000000E+00; -6.5231195E-04;  2.4473877E+03;
  2.9100183E-01;  9.9999998E-03;  2.5997588E-01;4271;  5.0651240E-03;  0.0000000E+00; -3.9522565E-04;  9.9870624E+02;  1.0000000E-01; -1.0718710E+03;3; -1.5407931E+00;  0.0000000E+00;  9.3588543E-01;0;  3.1946827E-02;  3.9894992E+04;  0.0000000E+00;  1.2995842E+00;  4.0000000E+04;  0.0000000E+00;  4.0013766E+04;  3.2243229E-02;  0.0000000E+00; -2.9640377E-04;  2.7790115E+03;
  2.9098564E-01;  9.9999998E-03;  2.6998040E-01;4272;  4.7296942E-03;  0.0000000E+00; -4.8359431E-04;  9.9884576E+02;  1.0000000E-01; -9.5626923E+02;3; -2.5549514E+00;  0.0000000E+00;  8.5790843E-01;0;  3.1997193E-02;  3.9908566E+04;  0.0000000E+00;  1.7649808E+00;  4.0000000E+04;  0.0000000E+00;  4.0013164E+04;  3.3034470E-02;  0.0000000E+00; -1.0372768E-03;  3.3409751E+03;
  2.9101661E-01;  9.9999998E-03;  2.7998292E-01;4273;  4.6649482E-03;  0.0000000E+00; -5.8910029E-04;  9.9895123E+02;  1.0000000E-01; -8.6886432E+02;3; -3.8235743E+00;  0.0000000E+00;  4.1465604E-01;0;  3.1470608E-02;  3.9918734E+04;  0.0000000E+00;  1.7172489E+00;  4.0000000E+04;  0.0000000E+00;  4.0012598E+04;  3.3809986E-02;  0.0000000E+00; -2.3393794E-03;  3.3359514E+03;
  2.9106581E-01;  9.9999998E-03;  2.8998402E-01;4274;  4.6737054E-03;  0.0000000E+00; -6.6644413E-04;  9.9899036E+02;  1.0000000E-01; -8.3647015E+02;3; -5.4546986E+00;  0.0000000E+00; -4.1015446E-01;0;  3.1112740E-02;  3.9923285E+04;  0.0000000E+00;  9.3070710E-01;  4.0000000E+04;  0.0000000E+00;  4.0012492E+04;  3.4585863E-02;  0.0000000E+00; -3.4731228E-03;  2.4887021E+03;
  2.9111785E-01;  9.9999998E-03;  2.9998365E-01;4275;  4.6769255E-03;  0.0000000E+00; -7.1804057E-04;  9.9892871E+02;  1.0000000E-01; -8.8753046E+02;3; -7.4707985E+00;  0.0000000E+00; -1.4932076E+00;0;  3.1199770E-02;  3.9919039E+04;  0.0000000E+00; -7.0725620E-01;  4.0000000E+04;  0.0000000E+00;  4.0012812E+04;  3.5370208E-02;  0.0000000E+00; -4.1704383E-03;  1.6913203E+03;
  3.0120173E-01;  9.9999998E-03;  2.3995721E-01;4330;  6.9917310E-03;  0.0000000E+00; -4.9760181E-04;  9.9856183E+02;  1.0000000E-01; -1.1915219E+03;3;  2.0107457E-01;  0.0000000E+00;  2.3593624E-01;0;  3.0830758E-02;  3.9876066E+04;  0.0000000E+00;  4.3682316E-01;  4.0000000E+04;  0.0000000E+00;  4.0016574E+04;  3.2275338E-02;  0.0000000E+00; -1.4445806E-03;  2.2756584E+03;
  3.0110675E-01;  9.9999998E-03;  2.4996875E-01;4331;  6.2212078E-03;  0.0000000E+00; -4.2864686E-04;  9.9859375E+02;  1.0000000E-01; -1.1650535E+03;3; -1.5246600E-01;  0.0000000E+00;  3.8713846E-01;0;  3.2947760E-02;  3.9881879E+04;  0.0000000E+00;  3.5649824E-01;  4.0000000E+04;  0.0000000E+00;  4.0015234E+04;  3.3890761E-02;  0.0000000E+00; -9.4300054E-04;  2.0833586E+03;
  3.0101120E-01;  9.9999998E-03;  2.5997540E-01;4332;  5.3784610E-03;  0.0000000E+00; -3.8225972E-04;  9.9868933E+02;  1.0000000E-01; -1.0858458E+03;3; -7.2286135E-01;  0.0000000E+00;  5.3397489E-01;0;  3.5027642E-02;  3.9892773E+04;  0.0000000E+00;  4.7580537E-01;  4.0000000E+04;  0.0000000E+00;  4.0013738E+04;  3.5308756E-02;  0.0000000E+00; -2.8111518E-04;  2.0072220E+03;
  3.0097693E-01;  9.9999998E-03;  2.6997879E-01;4333;  4.8277243E-03;  0.0000000E+00; -4.3404204E-04;  9.9882367E+02;  1.0000000E-01; -9.7458972E+02;3; -1.5294510E+00;  0.0000000E+00;  6.1247343E-01;0;  3.6127906E-02;  3.9905980E+04;  0.0000000E+00;  6.1286360E-01;  4.0000000E+04;  0.0000000E+00;  4.0013344E+04;  3.6539283E-02;  0.0000000E+00; -4.1137470E-04;  2.0389017E+03;
  3.0099744E-01;  9.9999998E-03;  2.7998075E-01;4334;  4.6387888E-03;  0.0000000E+00; -5.4822728E-04;  9.9895282E+02;  1.0000000E-01; -8.6758038E+02;3; -2.4640152E+00;  0.0000000E+00;  4.7143942E-01;0;  3.6096394E-02;  3.9918953E+04;  0.0000000E+00;  3.7441701E-01;  4.0000000E+04;  0.0000000E+00;  4.0012355E+04;  3.7647352E-02;  0.0000000E+00; -1.5509564E-03;  1.8200278E+03;
  3.0103907E-01;  9.9999998E-03;  2.8998184E-01;4335;  4.5516980E-03;  0.0000000E+00; -6.4310501E-04;  9.9904987E+02;  1.0000000E-01; -7.8718762E+02;3; -3.6532638E+00;  0.0000000E+00;  1.1358757E-01;0;  3.5878144E-02;  3.9928812E+04;  0.0000000E+00; -4.8467875E-01;  4.0000000E+04;  0.0000000E+00;  4.0011746E+04;  3.8618870E-02;  0.0000000E+00; -2.7407249E-03;  1.5582831E+03;
  3.0107996E-01;  9.9999998E-03;  2.9998201E-01;4336;  4.4612852E-03;  0.0000000E+00; -7.0934114E-04;  9.9908826E+02;  1.0000000E-01; -7.5538605E+02;3; -5.1734753E+00;  0.0000000E+00; -4.2391896E-01;0;  3.5888966E-02;  3.9934344E+04;  0.0000000E+00; -2.0347989E+00;  4.0000000E+04;  0.0000000E+00;  4.0011242E+04;  3.9433721E-02;  0.0000000E+00; -3.5447557E-03;  2.8293855E+03;
  3.1127739E-01;  9.9999998E-03;  2.3996818E-01;4391;  7.1238587E-03;  0.0000000E+00; -4.3528463E-04;  9.9860571E+02;  1.0000000E-01; -1.1551278E+03;3;  4.4000554E-01;  0.0000000E+00;  3.9375041E-02;0;  3.3590879E-02;  3.9880645E+04;  0.0000000E+00;  3.9326492E-01;  4.0000000E+04;  0.0000000E+00;  4.0014797E+04;  3.5144310E-02;  0.0000000E+00; -1.5534314E-03;  2.0761108E+03;
  3.1116131E-01;  9.9999998E-03;  2.4997382E-01;4392;  6.5745995E-03;  0.0000000E+00; -4.4366586E-04;  9.9859906E+02;  1.0000000E-01; -1.1606586E+03;3;  2.5479349E-01;  0.0000000E+00;  1.1848598E-01;0;  3.5860959E-02;  3.9882547E+04;  0.0000000E+00;  2.1573873E-01;  4.0000000E+04;  0.0000000E+00;  4.0014219E+04;  3.7201203E-02;  0.0000000E+00; -1.3402445E-03;  1.9507157E+03;
  3.1104261E-01;  9.9999998E-03;  2.5997734E-01;4393;  5.8579589E-03;  0.0000000E+00; -4.3112392E-04;  9.9865527E+02;  1.0000000E-01; -1.1140919E+03;3; -4.5626707E-02;  0.0000000E+00;  1.9131005E-01;0;  3.8262028E-02;  3.9889469E+04;  0.0000000E+00;  1.1379453E-01;  4.0000000E+04;  0.0000000E+00;  4.0013742E+04;  3.9119568E-02;  0.0000000E+00; -8.5753988E-04;  1.8309829E+03;
  3.1099883E-01;  9.9999998E-03;  2.6997924E-01;4394;  5.0957100E-03;  0.0000000E+00; -4.0067686E-04;  9.9875623E+02;  1.0000000E-01; -1.0304399E+03;3; -5.8223784E-01;  0.0000000E+00;  2.7824560E-01;0;  4.0867705E-02;  3.9899891E+04;  0.0000000E+00; -3.7825573E-02;  4.0000000E+04;  0.0000000E+00;  4.0012672E+04;  4.0832747E-02;  0.0000000E+00;  3.4957884E-05;  1.7262061E+03;
  3.1102082E-01;  9.9999998E-03;  2.7998018E-01;4395;  4.7251456E-03;  0.0000000E+00; -5.0180999E-04;  9.9886932E+02;  1.0000000E-01; -9.3676361E+02;3; -1.2919066E+00;  0.0000000E+00;  2.9458860E-01;0;  4.1701265E-02;  3.9911320E+04;  0.0000000E+00; -4.9051198E-01;  4.0000000E+04;  0.0000000E+00;  4.0012652E+04;  4.2360745E-02;  0.0000000E+00; -6.5947935E-04;  1.7334000E+03;
  3.1107172E-01;  9.9999998E-03;  2.8998074E-01;4396;  4.5629255E-03;  0.0000000E+00; -6.1501568E-04;  9.9897284E+02;  1.0000000E-01; -8.5098828E+02;3; -2.0507998E+00;  0.0000000E+00;  1.5162338E-01;0;  4.1811462E-02;  3.9922145E+04;  0.0000000E+00; -1.4616108E+00;  4.0000000E+04;  0.0000000E+00;  4.0012027E+04;  4.3690845E-02;  0.0000000E+00; -1.8793846E-03;  2.4261399E+03;
  3.1112701E-01;  9.9999998E-03;  2.9998079E-01;4397;  4.4239741E-03;  0.0000000E+00; -7.0942770E-04;  9.9904883E+02;  1.0000000E-01; -7.8802710E+02;3; -3.0118878E+00;  0.0000000E+00; -8.8070966E-02;0;  4.1783240E-02;  3.9930738E+04;  0.0000000E+00; -3.0178385E+00;  4.0000000E+04;  0.0000000E+00;  4.0010992E+04;  4.4787336E-02;  0.0000000E+00; -3.0040953E-03;  4.2704961E+03;
  3.2137594E-01;  9.9999998E-03;  2.3998004E-01;4452;  7.2539556E-03;  0.0000000E+00; -3.9485231E-04;  9.9866449E+02;  1.0000000E-01; -1.1064379E+03;3;  5.9372234E-01;  0.0000000E+00; -6.6365749E-02;0;  3.6996540E-02;  3.9886922E+04;  0.0000000E+00;  4.4166642E-01;  4.0000000E+04;  0.0000000E+00;  4.0013098E+04;  3.8747247E-02;  0.0000000E+00; -1.7507067E-03;  1.8828942E+03;
  3.2126230E-01;  9.9999998E-03;  2.4998045E-01;4453;  6.8922685E-03;  0.0000000E+00; -4.5018556E-04;  9.9861804E+02;  1.0000000E-01; -1.1449059E+03;3;  5.0533432E-01;  0.0000000E+00; -3.4727331E-02;0;  3.9445274E-02;  3.9884309E+04;  0.0000000E+00;  2.5604787E-01;  4.0000000E+04;  0.0000000E+00;  4.0013723E+04;  4.1124366E-02;  0.0000000E+00; -1.6790919E-03;  1.8426375E+03;
  3.2113108E-01;  9.9999998E-03;  2.5998062E-01;4454;  6.4018248E-03;  0.0000000E+00; -4.8705089E-04;  9.9862781E+02;  1.0000000E-01; -1.1368567E+03;3;  3.7344408E-01;  0.0000000E+00; -3.9333967E-03;0;  4.1916333E-02;  3.9886598E+04;  0.0000000E+00;  4.9343769E-02;  4.0000000E+04;  0.0000000E+00;  4.0013582E+04;  4.3427739E-02;  0.0000000E+00; -1.5114058E-03;  1.8059489E+03;
  3.2106131E-01;  9.9999998E-03;  2.6998088E-01;4455;  5.7625300E-03;  0.0000000E+00; -5.0798204E-04;  9.9868280E+02;  1.0000000E-01; -1.0912778E+03;3;  1.6471817E-01;  0.0000000E+00;  6.2430813E-03;0;  4.4429798E-02;  3.9892785E+04;  0.0000000E+00; -2.1771441E-01;  4.0000000E+04;  0.0000000E+00;  4.0013098E+04;  4.5583811E-02;  0.0000000E+00; -1.1540112E-03;  1.7682417E+03;
  3.2106492E-01;  9.9999998E-03;  2.7998084E-01;4456;  5.0708321E-03;  0.0000000E+00; -5.0440081E-04;  9.9876184E+02;  1.0000000E-01; -1.0257981E+03;3; -2.6377457E-01;  0.0000000E+00;  2.4678290E-02;0;  4.7123320E-02;  3.9901094E+04;  0.0000000E+00; -6.6659272E-01;  4.0000000E+04;  0.0000000E+00;  4.0012832E+04;  4.7517616E-02;  0.0000000E+00; -3.9429616E-04;  1.8999520E+03;
  3.2109863E-01;  9.9999998E-03;  2.8998065E-01;4457;  4.7370614E-03;  0.0000000E+00; -6.0382590E-04;  9.9885498E+02;  1.0000000E-01; -9.4861517E+02;3; -8.7158090E-01;  0.0000000E+00;  2.1118438E-02;0;  4.7989700E-02;  3.9910859E+04;  0.0000000E+00; -1.3819410E+00;  4.0000000E+04;  0.0000000E+00;  4.0012062E+04;  4.9213458E-02;  0.0000000E+00; -1.2237572E-03;  2.4576477E+03;
  3.2113296E-01;  9.9999998E-03;  2.9998031E-01;4458;  4.5916960E-03;  0.0000000E+00; -7.1828300E-04;  9.9894366E+02;  1.0000000E-01; -8.7513574E+02;3; -1.4209149E+00;  0.0000000E+00; -8.2258269E-02;0;  4.8105765E-02;  3.9920457E+04;  0.0000000E+00; -2.3731318E+00;  4.0000000E+04;  0.0000000E+00;  4.0011398E+04;  5.0645750E-02;  0.0000000E+00; -2.5399853E-03;  3.5703037E+03;
  3.3143321E-01;  9.9999998E-03;  2.3999161E-01;4513;  7.4114925E-03;  0.0000000E+00; -3.8178804E-04;  9.9873969E+02;  1.0000000E-01; -1.0441680E+03;3;  6.7414641E-01;  0.0000000E+00; -9.9684015E-02;0;  4.0749185E-02;  3.9894043E+04;  0.0000000E+00;  5.0326002E-01;  4.0000000E+04;  0.0000000E+00;  4.0011289E+04;  4.2778000E-02;  0.0000000E+00; -2.0288138E-03;  1.6909158E+03;
  3.3132932E-01;  9.9999998E-03;  2.4998754E-01;4514;  7.2025349E-03;  0.0000000E+00; -4.7051616E-04;  9.9865411E+02;  1.0000000E-01; -1.1150302E+03;3;  6.4481080E-01;  0.0000000E+00; -1.0320395E-01;0;  4.3262720E-02;  3.9887492E+04;  0.0000000E+00;  3.9177588E-01;  4.0000000E+04;  0.0000000E+00;  4.0012098E+04;  4.5322098E-02;  0.0000000E+00; -2.0593768E-03;  1.7565330E+03;
  3.3120137E-01;  9.9999998E-03;  2.5998470E-01;4515;  6.9069825E-03;  0.0000000E+00; -5.3424167E-04;  9.9862299E+02;  1.0000000E-01; -1.1408073E+03;3;  6.0297489E-01;  0.0000000E+00; -1.0579862E-01;0;  4.5814019E-02;  3.9885102E+04;  0.0000000E+00;  2.1862724E-01;  4.0000000E+04;  0.0000000E+00;  4.0013273E+04;  4.7848526E-02;  0.0000000E+00; -2.0345091E-03;  1.8031658E+03;
  3.3111370E-01;  9.9999998E-03;  2.6998308E-01;4516;  6.5098018E-03;  0.0000000E+00; -5.9012481E-04;  9.9863129E+02;  1.0000000E-01; -1.1339432E+03;3;  5.4383916E-01;  0.0000000E+00; -1.1999764E-01;0;  4.8269451E-02;  3.9886605E+04;  0.0000000E+00; -2.5393177E-02;  4.0000000E+04;  0.0000000E+00;  4.0013551E+04;  5.0284091E-02;  0.0000000E+00; -2.0146407E-03;  1.8088716E+03;
  3.3109128E-01;  9.9999998E-03;  2.7998206E-01;4517;  6.0202824E-03;  0.0000000E+00; -6.5120414E-04;  9.9866718E+02;  1.0000000E-01; -1.1042157E+03;3;  4.3200254E-01;  0.0000000E+00; -1.4835112E-01;0;  5.0395921E-02;  3.9891086E+04;  0.0000000E+00; -3.7772259E-01;  4.0000000E+04;  0.0000000E+00;  4.0013219E+04;  5.2547049E-02;  0.0000000E+00; -2.1511293E-03;  1.8488234E+03;
  3.3110866E-01;  9.9999998E-03;  2.8998119E-01;4518;  5.4546851E-03;  0.0000000E+00; -6.9367635E-04;  9.9872577E+02;  1.0000000E-01; -1.0556738E+03;3;  1.9384246E-01;  0.0000000E+00; -1.7459112E-01;0;  5.2442223E-02;  3.9897676E+04;  0.0000000E+00; -8.6523741E-01;  4.0000000E+04;  0.0000000E+00;  4.0012945E+04;  5.4545604E-02;  0.0000000E+00; -2.1033790E-03;  2.0884287E+03;
  3.3113220E-01;  9.9999998E-03;  2.9998025E-01;4519;  5.0051752E-03;  0.0000000E+00; -7.5113098E-04;  9.9879535E+02;  1.0000000E-01; -9.9804584E+02;3; -2.5569063E-01;  0.0000000E+00; -1.8026851E-01;0;  5.3841382E-02;  3.9905289E+04;  0.0000000E+00; -1.4730858E+00;  4.0000000E+04;  0.0000000E+00;  4.0012359E+04;  5.6224775E-02;  0.0000000E+00; -2.3833928E-03;  2.6174558E+03;
  3.4146854E-01;  9.9999998E-03;  2.4000102E-01;4574;  7.6087136E-03;  0.0000000E+00; -4.0914834E-04;  9.9880743E+02;  1.0000000E-01; -9.8802142E+02;3;  7.3757958E-01;  0.0000000E+00; -1.1013108E-01;0;  4.4469219E-02;  3.9900668E+04;  0.0000000E+00;  5.0100881E-01;  4.0000000E+04;  0.0000000E+00;  4.0009938E+04;  4.6888307E-02;  0.0000000E+00; -2.4190892E-03;  1.5060781E+03;
  3.4138188E-01;  9.9999998E-03;  2.4999380E-01;4575;  7.5305244E-03;  0.0000000E+00; -5.0773716E-04;  9.9870258E+02;  1.0000000E-01; -1.0748832E+03;3;  7.3279840E-01;  0.0000000E+00; -1.2749688E-01;0;  4.6962544E-02;  3.9890805E+04;  0.0000000E+00;  4.6231562E-01;  4.0000000E+04;  0.0000000E+00;  4.0011535E+04;  4.9429953E-02;  0.0000000E+00; -2.4674104E-03;  1.6772401E+03;
  3.4126997E-01;  9.9999998E-03;  2.5998875E-01;4576;  7.4274763E-03;  0.0000000E+00; -5.9193454E-04;  9.9863348E+02;  1.0000000E-01; -1.1321161E+03;3;  7.4035496E-01;  0.0000000E+00; -1.4844698E-01;0;  4.9435779E-02;  3.9884500E+04;  0.0000000E+00;  3.5786185E-01;  4.0000000E+04;  0.0000000E+00;  4.0012902E+04;  5.1995751E-02;  0.0000000E+00; -2.5599704E-03;  1.8145042E+03;
  3.4118539E-01;  9.9999998E-03;  2.6998547E-01;4577;  7.2672926E-03;  0.0000000E+00; -6.5585069E-04;  9.9859991E+02;  1.0000000E-01; -1.1599672E+03;3;  7.5669342E-01;  0.0000000E+00; -1.7854244E-01;0;  5.1930644E-02;  3.9881715E+04;  0.0000000E+00;  1.7955820E-01;  4.0000000E+04;  0.0000000E+00;  4.0014270E+04;  5.4511320E-02;  0.0000000E+00; -2.5806753E-03;  1.8954227E+03;
  3.4114558E-01;  9.9999998E-03;  2.7998334E-01;4578;  7.0964424E-03;  0.0000000E+00; -7.4963417E-04;  9.9858990E+02;  1.0000000E-01; -1.1682139E+03;3;  7.6623434E-01;  0.0000000E+00; -2.0874391E-01;0;  5.3760864E-02;  3.9882008E+04;  0.0000000E+00; -7.9193175E-02;  4.0000000E+04;  0.0000000E+00;  4.0014562E+04;  5.6887902E-02;  0.0000000E+00; -3.1270387E-03;  1.9251605E+03;
  3.4113869E-01;  9.9999998E-03;  2.8998175E-01;4579;  6.8705687E-03;  0.0000000E+00; -8.4188726E-04;  9.9861340E+02;  1.0000000E-01; -1.1487577E+03;3;  7.3564231E-01;  0.0000000E+00; -2.3736826E-01;0;  5.5158079E-02;  3.9884605E+04;  0.0000000E+00; -4.0932339E-01;  4.0000000E+04;  0.0000000E+00;  4.0014508E+04;  5.9028499E-02;  0.0000000E+00; -3.8704211E-03;  1.9872250E+03;
  3.4114555E-01;  9.9999998E-03;  2.9998028E-01;4580;  6.5544280E-03;  0.0000000E+00; -9.1183512E-04;  9.9864801E+02;  1.0000000E-01; -1.1201165E+03;3;  6.5432739E-01;  0.0000000E+00; -2.6474759E-01;0;  5.6511067E-02;  3.9889250E+04;  0.0000000E+00; -7.7617794E-01;  4.0000000E+04;  0.0000000E+00;  4.0014133E+04;  6.0848720E-02;  0.0000000E+00; -4.3376517E-03;  2.1591504E+03;
  3.5146856E-01;  9.9999998E-03;  2.4000724E-01;4635;  7.9111066E-03;  0.0000000E+00; -4.7915833E-04;  9.9887067E+02;  1.0000000E-01; -9.3562787E+02;3;  8.1820339E-01;  0.0000000E+00; -1.3031469E-01;0;  4.7795452E-02;  3.9905262E+04;  0.0000000E+00;  4.3645042E-01;  4.0000000E+04;  0.0000000E+00;  4.0008824E+04;  5.0709717E-02;  0.0000000E+00; -2.9142655E-03;  1.3462960E+03;
  3.5140392E-01;  9.9999998E-03;  2.4999788E-01;4636;  7.9509709E-03;  0.0000000E+00; -5.8182509E-04;  9.9874518E+02;  1.0000000E-01; -1.0395756E+03;3;  8.4382403E-01;  0.0000000E+00; -1.5127519E-01;0;  5.0065231E-02;  3.9893645E+04;  0.0000000E+00;  4.3830916E-01;  4.0000000E+04;  0.0000000E+00;  4.0011125E+04;  5.3078409E-02;  0.0000000E+00; -3.0131796E-03;  1.6210730E+03;
  3.5132128E-01;  9.9999998E-03;  2.5999174E-01;4637;  8.0340831E-03;  0.0000000E+00; -6.7628844E-04;  9.9864789E+02;  1.0000000E-01; -1.1202152E+03;3;  8.9027959E-01;  0.0000000E+00; -1.7931016E-01;0;  5.2284613E-02;  3.9884332E+04;  0.0000000E+00;  3.8233757E-01;  4.0000000E+04;  0.0000000E+00;  4.0013199E+04;  5.5492871E-02;  0.0000000E+00; -3.2082559E-03;  1.8339891E+03;
  3.5125285E-01;  9.9999998E-03;  2.6998752E-01;4638;  8.1477975E-03;  0.0000000E+00; -7.4178877E-04;  9.9858014E+02;  1.0000000E-01; -1.1763124E+03;3;  9.6211535E-01;  0.0000000E+00; -2.1304160E-01;0;  5.4618787E-02;  3.9877953E+04;  0.0000000E+00;  2.6331744E-01;  4.0000000E+04;  0.0000000E+00;  4.0014742E+04;  5.7874914E-02;  0.0000000E+00; -3.2561272E-03;  1.9860220E+03;
  3.5120052E-01;  9.9999998E-03;  2.7998462E-01;4639;  8.3670020E-03;  0.0000000E+00; -8.2201476E-04;  9.9853827E+02;  1.0000000E-01; -1.2110275E+03;3;  1.0546862E+00;  0.0000000E+00; -2.4600509E-01;0;  5.6544833E-02;  3.9874586E+04;  0.0000000E+00;  8.7438270E-02;  4.0000000E+04;  0.0000000E+00;  4.0015594E+04;  6.0132843E-02;  0.0000000E+00; -3.5880106E-03;  2.0644968E+03;
  3.5116330E-01;  9.9999998E-03;  2.8998232E-01;4640;  8.7377662E-03;  0.0000000E+00; -9.0506498E-04;  9.9852014E+02;  1.0000000E-01; -1.2260394E+03;3;  1.1548696E+00;  0.0000000E+00; -2.7357739E-01;0;  5.8070280E-02;  3.9873438E+04;  0.0000000E+00; -1.3522473E-01;  4.0000000E+04;  0.0000000E+00;  4.0016031E+04;  6.2175598E-02;  0.0000000E+00; -4.1053179E-03;  2.1197671E+03;
  3.5115740E-01;  9.9999998E-03;  2.9998025E-01;4641;  9.2805112E-03;  0.0000000E+00; -9.7547052E-04;  9.9851672E+02;  1.0000000E-01; -1.2288541E+03;3;  1.2492192E+00;  0.0000000E+00; -3.0294961E-01;0;  5.9450410E-02;  3.9874215E+04;  0.0000000E+00; -3.7859437E-01;  4.0000000E+04;  0.0000000E+00;  4.0016199E+04;  6.3932411E-02;  0.0000000E+00; -4.4820020E-03;  2.1938127E+03;
  3.6144072E-01;  9.9999998E-03;  2.4000850E-01;4696;  8.4114736E-03;  0.0000000E+00; -6.0812815E-04;  9.9891101E+02;  1.0000000E-01; -9.0219672E+02;3;  9.8072243E-01;  0.0000000E+00; -1.7063929E-01;0;  5.0343934E-02;  3.9907527E+04;  0.0000000E+00;  3.4295860E-01;  4.0000000E+04;  0.0000000E+00;  4.0009258E+04;  5.3931888E-02;  0.0000000E+00; -3.5879526E-03;  1.3083666E+03;
  3.6140150E-01;  9.9999998E-03;  2.4999951E-01;4697;  8.6404160E-03;  0.0000000E+00; -7.1070250E-04;  9.9877875E+02;  1.0000000E-01; -1.0117739E+03;3;  1.0727931E+00;  0.0000000E+00; -1.9489203E-01;0;  5.2166980E-02;  3.9894672E+04;  0.0000000E+00;  3.5315549E-01;  4.0000000E+04;  0.0000000E+00;  4.0011566E+04;  5.5980720E-02;  0.0000000E+00; -3.8137389E-03;  1.6108680E+03;
  3.6133984E-01;  9.9999998E-03;  2.5999331E-01;4698;  9.0443157E-03;  0.0000000E+00; -7.9139136E-04;  9.9866022E+02;  1.0000000E-01; -1.1099933E+03;3;  1.2184719E+00;  0.0000000E+00; -2.2004575E-01;0;  5.4052483E-02;  3.9883617E+04;  0.0000000E+00;  3.1769785E-01;  4.0000000E+04;  0.0000000E+00;  4.0013453E+04;  5.8068436E-02;  0.0000000E+00; -4.0159519E-03;  1.8660437E+03;
  3.6128590E-01;  9.9999998E-03;  2.6998904E-01;4699;  9.7244028E-03;  0.0000000E+00; -8.3666376E-04;  9.9856812E+02;  1.0000000E-01; -1.1862875E+03;3;  1.4131492E+00;  0.0000000E+00; -2.4970824E-01;0;  5.6216352E-02;  3.9874664E+04;  0.0000000E+00;  2.3318441E-01;  4.0000000E+04;  0.0000000E+00;  4.0015215E+04;  6.0123038E-02;  0.0000000E+00; -3.9066873E-03;  2.0411090E+03;
  3.6124578E-01;  9.9999998E-03;  2.7998596E-01;4700;  1.0778976E-02;  0.0000000E+00; -8.9887268E-04;  9.9849091E+02;  1.0000000E-01; -1.2502362E+03;3;  1.6314075E+00;  0.0000000E+00; -2.8507739E-01;0;  5.8094818E-02;  3.9868148E+04;  0.0000000E+00;  1.0198976E-01;  4.0000000E+04;  0.0000000E+00;  4.0015809E+04;  6.2067542E-02;  0.0000000E+00; -3.9727227E-03;  2.1339854E+03;
  3.6120942E-01;  9.9999998E-03;  2.8998342E-01;4701;  1.1822294E-02;  0.0000000E+00; -9.7386196E-04;  9.9843628E+02;  1.0000000E-01; -1.2955189E+03;3;  1.8498197E+00;  0.0000000E+00; -3.1716633E-01;0;  5.9544664E-02;  3.9863883E+04;  0.0000000E+00; -6.3406266E-02;  4.0000000E+04;  0.0000000E+00;  4.0016480E+04;  6.3828714E-02;  0.0000000E+00; -4.2840503E-03;  2.1902341E+03;
  3.6118293E-01;  9.9999998E-03;  2.9998109E-01;4702;  1.2607133E-02;  0.0000000E+00; -1.0517291E-03;  9.9840125E+02;  1.0000000E-01; -1.3245552E+03;3;  2.0603034E+00;  0.0000000E+00; -3.3850119E-01;0;  6.0644291E-02;  3.9861477E+04;  0.0000000E+00; -2.3804909E-01;  4.0000000E+04;  0.0000000E+00;  4.0016633E+04;  6.5352887E-02;  0.0000000E+00; -4.7085965E-03;  2.2449055E+03;
  3.7140390E-01;  9.9999998E-03;  2.4000582E-01;4757;  9.4383378E-03;  0.0000000E+00; -7.9949194E-04;  9.9893121E+02;  1.0000000E-01; -8.8545642E+02;3;  1.3877820E+00;  0.0000000E+00; -2.3087451E-01;0;  5.1889855E-02;  3.9906914E+04;  0.0000000E+00;  2.4652556E-01;  4.0000000E+04;  0.0000000E+00;  4.0010090E+04;  5.6359109E-02;  0.0000000E+00; -4.4692527E-03;  1.3940422E+03;
  3.7137464E-01;  9.9999998E-03;  2.4999832E-01;4758;  9.9904565E-03;  0.0000000E+00; -8.4897311E-04;  9.9879480E+02;  1.0000000E-01; -9.9849030E+02;3;  1.5569249E+00;  0.0000000E+00; -2.4873354E-01;0;  5.3406306E-02;  3.9893711E+04;  0.0000000E+00;  2.5234821E-01;  4.0000000E+04;  0.0000000E+00;  4.0012547E+04;  5.7992708E-02;  0.0000000E+00; -4.5864005E-03;  1.7088842E+03;
  3.7133840E-01;  9.9999998E-03;  2.5999352E-01;4759;  1.0890436E-02;  0.0000000E+00; -8.8744104E-04;  9.9866449E+02;  1.0000000E-01; -1.1064379E+03;3;  1.7596985E+00;  0.0000000E+00; -2.7063283E-01;0;  5.5099256E-02;  3.9881449E+04;  0.0000000E+00;  2.2054452E-01;  4.0000000E+04;  0.0000000E+00;  4.0014223E+04;  5.9646994E-02;  0.0000000E+00; -4.5477366E-03;  1.9271824E+03;
  3.7130880E-01;  9.9999998E-03;  2.6999000E-01;4760;  1.1930453E-02;  0.0000000E+00; -9.3940808E-04;  9.9854645E+02;  1.0000000E-01; -1.2042622E+03;3;  1.9699297E+00;  0.0000000E+00; -2.9703945E-01;0;  5.6722697E-02;  3.9870812E+04;  0.0000000E+00;  1.4949678E-01;  4.0000000E+04;  0.0000000E+00;  4.0015441E+04;  6.1259732E-02;  0.0000000E+00; -4.5370338E-03;  2.0636316E+03;
  3.7127402E-01;  9.9999998E-03;  2.7998692E-01;4761;  1.2708743E-02;  0.0000000E+00; -1.0092179E-03;  9.9844409E+02;  1.0000000E-01; -1.2890499E+03;3;  2.1734302E+00;  0.0000000E+00; -3.1979790E-01;0;  5.8049895E-02;  3.9862457E+04;  0.0000000E+00;  4.5522854E-02;  4.0000000E+04;  0.0000000E+00;  4.0016109E+04;  6.2776491E-02;  0.0000000E+00; -4.7265962E-03;  2.1681582E+03;
  3.7122625E-01;  9.9999998E-03;  2.8998411E-01;4762;  1.3168138E-02;  0.0000000E+00; -1.0901992E-03;  9.9836688E+02;  1.0000000E-01; -1.3529988E+03;3;  2.3525825E+00;  0.0000000E+00; -3.3398485E-01;0;  5.9023291E-02;  3.9855719E+04;  0.0000000E+00; -7.9144247E-02;  4.0000000E+04;  0.0000000E+00;  4.0016961E+04;  6.4160757E-02;  0.0000000E+00; -5.1374668E-03;  2.2556697E+03;
  3.7117916E-01;  9.9999998E-03;  2.9998147E-01;4763;  1.3395820E-02;  0.0000000E+00; -1.1670461E-03;  9.9830396E+02;  1.0000000E-01; -1.4051454E+03;3;  2.4192898E+00;  0.0000000E+00; -3.4747490E-01;0;  5.9883006E-02;  3.9850715E+04;  0.0000000E+00; -2.0950650E-01;  4.0000000E+04;  0.0000000E+00;  4.0017449E+04;  6.5396823E-02;  0.0000000E+00; -5.5138161E-03;  2.3388555E+03;
  3.8138416E-01;  9.9999998E-03;  2.4000077E-01;4818;  1.1025992E-02;  0.0000000E+00; -9.5555378E-04;  9.9892285E+02;  1.0000000E-01; -8.9241919E+02;3;  1.8668463E+00;  0.0000000E+00; -2.8579286E-01;0;  5.2836590E-02;  3.9903430E+04;  0.0000000E+00;  1.5172544E-01;  4.0000000E+04;  0.0000000E+00;  4.0011852E+04;  5.7975307E-02;  0.0000000E+00; -5.1387195E-03;  1.5608005E+03;
  3.8135752E-01;  9.9999998E-03;  2.4999619E-01;4819;  1.1748346E-02;  0.0000000E+00; -9.6445507E-04;  9.9878198E+02;  1.0000000E-01; -1.0091072E+03;3;  2.0238955E+00;  0.0000000E+00; -2.9519838E-01;0;  5.4042749E-02;  3.9890176E+04;  0.0000000E+00;  1.4966218E-01;  4.0000000E+04;  0.0000000E+00;  4.0013461E+04;  5.9191760E-02;  0.0000000E+00; -5.1490096E-03;  1.8183613E+03;
  3.8133350E-01;  9.9999998E-03;  2.5999293E-01;4820;  1.2440197E-02;  0.0000000E+00; -9.8944141E-04;  9.9864178E+02;  1.0000000E-01; -1.1252521E+03;3;  2.1853857E+00;  0.0000000E+00; -3.0841991E-01;0;  5.5340633E-02;  3.9877660E+04;  0.0000000E+00;  1.1971312E-01;  4.0000000E+04;  0.0000000E+00;  4.0014980E+04;  6.0407165E-02;  0.0000000E+00; -5.0665345E-03;  1.9888525E+03;
  3.8131508E-01;  9.9999998E-03;  2.6998994E-01;4821;  1.2919719E-02;  0.0000000E+00; -1.0557108E-03;  9.9851270E+02;  1.0000000E-01; -1.2322120E+03;3;  2.3376460E+00;  0.0000000E+00; -3.2312387E-01;0;  5.6324672E-02;  3.9866371E+04;  0.0000000E+00;  6.0710866E-02;  4.0000000E+04;  0.0000000E+00;  4.0016156E+04;  6.1579827E-02;  0.0000000E+00; -5.2551548E-03;  2.1197539E+03;
  3.8128629E-01;  9.9999998E-03;  2.7998704E-01;4822;  1.3181336E-02;  0.0000000E+00; -1.1398210E-03;  9.9839929E+02;  1.0000000E-01; -1.3261354E+03;3;  2.4147508E+00;  0.0000000E+00; -3.3596292E-01;0;  5.6994341E-02;  3.9856746E+04;  0.0000000E+00; -1.8923806E-02;  4.0000000E+04;  0.0000000E+00;  4.0016855E+04;  6.2685952E-02;  0.0000000E+00; -5.6916112E-03;  2.2327012E+03;
  3.8124213E-01;  9.9999998E-03;  2.8998417E-01;4823;  1.3335985E-02;  0.0000000E+00; -1.2170557E-03;  9.9830438E+02;  1.0000000E-01; -1.4047998E+03;3;  2.4294569E+00;  0.0000000E+00; -3.4783420E-01;0;  5.7653923E-02;  3.9848508E+04;  0.0000000E+00; -1.0981239E-01;  4.0000000E+04;  0.0000000E+00;  4.0017355E+04;  6.3721322E-02;  0.0000000E+00; -6.0673980E-03;  2.3419678E+03;
  3.8119113E-01;  9.9999998E-03;  2.9998142E-01;4824;  1.3488888E-02;  0.0000000E+00; -1.2885026E-03;  9.9822357E+02;  1.0000000E-01; -1.4717609E+03;3;  2.4309664E+00;  0.0000000E+00; -3.6151373E-01;0;  5.8372568E-02;  3.9841688E+04;  0.0000000E+00; -2.0235914E-01;  4.0000000E+04;  0.0000000E+00;  4.0018312E+04;  6.4695351E-02;  0.0000000E+00; -6.3227816E-03;  2.4419385E+03;
  3.9139348E-01;  9.9999998E-03;  2.3999618E-01;4879;  1.2199289E-02;  0.0000000E+00; -1.0622797E-03;  9.9888940E+02;  1.0000000E-01; -9.2012213E+02;3;  2.1995575E+00;  0.0000000E+00; -3.1079176E-01;0;  5.3418055E-02;  3.9898992E+04;  0.0000000E+00;  6.1197035E-02;  4.0000000E+04;  0.0000000E+00;  4.0012930E+04;  5.8986660E-02;  0.0000000E+00; -5.5686031E-03;  1.6990729E+03;
  3.9136216E-01;  9.9999998E-03;  2.4999399E-01;4880;  1.2568352E-02;  0.0000000E+00; -1.0829944E-03;  9.9874536E+02;  1.0000000E-01; -1.0394274E+03;3;  2.2926745E+00;  0.0000000E+00; -3.2113856E-01;0;  5.4171778E-02;  3.9885504E+04;  0.0000000E+00;  5.1683508E-02;  4.0000000E+04;  0.0000000E+00;  4.0014266E+04;  5.9881389E-02;  0.0000000E+00; -5.7096113E-03;  1.9011732E+03;
  3.9133903E-01;  9.9999998E-03;  2.5999165E-01;4881;  1.2865909E-02;  0.0000000E+00; -1.1254291E-03;  9.9860052E+02;  1.0000000E-01; -1.1594240E+03;3;  2.3701851E+00;  0.0000000E+00; -3.3266547E-01;0;  5.4898676E-02;  3.9872941E+04;  0.0000000E+00;  2.5658065E-02;  4.0000000E+04;  0.0000000E+00;  4.0015746E+04;  6.0759682E-02;  0.0000000E+00; -5.8610053E-03;  2.0641829E+03;
  3.9132702E-01;  9.9999998E-03;  2.6998922E-01;4882;  1.3078839E-02;  0.0000000E+00; -1.1913467E-03;  9.9847101E+02;  1.0000000E-01; -1.2667296E+03;3;  2.4106717E+00;  0.0000000E+00; -3.4151185E-01;0;  5.5446904E-02;  3.9861262E+04;  0.0000000E+00; -1.7835954E-02;  4.0000000E+04;  0.0000000E+00;  4.0016461E+04;  6.1600678E-02;  0.0000000E+00; -6.1537735E-03;  2.1865508E+03;
  3.9130685E-01;  9.9999998E-03;  2.7998656E-01;4883;  1.3221520E-02;  0.0000000E+00; -1.2646080E-03;  9.9835199E+02;  1.0000000E-01; -1.3653441E+03;3;  2.4243848E+00;  0.0000000E+00; -3.4925720E-01;0;  5.5892043E-02;  3.9850879E+04;  0.0000000E+00; -7.2207265E-02;  4.0000000E+04;  0.0000000E+00;  4.0017559E+04;  6.2401671E-02;  0.0000000E+00; -6.5096267E-03;  2.3068606E+03;
  3.9126885E-01;  9.9999998E-03;  2.8998381E-01;4884;  1.3356201E-02;  0.0000000E+00; -1.3314470E-03;  9.9824915E+02;  1.0000000E-01; -1.4505269E+03;3;  2.4302943E+00;  0.0000000E+00; -3.5937169E-01;0;  5.6456544E-02;  3.9841773E+04;  0.0000000E+00; -1.2946160E-01;  4.0000000E+04;  0.0000000E+00;  4.0018035E+04;  6.3177459E-02;  0.0000000E+00; -6.7209173E-03;  2.4220593E+03;
  3.9122236E-01;  9.9999998E-03;  2.9998103E-01;4885;  1.3512638E-02;  0.0000000E+00; -1.3851072E-03;  9.9815778E+02;  1.0000000E-01; -1.5262284E+03;3;  2.4344218E+00;  0.0000000E+00; -3.6947364E-01;0;  5.7326298E-02;  3.9833969E+04;  0.0000000E+00; -1.8591058E-01;  4.0000000E+04;  0.0000000E+00;  4.0018816E+04;  6.3949287E-02;  0.0000000E+00; -6.6229901E-03;  2.5284504E+03;
  4.0139517E-01;  9.9999998E-03;  2.3999213E-01;4940;  1.2624323E-02;  0.0000000E+00; -1.1644656E-03;  9.9884937E+02;  1.0000000E-01; -9.5325702E+02;3;  2.3416543E+00;  0.0000000E+00; -3.2782796E-01;0;  5.3798515E-02;  3.9893734E+04;  0.0000000E+00; -2.2030866E-02;  4.0000000E+04;  0.0000000E+00;  4.0013797E+04;  5.9791483E-02;  0.0000000E+00; -5.9929662E-03;  1.8205378E+03;
  4.0136480E-01;  9.9999998E-03;  2.4999189E-01;4941;  1.2801918E-02;  0.0000000E+00; -1.2041914E-03;  9.9869989E+02;  1.0000000E-01; -1.0771053E+03;3;  2.3779192E+00;  0.0000000E+00; -3.3746719E-01;0;  5.4228038E-02;  3.9880352E+04;  0.0000000E+00; -3.4924988E-02;  4.0000000E+04;  0.0000000E+00;  4.0014875E+04;  6.0522527E-02;  0.0000000E+00; -6.2944875E-03;  1.9673092E+03;
  4.0134320E-01;  9.9999998E-03;  2.5999025E-01;4942;  1.2970101E-02;  0.0000000E+00; -1.2465394E-03;  9.9855615E+02;  1.0000000E-01; -1.1962131E+03;3;  2.4037800E+00;  0.0000000E+00; -3.4510800E-01;0;  5.4708086E-02;  3.9867832E+04;  0.0000000E+00; -5.3652864E-02;  4.0000000E+04;  0.0000000E+00;  4.0015992E+04;  6.1222617E-02;  0.0000000E+00; -6.5145306E-03;  2.1185852E+03;
  4.0133053E-01;  9.9999998E-03;  2.6998815E-01;4943;  1.3102524E-02;  0.0000000E+00; -1.3045722E-03;  9.9842297E+02;  1.0000000E-01; -1.3065310E+03;3;  2.4195268E+00;  0.0000000E+00; -3.4944901E-01;0;  5.5117313E-02;  3.9855945E+04;  0.0000000E+00; -7.9706676E-02;  4.0000000E+04;  0.0000000E+00;  4.0016891E+04;  6.1884720E-02;  0.0000000E+00; -6.7674075E-03;  2.2492388E+03;
  4.0131432E-01;  9.9999998E-03;  2.7998576E-01;4944;  1.3222848E-02;  0.0000000E+00; -1.3665748E-03;  9.9830243E+02;  1.0000000E-01; -1.4064293E+03;3;  2.4255061E+00;  0.0000000E+00; -3.5632294E-01;0;  5.5555332E-02;  3.9845480E+04;  0.0000000E+00; -1.1018996E-01;  4.0000000E+04;  0.0000000E+00;  4.0017762E+04;  6.2518097E-02;  0.0000000E+00; -6.9627655E-03;  2.3717097E+03;
  4.0128696E-01;  9.9999998E-03;  2.8998315E-01;4945;  1.3344052E-02;  0.0000000E+00; -1.4250631E-03;  9.9819843E+02;  1.0000000E-01; -1.4925504E+03;3;  2.4328477E+00;  0.0000000E+00; -3.6140743E-01;0;  5.6158938E-02;  3.9836207E+04;  0.0000000E+00; -1.4054148E-01;  4.0000000E+04;  0.0000000E+00;  4.0018598E+04;  6.3146740E-02;  0.0000000E+00; -6.9878036E-03;  2.4877114E+03;
  4.0124834E-01;  9.9999998E-03;  2.9998037E-01;4946;  1.3484689E-02;  0.0000000E+00; -1.4801000E-03;  9.9809979E+02;  1.0000000E-01; -1.5742765E+03;3;  2.4366181E+00;  0.0000000E+00; -3.6980808E-01;0;  5.6957517E-02;  3.9827957E+04;  0.0000000E+00; -1.6777857E-01;  4.0000000E+04;  0.0000000E+00;  4.0019430E+04;  6.3797459E-02;  0.0000000E+00; -6.8399408E-03;  2.6061284E+03;
  4.1139385E-01;  9.9999998E-03;  2.3998880E-01;5001;  1.2797314E-02;  0.0000000E+00; -1.2304065E-03;  9.9880450E+02;  1.0000000E-01; -9.9044110E+02;3;  2.3956308E+00;  0.0000000E+00; -3.3366475E-01;0;  5.4565683E-02;  3.9888809E+04;  0.0000000E+00; -9.6921138E-02;  4.0000000E+04;  0.0000000E+00;  4.0014379E+04;  6.0851600E-02;  0.0000000E+00; -6.2859189E-03;  1.9263955E+03;
  4.1137075E-01;  9.9999998E-03;  2.4999015E-01;5002;  1.2901231E-02;  0.0000000E+00; -1.2891032E-03;  9.9865497E+02;  1.0000000E-01; -1.1143389E+03;3;  2.4083531E+00;  0.0000000E+00; -3.4139448E-01;0;  5.4917637E-02;  3.9875668E+04;  0.0000000E+00; -1.1057755E-01;  4.0000000E+04;  0.0000000E+00;  4.0014992E+04;  6.1581250E-02;  0.0000000E+00; -6.6636126E-03;  2.0151146E+03;
  4.1135511E-01;  9.9999998E-03;  2.5998899E-01;5003;  1.3001351E-02;  0.0000000E+00; -1.3383341E-03;  9.9851141E+02;  1.0000000E-01; -1.2332490E+03;3;  2.4133646E+00;  0.0000000E+00; -3.4708437E-01;0;  5.5351742E-02;  3.9863219E+04;  0.0000000E+00; -1.2264950E-01;  4.0000000E+04;  0.0000000E+00;  4.0016285E+04;  6.2263418E-02;  0.0000000E+00; -6.9116778E-03;  2.1538206E+03;
  4.1134346E-01;  9.9999998E-03;  2.6998714E-01;5004;  1.3100405E-02;  0.0000000E+00; -1.3933369E-03;  9.9837830E+02;  1.0000000E-01; -1.3435669E+03;3;  2.4198272E+00;  0.0000000E+00; -3.5222703E-01;0;  5.5813178E-02;  3.9851797E+04;  0.0000000E+00; -1.3517658E-01;  4.0000000E+04;  0.0000000E+00;  4.0016969E+04;  6.2897027E-02;  0.0000000E+00; -7.0838472E-03;  2.2893005E+03;
  4.1132763E-01;  9.9999998E-03;  2.7998492E-01;5005;  1.3200265E-02;  0.0000000E+00; -1.4577041E-03;  9.9825928E+02;  1.0000000E-01; -1.4421321E+03;3;  2.4239709E+00;  0.0000000E+00; -3.5738516E-01;0;  5.6259159E-02;  3.9841070E+04;  0.0000000E+00; -1.4788975E-01;  4.0000000E+04;  0.0000000E+00;  4.0017949E+04;  6.3496500E-02;  0.0000000E+00; -7.2373408E-03;  2.4137954E+03;
  4.1130057E-01;  9.9999998E-03;  2.8998244E-01;5006;  1.3312240E-02;  0.0000000E+00; -1.5200820E-03;  9.9815503E+02;  1.0000000E-01; -1.5285000E+03;3;  2.4295714E+00;  0.0000000E+00; -3.6455548E-01;0;  5.6849997E-02;  3.9831688E+04;  0.0000000E+00; -1.5609285E-01;  4.0000000E+04;  0.0000000E+00;  4.0018934E+04;  6.4088508E-02;  0.0000000E+00; -7.2385115E-03;  2.5329045E+03;
  4.1126186E-01;  9.9999998E-03;  2.9997978E-01;5007;  1.3440986E-02;  0.0000000E+00; -1.5789393E-03;  9.9806158E+02;  1.0000000E-01; -1.6059299E+03;3;  2.4362032E+00;  0.0000000E+00; -3.7313649E-01;0;  5.7627931E-02;  3.9823445E+04;  0.0000000E+00; -1.5405126E-01;  4.0000000E+04;  0.0000000E+00;  4.0019777E+04;  6.4701654E-02;  0.0000000E+00; -7.0737237E-03;  2.6464756E+03;
  4.2140946E-01;  9.9999998E-03;  2.3998713E-01;5062;  1.2932391E-02;  0.0000000E+00; -1.2588091E-03;  9.9877118E+02;  1.0000000E-01; -1.0180453E+03;3;  2.4223714E+00;  0.0000000E+00; -3.3175480E-01;0;  5.6096349E-02;  3.9885266E+04;  0.0000000E+00; -1.6106100E-01;  4.0000000E+04;  0.0000000E+00;  4.0014883E+04;  6.2539600E-02;  0.0000000E+00; -6.4432500E-03;  1.9773967E+03;
  4.2139849E-01;  9.9999998E-03;  2.4998909E-01;5063;  1.2970700E-02;  0.0000000E+00; -1.3350223E-03;  9.9861523E+02;  1.0000000E-01; -1.1472762E+03;3;  2.4199901E+00;  0.0000000E+00; -3.3754829E-01;0;  5.6600098E-02;  3.9872184E+04;  0.0000000E+00; -1.7470814E-01;  4.0000000E+04;  0.0000000E+00;  4.0015254E+04;  6.3398853E-02;  0.0000000E+00; -6.7987544E-03;  2.0341914E+03;
  4.2139047E-01;  9.9999998E-03;  2.5998822E-01;5064;  1.3023824E-02;  0.0000000E+00; -1.4006832E-03;  9.9847632E+02;  1.0000000E-01; -1.2623347E+03;3;  2.4209757E+00;  0.0000000E+00; -3.4519958E-01;0;  5.7144206E-02;  3.9860039E+04;  0.0000000E+00; -1.8189815E-01;  4.0000000E+04;  0.0000000E+00;  4.0016062E+04;  6.4193368E-02;  0.0000000E+00; -7.0491605E-03;  2.1548052E+03;
  4.2137790E-01;  9.9999998E-03;  2.6998642E-01;5065;  1.3091548E-02;  0.0000000E+00; -1.4672541E-03;  9.9834570E+02;  1.0000000E-01; -1.3705292E+03;3;  2.4189625E+00;  0.0000000E+00; -3.5341081E-01;0;  5.7705291E-02;  3.9848781E+04;  0.0000000E+00; -1.8284598E-01;  4.0000000E+04;  0.0000000E+00;  4.0017195E+04;  6.4920403E-02;  0.0000000E+00; -7.2151106E-03;  2.2926213E+03;
  4.2135692E-01;  9.9999998E-03;  2.7998430E-01;5066;  1.3181749E-02;  0.0000000E+00; -1.5398108E-03;  9.9823199E+02;  1.0000000E-01; -1.4647487E+03;3;  2.4233234E+00;  0.0000000E+00; -3.6072168E-01;0;  5.8240421E-02;  3.9838465E+04;  0.0000000E+00; -1.7553194E-01;  4.0000000E+04;  0.0000000E+00;  4.0018004E+04;  6.5593019E-02;  0.0000000E+00; -7.3525985E-03;  2.4172214E+03;
  4.2132390E-01;  9.9999998E-03;  2.8998187E-01;5067;  1.3285216E-02;  0.0000000E+00; -1.6134569E-03;  9.9813049E+02;  1.0000000E-01; -1.5488451E+03;3;  2.4279249E+00;  0.0000000E+00; -3.6534676E-01;0;  5.8815017E-02;  3.9829449E+04;  0.0000000E+00; -1.5407141E-01;  4.0000000E+04;  0.0000000E+00;  4.0019062E+04;  6.6235900E-02;  0.0000000E+00; -7.4208826E-03;  2.5375100E+03;
  4.2127571E-01;  9.9999998E-03;  2.9997927E-01;5068;  1.3403602E-02;  0.0000000E+00; -1.6828930E-03;  9.9804053E+02;  1.0000000E-01; -1.6233615E+03;3;  2.4347632E+00;  0.0000000E+00; -3.7434810E-01;0;  5.9529822E-02;  3.9821414E+04;  0.0000000E+00; -1.1042817E-01;  4.0000000E+04;  0.0000000E+00;  4.0019891E+04;  6.6875190E-02;  0.0000000E+00; -7.3453668E-03;  2.6494392E+03;
  4.3144128E-01;  9.9999998E-03;  2.3998718E-01;5123;  1.3087225E-02;  0.0000000E+00; -1.2535732E-03;  9.9875336E+02;  1.0000000E-01; -1.0328103E+03;3;  2.4480081E+00;  0.0000000E+00; -3.2443020E-01;0;  5.8573790E-02;  3.9883680E+04;  0.0000000E+00; -2.0719263E-01;  4.0000000E+04;  0.0000000E+00;  4.0014754E+04;  6.5040171E-02;  0.0000000E+00; -6.4663813E-03;  1.9625970E+03;
  4.3143776E-01;  9.9999998E-03;  2.4998912E-01;5124;  1.3066610E-02;  0.0000000E+00; -1.3505208E-03;  9.9859723E+02;  1.0000000E-01; -1.1621893E+03;3;  2.4369051E+00;  0.0000000E+00; -3.3351824E-01;0;  5.9366621E-02;  3.9871105E+04;  0.0000000E+00; -2.1723539E-01;  4.0000000E+04;  0.0000000E+00;  4.0014855E+04;  6.6104092E-02;  0.0000000E+00; -6.7374697E-03;  1.9960247E+03;
  4.3143353E-01;  9.9999998E-03;  2.5998813E-01;5125;  1.3074586E-02;  0.0000000E+00; -1.4398858E-03;  9.9846277E+02;  1.0000000E-01; -1.2735442E+03;3;  2.4286380E+00;  0.0000000E+00; -3.4363440E-01;0;  6.0124733E-02;  3.9859262E+04;  0.0000000E+00; -2.1641877E-01;  4.0000000E+04;  0.0000000E+00;  4.0015562E+04;  6.7088738E-02;  0.0000000E+00; -6.9640055E-03;  2.1041050E+03;
  4.3141958E-01;  9.9999998E-03;  2.6998621E-01;5126;  1.3115249E-02;  0.0000000E+00; -1.5272150E-03;  9.9833801E+02;  1.0000000E-01; -1.3769487E+03;3;  2.4250829E+00;  0.0000000E+00; -3.5324389E-01;0;  6.0831249E-02;  3.9848375E+04;  0.0000000E+00; -2.0239848E-01;  4.0000000E+04;  0.0000000E+00;  4.0016691E+04;  6.7984320E-02;  0.0000000E+00; -7.1530715E-03;  2.2432029E+03;
  4.3139642E-01;  9.9999998E-03;  2.7998403E-01;5127;  1.3185122E-02;  0.0000000E+00; -1.6192666E-03;  9.9822833E+02;  1.0000000E-01; -1.4678103E+03;3;  2.4219718E+00;  0.0000000E+00; -3.6239350E-01;0;  6.1412401E-02;  3.9838539E+04;  0.0000000E+00; -1.7003547E-01;  4.0000000E+04;  0.0000000E+00;  4.0017828E+04;  6.8797037E-02;  0.0000000E+00; -7.3846374E-03;  2.3721711E+03;
  4.3136036E-01;  9.9999998E-03;  2.8998163E-01;5128;  1.3282272E-02;  0.0000000E+00; -1.7080316E-03;  9.9813434E+02;  1.0000000E-01; -1.5456847E+03;3;  2.4266131E+00;  0.0000000E+00; -3.6883348E-01;0;  6.1981417E-02;  3.9829777E+04;  0.0000000E+00; -1.1069143E-01;  4.0000000E+04;  0.0000000E+00;  4.0018531E+04;  6.9542818E-02;  0.0000000E+00; -7.5613996E-03;  2.4892178E+03;
  4.3130746E-01;  9.9999998E-03;  2.9997903E-01;5129;  1.3398496E-02;  0.0000000E+00; -1.7924287E-03;  9.9804791E+02;  1.0000000E-01; -1.6172876E+03;3;  2.4340944E+00;  0.0000000E+00; -3.7519729E-01;0;  6.2594391E-02;  3.9821898E+04;  0.0000000E+00; -1.4115067E-02;  4.0000000E+04;  0.0000000E+00;  4.0019438E+04;  7.0241138E-02;  0.0000000E+00; -7.6467460E-03;  2.6049363E+03;
  4.4148269E-01;  9.9999998E-03;  2.3998888E-01;5184;  1.3288841E-02;  0.0000000E+00; -1.2355347E-03;  9.9875537E+02;  1.0000000E-01; -1.0311313E+03;3;  2.4790938E+00;  0.0000000E+00; -3.1570014E-01;0;  6.1875340E-02;  3.9884695E+04;  0.0000000E+00; -2.2994587E-01;  4.0000000E+04;  0.0000000E+00;  4.0013957E+04;  6.8292968E-02;  0.0000000E+00; -6.4176270E-03;  1.8746934E+03;
  4.4148377E-01;  9.9999998E-03;  2.4999022E-01;5185;  1.3235888E-02;  0.0000000E+00; -1.3496188E-03;  9.9860645E+02;  1.0000000E-01; -1.1545353E+03;3;  2.4617679E+00;  0.0000000E+00; -3.2669559E-01;0;  6.3027345E-02;  3.9872555E+04;  0.0000000E+00; -2.3317891E-01;  4.0000000E+04;  0.0000000E+00;  4.0013859E+04;  6.9565959E-02;  0.0000000E+00; -6.5386128E-03;  1.8955634E+03;
  4.4148189E-01;  9.9999998E-03;  2.5998881E-01;5186;  1.3200768E-02;  0.0000000E+00; -1.4673850E-03;  9.9847534E+02;  1.0000000E-01; -1.2631742E+03;3;  2.4461470E+00;  0.0000000E+00; -3.4016189E-01;0;  6.4025968E-02;  3.9861359E+04;  0.0000000E+00; -2.2146600E-01;  4.0000000E+04;  0.0000000E+00;  4.0014797E+04;  7.0752166E-02;  0.0000000E+00; -6.7261965E-03;  1.9972927E+03;
  4.4147000E-01;  9.9999998E-03;  2.6998657E-01;5187;  1.3200972E-02;  0.0000000E+00; -1.5820842E-03;  9.9835950E+02;  1.0000000E-01; -1.3591221E+03;3;  2.4348381E+00;  0.0000000E+00; -3.5210407E-01;0;  6.4863943E-02;  3.9850816E+04;  0.0000000E+00; -1.8988194E-01;  4.0000000E+04;  0.0000000E+00;  4.0015867E+04;  7.1831986E-02;  0.0000000E+00; -6.9680423E-03;  2.1372810E+03;
  4.4145021E-01;  9.9999998E-03;  2.7998415E-01;5188;  1.3240285E-02;  0.0000000E+00; -1.6972652E-03;  9.9825452E+02;  1.0000000E-01; -1.4460825E+03;3;  2.4288013E+00;  0.0000000E+00; -3.6256424E-01;0;  6.5479785E-02;  3.9841562E+04;  0.0000000E+00; -1.3038984E-01;  4.0000000E+04;  0.0000000E+00;  4.0016949E+04;  7.2799385E-02;  0.0000000E+00; -7.3195961E-03;  2.2752266E+03;
  4.4141713E-01;  9.9999998E-03;  2.8998163E-01;5189;  1.3326692E-02;  0.0000000E+00; -1.8094257E-03;  9.9816296E+02;  1.0000000E-01; -1.5219323E+03;3;  2.4281449E+00;  0.0000000E+00; -3.7156874E-01;0;  6.5924831E-02;  3.9832926E+04;  0.0000000E+00; -3.2337651E-02;  4.0000000E+04;  0.0000000E+00;  4.0018094E+04;  7.3653899E-02;  0.0000000E+00; -7.7290675E-03;  2.4048672E+03;
  4.4136789E-01;  9.9999998E-03;  2.9997900E-01;5190;  1.3456238E-02;  0.0000000E+00; -1.9137441E-03;  9.9808368E+02;  1.0000000E-01; -1.5876588E+03;3;  2.4366291E+00;  0.0000000E+00; -3.7769902E-01;0;  6.6339076E-02;  3.9825738E+04;  0.0000000E+00;  1.1562148E-01;  4.0000000E+04;  0.0000000E+00;  4.0019004E+04;  7.4402831E-02;  0.0000000E+00; -8.0637531E-03;  2.5335544E+03;
  4.5153493E-01;  9.9999998E-03;  2.3999187E-01;5245;  1.3584772E-02;  0.0000000E+00; -1.2272369E-03;  9.9876697E+02;  1.0000000E-01; -1.0215513E+03;3;  2.5171394E+00;  0.0000000E+00; -3.0860907E-01;0;  6.5621518E-02;  3.9887301E+04;  0.0000000E+00; -2.2981454E-01;  4.0000000E+04;  0.0000000E+00;  4.0012746E+04;  7.1978115E-02;  0.0000000E+00; -6.3565960E-03;  1.7250977E+03;
  4.5153782E-01;  9.9999998E-03;  2.4999201E-01;5246;  1.3520610E-02;  0.0000000E+00; -1.3619495E-03;  9.9863116E+02;  1.0000000E-01; -1.1340420E+03;3;  2.5007443E+00;  0.0000000E+00; -3.2219315E-01;0;  6.7031883E-02;  3.9876051E+04;  0.0000000E+00; -2.2528641E-01;  4.0000000E+04;  0.0000000E+00;  4.0012770E+04;  7.3384248E-02;  0.0000000E+00; -6.3523641E-03;  1.7535273E+03;
  4.5153832E-01;  9.9999998E-03;  2.5998995E-01;5247;  1.3485434E-02;  0.0000000E+00; -1.5049125E-03;  9.9850989E+02;  1.0000000E-01; -1.2345330E+03;3;  2.4922719E+00;  0.0000000E+00; -3.3801302E-01;0;  6.8217032E-02;  3.9865273E+04;  0.0000000E+00; -2.0197223E-01;  4.0000000E+04;  0.0000000E+00;  4.0013609E+04;  7.4705213E-02;  0.0000000E+00; -6.4881807E-03;  1.8557664E+03;
  4.5153388E-01;  9.9999998E-03;  2.6998729E-01;5248;  1.3478114E-02;  0.0000000E+00; -1.6475038E-03;  9.9840320E+02;  1.0000000E-01; -1.3229255E+03;3;  2.4904220E+00;  0.0000000E+00; -3.5412920E-01;0;  6.9111094E-02;  3.9855723E+04;  0.0000000E+00; -1.5282696E-01;  4.0000000E+04;  0.0000000E+00;  4.0014793E+04;  7.5912483E-02;  0.0000000E+00; -6.8013901E-03;  1.9983054E+03;
  4.5152438E-01;  9.9999998E-03;  2.7998453E-01;5249;  1.3516374E-02;  0.0000000E+00; -1.7963182E-03;  9.9830432E+02;  1.0000000E-01; -1.4048491E+03;3;  2.4952326E+00;  0.0000000E+00; -3.6788675E-01;0;  6.9540538E-02;  3.9846711E+04;  0.0000000E+00; -6.8537571E-02;  4.0000000E+04;  0.0000000E+00;  4.0016180E+04;  7.6983944E-02;  0.0000000E+00; -7.4434080E-03;  2.1514343E+03;
  4.5150226E-01;  9.9999998E-03;  2.8998181E-01;5250;  1.3624130E-02;  0.0000000E+00; -1.9361966E-03;  9.9822021E+02;  1.0000000E-01; -1.4745262E+03;3;  2.5028756E+00;  0.0000000E+00; -3.7666219E-01;0;  6.9699600E-02;  3.9838699E+04;  0.0000000E+00;  6.1008736E-02;  4.0000000E+04;  0.0000000E+00;  4.0017184E+04;  7.7897556E-02;  0.0000000E+00; -8.1979586E-03;  2.3009563E+03;
  4.5146343E-01;  9.9999998E-03;  2.9997909E-01;5251;  1.3785305E-02;  0.0000000E+00; -2.0575647E-03;  9.9814624E+02;  1.0000000E-01; -1.5358085E+03;3;  2.5109076E+00;  0.0000000E+00; -3.8101482E-01;0;  6.9876298E-02;  3.9831875E+04;  0.0000000E+00;  2.4671453E-01;  4.0000000E+04;  0.0000000E+00;  4.0018023E+04;  7.8640446E-02;  0.0000000E+00; -8.7641496E-03;  2.4598748E+03;
  4.6158516E-01;  9.9999998E-03;  2.3999554E-01;5306;  1.4068335E-02;  0.0000000E+00; -1.2628711E-03;  9.9879211E+02;  1.0000000E-01; -1.0007125E+03;3;  2.5806344E+00;  0.0000000E+00; -3.0852383E-01;0;  6.9140971E-02;  3.9890770E+04;  0.0000000E+00; -2.0934448E-01;  4.0000000E+04;  0.0000000E+00;  4.0011301E+04;  7.5534426E-02;  0.0000000E+00; -6.3934536E-03;  1.5396405E+03;
  4.6158916E-01;  9.9999998E-03;  2.4999389E-01;5307;  1.4099885E-02;  0.0000000E+00; -1.4185339E-03;  9.9866235E+02;  1.0000000E-01; -1.1082156E+03;3;  2.5839055E+00;  0.0000000E+00; -3.2529742E-01;0;  7.0577964E-02;  3.9880199E+04;  0.0000000E+00; -1.9757788E-01;  4.0000000E+04;  0.0000000E+00;  4.0011836E+04;  7.6915830E-02;  0.0000000E+00; -6.3378625E-03;  1.6076562E+03;
  4.6159124E-01;  9.9999998E-03;  2.5999102E-01;5308;  1.4159686E-02;  0.0000000E+00; -1.5990322E-03;  9.9855225E+02;  1.0000000E-01; -1.1994229E+03;3;  2.5879083E+00;  0.0000000E+00; -3.4472489E-01;0;  7.1590148E-02;  3.9870211E+04;  0.0000000E+00; -1.6335711E-01;  4.0000000E+04;  0.0000000E+00;  4.0012637E+04;  7.8220338E-02;  0.0000000E+00; -6.6301925E-03;  1.7293040E+03;
  4.6158883E-01;  9.9999998E-03;  2.6998782E-01;5309;  1.4254577E-02;  0.0000000E+00; -1.7738682E-03;  9.9845538E+02;  1.0000000E-01; -1.2796675E+03;3;  2.5923414E+00;  0.0000000E+00; -3.6029255E-01;0;  7.2195902E-02;  3.9860910E+04;  0.0000000E+00; -9.8654732E-02;  4.0000000E+04;  0.0000000E+00;  4.0013879E+04;  7.9411589E-02;  0.0000000E+00; -7.2156847E-03;  1.8932393E+03;
  4.6158218E-01;  9.9999998E-03;  2.7998474E-01;5310;  1.4410815E-02;  0.0000000E+00; -1.9384335E-03;  9.9836627E+02;  1.0000000E-01; -1.3534926E+03;3;  2.6010594E+00;  0.0000000E+00; -3.6952242E-01;0;  7.2401516E-02;  3.9852531E+04;  0.0000000E+00;  4.4723824E-03;  4.0000000E+04;  0.0000000E+00;  4.0015328E+04;  8.0455333E-02;  0.0000000E+00; -8.0538178E-03;  2.0664219E+03;
  4.6156654E-01;  9.9999998E-03;  2.8998181E-01;5311;  1.4640938E-02;  0.0000000E+00; -2.0822780E-03;  9.9828900E+02;  1.0000000E-01; -1.4175402E+03;3;  2.6135316E+00;  0.0000000E+00; -3.7198180E-01;0;  7.2448581E-02;  3.9845250E+04;  0.0000000E+00;  1.5261397E-01;  4.0000000E+04;  0.0000000E+00;  4.0016820E+04;  8.1312753E-02;  0.0000000E+00; -8.8641709E-03;  2.2404272E+03;
  4.6153721E-01;  9.9999998E-03;  2.9997897E-01;5312;  1.4912602E-02;  0.0000000E+00; -2.2065102E-03;  9.9821759E+02;  1.0000000E-01; -1.4766990E+03;3;  2.6322837E+00;  0.0000000E+00; -3.7420818E-01;0;  7.2496615E-02;  3.9838691E+04;  0.0000000E+00;  3.5315248E-01;  4.0000000E+04;  0.0000000E+00;  4.0017645E+04;  8.1950851E-02;  0.0000000E+00; -9.4542382E-03;  2.4262708E+03;
  4.7158048E-01;  9.9999998E-03;  2.3999792E-01;5367;  1.4928197E-02;  0.0000000E+00; -1.3938106E-03;  9.9880225E+02;  1.0000000E-01; -9.9231763E+02;3;  2.6440639E+00;  0.0000000E+00; -3.1179592E-01;0;  7.1510792E-02;  3.9893398E+04;  0.0000000E+00; -1.7228256E-01;  4.0000000E+04;  0.0000000E+00;  4.0010277E+04;  7.8237504E-02;  0.0000000E+00; -6.7267157E-03;  1.4095951E+03;
  4.7158366E-01;  9.9999998E-03;  2.4999461E-01;5368;  1.5183941E-02;  0.0000000E+00; -1.5717100E-03;  9.9868701E+02;  1.0000000E-01; -1.0877717E+03;3;  2.6386268E+00;  0.0000000E+00; -3.2866725E-01;0;  7.2560675E-02;  3.9883082E+04;  0.0000000E+00; -1.5574408E-01;  4.0000000E+04;  0.0000000E+00;  4.0011324E+04;  7.9371586E-02;  0.0000000E+00; -6.8109143E-03;  1.5396289E+03;
  4.7158739E-01;  9.9999998E-03;  2.5999099E-01;5369;  1.5543791E-02;  0.0000000E+00; -1.7618504E-03;  9.9858264E+02;  1.0000000E-01; -1.1742384E+03;3;  2.6362438E+00;  0.0000000E+00; -3.4369838E-01;0;  7.3198557E-02;  3.9873562E+04;  0.0000000E+00; -1.1558840E-01;  4.0000000E+04;  0.0000000E+00;  4.0012676E+04;  8.0440179E-02;  0.0000000E+00; -7.2416235E-03;  1.7033101E+03;
  4.7158691E-01;  9.9999998E-03;  2.6998755E-01;5370;  1.5993921E-02;  0.0000000E+00; -1.9403204E-03;  9.9849396E+02;  1.0000000E-01; -1.2477178E+03;3;  2.6395340E+00;  0.0000000E+00; -3.5585496E-01;0;  7.3452331E-02;  3.9864699E+04;  0.0000000E+00; -4.4433746E-02;  4.0000000E+04;  0.0000000E+00;  4.0013832E+04;  8.1405774E-02;  0.0000000E+00; -7.9534454E-03;  1.8827092E+03;
  4.7157943E-01;  9.9999998E-03;  2.7998441E-01;5371;  1.6570568E-02;  0.0000000E+00; -2.1042116E-03;  9.9841339E+02;  1.0000000E-01; -1.3144813E+03;3;  2.6664979E+00;  0.0000000E+00; -3.6003083E-01;0;  7.3360160E-02;  3.9856750E+04;  0.0000000E+00;  6.2424734E-02;  4.0000000E+04;  0.0000000E+00;  4.0015547E+04;  8.2230799E-02;  0.0000000E+00; -8.8706408E-03;  2.0590769E+03;
  4.7156724E-01;  9.9999998E-03;  2.8998145E-01;5372;  1.7203359E-02;  0.0000000E+00; -2.2460734E-03;  9.9833875E+02;  1.0000000E-01; -1.3763068E+03;3;  2.7040131E+00;  0.0000000E+00; -3.5767257E-01;0;  7.3161632E-02;  3.9849848E+04;  0.0000000E+00;  2.0652114E-01;  4.0000000E+04;  0.0000000E+00;  4.0016512E+04;  8.2873598E-02;  0.0000000E+00; -9.7119668E-03;  2.2332544E+03;
  4.7154722E-01;  9.9999998E-03;  2.9997861E-01;5373;  1.7899629E-02;  0.0000000E+00; -2.3660283E-03;  9.9827252E+02;  1.0000000E-01; -1.4311694E+03;3;  2.7528496E+00;  0.0000000E+00; -3.5098401E-01;0;  7.3041581E-02;  3.9843637E+04;  0.0000000E+00;  3.9016461E-01;  4.0000000E+04;  0.0000000E+00;  4.0017621E+04;  8.3295234E-02;  0.0000000E+00; -1.0253655E-02;  2.4091772E+03;
  4.8151404E-01;  9.9999998E-03;  2.9997808E-01;5434;  2.1508910E-02;  0.0000000E+00; -2.5204509E-03;  9.9828589E+02;  1.0000147E-01; -1.4201080E+03;3;  2.8789701E+00;  0.0000000E+00; -3.2033050E-01;0;  7.1032993E-02;  3.9844230E+04;  0.0000000E+00;  3.3892620E-01;  4.0000000E+04;  0.0000000E+00;  4.0017512E+04;  8.1948079E-02;  0.0000000E+00; -1.0915088E-02;  2.3810833E+03;
  4.8152772E-01;  9.9999998E-03;  2.8998095E-01;5433;  2.0691035E-02;  0.0000000E+00; -2.4127539E-03;  9.9835107E+02;  1.0000147E-01; -1.3660848E+03;3;  2.8146789E+00;  0.0000000E+00; -3.3455279E-01;0;  7.1305208E-02;  3.9850496E+04;  0.0000000E+00;  1.9639586E-01;  4.0000000E+04;  0.0000000E+00;  4.0016695E+04;  8.1826307E-02;  0.0000000E+00; -1.0521101E-02;  2.2276538E+03;
  4.8153409E-01;  9.9999998E-03;  2.7998394E-01;5432;  1.9840106E-02;  0.0000000E+00; -2.2898887E-03;  9.9842542E+02;  1.0000148E-01; -1.3045063E+03;3;  2.7544301E+00;  0.0000000E+00; -3.4820783E-01;0;  7.1697511E-02;  3.9857211E+04;  0.0000000E+00;  7.7614710E-02;  4.0000000E+04;  0.0000000E+00;  4.0015449E+04;  8.1549287E-02;  0.0000000E+00; -9.8517789E-03;  2.0646252E+03;
  4.8152390E-01;  9.9999998E-03;  2.3999850E-01;5428;  1.6643094E-02;  0.0000000E+00; -1.6353045E-03;  9.9879767E+02;  1.0000148E-01; -9.9612000E+02;3;  2.6494205E+00;  0.0000000E+00; -3.2178807E-01;0;  7.1979813E-02;  3.9892703E+04;  0.0000000E+00; -1.2815939E-01;  4.0000000E+04;  0.0000000E+00;  4.0010246E+04;  7.9384141E-02;  0.0000000E+00; -7.4043251E-03;  1.3653177E+03;
  4.8152784E-01;  9.9999998E-03;  2.4999423E-01;5429;  1.7353512E-02;  0.0000000E+00; -1.7980477E-03;  9.9869293E+02;  1.0000146E-01; -1.0828829E+03;3;  2.6564527E+00;  0.0000000E+00; -3.3947396E-01;0;  7.2428107E-02;  3.9882594E+04;  0.0000000E+00; -1.1356623E-01;  4.0000000E+04;  0.0000000E+00;  4.0011484E+04;  8.0027781E-02;  0.0000000E+00; -7.5996728E-03;  1.5471179E+03;
  4.8153237E-01;  9.9999998E-03;  2.5999051E-01;5430;  1.8130030E-02;  0.0000000E+00; -1.9754409E-03;  9.9859174E+02;  1.0000145E-01; -1.1667324E+03;3;  2.6739187E+00;  0.0000000E+00; -3.5177666E-01;0;  7.2473548E-02;  3.9873305E+04;  0.0000000E+00; -7.7756256E-02;  4.0000000E+04;  0.0000000E+00;  4.0012711E+04;  8.0622479E-02;  0.0000000E+00; -8.1489338E-03;  1.7224137E+03;
  4.8153657E-01;  9.9999998E-03;  2.6998714E-01;5431;  1.8961634E-02;  0.0000000E+00; -2.1383674E-03;  9.9850714E+02;  1.0000148E-01; -1.2368046E+03;3;  2.7042143E+00;  0.0000000E+00; -3.5501784E-01;0;  7.2223887E-02;  3.9864738E+04;  0.0000000E+00; -1.4570118E-02;  4.0000000E+04;  0.0000000E+00;  4.0013953E+04;  8.1138387E-02;  0.0000000E+00; -8.9145005E-03;  1.8925492E+03;
  4.9155375E-01;  9.9999998E-03;  2.3999691E-01;5489;  1.8975118E-02;  0.0000000E+00; -1.9180162E-03;  9.9875085E+02;  1.0000210E-01; -1.0348843E+03;3;  2.6759369E+00;  0.0000000E+00; -3.4076560E-01;0;  7.0319176E-02;  3.9888211E+04;  0.0000000E+00; -9.4435625E-02;  4.0000000E+04;  0.0000000E+00;  4.0010523E+04;  7.8418434E-02;  0.0000000E+00; -8.0992598E-03;  1.4346118E+03;
  4.9154142E-01;  9.9999998E-03;  2.4999262E-01;5490;  1.9956023E-02;  0.0000000E+00; -2.0404661E-03;  9.9864392E+02;  1.0000207E-01; -1.1234744E+03;3;  2.6950009E+00;  0.0000000E+00; -3.5077697E-01;0;  7.0041336E-02;  3.9877812E+04;  0.0000000E+00; -8.9530841E-02;  4.0000000E+04;  0.0000000E+00;  4.0012137E+04;  7.8368478E-02;  0.0000000E+00; -8.3271442E-03;  1.6467167E+03;
  4.9152553E-01;  9.9999998E-03;  2.5998923E-01;5491;  2.0826526E-02;  0.0000000E+00; -2.1897107E-03;  9.9854065E+02;  1.0000200E-01; -1.2090522E+03;3;  2.7192447E+00;  0.0000000E+00; -3.5464633E-01;0;  6.9393180E-02;  3.9868273E+04;  0.0000000E+00; -6.7590371E-02;  4.0000000E+04;  0.0000000E+00;  4.0013684E+04;  7.8303374E-02;  0.0000000E+00; -8.9101922E-03;  1.8189998E+03;
  4.9151394E-01;  9.9999998E-03;  2.6998600E-01;5492;  2.1622775E-02;  0.0000000E+00; -2.3352026E-03;  9.9845294E+02;  1.0000207E-01; -1.2816921E+03;3;  2.7426827E+00;  0.0000000E+00; -3.4600583E-01;0;  6.8467900E-02;  3.9859836E+04;  0.0000000E+00; -2.4127988E-02;  4.0000000E+04;  0.0000000E+00;  4.0014855E+04;  7.8205585E-02;  0.0000000E+00; -9.7376853E-03;  1.9826021E+03;
  4.9150389E-01;  9.9999998E-03;  2.7998286E-01;5493;  2.2353603E-02;  0.0000000E+00; -2.4634055E-03;  9.9837109E+02;  1.0000204E-01; -1.3495421E+03;3;  2.7011211E+00;  0.0000000E+00; -3.2743737E-01;0;  6.7493908E-02;  3.9852102E+04;  0.0000000E+00;  4.0084653E-02;  4.0000000E+04;  0.0000000E+00;  4.0016000E+04;  7.8066655E-02;  0.0000000E+00; -1.0572745E-02;  2.1454460E+03;
  4.9149579E-01;  9.9999998E-03;  2.8997988E-01;5494;  2.2965904E-02;  0.0000000E+00; -2.5595978E-03;  9.9829675E+02;  1.0000199E-01; -1.4111206E+03;3;  2.0012290E+00;  0.0000000E+00; -2.4899021E-01;0;  6.6876575E-02;  3.9845172E+04;  0.0000000E+00;  1.1981370E-01;  4.0000000E+04;  0.0000000E+00;  4.0017113E+04;  7.7881649E-02;  0.0000000E+00; -1.1005072E-02;  2.2958857E+03;
  4.9148777E-01;  9.9999998E-03;  2.9997697E-01;5495;  2.3375031E-02;  0.0000000E+00; -2.6097710E-03;  9.9822803E+02;  1.0000207E-01; -1.4680573E+03;3;  6.7435002E-01;  0.0000000E+00;  1.0962369E-01;0;  6.6960998E-02;  3.9838949E+04;  0.0000000E+00;  2.0885921E-01;  4.0000000E+04;  0.0000000E+00;  4.0017980E+04;  7.7657044E-02;  0.0000000E+00; -1.0696046E-02;  2.4275786E+03;
  5.0159085E-01;  9.9999998E-03;  2.3999405E-01;5550;  2.0910263E-02;  0.0000000E+00; -2.2052599E-03;  9.9867841E+02;  1.0000383E-01; -1.0949320E+03;3;  2.6333995E+00;  0.0000000E+00; -3.8290569E-01;0;  6.6399053E-02;  3.9879832E+04;  0.0000000E+00; -7.3201053E-02;  4.0000000E+04;  0.0000000E+00;  4.0011711E+04;  7.5063951E-02;  0.0000000E+00; -8.6648986E-03;  1.5795770E+03;
  5.0159365E-01;  9.9999998E-03;  2.4999014E-01;5551;  2.1788085E-02;  0.0000000E+00; -2.2890829E-03;  9.9855963E+02;  1.0000373E-01; -1.1932996E+03;3;  2.6209772E+00;  0.0000000E+00; -4.0511420E-01;0;  6.5258853E-02;  3.9868773E+04;  0.0000000E+00; -8.5362665E-02;  4.0000000E+04;  0.0000000E+00;  4.0013375E+04;  7.4209683E-02;  0.0000000E+00; -8.9508304E-03;  1.8131044E+03;
  5.0158697E-01;  9.9999998E-03;  2.5998721E-01;5552;  2.2460710E-02;  0.0000000E+00; -2.4161907E-03;  9.9845026E+02;  1.0000370E-01; -1.2839143E+03;3;  2.3828800E+00;  0.0000000E+00; -4.5928100E-01;0;  6.3759111E-02;  3.9858680E+04;  0.0000000E+00; -8.4455341E-02;  4.0000000E+04;  0.0000000E+00;  4.0014777E+04;  7.3390067E-02;  0.0000000E+00; -9.6309576E-03;  1.9821334E+03;
  5.0157940E-01;  9.9999998E-03;  2.6998422E-01;5553;  2.2901451E-02;  0.0000000E+00; -2.5593191E-03;  9.9835522E+02;  1.0000364E-01; -1.3626775E+03;3;  1.0755665E+00;  0.0000000E+00; -6.3465142E-01;0;  6.1931677E-02;  3.9849762E+04;  0.0000000E+00; -6.5643594E-02;  4.0000000E+04;  0.0000000E+00;  4.0016055E+04;  7.2605982E-02;  0.0000000E+00; -1.0674303E-02;  2.1437732E+03;
  5.0157797E-01;  9.9999998E-03;  2.7998117E-01;5554;  2.3151966E-02;  0.0000000E+00; -2.6563583E-03;  9.9826935E+02;  1.0000388E-01; -1.4338359E+03;3; -2.9589507E-01;  0.0000000E+00; -4.2424423E-01;0;  6.0364805E-02;  3.9841402E+04;  0.0000000E+00; -3.0879922E-02;  4.0000000E+04;  0.0000000E+00;  4.0017434E+04;  7.1863450E-02;  0.0000000E+00; -1.1498645E-02;  2.3054050E+03;
  5.0157982E-01;  9.9999998E-03;  2.8997821E-01;5555;  2.3328084E-02;  0.0000000E+00; -2.6938936E-03;  9.9819196E+02;  1.0000371E-01; -1.4979330E+03;3; -9.6719438E-01;  0.0000000E+00; -1.8442185E-01;0;  5.9918877E-02;  3.9834254E+04;  0.0000000E+00;  1.4120853E-02;  4.0000000E+04;  0.0000000E+00;  4.0018422E+04;  7.1181230E-02;  0.0000000E+00; -1.1262354E-02;  2.4495439E+03;
  5.0158519E-01;  9.9999998E-03;  2.9997534E-01;5556;  2.3497615E-02;  0.0000000E+00; -2.7139648E-03;  9.9811871E+02;  1.0000388E-01; -1.5586226E+03;3; -1.0689533E+00;  0.0000000E+00;  6.5246873E-02;0;  6.0126871E-02;  3.9827859E+04;  0.0000000E+00;  6.3025862E-02;  4.0000000E+04;  0.0000000E+00;  4.0019164E+04;  7.0583932E-02;  0.0000000E+00; -1.0457062E-02;  2.5707717E+03;
  5.1157480E-01;  9.9999998E-03;  2.3998988E-01;5611;  2.2056555E-02;  0.0000000E+00; -2.4689273E-03;  9.9857642E+02;  1.0000615E-01; -1.1794235E+03;3;  2.4459937E+00;  0.0000000E+00; -4.6308607E-01;0;  6.0442001E-02;  3.9868371E+04;  0.0000000E+00; -5.9630230E-02;  4.0000000E+04;  0.0000000E+00;  4.0013469E+04;  6.9460012E-02;  0.0000000E+00; -9.0180133E-03;  1.8028879E+03;
  5.1157212E-01;  9.9999998E-03;  2.4998678E-01;5612;  2.2633197E-02;  0.0000000E+00; -2.5616158E-03;  9.9844995E+02;  1.0000618E-01; -1.2842106E+03;3;  1.5207384E+00;  0.0000000E+00; -7.8904414E-01;0;  5.8258008E-02;  3.9856406E+04;  0.0000000E+00; -8.6111322E-02;  4.0000000E+04;  0.0000000E+00;  4.0015184E+04;  6.7839034E-02;  0.0000000E+00; -9.5810257E-03;  2.0435327E+03;
  5.1156014E-01;  9.9999998E-03;  2.5998437E-01;5613;  2.2903278E-02;  0.0000000E+00; -2.6880207E-03;  9.9832764E+02;  1.0000620E-01; -1.3855410E+03;3;  9.1946781E-02;  0.0000000E+00; -8.2560158E-01;0;  5.5625685E-02;  3.9845277E+04;  0.0000000E+00; -1.0212142E-01;  4.0000000E+04;  0.0000000E+00;  4.0016672E+04;  6.6316225E-02;  0.0000000E+00; -1.0690539E-02;  2.2154917E+03;
  5.1154351E-01;  9.9999998E-03;  2.6998174E-01;5614;  2.3036212E-02;  0.0000000E+00; -2.7861511E-03;  9.9822278E+02;  1.0000632E-01; -1.4724028E+03;3; -9.6868443E-01;  0.0000000E+00; -5.9506911E-01;0;  5.3044699E-02;  3.9835613E+04;  0.0000000E+00; -1.0100260E-01;  4.0000000E+04;  0.0000000E+00;  4.0017855E+04;  6.4908333E-02;  0.0000000E+00; -1.1863633E-02;  2.3763940E+03;
  5.1154035E-01;  9.9999998E-03;  2.7997890E-01;5615;  2.3127137E-02;  0.0000000E+00; -2.8350134E-03;  9.9813293E+02;  1.0000617E-01; -1.5468204E+03;3; -1.4800348E+00;  0.0000000E+00; -3.3322021E-01;0;  5.1218666E-02;  3.9826895E+04;  0.0000000E+00; -8.6346820E-02;  4.0000000E+04;  0.0000000E+00;  4.0018996E+04;  6.3622549E-02;  0.0000000E+00; -1.2403884E-02;  2.5358274E+03;
  5.1154667E-01;  9.9999998E-03;  2.8997606E-01;5616;  2.3231233E-02;  0.0000000E+00; -2.8436517E-03;  9.9805127E+02;  1.0000617E-01; -1.6144729E+03;3; -1.6417290E+00;  0.0000000E+00; -5.4938857E-02;0;  5.0498106E-02;  3.9819258E+04;  0.0000000E+00; -6.3570231E-02;  4.0000000E+04;  0.0000000E+00;  4.0020094E+04;  6.2487945E-02;  0.0000000E+00; -1.1989840E-02;  2.6792380E+03;
  5.1156449E-01;  9.9999998E-03;  2.9997328E-01;5617;  2.3365486E-02;  0.0000000E+00; -2.8422321E-03;  9.9797339E+02;  1.0000626E-01; -1.6790143E+03;3; -1.6406473E+00;  0.0000000E+00;  2.1012059E-01;0;  5.0540671E-02;  3.9812438E+04;  0.0000000E+00; -3.8069453E-02;  4.0000000E+04;  0.0000000E+00;  4.0020906E+04;  6.1528496E-02;  0.0000000E+00; -1.0987828E-02;  2.7957957E+03;
  5.2155930E-01;  9.9999998E-03;  2.3998593E-01;5672;  2.2561627E-02;  0.0000000E+00; -2.6909586E-03;  9.9847394E+02;  1.0001042E-01; -1.2643099E+03;3;  1.7011737E+00;  0.0000000E+00; -6.4102584E-01;0;  5.2866705E-02;  3.9854535E+04;  0.0000000E+00; -5.6817155E-02;  4.0000000E+04;  0.0000000E+00;  4.0015371E+04;  6.1974321E-02;  0.0000000E+00; -9.1076139E-03;  2.0265930E+03;
  5.2155179E-01;  9.9999998E-03;  2.4998325E-01;5673;  2.2826016E-02;  0.0000000E+00; -2.7694455E-03;  9.9833398E+02;  1.0001062E-01; -1.3802572E+03;3;  1.0273146E-01;  0.0000000E+00; -8.1385821E-01;0;  4.9832799E-02;  3.9841445E+04;  0.0000000E+00; -9.5374800E-02;  4.0000000E+04;  0.0000000E+00;  4.0017070E+04;  5.9719101E-02;  0.0000000E+00; -9.8863002E-03;  2.2838982E+03;
  5.2153409E-01;  9.9999998E-03;  2.5998130E-01;5674;  2.2920176E-02;  0.0000000E+00; -2.8575459E-03;  9.9820111E+02;  1.0001060E-01; -1.4903282E+03;3; -1.0278286E+00;  0.0000000E+00; -6.2086695E-01;0;  4.6585295E-02;  3.9829516E+04;  0.0000000E+00; -1.2425637E-01;  4.0000000E+04;  0.0000000E+00;  4.0018414E+04;  5.7623073E-02;  0.0000000E+00; -1.1037778E-02;  2.4621460E+03;
  5.2151024E-01;  9.9999998E-03;  2.6997897E-01;5675;  2.2964166E-02;  0.0000000E+00; -2.9195345E-03;  9.9808374E+02;  1.0001048E-01; -1.5876094E+03;3; -1.6058128E+00;  0.0000000E+00; -3.0020371E-01;0;  4.3592811E-02;  3.9819008E+04;  0.0000000E+00; -1.3375697E-01;  4.0000000E+04;  0.0000000E+00;  4.0019410E+04;  5.5710230E-02;  0.0000000E+00; -1.2117419E-02;  2.6272346E+03;
  5.2149987E-01;  9.9999998E-03;  2.7997634E-01;5676;  2.3014832E-02;  0.0000000E+00; -2.9421807E-03;  9.9798254E+02;  1.0001054E-01; -1.6714095E+03;3; -1.9123702E+00;  0.0000000E+00; -9.8237924E-02;0;  4.1484967E-02;  3.9809547E+04;  0.0000000E+00; -1.2813586E-01;  4.0000000E+04;  0.0000000E+00;  4.0020797E+04;  5.3987704E-02;  0.0000000E+00; -1.2502739E-02;  2.7924380E+03;
  5.2150726E-01;  9.9999998E-03;  2.8997374E-01;5677;  2.3088930E-02;  0.0000000E+00; -2.9389632E-03;  9.9789655E+02;  1.0001048E-01; -1.7426667E+03;3; -2.0293255E+00;  0.0000000E+00;  1.4108306E-01;0;  4.0383950E-02;  3.9801555E+04;  0.0000000E+00; -1.1760726E-01;  4.0000000E+04;  0.0000000E+00;  4.0021883E+04;  5.2474927E-02;  0.0000000E+00; -1.2090976E-02;  2.9312346E+03;
  5.2153057E-01;  9.9999998E-03;  2.9997104E-01;5678;  2.3193926E-02;  0.0000000E+00; -2.9208672E-03;  9.9781512E+02;  1.0001039E-01; -1.8101217E+03;3; -2.0318687E+00;  0.0000000E+00;  4.4398206E-01;0;  4.0199209E-02;  3.9794125E+04;  0.0000000E+00; -1.0802699E-01;  4.0000000E+04;  0.0000000E+00;  4.0022672E+04;  5.1191438E-02;  0.0000000E+00; -1.0992230E-02;  3.0503301E+03;
  5.3154999E-01;  9.9999998E-03;  2.3998310E-01;5733;  2.2751834E-02;  0.0000000E+00; -2.8315790E-03;  9.9839148E+02;  1.0001750E-01; -1.3326042E+03;3;  5.1005685E-01;  0.0000000E+00; -6.7182267E-01;0;  4.4259831E-02;  3.9840863E+04;  0.0000000E+00; -6.2306602E-02;  4.0000000E+04;  0.0000000E+00;  4.0016367E+04;  5.3132102E-02;  0.0000000E+00; -8.8722687E-03;  2.1936365E+03;
  5.3154528E-01;  9.9999998E-03;  2.4998029E-01;5734;  2.2844259E-02;  0.0000000E+00; -2.8879556E-03;  9.9823785E+02;  1.0001737E-01; -1.4599093E+03;3; -9.1535753E-01;  0.0000000E+00; -6.0678613E-01;0;  4.0718287E-02;  3.9826684E+04;  0.0000000E+00; -1.0883356E-01;  4.0000000E+04;  0.0000000E+00;  4.0018555E+04;  5.0428379E-02;  0.0000000E+00; -9.7100902E-03;  2.4692866E+03;
  5.3152847E-01;  9.9999998E-03;  2.5997838E-01;5735;  2.2854595E-02;  0.0000000E+00; -2.9431148E-03;  9.9809290E+02;  1.0001739E-01; -1.5800046E+03;3; -1.6767757E+00;  0.0000000E+00; -3.2861450E-01;0;  3.7163340E-02;  3.9814012E+04;  0.0000000E+00; -1.4448245E-01;  4.0000000E+04;  0.0000000E+00;  4.0019875E+04;  4.7928959E-02;  0.0000000E+00; -1.0765619E-02;  2.6658665E+03;
  5.3150278E-01;  9.9999998E-03;  2.6997629E-01;5736;  2.2858694E-02;  0.0000000E+00; -2.9854325E-03;  9.9796619E+02;  1.0001741E-01; -1.6849894E+03;3; -1.9902943E+00;  0.0000000E+00; -3.7069269E-02;0;  3.3899654E-02;  3.9802230E+04;  0.0000000E+00; -1.5487020E-01;  4.0000000E+04;  0.0000000E+00;  4.0021203E+04;  4.5660153E-02;  0.0000000E+00; -1.1760500E-02;  2.8370598E+03;
  5.3149152E-01;  9.9999998E-03;  2.7997395E-01;5737;  2.2885893E-02;  0.0000000E+00; -2.9942072E-03;  9.9785889E+02;  1.0001760E-01; -1.7738757E+03;3; -2.1921515E+00;  0.0000000E+00;  1.9455354E-01;0;  3.1494498E-02;  3.9792398E+04;  0.0000000E+00; -1.4546965E-01;  4.0000000E+04;  0.0000000E+00;  4.0022332E+04;  4.3621495E-02;  0.0000000E+00; -1.2126997E-02;  3.0000496E+03;
  5.3150344E-01;  9.9999998E-03;  2.8997156E-01;5738;  2.2935655E-02;  0.0000000E+00; -2.9750352E-03;  9.9776678E+02;  1.0001747E-01; -1.8501699E+03;3; -2.2961996E+00;  0.0000000E+00;  4.6397117E-01;0;  3.0197766E-02;  3.9783848E+04;  0.0000000E+00; -1.3756359E-01;  4.0000000E+04;  0.0000000E+00;  4.0023512E+04;  4.1821674E-02;  0.0000000E+00; -1.1623907E-02;  3.1442808E+03;
  5.3153390E-01;  9.9999998E-03;  2.9996905E-01;5739;  2.3014318E-02;  0.0000000E+00; -2.9380973E-03;  9.9768616E+02;  1.0001730E-01; -1.9169828E+03;3; -2.3411951E+00;  0.0000000E+00;  7.4640965E-01;0;  2.9929906E-02;  3.9776672E+04;  0.0000000E+00; -1.4279301E-01;  4.0000000E+04;  0.0000000E+00;  4.0024305E+04;  4.0271744E-02;  0.0000000E+00; -1.0341839E-02;  3.2640183E+03;
  5.4155982E-01;  9.9999998E-03;  2.3998208E-01;5794;  2.2825217E-02;  0.0000000E+00; -2.8944055E-03;  9.9836938E+02;  1.0002956E-01; -1.3509248E+03;3; -8.6747140E-01;  0.0000000E+00; -5.7330459E-01;0;  3.5121903E-02;  3.9828891E+04;  0.0000000E+00; -7.2986349E-02;  4.0000000E+04;  0.0000000E+00;  4.0016699E+04;  4.3499924E-02;  0.0000000E+00; -8.3780205E-03;  2.2439246E+03;
  5.4156363E-01;  9.9999998E-03;  2.4997863E-01;5795;  2.2804221E-02;  0.0000000E+00; -2.9329178E-03;  9.9820612E+02;  1.0002953E-01; -1.4861802E+03;3; -1.7980477E+00;  0.0000000E+00; -3.6903533E-01;0;  3.1379312E-02;  3.9813762E+04;  0.0000000E+00; -1.2230406E-01;  4.0000000E+04;  0.0000000E+00;  4.0018824E+04;  4.0556874E-02;  0.0000000E+00; -9.1775609E-03;  2.5243508E+03;
  5.4155099E-01;  9.9999998E-03;  2.5997642E-01;5796;  2.2769542E-02;  0.0000000E+00; -2.9728217E-03;  9.9805420E+02;  1.0002952E-01; -1.6120532E+03;3; -2.1975141E+00;  0.0000000E+00; -5.9548069E-02;0;  2.7662693E-02;  3.9800191E+04;  0.0000000E+00; -1.5777762E-01;  4.0000000E+04;  0.0000000E+00;  4.0020129E+04;  3.7841193E-02;  0.0000000E+00; -1.0178501E-02;  2.7369995E+03;
  5.4152709E-01;  9.9999998E-03;  2.6997435E-01;5797;  2.2748413E-02;  0.0000000E+00; -3.0019060E-03;  9.9791791E+02;  1.0002949E-01; -1.7249883E+03;3; -2.3460886E+00;  0.0000000E+00;  2.3277624E-01;0;  2.4258345E-02;  3.9788176E+04;  0.0000000E+00; -1.5992026E-01;  4.0000000E+04;  0.0000000E+00;  4.0021820E+04;  3.5377320E-02;  0.0000000E+00; -1.1118975E-02;  2.9199155E+03;
  5.4151708E-01;  9.9999998E-03;  2.7997223E-01;5798;  2.2752346E-02;  0.0000000E+00; -2.9980256E-03;  9.9780487E+02;  1.0002955E-01; -1.8186152E+03;3; -2.4277873E+00;  0.0000000E+00;  5.3011918E-01;0;  2.1711785E-02;  3.9777652E+04;  0.0000000E+00; -1.3672085E-01;  4.0000000E+04;  0.0000000E+00;  4.0023027E+04;  3.3158839E-02;  0.0000000E+00; -1.1447052E-02;  3.0895032E+03;
  5.4153562E-01;  9.9999998E-03;  2.8997007E-01;5799;  2.2782648E-02;  0.0000000E+00; -2.9624798E-03;  9.9771393E+02;  1.0002948E-01; -1.8939711E+03;3; -2.5262518E+00;  0.0000000E+00;  7.9780084E-01;0;  2.0376079E-02;  3.9769109E+04;  0.0000000E+00; -1.2902738E-01;  4.0000000E+04;  0.0000000E+00;  4.0024188E+04;  3.1180952E-02;  0.0000000E+00; -1.0804872E-02;  3.2331360E+03;
  5.4157591E-01;  9.9999998E-03;  2.9996791E-01;5800;  2.2838870E-02;  0.0000000E+00; -2.9120196E-03;  9.9764197E+02;  1.0002959E-01; -1.9535743E+03;3; -2.6296499E+00;  0.0000000E+00;  1.0803210E+00;0;  2.0013241E-02;  3.9762172E+04;  0.0000000E+00; -1.6075234E-01;  4.0000000E+04;  0.0000000E+00;  4.0024801E+04;  2.9446878E-02;  0.0000000E+00; -9.4336364E-03;  3.3457703E+03;
  5.5160087E-01;  9.9999998E-03;  2.3998283E-01;5855;  2.2840684E-02;  0.0000000E+00; -2.8926467E-03;  9.9842926E+02;  1.0004855E-01; -1.3013458E+03;3; -2.2597992E+00;  0.0000000E+00; -2.4557777E-01;0;  2.5890982E-02;  3.9818453E+04;  0.0000000E+00; -8.4966518E-02;  4.0000000E+04;  0.0000000E+00;  4.0015750E+04;  3.3634171E-02;  0.0000000E+00; -7.7431896E-03;  2.1464963E+03;
  5.5161762E-01;  9.9999998E-03;  2.4997847E-01;5856;  2.2752732E-02;  0.0000000E+00; -2.9237764E-03;  9.9826031E+02;  1.0004877E-01; -1.4412925E+03;3; -2.6353436E+00;  0.0000000E+00; -6.6943616E-02;0;  2.2156335E-02;  3.9803316E+04;  0.0000000E+00; -1.3465191E-01;  4.0000000E+04;  0.0000000E+00;  4.0017605E+04;  3.0650012E-02;  0.0000000E+00; -8.4936768E-03;  2.4110820E+03;
  5.5161250E-01;  9.9999998E-03;  2.5997561E-01;5857;  2.2688230E-02;  0.0000000E+00; -2.9507014E-03;  9.9810468E+02;  1.0004857E-01; -1.5702271E+03;3; -2.7526147E+00;  0.0000000E+00;  1.7557956E-01;0;  1.8503375E-02;  3.9789168E+04;  0.0000000E+00; -1.6929048E-01;  4.0000000E+04;  0.0000000E+00;  4.0019422E+04;  2.7894277E-02;  0.0000000E+00; -9.3909027E-03;  2.6381167E+03;
  5.5159265E-01;  9.9999998E-03;  2.6997346E-01;5858;  2.2643980E-02;  0.0000000E+00; -2.9708843E-03;  9.9796686E+02;  1.0004877E-01; -1.6843967E+03;3; -2.6929176E+00;  0.0000000E+00;  5.3234732E-01;0;  1.5094507E-02;  3.9776828E+04;  0.0000000E+00; -1.6456170E-01;  4.0000000E+04;  0.0000000E+00;  4.0020711E+04;  2.5389642E-02;  0.0000000E+00; -1.0295135E-02;  2.8329490E+03;
  5.5158186E-01;  9.9999998E-03;  2.7997151E-01;5859;  2.2627130E-02;  0.0000000E+00; -2.9594591E-03;  9.9785468E+02;  1.0004848E-01; -1.7773817E+03;3; -2.7247326E+00;  0.0000000E+00;  8.1171912E-01;0;  1.2549100E-02;  3.9766465E+04;  0.0000000E+00; -1.2782279E-01;  4.0000000E+04;  0.0000000E+00;  4.0022191E+04;  2.3127507E-02;  0.0000000E+00; -1.0578408E-02;  3.0064751E+03;
  5.5160362E-01;  9.9999998E-03;  2.8996968E-01;5860;  2.2640476E-02;  0.0000000E+00; -2.9110035E-03;  9.9776471E+02;  1.0004845E-01; -1.8518981E+03;3; -2.8520770E+00;  0.0000000E+00;  1.0800152E+00;0;  1.1242713E-02;  3.9758242E+04;  0.0000000E+00; -1.2498080E-01;  4.0000000E+04;  0.0000000E+00;  4.0023328E+04;  2.1089876E-02;  0.0000000E+00; -9.8471632E-03;  3.1565149E+03;
  5.5164915E-01;  9.9999998E-03;  2.9996791E-01;5861;  2.2691011E-02;  0.0000000E+00; -2.8353787E-03;  9.9769983E+02;  1.0004847E-01; -1.9056250E+03;3; -3.1123035E+00;  0.0000000E+00;  1.3374996E+00;0;  1.1108080E-02;  3.9752277E+04;  0.0000000E+00; -1.9394520E-01;  4.0000000E+04;  0.0000000E+00;  4.0024227E+04;  1.9273207E-02;  0.0000000E+00; -8.1651267E-03;  3.2700063E+03;
  5.6168109E-01;  9.9999998E-03;  2.3998471E-01;5916;  2.2801068E-02;  0.0000000E+00; -2.8375124E-03;  9.9857098E+02;  1.0007975E-01; -1.1839170E+03;3; -3.1637607E+00;  0.0000000E+00;  3.1030354E-01;0;  1.6994746E-02;  3.9806590E+04;  0.0000000E+00; -9.6372217E-02;  4.0000000E+04;  0.0000000E+00;  4.0013488E+04;  2.4035413E-02;  0.0000000E+00; -7.0406664E-03;  1.9052589E+03;
  5.6171495E-01;  9.9999998E-03;  2.4997942E-01;5917;  2.2687549E-02;  0.0000000E+00; -2.8684095E-03;  9.9840204E+02;  1.0007986E-01; -1.3238636E+03;3; -3.1734629E+00;  0.0000000E+00;  4.4345057E-01;0;  1.3395554E-02;  3.9791723E+04;  0.0000000E+00; -1.5222715E-01;  4.0000000E+04;  0.0000000E+00;  4.0015375E+04;  2.1169854E-02;  0.0000000E+00; -7.7742999E-03;  2.1365408E+03;
  5.6172347E-01;  9.9999998E-03;  2.5997585E-01;5918;  2.2608276E-02;  0.0000000E+00; -2.8864814E-03;  9.9824915E+02;  1.0007985E-01; -1.4505267E+03;3; -3.1770763E+00;  0.0000000E+00;  5.6312823E-01;0;  9.9440319E-03;  3.9777648E+04;  0.0000000E+00; -2.0249610E-01;  4.0000000E+04;  0.0000000E+00;  4.0017047E+04;  1.8515371E-02;  0.0000000E+00; -8.5713388E-03;  2.3784397E+03;
  5.6170648E-01;  9.9999998E-03;  2.6997358E-01;5919;  2.2553165E-02;  0.0000000E+00; -2.8944816E-03;  9.9811334E+02;  1.0007992E-01; -1.5630668E+03;3; -3.1798315E+00;  0.0000000E+00;  7.3807722E-01;0;  6.7907143E-03;  3.9765457E+04;  0.0000000E+00; -2.1305966E-01;  4.0000000E+04;  0.0000000E+00;  4.0018641E+04;  1.6100153E-02;  0.0000000E+00; -9.3094390E-03;  2.5887834E+03;
  5.6169140E-01;  9.9999998E-03;  2.7997190E-01;5920;  2.2522988E-02;  0.0000000E+00; -2.8713548E-03;  9.9800171E+02;  1.0007984E-01; -1.6555580E+03;3; -3.2615545E+00;  0.0000000E+00;  9.3776500E-01;0;  4.4550812E-03;  3.9755262E+04;  0.0000000E+00; -1.8396796E-01;  4.0000000E+04;  0.0000000E+00;  4.0020148E+04;  1.3912181E-02;  0.0000000E+00; -9.4571002E-03;  2.7719182E+03;
  5.6171077E-01;  9.9999998E-03;  2.8997061E-01;5921;  2.2522874E-02;  0.0000000E+00; -2.8040886E-03;  9.9792383E+02;  1.0007969E-01; -1.7200500E+03;3; -3.4520915E+00;  0.0000000E+00;  1.1320516E+00;0;  3.4548175E-03;  3.9747855E+04;  0.0000000E+00; -2.0232289E-01;  4.0000000E+04;  0.0000000E+00;  4.0021379E+04;  1.1923330E-02;  0.0000000E+00; -8.4685124E-03;  2.9148042E+03;
  5.6175315E-01;  9.9999998E-03;  2.9996946E-01;5922;  2.2580253E-02;  0.0000000E+00; -2.6824388E-03;  9.9787024E+02;  1.0007991E-01; -1.7644438E+03;3; -3.8294294E+00;  0.0000000E+00;  1.2820795E+00;0;  4.0878346E-03;  3.9743340E+04;  0.0000000E+00; -3.0848360E-01;  4.0000000E+04;  0.0000000E+00;  4.0021980E+04;  1.0124590E-02;  0.0000000E+00; -6.0367556E-03;  3.0200076E+03;
  5.7180005E-01;  9.9999998E-03;  2.3998618E-01;5977;  2.2734199E-02;  0.0000000E+00; -2.7259784E-03;  9.9877338E+02;  1.0013139E-01; -1.0162181E+03;3; -3.4201069E+00;  0.0000000E+00;  9.2324013E-01;0;  8.8383742E-03;  3.9784109E+04;  0.0000000E+00; -1.0945027E-01;  4.0000000E+04;  0.0000000E+00;  4.0010809E+04;  1.5095650E-02;  0.0000000E+00; -6.2572756E-03;  1.5797150E+03;
  5.7184541E-01;  9.9999998E-03;  2.4998043E-01;5978;  2.2611598E-02;  0.0000000E+00; -2.7653780E-03;  9.9860645E+02;  1.0013139E-01; -1.1545352E+03;3; -3.3268797E+00;  0.0000000E+00;  9.5051700E-01;0;  5.4919245E-03;  3.9769980E+04;  0.0000000E+00; -1.8322365E-01;  4.0000000E+04;  0.0000000E+00;  4.0012219E+04;  1.2468464E-02;  0.0000000E+00; -6.9765393E-03;  1.7740433E+03;
  5.7186639E-01;  9.9999998E-03;  2.5997651E-01;5979;  2.2518536E-02;  0.0000000E+00; -2.7821306E-03;  9.9846106E+02;  1.0013117E-01; -1.2749762E+03;3; -3.3224463E+00;  0.0000000E+00;  9.9308431E-01;0;  2.2776779E-03;  3.9756859E+04;  0.0000000E+00; -2.7415773E-01;  4.0000000E+04;  0.0000000E+00;  4.0014180E+04;  1.0023917E-02;  0.0000000E+00; -7.7462392E-03;  2.0324305E+03;
  5.7185489E-01;  9.9999998E-03;  2.6997450E-01;5980;  2.2449685E-02;  0.0000000E+00; -2.7851341E-03;  9.9833240E+02;  1.0013127E-01; -1.3815905E+03;3; -3.3834434E+00;  0.0000000E+00;  1.0676426E+00;0; -6.3683046E-04;  3.9745113E+04;  0.0000000E+00; -3.4132990E-01;  4.0000000E+04;  0.0000000E+00;  4.0015754E+04;  7.7934186E-03;  0.0000000E+00; -8.4302491E-03;  2.2604946E+03;
  5.7183564E-01;  9.9999998E-03;  2.7997345E-01;5981;  2.2402767E-02;  0.0000000E+00; -2.7624867E-03;  9.9822900E+02;  1.0013135E-01; -1.4672177E+03;3; -3.5027106E+00;  0.0000000E+00;  1.1867074E+00;0; -2.8504692E-03;  3.9735539E+04;  0.0000000E+00; -3.6598191E-01;  4.0000000E+04;  0.0000000E+00;  4.0016988E+04;  5.7681426E-03;  0.0000000E+00; -8.6186118E-03;  2.4408130E+03;
  5.7184464E-01;  9.9999998E-03;  2.8997290E-01;5982;  2.2385346E-02;  0.0000000E+00; -2.6969621E-03;  9.9815869E+02;  1.0013096E-01; -1.5254875E+03;3; -3.7136781E+00;  0.0000000E+00;  1.3028896E+00;0; -3.8150926E-03;  3.9728676E+04;  0.0000000E+00; -4.2749774E-01;  4.0000000E+04;  0.0000000E+00;  4.0017953E+04;  3.9188056E-03;  0.0000000E+00; -7.7338982E-03;  2.5835591E+03;
  5.7187355E-01;  9.9999998E-03;  2.9997256E-01;5983;  2.2436844E-02;  0.0000000E+00; -2.5650598E-03;  9.9811499E+02;  1.0013086E-01; -1.5616841E+03;3; -4.1970539E+00;  0.0000000E+00;  1.2591734E+00;0; -2.9222823E-03;  3.9725125E+04;  0.0000000E+00; -5.6076127E-01;  4.0000000E+04;  0.0000000E+00;  4.0018703E+04;  2.2285546E-03;  0.0000000E+00; -5.1508369E-03;  2.6915835E+03;
  5.8193880E-01;  9.9999998E-03;  2.3998445E-01;6038;  2.2659767E-02;  0.0000000E+00; -2.5654631E-03;  9.9895721E+02;  1.0021478E-01; -8.6392615E+02;3; -3.4018435E+00;  0.0000000E+00;  1.3023798E+00;0;  1.6531018E-03;  3.9735305E+04;  0.0000000E+00; -1.2527412E-01;  4.0000000E+04;  0.0000000E+00;  4.0008383E+04;  7.0759016E-03;  0.0000000E+00; -5.4227998E-03;  1.3145222E+03;
  5.8199191E-01;  9.9999998E-03;  2.4997982E-01;6039;  2.2527827E-02;  0.0000000E+00; -2.6136748E-03;  9.9879718E+02;  1.0021477E-01; -9.9651495E+02;3; -3.3648286E+00;  0.0000000E+00;  1.3124053E+00;0; -1.3559074E-03;  3.9722359E+04;  0.0000000E+00; -2.2823942E-01;  4.0000000E+04;  0.0000000E+00;  4.0009262E+04;  4.7589210E-03;  0.0000000E+00; -6.1148284E-03;  1.4667308E+03;
  5.8201545E-01;  9.9999998E-03;  2.5997680E-01;6040;  2.2423152E-02;  0.0000000E+00; -2.6358876E-03;  9.9866553E+02;  1.0021447E-01; -1.1055983E+03;3; -3.4002817E+00;  0.0000000E+00;  1.3527923E+00;0; -4.2922720E-03;  3.9710145E+04;  0.0000000E+00; -3.7295926E-01;  4.0000000E+04;  0.0000000E+00;  4.0010781E+04;  2.5977052E-03;  0.0000000E+00; -6.8899770E-03;  1.7290275E+03;
  5.8200830E-01;  9.9999998E-03;  2.6997584E-01;6041;  2.2338895E-02;  0.0000000E+00; -2.6486744E-03;  9.9854523E+02;  1.0021449E-01; -1.2052498E+03;3; -3.4951177E+00;  0.0000000E+00;  1.4149119E+00;0; -7.0737130E-03;  3.9699641E+04;  0.0000000E+00; -5.2565789E-01;  4.0000000E+04;  0.0000000E+00;  4.0012141E+04;  6.1562523E-04;  0.0000000E+00; -7.6893382E-03;  1.9844811E+03;
  5.8198649E-01;  9.9999998E-03;  2.7997589E-01;6042;  2.2273667E-02;  0.0000000E+00; -2.6439959E-03;  9.9844946E+02;  1.0021434E-01; -1.2846056E+03;3; -3.6218946E+00;  0.0000000E+00;  1.5221328E+00;0; -9.3933754E-03;  3.9690953E+04;  0.0000000E+00; -6.4885372E-01;  4.0000000E+04;  0.0000000E+00;  4.0013676E+04; -1.1882124E-03;  0.0000000E+00; -8.2051633E-03;  2.1938972E+03;
  5.8198076E-01;  9.9999998E-03;  2.8997633E-01;6043;  2.2233840E-02;  0.0000000E+00; -2.6043800E-03;  9.9838452E+02;  1.0021405E-01; -1.3383818E+03;3; -3.8158195E+00;  0.0000000E+00;  1.6564136E+00;0; -1.0732466E-02;  3.9685016E+04;  0.0000000E+00; -7.8161275E-01;  4.0000000E+04;  0.0000000E+00;  4.0014340E+04; -2.8356418E-03;  0.0000000E+00; -7.8968247E-03;  2.3753564E+03;
  5.8198816E-01;  9.9999998E-03;  2.9997697E-01;6044;  2.2244709E-02;  0.0000000E+00; -2.5301077E-03;  9.9835028E+02;  1.0021381E-01; -1.3667760E+03;3; -4.1689792E+00;  0.0000000E+00;  1.6835692E+00;0; -1.0890456E-02;  3.9682340E+04;  0.0000000E+00; -9.3912655E-01;  4.0000000E+04;  0.0000000E+00;  4.0014766E+04; -4.3424689E-03;  0.0000000E+00; -6.5479875E-03;  2.5200374E+03;
  5.9203273E-01;  9.9999998E-03;  2.3997773E-01;6099;  2.2578577E-02;  0.0000000E+00; -2.3750439E-03;  9.9903400E+02;  1.0034949E-01; -8.0032300E+02;3; -3.4217527E+00;  0.0000000E+00;  1.6051923E+00;0; -4.4993996E-03;  3.9637262E+04;  0.0000000E+00; -1.2460558E-01;  4.0000000E+04;  0.0000000E+00;  4.0006797E+04;  1.2724151E-04;  0.0000000E+00; -4.6266410E-03;  1.2305917E+03;
  5.9208888E-01;  9.9999998E-03;  2.4997659E-01;6100;  2.2437964E-02;  0.0000000E+00; -2.4311212E-03;  9.9888501E+02;  1.0034920E-01; -9.2372687E+02;3; -3.4579613E+00;  0.0000000E+00;  1.6169379E+00;0; -7.1378252E-03;  3.9625707E+04;  0.0000000E+00; -2.4084413E-01;  4.0000000E+04;  0.0000000E+00;  4.0007008E+04; -1.8495069E-03;  0.0000000E+00; -5.2883183E-03;  1.3259784E+03;
  5.9211463E-01;  9.9999998E-03;  2.5997612E-01;6101;  2.2320990E-02;  0.0000000E+00; -2.4643727E-03;  9.9876361E+02;  1.0034929E-01; -1.0243167E+03;3; -3.5200531E+00;  0.0000000E+00;  1.6596956E+00;0; -9.8210489E-03;  3.9614730E+04;  0.0000000E+00; -4.1649815E-01;  4.0000000E+04;  0.0000000E+00;  4.0008523E+04; -3.7000063E-03;  0.0000000E+00; -6.1210427E-03;  1.5674760E+03;
  5.9211022E-01;  9.9999998E-03;  2.6997712E-01;6102;  2.2221813E-02;  0.0000000E+00; -2.4910565E-03;  9.9865179E+02;  1.0034879E-01; -1.1169559E+03;3; -3.6294179E+00;  0.0000000E+00;  1.7267540E+00;0; -1.2511860E-02;  3.9605145E+04;  0.0000000E+00; -6.2537301E-01;  4.0000000E+04;  0.0000000E+00;  4.0009785E+04; -5.4037338E-03;  0.0000000E+00; -7.1081258E-03;  1.8421616E+03;
  5.9209275E-01;  9.9999998E-03;  2.7997884E-01;6103;  2.2139585E-02;  0.0000000E+00; -2.5015683E-03;  9.9856653E+02;  1.0034849E-01; -1.1876206E+03;3; -3.7747283E+00;  0.0000000E+00;  1.8258879E+00;0; -1.4901130E-02;  3.9597520E+04;  0.0000000E+00; -8.4355330E-01;  4.0000000E+04;  0.0000000E+00;  4.0010922E+04; -6.9602598E-03;  0.0000000E+00; -7.9408698E-03;  2.1132227E+03;
  5.9208256E-01;  9.9999998E-03;  2.8998062E-01;6104;  2.2079218E-02;  0.0000000E+00; -2.4751904E-03;  9.9850824E+02;  1.0034816E-01; -1.2359155E+03;3; -3.9660048E+00;  0.0000000E+00;  1.9477655E+00;0; -1.6382150E-02;  3.9592523E+04;  0.0000000E+00; -1.0796517E+00;  4.0000000E+04;  0.0000000E+00;  4.0011566E+04; -8.3803851E-03;  0.0000000E+00; -8.0017643E-03;  2.3932209E+03;
  5.9207839E-01;  9.9999998E-03;  2.9998237E-01;6105;  2.2058330E-02;  0.0000000E+00; -2.4202589E-03;  9.9847882E+02;  1.0034749E-01; -1.2602605E+03;3; -4.2210121E+00;  0.0000000E+00;  2.0654154E+00;0; -1.6865544E-02;  3.9590496E+04;  0.0000000E+00; -1.3209120E+00;  4.0000000E+04;  0.0000000E+00;  4.0012039E+04; -9.6756918E-03;  0.0000000E+00; -7.1898527E-03;  2.6516321E+03;
  6.0204411E-01;  9.9999998E-03;  2.3996578E-01;6160;  2.2482315E-02;  0.0000000E+00; -2.1644775E-03;  9.9893463E+02;  1.0056426E-01; -8.8264166E+02;3; -3.5068882E+00;  0.0000000E+00;  1.8734341E+00;0; -9.6305050E-03;  3.9461832E+04;  0.0000000E+00; -8.3476648E-02;  4.0000000E+04;  0.0000000E+00;  4.0006910E+04; -5.7485444E-03;  0.0000000E+00; -3.8819606E-03;  1.4078749E+03;
  6.0210037E-01;  9.9999998E-03;  2.4997050E-01;6161;  2.2332191E-02;  0.0000000E+00; -2.2247634E-03;  9.9879242E+02;  1.0056369E-01; -1.0004655E+03;3; -3.5684285E+00;  0.0000000E+00;  1.8914809E+00;0; -1.1897557E-02;  3.9451012E+04;  0.0000000E+00; -1.7263278E-01;  4.0000000E+04;  0.0000000E+00;  4.0006703E+04; -7.3884660E-03;  0.0000000E+00; -4.5090914E-03;  1.4364574E+03;
  6.0212576E-01;  9.9999998E-03;  2.5997412E-01;6162;  2.2203187E-02;  0.0000000E+00; -2.2642680E-03;  9.9867694E+02;  1.0056348E-01; -1.0961171E+03;3; -3.6547778E+00;  0.0000000E+00;  1.9332383E+00;0; -1.4296329E-02;  3.9441332E+04;  0.0000000E+00; -3.1703764E-01;  4.0000000E+04;  0.0000000E+00;  4.0007789E+04; -8.9296661E-03;  0.0000000E+00; -5.3666621E-03;  1.6144851E+03;
  6.0212314E-01;  9.9999998E-03;  2.6997817E-01;6163;  2.2090217E-02;  0.0000000E+00; -2.2953725E-03;  9.9857526E+02;  1.0056274E-01; -1.1803616E+03;3; -3.7743213E+00;  0.0000000E+00;  2.0048773E+00;0; -1.6785085E-02;  3.9432965E+04;  0.0000000E+00; -4.9936977E-01;  4.0000000E+04;  0.0000000E+00;  4.0008828E+04; -1.0353747E-02;  0.0000000E+00; -6.4313374E-03;  1.8319755E+03;
  6.0210919E-01;  9.9999998E-03;  2.7998215E-01;6164;  2.1991683E-02;  0.0000000E+00; -2.3102323E-03;  9.9849841E+02;  1.0056198E-01; -1.2440142E+03;3; -3.9322565E+00;  0.0000000E+00;  2.0967052E+00;0; -1.9061645E-02;  3.9426523E+04;  0.0000000E+00; -7.0608699E-01;  4.0000000E+04;  0.0000000E+00;  4.0009902E+04; -1.1657318E-02;  0.0000000E+00; -7.4043269E-03;  2.0611462E+03;
  6.0209620E-01;  9.9999998E-03;  2.8998566E-01;6165;  2.1912338E-02;  0.0000000E+00; -2.2858591E-03;  9.9844275E+02;  1.0056148E-01; -1.2901362E+03;3; -4.1270161E+00;  0.0000000E+00;  2.2077146E+00;0; -2.0458931E-02;  3.9422086E+04;  0.0000000E+00; -9.2530125E-01;  4.0000000E+04;  0.0000000E+00;  4.0010211E+04; -1.2843350E-02;  0.0000000E+00; -7.6155816E-03;  2.3072295E+03;
  6.0208464E-01;  9.9999998E-03;  2.9998869E-01;6166;  2.1870825E-02;  0.0000000E+00; -2.2285418E-03;  9.9840393E+02;  1.0056042E-01; -1.3223329E+03;3; -4.3580027E+00;  0.0000000E+00;  2.3312528E+00;0; -2.0818323E-02;  3.9419754E+04;  0.0000000E+00; -1.1251205E+00;  4.0000000E+04;  0.0000000E+00;  4.0011051E+04; -1.3920705E-02;  0.0000000E+00; -6.8976190E-03;  2.5245576E+03;
  6.1200124E-01;  9.9999998E-03;  2.3995033E-01;6221;  2.2359515E-02;  0.0000000E+00; -1.9310288E-03;  9.9866211E+02;  1.0089970E-01; -1.1084130E+03;3; -3.6148624E+00;  0.0000000E+00;  2.1165969E+00;0; -1.3816607E-02;  3.9178973E+04;  0.0000000E+00; -8.7357061E-03;  4.0000000E+04;  0.0000000E+00;  4.0008059E+04; -1.0673368E-02;  0.0000000E+00; -3.1432388E-03;  1.8732197E+03;
  6.1205339E-01;  9.9999998E-03;  2.4996287E-01;6222;  2.2199366E-02;  0.0000000E+00; -1.9881458E-03;  9.9852283E+02;  1.0089895E-01; -1.2238171E+03;3; -3.6878617E+00;  0.0000000E+00;  2.1393564E+00;0; -1.5694037E-02;  3.9168914E+04;  0.0000000E+00; -4.1166622E-02;  4.0000000E+04;  0.0000000E+00;  4.0007699E+04; -1.1999207E-02;  0.0000000E+00; -3.6948312E-03;  1.8557130E+03;
  6.1207920E-01;  9.9999998E-03;  2.5997204E-01;6223;  2.2058384E-02;  0.0000000E+00; -2.0235565E-03;  9.9841473E+02;  1.0089819E-01; -1.3133455E+03;3; -3.7878165E+00;  0.0000000E+00;  2.1916645E+00;0; -1.7730661E-02;  3.9160227E+04;  0.0000000E+00; -1.1523808E-01;  4.0000000E+04;  0.0000000E+00;  4.0008598E+04; -1.3252793E-02;  0.0000000E+00; -4.4778674E-03;  1.9641230E+03;
  6.1207956E-01;  9.9999998E-03;  2.6997986E-01;6224;  2.1931661E-02;  0.0000000E+00; -2.0458214E-03;  9.9831860E+02;  1.0089751E-01; -1.3929976E+03;3; -3.9209464E+00;  0.0000000E+00;  2.2578351E+00;0; -1.9839903E-02;  3.9152660E+04;  0.0000000E+00; -2.2023171E-01;  4.0000000E+04;  0.0000000E+00;  4.0009434E+04; -1.4415085E-02;  0.0000000E+00; -5.4248185E-03;  2.1055601E+03;
  6.1206561E-01;  9.9999998E-03;  2.7998656E-01;6225;  2.1817075E-02;  0.0000000E+00; -2.0516252E-03;  9.9823737E+02;  1.0089610E-01; -1.4603043E+03;3; -4.0851679E+00;  0.0000000E+00;  2.3451889E+00;0; -2.1759475E-02;  3.9146621E+04;  0.0000000E+00; -3.3856797E-01;  4.0000000E+04;  0.0000000E+00;  4.0010414E+04; -1.5478079E-02;  0.0000000E+00; -6.2813954E-03;  2.2477573E+03;
  6.1204726E-01;  9.9999998E-03;  2.8999203E-01;6226;  2.1719677E-02;  0.0000000E+00; -2.0180326E-03;  9.9817206E+02;  1.0089499E-01; -1.5144261E+03;3; -4.2749734E+00;  0.0000000E+00;  2.4575706E+00;0; -2.2834163E-02;  3.9142574E+04;  0.0000000E+00; -4.4199389E-01;  4.0000000E+04;  0.0000000E+00;  4.0011043E+04; -1.6440708E-02;  0.0000000E+00; -6.3934559E-03;  2.3837974E+03;
  6.1202562E-01;  9.9999998E-03;  2.9999655E-01;6227;  2.1660201E-02;  0.0000000E+00; -1.9520258E-03;  9.9812164E+02;  1.0089329E-01; -1.5562028E+03;3; -4.4903212E+00;  0.0000000E+00;  2.5818372E+00;0; -2.2923214E-02;  3.9139664E+04;  0.0000000E+00; -4.7404784E-01;  4.0000000E+04;  0.0000000E+00;  4.0011871E+04; -1.7308872E-02;  0.0000000E+00; -5.6143417E-03;  2.4610588E+03;
  6.2192237E-01;  9.9999998E-03;  2.3993672E-01;6282;  2.2202114E-02;  0.0000000E+00; -1.6713195E-03;  9.9832501E+02;  1.0140960E-01; -1.3877137E+03;3; -3.7285578E+00;  0.0000000E+00;  2.3448720E+00;0; -1.7175961E-02;  3.8760527E+04;  0.0000000E+00;  8.1101649E-02;  4.0000000E+04;  0.0000000E+00;  4.0009551E+04; -1.4807861E-02;  0.0000000E+00; -2.3680991E-03;  2.4926301E+03;
  6.2196779E-01;  9.9999998E-03;  2.4995761E-01;6283;  2.2030853E-02;  0.0000000E+00; -1.7157787E-03;  9.9818176E+02;  1.0140868E-01; -1.5063771E+03;3; -3.8097854E+00;  0.0000000E+00;  2.3805032E+00;0; -1.8634731E-02;  3.8750605E+04;  0.0000000E+00;  1.0985011E-01;  4.0000000E+04;  0.0000000E+00;  4.0009012E+04; -1.5855137E-02;  0.0000000E+00; -2.7795935E-03;  2.4689573E+03;
  6.2199003E-01;  9.9999998E-03;  2.5997257E-01;6284;  2.1876266E-02;  0.0000000E+00; -1.7386078E-03;  9.9806622E+02;  1.0140751E-01; -1.6020780E+03;3; -3.9167795E+00;  0.0000000E+00;  2.4324231E+00;0; -2.0233266E-02;  3.8742027E+04;  0.0000000E+00;  1.1198005E-01;  4.0000000E+04;  0.0000000E+00;  4.0009602E+04; -1.6851753E-02;  0.0000000E+00; -3.3815133E-03;  2.5584507E+03;
  6.2198979E-01;  9.9999998E-03;  2.6998442E-01;6285;  2.1734631E-02;  0.0000000E+00; -1.7415505E-03;  9.9796600E+02;  1.0140579E-01; -1.6851375E+03;3; -4.0578289E+00;  0.0000000E+00;  2.4957080E+00;0; -2.1815753E-02;  3.8734734E+04;  0.0000000E+00;  9.0027243E-02;  4.0000000E+04;  0.0000000E+00;  4.0010457E+04; -1.7779667E-02;  0.0000000E+00; -4.0360857E-03;  2.6783499E+03;
  6.2197268E-01;  9.9999998E-03;  2.7999398E-01;6286;  2.1603478E-02;  0.0000000E+00; -1.7266471E-03;  9.9787604E+02;  1.0140418E-01; -1.7596538E+03;3; -4.2226224E+00;  0.0000000E+00;  2.5832551E+00;0; -2.3166748E-02;  3.8728680E+04;  0.0000000E+00;  6.7098469E-02;  4.0000000E+04;  0.0000000E+00;  4.0011457E+04; -1.8627776E-02;  0.0000000E+00; -4.5389715E-03;  2.7915022E+03;
  6.2194896E-01;  9.9999998E-03;  2.9000154E-01;6287;  2.1487711E-02;  0.0000000E+00; -1.6738296E-03;  9.9779663E+02;  1.0140157E-01; -1.8254297E+03;3; -4.4029365E+00;  0.0000000E+00;  2.7084479E+00;0; -2.3715556E-02;  3.8723906E+04;  0.0000000E+00;  8.0827981E-02;  4.0000000E+04;  0.0000000E+00;  4.0012246E+04; -1.9392630E-02;  0.0000000E+00; -4.3229260E-03;  2.8991450E+03;
  6.2191826E-01;  9.9999998E-03;  3.0000746E-01;6288;  2.1409262E-02;  0.0000000E+00; -1.5901836E-03;  9.9771912E+02;  1.0139902E-01; -1.8896748E+03;3; -4.6047559E+00;  0.0000000E+00;  2.8356233E+00;0; -2.3358867E-02;  3.8720227E+04;  0.0000000E+00;  1.9895756E-01;  4.0000000E+04;  0.0000000E+00;  4.0012961E+04; -2.0076387E-02;  0.0000000E+00; -3.2824804E-03;  2.9998933E+03;
  6.3180238E-01;  9.9999998E-03;  2.3993324E-01;6343;  2.2006132E-02;  0.0000000E+00; -1.3887928E-03;  9.9808868E+02;  1.0215342E-01; -1.5835106E+03;3; -3.8482947E+00;  0.0000000E+00;  2.5614197E+00;0; -1.9875634E-02;  3.8182133E+04;  0.0000000E+00;  1.5898465E-01;  4.0000000E+04;  0.0000000E+00;  4.0008070E+04; -1.8327478E-02;  0.0000000E+00; -1.5481563E-03;  2.9947749E+03;
  6.3183492E-01;  9.9999998E-03;  2.4996041E-01;6344;  2.1822443E-02;  0.0000000E+00; -1.4124304E-03;  9.9793506E+02;  1.0215217E-01; -1.7107664E+03;3; -3.9321954E+00;  0.0000000E+00;  2.6061709E+00;0; -2.0900916E-02;  3.8171434E+04;  0.0000000E+00;  2.2082947E-01;  4.0000000E+04;  0.0000000E+00;  4.0008055E+04; -1.9135969E-02;  0.0000000E+00; -1.7649472E-03;  3.0049487E+03;
  6.3184804E-01;  9.9999998E-03;  2.5998011E-01;6345;  2.1653298E-02;  0.0000000E+00; -1.4168886E-03;  9.9780359E+02;  1.0215039E-01; -1.8197015E+03;3; -4.0460925E+00;  0.0000000E+00;  2.6579869E+00;0; -2.2024117E-02;  3.8162387E+04;  0.0000000E+00;  2.4915355E-01;  4.0000000E+04;  0.0000000E+00;  4.0008535E+04; -1.9912448E-02;  0.0000000E+00; -2.1116703E-03;  3.0959304E+03;
  6.3184160E-01;  9.9999998E-03;  2.6999518E-01;6346;  2.1494620E-02;  0.0000000E+00; -1.3962404E-03;  9.9768347E+02;  1.0214785E-01; -1.9192048E+03;3; -4.1818962E+00;  0.0000000E+00;  2.7332447E+00;0; -2.3031123E-02;  3.8154320E+04;  0.0000000E+00;  2.3807217E-01;  4.0000000E+04;  0.0000000E+00;  4.0009773E+04; -2.0639649E-02;  0.0000000E+00; -2.3914734E-03;  3.2261643E+03;
  6.3181919E-01;  9.9999998E-03;  2.8000709E-01;6347;  2.1346545E-02;  0.0000000E+00; -1.3463935E-03;  9.9757684E+02;  1.0214505E-01; -2.0075480E+03;3; -4.3376822E+00;  0.0000000E+00;  2.8427951E+00;0; -2.3606114E-02;  3.8148039E+04;  0.0000000E+00;  2.0767419E-01;  4.0000000E+04;  0.0000000E+00;  4.0010633E+04; -2.1306131E-02;  0.0000000E+00; -2.2999838E-03;  3.3465884E+03;
  6.3178867E-01;  9.9999998E-03;  2.9001635E-01;6348;  2.1212673E-02;  0.0000000E+00; -1.2577891E-03;  9.9747168E+02;  1.0214166E-01; -2.0946567E+03;3; -4.5088844E+00;  0.0000000E+00;  2.9605868E+00;0; -2.3322785E-02;  3.8142129E+04;  0.0000000E+00;  2.1430692E-01;  4.0000000E+04;  0.0000000E+00;  4.0011738E+04; -2.1906033E-02;  0.0000000E+00; -1.4167515E-03;  3.4712341E+03;
  6.3174742E-01;  9.9999998E-03;  3.0002350E-01;6349;  2.1111591E-02;  0.0000000E+00; -1.1505156E-03;  9.9736206E+02;  1.0213718E-01; -2.1854690E+03;3; -4.7045732E+00;  0.0000000E+00;  3.0534647E+00;0; -2.2389375E-02;  3.8137223E+04;  0.0000000E+00;  3.4761265E-01;  4.0000000E+04;  0.0000000E+00;  4.0012516E+04; -2.2437494E-02;  0.0000000E+00;  4.8119011E-05;  3.6102659E+03;
  6.4166051E-01;  9.9999998E-03;  2.3994815E-01;6404;  2.1777846E-02;  0.0000000E+00; -1.0899844E-03;  9.9811560E+02;  1.0318413E-01; -1.5611903E+03;3; -3.9735329E+00;  0.0000000E+00;  2.7697647E+00;0; -2.2114642E-02;  3.7429277E+04;  0.0000000E+00;  1.7505591E-01;  4.0000000E+04;  0.0000000E+00;  4.0002172E+04; -2.1415837E-02;  0.0000000E+00; -6.9880474E-04;  3.0832122E+03;
  6.4167595E-01;  9.9999998E-03;  2.4997711E-01;6405;  2.1580020E-02;  0.0000000E+00; -1.0891572E-03;  9.9794360E+02;  1.0318229E-01; -1.7037048E+03;3; -4.0526528E+00;  0.0000000E+00;  2.8283904E+00;0; -2.2735234E-02;  3.7417402E+04;  0.0000000E+00;  1.8594944E-01;  4.0000000E+04;  0.0000000E+00;  4.0002594E+04; -2.2025684E-02;  0.0000000E+00; -7.0954987E-04;  3.1484202E+03;
  6.4167613E-01;  9.9999998E-03;  2.5999883E-01;6406;  2.1395093E-02;  0.0000000E+00; -1.0708591E-03;  9.9778876E+02;  1.0317974E-01; -1.8319480E+03;3; -4.1587787E+00;  0.0000000E+00;  2.8970623E+00;0; -2.3391780E-02;  3.7406594E+04;  0.0000000E+00;  9.8291270E-02;  4.0000000E+04;  0.0000000E+00;  4.0003172E+04; -2.2619160E-02;  0.0000000E+00; -7.7262026E-04;  3.2438750E+03;
  6.4166105E-01;  9.9999998E-03;  2.7001539E-01;6407;  2.1219388E-02;  0.0000000E+00; -1.0204057E-03;  9.9764233E+02;  1.0317664E-01; -1.9532780E+03;3; -4.2881589E+00;  0.0000000E+00;  2.9781990E+00;0; -2.3776812E-02;  3.7397773E+04;  0.0000000E+00; -1.1522519E-01;  4.0000000E+04;  0.0000000E+00;  4.0004301E+04; -2.3180764E-02;  0.0000000E+00; -5.9604860E-04;  3.3994109E+03;
  6.4163435E-01;  9.9999998E-03;  2.8002849E-01;6408;  2.1052897E-02;  0.0000000E+00; -9.3258900E-04;  9.9750751E+02;  1.0317304E-01; -2.0649785E+03;3; -4.4358072E+00;  0.0000000E+00;  3.0819457E+00;0; -2.3534562E-02;  3.7389988E+04;  0.0000000E+00; -4.3285286E-01;  4.0000000E+04;  0.0000000E+00;  4.0005629E+04; -2.3699405E-02;  0.0000000E+00;  1.6484235E-04;  3.6096982E+03;
  6.4160091E-01;  9.9999998E-03;  2.9003882E-01;6409;  2.0901106E-02;  0.0000000E+00; -8.0164120E-04;  9.9737146E+02;  1.0316797E-01; -2.1777161E+03;3; -4.6049504E+00;  0.0000000E+00;  3.1725545E+00;0; -2.2312624E-02;  3.7383328E+04;  0.0000000E+00; -7.6124054E-01;  4.0000000E+04;  0.0000000E+00;  4.0006750E+04; -2.4167983E-02;  0.0000000E+00;  1.8553579E-03;  3.8770645E+03;
  6.4155501E-01;  9.9999998E-03;  3.0004689E-01;6410;  2.0776449E-02;  0.0000000E+00; -6.6220295E-04;  9.9723187E+02;  1.0316148E-01; -2.2933176E+03;3; -4.8010325E+00;  0.0000000E+00;  3.1966610E+00;0; -2.0657064E-02;  3.7377883E+04;  0.0000000E+00; -9.5759463E-01;  4.0000000E+04;  0.0000000E+00;  4.0007863E+04; -2.4581544E-02;  0.0000000E+00;  3.9244797E-03;  4.1142124E+03;
  6.5142566E-01;  9.9999998E-03;  3.0007845E-01;6471;  2.0441622E-02;  0.0000000E+00; -1.8715745E-04;  9.9737115E+02;  1.0450038E-01; -2.1779629E+03;3; -4.8870335E+00;  0.0000000E+00;  3.2670639E+00;0; -1.9386293E-02;  3.6441457E+04;  0.0000000E+00; -4.1708679E+00;  4.0000000E+04;  0.0000000E+00;  3.9998133E+04; -2.6647517E-02;  0.0000000E+00;  7.2612236E-03;  7.4467803E+03;
  6.5145671E-01;  9.9999998E-03;  2.9006976E-01;6470;  2.0577366E-02;  0.0000000E+00; -3.4667808E-04;  9.9753259E+02;  1.0450910E-01; -2.0441890E+03;3; -4.6870480E+00;  0.0000000E+00;  3.3388109E+00;0; -2.1506447E-02;  3.6446809E+04;  0.0000000E+00; -3.2672300E+00;  4.0000000E+04;  0.0000000E+00;  3.9996406E+04; -2.6322424E-02;  0.0000000E+00;  4.8159771E-03;  6.1844146E+03;
  6.5147942E-01;  9.9999998E-03;  2.8005904E-01;6469;  2.0742869E-02;  0.0000000E+00; -5.1373034E-04;  9.9769305E+02;  1.0451502E-01; -1.9112544E+03;3; -4.5245247E+00;  0.0000000E+00;  3.2996399E+00;0; -2.3508953E-02;  3.6454488E+04;  0.0000000E+00; -2.1942437E+00;  4.0000000E+04;  0.0000000E+00;  3.9995445E+04; -2.5956597E-02;  0.0000000E+00;  2.4476449E-03;  4.8004526E+03;
  6.5150154E-01;  9.9999998E-03;  2.7004609E-01;6468;  2.0923968E-02;  0.0000000E+00; -6.4393936E-04;  9.9786139E+02;  1.0452000E-01; -1.7718016E+03;3; -4.3861246E+00;  0.0000000E+00;  3.2042387E+00;0; -2.4547953E-02;  3.6463832E+04;  0.0000000E+00; -1.2121811E+00;  4.0000000E+04;  0.0000000E+00;  3.9993586E+04; -2.5556268E-02;  0.0000000E+00;  1.0083151E-03;  3.6974961E+03;
  6.5152377E-01;  9.9999998E-03;  2.6003006E-01;6467;  2.1115823E-02;  0.0000000E+00; -7.2490121E-04;  9.9803119E+02;  1.0452373E-01; -1.6311143E+03;3; -4.2651787E+00;  0.0000000E+00;  3.1132336E+00;0; -2.4700109E-02;  3.6474633E+04;  0.0000000E+00; -4.9319869E-01;  4.0000000E+04;  0.0000000E+00;  3.9992371E+04; -2.5129929E-02;  0.0000000E+00;  4.2982079E-04;  3.0825479E+03;
  6.5154207E-01;  9.9999998E-03;  2.5000989E-01;6466;  2.1317584E-02;  0.0000000E+00; -7.6174829E-04;  9.9821930E+02;  1.0452656E-01; -1.4752668E+03;3; -4.1681356E+00;  0.0000000E+00;  3.0372012E+00;0; -2.4399217E-02;  3.6486719E+04;  0.0000000E+00; -7.9275742E-02;  4.0000000E+04;  0.0000000E+00;  3.9991355E+04; -2.4687994E-02;  0.0000000E+00;  2.8877711E-04;  2.8270374E+03;
  6.5155101E-01;  9.9999998E-03;  2.3998462E-01;6465;  2.1530084E-02;  0.0000000E+00; -7.8649755E-04;  9.9841406E+02;  1.0452793E-01; -1.3139380E+03;3; -4.0928044E+00;  0.0000000E+00;  2.9715395E+00;0; -2.4109831E-02;  3.6500215E+04;  0.0000000E+00;  8.8210911E-02;  4.0000000E+04;  0.0000000E+00;  3.9990129E+04; -2.4243014E-02;  0.0000000E+00;  1.3318345E-04;  2.6645312E+03;
  6.6150868E-01;  9.9999998E-03;  3.0011722E-01;6532;  2.0147065E-02;  0.0000000E+00;  2.1948983E-04;  9.9762970E+02;  1.0615198E-01; -1.9637468E+03;3; -4.9475307E+00;  0.0000000E+00;  3.3617225E+00;0; -1.9731909E-02;  3.5340148E+04;  0.0000000E+00; -8.4486618E+00;  4.0000000E+04;  0.0000000E+00;  3.9984461E+04; -2.8719502E-02;  0.0000000E+00;  8.9875916E-03;  1.3843261E+04;
  6.6163045E-01;  9.9999998E-03;  2.4003759E-01;6526;  2.1270363E-02;  0.0000000E+00; -4.8319084E-04;  9.9877539E+02;  1.0617972E-01; -1.0145885E+03;3; -4.2157402E+00;  0.0000000E+00;  3.1570914E+00;0; -2.6045222E-02;  3.5404367E+04;  0.0000000E+00; -6.2865943E-02;  4.0000000E+04;  0.0000000E+00;  3.9974414E+04; -2.6967267E-02;  0.0000000E+00;  9.2204555E-04;  2.0065612E+03;
  6.6149694E-01;  9.9999998E-03;  2.9010803E-01;6531;  2.0270491E-02;  0.0000000E+00;  8.7797271E-05;  9.9779938E+02;  1.0616223E-01; -1.8231582E+03;3; -4.7533312E+00;  0.0000000E+00;  3.4738865E+00;0; -2.1378497E-02;  3.5344566E+04;  0.0000000E+00; -6.7485604E+00;  4.0000000E+04;  0.0000000E+00;  3.9983270E+04; -2.8467365E-02;  0.0000000E+00;  7.0888679E-03;  1.1228554E+04;
  6.6160488E-01;  9.9999998E-03;  2.5005522E-01;6527;  2.1042874E-02;  0.0000000E+00; -4.4042768E-04;  9.9856213E+02;  1.0617909E-01; -1.1912255E+03;3; -4.2773089E+00;  0.0000000E+00;  3.2359643E+00;0; -2.6128618E-02;  3.5389062E+04;  0.0000000E+00; -4.9310532E-01;  4.0000000E+04;  0.0000000E+00;  3.9976551E+04; -2.7274365E-02;  0.0000000E+00;  1.1457462E-03;  2.4447561E+03;
  6.6150385E-01;  9.9999998E-03;  2.7008548E-01;6529;  2.0621480E-02;  0.0000000E+00; -2.8599508E-04;  9.9817029E+02;  1.0617333E-01; -1.5158583E+03;3; -4.4721074E+00;  0.0000000E+00;  3.4260550E+00;0; -2.5733169E-02;  3.5363969E+04;  0.0000000E+00; -2.8495543E+00;  4.0000000E+04;  0.0000000E+00;  3.9979777E+04; -2.7888905E-02;  0.0000000E+00;  2.1557356E-03;  5.3657617E+03;
  6.6154814E-01;  9.9999998E-03;  2.6007169E-01;6528;  2.0826437E-02;  0.0000000E+00; -3.9195013E-04;  9.9836365E+02;  1.0617708E-01; -1.3556653E+03;3; -4.3644600E+00;  0.0000000E+00;  3.3165722E+00;0; -2.6235009E-02;  3.5376133E+04;  0.0000000E+00; -1.3940616E+00;  4.0000000E+04;  0.0000000E+00;  3.9978105E+04; -2.7582075E-02;  0.0000000E+00;  1.3470672E-03;  3.3933047E+03;
  6.6149288E-01;  9.9999998E-03;  2.8009748E-01;6530;  2.0432614E-02;  0.0000000E+00; -1.2140688E-04;  9.9798047E+02;  1.0616936E-01; -1.6731377E+03;3; -4.5997744E+00;  0.0000000E+00;  3.4953053E+00;0; -2.4140557E-02;  3.5353066E+04;  0.0000000E+00; -4.7289362E+00;  4.0000000E+04;  0.0000000E+00;  3.9981781E+04; -2.8188365E-02;  0.0000000E+00;  4.0478068E-03;  8.1500718E+03;
  6.7166042E-01;  9.9999998E-03;  2.4009718E-01;6587;  2.1005027E-02;  0.0000000E+00; -1.7730282E-04;  9.9899139E+02;  1.0811506E-01; -8.3563062E+02;3; -4.3240886E+00;  0.0000000E+00;  3.3348441E+00;0; -2.7913369E-02;  3.4167645E+04;  0.0000000E+00; -3.3248982E-01;  4.0000000E+04;  0.0000000E+00;  3.9958016E+04; -2.9606046E-02;  0.0000000E+00;  1.6926775E-03;  1.6123607E+03;
  6.7164624E-01;  9.9999998E-03;  2.5010723E-01;6588;  2.0763800E-02;  0.0000000E+00; -1.3174769E-04;  9.9877399E+02;  1.0811606E-01; -1.0157243E+03;3; -4.3751917E+00;  0.0000000E+00;  3.4227810E+00;0; -2.7957117E-02;  3.4151871E+04;  0.0000000E+00; -1.1096625E+00;  4.0000000E+04;  0.0000000E+00;  3.9960754E+04; -2.9799543E-02;  0.0000000E+00;  1.8424268E-03;  2.6943965E+03;
  6.7164212E-01;  9.9999998E-03;  2.6011917E-01;6589;  2.0532584E-02;  0.0000000E+00; -7.9266290E-05;  9.9855103E+02;  1.0811608E-01; -1.2004598E+03;3; -4.4520354E+00;  0.0000000E+00;  3.5110517E+00;0; -2.8079629E-02;  3.4136453E+04;  0.0000000E+00; -2.5094810E+00;  4.0000000E+04;  0.0000000E+00;  3.9962656E+04; -3.0009212E-02;  0.0000000E+00;  1.9295830E-03;  4.7783418E+03;
  6.7167312E-01;  9.9999998E-03;  2.7013034E-01;6590;  2.0316901E-02;  0.0000000E+00;  4.6628917E-05;  9.9833936E+02;  1.0811607E-01; -1.3758129E+03;3; -4.5458651E+00;  0.0000000E+00;  3.6283975E+00;0; -2.7467690E-02;  3.4120879E+04;  0.0000000E+00; -4.5751610E+00;  4.0000000E+04;  0.0000000E+00;  3.9964992E+04; -3.0228993E-02;  0.0000000E+00;  2.7613023E-03;  8.0446895E+03;
  6.7172998E-01;  9.9999998E-03;  2.8014123E-01;6591;  2.0127496E-02;  0.0000000E+00;  2.4048109E-04;  9.9813831E+02;  1.0811489E-01; -1.5423760E+03;3; -4.6561675E+00;  0.0000000E+00;  3.6922040E+00;0; -2.5578286E-02;  3.4107363E+04;  0.0000000E+00; -7.1392303E+00;  4.0000000E+04;  0.0000000E+00;  3.9967062E+04; -3.0445350E-02;  0.0000000E+00;  4.8670638E-03;  1.2147952E+04;
  6.7179745E-01;  9.9999998E-03;  2.9015183E-01;6592;  1.9973814E-02;  0.0000000E+00;  3.7266893E-04;  9.9794995E+02;  1.0810889E-01; -1.6984210E+03;3; -4.7966161E+00;  0.0000000E+00;  3.6814382E+00;0; -2.4189437E-02;  3.4098727E+04;  0.0000000E+00; -9.7837944E+00;  4.0000000E+04;  0.0000000E+00;  3.9968746E+04; -3.0647291E-02;  0.0000000E+00;  6.4578545E-03;  1.6371931E+04;
  6.7188966E-01;  9.9999998E-03;  3.0016169E-01;6593;  1.9861067E-02;  0.0000000E+00;  3.7195755E-04;  9.9777905E+02;  1.0809863E-01; -1.8399972E+03;3; -4.9653583E+00;  0.0000000E+00;  3.6649511E+00;0; -2.5114747E-02;  3.4094832E+04;  0.0000000E+00; -1.1757298E+01;  4.0000000E+04;  0.0000000E+00;  3.9969566E+04; -3.0834639E-02;  0.0000000E+00;  5.7198931E-03;  1.9495590E+04;
  6.8193620E-01;  9.9999998E-03;  2.4015361E-01;6648;  2.0714970E-02;  0.0000000E+00;  1.6685823E-04;  9.9891901E+02;  1.1032353E-01; -8.9557953E+02;3; -4.4260931E+00;  0.0000000E+00;  3.5172012E+00;0; -2.9703505E-02;  3.2814625E+04;  0.0000000E+00; -5.8875066E-01;  4.0000000E+04;  0.0000000E+00;  3.9943566E+04; -3.2289252E-02;  0.0000000E+00;  2.5857459E-03;  1.8798599E+03;
  6.8191701E-01;  9.9999998E-03;  2.5015885E-01;6649;  2.0465236E-02;  0.0000000E+00;  2.3149874E-04;  9.9872308E+02;  1.1033116E-01; -1.0578959E+03;3; -4.4636021E+00;  0.0000000E+00;  3.6355433E+00;0; -2.9587368E-02;  3.2797164E+04;  0.0000000E+00; -1.6897211E+00;  4.0000000E+04;  0.0000000E+00;  3.9946711E+04; -3.2367952E-02;  0.0000000E+00;  2.7805849E-03;  3.6349927E+03;
  6.8196070E-01;  9.9999998E-03;  2.6016837E-01;6650;  2.0225717E-02;  0.0000000E+00;  2.9846453E-04;  9.9851196E+02;  1.1034176E-01; -1.2328046E+03;3; -4.5239301E+00;  0.0000000E+00;  3.7277772E+00;0; -2.9572088E-02;  3.2776867E+04;  0.0000000E+00; -3.4958994E+00;  4.0000000E+04;  0.0000000E+00;  3.9948664E+04; -3.2479253E-02;  0.0000000E+00;  2.9071642E-03;  6.5821289E+03;
  6.8206608E-01;  9.9999998E-03;  2.7017862E-01;6651;  2.0004954E-02;  0.0000000E+00;  4.0813864E-04;  9.9829730E+02;  1.1035369E-01; -1.4106760E+03;3; -4.6035523E+00;  0.0000000E+00;  3.8215327E+00;0; -2.9176280E-02;  3.2755625E+04;  0.0000000E+00; -5.9858003E+00;  4.0000000E+04;  0.0000000E+00;  3.9951035E+04; -3.2610949E-02;  0.0000000E+00;  3.4346690E-03;  1.0733793E+04;
  6.8220758E-01;  9.9999998E-03;  2.8018960E-01;6652;  1.9817986E-02;  0.0000000E+00;  5.1102520E-04;  9.9809735E+02;  1.1036298E-01; -1.5763010E+03;3; -4.7028036E+00;  0.0000000E+00;  3.8809624E+00;0; -2.8741142E-02;  3.2736904E+04;  0.0000000E+00; -8.8689432E+00;  4.0000000E+04;  0.0000000E+00;  3.9952480E+04; -3.2745834E-02;  0.0000000E+00;  4.0046927E-03;  1.5540390E+04;
  6.8238842E-01;  9.9999998E-03;  2.9020068E-01;6653;  1.9670887E-02;  0.0000000E+00;  5.8102555E-04;  9.9791516E+02;  1.1036934E-01; -1.7272596E+03;3; -4.8245401E+00;  0.0000000E+00;  3.9056435E+00;0; -2.8765339E-02;  3.2722154E+04;  0.0000000E+00; -1.1397159E+01;  4.0000000E+04;  0.0000000E+00;  3.9953684E+04; -3.2878708E-02;  0.0000000E+00;  4.1133678E-03;  1.9718564E+04;
  6.8259537E-01;  9.9999998E-03;  3.0021140E-01;6654;  1.9567372E-02;  0.0000000E+00;  6.2643434E-04;  9.9776538E+02;  1.1036929E-01; -1.8513549E+03;3; -4.9720488E+00;  0.0000000E+00;  3.8828957E+00;0; -2.9239682E-02;  3.2713947E+04;  0.0000000E+00; -1.2799469E+01;  4.0000000E+04;  0.0000000E+00;  3.9954609E+04; -3.3004202E-02;  0.0000000E+00;  3.7645202E-03;  2.1960684E+04;
  6.9296724E-01;  9.9999998E-03;  2.4020928E-01;6709;  2.0374026E-02;  0.0000000E+00;  5.6276389E-04;  9.9863788E+02;  1.1291512E-01; -1.1285112E+03;3; -4.5211926E+00;  0.0000000E+00;  3.7403064E+00;0; -3.1562973E-02;  3.1319514E+04;  0.0000000E+00; -5.5181783E-01;  4.0000000E+04;  0.0000000E+00;  3.9929914E+04; -3.5173707E-02;  0.0000000E+00;  3.6107337E-03;  2.1759917E+03;
  6.9309193E-01;  9.9999998E-03;  2.5021273E-01;6710;  2.0118546E-02;  0.0000000E+00;  6.4505421E-04;  9.9845703E+02;  1.1294329E-01; -1.2783341E+03;3; -4.5412674E+00;  0.0000000E+00;  3.8600852E+00;0; -3.1342562E-02;  3.1292383E+04;  0.0000000E+00; -1.5532441E+00;  4.0000000E+04;  0.0000000E+00;  3.9932656E+04; -3.5163399E-02;  0.0000000E+00;  3.8208377E-03;  3.8310237E+03;
  6.9326293E-01;  9.9999998E-03;  2.6022243E-01;6711;  1.9873161E-02;  0.0000000E+00;  6.9725479E-04;  9.9828009E+02;  1.1297821E-01; -1.4248978E+03;3; -4.5938244E+00;  0.0000000E+00;  3.9248645E+00;0; -3.1498514E-02;  3.1262475E+04;  0.0000000E+00; -3.1053920E+00;  4.0000000E+04;  0.0000000E+00;  3.9934047E+04; -3.5181861E-02;  0.0000000E+00;  3.6833461E-03;  6.4295610E+03;
  6.9350988E-01;  9.9999998E-03;  2.7023372E-01;6712;  1.9645175E-02;  0.0000000E+00;  7.5948448E-04;  9.9811462E+02;  1.1302113E-01; -1.5619803E+03;3; -4.6586194E+00;  0.0000000E+00;  4.0055676E+00;0; -3.1834260E-02;  3.1229020E+04;  0.0000000E+00; -5.0607047E+00;  4.0000000E+04;  0.0000000E+00;  3.9935223E+04; -3.5227507E-02;  0.0000000E+00;  3.3932466E-03;  9.8203037E+03;
  6.9381720E-01;  9.9999998E-03;  2.8024584E-01;6713;  1.9445391E-02;  0.0000000E+00;  8.5105206E-04;  9.9796606E+02;  1.1306658E-01; -1.6850880E+03;3; -4.7382240E+00;  0.0000000E+00;  4.0724492E+00;0; -3.1958386E-02;  3.1195621E+04;  0.0000000E+00; -6.9572763E+00;  4.0000000E+04;  0.0000000E+00;  3.9936039E+04; -3.5288334E-02;  0.0000000E+00;  3.3299495E-03;  1.3136934E+04;
  6.9413108E-01;  9.9999998E-03;  2.9025832E-01;6714;  1.9277884E-02;  0.0000000E+00;  9.6715055E-04;  9.9784503E+02;  1.1310297E-01; -1.7853320E+03;3; -4.8364830E+00;  0.0000000E+00;  4.0965466E+00;0; -3.1624690E-02;  3.1169633E+04;  0.0000000E+00; -8.2215090E+00;  4.0000000E+04;  0.0000000E+00;  3.9936934E+04; -3.5348818E-02;  0.0000000E+00;  3.7241280E-03;  1.5314792E+04;
  6.9441754E-01;  9.9999998E-03;  3.0027080E-01;6715;  1.9144237E-02;  0.0000000E+00;  1.0624252E-03;  9.9776562E+02;  1.1312354E-01; -1.8511573E+03;3; -4.9592896E+00;  0.0000000E+00;  4.0505619E+00;0; -3.1450845E-02;  3.1155449E+04;  0.0000000E+00; -8.4287577E+00;  4.0000000E+04;  0.0000000E+00;  3.9937328E+04; -3.5400815E-02;  0.0000000E+00;  3.9499719E-03;  1.5577373E+04;
  7.0521933E-01;  9.9999998E-03;  2.4027437E-01;6770;  1.9962750E-02;  0.0000000E+00;  1.0231833E-03;  9.9852826E+02;  1.1607365E-01; -1.2193235E+03;3; -4.6095080E+00;  0.0000000E+00;  3.9831502E+00;0; -3.3605468E-02;  2.9652117E+04;  0.0000000E+00; -1.9154055E-01;  4.0000000E+04;  0.0000000E+00;  3.9911734E+04; -3.8365595E-02;  0.0000000E+00;  4.7601275E-03;  2.0194064E+03;
  7.0541304E-01;  9.9999998E-03;  2.5027838E-01;6771;  1.9712649E-02;  0.0000000E+00;  1.1131204E-03;  9.9841864E+02;  1.1612593E-01; -1.3101357E+03;3; -4.6171236E+00;  0.0000000E+00;  4.0719638E+00;0; -3.3313870E-02;  2.9619387E+04;  0.0000000E+00; -9.8130924E-01;  4.0000000E+04;  0.0000000E+00;  3.9913406E+04; -3.8224846E-02;  0.0000000E+00;  4.9109743E-03;  3.2624058E+03;
  7.0568168E-01;  9.9999998E-03;  2.6028901E-01;6772;  1.9468978E-02;  0.0000000E+00;  1.1691840E-03;  9.9832617E+02;  1.1619013E-01; -1.3867261E+03;3; -4.6459012E+00;  0.0000000E+00;  4.1454220E+00;0; -3.3492535E-02;  2.9582080E+04;  0.0000000E+00; -2.1430097E+00;  4.0000000E+04;  0.0000000E+00;  3.9913738E+04; -3.8121752E-02;  0.0000000E+00;  4.6292185E-03;  5.2525410E+03;
  7.0601058E-01;  9.9999998E-03;  2.7030173E-01;6773;  1.9237986E-02;  0.0000000E+00;  1.2174646E-03;  9.9825616E+02;  1.1626185E-01; -1.4447491E+03;3; -4.6945419E+00;  0.0000000E+00;  4.2030830E+00;0; -3.4111306E-02;  2.9542699E+04;  0.0000000E+00; -3.5614834E+00;  4.0000000E+04;  0.0000000E+00;  3.9913629E+04; -3.8047455E-02;  0.0000000E+00;  3.9361496E-03;  7.8455684E+03;
  7.0632476E-01;  9.9999998E-03;  2.8031510E-01;6774;  1.9031625E-02;  0.0000000E+00;  1.3030834E-03;  9.9820740E+02;  1.1632186E-01; -1.4851431E+03;3; -4.7527409E+00;  0.0000000E+00;  4.2613044E+00;0; -3.4493867E-02;  2.9511008E+04;  0.0000000E+00; -4.9764881E+00;  4.0000000E+04;  0.0000000E+00;  3.9913316E+04; -3.7980501E-02;  0.0000000E+00;  3.4866349E-03;  1.0478791E+04;
  7.0660228E-01;  9.9999998E-03;  2.9032889E-01;6775;  1.8854186E-02;  0.0000000E+00;  1.4238334E-03;  9.9817316E+02;  1.1636340E-01; -1.5134879E+03;3; -4.8270154E+00;  0.0000000E+00;  4.2701917E+00;0; -3.4235790E-02;  2.9489902E+04;  0.0000000E+00; -5.9483256E+00;  4.0000000E+04;  0.0000000E+00;  3.9913270E+04; -3.7914921E-02;  0.0000000E+00;  3.6791302E-03;  1.2264192E+04;
  7.0683050E-01;  9.9999998E-03;  3.0034280E-01;6776;  1.8712690E-02;  0.0000000E+00;  1.5211352E-03;  9.9814886E+02;  1.1638027E-01; -1.5336355E+03;3; -4.9196844E+00;  0.0000000E+00;  4.2121100E+00;0; -3.4106255E-02;  2.9481791E+04;  0.0000000E+00; -6.0778770E+00;  4.0000000E+04;  0.0000000E+00;  3.9912965E+04; -3.7846789E-02;  0.0000000E+00;  3.7405335E-03;  1.2421954E+04;
  7.1766388E-01;  9.9999998E-03;  2.4034482E-01;6831;  1.9487351E-02;  0.0000000E+00;  1.5212103E-03;  9.9867261E+02;  1.1959387E-01; -1.0997219E+03;3; -4.6824217E+00;  0.0000000E+00;  4.2053051E+00;0; -3.5594083E-02;  2.7963232E+04;  0.0000000E+00; -1.1418391E-01;  4.0000000E+04;  0.0000000E+00;  3.9890395E+04; -4.1542560E-02;  0.0000000E+00;  5.9484760E-03;  1.8949847E+03;
  7.1782428E-01;  9.9999998E-03;  2.5034955E-01;6832;  1.9253001E-02;  0.0000000E+00;  1.6328197E-03;  9.9861517E+02;  1.1964690E-01; -1.1473254E+03;3; -4.6639700E+00;  0.0000000E+00;  4.3030200E+00;0; -3.5081185E-02;  2.7935309E+04;  0.0000000E+00; -9.3588620E-01;  4.0000000E+04;  0.0000000E+00;  3.9891230E+04; -4.1233197E-02;  0.0000000E+00;  6.1520101E-03;  3.2417209E+03;
  7.1800435E-01;  9.9999998E-03;  2.6036039E-01;6833;  1.9025451E-02;  0.0000000E+00;  1.7217883E-03;  9.9858496E+02;  1.1970447E-01; -1.1723124E+03;3; -4.6732874E+00;  0.0000000E+00;  4.3608141E+00;0; -3.4846753E-02;  2.7907164E+04;  0.0000000E+00; -2.2241404E+00;  4.0000000E+04;  0.0000000E+00;  3.9890891E+04; -4.0952947E-02;  0.0000000E+00;  6.1061932E-03;  5.6217832E+03;
  7.1811002E-01;  9.9999998E-03;  2.7037299E-01;6834;  1.8809741E-02;  0.0000000E+00;  1.7701015E-03;  9.9855518E+02;  1.1973210E-01; -1.1970031E+03;3; -4.6995401E+00;  0.0000000E+00;  4.4017048E+00;0; -3.5212353E-02;  2.7893803E+04;  0.0000000E+00; -3.9616017E+00;  4.0000000E+04;  0.0000000E+00;  3.9890195E+04; -4.0682226E-02;  0.0000000E+00;  5.4698717E-03;  8.9707422E+03;
  7.1819162E-01;  9.9999998E-03;  2.8038627E-01;6835;  1.8614648E-02;  0.0000000E+00;  1.8361632E-03;  9.9853455E+02;  1.1974037E-01; -1.2140890E+03;3; -4.7434483E+00;  0.0000000E+00;  4.4136739E+00;0; -3.5604797E-02;  2.7889855E+04;  0.0000000E+00; -5.8180609E+00;  4.0000000E+04;  0.0000000E+00;  3.9889926E+04; -4.0432040E-02;  0.0000000E+00;  4.8272414E-03;  1.2565090E+04;
  7.1825308E-01;  9.9999998E-03;  2.9040006E-01;6836;  1.8447574E-02;  0.0000000E+00;  1.9301657E-03;  9.9850293E+02;  1.1973148E-01; -1.2403105E+03;3; -4.7926741E+00;  0.0000000E+00;  4.3993382E+00;0; -3.5587002E-02;  2.7893447E+04;  0.0000000E+00; -7.2805715E+00;  4.0000000E+04;  0.0000000E+00;  3.9889926E+04; -4.0201440E-02;  0.0000000E+00;  4.6144398E-03;  1.5354475E+04;
  7.1829283E-01;  9.9999998E-03;  3.0041420E-01;6837;  1.8321458E-02;  0.0000000E+00;  2.0031224E-03;  9.9845300E+02;  1.1970387E-01; -1.2816427E+03;3; -4.8598404E+00;  0.0000000E+00;  4.3217807E+00;0; -3.5744369E-02;  2.7905021E+04;  0.0000000E+00; -7.8653851E+00;  4.0000000E+04;  0.0000000E+00;  3.9890125E+04; -3.9986521E-02;  0.0000000E+00;  4.2421510E-03;  1.6378322E+04;
  7.2963244E-01;  9.9999998E-03;  2.4040036E-01;6892;  1.8950228E-02;  0.0000000E+00;  2.0460107E-03;  9.9857538E+02;  1.2325628E-01; -1.1802628E+03;3; -4.7297802E+00;  0.0000000E+00;  4.4258318E+00;0; -3.7301183E-02;  2.6339631E+04;  0.0000000E+00; -2.7937424E-01;  4.0000000E+04;  0.0000000E+00;  3.9872297E+04; -4.4455294E-02;  0.0000000E+00;  7.1541108E-03;  2.3947637E+03;
  7.2962230E-01;  9.9999998E-03;  2.5040978E-01;6893;  1.8737791E-02;  0.0000000E+00;  2.1697637E-03;  9.9848865E+02;  1.2325816E-01; -1.2521127E+03;3; -4.6929111E+00;  0.0000000E+00;  4.4958339E+00;0; -3.6501177E-02;  2.6333846E+04;  0.0000000E+00; -1.1249837E+00;  4.0000000E+04;  0.0000000E+00;  3.9873105E+04; -4.3942370E-02;  0.0000000E+00;  7.4411924E-03;  3.8082356E+03;
  7.2960019E-01;  9.9999998E-03;  2.6042235E-01;6894;  1.8534074E-02;  0.0000000E+00;  2.3071100E-03;  9.9843610E+02;  1.2325593E-01; -1.2956670E+03;3; -4.6761289E+00;  0.0000000E+00;  4.5494547E+00;0; -3.5577595E-02;  2.6331111E+04;  0.0000000E+00; -2.3711796E+00;  4.0000000E+04;  0.0000000E+00;  3.9873402E+04; -4.3460619E-02;  0.0000000E+00;  7.8830253E-03;  6.1677339E+03;
  7.2957540E-01;  9.9999998E-03;  2.7043682E-01;6895;  1.8332923E-02;  0.0000000E+00;  2.3918743E-03;  9.9839117E+02;  1.2324662E-01; -1.3329005E+03;3; -4.6818867E+00;  0.0000000E+00;  4.5590200E+00;0; -3.5159983E-02;  2.6333008E+04;  0.0000000E+00; -3.9405286E+00;  4.0000000E+04;  0.0000000E+00;  3.9873125E+04; -4.3016534E-02;  0.0000000E+00;  7.8565506E-03;  9.2511328E+03;
  7.2956616E-01;  9.9999998E-03;  2.8045177E-01;6896;  1.8140126E-02;  0.0000000E+00;  2.4682009E-03;  9.9834576E+02;  1.2323147E-01; -1.3704796E+03;3; -4.7040091E+00;  0.0000000E+00;  4.5370555E+00;0; -3.5004154E-02;  2.6338035E+04;  0.0000000E+00; -5.5623674E+00;  4.0000000E+04;  0.0000000E+00;  3.9872891E+04; -4.2614084E-02;  0.0000000E+00;  7.6099285E-03;  1.2472676E+04;
  7.2955275E-01;  9.9999998E-03;  2.9046714E-01;6897;  1.7966425E-02;  0.0000000E+00;  2.5530246E-03;  9.9828906E+02;  1.2320473E-01; -1.4174907E+03;3; -4.7381296E+00;  0.0000000E+00;  4.4604754E+00;0; -3.4795083E-02;  2.6347061E+04;  0.0000000E+00; -6.7785211E+00;  4.0000000E+04;  0.0000000E+00;  3.9872891E+04; -4.2247046E-02;  0.0000000E+00;  7.4519645E-03;  1.4870384E+04;
  7.2951657E-01;  9.9999998E-03;  3.0048260E-01;6898;  1.7826932E-02;  0.0000000E+00;  2.6001402E-03;  9.9819733E+02;  1.2316222E-01; -1.4934885E+03;3; -4.7829957E+00;  0.0000000E+00;  4.3416696E+00;0; -3.5202071E-02;  2.6361828E+04;  0.0000000E+00; -7.1457911E+00;  4.0000000E+04;  0.0000000E+00;  3.9873418E+04; -4.1907731E-02;  0.0000000E+00;  6.7056599E-03;  1.5549503E+04;
  7.4154598E-01;  9.9999998E-03;  2.4043705E-01;6953;  1.8338397E-02;  0.0000000E+00;  2.6014510E-03;  9.9801611E+02;  1.2709633E-01; -1.6436077E+03;3; -4.7633948E+00;  0.0000000E+00;  4.6115098E+00;0; -3.8784541E-02;  2.4758074E+04;  0.0000000E+00; -2.8955716E-01;  4.0000000E+04;  0.0000000E+00;  3.9859148E+04; -4.7124747E-02;  0.0000000E+00;  8.3402051E-03;  3.2951028E+03;
  7.4153906E-01;  9.9999998E-03;  2.5045896E-01;6954;  1.8140757E-02;  0.0000000E+00;  2.7419911E-03;  9.9788239E+02;  1.2709978E-01; -1.7544194E+03;3; -4.6990194E+00;  0.0000000E+00;  4.6733465E+00;0; -3.7683591E-02;  2.4748828E+04;  0.0000000E+00; -7.9841888E-01;  4.0000000E+04;  0.0000000E+00;  3.9859777E+04; -4.6435814E-02;  0.0000000E+00;  8.7522222E-03;  3.9551365E+03;
  7.4152607E-01;  9.9999998E-03;  2.6047814E-01;6955;  1.7954160E-02;  0.0000000E+00;  2.9499726E-03;  9.9778369E+02;  1.2709929E-01; -1.8361455E+03;3; -4.6558161E+00;  0.0000000E+00;  4.7095466E+00;0; -3.5903931E-02;  2.4742674E+04;  0.0000000E+00; -1.3816766E+00;  4.0000000E+04;  0.0000000E+00;  3.9860934E+04; -4.5785878E-02;  0.0000000E+00;  9.8819472E-03;  4.9216265E+03;
  7.4152958E-01;  9.9999998E-03;  2.7049741E-01;6956;  1.7762048E-02;  0.0000000E+00;  3.1026960E-03;  9.9768262E+02;  1.2709881E-01; -1.9198961E+03;3; -4.6391945E+00;  0.0000000E+00;  4.6866436E+00;0; -3.4305394E-02;  2.4737998E+04;  0.0000000E+00; -1.8974291E+00;  4.0000000E+04;  0.0000000E+00;  3.9861027E+04; -4.5184758E-02;  0.0000000E+00;  1.0879366E-02;  5.7922222E+03;
  7.4157476E-01;  9.9999998E-03;  2.8051642E-01;6957;  1.7564388E-02;  0.0000000E+00;  3.2176536E-03;  9.9758929E+02;  1.2710457E-01; -1.9972273E+03;3; -4.6400900E+00;  0.0000000E+00;  4.6005039E+00;0; -3.3095002E-02;  2.4731910E+04;  0.0000000E+00; -2.1417477E+00;  4.0000000E+04;  0.0000000E+00;  3.9860836E+04; -4.4638153E-02;  0.0000000E+00;  1.1543151E-02;  6.1977656E+03;
  7.4158800E-01;  9.9999998E-03;  2.9053497E-01;6958;  1.7373448E-02;  0.0000000E+00;  3.2903543E-03;  9.9748529E+02;  1.2709673E-01; -2.0833977E+03;3; -4.6550531E+00;  0.0000000E+00;  4.4536161E+00;0; -3.2614931E-02;  2.4730564E+04;  0.0000000E+00; -1.8354954E+00;  4.0000000E+04;  0.0000000E+00;  3.9860914E+04; -4.4133022E-02;  0.0000000E+00;  1.1518089E-02;  5.6466372E+03;
  7.4157077E-01;  9.9999998E-03;  3.0055320E-01;6959;  1.7206781E-02;  0.0000000E+00;  3.2960966E-03;  9.9736115E+02;  1.2707601E-01; -2.1862590E+03;3; -4.6840897E+00;  0.0000000E+00;  4.2776794E+00;0; -3.3493727E-02;  2.4733727E+04;  0.0000000E+00; -8.3066612E-01;  4.0000000E+04;  0.0000000E+00;  3.9861672E+04; -4.3666825E-02;  0.0000000E+00;  1.0173098E-02;  4.1440049E+03;
  7.5470835E-01;  9.9999998E-03;  2.4048050E-01;7014;  1.7604433E-02;  0.0000000E+00;  3.2021313E-03;  9.9744360E+02;  1.3146847E-01; -2.1179153E+03;3; -4.7787638E+00;  0.0000000E+00;  4.7895741E+00;0; -4.0360525E-02;  2.3126684E+04;  0.0000000E+00; -1.6684137E-01;  4.0000000E+04;  0.0000000E+00;  3.9843297E+04; -4.9730960E-02;  0.0000000E+00;  9.3704369E-03;  4.0162698E+03;
  7.5459909E-01;  9.9999998E-03;  2.5051308E-01;7015;  1.7430102E-02;  0.0000000E+00;  3.3753810E-03;  9.9723816E+02;  1.3144511E-01; -2.2881326E+03;3; -4.6843352E+00;  0.0000000E+00;  4.8373346E+00;0; -3.8805764E-02;  2.3123156E+04;  0.0000000E+00; -1.8553776E-01;  4.0000000E+04;  0.0000000E+00;  3.9844480E+04; -4.8809625E-02;  0.0000000E+00;  1.0003862E-02;  4.1598188E+03;
  7.5438875E-01;  9.9999998E-03;  2.6053807E-01;7016;  1.7275169E-02;  0.0000000E+00;  3.6455146E-03;  9.9705151E+02;  1.3139175E-01; -2.4427456E+03;3; -4.6078668E+00;  0.0000000E+00;  4.8416858E+00;0; -3.6083806E-02;  2.3130828E+04;  0.0000000E+00;  1.4517410E-01;  4.0000000E+04;  0.0000000E+00;  3.9846996E+04; -4.7927674E-02;  0.0000000E+00;  1.1843868E-02;  4.3544624E+03;
  7.5422925E-01;  9.9999998E-03;  2.7056172E-01;7017;  1.7109295E-02;  0.0000000E+00;  3.8570685E-03;  9.9686188E+02;  1.3134778E-01; -2.5998770E+03;3; -4.5656781E+00;  0.0000000E+00;  4.7759261E+00;0; -3.3218972E-02;  2.3136742E+04;  0.0000000E+00;  1.0242661E+00;  4.0000000E+04;  0.0000000E+00;  3.9848520E+04; -4.7114436E-02;  0.0000000E+00;  1.3895462E-02;  4.9843096E+03;
  7.5417799E-01;  9.9999998E-03;  2.8058439E-01;7018;  1.6929742E-02;  0.0000000E+00;  3.9761080E-03;  9.9669067E+02;  1.3132827E-01; -2.7417000E+03;3; -4.5456138E+00;  0.0000000E+00;  4.6070390E+00;0; -3.1248309E-02;  2.3135547E+04;  0.0000000E+00;  2.5393193E+00;  4.0000000E+04;  0.0000000E+00;  3.9849133E+04; -4.6377756E-02;  0.0000000E+00;  1.5129447E-02;  7.3374092E+03;
  7.5412822E-01;  9.9999998E-03;  2.9060596E-01;7019;  1.6756084E-02;  0.0000000E+00;  3.9898497E-03;  9.9652588E+02;  1.3130458E-01; -2.8782393E+03;3; -4.5446577E+00;  0.0000000E+00;  4.4122820E+00;0; -3.1174138E-02;  2.3136742E+04;  0.0000000E+00;  4.7960224E+00;  4.0000000E+04;  0.0000000E+00;  3.9849418E+04; -4.5702569E-02;  0.0000000E+00;  1.4528431E-02;  1.1903750E+04;
  7.5406611E-01;  9.9999998E-03;  3.0062675E-01;7020;  1.6619397E-02;  0.0000000E+00;  3.9102822E-03;  9.9636926E+02;  1.3127016E-01; -3.0080134E+03;3; -4.5586691E+00;  0.0000000E+00;  4.2677145E+00;0; -3.3280000E-02;  2.3142463E+04;  0.0000000E+00;  7.7575803E+00;  4.0000000E+04;  0.0000000E+00;  3.9850375E+04; -4.5088276E-02;  0.0000000E+00;  1.1808278E-02;  1.8296875E+04;
  7.6857686E-01;  9.9999998E-03;  2.4055848E-01;7075;  1.6795978E-02;  0.0000000E+00;  3.8124872E-03;  9.9752490E+02;  1.3629089E-01; -2.0505591E+03;3; -4.7713699E+00;  0.0000000E+00;  4.9330101E+00;0; -4.1998766E-02;  2.1536025E+04;  0.0000000E+00; -2.3381552E-01;  4.0000000E+04;  0.0000000E+00;  3.9816691E+04; -5.2082114E-02;  0.0000000E+00;  1.0083349E-02;  3.7738545E+03;
  7.6845020E-01;  9.9999998E-03;  2.5059199E-01;7076;  1.6647128E-02;  0.0000000E+00;  4.0273634E-03;  9.9728357E+02;  1.3625117E-01; -2.2505042E+03;3; -4.6356091E+00;  0.0000000E+00;  4.9630947E+00;0; -3.9962728E-02;  2.1534869E+04;  0.0000000E+00; -4.5244221E-02;  4.0000000E+04;  0.0000000E+00;  3.9819355E+04; -5.0911076E-02;  0.0000000E+00;  1.0948350E-02;  3.9727822E+03;
  7.6819700E-01;  9.9999998E-03;  2.6061767E-01;7077;  1.6523339E-02;  0.0000000E+00;  4.3521565E-03;  9.9701550E+02;  1.3617711E-01; -2.4726213E+03;3; -4.5290828E+00;  0.0000000E+00;  4.9375553E+00;0; -3.6417574E-02;  2.1543838E+04;  0.0000000E+00;  7.2505760E-01;  4.0000000E+04;  0.0000000E+00;  3.9823438E+04; -4.9798407E-02;  0.0000000E+00;  1.3380834E-02;  4.9140757E+03;
  7.6803005E-01;  9.9999998E-03;  2.7064317E-01;7078;  1.6390162E-02;  0.0000000E+00;  4.6012034E-03;  9.9675854E+02;  1.3612583E-01; -2.6855042E+03;3; -4.4641757E+00;  0.0000000E+00;  4.7942967E+00;0; -3.2613799E-02;  2.1547334E+04;  0.0000000E+00;  2.3102767E+00;  4.0000000E+04;  0.0000000E+00;  3.9825730E+04; -4.8774101E-02;  0.0000000E+00;  1.6160302E-02;  7.9231685E+03;
  7.6806915E-01;  9.9999998E-03;  2.8066891E-01;7079;  1.6242227E-02;  0.0000000E+00;  4.6757478E-03;  9.9655640E+02;  1.3612922E-01; -2.8529561E+03;3; -4.4131327E+00;  0.0000000E+00;  4.6109395E+00;0; -3.0789185E-02;  2.1537139E+04;  0.0000000E+00;  4.5816522E+00;  4.0000000E+04;  0.0000000E+00;  3.9826148E+04; -4.7848448E-02;  0.0000000E+00;  1.7059263E-02;  1.3269971E+04;
  7.6816994E-01;  9.9999998E-03;  2.9069376E-01;7080;  1.6117416E-02;  0.0000000E+00;  4.6120100E-03;  9.9637933E+02;  1.3613954E-01; -2.9996680E+03;3; -4.3909335E+00;  0.0000000E+00;  4.4328475E+00;0; -3.1731963E-02;  2.1526609E+04;  0.0000000E+00;  7.4833388E+00;  4.0000000E+04;  0.0000000E+00;  3.9826215E+04; -4.7009803E-02;  0.0000000E+00;  1.5277838E-02;  2.0445555E+04;
  7.6831055E-01;  9.9999998E-03;  3.0071819E-01;7081;  1.6069595E-02;  0.0000000E+00;  4.4647758E-03;  9.9625684E+02;  1.3613909E-01; -3.1011467E+03;3; -4.3731775E+00;  0.0000000E+00;  4.3448234E+00;0; -3.5018675E-02;  2.1522449E+04;  0.0000000E+00;  1.0769844E+01;  4.0000000E+04;  0.0000000E+00;  3.9826219E+04; -4.6268795E-02;  0.0000000E+00;  1.1250122E-02;  2.8524947E+04;
  7.8326237E-01;  9.9999998E-03;  2.4067707E-01;7136;  1.5937962E-02;  0.0000000E+00;  4.4459184E-03;  9.9842908E+02;  1.4168152E-01; -1.3014939E+03;3; -4.7307372E+00;  0.0000000E+00;  5.0497942E+00;0; -4.3764003E-02;  1.9973193E+04;  0.0000000E+00; -3.9805377E-01;  4.0000000E+04;  0.0000000E+00;  3.9778289E+04; -5.4247953E-02;  0.0000000E+00;  1.0483951E-02;  2.4010093E+03;
  7.8313202E-01;  9.9999998E-03;  2.5070047E-01;7137;  1.5819011E-02;  0.0000000E+00;  4.6852124E-03;  9.9818488E+02;  1.4163859E-01; -1.5038092E+03;3; -4.5543690E+00;  0.0000000E+00;  5.0533295E+00;0; -4.1306570E-02;  1.9971590E+04;  0.0000000E+00; -3.4984249E-01;  4.0000000E+04;  0.0000000E+00;  3.9782277E+04; -5.2791830E-02;  0.0000000E+00;  1.1485258E-02;  2.6450339E+03;
  7.8292596E-01;  9.9999998E-03;  2.6072159E-01;7138;  1.5730409E-02;  0.0000000E+00;  5.0457953E-03;  9.9790448E+02;  1.4157392E-01; -1.7360989E+03;3; -4.4136357E+00;  0.0000000E+00;  4.9998980E+00;0; -3.7104841E-02;  1.9975271E+04;  0.0000000E+00;  2.0775016E-01;  4.0000000E+04;  0.0000000E+00;  3.9787152E+04; -5.1429927E-02;  0.0000000E+00;  1.4325085E-02;  3.5884033E+03;
  7.8286833E-01;  9.9999998E-03;  2.7074596E-01;7139;  1.5631318E-02;  0.0000000E+00;  5.2963584E-03;  9.9763989E+02;  1.4155322E-01; -1.9553026E+03;3; -4.3139367E+00;  0.0000000E+00;  4.8182149E+00;0; -3.2854341E-02;  1.9968703E+04;  0.0000000E+00;  1.5035287E+00;  4.0000000E+04;  0.0000000E+00;  3.9789328E+04; -5.0182961E-02;  0.0000000E+00;  1.7328620E-02;  6.8872144E+03;
  7.8320611E-01;  9.9999998E-03;  2.8077394E-01;7140;  1.5514581E-02;  0.0000000E+00;  5.3258818E-03;  9.9749725E+02;  1.4165220E-01; -2.0734722E+03;3; -4.2376804E+00;  0.0000000E+00;  4.6345673E+00;0; -3.1369194E-02;  1.9935006E+04;  0.0000000E+00;  3.0272877E+00;  4.0000000E+04;  0.0000000E+00;  3.9788508E+04; -4.9066566E-02;  0.0000000E+00;  1.7697370E-02;  1.1606905E+04;
  7.8360200E-01;  9.9999998E-03;  2.9080200E-01;7141;  1.5432626E-02;  0.0000000E+00;  5.1932633E-03;  9.9737933E+02;  1.4175479E-01; -2.1711482E+03;3; -4.1823015E+00;  0.0000000E+00;  4.4894176E+00;0; -3.3298038E-02;  1.9902082E+04;  0.0000000E+00;  4.8568702E+00;  4.0000000E+04;  0.0000000E+00;  3.9787312E+04; -4.8060287E-02;  0.0000000E+00;  1.4762250E-02;  1.7449727E+04;
  7.8402287E-01;  9.9999998E-03;  3.0083033E-01;7142;  1.5439373E-02;  0.0000000E+00;  5.0025210E-03;  9.9730945E+02;  1.4184007E-01; -2.2290725E+03;3; -4.1423717E+00;  0.0000000E+00;  4.3999023E+00;0; -3.7293997E-02;  1.9876275E+04;  0.0000000E+00;  6.8136845E+00;  4.0000000E+04;  0.0000000E+00;  3.9785898E+04; -4.7185216E-02;  0.0000000E+00;  9.8912185E-03;  2.3579445E+04;
  7.9840809E-01;  9.9999998E-03;  2.4080792E-01;7197;  1.5099443E-02;  0.0000000E+00;  5.0734845E-03;  9.9939166E+02;  1.4757031E-01; -5.0398572E+02;3; -4.6489792E+00;  0.0000000E+00;  5.1340389E+00;0; -4.5869682E-02;  1.8448260E+04;  0.0000000E+00; -3.4615171E-01;  4.0000000E+04;  0.0000000E+00;  3.9737070E+04; -5.6395013E-02;  0.0000000E+00;  1.0525331E-02;  9.6113129E+02;
  7.9847419E-01;  9.9999998E-03;  2.5082040E-01;7198;  1.5001159E-02;  0.0000000E+00;  5.2984534E-03;  9.9919489E+02;  1.4758590E-01; -6.6704279E+02;3; -4.4332757E+00;  0.0000000E+00;  5.1178069E+00;0; -4.3258879E-02;  1.8432914E+04;  0.0000000E+00; -4.3964559E-01;  4.0000000E+04;  0.0000000E+00;  3.9741055E+04; -5.4648980E-02;  0.0000000E+00;  1.1390102E-02;  1.0949500E+03;
  7.9845017E-01;  9.9999998E-03;  2.6083624E-01;7199;  1.4945519E-02;  0.0000000E+00;  5.6477194E-03;  9.9896106E+02;  1.4757515E-01; -8.6076569E+02;3; -4.2616687E+00;  0.0000000E+00;  5.0195837E+00;0; -3.8889244E-02;  1.8423594E+04;  0.0000000E+00; -2.2848858E-01;  4.0000000E+04;  0.0000000E+00;  3.9745895E+04; -5.3023998E-02;  0.0000000E+00;  1.4134753E-02;  1.7855056E+03;
  7.9853284E-01;  9.9999998E-03;  2.7085814E-01;7200;  1.4891251E-02;  0.0000000E+00;  5.8812113E-03;  9.9872125E+02;  1.4760260E-01; -1.0594268E+03;3; -4.1170216E+00;  0.0000000E+00;  4.8383579E+00;0; -3.4538925E-02;  1.8406154E+04;  0.0000000E+00;  5.1720041E-01;  4.0000000E+04;  0.0000000E+00;  3.9748289E+04; -5.1539317E-02;  0.0000000E+00;  1.7000390E-02;  4.5897056E+03;
  7.9887873E-01;  9.9999998E-03;  2.8088498E-01;7201;  1.4830169E-02;  0.0000000E+00;  5.8503835E-03;  9.9853088E+02;  1.4771907E-01; -1.2171506E+03;3; -4.0148287E+00;  0.0000000E+00;  4.6593685E+00;0; -3.3524528E-02;  1.8369889E+04;  0.0000000E+00;  1.6508001E+00;  4.0000000E+04;  0.0000000E+00;  3.9747609E+04; -5.0205078E-02;  0.0000000E+00;  1.6680552E-02;  9.1389189E+03;
  7.9920399E-01;  9.9999998E-03;  2.9091293E-01;7202;  1.4811873E-02;  0.0000000E+00;  5.6599369E-03;  9.9832874E+02;  1.4780913E-01; -1.3846027E+03;3; -3.9371452E+00;  0.0000000E+00;  4.5218177E+00;0; -3.6022164E-02;  1.8340219E+04;  0.0000000E+00;  3.4360018E+00;  4.0000000E+04;  0.0000000E+00;  3.9747312E+04; -4.9010415E-02;  0.0000000E+00;  1.2988250E-02;  1.5770648E+04;
  7.9941881E-01;  9.9999998E-03;  3.0094084E-01;7203;  1.4907471E-02;  0.0000000E+00;  5.4515079E-03;  9.9811536E+02;  1.4782721E-01; -1.5613878E+03;3; -3.8717568E+00;  0.0000000E+00;  4.4346690E+00;0; -3.9867684E-02;  1.8329334E+04;  0.0000000E+00;  5.9746885E+00;  4.0000000E+04;  0.0000000E+00;  3.9748094E+04; -4.7981292E-02;  0.0000000E+00;  8.1136096E-03;  2.4268812E+04;
  8.1318998E-01;  9.9999998E-03;  2.4090806E-01;7258;  1.4346133E-02;  0.0000000E+00;  5.6412974E-03;  9.9944824E+02;  1.5356410E-01; -4.5712280E+02;3; -4.5303969E+00;  0.0000000E+00;  5.1788630E+00;0; -4.8425965E-02;  1.7037682E+04;  0.0000000E+00;  1.4014702E-01;  4.0000000E+04;  0.0000000E+00;  3.9705516E+04; -5.8660977E-02;  0.0000000E+00;  1.0235011E-02;  4.7784906E+02;
  8.1327808E-01;  9.9999998E-03;  2.5091755E-01;7259;  1.4273641E-02;  0.0000000E+00;  5.7443972E-03;  9.9924048E+02;  1.5358092E-01; -6.2926605E+02;3; -4.2891922E+00;  0.0000000E+00;  5.1278181E+00;0; -4.6257190E-02;  1.7023475E+04;  0.0000000E+00;  2.0967811E-01;  4.0000000E+04;  0.0000000E+00;  3.9708930E+04; -5.6603123E-02;  0.0000000E+00;  1.0345931E-02;  1.0167004E+03;
  8.1314498E-01;  9.9999998E-03;  2.6093054E-01;7260;  1.4259407E-02;  0.0000000E+00;  5.9704459E-03;  9.9900153E+02;  1.5351759E-01; -8.2723572E+02;3; -4.0796556E+00;  0.0000000E+00;  5.0481739E+00;0; -4.2788208E-02;  1.7026010E+04;  0.0000000E+00;  5.0161952E-01;  4.0000000E+04;  0.0000000E+00;  3.9714543E+04; -5.4681141E-02;  0.0000000E+00;  1.1892935E-02;  2.5196292E+03;
  8.1302512E-01;  9.9999998E-03;  2.7094978E-01;7261;  1.4270576E-02;  0.0000000E+00;  6.1826217E-03;  9.9875751E+02;  1.5345535E-01; -1.0294028E+03;3; -3.9078481E+00;  0.0000000E+00;  4.8803844E+00;0; -3.8658921E-02;  1.7029799E+04;  0.0000000E+00;  1.2188495E+00;  4.0000000E+04;  0.0000000E+00;  3.9718660E+04; -5.2933529E-02;  0.0000000E+00;  1.4274608E-02;  5.3555645E+03;
  8.1321013E-01;  9.9999998E-03;  2.8097597E-01;7262;  1.4275331E-02;  0.0000000E+00;  6.1669284E-03;  9.9854999E+02;  1.5350167E-01; -1.2012992E+03;3; -3.7762105E+00;  0.0000000E+00;  4.7018533E+00;0; -3.7323274E-02;  1.7012059E+04;  0.0000000E+00;  2.1296546E+00;  4.0000000E+04;  0.0000000E+00;  3.9719555E+04; -5.1382821E-02;  0.0000000E+00;  1.4059549E-02;  8.8778340E+03;
  8.1343347E-01;  9.9999998E-03;  2.9100475E-01;7263;  1.4301865E-02;  0.0000000E+00;  5.9818509E-03;  9.9831940E+02;  1.5355936E-01; -1.3923555E+03;3; -3.6694984E+00;  0.0000000E+00;  4.5606470E+00;0; -3.9442532E-02;  1.6991760E+04;  0.0000000E+00;  3.3510618E+00;  4.0000000E+04;  0.0000000E+00;  3.9720035E+04; -4.9999516E-02;  0.0000000E+00;  1.0556984E-02;  1.3413757E+04;
  8.1360060E-01;  9.9999998E-03;  3.0103436E-01;7264;  1.4407313E-02;  0.0000000E+00;  5.7644038E-03;  9.9802551E+02;  1.5358755E-01; -1.6358053E+03;3; -3.5710652E+00;  0.0000000E+00;  4.4504600E+00;0; -4.3025009E-02;  1.6977170E+04;  0.0000000E+00;  5.2535925E+00;  4.0000000E+04;  0.0000000E+00;  3.9722031E+04; -4.8787307E-02;  0.0000000E+00;  5.7622991E-03;  1.9892695E+04;
  8.2665324E-01;  9.9999998E-03;  2.7102739E-01;7322;  1.3667766E-02;  0.0000000E+00;  6.2648756E-03;  9.9799579E+02;  1.5924159E-01; -1.6604467E+03;3; -3.6855996E+00;  0.0000000E+00;  4.8887491E+00;0; -4.4565525E-02;  1.5798567E+04;  0.0000000E+00;  1.8053999E+00;  4.0000000E+04;  0.0000000E+00;  3.9697445E+04; -5.4476790E-02;  0.0000000E+00;  9.9112652E-03;  5.3486812E+03;
  8.2674682E-01;  9.9999998E-03;  2.6100594E-01;7321;  1.3622765E-02;  0.0000000E+00;  6.1252187E-03;  9.9825604E+02;  1.5929207E-01; -1.4448478E+03;3; -3.8961415E+00;  0.0000000E+00;  5.0039907E+00;0; -4.7574714E-02;  1.5797745E+04;  0.0000000E+00;  1.4221860E+00;  4.0000000E+04;  0.0000000E+00;  3.9692301E+04; -5.6464508E-02;  0.0000000E+00;  8.8897953E-03;  4.2045112E+03;
  8.2676619E-01;  9.9999998E-03;  2.8105432E-01;7323;  1.3725189E-02;  0.0000000E+00;  6.3343761E-03;  9.9771136E+02;  1.5926777E-01; -1.8960942E+03;3; -3.5175269E+00;  0.0000000E+00;  4.7031507E+00;0; -4.2235091E-02;  1.5784079E+04;  0.0000000E+00;  2.2838364E+00;  4.0000000E+04;  0.0000000E+00;  3.9701219E+04; -5.2707616E-02;  0.0000000E+00;  1.0472523E-02;  6.7282983E+03;
  8.2692587E-01;  9.9999998E-03;  2.5098717E-01;7320;  1.3614758E-02;  0.0000000E+00;  6.1188606E-03;  9.9853143E+02;  1.5937302E-01; -1.2166567E+03;3; -4.1276846E+00;  0.0000000E+00;  5.0759993E+00;0; -4.9329177E-02;  1.5791364E+04;  0.0000000E+00;  1.1009001E+00;  4.0000000E+04;  0.0000000E+00;  3.9688355E+04; -5.8663376E-02;  0.0000000E+00;  9.3341991E-03;  3.3196255E+03;
  8.2697487E-01;  9.9999998E-03;  2.9108518E-01;7324;  1.3789636E-02;  0.0000000E+00;  6.2055015E-03;  9.9740063E+02;  1.5933093E-01; -2.1535190E+03;3; -3.3776402E+00;  0.0000000E+00;  4.5163875E+00;0; -4.3261603E-02;  1.5762648E+04;  0.0000000E+00;  2.9365995E+00;  4.0000000E+04;  0.0000000E+00;  3.9703500E+04; -5.1133994E-02;  0.0000000E+00;  7.8723906E-03;  8.5845332E+03;
  8.2700634E-01;  9.9999998E-03;  2.4096957E-01;7319;  1.3646851E-02;  0.0000000E+00;  6.1503146E-03;  9.9879199E+02;  1.5942089E-01; -1.0008110E+03;3; -4.3892879E+00;  0.0000000E+00;  5.1186671E+00;0; -5.1126219E-02;  1.5791334E+04;  0.0000000E+00;  8.0326205E-01;  4.0000000E+04;  0.0000000E+00;  3.9685594E+04; -6.1042048E-02;  0.0000000E+00;  9.9158268E-03;  2.5771868E+03;
  8.2719034E-01;  9.9999998E-03;  3.0111790E-01;7325;  1.3889654E-02;  0.0000000E+00;  5.9766769E-03;  9.9704486E+02;  1.5939479E-01; -2.4482761E+03;3; -3.2465112E+00;  0.0000000E+00;  4.4367409E+00;0; -4.6683691E-02;  1.5740930E+04;  0.0000000E+00;  3.9532857E+00;  4.0000000E+04;  0.0000000E+00;  3.9705984E+04; -4.9739316E-02;  0.0000000E+00;  3.0556251E-03;  1.1568444E+04;
  8.4253031E-01;  9.9999998E-03;  2.8114429E-01;7384;  1.3018367E-02;  0.0000000E+00;  6.5493234E-03;  9.9690137E+02;  1.6597487E-01; -2.5671370E+03;3; -3.1841877E+00;  0.0000000E+00;  4.6626940E+00;0; -4.6855927E-02;  1.4530028E+04;  0.0000000E+00;  1.5998760E+00;  4.0000000E+04;  0.0000000E+00;  3.9679766E+04; -5.4583941E-02;  0.0000000E+00;  7.7280155E-03;  3.7536372E+03;
  8.4279186E-01;  9.9999998E-03;  2.9117849E-01;7385;  1.3139831E-02;  0.0000000E+00;  6.4348090E-03;  9.9652429E+02;  1.6607612E-01; -2.8795725E+03;3; -2.9981916E+00;  0.0000000E+00;  4.4978514E+00;0; -4.7267511E-02;  1.4503253E+04;  0.0000000E+00;  1.2290653E+00;  4.0000000E+04;  0.0000000E+00;  3.9683270E+04; -5.2779499E-02;  0.0000000E+00;  5.5119870E-03;  4.6498872E+03;
  8.4294987E-01;  9.9999998E-03;  3.0121404E-01;7386;  1.3308078E-02;  0.0000000E+00;  6.1810385E-03;  9.9610168E+02;  1.6614172E-01; -3.2296860E+03;3; -2.8296018E+00;  0.0000000E+00;  4.3467097E+00;0; -5.0499991E-02;  1.4483157E+04;  0.0000000E+00;  1.0744357E+00;  4.0000000E+04;  0.0000000E+00;  3.9686703E+04; -5.1156458E-02;  0.0000000E+00;  6.5646676E-04;  5.9755591E+03;
  8.4229821E-01;  9.9999998E-03;  2.7111357E-01;7383;  1.2928610E-02;  0.0000000E+00;  6.5076719E-03;  9.9723761E+02;  1.6589250E-01; -2.2885769E+03;3; -3.4017835E+00;  0.0000000E+00;  4.8273554E+00;0; -4.9030237E-02;  1.4554148E+04;  0.0000000E+00;  1.9106306E+00;  4.0000000E+04;  0.0000000E+00;  3.9675188E+04; -5.6593392E-02;  0.0000000E+00;  7.5631561E-03;  4.3875024E+03;
  8.4235597E-01;  9.9999998E-03;  2.6108715E-01;7382;  1.2863167E-02;  0.0000000E+00;  6.5089460E-03;  9.9756262E+02;  1.6592358E-01; -2.0193007E+03;3; -3.6447864E+00;  0.0000000E+00;  4.9272761E+00;0; -5.0889775E-02;  1.4557674E+04;  0.0000000E+00;  1.9469976E+00;  4.0000000E+04;  0.0000000E+00;  3.9670207E+04; -5.8854803E-02;  0.0000000E+00;  7.9650283E-03;  5.1841519E+03;
  8.4245735E-01;  9.9999998E-03;  2.5105876E-01;7381;  1.2825811E-02;  0.0000000E+00;  6.6133719E-03;  9.9790570E+02;  1.6597597E-01; -1.7351112E+03;3; -3.9135237E+00;  0.0000000E+00;  4.9811749E+00;0; -5.2278660E-02;  1.4557578E+04;  0.0000000E+00;  1.6472445E+00;  4.0000000E+04;  0.0000000E+00;  3.9667754E+04; -6.1344057E-02;  0.0000000E+00;  9.0653962E-03;  5.1473428E+03;
  8.4240484E-01;  9.9999998E-03;  2.4102849E-01;7380;  1.2816732E-02;  0.0000000E+00;  6.6641551E-03;  9.9823016E+02;  1.6597672E-01; -1.4662793E+03;3; -4.2110720E+00;  0.0000000E+00;  5.0391126E+00;0; -5.4468483E-02;  1.4565992E+04;  0.0000000E+00;  1.1633875E+00;  4.0000000E+04;  0.0000000E+00;  3.9666426E+04; -6.4023830E-02;  0.0000000E+00;  9.5553454E-03;  4.3800894E+03;
  8.5876137E-01;  9.9999998E-03;  2.4110986E-01;7441;  1.1859952E-02;  0.0000000E+00;  7.1286638E-03;  9.9828406E+02;  1.7342511E-01; -1.4216384E+03;3; -3.9730091E+00;  0.0000000E+00;  4.9482803E+00;0; -5.8240358E-02;  1.3366553E+04;  0.0000000E+00;  6.3204944E-01;  4.0000000E+04;  0.0000000E+00;  3.9640320E+04; -6.7470931E-02;  0.0000000E+00;  9.2305718E-03;  3.7992075E+03;
  8.5868281E-01;  9.9999998E-03;  2.5114784E-01;7442;  1.1937509E-02;  0.0000000E+00;  7.1142339E-03;  9.9791223E+02;  1.7338765E-01; -1.7296791E+03;3; -3.6332581E+00;  0.0000000E+00;  4.8683801E+00;0; -5.5084746E-02;  1.3365168E+04;  0.0000000E+00;  1.1553712E+00;  4.0000000E+04;  0.0000000E+00;  3.9641426E+04; -6.4443707E-02;  0.0000000E+00;  9.3589611E-03;  4.2437056E+03;
  8.5866767E-01;  9.9999998E-03;  2.6118419E-01;7443;  1.2018178E-02;  0.0000000E+00;  6.9747129E-03;  9.9748492E+02;  1.7338786E-01; -2.0836936E+03;3; -3.3301015E+00;  0.0000000E+00;  4.7766786E+00;0; -5.3114567E-02;  1.3357419E+04;  0.0000000E+00;  1.3242620E+00;  4.0000000E+04;  0.0000000E+00;  3.9642281E+04; -6.1674628E-02;  0.0000000E+00;  8.5600615E-03;  3.4812446E+03;
  8.5886317E-01;  9.9999998E-03;  2.7121735E-01;7444;  1.2110927E-02;  0.0000000E+00;  6.8887188E-03;  9.9706342E+02;  1.7348528E-01; -2.4329182E+03;3; -3.0439646E+00;  0.0000000E+00;  4.6633430E+00;0; -5.1342208E-02;  1.3333806E+04;  0.0000000E+00;  9.9002171E-01;  4.0000000E+04;  0.0000000E+00;  3.9646004E+04; -5.9181750E-02;  0.0000000E+00;  7.8395419E-03;  3.4765427E+03;
  8.5910350E-01;  9.9999998E-03;  2.8125185E-01;7445;  1.2250682E-02;  0.0000000E+00;  6.8241563E-03;  9.9665173E+02;  1.7360252E-01; -2.7739949E+03;3; -2.7837753E+00;  0.0000000E+00;  4.5049782E+00;0; -4.9782194E-02;  1.3306652E+04;  0.0000000E+00;  2.6987565E-01;  4.0000000E+04;  0.0000000E+00;  3.9650367E+04; -5.6914292E-02;  0.0000000E+00;  7.1320971E-03;  7.2909702E+03;
  8.5915554E-01;  9.9999998E-03;  2.9128808E-01;7446;  1.2480383E-02;  0.0000000E+00;  6.6419919E-03;  9.9622925E+02;  1.7363419E-01; -3.1240098E+03;3; -2.5557942E+00;  0.0000000E+00;  4.3316002E+00;0; -5.0459821E-02;  1.3293374E+04;  0.0000000E+00; -8.1507319E-01;  4.0000000E+04;  0.0000000E+00;  3.9654371E+04; -5.4817270E-02;  0.0000000E+00;  4.3574483E-03;  1.3033405E+04;
  8.5914302E-01;  9.9999998E-03;  3.0132577E-01;7447;  1.2823055E-02;  0.0000000E+00;  6.3355248E-03;  9.9577905E+02;  1.7362760E-01; -3.4969868E+03;3; -2.3474004E+00;  0.0000000E+00;  4.1656818E+00;0; -5.3838771E-02;  1.3286211E+04;  0.0000000E+00; -1.8899075E+00;  4.0000000E+04;  0.0000000E+00;  3.9658391E+04; -5.2891545E-02;  0.0000000E+00; -9.4722706E-04;  1.8425781E+04;
  8.7713730E-01;  9.9999998E-03;  2.4121696E-01;7502;  1.0692043E-02;  0.0000000E+00;  7.3958142E-03;  9.9866302E+02;  1.8215933E-01; -1.1076720E+03;3; -3.6387377E+00;  0.0000000E+00;  4.8025060E+00;0; -6.3067563E-02;  1.2151925E+04;  0.0000000E+00; -3.4487316E-01;  4.0000000E+04;  0.0000000E+00;  3.9604879E+04; -7.1366072E-02;  0.0000000E+00;  8.2985088E-03;  2.2626067E+03;
  8.7697709E-01;  9.9999998E-03;  2.5125715E-01;7503;  1.0863678E-02;  0.0000000E+00;  7.4870968E-03;  9.9827075E+02;  1.8209061E-01; -1.4326503E+03;3; -3.2482212E+00;  0.0000000E+00;  4.6936855E+00;0; -5.8620542E-02;  1.2156021E+04;  0.0000000E+00;  1.0448629E-01;  4.0000000E+04;  0.0000000E+00;  3.9607527E+04; -6.7999788E-02;  0.0000000E+00;  9.3792444E-03;  2.5841714E+03;
  8.7722594E-01;  9.9999998E-03;  2.6130086E-01;7504;  1.1009854E-02;  0.0000000E+00;  7.3708645E-03;  9.9778241E+02;  1.8223831E-01; -1.8372313E+03;3; -2.8874435E+00;  0.0000000E+00;  4.5770874E+00;0; -5.5571027E-02;  1.2130477E+04;  0.0000000E+00;  2.3281312E-01;  4.0000000E+04;  0.0000000E+00;  3.9607551E+04; -6.4972617E-02;  0.0000000E+00;  9.4015915E-03;  2.9880471E+03;
  8.7764287E-01;  9.9999998E-03;  2.7134109E-01;7505;  1.1166213E-02;  0.0000000E+00;  7.2100675E-03;  9.9730511E+02;  1.8247744E-01; -2.2326768E+03;3; -2.5507975E+00;  0.0000000E+00;  4.4212823E+00;0; -5.3530753E-02;  1.2091914E+04;  0.0000000E+00;  9.1322243E-02;  4.0000000E+04;  0.0000000E+00;  3.9608977E+04; -6.2227551E-02;  0.0000000E+00;  8.6967964E-03;  5.4662622E+03;
  8.7773365E-01;  9.9999998E-03;  2.8137934E-01;7506;  1.1397637E-02;  0.0000000E+00;  7.0315329E-03;  9.9687689E+02;  1.8255147E-01; -2.5874321E+03;3; -2.2481081E+00;  0.0000000E+00;  4.2569532E+00;0; -5.2444376E-02;  1.2075018E+04;  0.0000000E+00; -4.5742014E-01;  4.0000000E+04;  0.0000000E+00;  3.9612023E+04; -5.9662092E-02;  0.0000000E+00;  7.2177169E-03;  1.0226086E+04;
  8.7760639E-01;  9.9999998E-03;  2.9141831E-01;7507;  1.1743679E-02;  0.0000000E+00;  6.7517604E-03;  9.9644171E+02;  1.8250178E-01; -2.9479648E+03;3; -1.9760280E+00;  0.0000000E+00;  4.0741324E+00;0; -5.3785358E-02;  1.2074378E+04;  0.0000000E+00; -1.5237004E+00;  4.0000000E+04;  0.0000000E+00;  3.9615758E+04; -5.7266932E-02;  0.0000000E+00;  3.4815737E-03;  1.6784656E+04;
  8.7740320E-01;  9.9999998E-03;  3.0145827E-01;7508;  1.2243201E-02;  0.0000000E+00;  6.3739466E-03;  9.9597144E+02;  1.8238860E-01; -3.3375833E+03;3; -1.7262983E+00;  0.0000000E+00;  3.8923402E+00;0; -5.7599582E-02;  1.2081698E+04;  0.0000000E+00; -2.7905262E+00;  4.0000000E+04;  0.0000000E+00;  3.9620215E+04; -5.5025797E-02;  0.0000000E+00; -2.5737828E-03;  2.3195086E+04;
  8.9557362E-01;  9.9999998E-03;  2.4133122E-01;7563;  9.3829101E-03;  0.0000000E+00;  7.3426026E-03;  9.9915125E+02;  1.9141826E-01; -7.0318970E+02;3; -3.2232180E+00;  0.0000000E+00;  4.6398211E+00;0; -6.8312265E-02;  1.1037758E+04;  0.0000000E+00; -6.0038835E-01;  4.0000000E+04;  0.0000000E+00;  3.9566039E+04; -7.4717693E-02;  0.0000000E+00;  6.4054271E-03;  1.6558323E+03;
  8.9553744E-01;  9.9999998E-03;  2.5137457E-01;7564;  9.6598789E-03;  0.0000000E+00;  7.5383927E-03;  9.9882617E+02;  1.9143362E-01; -9.7251532E+02;3; -2.7685859E+00;  0.0000000E+00;  4.4755988E+00;0; -6.2874854E-02;  1.1034644E+04;  0.0000000E+00; -3.5538620E-01;  4.0000000E+04;  0.0000000E+00;  3.9569297E+04; -7.1100630E-02;  0.0000000E+00;  8.2257781E-03;  2.2326431E+03;
  8.9606965E-01;  9.9999998E-03;  2.6142344E-01;7565;  9.8985778E-03;  0.0000000E+00;  7.4904365E-03;  9.9833215E+02;  1.9173275E-01; -1.3817876E+03;3; -2.3384440E+00;  0.0000000E+00;  4.3071446E+00;0; -5.8575697E-02;  1.0996095E+04;  0.0000000E+00; -4.0223566E-01;  4.0000000E+04;  0.0000000E+00;  3.9568895E+04; -6.7832820E-02;  0.0000000E+00;  9.2571238E-03;  3.8388884E+03;
  8.9654309E-01;  9.9999998E-03;  2.7146882E-01;7566;  1.0162864E-02;  0.0000000E+00;  7.2798566E-03;  9.9783740E+02;  1.9199170E-01; -1.7916523E+03;3; -1.9449261E+00;  0.0000000E+00;  4.1303797E+00;0; -5.6109138E-02;  1.0960745E+04;  0.0000000E+00; -7.1459568E-01;  4.0000000E+04;  0.0000000E+00;  3.9568793E+04; -6.4822748E-02;  0.0000000E+00;  8.7136114E-03;  7.5357773E+03;
  8.9677268E-01;  9.9999998E-03;  2.8151235E-01;7567;  1.0497979E-02;  0.0000000E+00;  6.9987280E-03;  9.9737610E+02;  1.9212654E-01; -2.1738635E+03;3; -1.5846101E+00;  0.0000000E+00;  3.9616976E+00;0; -5.5551700E-02;  1.0939382E+04;  0.0000000E+00; -1.3696655E+00;  4.0000000E+04;  0.0000000E+00;  3.9570246E+04; -6.2035400E-02;  0.0000000E+00;  6.4836987E-03;  1.3216595E+04;
  8.9667952E-01;  9.9999998E-03;  2.9155594E-01;7568;  1.0959484E-02;  0.0000000E+00;  6.6174101E-03;  9.9693585E+02;  1.9208689E-01; -2.5385938E+03;3; -1.2579088E+00;  0.0000000E+00;  3.7638214E+00;0; -5.7807177E-02;  1.0938059E+04;  0.0000000E+00; -2.5175097E+00;  4.0000000E+04;  0.0000000E+00;  3.9572484E+04; -5.9433248E-02;  0.0000000E+00;  1.6260720E-03;  2.0820457E+04;
  8.9644682E-01;  9.9999998E-03;  3.0160007E-01;7569;  1.1595270E-02;  0.0000000E+00;  6.1759115E-03;  9.9649060E+02;  1.9194460E-01; -2.9074722E+03;3; -9.5822132E-01;  0.0000000E+00;  3.5595596E+00;0; -6.2101755E-02;  1.0948240E+04;  0.0000000E+00; -3.9077168E+00;  4.0000000E+04;  0.0000000E+00;  3.9576246E+04; -5.6989945E-02;  0.0000000E+00; -5.1118084E-03;  2.8520326E+04;
  9.1612941E-01;  9.9999998E-03;  2.4144249E-01;7624;  7.7369944E-03;  0.0000000E+00;  6.9300183E-03;  9.9870654E+02;  2.0196773E-01; -1.0716234E+03;3; -2.6732855E+00;  0.0000000E+00;  4.3883967E+00;0; -7.3881790E-02;  9.9195029E+03;  0.0000000E+00; -6.7952299E-01;  4.0000000E+04;  0.0000000E+00;  3.9530445E+04; -7.6954439E-02;  0.0000000E+00;  3.0726502E-03;  2.1016509E+03;
  9.1617155E-01;  9.9999998E-03;  2.5149000E-01;7625;  8.1416545E-03;  0.0000000E+00;  7.2126929E-03;  9.9841010E+02;  2.0204045E-01; -1.3171967E+03;3; -2.1392419E+00;  0.0000000E+00;  4.2187557E+00;0; -6.7707673E-02;  9.9116455E+03;  0.0000000E+00; -5.4955971E-01;  4.0000000E+04;  0.0000000E+00;  3.9536336E+04; -7.3103748E-02;  0.0000000E+00;  5.3960774E-03;  3.0058860E+03;
  9.1657192E-01;  9.9999998E-03;  2.6154372E-01;7626;  8.5265478E-03;  0.0000000E+00;  7.2697732E-03;  9.9795270E+02;  2.0229699E-01; -1.6961487E+03;3; -1.6370564E+00;  0.0000000E+00;  3.9915504E+00;0; -6.1940279E-02;  9.8830303E+03;  0.0000000E+00; -5.3719562E-01;  4.0000000E+04;  0.0000000E+00;  3.9537562E+04; -6.9549315E-02;  0.0000000E+00;  7.6090344E-03;  3.7861741E+03;
  9.1698915E-01;  9.9999998E-03;  2.7159542E-01;7627;  8.9187883E-03;  0.0000000E+00;  7.0547028E-03;  9.9742981E+02;  2.0254871E-01; -2.1293708E+03;3; -1.1736572E+00;  0.0000000E+00;  3.7812231E+00;0; -5.8612857E-02;  9.8528330E+03;  0.0000000E+00; -6.4439195E-01;  4.0000000E+04;  0.0000000E+00;  3.9536938E+04; -6.6284031E-02;  0.0000000E+00;  7.6711727E-03;  5.1420649E+03;
  9.1723311E-01;  9.9999998E-03;  2.8164518E-01;7628;  9.3441857E-03;  0.0000000E+00;  6.6646133E-03;  9.9690942E+02;  2.0270887E-01; -2.5604695E+03;3; -7.3980433E-01;  0.0000000E+00;  3.5613582E+00;0; -5.8636643E-02;  9.8309980E+03;  0.0000000E+00; -8.3215940E-01;  4.0000000E+04;  0.0000000E+00;  3.9537441E+04; -6.3303605E-02;  0.0000000E+00;  4.6669599E-03;  7.2101660E+03;
  9.1717029E-01;  9.9999998E-03;  2.9169428E-01;7629;  9.8234620E-03;  0.0000000E+00;  6.1803712E-03;  9.9641772E+02;  2.0270400E-01; -2.9678650E+03;3; -3.4409484E-01;  0.0000000E+00;  3.3822198E+00;0; -6.1897103E-02;  9.8255996E+03;  0.0000000E+00; -1.1160710E+00;  4.0000000E+04;  0.0000000E+00;  3.9538938E+04; -6.0601309E-02;  0.0000000E+00; -1.2957933E-03;  9.8921963E+03;
  9.1693002E-01;  9.9999998E-03;  3.0174372E-01;7630;  1.0359557E-02;  0.0000000E+00;  5.6760963E-03;  9.9596826E+02;  2.0259346E-01; -3.3402000E+03;3;  1.9902755E-02;  0.0000000E+00;  3.1280987E+00;0; -6.6782109E-02;  9.8310020E+03;  0.0000000E+00; -1.4801745E+00;  4.0000000E+04;  0.0000000E+00;  3.9541945E+04; -5.8163829E-02;  0.0000000E+00; -8.6182794E-03;  1.2829243E+04;
  9.3845338E-01;  9.9999998E-03;  2.4156575E-01;7685;  5.8311825E-03;  0.0000000E+00;  6.1598839E-03;  9.9787067E+02;  2.1391062E-01; -1.7640969E+03;3; -1.9773378E+00;  0.0000000E+00;  3.9127824E+00;0; -7.8444481E-02;  8.8371641E+03;  0.0000000E+00; -3.9238867E-01;  4.0000000E+04;  0.0000000E+00;  3.9491672E+04; -7.6815397E-02;  0.0000000E+00; -1.6290849E-03;  2.4294160E+03;
  9.3826205E-01;  9.9999998E-03;  2.5161040E-01;7686;  6.3937232E-03;  0.0000000E+00;  6.4707277E-03;  9.9751605E+02;  2.1386151E-01; -2.0579155E+03;3; -1.3561311E+00;  0.0000000E+00;  3.7874334E+00;0; -7.1936876E-02;  8.8382520E+03;  0.0000000E+00; -5.9513968E-01;  4.0000000E+04;  0.0000000E+00;  3.9502816E+04; -7.2751962E-02;  0.0000000E+00;  8.1508706E-04;  3.9080784E+03;
  9.3859273E-01;  9.9999998E-03;  2.6166594E-01;7687;  6.9348887E-03;  0.0000000E+00;  6.6658580E-03;  9.9703412E+02;  2.1408747E-01; -2.4571633E+03;3; -7.5964260E-01;  0.0000000E+00;  3.5620086E+00;0; -6.4544745E-02;  8.8144492E+03;  0.0000000E+00; -6.6688085E-01;  4.0000000E+04;  0.0000000E+00;  3.9508176E+04; -6.8961792E-02;  0.0000000E+00;  4.4170492E-03;  4.6577622E+03;
  9.3910027E-01;  9.9999998E-03;  2.7172479E-01;7688;  7.4655190E-03;  0.0000000E+00;  6.4648385E-03;  9.9644226E+02;  2.1439707E-01; -2.9475193E+03;3; -1.9752735E-01;  0.0000000E+00;  3.2766631E+00;0; -6.0074743E-02;  8.7820967E+03;  0.0000000E+00; -5.2289313E-01;  4.0000000E+04;  0.0000000E+00;  3.9509207E+04; -6.5468483E-02;  0.0000000E+00;  5.3937407E-03;  5.4027378E+03;
  9.3946880E-01;  9.9999998E-03;  2.8178158E-01;7689;  8.0143195E-03;  0.0000000E+00;  5.9689558E-03;  9.9579034E+02;  2.1462885E-01; -3.4876025E+03;3;  3.3406803E-01;  0.0000000E+00;  3.0792189E+00;0; -6.0468908E-02;  8.7552646E+03;  0.0000000E+00;  6.9250613E-02;  4.0000000E+04;  0.0000000E+00;  3.9509531E+04; -6.2305830E-02;  0.0000000E+00;  1.8369234E-03;  9.0776201E+03;
  9.3966669E-01;  9.9999998E-03;  2.9183760E-01;7690;  8.5987458E-03;  0.0000000E+00;  5.3895242E-03;  9.9515643E+02;  2.1475263E-01; -4.0128218E+03;3;  8.3177340E-01;  0.0000000E+00;  2.8391106E+00;0; -6.4199120E-02;  8.7373115E+03;  0.0000000E+00;  1.2248160E+00;  4.0000000E+04;  0.0000000E+00;  3.9511605E+04; -5.9484735E-02;  0.0000000E+00; -4.7143861E-03;  1.6569596E+04;
  9.3982780E-01;  9.9999998E-03;  3.0189431E-01;7691;  9.2313290E-03;  0.0000000E+00;  4.7852932E-03;  9.9459668E+02;  2.1482520E-01; -4.4765615E+03;3;  1.3088361E+00;  0.0000000E+00;  2.5278709E+00;0; -6.9787540E-02;  8.7246533E+03;  0.0000000E+00;  2.7174966E+00;  4.0000000E+04;  0.0000000E+00;  3.9515164E+04; -5.6995921E-02;  0.0000000E+00; -1.2791618E-02;  2.5723844E+04;
  9.6220964E-01;  9.9999998E-03;  2.4171646E-01;7746;  3.8593733E-03;  0.0000000E+00;  5.1423218E-03;  9.9754895E+02;  2.2722103E-01; -2.0306566E+03;3; -1.1305536E+00;  0.0000000E+00;  3.2886333E+00;0; -8.1068657E-02;  7.8349590E+03;  0.0000000E+00;  3.7295043E-01;  4.0000000E+04;  0.0000000E+00;  3.9439285E+04; -7.4320227E-02;  0.0000000E+00; -6.7484323E-03;  2.2408176E+03;
  9.6196377E-01;  9.9999998E-03;  2.5175661E-01;7747;  4.5599360E-03;  0.0000000E+00;  5.2080499E-03;  9.9702936E+02;  2.2714058E-01; -2.4611133E+03;3; -4.0867147E-01;  0.0000000E+00;  3.1580338E+00;0; -7.5723894E-02;  7.8345518E+03;  0.0000000E+00; -3.7219217E-01;  4.0000000E+04;  0.0000000E+00;  3.9453133E+04; -6.9975801E-02;  0.0000000E+00; -5.7480945E-03;  3.1851055E+03;
  9.6224385E-01;  9.9999998E-03;  2.6180547E-01;7748;  5.2583287E-03;  0.0000000E+00;  5.4532290E-03;  9.9651758E+02;  2.2734760E-01; -2.8851008E+03;3;  2.9386955E-01;  0.0000000E+00;  2.8571825E+00;0; -6.7702226E-02;  7.8134297E+03;  0.0000000E+00; -8.3635336E-01;  4.0000000E+04;  0.0000000E+00;  3.9466152E+04; -6.5953389E-02;  0.0000000E+00; -1.7488342E-03;  5.1605874E+03;
  9.6288949E-01;  9.9999998E-03;  2.7186745E-01;7749;  5.9507252E-03;  0.0000000E+00;  5.4161311E-03;  9.9598334E+02;  2.2774448E-01; -3.3277051E+03;3;  9.7950011E-01;  0.0000000E+00;  2.5252719E+00;0; -6.0618639E-02;  7.7800698E+03;  0.0000000E+00; -8.5917038E-01;  4.0000000E+04;  0.0000000E+00;  3.9470539E+04; -6.2252909E-02;  0.0000000E+00;  1.6342709E-03;  9.5883643E+03;
  9.6350771E-01;  9.9999998E-03;  2.8193283E-01;7750;  6.7007621E-03;  0.0000000E+00;  4.9031852E-03;  9.9540302E+02;  2.2810224E-01; -3.8085300E+03;3;  1.6438549E+00;  0.0000000E+00;  2.3793550E+00;0; -5.9849873E-02;  7.7495083E+03;  0.0000000E+00; -2.4251527E-01;  4.0000000E+04;  0.0000000E+00;  3.9470652E+04; -5.8966219E-02;  0.0000000E+00; -8.8365190E-04;  2.0130855E+04;
  9.6420848E-01;  9.9999998E-03;  2.9199922E-01;7751;  7.5983987E-03;  0.0000000E+00;  4.2203376E-03;  9.9490192E+02;  2.2846662E-01; -4.2236782E+03;3;  2.2908583E+00;  0.0000000E+00;  2.0318677E+00;0; -6.3611276E-02;  7.7204805E+03;  0.0000000E+00;  8.4108394E-01;  4.0000000E+04;  0.0000000E+00;  3.9470781E+04; -5.6165706E-02;  0.0000000E+00; -7.4455715E-03;  3.4274766E+04;
  9.6507800E-01;  9.9999998E-03;  3.0206805E-01;7752;  8.7103527E-03;  0.0000000E+00;  3.4921276E-03;  9.9462885E+02;  2.2883229E-01; -4.4498940E+03;3;  2.9391975E+00;  0.0000000E+00;  1.6541176E+00;0; -6.9790363E-02;  7.6952124E+03;  0.0000000E+00;  1.5184895E+00;  4.0000000E+04;  0.0000000E+00;  3.9470383E+04; -5.3924877E-02;  0.0000000E+00; -1.5865486E-02;  4.4350234E+04;
  9.8611039E-01;  9.9999998E-03;  2.4186659E-01;7807;  2.1409416E-03;  0.0000000E+00;  4.0028179E-03;  9.9805316E+02;  2.4115965E-01; -1.6129396E+03;3; -2.1020305E-01;  0.0000000E+00;  2.2359843E+00;0; -8.3073482E-02;  6.9697651E+03;  0.0000000E+00;  9.2220926E-01;  4.0000000E+04;  0.0000000E+00;  3.9383051E+04; -7.2502017E-02;  0.0000000E+00; -1.0571466E-02;  2.4451428E+03;
  9.8621899E-01;  9.9999998E-03;  2.5191927E-01;7808;  2.9253990E-03;  0.0000000E+00;  3.7504793E-03;  9.9749548E+02;  2.4128878E-01; -2.0749504E+03;3;  6.4562219E-01;  0.0000000E+00;  2.1212521E+00;0; -7.8666337E-02;  6.9569990E+03;  0.0000000E+00; -1.2090717E-01;  4.0000000E+04;  0.0000000E+00;  3.9390219E+04; -6.7685962E-02;  0.0000000E+00; -1.0980376E-02;  8.7696436E+02;
  9.8661101E-01;  9.9999998E-03;  2.6197079E-01;7809;  3.7520265E-03;  0.0000000E+00;  3.6372936E-03;  9.9701019E+02;  2.4158166E-01; -2.4770127E+03;3;  1.4777771E+00;  0.0000000E+00;  1.9338107E+00;0; -7.3176101E-02;  6.9345317E+03;  0.0000000E+00; -1.0012331E+00;  4.0000000E+04;  0.0000000E+00;  3.9401188E+04; -6.3365094E-02;  0.0000000E+00; -9.8110028E-03;  2.6248755E+03;
  9.8742390E-01;  9.9999998E-03;  2.7203074E-01;7810;  4.6107769E-03;  0.0000000E+00;  3.6797626E-03;  9.9669824E+02;  2.4211429E-01; -2.7354246E+03;3;  2.2997527E+00;  0.0000000E+00;  1.6156592E+00;0; -6.4974651E-02;  6.9006650E+03;  0.0000000E+00; -1.4621215E+00;  4.0000000E+04;  0.0000000E+00;  3.9410809E+04; -5.9529938E-02;  0.0000000E+00; -5.4447111E-03;  9.2205703E+03;
  9.8819274E-01;  9.9999998E-03;  2.8209984E-01;7811;  5.5695418E-03;  0.0000000E+00;  3.3709386E-03;  9.9637567E+02;  2.4259476E-01; -3.0026760E+03;3;  3.0549245E+00;  0.0000000E+00;  1.2815480E+00;0; -6.0436547E-02;  6.8710005E+03;  0.0000000E+00; -1.3157626E+00;  4.0000000E+04;  0.0000000E+00;  3.9413172E+04; -5.6245890E-02;  0.0000000E+00; -4.1906573E-03;  2.2686602E+04;
  9.8916942E-01;  9.9999998E-03;  2.9217562E-01;7812;  6.7394096E-03;  0.0000000E+00;  2.6327865E-03;  9.9614185E+02;  2.4315213E-01; -3.1963984E+03;3;  3.8282545E+00;  0.0000000E+00;  8.8881671E-01;0; -6.3596457E-02;  6.8397197E+03;  0.0000000E+00; -8.6084265E-01;  4.0000000E+04;  0.0000000E+00;  3.9410684E+04; -5.3653225E-02;  0.0000000E+00; -9.9432357E-03;  3.8883273E+04;
  9.9027002E-01;  9.9999998E-03;  3.0225438E-01;7813;  8.2330108E-03;  0.0000000E+00;  1.7810068E-03;  9.9604443E+02;  2.4372636E-01; -3.2770874E+03;3;  4.6651955E+00;  0.0000000E+00;  4.8651218E-01;0; -7.0749104E-02;  6.8106992E+03;  0.0000000E+00; -7.6706368E-01;  4.0000000E+04;  0.0000000E+00;  3.9407555E+04; -5.1908925E-02;  0.0000000E+00; -1.8840177E-02;  5.0387883E+04;
  1.0109447E+00;  9.9999998E-03;  2.4201170E-01;7868;  8.3010033E-04;  0.0000000E+00;  2.5648025E-03;  9.9888495E+02;  2.5624371E-01; -9.2377441E+02;3;  8.0155861E-01;  0.0000000E+00;  8.2089841E-01;0; -8.8681005E-02;  6.1899580E+03;  0.0000000E+00;  6.6153389E-01;  4.0000000E+04;  0.0000000E+00;  3.9331188E+04; -7.6355681E-02;  0.0000000E+00; -1.2325325E-02;  1.8856357E+03;
  1.0113521E+00;  9.9999998E-03;  2.5208202E-01;7869;  1.7519640E-03;  0.0000000E+00;  2.1203212E-03;  9.9839301E+02;  2.5657150E-01; -1.3313669E+03;3;  1.7865196E+00;  0.0000000E+00;  6.4365447E-01;0; -8.4074102E-02;  6.1710132E+03;  0.0000000E+00; -2.6277748E-01;  4.0000000E+04;  0.0000000E+00;  3.9330199E+04; -7.1237147E-02;  0.0000000E+00; -1.2836955E-02;  1.3800541E+03;
  1.0117949E+00;  9.9999998E-03;  2.6215219E-01;7870;  2.7173259E-03;  0.0000000E+00;  1.4437666E-03;  9.9789288E+02;  2.5692296E-01; -1.7457247E+03;3;  2.7464793E+00;  0.0000000E+00;  4.4796258E-01;0; -8.2236953E-02;  6.1510767E+03;  0.0000000E+00; -1.2245780E+00;  4.0000000E+04;  0.0000000E+00;  3.9329000E+04; -6.6674091E-02;  0.0000000E+00; -1.5562864E-02;  1.1552593E+03;
  1.0124317E+00;  9.9999998E-03;  2.7221248E-01;7871;  3.7469526E-03;  0.0000000E+00;  1.0681283E-03;  9.9761389E+02;  2.5739384E-01; -1.9768285E+03;3;  3.6384025E+00;  0.0000000E+00;  1.5854770E-01;0; -7.8929894E-02;  6.1261694E+03;  0.0000000E+00; -1.9416325E+00;  4.0000000E+04;  0.0000000E+00;  3.9337141E+04; -6.2751405E-02;  0.0000000E+00; -1.6178491E-02;  4.7780835E+03;
  1.0130620E+00;  9.9999998E-03;  2.8227749E-01;7872;  4.8847320E-03;  0.0000000E+00;  9.0203225E-04;  9.9740912E+02;  2.5785723E-01; -2.1465024E+03;3;  4.5112638E+00;  0.0000000E+00; -1.9778396E-01;0; -7.3147826E-02;  6.1027979E+03;  0.0000000E+00; -2.1251845E+00;  4.0000000E+04;  0.0000000E+00;  3.9345672E+04; -5.9434272E-02;  0.0000000E+00; -1.3713552E-02;  1.6653869E+04;
  1.0139678E+00;  9.9999998E-03;  2.9235423E-01;7873;  6.2079774E-03;  0.0000000E+00;  4.1607034E-04;  9.9720715E+02;  2.5849786E-01; -2.3138059E+03;3;  5.3569202E+00;  0.0000000E+00; -6.3910955E-01;0; -7.2092757E-02;  6.0726724E+03;  0.0000000E+00; -1.8670652E+00;  4.0000000E+04;  0.0000000E+00;  3.9348020E+04; -5.6896258E-02;  0.0000000E+00; -1.5196498E-02;  3.2344191E+04;
  1.0149488E+00;  9.9999998E-03;  3.0243739E-01;7874;  7.8829080E-03;  0.0000000E+00; -4.3509953E-04;  9.9695850E+02;  2.5917023E-01; -2.5198242E+03;3;  6.3264718E+00;  0.0000000E+00; -1.0161182E+00;0; -7.8571379E-02;  6.0428091E+03;  0.0000000E+00; -1.3787122E+00;  4.0000000E+04;  0.0000000E+00;  3.9346992E+04; -5.5216689E-02;  0.0000000E+00; -2.3354692E-02;  4.7636387E+04;
  1.0359763E+00;  9.9999998E-03;  2.4212725E-01;7929; -2.9359429E-04;  0.0000000E+00;  6.2789710E-04;  9.9912158E+02;  2.7204385E-01; -7.2773022E+02;3;  1.9143898E+00;  0.0000000E+00; -9.8878616E-01;0; -1.0154581E-01;  5.4989639E+03;  0.0000000E+00; -4.8588353E-01;  4.0000000E+04;  0.0000000E+00;  3.9296395E+04; -9.0103112E-02;  0.0000000E+00; -1.1442700E-02;  8.6932947E+02;
  1.0365388E+00;  9.9999998E-03;  2.5220361E-01;7930;  8.6031063E-04;  0.0000000E+00;  4.1365778E-04;  9.9872955E+02;  2.7251437E-01; -1.0525596E+03;3;  3.0068915E+00;  0.0000000E+00; -1.2202475E+00;0; -9.4392024E-02;  5.4777734E+03;  0.0000000E+00; -9.5168495E-01;  4.0000000E+04;  0.0000000E+00;  3.9298723E+04; -8.5267216E-02;  0.0000000E+00; -9.1248062E-03;  1.2469753E+03;
  1.0368993E+00;  9.9999998E-03;  2.6229191E-01;7931;  2.0658339E-03;  0.0000000E+00; -1.7486267E-04;  9.9821558E+02;  2.7284595E-01; -1.4783733E+03;3;  4.0644660E+00;  0.0000000E+00; -1.4518932E+00;0; -8.9767240E-02;  5.4624302E+03;  0.0000000E+00; -1.5361925E+00;  4.0000000E+04;  0.0000000E+00;  3.9292750E+04; -8.0829173E-02;  0.0000000E+00; -8.9380657E-03;  2.0676096E+03;
  1.0370550E+00;  9.9999998E-03;  2.7236715E-01;7932;  3.3372222E-03;  0.0000000E+00; -8.4158883E-04;  9.9779749E+02;  2.7302703E-01; -1.8247328E+03;3;  5.0844131E+00;  0.0000000E+00; -1.6952696E+00;0; -8.7619692E-02;  5.4531475E+03;  0.0000000E+00; -2.0691540E+00;  4.0000000E+04;  0.0000000E+00;  3.9291945E+04; -7.6776087E-02;  0.0000000E+00; -1.0843605E-02;  1.2363177E+03;
  1.0372963E+00;  9.9999998E-03;  2.8243870E-01;7933;  4.6945144E-03;  0.0000000E+00; -1.3239699E-03;  9.9751520E+02;  2.7327010E-01; -2.0586018E+03;3;  6.0663543E+00;  0.0000000E+00; -2.0306826E+00;0; -8.5062675E-02;  5.4420801E+03;  0.0000000E+00; -2.3391464E+00;  4.0000000E+04;  0.0000000E+00;  3.9296520E+04; -7.3326237E-02;  0.0000000E+00; -1.1736439E-02;  2.8519124E+03;
  1.0377758E+00;  9.9999998E-03;  2.9251757E-01;7934;  6.1446666E-03;  0.0000000E+00; -1.9874785E-03;  9.9722388E+02;  2.7370799E-01; -2.2999771E+03;3;  7.0039573E+00;  0.0000000E+00; -2.4599416E+00;0; -8.6612388E-02;  5.4242056E+03;  0.0000000E+00; -2.2276840E+00;  4.0000000E+04;  0.0000000E+00;  3.9299359E+04; -7.0602655E-02;  0.0000000E+00; -1.6009733E-02;  9.4518076E+03;
  1.0384229E+00;  9.9999998E-03;  3.0260295E-01;7935;  7.7778418E-03;  0.0000000E+00; -2.9167118E-03;  9.9682202E+02;  2.7430433E-01; -2.6329048E+03;3;  8.0331631E+00;  0.0000000E+00; -2.8099132E+00;0; -9.4259858E-02;  5.4007661E+03;  0.0000000E+00; -1.7081990E+00;  4.0000000E+04;  0.0000000E+00;  3.9301102E+04; -6.8568192E-02;  0.0000000E+00; -2.5691666E-02;  1.7561422E+04;
  1.0617402E+00;  9.9999998E-03;  2.4227606E-01;7990; -2.0171269E-03;  0.0000000E+00; -2.6525680E-03;  9.9855695E+02;  2.8873917E-01; -1.1955162E+03;3;  3.2187781E+00;  0.0000000E+00; -3.2149587E+00;0; -1.2473652E-01;  4.8806616E+03;  0.0000000E+00; -1.9966171E+00;  4.0000000E+04;  0.0000000E+00;  3.9259652E+04; -1.1395708E-01;  0.0000000E+00; -1.0779431E-02;  2.6538091E+03;
  1.0622288E+00;  9.9999998E-03;  2.5234124E-01;7991; -6.4608699E-04;  0.0000000E+00; -2.6141992E-03;  9.9816943E+02;  2.8920871E-01; -1.5165922E+03;3;  4.3764334E+00;  0.0000000E+00; -3.5788763E+00;0; -1.1646491E-01;  4.8621294E+03;  0.0000000E+00; -1.9596716E+00;  4.0000000E+04;  0.0000000E+00;  3.9269852E+04; -1.1002257E-01;  0.0000000E+00; -6.4423303E-03;  3.1223718E+03;
  1.0628115E+00;  9.9999998E-03;  2.6243454E-01;7992;  7.7945349E-04;  0.0000000E+00; -2.9313033E-03;  9.9760419E+02;  2.8975520E-01; -1.9848730E+03;3;  5.5195904E+00;  0.0000000E+00; -3.8331504E+00;0; -1.0954139E-01;  4.8412114E+03;  0.0000000E+00; -1.9701695E+00;  4.0000000E+04;  0.0000000E+00;  3.9267504E+04; -1.0674827E-01;  0.0000000E+00; -2.7931202E-03;  4.5207046E+03;
  1.0632098E+00;  9.9999998E-03;  2.7252573E-01;7993;  2.3192046E-03;  0.0000000E+00; -3.6461267E-03;  9.9708313E+02;  2.9015318E-01; -2.4165623E+03;3;  6.6246161E+00;  0.0000000E+00; -4.1386480E+00;0; -1.0733064E-01;  4.8259712E+03;  0.0000000E+00; -1.9978830E+00;  4.0000000E+04;  0.0000000E+00;  3.9260398E+04; -1.0372495E-01;  0.0000000E+00; -3.6056906E-03;  8.8616270E+03;
  1.0634000E+00;  9.9999998E-03;  2.8260881E-01;7994;  4.0337234E-03;  0.0000000E+00; -4.4283736E-03;  9.9671198E+02;  2.9039270E-01; -2.7240583E+03;3;  7.6954012E+00;  0.0000000E+00; -4.4633245E+00;0; -1.0891686E-01;  4.8167783E+03;  0.0000000E+00; -2.0637500E+00;  4.0000000E+04;  0.0000000E+00;  3.9257832E+04; -1.0078251E-01;  0.0000000E+00; -8.1343539E-03;  1.5750396E+04;
  1.0633889E+00;  9.9999998E-03;  2.9269153E-01;7995;  6.0348706E-03;  0.0000000E+00; -5.2839578E-03;  9.9640320E+02;  2.9051340E-01; -2.9798523E+03;3;  8.7438221E+00;  0.0000000E+00; -4.7933536E+00;0; -1.1474040E-01;  4.8128838E+03;  0.0000000E+00; -2.1853802E+00;  4.0000000E+04;  0.0000000E+00;  3.9257660E+04; -9.7770862E-02;  0.0000000E+00; -1.6969543E-02;  2.4308160E+04;
  1.0632941E+00;  9.9999998E-03;  3.0277631E-01;7996;  8.6068390E-03;  0.0000000E+00; -6.1587580E-03;  9.9603870E+02;  2.9061210E-01; -3.2818672E+03;3;  1.0696497E+01;  0.0000000E+00; -4.9154162E+00;0; -1.2289706E-01;  4.8105825E+03;  0.0000000E+00; -2.2626939E+00;  4.0000000E+04;  0.0000000E+00;  3.9260066E+04; -9.4639182E-02;  0.0000000E+00; -2.8257880E-02;  3.2947324E+04;
  1.0914215E+00;  9.9999998E-03;  2.5253898E-01;8052; -3.9742664E-03;  0.0000000E+00; -8.0794990E-03;  9.9639478E+02;  3.0879083E-01; -2.9868572E+03;3;  6.1940632E+00;  0.0000000E+00; -6.5864344E+00;0; -1.5259676E-01;  4.2528770E+03;  0.0000000E+00; -3.4065101E+00;  4.0000000E+04;  0.0000000E+00;  3.9234262E+04; -1.4538530E-01;  0.0000000E+00; -7.2114612E-03;  5.4749678E+03;
  1.0909024E+00;  9.9999998E-03;  2.4248956E-01;8051; -5.4332153E-03;  0.0000000E+00; -8.2081975E-03;  9.9689240E+02;  3.0821696E-01; -2.5745757E+03;3;  4.9846172E+00;  0.0000000E+00; -6.0848498E+00;0; -1.5766099E-01;  4.2724614E+03;  0.0000000E+00; -3.7241912E+00;  4.0000000E+04;  0.0000000E+00;  3.9215133E+04; -1.4599951E-01;  0.0000000E+00; -1.1661480E-02;  3.4170315E+03;
  1.0919933E+00;  9.9999998E-03;  2.6262051E-01;8053; -2.4988158E-03;  0.0000000E+00; -7.9858080E-03;  9.9567065E+02;  3.0941248E-01; -3.5867371E+03;3;  7.3549871E+00;  0.0000000E+00; -7.1435099E+00;0; -1.4679754E-01;  4.2314243E+03;  0.0000000E+00; -2.8836651E+00;  4.0000000E+04;  0.0000000E+00;  3.9243707E+04; -1.4541930E-01;  0.0000000E+00; -1.3782348E-03;  9.0979883E+03;
  1.0921813E+00;  9.9999998E-03;  2.7271450E-01;8054; -8.4212067E-04;  0.0000000E+00; -8.4486967E-03;  9.9496887E+02;  3.0971518E-01; -4.1681484E+03;3;  8.4699984E+00;  0.0000000E+00; -7.3344970E+00;0; -1.4687873E-01;  4.2201343E+03;  0.0000000E+00; -2.0972080E+00;  4.0000000E+04;  0.0000000E+00;  3.9239422E+04; -1.4533535E-01;  0.0000000E+00; -1.5433875E-03;  1.4345735E+04;
  1.0922205E+00;  9.9999998E-03;  2.8280479E-01;8055;  1.0697120E-03;  0.0000000E+00; -9.1677364E-03;  9.9440771E+02;  3.0988812E-01; -4.6330703E+03;3;  9.5518675E+00;  0.0000000E+00; -7.5602674E+00;0; -1.5306759E-01;  4.2135142E+03;  0.0000000E+00; -1.3301163E+00;  4.0000000E+04;  0.0000000E+00;  3.9233371E+04; -1.4505725E-01;  0.0000000E+00; -8.0103455E-03;  2.4810262E+04;
  1.0918291E+00;  9.9999998E-03;  2.9289216E-01;8056;  3.6553731E-03;  0.0000000E+00; -9.9101849E-03;  9.9408325E+02;  3.0971697E-01; -4.9019004E+03;3;  1.0603479E+01;  0.0000000E+00; -7.7757401E+00;0; -1.6267122E-01;  4.2187354E+03;  0.0000000E+00; -1.1751047E+00;  4.0000000E+04;  0.0000000E+00;  3.9228520E+04; -1.4344478E-01;  0.0000000E+00; -1.9226450E-02;  4.4241652E+04;
  1.0912037E+00;  9.9999998E-03;  3.0297834E-01;8057;  7.5639281E-03;  0.0000000E+00; -1.0529901E-02;  9.9381659E+02;  3.0932018E-01; -5.1227822E+03;3;  1.1671185E+01;  0.0000000E+00; -7.9334035E+00;0; -1.7025594E-01;  4.2313560E+03;  0.0000000E+00; -1.9578418E+00;  4.0000000E+04;  0.0000000E+00;  3.9227320E+04; -1.3961904E-01;  0.0000000E+00; -3.0636903E-02;  7.2124680E+04;
  1.1239110E+00;  9.9999998E-03;  2.4276717E-01;8112; -1.0950542E-02;  0.0000000E+00; -1.5917893E-02;  9.9468591E+02;  3.3064353E-01; -4.4025903E+03;3;  7.3744078E+00;  0.0000000E+00; -9.7610826E+00;0; -1.3328907E-01;  3.6980745E+03;  0.0000000E+00; -4.4264002E+00;  4.0000000E+04;  0.0000000E+00;  3.9161789E+04; -1.1473678E-01;  0.0000000E+00; -1.8552288E-02;  4.1435703E+03;
  1.1246986E+00;  9.9999998E-03;  2.5282186E-01;8113; -9.6417321E-03;  0.0000000E+00; -1.6191455E-02;  9.9393604E+02;  3.3151144E-01; -5.0237993E+03;3;  8.5612783E+00;  0.0000000E+00; -1.0149993E+01;0; -1.4297929E-01;  3.6738687E+03;  0.0000000E+00; -4.3320842E+00;  4.0000000E+04;  0.0000000E+00;  3.9183270E+04; -1.2369251E-01;  0.0000000E+00; -1.9286796E-02;  9.1811172E+03;
  1.1255889E+00;  9.9999998E-03;  2.6288962E-01;8114; -8.5440362E-03;  0.0000000E+00; -1.6000554E-02;  9.9288483E+02;  3.3247271E-01; -5.8947266E+03;3;  9.4220772E+00;  0.0000000E+00; -1.0705604E+01;0; -1.5043609E-01;  3.6461614E+03;  0.0000000E+00; -3.9501920E+00;  4.0000000E+04;  0.0000000E+00;  3.9206277E+04; -1.3226630E-01;  0.0000000E+00; -1.8169794E-02;  1.4799759E+04;
  1.1255449E+00;  9.9999998E-03;  2.7296948E-01;8115; -7.2681559E-03;  0.0000000E+00; -1.5735555E-02;  9.9195282E+02;  3.3264238E-01; -6.6668438E+03;3;  1.0397597E+01;  0.0000000E+00; -1.1160315E+01;0; -1.6162151E-01;  3.6375952E+03;  0.0000000E+00; -3.1061726E+00;  4.0000000E+04;  0.0000000E+00;  3.9216168E+04; -1.4341268E-01;  0.0000000E+00; -1.8208824E-02;  1.8953994E+04;
  1.1253134E+00;  9.9999998E-03;  2.8305471E-01;8116; -5.9044878E-03;  0.0000000E+00; -1.5786387E-02;  9.9103455E+02;  3.3265153E-01; -7.4276035E+03;3;  1.1364744E+01;  0.0000000E+00; -1.1363099E+01;0; -1.7753799E-01;  3.6332275E+03;  0.0000000E+00; -2.1134963E+00;  4.0000000E+04;  0.0000000E+00;  3.9217473E+04; -1.5384275E-01;  0.0000000E+00; -2.3695240E-02;  2.5801451E+04;
  1.1249493E+00;  9.9999998E-03;  2.9314300E-01;8117; -4.1668033E-03;  0.0000000E+00; -1.5985399E-02;  9.9015674E+02;  3.3255890E-01; -8.1548833E+03;3;  1.2264961E+01;  0.0000000E+00; -1.1295630E+01;0; -1.9601017E-01;  3.6321750E+03;  0.0000000E+00; -1.4255047E+00;  4.0000000E+04;  0.0000000E+00;  3.9216117E+04; -1.6285157E-01;  0.0000000E+00; -3.3158604E-02;  4.0104582E+04;
  1.1242599E+00;  9.9999998E-03;  3.0323172E-01;8118; -1.2055604E-03;  0.0000000E+00; -1.6004944E-02;  9.8943188E+02;  3.3217955E-01; -8.7554043E+03;3;  1.3260036E+01;  0.0000000E+00; -1.1157727E+01;0; -2.0960382E-01;  3.6393020E+03;  0.0000000E+00; -1.6096722E+00;  4.0000000E+04;  0.0000000E+00;  3.9214961E+04; -1.6947503E-01;  0.0000000E+00; -4.0128790E-02;  6.5975344E+04;
  1.1599280E+00;  9.9999998E-03;  2.4312097E-01;8173; -1.6931333E-02;  0.0000000E+00; -2.3777142E-02;  9.9454755E+02;  3.5387814E-01; -4.5171655E+03;3;  9.5980215E+00;  0.0000000E+00; -1.5682541E+01;0;  3.2130611E-01;  3.2317373E+03;  0.0000000E+00; -2.2871494E+00;  4.0000000E+04;  0.0000000E+00;  3.9090492E+04;  3.8278675E-01;  0.0000000E+00; -6.1480649E-02;  6.3854756E+03;
  1.1613982E+00;  9.9999998E-03;  2.5318843E-01;8174; -1.5790770E-02;  0.0000000E+00; -2.4576604E-02;  9.9384625E+02;  3.5520431E-01; -5.0981724E+03;3;  1.1201591E+01;  0.0000000E+00; -1.5788765E+01;0;  2.9455701E-01;  3.2040520E+03;  0.0000000E+00; -2.7923729E+00;  4.0000000E+04;  0.0000000E+00;  3.9106516E+04;  3.7491363E-01;  0.0000000E+00; -8.0356628E-02;  1.1190843E+04;
  1.1645451E+00;  9.9999998E-03;  2.6327494E-01;8175; -1.5844904E-02;  0.0000000E+00; -2.5341805E-02;  9.9287402E+02;  3.5781887E-01; -5.9036089E+03;3;  1.0518232E+01;  0.0000000E+00; -1.5405043E+01;0;  3.0517727E-01;  3.1520391E+03;  0.0000000E+00; -3.6984949E+00;  4.0000000E+04;  0.0000000E+00;  3.9124781E+04;  4.1788954E-01;  0.0000000E+00; -1.1271226E-01;  1.7643443E+04;
  1.1657747E+00;  9.9999998E-03;  2.7334765E-01;8176; -1.6420536E-02;  0.0000000E+00; -2.5314949E-02;  9.9167511E+02;  3.5896525E-01; -6.8968408E+03;3;  1.0271595E+01;  0.0000000E+00; -1.4248500E+01;0;  2.6971611E-01;  3.1260198E+03;  0.0000000E+00; -4.7695827E+00;  4.0000000E+04;  0.0000000E+00;  3.9144109E+04;  4.1175881E-01;  0.0000000E+00; -1.4204270E-01;  2.1289436E+04;
  1.1656127E+00;  9.9999998E-03;  2.8341076E-01;8177; -1.7314369E-02;  0.0000000E+00; -2.3431154E-02;  9.9033325E+02;  3.5907483E-01; -8.0085391E+03;3;  1.0783806E+01;  0.0000000E+00; -1.1712834E+01;0;  2.2611341E-01;  3.1172429E+03;  0.0000000E+00; -5.6507859E+00;  4.0000000E+04;  0.0000000E+00;  3.9166656E+04;  3.6927134E-01;  0.0000000E+00; -1.4315793E-01;  2.2321895E+04;
  1.1660192E+00;  9.9999998E-03;  2.9349282E-01;8178; -1.9703861E-02;  0.0000000E+00; -1.7742692E-02;  9.8876318E+02;  3.5963252E-01; -9.3092637E+03;3;  1.1239250E+01;  0.0000000E+00; -6.1793733E+00;0;  2.7055529E-01;  3.1003308E+03;  0.0000000E+00; -6.1191225E+00;  4.0000000E+04;  0.0000000E+00;  3.9181945E+04;  3.4648430E-01;  0.0000000E+00; -7.5929023E-02;  1.9887854E+04;
  1.1668588E+00;  9.9999998E-03;  3.0359283E-01;8179; -2.3215793E-02;  0.0000000E+00; -1.3021505E-02;  9.8692560E+02;  3.6055663E-01; -1.0831653E+04;3;  1.3790284E+01;  0.0000000E+00; -8.9829044E+00;0;  3.3189306E-01;  3.0773020E+03;  0.0000000E+00; -5.8352799E+00;  4.0000000E+04;  0.0000000E+00;  3.9186137E+04;  3.3872780E-01;  0.0000000E+00; -6.8347394E-03;  1.6128354E+04;
  1.1992494E+00;  9.9999998E-03;  2.4349317E-01;8234; -2.3992585E-02;  0.0000000E+00; -3.1112120E-02;  9.9664484E+02;  3.7158528E-01; -2.7795752E+03;3;  1.1825309E+01;  0.0000000E+00; -2.4453678E+01;0;  1.9710649E+00;  2.9522358E+03;  0.0000000E+00;  6.4523049E-02;  4.0000000E+04;  0.0000000E+00;  3.9012949E+04;  2.2058942E+00;  0.0000000E+00; -2.3482926E-01;  4.8450596E+03;
  1.2014099E+00;  9.9999998E-03;  2.5353691E-01;8235; -2.4363454E-02;  0.0000000E+00; -3.1569827E-02;  9.9594958E+02;  3.7256917E-01; -3.3555837E+03;3;  6.1151910E+00;  0.0000000E+00; -2.0382448E+01;0;  1.9606658E+00;  2.9329485E+03;  0.0000000E+00; -1.2102902E+00;  4.0000000E+04;  0.0000000E+00;  3.9033820E+04;  2.2726562E+00;  0.0000000E+00; -3.1199035E-01;  8.3668994E+03;
  1.2058717E+00;  9.9999998E-03;  2.6358187E-01;8236; -2.9237073E-02;  0.0000000E+00; -2.4080679E-02;  9.9596924E+02;  3.7434977E-01; -3.3392800E+03;3;  5.4375901E+00;  0.0000000E+00; -6.7808170E+00;0;  2.1596799E+00;  2.9023064E+03;  0.0000000E+00; -3.4115930E+00;  4.0000000E+04;  0.0000000E+00;  3.9075605E+04;  2.5207992E+00;  0.0000000E+00; -3.6111924E-01;  1.5019061E+04;
  1.2084997E+00;  9.9999998E-03;  2.7364847E-01;8237; -3.2459021E-02;  0.0000000E+00; -8.4769912E-03;  9.9544672E+02;  3.7539142E-01; -3.7721338E+03;3;  9.3573179E+00;  0.0000000E+00; -1.4115235E+00;0;  2.3867407E+00;  2.8827734E+03;  0.0000000E+00; -6.5398369E+00;  4.0000000E+04;  0.0000000E+00;  3.9105160E+04;  2.6610923E+00;  0.0000000E+00; -2.7435172E-01;  2.2724824E+04;
  1.2092149E+00;  9.9999998E-03;  2.8372499E-01;8238; -3.5509292E-02;  0.0000000E+00;  2.7567036E-03;  9.9389178E+02;  3.7579834E-01; -5.0603389E+03;3;  1.3601948E+01;  0.0000000E+00; -3.0897524E+00;0;  2.5262842E+00;  2.8697668E+03;  0.0000000E+00; -9.5978642E+00;  4.0000000E+04;  0.0000000E+00;  3.9120496E+04;  2.6721749E+00;  0.0000000E+00; -1.4589073E-01;  2.3897455E+04;
  1.2101650E+00;  9.9999998E-03;  2.9381746E-01;8239; -4.1526556E-02;  0.0000000E+00;  7.1645156E-03;  9.9192371E+02;  3.7629396E-01; -6.6907896E+03;3;  1.7255814E+01;  0.0000000E+00; -1.2082869E+01;0;  2.6347795E+00;  2.8543257E+03;  0.0000000E+00; -1.1771470E+01;  4.0000000E+04;  0.0000000E+00;  3.9125750E+04;  2.7127211E+00;  0.0000000E+00; -7.7941537E-02;  1.6155155E+04;
  1.2119126E+00;  9.9999998E-03;  3.0392656E-01;8240; -4.9276102E-02;  0.0000000E+00;  5.4428629E-03;  9.8984625E+02;  3.7704155E-01; -8.4118438E+03;3;  2.0824278E+01;  0.0000000E+00; -1.4200127E+01;0;  2.7087793E+00;  2.8354709E+03;  0.0000000E+00; -1.2758756E+01;  4.0000000E+04;  0.0000000E+00;  3.9122988E+04;  2.8274677E+00;  0.0000000E+00; -1.1868829E-01;  1.8433711E+04;
  1.2405261E+00;  9.9999998E-03;  2.4368303E-01;8295; -1.0930848E-02;  0.0000000E+00;  3.7161492E-02;  9.9593817E+02;  3.7166056E-01; -3.3649163E+03;3; -5.5134171E+01;  0.0000000E+00; -6.4164040E+01;0;  5.0484385E+00;  2.9539846E+03;  0.0000000E+00;  9.9003367E-02;  4.0000000E+04;  0.0000000E+00;  3.8957777E+04;  5.2541842E+00;  0.0000000E+00; -2.0574591E-01;  7.4138271E+03;
  1.2427768E+00;  9.9999998E-03;  2.5375172E-01;8296; -1.2668663E-02;  0.0000000E+00;  3.7155528E-02;  9.9506427E+02;  3.7162831E-01; -4.0888879E+03;3; -8.5446014E+01;  0.0000000E+00; -6.2866940E+01;0;  5.1518588E+00;  2.9509043E+03;  0.0000000E+00; -1.4682159E+00;  4.0000000E+04;  0.0000000E+00;  3.8955844E+04;  5.4008908E+00;  0.0000000E+00; -2.4903199E-01;  7.9785376E+03;
  1.2469028E+00;  9.9999998E-03;  2.6376933E-01;8297;  4.1107062E-02;  0.0000000E+00;  2.7091321E-02;  9.9553741E+02;  3.7155408E-01; -3.6969099E+03;3; -1.1489108E+02;  0.0000000E+00; -4.8013241E+01;0;  5.2183003E+00;  2.9516396E+03;  0.0000000E+00; -3.8559556E+00;  4.0000000E+04;  0.0000000E+00;  3.8990961E+04;  5.6315012E+00;  0.0000000E+00; -4.1320100E-01;  1.2898864E+04;
  1.2496859E+00;  9.9999998E-03;  2.7382436E-01;8298;  7.7242248E-02;  0.0000000E+00;  1.7474929E-02;  9.9542694E+02;  3.7156120E-01; -3.7883953E+03;3; -1.1813976E+02;  0.0000000E+00; -4.3674950E+01;0;  5.1816573E+00;  2.9501724E+03;  0.0000000E+00; -7.1427674E+00;  4.0000000E+04;  0.0000000E+00;  3.9014020E+04;  5.7879028E+00;  0.0000000E+00; -6.0624534E-01;  2.7739939E+04;
  1.2506137E+00;  9.9999998E-03;  2.8389958E-01;8299;  6.6585436E-02;  0.0000000E+00;  1.4944826E-02;  9.9398169E+02;  3.7160969E-01; -4.9856479E+03;3; -1.2181915E+02;  0.0000000E+00; -4.2773872E+01;0;  5.1752086E+00;  2.9431064E+03;  0.0000000E+00; -1.0225876E+01;  4.0000000E+04;  0.0000000E+00;  3.9026371E+04;  5.8728995E+00;  0.0000000E+00; -6.9769084E-01;  3.7106879E+04;
  1.2516869E+00;  9.9999998E-03;  2.9397368E-01;8300;  4.4258982E-02;  0.0000000E+00;  1.6363045E-02;  9.9241528E+02;  3.7165201E-01; -6.2832808E+03;3; -1.2718752E+02;  0.0000000E+00; -4.0142731E+01;0;  5.2843056E+00;  2.9352781E+03;  0.0000000E+00; -1.2166829E+01;  4.0000000E+04;  0.0000000E+00;  3.9053059E+04;  5.9892273E+00;  0.0000000E+00; -7.0492178E-01;  3.4123484E+04;
  1.2535601E+00;  9.9999998E-03;  3.0405566E-01;8301;  3.2025993E-02;  0.0000000E+00;  1.8536918E-02;  9.9109125E+02;  3.7168485E-01; -7.3801353E+03;3; -1.3413362E+02;  0.0000000E+00; -3.7436638E+01;0;  5.4786816E+00;  2.9290640E+03;  0.0000000E+00; -1.2877635E+01;  4.0000000E+04;  0.0000000E+00;  3.9085832E+04;  6.1554828E+00;  0.0000000E+00; -6.7680120E-01;  2.5301504E+04;
  1.2784626E+00;  9.9999998E-03;  2.4350095E-01;8356;  3.9902315E-01;  0.0000000E+00;  1.0724085E-01;  9.9963300E+02;  3.5934448E-01; -3.0400522E+02;3; -1.1733662E+02;  0.0000000E+00; -4.3773479E+01;0;  6.3101692E+00;  3.1813647E+03;  0.0000000E+00; -7.3151535E-01;  4.0000000E+04;  0.0000000E+00;  3.8960387E+04;  6.4147325E+00;  0.0000000E+00; -1.0456317E-01;  8.0092329E+03;
  1.2806278E+00;  9.9999998E-03;  2.5360769E-01;8357;  4.0756533E-01;  0.0000000E+00;  1.0331343E-01;  9.9922351E+02;  3.5895079E-01; -6.4321265E+02;3; -1.2143194E+02;  0.0000000E+00; -4.3179482E+01;0;  6.3833480E+00;  3.1869346E+03;  0.0000000E+00; -1.9160482E+00;  4.0000000E+04;  0.0000000E+00;  3.8953898E+04;  6.5242167E+00;  0.0000000E+00; -1.4086872E-01;  8.5095713E+03;
  1.2842107E+00;  9.9999998E-03;  2.6368713E-01;8358;  4.4883651E-01;  0.0000000E+00;  9.1133989E-02;  9.9962793E+02;  3.5839298E-01; -3.0819888E+02;3; -1.2065113E+02;  0.0000000E+00; -4.2626820E+01;0;  6.3389015E+00;  3.1985039E+03;  0.0000000E+00; -3.8690362E+00;  4.0000000E+04;  0.0000000E+00;  3.8955793E+04;  6.5995350E+00;  0.0000000E+00; -2.6063371E-01;  1.6133045E+04;
  1.2867482E+00;  9.9999998E-03;  2.7379218E-01;8359;  4.7314724E-01;  0.0000000E+00;  8.0717124E-02;  9.9922198E+02;  3.5803241E-01; -6.4448895E+02;3; -1.2111647E+02;  0.0000000E+00; -4.1848888E+01;0;  6.2768278E+00;  3.2047642E+03;  0.0000000E+00; -6.6154928E+00;  4.0000000E+04;  0.0000000E+00;  3.8939047E+04;  6.6760430E+00;  0.0000000E+00; -3.9921537E-01;  3.1838801E+04;
  1.2872922E+00;  9.9999998E-03;  2.8389263E-01;8360;  4.6046951E-01;  0.0000000E+00;  7.5911440E-02;  9.9774823E+02;  3.5798976E-01; -1.8652784E+03;3; -1.2810767E+02;  0.0000000E+00; -4.0831276E+01;0;  6.3160348E+00;  3.2002937E+03;  0.0000000E+00; -8.9885292E+00;  4.0000000E+04;  0.0000000E+00;  3.8931746E+04;  6.7789640E+00;  0.0000000E+00; -4.6292913E-01;  4.0815516E+04;
  1.2876693E+00;  9.9999998E-03;  2.9398325E-01;8361;  4.4120345E-01;  0.0000000E+00;  7.1625046E-02;  9.9626428E+02;  3.5804522E-01; -3.0945586E+03;3; -1.3760814E+02;  0.0000000E+00; -3.9857166E+01;0;  6.3765016E+00;  3.1933362E+03;  0.0000000E+00; -1.0126951E+01;  4.0000000E+04;  0.0000000E+00;  3.8947328E+04;  6.8782339E+00;  0.0000000E+00; -5.0173223E-01;  3.6357465E+04;
  1.2890335E+00;  9.9999998E-03;  3.0407551E-01;8362;  4.3849435E-01;  0.0000000E+00;  6.8706259E-02;  9.9522968E+02;  3.5803625E-01; -3.9515935E+03;3; -1.4536530E+02;  0.0000000E+00; -3.8486507E+01;0;  6.4346519E+00;  3.1900205E+03;  0.0000000E+00; -1.0425771E+01;  4.0000000E+04;  0.0000000E+00;  3.8974570E+04;  6.9515538E+00;  0.0000000E+00; -5.1690191E-01;  2.7717572E+04;
  1.3131534E+00;  9.9999998E-03;  2.4328361E-01;8417;  6.9609284E-01;  0.0000000E+00;  1.5730664E-01;  1.0048002E+03;  3.4300014E-01;  3.9760925E+03;3; -6.2187088E+01;  0.0000000E+00; -2.7532637E+01;0;  5.4225059E+00;  3.5232058E+03;  0.0000000E+00; -8.9428806E-01;  4.0000000E+04;  0.0000000E+00;  3.8947512E+04;  5.3086638E+00;  0.0000000E+00;  1.1384206E-01;  1.0039923E+04;
  1.3152082E+00;  9.9999998E-03;  2.5340194E-01;8418;  7.0576638E-01;  0.0000000E+00;  1.5301545E-01;  1.0045839E+03;  3.4252307E-01;  3.7968501E+03;3; -6.4636879E+01;  0.0000000E+00; -2.7312019E+01;0;  5.4872794E+00;  3.5323496E+03;  0.0000000E+00; -1.9925689E+00;  4.0000000E+04;  0.0000000E+00;  3.8939043E+04;  5.3748569E+00;  0.0000000E+00;  1.1242247E-01;  1.2581574E+04;
  1.3178256E+00;  9.9999998E-03;  2.6351613E-01;8419;  7.3338187E-01;  0.0000000E+00;  1.4342654E-01;  1.0044075E+03;  3.4206563E-01;  3.6507803E+03;3; -6.0767773E+01;  0.0000000E+00; -2.7943373E+01;0;  5.4627943E+00;  3.5416558E+03;  0.0000000E+00; -4.0008717E+00;  4.0000000E+04;  0.0000000E+00;  3.8925730E+04;  5.3866935E+00;  0.0000000E+00;  7.6100878E-02;  2.0729174E+04;
  1.3197502E+00;  9.9999998E-03;  2.7363929E-01;8420;  7.5988013E-01;  0.0000000E+00;  1.3300644E-01;  1.0037057E+03;  3.4175473E-01;  3.0694680E+03;3; -5.8594673E+01;  0.0000000E+00; -2.8130827E+01;0;  5.4258580E+00;  3.5468149E+03;  0.0000000E+00; -6.8236184E+00;  4.0000000E+04;  0.0000000E+00;  3.8900918E+04;  5.4192071E+00;  0.0000000E+00;  6.6511552E-03;  3.3829180E+04;
  1.3203046E+00;  9.9999998E-03;  2.8375489E-01;8421;  7.6021546E-01;  0.0000000E+00;  1.2675740E-01;  1.0025423E+03;  3.4169489E-01;  2.1057507E+03;3; -6.5835236E+01;  0.0000000E+00; -2.7966240E+01;0;  5.4876499E+00;  3.5444429E+03;  0.0000000E+00; -9.4023638E+00;  4.0000000E+04;  0.0000000E+00;  3.8886715E+04;  5.5196676E+00;  0.0000000E+00; -3.2017637E-02;  4.2002559E+04;
  1.3210858E+00;  9.9999998E-03;  2.9385892E-01;8422;  7.6158953E-01;  0.0000000E+00;  1.2123415E-01;  1.0015269E+03;  3.4162420E-01;  1.2647703E+03;3; -7.2827202E+01;  0.0000000E+00; -2.8012648E+01;0;  5.5233803E+00;  3.5422227E+03;  0.0000000E+00; -1.1076417E+01;  4.0000000E+04;  0.0000000E+00;  3.8896141E+04;  5.5917578E+00;  0.0000000E+00; -6.8377547E-02;  4.1611289E+04;
  1.3227247E+00;  9.9999998E-03;  3.0396059E-01;8423;  7.7287620E-01;  0.0000000E+00;  1.1722584E-01;  1.0007033E+03;  3.4141567E-01;  5.8256714E+02;3; -7.7171165E+01;  0.0000000E+00; -2.7721178E+01;0;  5.5059032E+00;  3.5440586E+03;  0.0000000E+00; -1.1740520E+01;  4.0000000E+04;  0.0000000E+00;  3.8919594E+04;  5.5966597E+00;  0.0000000E+00; -9.0756238E-02;  3.5296184E+04;
  1.3452336E+00;  9.9999998E-03;  2.4304873E-01;8478;  8.6356461E-01;  0.0000000E+00;  1.7435564E-01;  1.0072674E+03;  3.2472143E-01;  6.0189502E+03;3;  3.7542953E+01;  0.0000000E+00;  7.6240435E+00;0;  3.6502345E+00;  3.9435818E+03;  0.0000000E+00; -4.7358459E-01;  4.0000000E+04;  0.0000000E+00;  3.8957645E+04;  3.2962377E+00;  0.0000000E+00;  3.5399675E-01;  1.1053496E+04;
  1.3463278E+00;  9.9999998E-03;  2.5317943E-01;8479;  8.7512583E-01;  0.0000000E+00;  1.7279764E-01;  1.0070240E+03;  3.2445678E-01;  5.8174092E+03;3;  2.9423332E+01;  0.0000000E+00;  5.6338038E+00;0;  3.7732942E+00;  3.9496719E+03;  0.0000000E+00; -1.9471346E+00;  4.0000000E+04;  0.0000000E+00;  3.8944746E+04;  3.3824270E+00;  0.0000000E+00;  3.9086723E-01;  1.4976613E+04;
  1.3485460E+00;  9.9999998E-03;  2.6329210E-01;8480;  8.8998616E-01;  0.0000000E+00;  1.6747679E-01;  1.0067571E+03;  3.2393417E-01;  5.5961909E+03;3;  2.9297119E+01;  0.0000000E+00;  3.1481032E+00;0;  3.8046889E+00;  3.9611106E+03;  0.0000000E+00; -4.3583894E+00;  4.0000000E+04;  0.0000000E+00;  3.8936117E+04;  3.3756235E+00;  0.0000000E+00;  4.2906550E-01;  2.1606635E+04;
  1.3510066E+00;  9.9999998E-03;  2.7341378E-01;8481;  9.1311091E-01;  0.0000000E+00;  1.5706642E-01;  1.0062018E+03;  3.2336649E-01;  5.1362441E+03;3;  3.5456207E+01;  0.0000000E+00;  2.0528648E+00;0;  3.7439122E+00;  3.9731306E+03;  0.0000000E+00; -7.4988871E+00;  4.0000000E+04;  0.0000000E+00;  3.8916309E+04;  3.3347859E+00;  0.0000000E+00;  4.0912631E-01;  3.1279734E+04;
  1.3526378E+00;  9.9999998E-03;  2.8353128E-01;8482;  9.2805970E-01;  0.0000000E+00;  1.4950578E-01;  1.0055201E+03;  3.2297793E-01;  4.5716763E+03;3;  3.4005138E+01;  0.0000000E+00;  2.6740866E+00;0;  3.7130740E+00;  3.9806895E+03;  0.0000000E+00; -1.0433858E+01;  4.0000000E+04;  0.0000000E+00;  3.8903289E+04;  3.3332357E+00;  0.0000000E+00;  3.7983829E-01;  3.8073418E+04;
  1.3542945E+00;  9.9999998E-03;  2.9363999E-01;8483;  9.4203383E-01;  0.0000000E+00;  1.4378673E-01;  1.0048666E+03;  3.2254705E-01;  4.0304160E+03;3;  3.2177483E+01;  0.0000000E+00;  2.8341980E+00;0;  3.6620765E+00;  3.9890747E+03;  0.0000000E+00; -1.2236671E+01;  4.0000000E+04;  0.0000000E+00;  3.8910031E+04;  3.3152156E+00;  0.0000000E+00;  3.4686077E-01;  3.7574965E+04;
  1.3564745E+00;  9.9999998E-03;  3.0374590E-01;8484;  9.5736146E-01;  0.0000000E+00;  1.3962826E-01;  1.0041368E+03;  3.2191932E-01;  3.4259700E+03;3;  3.1023619E+01;  0.0000000E+00;  3.1226394E+00;0;  3.5671723E+00;  4.0024763E+03;  0.0000000E+00; -1.2204322E+01;  4.0000000E+04;  0.0000000E+00;  3.8930441E+04;  3.2476356E+00;  0.0000000E+00;  3.1953672E-01;  2.8189477E+04;
  1.3763157E+00;  9.9999998E-03;  2.4276322E-01;8539;  8.8840157E-01;  0.0000000E+00;  1.3975380E-01;  1.0064778E+03;  3.0419248E-01;  5.3640400E+03;3;  7.9668022E+01;  0.0000000E+00;  3.1580692E+01;0;  1.9418355E+00;  4.4754370E+03;  0.0000000E+00; -8.0944002E-01;  4.0000000E+04;  0.0000000E+00;  3.9013523E+04;  1.4955112E+00;  0.0000000E+00;  4.4632432E-01;  9.5701816E+03;
  1.3775971E+00;  9.9999998E-03;  2.5289723E-01;8540;  9.0585887E-01;  0.0000000E+00;  1.4001895E-01;  1.0064382E+03;  3.0370778E-01;  5.3312148E+03;3;  7.7092056E+01;  0.0000000E+00;  3.0347155E+01;0;  2.0038877E+00;  4.4898403E+03;  0.0000000E+00; -2.8086443E+00;  4.0000000E+04;  0.0000000E+00;  3.9004477E+04;  1.5290905E+00;  0.0000000E+00;  4.7479710E-01;  1.4589493E+04;
  1.3794658E+00;  9.9999998E-03;  2.6302284E-01;8541;  9.2171466E-01;  0.0000000E+00;  1.3866328E-01;  1.0062482E+03;  3.0309120E-01;  5.1737920E+03;3;  7.4488136E+01;  0.0000000E+00;  2.9896433E+01;0;  2.0352314E+00;  4.5069487E+03;  0.0000000E+00; -5.5621433E+00;  4.0000000E+04;  0.0000000E+00;  3.8997562E+04;  1.5215417E+00;  0.0000000E+00;  5.1368964E-01;  2.1397344E+04;
  1.3816030E+00;  9.9999998E-03;  2.7315745E-01;8542;  9.3756855E-01;  0.0000000E+00;  1.3351388E-01;  1.0057446E+03;  3.0244228E-01;  4.7566597E+03;3;  7.2980431E+01;  0.0000000E+00;  2.8524473E+01;0;  2.0097928E+00;  4.5243584E+03;  0.0000000E+00; -8.5677156E+00;  4.0000000E+04;  0.0000000E+00;  3.8978348E+04;  1.4887965E+00;  0.0000000E+00;  5.2099645E-01;  2.8339430E+04;
  1.3834711E+00;  9.9999998E-03;  2.8328553E-01;8543;  9.5336586E-01;  0.0000000E+00;  1.2670645E-01;  1.0051491E+03;  3.0183607E-01;  4.2635449E+03;3;  7.1727631E+01;  0.0000000E+00;  2.8003559E+01;0;  1.9371333E+00;  4.5407329E+03;  0.0000000E+00; -1.0868733E+01;  4.0000000E+04;  0.0000000E+00;  3.8961637E+04;  1.4585456E+00;  0.0000000E+00;  4.7858778E-01;  3.1366852E+04;
  1.3855656E+00;  9.9999998E-03;  2.9340085E-01;8544;  9.6937144E-01;  0.0000000E+00;  1.2074219E-01;  1.0044744E+03;  3.0103585E-01;  3.7047971E+03;3;  6.9611916E+01;  0.0000000E+00;  2.7979259E+01;0;  1.8279260E+00;  4.5622959E+03;  0.0000000E+00; -1.1421390E+01;  4.0000000E+04;  0.0000000E+00;  3.8962980E+04;  1.4076949E+00;  0.0000000E+00;  4.2023107E-01;  2.6426408E+04;
  1.3880652E+00;  9.9999998E-03;  3.0351061E-01;8545;  9.8590958E-01;  0.0000000E+00;  1.1636125E-01;  1.0035239E+03;  2.9999968E-01;  2.9177563E+03;3;  6.7817192E+01;  0.0000000E+00;  2.8315571E+01;0;  1.7029822E+00;  4.5903872E+03;  0.0000000E+00; -8.9702301E+00;  4.0000000E+04;  0.0000000E+00;  3.8979184E+04;  1.3291117E+00;  0.0000000E+00;  3.7387046E-01;  1.0766757E+04;
  1.4053458E+00;  9.9999998E-03;  2.4251075E-01;8600;  8.8486344E-01;  0.0000000E+00;  8.2653120E-02;  1.0030461E+03;  2.8275874E-01;  2.5216055E+03;3;  8.2624298E+01;  0.0000000E+00;  5.3988262E+01;0;  8.7346780E-01;  5.1328906E+03;  0.0000000E+00; -1.7852656E+00;  4.0000000E+04;  0.0000000E+00;  3.9083598E+04;  4.4136688E-01;  0.0000000E+00;  4.3210092E-01;  1.2188705E+04;
  1.4066136E+00;  9.9999998E-03;  2.5265291E-01;8601;  9.0285981E-01;  0.0000000E+00;  9.3303859E-02;  1.0032253E+03;  2.8217608E-01;  2.6699880E+03;3;  8.0234322E+01;  0.0000000E+00;  4.4619816E+01;0;  9.5121384E-01;  5.1550283E+03;  0.0000000E+00; -4.1373968E+00;  4.0000000E+04;  0.0000000E+00;  3.9077871E+04;  4.4705477E-01;  0.0000000E+00;  5.0415903E-01;  1.8226533E+04;
  1.4080485E+00;  9.9999998E-03;  2.6279581E-01;8602;  9.1972768E-01;  0.0000000E+00;  9.5088497E-02;  1.0032866E+03;  2.8158730E-01;  2.7206643E+03;3;  7.8441612E+01;  0.0000000E+00;  3.8580994E+01;0;  9.9273765E-01;  5.1772773E+03;  0.0000000E+00; -6.9990649E+00;  4.0000000E+04;  0.0000000E+00;  3.9068859E+04;  4.4197077E-01;  0.0000000E+00;  5.5076689E-01;  2.5825666E+04;
  1.4098927E+00;  9.9999998E-03;  2.7294156E-01;8603;  9.3591815E-01;  0.0000000E+00;  9.2926197E-02;  1.0030532E+03;  2.8090370E-01;  2.5273872E+03;3;  7.7186226E+01;  0.0000000E+00;  3.6641205E+01;0;  9.8817587E-01;  5.2025186E+03;  0.0000000E+00; -9.7778597E+00;  4.0000000E+04;  0.0000000E+00;  3.9050020E+04;  4.1944286E-01;  0.0000000E+00;  5.6873304E-01;  3.2471084E+04;
  1.4120240E+00;  9.9999998E-03;  2.8308296E-01;8604;  9.5206320E-01;  0.0000000E+00;  8.6250000E-02;  1.0024974E+03;  2.8005624E-01;  2.0672856E+03;3;  7.5665138E+01;  0.0000000E+00;  3.6157402E+01;0;  8.9641845E-01;  5.2328276E+03;  0.0000000E+00; -1.1426284E+01;  4.0000000E+04;  0.0000000E+00;  3.9025312E+04;  3.8314068E-01;  0.0000000E+00;  5.1327777E-01;  3.4572398E+04;
  1.4144533E+00;  9.9999998E-03;  2.9320863E-01;8605;  9.6814430E-01;  0.0000000E+00;  7.9562686E-02;  1.0016637E+03;  2.7895433E-01;  1.3770935E+03;3;  7.4552452E+01;  0.0000000E+00;  3.6643059E+01;0;  7.6177502E-01;  5.2713296E+03;  0.0000000E+00; -1.0448359E+01;  4.0000000E+04;  0.0000000E+00;  3.9016027E+04;  3.3395413E-01;  0.0000000E+00;  4.2782092E-01;  2.6277840E+04;
  1.4170901E+00;  9.9999998E-03;  3.0332458E-01;8606;  9.8454833E-01;  0.0000000E+00;  7.4628294E-02;  1.0004047E+03;  2.7773342E-01;  3.3498593E+02;3;  7.3989754E+01;  0.0000000E+00;  3.6659542E+01;0;  6.3085836E-01;  5.3126851E+03;  0.0000000E+00; -4.5585570E+00;  4.0000000E+04;  0.0000000E+00;  3.9024938E+04;  2.7562228E-01;  0.0000000E+00;  3.5523608E-01;  6.1738164E+03;
  1.4328911E+00;  9.9999998E-03;  2.4234886E-01;8661;  8.7787491E-01;  0.0000000E+00;  1.8127080E-02;  9.9876727E+02;  2.6151910E-01; -1.0200958E+03;3;  8.4381897E+01;  0.0000000E+00;  5.2177273E+01;0;  3.2450455E-01;  5.9397695E+03;  0.0000000E+00; -3.0263531E+00;  4.0000000E+04;  0.0000000E+00;  3.9142426E+04; -3.1954780E-02;  0.0000000E+00;  3.5645932E-01;  1.9201936E+04;
  1.4339840E+00;  9.9999998E-03;  2.5248718E-01;8662;  8.9620709E-01;  0.0000000E+00;  2.7717667E-02;  9.9926312E+02;  2.6099256E-01; -6.0976678E+02;3;  8.2906906E+01;  0.0000000E+00;  5.8483585E+01;0;  3.5435492E-01;  5.9666357E+03;  0.0000000E+00; -5.8818445E+00;  4.0000000E+04;  0.0000000E+00;  3.9142145E+04; -4.6780638E-02;  0.0000000E+00;  4.0113556E-01;  2.8405203E+04;
  1.4350437E+00;  9.9999998E-03;  2.6263177E-01;8663;  9.1351688E-01;  0.0000000E+00;  4.5672491E-02;  9.9970880E+02;  2.6048708E-01; -2.4098222E+02;3;  8.1068886E+01;  0.0000000E+00;  5.3285526E+01;0;  4.8249459E-01;  5.9938433E+03;  0.0000000E+00; -9.2804708E+00;  4.0000000E+04;  0.0000000E+00;  3.9138301E+04; -6.3399978E-02;  0.0000000E+00;  5.4589456E-01;  3.9848258E+04;
  1.4363754E+00;  9.9999998E-03;  2.7278605E-01;8664;  9.3007374E-01;  0.0000000E+00;  5.0500825E-02;  9.9981390E+02;  2.5987759E-01; -1.5397626E+02;3;  7.9807014E+01;  0.0000000E+00;  4.1219013E+01;0;  5.4124629E-01;  6.0255049E+03;  0.0000000E+00; -1.2510811E+01;  4.0000000E+04;  0.0000000E+00;  3.9120270E+04; -8.5536651E-02;  0.0000000E+00;  6.2678295E-01;  5.0257172E+04;
  1.4382843E+00;  9.9999998E-03;  2.8294262E-01;8665;  9.4579017E-01;  0.0000000E+00;  4.6182297E-02;  9.9931915E+02;  2.5903147E-01; -5.6335913E+02;3;  7.8772018E+01;  0.0000000E+00;  3.9717190E+01;0;  4.7907466E-01;  6.0659229E+03;  0.0000000E+00; -1.4184008E+01;  4.0000000E+04;  0.0000000E+00;  3.9087133E+04; -1.1714087E-01;  0.0000000E+00;  5.9621555E-01;  5.4575887E+04;
  1.4408545E+00;  9.9999998E-03;  2.9308155E-01;8666;  9.6129459E-01;  0.0000000E+00;  3.8424768E-02;  9.9816052E+02;  2.5784042E-01; -1.5219250E+03;3;  7.8244896E+01;  0.0000000E+00;  4.0433113E+01;0;  3.2884336E-01;  6.1181299E+03;  0.0000000E+00; -1.1874112E+01;  4.0000000E+04;  0.0000000E+00;  3.9065059E+04; -1.5888791E-01;  0.0000000E+00;  4.8773125E-01;  4.3212320E+04;
  1.4436355E+00;  9.9999998E-03;  3.0320355E-01;8667;  9.7700763E-01;  0.0000000E+00;  3.3299249E-02;  9.9640826E+02;  2.5664315E-01; -2.9715332E+03;3;  7.8238678E+01;  0.0000000E+00;  4.0083866E+01;0;  1.9440867E-01;  6.1668467E+03;  0.0000000E+00; -1.5059768E+00;  4.0000000E+04;  0.0000000E+00;  3.9066859E+04; -2.0390467E-01;  0.0000000E+00;  3.9831334E-01;  1.8853909E+03;
  1.4587599E+00;  9.9999998E-03;  2.4228716E-01;8722;  8.6984330E-01;  0.0000000E+00; -3.4016866E-02;  9.9502930E+02;  2.4161462E-01; -4.1109790E+03;3;  8.3242836E+01;  0.0000000E+00;  4.9967098E+01;0;  1.4085753E-01;  6.8992803E+03;  0.0000000E+00; -4.8797646E+00;  4.0000000E+04;  0.0000000E+00;  3.9183758E+04; -1.5121253E-01;  0.0000000E+00;  2.9207006E-01;  2.7862518E+04;
  1.4596648E+00;  9.9999998E-03;  2.5241917E-01;8723;  8.8690186E-01;  0.0000000E+00; -2.9465863E-02;  9.9572052E+02;  2.4117538E-01; -3.5392178E+03;3;  8.3161842E+01;  0.0000000E+00;  5.4569275E+01;0;  1.1581759E-01;  6.9298901E+03;  0.0000000E+00; -8.9726067E+00;  4.0000000E+04;  0.0000000E+00;  3.9186566E+04; -1.9464810E-01;  0.0000000E+00;  3.1046569E-01;  4.3029316E+04;
  1.4601687E+00;  9.9999998E-03;  2.6255620E-01;8724;  9.0398502E-01;  0.0000000E+00; -1.4874696E-02;  9.9643793E+02;  2.4081951E-01; -2.9458745E+03;3;  8.3457199E+01;  0.0000000E+00;  6.2483067E+01;0;  1.6412669E-01;  6.9579380E+03;  0.0000000E+00; -1.3686970E+01;  4.0000000E+04;  0.0000000E+00;  3.9187809E+04; -2.3529977E-01;  0.0000000E+00;  3.9942646E-01;  6.0563953E+04;
  1.4606067E+00;  9.9999998E-03;  2.7270505E-01;8725;  9.2116702E-01;  0.0000000E+00;  8.2077216E-03;  9.9688293E+02;  2.4044526E-01; -2.5778196E+03;3;  8.1967720E+01;  0.0000000E+00;  5.3213631E+01;0;  3.5819668E-01;  6.9878804E+03;  0.0000000E+00; -1.7711746E+01;  4.0000000E+04;  0.0000000E+00;  3.9176215E+04; -2.7263170E-01;  0.0000000E+00;  6.3082838E-01;  7.4199289E+04;
  1.4620377E+00;  9.9999998E-03;  2.8286472E-01;8726;  9.3648398E-01;  0.0000000E+00;  1.1774872E-02;  9.9642334E+02;  2.3971754E-01; -2.9577527E+03;3;  8.1162582E+01;  0.0000000E+00;  3.7791534E+01;0;  3.8860476E-01;  7.0332114E+03;  0.0000000E+00; -1.9696791E+01;  4.0000000E+04;  0.0000000E+00;  3.9143930E+04; -3.1077480E-01;  0.0000000E+00;  6.9937956E-01;  7.9958016E+04;
  1.4648678E+00;  9.9999998E-03;  2.9301134E-01;8727;  9.5058554E-01;  0.0000000E+00;  3.3280377E-03;  9.9462122E+02;  2.3846760E-01; -4.4477124E+03;3;  8.1757393E+01;  0.0000000E+00;  3.6856335E+01;0;  2.3071387E-01;  7.0984473E+03;  0.0000000E+00; -1.6086882E+01;  4.0000000E+04;  0.0000000E+00;  3.9115715E+04; -3.5294673E-01;  0.0000000E+00;  5.8366060E-01;  6.5845719E+04;
  1.4679207E+00;  9.9999998E-03;  3.0313525E-01;8728;  9.6506184E-01;  0.0000000E+00; -2.3880030E-03;  9.9199408E+02;  2.3739341E-01; -6.6194971E+03;3;  8.2405602E+01;  0.0000000E+00;  3.8293190E+01;0;  8.0843598E-02;  7.1448188E+03;  0.0000000E+00;  8.8013482E-01;  4.0000000E+04;  0.0000000E+00;  3.9115617E+04; -3.9301562E-01;  0.0000000E+00;  4.7385922E-01;  4.1909751E+03;
  1.4832237E+00;  9.9999998E-03;  2.4230091E-01;8783;  8.6265367E-01;  0.0000000E+00; -7.6858431E-02;  9.9225317E+02;  2.2346207E-01; -6.4019727E+03;3;  8.1809761E+01;  0.0000000E+00;  4.8967365E+01;0;  1.7504726E-01;  8.0160146E+03;  0.0000000E+00; -8.4917507E+00;  4.0000000E+04;  0.0000000E+00;  3.9212449E+04; -3.8541269E-02;  0.0000000E+00;  2.1358854E-01;  3.8376270E+04;
  1.4822561E+00;  9.9999998E-03;  2.7269211E-01;8786;  9.0901923E-01;  0.0000000E+00; -4.0002525E-02;  9.9458441E+02;  2.2330604E-01; -4.4755825E+03;3;  8.3673447E+01;  0.0000000E+00;  6.4330795E+01;0;  1.7538270E-01;  8.0591440E+03;  0.0000000E+00; -2.2849123E+01;  4.0000000E+04;  0.0000000E+00;  3.9214473E+04; -2.8191909E-01;  0.0000000E+00;  4.5730180E-01;  8.4867609E+04;
  1.4828951E+00;  9.9999998E-03;  2.6255965E-01;8785;  8.9280432E-01;  0.0000000E+00; -6.4142965E-02;  9.9374097E+02;  2.2334357E-01; -5.1725249E+03;3;  8.2918236E+01;  0.0000000E+00;  5.5604523E+01;0;  4.9949020E-02;  8.0424033E+03;  0.0000000E+00; -1.9589306E+01;  4.0000000E+04;  0.0000000E+00;  3.9216438E+04; -2.1021068E-01;  0.0000000E+00;  2.6015970E-01;  7.6919883E+04;
  1.4834846E+00;  9.9999998E-03;  2.5243390E-01;8784;  8.7759018E-01;  0.0000000E+00; -7.4428558E-02;  9.9287018E+02;  2.2332299E-01; -5.8920527E+03;3;  8.1751686E+01;  0.0000000E+00;  5.0640068E+01;0;  9.5263392E-02;  8.0325620E+03;  0.0000000E+00; -1.4253967E+01;  4.0000000E+04;  0.0000000E+00;  3.9212941E+04; -1.2651955E-01;  0.0000000E+00;  2.2178294E-01;  5.8946902E+04;
  1.4830865E+00;  9.9999998E-03;  2.8284204E-01;8787;  9.2467195E-01;  0.0000000E+00; -1.7488698E-02;  9.9430658E+02;  2.2277847E-01; -4.7050830E+03;3;  8.3616486E+01;  0.0000000E+00;  4.5910778E+01;0;  4.1001213E-01;  8.1032788E+03;  0.0000000E+00; -2.4183130E+01;  4.0000000E+04;  0.0000000E+00;  3.9191512E+04; -3.3903158E-01;  0.0000000E+00;  7.4904370E-01;  8.6779039E+04;
  1.4861556E+00;  9.9999998E-03;  2.9298705E-01;8788;  9.3734688E-01;  0.0000000E+00; -1.8794283E-02;  9.9169391E+02;  2.2154896E-01; -6.8633818E+03;3;  8.3719955E+01;  0.0000000E+00;  3.0004669E+01;0;  3.7054929E-01;  8.1748726E+03;  0.0000000E+00; -1.9407146E+01;  4.0000000E+04;  0.0000000E+00;  3.9168363E+04; -3.8488957E-01;  0.0000000E+00;  7.5543886E-01;  7.2970844E+04;
  1.4892373E+00;  9.9999998E-03;  3.0311072E-01;8789;  9.5054501E-01;  0.0000000E+00; -2.7061576E-02;  9.8800562E+02;  2.2080575E-01; -9.9098057E+03;3;  8.5163322E+01;  0.0000000E+00;  3.2019489E+01;0;  1.6810963E-01;  8.1940176E+03;  0.0000000E+00;  5.4164295E+00;  4.0000000E+04;  0.0000000E+00;  3.9168059E+04; -4.2290363E-01;  0.0000000E+00;  5.9101325E-01;  1.2527563E+04;
  1.5023098E+00;  9.9999998E-03;  2.7272093E-01;8847;  8.9539790E-01;  0.0000000E+00; -7.9422250E-02;  9.9284460E+02;  2.0831047E-01; -5.9083413E+03;3;  8.3255806E+01;  0.0000000E+00;  5.9107979E+01;0;  1.1176445E-01;  9.2266953E+03;  0.0000000E+00; -2.5276772E+01;  4.0000000E+04;  0.0000000E+00;  3.9244328E+04; -1.5508921E-01;  0.0000000E+00;  2.6685366E-01;  7.5714055E+04;
  1.5035651E+00;  9.9999998E-03;  2.6259786E-01;8846;  8.8181198E-01;  0.0000000E+00; -9.9340007E-02;  9.9160828E+02;  2.0810589E-01; -6.9287510E+03;3;  8.1423233E+01;  0.0000000E+00;  4.9095936E+01;0;  9.2582084E-02;  9.2240078E+03;  0.0000000E+00; -2.4392811E+01;  4.0000000E+04;  0.0000000E+00;  3.9242434E+04; -3.3004694E-02;  0.0000000E+00;  1.2558678E-01;  7.8055953E+04;
  1.5027764E+00;  9.9999998E-03;  2.8286192E-01;8848;  9.0959895E-01;  0.0000000E+00; -5.1609948E-02;  9.9274603E+02;  2.0795542E-01; -5.9895562E+03;3;  8.6229706E+01;  0.0000000E+00;  5.9750706E+01;0;  3.5934043E-01;  9.2675254E+03;  0.0000000E+00; -2.5508160E+01;  4.0000000E+04;  0.0000000E+00;  3.9228137E+04; -2.4213268E-01;  0.0000000E+00;  6.0147309E-01;  7.4521047E+04;
  1.5050164E+00;  9.9999998E-03;  2.5248626E-01;8845;  8.6919338E-01;  0.0000000E+00; -1.0821395E-01;  9.9062109E+02;  2.0778817E-01; -7.7432456E+03;3;  8.1598824E+01;  0.0000000E+00;  4.4602886E+01;0;  2.1651191E-01;  9.2379746E+03;  0.0000000E+00; -2.0136997E+01;  4.0000000E+04;  0.0000000E+00;  3.9233105E+04;  1.1299109E-01;  0.0000000E+00;  1.0352081E-01;  6.7520250E+04;
  1.5053507E+00;  9.9999998E-03;  2.4235415E-01;8844;  8.5647643E-01;  0.0000000E+00; -1.1043065E-01;  9.9034204E+02;  2.0770495E-01; -7.9735068E+03;3;  8.1008873E+01;  0.0000000E+00;  4.2960239E+01;0;  3.6228803E-01;  9.2413652E+03;  0.0000000E+00; -1.3024687E+01;  4.0000000E+04;  0.0000000E+00;  3.9232645E+04;  2.6081610E-01;  0.0000000E+00;  1.0147194E-01;  4.5739402E+04;
  1.5056851E+00;  9.9999998E-03;  2.9299667E-01;8849;  9.2200857E-01;  0.0000000E+00; -3.7014522E-02;  9.8945764E+02;  2.0692137E-01; -8.7034658E+03;3;  8.6774498E+01;  0.0000000E+00;  3.9566925E+01;0;  5.4826248E-01;  9.3294707E+03;  0.0000000E+00; -1.8990353E+01;  4.0000000E+04;  0.0000000E+00;  3.9218250E+04; -2.9592311E-01;  0.0000000E+00;  8.4418559E-01;  6.2437930E+04;
  1.5080503E+00;  9.9999998E-03;  3.0311960E-01;8850;  9.3437523E-01;  0.0000000E+00; -3.9772745E-02;  9.8523798E+02;  2.0667590E-01; -1.2185606E+04;3;  8.7388268E+01;  0.0000000E+00;  2.7143290E+01;0;  4.2114031E-01;  9.2965898E+03;  0.0000000E+00;  1.4248015E+01;  4.0000000E+04;  0.0000000E+00;  3.9215289E+04; -3.4149301E-01;  0.0000000E+00;  7.6263332E-01;  3.6013414E+04;
  1.5212662E+00;  9.9999998E-03;  2.7278802E-01;8908;  8.8246173E-01;  0.0000000E+00; -1.1025882E-01;  9.9136249E+02;  1.9537488E-01; -7.1243232E+03;3;  8.1327911E+01;  0.0000000E+00;  5.0053818E+01;0;  1.4427727E-01;  1.0459106E+04;  0.0000000E+00; -2.4416840E+01;  4.0000000E+04;  0.0000000E+00;  3.9257410E+04;  1.0129604E-01;  0.0000000E+00;  4.2981237E-02;  5.7292902E+04;
  1.5215253E+00;  9.9999998E-03;  2.8291705E-01;8909;  8.9352870E-01;  0.0000000E+00; -8.8505678E-02;  9.9134412E+02;  1.9513094E-01; -7.1393921E+03;3;  8.4660225E+01;  0.0000000E+00;  6.2081608E+01;0;  2.5299108E-01;  1.0495764E+04;  0.0000000E+00; -2.4141731E+01;  4.0000000E+04;  0.0000000E+00;  3.9250508E+04; -2.3441514E-02;  0.0000000E+00;  2.7643260E-01;  5.7386043E+04;
  1.5225583E+00;  9.9999998E-03;  2.6266444E-01;8907;  8.7176096E-01;  0.0000000E+00; -1.2370639E-01;  9.9007562E+02;  1.9511774E-01; -8.1850410E+03;3;  8.0200706E+01;  0.0000000E+00;  4.1588512E+01;0;  2.4336565E-01;  1.0462343E+04;  0.0000000E+00; -2.5046640E+01;  4.0000000E+04;  0.0000000E+00;  3.9257887E+04;  2.7547595E-01;  0.0000000E+00; -3.2110296E-02;  6.3408719E+04;
  1.5239099E+00;  9.9999998E-03;  2.9303691E-01;8910;  9.0429157E-01;  0.0000000E+00; -6.3918829E-02;  9.8773889E+02;  1.9439767E-01; -1.0111321E+04;3;  8.8493317E+01;  0.0000000E+00;  5.7986469E+01;0;  5.4607278E-01;  1.0531454E+04;  0.0000000E+00; -1.4608880E+01;  4.0000000E+04;  0.0000000E+00;  3.9256891E+04; -9.6830308E-02;  0.0000000E+00;  6.4290309E-01;  4.5276336E+04;
  1.5243725E+00;  9.9999998E-03;  2.5255650E-01;8906;  8.6168218E-01;  0.0000000E+00; -1.3155818E-01;  9.8903937E+02;  1.9467357E-01; -9.0385908E+03;3;  7.9350403E+01;  0.0000000E+00;  3.5978226E+01;0;  4.3907878E-01;  1.0494511E+04;  0.0000000E+00; -2.3078802E+01;  4.0000000E+04;  0.0000000E+00;  3.9245602E+04;  4.8608464E-01;  0.0000000E+00; -4.7005851E-02;  6.2403863E+04;
  1.5249903E+00;  9.9999998E-03;  3.0315775E-01;8911;  9.1662788E-01;  0.0000000E+00; -5.1801000E-02;  9.8432147E+02;  1.9463019E-01; -1.2928599E+04;3;  9.0122169E+01;  0.0000000E+00;  4.0174629E+01;0;  6.3198435E-01;  1.0446967E+04;  0.0000000E+00;  2.5202976E+01;  4.0000000E+04;  0.0000000E+00;  3.9247586E+04; -1.7027736E-01;  0.0000000E+00;  8.0226171E-01;  6.3886172E+04;
  1.5253466E+00;  9.9999998E-03;  2.4243732E-01;8905;  8.5115010E-01;  0.0000000E+00; -1.3325647E-01;  9.8900610E+02;  1.9437987E-01; -9.0654033E+03;3;  8.0420692E+01;  0.0000000E+00;  3.3271763E+01;0;  6.6403133E-01;  1.0527542E+04;  0.0000000E+00; -1.6488455E+01;  4.0000000E+04;  0.0000000E+00;  3.9238176E+04;  7.0124978E-01;  0.0000000E+00; -3.7218474E-02;  4.5965180E+04;
  1.5394295E+00;  9.9999998E-03;  2.7288681E-01;8968;  8.7046027E-01;  0.0000000E+00; -1.3250321E-01;  9.8959674E+02;  1.8416110E-01; -8.5689619E+03;3;  8.0360954E+01;  0.0000000E+00;  3.9751347E+01;0;  2.6832259E-01;  1.1740064E+04;  0.0000000E+00; -2.3028414E+01;  4.0000000E+04;  0.0000000E+00;  3.9249816E+04;  4.7671652E-01;  0.0000000E+00; -2.0839392E-01;  4.3595219E+04;
  1.5394871E+00;  9.9999998E-03;  2.8300372E-01;8969;  8.7830555E-01;  0.0000000E+00; -1.1825574E-01;  9.8947321E+02;  1.8400140E-01; -8.6706445E+03;3;  8.3386879E+01;  0.0000000E+00;  5.1926552E+01;0;  2.2800437E-01;  1.1768392E+04;  0.0000000E+00; -2.1822853E+01;  4.0000000E+04;  0.0000000E+00;  3.9253367E+04;  3.1019118E-01;  0.0000000E+00; -8.2186826E-02;  4.4370316E+04;
  1.5406319E+00;  9.9999998E-03;  2.6276749E-01;8967;  8.6270356E-01;  0.0000000E+00; -1.4041004E-01;  9.8850433E+02;  1.8393673E-01; -9.4677363E+03;3;  7.7408211E+01;  0.0000000E+00;  2.8435692E+01;0;  4.7246090E-01;  1.1746073E+04;  0.0000000E+00; -2.3799496E+01;  4.0000000E+04;  0.0000000E+00;  3.9248645E+04;  6.9705606E-01;  0.0000000E+00; -2.2459516E-01;  4.8028086E+04;
  1.5411706E+00;  9.9999998E-03;  2.9310772E-01;8970;  8.8619316E-01;  0.0000000E+00; -9.6668914E-02;  9.8588715E+02;  1.8360637E-01; -1.1622675E+04;3;  8.8648788E+01;  0.0000000E+00;  6.3190865E+01;0;  4.1555014E-01;  1.1762920E+04;  0.0000000E+00; -6.6391172E+00;  4.0000000E+04;  0.0000000E+00;  3.9274680E+04;  2.0102897E-01;  0.0000000E+00;  2.1452117E-01;  2.9138139E+04;
  1.5422825E+00;  9.9999998E-03;  2.5265175E-01;8966;  8.5506147E-01;  0.0000000E+00; -1.4358573E-01;  9.8782123E+02;  1.8353473E-01; -1.0028882E+04;3;  7.7310562E+01;  0.0000000E+00;  2.1539755E+01;0;  7.5326288E-01;  1.1786796E+04;  0.0000000E+00; -2.2580360E+01;  4.0000000E+04;  0.0000000E+00;  3.9240695E+04;  9.5342672E-01;  0.0000000E+00; -2.0016387E-01;  4.8992422E+04;
  1.5434477E+00;  9.9999998E-03;  2.4253428E-01;8965;  8.4564036E-01;  0.0000000E+00; -1.4421719E-01;  9.8814740E+02;  1.8317853E-01; -9.7592666E+03;3;  7.9179375E+01;  0.0000000E+00;  1.6373371E+01;0;  1.0397162E+00;  1.1842667E+04;  0.0000000E+00; -1.7058538E+01;  4.0000000E+04;  0.0000000E+00;  3.9230453E+04;  1.2167193E+00;  0.0000000E+00; -1.7700303E-01;  3.7902477E+04;
  1.5564760E+00;  9.9999998E-03;  2.7299821E-01;9027;  8.5979348E-01;  0.0000000E+00; -1.4217520E-01;  9.8808521E+02;  1.7452082E-01; -9.7975469E+03;3;  7.7498169E+01;  0.0000000E+00;  2.3932333E+01;0;  5.2563953E-01;  1.3047468E+04;  0.0000000E+00; -1.9865036E+01;  4.0000000E+04;  0.0000000E+00;  3.9235332E+04;  9.2509347E-01;  0.0000000E+00; -3.9945394E-01;  3.0750537E+04;
  1.5563976E+00;  9.9999998E-03;  2.8311139E-01;9028;  8.6421198E-01;  0.0000000E+00; -1.3341883E-01;  9.8766107E+02;  1.7444436E-01; -1.0146411E+04;3;  8.3003494E+01;  0.0000000E+00;  3.6128738E+01;0;  3.8885230E-01;  1.3060231E+04;  0.0000000E+00; -1.7352755E+01;  4.0000000E+04;  0.0000000E+00;  3.9242219E+04;  7.2098595E-01;  0.0000000E+00; -3.3213365E-01;  3.2344193E+04;
  1.5575800E+00;  9.9999998E-03;  2.6287606E-01;9026;  8.5488218E-01;  0.0000000E+00; -1.4526497E-01;  9.8726324E+02;  1.7433234E-01; -1.0472142E+04;3;  7.6080719E+01;  0.0000000E+00;  1.4448676E+01;0;  8.0282712E-01;  1.3056003E+04;  0.0000000E+00; -2.0198318E+01;  4.0000000E+04;  0.0000000E+00;  3.9235730E+04;  1.1783831E+00;  0.0000000E+00; -3.7555599E-01;  3.1883426E+04;
  1.5572280E+00;  9.9999998E-03;  2.9321188E-01;9029;  8.6951196E-01;  0.0000000E+00; -1.1981721E-01;  9.8460327E+02;  1.7435865E-01; -1.2659676E+04;3;  8.8119347E+01;  0.0000000E+00;  4.8127590E+01;0;  4.1079587E-01;  1.3013191E+04;  0.0000000E+00;  5.1193457E+00;  4.0000000E+04;  0.0000000E+00;  3.9261789E+04;  5.6434768E-01;  0.0000000E+00; -1.5355180E-01;  2.4408682E+04;
  1.5590315E+00;  9.9999998E-03;  2.5274572E-01;9025;  8.4845906E-01;  0.0000000E+00; -1.4471270E-01;  9.8698163E+02;  1.7399803E-01; -1.0701928E+04;3;  7.9228111E+01;  0.0000000E+00;  8.8188763E+00;0;  1.1343534E+00;  1.3101515E+04;  0.0000000E+00; -1.9026541E+01;  4.0000000E+04;  0.0000000E+00;  3.9234535E+04;  1.4594876E+00;  0.0000000E+00; -3.2513422E-01;  3.2322799E+04;
  1.5602182E+00;  9.9999998E-03;  2.4261437E-01;9024;  8.4277779E-01;  0.0000000E+00; -1.4163016E-01;  9.8768817E+02;  1.7366472E-01; -1.0119699E+04;3;  6.1470280E+01;  0.0000000E+00; -1.5916045E+00;0;  1.4703743E+00;  1.3171597E+04;  0.0000000E+00; -1.4629947E+01;  4.0000000E+04;  0.0000000E+00;  3.9224703E+04;  1.7478647E+00;  0.0000000E+00; -2.7749035E-01;  2.6060758E+04;
  1.5720443E+00;  9.9999998E-03;  2.9335132E-01;9088;  8.5239685E-01;  0.0000000E+00; -1.2871124E-01;  9.8493787E+02;  1.6641712E-01; -1.2361608E+04;3;  8.8817932E+01;  0.0000000E+00;  2.3486589E+01;0;  5.9085613E-01;  1.4299104E+04;  0.0000000E+00;  1.8222403E+01;  4.0000000E+04;  0.0000000E+00;  3.9212125E+04;  9.3780464E-01;  0.0000000E+00; -3.4694850E-01;  3.8156449E+04;
  1.5721993E+00;  9.9999998E-03;  2.8324452E-01;9087;  8.5163158E-01;  0.0000000E+00; -1.3729753E-01;  9.8646777E+02;  1.6627830E-01; -1.1105742E+04;3;  8.0102173E+01;  0.0000000E+00;  1.4582376E+01;0;  6.7561233E-01;  1.4358717E+04;  0.0000000E+00; -9.8334208E+00;  4.0000000E+04;  0.0000000E+00;  3.9209453E+04;  1.1538672E+00;  0.0000000E+00; -4.7825491E-01;  2.0323434E+04;
  1.5725037E+00;  9.9999998E-03;  2.7312833E-01;9086;  8.5033303E-01;  0.0000000E+00; -1.4036387E-01;  9.8698273E+02;  1.6626374E-01; -1.0682693E+04;3;  7.4398109E+01;  0.0000000E+00;  5.1378784E+00;0;  8.9446747E-01;  1.4362562E+04;  0.0000000E+00; -1.5030404E+01;  4.0000000E+04;  0.0000000E+00;  3.9207730E+04;  1.3895923E+00;  0.0000000E+00; -4.9512479E-01;  2.0133891E+04;
  1.5735732E+00;  9.9999998E-03;  2.6299930E-01;9085;  8.4786290E-01;  0.0000000E+00; -1.3911757E-01;  9.8631519E+02;  1.6609298E-01; -1.1228792E+04;3;  7.4335495E+01;  0.0000000E+00; -3.0461311E+00;0;  1.2131386E+00;  1.4372426E+04;  0.0000000E+00; -1.5144749E+01;  4.0000000E+04;  0.0000000E+00;  3.9213270E+04;  1.6602769E+00;  0.0000000E+00; -4.4713834E-01;  1.9874016E+04;
  1.5749167E+00;  9.9999998E-03;  2.5285801E-01;9084;  8.4637541E-01;  0.0000000E+00; -1.3500766E-01;  9.8622681E+02;  1.6580532E-01; -1.1299137E+04;3;  5.1156532E+01;  0.0000000E+00; -1.4372951E+01;0;  1.5696875E+00;  1.4421267E+04;  0.0000000E+00; -1.3937111E+01;  4.0000000E+04;  0.0000000E+00;  3.9216523E+04;  1.9508708E+00;  0.0000000E+00; -3.8118330E-01;  1.9893508E+04;
  1.5761349E+00;  9.9999998E-03;  2.4271011E-01;9083;  8.5953707E-01;  0.0000000E+00; -1.2839545E-01;  9.8718365E+02;  1.6549781E-01; -1.0512300E+04;3; -4.0875420E+01;  0.0000000E+00; -1.7786160E+01;0;  1.9311101E+00;  1.4502596E+04;  0.0000000E+00; -1.0675426E+01;  4.0000000E+04;  0.0000000E+00;  3.9209832E+04;  2.2539604E+00;  0.0000000E+00; -3.2285017E-01;  1.8086164E+04;
  1.5860351E+00;  9.9999998E-03;  2.9352084E-01;9147;  8.3390194E-01;  0.0000000E+00; -1.2531011E-01;  9.8695209E+02;  1.5952650E-01; -1.0685388E+04;3;  9.0030022E+01;  0.0000000E+00; -1.5826442E+00;0;  8.9403039E-01;  1.5633894E+04;  0.0000000E+00;  2.7402275E+01;  4.0000000E+04;  0.0000000E+00;  3.9134527E+04;  1.2698518E+00;  0.0000000E+00; -3.7582141E-01;  4.4947105E+04;
  1.5869949E+00;  9.9999998E-03;  2.8340539E-01;9146;  8.3850670E-01;  0.0000000E+00; -1.2949653E-01;  9.8645367E+02;  1.5929410E-01; -1.1091724E+04;3;  7.9622482E+01;  0.0000000E+00; -1.0599714E+01;0;  1.0658401E+00;  1.5667942E+04;  0.0000000E+00; -6.7958996E-02;  4.0000000E+04;  0.0000000E+00;  3.9152211E+04;  1.5398852E+00;  0.0000000E+00; -4.7404507E-01;  1.6044186E+04;
  1.5876044E+00;  9.9999998E-03;  2.7328458E-01;9145;  8.4182972E-01;  0.0000000E+00; -1.2913312E-01;  9.8656012E+02;  1.5920278E-01; -1.1003393E+04;3;  7.1401062E+01;  0.0000000E+00; -1.8119551E+01;0;  1.3237518E+00;  1.5676596E+04;  0.0000000E+00; -8.6052637E+00;  4.0000000E+04;  0.0000000E+00;  3.9159117E+04;  1.8047148E+00;  0.0000000E+00; -4.8096299E-01;  1.5335612E+04;
  1.5887232E+00;  9.9999998E-03;  2.6314887E-01;9144;  8.4616506E-01;  0.0000000E+00; -1.2473072E-01;  9.8572662E+02;  1.5903874E-01; -1.1683496E+04;3;  3.6476685E+01;  0.0000000E+00; -2.7631329E+01;0;  1.6609290E+00;  1.5680583E+04;  0.0000000E+00; -9.2690287E+00;  4.0000000E+04;  0.0000000E+00;  3.9172051E+04;  2.0905812E+00;  0.0000000E+00; -4.2965227E-01;  1.7737980E+04;
  1.5900637E+00;  9.9999998E-03;  2.5300002E-01;9143;  8.6680025E-01;  0.0000000E+00; -1.1610026E-01;  9.8549390E+02;  1.5878969E-01; -1.1871115E+04;3; -6.8672348E+01;  0.0000000E+00; -2.7647715E+01;0;  2.0558798E+00;  1.5723892E+04;  0.0000000E+00; -8.5018082E+00;  4.0000000E+04;  0.0000000E+00;  3.9180754E+04;  2.4058087E+00;  0.0000000E+00; -3.4992883E-01;  1.9237982E+04;
  1.5912704E+00;  9.9999998E-03;  2.4283949E-01;9142;  9.1358984E-01;  0.0000000E+00; -1.1259732E-01;  9.8654144E+02;  1.5851605E-01; -1.1011421E+04;3; -1.0747179E+02;  0.0000000E+00; -1.6243528E+01;0;  2.3744228E+00;  1.5810146E+04;  0.0000000E+00; -5.6845179E+00;  4.0000000E+04;  0.0000000E+00;  3.9179105E+04;  2.7207651E+00;  0.0000000E+00; -3.4634227E-01;  2.0628877E+04;
  1.6010571E+00;  9.9999998E-03;  2.8358886E-01;9204;  8.2584631E-01;  0.0000000E+00; -1.1253004E-01;  9.8771625E+02;  1.5328550E-01; -1.0030783E+04;3;  6.6171112E+01;  0.0000000E+00; -2.8146988E+01;0;  1.4879267E+00;  1.6987318E+04;  0.0000000E+00;  8.6838808E+00;  4.0000000E+04;  0.0000000E+00;  3.9078160E+04;  1.8256828E+00;  0.0000000E+00; -3.3775604E-01;  1.8478818E+04;
  1.6019698E+00;  9.9999998E-03;  2.7346340E-01;9203;  8.3947271E-01;  0.0000000E+00; -1.0922913E-01;  9.8701709E+02;  1.5315363E-01; -1.0599646E+04;3;  1.2816766E+01;  0.0000000E+00; -3.3570797E+01;0;  1.7923816E+00;  1.6984299E+04;  0.0000000E+00; -2.0398405E+00;  4.0000000E+04;  0.0000000E+00;  3.9096211E+04;  2.1328199E+00;  0.0000000E+00; -3.4043828E-01;  1.7595963E+04;
  1.6031400E+00;  9.9999998E-03;  2.6332074E-01;9202;  8.7137830E-01;  0.0000000E+00; -1.0310038E-01;  9.8580872E+02;  1.5300611E-01; -1.1583256E+04;3; -1.0885320E+02;  0.0000000E+00; -1.2198294E+01;0;  2.1631210E+00;  1.6971312E+04;  0.0000000E+00; -3.1535416E+00;  4.0000000E+04;  0.0000000E+00;  3.9118906E+04;  2.4831605E+00;  0.0000000E+00; -3.2003960E-01;  2.3452061E+04;
  1.6044477E+00;  9.9999998E-03;  2.5316402E-01;9201;  9.2413068E-01;  0.0000000E+00; -1.0112868E-01;  9.8524438E+02;  1.5280072E-01; -1.2040406E+04;3; -1.2892879E+02;  0.0000000E+00; -1.1280022E+01;0;  2.4770269E+00;  1.6997949E+04;  0.0000000E+00; -2.0105882E+00;  4.0000000E+04;  0.0000000E+00;  3.9135688E+04;  2.8293843E+00;  0.0000000E+00; -3.5235745E-01;  2.7978900E+04;
  1.6056283E+00;  9.9999998E-03;  2.4299468E-01;9200;  9.7375911E-01;  0.0000000E+00; -9.8041318E-02;  9.8609564E+02;  1.5256862E-01; -1.1342770E+04;3; -1.2499737E+02;  0.0000000E+00; -1.4250997E+01;0;  2.7399046E+00;  1.7077959E+04;  0.0000000E+00;  8.4854931E-01;  4.0000000E+04;  0.0000000E+00;  3.9138895E+04;  3.1019197E+00;  0.0000000E+00; -3.6201492E-01;  3.1708312E+04;
  1.6146538E+00;  9.9999998E-03;  2.8378776E-01;9261;  8.2702458E-01;  0.0000000E+00; -9.2385910E-02;  9.8990295E+02;  1.4809918E-01; -8.2189277E+03;3; -3.8421604E+01;  0.0000000E+00; -1.1139063E+01;0;  1.8593822E+00;  1.8300887E+04;  0.0000000E+00;  1.3379229E+01;  4.0000000E+04;  0.0000000E+00;  3.8998785E+04;  2.0294650E+00;  0.0000000E+00; -1.7008287E-01;  1.4176271E+04;
  1.6157149E+00;  9.9999998E-03;  2.7365994E-01;9260;  8.7073469E-01;  0.0000000E+00; -9.0722203E-02;  9.8861407E+02;  1.4796214E-01; -9.2655264E+03;3; -1.4030794E+02;  0.0000000E+00; -2.4625611E+00;0;  2.2173350E+00;  1.8284254E+04;  0.0000000E+00;  3.5138516E+00;  4.0000000E+04;  0.0000000E+00;  3.9026855E+04;  2.4512079E+00;  0.0000000E+00; -2.3387289E-01;  1.8612729E+04;
  1.6169189E+00;  9.9999998E-03;  2.6351374E-01;9259;  9.2960417E-01;  0.0000000E+00; -9.0253353E-02;  9.8685260E+02;  1.4783469E-01; -1.0695584E+04;3; -1.4854549E+02;  0.0000000E+00; -6.2221851E+00;0;  2.5433302E+00;  1.8244828E+04;  0.0000000E+00;  2.7170091E+00;  4.0000000E+04;  0.0000000E+00;  3.9057918E+04;  2.8539457E+00;  0.0000000E+00; -3.1061545E-01;  2.8911633E+04;
  1.6182245E+00;  9.9999998E-03;  2.5335267E-01;9258;  9.8425239E-01;  0.0000000E+00; -8.7756872E-02;  9.8561292E+02;  1.4767124E-01; -1.1699959E+04;3; -1.3987669E+02;  0.0000000E+00; -1.0710266E+01;0;  2.8147583E+00;  1.8239908E+04;  0.0000000E+00;  4.3852301E+00;  4.0000000E+04;  0.0000000E+00;  3.9081672E+04;  3.1637535E+00;  0.0000000E+00; -3.4899524E-01;  3.6707387E+04;
  1.6194297E+00;  9.9999998E-03;  2.4317829E-01;9257;  1.0347509E+00;  0.0000000E+00; -8.3718695E-02;  9.8583704E+02;  1.4748038E-01; -1.1513913E+04;3; -1.3237433E+02;  0.0000000E+00; -1.4041665E+01;0;  3.0273776E+00;  1.8296748E+04;  0.0000000E+00;  7.2308230E+00;  4.0000000E+04;  0.0000000E+00;  3.9090297E+04;  3.3883817E+00;  0.0000000E+00; -3.6100408E-01;  4.2120332E+04;
  1.6280115E+00;  9.9999998E-03;  2.8400007E-01;9318;  8.7160450E-01;  0.0000000E+00; -8.0072157E-02;  9.9219592E+02;  1.4361778E-01; -6.3284858E+03;3; -1.7438762E+02;  0.0000000E+00;  4.1394138E+00;0;  2.1630423E+00;  1.9576107E+04;  0.0000000E+00;  1.4999153E+01;  4.0000000E+04;  0.0000000E+00;  3.8919215E+04;  2.3002386E+00;  0.0000000E+00; -1.3719627E-01;  5.1342085E+03;
  1.6290302E+00;  9.9999998E-03;  2.7387911E-01;9317;  9.3024606E-01;  0.0000000E+00; -7.8686319E-02;  9.9102625E+02;  1.4349647E-01; -7.2746812E+03;3; -1.7088422E+02;  0.0000000E+00; -4.1278610E-01;0;  2.5469182E+00;  1.9566057E+04;  0.0000000E+00;  6.0280366E+00;  4.0000000E+04;  0.0000000E+00;  3.8946742E+04;  2.7546651E+00;  0.0000000E+00; -2.0774698E-01;  1.2485886E+04;
  1.6302046E+00;  9.9999998E-03;  2.6373589E-01;9316;  9.8931891E-01;  0.0000000E+00; -7.6809429E-02;  9.8881213E+02;  1.4339128E-01; -9.0661543E+03;3; -1.5796742E+02;  0.0000000E+00; -6.0971146E+00;0;  2.8531578E+00;  1.9502461E+04;  0.0000000E+00;  6.6564007E+00;  4.0000000E+04;  0.0000000E+00;  3.8981223E+04;  3.1266801E+00;  0.0000000E+00; -2.7352238E-01;  2.9030172E+04;
  1.6315136E+00;  9.9999998E-03;  2.5357479E-01;9315;  1.0430462E+00;  0.0000000E+00; -7.3865794E-02;  9.8664716E+02;  1.4326836E-01; -1.0816011E+04;3; -1.4714626E+02;  0.0000000E+00; -1.0369835E+01;0;  3.0747914E+00;  1.9451863E+04;  0.0000000E+00;  9.2701550E+00;  4.0000000E+04;  0.0000000E+00;  3.9011938E+04;  3.3947315E+00;  0.0000000E+00; -3.1994012E-01;  4.0824316E+04;
  1.6327457E+00;  9.9999998E-03;  2.4339889E-01;9314;  1.0909972E+00;  0.0000000E+00; -7.0123896E-02;  9.8590564E+02;  1.4311855E-01; -1.1411987E+04;3; -1.3800391E+02;  0.0000000E+00; -1.3718157E+01;0;  3.2203650E+00;  1.9466875E+04;  0.0000000E+00;  1.2489524E+01;  4.0000000E+04;  0.0000000E+00;  3.9027684E+04;  3.5668690E+00;  0.0000000E+00; -3.4650409E-01;  4.8642094E+04;
  1.6421356E+00;  9.9999998E-03;  2.7411565E-01;9373;  9.9351424E-01;  0.0000000E+00; -6.7978352E-02;  9.9340369E+02;  1.3965276E-01; -5.3231763E+03;3; -1.7821786E+02;  0.0000000E+00; -1.9685540E+00;0;  2.7804070E+00;  2.0792395E+04;  0.0000000E+00;  5.9688373E+00;  4.0000000E+04;  0.0000000E+00;  3.8862211E+04;  2.9723597E+00;  0.0000000E+00; -1.9195281E-01;  1.4118875E+03;
  1.6431404E+00;  9.9999998E-03;  2.6398355E-01;9372;  1.0460150E+00;  0.0000000E+00; -6.5272674E-02;  9.9151367E+02;  1.3956863E-01; -6.8457695E+03;3; -1.6375089E+02;  0.0000000E+00; -5.9658003E+00;0;  3.0375130E+00;  2.0736242E+04;  0.0000000E+00;  6.9866157E+00;  4.0000000E+04;  0.0000000E+00;  3.8892602E+04;  3.2859037E+00;  0.0000000E+00; -2.4839076E-01;  2.1294504E+04;
  1.6443784E+00;  9.9999998E-03;  2.5382715E-01;9371;  1.0960445E+00;  0.0000000E+00; -6.2561363E-02;  9.8863354E+02;  1.3948365E-01; -9.1646982E+03;3; -1.5135637E+02;  0.0000000E+00; -1.0175526E+01;0;  3.2051010E+00;  2.0641838E+04;  0.0000000E+00;  1.2017523E+01;  4.0000000E+04;  0.0000000E+00;  3.8928133E+04;  3.5088766E+00;  0.0000000E+00; -3.0377552E-01;  3.9418172E+04;
  1.6456121E+00;  9.9999998E-03;  2.4365379E-01;9370;  1.1411570E+00;  0.0000000E+00; -5.8811832E-02;  9.8672736E+02;  1.3937816E-01; -1.0696474E+04;3; -1.3863445E+02;  0.0000000E+00; -1.2503153E+01;0;  3.3014586E+00;  2.0599400E+04;  0.0000000E+00;  1.6455610E+01;  4.0000000E+04;  0.0000000E+00;  3.8951152E+04;  3.6373284E+00;  0.0000000E+00; -3.3586973E-01;  5.1027398E+04;
  1.6550484E+00;  9.9999998E-03;  2.7436498E-01;9428;  1.0548886E+00;  0.0000000E+00; -5.8229592E-02;  9.9543311E+02;  1.3635188E-01; -3.6657957E+03;3; -1.8094112E+02;  0.0000000E+00; -3.7176204E+00;0;  2.9058540E+00;  2.1939090E+04;  0.0000000E+00;  9.6081324E+00;  4.0000000E+04;  0.0000000E+00;  3.8776797E+04;  3.0867167E+00;  0.0000000E+00; -1.8086271E-01;  4.1089092E+03;
  1.6558900E+00;  9.9999998E-03;  2.6424873E-01;9427;  1.1010971E+00;  0.0000000E+00; -5.4676153E-02;  9.9435956E+02;  1.3628505E-01; -4.5257803E+03;3; -1.6587589E+02;  0.0000000E+00; -5.9394579E+00;0;  3.1194530E+00;  2.1915971E+04;  0.0000000E+00;  3.8367193E+00;  4.0000000E+04;  0.0000000E+00;  3.8800266E+04;  3.3426137E+00;  0.0000000E+00; -2.2316068E-01;  7.2103599E+03;
  1.6569451E+00;  9.9999998E-03;  2.5410527E-01;9426;  1.1458597E+00;  0.0000000E+00; -5.1161129E-02;  9.9149335E+02;  1.3622770E-01; -6.8222539E+03;3; -1.5083913E+02;  0.0000000E+00; -8.5295439E+00;0;  3.2526820E+00;  2.1808947E+04;  0.0000000E+00;  1.0851757E+01;  4.0000000E+04;  0.0000000E+00;  3.8832625E+04;  3.5213532E+00;  0.0000000E+00; -2.6867130E-01;  3.0601518E+04;
  1.6581229E+00;  9.9999998E-03;  2.4394083E-01;9425;  1.1877016E+00;  0.0000000E+00; -4.7733601E-02;  9.8850366E+02;  1.3616112E-01; -9.2148994E+03;3; -1.3773999E+02;  0.0000000E+00; -1.1259042E+01;0;  3.3080182E+00;  2.1706355E+04;  0.0000000E+00;  1.7833414E+01;  4.0000000E+04;  0.0000000E+00;  3.8859762E+04;  3.6173360E+00;  0.0000000E+00; -3.0931786E-01;  4.7602664E+04;
  1.6685330E+00;  9.9999998E-03;  2.6452625E-01;9481;  1.1547534E+00;  0.0000000E+00; -4.5260958E-02;  9.9660736E+02;  1.3347003E-01; -2.7050930E+03;3; -1.6400838E+02;  0.0000000E+00; -7.1153779E+00;0;  3.1142800E+00;  2.3001961E+04;  0.0000000E+00;  3.4397097E+00;  4.0000000E+04;  0.0000000E+00;  3.8706527E+04;  3.3170979E+00;  0.0000000E+00; -2.0281787E-01;  3.6793201E+03;
  1.6693485E+00;  9.9999998E-03;  2.5440308E-01;9480;  1.1924627E+00;  0.0000000E+00; -4.1775417E-02;  9.9471466E+02;  1.3342874E-01; -4.2123413E+03;3; -1.4870749E+02;  0.0000000E+00; -8.4815483E+00;0;  3.2005153E+00;  2.2931465E+04;  0.0000000E+00;  5.3288660E+00;  4.0000000E+04;  0.0000000E+00;  3.8729020E+04;  3.4463372E+00;  0.0000000E+00; -2.4582185E-01;  1.4964443E+04;
  1.6703702E+00;  9.9999998E-03;  2.4425395E-01;9479;  1.2289256E+00;  0.0000000E+00; -3.8877275E-02;  9.9135736E+02;  1.3339230E-01; -6.8841875E+03;3; -1.3498906E+02;  0.0000000E+00; -1.0336073E+01;0;  3.2182348E+00;  2.2796545E+04;  0.0000000E+00;  1.5241112E+01;  4.0000000E+04;  0.0000000E+00;  3.8754887E+04;  3.5115581E+00;  0.0000000E+00; -2.9332325E-01;  3.7430496E+04;
  1.6809585E+00;  9.9999998E-03;  2.6481381E-01;9534;  1.2035584E+00;  0.0000000E+00; -3.7109226E-02;  9.9868036E+02;  1.3106532E-01; -1.0445487E+03;3; -1.6007216E+02;  0.0000000E+00; -6.9669809E+00;0;  3.0243511E+00;  2.4004615E+04;  0.0000000E+00;  1.5334219E+01;  4.0000000E+04;  0.0000000E+00;  3.8608199E+04;  3.2149382E+00;  0.0000000E+00; -1.9058704E-01;  2.9116252E+03;
  1.6817048E+00;  9.9999998E-03;  2.5471047E-01;9533;  1.2375628E+00;  0.0000000E+00; -3.3454295E-02;  9.9740491E+02;  1.3103430E-01; -2.0531091E+03;3; -1.4439790E+02;  0.0000000E+00; -8.5297613E+00;0;  3.0863583E+00;  2.3962086E+04;  0.0000000E+00;  6.1892337E-01;  4.0000000E+04;  0.0000000E+00;  3.8625000E+04;  3.3128834E+00;  0.0000000E+00; -2.2652499E-01;  1.1771483E+03;
  1.6824900E+00;  9.9999998E-03;  2.4458274E-01;9532;  1.2675834E+00;  0.0000000E+00; -3.0302560E-02;  9.9481097E+02;  1.3101168E-01; -4.1032388E+03;3; -1.2907803E+02;  0.0000000E+00; -9.2019348E+00;0;  3.0775347E+00;  2.3852980E+04;  0.0000000E+00;  7.5737848E+00;  4.0000000E+04;  0.0000000E+00;  3.8642477E+04;  3.3453808E+00;  0.0000000E+00; -2.6784608E-01;  2.0610207E+04;
  1.6939534E+00;  9.9999998E-03;  2.5502333E-01;9585;  1.2793530E+00;  0.0000000E+00; -2.5976520E-02;  9.9944275E+02;  1.2899266E-01; -4.3712326E+02;3; -1.3778056E+02;  0.0000000E+00; -9.0909176E+00;0;  2.9272962E+00;  2.4888828E+04;  0.0000000E+00;  9.4025269E+00;  4.0000000E+04;  0.0000000E+00;  3.8517500E+04;  3.1364255E+00;  0.0000000E+00; -2.0912939E-01;  2.5724380E+03;
  1.6946013E+00;  9.9999998E-03;  2.4491824E-01;9584;  1.3046880E+00;  0.0000000E+00; -2.2508070E-02;  9.9786816E+02;  1.2897591E-01; -1.6714625E+03;3; -1.2275116E+02;  0.0000000E+00; -1.0172006E+01;0;  2.9014015E+00;  2.4826447E+04;  0.0000000E+00; -8.2479072E-01;  4.0000000E+04;  0.0000000E+00;  3.8527234E+04;  3.1423488E+00;  0.0000000E+00; -2.4094717E-01;  3.3501350E+03;
  1.7066875E+00;  9.9999998E-03;  2.4525170E-01;9634;  1.3398126E+00;  0.0000000E+00; -1.5110412E-02;  9.9998877E+02;  1.2724619E-01; -8.6994677E+00;3; -1.1511089E+02;  0.0000000E+00; -1.1515277E+01;0;  2.7141616E+00;  2.5683664E+04;  0.0000000E+00;  4.8086882E+00;  4.0000000E+04;  0.0000000E+00;  3.8410801E+04;  2.9239013E+00;  0.0000000E+00; -2.0973979E-01;  2.5137090E+03;
