TimeStep;Np;Nbound;Nfixed;Nmoving;Nfloat;Nfluid
0.120011;10047;2448;2448;0;0;7599

Pos.x;Pos.y;Pos.z;Idp;Vel.x;Vel.y;Vel.z;Rhop;Mass;Press;Type;Acec.x;Acec.y;Acec.z;CellOffSpring;GradVel;Qfxx;Qfxy;Qfxz;Qfyy;Qfyz;Qfzz;StrainDot.x;StrainDot.y;StrainDot.z;VonMises3D;
 -1.9000000E-01;  9.9999998E-03; -4.4999999E-01;89;  0.0000000E+00;  0.0000000E+00;  0.0000000E+00;  1.0000000E+03;  1.0000000E-01;  0.0000000E+00;0;  0.0000000E+00;  0.0000000E+00;  0.0000000E+00;0;  0.0000000E+00;  4.0000000E+04;  0.0000000E+00;  0.0000000E+00;  4.0000000E+04;  0.0000000E+00;  4.0000000E+04;  0.0000000E+00;  0.0000000E+00;  0.0000000E+00;  0.0000000E+00;
 -1.8000001E-01;  9.9999998E-03; -4.4999999E-01;180;  0.0000000E+00;  0.0000000E+00;  0.0000000E+00;  1.0000000E+03;  1.0000000E-01;  0.0000000E+00;0;  0.0000000E+00;  0.0000000E+00;  0.0000000E+00;0;  0.0000000E+00;  4.0000000E+04;  0.0000000E+00;  0.0000000E+00;  4.0000000E+04;  0.0000000E+00;  4.0000000E+04;  0.0000000E+00;  0.0000000E+00;  0.0000000E+00;  0.0000000E+00;
 -1.7000000E-01;  9.9999998E-03; -4.4999999E-01;271;  0.0000000E+00;  0.0000000E+00;  0.0000000E+00;  1.0000000E+03;  1.0000000E-01;  0.0000000E+00;0;  0.0000000E+00;  0.0000000E+00;  0.0000000E+00;0;  0.0000000E+00;  4.0000000E+04;  0.0000000E+00;  0.0000000E+00;  4.0000000E+04;  0.0000000E+00;  4.0000000E+04;  0.0000000E+00;  0.0000000E+00;  0.0000000E+00;  0.0000000E+00;
 -1.6000000E-01;  9.9999998E-03; -4.4999999E-01;362;  0.0000000E+00;  0.0000000E+00;  0.0000000E+00;  1.0000000E+03;  1.0000000E-01;  0.0000000E+00;0;  0.0000000E+00;  0.0000000E+00;  0.0000000E+00;0;  0.0000000E+00;  4.0000000E+04;  0.0000000E+00;  0.0000000E+00;  4.0000000E+04;  0.0000000E+00;  4.0000000E+04;  0.0000000E+00;  0.0000000E+00;  0.0000000E+00;  0.0000000E+00;
 -1.5000001E-01;  9.9999998E-03; -4.4999999E-01;453;  0.0000000E+00;  0.0000000E+00;  0.0000000E+00;  1.0000000E+03;  1.0000000E-01;  0.0000000E+00;0;  0.0000000E+00;  0.0000000E+00;  0.0000000E+00;0;  0.0000000E+00;  4.0000000E+04;  0.0000000E+00;  0.0000000E+00;  4.0000000E+04;  0.0000000E+00;  4.0000000E+04;  0.0000000E+00;  0.0000000E+00;  0.0000000E+00;  0.0000000E+00;
 -1.4000000E-01;  9.9999998E-03; -4.4999999E-01;544;  0.0000000E+00;  0.0000000E+00;  0.0000000E+00;  1.0000000E+03;  1.0000000E-01;  0.0000000E+00;0;  0.0000000E+00;  0.0000000E+00;  0.0000000E+00;0;  0.0000000E+00;  4.0000000E+04;  0.0000000E+00;  0.0000000E+00;  4.0000000E+04;  0.0000000E+00;  4.0000000E+04;  0.0000000E+00;  0.0000000E+00;  0.0000000E+00;  0.0000000E+00;
 -1.3000000E-01;  9.9999998E-03; -4.4999999E-01;635;  0.0000000E+00;  0.0000000E+00;  0.0000000E+00;  1.0000000E+03;  1.0000000E-01;  0.0000000E+00;0;  0.0000000E+00;  0.0000000E+00;  0.0000000E+00;0;  0.0000000E+00;  4.0000000E+04;  0.0000000E+00;  0.0000000E+00;  4.0000000E+04;  0.0000000E+00;  4.0000000E+04;  0.0000000E+00;  0.0000000E+00;  0.0000000E+00;  0.0000000E+00;
 -1.2000000E-01;  9.9999998E-03; -4.4999999E-01;726;  0.0000000E+00;  0.0000000E+00;  0.0000000E+00;  1.0000000E+03;  1.0000000E-01;  0.0000000E+00;0;  0.0000000E+00;  0.0000000E+00;  0.0000000E+00;0;  0.0000000E+00;  4.0000000E+04;  0.0000000E+00;  0.0000000E+00;  4.0000000E+04;  0.0000000E+00;  4.0000000E+04;  0.0000000E+00;  0.0000000E+00;  0.0000000E+00;  0.0000000E+00;
 -1.1000000E-01;  9.9999998E-03; -4.4999999E-01;817;  0.0000000E+00;  0.0000000E+00;  0.0000000E+00;  1.0000000E+03;  1.0000000E-01;  0.0000000E+00;0;  0.0000000E+00;  0.0000000E+00;  0.0000000E+00;0;  0.0000000E+00;  4.0000000E+04;  0.0000000E+00;  0.0000000E+00;  4.0000000E+04;  0.0000000E+00;  4.0000000E+04;  0.0000000E+00;  0.0000000E+00;  0.0000000E+00;  0.0000000E+00;
 -1.0000000E-01;  9.9999998E-03; -4.4999999E-01;908;  0.0000000E+00;  0.0000000E+00;  0.0000000E+00;  1.0000000E+03;  1.0000000E-01;  0.0000000E+00;0;  0.0000000E+00;  0.0000000E+00;  0.0000000E+00;0;  0.0000000E+00;  4.0000000E+04;  0.0000000E+00;  0.0000000E+00;  4.0000000E+04;  0.0000000E+00;  4.0000000E+04;  0.0000000E+00;  0.0000000E+00;  0.0000000E+00;  0.0000000E+00;
 -9.0000004E-02;  9.9999998E-03; -4.4999999E-01;999;  0.0000000E+00;  0.0000000E+00;  0.0000000E+00;  1.0000000E+03;  1.0000000E-01;  0.0000000E+00;0;  0.0000000E+00;  0.0000000E+00;  0.0000000E+00;0;  0.0000000E+00;  4.0000000E+04;  0.0000000E+00;  0.0000000E+00;  4.0000000E+04;  0.0000000E+00;  4.0000000E+04;  0.0000000E+00;  0.0000000E+00;  0.0000000E+00;  0.0000000E+00;
 -7.9999998E-02;  9.9999998E-03; -4.4999999E-01;1090;  0.0000000E+00;  0.0000000E+00;  0.0000000E+00;  1.0000000E+03;  1.0000000E-01;  0.0000000E+00;0;  0.0000000E+00;  0.0000000E+00;  0.0000000E+00;0;  0.0000000E+00;  4.0000000E+04;  0.0000000E+00;  0.0000000E+00;  4.0000000E+04;  0.0000000E+00;  4.0000000E+04;  0.0000000E+00;  0.0000000E+00;  0.0000000E+00;  0.0000000E+00;
 -7.0000000E-02;  9.9999998E-03; -4.4999999E-01;1181;  0.0000000E+00;  0.0000000E+00;  0.0000000E+00;  1.0000000E+03;  1.0000000E-01;  0.0000000E+00;0;  0.0000000E+00;  0.0000000E+00;  0.0000000E+00;0;  0.0000000E+00;  4.0000000E+04;  0.0000000E+00;  0.0000000E+00;  4.0000000E+04;  0.0000000E+00;  4.0000000E+04;  0.0000000E+00;  0.0000000E+00;  0.0000000E+00;  8.6648275E-12;
 -5.9999999E-02;  9.9999998E-03; -4.4999999E-01;1272;  0.0000000E+00;  0.0000000E+00;  0.0000000E+00;  1.0000000E+03;  1.0000000E-01;  0.0000000E+00;0;  0.0000000E+00;  0.0000000E+00;  0.0000000E+00;0; -7.0504740E-08;  4.0000000E+04;  0.0000000E+00;  0.0000000E+00;  4.0000000E+04;  0.0000000E+00;  4.0000000E+04; -2.5418666E-08;  0.0000000E+00; -4.5086075E-08;  7.6800205E-02;
 -5.0000001E-02;  9.9999998E-03; -4.4999999E-01;1363;  0.0000000E+00;  0.0000000E+00;  0.0000000E+00;  1.0000000E+03;  1.0000000E-01;  0.0000000E+00;0;  0.0000000E+00;  0.0000000E+00;  0.0000000E+00;0; -6.5964139E-07;  4.0000000E+04;  0.0000000E+00;  0.0000000E+00;  4.0000000E+04;  0.0000000E+00;  4.0000000E+04; -2.1817391E-07;  0.0000000E+00; -4.4146751E-07;  6.7452288E-01;
 -3.9999999E-02;  9.9999998E-03; -4.4999999E-01;1454;  0.0000000E+00;  0.0000000E+00;  0.0000000E+00;  1.0000000E+03;  1.0000000E-01;  0.0000000E+00;0;  0.0000000E+00;  0.0000000E+00;  0.0000000E+00;0; -2.4886058E-06;  4.0000000E+04;  0.0000000E+00;  0.0000000E+00;  4.0000000E+04;  0.0000000E+00;  4.0000000E+04; -7.5030977E-07;  0.0000000E+00; -1.7382960E-06;  2.4671743E+00;
 -2.9999999E-02;  9.9999998E-03; -4.4999999E-01;1545;  0.0000000E+00;  0.0000000E+00;  0.0000000E+00;  1.0000000E+03;  1.0000000E-01;  0.0000000E+00;0;  0.0000000E+00;  0.0000000E+00;  0.0000000E+00;0; -6.2167160E-06;  4.0000000E+04;  0.0000000E+00;  0.0000000E+00;  4.0000000E+04;  0.0000000E+00;  4.0000000E+04; -1.7010112E-06;  0.0000000E+00; -4.5157049E-06;  5.9790401E+00;
 -2.0000000E-02;  9.9999998E-03; -4.4999999E-01;1636;  0.0000000E+00;  0.0000000E+00;  0.0000000E+00;  1.0000000E+03;  1.0000000E-01;  0.0000000E+00;0;  0.0000000E+00;  0.0000000E+00;  0.0000000E+00;0; -1.2145023E-05;  4.0000000E+04;  0.0000000E+00;  0.0000000E+00;  4.0000000E+04;  0.0000000E+00;  4.0000000E+04; -2.9959301E-06;  0.0000000E+00; -9.1490929E-06;  1.1260325E+01;
 -9.9999998E-03;  9.9999998E-03; -4.4999999E-01;1727;  0.0000000E+00;  0.0000000E+00;  0.0000000E+00;  1.0000000E+03;  1.0000000E-01;  0.0000000E+00;0;  0.0000000E+00;  0.0000000E+00;  0.0000000E+00;0; -2.0101785E-05;  4.0000000E+04;  0.0000000E+00;  0.0000000E+00;  4.0000000E+04;  0.0000000E+00;  4.0000000E+04; -4.4281092E-06;  0.0000000E+00; -1.5673675E-05;  1.7793846E+01;
  0.0000000E+00;  9.9999998E-03; -4.4999999E-01;1818;  0.0000000E+00;  0.0000000E+00;  0.0000000E+00;  1.0000000E+03;  1.0000000E-01;  0.0000000E+00;0;  0.0000000E+00;  0.0000000E+00;  0.0000000E+00;0; -2.9492596E-05;  4.0000000E+04;  0.0000000E+00;  0.0000000E+00;  4.0000000E+04;  0.0000000E+00;  4.0000000E+04; -5.7319166E-06;  0.0000000E+00; -2.3760680E-05;  2.4635983E+01;
  9.9999998E-03;  9.9999998E-03; -4.4999999E-01;1850;  0.0000000E+00;  0.0000000E+00;  0.0000000E+00;  1.0000000E+03;  1.0000000E-01;  0.0000000E+00;0;  0.0000000E+00;  0.0000000E+00;  0.0000000E+00;0; -3.9471419E-05;  4.0000000E+04;  0.0000000E+00;  0.0000000E+00;  4.0000000E+04;  0.0000000E+00;  4.0000000E+04; -6.6751259E-06;  0.0000000E+00; -3.2796292E-05;  3.0707987E+01;
  2.0000000E-02;  9.9999998E-03; -4.4999999E-01;1880;  0.0000000E+00;  0.0000000E+00;  0.0000000E+00;  1.0000000E+03;  1.0000000E-01;  0.0000000E+00;0;  0.0000000E+00;  0.0000000E+00;  0.0000000E+00;0; -4.9166621E-05;  4.0000000E+04;  0.0000000E+00;  0.0000000E+00;  4.0000000E+04;  0.0000000E+00;  4.0000000E+04; -7.1335317E-06;  0.0000000E+00; -4.2033091E-05;  3.5128677E+01;
  2.9999999E-02;  9.9999998E-03; -4.4999999E-01;1910;  0.0000000E+00;  0.0000000E+00;  0.0000000E+00;  1.0000000E+03;  1.0000000E-01;  0.0000000E+00;0;  0.0000000E+00;  0.0000000E+00;  0.0000000E+00;0; -5.7884066E-05;  4.0000000E+04;  0.0000000E+00;  0.0000000E+00;  4.0000000E+04;  0.0000000E+00;  4.0000000E+04; -7.1218651E-06;  0.0000000E+00; -5.0762203E-05;  3.7486351E+01;
  3.9999999E-02;  9.9999998E-03; -4.4999999E-01;1940;  0.0000000E+00;  0.0000000E+00;  0.0000000E+00;  1.0000000E+03;  1.0000000E-01;  0.0000000E+00;0;  0.0000000E+00;  0.0000000E+00;  0.0000000E+00;0; -6.5216613E-05;  4.0000000E+04;  0.0000000E+00;  0.0000000E+00;  4.0000000E+04;  0.0000000E+00;  4.0000000E+04; -6.7754186E-06;  0.0000000E+00; -5.8441194E-05;  3.7976620E+01;
  5.0000001E-02;  9.9999998E-03; -4.4999999E-01;1970;  0.0000000E+00;  0.0000000E+00;  0.0000000E+00;  1.0000000E+03;  1.0000000E-01;  0.0000000E+00;0;  0.0000000E+00;  0.0000000E+00;  0.0000000E+00;0; -7.1016002E-05;  4.0000000E+04;  0.0000000E+00;  0.0000000E+00;  4.0000000E+04;  0.0000000E+00;  4.0000000E+04; -6.2986755E-06;  0.0000000E+00; -6.4717329E-05;  3.7354469E+01;
  5.9999999E-02;  9.9999998E-03; -4.4999999E-01;2000;  0.0000000E+00;  0.0000000E+00;  0.0000000E+00;  1.0000000E+03;  1.0000000E-01;  0.0000000E+00;0;  0.0000000E+00;  0.0000000E+00;  0.0000000E+00;0; -7.5227574E-05;  4.0000000E+04;  0.0000000E+00;  0.0000000E+00;  4.0000000E+04;  0.0000000E+00;  4.0000000E+04; -5.9152385E-06;  0.0000000E+00; -6.9312337E-05;  3.6688858E+01;
  7.0000000E-02;  9.9999998E-03; -4.4999999E-01;2030;  0.0000000E+00;  0.0000000E+00;  0.0000000E+00;  1.0000000E+03;  1.0000000E-01;  0.0000000E+00;0;  0.0000000E+00;  0.0000000E+00;  0.0000000E+00;0; -7.7708290E-05;  4.0000000E+04;  0.0000000E+00;  0.0000000E+00;  4.0000000E+04;  0.0000000E+00;  4.0000000E+04; -5.8215919E-06;  0.0000000E+00; -7.1886701E-05;  3.7066994E+01;
  7.9999998E-02;  9.9999998E-03; -4.4999999E-01;2060;  0.0000000E+00;  0.0000000E+00;  0.0000000E+00;  1.0000000E+03;  1.0000000E-01;  0.0000000E+00;0;  0.0000000E+00;  0.0000000E+00;  0.0000000E+00;0; -7.8147474E-05;  4.0000000E+04;  0.0000000E+00;  0.0000000E+00;  4.0000000E+04;  0.0000000E+00;  4.0000000E+04; -6.1435994E-06;  0.0000000E+00; -7.2003873E-05;  3.9421898E+01;
  9.0000004E-02;  9.9999998E-03; -4.4999999E-01;2090;  0.0000000E+00;  0.0000000E+00;  0.0000000E+00;  1.0000000E+03;  1.0000000E-01;  0.0000000E+00;0;  0.0000000E+00;  0.0000000E+00;  0.0000000E+00;0; -7.6065604E-05;  4.0000000E+04;  0.0000000E+00;  0.0000000E+00;  4.0000000E+04;  0.0000000E+00;  4.0000000E+04; -6.9829334E-06;  0.0000000E+00; -6.9082671E-05;  4.4506058E+01;
  1.0000000E-01;  9.9999998E-03; -4.4999999E-01;2120;  0.0000000E+00;  0.0000000E+00;  0.0000000E+00;  1.0000000E+03;  1.0000000E-01;  0.0000000E+00;0;  0.0000000E+00;  0.0000000E+00;  0.0000000E+00;0; -7.1096190E-05;  4.0000000E+04;  0.0000000E+00;  0.0000000E+00;  4.0000000E+04;  0.0000000E+00;  4.0000000E+04; -8.4985504E-06;  0.0000000E+00; -6.2597639E-05;  5.3618832E+01;
  1.1000000E-01;  9.9999998E-03; -4.4999999E-01;2150;  0.0000000E+00;  0.0000000E+00;  0.0000000E+00;  1.0000000E+03;  1.0000000E-01;  0.0000000E+00;0;  0.0000000E+00;  0.0000000E+00;  0.0000000E+00;0; -6.3564570E-05;  4.0000000E+04;  0.0000000E+00;  0.0000000E+00;  4.0000000E+04;  0.0000000E+00;  4.0000000E+04; -1.0770029E-05;  0.0000000E+00; -5.2794538E-05;  7.0887177E+01;
  1.2000000E-01;  9.9999998E-03; -4.4999999E-01;2180;  0.0000000E+00;  0.0000000E+00;  0.0000000E+00;  1.0000000E+03;  1.0000000E-01;  0.0000000E+00;0;  0.0000000E+00;  0.0000000E+00;  0.0000000E+00;0; -5.4828713E-05;  4.0000000E+04;  0.0000000E+00;  0.0000000E+00;  4.0000000E+04;  0.0000000E+00;  4.0000000E+04; -1.3688855E-05;  0.0000000E+00; -4.1139858E-05;  1.0582453E+02;
  1.3000000E-01;  9.9999998E-03; -4.4999999E-01;2210;  0.0000000E+00;  0.0000000E+00;  0.0000000E+00;  1.0000000E+03;  1.0000000E-01;  0.0000000E+00;0;  0.0000000E+00;  0.0000000E+00;  0.0000000E+00;0; -4.6746954E-05;  4.0000000E+04;  0.0000000E+00;  0.0000000E+00;  4.0000000E+04;  0.0000000E+00;  4.0000000E+04; -1.7122884E-05;  0.0000000E+00; -2.9624071E-05;  1.7530318E+02;
  1.4000000E-01;  9.9999998E-03; -4.4999999E-01;2240;  0.0000000E+00;  0.0000000E+00;  0.0000000E+00;  1.0000000E+03;  1.0000000E-01;  0.0000000E+00;0;  0.0000000E+00;  0.0000000E+00;  0.0000000E+00;0; -4.0874824E-05;  4.0000000E+04;  0.0000000E+00;  0.0000000E+00;  4.0000000E+04;  0.0000000E+00;  4.0000000E+04; -2.1270416E-05;  0.0000000E+00; -1.9604406E-05;  3.0789709E+02;
  1.5000001E-01;  9.9999998E-03; -4.4999999E-01;2270;  0.0000000E+00;  0.0000000E+00;  0.0000000E+00;  1.0000000E+03;  1.0000000E-01;  0.0000000E+00;0;  0.0000000E+00;  0.0000000E+00;  0.0000000E+00;0; -3.8160364E-05;  4.0000000E+04;  0.0000000E+00;  0.0000000E+00;  4.0000000E+04;  0.0000000E+00;  4.0000000E+04; -2.6815054E-05;  0.0000000E+00; -1.1345310E-05;  5.5281781E+02;
  1.6000000E-01;  9.9999998E-03; -4.4999999E-01;2300;  0.0000000E+00;  0.0000000E+00;  0.0000000E+00;  1.0000000E+03;  1.0000000E-01;  0.0000000E+00;0;  0.0000000E+00;  0.0000000E+00;  0.0000000E+00;0; -3.8950246E-05;  4.0000000E+04;  0.0000000E+00;  0.0000000E+00;  4.0000000E+04;  0.0000000E+00;  4.0000000E+04; -3.4710603E-05;  0.0000000E+00; -4.2396414E-06;  9.9061334E+02;
  1.7000000E-01;  9.9999998E-03; -4.4999999E-01;2330;  0.0000000E+00;  0.0000000E+00;  0.0000000E+00;  1.0000000E+03;  1.0000000E-01;  0.0000000E+00;0;  0.0000000E+00;  0.0000000E+00;  0.0000000E+00;0; -4.3143224E-05;  4.0000000E+04;  0.0000000E+00;  0.0000000E+00;  4.0000000E+04;  0.0000000E+00;  4.0000000E+04; -4.5843070E-05;  0.0000000E+00;  2.6998453E-06;  1.7389506E+03;
  1.8000001E-01;  9.9999998E-03; -4.4999999E-01;2360;  0.0000000E+00;  0.0000000E+00;  0.0000000E+00;  1.0000000E+03;  1.0000000E-01;  0.0000000E+00;0;  0.0000000E+00;  0.0000000E+00;  0.0000000E+00;0; -5.0506558E-05;  4.0000000E+04;  0.0000000E+00;  0.0000000E+00;  4.0000000E+04;  0.0000000E+00;  4.0000000E+04; -6.0589300E-05;  0.0000000E+00;  1.0082743E-05;  2.9417749E+03;
  1.9000000E-01;  9.9999998E-03; -4.4999999E-01;2390;  0.0000000E+00;  0.0000000E+00;  0.0000000E+00;  1.0000000E+03;  1.0000000E-01;  0.0000000E+00;0;  0.0000000E+00;  0.0000000E+00;  0.0000000E+00;0; -6.1519655E-05;  4.0000000E+04;  0.0000000E+00;  0.0000000E+00;  4.0000000E+04;  0.0000000E+00;  4.0000000E+04; -7.8458812E-05;  0.0000000E+00;  1.6939155E-05;  4.7311162E+03;
 -1.9000000E-01;  9.9999998E-03; -4.4000000E-01;90;  0.0000000E+00;  0.0000000E+00;  0.0000000E+00;  1.0000000E+03;  1.0000000E-01;  0.0000000E+00;0;  0.0000000E+00;  0.0000000E+00;  0.0000000E+00;0;  0.0000000E+00;  4.0000000E+04;  0.0000000E+00;  0.0000000E+00;  4.0000000E+04;  0.0000000E+00;  4.0000000E+04;  0.0000000E+00;  0.0000000E+00;  0.0000000E+00;  0.0000000E+00;
 -1.9000000E-01;  9.9999998E-03; -4.3000001E-01;91;  0.0000000E+00;  0.0000000E+00;  0.0000000E+00;  1.0000000E+03;  1.0000000E-01;  0.0000000E+00;0;  0.0000000E+00;  0.0000000E+00;  0.0000000E+00;0;  0.0000000E+00;  4.0000000E+04;  0.0000000E+00;  0.0000000E+00;  4.0000000E+04;  0.0000000E+00;  4.0000000E+04;  0.0000000E+00;  0.0000000E+00;  0.0000000E+00;  0.0000000E+00;
 -1.9000000E-01;  9.9999998E-03; -4.1999999E-01;92;  0.0000000E+00;  0.0000000E+00;  0.0000000E+00;  1.0000000E+03;  1.0000000E-01;  0.0000000E+00;0;  0.0000000E+00;  0.0000000E+00;  0.0000000E+00;0;  0.0000000E+00;  4.0000000E+04;  0.0000000E+00;  0.0000000E+00;  4.0000000E+04;  0.0000000E+00;  4.0000000E+04;  0.0000000E+00;  0.0000000E+00;  0.0000000E+00;  0.0000000E+00;
 -1.9000000E-01;  9.9999998E-03; -4.1000000E-01;93;  0.0000000E+00;  0.0000000E+00;  0.0000000E+00;  1.0000000E+03;  1.0000000E-01;  0.0000000E+00;0;  0.0000000E+00;  0.0000000E+00;  0.0000000E+00;0;  0.0000000E+00;  4.0000000E+04;  0.0000000E+00;  0.0000000E+00;  4.0000000E+04;  0.0000000E+00;  4.0000000E+04;  0.0000000E+00;  0.0000000E+00;  0.0000000E+00;  0.0000000E+00;
 -1.9000000E-01;  9.9999998E-03; -4.0000001E-01;94;  0.0000000E+00;  0.0000000E+00;  0.0000000E+00;  1.0000000E+03;  1.0000000E-01;  0.0000000E+00;0;  0.0000000E+00;  0.0000000E+00;  0.0000000E+00;0;  0.0000000E+00;  4.0000000E+04;  0.0000000E+00;  0.0000000E+00;  4.0000000E+04;  0.0000000E+00;  4.0000000E+04;  0.0000000E+00;  0.0000000E+00;  0.0000000E+00;  0.0000000E+00;
 -1.9000000E-01;  9.9999998E-03; -3.8999999E-01;95;  0.0000000E+00;  0.0000000E+00;  0.0000000E+00;  1.0000000E+03;  1.0000000E-01;  0.0000000E+00;0;  0.0000000E+00;  0.0000000E+00;  0.0000000E+00;0;  0.0000000E+00;  4.0000000E+04;  0.0000000E+00;  0.0000000E+00;  4.0000000E+04;  0.0000000E+00;  4.0000000E+04;  0.0000000E+00;  0.0000000E+00;  0.0000000E+00;  0.0000000E+00;
 -1.9000000E-01;  9.9999998E-03; -3.8000000E-01;96;  0.0000000E+00;  0.0000000E+00;  0.0000000E+00;  1.0000000E+03;  1.0000000E-01;  0.0000000E+00;0;  0.0000000E+00;  0.0000000E+00;  0.0000000E+00;0;  0.0000000E+00;  4.0000000E+04;  0.0000000E+00;  0.0000000E+00;  4.0000000E+04;  0.0000000E+00;  4.0000000E+04;  0.0000000E+00;  0.0000000E+00;  0.0000000E+00;  0.0000000E+00;
 -1.9000000E-01;  9.9999998E-03; -3.7000000E-01;97;  0.0000000E+00;  0.0000000E+00;  0.0000000E+00;  1.0000000E+03;  1.0000000E-01;  0.0000000E+00;0;  0.0000000E+00;  0.0000000E+00;  0.0000000E+00;0;  0.0000000E+00;  4.0000000E+04;  0.0000000E+00;  0.0000000E+00;  4.0000000E+04;  0.0000000E+00;  4.0000000E+04;  0.0000000E+00;  0.0000000E+00;  0.0000000E+00;  0.0000000E+00;
 -1.9000000E-01;  9.9999998E-03; -3.6000001E-01;98;  0.0000000E+00;  0.0000000E+00;  0.0000000E+00;  1.0000000E+03;  1.0000000E-01;  0.0000000E+00;0;  0.0000000E+00;  0.0000000E+00;  0.0000000E+00;0;  0.0000000E+00;  4.0000000E+04;  0.0000000E+00;  0.0000000E+00;  4.0000000E+04;  0.0000000E+00;  4.0000000E+04;  0.0000000E+00;  0.0000000E+00;  0.0000000E+00;  0.0000000E+00;
 -1.9000000E-01;  9.9999998E-03; -3.4999999E-01;99;  0.0000000E+00;  0.0000000E+00;  0.0000000E+00;  1.0000000E+03;  1.0000000E-01;  0.0000000E+00;0;  0.0000000E+00;  0.0000000E+00;  0.0000000E+00;0;  0.0000000E+00;  4.0000000E+04;  0.0000000E+00;  0.0000000E+00;  4.0000000E+04;  0.0000000E+00;  4.0000000E+04;  0.0000000E+00;  0.0000000E+00;  0.0000000E+00;  0.0000000E+00;
 -1.9000000E-01;  9.9999998E-03; -3.4000000E-01;100;  0.0000000E+00;  0.0000000E+00;  0.0000000E+00;  1.0000000E+03;  1.0000000E-01;  0.0000000E+00;0;  0.0000000E+00;  0.0000000E+00;  0.0000000E+00;0;  0.0000000E+00;  4.0000000E+04;  0.0000000E+00;  0.0000000E+00;  4.0000000E+04;  0.0000000E+00;  4.0000000E+04;  0.0000000E+00;  0.0000000E+00;  0.0000000E+00;  0.0000000E+00;
 -1.9000000E-01;  9.9999998E-03; -3.3000001E-01;101;  0.0000000E+00;  0.0000000E+00;  0.0000000E+00;  1.0000000E+03;  1.0000000E-01;  0.0000000E+00;0;  0.0000000E+00;  0.0000000E+00;  0.0000000E+00;0;  0.0000000E+00;  4.0000000E+04;  0.0000000E+00;  0.0000000E+00;  4.0000000E+04;  0.0000000E+00;  4.0000000E+04;  0.0000000E+00;  0.0000000E+00;  0.0000000E+00;  0.0000000E+00;
 -1.9000000E-01;  9.9999998E-03; -3.1999999E-01;102;  0.0000000E+00;  0.0000000E+00;  0.0000000E+00;  1.0000000E+03;  1.0000000E-01;  0.0000000E+00;0;  0.0000000E+00;  0.0000000E+00;  0.0000000E+00;0;  0.0000000E+00;  4.0000000E+04;  0.0000000E+00;  0.0000000E+00;  4.0000000E+04;  0.0000000E+00;  4.0000000E+04;  0.0000000E+00;  0.0000000E+00;  0.0000000E+00;  0.0000000E+00;
 -1.9000000E-01;  9.9999998E-03; -3.1000000E-01;103;  0.0000000E+00;  0.0000000E+00;  0.0000000E+00;  1.0000000E+03;  1.0000000E-01;  0.0000000E+00;0;  0.0000000E+00;  0.0000000E+00;  0.0000000E+00;0;  0.0000000E+00;  4.0000000E+04;  0.0000000E+00;  0.0000000E+00;  4.0000000E+04;  0.0000000E+00;  4.0000000E+04;  0.0000000E+00;  0.0000000E+00;  0.0000000E+00;  0.0000000E+00;
 -1.9000000E-01;  9.9999998E-03; -3.0000001E-01;104;  0.0000000E+00;  0.0000000E+00;  0.0000000E+00;  1.0000000E+03;  1.0000000E-01;  0.0000000E+00;0;  0.0000000E+00;  0.0000000E+00;  0.0000000E+00;0;  0.0000000E+00;  4.0000000E+04;  0.0000000E+00;  0.0000000E+00;  4.0000000E+04;  0.0000000E+00;  4.0000000E+04;  0.0000000E+00;  0.0000000E+00;  0.0000000E+00;  0.0000000E+00;
 -1.9000000E-01;  9.9999998E-03; -2.8999999E-01;105;  0.0000000E+00;  0.0000000E+00;  0.0000000E+00;  1.0000000E+03;  1.0000000E-01;  0.0000000E+00;0;  0.0000000E+00;  0.0000000E+00;  0.0000000E+00;0;  0.0000000E+00;  4.0000000E+04;  0.0000000E+00;  0.0000000E+00;  4.0000000E+04;  0.0000000E+00;  4.0000000E+04;  0.0000000E+00;  0.0000000E+00;  0.0000000E+00;  0.0000000E+00;
 -1.9000000E-01;  9.9999998E-03; -2.8000000E-01;106;  0.0000000E+00;  0.0000000E+00;  0.0000000E+00;  1.0000000E+03;  1.0000000E-01;  0.0000000E+00;0;  0.0000000E+00;  0.0000000E+00;  0.0000000E+00;0;  0.0000000E+00;  4.0000000E+04;  0.0000000E+00;  0.0000000E+00;  4.0000000E+04;  0.0000000E+00;  4.0000000E+04;  0.0000000E+00;  0.0000000E+00;  0.0000000E+00;  0.0000000E+00;
 -1.8000001E-01;  9.9999998E-03; -4.4000000E-01;181;  0.0000000E+00;  0.0000000E+00;  0.0000000E+00;  1.0000000E+03;  1.0000000E-01;  0.0000000E+00;0;  0.0000000E+00;  0.0000000E+00;  0.0000000E+00;0;  0.0000000E+00;  4.0000000E+04;  0.0000000E+00;  0.0000000E+00;  4.0000000E+04;  0.0000000E+00;  4.0000000E+04;  0.0000000E+00;  0.0000000E+00;  0.0000000E+00;  0.0000000E+00;
 -1.8000001E-01;  9.9999998E-03; -4.3000001E-01;182;  0.0000000E+00;  0.0000000E+00;  0.0000000E+00;  1.0000000E+03;  1.0000000E-01;  0.0000000E+00;0;  0.0000000E+00;  0.0000000E+00;  0.0000000E+00;0;  0.0000000E+00;  4.0000000E+04;  0.0000000E+00;  0.0000000E+00;  4.0000000E+04;  0.0000000E+00;  4.0000000E+04;  0.0000000E+00;  0.0000000E+00;  0.0000000E+00;  0.0000000E+00;
 -1.8000001E-01;  9.9999998E-03; -4.1999999E-01;183;  0.0000000E+00;  0.0000000E+00;  0.0000000E+00;  1.0000000E+03;  1.0000000E-01;  0.0000000E+00;0;  0.0000000E+00;  0.0000000E+00;  0.0000000E+00;0;  0.0000000E+00;  4.0000000E+04;  0.0000000E+00;  0.0000000E+00;  4.0000000E+04;  0.0000000E+00;  4.0000000E+04;  0.0000000E+00;  0.0000000E+00;  0.0000000E+00;  0.0000000E+00;
 -1.8000001E-01;  9.9999998E-03; -4.1000000E-01;184;  0.0000000E+00;  0.0000000E+00;  0.0000000E+00;  1.0000000E+03;  1.0000000E-01;  0.0000000E+00;0;  0.0000000E+00;  0.0000000E+00;  0.0000000E+00;0;  0.0000000E+00;  4.0000000E+04;  0.0000000E+00;  0.0000000E+00;  4.0000000E+04;  0.0000000E+00;  4.0000000E+04;  0.0000000E+00;  0.0000000E+00;  0.0000000E+00;  0.0000000E+00;
 -1.8000001E-01;  9.9999998E-03; -4.0000001E-01;185;  0.0000000E+00;  0.0000000E+00;  0.0000000E+00;  1.0000000E+03;  1.0000000E-01;  0.0000000E+00;0;  0.0000000E+00;  0.0000000E+00;  0.0000000E+00;0;  0.0000000E+00;  4.0000000E+04;  0.0000000E+00;  0.0000000E+00;  4.0000000E+04;  0.0000000E+00;  4.0000000E+04;  0.0000000E+00;  0.0000000E+00;  0.0000000E+00;  0.0000000E+00;
 -1.8000001E-01;  9.9999998E-03; -3.8999999E-01;186;  0.0000000E+00;  0.0000000E+00;  0.0000000E+00;  1.0000000E+03;  1.0000000E-01;  0.0000000E+00;0;  0.0000000E+00;  0.0000000E+00;  0.0000000E+00;0;  0.0000000E+00;  4.0000000E+04;  0.0000000E+00;  0.0000000E+00;  4.0000000E+04;  0.0000000E+00;  4.0000000E+04;  0.0000000E+00;  0.0000000E+00;  0.0000000E+00;  0.0000000E+00;
 -1.8000001E-01;  9.9999998E-03; -3.8000000E-01;187;  0.0000000E+00;  0.0000000E+00;  0.0000000E+00;  1.0000000E+03;  1.0000000E-01;  0.0000000E+00;0;  0.0000000E+00;  0.0000000E+00;  0.0000000E+00;0;  0.0000000E+00;  4.0000000E+04;  0.0000000E+00;  0.0000000E+00;  4.0000000E+04;  0.0000000E+00;  4.0000000E+04;  0.0000000E+00;  0.0000000E+00;  0.0000000E+00;  0.0000000E+00;
 -1.8000001E-01;  9.9999998E-03; -3.7000000E-01;188;  0.0000000E+00;  0.0000000E+00;  0.0000000E+00;  1.0000000E+03;  1.0000000E-01;  0.0000000E+00;0;  0.0000000E+00;  0.0000000E+00;  0.0000000E+00;0;  0.0000000E+00;  4.0000000E+04;  0.0000000E+00;  0.0000000E+00;  4.0000000E+04;  0.0000000E+00;  4.0000000E+04;  0.0000000E+00;  0.0000000E+00;  0.0000000E+00;  0.0000000E+00;
 -1.8000001E-01;  9.9999998E-03; -3.6000001E-01;189;  0.0000000E+00;  0.0000000E+00;  0.0000000E+00;  1.0000000E+03;  1.0000000E-01;  0.0000000E+00;0;  0.0000000E+00;  0.0000000E+00;  0.0000000E+00;0;  0.0000000E+00;  4.0000000E+04;  0.0000000E+00;  0.0000000E+00;  4.0000000E+04;  0.0000000E+00;  4.0000000E+04;  0.0000000E+00;  0.0000000E+00;  0.0000000E+00;  0.0000000E+00;
 -1.8000001E-01;  9.9999998E-03; -3.4999999E-01;190;  0.0000000E+00;  0.0000000E+00;  0.0000000E+00;  1.0000000E+03;  1.0000000E-01;  0.0000000E+00;0;  0.0000000E+00;  0.0000000E+00;  0.0000000E+00;0;  0.0000000E+00;  4.0000000E+04;  0.0000000E+00;  0.0000000E+00;  4.0000000E+04;  0.0000000E+00;  4.0000000E+04;  0.0000000E+00;  0.0000000E+00;  0.0000000E+00;  0.0000000E+00;
 -1.8000001E-01;  9.9999998E-03; -3.4000000E-01;191;  0.0000000E+00;  0.0000000E+00;  0.0000000E+00;  1.0000000E+03;  1.0000000E-01;  0.0000000E+00;0;  0.0000000E+00;  0.0000000E+00;  0.0000000E+00;0;  0.0000000E+00;  4.0000000E+04;  0.0000000E+00;  0.0000000E+00;  4.0000000E+04;  0.0000000E+00;  4.0000000E+04;  0.0000000E+00;  0.0000000E+00;  0.0000000E+00;  0.0000000E+00;
 -1.8000001E-01;  9.9999998E-03; -3.3000001E-01;192;  0.0000000E+00;  0.0000000E+00;  0.0000000E+00;  1.0000000E+03;  1.0000000E-01;  0.0000000E+00;0;  0.0000000E+00;  0.0000000E+00;  0.0000000E+00;0;  0.0000000E+00;  4.0000000E+04;  0.0000000E+00;  0.0000000E+00;  4.0000000E+04;  0.0000000E+00;  4.0000000E+04;  0.0000000E+00;  0.0000000E+00;  0.0000000E+00;  0.0000000E+00;
 -1.8000001E-01;  9.9999998E-03; -3.1999999E-01;193;  0.0000000E+00;  0.0000000E+00;  0.0000000E+00;  1.0000000E+03;  1.0000000E-01;  0.0000000E+00;0;  0.0000000E+00;  0.0000000E+00;  0.0000000E+00;0;  0.0000000E+00;  4.0000000E+04;  0.0000000E+00;  0.0000000E+00;  4.0000000E+04;  0.0000000E+00;  4.0000000E+04;  0.0000000E+00;  0.0000000E+00;  0.0000000E+00;  0.0000000E+00;
 -1.8000001E-01;  9.9999998E-03; -3.1000000E-01;194;  0.0000000E+00;  0.0000000E+00;  0.0000000E+00;  1.0000000E+03;  1.0000000E-01;  0.0000000E+00;0;  0.0000000E+00;  0.0000000E+00;  0.0000000E+00;0;  0.0000000E+00;  4.0000000E+04;  0.0000000E+00;  0.0000000E+00;  4.0000000E+04;  0.0000000E+00;  4.0000000E+04;  0.0000000E+00;  0.0000000E+00;  0.0000000E+00;  0.0000000E+00;
 -1.8000001E-01;  9.9999998E-03; -3.0000001E-01;195;  0.0000000E+00;  0.0000000E+00;  0.0000000E+00;  1.0000000E+03;  1.0000000E-01;  0.0000000E+00;0;  0.0000000E+00;  0.0000000E+00;  0.0000000E+00;0;  0.0000000E+00;  4.0000000E+04;  0.0000000E+00;  0.0000000E+00;  4.0000000E+04;  0.0000000E+00;  4.0000000E+04;  0.0000000E+00;  0.0000000E+00;  0.0000000E+00;  0.0000000E+00;
 -1.8000001E-01;  9.9999998E-03; -2.8999999E-01;196;  0.0000000E+00;  0.0000000E+00;  0.0000000E+00;  1.0000000E+03;  1.0000000E-01;  0.0000000E+00;0;  0.0000000E+00;  0.0000000E+00;  0.0000000E+00;0;  0.0000000E+00;  4.0000000E+04;  0.0000000E+00;  0.0000000E+00;  4.0000000E+04;  0.0000000E+00;  4.0000000E+04;  0.0000000E+00;  0.0000000E+00;  0.0000000E+00;  0.0000000E+00;
 -1.8000001E-01;  9.9999998E-03; -2.8000000E-01;197;  0.0000000E+00;  0.0000000E+00;  0.0000000E+00;  1.0000000E+03;  1.0000000E-01;  0.0000000E+00;0;  0.0000000E+00;  0.0000000E+00;  0.0000000E+00;0;  0.0000000E+00;  4.0000000E+04;  0.0000000E+00;  0.0000000E+00;  4.0000000E+04;  0.0000000E+00;  4.0000000E+04;  0.0000000E+00;  0.0000000E+00;  0.0000000E+00;  0.0000000E+00;
 -1.7000000E-01;  9.9999998E-03; -4.4000000E-01;272;  0.0000000E+00;  0.0000000E+00;  0.0000000E+00;  1.0000000E+03;  1.0000000E-01;  0.0000000E+00;0;  0.0000000E+00;  0.0000000E+00;  0.0000000E+00;0;  0.0000000E+00;  4.0000000E+04;  0.0000000E+00;  0.0000000E+00;  4.0000000E+04;  0.0000000E+00;  4.0000000E+04;  0.0000000E+00;  0.0000000E+00;  0.0000000E+00;  0.0000000E+00;
 -1.7000000E-01;  9.9999998E-03; -4.3000001E-01;273;  0.0000000E+00;  0.0000000E+00;  0.0000000E+00;  1.0000000E+03;  1.0000000E-01;  0.0000000E+00;0;  0.0000000E+00;  0.0000000E+00;  0.0000000E+00;0;  0.0000000E+00;  4.0000000E+04;  0.0000000E+00;  0.0000000E+00;  4.0000000E+04;  0.0000000E+00;  4.0000000E+04;  0.0000000E+00;  0.0000000E+00;  0.0000000E+00;  0.0000000E+00;
 -1.7000000E-01;  9.9999998E-03; -4.1999999E-01;274;  0.0000000E+00;  0.0000000E+00;  0.0000000E+00;  1.0000000E+03;  1.0000000E-01;  0.0000000E+00;0;  0.0000000E+00;  0.0000000E+00;  0.0000000E+00;0;  0.0000000E+00;  4.0000000E+04;  0.0000000E+00;  0.0000000E+00;  4.0000000E+04;  0.0000000E+00;  4.0000000E+04;  0.0000000E+00;  0.0000000E+00;  0.0000000E+00;  0.0000000E+00;
 -1.7000000E-01;  9.9999998E-03; -4.1000000E-01;275;  0.0000000E+00;  0.0000000E+00;  0.0000000E+00;  1.0000000E+03;  1.0000000E-01;  0.0000000E+00;0;  0.0000000E+00;  0.0000000E+00;  0.0000000E+00;0;  0.0000000E+00;  4.0000000E+04;  0.0000000E+00;  0.0000000E+00;  4.0000000E+04;  0.0000000E+00;  4.0000000E+04;  0.0000000E+00;  0.0000000E+00;  0.0000000E+00;  0.0000000E+00;
 -1.7000000E-01;  9.9999998E-03; -4.0000001E-01;276;  0.0000000E+00;  0.0000000E+00;  0.0000000E+00;  1.0000000E+03;  1.0000000E-01;  0.0000000E+00;0;  0.0000000E+00;  0.0000000E+00;  0.0000000E+00;0;  0.0000000E+00;  4.0000000E+04;  0.0000000E+00;  0.0000000E+00;  4.0000000E+04;  0.0000000E+00;  4.0000000E+04;  0.0000000E+00;  0.0000000E+00;  0.0000000E+00;  0.0000000E+00;
 -1.7000000E-01;  9.9999998E-03; -3.8999999E-01;277;  0.0000000E+00;  0.0000000E+00;  0.0000000E+00;  1.0000000E+03;  1.0000000E-01;  0.0000000E+00;0;  0.0000000E+00;  0.0000000E+00;  0.0000000E+00;0;  0.0000000E+00;  4.0000000E+04;  0.0000000E+00;  0.0000000E+00;  4.0000000E+04;  0.0000000E+00;  4.0000000E+04;  0.0000000E+00;  0.0000000E+00;  0.0000000E+00;  0.0000000E+00;
 -1.7000000E-01;  9.9999998E-03; -3.8000000E-01;278;  0.0000000E+00;  0.0000000E+00;  0.0000000E+00;  1.0000000E+03;  1.0000000E-01;  0.0000000E+00;0;  0.0000000E+00;  0.0000000E+00;  0.0000000E+00;0;  0.0000000E+00;  4.0000000E+04;  0.0000000E+00;  0.0000000E+00;  4.0000000E+04;  0.0000000E+00;  4.0000000E+04;  0.0000000E+00;  0.0000000E+00;  0.0000000E+00;  0.0000000E+00;
 -1.7000000E-01;  9.9999998E-03; -3.7000000E-01;279;  0.0000000E+00;  0.0000000E+00;  0.0000000E+00;  1.0000000E+03;  1.0000000E-01;  0.0000000E+00;0;  0.0000000E+00;  0.0000000E+00;  0.0000000E+00;0;  0.0000000E+00;  4.0000000E+04;  0.0000000E+00;  0.0000000E+00;  4.0000000E+04;  0.0000000E+00;  4.0000000E+04;  0.0000000E+00;  0.0000000E+00;  0.0000000E+00;  0.0000000E+00;
 -1.7000000E-01;  9.9999998E-03; -3.6000001E-01;280;  0.0000000E+00;  0.0000000E+00;  0.0000000E+00;  1.0000000E+03;  1.0000000E-01;  0.0000000E+00;0;  0.0000000E+00;  0.0000000E+00;  0.0000000E+00;0;  0.0000000E+00;  4.0000000E+04;  0.0000000E+00;  0.0000000E+00;  4.0000000E+04;  0.0000000E+00;  4.0000000E+04;  0.0000000E+00;  0.0000000E+00;  0.0000000E+00;  0.0000000E+00;
 -1.7000000E-01;  9.9999998E-03; -3.4999999E-01;281;  0.0000000E+00;  0.0000000E+00;  0.0000000E+00;  1.0000000E+03;  1.0000000E-01;  0.0000000E+00;0;  0.0000000E+00;  0.0000000E+00;  0.0000000E+00;0;  0.0000000E+00;  4.0000000E+04;  0.0000000E+00;  0.0000000E+00;  4.0000000E+04;  0.0000000E+00;  4.0000000E+04;  0.0000000E+00;  0.0000000E+00;  0.0000000E+00;  0.0000000E+00;
 -1.7000000E-01;  9.9999998E-03; -3.4000000E-01;282;  0.0000000E+00;  0.0000000E+00;  0.0000000E+00;  1.0000000E+03;  1.0000000E-01;  0.0000000E+00;0;  0.0000000E+00;  0.0000000E+00;  0.0000000E+00;0;  0.0000000E+00;  4.0000000E+04;  0.0000000E+00;  0.0000000E+00;  4.0000000E+04;  0.0000000E+00;  4.0000000E+04;  0.0000000E+00;  0.0000000E+00;  0.0000000E+00;  0.0000000E+00;
 -1.7000000E-01;  9.9999998E-03; -3.3000001E-01;283;  0.0000000E+00;  0.0000000E+00;  0.0000000E+00;  1.0000000E+03;  1.0000000E-01;  0.0000000E+00;0;  0.0000000E+00;  0.0000000E+00;  0.0000000E+00;0;  0.0000000E+00;  4.0000000E+04;  0.0000000E+00;  0.0000000E+00;  4.0000000E+04;  0.0000000E+00;  4.0000000E+04;  0.0000000E+00;  0.0000000E+00;  0.0000000E+00;  0.0000000E+00;
 -1.7000000E-01;  9.9999998E-03; -3.1999999E-01;284;  0.0000000E+00;  0.0000000E+00;  0.0000000E+00;  1.0000000E+03;  1.0000000E-01;  0.0000000E+00;0;  0.0000000E+00;  0.0000000E+00;  0.0000000E+00;0;  0.0000000E+00;  4.0000000E+04;  0.0000000E+00;  0.0000000E+00;  4.0000000E+04;  0.0000000E+00;  4.0000000E+04;  0.0000000E+00;  0.0000000E+00;  0.0000000E+00;  0.0000000E+00;
 -1.7000000E-01;  9.9999998E-03; -3.1000000E-01;285;  0.0000000E+00;  0.0000000E+00;  0.0000000E+00;  1.0000000E+03;  1.0000000E-01;  0.0000000E+00;0;  0.0000000E+00;  0.0000000E+00;  0.0000000E+00;0;  0.0000000E+00;  4.0000000E+04;  0.0000000E+00;  0.0000000E+00;  4.0000000E+04;  0.0000000E+00;  4.0000000E+04;  0.0000000E+00;  0.0000000E+00;  0.0000000E+00;  0.0000000E+00;
 -1.7000000E-01;  9.9999998E-03; -3.0000001E-01;286;  0.0000000E+00;  0.0000000E+00;  0.0000000E+00;  1.0000000E+03;  1.0000000E-01;  0.0000000E+00;0;  0.0000000E+00;  0.0000000E+00;  0.0000000E+00;0;  0.0000000E+00;  4.0000000E+04;  0.0000000E+00;  0.0000000E+00;  4.0000000E+04;  0.0000000E+00;  4.0000000E+04;  0.0000000E+00;  0.0000000E+00;  0.0000000E+00;  0.0000000E+00;
 -1.7000000E-01;  9.9999998E-03; -2.8999999E-01;287;  0.0000000E+00;  0.0000000E+00;  0.0000000E+00;  1.0000000E+03;  1.0000000E-01;  0.0000000E+00;0;  0.0000000E+00;  0.0000000E+00;  0.0000000E+00;0;  0.0000000E+00;  4.0000000E+04;  0.0000000E+00;  0.0000000E+00;  4.0000000E+04;  0.0000000E+00;  4.0000000E+04;  0.0000000E+00;  0.0000000E+00;  0.0000000E+00;  6.8926012E-14;
 -1.7000000E-01;  9.9999998E-03; -2.8000000E-01;288;  0.0000000E+00;  0.0000000E+00;  0.0000000E+00;  1.0000000E+03;  1.0000000E-01;  0.0000000E+00;0;  0.0000000E+00;  0.0000000E+00;  0.0000000E+00;0;  0.0000000E+00;  4.0000000E+04;  0.0000000E+00;  0.0000000E+00;  4.0000000E+04;  0.0000000E+00;  4.0000000E+04;  0.0000000E+00;  0.0000000E+00;  0.0000000E+00;  1.4968563E-11;
 -1.6000000E-01;  9.9999998E-03; -4.4000000E-01;363;  0.0000000E+00;  0.0000000E+00;  0.0000000E+00;  1.0000000E+03;  1.0000000E-01;  0.0000000E+00;0;  0.0000000E+00;  0.0000000E+00;  0.0000000E+00;0;  0.0000000E+00;  4.0000000E+04;  0.0000000E+00;  0.0000000E+00;  4.0000000E+04;  0.0000000E+00;  4.0000000E+04;  0.0000000E+00;  0.0000000E+00;  0.0000000E+00;  0.0000000E+00;
 -1.6000000E-01;  9.9999998E-03; -4.3000001E-01;364;  0.0000000E+00;  0.0000000E+00;  0.0000000E+00;  1.0000000E+03;  1.0000000E-01;  0.0000000E+00;0;  0.0000000E+00;  0.0000000E+00;  0.0000000E+00;0;  0.0000000E+00;  4.0000000E+04;  0.0000000E+00;  0.0000000E+00;  4.0000000E+04;  0.0000000E+00;  4.0000000E+04;  0.0000000E+00;  0.0000000E+00;  0.0000000E+00;  0.0000000E+00;
 -1.6000000E-01;  9.9999998E-03; -4.1999999E-01;365;  0.0000000E+00;  0.0000000E+00;  0.0000000E+00;  1.0000000E+03;  1.0000000E-01;  0.0000000E+00;0;  0.0000000E+00;  0.0000000E+00;  0.0000000E+00;0;  0.0000000E+00;  4.0000000E+04;  0.0000000E+00;  0.0000000E+00;  4.0000000E+04;  0.0000000E+00;  4.0000000E+04;  0.0000000E+00;  0.0000000E+00;  0.0000000E+00;  0.0000000E+00;
 -1.6000000E-01;  9.9999998E-03; -4.1000000E-01;366;  0.0000000E+00;  0.0000000E+00;  0.0000000E+00;  1.0000000E+03;  1.0000000E-01;  0.0000000E+00;0;  0.0000000E+00;  0.0000000E+00;  0.0000000E+00;0;  0.0000000E+00;  4.0000000E+04;  0.0000000E+00;  0.0000000E+00;  4.0000000E+04;  0.0000000E+00;  4.0000000E+04;  0.0000000E+00;  0.0000000E+00;  0.0000000E+00;  0.0000000E+00;
 -1.6000000E-01;  9.9999998E-03; -4.0000001E-01;367;  0.0000000E+00;  0.0000000E+00;  0.0000000E+00;  1.0000000E+03;  1.0000000E-01;  0.0000000E+00;0;  0.0000000E+00;  0.0000000E+00;  0.0000000E+00;0;  0.0000000E+00;  4.0000000E+04;  0.0000000E+00;  0.0000000E+00;  4.0000000E+04;  0.0000000E+00;  4.0000000E+04;  0.0000000E+00;  0.0000000E+00;  0.0000000E+00;  0.0000000E+00;
 -1.6000000E-01;  9.9999998E-03; -3.8999999E-01;368;  0.0000000E+00;  0.0000000E+00;  0.0000000E+00;  1.0000000E+03;  1.0000000E-01;  0.0000000E+00;0;  0.0000000E+00;  0.0000000E+00;  0.0000000E+00;0;  0.0000000E+00;  4.0000000E+04;  0.0000000E+00;  0.0000000E+00;  4.0000000E+04;  0.0000000E+00;  4.0000000E+04;  0.0000000E+00;  0.0000000E+00;  0.0000000E+00;  0.0000000E+00;
 -1.6000000E-01;  9.9999998E-03; -3.8000000E-01;369;  0.0000000E+00;  0.0000000E+00;  0.0000000E+00;  1.0000000E+03;  1.0000000E-01;  0.0000000E+00;0;  0.0000000E+00;  0.0000000E+00;  0.0000000E+00;0;  0.0000000E+00;  4.0000000E+04;  0.0000000E+00;  0.0000000E+00;  4.0000000E+04;  0.0000000E+00;  4.0000000E+04;  0.0000000E+00;  0.0000000E+00;  0.0000000E+00;  0.0000000E+00;
 -1.6000000E-01;  9.9999998E-03; -3.7000000E-01;370;  0.0000000E+00;  0.0000000E+00;  0.0000000E+00;  1.0000000E+03;  1.0000000E-01;  0.0000000E+00;0;  0.0000000E+00;  0.0000000E+00;  0.0000000E+00;0;  0.0000000E+00;  4.0000000E+04;  0.0000000E+00;  0.0000000E+00;  4.0000000E+04;  0.0000000E+00;  4.0000000E+04;  0.0000000E+00;  0.0000000E+00;  0.0000000E+00;  0.0000000E+00;
 -1.6000000E-01;  9.9999998E-03; -3.6000001E-01;371;  0.0000000E+00;  0.0000000E+00;  0.0000000E+00;  1.0000000E+03;  1.0000000E-01;  0.0000000E+00;0;  0.0000000E+00;  0.0000000E+00;  0.0000000E+00;0;  0.0000000E+00;  4.0000000E+04;  0.0000000E+00;  0.0000000E+00;  4.0000000E+04;  0.0000000E+00;  4.0000000E+04;  0.0000000E+00;  0.0000000E+00;  0.0000000E+00;  0.0000000E+00;
 -1.6000000E-01;  9.9999998E-03; -3.4999999E-01;372;  0.0000000E+00;  0.0000000E+00;  0.0000000E+00;  1.0000000E+03;  1.0000000E-01;  0.0000000E+00;0;  0.0000000E+00;  0.0000000E+00;  0.0000000E+00;0;  0.0000000E+00;  4.0000000E+04;  0.0000000E+00;  0.0000000E+00;  4.0000000E+04;  0.0000000E+00;  4.0000000E+04;  0.0000000E+00;  0.0000000E+00;  0.0000000E+00;  0.0000000E+00;
 -1.6000000E-01;  9.9999998E-03; -3.4000000E-01;373;  0.0000000E+00;  0.0000000E+00;  0.0000000E+00;  1.0000000E+03;  1.0000000E-01;  0.0000000E+00;0;  0.0000000E+00;  0.0000000E+00;  0.0000000E+00;0; -5.1335283E-09;  4.0000000E+04;  0.0000000E+00;  0.0000000E+00;  4.0000000E+04;  0.0000000E+00;  4.0000000E+04; -4.0922234E-09;  0.0000000E+00; -1.0413049E-09;  1.9831860E-03;
 -1.6000000E-01;  9.9999998E-03; -3.3000001E-01;374;  0.0000000E+00;  0.0000000E+00;  0.0000000E+00;  1.0000000E+03;  1.0000000E-01;  0.0000000E+00;0;  0.0000000E+00;  0.0000000E+00;  0.0000000E+00;0; -8.7997613E-08;  4.0000000E+04;  0.0000000E+00;  0.0000000E+00;  4.0000000E+04;  0.0000000E+00;  4.0000000E+04; -7.3116112E-08;  0.0000000E+00; -1.4881498E-08;  1.9992311E-02;
 -1.6000000E-01;  9.9999998E-03; -3.1999999E-01;375;  0.0000000E+00;  0.0000000E+00;  0.0000000E+00;  1.0000000E+03;  1.0000000E-01;  0.0000000E+00;0;  0.0000000E+00;  0.0000000E+00;  0.0000000E+00;0; -3.3756993E-07;  4.0000000E+04;  0.0000000E+00;  0.0000000E+00;  4.0000000E+04;  0.0000000E+00;  4.0000000E+04; -2.8886464E-07;  0.0000000E+00; -4.8705285E-08;  5.9851199E-02;
 -1.6000000E-01;  9.9999998E-03; -3.1000000E-01;376;  0.0000000E+00;  0.0000000E+00;  0.0000000E+00;  1.0000000E+03;  1.0000000E-01;  0.0000000E+00;0;  0.0000000E+00;  0.0000000E+00;  0.0000000E+00;0; -7.6935834E-07;  4.0000000E+04;  0.0000000E+00;  0.0000000E+00;  4.0000000E+04;  0.0000000E+00;  4.0000000E+04; -6.7722772E-07;  0.0000000E+00; -9.2130627E-08;  1.0669223E-01;
 -1.6000000E-01;  9.9999998E-03; -3.0000001E-01;377;  0.0000000E+00;  0.0000000E+00;  0.0000000E+00;  1.0000000E+03;  1.0000000E-01;  0.0000000E+00;0;  0.0000000E+00;  0.0000000E+00;  0.0000000E+00;0; -1.3078926E-06;  4.0000000E+04;  0.0000000E+00;  0.0000000E+00;  4.0000000E+04;  0.0000000E+00;  4.0000000E+04; -1.1849004E-06;  0.0000000E+00; -1.2299218E-07;  1.3308215E-01;
 -1.6000000E-01;  9.9999998E-03; -2.8999999E-01;378;  0.0000000E+00;  0.0000000E+00;  0.0000000E+00;  1.0000000E+03;  1.0000000E-01;  0.0000000E+00;0;  0.0000000E+00;  0.0000000E+00;  0.0000000E+00;0; -1.8214657E-06;  4.0000000E+04;  0.0000000E+00;  0.0000000E+00;  4.0000000E+04;  0.0000000E+00;  4.0000000E+04; -1.6997109E-06;  0.0000000E+00; -1.2175485E-07;  1.1627477E-01;
 -1.6000000E-01;  9.9999998E-03; -2.8000000E-01;379;  0.0000000E+00;  0.0000000E+00;  0.0000000E+00;  1.0000000E+03;  1.0000000E-01;  0.0000000E+00;0;  0.0000000E+00;  0.0000000E+00;  0.0000000E+00;0; -2.1819142E-06;  4.0000000E+04;  0.0000000E+00;  0.0000000E+00;  4.0000000E+04;  0.0000000E+00;  4.0000000E+04; -2.0972868E-06;  0.0000000E+00; -8.4627395E-08;  5.3318892E-02;
 -1.5000001E-01;  9.9999998E-03; -4.4000000E-01;454;  0.0000000E+00;  0.0000000E+00;  0.0000000E+00;  1.0000000E+03;  1.0000000E-01;  0.0000000E+00;0;  0.0000000E+00;  0.0000000E+00;  0.0000000E+00;0;  0.0000000E+00;  4.0000000E+04;  0.0000000E+00;  0.0000000E+00;  4.0000000E+04;  0.0000000E+00;  4.0000000E+04;  0.0000000E+00;  0.0000000E+00;  0.0000000E+00;  0.0000000E+00;
 -1.5000001E-01;  9.9999998E-03; -4.3000001E-01;455;  0.0000000E+00;  0.0000000E+00;  0.0000000E+00;  1.0000000E+03;  1.0000000E-01;  0.0000000E+00;0;  0.0000000E+00;  0.0000000E+00;  0.0000000E+00;0;  0.0000000E+00;  4.0000000E+04;  0.0000000E+00;  0.0000000E+00;  4.0000000E+04;  0.0000000E+00;  4.0000000E+04;  0.0000000E+00;  0.0000000E+00;  0.0000000E+00;  0.0000000E+00;
 -1.5000001E-01;  9.9999998E-03; -4.1999999E-01;456;  0.0000000E+00;  0.0000000E+00;  0.0000000E+00;  1.0000000E+03;  1.0000000E-01;  0.0000000E+00;0;  0.0000000E+00;  0.0000000E+00;  0.0000000E+00;0;  0.0000000E+00;  4.0000000E+04;  0.0000000E+00;  0.0000000E+00;  4.0000000E+04;  0.0000000E+00;  4.0000000E+04;  0.0000000E+00;  0.0000000E+00;  0.0000000E+00;  0.0000000E+00;
 -1.5000001E-01;  9.9999998E-03; -4.1000000E-01;457;  0.0000000E+00;  0.0000000E+00;  0.0000000E+00;  1.0000000E+03;  1.0000000E-01;  0.0000000E+00;0;  0.0000000E+00;  0.0000000E+00;  0.0000000E+00;0;  0.0000000E+00;  4.0000000E+04;  0.0000000E+00;  0.0000000E+00;  4.0000000E+04;  0.0000000E+00;  4.0000000E+04;  0.0000000E+00;  0.0000000E+00;  0.0000000E+00;  0.0000000E+00;
 -1.5000001E-01;  9.9999998E-03; -4.0000001E-01;458;  0.0000000E+00;  0.0000000E+00;  0.0000000E+00;  1.0000000E+03;  1.0000000E-01;  0.0000000E+00;0;  0.0000000E+00;  0.0000000E+00;  0.0000000E+00;0;  0.0000000E+00;  4.0000000E+04;  0.0000000E+00;  0.0000000E+00;  4.0000000E+04;  0.0000000E+00;  4.0000000E+04;  0.0000000E+00;  0.0000000E+00;  0.0000000E+00;  0.0000000E+00;
 -1.5000001E-01;  9.9999998E-03; -3.8999999E-01;459;  0.0000000E+00;  0.0000000E+00;  0.0000000E+00;  1.0000000E+03;  1.0000000E-01;  0.0000000E+00;0;  0.0000000E+00;  0.0000000E+00;  0.0000000E+00;0;  0.0000000E+00;  4.0000000E+04;  0.0000000E+00;  0.0000000E+00;  4.0000000E+04;  0.0000000E+00;  4.0000000E+04;  0.0000000E+00;  0.0000000E+00;  0.0000000E+00;  0.0000000E+00;
 -1.5000001E-01;  9.9999998E-03; -3.8000000E-01;460;  0.0000000E+00;  0.0000000E+00;  0.0000000E+00;  1.0000000E+03;  1.0000000E-01;  0.0000000E+00;0;  0.0000000E+00;  0.0000000E+00;  0.0000000E+00;0;  0.0000000E+00;  4.0000000E+04;  0.0000000E+00;  0.0000000E+00;  4.0000000E+04;  0.0000000E+00;  4.0000000E+04;  0.0000000E+00;  0.0000000E+00;  0.0000000E+00;  0.0000000E+00;
 -1.5000001E-01;  9.9999998E-03; -3.7000000E-01;461;  0.0000000E+00;  0.0000000E+00;  0.0000000E+00;  1.0000000E+03;  1.0000000E-01;  0.0000000E+00;0;  0.0000000E+00;  0.0000000E+00;  0.0000000E+00;0;  0.0000000E+00;  4.0000000E+04;  0.0000000E+00;  0.0000000E+00;  4.0000000E+04;  0.0000000E+00;  4.0000000E+04;  0.0000000E+00;  0.0000000E+00;  0.0000000E+00;  3.0836722E-09;
 -1.5000001E-01;  9.9999998E-03; -3.6000001E-01;462;  0.0000000E+00;  0.0000000E+00;  0.0000000E+00;  1.0000000E+03;  1.0000000E-01;  0.0000000E+00;0;  0.0000000E+00;  0.0000000E+00;  0.0000000E+00;0; -5.5009252E-08;  4.0000000E+04;  0.0000000E+00;  0.0000000E+00;  4.0000000E+04;  0.0000000E+00;  4.0000000E+04; -3.9088995E-08;  0.0000000E+00; -1.5920255E-08;  2.2473365E-02;
 -1.5000001E-01;  9.9999998E-03; -3.4999999E-01;463;  0.0000000E+00;  0.0000000E+00;  0.0000000E+00;  1.0000000E+03;  1.0000000E-01;  0.0000000E+00;0;  0.0000000E+00;  0.0000000E+00;  0.0000000E+00;0; -4.9849831E-07;  4.0000000E+04;  0.0000000E+00;  0.0000000E+00;  4.0000000E+04;  0.0000000E+00;  4.0000000E+04; -3.7036531E-07;  0.0000000E+00; -1.2813298E-07;  1.5695824E-01;
 -1.5000001E-01;  9.9999998E-03; -3.4000000E-01;464;  0.0000000E+00;  0.0000000E+00;  0.0000000E+00;  1.0000000E+03;  1.0000000E-01;  0.0000000E+00;0;  0.0000000E+00;  0.0000000E+00;  0.0000000E+00;0; -1.8248971E-06;  4.0000000E+04;  0.0000000E+00;  0.0000000E+00;  4.0000000E+04;  0.0000000E+00;  4.0000000E+04; -1.4082053E-06;  0.0000000E+00; -4.1669185E-07;  4.8202142E-01;
 -1.5000001E-01;  9.9999998E-03; -3.3000001E-01;465;  0.0000000E+00;  0.0000000E+00;  0.0000000E+00;  1.0000000E+03;  1.0000000E-01;  0.0000000E+00;0;  0.0000000E+00;  0.0000000E+00;  0.0000000E+00;0; -4.4122053E-06;  4.0000000E+04;  0.0000000E+00;  0.0000000E+00;  4.0000000E+04;  0.0000000E+00;  4.0000000E+04; -3.5184198E-06;  0.0000000E+00; -8.9378534E-07;  9.8940980E-01;
 -1.5000001E-01;  9.9999998E-03; -3.1999999E-01;466;  0.0000000E+00;  0.0000000E+00;  0.0000000E+00;  1.0000000E+03;  1.0000000E-01;  0.0000000E+00;0;  0.0000000E+00;  0.0000000E+00;  0.0000000E+00;0; -8.3081459E-06;  4.0000000E+04;  0.0000000E+00;  0.0000000E+00;  4.0000000E+04;  0.0000000E+00;  4.0000000E+04; -6.8259674E-06;  0.0000000E+00; -1.4821788E-06;  1.5631037E+00;
 -1.5000001E-01;  9.9999998E-03; -3.1000000E-01;467;  0.0000000E+00;  0.0000000E+00;  0.0000000E+00;  1.0000000E+03;  1.0000000E-01;  0.0000000E+00;0;  0.0000000E+00;  0.0000000E+00;  0.0000000E+00;0; -1.3183588E-05;  4.0000000E+04;  0.0000000E+00;  0.0000000E+00;  4.0000000E+04;  0.0000000E+00;  4.0000000E+04; -1.1147179E-05;  0.0000000E+00; -2.0364082E-06;  2.0152984E+00;
 -1.5000001E-01;  9.9999998E-03; -3.0000001E-01;468;  0.0000000E+00;  0.0000000E+00;  0.0000000E+00;  1.0000000E+03;  1.0000000E-01;  0.0000000E+00;0;  0.0000000E+00;  0.0000000E+00;  0.0000000E+00;0; -1.8427490E-05;  4.0000000E+04;  0.0000000E+00;  0.0000000E+00;  4.0000000E+04;  0.0000000E+00;  4.0000000E+04; -1.6036267E-05;  0.0000000E+00; -2.3912239E-06;  2.1553864E+00;
 -1.5000001E-01;  9.9999998E-03; -2.8999999E-01;469;  0.0000000E+00;  0.0000000E+00;  0.0000000E+00;  1.0000000E+03;  1.0000000E-01;  0.0000000E+00;0;  0.0000000E+00;  0.0000000E+00;  0.0000000E+00;0; -2.3337925E-05;  4.0000000E+04;  0.0000000E+00;  0.0000000E+00;  4.0000000E+04;  0.0000000E+00;  4.0000000E+04; -2.0916214E-05;  0.0000000E+00; -2.4217118E-06;  1.8639623E+00;
 -1.5000001E-01;  9.9999998E-03; -2.8000000E-01;470;  0.0000000E+00;  0.0000000E+00;  0.0000000E+00;  1.0000000E+03;  1.0000000E-01;  0.0000000E+00;0;  0.0000000E+00;  0.0000000E+00;  0.0000000E+00;0; -2.7341879E-05;  4.0000000E+04;  0.0000000E+00;  0.0000000E+00;  4.0000000E+04;  0.0000000E+00;  4.0000000E+04; -2.5249095E-05;  0.0000000E+00; -2.0927837E-06;  1.1425438E+00;
 -1.4000000E-01;  9.9999998E-03; -4.4000000E-01;545;  0.0000000E+00;  0.0000000E+00;  0.0000000E+00;  1.0000000E+03;  1.0000000E-01;  0.0000000E+00;0;  0.0000000E+00;  0.0000000E+00;  0.0000000E+00;0;  0.0000000E+00;  4.0000000E+04;  0.0000000E+00;  0.0000000E+00;  4.0000000E+04;  0.0000000E+00;  4.0000000E+04;  0.0000000E+00;  0.0000000E+00;  0.0000000E+00;  0.0000000E+00;
 -1.4000000E-01;  9.9999998E-03; -4.3000001E-01;546;  0.0000000E+00;  0.0000000E+00;  0.0000000E+00;  1.0000000E+03;  1.0000000E-01;  0.0000000E+00;0;  0.0000000E+00;  0.0000000E+00;  0.0000000E+00;0;  0.0000000E+00;  4.0000000E+04;  0.0000000E+00;  0.0000000E+00;  4.0000000E+04;  0.0000000E+00;  4.0000000E+04;  0.0000000E+00;  0.0000000E+00;  0.0000000E+00;  0.0000000E+00;
 -1.4000000E-01;  9.9999998E-03; -4.1999999E-01;547;  0.0000000E+00;  0.0000000E+00;  0.0000000E+00;  1.0000000E+03;  1.0000000E-01;  0.0000000E+00;0;  0.0000000E+00;  0.0000000E+00;  0.0000000E+00;0;  0.0000000E+00;  4.0000000E+04;  0.0000000E+00;  0.0000000E+00;  4.0000000E+04;  0.0000000E+00;  4.0000000E+04;  0.0000000E+00;  0.0000000E+00;  0.0000000E+00;  0.0000000E+00;
 -1.4000000E-01;  9.9999998E-03; -4.1000000E-01;548;  0.0000000E+00;  0.0000000E+00;  0.0000000E+00;  1.0000000E+03;  1.0000000E-01;  0.0000000E+00;0;  0.0000000E+00;  0.0000000E+00;  0.0000000E+00;0;  0.0000000E+00;  4.0000000E+04;  0.0000000E+00;  0.0000000E+00;  4.0000000E+04;  0.0000000E+00;  4.0000000E+04;  0.0000000E+00;  0.0000000E+00;  0.0000000E+00;  0.0000000E+00;
 -1.4000000E-01;  9.9999998E-03; -4.0000001E-01;549;  0.0000000E+00;  0.0000000E+00;  0.0000000E+00;  1.0000000E+03;  1.0000000E-01;  0.0000000E+00;0;  0.0000000E+00;  0.0000000E+00;  0.0000000E+00;0;  0.0000000E+00;  4.0000000E+04;  0.0000000E+00;  0.0000000E+00;  4.0000000E+04;  0.0000000E+00;  4.0000000E+04;  0.0000000E+00;  0.0000000E+00;  0.0000000E+00;  0.0000000E+00;
 -1.4000000E-01;  9.9999998E-03; -3.8999999E-01;550;  0.0000000E+00;  0.0000000E+00;  0.0000000E+00;  1.0000000E+03;  1.0000000E-01;  0.0000000E+00;0;  0.0000000E+00;  0.0000000E+00;  0.0000000E+00;0;  0.0000000E+00;  4.0000000E+04;  0.0000000E+00;  0.0000000E+00;  4.0000000E+04;  0.0000000E+00;  4.0000000E+04;  0.0000000E+00;  0.0000000E+00;  0.0000000E+00;  0.0000000E+00;
 -1.4000000E-01;  9.9999998E-03; -3.8000000E-01;551;  0.0000000E+00;  0.0000000E+00;  0.0000000E+00;  1.0000000E+03;  1.0000000E-01;  0.0000000E+00;0;  0.0000000E+00;  0.0000000E+00;  0.0000000E+00;0; -2.4654998E-08;  4.0000000E+04;  0.0000000E+00;  0.0000000E+00;  4.0000000E+04;  0.0000000E+00;  4.0000000E+04; -1.5020104E-08;  0.0000000E+00; -9.6348929E-09;  1.5532223E-02;
 -1.4000000E-01;  9.9999998E-03; -3.7000000E-01;552;  0.0000000E+00;  0.0000000E+00;  0.0000000E+00;  1.0000000E+03;  1.0000000E-01;  0.0000000E+00;0;  0.0000000E+00;  0.0000000E+00;  0.0000000E+00;0; -5.8649505E-07;  4.0000000E+04;  0.0000000E+00;  0.0000000E+00;  4.0000000E+04;  0.0000000E+00;  4.0000000E+04; -3.8689879E-07;  0.0000000E+00; -1.9959627E-07;  2.5615653E-01;
 -1.4000000E-01;  9.9999998E-03; -3.6000001E-01;553;  0.0000000E+00;  0.0000000E+00;  0.0000000E+00;  1.0000000E+03;  1.0000000E-01;  0.0000000E+00;0;  0.0000000E+00;  0.0000000E+00;  0.0000000E+00;0; -2.9100936E-06;  4.0000000E+04;  0.0000000E+00;  0.0000000E+00;  4.0000000E+04;  0.0000000E+00;  4.0000000E+04; -2.0263240E-06;  0.0000000E+00; -8.8376964E-07;  1.0608538E+00;
 -1.4000000E-01;  9.9999998E-03; -3.4999999E-01;554;  0.0000000E+00;  0.0000000E+00;  0.0000000E+00;  1.0000000E+03;  1.0000000E-01;  0.0000000E+00;0;  0.0000000E+00;  0.0000000E+00;  0.0000000E+00;0; -8.3268833E-06;  4.0000000E+04;  0.0000000E+00;  0.0000000E+00;  4.0000000E+04;  0.0000000E+00;  4.0000000E+04; -6.0369980E-06;  0.0000000E+00; -2.2898855E-06;  2.6175504E+00;
 -1.4000000E-01;  9.9999998E-03; -3.4000000E-01;555;  0.0000000E+00;  0.0000000E+00;  0.0000000E+00;  1.0000000E+03;  1.0000000E-01;  0.0000000E+00;0;  0.0000000E+00;  0.0000000E+00;  0.0000000E+00;0; -1.7859902E-05;  4.0000000E+04;  0.0000000E+00;  0.0000000E+00;  4.0000000E+04;  0.0000000E+00;  4.0000000E+04; -1.3406054E-05;  0.0000000E+00; -4.4538488E-06;  4.8664789E+00;
 -1.4000000E-01;  9.9999998E-03; -3.3000001E-01;556;  0.0000000E+00;  0.0000000E+00;  0.0000000E+00;  1.0000000E+03;  1.0000000E-01;  0.0000000E+00;0;  0.0000000E+00;  0.0000000E+00;  0.0000000E+00;0; -3.1881442E-05;  4.0000000E+04;  0.0000000E+00;  0.0000000E+00;  4.0000000E+04;  0.0000000E+00;  4.0000000E+04; -2.4700932E-05;  0.0000000E+00; -7.1805093E-06;  7.4668427E+00;
 -1.4000000E-01;  9.9999998E-03; -3.1999999E-01;557;  0.0000000E+00;  0.0000000E+00;  0.0000000E+00;  1.0000000E+03;  1.0000000E-01;  0.0000000E+00;0;  0.0000000E+00;  0.0000000E+00;  0.0000000E+00;0; -4.9898306E-05;  4.0000000E+04;  0.0000000E+00;  0.0000000E+00;  4.0000000E+04;  0.0000000E+00;  4.0000000E+04; -3.9839953E-05;  0.0000000E+00; -1.0058354E-05;  9.8471928E+00;
 -1.4000000E-01;  9.9999998E-03; -3.1000000E-01;558;  0.0000000E+00;  0.0000000E+00;  0.0000000E+00;  1.0000000E+03;  1.0000000E-01;  0.0000000E+00;0;  0.0000000E+00;  0.0000000E+00;  0.0000000E+00;0; -7.0602066E-05;  4.0000000E+04;  0.0000000E+00;  0.0000000E+00;  4.0000000E+04;  0.0000000E+00;  4.0000000E+04; -5.8067493E-05;  0.0000000E+00; -1.2534571E-05;  1.1342078E+01;
 -1.4000000E-01;  9.9999998E-03; -3.0000001E-01;559;  0.0000000E+00;  0.0000000E+00;  0.0000000E+00;  1.0000000E+03;  1.0000000E-01;  0.0000000E+00;0;  0.0000000E+00;  0.0000000E+00;  0.0000000E+00;0; -9.2163224E-05;  4.0000000E+04;  0.0000000E+00;  0.0000000E+00;  4.0000000E+04;  0.0000000E+00;  4.0000000E+04; -7.8120720E-05;  0.0000000E+00; -1.4042504E-05;  1.1373640E+01;
 -1.4000000E-01;  9.9999998E-03; -2.8999999E-01;560;  0.0000000E+00;  0.0000000E+00;  0.0000000E+00;  1.0000000E+03;  1.0000000E-01;  0.0000000E+00;0;  0.0000000E+00;  0.0000000E+00;  0.0000000E+00;0; -1.1269321E-04;  4.0000000E+04;  0.0000000E+00;  0.0000000E+00;  4.0000000E+04;  0.0000000E+00;  4.0000000E+04; -9.8533426E-05;  0.0000000E+00; -1.4159783E-05;  9.6309824E+00;
 -1.4000000E-01;  9.9999998E-03; -2.8000000E-01;561;  0.0000000E+00;  0.0000000E+00;  0.0000000E+00;  1.0000000E+03;  1.0000000E-01;  0.0000000E+00;0;  0.0000000E+00;  0.0000000E+00;  0.0000000E+00;0; -1.3073863E-04;  4.0000000E+04;  0.0000000E+00;  0.0000000E+00;  4.0000000E+04;  0.0000000E+00;  4.0000000E+04; -1.1799322E-04;  0.0000000E+00; -1.2745419E-05;  6.1855898E+00;
 -1.3000000E-01;  9.9999998E-03; -4.4000000E-01;636;  0.0000000E+00;  0.0000000E+00;  0.0000000E+00;  1.0000000E+03;  1.0000000E-01;  0.0000000E+00;0;  0.0000000E+00;  0.0000000E+00;  0.0000000E+00;0;  0.0000000E+00;  4.0000000E+04;  0.0000000E+00;  0.0000000E+00;  4.0000000E+04;  0.0000000E+00;  4.0000000E+04;  0.0000000E+00;  0.0000000E+00;  0.0000000E+00;  0.0000000E+00;
 -1.3000000E-01;  9.9999998E-03; -4.3000001E-01;637;  0.0000000E+00;  0.0000000E+00;  0.0000000E+00;  1.0000000E+03;  1.0000000E-01;  0.0000000E+00;0;  0.0000000E+00;  0.0000000E+00;  0.0000000E+00;0;  0.0000000E+00;  4.0000000E+04;  0.0000000E+00;  0.0000000E+00;  4.0000000E+04;  0.0000000E+00;  4.0000000E+04;  0.0000000E+00;  0.0000000E+00;  0.0000000E+00;  0.0000000E+00;
 -1.3000000E-01;  9.9999998E-03; -4.1999999E-01;638;  0.0000000E+00;  0.0000000E+00;  0.0000000E+00;  1.0000000E+03;  1.0000000E-01;  0.0000000E+00;0;  0.0000000E+00;  0.0000000E+00;  0.0000000E+00;0;  0.0000000E+00;  4.0000000E+04;  0.0000000E+00;  0.0000000E+00;  4.0000000E+04;  0.0000000E+00;  4.0000000E+04;  0.0000000E+00;  0.0000000E+00;  0.0000000E+00;  0.0000000E+00;
 -1.3000000E-01;  9.9999998E-03; -4.1000000E-01;639;  0.0000000E+00;  0.0000000E+00;  0.0000000E+00;  1.0000000E+03;  1.0000000E-01;  0.0000000E+00;0;  0.0000000E+00;  0.0000000E+00;  0.0000000E+00;0;  0.0000000E+00;  4.0000000E+04;  0.0000000E+00;  0.0000000E+00;  4.0000000E+04;  0.0000000E+00;  4.0000000E+04;  0.0000000E+00;  0.0000000E+00;  0.0000000E+00;  0.0000000E+00;
 -1.3000000E-01;  9.9999998E-03; -4.0000001E-01;640;  0.0000000E+00;  0.0000000E+00;  0.0000000E+00;  1.0000000E+03;  1.0000000E-01;  0.0000000E+00;0;  0.0000000E+00;  0.0000000E+00;  0.0000000E+00;0;  0.0000000E+00;  4.0000000E+04;  0.0000000E+00;  0.0000000E+00;  4.0000000E+04;  0.0000000E+00;  4.0000000E+04;  0.0000000E+00;  0.0000000E+00;  0.0000000E+00;  0.0000000E+00;
 -1.3000000E-01;  9.9999998E-03; -3.8999999E-01;641;  0.0000000E+00;  0.0000000E+00;  0.0000000E+00;  1.0000000E+03;  1.0000000E-01;  0.0000000E+00;0;  0.0000000E+00;  0.0000000E+00;  0.0000000E+00;0; -1.8122486E-07;  4.0000000E+04;  0.0000000E+00;  0.0000000E+00;  4.0000000E+04;  0.0000000E+00;  4.0000000E+04; -1.0167109E-07;  0.0000000E+00; -7.9553764E-08;  1.1270758E-01;
 -1.3000000E-01;  9.9999998E-03; -3.8000000E-01;642;  0.0000000E+00;  0.0000000E+00;  0.0000000E+00;  1.0000000E+03;  1.0000000E-01;  0.0000000E+00;0;  0.0000000E+00;  0.0000000E+00;  0.0000000E+00;0; -2.0278680E-06;  4.0000000E+04;  0.0000000E+00;  0.0000000E+00;  4.0000000E+04;  0.0000000E+00;  4.0000000E+04; -1.2380813E-06;  0.0000000E+00; -7.8978690E-07;  1.0096836E+00;
 -1.3000000E-01;  9.9999998E-03; -3.7000000E-01;643;  0.0000000E+00;  0.0000000E+00;  0.0000000E+00;  1.0000000E+03;  1.0000000E-01;  0.0000000E+00;0;  0.0000000E+00;  0.0000000E+00;  0.0000000E+00;0; -8.0164837E-06;  4.0000000E+04;  0.0000000E+00;  0.0000000E+00;  4.0000000E+04;  0.0000000E+00;  4.0000000E+04; -5.1555030E-06;  0.0000000E+00; -2.8609804E-06;  3.4439082E+00;
 -1.3000000E-01;  9.9999998E-03; -3.6000001E-01;644;  0.0000000E+00;  0.0000000E+00;  0.0000000E+00;  1.0000000E+03;  1.0000000E-01;  0.0000000E+00;0;  0.0000000E+00;  0.0000000E+00;  0.0000000E+00;0; -2.0953719E-05;  4.0000000E+04;  0.0000000E+00;  0.0000000E+00;  4.0000000E+04;  0.0000000E+00;  4.0000000E+04; -1.4098719E-05;  0.0000000E+00; -6.8550003E-06;  7.8533745E+00;
 -1.3000000E-01;  9.9999998E-03; -3.4999999E-01;645;  0.0000000E+00;  0.0000000E+00;  0.0000000E+00;  1.0000000E+03;  1.0000000E-01;  0.0000000E+00;0;  0.0000000E+00;  0.0000000E+00;  0.0000000E+00;0; -4.3209649E-05;  4.0000000E+04;  0.0000000E+00;  0.0000000E+00;  4.0000000E+04;  0.0000000E+00;  4.0000000E+04; -3.0261246E-05;  0.0000000E+00; -1.2948401E-05;  1.4147756E+01;
 -1.3000000E-01;  9.9999998E-03; -3.4000000E-01;646;  0.0000000E+00;  0.0000000E+00;  0.0000000E+00;  1.0000000E+03;  1.0000000E-01;  0.0000000E+00;0;  0.0000000E+00;  0.0000000E+00;  0.0000000E+00;0; -7.6179669E-05;  4.0000000E+04;  0.0000000E+00;  0.0000000E+00;  4.0000000E+04;  0.0000000E+00;  4.0000000E+04; -5.5323344E-05;  0.0000000E+00; -2.0856323E-05;  2.1667482E+01;
 -1.3000000E-01;  9.9999998E-03; -3.3000001E-01;647;  0.0000000E+00;  0.0000000E+00;  0.0000000E+00;  1.0000000E+03;  1.0000000E-01;  0.0000000E+00;0;  0.0000000E+00;  0.0000000E+00;  0.0000000E+00;0; -1.1985457E-04;  4.0000000E+04;  0.0000000E+00;  0.0000000E+00;  4.0000000E+04;  0.0000000E+00;  4.0000000E+04; -9.0035333E-05;  0.0000000E+00; -2.9819232E-05;  2.9239170E+01;
 -1.3000000E-01;  9.9999998E-03; -3.1999999E-01;648;  0.0000000E+00;  0.0000000E+00;  0.0000000E+00;  1.0000000E+03;  1.0000000E-01;  0.0000000E+00;0;  0.0000000E+00;  0.0000000E+00;  0.0000000E+00;0; -1.7260041E-04;  4.0000000E+04;  0.0000000E+00;  0.0000000E+00;  4.0000000E+04;  0.0000000E+00;  4.0000000E+04; -1.3394414E-04;  0.0000000E+00; -3.8656268E-05;  3.5348038E+01;
 -1.3000000E-01;  9.9999998E-03; -3.1000000E-01;649;  0.0000000E+00;  0.0000000E+00;  0.0000000E+00;  1.0000000E+03;  1.0000000E-01;  0.0000000E+00;0;  0.0000000E+00;  0.0000000E+00;  0.0000000E+00;0; -2.3134604E-04;  4.0000000E+04;  0.0000000E+00;  0.0000000E+00;  4.0000000E+04;  0.0000000E+00;  4.0000000E+04; -1.8542526E-04;  0.0000000E+00; -4.5920780E-05;  3.8423443E+01;
 -1.3000000E-01;  9.9999998E-03; -3.0000001E-01;650;  0.0000000E+00;  0.0000000E+00;  0.0000000E+00;  1.0000000E+03;  1.0000000E-01;  0.0000000E+00;0;  0.0000000E+00;  0.0000000E+00;  0.0000000E+00;0; -2.9217344E-04;  4.0000000E+04;  0.0000000E+00;  0.0000000E+00;  4.0000000E+04;  0.0000000E+00;  4.0000000E+04; -2.4200298E-04;  0.0000000E+00; -5.0170456E-05;  3.7197933E+01;
 -1.3000000E-01;  9.9999998E-03; -2.8999999E-01;651;  0.0000000E+00;  0.0000000E+00;  0.0000000E+00;  1.0000000E+03;  1.0000000E-01;  0.0000000E+00;0;  0.0000000E+00;  0.0000000E+00;  0.0000000E+00;0; -3.5120556E-04;  4.0000000E+04;  0.0000000E+00;  0.0000000E+00;  4.0000000E+04;  0.0000000E+00;  4.0000000E+04; -3.0088535E-04;  0.0000000E+00; -5.0320206E-05;  3.1070047E+01;
 -1.3000000E-01;  9.9999998E-03; -2.8000000E-01;652;  0.0000000E+00;  0.0000000E+00;  0.0000000E+00;  1.0000000E+03;  1.0000000E-01;  0.0000000E+00;0;  0.0000000E+00;  0.0000000E+00;  0.0000000E+00;0; -4.0553440E-04;  4.0000000E+04;  0.0000000E+00;  0.0000000E+00;  4.0000000E+04;  0.0000000E+00;  4.0000000E+04; -3.5956712E-04;  0.0000000E+00; -4.5967299E-05;  2.0338436E+01;
 -1.2000000E-01;  9.9999998E-03; -4.4000000E-01;727;  0.0000000E+00;  0.0000000E+00;  0.0000000E+00;  1.0000000E+03;  1.0000000E-01;  0.0000000E+00;0;  0.0000000E+00;  0.0000000E+00;  0.0000000E+00;0;  0.0000000E+00;  4.0000000E+04;  0.0000000E+00;  0.0000000E+00;  4.0000000E+04;  0.0000000E+00;  4.0000000E+04;  0.0000000E+00;  0.0000000E+00;  0.0000000E+00;  0.0000000E+00;
 -1.2000000E-01;  9.9999998E-03; -4.3000001E-01;728;  0.0000000E+00;  0.0000000E+00;  0.0000000E+00;  1.0000000E+03;  1.0000000E-01;  0.0000000E+00;0;  0.0000000E+00;  0.0000000E+00;  0.0000000E+00;0;  0.0000000E+00;  4.0000000E+04;  0.0000000E+00;  0.0000000E+00;  4.0000000E+04;  0.0000000E+00;  4.0000000E+04;  0.0000000E+00;  0.0000000E+00;  0.0000000E+00;  0.0000000E+00;
 -1.2000000E-01;  9.9999998E-03; -4.1999999E-01;729;  0.0000000E+00;  0.0000000E+00;  0.0000000E+00;  1.0000000E+03;  1.0000000E-01;  0.0000000E+00;0;  0.0000000E+00;  0.0000000E+00;  0.0000000E+00;0;  0.0000000E+00;  4.0000000E+04;  0.0000000E+00;  0.0000000E+00;  4.0000000E+04;  0.0000000E+00;  4.0000000E+04;  0.0000000E+00;  0.0000000E+00;  0.0000000E+00;  0.0000000E+00;
 -1.2000000E-01;  9.9999998E-03; -4.1000000E-01;730;  0.0000000E+00;  0.0000000E+00;  0.0000000E+00;  1.0000000E+03;  1.0000000E-01;  0.0000000E+00;0;  0.0000000E+00;  0.0000000E+00;  0.0000000E+00;0;  0.0000000E+00;  4.0000000E+04;  0.0000000E+00;  0.0000000E+00;  4.0000000E+04;  0.0000000E+00;  4.0000000E+04;  0.0000000E+00;  0.0000000E+00;  0.0000000E+00;  3.0553806E-06;
 -1.2000000E-01;  9.9999998E-03; -4.0000001E-01;731;  0.0000000E+00;  0.0000000E+00;  0.0000000E+00;  1.0000000E+03;  1.0000000E-01;  0.0000000E+00;0;  0.0000000E+00;  0.0000000E+00;  0.0000000E+00;0; -4.6050002E-07;  4.0000000E+04;  0.0000000E+00;  0.0000000E+00;  4.0000000E+04;  0.0000000E+00;  4.0000000E+04; -2.3965177E-07;  0.0000000E+00; -2.2084826E-07;  3.0821896E-01;
 -1.2000000E-01;  9.9999998E-03; -3.8999999E-01;732;  0.0000000E+00;  0.0000000E+00;  0.0000000E+00;  1.0000000E+03;  1.0000000E-01;  0.0000000E+00;0;  0.0000000E+00;  0.0000000E+00;  0.0000000E+00;0; -3.9971710E-06;  4.0000000E+04;  0.0000000E+00;  0.0000000E+00;  4.0000000E+04;  0.0000000E+00;  4.0000000E+04; -2.2130698E-06;  0.0000000E+00; -1.7841011E-06;  2.2829916E+00;
 -1.2000000E-01;  9.9999998E-03; -3.8000000E-01;733;  0.0000000E+00;  0.0000000E+00;  0.0000000E+00;  1.0000000E+03;  1.0000000E-01;  0.0000000E+00;0;  0.0000000E+00;  0.0000000E+00;  0.0000000E+00;0; -1.4882222E-05;  4.0000000E+04;  0.0000000E+00;  0.0000000E+00;  4.0000000E+04;  0.0000000E+00;  4.0000000E+04; -8.7085955E-06;  0.0000000E+00; -6.1736268E-06;  7.4619999E+00;
 -1.2000000E-01;  9.9999998E-03; -3.7000000E-01;734;  0.0000000E+00;  0.0000000E+00;  0.0000000E+00;  1.0000000E+03;  1.0000000E-01;  0.0000000E+00;0;  0.0000000E+00;  0.0000000E+00;  0.0000000E+00;0; -3.7973077E-05;  4.0000000E+04;  0.0000000E+00;  0.0000000E+00;  4.0000000E+04;  0.0000000E+00;  4.0000000E+04; -2.3387951E-05;  0.0000000E+00; -1.4585125E-05;  1.6766699E+01;
 -1.2000000E-01;  9.9999998E-03; -3.6000001E-01;735;  0.0000000E+00;  0.0000000E+00;  0.0000000E+00;  1.0000000E+03;  1.0000000E-01;  0.0000000E+00;0;  0.0000000E+00;  0.0000000E+00;  0.0000000E+00;0; -7.7922712E-05;  4.0000000E+04;  0.0000000E+00;  0.0000000E+00;  4.0000000E+04;  0.0000000E+00;  4.0000000E+04; -5.0316852E-05;  0.0000000E+00; -2.7605862E-05;  3.0213753E+01;
 -1.2000000E-01;  9.9999998E-03; -3.4999999E-01;736;  0.0000000E+00;  0.0000000E+00;  0.0000000E+00;  1.0000000E+03;  1.0000000E-01;  0.0000000E+00;0;  0.0000000E+00;  0.0000000E+00;  0.0000000E+00;0; -1.3825680E-04;  4.0000000E+04;  0.0000000E+00;  0.0000000E+00;  4.0000000E+04;  0.0000000E+00;  4.0000000E+04; -9.3215240E-05;  0.0000000E+00; -4.5041561E-05;  4.6831757E+01;
 -1.2000000E-01;  9.9999998E-03; -3.4000000E-01;737;  0.0000000E+00;  0.0000000E+00;  0.0000000E+00;  1.0000000E+03;  1.0000000E-01;  0.0000000E+00;0;  0.0000000E+00;  0.0000000E+00;  0.0000000E+00;0; -2.2065346E-04;  4.0000000E+04;  0.0000000E+00;  0.0000000E+00;  4.0000000E+04;  0.0000000E+00;  4.0000000E+04; -1.5479507E-04;  0.0000000E+00; -6.5858396E-05;  6.4727295E+01;
 -1.2000000E-01;  9.9999998E-03; -3.3000001E-01;738;  0.0000000E+00;  0.0000000E+00;  0.0000000E+00;  1.0000000E+03;  1.0000000E-01;  0.0000000E+00;0;  0.0000000E+00;  0.0000000E+00;  0.0000000E+00;0; -3.2435029E-04;  4.0000000E+04;  0.0000000E+00;  0.0000000E+00;  4.0000000E+04;  0.0000000E+00;  4.0000000E+04; -2.3617792E-04;  0.0000000E+00; -8.8172361E-05;  8.1257935E+01;
 -1.2000000E-01;  9.9999998E-03; -3.1999999E-01;739;  0.0000000E+00;  0.0000000E+00;  0.0000000E+00;  1.0000000E+03;  1.0000000E-01;  0.0000000E+00;0;  0.0000000E+00;  0.0000000E+00;  0.0000000E+00;0; -4.4587522E-04;  4.0000000E+04;  0.0000000E+00;  0.0000000E+00;  4.0000000E+04;  0.0000000E+00;  4.0000000E+04; -3.3653938E-04;  0.0000000E+00; -1.0933583E-04;  9.3346565E+01;
 -1.2000000E-01;  9.9999998E-03; -3.1000000E-01;740;  0.0000000E+00;  0.0000000E+00;  0.0000000E+00;  1.0000020E+03;  1.0000000E-01;  1.5802022E+00;0;  0.0000000E+00;  0.0000000E+00;  0.0000000E+00;0; -5.7939853E-04;  4.0000000E+04;  0.0000000E+00;  0.0000000E+00;  4.0000000E+04;  0.0000000E+00;  4.0000000E+04; -4.5318500E-04;  0.0000000E+00; -1.2621353E-04;  9.7965462E+01;
 -1.2000000E-01;  9.9999998E-03; -3.0000001E-01;741;  0.0000000E+00;  0.0000000E+00;  0.0000000E+00;  1.0000036E+03;  1.0000000E-01;  2.9628792E+00;0;  0.0000000E+00;  0.0000000E+00;  0.0000000E+00;0; -7.1775680E-04;  4.0000000E+04;  0.0000000E+00;  0.0000000E+00;  4.0000000E+04;  0.0000000E+00;  4.0000000E+04; -5.8205542E-04;  0.0000000E+00; -1.3570140E-04;  9.2775978E+01;
 -1.2000000E-01;  9.9999998E-03; -2.8999999E-01;742;  0.0000000E+00;  0.0000000E+00;  0.0000000E+00;  1.0000043E+03;  1.0000000E-01;  3.5554550E+00;0;  0.0000000E+00;  0.0000000E+00;  0.0000000E+00;0; -8.5399090E-04;  4.0000000E+04;  0.0000000E+00;  0.0000000E+00;  4.0000000E+04;  0.0000000E+00;  4.0000000E+04; -7.1854424E-04;  0.0000000E+00; -1.3544664E-04;  7.6801826E+01;
 -1.2000000E-01;  9.9999998E-03; -2.8000000E-01;743;  0.0000000E+00;  0.0000000E+00;  0.0000000E+00;  1.0000047E+03;  1.0000000E-01;  3.8517430E+00;0;  0.0000000E+00;  0.0000000E+00;  0.0000000E+00;0; -9.8294765E-04;  4.0000000E+04;  0.0000000E+00;  0.0000000E+00;  4.0000000E+04;  0.0000000E+00;  4.0000000E+04; -8.5841503E-04;  0.0000000E+00; -1.2453257E-04;  5.0859173E+01;
 -1.1000000E-01;  9.9999998E-03; -4.4000000E-01;818;  0.0000000E+00;  0.0000000E+00;  0.0000000E+00;  1.0000000E+03;  1.0000000E-01;  0.0000000E+00;0;  0.0000000E+00;  0.0000000E+00;  0.0000000E+00;0;  0.0000000E+00;  4.0000000E+04;  0.0000000E+00;  0.0000000E+00;  4.0000000E+04;  0.0000000E+00;  4.0000000E+04;  0.0000000E+00;  0.0000000E+00;  0.0000000E+00;  0.0000000E+00;
 -1.1000000E-01;  9.9999998E-03; -4.3000001E-01;819;  0.0000000E+00;  0.0000000E+00;  0.0000000E+00;  1.0000000E+03;  1.0000000E-01;  0.0000000E+00;0;  0.0000000E+00;  0.0000000E+00;  0.0000000E+00;0;  0.0000000E+00;  4.0000000E+04;  0.0000000E+00;  0.0000000E+00;  4.0000000E+04;  0.0000000E+00;  4.0000000E+04;  0.0000000E+00;  0.0000000E+00;  0.0000000E+00;  0.0000000E+00;
 -1.1000000E-01;  9.9999998E-03; -4.1999999E-01;820;  0.0000000E+00;  0.0000000E+00;  0.0000000E+00;  1.0000000E+03;  1.0000000E-01;  0.0000000E+00;0;  0.0000000E+00;  0.0000000E+00;  0.0000000E+00;0;  0.0000000E+00;  4.0000000E+04;  0.0000000E+00;  0.0000000E+00;  4.0000000E+04;  0.0000000E+00;  4.0000000E+04;  0.0000000E+00;  0.0000000E+00;  0.0000000E+00;  2.4097387E-06;
 -1.1000000E-01;  9.9999998E-03; -4.1000000E-01;821;  0.0000000E+00;  0.0000000E+00;  0.0000000E+00;  1.0000000E+03;  1.0000000E-01;  0.0000000E+00;0;  0.0000000E+00;  0.0000000E+00;  0.0000000E+00;0; -6.2247852E-07;  4.0000000E+04;  0.0000000E+00;  0.0000000E+00;  4.0000000E+04;  0.0000000E+00;  4.0000000E+04; -2.9601114E-07;  0.0000000E+00; -3.2646739E-07;  4.5980224E-01;
 -1.1000000E-01;  9.9999998E-03; -4.0000001E-01;822;  0.0000000E+00;  0.0000000E+00;  0.0000000E+00;  1.0000000E+03;  1.0000000E-01;  0.0000000E+00;0;  0.0000000E+00;  0.0000000E+00;  0.0000000E+00;0; -5.5851342E-06;  4.0000000E+04;  0.0000000E+00;  0.0000000E+00;  4.0000000E+04;  0.0000000E+00;  4.0000000E+04; -2.7799417E-06;  0.0000000E+00; -2.8051925E-06;  3.6109018E+00;
 -1.1000000E-01;  9.9999998E-03; -3.8999999E-01;823;  0.0000000E+00;  0.0000000E+00;  0.0000000E+00;  1.0000000E+03;  1.0000000E-01;  0.0000000E+00;0;  0.0000000E+00;  0.0000000E+00;  0.0000000E+00;0; -2.1281950E-05;  4.0000000E+04;  0.0000000E+00;  0.0000000E+00;  4.0000000E+04;  0.0000000E+00;  4.0000000E+04; -1.1189839E-05;  0.0000000E+00; -1.0092112E-05;  1.2263594E+01;
 -1.1000000E-01;  9.9999998E-03; -3.8000000E-01;824;  0.0000000E+00;  0.0000000E+00;  0.0000000E+00;  1.0000000E+03;  1.0000000E-01;  0.0000000E+00;0;  0.0000000E+00;  0.0000000E+00;  0.0000000E+00;0; -5.5374709E-05;  4.0000000E+04;  0.0000000E+00;  0.0000000E+00;  4.0000000E+04;  0.0000000E+00;  4.0000000E+04; -3.0823423E-05;  0.0000000E+00; -2.4551287E-05;  2.8327259E+01;
 -1.1000000E-01;  9.9999998E-03; -3.7000000E-01;825;  0.0000000E+00;  0.0000000E+00;  0.0000000E+00;  1.0000000E+03;  1.0000000E-01;  0.0000000E+00;0;  0.0000000E+00;  0.0000000E+00;  0.0000000E+00;0; -1.1560449E-04;  4.0000000E+04;  0.0000000E+00;  0.0000000E+00;  4.0000000E+04;  0.0000000E+00;  4.0000000E+04; -6.7990775E-05;  0.0000000E+00; -4.7613710E-05;  5.2209240E+01;
 -1.1000000E-01;  9.9999998E-03; -3.6000001E-01;826;  0.0000000E+00;  0.0000000E+00;  0.0000000E+00;  1.0000000E+03;  1.0000000E-01;  0.0000000E+00;0;  0.0000000E+00;  0.0000000E+00;  0.0000000E+00;0; -2.0890846E-04;  4.0000000E+04;  0.0000000E+00;  0.0000000E+00;  4.0000000E+04;  0.0000000E+00;  4.0000000E+04; -1.2935599E-04;  0.0000000E+00; -7.9552468E-05;  8.2777992E+01;
 -1.1000000E-01;  9.9999998E-03; -3.4999999E-01;827;  0.0000000E+00;  0.0000000E+00;  0.0000000E+00;  1.0000000E+03;  1.0000000E-01;  0.0000000E+00;0;  0.0000000E+00;  0.0000000E+00;  0.0000000E+00;0; -3.4027448E-04;  4.0000000E+04;  0.0000000E+00;  0.0000000E+00;  4.0000000E+04;  0.0000000E+00;  4.0000000E+04; -2.2092600E-04;  0.0000000E+00; -1.1934848E-04;  1.1745995E+02;
 -1.1000000E-01;  9.9999998E-03; -3.4000000E-01;828;  0.0000000E+00;  0.0000000E+00;  0.0000000E+00;  1.0000000E+03;  1.0000000E-01;  0.0000000E+00;0;  0.0000000E+00;  0.0000000E+00;  0.0000000E+00;0; -5.1170535E-04;  4.0000000E+04;  0.0000000E+00;  0.0000000E+00;  4.0000000E+04;  0.0000000E+00;  4.0000000E+04; -3.4710087E-04;  0.0000000E+00; -1.6460450E-04;  1.5240604E+02;
 -1.1000000E-01;  9.9999998E-03; -3.3000001E-01;829;  0.0000000E+00;  0.0000000E+00;  0.0000000E+00;  1.0000041E+03;  1.0000000E-01;  3.3579297E+00;0;  0.0000000E+00;  0.0000000E+00;  0.0000000E+00;0; -7.2131562E-04;  4.0000000E+04;  0.0000000E+00;  0.0000000E+00;  4.0000000E+04;  0.0000000E+00;  4.0000000E+04; -5.0982938E-04;  0.0000000E+00; -2.1148627E-04;  1.8275581E+02;
 -1.1000000E-01;  9.9999998E-03; -3.1999999E-01;830;  0.0000000E+00;  0.0000000E+00;  0.0000000E+00;  1.0000054E+03;  1.0000000E-01;  4.4443188E+00;0;  0.0000000E+00;  0.0000000E+00;  0.0000000E+00;0; -9.6292305E-04;  4.0000000E+04;  0.0000000E+00;  0.0000000E+00;  4.0000000E+04;  0.0000000E+00;  4.0000000E+04; -7.0809608E-04;  0.0000000E+00; -2.5482700E-04;  2.0309804E+02;
 -1.1000000E-01;  9.9999998E-03; -3.1000000E-01;831;  0.0000000E+00;  0.0000000E+00;  0.0000000E+00;  1.0000060E+03;  1.0000000E-01;  4.9381318E+00;0;  0.0000000E+00;  0.0000000E+00;  0.0000000E+00;0; -1.2265908E-03;  4.0000000E+04;  0.0000000E+00;  0.0000000E+00;  4.0000000E+04;  0.0000000E+00;  4.0000000E+04; -9.3800697E-04;  0.0000000E+00; -2.8858386E-04;  2.0824220E+02;
 -1.1000000E-01;  9.9999998E-03; -3.0000001E-01;832;  0.0000000E+00;  0.0000000E+00;  0.0000000E+00;  1.0000062E+03;  1.0000000E-01;  5.1356573E+00;0;  0.0000000E+00;  0.0000000E+00;  0.0000000E+00;0; -1.5002945E-03;  4.0000000E+04;  0.0000000E+00;  0.0000000E+00;  4.0000000E+04;  0.0000000E+00;  4.0000000E+04; -1.1935068E-03;  0.0000000E+00; -3.0678784E-04;  1.9430850E+02;
 -1.1000000E-01;  9.9999998E-03; -2.8999999E-01;833;  0.0000000E+00;  0.0000000E+00;  0.0000000E+00;  1.0000085E+03;  1.0000000E-01;  7.0121474E+00;0;  0.0000000E+00;  0.0000000E+00;  0.0000000E+00;0; -1.7724609E-03;  4.0000000E+04;  0.0000000E+00;  0.0000000E+00;  4.0000000E+04;  0.0000000E+00;  4.0000000E+04; -1.4675504E-03;  0.0000000E+00; -3.0491050E-04;  1.5989429E+02;
 -1.1000000E-01;  9.9999998E-03; -2.8000000E-01;834;  0.0000000E+00;  0.0000000E+00;  0.0000000E+00;  1.0000096E+03;  1.0000000E-01;  7.9997740E+00;0;  0.0000000E+00;  0.0000000E+00;  0.0000000E+00;0; -2.0345692E-03;  4.0000000E+04;  0.0000000E+00;  0.0000000E+00;  4.0000000E+04;  0.0000000E+00;  4.0000000E+04; -1.7534076E-03;  0.0000000E+00; -2.8116154E-04;  1.0681831E+02;
 -1.0000000E-01;  9.9999998E-03; -4.4000000E-01;909;  0.0000000E+00;  0.0000000E+00;  0.0000000E+00;  1.0000000E+03;  1.0000000E-01;  0.0000000E+00;0;  0.0000000E+00;  0.0000000E+00;  0.0000000E+00;0;  0.0000000E+00;  4.0000000E+04;  0.0000000E+00;  0.0000000E+00;  4.0000000E+04;  0.0000000E+00;  4.0000000E+04;  0.0000000E+00;  0.0000000E+00;  0.0000000E+00;  0.0000000E+00;
 -1.0000000E-01;  9.9999998E-03; -4.3000001E-01;910;  0.0000000E+00;  0.0000000E+00;  0.0000000E+00;  1.0000000E+03;  1.0000000E-01;  0.0000000E+00;0;  0.0000000E+00;  0.0000000E+00;  0.0000000E+00;0;  0.0000000E+00;  4.0000000E+04;  0.0000000E+00;  0.0000000E+00;  4.0000000E+04;  0.0000000E+00;  4.0000000E+04;  0.0000000E+00;  0.0000000E+00;  0.0000000E+00;  0.0000000E+00;
 -1.0000000E-01;  9.9999998E-03; -4.1999999E-01;911;  0.0000000E+00;  0.0000000E+00;  0.0000000E+00;  1.0000000E+03;  1.0000000E-01;  0.0000000E+00;0;  0.0000000E+00;  0.0000000E+00;  0.0000000E+00;0; -5.0284530E-07;  4.0000000E+04;  0.0000000E+00;  0.0000000E+00;  4.0000000E+04;  0.0000000E+00;  4.0000000E+04; -2.2102026E-07;  0.0000000E+00; -2.8182504E-07;  4.1266099E-01;
 -1.0000000E-01;  9.9999998E-03; -4.1000000E-01;912;  0.0000000E+00;  0.0000000E+00;  0.0000000E+00;  1.0000000E+03;  1.0000000E-01;  0.0000000E+00;0;  0.0000000E+00;  0.0000000E+00;  0.0000000E+00;0; -5.8700402E-06;  4.0000000E+04;  0.0000000E+00;  0.0000000E+00;  4.0000000E+04;  0.0000000E+00;  4.0000000E+04; -2.6275507E-06;  0.0000000E+00; -3.2424896E-06;  4.2340350E+00;
 -1.0000000E-01;  9.9999998E-03; -4.0000001E-01;913;  0.0000000E+00;  0.0000000E+00;  0.0000000E+00;  1.0000000E+03;  1.0000000E-01;  0.0000000E+00;0;  0.0000000E+00;  0.0000000E+00;  0.0000000E+00;0; -2.4773522E-05;  4.0000000E+04;  0.0000000E+00;  0.0000000E+00;  4.0000000E+04;  0.0000000E+00;  4.0000000E+04; -1.1632395E-05;  0.0000000E+00; -1.3141127E-05;  1.6109556E+01;
 -1.0000000E-01;  9.9999998E-03; -3.8999999E-01;914;  0.0000000E+00;  0.0000000E+00;  0.0000000E+00;  1.0000000E+03;  1.0000000E-01;  0.0000000E+00;0;  0.0000000E+00;  0.0000000E+00;  0.0000000E+00;0; -6.8229667E-05;  4.0000000E+04;  0.0000000E+00;  0.0000000E+00;  4.0000000E+04;  0.0000000E+00;  4.0000000E+04; -3.3977285E-05;  0.0000000E+00; -3.4252382E-05;  3.9733257E+01;
 -1.0000000E-01;  9.9999998E-03; -3.8000000E-01;915;  0.0000000E+00;  0.0000000E+00;  0.0000000E+00;  1.0000000E+03;  1.0000000E-01;  0.0000000E+00;0;  0.0000000E+00;  0.0000000E+00;  0.0000000E+00;0; -1.4800890E-04;  4.0000000E+04;  0.0000000E+00;  0.0000000E+00;  4.0000000E+04;  0.0000000E+00;  4.0000000E+04; -7.8398814E-05;  0.0000000E+00; -6.9610076E-05;  7.6528648E+01;
 -1.0000000E-01;  9.9999998E-03; -3.7000000E-01;916;  0.0000000E+00;  0.0000000E+00;  0.0000000E+00;  1.0000000E+03;  1.0000000E-01;  0.0000000E+00;0;  0.0000000E+00;  0.0000000E+00;  0.0000000E+00;0; -2.7546959E-04;  4.0000000E+04;  0.0000000E+00;  0.0000000E+00;  4.0000000E+04;  0.0000000E+00;  4.0000000E+04; -1.5493896E-04;  0.0000000E+00; -1.2053064E-04;  1.2553750E+02;
 -1.0000000E-01;  9.9999998E-03; -3.6000001E-01;917;  0.0000000E+00;  0.0000000E+00;  0.0000000E+00;  1.0000000E+03;  1.0000000E-01;  0.0000000E+00;0;  0.0000000E+00;  0.0000000E+00;  0.0000000E+00;0; -4.6056980E-04;  4.0000000E+04;  0.0000000E+00;  0.0000000E+00;  4.0000000E+04;  0.0000000E+00;  4.0000000E+04; -2.7404435E-04;  0.0000000E+00; -1.8652547E-04;  1.8371056E+02;
 -1.0000000E-01;  9.9999998E-03; -3.4999999E-01;918;  0.0000000E+00;  0.0000000E+00;  0.0000000E+00;  1.0000043E+03;  1.0000000E-01;  3.5554550E+00;0;  0.0000000E+00;  0.0000000E+00;  0.0000000E+00;0; -7.1035069E-04;  4.0000000E+04;  0.0000000E+00;  0.0000000E+00;  4.0000000E+04;  0.0000000E+00;  4.0000000E+04; -4.4519620E-04;  0.0000000E+00; -2.6515449E-04;  2.4613376E+02;
 -1.0000000E-01;  9.9999998E-03; -3.4000000E-01;919;  0.0000000E+00;  0.0000000E+00;  0.0000000E+00;  1.0000060E+03;  1.0000000E-01;  5.0368948E+00;0;  0.0000000E+00;  0.0000000E+00;  0.0000000E+00;0; -1.0273510E-03;  4.0000000E+04;  0.0000000E+00;  0.0000000E+00;  4.0000000E+04;  0.0000000E+00;  4.0000000E+04; -6.7553145E-04;  0.0000000E+00; -3.5181962E-04;  3.0621457E+02;
 -1.0000000E-01;  9.9999998E-03; -3.3000001E-01;920;  0.0000000E+00;  0.0000000E+00;  0.0000000E+00;  1.0000068E+03;  1.0000000E-01;  5.6294703E+00;0;  0.0000000E+00;  0.0000000E+00;  0.0000000E+00;0; -1.4081635E-03;  4.0000000E+04;  0.0000000E+00;  0.0000000E+00;  4.0000000E+04;  0.0000000E+00;  4.0000000E+04; -9.6859183E-04;  0.0000000E+00; -4.3957165E-04;  3.5597415E+02;
 -1.0000000E-01;  9.9999998E-03; -3.1999999E-01;921;  0.0000000E+00;  0.0000000E+00;  0.0000000E+00;  1.0000101E+03;  1.0000000E-01;  8.2960615E+00;0;  0.0000000E+00;  0.0000000E+00;  0.0000000E+00;0; -1.8427307E-03;  4.0000000E+04;  0.0000000E+00;  0.0000000E+00;  4.0000000E+04;  0.0000000E+00;  4.0000000E+04; -1.3235281E-03;  0.0000000E+00; -5.1920250E-04;  3.8669110E+02;
 -1.0000000E-01;  9.9999998E-03; -3.1000000E-01;922;  0.0000000E+00;  0.0000000E+00;  0.0000000E+00;  1.0000118E+03;  1.0000000E-01;  9.7775011E+00;0;  0.0000000E+00;  0.0000000E+00;  0.0000000E+00;0; -2.3151352E-03;  4.0000000E+04;  0.0000000E+00;  0.0000000E+00;  4.0000000E+04;  0.0000000E+00;  4.0000000E+04; -1.7351444E-03;  0.0000000E+00; -5.7999091E-04;  3.9011722E+02;
 -1.0000000E-01;  9.9999998E-03; -3.0000001E-01;923;  0.0000000E+00;  0.0000000E+00;  0.0000000E+00;  1.0000142E+03;  1.0000000E-01;  1.1752754E+01;0;  0.0000000E+00;  0.0000000E+00;  0.0000000E+00;0; -2.8062253E-03;  4.0000000E+04;  0.0000000E+00;  0.0000000E+00;  4.0000000E+04;  0.0000000E+00;  4.0000000E+04; -2.1948554E-03;  0.0000000E+00; -6.1137002E-04;  3.6025696E+02;
 -1.0000000E-01;  9.9999998E-03; -2.8999999E-01;924;  0.0000000E+00;  0.0000000E+00;  0.0000000E+00;  1.0000162E+03;  1.0000000E-01;  1.3431719E+01;0;  0.0000000E+00;  0.0000000E+00;  0.0000000E+00;0; -3.2976579E-03;  4.0000000E+04;  0.0000000E+00;  0.0000000E+00;  4.0000000E+04;  0.0000000E+00;  4.0000000E+04; -2.6923064E-03;  0.0000000E+00; -6.0535152E-04;  2.9528860E+02;
 -1.0000000E-01;  9.9999998E-03; -2.8000000E-01;925;  0.0000000E+00;  0.0000000E+00;  0.0000000E+00;  1.0000179E+03;  1.0000000E-01;  1.4814396E+01;0;  0.0000000E+00;  0.0000000E+00;  0.0000000E+00;0; -3.7759356E-03;  4.0000000E+04;  0.0000000E+00;  0.0000000E+00;  4.0000000E+04;  0.0000000E+00;  4.0000000E+04; -3.2171244E-03;  0.0000000E+00; -5.5881124E-04;  1.9880260E+02;
 -9.0000004E-02;  9.9999998E-03; -4.4000000E-01;1000;  0.0000000E+00;  0.0000000E+00;  0.0000000E+00;  1.0000000E+03;  1.0000000E-01;  0.0000000E+00;0;  0.0000000E+00;  0.0000000E+00;  0.0000000E+00;0;  0.0000000E+00;  4.0000000E+04;  0.0000000E+00;  0.0000000E+00;  4.0000000E+04;  0.0000000E+00;  4.0000000E+04;  0.0000000E+00;  0.0000000E+00;  0.0000000E+00;  0.0000000E+00;
 -9.0000004E-02;  9.9999998E-03; -4.3000001E-01;1001;  0.0000000E+00;  0.0000000E+00;  0.0000000E+00;  1.0000000E+03;  1.0000000E-01;  0.0000000E+00;0;  0.0000000E+00;  0.0000000E+00;  0.0000000E+00;0; -2.1565702E-07;  4.0000000E+04;  0.0000000E+00;  0.0000000E+00;  4.0000000E+04;  0.0000000E+00;  4.0000000E+04; -9.1252467E-08;  0.0000000E+00; -1.2440455E-07;  1.9910195E-01;
 -9.0000004E-02;  9.9999998E-03; -4.1999999E-01;1002;  0.0000000E+00;  0.0000000E+00;  0.0000000E+00;  1.0000000E+03;  1.0000000E-01;  0.0000000E+00;0;  0.0000000E+00;  0.0000000E+00;  0.0000000E+00;0; -4.6015571E-06;  4.0000000E+04;  0.0000000E+00;  0.0000000E+00;  4.0000000E+04;  0.0000000E+00;  4.0000000E+04; -1.8754891E-06;  0.0000000E+00; -2.7260680E-06;  3.6523826E+00;
 -9.0000004E-02;  9.9999998E-03; -4.1000000E-01;1003;  0.0000000E+00;  0.0000000E+00;  0.0000000E+00;  1.0000000E+03;  1.0000000E-01;  0.0000000E+00;0;  0.0000000E+00;  0.0000000E+00;  0.0000000E+00;0; -2.3672150E-05;  4.0000000E+04;  0.0000000E+00;  0.0000000E+00;  4.0000000E+04;  0.0000000E+00;  4.0000000E+04; -9.9477456E-06;  0.0000000E+00; -1.3724404E-05;  1.7070951E+01;
 -9.0000004E-02;  9.9999998E-03; -4.0000001E-01;1004;  0.0000000E+00;  0.0000000E+00;  0.0000000E+00;  1.0000000E+03;  1.0000000E-01;  0.0000000E+00;0;  0.0000000E+00;  0.0000000E+00;  0.0000000E+00;0; -7.2249502E-05;  4.0000000E+04;  0.0000000E+00;  0.0000000E+00;  4.0000000E+04;  0.0000000E+00;  4.0000000E+04; -3.2036736E-05;  0.0000000E+00; -4.0212770E-05;  4.7048641E+01;
 -9.0000004E-02;  9.9999998E-03; -3.8999999E-01;1005;  0.0000000E+00;  0.0000000E+00;  0.0000000E+00;  1.0000000E+03;  1.0000000E-01;  0.0000000E+00;0;  0.0000000E+00;  0.0000000E+00;  0.0000000E+00;0; -1.6690238E-04;  4.0000000E+04;  0.0000000E+00;  0.0000000E+00;  4.0000000E+04;  0.0000000E+00;  4.0000000E+04; -7.8926569E-05;  0.0000000E+00; -8.7975801E-05;  9.7156693E+01;
 -9.0000004E-02;  9.9999998E-03; -3.8000000E-01;1006;  0.0000000E+00;  0.0000000E+00;  0.0000000E+00;  1.0000000E+03;  1.0000000E-01;  0.0000000E+00;0;  0.0000000E+00;  0.0000000E+00;  0.0000000E+00;0; -3.2445439E-04;  4.0000000E+04;  0.0000000E+00;  0.0000000E+00;  4.0000000E+04;  0.0000000E+00;  4.0000000E+04; -1.6408964E-04;  0.0000000E+00; -1.6036475E-04;  1.6733798E+02;
 -9.0000004E-02;  9.9999998E-03; -3.7000000E-01;1007;  0.0000000E+00;  0.0000000E+00;  0.0000000E+00;  1.0000021E+03;  1.0000000E-01;  1.6789649E+00;0;  0.0000000E+00;  0.0000000E+00;  0.0000000E+00;0; -5.6097546E-04;  4.0000000E+04;  0.0000000E+00;  0.0000000E+00;  4.0000000E+04;  0.0000000E+00;  4.0000000E+04; -3.0283479E-04;  0.0000000E+00; -2.5814067E-04;  2.5444820E+02;
 -9.0000004E-02;  9.9999998E-03; -3.6000001E-01;1008;  0.0000000E+00;  0.0000000E+00;  0.0000000E+00;  1.0000059E+03;  1.0000000E-01;  4.9381318E+00;0;  0.0000000E+00;  0.0000000E+00;  0.0000000E+00;0; -8.9060061E-04;  4.0000000E+04;  0.0000000E+00;  0.0000000E+00;  4.0000000E+04;  0.0000000E+00;  4.0000000E+04; -5.1108457E-04;  0.0000000E+00; -3.7951607E-04;  3.5281396E+02;
 -9.0000004E-02;  9.9999998E-03; -3.4999999E-01;1009;  0.0000000E+00;  0.0000000E+00;  0.0000000E+00;  1.0000073E+03;  1.0000000E-01;  6.0245209E+00;0;  0.0000000E+00;  0.0000000E+00;  0.0000000E+00;0; -1.3233884E-03;  4.0000000E+04;  0.0000000E+00;  0.0000000E+00;  4.0000000E+04;  0.0000000E+00;  4.0000000E+04; -8.0349972E-04;  0.0000000E+00; -5.1988877E-04;  4.5444345E+02;
 -9.0000004E-02;  9.9999998E-03; -3.4000000E-01;1010;  0.0000000E+00;  0.0000000E+00;  0.0000000E+00;  1.0000111E+03;  1.0000000E-01;  9.1849251E+00;0;  0.0000000E+00;  0.0000000E+00;  0.0000000E+00;0; -1.8628349E-03;  4.0000000E+04;  0.0000000E+00;  0.0000000E+00;  4.0000000E+04;  0.0000000E+00;  4.0000000E+04; -1.1914747E-03;  0.0000000E+00; -6.7136018E-04;  5.4910309E+02;
 -9.0000004E-02;  9.9999998E-03; -3.3000001E-01;1011;  0.0000000E+00;  0.0000000E+00;  0.0000000E+00;  1.0000134E+03;  1.0000000E-01;  1.1061416E+01;0;  0.0000000E+00;  0.0000000E+00;  0.0000000E+00;0; -2.5035434E-03;  4.0000000E+04;  0.0000000E+00;  0.0000000E+00;  4.0000000E+04;  0.0000000E+00;  4.0000000E+04; -1.6812687E-03;  0.0000000E+00; -8.2227477E-04;  6.2459705E+02;
 -9.0000004E-02;  9.9999998E-03; -3.1999999E-01;1012;  0.0000000E+00;  0.0000000E+00;  0.0000000E+00;  1.0000178E+03;  1.0000000E-01;  1.4814396E+01;0;  0.0000000E+00;  0.0000000E+00;  0.0000000E+00;0; -3.2300034E-03;  4.0000000E+04;  0.0000000E+00;  0.0000000E+00;  4.0000000E+04;  0.0000000E+00;  4.0000000E+04; -2.2727356E-03;  0.0000000E+00; -9.5726782E-04;  6.6766638E+02;
 -9.0000004E-02;  9.9999998E-03; -3.1000000E-01;1013;  0.0000000E+00;  0.0000000E+00;  0.0000000E+00;  1.0000217E+03;  1.0000000E-01;  1.7974800E+01;0;  0.0000000E+00;  0.0000000E+00;  0.0000000E+00;0; -4.0177461E-03;  4.0000000E+04;  0.0000000E+00;  0.0000000E+00;  4.0000000E+04;  0.0000000E+00;  4.0000000E+04; -2.9592649E-03;  0.0000000E+00; -1.0584811E-03;  6.6587311E+02;
 -9.0000004E-02;  9.9999998E-03; -3.0000001E-01;1014;  0.0000000E+00;  0.0000000E+00;  0.0000000E+00;  1.0000252E+03;  1.0000000E-01;  2.0838917E+01;0;  0.0000000E+00;  0.0000000E+00;  0.0000000E+00;0; -4.8373626E-03;  4.0000000E+04;  0.0000000E+00;  0.0000000E+00;  4.0000000E+04;  0.0000000E+00;  4.0000000E+04; -3.7289849E-03;  0.0000000E+00; -1.1083778E-03;  6.1040894E+02;
 -9.0000004E-02;  9.9999998E-03; -2.8999999E-01;1015;  0.0000000E+00;  0.0000000E+00;  0.0000000E+00;  1.0000288E+03;  1.0000000E-01;  2.3900558E+01;0;  0.0000000E+00;  0.0000000E+00;  0.0000000E+00;0; -5.6607076E-03;  4.0000000E+04;  0.0000000E+00;  0.0000000E+00;  4.0000000E+04;  0.0000000E+00;  4.0000000E+04; -4.5669130E-03;  0.0000000E+00; -1.0937945E-03;  4.9911472E+02;
 -9.0000004E-02;  9.9999998E-03; -2.8000000E-01;1016;  0.0000000E+00;  0.0000000E+00;  0.0000000E+00;  1.0000326E+03;  1.0000000E-01;  2.6962200E+01;0;  0.0000000E+00;  0.0000000E+00;  0.0000000E+00;0; -6.4670625E-03;  4.0000000E+04;  0.0000000E+00;  0.0000000E+00;  4.0000000E+04;  0.0000000E+00;  4.0000000E+04; -5.4573272E-03;  0.0000000E+00; -1.0097352E-03;  3.3853900E+02;
 -7.9999998E-02;  9.9999998E-03; -4.4000000E-01;1091;  0.0000000E+00;  0.0000000E+00;  0.0000000E+00;  1.0000000E+03;  1.0000000E-01;  0.0000000E+00;0;  0.0000000E+00;  0.0000000E+00;  0.0000000E+00;0; -3.1602603E-08;  4.0000000E+04;  0.0000000E+00;  0.0000000E+00;  4.0000000E+04;  0.0000000E+00;  4.0000000E+04; -1.2984755E-08;  0.0000000E+00; -1.8617849E-08;  3.4258872E-02;
 -7.9999998E-02;  9.9999998E-03; -4.3000001E-01;1092;  0.0000000E+00;  0.0000000E+00;  0.0000000E+00;  1.0000000E+03;  1.0000000E-01;  0.0000000E+00;0;  0.0000000E+00;  0.0000000E+00;  0.0000000E+00;0; -2.4957865E-06;  4.0000000E+04;  0.0000000E+00;  0.0000000E+00;  4.0000000E+04;  0.0000000E+00;  4.0000000E+04; -9.4903385E-07;  0.0000000E+00; -1.5467526E-06;  2.1626422E+00;
 -7.9999998E-02;  9.9999998E-03; -4.1999999E-01;1093;  0.0000000E+00;  0.0000000E+00;  0.0000000E+00;  1.0000000E+03;  1.0000000E-01;  0.0000000E+00;0;  0.0000000E+00;  0.0000000E+00;  0.0000000E+00;0; -1.8101715E-05;  4.0000000E+04;  0.0000000E+00;  0.0000000E+00;  4.0000000E+04;  0.0000000E+00;  4.0000000E+04; -6.8953686E-06;  0.0000000E+00; -1.1206346E-05;  1.4262370E+01;
 -7.9999998E-02;  9.9999998E-03; -4.1000000E-01;1094;  0.0000000E+00;  0.0000000E+00;  0.0000000E+00;  1.0000000E+03;  1.0000000E-01;  0.0000000E+00;0;  0.0000000E+00;  0.0000000E+00;  0.0000000E+00;0; -6.5244429E-05;  4.0000000E+04;  0.0000000E+00;  0.0000000E+00;  4.0000000E+04;  0.0000000E+00;  4.0000000E+04; -2.5838239E-05;  0.0000000E+00; -3.9406194E-05;  4.6737991E+01;
 -7.9999998E-02;  9.9999998E-03; -4.0000001E-01;1095;  0.0000000E+00;  0.0000000E+00;  0.0000000E+00;  1.0000000E+03;  1.0000000E-01;  0.0000000E+00;0;  0.0000000E+00;  0.0000000E+00;  0.0000000E+00;0; -1.6613290E-04;  4.0000000E+04;  0.0000000E+00;  0.0000000E+00;  4.0000000E+04;  0.0000000E+00;  4.0000000E+04; -6.9860725E-05;  0.0000000E+00; -9.6272168E-05;  1.0713342E+02;
 -7.9999998E-02;  9.9999998E-03; -3.8999999E-01;1096;  0.0000000E+00;  0.0000000E+00;  0.0000000E+00;  1.0000000E+03;  1.0000000E-01;  0.0000000E+00;0;  0.0000000E+00;  0.0000000E+00;  0.0000000E+00;0; -3.4397241E-04;  4.0000000E+04;  0.0000000E+00;  0.0000000E+00;  4.0000000E+04;  0.0000000E+00;  4.0000000E+04; -1.5516329E-04;  0.0000000E+00; -1.8880912E-04;  1.9775395E+02;
 -7.9999998E-02;  9.9999998E-03; -3.8000000E-01;1097;  0.0000000E+00;  0.0000000E+00;  0.0000000E+00;  1.0000037E+03;  1.0000000E-01;  3.0616417E+00;0;  0.0000000E+00;  0.0000000E+00;  0.0000000E+00;0; -6.2191917E-04;  4.0000000E+04;  0.0000000E+00;  0.0000000E+00;  4.0000000E+04;  0.0000000E+00;  4.0000000E+04; -3.0168783E-04;  0.0000000E+00; -3.2023134E-04;  3.1614917E+02;
 -7.9999998E-02;  9.9999998E-03; -3.7000000E-01;1098;  0.0000000E+00;  0.0000000E+00;  0.0000000E+00;  1.0000069E+03;  1.0000000E-01;  5.7282329E+00;0;  0.0000000E+00;  0.0000000E+00;  0.0000000E+00;0; -1.0223240E-03;  4.0000000E+04;  0.0000000E+00;  0.0000000E+00;  4.0000000E+04;  0.0000000E+00;  4.0000000E+04; -5.3207262E-04;  0.0000000E+00; -4.9025140E-04;  4.5630460E+02;
 -7.9999998E-02;  9.9999998E-03; -3.6000001E-01;1099;  0.0000000E+00;  0.0000000E+00;  0.0000000E+00;  1.0000081E+03;  1.0000000E-01;  6.7158594E+00;0;  0.0000000E+00;  0.0000000E+00;  0.0000000E+00;0; -1.5651827E-03;  4.0000000E+04;  0.0000000E+00;  0.0000000E+00;  4.0000000E+04;  0.0000000E+00;  4.0000000E+04; -8.6999801E-04;  0.0000000E+00; -6.9518469E-04;  6.0929529E+02;
 -7.9999998E-02;  9.9999998E-03; -3.4999999E-01;1100;  0.0000000E+00;  0.0000000E+00;  0.0000000E+00;  1.0000138E+03;  1.0000000E-01;  1.1456466E+01;0;  0.0000000E+00;  0.0000000E+00;  0.0000000E+00;0; -2.2649972E-03;  4.0000000E+04;  0.0000000E+00;  0.0000000E+00;  4.0000000E+04;  0.0000000E+00;  4.0000000E+04; -1.3376195E-03;  0.0000000E+00; -9.2737773E-04;  7.6329144E+02;
 -7.9999998E-02;  9.9999998E-03; -3.4000000E-01;1101;  0.0000000E+00;  0.0000000E+00;  0.0000000E+00;  1.0000189E+03;  1.0000000E-01;  1.5703259E+01;0;  0.0000000E+00;  0.0000000E+00;  0.0000000E+00;0; -3.1268948E-03;  4.0000000E+04;  0.0000000E+00;  0.0000000E+00;  4.0000000E+04;  0.0000000E+00;  4.0000000E+04; -1.9526661E-03;  0.0000000E+00; -1.1742287E-03;  9.0338477E+02;
 -7.9999998E-02;  9.9999998E-03; -3.3000001E-01;1102;  0.0000000E+00;  0.0000000E+00;  0.0000000E+00;  1.0000244E+03;  1.0000000E-01;  2.0246342E+01;0;  0.0000000E+00;  0.0000000E+00;  0.0000000E+00;0; -4.1429168E-03;  4.0000000E+04;  0.0000000E+00;  0.0000000E+00;  4.0000000E+04;  0.0000000E+00;  4.0000000E+04; -2.7256494E-03;  0.0000000E+00; -1.4172673E-03;  1.0118245E+03;
 -7.9999998E-02;  9.9999998E-03; -3.1999999E-01;1103;  0.0000000E+00;  0.0000000E+00;  0.0000000E+00;  1.0000303E+03;  1.0000000E-01;  2.5085711E+01;0;  0.0000000E+00;  0.0000000E+00;  0.0000000E+00;0; -5.2900473E-03;  4.0000000E+04;  0.0000000E+00;  0.0000000E+00;  4.0000000E+04;  0.0000000E+00;  4.0000000E+04; -3.6578921E-03;  0.0000000E+00; -1.6321550E-03;  1.0692831E+03;
 -7.9999998E-02;  9.9999998E-03; -3.1000000E-01;1104;  0.0000000E+00;  0.0000000E+00;  0.0000000E+00;  1.0000364E+03;  1.0000000E-01;  3.0122604E+01;0;  0.0000000E+00;  0.0000000E+00;  0.0000000E+00;0; -6.5318383E-03;  4.0000000E+04;  0.0000000E+00;  0.0000000E+00;  4.0000000E+04;  0.0000000E+00;  4.0000000E+04; -4.7411863E-03;  0.0000000E+00; -1.7906521E-03;  1.0577202E+03;
 -7.9999998E-02;  9.9999998E-03; -3.0000001E-01;1105;  0.0000000E+00;  0.0000000E+00;  0.0000000E+00;  1.0000424E+03;  1.0000000E-01;  3.5159500E+01;0;  0.0000000E+00;  0.0000000E+00;  0.0000000E+00;0; -7.8243706E-03;  4.0000000E+04;  0.0000000E+00;  0.0000000E+00;  4.0000000E+04;  0.0000000E+00;  4.0000000E+04; -5.9592393E-03;  0.0000000E+00; -1.8651317E-03;  9.6463660E+02;
 -7.9999998E-02;  9.9999998E-03; -2.8999999E-01;1106;  0.0000000E+00;  0.0000000E+00;  0.0000000E+00;  1.0000489E+03;  1.0000000E-01;  4.0492683E+01;0;  0.0000000E+00;  0.0000000E+00;  0.0000000E+00;0; -9.1255177E-03;  4.0000000E+04;  0.0000000E+00;  0.0000000E+00;  4.0000000E+04;  0.0000000E+00;  4.0000000E+04; -7.2904662E-03;  0.0000000E+00; -1.8350511E-03;  7.8771094E+02;
 -7.9999998E-02;  9.9999998E-03; -2.8000000E-01;1107;  0.0000000E+00;  0.0000000E+00;  0.0000000E+00;  1.0000548E+03;  1.0000000E-01;  4.5430813E+01;0;  0.0000000E+00;  0.0000000E+00;  0.0000000E+00;0; -1.0404252E-02;  4.0000000E+04;  0.0000000E+00;  0.0000000E+00;  4.0000000E+04;  0.0000000E+00;  4.0000000E+04; -8.7113045E-03;  0.0000000E+00; -1.6929479E-03;  5.3814941E+02;
 -7.0000000E-02;  9.9999998E-03; -4.4000000E-01;1182;  0.0000000E+00;  0.0000000E+00;  0.0000000E+00;  1.0000000E+03;  1.0000000E-01;  0.0000000E+00;0;  0.0000000E+00;  0.0000000E+00;  0.0000000E+00;0; -7.5144271E-07;  4.0000000E+04;  0.0000000E+00;  0.0000000E+00;  4.0000000E+04;  0.0000000E+00;  4.0000000E+04; -2.7786359E-07;  0.0000000E+00; -4.7357909E-07;  7.1740067E-01;
 -7.0000000E-02;  9.9999998E-03; -4.3000001E-01;1183;  0.0000000E+00;  0.0000000E+00;  0.0000000E+00;  1.0000000E+03;  1.0000000E-01;  0.0000000E+00;0;  0.0000000E+00;  0.0000000E+00;  0.0000000E+00;0; -1.0357772E-05;  4.0000000E+04;  0.0000000E+00;  0.0000000E+00;  4.0000000E+04;  0.0000000E+00;  4.0000000E+04; -3.6641334E-06;  0.0000000E+00; -6.6936391E-06;  8.8268843E+00;
 -7.0000000E-02;  9.9999998E-03; -4.1999999E-01;1184;  0.0000000E+00;  0.0000000E+00;  0.0000000E+00;  1.0000000E+03;  1.0000000E-01;  0.0000000E+00;0;  0.0000000E+00;  0.0000000E+00;  0.0000000E+00;0; -4.8725178E-05;  4.0000000E+04;  0.0000000E+00;  0.0000000E+00;  4.0000000E+04;  0.0000000E+00;  4.0000000E+04; -1.7455070E-05;  0.0000000E+00; -3.1270109E-05;  3.7870567E+01;
 -7.0000000E-02;  9.9999998E-03; -4.1000000E-01;1185;  0.0000000E+00;  0.0000000E+00;  0.0000000E+00;  1.0000000E+03;  1.0000000E-01;  0.0000000E+00;0;  0.0000000E+00;  0.0000000E+00;  0.0000000E+00;0; -1.4387153E-04;  4.0000000E+04;  0.0000000E+00;  0.0000000E+00;  4.0000000E+04;  0.0000000E+00;  4.0000000E+04; -5.3959040E-05;  0.0000000E+00; -8.9912479E-05;  1.0128217E+02;
 -7.0000000E-02;  9.9999998E-03; -4.0000001E-01;1186;  0.0000000E+00;  0.0000000E+00;  0.0000000E+00;  1.0000000E+03;  1.0000000E-01;  0.0000000E+00;0;  0.0000000E+00;  0.0000000E+00;  0.0000000E+00;0; -3.2668159E-04;  4.0000000E+04;  0.0000000E+00;  0.0000000E+00;  4.0000000E+04;  0.0000000E+00;  4.0000000E+04; -1.3090968E-04;  0.0000000E+00; -1.9577192E-04;  2.0637994E+02;
 -7.0000000E-02;  9.9999998E-03; -3.8999999E-01;1187;  0.0000000E+00;  0.0000000E+00;  0.0000000E+00;  1.0000039E+03;  1.0000000E-01;  3.2591672E+00;0;  0.0000000E+00;  0.0000000E+00;  0.0000000E+00;0; -6.2829687E-04;  4.0000000E+04;  0.0000000E+00;  0.0000000E+00;  4.0000000E+04;  0.0000000E+00;  4.0000000E+04; -2.7165451E-04;  0.0000000E+00; -3.5664238E-04;  3.5316449E+02;
 -7.0000000E-02;  9.9999998E-03; -3.8000000E-01;1188;  0.0000000E+00;  0.0000000E+00;  0.0000000E+00;  1.0000074E+03;  1.0000000E-01;  6.1232834E+00;0;  0.0000000E+00;  0.0000000E+00;  0.0000000E+00;0; -1.0798888E-03;  4.0000000E+04;  0.0000000E+00;  0.0000000E+00;  4.0000000E+04;  0.0000000E+00;  4.0000000E+04; -5.0479587E-04;  0.0000000E+00; -5.7509297E-04;  5.3607318E+02;
 -7.0000000E-02;  9.9999998E-03; -3.7000000E-01;1189;  0.0000000E+00;  0.0000000E+00;  0.0000000E+00;  1.0000115E+03;  1.0000000E-01;  9.4812136E+00;0;  0.0000000E+00;  0.0000000E+00;  0.0000000E+00;0; -1.7122074E-03;  4.0000000E+04;  0.0000000E+00;  0.0000000E+00;  4.0000000E+04;  0.0000000E+00;  4.0000000E+04; -8.6291996E-04;  0.0000000E+00; -8.4928743E-04;  7.4568976E+02;
 -7.0000000E-02;  9.9999998E-03; -3.6000001E-01;1190;  0.0000000E+00;  0.0000000E+00;  0.0000000E+00;  1.0000156E+03;  1.0000000E-01;  1.2937905E+01;0;  0.0000000E+00;  0.0000000E+00;  0.0000000E+00;0; -2.5533950E-03;  4.0000000E+04;  0.0000000E+00;  0.0000000E+00;  4.0000000E+04;  0.0000000E+00;  4.0000000E+04; -1.3803837E-03;  0.0000000E+00; -1.1730114E-03;  9.6928503E+02;
 -7.0000000E-02;  9.9999998E-03; -3.4999999E-01;1191;  0.0000000E+00;  0.0000000E+00;  0.0000000E+00;  1.0000221E+03;  1.0000000E-01;  1.8271088E+01;0;  0.0000000E+00;  0.0000000E+00;  0.0000000E+00;0; -3.6243498E-03;  4.0000000E+04;  0.0000000E+00;  0.0000000E+00;  4.0000000E+04;  0.0000000E+00;  4.0000000E+04; -2.0898189E-03;  0.0000000E+00; -1.5345308E-03;  1.1903984E+03;
 -7.0000000E-02;  9.9999998E-03; -3.4000000E-01;1192;  0.0000000E+00;  0.0000000E+00;  0.0000000E+00;  1.0000307E+03;  1.0000000E-01;  2.5480761E+01;0;  0.0000000E+00;  0.0000000E+00;  0.0000000E+00;0; -4.9327994E-03;  4.0000000E+04;  0.0000000E+00;  0.0000000E+00;  4.0000000E+04;  0.0000000E+00;  4.0000000E+04; -3.0180011E-03;  0.0000000E+00; -1.9147980E-03;  1.3882769E+03;
 -7.0000000E-02;  9.9999998E-03; -3.3000001E-01;1193;  0.0000000E+00;  0.0000000E+00;  0.0000000E+00;  1.0000392E+03;  1.0000000E-01;  3.2492908E+01;0;  0.0000000E+00;  0.0000000E+00;  0.0000000E+00;0; -6.4676232E-03;  4.0000000E+04;  0.0000000E+00;  0.0000000E+00;  4.0000000E+04;  0.0000000E+00;  4.0000000E+04; -4.1817487E-03;  0.0000000E+00; -2.2858744E-03;  1.5380184E+03;
 -7.0000000E-02;  9.9999998E-03; -3.1999999E-01;1194;  0.0000000E+00;  0.0000000E+00;  0.0000000E+00;  1.0000488E+03;  1.0000000E-01;  4.0393921E+01;0;  0.0000000E+00;  0.0000000E+00;  0.0000000E+00;0; -8.1957523E-03;  4.0000000E+04;  0.0000000E+00;  0.0000000E+00;  4.0000000E+04;  0.0000000E+00;  4.0000000E+04; -5.5848612E-03;  0.0000000E+00; -2.6108914E-03;  1.6123711E+03;
 -7.0000000E-02;  9.9999998E-03; -3.1000000E-01;1195;  0.0000000E+00;  0.0000000E+00;  0.0000000E+00;  1.0000583E+03;  1.0000000E-01;  4.8294930E+01;0;  0.0000000E+00;  0.0000000E+00;  0.0000000E+00;0; -1.0064281E-02;  4.0000000E+04;  0.0000000E+00;  0.0000000E+00;  4.0000000E+04;  0.0000000E+00;  4.0000000E+04; -7.2172121E-03;  0.0000000E+00; -2.8470687E-03;  1.5858763E+03;
 -7.0000000E-02;  9.9999998E-03; -3.0000001E-01;1196;  0.0000000E+00;  0.0000000E+00;  0.0000000E+00;  1.0000682E+03;  1.0000000E-01;  5.6492229E+01;0;  0.0000000E+00;  0.0000000E+00;  0.0000000E+00;0; -1.2009065E-02;  4.0000000E+04;  0.0000000E+00;  0.0000000E+00;  4.0000000E+04;  0.0000000E+00;  4.0000000E+04; -9.0563456E-03;  0.0000000E+00; -2.9527189E-03;  1.4412102E+03;
 -7.0000000E-02;  9.9999998E-03; -2.8999999E-01;1197;  0.0000000E+00;  0.0000000E+00;  0.0000000E+00;  1.0000781E+03;  1.0000000E-01;  6.4689529E+01;0;  0.0000000E+00;  0.0000000E+00;  0.0000000E+00;0; -1.3968432E-02;  4.0000000E+04;  0.0000000E+00;  0.0000000E+00;  4.0000000E+04;  0.0000000E+00;  4.0000000E+04; -1.1071263E-02;  0.0000000E+00; -2.8971699E-03;  1.1760938E+03;
 -7.0000000E-02;  9.9999998E-03; -2.8000000E-01;1198;  0.0000000E+00;  0.0000000E+00;  0.0000000E+00;  1.0000873E+03;  1.0000000E-01;  7.2294250E+01;0;  0.0000000E+00;  0.0000000E+00;  0.0000000E+00;0; -1.5896905E-02;  4.0000000E+04;  0.0000000E+00;  0.0000000E+00;  4.0000000E+04;  0.0000000E+00;  4.0000000E+04; -1.3227021E-02;  0.0000000E+00; -2.6698844E-03;  8.0862433E+02;
 -5.9999999E-02;  9.9999998E-03; -4.4000000E-01;1273;  0.0000000E+00;  0.0000000E+00;  0.0000000E+00;  1.0000000E+03;  1.0000000E-01;  0.0000000E+00;0;  0.0000000E+00;  0.0000000E+00;  0.0000000E+00;0; -3.8588050E-06;  4.0000000E+04;  0.0000000E+00;  0.0000000E+00;  4.0000000E+04;  0.0000000E+00;  4.0000000E+04; -1.3048717E-06;  0.0000000E+00; -2.5539334E-06;  3.5607688E+00;
 -5.9999999E-02;  9.9999998E-03; -4.3000001E-01;1274;  0.0000000E+00;  0.0000000E+00;  0.0000000E+00;  1.0000000E+03;  1.0000000E-01;  0.0000000E+00;0;  0.0000000E+00;  0.0000000E+00;  0.0000000E+00;0; -2.8358430E-05;  4.0000000E+04;  0.0000000E+00;  0.0000000E+00;  4.0000000E+04;  0.0000000E+00;  4.0000000E+04; -9.3863800E-06;  0.0000000E+00; -1.8972050E-05;  2.3709034E+01;
 -5.9999999E-02;  9.9999998E-03; -4.1999999E-01;1275;  0.0000000E+00;  0.0000000E+00;  0.0000000E+00;  1.0000000E+03;  1.0000000E-01;  0.0000000E+00;0;  0.0000000E+00;  0.0000000E+00;  0.0000000E+00;0; -1.0498812E-04;  4.0000000E+04;  0.0000000E+00;  0.0000000E+00;  4.0000000E+04;  0.0000000E+00;  4.0000000E+04; -3.5513935E-05;  0.0000000E+00; -6.9474190E-05;  7.9735466E+01;
 -5.9999999E-02;  9.9999998E-03; -4.1000000E-01;1276;  0.0000000E+00;  0.0000000E+00;  0.0000000E+00;  1.0000000E+03;  1.0000000E-01;  0.0000000E+00;0;  0.0000000E+00;  0.0000000E+00;  0.0000000E+00;0; -2.7311570E-04;  4.0000000E+04;  0.0000000E+00;  0.0000000E+00;  4.0000000E+04;  0.0000000E+00;  4.0000000E+04; -9.7401411E-05;  0.0000000E+00; -1.7571429E-04;  1.8718654E+02;
 -5.9999999E-02;  9.9999998E-03; -4.0000001E-01;1277;  0.0000000E+00;  0.0000000E+00;  0.0000000E+00;  1.0000028E+03;  1.0000000E-01;  2.3703034E+00;0;  0.0000000E+00;  0.0000000E+00;  0.0000000E+00;0; -5.7364430E-04;  4.0000000E+04;  0.0000000E+00;  0.0000000E+00;  4.0000000E+04;  0.0000000E+00;  4.0000000E+04; -2.1995569E-04;  0.0000000E+00; -3.5368864E-04;  3.5208383E+02;
 -5.9999999E-02;  9.9999998E-03; -3.8999999E-01;1278;  0.0000000E+00;  0.0000000E+00;  0.0000000E+00;  1.0000077E+03;  1.0000000E-01;  6.4195714E+00;0;  0.0000000E+00;  0.0000000E+00;  0.0000000E+00;0; -1.0471689E-03;  4.0000000E+04;  0.0000000E+00;  0.0000000E+00;  4.0000000E+04;  0.0000000E+00;  4.0000000E+04; -4.3570908E-04;  0.0000000E+00; -6.1145978E-04;  5.7131628E+02;
 -5.9999999E-02;  9.9999998E-03; -3.8000000E-01;1279;  0.0000000E+00;  0.0000000E+00;  0.0000000E+00;  1.0000125E+03;  1.0000000E-01;  1.0271315E+01;0;  0.0000000E+00;  0.0000000E+00;  0.0000000E+00;0; -1.7349592E-03;  4.0000000E+04;  0.0000000E+00;  0.0000000E+00;  4.0000000E+04;  0.0000000E+00;  4.0000000E+04; -7.8451907E-04;  0.0000000E+00; -9.5044012E-04;  8.3569977E+02;
 -5.9999999E-02;  9.9999998E-03; -3.7000000E-01;1280;  0.0000000E+00;  0.0000000E+00;  0.0000000E+00;  1.0000179E+03;  1.0000000E-01;  1.4913158E+01;0;  0.0000000E+00;  0.0000000E+00;  0.0000000E+00;0; -2.6788234E-03;  4.0000000E+04;  0.0000000E+00;  0.0000000E+00;  4.0000000E+04;  0.0000000E+00;  4.0000000E+04; -1.3120419E-03;  0.0000000E+00; -1.3667815E-03;  1.1320366E+03;
 -5.9999999E-02;  9.9999998E-03; -3.6000001E-01;1281;  0.0000000E+00;  0.0000000E+00;  0.0000000E+00;  1.0000267E+03;  1.0000000E-01;  2.2122831E+01;0;  0.0000000E+00;  0.0000000E+00;  0.0000000E+00;0; -3.9179316E-03;  4.0000000E+04;  0.0000000E+00;  0.0000000E+00;  4.0000000E+04;  0.0000000E+00;  4.0000000E+04; -2.0668292E-03;  0.0000000E+00; -1.8511025E-03;  1.4433170E+03;
 -5.9999999E-02;  9.9999998E-03; -3.4999999E-01;1282;  0.0000000E+00;  0.0000000E+00;  0.0000000E+00;  1.0000359E+03;  1.0000000E-01;  2.9826317E+01;0;  0.0000000E+00;  0.0000000E+00;  0.0000000E+00;0; -5.4820776E-03;  4.0000000E+04;  0.0000000E+00;  0.0000000E+00;  4.0000000E+04;  0.0000000E+00;  4.0000000E+04; -3.0956499E-03;  0.0000000E+00; -2.3864275E-03;  1.7476620E+03;
 -5.9999999E-02;  9.9999998E-03; -3.4000000E-01;1283;  0.0000000E+00;  0.0000000E+00;  0.0000000E+00;  1.0000477E+03;  1.0000000E-01;  3.9505054E+01;0;  0.0000000E+00;  0.0000000E+00;  0.0000000E+00;0; -7.3829759E-03;  4.0000000E+04;  0.0000000E+00;  0.0000000E+00;  4.0000000E+04;  0.0000000E+00;  4.0000000E+04; -4.4377334E-03;  0.0000000E+00; -2.9452424E-03;  2.0172125E+03;
 -5.9999999E-02;  9.9999998E-03; -3.3000001E-01;1284;  0.0000000E+00;  0.0000000E+00;  0.0000000E+00;  1.0000606E+03;  1.0000000E-01;  5.0171421E+01;0;  0.0000000E+00;  0.0000000E+00;  0.0000000E+00;0; -9.6058259E-03;  4.0000000E+04;  0.0000000E+00;  0.0000000E+00;  4.0000000E+04;  0.0000000E+00;  4.0000000E+04; -6.1188415E-03;  0.0000000E+00; -3.4869846E-03;  2.2180898E+03;
 -5.9999999E-02;  9.9999998E-03; -3.1999999E-01;1285;  0.0000000E+00;  0.0000000E+00;  0.0000000E+00;  1.0000743E+03;  1.0000000E-01;  6.1529125E+01;0;  0.0000000E+00;  0.0000000E+00;  0.0000000E+00;0; -1.2104452E-02;  4.0000000E+04;  0.0000000E+00;  0.0000000E+00;  4.0000000E+04;  0.0000000E+00;  4.0000000E+04; -8.1465309E-03;  0.0000000E+00; -3.9579212E-03;  2.3128347E+03;
 -5.9999999E-02;  9.9999998E-03; -3.1000000E-01;1286;  0.0000000E+00;  0.0000000E+00;  0.0000000E+00;  1.0000896E+03;  1.0000000E-01;  7.4269501E+01;0;  0.0000000E+00;  0.0000000E+00;  0.0000000E+00;0; -1.4803780E-02;  4.0000000E+04;  0.0000000E+00;  0.0000000E+00;  4.0000000E+04;  0.0000000E+00;  4.0000000E+04; -1.0508179E-02;  0.0000000E+00; -4.2956015E-03;  2.2662544E+03;
 -5.9999999E-02;  9.9999998E-03; -3.0000001E-01;1287;  0.0000000E+00;  0.0000000E+00;  0.0000000E+00;  1.0001046E+03;  1.0000000E-01;  8.6614838E+01;0;  0.0000000E+00;  0.0000000E+00;  0.0000000E+00;0; -1.7612066E-02;  4.0000000E+04;  0.0000000E+00;  0.0000000E+00;  4.0000000E+04;  0.0000000E+00;  4.0000000E+04; -1.3172735E-02;  0.0000000E+00; -4.4393316E-03;  2.0546084E+03;
 -5.9999999E-02;  9.9999998E-03; -2.8999999E-01;1288;  0.0000000E+00;  0.0000000E+00;  0.0000000E+00;  1.0001190E+03;  1.0000000E-01;  9.8565117E+01;0;  0.0000000E+00;  0.0000000E+00;  0.0000000E+00;0; -2.0440750E-02;  4.0000000E+04;  0.0000000E+00;  0.0000000E+00;  4.0000000E+04;  0.0000000E+00;  4.0000000E+04; -1.6095810E-02;  0.0000000E+00; -4.3449393E-03;  1.6757781E+03;
 -5.9999999E-02;  9.9999998E-03; -2.8000000E-01;1289;  0.0000000E+00;  0.0000000E+00;  0.0000000E+00;  1.0001329E+03;  1.0000000E-01;  1.1012035E+02;0;  0.0000000E+00;  0.0000000E+00;  0.0000000E+00;0; -2.3224551E-02;  4.0000000E+04;  0.0000000E+00;  0.0000000E+00;  4.0000000E+04;  0.0000000E+00;  4.0000000E+04; -1.9226328E-02;  0.0000000E+00; -3.9982237E-03;  1.1572993E+03;
 -5.0000001E-02;  9.9999998E-03; -4.4000000E-01;1364;  0.0000000E+00;  0.0000000E+00;  0.0000000E+00;  1.0000000E+03;  1.0000000E-01;  0.0000000E+00;0;  0.0000000E+00;  0.0000000E+00;  0.0000000E+00;0; -1.1479666E-05;  4.0000000E+04;  0.0000000E+00;  0.0000000E+00;  4.0000000E+04;  0.0000000E+00;  4.0000000E+04; -3.5971261E-06;  0.0000000E+00; -7.8825396E-06;  1.0335613E+01;
 -5.0000001E-02;  9.9999998E-03; -4.3000001E-01;1365;  0.0000000E+00;  0.0000000E+00;  0.0000000E+00;  1.0000000E+03;  1.0000000E-01;  0.0000000E+00;0;  0.0000000E+00;  0.0000000E+00;  0.0000000E+00;0; -6.1038634E-05;  4.0000000E+04;  0.0000000E+00;  0.0000000E+00;  4.0000000E+04;  0.0000000E+00;  4.0000000E+04; -1.8963929E-05;  0.0000000E+00; -4.2074702E-05;  4.9674789E+01;
 -5.0000001E-02;  9.9999998E-03; -4.1999999E-01;1366;  0.0000000E+00;  0.0000000E+00;  0.0000000E+00;  1.0000000E+03;  1.0000000E-01;  0.0000000E+00;0;  0.0000000E+00;  0.0000000E+00;  0.0000000E+00;0; -1.9454422E-04;  4.0000000E+04;  0.0000000E+00;  0.0000000E+00;  4.0000000E+04;  0.0000000E+00;  4.0000000E+04; -6.2295963E-05;  0.0000000E+00; -1.3224826E-04;  1.4319614E+02;
 -5.0000001E-02;  9.9999998E-03; -4.1000000E-01;1367;  0.0000000E+00;  0.0000000E+00;  0.0000000E+00;  1.0000000E+03;  1.0000000E-01;  0.0000000E+00;0;  0.0000000E+00;  0.0000000E+00;  0.0000000E+00;0; -4.6436157E-04;  4.0000000E+04;  0.0000000E+00;  0.0000000E+00;  4.0000000E+04;  0.0000000E+00;  4.0000000E+04; -1.5787805E-04;  0.0000000E+00; -3.0648350E-04;  3.0770526E+02;
 -5.0000001E-02;  9.9999998E-03; -4.0000001E-01;1368;  0.0000000E+00;  0.0000000E+00;  0.0000000E+00;  1.0000073E+03;  1.0000000E-01;  6.0245209E+00;0;  0.0000000E+00;  0.0000000E+00;  0.0000000E+00;0; -9.2274742E-04;  4.0000000E+04;  0.0000000E+00;  0.0000000E+00;  4.0000000E+04;  0.0000000E+00;  4.0000000E+04; -3.3943410E-04;  0.0000000E+00; -5.8331329E-04;  5.4711121E+02;
 -5.0000001E-02;  9.9999998E-03; -3.8999999E-01;1369;  0.0000000E+00;  0.0000000E+00;  0.0000000E+00;  1.0000115E+03;  1.0000000E-01;  9.4812136E+00;0;  0.0000000E+00;  0.0000000E+00;  0.0000000E+00;0; -1.6214056E-03;  4.0000000E+04;  0.0000000E+00;  0.0000000E+00;  4.0000000E+04;  0.0000000E+00;  4.0000000E+04; -6.5089681E-04;  0.0000000E+00; -9.7050885E-04;  8.5464392E+02;
 -5.0000001E-02;  9.9999998E-03; -3.8000000E-01;1370;  0.0000000E+00;  0.0000000E+00;  0.0000000E+00;  1.0000178E+03;  1.0000000E-01;  1.4814396E+01;0;  0.0000000E+00;  0.0000000E+00;  0.0000000E+00;0; -2.6140655E-03;  4.0000000E+04;  0.0000000E+00;  0.0000000E+00;  4.0000000E+04;  0.0000000E+00;  4.0000000E+04; -1.1462156E-03;  0.0000000E+00; -1.4678498E-03;  1.2171847E+03;
 -5.0000001E-02;  9.9999998E-03; -3.7000000E-01;1371;  0.0000000E+00;  0.0000000E+00;  0.0000000E+00;  1.0000288E+03;  1.0000000E-01;  2.3900558E+01;0;  0.0000000E+00;  0.0000000E+00;  0.0000000E+00;0; -3.9566411E-03;  4.0000000E+04;  0.0000000E+00;  0.0000000E+00;  4.0000000E+04;  0.0000000E+00;  4.0000000E+04; -1.8875770E-03;  0.0000000E+00; -2.0690640E-03;  1.6175193E+03;
 -5.0000001E-02;  9.9999998E-03; -3.6000001E-01;1372;  0.0000000E+00;  0.0000000E+00;  0.0000000E+00;  1.0000394E+03;  1.0000000E-01;  3.2690434E+01;0;  0.0000000E+00;  0.0000000E+00;  0.0000000E+00;0; -5.7026986E-03;  4.0000000E+04;  0.0000000E+00;  0.0000000E+00;  4.0000000E+04;  0.0000000E+00;  4.0000000E+04; -2.9417146E-03;  0.0000000E+00; -2.7609842E-03;  2.0339861E+03;
 -5.0000001E-02;  9.9999998E-03; -3.4999999E-01;1373;  0.0000000E+00;  0.0000000E+00;  0.0000000E+00;  1.0000535E+03;  1.0000000E-01;  4.4344425E+01;0;  0.0000000E+00;  0.0000000E+00;  0.0000000E+00;0; -7.8939945E-03;  4.0000000E+04;  0.0000000E+00;  0.0000000E+00;  4.0000000E+04;  0.0000000E+00;  4.0000000E+04; -4.3737846E-03;  0.0000000E+00; -3.5202096E-03;  2.4385837E+03;
 -5.0000001E-02;  9.9999998E-03; -3.4000000E-01;1374;  0.0000000E+00;  0.0000000E+00;  0.0000000E+00;  1.0000709E+03;  1.0000000E-01;  5.8665009E+01;0;  0.0000000E+00;  0.0000000E+00;  0.0000000E+00;0; -1.0548120E-02;  4.0000000E+04;  0.0000000E+00;  0.0000000E+00;  4.0000000E+04;  0.0000000E+00;  4.0000000E+04; -6.2395488E-03;  0.0000000E+00; -4.3085716E-03;  2.7950657E+03;
 -5.0000001E-02;  9.9999998E-03; -3.3000001E-01;1375;  0.0000000E+00;  0.0000000E+00;  0.0000000E+00;  1.0000897E+03;  1.0000000E-01;  7.4368271E+01;0;  0.0000000E+00;  0.0000000E+00;  0.0000000E+00;0; -1.3646252E-02;  4.0000000E+04;  0.0000000E+00;  0.0000000E+00;  4.0000000E+04;  0.0000000E+00;  4.0000000E+04; -8.5769026E-03;  0.0000000E+00; -5.0693504E-03;  3.0586028E+03;
 -5.0000001E-02;  9.9999998E-03; -3.1999999E-01;1376;  0.0000000E+00;  0.0000000E+00;  0.0000000E+00;  1.0001100E+03;  1.0000000E-01;  9.1157913E+01;0;  0.0000000E+00;  0.0000000E+00;  0.0000000E+00;0; -1.7125577E-02;  4.0000000E+04;  0.0000000E+00;  0.0000000E+00;  4.0000000E+04;  0.0000000E+00;  4.0000000E+04; -1.1398690E-02;  0.0000000E+00; -5.7268869E-03;  3.1787854E+03;
 -5.0000001E-02;  9.9999998E-03; -3.1000000E-01;1377;  0.0000000E+00;  0.0000000E+00;  0.0000000E+00;  1.0001317E+03;  1.0000000E-01;  1.0913271E+02;0;  0.0000000E+00;  0.0000000E+00;  0.0000000E+00;0; -2.0881964E-02;  4.0000000E+04;  0.0000000E+00;  0.0000000E+00;  4.0000000E+04;  0.0000000E+00;  4.0000000E+04; -1.4689022E-02;  0.0000000E+00; -6.1929421E-03;  3.1076973E+03;
 -5.0000001E-02;  9.9999998E-03; -3.0000001E-01;1378;  0.0000000E+00;  0.0000000E+00;  0.0000000E+00;  1.0001531E+03;  1.0000000E-01;  1.2690999E+02;0;  0.0000000E+00;  0.0000000E+00;  0.0000000E+00;0; -2.4786698E-02;  4.0000000E+04;  0.0000000E+00;  0.0000000E+00;  4.0000000E+04;  0.0000000E+00;  4.0000000E+04; -1.8404957E-02;  0.0000000E+00; -6.3817403E-03;  2.8129082E+03;
 -5.0000001E-02;  9.9999998E-03; -2.8999999E-01;1379;  0.0000000E+00;  0.0000000E+00;  0.0000000E+00;  1.0001743E+03;  1.0000000E-01;  1.4439098E+02;0;  0.0000000E+00;  0.0000000E+00;  0.0000000E+00;0; -2.8714962E-02;  4.0000000E+04;  0.0000000E+00;  0.0000000E+00;  4.0000000E+04;  0.0000000E+00;  4.0000000E+04; -2.2483412E-02;  0.0000000E+00; -6.2315497E-03;  2.2921177E+03;
 -5.0000001E-02;  9.9999998E-03; -2.8000000E-01;1380;  0.0000000E+00;  0.0000000E+00;  0.0000000E+00;  1.0001943E+03;  1.0000000E-01;  1.6098311E+02;0;  0.0000000E+00;  0.0000000E+00;  0.0000000E+00;0; -3.2575052E-02;  4.0000000E+04;  0.0000000E+00;  0.0000000E+00;  4.0000000E+04;  0.0000000E+00;  4.0000000E+04; -2.6851038E-02;  0.0000000E+00; -5.7240156E-03;  1.5847189E+03;
 -3.9999999E-02;  9.9999998E-03; -4.4000000E-01;1455;  0.0000000E+00;  0.0000000E+00;  0.0000000E+00;  1.0000000E+03;  1.0000000E-01;  0.0000000E+00;0;  0.0000000E+00;  0.0000000E+00;  0.0000000E+00;0; -2.5565296E-05;  4.0000000E+04;  0.0000000E+00;  0.0000000E+00;  4.0000000E+04;  0.0000000E+00;  4.0000000E+04; -7.4358850E-06;  0.0000000E+00; -1.8129411E-05;  2.2361635E+01;
 -3.9999999E-02;  9.9999998E-03; -4.3000001E-01;1456;  0.0000000E+00;  0.0000000E+00;  0.0000000E+00;  1.0000000E+03;  1.0000000E-01;  0.0000000E+00;0;  0.0000000E+00;  0.0000000E+00;  0.0000000E+00;0; -1.1186916E-04;  4.0000000E+04;  0.0000000E+00;  0.0000000E+00;  4.0000000E+04;  0.0000000E+00;  4.0000000E+04; -3.2631724E-05;  0.0000000E+00; -7.9237434E-05;  8.7978394E+01;
 -3.9999999E-02;  9.9999998E-03; -4.1999999E-01;1457;  0.0000000E+00;  0.0000000E+00;  0.0000000E+00;  1.0000000E+03;  1.0000000E-01;  0.0000000E+00;0;  0.0000000E+00;  0.0000000E+00;  0.0000000E+00;0; -3.2251206E-04;  4.0000000E+04;  0.0000000E+00;  0.0000000E+00;  4.0000000E+04;  0.0000000E+00;  4.0000000E+04; -9.7796510E-05;  0.0000000E+00; -2.2471555E-04;  2.2867041E+02;
 -3.9999999E-02;  9.9999998E-03; -4.1000000E-01;1458;  0.0000000E+00;  0.0000000E+00;  0.0000000E+00;  1.0000057E+03;  1.0000000E-01;  4.7406068E+00;0;  0.0000000E+00;  0.0000000E+00;  0.0000000E+00;0; -7.2432187E-04;  4.0000000E+04;  0.0000000E+00;  0.0000000E+00;  4.0000000E+04;  0.0000000E+00;  4.0000000E+04; -2.3490838E-04;  0.0000000E+00; -4.8941351E-04;  4.6189883E+02;
 -3.9999999E-02;  9.9999998E-03; -4.0000001E-01;1459;  0.0000000E+00;  0.0000000E+00;  0.0000000E+00;  1.0000098E+03;  1.0000000E-01;  8.0985365E+00;0;  0.0000000E+00;  0.0000000E+00;  0.0000000E+00;0; -1.3821179E-03;  4.0000000E+04;  0.0000000E+00;  0.0000000E+00;  4.0000000E+04;  0.0000000E+00;  4.0000000E+04; -4.8810791E-04;  0.0000000E+00; -8.9400995E-04;  7.8895715E+02;
 -3.9999999E-02;  9.9999998E-03; -3.8999999E-01;1460;  0.0000000E+00;  0.0000000E+00;  0.0000000E+00;  1.0000181E+03;  1.0000000E-01;  1.5011921E+01;0;  0.0000000E+00;  0.0000000E+00;  0.0000000E+00;0; -2.3603172E-03;  4.0000000E+04;  0.0000000E+00;  0.0000000E+00;  4.0000000E+04;  0.0000000E+00;  4.0000000E+04; -9.1490120E-04;  0.0000000E+00; -1.4454159E-03;  1.1991045E+03;
 -3.9999999E-02;  9.9999998E-03; -3.8000000E-01;1461;  0.0000000E+00;  0.0000000E+00;  0.0000000E+00;  1.0000287E+03;  1.0000000E-01;  2.3801796E+01;0;  0.0000000E+00;  0.0000000E+00;  0.0000000E+00;0; -3.7274992E-03;  4.0000000E+04;  0.0000000E+00;  0.0000000E+00;  4.0000000E+04;  0.0000000E+00;  4.0000000E+04; -1.5861711E-03;  0.0000000E+00; -2.1413281E-03;  1.6751255E+03;
 -3.9999999E-02;  9.9999998E-03; -3.7000000E-01;1462;  0.0000000E+00;  0.0000000E+00;  0.0000000E+00;  1.0000421E+03;  1.0000000E-01;  3.4863213E+01;0;  0.0000000E+00;  0.0000000E+00;  0.0000000E+00;0; -5.5568698E-03;  4.0000000E+04;  0.0000000E+00;  0.0000000E+00;  4.0000000E+04;  0.0000000E+00;  4.0000000E+04; -2.5841808E-03;  0.0000000E+00; -2.9726890E-03;  2.1956780E+03;
 -3.9999999E-02;  9.9999998E-03; -3.6000001E-01;1463;  0.0000000E+00;  0.0000000E+00;  0.0000000E+00;  1.0000582E+03;  1.0000000E-01;  4.8196167E+01;0;  0.0000000E+00;  0.0000000E+00;  0.0000000E+00;0; -7.9200491E-03;  4.0000000E+04;  0.0000000E+00;  0.0000000E+00;  4.0000000E+04;  0.0000000E+00;  4.0000000E+04; -3.9980281E-03;  0.0000000E+00; -3.9220210E-03;  2.7342288E+03;
 -3.9999999E-02;  9.9999998E-03; -3.4999999E-01;1464;  0.0000000E+00;  0.0000000E+00;  0.0000000E+00;  1.0000779E+03;  1.0000000E-01;  6.4492004E+01;0;  0.0000000E+00;  0.0000000E+00;  0.0000000E+00;0; -1.0874227E-02;  4.0000000E+04;  0.0000000E+00;  0.0000000E+00;  4.0000000E+04;  0.0000000E+00;  4.0000000E+04; -5.9158509E-03;  0.0000000E+00; -4.9583763E-03;  3.2561165E+03;
 -3.9999999E-02;  9.9999998E-03; -3.4000000E-01;1465;  0.0000000E+00;  0.0000000E+00;  0.0000000E+00;  1.0001015E+03;  1.0000000E-01;  8.4047005E+01;0;  0.0000000E+00;  0.0000000E+00;  0.0000000E+00;0; -1.4445186E-02;  4.0000000E+04;  0.0000000E+00;  0.0000000E+00;  4.0000000E+04;  0.0000000E+00;  4.0000000E+04; -8.4143942E-03;  0.0000000E+00; -6.0307910E-03;  3.7155747E+03;
 -3.9999999E-02;  9.9999998E-03; -3.3000001E-01;1466;  0.0000000E+00;  0.0000000E+00;  0.0000000E+00;  1.0001277E+03;  1.0000000E-01;  1.0577479E+02;0;  0.0000000E+00;  0.0000000E+00;  0.0000000E+00;0; -1.8610019E-02;  4.0000000E+04;  0.0000000E+00;  0.0000000E+00;  4.0000000E+04;  0.0000000E+00;  4.0000000E+04; -1.1547331E-02;  0.0000000E+00; -7.0626889E-03;  4.0548062E+03;
 -3.9999999E-02;  9.9999998E-03; -3.1999999E-01;1467;  0.0000000E+00;  0.0000000E+00;  0.0000000E+00;  1.0001564E+03;  1.0000000E-01;  1.2957658E+02;0;  0.0000000E+00;  0.0000000E+00;  0.0000000E+00;0; -2.3285590E-02;  4.0000000E+04;  0.0000000E+00;  0.0000000E+00;  4.0000000E+04;  0.0000000E+00;  4.0000000E+04; -1.5334620E-02;  0.0000000E+00; -7.9509700E-03;  4.2074209E+03;
 -3.9999999E-02;  9.9999998E-03; -3.1000000E-01;1468;  0.0000000E+00;  0.0000000E+00;  0.0000000E+00;  1.0001865E+03;  1.0000000E-01;  1.5446477E+02;0;  0.0000000E+00;  0.0000000E+00;  0.0000000E+00;0; -2.8330740E-02;  4.0000000E+04;  0.0000000E+00;  0.0000000E+00;  4.0000000E+04;  0.0000000E+00;  4.0000000E+04; -1.9756258E-02;  0.0000000E+00; -8.5744811E-03;  4.1089424E+03;
 -3.9999999E-02;  9.9999998E-03; -3.0000001E-01;1469;  0.0000000E+00;  0.0000000E+00;  0.0000000E+00;  1.0002166E+03;  1.0000000E-01;  1.7945172E+02;0;  0.0000000E+00;  0.0000000E+00;  0.0000000E+00;0; -3.3568490E-02;  4.0000000E+04;  0.0000000E+00;  0.0000000E+00;  4.0000000E+04;  0.0000000E+00;  4.0000000E+04; -2.4753373E-02;  0.0000000E+00; -8.8151162E-03;  3.7149038E+03;
 -3.9999999E-02;  9.9999998E-03; -2.8999999E-01;1470;  0.0000000E+00;  0.0000000E+00;  0.0000000E+00;  1.0002458E+03;  1.0000000E-01;  2.0364856E+02;0;  0.0000000E+00;  0.0000000E+00;  0.0000000E+00;0; -3.8826112E-02;  4.0000000E+04;  0.0000000E+00;  0.0000000E+00;  4.0000000E+04;  0.0000000E+00;  4.0000000E+04; -3.0237457E-02;  0.0000000E+00; -8.5886549E-03;  3.0217148E+03;
 -3.9999999E-02;  9.9999998E-03; -2.8000000E-01;1471;  0.0000000E+00;  0.0000000E+00;  0.0000000E+00;  1.0002736E+03;  1.0000000E-01;  2.2666026E+02;0;  0.0000000E+00;  0.0000000E+00;  0.0000000E+00;0; -4.3977395E-02;  4.0000000E+04;  0.0000000E+00;  0.0000000E+00;  4.0000000E+04;  0.0000000E+00;  4.0000000E+04; -3.6105081E-02;  0.0000000E+00; -7.8723151E-03;  2.0824233E+03;
 -2.9999999E-02;  9.9999998E-03; -4.4000000E-01;1546;  0.0000000E+00;  0.0000000E+00;  0.0000000E+00;  1.0000000E+03;  1.0000000E-01;  0.0000000E+00;0;  0.0000000E+00;  0.0000000E+00;  0.0000000E+00;0; -4.7325266E-05;  4.0000000E+04;  0.0000000E+00;  0.0000000E+00;  4.0000000E+04;  0.0000000E+00;  4.0000000E+04; -1.2737746E-05;  0.0000000E+00; -3.4587520E-05;  3.9936378E+01;
 -2.9999999E-02;  9.9999998E-03; -4.3000001E-01;1547;  0.0000000E+00;  0.0000000E+00;  0.0000000E+00;  1.0000000E+03;  1.0000000E-01;  0.0000000E+00;0;  0.0000000E+00;  0.0000000E+00;  0.0000000E+00;0; -1.8235829E-04;  4.0000000E+04;  0.0000000E+00;  0.0000000E+00;  4.0000000E+04;  0.0000000E+00;  4.0000000E+04; -4.9818525E-05;  0.0000000E+00; -1.3253976E-04;  1.3774136E+02;
 -2.9999999E-02;  9.9999998E-03; -4.1999999E-01;1548;  0.0000000E+00;  0.0000000E+00;  0.0000000E+00;  1.0000000E+03;  1.0000000E-01;  0.0000000E+00;0;  0.0000000E+00;  0.0000000E+00;  0.0000000E+00;0; -4.9015461E-04;  4.0000000E+04;  0.0000000E+00;  0.0000000E+00;  4.0000000E+04;  0.0000000E+00;  4.0000000E+04; -1.4048969E-04;  0.0000000E+00; -3.4966494E-04;  3.3330283E+02;
 -2.9999999E-02;  9.9999998E-03; -4.1000000E-01;1549;  0.0000000E+00;  0.0000000E+00;  0.0000000E+00;  1.0000087E+03;  1.0000000E-01;  7.2096725E+00;0;  0.0000000E+00;  0.0000000E+00;  0.0000000E+00;0; -1.0531654E-03;  4.0000000E+04;  0.0000000E+00;  0.0000000E+00;  4.0000000E+04;  0.0000000E+00;  4.0000000E+04; -3.2535690E-04;  0.0000000E+00; -7.2780845E-04;  6.4446838E+02;
 -2.9999999E-02;  9.9999998E-03; -4.0000001E-01;1550;  0.0000000E+00;  0.0000000E+00;  0.0000000E+00;  1.0000168E+03;  1.0000000E-01;  1.3925532E+01;0;  0.0000000E+00;  0.0000000E+00;  0.0000000E+00;0; -1.9496923E-03;  4.0000000E+04;  0.0000000E+00;  0.0000000E+00;  4.0000000E+04;  0.0000000E+00;  4.0000000E+04; -6.6034275E-04;  0.0000000E+00; -1.2893495E-03;  1.0697074E+03;
 -2.9999999E-02;  9.9999998E-03; -3.8999999E-01;1551;  0.0000000E+00;  0.0000000E+00;  0.0000000E+00;  1.0000316E+03;  1.0000000E-01;  2.6172100E+01;0;  0.0000000E+00;  0.0000000E+00;  0.0000000E+00;0; -3.2581752E-03;  4.0000000E+04;  0.0000000E+00;  0.0000000E+00;  4.0000000E+04;  0.0000000E+00;  4.0000000E+04; -1.2184511E-03;  0.0000000E+00; -2.0397243E-03;  1.5941597E+03;
 -2.9999999E-02;  9.9999998E-03; -3.8000000E-01;1552;  0.0000000E+00;  0.0000000E+00;  0.0000000E+00;  1.0000458E+03;  1.0000000E-01;  3.7924854E+01;0;  0.0000000E+00;  0.0000000E+00;  0.0000000E+00;0; -5.0641848E-03;  4.0000000E+04;  0.0000000E+00;  0.0000000E+00;  4.0000000E+04;  0.0000000E+00;  4.0000000E+04; -2.0900858E-03;  0.0000000E+00; -2.9740990E-03;  2.1964492E+03;
 -2.9999999E-02;  9.9999998E-03; -3.7000000E-01;1553;  0.0000000E+00;  0.0000000E+00;  0.0000000E+00;  1.0000634E+03;  1.0000000E-01;  5.2442963E+01;0;  0.0000000E+00;  0.0000000E+00;  0.0000000E+00;0; -7.4612107E-03;  4.0000000E+04;  0.0000000E+00;  0.0000000E+00;  4.0000000E+04;  0.0000000E+00;  4.0000000E+04; -3.3809028E-03;  0.0000000E+00; -4.0803081E-03;  2.8510671E+03;
 -2.9999999E-02;  9.9999998E-03; -3.6000001E-01;1554;  0.0000000E+00;  0.0000000E+00;  0.0000000E+00;  1.0000858E+03;  1.0000000E-01;  7.1109100E+01;0;  0.0000000E+00;  0.0000000E+00;  0.0000000E+00;0; -1.0542460E-02;  4.0000000E+04;  0.0000000E+00;  0.0000000E+00;  4.0000000E+04;  0.0000000E+00;  4.0000000E+04; -5.2063284E-03;  0.0000000E+00; -5.3361314E-03;  3.5265349E+03;
 -2.9999999E-02;  9.9999998E-03; -3.4999999E-01;1555;  0.0000000E+00;  0.0000000E+00;  0.0000000E+00;  1.0001125E+03;  1.0000000E-01;  9.3231934E+01;0;  0.0000000E+00;  0.0000000E+00;  0.0000000E+00;0; -1.4384052E-02;  4.0000000E+04;  0.0000000E+00;  0.0000000E+00;  4.0000000E+04;  0.0000000E+00;  4.0000000E+04; -7.6818727E-03;  0.0000000E+00; -6.7021796E-03;  4.1812207E+03;
 -2.9999999E-02;  9.9999998E-03; -3.4000000E-01;1556;  0.0000000E+00;  0.0000000E+00;  0.0000000E+00;  1.0001429E+03;  1.0000000E-01;  1.1841640E+02;0;  0.0000000E+00;  0.0000000E+00;  0.0000000E+00;0; -1.9022498E-02;  4.0000000E+04;  0.0000000E+00;  0.0000000E+00;  4.0000000E+04;  0.0000000E+00;  4.0000000E+04; -1.0909691E-02;  0.0000000E+00; -8.1128068E-03;  4.7590928E+03;
 -2.9999999E-02;  9.9999998E-03; -3.3000001E-01;1557;  0.0000000E+00;  0.0000000E+00;  0.0000000E+00;  1.0001765E+03;  1.0000000E-01;  1.4616870E+02;0;  0.0000000E+00;  0.0000000E+00;  0.0000000E+00;0; -2.4431152E-02;  4.0000000E+04;  0.0000000E+00;  0.0000000E+00;  4.0000000E+04;  0.0000000E+00;  4.0000000E+04; -1.4962995E-02;  0.0000000E+00; -9.4681568E-03;  5.1876650E+03;
 -2.9999999E-02;  9.9999998E-03; -3.1999999E-01;1558;  0.0000000E+00;  0.0000000E+00;  0.0000000E+00;  1.0002149E+03;  1.0000000E-01;  1.7806903E+02;0;  0.0000000E+00;  0.0000000E+00;  0.0000000E+00;0; -3.0503100E-02;  4.0000000E+04;  0.0000000E+00;  0.0000000E+00;  4.0000000E+04;  0.0000000E+00;  4.0000000E+04; -1.9871026E-02;  0.0000000E+00; -1.0632074E-02;  5.3814556E+03;
 -2.9999999E-02;  9.9999998E-03; -3.1000000E-01;1559;  0.0000000E+00;  0.0000000E+00;  0.0000000E+00;  1.0002554E+03;  1.0000000E-01;  2.1164833E+02;0;  0.0000000E+00;  0.0000000E+00;  0.0000000E+00;0; -3.7051853E-02;  4.0000000E+04;  0.0000000E+00;  0.0000000E+00;  4.0000000E+04;  0.0000000E+00;  4.0000000E+04; -2.5609108E-02;  0.0000000E+00; -1.1442746E-02;  5.2549912E+03;
 -2.9999999E-02;  9.9999998E-03; -3.0000001E-01;1560;  0.0000000E+00;  0.0000000E+00;  0.0000000E+00;  1.0002961E+03;  1.0000000E-01;  2.4532640E+02;0;  0.0000000E+00;  0.0000000E+00;  0.0000000E+00;0; -4.3839026E-02;  4.0000000E+04;  0.0000000E+00;  0.0000000E+00;  4.0000000E+04;  0.0000000E+00;  4.0000000E+04; -3.2097865E-02;  0.0000000E+00; -1.1741160E-02;  4.7470317E+03;
 -2.9999999E-02;  9.9999998E-03; -2.8999999E-01;1561;  0.0000000E+00;  0.0000000E+00;  0.0000000E+00;  1.0003353E+03;  1.0000000E-01;  2.7772055E+02;0;  0.0000000E+00;  0.0000000E+00;  0.0000000E+00;0; -5.0630111E-02;  4.0000000E+04;  0.0000000E+00;  0.0000000E+00;  4.0000000E+04;  0.0000000E+00;  4.0000000E+04; -3.9215442E-02;  0.0000000E+00; -1.1414670E-02;  3.8504397E+03;
 -2.9999999E-02;  9.9999998E-03; -2.8000000E-01;1562;  0.0000000E+00;  0.0000000E+00;  0.0000000E+00;  1.0003720E+03;  1.0000000E-01;  3.0823819E+02;0;  0.0000000E+00;  0.0000000E+00;  0.0000000E+00;0; -5.7255693E-02;  4.0000000E+04;  0.0000000E+00;  0.0000000E+00;  4.0000000E+04;  0.0000000E+00;  4.0000000E+04; -4.6819445E-02;  0.0000000E+00; -1.0436249E-02;  2.6333770E+03;
 -2.0000000E-02;  9.9999998E-03; -4.4000000E-01;1637;  0.0000000E+00;  0.0000000E+00;  0.0000000E+00;  1.0000000E+03;  1.0000000E-01;  0.0000000E+00;0;  0.0000000E+00;  0.0000000E+00;  0.0000000E+00;0; -7.6811608E-05;  4.0000000E+04;  0.0000000E+00;  0.0000000E+00;  4.0000000E+04;  0.0000000E+00;  4.0000000E+04; -1.9027682E-05;  0.0000000E+00; -5.7783924E-05;  6.2084469E+01;
 -2.0000000E-02;  9.9999998E-03; -4.3000001E-01;1638;  0.0000000E+00;  0.0000000E+00;  0.0000000E+00;  1.0000000E+03;  1.0000000E-01;  0.0000000E+00;0;  0.0000000E+00;  0.0000000E+00;  0.0000000E+00;0; -2.7151729E-04;  4.0000000E+04;  0.0000000E+00;  0.0000000E+00;  4.0000000E+04;  0.0000000E+00;  4.0000000E+04; -6.9176727E-05;  0.0000000E+00; -2.0234057E-04;  1.9594765E+02;
 -2.0000000E-02;  9.9999998E-03; -4.1999999E-01;1639;  0.0000000E+00;  0.0000000E+00;  0.0000000E+00;  1.0000056E+03;  1.0000000E-01;  4.6418438E+00;0;  0.0000000E+00;  0.0000000E+00;  0.0000000E+00;0; -6.9424621E-04;  4.0000000E+04;  0.0000000E+00;  0.0000000E+00;  4.0000000E+04;  0.0000000E+00;  4.0000000E+04; -1.8745661E-04;  0.0000000E+00; -5.0678960E-04;  4.5127609E+02;
 -2.0000000E-02;  9.9999998E-03; -4.1000000E-01;1640;  0.0000000E+00;  0.0000000E+00;  0.0000000E+00;  1.0000112E+03;  1.0000000E-01;  9.2836876E+00;0;  0.0000000E+00;  0.0000000E+00;  0.0000000E+00;0; -1.4438310E-03;  4.0000000E+04;  0.0000000E+00;  0.0000000E+00;  4.0000000E+04;  0.0000000E+00;  4.0000000E+04; -4.2374633E-04;  0.0000000E+00; -1.0200847E-03;  8.4638025E+02;
 -2.0000000E-02;  9.9999998E-03; -4.0000001E-01;1641;  0.0000000E+00;  0.0000000E+00;  0.0000000E+00;  1.0000262E+03;  1.0000000E-01;  2.1727781E+01;0;  0.0000000E+00;  0.0000000E+00;  0.0000000E+00;0; -2.6125375E-03;  4.0000000E+04;  0.0000000E+00;  0.0000000E+00;  4.0000000E+04;  0.0000000E+00;  4.0000000E+04; -8.4678165E-04;  0.0000000E+00; -1.7657558E-03;  1.3769163E+03;
 -2.0000000E-02;  9.9999998E-03; -3.8999999E-01;1642;  0.0000000E+00;  0.0000000E+00;  0.0000000E+00;  1.0000414E+03;  1.0000000E-01;  3.4369400E+01;0;  0.0000000E+00;  0.0000000E+00;  0.0000000E+00;0; -4.2936625E-03;  4.0000000E+04;  0.0000000E+00;  0.0000000E+00;  4.0000000E+04;  0.0000000E+00;  4.0000000E+04; -1.5466042E-03;  0.0000000E+00; -2.7470582E-03;  2.0238242E+03;
 -2.0000000E-02;  9.9999998E-03; -3.8000000E-01;1643;  0.0000000E+00;  0.0000000E+00;  0.0000000E+00;  1.0000638E+03;  1.0000000E-01;  5.2936775E+01;0;  0.0000000E+00;  0.0000000E+00;  0.0000000E+00;0; -6.5913661E-03;  4.0000000E+04;  0.0000000E+00;  0.0000000E+00;  4.0000000E+04;  0.0000000E+00;  4.0000000E+04; -2.6352764E-03;  0.0000000E+00; -3.9560897E-03;  2.7614609E+03;
 -2.0000000E-02;  9.9999998E-03; -3.7000000E-01;1644;  0.0000000E+00;  0.0000000E+00;  0.0000000E+00;  1.0000885E+03;  1.0000000E-01;  7.3281876E+01;0;  0.0000000E+00;  0.0000000E+00;  0.0000000E+00;0; -9.6218260E-03;  4.0000000E+04;  0.0000000E+00;  0.0000000E+00;  4.0000000E+04;  0.0000000E+00;  4.0000000E+04; -4.2445757E-03;  0.0000000E+00; -5.3772503E-03;  3.5600991E+03;
 -2.0000000E-02;  9.9999998E-03; -3.6000001E-01;1645;  0.0000000E+00;  0.0000000E+00;  0.0000000E+00;  1.0001185E+03;  1.0000000E-01;  9.8170067E+01;0;  0.0000000E+00;  0.0000000E+00;  0.0000000E+00;0; -1.3502765E-02;  4.0000000E+04;  0.0000000E+00;  0.0000000E+00;  4.0000000E+04;  0.0000000E+00;  4.0000000E+04; -6.5195262E-03;  0.0000000E+00; -6.9832397E-03;  4.3833208E+03;
 -2.0000000E-02;  9.9999998E-03; -3.4999999E-01;1646;  0.0000000E+00;  0.0000000E+00;  0.0000000E+00;  1.0001553E+03;  1.0000000E-01;  1.2868771E+02;0;  0.0000000E+00;  0.0000000E+00;  0.0000000E+00;0; -1.8332267E-02;  4.0000000E+04;  0.0000000E+00;  0.0000000E+00;  4.0000000E+04;  0.0000000E+00;  4.0000000E+04; -9.6066305E-03;  0.0000000E+00; -8.7256366E-03;  5.1825303E+03;
 -2.0000000E-02;  9.9999998E-03; -3.4000000E-01;1647;  0.0000000E+00;  0.0000000E+00;  0.0000000E+00;  1.0001969E+03;  1.0000000E-01;  1.6315588E+02;0;  0.0000000E+00;  0.0000000E+00;  0.0000000E+00;0; -2.4159927E-02;  4.0000000E+04;  0.0000000E+00;  0.0000000E+00;  4.0000000E+04;  0.0000000E+00;  4.0000000E+04; -1.3637151E-02;  0.0000000E+00; -1.0522776E-02;  5.8911758E+03;
 -2.0000000E-02;  9.9999998E-03; -3.3000001E-01;1648;  0.0000000E+00;  0.0000000E+00;  0.0000000E+00;  1.0002426E+03;  1.0000000E-01;  2.0098196E+02;0;  0.0000000E+00;  0.0000000E+00;  0.0000000E+00;0; -3.0956052E-02;  4.0000000E+04;  0.0000000E+00;  0.0000000E+00;  4.0000000E+04;  0.0000000E+00;  4.0000000E+04; -1.8707296E-02;  0.0000000E+00; -1.2248755E-02;  6.4211016E+03;
 -2.0000000E-02;  9.9999998E-03; -3.1999999E-01;1649;  0.0000000E+00;  0.0000000E+00;  0.0000000E+00;  1.0002922E+03;  1.0000000E-01;  2.4206723E+02;0;  0.0000000E+00;  0.0000000E+00;  0.0000000E+00;0; -3.8587317E-02;  4.0000000E+04;  0.0000000E+00;  0.0000000E+00;  4.0000000E+04;  0.0000000E+00;  4.0000000E+04; -2.4857940E-02;  0.0000000E+00; -1.3729379E-02;  6.6652705E+03;
 -2.0000000E-02;  9.9999998E-03; -3.1000000E-01;1650;  0.0000000E+00;  0.0000000E+00;  0.0000000E+00;  1.0003419E+03;  1.0000000E-01;  2.8325125E+02;0;  0.0000000E+00;  0.0000000E+00;  0.0000000E+00;0; -4.6813894E-02;  4.0000000E+04;  0.0000000E+00;  0.0000000E+00;  4.0000000E+04;  0.0000000E+00;  4.0000000E+04; -3.2059472E-02;  0.0000000E+00; -1.4754421E-02;  6.5126221E+03;
 -2.0000000E-02;  9.9999998E-03; -3.0000001E-01;1651;  0.0000000E+00;  0.0000000E+00;  0.0000000E+00;  1.0003934E+03;  1.0000000E-01;  3.2591672E+02;0;  0.0000000E+00;  0.0000000E+00;  0.0000000E+00;0; -5.5322561E-02;  4.0000000E+04;  0.0000000E+00;  0.0000000E+00;  4.0000000E+04;  0.0000000E+00;  4.0000000E+04; -4.0208068E-02;  0.0000000E+00; -1.5114495E-02;  5.8793384E+03;
 -2.0000000E-02;  9.9999998E-03; -2.8999999E-01;1652;  0.0000000E+00;  0.0000000E+00;  0.0000000E+00;  1.0004439E+03;  1.0000000E-01;  3.6779205E+02;0;  0.0000000E+00;  0.0000000E+00;  0.0000000E+00;0; -6.3801199E-02;  4.0000000E+04;  0.0000000E+00;  0.0000000E+00;  4.0000000E+04;  0.0000000E+00;  4.0000000E+04; -4.9140077E-02;  0.0000000E+00; -1.4661119E-02;  4.7511553E+03;
 -2.0000000E-02;  9.9999998E-03; -2.8000000E-01;1653;  0.0000000E+00;  0.0000000E+00;  0.0000000E+00;  1.0004911E+03;  1.0000000E-01;  4.0690207E+02;0;  0.0000000E+00;  0.0000000E+00;  0.0000000E+00;0; -7.2029091E-02;  4.0000000E+04;  0.0000000E+00;  0.0000000E+00;  4.0000000E+04;  0.0000000E+00;  4.0000000E+04; -5.8664583E-02;  0.0000000E+00; -1.3364508E-02;  3.2143262E+03;
 -9.9999998E-03;  9.9999998E-03; -4.4000000E-01;1728;  0.0000000E+00;  0.0000000E+00;  0.0000000E+00;  1.0000000E+03;  1.0000000E-01;  0.0000000E+00;0;  0.0000000E+00;  0.0000000E+00;  0.0000000E+00;0; -1.1285053E-04;  4.0000000E+04;  0.0000000E+00;  0.0000000E+00;  4.0000000E+04;  0.0000000E+00;  4.0000000E+04; -2.5552205E-05;  0.0000000E+00; -8.7298329E-05;  8.6722565E+01;
 -9.9999998E-03;  9.9999998E-03; -4.3000001E-01;1729;  0.0000000E+00;  0.0000000E+00;  0.0000000E+00;  1.0000000E+03;  1.0000000E-01;  0.0000000E+00;0;  0.0000000E+00;  0.0000000E+00;  0.0000000E+00;0; -3.7591939E-04;  4.0000000E+04;  0.0000000E+00;  0.0000000E+00;  4.0000000E+04;  0.0000000E+00;  4.0000000E+04; -8.8855872E-05;  0.0000000E+00; -2.8706351E-04;  2.5799170E+02;
 -9.9999998E-03;  9.9999998E-03; -4.1999999E-01;1730;  0.0000000E+00;  0.0000000E+00;  0.0000000E+00;  1.0000083E+03;  1.0000000E-01;  6.9133849E+00;0;  0.0000000E+00;  0.0000000E+00;  0.0000000E+00;0; -9.2736585E-04;  4.0000000E+04;  0.0000000E+00;  0.0000000E+00;  4.0000000E+04;  0.0000000E+00;  4.0000000E+04; -2.3493860E-04;  0.0000000E+00; -6.9242722E-04;  5.7479510E+02;
 -9.9999998E-03;  9.9999998E-03; -4.1000000E-01;1731;  0.0000000E+00;  0.0000000E+00;  0.0000000E+00;  1.0000233E+03;  1.0000000E-01;  1.9258715E+01;0;  0.0000000E+00;  0.0000000E+00;  0.0000000E+00;0; -1.8826700E-03;  4.0000000E+04;  0.0000000E+00;  0.0000000E+00;  4.0000000E+04;  0.0000000E+00;  4.0000000E+04; -5.2329578E-04;  0.0000000E+00; -1.3593743E-03;  1.0562610E+03;
 -9.9999998E-03;  9.9999998E-03; -4.0000001E-01;1732;  0.0000000E+00;  0.0000000E+00;  0.0000000E+00;  1.0000346E+03;  1.0000000E-01;  2.8641165E+01;0;  0.0000000E+00;  0.0000000E+00;  0.0000000E+00;0; -3.3480078E-03;  4.0000000E+04;  0.0000000E+00;  0.0000000E+00;  4.0000000E+04;  0.0000000E+00;  4.0000000E+04; -1.0361635E-03;  0.0000000E+00; -2.3118444E-03;  1.6953474E+03;
 -9.9999998E-03;  9.9999998E-03; -3.8999999E-01;1733;  0.0000000E+00;  0.0000000E+00;  0.0000000E+00;  1.0000581E+03;  1.0000000E-01;  4.8097404E+01;0;  0.0000000E+00;  0.0000000E+00;  0.0000000E+00;0; -5.4317629E-03;  4.0000000E+04;  0.0000000E+00;  0.0000000E+00;  4.0000000E+04;  0.0000000E+00;  4.0000000E+04; -1.8817286E-03;  0.0000000E+00; -3.5500345E-03;  2.4686394E+03;
 -9.9999998E-03;  9.9999998E-03; -3.8000000E-01;1734;  0.0000000E+00;  0.0000000E+00;  0.0000000E+00;  1.0000827E+03;  1.0000000E-01;  6.8541275E+01;0;  0.0000000E+00;  0.0000000E+00;  0.0000000E+00;0; -8.2575427E-03;  4.0000000E+04;  0.0000000E+00;  0.0000000E+00;  4.0000000E+04;  0.0000000E+00;  4.0000000E+04; -3.1952471E-03;  0.0000000E+00; -5.0622956E-03;  3.3459802E+03;
 -9.9999998E-03;  9.9999998E-03; -3.7000000E-01;1735;  0.0000000E+00;  0.0000000E+00;  0.0000000E+00;  1.0001169E+03;  1.0000000E-01;  9.6787384E+01;0;  0.0000000E+00;  0.0000000E+00;  0.0000000E+00;0; -1.1965740E-02;  4.0000000E+04;  0.0000000E+00;  0.0000000E+00;  4.0000000E+04;  0.0000000E+00;  4.0000000E+04; -5.1365346E-03;  0.0000000E+00; -6.8292059E-03;  4.2932529E+03;
 -9.9999998E-03;  9.9999998E-03; -3.6000001E-01;1736;  0.0000000E+00;  0.0000000E+00;  0.0000000E+00;  1.0001597E+03;  1.0000000E-01;  1.3234193E+02;0;  0.0000000E+00;  0.0000000E+00;  0.0000000E+00;0; -1.6700536E-02;  4.0000000E+04;  0.0000000E+00;  0.0000000E+00;  4.0000000E+04;  0.0000000E+00;  4.0000000E+04; -7.8823688E-03;  0.0000000E+00; -8.8181673E-03;  5.2690459E+03;
 -9.9999998E-03;  9.9999998E-03; -3.4999999E-01;1737;  0.0000000E+00;  0.0000000E+00;  0.0000000E+00;  1.0002083E+03;  1.0000000E-01;  1.7253833E+02;0;  0.0000000E+00;  0.0000000E+00;  0.0000000E+00;0; -2.2583939E-02;  4.0000000E+04;  0.0000000E+00;  0.0000000E+00;  4.0000000E+04;  0.0000000E+00;  4.0000000E+04; -1.1612535E-02;  0.0000000E+00; -1.0971405E-02;  6.2179863E+03;
 -9.9999998E-03;  9.9999998E-03; -3.4000000E-01;1738;  0.0000000E+00;  0.0000000E+00;  0.0000000E+00;  1.0002629E+03;  1.0000000E-01;  2.1787038E+02;0;  0.0000000E+00;  0.0000000E+00;  0.0000000E+00;0; -2.9680200E-02;  4.0000000E+04;  0.0000000E+00;  0.0000000E+00;  4.0000000E+04;  0.0000000E+00;  4.0000000E+04; -1.6489701E-02;  0.0000000E+00; -1.3190498E-02;  7.0632305E+03;
 -9.9999998E-03;  9.9999998E-03; -3.3000001E-01;1739;  0.0000000E+00;  0.0000000E+00;  0.0000000E+00;  1.0003247E+03;  1.0000000E-01;  2.6902942E+02;0;  0.0000000E+00;  0.0000000E+00;  0.0000000E+00;0; -3.7956867E-02;  4.0000000E+04;  0.0000000E+00;  0.0000000E+00;  4.0000000E+04;  0.0000000E+00;  4.0000000E+04; -2.2635154E-02;  0.0000000E+00; -1.5321713E-02;  7.7010195E+03;
 -9.9999998E-03;  9.9999998E-03; -3.1999999E-01;1740;  0.0000000E+00;  0.0000000E+00;  0.0000000E+00;  1.0003908E+03;  1.0000000E-01;  3.2374393E+02;0;  0.0000000E+00;  0.0000000E+00;  0.0000000E+00;0; -4.7252260E-02;  4.0000000E+04;  0.0000000E+00;  0.0000000E+00;  4.0000000E+04;  0.0000000E+00;  4.0000000E+04; -3.0103123E-02;  0.0000000E+00; -1.7149135E-02;  8.0017300E+03;
 -9.9999998E-03;  9.9999998E-03; -3.1000000E-01;1741;  0.0000000E+00;  0.0000000E+00;  0.0000000E+00;  1.0004576E+03;  1.0000000E-01;  3.7914978E+02;0;  0.0000000E+00;  0.0000000E+00;  0.0000000E+00;0; -5.7266861E-02;  4.0000000E+04;  0.0000000E+00;  0.0000000E+00;  4.0000000E+04;  0.0000000E+00;  4.0000000E+04; -3.8859427E-02;  0.0000000E+00; -1.8407432E-02;  7.8251021E+03;
 -9.9999998E-03;  9.9999998E-03; -3.0000001E-01;1742;  0.0000000E+00;  0.0000000E+00;  0.0000000E+00;  1.0005219E+03;  1.0000000E-01;  4.3238284E+02;0;  0.0000000E+00;  0.0000000E+00;  0.0000000E+00;0; -6.7599952E-02;  4.0000000E+04;  0.0000000E+00;  0.0000000E+00;  4.0000000E+04;  0.0000000E+00;  4.0000000E+04; -4.8772275E-02;  0.0000000E+00; -1.8827677E-02;  7.0590347E+03;
 -9.9999998E-03;  9.9999998E-03; -2.8999999E-01;1743;  0.0000000E+00;  0.0000000E+00;  0.0000000E+00;  1.0005804E+03;  1.0000000E-01;  4.8087527E+02;0;  0.0000000E+00;  0.0000000E+00;  0.0000000E+00;0; -7.7846952E-02;  4.0000000E+04;  0.0000000E+00;  0.0000000E+00;  4.0000000E+04;  0.0000000E+00;  4.0000000E+04; -5.9629459E-02;  0.0000000E+00; -1.8217495E-02;  5.6785967E+03;
 -9.9999998E-03;  9.9999998E-03; -2.8000000E-01;1744;  0.0000000E+00;  0.0000000E+00;  0.0000000E+00;  1.0006351E+03;  1.0000000E-01;  5.2610858E+02;0;  0.0000000E+00;  0.0000000E+00;  0.0000000E+00;0; -8.7732591E-02;  4.0000000E+04;  0.0000000E+00;  0.0000000E+00;  4.0000000E+04;  0.0000000E+00;  4.0000000E+04; -7.1184523E-02;  0.0000000E+00; -1.6548067E-02;  3.7960288E+03;
  0.0000000E+00;  9.9999998E-03; -4.4000000E-01;1819;  0.0000000E+00;  0.0000000E+00;  0.0000000E+00;  1.0000000E+03;  1.0000000E-01;  0.0000000E+00;0;  0.0000000E+00;  0.0000000E+00;  0.0000000E+00;0; -1.5326758E-04;  4.0000000E+04;  0.0000000E+00;  0.0000000E+00;  4.0000000E+04;  0.0000000E+00;  4.0000000E+04; -3.1464660E-05;  0.0000000E+00; -1.2180293E-04;  1.1115189E+02;
  0.0000000E+00;  9.9999998E-03; -4.3000001E-01;1820;  0.0000000E+00;  0.0000000E+00;  0.0000000E+00;  1.0000000E+03;  1.0000000E-01;  0.0000000E+00;0;  0.0000000E+00;  0.0000000E+00;  0.0000000E+00;0; -4.9019267E-04;  4.0000000E+04;  0.0000000E+00;  0.0000000E+00;  4.0000000E+04;  0.0000000E+00;  4.0000000E+04; -1.0686126E-04;  0.0000000E+00; -3.8333144E-04;  3.1862418E+02;
  0.0000000E+00;  9.9999998E-03; -4.1999999E-01;1821;  0.0000000E+00;  0.0000000E+00;  0.0000000E+00;  1.0000109E+03;  1.0000000E-01;  9.0861626E+00;0;  0.0000000E+00;  0.0000000E+00;  0.0000000E+00;0; -1.1787342E-03;  4.0000000E+04;  0.0000000E+00;  0.0000000E+00;  4.0000000E+04;  0.0000000E+00;  4.0000000E+04; -2.7897846E-04;  0.0000000E+00; -8.9975575E-04;  6.9552563E+02;
  0.0000000E+00;  9.9999998E-03; -4.1000000E-01;1822;  0.0000000E+00;  0.0000000E+00;  0.0000000E+00;  1.0000265E+03;  1.0000000E-01;  2.1925306E+01;0;  0.0000000E+00;  0.0000000E+00;  0.0000000E+00;0; -2.3506943E-03;  4.0000000E+04;  0.0000000E+00;  0.0000000E+00;  4.0000000E+04;  0.0000000E+00;  4.0000000E+04; -6.1701360E-04;  0.0000000E+00; -1.7336806E-03;  1.2623109E+03;
  0.0000000E+00;  9.9999998E-03; -4.0000001E-01;1823;  0.0000000E+00;  0.0000000E+00;  0.0000000E+00;  1.0000488E+03;  1.0000000E-01;  4.0492683E+01;0;  0.0000000E+00;  0.0000000E+00;  0.0000000E+00;0; -4.1255206E-03;  4.0000000E+04;  0.0000000E+00;  0.0000000E+00;  4.0000000E+04;  0.0000000E+00;  4.0000000E+04; -1.2170811E-03;  0.0000000E+00; -2.9084394E-03;  2.0093287E+03;
  0.0000000E+00;  9.9999998E-03; -3.8999999E-01;1824;  0.0000000E+00;  0.0000000E+00;  0.0000000E+00;  1.0000721E+03;  1.0000000E-01;  5.9751396E+01;0;  0.0000000E+00;  0.0000000E+00;  0.0000000E+00;0; -6.6262609E-03;  4.0000000E+04;  0.0000000E+00;  0.0000000E+00;  4.0000000E+04;  0.0000000E+00;  4.0000000E+04; -2.2061770E-03;  0.0000000E+00; -4.4200839E-03;  2.9085024E+03;
  0.0000000E+00;  9.9999998E-03; -3.8000000E-01;1825;  0.0000000E+00;  0.0000000E+00;  0.0000000E+00;  1.0001072E+03;  1.0000000E-01;  8.8787613E+01;0;  0.0000000E+00;  0.0000000E+00;  0.0000000E+00;0; -9.9960612E-03;  4.0000000E+04;  0.0000000E+00;  0.0000000E+00;  4.0000000E+04;  0.0000000E+00;  4.0000000E+04; -3.7436045E-03;  0.0000000E+00; -6.2524565E-03;  3.9246992E+03;
  0.0000000E+00;  9.9999998E-03; -3.7000000E-01;1826;  0.0000000E+00;  0.0000000E+00;  0.0000000E+00;  1.0001522E+03;  1.0000000E-01;  1.2611989E+02;0;  0.0000000E+00;  0.0000000E+00;  0.0000000E+00;0; -1.4399983E-02;  4.0000000E+04;  0.0000000E+00;  0.0000000E+00;  4.0000000E+04;  0.0000000E+00;  4.0000000E+04; -6.0181101E-03;  0.0000000E+00; -8.3818734E-03;  5.0189819E+03;
  0.0000000E+00;  9.9999998E-03; -3.6000001E-01;1827;  0.0000000E+00;  0.0000000E+00;  0.0000000E+00;  1.0002050E+03;  1.0000000E-01;  1.6977298E+02;0;  0.0000000E+00;  0.0000000E+00;  0.0000000E+00;0; -2.0009317E-02;  4.0000000E+04;  0.0000000E+00;  0.0000000E+00;  4.0000000E+04;  0.0000000E+00;  4.0000000E+04; -9.2390347E-03;  0.0000000E+00; -1.0770281E-02;  6.1447153E+03;
  0.0000000E+00;  9.9999998E-03; -3.4999999E-01;1828;  0.0000000E+00;  0.0000000E+00;  0.0000000E+00;  1.0002664E+03;  1.0000000E-01;  2.2073450E+02;0;  0.0000000E+00;  0.0000000E+00;  0.0000000E+00;0; -2.6970323E-02;  4.0000000E+04;  0.0000000E+00;  0.0000000E+00;  4.0000000E+04;  0.0000000E+00;  4.0000000E+04; -1.3619923E-02;  0.0000000E+00; -1.3350399E-02;  7.2397363E+03;
  0.0000000E+00;  9.9999998E-03; -3.4000000E-01;1829;  0.0000000E+00;  0.0000000E+00;  0.0000000E+00;  1.0003382E+03;  1.0000000E-01;  2.8018961E+02;0;  0.0000000E+00;  0.0000000E+00;  0.0000000E+00;0; -3.5361666E-02;  4.0000000E+04;  0.0000000E+00;  0.0000000E+00;  4.0000000E+04;  0.0000000E+00;  4.0000000E+04; -1.9354945E-02;  0.0000000E+00; -1.6006721E-02;  8.2172637E+03;
  0.0000000E+00;  9.9999998E-03; -3.3000001E-01;1830;  0.0000000E+00;  0.0000000E+00;  0.0000000E+00;  1.0004211E+03;  1.0000000E-01;  3.4882965E+02;0;  0.0000000E+00;  0.0000000E+00;  0.0000000E+00;0; -4.5146953E-02;  4.0000000E+04;  0.0000000E+00;  0.0000000E+00;  4.0000000E+04;  0.0000000E+00;  4.0000000E+04; -2.6590098E-02;  0.0000000E+00; -1.8556856E-02;  8.9588125E+03;
  0.0000000E+00;  9.9999998E-03; -3.1999999E-01;1831;  0.0000000E+00;  0.0000000E+00;  0.0000000E+00;  1.0005062E+03;  1.0000000E-01;  4.1944492E+02;0;  0.0000000E+00;  0.0000000E+00;  0.0000000E+00;0; -5.6133594E-02;  4.0000000E+04;  0.0000000E+00;  0.0000000E+00;  4.0000000E+04;  0.0000000E+00;  4.0000000E+04; -3.5392541E-02;  0.0000000E+00; -2.0741053E-02;  9.3130479E+03;
  0.0000000E+00;  9.9999998E-03; -3.1000000E-01;1832;  0.0000000E+00;  0.0000000E+00;  0.0000000E+00;  1.0005945E+03;  1.0000000E-01;  4.9252927E+02;0;  0.0000000E+00;  0.0000000E+00;  0.0000000E+00;0; -6.7957282E-02;  4.0000000E+04;  0.0000000E+00;  0.0000000E+00;  4.0000000E+04;  0.0000000E+00;  4.0000000E+04; -4.5723323E-02;  0.0000000E+00; -2.2233956E-02;  9.1093174E+03;
  0.0000000E+00;  9.9999998E-03; -3.0000001E-01;1833;  0.0000000E+00;  0.0000000E+00;  0.0000000E+00;  1.0006792E+03;  1.0000000E-01;  5.6274951E+02;0;  0.0000000E+00;  0.0000000E+00;  0.0000000E+00;0; -8.0117658E-02;  4.0000000E+04;  0.0000000E+00;  0.0000000E+00;  4.0000000E+04;  0.0000000E+00;  4.0000000E+04; -5.7419248E-02;  0.0000000E+00; -2.2698412E-02;  8.2011748E+03;
  9.9999998E-03;  9.9999998E-03; -4.4000000E-01;1851;  0.0000000E+00;  0.0000000E+00;  0.0000000E+00;  1.0000000E+03;  1.0000000E-01;  0.0000000E+00;0;  0.0000000E+00;  0.0000000E+00;  0.0000000E+00;0; -1.9532570E-04;  4.0000000E+04;  0.0000000E+00;  0.0000000E+00;  4.0000000E+04;  0.0000000E+00;  4.0000000E+04; -3.6034235E-05;  0.0000000E+00; -1.5929146E-04;  1.3272459E+02;
  9.9999998E-03;  9.9999998E-03; -4.3000001E-01;1852;  0.0000000E+00;  0.0000000E+00;  0.0000000E+00;  1.0000044E+03;  1.0000000E-01;  3.6542177E+00;0;  0.0000000E+00;  0.0000000E+00;  0.0000000E+00;0; -6.0785224E-04;  4.0000000E+04;  0.0000000E+00;  0.0000000E+00;  4.0000000E+04;  0.0000000E+00;  4.0000000E+04; -1.2147330E-04;  0.0000000E+00; -4.8637897E-04;  3.7308618E+02;
  9.9999998E-03;  9.9999998E-03; -4.1999999E-01;1853;  0.0000000E+00;  0.0000000E+00;  0.0000000E+00;  1.0000190E+03;  1.0000000E-01;  1.5703259E+01;0;  0.0000000E+00;  0.0000000E+00;  0.0000000E+00;0; -1.4355357E-03;  4.0000000E+04;  0.0000000E+00;  0.0000000E+00;  4.0000000E+04;  0.0000000E+00;  4.0000000E+04; -3.1621419E-04;  0.0000000E+00; -1.1193216E-03;  8.0622198E+02;
  9.9999998E-03;  9.9999998E-03; -4.1000000E-01;1854;  0.0000000E+00;  0.0000000E+00;  0.0000000E+00;  1.0000323E+03;  1.0000000E-01;  2.6764675E+01;0;  0.0000000E+00;  0.0000000E+00;  0.0000000E+00;0; -2.8255335E-03;  4.0000000E+04;  0.0000000E+00;  0.0000000E+00;  4.0000000E+04;  0.0000000E+00;  4.0000000E+04; -6.9909083E-04;  0.0000000E+00; -2.1264427E-03;  1.4544308E+03;
  9.9999998E-03;  9.9999998E-03; -4.0000001E-01;1855;  0.0000000E+00;  0.0000000E+00;  0.0000000E+00;  1.0000577E+03;  1.0000000E-01;  4.7801117E+01;0;  0.0000000E+00;  0.0000000E+00;  0.0000000E+00;0; -4.9094087E-03;  4.0000000E+04;  0.0000000E+00;  0.0000000E+00;  4.0000000E+04;  0.0000000E+00;  4.0000000E+04; -1.3802458E-03;  0.0000000E+00; -3.5291628E-03;  2.3054136E+03;
  9.9999998E-03;  9.9999998E-03; -3.8999999E-01;1856;  0.0000000E+00;  0.0000000E+00;  0.0000000E+00;  1.0000891E+03;  1.0000000E-01;  7.3874451E+01;0;  0.0000000E+00;  0.0000000E+00;  0.0000000E+00;0; -7.8239851E-03;  4.0000000E+04;  0.0000000E+00;  0.0000000E+00;  4.0000000E+04;  0.0000000E+00;  4.0000000E+04; -2.5057353E-03;  0.0000000E+00; -5.3182496E-03;  3.3259783E+03;
  9.9999998E-03;  9.9999998E-03; -3.8000000E-01;1857;  0.0000000E+00;  0.0000000E+00;  0.0000000E+00;  1.0001346E+03;  1.0000000E-01;  1.1150302E+02;0;  0.0000000E+00;  0.0000000E+00;  0.0000000E+00;0; -1.1731409E-02;  4.0000000E+04;  0.0000000E+00;  0.0000000E+00;  4.0000000E+04;  0.0000000E+00;  4.0000000E+04; -4.2590820E-03;  0.0000000E+00; -7.4723274E-03;  4.4753257E+03;
  9.9999998E-03;  9.9999998E-03; -3.7000000E-01;1858;  0.0000000E+00;  0.0000000E+00;  0.0000000E+00;  1.0001870E+03;  1.0000000E-01;  1.5495859E+02;0;  0.0000000E+00;  0.0000000E+00;  0.0000000E+00;0; -1.6820986E-02;  4.0000000E+04;  0.0000000E+00;  0.0000000E+00;  4.0000000E+04;  0.0000000E+00;  4.0000000E+04; -6.8578925E-03;  0.0000000E+00; -9.9630943E-03;  5.7089888E+03;
  9.9999998E-03;  9.9999998E-03; -3.6000001E-01;1859;  0.0000000E+00;  0.0000000E+00;  0.0000000E+00;  1.0002532E+03;  1.0000000E-01;  2.0977185E+02;0;  0.0000000E+00;  0.0000000E+00;  0.0000000E+00;0; -2.3290258E-02;  4.0000000E+04;  0.0000000E+00;  0.0000000E+00;  4.0000000E+04;  0.0000000E+00;  4.0000000E+04; -1.0543399E-02;  0.0000000E+00; -1.2746857E-02;  6.9744951E+03;
  9.9999998E-03;  9.9999998E-03; -3.4999999E-01;1860;  0.0000000E+00;  0.0000000E+00;  0.0000000E+00;  1.0003313E+03;  1.0000000E-01;  2.7446136E+02;0;  0.0000000E+00;  0.0000000E+00;  0.0000000E+00;0; -3.1308301E-02;  4.0000000E+04;  0.0000000E+00;  0.0000000E+00;  4.0000000E+04;  0.0000000E+00;  4.0000000E+04; -1.5561545E-02;  0.0000000E+00; -1.5746754E-02;  8.2024023E+03;
  9.9999998E-03;  9.9999998E-03; -3.4000000E-01;1861;  0.0000000E+00;  0.0000000E+00;  0.0000000E+00;  1.0004217E+03;  1.0000000E-01;  3.4932346E+02;0;  0.0000000E+00;  0.0000000E+00;  0.0000000E+00;0; -4.0965792E-02;  4.0000000E+04;  0.0000000E+00;  0.0000000E+00;  4.0000000E+04;  0.0000000E+00;  4.0000000E+04; -2.2135677E-02;  0.0000000E+00; -1.8830115E-02;  9.2959980E+03;
  9.9999998E-03;  9.9999998E-03; -3.3000001E-01;1862;  0.0000000E+00;  0.0000000E+00;  0.0000000E+00;  1.0005231E+03;  1.0000000E-01;  4.3337045E+02;0;  0.0000000E+00;  0.0000000E+00;  0.0000000E+00;0; -5.2218735E-02;  4.0000000E+04;  0.0000000E+00;  0.0000000E+00;  4.0000000E+04;  0.0000000E+00;  4.0000000E+04; -3.0433252E-02;  0.0000000E+00; -2.1785481E-02;  1.0122662E+04;
  9.9999998E-03;  9.9999998E-03; -3.1999999E-01;1863;  0.0000000E+00;  0.0000000E+00;  0.0000000E+00;  1.0006335E+03;  1.0000000E-01;  5.2482465E+02;0;  0.0000000E+00;  0.0000000E+00;  0.0000000E+00;0; -6.4839110E-02;  4.0000000E+04;  0.0000000E+00;  0.0000000E+00;  4.0000000E+04;  0.0000000E+00;  4.0000000E+04; -4.0530544E-02;  0.0000000E+00; -2.4308564E-02;  1.0511510E+04;
  9.9999998E-03;  9.9999998E-03; -3.1000000E-01;1864;  0.0000000E+00;  0.0000000E+00;  0.0000000E+00;  1.0007466E+03;  1.0000000E-01;  6.1855042E+02;0;  0.0000000E+00;  0.0000000E+00;  0.0000000E+00;0; -7.8392476E-02;  4.0000000E+04;  0.0000000E+00;  0.0000000E+00;  4.0000000E+04;  0.0000000E+00;  4.0000000E+04; -5.2380376E-02;  0.0000000E+00; -2.6012098E-02;  1.0264888E+04;
  2.0000000E-02;  9.9999998E-03; -4.4000000E-01;1881;  0.0000000E+00;  0.0000000E+00;  0.0000000E+00;  1.0000000E+03;  1.0000000E-01;  0.0000000E+00;0;  0.0000000E+00;  0.0000000E+00;  0.0000000E+00;0; -2.3624359E-04;  4.0000000E+04;  0.0000000E+00;  0.0000000E+00;  4.0000000E+04;  0.0000000E+00;  4.0000000E+04; -3.8826351E-05;  0.0000000E+00; -1.9741723E-04;  1.4951021E+02;
  2.0000000E-02;  9.9999998E-03; -4.3000001E-01;1882;  0.0000000E+00;  0.0000000E+00;  0.0000000E+00;  1.0000067E+03;  1.0000000E-01;  5.5307078E+00;0;  0.0000000E+00;  0.0000000E+00;  0.0000000E+00;0; -7.2221132E-04;  4.0000000E+04;  0.0000000E+00;  0.0000000E+00;  4.0000000E+04;  0.0000000E+00;  4.0000000E+04; -1.3165054E-04;  0.0000000E+00; -5.9056078E-04;  4.1816803E+02;
  2.0000000E-02;  9.9999998E-03; -4.1999999E-01;1883;  0.0000000E+00;  0.0000000E+00;  0.0000000E+00;  1.0000228E+03;  1.0000000E-01;  1.8863665E+01;0;  0.0000000E+00;  0.0000000E+00;  0.0000000E+00;0; -1.6843484E-03;  4.0000000E+04;  0.0000000E+00;  0.0000000E+00;  4.0000000E+04;  0.0000000E+00;  4.0000000E+04; -3.4467745E-04;  0.0000000E+00; -1.3396710E-03;  9.0217993E+02;
  2.0000000E-02;  9.9999998E-03; -4.1000000E-01;1884;  0.0000000E+00;  0.0000000E+00;  0.0000000E+00;  1.0000421E+03;  1.0000000E-01;  3.4863213E+01;0;  0.0000000E+00;  0.0000000E+00;  0.0000000E+00;0; -3.2835880E-03;  4.0000000E+04;  0.0000000E+00;  0.0000000E+00;  4.0000000E+04;  0.0000000E+00;  4.0000000E+04; -7.6628750E-04;  0.0000000E+00; -2.5173004E-03;  1.6260927E+03;
  2.0000000E-02;  9.9999998E-03; -4.0000001E-01;1885;  0.0000000E+00;  0.0000000E+00;  0.0000000E+00;  1.0000719E+03;  1.0000000E-01;  5.9553871E+01;0;  0.0000000E+00;  0.0000000E+00;  0.0000000E+00;0; -5.6622131E-03;  4.0000000E+04;  0.0000000E+00;  0.0000000E+00;  4.0000000E+04;  0.0000000E+00;  4.0000000E+04; -1.5206705E-03;  0.0000000E+00; -4.1415426E-03;  2.5748264E+03;
  2.0000000E-02;  9.9999998E-03; -3.8999999E-01;1886;  0.0000000E+00;  0.0000000E+00;  0.0000000E+00;  1.0001093E+03;  1.0000000E-01;  9.0565338E+01;0;  0.0000000E+00;  0.0000000E+00;  0.0000000E+00;0; -8.9698927E-03;  4.0000000E+04;  0.0000000E+00;  0.0000000E+00;  4.0000000E+04;  0.0000000E+00;  4.0000000E+04; -2.7728917E-03;  0.0000000E+00; -6.1970013E-03;  3.7094622E+03;
  2.0000000E-02;  9.9999998E-03; -3.8000000E-01;1887;  0.0000000E+00;  0.0000000E+00;  0.0000000E+00;  1.0001626E+03;  1.0000000E-01;  1.3471223E+02;0;  0.0000000E+00;  0.0000000E+00;  0.0000000E+00;0; -1.3386979E-02;  4.0000000E+04;  0.0000000E+00;  0.0000000E+00;  4.0000000E+04;  0.0000000E+00;  4.0000000E+04; -4.7303075E-03;  0.0000000E+00; -8.6566713E-03;  4.9826665E+03;
  2.0000000E-02;  9.9999998E-03; -3.7000000E-01;1888;  0.0000000E+00;  0.0000000E+00;  0.0000000E+00;  1.0002257E+03;  1.0000000E-01;  1.8695767E+02;0;  0.0000000E+00;  0.0000000E+00;  0.0000000E+00;0; -1.9125901E-02;  4.0000000E+04;  0.0000000E+00;  0.0000000E+00;  4.0000000E+04;  0.0000000E+00;  4.0000000E+04; -7.6383930E-03;  0.0000000E+00; -1.1487507E-02;  6.3435425E+03;
  2.0000000E-02;  9.9999998E-03; -3.6000001E-01;1889;  0.0000000E+00;  0.0000000E+00;  0.0000000E+00;  1.0003041E+03;  1.0000000E-01;  2.5194350E+02;0;  0.0000000E+00;  0.0000000E+00;  0.0000000E+00;0; -2.6408516E-02;  4.0000000E+04;  0.0000000E+00;  0.0000000E+00;  4.0000000E+04;  0.0000000E+00;  4.0000000E+04; -1.1768362E-02;  0.0000000E+00; -1.4640154E-02;  7.7327876E+03;
  2.0000000E-02;  9.9999998E-03; -3.4999999E-01;1890;  0.0000000E+00;  0.0000000E+00;  0.0000000E+00;  1.0003981E+03;  1.0000000E-01;  3.2976846E+02;0;  0.0000000E+00;  0.0000000E+00;  0.0000000E+00;0; -3.5423830E-02;  4.0000000E+04;  0.0000000E+00;  0.0000000E+00;  4.0000000E+04;  0.0000000E+00;  4.0000000E+04; -1.7395638E-02;  0.0000000E+00; -1.8028190E-02;  9.0728174E+03;
  2.0000000E-02;  9.9999998E-03; -3.4000000E-01;1891;  0.0000000E+00;  0.0000000E+00;  0.0000000E+00;  1.0005085E+03;  1.0000000E-01;  4.2122266E+02;0;  0.0000000E+00;  0.0000000E+00;  0.0000000E+00;0; -4.6270389E-02;  4.0000000E+04;  0.0000000E+00;  0.0000000E+00;  4.0000000E+04;  0.0000000E+00;  4.0000000E+04; -2.4768651E-02;  0.0000000E+00; -2.1501739E-02;  1.0256303E+04;
  2.0000000E-02;  9.9999998E-03; -3.3000001E-01;1892;  0.0000000E+00;  0.0000000E+00;  0.0000000E+00;  1.0006332E+03;  1.0000000E-01;  5.2452838E+02;0;  0.0000000E+00;  0.0000000E+00;  0.0000000E+00;0; -5.8892168E-02;  4.0000000E+04;  0.0000000E+00;  0.0000000E+00;  4.0000000E+04;  0.0000000E+00;  4.0000000E+04; -3.4071535E-02;  0.0000000E+00; -2.4820633E-02;  1.1136734E+04;
  2.0000000E-02;  9.9999998E-03; -3.1999999E-01;1893;  0.0000000E+00;  0.0000000E+00;  0.0000000E+00;  1.0007688E+03;  1.0000000E-01;  6.3692029E+02;0;  0.0000000E+00;  0.0000000E+00;  0.0000000E+00;0; -7.3021106E-02;  4.0000000E+04;  0.0000000E+00;  0.0000000E+00;  4.0000000E+04;  0.0000000E+00;  4.0000000E+04; -4.5384441E-02;  0.0000000E+00; -2.7636668E-02;  1.1525708E+04;
  2.0000000E-02;  9.9999998E-03; -3.1000000E-01;1894;  0.0000000E+00;  0.0000000E+00;  0.0000000E+00;  1.0009075E+03;  1.0000000E-01;  7.5178119E+02;0;  0.0000000E+00;  0.0000000E+00;  0.0000000E+00;0; -8.8151157E-02;  4.0000000E+04;  0.0000000E+00;  0.0000000E+00;  4.0000000E+04;  0.0000000E+00;  4.0000000E+04; -5.8648374E-02;  0.0000000E+00; -2.9502787E-02;  1.1205595E+04;
  2.9999999E-02;  9.9999998E-03; -4.4000000E-01;1911;  0.0000000E+00;  0.0000000E+00;  0.0000000E+00;  1.0000000E+03;  1.0000000E-01;  0.0000000E+00;0;  0.0000000E+00;  0.0000000E+00;  0.0000000E+00;0; -2.7363189E-04;  4.0000000E+04;  0.0000000E+00;  0.0000000E+00;  4.0000000E+04;  0.0000000E+00;  4.0000000E+04; -3.9813218E-05;  0.0000000E+00; -2.3381868E-04;  1.6080452E+02;
  2.9999999E-02;  9.9999998E-03; -4.3000001E-01;1912;  0.0000000E+00;  0.0000000E+00;  0.0000000E+00;  1.0000084E+03;  1.0000000E-01;  7.0121474E+00;0;  0.0000000E+00;  0.0000000E+00;  0.0000000E+00;0; -8.2712603E-04;  4.0000000E+04;  0.0000000E+00;  0.0000000E+00;  4.0000000E+04;  0.0000000E+00;  4.0000000E+04; -1.3732772E-04;  0.0000000E+00; -6.8979833E-04;  4.5295071E+02;
  2.9999999E-02;  9.9999998E-03; -4.1999999E-01;1913;  0.0000000E+00;  0.0000000E+00;  0.0000000E+00;  1.0000255E+03;  1.0000000E-01;  2.1135204E+01;0;  0.0000000E+00;  0.0000000E+00;  0.0000000E+00;0; -1.9122978E-03;  4.0000000E+04;  0.0000000E+00;  0.0000000E+00;  4.0000000E+04;  0.0000000E+00;  4.0000000E+04; -3.6439230E-04;  0.0000000E+00; -1.5479055E-03;  9.8223163E+02;
  2.9999999E-02;  9.9999998E-03; -4.1000000E-01;1914;  0.0000000E+00;  0.0000000E+00;  0.0000000E+00;  1.0000486E+03;  1.0000000E-01;  4.0295158E+01;0;  0.0000000E+00;  0.0000000E+00;  0.0000000E+00;0; -3.7019146E-03;  4.0000000E+04;  0.0000000E+00;  0.0000000E+00;  4.0000000E+04;  0.0000000E+00;  4.0000000E+04; -8.1893196E-04;  0.0000000E+00; -2.8829826E-03;  1.7756711E+03;
  2.9999999E-02;  9.9999998E-03; -4.0000001E-01;1915;  0.0000000E+00;  0.0000000E+00;  0.0000000E+00;  1.0000808E+03;  1.0000000E-01;  6.6961067E+01;0;  0.0000000E+00;  0.0000000E+00;  0.0000000E+00;0; -6.3478546E-03;  4.0000000E+04;  0.0000000E+00;  0.0000000E+00;  4.0000000E+04;  0.0000000E+00;  4.0000000E+04; -1.6391877E-03;  0.0000000E+00; -4.7086668E-03;  2.8151377E+03;
  2.9999999E-02;  9.9999998E-03; -3.8999999E-01;1916;  0.0000000E+00;  0.0000000E+00;  0.0000000E+00;  1.0001286E+03;  1.0000000E-01;  1.0656489E+02;0;  0.0000000E+00;  0.0000000E+00;  0.0000000E+00;0; -1.0012120E-02;  4.0000000E+04;  0.0000000E+00;  0.0000000E+00;  4.0000000E+04;  0.0000000E+00;  4.0000000E+04; -3.0089603E-03;  0.0000000E+00; -7.0031597E-03;  4.0552878E+03;
  2.9999999E-02;  9.9999998E-03; -3.8000000E-01;1917;  0.0000000E+00;  0.0000000E+00;  0.0000000E+00;  1.0001873E+03;  1.0000000E-01;  1.5515611E+02;0;  0.0000000E+00;  0.0000000E+00;  0.0000000E+00;0; -1.4892618E-02;  4.0000000E+04;  0.0000000E+00;  0.0000000E+00;  4.0000000E+04;  0.0000000E+00;  4.0000000E+04; -5.1585753E-03;  0.0000000E+00; -9.7340429E-03;  5.4414048E+03;
  2.9999999E-02;  9.9999998E-03; -3.7000000E-01;1918;  0.0000000E+00;  0.0000000E+00;  0.0000000E+00;  1.0002623E+03;  1.0000000E-01;  2.1727780E+02;0;  0.0000000E+00;  0.0000000E+00;  0.0000000E+00;0; -2.1223370E-02;  4.0000000E+04;  0.0000000E+00;  0.0000000E+00;  4.0000000E+04;  0.0000000E+00;  4.0000000E+04; -8.3595905E-03;  0.0000000E+00; -1.2863780E-02;  6.9151323E+03;
  2.9999999E-02;  9.9999998E-03; -3.6000001E-01;1919;  0.0000000E+00;  0.0000000E+00;  0.0000000E+00;  1.0003547E+03;  1.0000000E-01;  2.9381885E+02;0;  0.0000000E+00;  0.0000000E+00;  0.0000000E+00;0; -2.9247925E-02;  4.0000000E+04;  0.0000000E+00;  0.0000000E+00;  4.0000000E+04;  0.0000000E+00;  4.0000000E+04; -1.2910398E-02;  0.0000000E+00; -1.6337527E-02;  8.4093330E+03;
  2.9999999E-02;  9.9999998E-03; -3.4999999E-01;1920;  0.0000000E+00;  0.0000000E+00;  0.0000000E+00;  1.0004658E+03;  1.0000000E-01;  3.8586563E+02;0;  0.0000000E+00;  0.0000000E+00;  0.0000000E+00;0; -3.9171539E-02;  4.0000000E+04;  0.0000000E+00;  0.0000000E+00;  4.0000000E+04;  0.0000000E+00;  4.0000000E+04; -1.9112011E-02;  0.0000000E+00; -2.0059526E-02;  9.8371699E+03;
  2.9999999E-02;  9.9999998E-03; -3.4000000E-01;1921;  0.0000000E+00;  0.0000000E+00;  0.0000000E+00;  1.0005960E+03;  1.0000000E-01;  4.9381320E+02;0;  0.0000000E+00;  0.0000000E+00;  0.0000000E+00;0; -5.1096760E-02;  4.0000000E+04;  0.0000000E+00;  0.0000000E+00;  4.0000000E+04;  0.0000000E+00;  4.0000000E+04; -2.7233364E-02;  0.0000000E+00; -2.3863396E-02;  1.1080092E+04;
  2.9999999E-02;  9.9999998E-03; -3.3000001E-01;1922;  0.0000000E+00;  0.0000000E+00;  0.0000000E+00;  1.0007424E+03;  1.0000000E-01;  6.1499493E+02;0;  0.0000000E+00;  0.0000000E+00;  0.0000000E+00;0; -6.4951584E-02;  4.0000000E+04;  0.0000000E+00;  0.0000000E+00;  4.0000000E+04;  0.0000000E+00;  4.0000000E+04; -3.7469864E-02;  0.0000000E+00; -2.7481716E-02;  1.1978121E+04;
  2.9999999E-02;  9.9999998E-03; -3.1999999E-01;1923;  0.0000000E+00;  0.0000000E+00;  0.0000000E+00;  1.0009029E+03;  1.0000000E-01;  7.4802820E+02;0;  0.0000000E+00;  0.0000000E+00;  0.0000000E+00;0; -8.0426887E-02;  4.0000000E+04;  0.0000000E+00;  0.0000000E+00;  4.0000000E+04;  0.0000000E+00;  4.0000000E+04; -4.9900793E-02;  0.0000000E+00; -3.0526094E-02;  1.2328993E+04;
  2.9999999E-02;  9.9999998E-03; -3.1000000E-01;1924;  0.0000000E+00;  0.0000000E+00;  0.0000000E+00;  1.0010679E+03;  1.0000000E-01;  8.8471570E+02;0;  0.0000000E+00;  0.0000000E+00;  0.0000000E+00;0; -9.6950859E-02;  4.0000000E+04;  0.0000000E+00;  0.0000000E+00;  4.0000000E+04;  0.0000000E+00;  4.0000000E+04; -6.4453043E-02;  0.0000000E+00; -3.2497816E-02;  1.1906356E+04;
  3.9999999E-02;  9.9999998E-03; -4.4000000E-01;1941;  0.0000000E+00;  0.0000000E+00;  0.0000000E+00;  1.0000000E+03;  1.0000000E-01;  0.0000000E+00;0;  0.0000000E+00;  0.0000000E+00;  0.0000000E+00;0; -3.0570672E-04;  4.0000000E+04;  0.0000000E+00;  0.0000000E+00;  4.0000000E+04;  0.0000000E+00;  4.0000000E+04; -3.9394239E-05;  0.0000000E+00; -2.6631248E-04;  1.6733997E+02;
  3.9999999E-02;  9.9999998E-03; -4.3000001E-01;1942;  0.0000000E+00;  0.0000000E+00;  0.0000000E+00;  1.0000129E+03;  1.0000000E-01;  1.0765127E+01;0;  0.0000000E+00;  0.0000000E+00;  0.0000000E+00;0; -9.1734494E-04;  4.0000000E+04;  0.0000000E+00;  0.0000000E+00;  4.0000000E+04;  0.0000000E+00;  4.0000000E+04; -1.3953194E-04;  0.0000000E+00; -7.7781302E-04;  4.7907019E+02;
  3.9999999E-02;  9.9999998E-03; -4.1999999E-01;1943;  0.0000000E+00;  0.0000000E+00;  0.0000000E+00;  1.0000272E+03;  1.0000000E-01;  2.2517881E+01;0;  0.0000000E+00;  0.0000000E+00;  0.0000000E+00;0; -2.1077702E-03;  4.0000000E+04;  0.0000000E+00;  0.0000000E+00;  4.0000000E+04;  0.0000000E+00;  4.0000000E+04; -3.7760451E-04;  0.0000000E+00; -1.7301658E-03;  1.0490590E+03;
  3.9999999E-02;  9.9999998E-03; -4.1000000E-01;1944;  0.0000000E+00;  0.0000000E+00;  0.0000000E+00;  1.0000536E+03;  1.0000000E-01;  4.4443188E+01;0;  0.0000000E+00;  0.0000000E+00;  0.0000000E+00;0; -4.0597408E-03;  4.0000000E+04;  0.0000000E+00;  0.0000000E+00;  4.0000000E+04;  0.0000000E+00;  4.0000000E+04; -8.6124666E-04;  0.0000000E+00; -3.1984942E-03;  1.9067991E+03;
  3.9999999E-02;  9.9999998E-03; -4.0000001E-01;1945;  0.0000000E+00;  0.0000000E+00;  0.0000000E+00;  1.0000945E+03;  1.0000000E-01;  7.8318771E+01;0;  0.0000000E+00;  0.0000000E+00;  0.0000000E+00;0; -6.9344426E-03;  4.0000000E+04;  0.0000000E+00;  0.0000000E+00;  4.0000000E+04;  0.0000000E+00;  4.0000000E+04; -1.7427625E-03;  0.0000000E+00; -5.1916800E-03;  3.0306523E+03;
  3.9999999E-02;  9.9999998E-03; -3.8999999E-01;1946;  0.0000000E+00;  0.0000000E+00;  0.0000000E+00;  1.0001442E+03;  1.0000000E-01;  1.1950279E+02;0;  0.0000000E+00;  0.0000000E+00;  0.0000000E+00;0; -1.0906490E-02;  4.0000000E+04;  0.0000000E+00;  0.0000000E+00;  4.0000000E+04;  0.0000000E+00;  4.0000000E+04; -3.2241580E-03;  0.0000000E+00; -7.6823323E-03;  4.3681543E+03;
  3.9999999E-02;  9.9999998E-03; -3.8000000E-01;1947;  0.0000000E+00;  0.0000000E+00;  0.0000000E+00;  1.0002120E+03;  1.0000000E-01;  1.7569873E+02;0;  0.0000000E+00;  0.0000000E+00;  0.0000000E+00;0; -1.6190806E-02;  4.0000000E+04;  0.0000000E+00;  0.0000000E+00;  4.0000000E+04;  0.0000000E+00;  4.0000000E+04; -5.5573261E-03;  0.0000000E+00; -1.0633480E-02;  5.8564390E+03;
  3.9999999E-02;  9.9999998E-03; -3.7000000E-01;1948;  0.0000000E+00;  0.0000000E+00;  0.0000000E+00;  1.0002983E+03;  1.0000000E-01;  2.4720288E+02;0;  0.0000000E+00;  0.0000000E+00;  0.0000000E+00;0; -2.3041362E-02;  4.0000000E+04;  0.0000000E+00;  0.0000000E+00;  4.0000000E+04;  0.0000000E+00;  4.0000000E+04; -9.0377042E-03;  0.0000000E+00; -1.4003658E-02;  7.4288135E+03;
  3.9999999E-02;  9.9999998E-03; -3.6000001E-01;1949;  0.0000000E+00;  0.0000000E+00;  0.0000000E+00;  1.0004023E+03;  1.0000000E-01;  3.3332391E+02;0;  0.0000000E+00;  0.0000000E+00;  0.0000000E+00;0; -3.1720534E-02;  4.0000000E+04;  0.0000000E+00;  0.0000000E+00;  4.0000000E+04;  0.0000000E+00;  4.0000000E+04; -1.3987812E-02;  0.0000000E+00; -1.7732723E-02;  9.0093496E+03;
  3.9999999E-02;  9.9999998E-03; -3.4999999E-01;1950;  0.0000000E+00;  0.0000000E+00;  0.0000000E+00;  1.0005302E+03;  1.0000000E-01;  4.3929620E+02;0;  0.0000000E+00;  0.0000000E+00;  0.0000000E+00;0; -4.2446487E-02;  4.0000000E+04;  0.0000000E+00;  0.0000000E+00;  4.0000000E+04;  0.0000000E+00;  4.0000000E+04; -2.0730399E-02;  0.0000000E+00; -2.1716090E-02;  1.0501322E+04;
  3.9999999E-02;  9.9999998E-03; -3.4000000E-01;1951;  0.0000000E+00;  0.0000000E+00;  0.0000000E+00;  1.0006802E+03;  1.0000000E-01;  5.6353961E+02;0;  0.0000000E+00;  0.0000000E+00;  0.0000000E+00;0; -5.5322669E-02;  4.0000000E+04;  0.0000000E+00;  0.0000000E+00;  4.0000000E+04;  0.0000000E+00;  4.0000000E+04; -2.9550109E-02;  0.0000000E+00; -2.5772559E-02;  1.1774772E+04;
  3.9999999E-02;  9.9999998E-03; -3.3000001E-01;1952;  0.0000000E+00;  0.0000000E+00;  0.0000000E+00;  1.0008484E+03;  1.0000000E-01;  7.0289368E+02;0;  0.0000000E+00;  0.0000000E+00;  0.0000000E+00;0; -7.0259526E-02;  4.0000000E+04;  0.0000000E+00;  0.0000000E+00;  4.0000000E+04;  0.0000000E+00;  4.0000000E+04; -4.0648296E-02;  0.0000000E+00; -2.9611234E-02;  1.2657734E+04;
  3.9999999E-02;  9.9999998E-03; -3.1999999E-01;1953;  0.0000000E+00;  0.0000000E+00;  0.0000000E+00;  1.0010339E+03;  1.0000000E-01;  8.5656836E+02;0;  0.0000000E+00;  0.0000000E+00;  0.0000000E+00;0; -8.6907685E-02;  4.0000000E+04;  0.0000000E+00;  0.0000000E+00;  4.0000000E+04;  0.0000000E+00;  4.0000000E+04; -5.4097459E-02;  0.0000000E+00; -3.2810230E-02;  1.2938440E+04;
  3.9999999E-02;  9.9999998E-03; -3.1000000E-01;1954;  0.0000000E+00;  0.0000000E+00;  0.0000000E+00;  1.0012242E+03;  1.0000000E-01;  1.0142923E+03;0;  0.0000000E+00;  0.0000000E+00;  0.0000000E+00;0; -1.0463379E-01;  4.0000000E+04;  0.0000000E+00;  0.0000000E+00;  4.0000000E+04;  0.0000000E+00;  4.0000000E+04; -6.9803983E-02;  0.0000000E+00; -3.4829803E-02;  1.2390681E+04;
  5.0000001E-02;  9.9999998E-03; -4.4000000E-01;1971;  0.0000000E+00;  0.0000000E+00;  0.0000000E+00;  1.0000000E+03;  1.0000000E-01;  0.0000000E+00;0;  0.0000000E+00;  0.0000000E+00;  0.0000000E+00;0; -3.3121192E-04;  4.0000000E+04;  0.0000000E+00;  0.0000000E+00;  4.0000000E+04;  0.0000000E+00;  4.0000000E+04; -3.8331029E-05;  0.0000000E+00; -2.9288090E-04;  1.7114166E+02;
  5.0000001E-02;  9.9999998E-03; -4.3000001E-01;1972;  0.0000000E+00;  0.0000000E+00;  0.0000000E+00;  1.0000193E+03;  1.0000000E-01;  1.5999548E+01;0;  0.0000000E+00;  0.0000000E+00;  0.0000000E+00;0; -9.8850462E-04;  4.0000000E+04;  0.0000000E+00;  0.0000000E+00;  4.0000000E+04;  0.0000000E+00;  4.0000000E+04; -1.4029231E-04;  0.0000000E+00; -8.4821234E-04;  5.0042328E+02;
  5.0000001E-02;  9.9999998E-03; -4.1999999E-01;1973;  0.0000000E+00;  0.0000000E+00;  0.0000000E+00;  1.0000286E+03;  1.0000000E-01;  2.3703033E+01;0;  0.0000000E+00;  0.0000000E+00;  0.0000000E+00;0; -2.2608954E-03;  4.0000000E+04;  0.0000000E+00;  0.0000000E+00;  4.0000000E+04;  0.0000000E+00;  4.0000000E+04; -3.8862063E-04;  0.0000000E+00; -1.8722749E-03;  1.1087197E+03;
  5.0000001E-02;  9.9999998E-03; -4.1000000E-01;1974;  0.0000000E+00;  0.0000000E+00;  0.0000000E+00;  1.0000594E+03;  1.0000000E-01;  4.9282558E+01;0;  0.0000000E+00;  0.0000000E+00;  0.0000000E+00;0; -4.3400475E-03;  4.0000000E+04;  0.0000000E+00;  0.0000000E+00;  4.0000000E+04;  0.0000000E+00;  4.0000000E+04; -9.0095599E-04;  0.0000000E+00; -3.4390916E-03;  2.0275658E+03;
  5.0000001E-02;  9.9999998E-03; -4.0000001E-01;1975;  0.0000000E+00;  0.0000000E+00;  0.0000000E+00;  1.0001016E+03;  1.0000000E-01;  8.4145767E+01;0;  0.0000000E+00;  0.0000000E+00;  0.0000000E+00;0; -7.3972656E-03;  4.0000000E+04;  0.0000000E+00;  0.0000000E+00;  4.0000000E+04;  0.0000000E+00;  4.0000000E+04; -1.8434860E-03;  0.0000000E+00; -5.5537797E-03;  3.2311633E+03;
  5.0000001E-02;  9.9999998E-03; -3.8999999E-01;1976;  0.0000000E+00;  0.0000000E+00;  0.0000000E+00;  1.0001599E+03;  1.0000000E-01;  1.3244070E+02;0;  0.0000000E+00;  0.0000000E+00;  0.0000000E+00;0; -1.1620564E-02;  4.0000000E+04;  0.0000000E+00;  0.0000000E+00;  4.0000000E+04;  0.0000000E+00;  4.0000000E+04; -3.4354995E-03;  0.0000000E+00; -8.1850644E-03;  4.6592485E+03;
  5.0000001E-02;  9.9999998E-03; -3.8000000E-01;1977;  0.0000000E+00;  0.0000000E+00;  0.0000000E+00;  1.0002343E+03;  1.0000000E-01;  1.9416734E+02;0;  0.0000000E+00;  0.0000000E+00;  0.0000000E+00;0; -1.7241556E-02;  4.0000000E+04;  0.0000000E+00;  0.0000000E+00;  4.0000000E+04;  0.0000000E+00;  4.0000000E+04; -5.9490651E-03;  0.0000000E+00; -1.1292490E-02;  6.2401079E+03;
  5.0000001E-02;  9.9999998E-03; -3.7000000E-01;1978;  0.0000000E+00;  0.0000000E+00;  0.0000000E+00;  1.0003279E+03;  1.0000000E-01;  2.7169601E+02;0;  0.0000000E+00;  0.0000000E+00;  0.0000000E+00;0; -2.4532523E-02;  4.0000000E+04;  0.0000000E+00;  0.0000000E+00;  4.0000000E+04;  0.0000000E+00;  4.0000000E+04; -9.7018313E-03;  0.0000000E+00; -1.4830693E-02;  7.8980508E+03;
  5.0000001E-02;  9.9999998E-03; -3.6000001E-01;1979;  0.0000000E+00;  0.0000000E+00;  0.0000000E+00;  1.0004465E+03;  1.0000000E-01;  3.6986609E+02;0;  0.0000000E+00;  0.0000000E+00;  0.0000000E+00;0; -3.3772815E-02;  4.0000000E+04;  0.0000000E+00;  0.0000000E+00;  4.0000000E+04;  0.0000000E+00;  4.0000000E+04; -1.5038160E-02;  0.0000000E+00; -1.8734654E-02;  9.5479639E+03;
  5.0000001E-02;  9.9999998E-03; -3.4999999E-01;1980;  0.0000000E+00;  0.0000000E+00;  0.0000000E+00;  1.0005892E+03;  1.0000000E-01;  4.8808496E+02;0;  0.0000000E+00;  0.0000000E+00;  0.0000000E+00;0; -4.5191526E-02;  4.0000000E+04;  0.0000000E+00;  0.0000000E+00;  4.0000000E+04;  0.0000000E+00;  4.0000000E+04; -2.2299124E-02;  0.0000000E+00; -2.2892401E-02;  1.1083303E+04;
  5.0000001E-02;  9.9999998E-03; -3.4000000E-01;1981;  0.0000000E+00;  0.0000000E+00;  0.0000000E+00;  1.0007574E+03;  1.0000000E-01;  6.2743903E+02;0;  0.0000000E+00;  0.0000000E+00;  0.0000000E+00;0; -5.8891006E-02;  4.0000000E+04;  0.0000000E+00;  0.0000000E+00;  4.0000000E+04;  0.0000000E+00;  4.0000000E+04; -3.1780109E-02;  0.0000000E+00; -2.7110897E-02;  1.2363460E+04;
  5.0000001E-02;  9.9999998E-03; -3.3000001E-01;1982;  0.0000000E+00;  0.0000000E+00;  0.0000000E+00;  1.0009474E+03;  1.0000000E-01;  7.8486670E+02;0;  0.0000000E+00;  0.0000000E+00;  0.0000000E+00;0; -7.4763209E-02;  4.0000000E+04;  0.0000000E+00;  0.0000000E+00;  4.0000000E+04;  0.0000000E+00;  4.0000000E+04; -4.3681644E-02;  0.0000000E+00; -3.1081567E-02;  1.3206141E+04;
  5.0000001E-02;  9.9999998E-03; -3.1999999E-01;1983;  0.0000000E+00;  0.0000000E+00;  0.0000000E+00;  1.0011561E+03;  1.0000000E-01;  9.5780005E+02;0;  0.0000000E+00;  0.0000000E+00;  0.0000000E+00;0; -9.2418805E-02;  4.0000000E+04;  0.0000000E+00;  0.0000000E+00;  4.0000000E+04;  0.0000000E+00;  4.0000000E+04; -5.8061130E-02;  0.0000000E+00; -3.4357674E-02;  1.3393117E+04;
  5.0000001E-02;  9.9999998E-03; -3.1000000E-01;1984;  0.0000000E+00;  0.0000000E+00;  0.0000000E+00;  1.0013710E+03;  1.0000000E-01;  1.1358691E+03;0;  0.0000000E+00;  0.0000000E+00;  0.0000000E+00;0; -1.1116488E-01;  4.0000000E+04;  0.0000000E+00;  0.0000000E+00;  4.0000000E+04;  0.0000000E+00;  4.0000000E+04; -7.4794970E-02;  0.0000000E+00; -3.6369912E-02;  1.2701744E+04;
  5.9999999E-02;  9.9999998E-03; -4.4000000E-01;2001;  0.0000000E+00;  0.0000000E+00;  0.0000000E+00;  1.0000000E+03;  1.0000000E-01;  0.0000000E+00;0;  0.0000000E+00;  0.0000000E+00;  0.0000000E+00;0; -3.4911509E-04;  4.0000000E+04;  0.0000000E+00;  0.0000000E+00;  4.0000000E+04;  0.0000000E+00;  4.0000000E+04; -3.7623413E-05;  0.0000000E+00; -3.1149166E-04;  1.7502910E+02;
  5.9999999E-02;  9.9999998E-03; -4.3000001E-01;2002;  0.0000000E+00;  0.0000000E+00;  0.0000000E+00;  1.0000197E+03;  1.0000000E-01;  1.6295835E+01;0;  0.0000000E+00;  0.0000000E+00;  0.0000000E+00;0; -1.0370133E-03;  4.0000000E+04;  0.0000000E+00;  0.0000000E+00;  4.0000000E+04;  0.0000000E+00;  4.0000000E+04; -1.4239580E-04;  0.0000000E+00; -8.9461741E-04;  5.2234424E+02;
  5.9999999E-02;  9.9999998E-03; -4.1999999E-01;2003;  0.0000000E+00;  0.0000000E+00;  0.0000000E+00;  1.0000297E+03;  1.0000000E-01;  2.4591898E+01;0;  0.0000000E+00;  0.0000000E+00;  0.0000000E+00;0; -2.3643866E-03;  4.0000000E+04;  0.0000000E+00;  0.0000000E+00;  4.0000000E+04;  0.0000000E+00;  4.0000000E+04; -4.0335223E-04;  0.0000000E+00; -1.9610343E-03;  1.1693231E+03;
  5.9999999E-02;  9.9999998E-03; -4.1000000E-01;2004;  0.0000000E+00;  0.0000000E+00;  0.0000000E+00;  1.0000646E+03;  1.0000000E-01;  5.3529350E+01;0;  0.0000000E+00;  0.0000000E+00;  0.0000000E+00;0; -4.5320392E-03;  4.0000000E+04;  0.0000000E+00;  0.0000000E+00;  4.0000000E+04;  0.0000000E+00;  4.0000000E+04; -9.4842887E-04;  0.0000000E+00; -3.5836105E-03;  2.1485957E+03;
  5.9999999E-02;  9.9999998E-03; -4.0000001E-01;2005;  0.0000000E+00;  0.0000000E+00;  0.0000000E+00;  1.0001086E+03;  1.0000000E-01;  8.9972763E+01;0;  0.0000000E+00;  0.0000000E+00;  0.0000000E+00;0; -7.7230800E-03;  4.0000000E+04;  0.0000000E+00;  0.0000000E+00;  4.0000000E+04;  0.0000000E+00;  4.0000000E+04; -1.9573364E-03;  0.0000000E+00; -5.7657436E-03;  3.4291355E+03;
  5.9999999E-02;  9.9999998E-03; -3.8999999E-01;2006;  0.0000000E+00;  0.0000000E+00;  0.0000000E+00;  1.0001716E+03;  1.0000000E-01;  1.4221820E+02;0;  0.0000000E+00;  0.0000000E+00;  0.0000000E+00;0; -1.2139664E-02;  4.0000000E+04;  0.0000000E+00;  0.0000000E+00;  4.0000000E+04;  0.0000000E+00;  4.0000000E+04; -3.6661888E-03;  0.0000000E+00; -8.4734755E-03;  4.9420742E+03;
  5.9999999E-02;  9.9999998E-03; -3.8000000E-01;2007;  0.0000000E+00;  0.0000000E+00;  0.0000000E+00;  1.0002527E+03;  1.0000000E-01;  2.0937680E+02;0;  0.0000000E+00;  0.0000000E+00;  0.0000000E+00;0; -1.8030185E-02;  4.0000000E+04;  0.0000000E+00;  0.0000000E+00;  4.0000000E+04;  0.0000000E+00;  4.0000000E+04; -6.3671535E-03;  0.0000000E+00; -1.1663033E-02;  6.6063203E+03;
  5.9999999E-02;  9.9999998E-03; -3.7000000E-01;2008;  0.0000000E+00;  0.0000000E+00;  0.0000000E+00;  1.0003550E+03;  1.0000000E-01;  2.9411514E+02;0;  0.0000000E+00;  0.0000000E+00;  0.0000000E+00;0; -2.5685381E-02;  4.0000000E+04;  0.0000000E+00;  0.0000000E+00;  4.0000000E+04;  0.0000000E+00;  4.0000000E+04; -1.0399695E-02;  0.0000000E+00; -1.5285687E-02;  8.3373428E+03;
  5.9999999E-02;  9.9999998E-03; -3.6000001E-01;2009;  0.0000000E+00;  0.0000000E+00;  0.0000000E+00;  1.0004852E+03;  1.0000000E-01;  4.0196393E+02;0;  0.0000000E+00;  0.0000000E+00;  0.0000000E+00;0; -3.5401352E-02;  4.0000000E+04;  0.0000000E+00;  0.0000000E+00;  4.0000000E+04;  0.0000000E+00;  4.0000000E+04; -1.6128739E-02;  0.0000000E+00; -1.9272614E-02;  1.0041398E+04;
  5.9999999E-02;  9.9999998E-03; -3.4999999E-01;2010;  0.0000000E+00;  0.0000000E+00;  0.0000000E+00;  1.0006407E+03;  1.0000000E-01;  5.3075043E+02;0;  0.0000000E+00;  0.0000000E+00;  0.0000000E+00;0; -4.7416970E-02;  4.0000000E+04;  0.0000000E+00;  0.0000000E+00;  4.0000000E+04;  0.0000000E+00;  4.0000000E+04; -2.3910113E-02;  0.0000000E+00; -2.3506857E-02;  1.1602894E+04;
  5.9999999E-02;  9.9999998E-03; -3.4000000E-01;2011;  0.0000000E+00;  0.0000000E+00;  0.0000000E+00;  1.0008273E+03;  1.0000000E-01;  6.8541272E+02;0;  0.0000000E+00;  0.0000000E+00;  0.0000000E+00;0; -6.1831746E-02;  4.0000000E+04;  0.0000000E+00;  0.0000000E+00;  4.0000000E+04;  0.0000000E+00;  4.0000000E+04; -3.4043603E-02;  0.0000000E+00; -2.7788144E-02;  1.2871501E+04;
  5.9999999E-02;  9.9999998E-03; -3.3000001E-01;2012;  0.0000000E+00;  0.0000000E+00;  0.0000000E+00;  1.0010379E+03;  1.0000000E-01;  8.5992627E+02;0;  0.0000000E+00;  0.0000000E+00;  0.0000000E+00;0; -7.8517303E-02;  4.0000000E+04;  0.0000000E+00;  0.0000000E+00;  4.0000000E+04;  0.0000000E+00;  4.0000000E+04; -4.6720058E-02;  0.0000000E+00; -3.1797241E-02;  1.3655932E+04;
  5.9999999E-02;  9.9999998E-03; -3.1999999E-01;2013;  0.0000000E+00;  0.0000000E+00;  0.0000000E+00;  1.0012678E+03;  1.0000000E-01;  1.0503407E+03;0;  0.0000000E+00;  0.0000000E+00;  0.0000000E+00;0; -9.7043574E-02;  4.0000000E+04;  0.0000000E+00;  0.0000000E+00;  4.0000000E+04;  0.0000000E+00;  4.0000000E+04; -6.1970726E-02;  0.0000000E+00; -3.5072848E-02;  1.3732655E+04;
  5.9999999E-02;  9.9999998E-03; -3.1000000E-01;2014;  0.0000000E+00;  0.0000000E+00;  0.0000000E+00;  1.0015051E+03;  1.0000000E-01;  1.2469771E+03;0;  0.0000000E+00;  0.0000000E+00;  0.0000000E+00;0; -1.1665728E-01;  4.0000000E+04;  0.0000000E+00;  0.0000000E+00;  4.0000000E+04;  0.0000000E+00;  4.0000000E+04; -7.9629384E-02;  0.0000000E+00; -3.7027895E-02;  1.2882206E+04;
  7.0000000E-02;  9.9999998E-03; -4.4000000E-01;2031;  0.0000000E+00;  0.0000000E+00;  0.0000000E+00;  1.0000000E+03;  1.0000000E-01;  0.0000000E+00;0;  0.0000000E+00;  0.0000000E+00;  0.0000000E+00;0; -3.5833707E-04;  4.0000000E+04;  0.0000000E+00;  0.0000000E+00;  4.0000000E+04;  0.0000000E+00;  4.0000000E+04; -3.8327376E-05;  0.0000000E+00; -3.2000968E-04;  1.8197542E+02;
  7.0000000E-02;  9.9999998E-03; -4.3000001E-01;2032;  0.0000000E+00;  0.0000000E+00;  0.0000000E+00;  1.0000200E+03;  1.0000000E-01;  1.6493361E+01;0;  0.0000000E+00;  0.0000000E+00;  0.0000000E+00;0; -1.0602287E-03;  4.0000000E+04;  0.0000000E+00;  0.0000000E+00;  4.0000000E+04;  0.0000000E+00;  4.0000000E+04; -1.4886996E-04;  0.0000000E+00; -9.1135869E-04;  5.5042303E+02;
  7.0000000E-02;  9.9999998E-03; -4.1999999E-01;2033;  0.0000000E+00;  0.0000000E+00;  0.0000000E+00;  1.0000322E+03;  1.0000000E-01;  2.6665913E+01;0;  0.0000000E+00;  0.0000000E+00;  0.0000000E+00;0; -2.4147651E-03;  4.0000000E+04;  0.0000000E+00;  0.0000000E+00;  4.0000000E+04;  0.0000000E+00;  4.0000000E+04; -4.2806583E-04;  0.0000000E+00; -1.9866992E-03;  1.2390919E+03;
  7.0000000E-02;  9.9999998E-03; -4.1000000E-01;2034;  0.0000000E+00;  0.0000000E+00;  0.0000000E+00;  1.0000685E+03;  1.0000000E-01;  5.6788517E+01;0;  0.0000000E+00;  0.0000000E+00;  0.0000000E+00;0; -4.6332353E-03;  4.0000000E+04;  0.0000000E+00;  0.0000000E+00;  4.0000000E+04;  0.0000000E+00;  4.0000000E+04; -1.0144253E-03;  0.0000000E+00; -3.6188099E-03;  2.2799365E+03;
  7.0000000E-02;  9.9999998E-03; -4.0000001E-01;2035;  0.0000000E+00;  0.0000000E+00;  0.0000000E+00;  1.0001147E+03;  1.0000000E-01;  9.5108421E+01;0;  0.0000000E+00;  0.0000000E+00;  0.0000000E+00;0; -7.9120379E-03;  4.0000000E+04;  0.0000000E+00;  0.0000000E+00;  4.0000000E+04;  0.0000000E+00;  4.0000000E+04; -2.1018966E-03;  0.0000000E+00; -5.8101411E-03;  3.6351726E+03;
  7.0000000E-02;  9.9999998E-03; -3.8999999E-01;2036;  0.0000000E+00;  0.0000000E+00;  0.0000000E+00;  1.0001813E+03;  1.0000000E-01;  1.5021797E+02;0;  0.0000000E+00;  0.0000000E+00;  0.0000000E+00;0; -1.2469336E-02;  4.0000000E+04;  0.0000000E+00;  0.0000000E+00;  4.0000000E+04;  0.0000000E+00;  4.0000000E+04; -3.9449646E-03;  0.0000000E+00; -8.5243722E-03;  5.2266235E+03;
  7.0000000E-02;  9.9999998E-03; -3.8000000E-01;2037;  0.0000000E+00;  0.0000000E+00;  0.0000000E+00;  1.0002666E+03;  1.0000000E-01;  2.2083327E+02;0;  0.0000000E+00;  0.0000000E+00;  0.0000000E+00;0; -1.8572293E-02;  4.0000000E+04;  0.0000000E+00;  0.0000000E+00;  4.0000000E+04;  0.0000000E+00;  4.0000000E+04; -6.8574129E-03;  0.0000000E+00; -1.1714881E-02;  6.9642378E+03;
  7.0000000E-02;  9.9999998E-03; -3.7000000E-01;2038;  0.0000000E+00;  0.0000000E+00;  0.0000000E+00;  1.0003774E+03;  1.0000000E-01;  3.1268253E+02;0;  0.0000000E+00;  0.0000000E+00;  0.0000000E+00;0; -2.6531309E-02;  4.0000000E+04;  0.0000000E+00;  0.0000000E+00;  4.0000000E+04;  0.0000000E+00;  4.0000000E+04; -1.1200833E-02;  0.0000000E+00; -1.5330476E-02;  8.7555391E+03;
  7.0000000E-02;  9.9999998E-03; -3.6000001E-01;2039;  0.0000000E+00;  0.0000000E+00;  0.0000000E+00;  1.0005168E+03;  1.0000000E-01;  4.2823480E+02;0;  0.0000000E+00;  0.0000000E+00;  0.0000000E+00;0; -3.6659449E-02;  4.0000000E+04;  0.0000000E+00;  0.0000000E+00;  4.0000000E+04;  0.0000000E+00;  4.0000000E+04; -1.7358957E-02;  0.0000000E+00; -1.9300491E-02;  1.0499208E+04;
  7.0000000E-02;  9.9999998E-03; -3.4999999E-01;2040;  0.0000000E+00;  0.0000000E+00;  0.0000000E+00;  1.0006863E+03;  1.0000000E-01;  5.6857654E+02;0;  0.0000000E+00;  0.0000000E+00;  0.0000000E+00;0; -4.9204931E-02;  4.0000000E+04;  0.0000000E+00;  0.0000000E+00;  4.0000000E+04;  0.0000000E+00;  4.0000000E+04; -2.5698468E-02;  0.0000000E+00; -2.3506464E-02;  1.2071403E+04;
  7.0000000E-02;  9.9999998E-03; -3.4000000E-01;2041;  0.0000000E+00;  0.0000000E+00;  0.0000000E+00;  1.0008880E+03;  1.0000000E-01;  7.3568292E+02;0;  0.0000000E+00;  0.0000000E+00;  0.0000000E+00;0; -6.4262941E-02;  4.0000000E+04;  0.0000000E+00;  0.0000000E+00;  4.0000000E+04;  0.0000000E+00;  4.0000000E+04; -3.6516529E-02;  0.0000000E+00; -2.7746417E-02;  1.3313020E+04;
  7.0000000E-02;  9.9999998E-03; -3.3000001E-01;2042;  0.0000000E+00;  0.0000000E+00;  0.0000000E+00;  1.0011181E+03;  1.0000000E-01;  9.2629480E+02;0;  0.0000000E+00;  0.0000000E+00;  0.0000000E+00;0; -8.1682071E-02;  4.0000000E+04;  0.0000000E+00;  0.0000000E+00;  4.0000000E+04;  0.0000000E+00;  4.0000000E+04; -4.9983453E-02;  0.0000000E+00; -3.1698614E-02;  1.4024841E+04;
  7.0000000E-02;  9.9999998E-03; -3.1999999E-01;2043;  0.0000000E+00;  0.0000000E+00;  0.0000000E+00;  1.0013683E+03;  1.0000000E-01;  1.1335975E+03;0;  0.0000000E+00;  0.0000000E+00;  0.0000000E+00;0; -1.0098858E-01;  4.0000000E+04;  0.0000000E+00;  0.0000000E+00;  4.0000000E+04;  0.0000000E+00;  4.0000000E+04; -6.6090390E-02;  0.0000000E+00; -3.4898188E-02;  1.3979103E+04;
  7.0000000E-02;  9.9999998E-03; -3.1000000E-01;2044;  0.0000000E+00;  0.0000000E+00;  0.0000000E+00;  1.0016264E+03;  1.0000000E-01;  1.3474187E+03;0;  0.0000000E+00;  0.0000000E+00;  0.0000000E+00;0; -1.2136678E-01;  4.0000000E+04;  0.0000000E+00;  0.0000000E+00;  4.0000000E+04;  0.0000000E+00;  4.0000000E+04; -8.4613115E-02;  0.0000000E+00; -3.6753662E-02;  1.2959551E+04;
  7.9999998E-02;  9.9999998E-03; -4.4000000E-01;2061;  0.0000000E+00;  0.0000000E+00;  0.0000000E+00;  1.0000000E+03;  1.0000000E-01;  0.0000000E+00;0;  0.0000000E+00;  0.0000000E+00;  0.0000000E+00;0; -3.5783570E-04;  4.0000000E+04;  0.0000000E+00;  0.0000000E+00;  4.0000000E+04;  0.0000000E+00;  4.0000000E+04; -4.1371637E-05;  0.0000000E+00; -3.1646405E-04;  1.9456123E+02;
  7.9999998E-02;  9.9999998E-03; -4.3000001E-01;2062;  0.0000000E+00;  0.0000000E+00;  0.0000000E+00;  1.0000201E+03;  1.0000000E-01;  1.6592123E+01;0;  0.0000000E+00;  0.0000000E+00;  0.0000000E+00;0; -1.0573347E-03;  4.0000000E+04;  0.0000000E+00;  0.0000000E+00;  4.0000000E+04;  0.0000000E+00;  4.0000000E+04; -1.6229214E-04;  0.0000000E+00; -8.9504261E-04;  5.8931421E+02;
  7.9999998E-02;  9.9999998E-03; -4.1999999E-01;2063;  0.0000000E+00;  0.0000000E+00;  0.0000000E+00;  1.0000329E+03;  1.0000000E-01;  2.7258488E+01;0;  0.0000000E+00;  0.0000000E+00;  0.0000000E+00;0; -2.4138086E-03;  4.0000000E+04;  0.0000000E+00;  0.0000000E+00;  4.0000000E+04;  0.0000000E+00;  4.0000000E+04; -4.6783203E-04;  0.0000000E+00; -1.9459765E-03;  1.3240323E+03;
  7.9999998E-02;  9.9999998E-03; -4.1000000E-01;2064;  0.0000000E+00;  0.0000000E+00;  0.0000000E+00;  1.0000692E+03;  1.0000000E-01;  5.7381092E+01;0;  0.0000000E+00;  0.0000000E+00;  0.0000000E+00;0; -4.6497909E-03;  4.0000000E+04;  0.0000000E+00;  0.0000000E+00;  4.0000000E+04;  0.0000000E+00;  4.0000000E+04; -1.1085656E-03;  0.0000000E+00; -3.5412253E-03;  2.4273037E+03;
  7.9999998E-02;  9.9999998E-03; -4.0000001E-01;2065;  0.0000000E+00;  0.0000000E+00;  0.0000000E+00;  1.0001182E+03;  1.0000000E-01;  9.7873772E+01;0;  0.0000000E+00;  0.0000000E+00;  0.0000000E+00;0; -7.9773702E-03;  4.0000000E+04;  0.0000000E+00;  0.0000000E+00;  4.0000000E+04;  0.0000000E+00;  4.0000000E+04; -2.2956086E-03;  0.0000000E+00; -5.6817611E-03;  3.8533423E+03;
  7.9999998E-02;  9.9999998E-03; -3.8999999E-01;2066;  0.0000000E+00;  0.0000000E+00;  0.0000000E+00;  1.0001859E+03;  1.0000000E-01;  1.5406972E+02;0;  0.0000000E+00;  0.0000000E+00;  0.0000000E+00;0; -1.2634639E-02;  4.0000000E+04;  0.0000000E+00;  0.0000000E+00;  4.0000000E+04;  0.0000000E+00;  4.0000000E+04; -4.3051881E-03;  0.0000000E+00; -8.3294511E-03;  5.5150293E+03;
  7.9999998E-02;  9.9999998E-03; -3.8000000E-01;2067;  0.0000000E+00;  0.0000000E+00;  0.0000000E+00;  1.0002770E+03;  1.0000000E-01;  2.2952437E+02;0;  0.0000000E+00;  0.0000000E+00;  0.0000000E+00;0; -1.8911242E-02;  4.0000000E+04;  0.0000000E+00;  0.0000000E+00;  4.0000000E+04;  0.0000000E+00;  4.0000000E+04; -7.4749775E-03;  0.0000000E+00; -1.1436264E-02;  7.3142676E+03;
  7.9999998E-02;  9.9999998E-03; -3.7000000E-01;2068;  0.0000000E+00;  0.0000000E+00;  0.0000000E+00;  1.0003953E+03;  1.0000000E-01;  3.2749692E+02;0;  0.0000000E+00;  0.0000000E+00;  0.0000000E+00;0; -2.7139582E-02;  4.0000000E+04;  0.0000000E+00;  0.0000000E+00;  4.0000000E+04;  0.0000000E+00;  4.0000000E+04; -1.2189289E-02;  0.0000000E+00; -1.4950292E-02;  9.1515635E+03;
  7.9999998E-02;  9.9999998E-03; -3.6000001E-01;2069;  0.0000000E+00;  0.0000000E+00;  0.0000000E+00;  1.0005430E+03;  1.0000000E-01;  4.4986383E+02;0;  0.0000000E+00;  0.0000000E+00;  0.0000000E+00;0; -3.7650064E-02;  4.0000000E+04;  0.0000000E+00;  0.0000000E+00;  4.0000000E+04;  0.0000000E+00;  4.0000000E+04; -1.8848900E-02;  0.0000000E+00; -1.8801164E-02;  1.0918811E+04;
  7.9999998E-02;  9.9999998E-03; -3.4999999E-01;2070;  0.0000000E+00;  0.0000000E+00;  0.0000000E+00;  1.0007241E+03;  1.0000000E-01;  5.9988428E+02;0;  0.0000000E+00;  0.0000000E+00;  0.0000000E+00;0; -5.0698794E-02;  4.0000000E+04;  0.0000000E+00;  0.0000000E+00;  4.0000000E+04;  0.0000000E+00;  4.0000000E+04; -2.7826512E-02;  0.0000000E+00; -2.2872284E-02;  1.2485188E+04;
  7.9999998E-02;  9.9999998E-03; -3.4000000E-01;2071;  0.0000000E+00;  0.0000000E+00;  0.0000000E+00;  1.0009411E+03;  1.0000000E-01;  7.7973102E+02;0;  0.0000000E+00;  0.0000000E+00;  0.0000000E+00;0; -6.6374555E-02;  4.0000000E+04;  0.0000000E+00;  0.0000000E+00;  4.0000000E+04;  0.0000000E+00;  4.0000000E+04; -3.9408714E-02;  0.0000000E+00; -2.6965842E-02;  1.3685111E+04;
  7.9999998E-02;  9.9999998E-03; -3.3000001E-01;2072;  0.0000000E+00;  0.0000000E+00;  0.0000000E+00;  1.0011882E+03;  1.0000000E-01;  9.8446600E+02;0;  0.0000000E+00;  0.0000000E+00;  0.0000000E+00;0; -8.4500000E-02;  4.0000000E+04;  0.0000000E+00;  0.0000000E+00;  4.0000000E+04;  0.0000000E+00;  4.0000000E+04; -5.3733222E-02;  0.0000000E+00; -3.0766776E-02;  1.4316042E+04;
  7.9999998E-02;  9.9999998E-03; -3.1999999E-01;2073;  0.0000000E+00;  0.0000000E+00;  0.0000000E+00;  1.0014585E+03;  1.0000000E-01;  1.2083608E+03;0;  0.0000000E+00;  0.0000000E+00;  0.0000000E+00;0; -1.0455367E-01;  4.0000000E+04;  0.0000000E+00;  0.0000000E+00;  4.0000000E+04;  0.0000000E+00;  4.0000000E+04; -7.0734836E-02;  0.0000000E+00; -3.3818837E-02;  1.4152499E+04;
  7.9999998E-02;  9.9999998E-03; -3.1000000E-01;2074;  0.0000000E+00;  0.0000000E+00;  0.0000000E+00;  1.0017368E+03;  1.0000000E-01;  1.4388729E+03;0;  0.0000000E+00;  0.0000000E+00;  0.0000000E+00;0; -1.2565334E-01;  4.0000000E+04;  0.0000000E+00;  0.0000000E+00;  4.0000000E+04;  0.0000000E+00;  4.0000000E+04; -9.0113275E-02;  0.0000000E+00; -3.5540067E-02;  1.2987964E+04;
  9.0000004E-02;  9.9999998E-03; -4.4000000E-01;2091;  0.0000000E+00;  0.0000000E+00;  0.0000000E+00;  1.0000000E+03;  1.0000000E-01;  0.0000000E+00;0;  0.0000000E+00;  0.0000000E+00;  0.0000000E+00;0; -3.4717991E-04;  4.0000000E+04;  0.0000000E+00;  0.0000000E+00;  4.0000000E+04;  0.0000000E+00;  4.0000000E+04; -4.7417660E-05;  0.0000000E+00; -2.9976227E-04;  2.1507210E+02;
  9.0000004E-02;  9.9999998E-03; -4.3000001E-01;2092;  0.0000000E+00;  0.0000000E+00;  0.0000000E+00;  1.0000201E+03;  1.0000000E-01;  1.6690886E+01;0;  0.0000000E+00;  0.0000000E+00;  0.0000000E+00;0; -1.0304927E-03;  4.0000000E+04;  0.0000000E+00;  0.0000000E+00;  4.0000000E+04;  0.0000000E+00;  4.0000000E+04; -1.8418356E-04;  0.0000000E+00; -8.4630918E-04;  6.4260944E+02;
  9.0000004E-02;  9.9999998E-03; -4.1999999E-01;2093;  0.0000000E+00;  0.0000000E+00;  0.0000000E+00;  1.0000321E+03;  1.0000000E-01;  2.6567150E+01;0;  0.0000000E+00;  0.0000000E+00;  0.0000000E+00;0; -2.3684194E-03;  4.0000000E+04;  0.0000000E+00;  0.0000000E+00;  4.0000000E+04;  0.0000000E+00;  4.0000000E+04; -5.2629114E-04;  0.0000000E+00; -1.8421283E-03;  1.4270485E+03;
  9.0000004E-02;  9.9999998E-03; -4.1000000E-01;2094;  0.0000000E+00;  0.0000000E+00;  0.0000000E+00;  1.0000696E+03;  1.0000000E-01;  5.7677380E+01;0;  0.0000000E+00;  0.0000000E+00;  0.0000000E+00;0; -4.5956336E-03;  4.0000000E+04;  0.0000000E+00;  0.0000000E+00;  4.0000000E+04;  0.0000000E+00;  4.0000000E+04; -1.2401263E-03;  0.0000000E+00; -3.3555070E-03;  2.5907427E+03;
  9.0000004E-02;  9.9999998E-03; -4.0000001E-01;2095;  0.0000000E+00;  0.0000000E+00;  0.0000000E+00;  1.0001188E+03;  1.0000000E-01;  9.8367592E+01;0;  0.0000000E+00;  0.0000000E+00;  0.0000000E+00;0; -7.9441443E-03;  4.0000000E+04;  0.0000000E+00;  0.0000000E+00;  4.0000000E+04;  0.0000000E+00;  4.0000000E+04; -2.5585482E-03;  0.0000000E+00; -5.3855963E-03;  4.0799771E+03;
  9.0000004E-02;  9.9999998E-03; -3.8999999E-01;2096;  0.0000000E+00;  0.0000000E+00;  0.0000000E+00;  1.0001886E+03;  1.0000000E-01;  1.5624249E+02;0;  0.0000000E+00;  0.0000000E+00;  0.0000000E+00;0; -1.2677945E-02;  4.0000000E+04;  0.0000000E+00;  0.0000000E+00;  4.0000000E+04;  0.0000000E+00;  4.0000000E+04; -4.7835796E-03;  0.0000000E+00; -7.8943660E-03;  5.8002837E+03;
  9.0000004E-02;  9.9999998E-03; -3.8000000E-01;2097;  0.0000000E+00;  0.0000000E+00;  0.0000000E+00;  1.0002836E+03;  1.0000000E-01;  2.3495631E+02;0;  0.0000000E+00;  0.0000000E+00;  0.0000000E+00;0; -1.9114617E-02;  4.0000000E+04;  0.0000000E+00;  0.0000000E+00;  4.0000000E+04;  0.0000000E+00;  4.0000000E+04; -8.2798963E-03;  0.0000000E+00; -1.0834721E-02;  7.6470571E+03;
  9.0000004E-02;  9.9999998E-03; -3.7000000E-01;2098;  0.0000000E+00;  0.0000000E+00;  0.0000000E+00;  1.0004072E+03;  1.0000000E-01;  3.3737317E+02;0;  0.0000000E+00;  0.0000000E+00;  0.0000000E+00;0; -2.7611786E-02;  4.0000000E+04;  0.0000000E+00;  0.0000000E+00;  4.0000000E+04;  0.0000000E+00;  4.0000000E+04; -1.3455848E-02;  0.0000000E+00; -1.4155938E-02;  9.5150371E+03;
  9.0000004E-02;  9.9999998E-03; -3.6000001E-01;2099;  0.0000000E+00;  0.0000000E+00;  0.0000000E+00;  1.0005646E+03;  1.0000000E-01;  4.6773987E+02;0;  0.0000000E+00;  0.0000000E+00;  0.0000000E+00;0; -3.8517348E-02;  4.0000000E+04;  0.0000000E+00;  0.0000000E+00;  4.0000000E+04;  0.0000000E+00;  4.0000000E+04; -2.0727696E-02;  0.0000000E+00; -1.7789654E-02;  1.1292015E+04;
  9.0000004E-02;  9.9999998E-03; -3.4999999E-01;2100;  0.0000000E+00;  0.0000000E+00;  0.0000000E+00;  1.0007577E+03;  1.0000000E-01;  6.2773535E+02;0;  0.0000000E+00;  0.0000000E+00;  0.0000000E+00;0; -5.2092373E-02;  4.0000000E+04;  0.0000000E+00;  0.0000000E+00;  4.0000000E+04;  0.0000000E+00;  4.0000000E+04; -3.0468483E-02;  0.0000000E+00; -2.1623889E-02;  1.2847187E+04;
  9.0000004E-02;  9.9999998E-03; -3.4000000E-01;2101;  0.0000000E+00;  0.0000000E+00;  0.0000000E+00;  1.0009884E+03;  1.0000000E-01;  8.1884106E+02;0;  0.0000000E+00;  0.0000000E+00;  0.0000000E+00;0; -6.8414018E-02;  4.0000000E+04;  0.0000000E+00;  0.0000000E+00;  4.0000000E+04;  0.0000000E+00;  4.0000000E+04; -4.2943820E-02;  0.0000000E+00; -2.5470199E-02;  1.4023579E+04;
  9.0000004E-02;  9.9999998E-03; -3.3000001E-01;2102;  0.0000000E+00;  0.0000000E+00;  0.0000000E+00;  1.0012536E+03;  1.0000000E-01;  1.0385879E+03;0;  0.0000000E+00;  0.0000000E+00;  0.0000000E+00;0; -8.7273970E-02;  4.0000000E+04;  0.0000000E+00;  0.0000000E+00;  4.0000000E+04;  0.0000000E+00;  4.0000000E+04; -5.8244646E-02;  0.0000000E+00; -2.9029323E-02;  1.4638414E+04;
  9.0000004E-02;  9.9999998E-03; -3.1999999E-01;2103;  0.0000000E+00;  0.0000000E+00;  0.0000000E+00;  1.0015427E+03;  1.0000000E-01;  1.2780873E+03;0;  0.0000000E+00;  0.0000000E+00;  0.0000000E+00;0; -1.0809921E-01;  4.0000000E+04;  0.0000000E+00;  0.0000000E+00;  4.0000000E+04;  0.0000000E+00;  4.0000000E+04; -7.6232098E-02;  0.0000000E+00; -3.1867106E-02;  1.4494266E+04;
  9.0000004E-02;  9.9999998E-03; -3.1000000E-01;2104;  0.0000000E+00;  0.0000000E+00;  0.0000000E+00;  1.0018389E+03;  1.0000000E-01;  1.5235125E+03;0;  0.0000000E+00;  0.0000000E+00;  0.0000000E+00;0; -1.2993532E-01;  4.0000000E+04;  0.0000000E+00;  0.0000000E+00;  4.0000000E+04;  0.0000000E+00;  4.0000000E+04; -9.6508674E-02;  0.0000000E+00; -3.3426657E-02;  1.3411929E+04;
  1.0000000E-01;  9.9999998E-03; -4.4000000E-01;2121;  0.0000000E+00;  0.0000000E+00;  0.0000000E+00;  1.0000000E+03;  1.0000000E-01;  0.0000000E+00;0;  0.0000000E+00;  0.0000000E+00;  0.0000000E+00;0; -3.2760575E-04;  4.0000000E+04;  0.0000000E+00;  0.0000000E+00;  4.0000000E+04;  0.0000000E+00;  4.0000000E+04; -5.6625151E-05;  0.0000000E+00; -2.7098061E-04;  2.4817686E+02;
  1.0000000E-01;  9.9999998E-03; -4.3000001E-01;2122;  0.0000000E+00;  0.0000000E+00;  0.0000000E+00;  1.0000201E+03;  1.0000000E-01;  1.6592123E+01;0;  0.0000000E+00;  0.0000000E+00;  0.0000000E+00;0; -9.8486152E-04;  4.0000000E+04;  0.0000000E+00;  0.0000000E+00;  4.0000000E+04;  0.0000000E+00;  4.0000000E+04; -2.1518645E-04;  0.0000000E+00; -7.6967501E-04;  7.1787616E+02;
  1.0000000E-01;  9.9999998E-03; -4.1999999E-01;2123;  0.0000000E+00;  0.0000000E+00;  0.0000000E+00;  1.0000303E+03;  1.0000000E-01;  2.5085711E+01;0;  0.0000000E+00;  0.0000000E+00;  0.0000000E+00;0; -2.2896447E-03;  4.0000000E+04;  0.0000000E+00;  0.0000000E+00;  4.0000000E+04;  0.0000000E+00;  4.0000000E+04; -6.0695357E-04;  0.0000000E+00; -1.6826912E-03;  1.5559069E+03;
  1.0000000E-01;  9.9999998E-03; -4.1000000E-01;2124;  0.0000000E+00;  0.0000000E+00;  0.0000000E+00;  1.0000671E+03;  1.0000000E-01;  5.5603367E+01;0;  0.0000000E+00;  0.0000000E+00;  0.0000000E+00;0; -4.4912370E-03;  4.0000000E+04;  0.0000000E+00;  0.0000000E+00;  4.0000000E+04;  0.0000000E+00;  4.0000000E+04; -1.4194383E-03;  0.0000000E+00; -3.0717985E-03;  2.7741550E+03;
  1.0000000E-01;  9.9999998E-03; -4.0000001E-01;2125;  0.0000000E+00;  0.0000000E+00;  0.0000000E+00;  1.0001158E+03;  1.0000000E-01;  9.5997284E+01;0;  0.0000000E+00;  0.0000000E+00;  0.0000000E+00;0; -7.8480635E-03;  4.0000000E+04;  0.0000000E+00;  0.0000000E+00;  4.0000000E+04;  0.0000000E+00;  4.0000000E+04; -2.9124969E-03;  0.0000000E+00; -4.9355668E-03;  4.3112441E+03;
  1.0000000E-01;  9.9999998E-03; -3.8999999E-01;2126;  0.0000000E+00;  0.0000000E+00;  0.0000000E+00;  1.0001900E+03;  1.0000000E-01;  1.5742764E+02;0;  0.0000000E+00;  0.0000000E+00;  0.0000000E+00;0; -1.2657978E-02;  4.0000000E+04;  0.0000000E+00;  0.0000000E+00;  4.0000000E+04;  0.0000000E+00;  4.0000000E+04; -5.4189973E-03;  0.0000000E+00; -7.2389799E-03;  6.0695283E+03;
  1.0000000E-01;  9.9999998E-03; -3.8000000E-01;2127;  0.0000000E+00;  0.0000000E+00;  0.0000000E+00;  1.0002875E+03;  1.0000000E-01;  2.3821548E+02;0;  0.0000000E+00;  0.0000000E+00;  0.0000000E+00;0; -1.9273080E-02;  4.0000000E+04;  0.0000000E+00;  0.0000000E+00;  4.0000000E+04;  0.0000000E+00;  4.0000000E+04; -9.3348138E-03;  0.0000000E+00; -9.9382652E-03;  7.9449717E+03;
  1.0000000E-01;  9.9999998E-03; -3.7000000E-01;2128;  0.0000000E+00;  0.0000000E+00;  0.0000000E+00;  1.0004185E+03;  1.0000000E-01;  3.4675562E+02;0;  0.0000000E+00;  0.0000000E+00;  0.0000000E+00;0; -2.8079748E-02;  4.0000000E+04;  0.0000000E+00;  0.0000000E+00;  4.0000000E+04;  0.0000000E+00;  4.0000000E+04; -1.5094455E-02;  0.0000000E+00; -1.2985292E-02;  9.8380166E+03;
  1.0000000E-01;  9.9999998E-03; -3.6000001E-01;2129;  0.0000000E+00;  0.0000000E+00;  0.0000000E+00;  1.0005834E+03;  1.0000000E-01;  4.8334436E+02;0;  0.0000000E+00;  0.0000000E+00;  0.0000000E+00;0; -3.9442584E-02;  4.0000000E+04;  0.0000000E+00;  0.0000000E+00;  4.0000000E+04;  0.0000000E+00;  4.0000000E+04; -2.3127729E-02;  0.0000000E+00; -1.6314857E-02;  1.1653122E+04;
  1.0000000E-01;  9.9999998E-03; -3.4999999E-01;2130;  0.0000000E+00;  0.0000000E+00;  0.0000000E+00;  1.0007897E+03;  1.0000000E-01;  6.5430249E+02;0;  0.0000000E+00;  0.0000000E+00;  0.0000000E+00;0; -5.3622406E-02;  4.0000000E+04;  0.0000000E+00;  0.0000000E+00;  4.0000000E+04;  0.0000000E+00;  4.0000000E+04; -3.3800889E-02;  0.0000000E+00; -1.9821517E-02;  1.3296917E+04;
  1.0000000E-01;  9.9999998E-03; -3.4000000E-01;2131;  0.0000000E+00;  0.0000000E+00;  0.0000000E+00;  1.0010341E+03;  1.0000000E-01;  8.5666711E+02;0;  0.0000000E+00;  0.0000000E+00;  0.0000000E+00;0; -7.0675455E-02;  4.0000000E+04;  0.0000000E+00;  0.0000000E+00;  4.0000000E+04;  0.0000000E+00;  4.0000000E+04; -4.7345247E-02;  0.0000000E+00; -2.3330206E-02;  1.4677518E+04;
  1.0000000E-01;  9.9999998E-03; -3.3000001E-01;2132;  0.0000000E+00;  0.0000000E+00;  0.0000000E+00;  1.0013152E+03;  1.0000000E-01;  1.0896482E+03;0;  0.0000000E+00;  0.0000000E+00;  0.0000000E+00;0; -9.0351894E-02;  4.0000000E+04;  0.0000000E+00;  0.0000000E+00;  4.0000000E+04;  0.0000000E+00;  4.0000000E+04; -6.3786827E-02;  0.0000000E+00; -2.6565064E-02;  1.5695757E+04;
  1.0000000E-01;  9.9999998E-03; -3.1999999E-01;2133;  0.0000000E+00;  0.0000000E+00;  0.0000000E+00;  1.0016219E+03;  1.0000000E-01;  1.3436656E+03;0;  0.0000000E+00;  0.0000000E+00;  0.0000000E+00;0; -1.1201954E-01;  4.0000000E+04;  0.0000000E+00;  0.0000000E+00;  4.0000000E+04;  0.0000000E+00;  4.0000000E+04; -8.2892433E-02;  0.0000000E+00; -2.9127106E-02;  1.6217564E+04;
  1.0000000E-01;  9.9999998E-03; -3.1000000E-01;2134;  0.0000000E+00;  0.0000000E+00;  0.0000000E+00;  1.0019385E+03;  1.0000000E-01;  1.6060780E+03;0;  0.0000000E+00;  0.0000000E+00;  0.0000000E+00;0; -1.3465036E-01;  4.0000000E+04;  0.0000000E+00;  0.0000000E+00;  4.0000000E+04;  0.0000000E+00;  4.0000000E+04; -1.0414770E-01;  0.0000000E+00; -3.0502658E-02;  1.6052863E+04;
  1.1000000E-01;  9.9999998E-03; -4.4000000E-01;2151;  0.0000000E+00;  0.0000000E+00;  0.0000000E+00;  1.0000000E+03;  1.0000000E-01;  0.0000000E+00;0;  0.0000000E+00;  0.0000000E+00;  0.0000000E+00;0; -3.0214997E-04;  4.0000000E+04;  0.0000000E+00;  0.0000000E+00;  4.0000000E+04;  0.0000000E+00;  4.0000000E+04; -6.8813490E-05;  0.0000000E+00; -2.3333647E-04;  3.0830560E+02;
  1.1000000E-01;  9.9999998E-03; -4.3000001E-01;2152;  0.0000000E+00;  0.0000000E+00;  0.0000000E+00;  1.0000157E+03;  1.0000000E-01;  1.3036669E+01;0;  0.0000000E+00;  0.0000000E+00;  0.0000000E+00;0; -9.2762767E-04;  4.0000000E+04;  0.0000000E+00;  0.0000000E+00;  4.0000000E+04;  0.0000000E+00;  4.0000000E+04; -2.5614686E-04;  0.0000000E+00; -6.7148078E-04;  8.4548816E+02;
  1.1000000E-01;  9.9999998E-03; -4.1999999E-01;2153;  0.0000000E+00;  0.0000000E+00;  0.0000000E+00;  1.0000298E+03;  1.0000000E-01;  2.4690660E+01;0;  0.0000000E+00;  0.0000000E+00;  0.0000000E+00;0; -2.1914905E-03;  4.0000000E+04;  0.0000000E+00;  0.0000000E+00;  4.0000000E+04;  0.0000000E+00;  4.0000000E+04; -7.1453920E-04;  0.0000000E+00; -1.4769514E-03;  1.7547316E+03;
  1.1000000E-01;  9.9999998E-03; -4.1000000E-01;2154;  0.0000000E+00;  0.0000000E+00;  0.0000000E+00;  1.0000650E+03;  1.0000000E-01;  5.3825638E+01;0;  0.0000000E+00;  0.0000000E+00;  0.0000000E+00;0; -4.3628053E-03;  4.0000000E+04;  0.0000000E+00;  0.0000000E+00;  4.0000000E+04;  0.0000000E+00;  4.0000000E+04; -1.6584091E-03;  0.0000000E+00; -2.7043961E-03;  3.0215010E+03;
  1.1000000E-01;  9.9999998E-03; -4.0000001E-01;2155;  0.0000000E+00;  0.0000000E+00;  0.0000000E+00;  1.0001149E+03;  1.0000000E-01;  9.5207184E+01;0;  0.0000000E+00;  0.0000000E+00;  0.0000000E+00;0; -7.7352468E-03;  4.0000000E+04;  0.0000000E+00;  0.0000000E+00;  4.0000000E+04;  0.0000000E+00;  4.0000000E+04; -3.3809615E-03;  0.0000000E+00; -4.3542855E-03;  4.5709214E+03;
  1.1000000E-01;  9.9999998E-03; -3.8999999E-01;2156;  0.0000000E+00;  0.0000000E+00;  0.0000000E+00;  1.0001910E+03;  1.0000000E-01;  1.5821774E+02;0;  0.0000000E+00;  0.0000000E+00;  0.0000000E+00;0; -1.2649897E-02;  4.0000000E+04;  0.0000000E+00;  0.0000000E+00;  4.0000000E+04;  0.0000000E+00;  4.0000000E+04; -6.2523950E-03;  0.0000000E+00; -6.3975030E-03;  6.3150576E+03;
  1.1000000E-01;  9.9999998E-03; -3.8000000E-01;2157;  0.0000000E+00;  0.0000000E+00;  0.0000000E+00;  1.0002930E+03;  1.0000000E-01;  2.4275856E+02;0;  0.0000000E+00;  0.0000000E+00;  0.0000000E+00;0; -1.9500490E-02;  4.0000000E+04;  0.0000000E+00;  0.0000000E+00;  4.0000000E+04;  0.0000000E+00;  4.0000000E+04; -1.0705136E-02;  0.0000000E+00; -8.7953536E-03;  8.1858628E+03;
  1.1000000E-01;  9.9999998E-03; -3.7000000E-01;2158;  0.0000000E+00;  0.0000000E+00;  0.0000000E+00;  1.0004285E+03;  1.0000000E-01;  3.5495291E+02;0;  0.0000000E+00;  0.0000000E+00;  0.0000000E+00;0; -2.8705109E-02;  4.0000000E+04;  0.0000000E+00;  0.0000000E+00;  4.0000000E+04;  0.0000000E+00;  4.0000000E+04; -1.7202053E-02;  0.0000000E+00; -1.1503057E-02;  1.0151871E+04;
  1.1000000E-01;  9.9999998E-03; -3.6000001E-01;2159;  0.0000000E+00;  0.0000000E+00;  0.0000000E+00;  1.0006047E+03;  1.0000000E-01;  5.0092410E+02;0;  0.0000000E+00;  0.0000000E+00;  0.0000000E+00;0; -4.0642329E-02;  4.0000000E+04;  0.0000000E+00;  0.0000000E+00;  4.0000000E+04;  0.0000000E+00;  4.0000000E+04; -2.6183365E-02;  0.0000000E+00; -1.4458964E-02;  1.2228507E+04;
  1.1000000E-01;  9.9999998E-03; -3.4999999E-01;2160;  0.0000000E+00;  0.0000000E+00;  0.0000000E+00;  1.0008218E+03;  1.0000000E-01;  6.8086963E+02;0;  0.0000000E+00;  0.0000000E+00;  0.0000000E+00;0; -5.5563405E-02;  4.0000000E+04;  0.0000000E+00;  0.0000000E+00;  4.0000000E+04;  0.0000000E+00;  4.0000000E+04; -3.7998278E-02;  0.0000000E+00; -1.7565126E-02;  1.4476734E+04;
  1.1000000E-01;  9.9999998E-03; -3.4000000E-01;2161;  0.0000000E+00;  0.0000000E+00;  0.0000000E+00;  1.0010822E+03;  1.0000000E-01;  8.9656726E+02;0;  0.0000000E+00;  0.0000000E+00;  0.0000000E+00;0; -7.3488720E-02;  4.0000000E+04;  0.0000000E+00;  0.0000000E+00;  4.0000000E+04;  0.0000000E+00;  4.0000000E+04; -5.2826330E-02;  0.0000000E+00; -2.0662390E-02;  1.6961777E+04;
  1.1000000E-01;  9.9999998E-03; -3.3000001E-01;2162;  0.0000000E+00;  0.0000000E+00;  0.0000000E+00;  1.0013802E+03;  1.0000000E-01;  1.1434739E+03;0;  0.0000000E+00;  0.0000000E+00;  0.0000000E+00;0; -9.4109990E-02;  4.0000000E+04;  0.0000000E+00;  0.0000000E+00;  4.0000000E+04;  0.0000000E+00;  4.0000000E+04; -7.0605837E-02;  0.0000000E+00; -2.3504153E-02;  1.9646271E+04;
  1.1000000E-01;  9.9999998E-03; -3.1999999E-01;2163;  0.0000000E+00;  0.0000000E+00;  0.0000000E+00;  1.0017057E+03;  1.0000000E-01;  1.4131946E+03;0;  0.0000000E+00;  0.0000000E+00;  0.0000000E+00;0; -1.1672278E-01;  4.0000000E+04;  0.0000000E+00;  0.0000000E+00;  4.0000000E+04;  0.0000000E+00;  4.0000000E+04; -9.0985440E-02;  0.0000000E+00; -2.5737334E-02;  2.2253609E+04;
  1.1000000E-01;  9.9999998E-03; -3.1000000E-01;2164;  0.0000000E+00;  0.0000000E+00;  0.0000000E+00;  1.0020414E+03;  1.0000000E-01;  1.6912114E+03;0;  0.0000000E+00;  0.0000000E+00;  0.0000000E+00;0; -1.4022227E-01;  4.0000000E+04;  0.0000000E+00;  0.0000000E+00;  4.0000000E+04;  0.0000000E+00;  4.0000000E+04; -1.1331303E-01;  0.0000000E+00; -2.6909243E-02;  2.4224029E+04;
  1.2000000E-01;  9.9999998E-03; -4.4000000E-01;2181;  0.0000000E+00;  0.0000000E+00;  0.0000000E+00;  1.0000000E+03;  1.0000000E-01;  0.0000000E+00;0;  0.0000000E+00;  0.0000000E+00;  0.0000000E+00;0; -2.7479234E-04;  4.0000000E+04;  0.0000000E+00;  0.0000000E+00;  4.0000000E+04;  0.0000000E+00;  4.0000000E+04; -8.4115702E-05;  0.0000000E+00; -1.9067664E-04;  4.3315430E+02;
  1.2000000E-01;  9.9999998E-03; -4.3000001E-01;2182;  0.0000000E+00;  0.0000000E+00;  0.0000000E+00;  1.0000130E+03;  1.0000000E-01;  1.0765127E+01;0;  0.0000000E+00;  0.0000000E+00;  0.0000000E+00;0; -8.6701999E-04;  4.0000000E+04;  0.0000000E+00;  0.0000000E+00;  4.0000000E+04;  0.0000000E+00;  4.0000000E+04; -3.0906263E-04;  0.0000000E+00; -5.5795739E-04;  1.1174320E+03;
  1.2000000E-01;  9.9999998E-03; -4.1999999E-01;2183;  0.0000000E+00;  0.0000000E+00;  0.0000000E+00;  1.0000291E+03;  1.0000000E-01;  2.4098083E+01;0;  0.0000000E+00;  0.0000000E+00;  0.0000000E+00;0; -2.0905975E-03;  4.0000000E+04;  0.0000000E+00;  0.0000000E+00;  4.0000000E+04;  0.0000000E+00;  4.0000000E+04; -8.5533567E-04;  0.0000000E+00; -1.2352619E-03;  2.1751975E+03;
  1.2000000E-01;  9.9999998E-03; -4.1000000E-01;2184;  0.0000000E+00;  0.0000000E+00;  0.0000000E+00;  1.0000633E+03;  1.0000000E-01;  5.2442963E+01;0;  0.0000000E+00;  0.0000000E+00;  0.0000000E+00;0; -4.2426446E-03;  4.0000000E+04;  0.0000000E+00;  0.0000000E+00;  4.0000000E+04;  0.0000000E+00;  4.0000000E+04; -1.9706828E-03;  0.0000000E+00; -2.2719619E-03;  3.5070867E+03;
  1.2000000E-01;  9.9999998E-03; -4.0000001E-01;2185;  0.0000000E+00;  0.0000000E+00;  0.0000000E+00;  1.0001144E+03;  1.0000000E-01;  9.4713371E+01;0;  0.0000000E+00;  0.0000000E+00;  0.0000000E+00;0; -7.6627410E-03;  4.0000000E+04;  0.0000000E+00;  0.0000000E+00;  4.0000000E+04;  0.0000000E+00;  4.0000000E+04; -3.9894590E-03;  0.0000000E+00; -3.6732820E-03;  4.9855220E+03;
  1.2000000E-01;  9.9999998E-03; -3.8999999E-01;2186;  0.0000000E+00;  0.0000000E+00;  0.0000000E+00;  1.0001929E+03;  1.0000000E-01;  1.5979794E+02;0;  0.0000000E+00;  0.0000000E+00;  0.0000000E+00;0; -1.2745205E-02;  4.0000000E+04;  0.0000000E+00;  0.0000000E+00;  4.0000000E+04;  0.0000000E+00;  4.0000000E+04; -7.3272181E-03;  0.0000000E+00; -5.4179877E-03;  6.5637241E+03;
  1.2000000E-01;  9.9999998E-03; -3.8000000E-01;2187;  0.0000000E+00;  0.0000000E+00;  0.0000000E+00;  1.0002992E+03;  1.0000000E-01;  2.4789423E+02;0;  0.0000000E+00;  0.0000000E+00;  0.0000000E+00;0; -1.9932374E-02;  4.0000000E+04;  0.0000000E+00;  0.0000000E+00;  4.0000000E+04;  0.0000000E+00;  4.0000000E+04; -1.2459039E-02;  0.0000000E+00; -7.4733347E-03;  8.3482373E+03;
  1.2000000E-01;  9.9999998E-03; -3.7000000E-01;2188;  0.0000000E+00;  0.0000000E+00;  0.0000000E+00;  1.0004427E+03;  1.0000000E-01;  3.6680444E+02;0;  0.0000000E+00;  0.0000000E+00;  0.0000000E+00;0; -2.9675573E-02;  4.0000000E+04;  0.0000000E+00;  0.0000000E+00;  4.0000000E+04;  0.0000000E+00;  4.0000000E+04; -1.9877624E-02;  0.0000000E+00; -9.7979503E-03;  1.0615566E+04;
  1.2000000E-01;  9.9999998E-03; -3.6000001E-01;2189;  0.0000000E+00;  0.0000000E+00;  0.0000000E+00;  1.0006288E+03;  1.0000000E-01;  5.2097290E+02;0;  0.0000000E+00;  0.0000000E+00;  0.0000000E+00;0; -4.2361498E-02;  4.0000000E+04;  0.0000000E+00;  0.0000000E+00;  4.0000000E+04;  0.0000000E+00;  4.0000000E+04; -3.0027876E-02;  0.0000000E+00; -1.2333620E-02;  1.3740473E+04;
  1.2000000E-01;  9.9999998E-03; -3.4999999E-01;2190;  0.0000000E+00;  0.0000000E+00;  0.0000000E+00;  1.0008607E+03;  1.0000000E-01;  7.1306622E+02;0;  0.0000000E+00;  0.0000000E+00;  0.0000000E+00;0; -5.8217026E-02;  4.0000000E+04;  0.0000000E+00;  0.0000000E+00;  4.0000000E+04;  0.0000000E+00;  4.0000000E+04; -4.3227043E-02;  0.0000000E+00; -1.4989984E-02;  1.8022100E+04;
  1.2000000E-01;  9.9999998E-03; -3.4000000E-01;2191;  0.0000000E+00;  0.0000000E+00;  0.0000000E+00;  1.0011382E+03;  1.0000000E-01;  9.4298566E+02;0;  0.0000000E+00;  0.0000000E+00;  0.0000000E+00;0; -7.7204704E-02;  4.0000000E+04;  0.0000000E+00;  0.0000000E+00;  4.0000000E+04;  0.0000000E+00;  4.0000000E+04; -5.9579808E-02;  0.0000000E+00; -1.7624892E-02;  2.3480381E+04;
  1.2000000E-01;  9.9999998E-03; -3.3000001E-01;2192;  0.0000000E+00;  0.0000000E+00;  0.0000000E+00;  1.0014550E+03;  1.0000000E-01;  1.2054968E+03;0;  0.0000000E+00;  0.0000000E+00;  0.0000000E+00;0; -9.8932445E-02;  4.0000000E+04;  0.0000000E+00;  0.0000000E+00;  4.0000000E+04;  0.0000000E+00;  4.0000000E+04; -7.8908347E-02;  0.0000000E+00; -2.0024098E-02;  2.9710463E+04;
  1.2000000E-01;  9.9999998E-03; -3.1999999E-01;2193;  0.0000000E+00;  0.0000000E+00;  0.0000000E+00;  1.0017996E+03;  1.0000000E-01;  1.4909208E+03;0;  0.0000000E+00;  0.0000000E+00;  0.0000000E+00;0; -1.2260352E-01;  4.0000000E+04;  0.0000000E+00;  0.0000000E+00;  4.0000000E+04;  0.0000000E+00;  4.0000000E+04; -1.0071573E-01;  0.0000000E+00; -2.1887790E-02;  3.5834094E+04;
  1.2000000E-01;  9.9999998E-03; -3.1000000E-01;2194;  0.0000000E+00;  0.0000000E+00;  0.0000000E+00;  1.0021530E+03;  1.0000000E-01;  1.7837521E+03;0;  0.0000000E+00;  0.0000000E+00;  0.0000000E+00;0; -1.4703205E-01;  4.0000000E+04;  0.0000000E+00;  0.0000000E+00;  4.0000000E+04;  0.0000000E+00;  4.0000000E+04; -1.2419346E-01;  0.0000000E+00; -2.2838585E-02;  4.0606254E+04;
  1.3000000E-01;  9.9999998E-03; -4.4000000E-01;2211;  0.0000000E+00;  0.0000000E+00;  0.0000000E+00;  1.0000000E+03;  1.0000000E-01;  0.0000000E+00;0;  0.0000000E+00;  0.0000000E+00;  0.0000000E+00;0; -2.4959553E-04;  4.0000000E+04;  0.0000000E+00;  0.0000000E+00;  4.0000000E+04;  0.0000000E+00;  4.0000000E+04; -1.0342350E-04;  0.0000000E+00; -1.4617204E-04;  6.9490875E+02;
  1.3000000E-01;  9.9999998E-03; -4.3000001E-01;2212;  0.0000000E+00;  0.0000000E+00;  0.0000000E+00;  1.0000111E+03;  1.0000000E-01;  9.1849251E+00;0;  0.0000000E+00;  0.0000000E+00;  0.0000000E+00;0; -8.1189291E-04;  4.0000000E+04;  0.0000000E+00;  0.0000000E+00;  4.0000000E+04;  0.0000000E+00;  4.0000000E+04; -3.7741370E-04;  0.0000000E+00; -4.3447924E-04;  1.7163219E+03;
  1.3000000E-01;  9.9999998E-03; -4.1999999E-01;2213;  0.0000000E+00;  0.0000000E+00;  0.0000000E+00;  1.0000286E+03;  1.0000000E-01;  2.3703033E+01;0;  0.0000000E+00;  0.0000000E+00;  0.0000000E+00;0; -2.0067084E-03;  4.0000000E+04;  0.0000000E+00;  0.0000000E+00;  4.0000000E+04;  0.0000000E+00;  4.0000000E+04; -1.0370261E-03;  0.0000000E+00; -9.6968230E-04;  3.1427219E+03;
  1.3000000E-01;  9.9999998E-03; -4.1000000E-01;2214;  0.0000000E+00;  0.0000000E+00;  0.0000000E+00;  1.0000624E+03;  1.0000000E-01;  5.1652859E+01;0;  0.0000000E+00;  0.0000000E+00;  0.0000000E+00;0; -4.1695880E-03;  4.0000000E+04;  0.0000000E+00;  0.0000000E+00;  4.0000000E+04;  0.0000000E+00;  4.0000000E+04; -2.3713927E-03;  0.0000000E+00; -1.7981953E-03;  4.6551514E+03;
  1.3000000E-01;  9.9999998E-03; -4.0000001E-01;2215;  0.0000000E+00;  0.0000000E+00;  0.0000000E+00;  1.0001146E+03;  1.0000000E-01;  9.5009659E+01;0;  0.0000000E+00;  0.0000000E+00;  0.0000000E+00;0; -7.6975184E-03;  4.0000000E+04;  0.0000000E+00;  0.0000000E+00;  4.0000000E+04;  0.0000000E+00;  4.0000000E+04; -4.7649075E-03;  0.0000000E+00; -2.9326109E-03;  5.9263242E+03;
  1.3000000E-01;  9.9999998E-03; -3.8999999E-01;2216;  0.0000000E+00;  0.0000000E+00;  0.0000000E+00;  1.0001948E+03;  1.0000000E-01;  1.6137816E+02;0;  0.0000000E+00;  0.0000000E+00;  0.0000000E+00;0; -1.3047993E-02;  4.0000000E+04;  0.0000000E+00;  0.0000000E+00;  4.0000000E+04;  0.0000000E+00;  4.0000000E+04; -8.6875334E-03;  0.0000000E+00; -4.3604597E-03;  6.9482588E+03;
  1.3000000E-01;  9.9999998E-03; -3.8000000E-01;2217;  0.0000000E+00;  0.0000000E+00;  0.0000000E+00;  1.0003094E+03;  1.0000000E-01;  2.5638782E+02;0;  0.0000000E+00;  0.0000000E+00;  0.0000000E+00;0; -2.0717986E-02;  4.0000000E+04;  0.0000000E+00;  0.0000000E+00;  4.0000000E+04;  0.0000000E+00;  4.0000000E+04; -1.4663118E-02;  0.0000000E+00; -6.0548689E-03;  8.4175459E+03;
  1.3000000E-01;  9.9999998E-03; -3.7000000E-01;2218;  0.0000000E+00;  0.0000000E+00;  0.0000000E+00;  1.0004633E+03;  1.0000000E-01;  3.8379163E+02;0;  0.0000000E+00;  0.0000000E+00;  0.0000000E+00;0; -3.1191710E-02;  4.0000000E+04;  0.0000000E+00;  0.0000000E+00;  4.0000000E+04;  0.0000000E+00;  4.0000000E+04; -2.3214232E-02;  0.0000000E+00; -7.9774782E-03;  1.1670956E+04;
  1.3000000E-01;  9.9999998E-03; -3.6000001E-01;2219;  0.0000000E+00;  0.0000000E+00;  0.0000000E+00;  1.0006637E+03;  1.0000000E-01;  5.4981158E+02;0;  0.0000000E+00;  0.0000000E+00;  0.0000000E+00;0; -4.4853806E-02;  4.0000000E+04;  0.0000000E+00;  0.0000000E+00;  4.0000000E+04;  0.0000000E+00;  4.0000000E+04; -3.4780808E-02;  0.0000000E+00; -1.0072997E-02;  1.7612469E+04;
  1.3000000E-01;  9.9999998E-03; -3.4999999E-01;2220;  0.0000000E+00;  0.0000000E+00;  0.0000000E+00;  1.0009125E+03;  1.0000000E-01;  7.5602802E+02;0;  0.0000000E+00;  0.0000000E+00;  0.0000000E+00;0; -6.1886139E-02;  4.0000000E+04;  0.0000000E+00;  0.0000000E+00;  4.0000000E+04;  0.0000000E+00;  4.0000000E+04; -4.9627841E-02;  0.0000000E+00; -1.2258300E-02;  2.6223240E+04;
  1.3000000E-01;  9.9999998E-03; -3.4000000E-01;2221;  0.0000000E+00;  0.0000000E+00;  0.0000000E+00;  1.0012091E+03;  1.0000000E-01;  1.0017495E+03;0;  0.0000000E+00;  0.0000000E+00;  0.0000000E+00;0; -8.2162753E-02;  4.0000000E+04;  0.0000000E+00;  0.0000000E+00;  4.0000000E+04;  0.0000000E+00;  4.0000000E+04; -6.7754872E-02;  0.0000000E+00; -1.4407883E-02;  3.6890734E+04;
  1.3000000E-01;  9.9999998E-03; -3.3000001E-01;2222;  0.0000000E+00;  0.0000000E+00;  0.0000000E+00;  1.0015458E+03;  1.0000000E-01;  1.2806552E+03;0;  0.0000000E+00;  0.0000000E+00;  0.0000000E+00;0; -1.0517421E-01;  4.0000000E+04;  0.0000000E+00;  0.0000000E+00;  4.0000000E+04;  0.0000000E+00;  4.0000000E+04; -8.8834032E-02;  0.0000000E+00; -1.6340178E-02;  4.8471145E+04;
  1.3000000E-01;  9.9999998E-03; -3.1999999E-01;2223;  0.0000000E+00;  0.0000000E+00;  0.0000000E+00;  1.0019102E+03;  1.0000000E-01;  1.5825725E+03;0;  0.0000000E+00;  0.0000000E+00;  0.0000000E+00;0; -1.3000463E-01;  4.0000000E+04;  0.0000000E+00;  0.0000000E+00;  4.0000000E+04;  0.0000000E+00;  4.0000000E+04; -1.1219358E-01;  0.0000000E+00; -1.7811051E-02;  5.9254363E+04;
  1.3000000E-01;  9.9999998E-03; -3.1000000E-01;2224;  0.0000000E+00;  0.0000000E+00;  0.0000000E+00;  1.0022808E+03;  1.0000000E-01;  1.8896256E+03;0;  0.0000000E+00;  0.0000000E+00;  0.0000000E+00;0; -1.5537883E-01;  4.0000000E+04;  0.0000000E+00;  0.0000000E+00;  4.0000000E+04;  0.0000000E+00;  4.0000000E+04; -1.3685215E-01;  0.0000000E+00; -1.8526684E-02;  6.7155453E+04;
  1.4000000E-01;  9.9999998E-03; -4.4000000E-01;2241;  0.0000000E+00;  0.0000000E+00;  0.0000000E+00;  1.0000000E+03;  1.0000000E-01;  0.0000000E+00;0;  0.0000000E+00;  0.0000000E+00;  0.0000000E+00;0; -2.3019442E-04;  4.0000000E+04;  0.0000000E+00;  0.0000000E+00;  4.0000000E+04;  0.0000000E+00;  4.0000000E+04; -1.2839933E-04;  0.0000000E+00; -1.0179508E-04;  1.2051012E+03;
  1.4000000E-01;  9.9999998E-03; -4.3000001E-01;2242;  0.0000000E+00;  0.0000000E+00;  0.0000000E+00;  1.0000104E+03;  1.0000000E-01;  8.6911125E+00;0;  0.0000000E+00;  0.0000000E+00;  0.0000000E+00;0; -7.7206583E-04;  4.0000000E+04;  0.0000000E+00;  0.0000000E+00;  4.0000000E+04;  0.0000000E+00;  4.0000000E+04; -4.6560445E-04;  0.0000000E+00; -3.0646136E-04;  2.9033513E+03;
  1.4000000E-01;  9.9999998E-03; -4.1999999E-01;2243;  0.0000000E+00;  0.0000000E+00;  0.0000000E+00;  1.0000284E+03;  1.0000000E-01;  2.3505508E+01;0;  0.0000000E+00;  0.0000000E+00;  0.0000000E+00;0; -1.9628583E-03;  4.0000000E+04;  0.0000000E+00;  0.0000000E+00;  4.0000000E+04;  0.0000000E+00;  4.0000000E+04; -1.2683363E-03;  0.0000000E+00; -6.9452194E-04;  5.1128721E+03;
  1.4000000E-01;  9.9999998E-03; -4.1000000E-01;2244;  0.0000000E+00;  0.0000000E+00;  0.0000000E+00;  1.0000626E+03;  1.0000000E-01;  5.1850384E+01;0;  0.0000000E+00;  0.0000000E+00;  0.0000000E+00;0; -4.1877041E-03;  4.0000000E+04;  0.0000000E+00;  0.0000000E+00;  4.0000000E+04;  0.0000000E+00;  4.0000000E+04; -2.8755278E-03;  0.0000000E+00; -1.3121765E-03;  7.1065190E+03;
  1.4000000E-01;  9.9999998E-03; -4.0000001E-01;2245;  0.0000000E+00;  0.0000000E+00;  0.0000000E+00;  1.0001196E+03;  1.0000000E-01;  9.9157692E+01;0;  0.0000000E+00;  0.0000000E+00;  0.0000000E+00;0; -7.9117175E-03;  4.0000000E+04;  0.0000000E+00;  0.0000000E+00;  4.0000000E+04;  0.0000000E+00;  4.0000000E+04; -5.7316422E-03;  0.0000000E+00; -2.1800757E-03;  8.0854268E+03;
  1.4000000E-01;  9.9999998E-03; -3.8999999E-01;2246;  0.0000000E+00;  0.0000000E+00;  0.0000000E+00;  1.0002028E+03;  1.0000000E-01;  1.6799525E+02;0;  0.0000000E+00;  0.0000000E+00;  0.0000000E+00;0; -1.3664190E-02;  4.0000000E+04;  0.0000000E+00;  0.0000000E+00;  4.0000000E+04;  0.0000000E+00;  4.0000000E+04; -1.0369679E-02;  0.0000000E+00; -3.2945105E-03;  7.8353472E+03;
  1.4000000E-01;  9.9999998E-03; -3.8000000E-01;2247;  0.0000000E+00;  0.0000000E+00;  0.0000000E+00;  1.0003254E+03;  1.0000000E-01;  2.6952325E+02;0;  0.0000000E+00;  0.0000000E+00;  0.0000000E+00;0; -2.2001339E-02;  4.0000000E+04;  0.0000000E+00;  0.0000000E+00;  4.0000000E+04;  0.0000000E+00;  4.0000000E+04; -1.7367592E-02;  0.0000000E+00; -4.6337470E-03;  8.3919688E+03;
  1.4000000E-01;  9.9999998E-03; -3.7000000E-01;2248;  0.0000000E+00;  0.0000000E+00;  0.0000000E+00;  1.0004934E+03;  1.0000000E-01;  4.0877856E+02;0;  0.0000000E+00;  0.0000000E+00;  0.0000000E+00;0; -3.3437256E-02;  4.0000000E+04;  0.0000000E+00;  0.0000000E+00;  4.0000000E+04;  0.0000000E+00;  4.0000000E+04; -2.7275611E-02;  0.0000000E+00; -6.1616451E-03;  1.4135043E+04;
  1.4000000E-01;  9.9999998E-03; -3.6000001E-01;2249;  0.0000000E+00;  0.0000000E+00;  0.0000000E+00;  1.0007106E+03;  1.0000000E-01;  5.8872406E+02;0;  0.0000000E+00;  0.0000000E+00;  0.0000000E+00;0; -4.8340939E-02;  4.0000000E+04;  0.0000000E+00;  0.0000000E+00;  4.0000000E+04;  0.0000000E+00;  4.0000000E+04; -4.0515620E-02;  0.0000000E+00; -7.8253187E-03;  2.5470672E+04;
  1.4000000E-01;  9.9999998E-03; -3.4999999E-01;2250;  0.0000000E+00;  0.0000000E+00;  0.0000000E+00;  1.0009794E+03;  1.0000000E-01;  8.1143384E+02;0;  0.0000000E+00;  0.0000000E+00;  0.0000000E+00;0; -6.6822536E-02;  4.0000000E+04;  0.0000000E+00;  0.0000000E+00;  4.0000000E+04;  0.0000000E+00;  4.0000000E+04; -5.7274498E-02;  0.0000000E+00; -9.5480364E-03;  4.0977402E+04;
  1.4000000E-01;  9.9999998E-03; -3.4000000E-01;2251;  0.0000000E+00;  0.0000000E+00;  0.0000000E+00;  1.0012993E+03;  1.0000000E-01;  1.0764139E+03;0;  0.0000000E+00;  0.0000000E+00;  0.0000000E+00;0; -8.8630766E-02;  4.0000000E+04;  0.0000000E+00;  0.0000000E+00;  4.0000000E+04;  0.0000000E+00;  4.0000000E+04; -7.7410951E-02;  0.0000000E+00; -1.1219817E-02;  5.9199852E+04;
  1.4000000E-01;  9.9999998E-03; -3.3000001E-01;2252;  0.0000000E+00;  0.0000000E+00;  0.0000000E+00;  1.0016577E+03;  1.0000000E-01;  1.3732944E+03;0;  0.0000000E+00;  0.0000000E+00;  0.0000000E+00;0; -1.1309761E-01;  4.0000000E+04;  0.0000000E+00;  0.0000000E+00;  4.0000000E+04;  0.0000000E+00;  4.0000000E+04; -1.0040808E-01;  0.0000000E+00; -1.2689523E-02;  7.8058203E+04;
  1.4000000E-01;  9.9999998E-03; -3.1999999E-01;2253;  0.0000000E+00;  0.0000000E+00;  0.0000000E+00;  1.0020425E+03;  1.0000000E-01;  1.6921991E+03;0;  0.0000000E+00;  0.0000000E+00;  0.0000000E+00;0; -1.3915503E-01;  4.0000000E+04;  0.0000000E+00;  0.0000000E+00;  4.0000000E+04;  0.0000000E+00;  4.0000000E+04; -1.2538907E-01;  0.0000000E+00; -1.3765956E-02;  9.4714289E+04;
  1.4000000E-01;  9.9999998E-03; -3.1000000E-01;2254;  0.0000000E+00;  0.0000000E+00;  0.0000000E+00;  1.0024293E+03;  1.0000000E-01;  2.0125851E+03;0;  0.0000000E+00;  0.0000000E+00;  0.0000000E+00;0; -1.6542710E-01;  4.0000000E+04;  0.0000000E+00;  0.0000000E+00;  4.0000000E+04;  0.0000000E+00;  4.0000000E+04; -1.5118928E-01;  0.0000000E+00; -1.4237818E-02;  1.0596830E+05;
  1.5000001E-01;  9.9999998E-03; -4.4000000E-01;2271;  0.0000000E+00;  0.0000000E+00;  0.0000000E+00;  1.0000000E+03;  1.0000000E-01;  0.0000000E+00;0;  0.0000000E+00;  0.0000000E+00;  0.0000000E+00;0; -2.1989437E-04;  4.0000000E+04;  0.0000000E+00;  0.0000000E+00;  4.0000000E+04;  0.0000000E+00;  4.0000000E+04; -1.6126857E-04;  0.0000000E+00; -5.8625803E-05;  2.1312280E+03;
  1.5000001E-01;  9.9999998E-03; -4.3000001E-01;2272;  0.0000000E+00;  0.0000000E+00;  0.0000000E+00;  1.0000105E+03;  1.0000000E-01;  8.6911125E+00;0;  0.0000000E+00;  0.0000000E+00;  0.0000000E+00;0; -7.5846957E-04;  4.0000000E+04;  0.0000000E+00;  0.0000000E+00;  4.0000000E+04;  0.0000000E+00;  4.0000000E+04; -5.7825987E-04;  0.0000000E+00; -1.8020971E-04;  5.0262129E+03;
  1.5000001E-01;  9.9999998E-03; -4.1999999E-01;2273;  0.0000000E+00;  0.0000000E+00;  0.0000000E+00;  1.0000305E+03;  1.0000000E-01;  2.5184473E+01;0;  0.0000000E+00;  0.0000000E+00;  0.0000000E+00;0; -1.9841660E-03;  4.0000000E+04;  0.0000000E+00;  0.0000000E+00;  4.0000000E+04;  0.0000000E+00;  4.0000000E+04; -1.5569495E-03;  0.0000000E+00; -4.2721650E-04;  8.6234922E+03;
  1.5000001E-01;  9.9999998E-03; -4.1000000E-01;2274;  0.0000000E+00;  0.0000000E+00;  0.0000000E+00;  1.0000637E+03;  1.0000000E-01;  5.2838013E+01;0;  0.0000000E+00;  0.0000000E+00;  0.0000000E+00;0; -4.3413513E-03;  4.0000000E+04;  0.0000000E+00;  0.0000000E+00;  4.0000000E+04;  0.0000000E+00;  4.0000000E+04; -3.4935463E-03;  0.0000000E+00; -8.4780512E-04;  1.1552979E+04;
  1.5000001E-01;  9.9999998E-03; -4.0000001E-01;2275;  0.0000000E+00;  0.0000000E+00;  0.0000000E+00;  1.0001257E+03;  1.0000000E-01;  1.0409582E+02;0;  0.0000000E+00;  0.0000000E+00;  0.0000000E+00;0; -8.3708391E-03;  4.0000000E+04;  0.0000000E+00;  0.0000000E+00;  4.0000000E+04;  0.0000000E+00;  4.0000000E+04; -6.9007240E-03;  0.0000000E+00; -1.4701152E-03;  1.2262438E+04;
  1.5000001E-01;  9.9999998E-03; -3.8999999E-01;2276;  0.0000000E+00;  0.0000000E+00;  0.0000000E+00;  1.0002163E+03;  1.0000000E-01;  1.7925420E+02;0;  0.0000000E+00;  0.0000000E+00;  0.0000000E+00;0; -1.4679517E-02;  4.0000000E+04;  0.0000000E+00;  0.0000000E+00;  4.0000000E+04;  0.0000000E+00;  4.0000000E+04; -1.2382233E-02;  0.0000000E+00; -2.2972843E-03;  9.8887881E+03;
  1.5000001E-01;  9.9999998E-03; -3.8000000E-01;2277;  0.0000000E+00;  0.0000000E+00;  0.0000000E+00;  1.0003514E+03;  1.0000000E-01;  2.9115225E+02;0;  0.0000000E+00;  0.0000000E+00;  0.0000000E+00;0; -2.3885043E-02;  4.0000000E+04;  0.0000000E+00;  0.0000000E+00;  4.0000000E+04;  0.0000000E+00;  4.0000000E+04; -2.0573679E-02;  0.0000000E+00; -3.3113635E-03;  8.2837217E+03;
  1.5000001E-01;  9.9999998E-03; -3.7000000E-01;2278;  0.0000000E+00;  0.0000000E+00;  0.0000000E+00;  1.0005356E+03;  1.0000000E-01;  4.4374054E+02;0;  0.0000000E+00;  0.0000000E+00;  0.0000000E+00;0; -3.6526758E-02;  4.0000000E+04;  0.0000000E+00;  0.0000000E+00;  4.0000000E+04;  0.0000000E+00;  4.0000000E+04; -3.2049149E-02;  0.0000000E+00; -4.4776080E-03;  1.8916127E+04;
  1.5000001E-01;  9.9999998E-03; -3.6000001E-01;2279;  0.0000000E+00;  0.0000000E+00;  0.0000000E+00;  1.0007729E+03;  1.0000000E-01;  6.4037695E+02;0;  0.0000000E+00;  0.0000000E+00;  0.0000000E+00;0; -5.2942384E-02;  4.0000000E+04;  0.0000000E+00;  0.0000000E+00;  4.0000000E+04;  0.0000000E+00;  4.0000000E+04; -4.7197662E-02;  0.0000000E+00; -5.7447217E-03;  3.8477566E+04;
  1.5000001E-01;  9.9999998E-03; -3.4999999E-01;2280;  0.0000000E+00;  0.0000000E+00;  0.0000000E+00;  1.0010684E+03;  1.0000000E-01;  8.8520953E+02;0;  0.0000000E+00;  0.0000000E+00;  0.0000000E+00;0; -7.3141754E-02;  4.0000000E+04;  0.0000000E+00;  0.0000000E+00;  4.0000000E+04;  0.0000000E+00;  4.0000000E+04; -6.6100217E-02;  0.0000000E+00; -7.0415391E-03;  6.3697180E+04;
  1.5000001E-01;  9.9999998E-03; -3.4000000E-01;2281;  0.0000000E+00;  0.0000000E+00;  0.0000000E+00;  1.0014124E+03;  1.0000000E-01;  1.1701398E+03;0;  0.0000000E+00;  0.0000000E+00;  0.0000000E+00;0; -9.6709058E-02;  4.0000000E+04;  0.0000000E+00;  0.0000000E+00;  4.0000000E+04;  0.0000000E+00;  4.0000000E+04; -8.8437259E-02;  0.0000000E+00; -8.2718022E-03;  9.2196594E+04;
  1.5000001E-01;  9.9999998E-03; -3.3000001E-01;2282;  0.0000000E+00;  0.0000000E+00;  0.0000000E+00;  1.0017958E+03;  1.0000000E-01;  1.4877604E+03;0;  0.0000000E+00;  0.0000000E+00;  0.0000000E+00;0; -1.2277523E-01;  4.0000000E+04;  0.0000000E+00;  0.0000000E+00;  4.0000000E+04;  0.0000000E+00;  4.0000000E+04; -1.1346382E-01;  0.0000000E+00; -9.3114143E-03;  1.2057416E+05;
  1.5000001E-01;  9.9999998E-03; -3.1999999E-01;2283;  0.0000000E+00;  0.0000000E+00;  0.0000000E+00;  1.0021985E+03;  1.0000000E-01;  1.8214794E+03;0;  0.0000000E+00;  0.0000000E+00;  0.0000000E+00;0; -1.5008350E-01;  4.0000000E+04;  0.0000000E+00;  0.0000000E+00;  4.0000000E+04;  0.0000000E+00;  4.0000000E+04; -1.4006838E-01;  0.0000000E+00; -1.0015111E-02;  1.4440375E+05;
  1.5000001E-01;  9.9999998E-03; -3.1000000E-01;2284;  0.0000000E+00;  0.0000000E+00;  0.0000000E+00;  1.0025983E+03;  1.0000000E-01;  2.1526304E+03;0;  0.0000000E+00;  0.0000000E+00;  0.0000000E+00;0; -1.7714018E-01;  4.0000000E+04;  0.0000000E+00;  0.0000000E+00;  4.0000000E+04;  0.0000000E+00;  4.0000000E+04; -1.6689762E-01;  0.0000000E+00; -1.0242558E-02;  1.5901669E+05;
  1.6000000E-01;  9.9999998E-03; -4.4000000E-01;2301;  0.0000000E+00;  0.0000000E+00;  0.0000000E+00;  1.0000000E+03;  1.0000000E-01;  0.0000000E+00;0;  0.0000000E+00;  0.0000000E+00;  0.0000000E+00;0; -2.2206263E-04;  4.0000000E+04;  0.0000000E+00;  0.0000000E+00;  4.0000000E+04;  0.0000000E+00;  4.0000000E+04; -2.0437768E-04;  0.0000000E+00; -1.7684963E-05;  3.7184768E+03;
  1.6000000E-01;  9.9999998E-03; -4.3000001E-01;2302;  0.0000000E+00;  0.0000000E+00;  0.0000000E+00;  1.0000113E+03;  1.0000000E-01;  9.3824511E+00;0;  0.0000000E+00;  0.0000000E+00;  0.0000000E+00;0; -7.8278437E-04;  4.0000000E+04;  0.0000000E+00;  0.0000000E+00;  4.0000000E+04;  0.0000000E+00;  4.0000000E+04; -7.1903638E-04;  0.0000000E+00; -6.3747968E-05;  8.5461504E+03;
  1.6000000E-01;  9.9999998E-03; -4.1999999E-01;2303;  0.0000000E+00;  0.0000000E+00;  0.0000000E+00;  1.0000323E+03;  1.0000000E-01;  2.6764675E+01;0;  0.0000000E+00;  0.0000000E+00;  0.0000000E+00;0; -2.0946409E-03;  4.0000000E+04;  0.0000000E+00;  0.0000000E+00;  4.0000000E+04;  0.0000000E+00;  4.0000000E+04; -1.9056996E-03;  0.0000000E+00; -1.8894137E-04;  1.4309562E+04;
  1.6000000E-01;  9.9999998E-03; -4.1000000E-01;2304;  0.0000000E+00;  0.0000000E+00;  0.0000000E+00;  1.0000698E+03;  1.0000000E-01;  5.7874905E+01;0;  0.0000000E+00;  0.0000000E+00;  0.0000000E+00;0; -4.6659643E-03;  4.0000000E+04;  0.0000000E+00;  0.0000000E+00;  4.0000000E+04;  0.0000000E+00;  4.0000000E+04; -4.2215628E-03;  0.0000000E+00; -4.4440143E-04;  1.8688715E+04;
  1.6000000E-01;  9.9999998E-03; -4.0000001E-01;2305;  0.0000000E+00;  0.0000000E+00;  0.0000000E+00;  1.0001356E+03;  1.0000000E-01;  1.1229312E+02;0;  0.0000000E+00;  0.0000000E+00;  0.0000000E+00;0; -9.1147237E-03;  4.0000000E+04;  0.0000000E+00;  0.0000000E+00;  4.0000000E+04;  0.0000000E+00;  4.0000000E+04; -8.2513029E-03;  0.0000000E+00; -8.6342084E-04;  1.9120709E+04;
  1.6000000E-01;  9.9999998E-03; -3.8999999E-01;2306;  0.0000000E+00;  0.0000000E+00;  0.0000000E+00;  1.0002363E+03;  1.0000000E-01;  1.9574754E+02;0;  0.0000000E+00;  0.0000000E+00;  0.0000000E+00;0; -1.6126100E-02;  4.0000000E+04;  0.0000000E+00;  0.0000000E+00;  4.0000000E+04;  0.0000000E+00;  4.0000000E+04; -1.4673322E-02;  0.0000000E+00; -1.4527782E-03;  1.3810590E+04;
  1.6000000E-01;  9.9999998E-03; -3.8000000E-01;2307;  0.0000000E+00;  0.0000000E+00;  0.0000000E+00;  1.0003851E+03;  1.0000000E-01;  3.1910208E+02;0;  0.0000000E+00;  0.0000000E+00;  0.0000000E+00;0; -2.6379198E-02;  4.0000000E+04;  0.0000000E+00;  0.0000000E+00;  4.0000000E+04;  0.0000000E+00;  4.0000000E+04; -2.4183467E-02;  0.0000000E+00; -2.1957306E-03;  8.1093101E+03;
  1.6000000E-01;  9.9999998E-03; -3.7000000E-01;2308;  0.0000000E+00;  0.0000000E+00;  0.0000000E+00;  1.0005893E+03;  1.0000000E-01;  4.8818372E+02;0;  0.0000000E+00;  0.0000000E+00;  0.0000000E+00;0; -4.0433954E-02;  4.0000000E+04;  0.0000000E+00;  0.0000000E+00;  4.0000000E+04;  0.0000000E+00;  4.0000000E+04; -3.7376568E-02;  0.0000000E+00; -3.0573884E-03;  2.6503215E+04;
  1.6000000E-01;  9.9999998E-03; -3.6000001E-01;2309;  0.0000000E+00;  0.0000000E+00;  0.0000000E+00;  1.0008528E+03;  1.0000000E-01;  7.0654791E+02;0;  0.0000000E+00;  0.0000000E+00;  0.0000000E+00;0; -5.8583949E-02;  4.0000000E+04;  0.0000000E+00;  0.0000000E+00;  4.0000000E+04;  0.0000000E+00;  4.0000000E+04; -5.4596797E-02;  0.0000000E+00; -3.9871507E-03;  5.7207211E+04;
  1.6000000E-01;  9.9999998E-03; -3.4999999E-01;2310;  0.0000000E+00;  0.0000000E+00;  0.0000000E+00;  1.0011745E+03;  1.0000000E-01;  9.7300952E+02;0;  0.0000000E+00;  0.0000000E+00;  0.0000000E+00;0; -8.0715545E-02;  4.0000000E+04;  0.0000000E+00;  0.0000000E+00;  4.0000000E+04;  0.0000000E+00;  4.0000000E+04; -7.5797312E-02;  0.0000000E+00; -4.9182354E-03;  9.5274117E+04;
  1.6000000E-01;  9.9999998E-03; -3.4000000E-01;2311;  0.0000000E+00;  0.0000000E+00;  0.0000000E+00;  1.0015479E+03;  1.0000000E-01;  1.2824329E+03;0;  0.0000000E+00;  0.0000000E+00;  0.0000000E+00;0; -1.0621577E-01;  4.0000000E+04;  0.0000000E+00;  0.0000000E+00;  4.0000000E+04;  0.0000000E+00;  4.0000000E+04; -1.0044961E-01;  0.0000000E+00; -5.7661631E-03;  1.3708286E+05;
  1.6000000E-01;  9.9999998E-03; -3.3000001E-01;2312;  0.0000000E+00;  0.0000000E+00;  0.0000000E+00;  1.0019556E+03;  1.0000000E-01;  1.6202010E+03;0;  0.0000000E+00;  0.0000000E+00;  0.0000000E+00;0; -1.3397847E-01;  4.0000000E+04;  0.0000000E+00;  0.0000000E+00;  4.0000000E+04;  0.0000000E+00;  4.0000000E+04; -1.2754853E-01;  0.0000000E+00; -6.4299437E-03;  1.7739098E+05;
  1.6000000E-01;  9.9999998E-03; -3.1999999E-01;2313;  0.0000000E+00;  0.0000000E+00;  0.0000000E+00;  1.0023768E+03;  1.0000000E-01;  1.9691295E+03;0;  0.0000000E+00;  0.0000000E+00;  0.0000000E+00;0; -1.6252461E-01;  4.0000000E+04;  0.0000000E+00;  0.0000000E+00;  4.0000000E+04;  0.0000000E+00;  4.0000000E+04; -1.5572274E-01;  0.0000000E+00; -6.8018702E-03;  2.0964462E+05;
  1.6000000E-01;  9.9999998E-03; -3.1000000E-01;2314;  0.0000000E+00;  0.0000000E+00;  0.0000000E+00;  1.0027865E+03;  1.0000000E-01;  2.3085767E+03;0;  0.0000000E+00;  0.0000000E+00;  0.0000000E+00;0; -1.9021650E-01;  4.0000000E+04;  0.0000000E+00;  0.0000000E+00;  4.0000000E+04;  0.0000000E+00;  4.0000000E+04; -1.8342258E-01;  0.0000000E+00; -6.7939200E-03;  2.2731475E+05;
  1.7000000E-01;  9.9999998E-03; -4.4000000E-01;2331;  0.0000000E+00;  0.0000000E+00;  0.0000000E+00;  1.0000000E+03;  1.0000000E-01;  0.0000000E+00;0;  0.0000000E+00;  0.0000000E+00;  0.0000000E+00;0; -2.4048729E-04;  4.0000000E+04;  0.0000000E+00;  0.0000000E+00;  4.0000000E+04;  0.0000000E+00;  4.0000000E+04; -2.5945847E-04;  0.0000000E+00;  1.8971174E-05;  6.2860425E+03;
  1.7000000E-01;  9.9999998E-03; -4.3000001E-01;2332;  0.0000000E+00;  0.0000000E+00;  0.0000000E+00;  1.0000125E+03;  1.0000000E-01;  1.0271314E+01;0;  0.0000000E+00;  0.0000000E+00;  0.0000000E+00;0; -8.5689052E-04;  4.0000000E+04;  0.0000000E+00;  0.0000000E+00;  4.0000000E+04;  0.0000000E+00;  4.0000000E+04; -8.8853599E-04;  0.0000000E+00;  3.1645472E-05;  1.3995360E+04;
  1.7000000E-01;  9.9999998E-03; -4.1999999E-01;2333;  0.0000000E+00;  0.0000000E+00;  0.0000000E+00;  1.0000342E+03;  1.0000000E-01;  2.8344875E+01;0;  0.0000000E+00;  0.0000000E+00;  0.0000000E+00;0; -2.3134446E-03;  4.0000000E+04;  0.0000000E+00;  0.0000000E+00;  4.0000000E+04;  0.0000000E+00;  4.0000000E+04; -2.3069310E-03;  0.0000000E+00; -6.5137442E-06;  2.2806350E+04;
  1.7000000E-01;  9.9999998E-03; -4.1000000E-01;2334;  0.0000000E+00;  0.0000000E+00;  0.0000000E+00;  1.0000783E+03;  1.0000000E-01;  6.4887047E+01;0;  0.0000000E+00;  0.0000000E+00;  0.0000000E+00;0; -5.1782201E-03;  4.0000000E+04;  0.0000000E+00;  0.0000000E+00;  4.0000000E+04;  0.0000000E+00;  4.0000000E+04; -5.0293007E-03;  0.0000000E+00; -1.4891937E-04;  2.9090506E+04;
  1.7000000E-01;  9.9999998E-03; -4.0000001E-01;2335;  0.0000000E+00;  0.0000000E+00;  0.0000000E+00;  1.0001495E+03;  1.0000000E-01;  1.2384834E+02;0;  0.0000000E+00;  0.0000000E+00;  0.0000000E+00;0; -1.0138895E-02;  4.0000000E+04;  0.0000000E+00;  0.0000000E+00;  4.0000000E+04;  0.0000000E+00;  4.0000000E+04; -9.7093452E-03;  0.0000000E+00; -4.2955004E-04;  2.9067014E+04;
  1.7000000E-01;  9.9999998E-03; -3.8999999E-01;2336;  0.0000000E+00;  0.0000000E+00;  0.0000000E+00;  1.0002628E+03;  1.0000000E-01;  2.1777161E+02;0;  0.0000000E+00;  0.0000000E+00;  0.0000000E+00;0; -1.7953482E-02;  4.0000000E+04;  0.0000000E+00;  0.0000000E+00;  4.0000000E+04;  0.0000000E+00;  4.0000000E+04; -1.7099487E-02;  0.0000000E+00; -8.5399474E-04;  1.9958885E+04;
  1.7000000E-01;  9.9999998E-03; -3.8000000E-01;2337;  0.0000000E+00;  0.0000000E+00;  0.0000000E+00;  1.0004291E+03;  1.0000000E-01;  3.5544672E+02;0;  0.0000000E+00;  0.0000000E+00;  0.0000000E+00;0; -2.9359767E-02;  4.0000000E+04;  0.0000000E+00;  0.0000000E+00;  4.0000000E+04;  0.0000000E+00;  4.0000000E+04; -2.7956512E-02;  0.0000000E+00; -1.4032549E-03;  7.8685400E+03;
  1.7000000E-01;  9.9999998E-03; -3.7000000E-01;2338;  0.0000000E+00;  0.0000000E+00;  0.0000000E+00;  1.0006542E+03;  1.0000000E-01;  5.4200934E+02;0;  0.0000000E+00;  0.0000000E+00;  0.0000000E+00;0; -4.4936795E-02;  4.0000000E+04;  0.0000000E+00;  0.0000000E+00;  4.0000000E+04;  0.0000000E+00;  4.0000000E+04; -4.2896733E-02;  0.0000000E+00; -2.0400628E-03;  3.6727141E+04;
  1.7000000E-01;  9.9999998E-03; -3.6000001E-01;2339;  0.0000000E+00;  0.0000000E+00;  0.0000000E+00;  1.0009449E+03;  1.0000000E-01;  7.8289136E+02;0;  0.0000000E+00;  0.0000000E+00;  0.0000000E+00;0; -6.4930134E-02;  4.0000000E+04;  0.0000000E+00;  0.0000000E+00;  4.0000000E+04;  0.0000000E+00;  4.0000000E+04; -6.2217418E-02;  0.0000000E+00; -2.7127159E-03;  8.1351383E+04;
  1.7000000E-01;  9.9999998E-03; -3.4999999E-01;2340;  0.0000000E+00;  0.0000000E+00;  0.0000000E+00;  1.0012963E+03;  1.0000000E-01;  1.0739448E+03;0;  0.0000000E+00;  0.0000000E+00;  0.0000000E+00;0; -8.9094870E-02;  4.0000000E+04;  0.0000000E+00;  0.0000000E+00;  4.0000000E+04;  0.0000000E+00;  4.0000000E+04; -8.5738145E-02;  0.0000000E+00; -3.3567250E-03;  1.3529133E+05;
  1.7000000E-01;  9.9999998E-03; -3.4000000E-01;2341;  0.0000000E+00;  0.0000000E+00;  0.0000000E+00;  1.0016992E+03;  1.0000000E-01;  1.4077626E+03;0;  0.0000000E+00;  0.0000000E+00;  0.0000000E+00;0; -1.1660799E-01;  4.0000000E+04;  0.0000000E+00;  0.0000000E+00;  4.0000000E+04;  0.0000000E+00;  4.0000000E+04; -1.1271164E-01;  0.0000000E+00; -3.8963577E-03;  1.9329125E+05;
  1.7000000E-01;  9.9999998E-03; -3.3000001E-01;2342;  0.0000000E+00;  0.0000000E+00;  0.0000000E+00;  1.0021315E+03;  1.0000000E-01;  1.7659746E+03;0;  0.0000000E+00;  0.0000000E+00;  0.0000000E+00;0; -1.4610586E-01;  4.0000000E+04;  0.0000000E+00;  0.0000000E+00;  4.0000000E+04;  0.0000000E+00;  4.0000000E+04; -1.4185663E-01;  0.0000000E+00; -4.2492328E-03;  2.4777430E+05;
  1.7000000E-01;  9.9999998E-03; -3.1999999E-01;2343;  0.0000000E+00;  0.0000000E+00;  0.0000000E+00;  1.0025702E+03;  1.0000000E-01;  2.1293223E+03;0;  0.0000000E+00;  0.0000000E+00;  0.0000000E+00;0; -1.7586198E-01;  4.0000000E+04;  0.0000000E+00;  0.0000000E+00;  4.0000000E+04;  0.0000000E+00;  4.0000000E+04; -1.7152438E-01;  0.0000000E+00; -4.3376060E-03;  2.8952838E+05;
  1.7000000E-01;  9.9999998E-03; -3.1000000E-01;2344;  0.0000000E+00;  0.0000000E+00;  0.0000000E+00;  1.0029855E+03;  1.0000000E-01;  2.4734114E+03;0;  0.0000000E+00;  0.0000000E+00;  0.0000000E+00;0; -2.0406498E-01;  4.0000000E+04;  0.0000000E+00;  0.0000000E+00;  4.0000000E+04;  0.0000000E+00;  4.0000000E+04; -1.9995628E-01;  0.0000000E+00; -4.1086925E-03;  3.0974206E+05;
  1.8000001E-01;  9.9999998E-03; -4.4000000E-01;2361;  0.0000000E+00;  0.0000000E+00;  0.0000000E+00;  1.0000000E+03;  1.0000000E-01;  0.0000000E+00;0;  0.0000000E+00;  0.0000000E+00;  0.0000000E+00;0; -2.8023517E-04;  4.0000000E+04;  0.0000000E+00;  0.0000000E+00;  4.0000000E+04;  0.0000000E+00;  4.0000000E+04; -3.2662906E-04;  0.0000000E+00;  4.6393900E-05;  1.0168105E+04;
  1.8000001E-01;  9.9999998E-03; -4.3000001E-01;2362;  0.0000000E+00;  0.0000000E+00;  0.0000000E+00;  1.0000139E+03;  1.0000000E-01;  1.1555228E+01;0;  0.0000000E+00;  0.0000000E+00;  0.0000000E+00;0; -9.9391583E-04;  4.0000000E+04;  0.0000000E+00;  0.0000000E+00;  4.0000000E+04;  0.0000000E+00;  4.0000000E+04; -1.0818386E-03;  0.0000000E+00;  8.7922846E-05;  2.1820854E+04;
  1.8000001E-01;  9.9999998E-03; -4.1999999E-01;2363;  0.0000000E+00;  0.0000000E+00;  0.0000000E+00;  1.0000435E+03;  1.0000000E-01;  3.6048359E+01;0;  0.0000000E+00;  0.0000000E+00;  0.0000000E+00;0; -2.6555310E-03;  4.0000000E+04;  0.0000000E+00;  0.0000000E+00;  4.0000000E+04;  0.0000000E+00;  4.0000000E+04; -2.7381252E-03;  0.0000000E+00;  8.2594066E-05;  3.4484555E+04;
  1.8000001E-01;  9.9999998E-03; -4.1000000E-01;2364;  0.0000000E+00;  0.0000000E+00;  0.0000000E+00;  1.0000905E+03;  1.0000000E-01;  7.4960838E+01;0;  0.0000000E+00;  0.0000000E+00;  0.0000000E+00;0; -5.8774413E-03;  4.0000000E+04;  0.0000000E+00;  0.0000000E+00;  4.0000000E+04;  0.0000000E+00;  4.0000000E+04; -5.8556818E-03;  0.0000000E+00; -2.1759193E-05;  4.2903465E+04;
  1.8000001E-01;  9.9999998E-03; -4.0000001E-01;2365;  0.0000000E+00;  0.0000000E+00;  0.0000000E+00;  1.0001684E+03;  1.0000000E-01;  1.3955161E+02;0;  0.0000000E+00;  0.0000000E+00;  0.0000000E+00;0; -1.1400169E-02;  4.0000000E+04;  0.0000000E+00;  0.0000000E+00;  4.0000000E+04;  0.0000000E+00;  4.0000000E+04; -1.1147267E-02;  0.0000000E+00; -2.5290169E-04;  4.2017715E+04;
  1.8000001E-01;  9.9999998E-03; -3.8999999E-01;2366;  0.0000000E+00;  0.0000000E+00;  0.0000000E+00;  1.0002960E+03;  1.0000000E-01;  2.4522762E+02;0;  0.0000000E+00;  0.0000000E+00;  0.0000000E+00;0; -2.0042485E-02;  4.0000000E+04;  0.0000000E+00;  0.0000000E+00;  4.0000000E+04;  0.0000000E+00;  4.0000000E+04; -1.9433362E-02;  0.0000000E+00; -6.0912134E-04;  2.8205967E+04;
  1.8000001E-01;  9.9999998E-03; -3.8000000E-01;2367;  0.0000000E+00;  0.0000000E+00;  0.0000000E+00;  1.0004791E+03;  1.0000000E-01;  3.9692700E+02;0;  0.0000000E+00;  0.0000000E+00;  0.0000000E+00;0; -3.2595702E-02;  4.0000000E+04;  0.0000000E+00;  0.0000000E+00;  4.0000000E+04;  0.0000000E+00;  4.0000000E+04; -3.1530578E-02;  0.0000000E+00; -1.0651242E-03;  7.5427041E+03;
  1.8000001E-01;  9.9999998E-03; -3.7000000E-01;2368;  0.0000000E+00;  0.0000000E+00;  0.0000000E+00;  1.0007264E+03;  1.0000000E-01;  6.0176074E+02;0;  0.0000000E+00;  0.0000000E+00;  0.0000000E+00;0; -4.9659826E-02;  4.0000000E+04;  0.0000000E+00;  0.0000000E+00;  4.0000000E+04;  0.0000000E+00;  4.0000000E+04; -4.8081160E-02;  0.0000000E+00; -1.5786671E-03;  4.8696707E+04;
  1.8000001E-01;  9.9999998E-03; -3.6000001E-01;2369;  0.0000000E+00;  0.0000000E+00;  0.0000000E+00;  1.0010430E+03;  1.0000000E-01;  8.6407428E+02;0;  0.0000000E+00;  0.0000000E+00;  0.0000000E+00;0; -7.1442135E-02;  4.0000000E+04;  0.0000000E+00;  0.0000000E+00;  4.0000000E+04;  0.0000000E+00;  4.0000000E+04; -6.9347657E-02;  0.0000000E+00; -2.0944774E-03;  1.0920009E+05;
  1.8000001E-01;  9.9999998E-03; -3.4999999E-01;2370;  0.0000000E+00;  0.0000000E+00;  0.0000000E+00;  1.0014242E+03;  1.0000000E-01;  1.1799171E+03;0;  0.0000000E+00;  0.0000000E+00;  0.0000000E+00;0; -9.7580358E-02;  4.0000000E+04;  0.0000000E+00;  0.0000000E+00;  4.0000000E+04;  0.0000000E+00;  4.0000000E+04; -9.5033564E-02;  0.0000000E+00; -2.5467938E-03;  1.8107748E+05;
  1.8000001E-01;  9.9999998E-03; -3.4000000E-01;2371;  0.0000000E+00;  0.0000000E+00;  0.0000000E+00;  1.0018553E+03;  1.0000000E-01;  1.5371416E+03;0;  0.0000000E+00;  0.0000000E+00;  0.0000000E+00;0; -1.2705499E-01;  4.0000000E+04;  0.0000000E+00;  0.0000000E+00;  4.0000000E+04;  0.0000000E+00;  4.0000000E+04; -1.2419209E-01;  0.0000000E+00; -2.8628944E-03;  2.5721409E+05;
  1.8000001E-01;  9.9999998E-03; -3.3000001E-01;2372;  0.0000000E+00;  0.0000000E+00;  0.0000000E+00;  1.0023131E+03;  1.0000000E-01;  1.9163901E+03;0;  0.0000000E+00;  0.0000000E+00;  0.0000000E+00;0; -1.5825120E-01;  4.0000000E+04;  0.0000000E+00;  0.0000000E+00;  4.0000000E+04;  0.0000000E+00;  4.0000000E+04; -1.5528008E-01;  0.0000000E+00; -2.9711197E-03;  3.2741478E+05;
  1.8000001E-01;  9.9999998E-03; -3.1999999E-01;2373;  0.0000000E+00;  0.0000000E+00;  0.0000000E+00;  1.0027677E+03;  1.0000000E-01;  2.2929719E+03;0;  0.0000000E+00;  0.0000000E+00;  0.0000000E+00;0; -1.8918642E-01;  4.0000000E+04;  0.0000000E+00;  0.0000000E+00;  4.0000000E+04;  0.0000000E+00;  4.0000000E+04; -1.8637134E-01;  0.0000000E+00; -2.8150897E-03;  3.7943441E+05;
  1.8000001E-01;  9.9999998E-03; -3.1000000E-01;2374;  0.0000000E+00;  0.0000000E+00;  0.0000000E+00;  1.0031876E+03;  1.0000000E-01;  2.6408140E+03;0;  0.0000000E+00;  0.0000000E+00;  0.0000000E+00;0; -2.1785067E-01;  4.0000000E+04;  0.0000000E+00;  0.0000000E+00;  4.0000000E+04;  0.0000000E+00;  4.0000000E+04; -2.1548076E-01;  0.0000000E+00; -2.3699105E-03;  4.0176325E+05;
  1.9000000E-01;  9.9999998E-03; -4.4000000E-01;2391;  0.0000000E+00;  0.0000000E+00;  0.0000000E+00;  1.0000029E+03;  1.0000000E-01;  2.4690657E+00;0;  0.0000000E+00;  0.0000000E+00;  0.0000000E+00;0; -3.5034469E-04;  4.0000000E+04;  0.0000000E+00;  0.0000000E+00;  4.0000000E+04;  0.0000000E+00;  4.0000000E+04; -4.0363541E-04;  0.0000000E+00;  5.3290718E-05;  1.5596945E+04;
  1.9000000E-01;  9.9999998E-03; -4.3000001E-01;2392;  0.0000000E+00;  0.0000000E+00;  0.0000000E+00;  1.0000179E+03;  1.0000000E-01;  1.4913157E+01;0;  0.0000000E+00;  0.0000000E+00;  0.0000000E+00;0; -1.2142002E-03;  4.0000000E+04;  0.0000000E+00;  0.0000000E+00;  4.0000000E+04;  0.0000000E+00;  4.0000000E+04; -1.2880830E-03;  0.0000000E+00;  7.3882889E-05;  3.2169439E+04;
  1.9000000E-01;  9.9999998E-03; -4.1999999E-01;2393;  0.0000000E+00;  0.0000000E+00;  0.0000000E+00;  1.0000494E+03;  1.0000000E-01;  4.0887730E+01;0;  0.0000000E+00;  0.0000000E+00;  0.0000000E+00;0; -3.1447201E-03;  4.0000000E+04;  0.0000000E+00;  0.0000000E+00;  4.0000000E+04;  0.0000000E+00;  4.0000000E+04; -3.1662406E-03;  0.0000000E+00;  2.1520465E-05;  4.9177883E+04;
  1.9000000E-01;  9.9999998E-03; -4.1000000E-01;2394;  0.0000000E+00;  0.0000000E+00;  0.0000000E+00;  1.0001042E+03;  1.0000000E-01;  8.6318542E+01;0;  0.0000000E+00;  0.0000000E+00;  0.0000000E+00;0; -6.7739105E-03;  4.0000000E+04;  0.0000000E+00;  0.0000000E+00;  4.0000000E+04;  0.0000000E+00;  4.0000000E+04; -6.6272928E-03;  0.0000000E+00; -1.4661784E-04;  5.9586055E+04;
  1.9000000E-01;  9.9999998E-03; -4.0000001E-01;2395;  0.0000000E+00;  0.0000000E+00;  0.0000000E+00;  1.0001943E+03;  1.0000000E-01;  1.6098309E+02;0;  0.0000000E+00;  0.0000000E+00;  0.0000000E+00;0; -1.2872022E-02;  4.0000000E+04;  0.0000000E+00;  0.0000000E+00;  4.0000000E+04;  0.0000000E+00;  4.0000000E+04; -1.2429313E-02;  0.0000000E+00; -4.4270925E-04;  5.7227578E+04;
  1.9000000E-01;  9.9999998E-03; -3.8999999E-01;2396;  0.0000000E+00;  0.0000000E+00;  0.0000000E+00;  1.0003339E+03;  1.0000000E-01;  2.7663412E+02;0;  0.0000000E+00;  0.0000000E+00;  0.0000000E+00;0; -2.2301363E-02;  4.0000000E+04;  0.0000000E+00;  0.0000000E+00;  4.0000000E+04;  0.0000000E+00;  4.0000000E+04; -2.1450158E-02;  0.0000000E+00; -8.5120386E-04;  3.7954453E+04;
  1.9000000E-01;  9.9999998E-03; -3.8000000E-01;2397;  0.0000000E+00;  0.0000000E+00;  0.0000000E+00;  1.0005322E+03;  1.0000000E-01;  4.4087637E+02;0;  0.0000000E+00;  0.0000000E+00;  0.0000000E+00;0; -3.5897784E-02;  4.0000000E+04;  0.0000000E+00;  0.0000000E+00;  4.0000000E+04;  0.0000000E+00;  4.0000000E+04; -3.4560859E-02;  0.0000000E+00; -1.3369237E-03;  7.1617466E+03;
  1.9000000E-01;  9.9999998E-03; -3.7000000E-01;2398;  0.0000000E+00;  0.0000000E+00;  0.0000000E+00;  1.0008011E+03;  1.0000000E-01;  6.6378363E+02;0;  0.0000000E+00;  0.0000000E+00;  0.0000000E+00;0; -5.4284912E-02;  4.0000000E+04;  0.0000000E+00;  0.0000000E+00;  4.0000000E+04;  0.0000000E+00;  4.0000000E+04; -5.2434370E-02;  0.0000000E+00; -1.8505420E-03;  6.0917902E+04;
  1.9000000E-01;  9.9999998E-03; -3.6000001E-01;2399;  0.0000000E+00;  0.0000000E+00;  0.0000000E+00;  1.0011426E+03;  1.0000000E-01;  9.4663983E+02;0;  0.0000000E+00;  0.0000000E+00;  0.0000000E+00;0; -7.7648364E-02;  4.0000000E+04;  0.0000000E+00;  0.0000000E+00;  4.0000000E+04;  0.0000000E+00;  4.0000000E+04; -7.5317539E-02;  0.0000000E+00; -2.3308259E-03;  1.3762680E+05;
  1.9000000E-01;  9.9999998E-03; -3.4999999E-01;2400;  0.0000000E+00;  0.0000000E+00;  0.0000000E+00;  1.0015510E+03;  1.0000000E-01;  1.2849019E+03;0;  0.0000000E+00;  0.0000000E+00;  0.0000000E+00;0; -1.0553929E-01;  4.0000000E+04;  0.0000000E+00;  0.0000000E+00;  4.0000000E+04;  0.0000000E+00;  4.0000000E+04; -1.0283318E-01;  0.0000000E+00; -2.7061133E-03;  2.2759873E+05;
  1.9000000E-01;  9.9999998E-03; -3.4000000E-01;2401;  0.0000000E+00;  0.0000000E+00;  0.0000000E+00;  1.0020085E+03;  1.0000000E-01;  1.6640516E+03;0;  0.0000000E+00;  0.0000000E+00;  0.0000000E+00;0; -1.3677928E-01;  4.0000000E+04;  0.0000000E+00;  0.0000000E+00;  4.0000000E+04;  0.0000000E+00;  4.0000000E+04; -1.3388117E-01;  0.0000000E+00; -2.8981077E-03;  3.2194144E+05;
  1.9000000E-01;  9.9999998E-03; -3.3000001E-01;2402;  0.0000000E+00;  0.0000000E+00;  0.0000000E+00;  1.0024898E+03;  1.0000000E-01;  2.0627563E+03;0;  0.0000000E+00;  0.0000000E+00;  0.0000000E+00;0; -1.6953427E-01;  4.0000000E+04;  0.0000000E+00;  0.0000000E+00;  4.0000000E+04;  0.0000000E+00;  4.0000000E+04; -1.6670185E-01;  0.0000000E+00; -2.8324095E-03;  4.0795484E+05;
  1.9000000E-01;  9.9999998E-03; -3.1999999E-01;2403;  0.0000000E+00;  0.0000000E+00;  0.0000000E+00;  1.0029605E+03;  1.0000000E-01;  2.4527700E+03;0;  0.0000000E+00;  0.0000000E+00;  0.0000000E+00;0; -2.0157874E-01;  4.0000000E+04;  0.0000000E+00;  0.0000000E+00;  4.0000000E+04;  0.0000000E+00;  4.0000000E+04; -1.9912009E-01;  0.0000000E+00; -2.4586539E-03;  4.7035897E+05;
  1.9000000E-01;  9.9999998E-03; -3.1000000E-01;2404;  0.0000000E+00;  0.0000000E+00;  0.0000000E+00;  1.0033845E+03;  1.0000000E-01;  2.8039700E+03;0;  0.0000000E+00;  0.0000000E+00;  0.0000000E+00;0; -2.3069565E-01;  4.0000000E+04;  0.0000000E+00;  0.0000000E+00;  4.0000000E+04;  0.0000000E+00;  4.0000000E+04; -2.2892013E-01;  0.0000000E+00; -1.7755176E-03;  4.9470322E+05;
  2.0000000E-01;  9.9999998E-03; -4.4000000E-01;2420;  0.0000000E+00;  0.0000000E+00;  0.0000000E+00;  1.0000089E+03;  1.0000000E-01;  7.4071975E+00;0;  0.0000000E+00;  0.0000000E+00;  0.0000000E+00;0; -4.6988818E-04;  4.0000000E+04;  0.0000000E+00;  0.0000000E+00;  4.0000000E+04;  0.0000000E+00;  4.0000000E+04; -4.8657935E-04;  0.0000000E+00;  1.6691167E-05;  2.2608279E+04;
  2.0000000E-01;  9.9999998E-03; -4.3000001E-01;2421;  0.0000000E+00;  0.0000000E+00;  0.0000000E+00;  1.0000280E+03;  1.0000000E-01;  2.3110456E+01;0;  0.0000000E+00;  0.0000000E+00;  0.0000000E+00;0; -1.5587895E-03;  4.0000000E+04;  0.0000000E+00;  0.0000000E+00;  4.0000000E+04;  0.0000000E+00;  4.0000000E+04; -1.4953769E-03;  0.0000000E+00; -6.3412532E-05;  4.4810145E+04;
  2.0000000E-01;  9.9999998E-03; -4.1999999E-01;2422;  0.0000000E+00;  0.0000000E+00;  0.0000000E+00;  1.0000624E+03;  1.0000000E-01;  5.1751617E+01;0;  0.0000000E+00;  0.0000000E+00;  0.0000000E+00;0; -3.8423045E-03;  4.0000000E+04;  0.0000000E+00;  0.0000000E+00;  4.0000000E+04;  0.0000000E+00;  4.0000000E+04; -3.5654483E-03;  0.0000000E+00; -2.7685618E-04;  6.6221266E+04;
  2.0000000E-01;  9.9999998E-03; -4.1000000E-01;2423;  0.0000000E+00;  0.0000000E+00;  0.0000000E+00;  1.0001269E+03;  1.0000000E-01;  1.0508344E+02;0;  0.0000000E+00;  0.0000000E+00;  0.0000000E+00;0; -7.9437429E-03;  4.0000000E+04;  0.0000000E+00;  0.0000000E+00;  4.0000000E+04;  0.0000000E+00;  4.0000000E+04; -7.3012928E-03;  0.0000000E+00; -6.4244965E-04;  7.8094391E+04;
  2.0000000E-01;  9.9999998E-03; -4.0000001E-01;2424;  0.0000000E+00;  0.0000000E+00;  0.0000000E+00;  1.0002267E+03;  1.0000000E-01;  1.8784653E+02;0;  0.0000000E+00;  0.0000000E+00;  0.0000000E+00;0; -1.4639247E-02;  4.0000000E+04;  0.0000000E+00;  0.0000000E+00;  4.0000000E+04;  0.0000000E+00;  4.0000000E+04; -1.3494187E-02;  0.0000000E+00; -1.1450597E-03;  7.3544648E+04;
  2.0000000E-01;  9.9999998E-03; -3.8999999E-01;2425;  0.0000000E+00;  0.0000000E+00;  0.0000000E+00;  1.0003773E+03;  1.0000000E-01;  3.1258374E+02;0;  0.0000000E+00;  0.0000000E+00;  0.0000000E+00;0; -2.4816073E-02;  4.0000000E+04;  0.0000000E+00;  0.0000000E+00;  4.0000000E+04;  0.0000000E+00;  4.0000000E+04; -2.3066808E-02;  0.0000000E+00; -1.7492659E-03;  4.8355332E+04;
  2.0000000E-01;  9.9999998E-03; -3.8000000E-01;2426;  0.0000000E+00;  0.0000000E+00;  0.0000000E+00;  1.0005925E+03;  1.0000000E-01;  4.9085028E+02;0;  0.0000000E+00;  0.0000000E+00;  0.0000000E+00;0; -3.9341737E-02;  4.0000000E+04;  0.0000000E+00;  0.0000000E+00;  4.0000000E+04;  0.0000000E+00;  4.0000000E+04; -3.6933664E-02;  0.0000000E+00; -2.4080707E-03;  6.9314663E+03;
  2.0000000E-01;  9.9999998E-03; -3.7000000E-01;2427;  0.0000000E+00;  0.0000000E+00;  0.0000000E+00;  1.0008800E+03;  1.0000000E-01;  7.2906573E+02;0;  0.0000000E+00;  0.0000000E+00;  0.0000000E+00;0; -5.8859691E-02;  4.0000000E+04;  0.0000000E+00;  0.0000000E+00;  4.0000000E+04;  0.0000000E+00;  4.0000000E+04; -5.5794854E-02;  0.0000000E+00; -3.0648373E-03;  7.1800609E+04;
  2.0000000E-01;  9.9999998E-03; -3.6000001E-01;2428;  0.0000000E+00;  0.0000000E+00;  0.0000000E+00;  1.0012430E+03;  1.0000000E-01;  1.0297980E+03;0;  0.0000000E+00;  0.0000000E+00;  0.0000000E+00;0; -8.3544493E-02;  4.0000000E+04;  0.0000000E+00;  0.0000000E+00;  4.0000000E+04;  0.0000000E+00;  4.0000000E+04; -7.9892904E-02;  0.0000000E+00; -3.6515871E-03;  1.6307636E+05;
  2.0000000E-01;  9.9999998E-03; -3.4999999E-01;2429;  0.0000000E+00;  0.0000000E+00;  0.0000000E+00;  1.0016764E+03;  1.0000000E-01;  1.3888989E+03;0;  0.0000000E+00;  0.0000000E+00;  0.0000000E+00;0; -1.1288870E-01;  4.0000000E+04;  0.0000000E+00;  0.0000000E+00;  4.0000000E+04;  0.0000000E+00;  4.0000000E+04; -1.0880157E-01;  0.0000000E+00; -4.0871296E-03;  2.6891947E+05;
  2.0000000E-01;  9.9999998E-03; -3.4000000E-01;2430;  0.0000000E+00;  0.0000000E+00;  0.0000000E+00;  1.0021588E+03;  1.0000000E-01;  1.7884924E+03;0;  0.0000000E+00;  0.0000000E+00;  0.0000000E+00;0; -1.4559637E-01;  4.0000000E+04;  0.0000000E+00;  0.0000000E+00;  4.0000000E+04;  0.0000000E+00;  4.0000000E+04; -1.4131767E-01;  0.0000000E+00; -4.2787003E-03;  3.7902703E+05;
  2.0000000E-01;  9.9999998E-03; -3.3000001E-01;2431;  0.0000000E+00;  0.0000000E+00;  0.0000000E+00;  1.0026624E+03;  1.0000000E-01;  2.2057646E+03;0;  0.0000000E+00;  0.0000000E+00;  0.0000000E+00;0; -1.7966031E-01;  4.0000000E+04;  0.0000000E+00;  0.0000000E+00;  4.0000000E+04;  0.0000000E+00;  4.0000000E+04; -1.7552759E-01;  0.0000000E+00; -4.1327206E-03;  4.7873316E+05;
  2.0000000E-01;  9.9999998E-03; -3.1999999E-01;2432;  0.0000000E+00;  0.0000000E+00;  0.0000000E+00;  1.0031470E+03;  1.0000000E-01;  2.6072346E+03;0;  0.0000000E+00;  0.0000000E+00;  0.0000000E+00;0; -2.1264540E-01;  4.0000000E+04;  0.0000000E+00;  0.0000000E+00;  4.0000000E+04;  0.0000000E+00;  4.0000000E+04; -2.0906334E-01;  0.0000000E+00; -3.5820631E-03;  5.5028744E+05;
  2.0000000E-01;  9.9999998E-03; -3.1000000E-01;2433;  0.0000000E+00;  0.0000000E+00;  0.0000000E+00;  1.0035759E+03;  1.0000000E-01;  2.9625828E+03;0;  0.0000000E+00;  0.0000000E+00;  0.0000000E+00;0; -2.4214189E-01;  4.0000000E+04;  0.0000000E+00;  0.0000000E+00;  4.0000000E+04;  0.0000000E+00;  4.0000000E+04; -2.3950784E-01;  0.0000000E+00; -2.6340436E-03;  5.7661275E+05;
 -1.9000000E-01;  9.9999998E-03; -2.7000001E-01;107;  0.0000000E+00;  0.0000000E+00;  0.0000000E+00;  1.0000000E+03;  1.0000000E-01;  0.0000000E+00;0;  0.0000000E+00;  0.0000000E+00;  0.0000000E+00;0;  0.0000000E+00;  4.0000000E+04;  0.0000000E+00;  0.0000000E+00;  4.0000000E+04;  0.0000000E+00;  4.0000000E+04;  0.0000000E+00;  0.0000000E+00;  0.0000000E+00;  0.0000000E+00;
 -1.9000000E-01;  9.9999998E-03; -2.5999999E-01;108;  0.0000000E+00;  0.0000000E+00;  0.0000000E+00;  1.0000000E+03;  1.0000000E-01;  0.0000000E+00;0;  0.0000000E+00;  0.0000000E+00;  0.0000000E+00;0;  0.0000000E+00;  4.0000000E+04;  0.0000000E+00;  0.0000000E+00;  4.0000000E+04;  0.0000000E+00;  4.0000000E+04;  0.0000000E+00;  0.0000000E+00;  0.0000000E+00;  0.0000000E+00;
 -1.9000000E-01;  9.9999998E-03; -2.5000000E-01;109;  0.0000000E+00;  0.0000000E+00;  0.0000000E+00;  1.0000000E+03;  1.0000000E-01;  0.0000000E+00;0;  0.0000000E+00;  0.0000000E+00;  0.0000000E+00;0;  0.0000000E+00;  4.0000000E+04;  0.0000000E+00;  0.0000000E+00;  4.0000000E+04;  0.0000000E+00;  4.0000000E+04;  0.0000000E+00;  0.0000000E+00;  0.0000000E+00;  0.0000000E+00;
 -1.9000000E-01;  9.9999998E-03; -2.3999999E-01;110;  0.0000000E+00;  0.0000000E+00;  0.0000000E+00;  1.0000000E+03;  1.0000000E-01;  0.0000000E+00;0;  0.0000000E+00;  0.0000000E+00;  0.0000000E+00;0;  0.0000000E+00;  4.0000000E+04;  0.0000000E+00;  0.0000000E+00;  4.0000000E+04;  0.0000000E+00;  4.0000000E+04;  0.0000000E+00;  0.0000000E+00;  0.0000000E+00;  0.0000000E+00;
 -1.9000000E-01;  9.9999998E-03; -2.3000000E-01;111;  0.0000000E+00;  0.0000000E+00;  0.0000000E+00;  1.0000000E+03;  1.0000000E-01;  0.0000000E+00;0;  0.0000000E+00;  0.0000000E+00;  0.0000000E+00;0;  0.0000000E+00;  4.0000000E+04;  0.0000000E+00;  0.0000000E+00;  4.0000000E+04;  0.0000000E+00;  4.0000000E+04;  0.0000000E+00;  0.0000000E+00;  0.0000000E+00;  0.0000000E+00;
 -1.9000000E-01;  9.9999998E-03; -2.2000000E-01;112;  0.0000000E+00;  0.0000000E+00;  0.0000000E+00;  1.0000000E+03;  1.0000000E-01;  0.0000000E+00;0;  0.0000000E+00;  0.0000000E+00;  0.0000000E+00;0;  0.0000000E+00;  4.0000000E+04;  0.0000000E+00;  0.0000000E+00;  4.0000000E+04;  0.0000000E+00;  4.0000000E+04;  0.0000000E+00;  0.0000000E+00;  0.0000000E+00;  0.0000000E+00;
 -1.9000000E-01;  9.9999998E-03; -2.0999999E-01;113;  0.0000000E+00;  0.0000000E+00;  0.0000000E+00;  1.0000000E+03;  1.0000000E-01;  0.0000000E+00;0;  0.0000000E+00;  0.0000000E+00;  0.0000000E+00;0;  0.0000000E+00;  4.0000000E+04;  0.0000000E+00;  0.0000000E+00;  4.0000000E+04;  0.0000000E+00;  4.0000000E+04;  0.0000000E+00;  0.0000000E+00;  0.0000000E+00;  0.0000000E+00;
 -1.9000000E-01;  9.9999998E-03; -2.0000000E-01;114;  0.0000000E+00;  0.0000000E+00;  0.0000000E+00;  1.0000000E+03;  1.0000000E-01;  0.0000000E+00;0;  0.0000000E+00;  0.0000000E+00;  0.0000000E+00;0;  0.0000000E+00;  4.0000000E+04;  0.0000000E+00;  0.0000000E+00;  4.0000000E+04;  0.0000000E+00;  4.0000000E+04;  0.0000000E+00;  0.0000000E+00;  0.0000000E+00;  0.0000000E+00;
 -1.9000000E-01;  9.9999998E-03; -1.9000000E-01;115;  0.0000000E+00;  0.0000000E+00;  0.0000000E+00;  1.0000000E+03;  1.0000000E-01;  0.0000000E+00;0;  0.0000000E+00;  0.0000000E+00;  0.0000000E+00;0;  0.0000000E+00;  4.0000000E+04;  0.0000000E+00;  0.0000000E+00;  4.0000000E+04;  0.0000000E+00;  4.0000000E+04;  0.0000000E+00;  0.0000000E+00;  0.0000000E+00;  0.0000000E+00;
 -1.9000000E-01;  9.9999998E-03; -1.8000001E-01;116;  0.0000000E+00;  0.0000000E+00;  0.0000000E+00;  1.0000000E+03;  1.0000000E-01;  0.0000000E+00;0;  0.0000000E+00;  0.0000000E+00;  0.0000000E+00;0;  0.0000000E+00;  4.0000000E+04;  0.0000000E+00;  0.0000000E+00;  4.0000000E+04;  0.0000000E+00;  4.0000000E+04;  0.0000000E+00;  0.0000000E+00;  0.0000000E+00;  0.0000000E+00;
 -1.9000000E-01;  9.9999998E-03; -1.7000000E-01;117;  0.0000000E+00;  0.0000000E+00;  0.0000000E+00;  1.0000000E+03;  1.0000000E-01;  0.0000000E+00;0;  0.0000000E+00;  0.0000000E+00;  0.0000000E+00;0;  0.0000000E+00;  4.0000000E+04;  0.0000000E+00;  0.0000000E+00;  4.0000000E+04;  0.0000000E+00;  4.0000000E+04;  0.0000000E+00;  0.0000000E+00;  0.0000000E+00;  0.0000000E+00;
 -1.9000000E-01;  9.9999998E-03; -1.6000000E-01;118;  0.0000000E+00;  0.0000000E+00;  0.0000000E+00;  1.0000000E+03;  1.0000000E-01;  0.0000000E+00;0;  0.0000000E+00;  0.0000000E+00;  0.0000000E+00;0;  0.0000000E+00;  4.0000000E+04;  0.0000000E+00;  0.0000000E+00;  4.0000000E+04;  0.0000000E+00;  4.0000000E+04;  0.0000000E+00;  0.0000000E+00;  0.0000000E+00;  0.0000000E+00;
 -1.9000000E-01;  9.9999998E-03; -1.5000001E-01;119;  0.0000000E+00;  0.0000000E+00;  0.0000000E+00;  1.0000000E+03;  1.0000000E-01;  0.0000000E+00;0;  0.0000000E+00;  0.0000000E+00;  0.0000000E+00;0;  0.0000000E+00;  4.0000000E+04;  0.0000000E+00;  0.0000000E+00;  4.0000000E+04;  0.0000000E+00;  4.0000000E+04;  0.0000000E+00;  0.0000000E+00;  0.0000000E+00;  0.0000000E+00;
 -1.9000000E-01;  9.9999998E-03; -1.4000000E-01;120;  0.0000000E+00;  0.0000000E+00;  0.0000000E+00;  1.0000000E+03;  1.0000000E-01;  0.0000000E+00;0;  0.0000000E+00;  0.0000000E+00;  0.0000000E+00;0;  0.0000000E+00;  4.0000000E+04;  0.0000000E+00;  0.0000000E+00;  4.0000000E+04;  0.0000000E+00;  4.0000000E+04;  0.0000000E+00;  0.0000000E+00;  0.0000000E+00;  0.0000000E+00;
 -1.9000000E-01;  9.9999998E-03; -1.3000000E-01;121;  0.0000000E+00;  0.0000000E+00;  0.0000000E+00;  1.0000000E+03;  1.0000000E-01;  0.0000000E+00;0;  0.0000000E+00;  0.0000000E+00;  0.0000000E+00;0;  0.0000000E+00;  4.0000000E+04;  0.0000000E+00;  0.0000000E+00;  4.0000000E+04;  0.0000000E+00;  4.0000000E+04;  0.0000000E+00;  0.0000000E+00;  0.0000000E+00;  0.0000000E+00;
 -1.9000000E-01;  9.9999998E-03; -1.2000000E-01;122;  0.0000000E+00;  0.0000000E+00;  0.0000000E+00;  1.0000000E+03;  1.0000000E-01;  0.0000000E+00;0;  0.0000000E+00;  0.0000000E+00;  0.0000000E+00;0;  0.0000000E+00;  4.0000000E+04;  0.0000000E+00;  0.0000000E+00;  4.0000000E+04;  0.0000000E+00;  4.0000000E+04;  0.0000000E+00;  0.0000000E+00;  0.0000000E+00;  0.0000000E+00;
 -1.9000000E-01;  9.9999998E-03; -1.1000000E-01;123;  0.0000000E+00;  0.0000000E+00;  0.0000000E+00;  1.0000000E+03;  1.0000000E-01;  0.0000000E+00;0;  0.0000000E+00;  0.0000000E+00;  0.0000000E+00;0;  0.0000000E+00;  4.0000000E+04;  0.0000000E+00;  0.0000000E+00;  4.0000000E+04;  0.0000000E+00;  4.0000000E+04;  0.0000000E+00;  0.0000000E+00;  0.0000000E+00;  0.0000000E+00;
 -1.8000001E-01;  9.9999998E-03; -2.7000001E-01;198;  0.0000000E+00;  0.0000000E+00;  0.0000000E+00;  1.0000000E+03;  1.0000000E-01;  0.0000000E+00;0;  0.0000000E+00;  0.0000000E+00;  0.0000000E+00;0;  0.0000000E+00;  4.0000000E+04;  0.0000000E+00;  0.0000000E+00;  4.0000000E+04;  0.0000000E+00;  4.0000000E+04;  0.0000000E+00;  0.0000000E+00;  0.0000000E+00;  0.0000000E+00;
 -1.8000001E-01;  9.9999998E-03; -2.5999999E-01;199;  0.0000000E+00;  0.0000000E+00;  0.0000000E+00;  1.0000000E+03;  1.0000000E-01;  0.0000000E+00;0;  0.0000000E+00;  0.0000000E+00;  0.0000000E+00;0;  0.0000000E+00;  4.0000000E+04;  0.0000000E+00;  0.0000000E+00;  4.0000000E+04;  0.0000000E+00;  4.0000000E+04;  0.0000000E+00;  0.0000000E+00;  0.0000000E+00;  0.0000000E+00;
 -1.8000001E-01;  9.9999998E-03; -2.5000000E-01;200;  0.0000000E+00;  0.0000000E+00;  0.0000000E+00;  1.0000000E+03;  1.0000000E-01;  0.0000000E+00;0;  0.0000000E+00;  0.0000000E+00;  0.0000000E+00;0;  0.0000000E+00;  4.0000000E+04;  0.0000000E+00;  0.0000000E+00;  4.0000000E+04;  0.0000000E+00;  4.0000000E+04;  0.0000000E+00;  0.0000000E+00;  0.0000000E+00;  0.0000000E+00;
 -1.8000001E-01;  9.9999998E-03; -2.3999999E-01;201;  0.0000000E+00;  0.0000000E+00;  0.0000000E+00;  1.0000000E+03;  1.0000000E-01;  0.0000000E+00;0;  0.0000000E+00;  0.0000000E+00;  0.0000000E+00;0;  0.0000000E+00;  4.0000000E+04;  0.0000000E+00;  0.0000000E+00;  4.0000000E+04;  0.0000000E+00;  4.0000000E+04;  0.0000000E+00;  0.0000000E+00;  0.0000000E+00;  0.0000000E+00;
 -1.8000001E-01;  9.9999998E-03; -2.3000000E-01;202;  0.0000000E+00;  0.0000000E+00;  0.0000000E+00;  1.0000000E+03;  1.0000000E-01;  0.0000000E+00;0;  0.0000000E+00;  0.0000000E+00;  0.0000000E+00;0;  0.0000000E+00;  4.0000000E+04;  0.0000000E+00;  0.0000000E+00;  4.0000000E+04;  0.0000000E+00;  4.0000000E+04;  0.0000000E+00;  0.0000000E+00;  0.0000000E+00;  0.0000000E+00;
 -1.8000001E-01;  9.9999998E-03; -2.2000000E-01;203;  0.0000000E+00;  0.0000000E+00;  0.0000000E+00;  1.0000000E+03;  1.0000000E-01;  0.0000000E+00;0;  0.0000000E+00;  0.0000000E+00;  0.0000000E+00;0;  0.0000000E+00;  4.0000000E+04;  0.0000000E+00;  0.0000000E+00;  4.0000000E+04;  0.0000000E+00;  4.0000000E+04;  0.0000000E+00;  0.0000000E+00;  0.0000000E+00;  0.0000000E+00;
 -1.8000001E-01;  9.9999998E-03; -2.0999999E-01;204;  0.0000000E+00;  0.0000000E+00;  0.0000000E+00;  1.0000000E+03;  1.0000000E-01;  0.0000000E+00;0;  0.0000000E+00;  0.0000000E+00;  0.0000000E+00;0;  0.0000000E+00;  4.0000000E+04;  0.0000000E+00;  0.0000000E+00;  4.0000000E+04;  0.0000000E+00;  4.0000000E+04;  0.0000000E+00;  0.0000000E+00;  0.0000000E+00;  0.0000000E+00;
 -1.8000001E-01;  9.9999998E-03; -2.0000000E-01;205;  0.0000000E+00;  0.0000000E+00;  0.0000000E+00;  1.0000000E+03;  1.0000000E-01;  0.0000000E+00;0;  0.0000000E+00;  0.0000000E+00;  0.0000000E+00;0;  0.0000000E+00;  4.0000000E+04;  0.0000000E+00;  0.0000000E+00;  4.0000000E+04;  0.0000000E+00;  4.0000000E+04;  0.0000000E+00;  0.0000000E+00;  0.0000000E+00;  0.0000000E+00;
 -1.8000001E-01;  9.9999998E-03; -1.9000000E-01;206;  0.0000000E+00;  0.0000000E+00;  0.0000000E+00;  1.0000000E+03;  1.0000000E-01;  0.0000000E+00;0;  0.0000000E+00;  0.0000000E+00;  0.0000000E+00;0;  0.0000000E+00;  4.0000000E+04;  0.0000000E+00;  0.0000000E+00;  4.0000000E+04;  0.0000000E+00;  4.0000000E+04;  0.0000000E+00;  0.0000000E+00;  0.0000000E+00;  0.0000000E+00;
 -1.8000001E-01;  9.9999998E-03; -1.8000001E-01;207;  0.0000000E+00;  0.0000000E+00;  0.0000000E+00;  1.0000000E+03;  1.0000000E-01;  0.0000000E+00;0;  0.0000000E+00;  0.0000000E+00;  0.0000000E+00;0;  0.0000000E+00;  4.0000000E+04;  0.0000000E+00;  0.0000000E+00;  4.0000000E+04;  0.0000000E+00;  4.0000000E+04;  0.0000000E+00;  0.0000000E+00;  0.0000000E+00;  0.0000000E+00;
 -1.8000001E-01;  9.9999998E-03; -1.7000000E-01;208;  0.0000000E+00;  0.0000000E+00;  0.0000000E+00;  1.0000000E+03;  1.0000000E-01;  0.0000000E+00;0;  0.0000000E+00;  0.0000000E+00;  0.0000000E+00;0;  0.0000000E+00;  4.0000000E+04;  0.0000000E+00;  0.0000000E+00;  4.0000000E+04;  0.0000000E+00;  4.0000000E+04;  0.0000000E+00;  0.0000000E+00;  0.0000000E+00;  0.0000000E+00;
 -1.8000001E-01;  9.9999998E-03; -1.6000000E-01;209;  0.0000000E+00;  0.0000000E+00;  0.0000000E+00;  1.0000000E+03;  1.0000000E-01;  0.0000000E+00;0;  0.0000000E+00;  0.0000000E+00;  0.0000000E+00;0;  0.0000000E+00;  4.0000000E+04;  0.0000000E+00;  0.0000000E+00;  4.0000000E+04;  0.0000000E+00;  4.0000000E+04;  0.0000000E+00;  0.0000000E+00;  0.0000000E+00;  0.0000000E+00;
 -1.8000001E-01;  9.9999998E-03; -1.5000001E-01;210;  0.0000000E+00;  0.0000000E+00;  0.0000000E+00;  1.0000000E+03;  1.0000000E-01;  0.0000000E+00;0;  0.0000000E+00;  0.0000000E+00;  0.0000000E+00;0;  0.0000000E+00;  4.0000000E+04;  0.0000000E+00;  0.0000000E+00;  4.0000000E+04;  0.0000000E+00;  4.0000000E+04;  0.0000000E+00;  0.0000000E+00;  0.0000000E+00;  0.0000000E+00;
 -1.8000001E-01;  9.9999998E-03; -1.4000000E-01;211;  0.0000000E+00;  0.0000000E+00;  0.0000000E+00;  1.0000000E+03;  1.0000000E-01;  0.0000000E+00;0;  0.0000000E+00;  0.0000000E+00;  0.0000000E+00;0;  0.0000000E+00;  4.0000000E+04;  0.0000000E+00;  0.0000000E+00;  4.0000000E+04;  0.0000000E+00;  4.0000000E+04;  0.0000000E+00;  0.0000000E+00;  0.0000000E+00;  0.0000000E+00;
 -1.8000001E-01;  9.9999998E-03; -1.3000000E-01;212;  0.0000000E+00;  0.0000000E+00;  0.0000000E+00;  1.0000000E+03;  1.0000000E-01;  0.0000000E+00;0;  0.0000000E+00;  0.0000000E+00;  0.0000000E+00;0;  0.0000000E+00;  4.0000000E+04;  0.0000000E+00;  0.0000000E+00;  4.0000000E+04;  0.0000000E+00;  4.0000000E+04;  0.0000000E+00;  0.0000000E+00;  0.0000000E+00;  0.0000000E+00;
 -1.8000001E-01;  9.9999998E-03; -1.2000000E-01;213;  0.0000000E+00;  0.0000000E+00;  0.0000000E+00;  1.0000000E+03;  1.0000000E-01;  0.0000000E+00;0;  0.0000000E+00;  0.0000000E+00;  0.0000000E+00;0;  0.0000000E+00;  4.0000000E+04;  0.0000000E+00;  0.0000000E+00;  4.0000000E+04;  0.0000000E+00;  4.0000000E+04;  0.0000000E+00;  0.0000000E+00;  0.0000000E+00;  0.0000000E+00;
 -1.8000001E-01;  9.9999998E-03; -1.1000000E-01;214;  0.0000000E+00;  0.0000000E+00;  0.0000000E+00;  1.0000000E+03;  1.0000000E-01;  0.0000000E+00;0;  0.0000000E+00;  0.0000000E+00;  0.0000000E+00;0;  0.0000000E+00;  4.0000000E+04;  0.0000000E+00;  0.0000000E+00;  4.0000000E+04;  0.0000000E+00;  4.0000000E+04;  0.0000000E+00;  0.0000000E+00;  0.0000000E+00;  0.0000000E+00;
 -1.7000000E-01;  9.9999998E-03; -2.7000001E-01;289;  0.0000000E+00;  0.0000000E+00;  0.0000000E+00;  1.0000000E+03;  1.0000000E-01;  0.0000000E+00;0;  0.0000000E+00;  0.0000000E+00;  0.0000000E+00;0;  0.0000000E+00;  4.0000000E+04;  0.0000000E+00;  0.0000000E+00;  4.0000000E+04;  0.0000000E+00;  4.0000000E+04;  0.0000000E+00;  0.0000000E+00;  0.0000000E+00;  9.0627929E-11;
 -1.7000000E-01;  9.9999998E-03; -2.5999999E-01;290;  0.0000000E+00;  0.0000000E+00;  0.0000000E+00;  1.0000000E+03;  1.0000000E-01;  0.0000000E+00;0;  0.0000000E+00;  0.0000000E+00;  0.0000000E+00;0;  0.0000000E+00;  4.0000000E+04;  0.0000000E+00;  0.0000000E+00;  4.0000000E+04;  0.0000000E+00;  4.0000000E+04;  0.0000000E+00;  0.0000000E+00;  0.0000000E+00;  2.4658295E-10;
 -1.7000000E-01;  9.9999998E-03; -2.5000000E-01;291;  0.0000000E+00;  0.0000000E+00;  0.0000000E+00;  1.0000000E+03;  1.0000000E-01;  0.0000000E+00;0;  0.0000000E+00;  0.0000000E+00;  0.0000000E+00;0;  0.0000000E+00;  4.0000000E+04;  0.0000000E+00;  0.0000000E+00;  4.0000000E+04;  0.0000000E+00;  4.0000000E+04;  0.0000000E+00;  0.0000000E+00;  0.0000000E+00;  4.6683907E-10;
 -1.7000000E-01;  9.9999998E-03; -2.3999999E-01;292;  0.0000000E+00;  0.0000000E+00;  0.0000000E+00;  1.0000000E+03;  1.0000000E-01;  0.0000000E+00;0;  0.0000000E+00;  0.0000000E+00;  0.0000000E+00;0;  0.0000000E+00;  4.0000000E+04;  0.0000000E+00;  0.0000000E+00;  4.0000000E+04;  0.0000000E+00;  4.0000000E+04;  0.0000000E+00;  0.0000000E+00;  0.0000000E+00;  7.1558121E-10;
 -1.7000000E-01;  9.9999998E-03; -2.3000000E-01;293;  0.0000000E+00;  0.0000000E+00;  0.0000000E+00;  1.0000000E+03;  1.0000000E-01;  0.0000000E+00;0;  0.0000000E+00;  0.0000000E+00;  0.0000000E+00;0;  0.0000000E+00;  4.0000000E+04;  0.0000000E+00;  0.0000000E+00;  4.0000000E+04;  0.0000000E+00;  4.0000000E+04;  0.0000000E+00;  0.0000000E+00;  0.0000000E+00;  9.6112662E-10;
 -1.7000000E-01;  9.9999998E-03; -2.2000000E-01;294;  0.0000000E+00;  0.0000000E+00;  0.0000000E+00;  1.0000000E+03;  1.0000000E-01;  0.0000000E+00;0;  0.0000000E+00;  0.0000000E+00;  0.0000000E+00;0;  0.0000000E+00;  4.0000000E+04;  0.0000000E+00;  0.0000000E+00;  4.0000000E+04;  0.0000000E+00;  4.0000000E+04;  0.0000000E+00;  0.0000000E+00;  0.0000000E+00;  1.1699183E-09;
 -1.7000000E-01;  9.9999998E-03; -2.0999999E-01;295;  0.0000000E+00;  0.0000000E+00;  0.0000000E+00;  1.0000000E+03;  1.0000000E-01;  0.0000000E+00;0;  0.0000000E+00;  0.0000000E+00;  0.0000000E+00;0;  0.0000000E+00;  4.0000000E+04;  0.0000000E+00;  0.0000000E+00;  4.0000000E+04;  0.0000000E+00;  4.0000000E+04;  0.0000000E+00;  0.0000000E+00;  0.0000000E+00;  1.3086691E-09;
 -1.7000000E-01;  9.9999998E-03; -2.0000000E-01;296;  0.0000000E+00;  0.0000000E+00;  0.0000000E+00;  1.0000000E+03;  1.0000000E-01;  0.0000000E+00;0;  0.0000000E+00;  0.0000000E+00;  0.0000000E+00;0;  0.0000000E+00;  4.0000000E+04;  0.0000000E+00;  0.0000000E+00;  4.0000000E+04;  0.0000000E+00;  4.0000000E+04;  0.0000000E+00;  0.0000000E+00;  0.0000000E+00;  1.3572687E-09;
 -1.7000000E-01;  9.9999998E-03; -1.9000000E-01;297;  0.0000000E+00;  0.0000000E+00;  0.0000000E+00;  1.0000000E+03;  1.0000000E-01;  0.0000000E+00;0;  0.0000000E+00;  0.0000000E+00;  0.0000000E+00;0;  0.0000000E+00;  4.0000000E+04;  0.0000000E+00;  0.0000000E+00;  4.0000000E+04;  0.0000000E+00;  4.0000000E+04;  0.0000000E+00;  0.0000000E+00;  0.0000000E+00;  1.3804570E-09;
 -1.7000000E-01;  9.9999998E-03; -1.8000001E-01;298;  0.0000000E+00;  0.0000000E+00;  0.0000000E+00;  1.0000000E+03;  1.0000000E-01;  0.0000000E+00;0;  0.0000000E+00;  0.0000000E+00;  0.0000000E+00;0;  0.0000000E+00;  4.0000000E+04;  0.0000000E+00;  0.0000000E+00;  4.0000000E+04;  0.0000000E+00;  4.0000000E+04;  0.0000000E+00;  0.0000000E+00;  0.0000000E+00;  1.4541069E-09;
 -1.7000000E-01;  9.9999998E-03; -1.7000000E-01;299;  0.0000000E+00;  0.0000000E+00;  0.0000000E+00;  1.0000000E+03;  1.0000000E-01;  0.0000000E+00;0;  0.0000000E+00;  0.0000000E+00;  0.0000000E+00;0;  0.0000000E+00;  4.0000000E+04;  0.0000000E+00;  0.0000000E+00;  4.0000000E+04;  0.0000000E+00;  4.0000000E+04;  0.0000000E+00;  0.0000000E+00;  0.0000000E+00;  1.5733465E-09;
 -1.7000000E-01;  9.9999998E-03; -1.6000000E-01;300;  0.0000000E+00;  0.0000000E+00;  0.0000000E+00;  1.0000000E+03;  1.0000000E-01;  0.0000000E+00;0;  0.0000000E+00;  0.0000000E+00;  0.0000000E+00;0;  0.0000000E+00;  4.0000000E+04;  0.0000000E+00;  0.0000000E+00;  4.0000000E+04;  0.0000000E+00;  4.0000000E+04;  0.0000000E+00;  0.0000000E+00;  0.0000000E+00;  1.7068523E-09;
 -1.7000000E-01;  9.9999998E-03; -1.5000001E-01;301;  0.0000000E+00;  0.0000000E+00;  0.0000000E+00;  1.0000000E+03;  1.0000000E-01;  0.0000000E+00;0;  0.0000000E+00;  0.0000000E+00;  0.0000000E+00;0;  0.0000000E+00;  4.0000000E+04;  0.0000000E+00;  0.0000000E+00;  4.0000000E+04;  0.0000000E+00;  4.0000000E+04;  0.0000000E+00;  0.0000000E+00;  0.0000000E+00;  1.8278684E-09;
 -1.7000000E-01;  9.9999998E-03; -1.4000000E-01;302;  0.0000000E+00;  0.0000000E+00;  0.0000000E+00;  1.0000000E+03;  1.0000000E-01;  0.0000000E+00;0;  0.0000000E+00;  0.0000000E+00;  0.0000000E+00;0;  0.0000000E+00;  4.0000000E+04;  0.0000000E+00;  0.0000000E+00;  4.0000000E+04;  0.0000000E+00;  4.0000000E+04;  0.0000000E+00;  0.0000000E+00;  0.0000000E+00;  1.9071082E-09;
 -1.7000000E-01;  9.9999998E-03; -1.3000000E-01;303;  0.0000000E+00;  0.0000000E+00;  0.0000000E+00;  1.0000000E+03;  1.0000000E-01;  0.0000000E+00;0;  0.0000000E+00;  0.0000000E+00;  0.0000000E+00;0;  0.0000000E+00;  4.0000000E+04;  0.0000000E+00;  0.0000000E+00;  4.0000000E+04;  0.0000000E+00;  4.0000000E+04;  0.0000000E+00;  0.0000000E+00;  0.0000000E+00;  1.9297872E-09;
 -1.7000000E-01;  9.9999998E-03; -1.2000000E-01;304;  0.0000000E+00;  0.0000000E+00;  0.0000000E+00;  1.0000000E+03;  1.0000000E-01;  0.0000000E+00;0;  0.0000000E+00;  0.0000000E+00;  0.0000000E+00;0;  0.0000000E+00;  4.0000000E+04;  0.0000000E+00;  0.0000000E+00;  4.0000000E+04;  0.0000000E+00;  4.0000000E+04;  0.0000000E+00;  0.0000000E+00;  0.0000000E+00;  1.9547151E-09;
 -1.7000000E-01;  9.9999998E-03; -1.1000000E-01;305;  0.0000000E+00;  0.0000000E+00;  0.0000000E+00;  1.0000000E+03;  1.0000000E-01;  0.0000000E+00;0;  0.0000000E+00;  0.0000000E+00;  0.0000000E+00;0;  0.0000000E+00;  4.0000000E+04;  0.0000000E+00;  0.0000000E+00;  4.0000000E+04;  0.0000000E+00;  4.0000000E+04;  0.0000000E+00;  0.0000000E+00;  0.0000000E+00;  1.9624904E-09;
 -1.6000000E-01;  9.9999998E-03; -2.7000001E-01;380;  0.0000000E+00;  0.0000000E+00;  0.0000000E+00;  1.0000000E+03;  1.0000000E-01;  0.0000000E+00;0;  0.0000000E+00;  0.0000000E+00;  0.0000000E+00;0; -2.3203329E-06;  4.0000000E+04;  0.0000000E+00;  0.0000000E+00;  4.0000000E+04;  0.0000000E+00;  4.0000000E+04; -2.2933912E-06;  0.0000000E+00; -2.6941784E-08;  3.5815176E-02;
 -1.6000000E-01;  9.9999998E-03; -2.5999999E-01;381;  0.0000000E+00;  0.0000000E+00;  0.0000000E+00;  1.0000000E+03;  1.0000000E-01;  0.0000000E+00;0;  0.0000000E+00;  0.0000000E+00;  0.0000000E+00;0; -2.2550807E-06;  4.0000000E+04;  0.0000000E+00;  0.0000000E+00;  4.0000000E+04;  0.0000000E+00;  4.0000000E+04; -2.2812258E-06;  0.0000000E+00;  2.6144981E-08;  1.1997992E-01;
 -1.6000000E-01;  9.9999998E-03; -2.5000000E-01;382;  0.0000000E+00;  0.0000000E+00;  0.0000000E+00;  1.0000000E+03;  1.0000000E-01;  0.0000000E+00;0;  0.0000000E+00;  0.0000000E+00;  0.0000000E+00;0; -2.0800637E-06;  4.0000000E+04;  0.0000000E+00;  0.0000000E+00;  4.0000000E+04;  0.0000000E+00;  4.0000000E+04; -2.1365734E-06;  0.0000000E+00;  5.6509698E-08;  1.7711814E-01;
 -1.6000000E-01;  9.9999998E-03; -2.3999999E-01;383;  0.0000000E+00;  0.0000000E+00;  0.0000000E+00;  1.0000000E+03;  1.0000000E-01;  0.0000000E+00;0;  0.0000000E+00;  0.0000000E+00;  0.0000000E+00;0; -1.9132842E-06;  4.0000000E+04;  0.0000000E+00;  0.0000000E+00;  4.0000000E+04;  0.0000000E+00;  4.0000000E+04; -1.9788822E-06;  0.0000000E+00;  6.5597945E-08;  2.0867607E-01;
 -1.6000000E-01;  9.9999998E-03; -2.3000000E-01;384;  0.0000000E+00;  0.0000000E+00;  0.0000000E+00;  1.0000000E+03;  1.0000000E-01;  0.0000000E+00;0;  0.0000000E+00;  0.0000000E+00;  0.0000000E+00;0; -1.8195070E-06;  4.0000000E+04;  0.0000000E+00;  0.0000000E+00;  4.0000000E+04;  0.0000000E+00;  4.0000000E+04; -1.8849080E-06;  0.0000000E+00;  6.5401018E-08;  2.2979338E-01;
 -1.6000000E-01;  9.9999998E-03; -2.2000000E-01;385;  0.0000000E+00;  0.0000000E+00;  0.0000000E+00;  1.0000000E+03;  1.0000000E-01;  0.0000000E+00;0;  0.0000000E+00;  0.0000000E+00;  0.0000000E+00;0; -1.7919617E-06;  4.0000000E+04;  0.0000000E+00;  0.0000000E+00;  4.0000000E+04;  0.0000000E+00;  4.0000000E+04; -1.8517953E-06;  0.0000000E+00;  5.9833610E-08;  2.4607770E-01;
 -1.6000000E-01;  9.9999998E-03; -2.0999999E-01;386;  0.0000000E+00;  0.0000000E+00;  0.0000000E+00;  1.0000000E+03;  1.0000000E-01;  0.0000000E+00;0;  0.0000000E+00;  0.0000000E+00;  0.0000000E+00;0; -1.8133122E-06;  4.0000000E+04;  0.0000000E+00;  0.0000000E+00;  4.0000000E+04;  0.0000000E+00;  4.0000000E+04; -1.8645837E-06;  0.0000000E+00;  5.1271481E-08;  2.6007047E-01;
 -1.6000000E-01;  9.9999998E-03; -2.0000000E-01;387;  0.0000000E+00;  0.0000000E+00;  0.0000000E+00;  1.0000000E+03;  1.0000000E-01;  0.0000000E+00;0;  0.0000000E+00;  0.0000000E+00;  0.0000000E+00;0; -1.8668881E-06;  4.0000000E+04;  0.0000000E+00;  0.0000000E+00;  4.0000000E+04;  0.0000000E+00;  4.0000000E+04; -1.9084080E-06;  0.0000000E+00;  4.1519925E-08;  2.7236992E-01;
 -1.6000000E-01;  9.9999998E-03; -1.9000000E-01;388;  0.0000000E+00;  0.0000000E+00;  0.0000000E+00;  1.0000000E+03;  1.0000000E-01;  0.0000000E+00;0;  0.0000000E+00;  0.0000000E+00;  0.0000000E+00;0; -1.9395554E-06;  4.0000000E+04;  0.0000000E+00;  0.0000000E+00;  4.0000000E+04;  0.0000000E+00;  4.0000000E+04; -1.9714696E-06;  0.0000000E+00;  3.1914265E-08;  2.8243017E-01;
 -1.6000000E-01;  9.9999998E-03; -1.8000001E-01;389;  0.0000000E+00;  0.0000000E+00;  0.0000000E+00;  1.0000000E+03;  1.0000000E-01;  0.0000000E+00;0;  0.0000000E+00;  0.0000000E+00;  0.0000000E+00;0; -2.0220577E-06;  4.0000000E+04;  0.0000000E+00;  0.0000000E+00;  4.0000000E+04;  0.0000000E+00;  4.0000000E+04; -2.0454495E-06;  0.0000000E+00;  2.3391754E-08;  2.8954473E-01;
 -1.6000000E-01;  9.9999998E-03; -1.7000000E-01;390;  0.0000000E+00;  0.0000000E+00;  0.0000000E+00;  1.0000000E+03;  1.0000000E-01;  0.0000000E+00;0;  0.0000000E+00;  0.0000000E+00;  0.0000000E+00;0; -2.1081294E-06;  4.0000000E+04;  0.0000000E+00;  0.0000000E+00;  4.0000000E+04;  0.0000000E+00;  4.0000000E+04; -2.1246030E-06;  0.0000000E+00;  1.6473663E-08;  2.9331133E-01;
 -1.6000000E-01;  9.9999998E-03; -1.6000000E-01;391;  0.0000000E+00;  0.0000000E+00;  0.0000000E+00;  1.0000000E+03;  1.0000000E-01;  0.0000000E+00;0;  0.0000000E+00;  0.0000000E+00;  0.0000000E+00;0; -2.1936789E-06;  4.0000000E+04;  0.0000000E+00;  0.0000000E+00;  4.0000000E+04;  0.0000000E+00;  4.0000000E+04; -2.2049660E-06;  0.0000000E+00;  1.1287098E-08;  2.9376569E-01;
 -1.6000000E-01;  9.9999998E-03; -1.5000001E-01;392;  0.0000000E+00;  0.0000000E+00;  0.0000000E+00;  1.0000000E+03;  1.0000000E-01;  0.0000000E+00;0;  0.0000000E+00;  0.0000000E+00;  0.0000000E+00;0; -2.2759664E-06;  4.0000000E+04;  0.0000000E+00;  0.0000000E+00;  4.0000000E+04;  0.0000000E+00;  4.0000000E+04; -2.2836034E-06;  0.0000000E+00;  7.6369933E-09;  2.9133508E-01;
 -1.6000000E-01;  9.9999998E-03; -1.4000000E-01;393;  0.0000000E+00;  0.0000000E+00;  0.0000000E+00;  1.0000000E+03;  1.0000000E-01;  0.0000000E+00;0;  0.0000000E+00;  0.0000000E+00;  0.0000000E+00;0; -2.3530290E-06;  4.0000000E+04;  0.0000000E+00;  0.0000000E+00;  4.0000000E+04;  0.0000000E+00;  4.0000000E+04; -2.3582347E-06;  0.0000000E+00;  5.2057159E-09;  2.8670135E-01;
 -1.6000000E-01;  9.9999998E-03; -1.3000000E-01;394;  0.0000000E+00;  0.0000000E+00;  0.0000000E+00;  1.0000000E+03;  1.0000000E-01;  0.0000000E+00;0;  0.0000000E+00;  0.0000000E+00;  0.0000000E+00;0; -2.4235012E-06;  4.0000000E+04;  0.0000000E+00;  0.0000000E+00;  4.0000000E+04;  0.0000000E+00;  4.0000000E+04; -2.4272003E-06;  0.0000000E+00;  3.6991545E-09;  2.8068024E-01;
 -1.6000000E-01;  9.9999998E-03; -1.2000000E-01;395;  0.0000000E+00;  0.0000000E+00;  0.0000000E+00;  1.0000000E+03;  1.0000000E-01;  0.0000000E+00;0;  0.0000000E+00;  0.0000000E+00;  0.0000000E+00;0; -2.4866686E-06;  4.0000000E+04;  0.0000000E+00;  0.0000000E+00;  4.0000000E+04;  0.0000000E+00;  4.0000000E+04; -2.4895569E-06;  0.0000000E+00;  2.8883713E-09;  2.7416718E-01;
 -1.6000000E-01;  9.9999998E-03; -1.1000000E-01;396;  0.0000000E+00;  0.0000000E+00;  0.0000000E+00;  1.0000000E+03;  1.0000000E-01;  0.0000000E+00;0;  0.0000000E+00;  0.0000000E+00;  0.0000000E+00;0; -2.5425825E-06;  4.0000000E+04;  0.0000000E+00;  0.0000000E+00;  4.0000000E+04;  0.0000000E+00;  4.0000000E+04; -2.5451684E-06;  0.0000000E+00;  2.5858227E-09;  2.6804787E-01;
 -1.5000001E-01;  9.9999998E-03; -2.7000001E-01;471;  0.0000000E+00;  0.0000000E+00;  0.0000000E+00;  1.0000000E+03;  1.0000000E-01;  0.0000000E+00;0;  0.0000000E+00;  0.0000000E+00;  0.0000000E+00;0; -3.0164674E-05;  4.0000000E+04;  0.0000000E+00;  0.0000000E+00;  4.0000000E+04;  0.0000000E+00;  4.0000000E+04; -2.8691820E-05;  0.0000000E+00; -1.4728543E-06;  1.1356180E-01;
 -1.5000001E-01;  9.9999998E-03; -2.5999999E-01;472;  0.0000000E+00;  0.0000000E+00;  0.0000000E+00;  1.0000000E+03;  1.0000000E-01;  0.0000000E+00;0;  0.0000000E+00;  0.0000000E+00;  0.0000000E+00;0; -3.1894375E-05;  4.0000000E+04;  0.0000000E+00;  0.0000000E+00;  4.0000000E+04;  0.0000000E+00;  4.0000000E+04; -3.1190229E-05;  0.0000000E+00; -7.0414484E-07;  1.0307608E+00;
 -1.5000001E-01;  9.9999998E-03; -2.5000000E-01;473;  0.0000000E+00;  0.0000000E+00;  0.0000000E+00;  1.0000000E+03;  1.0000000E-01;  0.0000000E+00;0;  0.0000000E+00;  0.0000000E+00;  0.0000000E+00;0; -3.2924952E-05;  4.0000000E+04;  0.0000000E+00;  0.0000000E+00;  4.0000000E+04;  0.0000000E+00;  4.0000000E+04; -3.2976106E-05;  0.0000000E+00;  5.1154288E-08;  2.0985153E+00;
 -1.5000001E-01;  9.9999998E-03; -2.3999999E-01;474;  0.0000000E+00;  0.0000000E+00;  0.0000000E+00;  1.0000000E+03;  1.0000000E-01;  0.0000000E+00;0;  0.0000000E+00;  0.0000000E+00;  0.0000000E+00;0; -3.3782970E-05;  4.0000000E+04;  0.0000000E+00;  0.0000000E+00;  4.0000000E+04;  0.0000000E+00;  4.0000000E+04; -3.4444485E-05;  0.0000000E+00;  6.6151506E-07;  2.9550674E+00;
 -1.5000001E-01;  9.9999998E-03; -2.3000000E-01;475;  0.0000000E+00;  0.0000000E+00;  0.0000000E+00;  1.0000000E+03;  1.0000000E-01;  0.0000000E+00;0;  0.0000000E+00;  0.0000000E+00;  0.0000000E+00;0; -3.4953675E-05;  4.0000000E+04;  0.0000000E+00;  0.0000000E+00;  4.0000000E+04;  0.0000000E+00;  4.0000000E+04; -3.6013462E-05;  0.0000000E+00;  1.0597854E-06;  3.5497813E+00;
 -1.5000001E-01;  9.9999998E-03; -2.2000000E-01;476;  0.0000000E+00;  0.0000000E+00;  0.0000000E+00;  1.0000000E+03;  1.0000000E-01;  0.0000000E+00;0;  0.0000000E+00;  0.0000000E+00;  0.0000000E+00;0; -3.6793033E-05;  4.0000000E+04;  0.0000000E+00;  0.0000000E+00;  4.0000000E+04;  0.0000000E+00;  4.0000000E+04; -3.8057602E-05;  0.0000000E+00;  1.2645686E-06;  3.9344077E+00;
 -1.5000001E-01;  9.9999998E-03; -2.0999999E-01;477;  0.0000000E+00;  0.0000000E+00;  0.0000000E+00;  1.0000000E+03;  1.0000000E-01;  0.0000000E+00;0;  0.0000000E+00;  0.0000000E+00;  0.0000000E+00;0; -3.9405517E-05;  4.0000000E+04;  0.0000000E+00;  0.0000000E+00;  4.0000000E+04;  0.0000000E+00;  4.0000000E+04; -4.0743751E-05;  0.0000000E+00;  1.3382345E-06;  4.2042718E+00;
 -1.5000001E-01;  9.9999998E-03; -2.0000000E-01;478;  0.0000000E+00;  0.0000000E+00;  0.0000000E+00;  1.0000000E+03;  1.0000000E-01;  0.0000000E+00;0;  0.0000000E+00;  0.0000000E+00;  0.0000000E+00;0; -4.2628853E-05;  4.0000000E+04;  0.0000000E+00;  0.0000000E+00;  4.0000000E+04;  0.0000000E+00;  4.0000000E+04; -4.3937893E-05;  0.0000000E+00;  1.3090407E-06;  4.4000473E+00;
 -1.5000001E-01;  9.9999998E-03; -1.9000000E-01;479;  0.0000000E+00;  0.0000000E+00;  0.0000000E+00;  1.0000000E+03;  1.0000000E-01;  0.0000000E+00;0;  0.0000000E+00;  0.0000000E+00;  0.0000000E+00;0; -4.6224555E-05;  4.0000000E+04;  0.0000000E+00;  0.0000000E+00;  4.0000000E+04;  0.0000000E+00;  4.0000000E+04; -4.7423833E-05;  0.0000000E+00;  1.1992793E-06;  4.5347705E+00;
 -1.5000001E-01;  9.9999998E-03; -1.8000001E-01;480;  0.0000000E+00;  0.0000000E+00;  0.0000000E+00;  1.0000000E+03;  1.0000000E-01;  0.0000000E+00;0;  0.0000000E+00;  0.0000000E+00;  0.0000000E+00;0; -4.9950944E-05;  4.0000000E+04;  0.0000000E+00;  0.0000000E+00;  4.0000000E+04;  0.0000000E+00;  4.0000000E+04; -5.0987899E-05;  0.0000000E+00;  1.0369556E-06;  4.6125832E+00;
 -1.5000001E-01;  9.9999998E-03; -1.7000000E-01;481;  0.0000000E+00;  0.0000000E+00;  0.0000000E+00;  1.0000000E+03;  1.0000000E-01;  0.0000000E+00;0;  0.0000000E+00;  0.0000000E+00;  0.0000000E+00;0; -5.3592059E-05;  4.0000000E+04;  0.0000000E+00;  0.0000000E+00;  4.0000000E+04;  0.0000000E+00;  4.0000000E+04; -5.4443964E-05;  0.0000000E+00;  8.5190504E-07;  4.6342936E+00;
 -1.5000001E-01;  9.9999998E-03; -1.6000000E-01;482;  0.0000000E+00;  0.0000000E+00;  0.0000000E+00;  1.0000000E+03;  1.0000000E-01;  0.0000000E+00;0;  0.0000000E+00;  0.0000000E+00;  0.0000000E+00;0; -5.6976871E-05;  4.0000000E+04;  0.0000000E+00;  0.0000000E+00;  4.0000000E+04;  0.0000000E+00;  4.0000000E+04; -5.7647943E-05;  0.0000000E+00;  6.7107220E-07;  4.6025558E+00;
 -1.5000001E-01;  9.9999998E-03; -1.5000001E-01;483;  0.0000000E+00;  0.0000000E+00;  0.0000000E+00;  1.0000000E+03;  1.0000000E-01;  0.0000000E+00;0;  0.0000000E+00;  0.0000000E+00;  0.0000000E+00;0; -5.9988466E-05;  4.0000000E+04;  0.0000000E+00;  0.0000000E+00;  4.0000000E+04;  0.0000000E+00;  4.0000000E+04; -6.0502723E-05;  0.0000000E+00;  5.1425798E-07;  4.5239429E+00;
 -1.5000001E-01;  9.9999998E-03; -1.4000000E-01;484;  0.0000000E+00;  0.0000000E+00;  0.0000000E+00;  1.0000000E+03;  1.0000000E-01;  0.0000000E+00;0;  0.0000000E+00;  0.0000000E+00;  0.0000000E+00;0; -6.2564592E-05;  4.0000000E+04;  0.0000000E+00;  0.0000000E+00;  4.0000000E+04;  0.0000000E+00;  4.0000000E+04; -6.2956678E-05;  0.0000000E+00;  3.9208641E-07;  4.4093270E+00;
 -1.5000001E-01;  9.9999998E-03; -1.3000000E-01;485;  0.0000000E+00;  0.0000000E+00;  0.0000000E+00;  1.0000000E+03;  1.0000000E-01;  0.0000000E+00;0;  0.0000000E+00;  0.0000000E+00;  0.0000000E+00;0; -6.4691623E-05;  4.0000000E+04;  0.0000000E+00;  0.0000000E+00;  4.0000000E+04;  0.0000000E+00;  4.0000000E+04; -6.4998356E-05;  0.0000000E+00;  3.0673209E-07;  4.2732162E+00;
 -1.5000001E-01;  9.9999998E-03; -1.2000000E-01;486;  0.0000000E+00;  0.0000000E+00;  0.0000000E+00;  1.0000000E+03;  1.0000000E-01;  0.0000000E+00;0;  0.0000000E+00;  0.0000000E+00;  0.0000000E+00;0; -6.6394445E-05;  4.0000000E+04;  0.0000000E+00;  0.0000000E+00;  4.0000000E+04;  0.0000000E+00;  4.0000000E+04; -6.6649016E-05;  0.0000000E+00;  2.5456876E-07;  4.1321492E+00;
 -1.5000001E-01;  9.9999998E-03; -1.1000000E-01;487;  0.0000000E+00;  0.0000000E+00;  0.0000000E+00;  1.0000000E+03;  1.0000000E-01;  0.0000000E+00;0;  0.0000000E+00;  0.0000000E+00;  0.0000000E+00;0; -6.7724162E-05;  4.0000000E+04;  0.0000000E+00;  0.0000000E+00;  4.0000000E+04;  0.0000000E+00;  4.0000000E+04; -6.7953290E-05;  0.0000000E+00;  2.2912970E-07;  4.0022240E+00;
 -1.4000000E-01;  9.9999998E-03; -2.7000001E-01;562;  0.0000000E+00;  0.0000000E+00;  0.0000000E+00;  1.0000000E+03;  1.0000000E-01;  0.0000000E+00;0;  0.0000000E+00;  0.0000000E+00;  0.0000000E+00;0; -1.4563811E-04;  4.0000000E+04;  0.0000000E+00;  0.0000000E+00;  4.0000000E+04;  0.0000000E+00;  4.0000000E+04; -1.3565377E-04;  0.0000000E+00; -9.9843483E-06;  1.4765977E+00;
 -1.4000000E-01;  9.9999998E-03; -2.5999999E-01;563;  0.0000000E+00;  0.0000000E+00;  0.0000000E+00;  1.0000000E+03;  1.0000000E-01;  0.0000000E+00;0;  0.0000000E+00;  0.0000000E+00;  0.0000000E+00;0; -1.5764397E-04;  4.0000000E+04;  0.0000000E+00;  0.0000000E+00;  4.0000000E+04;  0.0000000E+00;  4.0000000E+04; -1.5132285E-04;  0.0000000E+00; -6.3211164E-06;  3.8313742E+00;
 -1.4000000E-01;  9.9999998E-03; -2.5000000E-01;564;  0.0000000E+00;  0.0000000E+00;  0.0000000E+00;  1.0000000E+03;  1.0000000E-01;  0.0000000E+00;0;  0.0000000E+00;  0.0000000E+00;  0.0000000E+00;0; -1.6780237E-04;  4.0000000E+04;  0.0000000E+00;  0.0000000E+00;  4.0000000E+04;  0.0000000E+00;  4.0000000E+04; -1.6546730E-04;  0.0000000E+00; -2.3350667E-06;  9.0314789E+00;
 -1.4000000E-01;  9.9999998E-03; -2.3999999E-01;565;  0.0000000E+00;  0.0000000E+00;  0.0000000E+00;  1.0000000E+03;  1.0000000E-01;  0.0000000E+00;0;  0.0000000E+00;  0.0000000E+00;  0.0000000E+00;0; -1.7759934E-04;  4.0000000E+04;  0.0000000E+00;  0.0000000E+00;  4.0000000E+04;  0.0000000E+00;  4.0000000E+04; -1.7900218E-04;  0.0000000E+00;  1.4028300E-06;  1.3554588E+01;
 -1.4000000E-01;  9.9999998E-03; -2.3000000E-01;566;  0.0000000E+00;  0.0000000E+00;  0.0000000E+00;  1.0000000E+03;  1.0000000E-01;  0.0000000E+00;0;  0.0000000E+00;  0.0000000E+00;  0.0000000E+00;0; -1.8852463E-04;  4.0000000E+04;  0.0000000E+00;  0.0000000E+00;  4.0000000E+04;  0.0000000E+00;  4.0000000E+04; -1.9297921E-04;  0.0000000E+00;  4.4545750E-06;  1.7076006E+01;
 -1.4000000E-01;  9.9999998E-03; -2.2000000E-01;567;  0.0000000E+00;  0.0000000E+00;  0.0000000E+00;  1.0000000E+03;  1.0000000E-01;  0.0000000E+00;0;  0.0000000E+00;  0.0000000E+00;  0.0000000E+00;0; -2.0170011E-04;  4.0000000E+04;  0.0000000E+00;  0.0000000E+00;  4.0000000E+04;  0.0000000E+00;  4.0000000E+04; -2.0829488E-04;  0.0000000E+00;  6.5947638E-06;  1.9546549E+01;
 -1.4000000E-01;  9.9999998E-03; -2.0999999E-01;568;  0.0000000E+00;  0.0000000E+00;  0.0000000E+00;  1.0000000E+03;  1.0000000E-01;  0.0000000E+00;0;  0.0000000E+00;  0.0000000E+00;  0.0000000E+00;0; -2.1757590E-04;  4.0000000E+04;  0.0000000E+00;  0.0000000E+00;  4.0000000E+04;  0.0000000E+00;  4.0000000E+04; -2.2537232E-04;  0.0000000E+00;  7.7964287E-06;  2.1100847E+01;
 -1.4000000E-01;  9.9999998E-03; -2.0000000E-01;569;  0.0000000E+00;  0.0000000E+00;  0.0000000E+00;  1.0000000E+03;  1.0000000E-01;  0.0000000E+00;0;  0.0000000E+00;  0.0000000E+00;  0.0000000E+00;0; -2.3597189E-04;  4.0000000E+04;  0.0000000E+00;  0.0000000E+00;  4.0000000E+04;  0.0000000E+00;  4.0000000E+04; -2.4418373E-04;  0.0000000E+00;  8.2118304E-06;  2.2009113E+01;
 -1.4000000E-01;  9.9999998E-03; -1.9000000E-01;570;  0.0000000E+00;  0.0000000E+00;  0.0000000E+00;  1.0000000E+03;  1.0000000E-01;  0.0000000E+00;0;  0.0000000E+00;  0.0000000E+00;  0.0000000E+00;0; -2.5612838E-04;  4.0000000E+04;  0.0000000E+00;  0.0000000E+00;  4.0000000E+04;  0.0000000E+00;  4.0000000E+04; -2.6415946E-04;  0.0000000E+00;  8.0310929E-06;  2.2499418E+01;
 -1.4000000E-01;  9.9999998E-03; -1.8000001E-01;571;  0.0000000E+00;  0.0000000E+00;  0.0000000E+00;  1.0000000E+03;  1.0000000E-01;  0.0000000E+00;0;  0.0000000E+00;  0.0000000E+00;  0.0000000E+00;0; -2.7696529E-04;  4.0000000E+04;  0.0000000E+00;  0.0000000E+00;  4.0000000E+04;  0.0000000E+00;  4.0000000E+04; -2.8436075E-04;  0.0000000E+00;  7.3954707E-06;  2.2655043E+01;
 -1.4000000E-01;  9.9999998E-03; -1.7000000E-01;572;  0.0000000E+00;  0.0000000E+00;  0.0000000E+00;  1.0000000E+03;  1.0000000E-01;  0.0000000E+00;0;  0.0000000E+00;  0.0000000E+00;  0.0000000E+00;0; -2.9741836E-04;  4.0000000E+04;  0.0000000E+00;  0.0000000E+00;  4.0000000E+04;  0.0000000E+00;  4.0000000E+04; -3.0388858E-04;  0.0000000E+00;  6.4702226E-06;  2.2523117E+01;
 -1.4000000E-01;  9.9999998E-03; -1.6000000E-01;573;  0.0000000E+00;  0.0000000E+00;  0.0000000E+00;  1.0000000E+03;  1.0000000E-01;  0.0000000E+00;0;  0.0000000E+00;  0.0000000E+00;  0.0000000E+00;0; -3.1656990E-04;  4.0000000E+04;  0.0000000E+00;  0.0000000E+00;  4.0000000E+04;  0.0000000E+00;  4.0000000E+04; -3.2199678E-04;  0.0000000E+00;  5.4268771E-06;  2.2140781E+01;
 -1.4000000E-01;  9.9999998E-03; -1.5000001E-01;574;  0.0000000E+00;  0.0000000E+00;  0.0000000E+00;  1.0000000E+03;  1.0000000E-01;  0.0000000E+00;0;  0.0000000E+00;  0.0000000E+00;  0.0000000E+00;0; -3.3373505E-04;  4.0000000E+04;  0.0000000E+00;  0.0000000E+00;  4.0000000E+04;  0.0000000E+00;  4.0000000E+04; -3.3815176E-04;  0.0000000E+00;  4.4166977E-06;  2.1552595E+01;
 -1.4000000E-01;  9.9999998E-03; -1.4000000E-01;575;  0.0000000E+00;  0.0000000E+00;  0.0000000E+00;  1.0000000E+03;  1.0000000E-01;  0.0000000E+00;0;  0.0000000E+00;  0.0000000E+00;  0.0000000E+00;0; -3.4849744E-04;  4.0000000E+04;  0.0000000E+00;  0.0000000E+00;  4.0000000E+04;  0.0000000E+00;  4.0000000E+04; -3.5204782E-04;  0.0000000E+00;  3.5503829E-06;  2.0818588E+01;
 -1.4000000E-01;  9.9999998E-03; -1.3000000E-01;576;  0.0000000E+00;  0.0000000E+00;  0.0000000E+00;  1.0000000E+03;  1.0000000E-01;  0.0000000E+00;0;  0.0000000E+00;  0.0000000E+00;  0.0000000E+00;0; -3.6071087E-04;  4.0000000E+04;  0.0000000E+00;  0.0000000E+00;  4.0000000E+04;  0.0000000E+00;  4.0000000E+04; -3.6359942E-04;  0.0000000E+00;  2.8885418E-06;  2.0012009E+01;
 -1.4000000E-01;  9.9999998E-03; -1.2000000E-01;577;  0.0000000E+00;  0.0000000E+00;  0.0000000E+00;  1.0000000E+03;  1.0000000E-01;  0.0000000E+00;0;  0.0000000E+00;  0.0000000E+00;  0.0000000E+00;0; -3.7045876E-04;  4.0000000E+04;  0.0000000E+00;  0.0000000E+00;  4.0000000E+04;  0.0000000E+00;  4.0000000E+04; -3.7290310E-04;  0.0000000E+00;  2.4443566E-06;  1.9211639E+01;
 -1.4000000E-01;  9.9999998E-03; -1.1000000E-01;578;  0.0000000E+00;  0.0000000E+00;  0.0000000E+00;  1.0000000E+03;  1.0000000E-01;  0.0000000E+00;0;  0.0000000E+00;  0.0000000E+00;  0.0000000E+00;0; -3.7799726E-04;  4.0000000E+04;  0.0000000E+00;  0.0000000E+00;  4.0000000E+04;  0.0000000E+00;  4.0000000E+04; -3.8019294E-04;  0.0000000E+00;  2.1956946E-06;  1.8490887E+01;
 -1.3000000E-01;  9.9999998E-03; -2.7000001E-01;653;  0.0000000E+00;  0.0000000E+00;  0.0000000E+00;  1.0000000E+03;  1.0000000E-01;  0.0000000E+00;0;  0.0000000E+00;  0.0000000E+00;  0.0000000E+00;0; -4.5385465E-04;  4.0000000E+04;  0.0000000E+00;  0.0000000E+00;  4.0000000E+04;  0.0000000E+00;  4.0000000E+04; -4.1634424E-04;  0.0000000E+00; -3.7510417E-05;  6.1607690E+00;
 -1.3000000E-01;  9.9999998E-03; -2.5999999E-01;654;  0.0000000E+00;  0.0000000E+00;  0.0000000E+00;  1.0000000E+03;  1.0000000E-01;  0.0000000E+00;0;  0.0000000E+00;  0.0000000E+00;  0.0000000E+00;0; -4.9664639E-04;  4.0000000E+04;  0.0000000E+00;  0.0000000E+00;  4.0000000E+04;  0.0000000E+00;  4.0000000E+04; -4.7062343E-04;  0.0000000E+00; -2.6022961E-05;  9.8436441E+00;
 -1.3000000E-01;  9.9999998E-03; -2.5000000E-01;655;  0.0000000E+00;  0.0000000E+00;  0.0000000E+00;  1.0000002E+03;  1.0000000E-01;  1.9752528E-01;0;  0.0000000E+00;  0.0000000E+00;  0.0000000E+00;0; -5.3596118E-04;  4.0000000E+04;  0.0000000E+00;  0.0000000E+00;  4.0000000E+04;  0.0000000E+00;  4.0000000E+04; -5.2295107E-04;  0.0000000E+00; -1.3010133E-05;  2.5732803E+01;
 -1.3000000E-01;  9.9999998E-03; -2.3999999E-01;656;  0.0000000E+00;  0.0000000E+00;  0.0000000E+00;  1.0000013E+03;  1.0000000E-01;  1.0863891E+00;0;  0.0000000E+00;  0.0000000E+00;  0.0000000E+00;0; -5.7480822E-04;  4.0000000E+04;  0.0000000E+00;  0.0000000E+00;  4.0000000E+04;  0.0000000E+00;  4.0000000E+04; -5.7471351E-04;  0.0000000E+00; -9.4732094E-08;  3.9960930E+01;
 -1.3000000E-01;  9.9999998E-03; -2.3000000E-01;657;  0.0000000E+00;  0.0000000E+00;  0.0000000E+00;  1.0000019E+03;  1.0000000E-01;  1.5802022E+00;0;  0.0000000E+00;  0.0000000E+00;  0.0000000E+00;0; -6.1634090E-04;  4.0000000E+04;  0.0000000E+00;  0.0000000E+00;  4.0000000E+04;  0.0000000E+00;  4.0000000E+04; -6.2764034E-04;  0.0000000E+00;  1.1299431E-05;  5.1456333E+01;
 -1.3000000E-01;  9.9999998E-03; -2.2000000E-01;658;  0.0000000E+00;  0.0000000E+00;  0.0000000E+00;  1.0000024E+03;  1.0000000E-01;  1.9752527E+00;0;  0.0000000E+00;  0.0000000E+00;  0.0000000E+00;0; -6.6307181E-04;  4.0000000E+04;  0.0000000E+00;  0.0000000E+00;  4.0000000E+04;  0.0000000E+00;  4.0000000E+04; -6.8326521E-04;  0.0000000E+00;  2.0193398E-05;  5.9815323E+01;
 -1.3000000E-01;  9.9999998E-03; -2.0999999E-01;659;  0.0000000E+00;  0.0000000E+00;  0.0000000E+00;  1.0000030E+03;  1.0000000E-01;  2.4690659E+00;0;  0.0000000E+00;  0.0000000E+00;  0.0000000E+00;0; -7.1619282E-04;  4.0000000E+04;  0.0000000E+00;  0.0000000E+00;  4.0000000E+04;  0.0000000E+00;  4.0000000E+04; -7.4232795E-04;  0.0000000E+00;  2.6135116E-05;  6.5194046E+01;
 -1.3000000E-01;  9.9999998E-03; -2.0000000E-01;660;  0.0000000E+00;  0.0000000E+00;  0.0000000E+00;  1.0000035E+03;  1.0000000E-01;  2.8641164E+00;0;  0.0000000E+00;  0.0000000E+00;  0.0000000E+00;0; -7.7538268E-04;  4.0000000E+04;  0.0000000E+00;  0.0000000E+00;  4.0000000E+04;  0.0000000E+00;  4.0000000E+04; -8.0455787E-04;  0.0000000E+00;  2.9175195E-05;  6.8109253E+01;
 -1.3000000E-01;  9.9999998E-03; -1.9000000E-01;661;  0.0000000E+00;  0.0000000E+00;  0.0000000E+00;  1.0000040E+03;  1.0000000E-01;  3.2591672E+00;0;  0.0000000E+00;  0.0000000E+00;  0.0000000E+00;0; -8.3896861E-04;  4.0000000E+04;  0.0000000E+00;  0.0000000E+00;  4.0000000E+04;  0.0000000E+00;  4.0000000E+04; -8.6870557E-04;  0.0000000E+00;  2.9736944E-05;  6.9197136E+01;
 -1.3000000E-01;  9.9999998E-03; -1.8000001E-01;662;  0.0000000E+00;  0.0000000E+00;  0.0000000E+00;  1.0000045E+03;  1.0000000E-01;  3.6542177E+00;0;  0.0000000E+00;  0.0000000E+00;  0.0000000E+00;0; -9.0440753E-04;  4.0000000E+04;  0.0000000E+00;  0.0000000E+00;  4.0000000E+04;  0.0000000E+00;  4.0000000E+04; -9.3285472E-04;  0.0000000E+00;  2.8447201E-05;  6.9052002E+01;
 -1.3000000E-01;  9.9999998E-03; -1.7000000E-01;663;  0.0000000E+00;  0.0000000E+00;  0.0000000E+00;  1.0000049E+03;  1.0000000E-01;  4.0492682E+00;0;  0.0000000E+00;  0.0000000E+00;  0.0000000E+00;0; -9.6878718E-04;  4.0000000E+04;  0.0000000E+00;  0.0000000E+00;  4.0000000E+04;  0.0000000E+00;  4.0000000E+04; -9.9465833E-04;  0.0000000E+00;  2.5871170E-05;  6.7980995E+01;
 -1.3000000E-01;  9.9999998E-03; -1.6000000E-01;664;  0.0000000E+00;  0.0000000E+00;  0.0000000E+00;  1.0000053E+03;  1.0000000E-01;  4.4443188E+00;0;  0.0000000E+00;  0.0000000E+00;  0.0000000E+00;0; -1.0294351E-03;  4.0000000E+04;  0.0000000E+00;  0.0000000E+00;  4.0000000E+04;  0.0000000E+00;  4.0000000E+04; -1.0520195E-03;  0.0000000E+00;  2.2584514E-05;  6.6186493E+01;
 -1.3000000E-01;  9.9999998E-03; -1.5000001E-01;665;  0.0000000E+00;  0.0000000E+00;  0.0000000E+00;  1.0000057E+03;  1.0000000E-01;  4.7406068E+00;0;  0.0000000E+00;  0.0000000E+00;  0.0000000E+00;0; -1.0842433E-03;  4.0000000E+04;  0.0000000E+00;  0.0000000E+00;  4.0000000E+04;  0.0000000E+00;  4.0000000E+04; -1.1033793E-03;  0.0000000E+00;  1.9136000E-05;  6.3854950E+01;
 -1.3000000E-01;  9.9999998E-03; -1.4000000E-01;666;  0.0000000E+00;  0.0000000E+00;  0.0000000E+00;  1.0000060E+03;  1.0000000E-01;  4.9381318E+00;0;  0.0000000E+00;  0.0000000E+00;  0.0000000E+00;0; -1.1318207E-03;  4.0000000E+04;  0.0000000E+00;  0.0000000E+00;  4.0000000E+04;  0.0000000E+00;  4.0000000E+04; -1.1477941E-03;  0.0000000E+00;  1.5973304E-05;  6.1186554E+01;
 -1.3000000E-01;  9.9999998E-03; -1.3000000E-01;667;  0.0000000E+00;  0.0000000E+00;  0.0000000E+00;  1.0000062E+03;  1.0000000E-01;  5.1356573E+00;0;  0.0000000E+00;  0.0000000E+00;  0.0000000E+00;0; -1.1715452E-03;  4.0000000E+04;  0.0000000E+00;  0.0000000E+00;  4.0000000E+04;  0.0000000E+00;  4.0000000E+04; -1.1849407E-03;  0.0000000E+00;  1.3395440E-05;  5.8400749E+01;
 -1.3000000E-01;  9.9999998E-03; -1.2000000E-01;668;  0.0000000E+00;  0.0000000E+00;  0.0000000E+00;  1.0000064E+03;  1.0000000E-01;  5.3331823E+00;0;  0.0000000E+00;  0.0000000E+00;  0.0000000E+00;0; -1.2034999E-03;  4.0000000E+04;  0.0000000E+00;  0.0000000E+00;  4.0000000E+04;  0.0000000E+00;  4.0000000E+04; -1.2150393E-03;  0.0000000E+00;  1.1539396E-05;  5.5719948E+01;
 -1.3000000E-01;  9.9999998E-03; -1.1000000E-01;669;  0.0000000E+00;  0.0000000E+00;  0.0000000E+00;  1.0000065E+03;  1.0000000E-01;  5.4319453E+00;0;  0.0000000E+00;  0.0000000E+00;  0.0000000E+00;0; -1.2283309E-03;  4.0000000E+04;  0.0000000E+00;  0.0000000E+00;  4.0000000E+04;  0.0000000E+00;  4.0000000E+04; -1.2387305E-03;  0.0000000E+00;  1.0399609E-05;  5.3344944E+01;
 -1.2000000E-01;  9.9999998E-03; -2.7000001E-01;744;  0.0000000E+00;  0.0000000E+00;  0.0000000E+00;  1.0000049E+03;  1.0000000E-01;  4.0492682E+00;0;  0.0000000E+00;  0.0000000E+00;  0.0000000E+00;0; -1.1022919E-03;  4.0000000E+04;  0.0000000E+00;  0.0000000E+00;  4.0000000E+04;  0.0000000E+00;  4.0000000E+04; -9.9855568E-04;  0.0000000E+00; -1.0373620E-04;  1.7519617E+01;
 -1.2000000E-01;  9.9999998E-03; -2.5999999E-01;745;  0.0000000E+00;  0.0000000E+00;  0.0000000E+00;  1.0000050E+03;  1.0000000E-01;  4.1480308E+00;0;  0.0000000E+00;  0.0000000E+00;  0.0000000E+00;0; -1.2127374E-03;  4.0000000E+04;  0.0000000E+00;  0.0000000E+00;  4.0000000E+04;  0.0000000E+00;  4.0000000E+04; -1.1374418E-03;  0.0000000E+00; -7.5295524E-05;  2.0389572E+01;
 -1.2000000E-01;  9.9999998E-03; -2.5000000E-01;746;  0.0000000E+00;  0.0000000E+00;  0.0000000E+00;  1.0000051E+03;  1.0000000E-01;  4.2467933E+00;0;  0.0000000E+00;  0.0000000E+00;  0.0000000E+00;0; -1.3176842E-03;  4.0000000E+04;  0.0000000E+00;  0.0000000E+00;  4.0000000E+04;  0.0000000E+00;  4.0000000E+04; -1.2752109E-03;  0.0000000E+00; -4.2473326E-05;  5.7810139E+01;
 -1.2000000E-01;  9.9999998E-03; -2.3999999E-01;747;  0.0000000E+00;  0.0000000E+00;  0.0000000E+00;  1.0000052E+03;  1.0000000E-01;  4.3455563E+00;0;  0.0000000E+00;  0.0000000E+00;  0.0000000E+00;0; -1.4222326E-03;  4.0000000E+04;  0.0000000E+00;  0.0000000E+00;  4.0000000E+04;  0.0000000E+00;  4.0000000E+04; -1.4132757E-03;  0.0000000E+00; -8.9568794E-06;  9.1872765E+01;
 -1.2000000E-01;  9.9999998E-03; -2.3000000E-01;748;  0.0000000E+00;  0.0000000E+00;  0.0000000E+00;  1.0000054E+03;  1.0000000E-01;  4.4443188E+00;0;  0.0000000E+00;  0.0000000E+00;  0.0000000E+00;0; -1.5318464E-03;  4.0000000E+04;  0.0000000E+00;  0.0000000E+00;  4.0000000E+04;  0.0000000E+00;  4.0000000E+04; -1.5536398E-03;  0.0000000E+00;  2.1793448E-05;  1.1992295E+02;
 -1.2000000E-01;  9.9999998E-03; -2.2000000E-01;749;  0.0000000E+00;  0.0000000E+00;  0.0000000E+00;  1.0000063E+03;  1.0000000E-01;  5.2344198E+00;0;  0.0000000E+00;  0.0000000E+00;  0.0000000E+00;0; -1.6510027E-03;  4.0000000E+04;  0.0000000E+00;  0.0000000E+00;  4.0000000E+04;  0.0000000E+00;  4.0000000E+04; -1.6981110E-03;  0.0000000E+00;  4.7108242E-05;  1.4068349E+02;
 -1.2000000E-01;  9.9999998E-03; -2.0999999E-01;750;  0.0000000E+00;  0.0000000E+00;  0.0000000E+00;  1.0000075E+03;  1.0000000E-01;  6.2220464E+00;0;  0.0000000E+00;  0.0000000E+00;  0.0000000E+00;0; -1.7820011E-03;  4.0000000E+04;  0.0000000E+00;  0.0000000E+00;  4.0000000E+04;  0.0000000E+00;  4.0000000E+04; -1.8474268E-03;  0.0000000E+00;  6.5425644E-05;  1.5414737E+02;
 -1.2000000E-01;  9.9999998E-03; -2.0000000E-01;751;  0.0000000E+00;  0.0000000E+00;  0.0000000E+00;  1.0000086E+03;  1.0000000E-01;  7.1109099E+00;0;  0.0000000E+00;  0.0000000E+00;  0.0000000E+00;0; -1.9244268E-03;  4.0000000E+04;  0.0000000E+00;  0.0000000E+00;  4.0000000E+04;  0.0000000E+00;  4.0000000E+04; -2.0007943E-03;  0.0000000E+00;  7.6367498E-05;  1.6125400E+02;
 -1.2000000E-01;  9.9999998E-03; -1.9000000E-01;752;  0.0000000E+00;  0.0000000E+00;  0.0000000E+00;  1.0000095E+03;  1.0000000E-01;  7.9010110E+00;0;  0.0000000E+00;  0.0000000E+00;  0.0000000E+00;0; -2.0752018E-03;  4.0000000E+04;  0.0000000E+00;  0.0000000E+00;  4.0000000E+04;  0.0000000E+00;  4.0000000E+04; -2.1557386E-03;  0.0000000E+00;  8.0536876E-05;  1.6337653E+02;
 -1.2000000E-01;  9.9999998E-03; -1.8000001E-01;753;  0.0000000E+00;  0.0000000E+00;  0.0000000E+00;  1.0000104E+03;  1.0000000E-01;  8.6911125E+00;0;  0.0000000E+00;  0.0000000E+00;  0.0000000E+00;0; -2.2293178E-03;  4.0000000E+04;  0.0000000E+00;  0.0000000E+00;  4.0000000E+04;  0.0000000E+00;  4.0000000E+04; -2.3085263E-03;  0.0000000E+00;  7.9208432E-05;  1.6190201E+02;
 -1.2000000E-01;  9.9999998E-03; -1.7000000E-01;754;  0.0000000E+00;  0.0000000E+00;  0.0000000E+00;  1.0000113E+03;  1.0000000E-01;  9.3824511E+00;0;  0.0000000E+00;  0.0000000E+00;  0.0000000E+00;0; -2.3809127E-03;  4.0000000E+04;  0.0000000E+00;  0.0000000E+00;  4.0000000E+04;  0.0000000E+00;  4.0000000E+04; -2.4549232E-03;  0.0000000E+00;  7.4010612E-05;  1.5805209E+02;
 -1.2000000E-01;  9.9999998E-03; -1.6000000E-01;755;  0.0000000E+00;  0.0000000E+00;  0.0000000E+00;  1.0000121E+03;  1.0000000E-01;  1.0073790E+01;0;  0.0000000E+00;  0.0000000E+00;  0.0000000E+00;0; -2.5242425E-03;  4.0000000E+04;  0.0000000E+00;  0.0000000E+00;  4.0000000E+04;  0.0000000E+00;  4.0000000E+04; -2.5907054E-03;  0.0000000E+00;  6.6462839E-05;  1.5258287E+02;
 -1.2000000E-01;  9.9999998E-03; -1.5000001E-01;756;  0.0000000E+00;  0.0000000E+00;  0.0000000E+00;  1.0000128E+03;  1.0000000E-01;  1.0666365E+01;0;  0.0000000E+00;  0.0000000E+00;  0.0000000E+00;0; -2.6545571E-03;  4.0000000E+04;  0.0000000E+00;  0.0000000E+00;  4.0000000E+04;  0.0000000E+00;  4.0000000E+04; -2.7125406E-03;  0.0000000E+00;  5.7983521E-05;  1.4605200E+02;
 -1.2000000E-01;  9.9999998E-03; -1.4000000E-01;757;  0.0000000E+00;  0.0000000E+00;  0.0000000E+00;  1.0000144E+03;  1.0000000E-01;  1.1950279E+01;0;  0.0000000E+00;  0.0000000E+00;  0.0000000E+00;0; -2.7685659E-03;  4.0000000E+04;  0.0000000E+00;  0.0000000E+00;  4.0000000E+04;  0.0000000E+00;  4.0000000E+04; -2.8183626E-03;  0.0000000E+00;  4.9796599E-05;  1.3897176E+02;
 -1.2000000E-01;  9.9999998E-03; -1.3000000E-01;758;  0.0000000E+00;  0.0000000E+00;  0.0000000E+00;  1.0000156E+03;  1.0000000E-01;  1.2937905E+01;0;  0.0000000E+00;  0.0000000E+00;  0.0000000E+00;0; -2.8645862E-03;  4.0000000E+04;  0.0000000E+00;  0.0000000E+00;  4.0000000E+04;  0.0000000E+00;  4.0000000E+04; -2.9073851E-03;  0.0000000E+00;  4.2798980E-05;  1.3183830E+02;
 -1.2000000E-01;  9.9999998E-03; -1.2000000E-01;759;  0.0000000E+00;  0.0000000E+00;  0.0000000E+00;  1.0000164E+03;  1.0000000E-01;  1.3530481E+01;0;  0.0000000E+00;  0.0000000E+00;  0.0000000E+00;0; -2.9425009E-03;  4.0000000E+04;  0.0000000E+00;  0.0000000E+00;  4.0000000E+04;  0.0000000E+00;  4.0000000E+04; -2.9799992E-03;  0.0000000E+00;  3.7498357E-05;  1.2512507E+02;
 -1.2000000E-01;  9.9999998E-03; -1.1000000E-01;760;  0.0000000E+00;  0.0000000E+00;  0.0000000E+00;  1.0000170E+03;  1.0000000E-01;  1.4123057E+01;0;  0.0000000E+00;  0.0000000E+00;  0.0000000E+00;0; -3.0034920E-03;  4.0000000E+04;  0.0000000E+00;  0.0000000E+00;  4.0000000E+04;  0.0000000E+00;  4.0000000E+04; -3.0375198E-03;  0.0000000E+00;  3.4027616E-05;  1.1924524E+02;
 -1.1000000E-01;  9.9999998E-03; -2.7000001E-01;835;  0.0000000E+00;  0.0000000E+00;  0.0000000E+00;  1.0000102E+03;  1.0000000E-01;  8.4935865E+00;0;  0.0000000E+00;  0.0000000E+00;  0.0000000E+00;0; -2.2826775E-03;  4.0000000E+04;  0.0000000E+00;  0.0000000E+00;  4.0000000E+04;  0.0000000E+00;  4.0000000E+04; -2.0456985E-03;  0.0000000E+00; -2.3697890E-04;  4.0286716E+01;
 -1.1000000E-01;  9.9999998E-03; -2.5999999E-01;836;  0.0000000E+00;  0.0000000E+00;  0.0000000E+00;  1.0000106E+03;  1.0000000E-01;  8.7898750E+00;0;  0.0000000E+00;  0.0000000E+00;  0.0000000E+00;0; -2.5176657E-03;  4.0000000E+04;  0.0000000E+00;  0.0000000E+00;  4.0000000E+04;  0.0000000E+00;  4.0000000E+04; -2.3410621E-03;  0.0000000E+00; -1.7660360E-04;  3.7241016E+01;
 -1.1000000E-01;  9.9999998E-03; -2.5000000E-01;837;  0.0000000E+00;  0.0000000E+00;  0.0000000E+00;  1.0000117E+03;  1.0000000E-01;  9.6787386E+00;0;  0.0000000E+00;  0.0000000E+00;  0.0000000E+00;0; -2.7446374E-03;  4.0000000E+04;  0.0000000E+00;  0.0000000E+00;  4.0000000E+04;  0.0000000E+00;  4.0000000E+04; -2.6383083E-03;  0.0000000E+00; -1.0632912E-04;  1.1147643E+02;
 -1.1000000E-01;  9.9999998E-03; -2.3999999E-01;838;  0.0000000E+00;  0.0000000E+00;  0.0000000E+00;  1.0000130E+03;  1.0000000E-01;  1.0765127E+01;0;  0.0000000E+00;  0.0000000E+00;  0.0000000E+00;0; -2.9714035E-03;  4.0000000E+04;  0.0000000E+00;  0.0000000E+00;  4.0000000E+04;  0.0000000E+00;  4.0000000E+04; -2.9379593E-03;  0.0000000E+00; -3.3444176E-05;  1.8005891E+02;
 -1.1000000E-01;  9.9999998E-03; -2.3000000E-01;839;  0.0000000E+00;  0.0000000E+00;  0.0000000E+00;  1.0000141E+03;  1.0000000E-01;  1.1653992E+01;0;  0.0000000E+00;  0.0000000E+00;  0.0000000E+00;0; -3.2064312E-03;  4.0000000E+04;  0.0000000E+00;  0.0000000E+00;  4.0000000E+04;  0.0000000E+00;  4.0000000E+04; -3.2413923E-03;  0.0000000E+00;  3.4961078E-05;  2.3723445E+02;
 -1.1000000E-01;  9.9999998E-03; -2.2000000E-01;840;  0.0000000E+00;  0.0000000E+00;  0.0000000E+00;  1.0000150E+03;  1.0000000E-01;  1.2444093E+01;0;  0.0000000E+00;  0.0000000E+00;  0.0000000E+00;0; -3.4567383E-03;  4.0000000E+04;  0.0000000E+00;  0.0000000E+00;  4.0000000E+04;  0.0000000E+00;  4.0000000E+04; -3.5498221E-03;  0.0000000E+00;  9.3083894E-05;  2.8006128E+02;
 -1.1000000E-01;  9.9999998E-03; -2.0999999E-01;841;  0.0000000E+00;  0.0000000E+00;  0.0000000E+00;  1.0000159E+03;  1.0000000E-01;  1.3234194E+01;0;  0.0000000E+00;  0.0000000E+00;  0.0000000E+00;0; -3.7260151E-03;  4.0000000E+04;  0.0000000E+00;  0.0000000E+00;  4.0000000E+04;  0.0000000E+00;  4.0000000E+04; -3.8631556E-03;  0.0000000E+00;  1.3714061E-04;  3.0798688E+02;
 -1.1000000E-01;  9.9999998E-03; -2.0000000E-01;842;  0.0000000E+00;  0.0000000E+00;  0.0000000E+00;  1.0000184E+03;  1.0000000E-01;  1.5308209E+01;0;  0.0000000E+00;  0.0000000E+00;  0.0000000E+00;0; -4.0136529E-03;  4.0000000E+04;  0.0000000E+00;  0.0000000E+00;  4.0000000E+04;  0.0000000E+00;  4.0000000E+04; -4.1793282E-03;  0.0000000E+00;  1.6567518E-04;  3.2242795E+02;
 -1.1000000E-01;  9.9999998E-03; -1.9000000E-01;843;  0.0000000E+00;  0.0000000E+00;  0.0000000E+00;  1.0000204E+03;  1.0000000E-01;  1.6888411E+01;0;  0.0000000E+00;  0.0000000E+00;  0.0000000E+00;0; -4.3146396E-03;  4.0000000E+04;  0.0000000E+00;  0.0000000E+00;  4.0000000E+04;  0.0000000E+00;  4.0000000E+04; -4.4940007E-03;  0.0000000E+00;  1.7936110E-04;  3.2599084E+02;
 -1.1000000E-01;  9.9999998E-03; -1.8000001E-01;844;  0.0000000E+00;  0.0000000E+00;  0.0000000E+00;  1.0000222E+03;  1.0000000E-01;  1.8369850E+01;0;  0.0000000E+00;  0.0000000E+00;  0.0000000E+00;0; -4.6204701E-03;  4.0000000E+04;  0.0000000E+00;  0.0000000E+00;  4.0000000E+04;  0.0000000E+00;  4.0000000E+04; -4.8009222E-03;  0.0000000E+00;  1.8045229E-04;  3.2159055E+02;
 -1.1000000E-01;  9.9999998E-03; -1.7000000E-01;845;  0.0000000E+00;  0.0000000E+00;  0.0000000E+00;  1.0000246E+03;  1.0000000E-01;  2.0345104E+01;0;  0.0000000E+00;  0.0000000E+00;  0.0000000E+00;0; -4.9207811E-03;  4.0000000E+04;  0.0000000E+00;  0.0000000E+00;  4.0000000E+04;  0.0000000E+00;  4.0000000E+04; -5.0929026E-03;  0.0000000E+00;  1.7212135E-04;  3.1185156E+02;
 -1.1000000E-01;  9.9999998E-03; -1.6000000E-01;846;  0.0000000E+00;  0.0000000E+00;  0.0000000E+00;  1.0000271E+03;  1.0000000E-01;  2.2419119E+01;0;  0.0000000E+00;  0.0000000E+00;  0.0000000E+00;0; -5.2052201E-03;  4.0000000E+04;  0.0000000E+00;  0.0000000E+00;  4.0000000E+04;  0.0000000E+00;  4.0000000E+04; -5.3630797E-03;  0.0000000E+00;  1.5785985E-04;  2.9892670E+02;
 -1.1000000E-01;  9.9999998E-03; -1.5000001E-01;847;  0.0000000E+00;  0.0000000E+00;  0.0000000E+00;  1.0000292E+03;  1.0000000E-01;  2.4196846E+01;0;  0.0000000E+00;  0.0000000E+00;  0.0000000E+00;0; -5.4648691E-03;  4.0000000E+04;  0.0000000E+00;  0.0000000E+00;  4.0000000E+04;  0.0000000E+00;  4.0000000E+04; -5.6056571E-03;  0.0000000E+00;  1.4078803E-04;  2.8423352E+02;
 -1.1000000E-01;  9.9999998E-03; -1.4000000E-01;848;  0.0000000E+00;  0.0000000E+00;  0.0000000E+00;  1.0000309E+03;  1.0000000E-01;  2.5678286E+01;0;  0.0000000E+00;  0.0000000E+00;  0.0000000E+00;0; -5.6933141E-03;  4.0000000E+04;  0.0000000E+00;  0.0000000E+00;  4.0000000E+04;  0.0000000E+00;  4.0000000E+04; -5.8169146E-03;  0.0000000E+00;  1.2360043E-04;  2.6886859E+02;
 -1.1000000E-01;  9.9999998E-03; -1.3000000E-01;849;  0.0000000E+00;  0.0000000E+00;  0.0000000E+00;  1.0000325E+03;  1.0000000E-01;  2.6962200E+01;0;  0.0000000E+00;  0.0000000E+00;  0.0000000E+00;0; -5.8870306E-03;  4.0000000E+04;  0.0000000E+00;  0.0000000E+00;  4.0000000E+04;  0.0000000E+00;  4.0000000E+04; -5.9954049E-03;  0.0000000E+00;  1.0837440E-04;  2.5378819E+02;
 -1.1000000E-01;  9.9999998E-03; -1.2000000E-01;850;  0.0000000E+00;  0.0000000E+00;  0.0000000E+00;  1.0000345E+03;  1.0000000E-01;  2.8542402E+01;0;  0.0000000E+00;  0.0000000E+00;  0.0000000E+00;0; -6.0453578E-03;  4.0000000E+04;  0.0000000E+00;  0.0000000E+00;  4.0000000E+04;  0.0000000E+00;  4.0000000E+04; -6.1417697E-03;  0.0000000E+00;  9.6412085E-05;  2.3983614E+02;
 -1.1000000E-01;  9.9999998E-03; -1.1000000E-01;851;  0.0000000E+00;  0.0000000E+00;  0.0000000E+00;  1.0000357E+03;  1.0000000E-01;  2.9628792E+01;0;  0.0000000E+00;  0.0000000E+00;  0.0000000E+00;0; -6.1701504E-03;  4.0000000E+04;  0.0000000E+00;  0.0000000E+00;  4.0000000E+04;  0.0000000E+00;  4.0000000E+04; -6.2583792E-03;  0.0000000E+00;  8.8228633E-05;  2.2772066E+02;
 -1.0000000E-01;  9.9999998E-03; -2.7000001E-01;926;  0.0000000E+00;  0.0000000E+00;  0.0000000E+00;  1.0000201E+03;  1.0000000E-01;  1.6690886E+01;0;  0.0000000E+00;  0.0000000E+00;  0.0000000E+00;0; -4.2346711E-03;  4.0000000E+04;  0.0000000E+00;  0.0000000E+00;  4.0000000E+04;  0.0000000E+00;  4.0000000E+04; -3.7603434E-03;  0.0000000E+00; -4.7432756E-04;  8.0780289E+01;
 -1.0000000E-01;  9.9999998E-03; -2.5999999E-01;927;  0.0000000E+00;  0.0000000E+00;  0.0000000E+00;  1.0000212E+03;  1.0000000E-01;  1.7579750E+01;0;  0.0000000E+00;  0.0000000E+00;  0.0000000E+00;0; -4.6747690E-03;  4.0000000E+04;  0.0000000E+00;  0.0000000E+00;  4.0000000E+04;  0.0000000E+00;  4.0000000E+04; -4.3153646E-03;  0.0000000E+00; -3.5940445E-04;  6.3912373E+01;
 -1.0000000E-01;  9.9999998E-03; -2.5000000E-01;928;  0.0000000E+00;  0.0000000E+00;  0.0000000E+00;  1.0000236E+03;  1.0000000E-01;  1.9555002E+01;0;  0.0000000E+00;  0.0000000E+00;  0.0000000E+00;0; -5.1034461E-03;  4.0000000E+04;  0.0000000E+00;  0.0000000E+00;  4.0000000E+04;  0.0000000E+00;  4.0000000E+04; -4.8782248E-03;  0.0000000E+00; -2.2522117E-04;  1.9373160E+02;
 -1.0000000E-01;  9.9999998E-03; -2.3999999E-01;929;  0.0000000E+00;  0.0000000E+00;  0.0000000E+00;  1.0000251E+03;  1.0000000E-01;  2.0740154E+01;0;  0.0000000E+00;  0.0000000E+00;  0.0000000E+00;0; -5.5319676E-03;  4.0000000E+04;  0.0000000E+00;  0.0000000E+00;  4.0000000E+04;  0.0000000E+00;  4.0000000E+04; -5.4471050E-03;  0.0000000E+00; -8.4862419E-05;  3.1606845E+02;
 -1.0000000E-01;  9.9999998E-03; -2.3000000E-01;930;  0.0000000E+00;  0.0000000E+00;  0.0000000E+00;  1.0000272E+03;  1.0000000E-01;  2.2517881E+01;0;  0.0000000E+00;  0.0000000E+00;  0.0000000E+00;0; -5.9726364E-03;  4.0000000E+04;  0.0000000E+00;  0.0000000E+00;  4.0000000E+04;  0.0000000E+00;  4.0000000E+04; -6.0213394E-03;  0.0000000E+00;  4.8703267E-05;  4.1895236E+02;
 -1.0000000E-01;  9.9999998E-03; -2.2000000E-01;931;  0.0000000E+00;  0.0000000E+00;  0.0000000E+00;  1.0000297E+03;  1.0000000E-01;  2.4591898E+01;0;  0.0000000E+00;  0.0000000E+00;  0.0000000E+00;0; -6.4356406E-03;  4.0000000E+04;  0.0000000E+00;  0.0000000E+00;  4.0000000E+04;  0.0000000E+00;  4.0000000E+04; -6.6001504E-03;  0.0000000E+00;  1.6450991E-04;  4.9667908E+02;
 -1.0000000E-01;  9.9999998E-03; -2.0999999E-01;932;  0.0000000E+00;  0.0000000E+00;  0.0000000E+00;  1.0000320E+03;  1.0000000E-01;  2.6567150E+01;0;  0.0000000E+00;  0.0000000E+00;  0.0000000E+00;0; -6.9263089E-03;  4.0000000E+04;  0.0000000E+00;  0.0000000E+00;  4.0000000E+04;  0.0000000E+00;  4.0000000E+04; -7.1812766E-03;  0.0000000E+00;  2.5496777E-04;  5.4763049E+02;
 -1.0000000E-01;  9.9999998E-03; -2.0000000E-01;933;  0.0000000E+00;  0.0000000E+00;  0.0000000E+00;  1.0000358E+03;  1.0000000E-01;  2.9628792E+01;0;  0.0000000E+00;  0.0000000E+00;  0.0000000E+00;0; -7.4435980E-03;  4.0000000E+04;  0.0000000E+00;  0.0000000E+00;  4.0000000E+04;  0.0000000E+00;  4.0000000E+04; -7.7601629E-03;  0.0000000E+00;  3.1656475E-04;  5.7368445E+02;
 -1.0000000E-01;  9.9999998E-03; -1.9000000E-01;934;  0.0000000E+00;  0.0000000E+00;  0.0000000E+00;  1.0000388E+03;  1.0000000E-01;  3.2196621E+01;0;  0.0000000E+00;  0.0000000E+00;  0.0000000E+00;0; -7.9797925E-03;  4.0000000E+04;  0.0000000E+00;  0.0000000E+00;  4.0000000E+04;  0.0000000E+00;  4.0000000E+04; -8.3295442E-03;  0.0000000E+00;  3.4975153E-04;  5.7914746E+02;
 -1.0000000E-01;  9.9999998E-03; -1.8000001E-01;935;  0.0000000E+00;  0.0000000E+00;  0.0000000E+00;  1.0000432E+03;  1.0000000E-01;  3.5752075E+01;0;  0.0000000E+00;  0.0000000E+00;  0.0000000E+00;0; -8.5215988E-03;  4.0000000E+04;  0.0000000E+00;  0.0000000E+00;  4.0000000E+04;  0.0000000E+00;  4.0000000E+04; -8.8797491E-03;  0.0000000E+00;  3.5815037E-04;  5.6938159E+02;
 -1.0000000E-01;  9.9999998E-03; -1.7000000E-01;936;  0.0000000E+00;  0.0000000E+00;  0.0000000E+00;  1.0000468E+03;  1.0000000E-01;  3.8813717E+01;0;  0.0000000E+00;  0.0000000E+00;  0.0000000E+00;0; -9.0525309E-03;  4.0000000E+04;  0.0000000E+00;  0.0000000E+00;  4.0000000E+04;  0.0000000E+00;  4.0000000E+04; -9.3998974E-03;  0.0000000E+00;  3.4736644E-04;  5.4951147E+02;
 -1.0000000E-01;  9.9999998E-03; -1.6000000E-01;937;  0.0000000E+00;  0.0000000E+00;  0.0000000E+00;  1.0000516E+03;  1.0000000E-01;  4.2764221E+01;0;  0.0000000E+00;  0.0000000E+00;  0.0000000E+00;0; -9.5555922E-03;  4.0000000E+04;  0.0000000E+00;  0.0000000E+00;  4.0000000E+04;  0.0000000E+00;  4.0000000E+04; -9.8794103E-03;  0.0000000E+00;  3.2381801E-04;  5.2375562E+02;
 -1.0000000E-01;  9.9999998E-03; -1.5000001E-01;938;  0.0000000E+00;  0.0000000E+00;  0.0000000E+00;  1.0000551E+03;  1.0000000E-01;  4.5628338E+01;0;  0.0000000E+00;  0.0000000E+00;  0.0000000E+00;0; -1.0015876E-02;  4.0000000E+04;  0.0000000E+00;  0.0000000E+00;  4.0000000E+04;  0.0000000E+00;  4.0000000E+04; -1.0309631E-02;  0.0000000E+00;  2.9375459E-04;  4.9532614E+02;
 -1.0000000E-01;  9.9999998E-03; -1.4000000E-01;939;  0.0000000E+00;  0.0000000E+00;  0.0000000E+00;  1.0000591E+03;  1.0000000E-01;  4.8986267E+01;0;  0.0000000E+00;  0.0000000E+00;  0.0000000E+00;0; -1.0422377E-02;  4.0000000E+04;  0.0000000E+00;  0.0000000E+00;  4.0000000E+04;  0.0000000E+00;  4.0000000E+04; -1.0684776E-02;  0.0000000E+00;  2.6239958E-04;  4.6635126E+02;
 -1.0000000E-01;  9.9999998E-03; -1.3000000E-01;940;  0.0000000E+00;  0.0000000E+00;  0.0000000E+00;  1.0000626E+03;  1.0000000E-01;  5.1850384E+01;0;  0.0000000E+00;  0.0000000E+00;  0.0000000E+00;0; -1.0768736E-02;  4.0000000E+04;  0.0000000E+00;  0.0000000E+00;  4.0000000E+04;  0.0000000E+00;  4.0000000E+04; -1.1002591E-02;  0.0000000E+00;  2.3385537E-04;  4.3848318E+02;
 -1.0000000E-01;  9.9999998E-03; -1.2000000E-01;941;  0.0000000E+00;  0.0000000E+00;  0.0000000E+00;  1.0000652E+03;  1.0000000E-01;  5.4023163E+01;0;  0.0000000E+00;  0.0000000E+00;  0.0000000E+00;0; -1.1053345E-02;  4.0000000E+04;  0.0000000E+00;  0.0000000E+00;  4.0000000E+04;  0.0000000E+00;  4.0000000E+04; -1.1264191E-02;  0.0000000E+00;  2.1084560E-04;  4.1305634E+02;
 -1.0000000E-01;  9.9999998E-03; -1.1000000E-01;942;  0.0000000E+00;  0.0000000E+00;  0.0000000E+00;  1.0000673E+03;  1.0000000E-01;  5.5800892E+01;0;  0.0000000E+00;  0.0000000E+00;  0.0000000E+00;0; -1.1278891E-02;  4.0000000E+04;  0.0000000E+00;  0.0000000E+00;  4.0000000E+04;  0.0000000E+00;  4.0000000E+04; -1.1473536E-02;  0.0000000E+00;  1.9464549E-04;  3.9113626E+02;
 -9.0000004E-02;  9.9999998E-03; -2.7000001E-01;1017;  0.0000000E+00;  0.0000000E+00;  0.0000000E+00;  1.0000359E+03;  1.0000000E-01;  2.9727554E+01;0;  0.0000000E+00;  0.0000000E+00;  0.0000000E+00;0; -7.2464207E-03;  4.0000000E+04;  0.0000000E+00;  0.0000000E+00;  4.0000000E+04;  0.0000000E+00;  4.0000000E+04; -6.3857380E-03;  0.0000000E+00; -8.6068257E-04;  1.4694469E+02;
 -9.0000004E-02;  9.9999998E-03; -2.5999999E-01;1018;  0.0000000E+00;  0.0000000E+00;  0.0000000E+00;  1.0000388E+03;  1.0000000E-01;  3.2097858E+01;0;  0.0000000E+00;  0.0000000E+00;  0.0000000E+00;0; -7.9994835E-03;  4.0000000E+04;  0.0000000E+00;  0.0000000E+00;  4.0000000E+04;  0.0000000E+00;  4.0000000E+04; -7.3402585E-03;  0.0000000E+00; -6.5922464E-04;  1.0696533E+02;
 -9.0000004E-02;  9.9999998E-03; -2.5000000E-01;1019;  0.0000000E+00;  0.0000000E+00;  0.0000000E+00;  1.0000421E+03;  1.0000000E-01;  3.4863213E+01;0;  0.0000000E+00;  0.0000000E+00;  0.0000000E+00;0; -8.7360945E-03;  4.0000000E+04;  0.0000000E+00;  0.0000000E+00;  4.0000000E+04;  0.0000000E+00;  4.0000000E+04; -8.3120856E-03;  0.0000000E+00; -4.2400835E-04;  3.1261508E+02;
 -9.0000004E-02;  9.9999998E-03; -2.3999999E-01;1020;  0.0000000E+00;  0.0000000E+00;  0.0000000E+00;  1.0000455E+03;  1.0000000E-01;  3.7727329E+01;0;  0.0000000E+00;  0.0000000E+00;  0.0000000E+00;0; -9.4719492E-03;  4.0000000E+04;  0.0000000E+00;  0.0000000E+00;  4.0000000E+04;  0.0000000E+00;  4.0000000E+04; -9.2950473E-03;  0.0000000E+00; -1.7690232E-04;  5.1192899E+02;
 -9.0000004E-02;  9.9999998E-03; -2.3000000E-01;1021;  0.0000000E+00;  0.0000000E+00;  0.0000000E+00;  1.0000490E+03;  1.0000000E-01;  4.0591446E+01;0;  0.0000000E+00;  0.0000000E+00;  0.0000000E+00;0; -1.0224202E-02;  4.0000000E+04;  0.0000000E+00;  0.0000000E+00;  4.0000000E+04;  0.0000000E+00;  4.0000000E+04; -1.0284433E-02;  0.0000000E+00;  6.0231854E-05;  6.8065356E+02;
 -9.0000004E-02;  9.9999998E-03; -2.2000000E-01;1022;  0.0000000E+00;  0.0000000E+00;  0.0000000E+00;  1.0000532E+03;  1.0000000E-01;  4.4048138E+01;0;  0.0000000E+00;  0.0000000E+00;  0.0000000E+00;0; -1.1006969E-02;  4.0000000E+04;  0.0000000E+00;  0.0000000E+00;  4.0000000E+04;  0.0000000E+00;  4.0000000E+04; -1.1275545E-02;  0.0000000E+00;  2.6857585E-04;  8.0883197E+02;
 -9.0000004E-02;  9.9999998E-03; -2.0999999E-01;1023;  0.0000000E+00;  0.0000000E+00;  0.0000000E+00;  1.0000582E+03;  1.0000000E-01;  4.8196167E+01;0;  0.0000000E+00;  0.0000000E+00;  0.0000000E+00;0; -1.1827482E-02;  4.0000000E+04;  0.0000000E+00;  0.0000000E+00;  4.0000000E+04;  0.0000000E+00;  4.0000000E+04; -1.2262127E-02;  0.0000000E+00;  4.3464563E-04;  8.9319611E+02;
 -9.0000004E-02;  9.9999998E-03; -2.0000000E-01;1024;  0.0000000E+00;  0.0000000E+00;  0.0000000E+00;  1.0000637E+03;  1.0000000E-01;  5.2739250E+01;0;  0.0000000E+00;  0.0000000E+00;  0.0000000E+00;0; -1.2683837E-02;  4.0000000E+04;  0.0000000E+00;  0.0000000E+00;  4.0000000E+04;  0.0000000E+00;  4.0000000E+04; -1.3235407E-02;  0.0000000E+00;  5.5157044E-04;  9.3609827E+02;
 -9.0000004E-02;  9.9999998E-03; -1.9000000E-01;1025;  0.0000000E+00;  0.0000000E+00;  0.0000000E+00;  1.0000697E+03;  1.0000000E-01;  5.7776142E+01;0;  0.0000000E+00;  0.0000000E+00;  0.0000000E+00;0; -1.3564579E-02;  4.0000000E+04;  0.0000000E+00;  0.0000000E+00;  4.0000000E+04;  0.0000000E+00;  4.0000000E+04; -1.4183718E-02;  0.0000000E+00;  6.1913877E-04;  9.4404443E+02;
 -9.0000004E-02;  9.9999998E-03; -1.8000001E-01;1026;  0.0000000E+00;  0.0000000E+00;  0.0000000E+00;  1.0000760E+03;  1.0000000E-01;  6.3010563E+01;0;  0.0000000E+00;  0.0000000E+00;  0.0000000E+00;0; -1.4450030E-02;  4.0000000E+04;  0.0000000E+00;  0.0000000E+00;  4.0000000E+04;  0.0000000E+00;  4.0000000E+04; -1.5092782E-02;  0.0000000E+00;  6.4275175E-04;  9.2578461E+02;
 -9.0000004E-02;  9.9999998E-03; -1.7000000E-01;1027;  0.0000000E+00;  0.0000000E+00;  0.0000000E+00;  1.0000829E+03;  1.0000000E-01;  6.8640038E+01;0;  0.0000000E+00;  0.0000000E+00;  0.0000000E+00;0; -1.5315498E-02;  4.0000000E+04;  0.0000000E+00;  0.0000000E+00;  4.0000000E+04;  0.0000000E+00;  4.0000000E+04; -1.5947085E-02;  0.0000000E+00;  6.3158630E-04;  8.9025342E+02;
 -9.0000004E-02;  9.9999998E-03; -1.6000000E-01;1028;  0.0000000E+00;  0.0000000E+00;  0.0000000E+00;  1.0000900E+03;  1.0000000E-01;  7.4565796E+01;0;  0.0000000E+00;  0.0000000E+00;  0.0000000E+00;0; -1.6135149E-02;  4.0000000E+04;  0.0000000E+00;  0.0000000E+00;  4.0000000E+04;  0.0000000E+00;  4.0000000E+04; -1.6731655E-02;  0.0000000E+00;  5.9650693E-04;  8.4499670E+02;
 -9.0000004E-02;  9.9999998E-03; -1.5000001E-01;1029;  0.0000000E+00;  0.0000000E+00;  0.0000000E+00;  1.0000969E+03;  1.0000000E-01;  8.0294022E+01;0;  0.0000000E+00;  0.0000000E+00;  0.0000000E+00;0; -1.6885897E-02;  4.0000000E+04;  0.0000000E+00;  0.0000000E+00;  4.0000000E+04;  0.0000000E+00;  4.0000000E+04; -1.7434271E-02;  0.0000000E+00;  5.4837408E-04;  7.9576416E+02;
 -9.0000004E-02;  9.9999998E-03; -1.4000000E-01;1030;  0.0000000E+00;  0.0000000E+00;  0.0000000E+00;  1.0001031E+03;  1.0000000E-01;  8.5429680E+01;0;  0.0000000E+00;  0.0000000E+00;  0.0000000E+00;0; -1.7550303E-02;  4.0000000E+04;  0.0000000E+00;  0.0000000E+00;  4.0000000E+04;  0.0000000E+00;  4.0000000E+04; -1.8046934E-02;  0.0000000E+00;  4.9663236E-04;  7.4655273E+02;
 -9.0000004E-02;  9.9999998E-03; -1.3000000E-01;1031;  0.0000000E+00;  0.0000000E+00;  0.0000000E+00;  1.0001088E+03;  1.0000000E-01;  9.0071526E+01;0;  0.0000000E+00;  0.0000000E+00;  0.0000000E+00;0; -1.8118111E-02;  4.0000000E+04;  0.0000000E+00;  0.0000000E+00;  4.0000000E+04;  0.0000000E+00;  4.0000000E+04; -1.8566672E-02;  0.0000000E+00;  4.4856087E-04;  6.9999316E+02;
 -9.0000004E-02;  9.9999998E-03; -1.2000000E-01;1032;  0.0000000E+00;  0.0000000E+00;  0.0000000E+00;  1.0001134E+03;  1.0000000E-01;  9.3923271E+01;0;  0.0000000E+00;  0.0000000E+00;  0.0000000E+00;0; -1.8586371E-02;  4.0000000E+04;  0.0000000E+00;  0.0000000E+00;  4.0000000E+04;  0.0000000E+00;  4.0000000E+04; -1.8995516E-02;  0.0000000E+00;  4.0914491E-04;  6.5803430E+02;
 -9.0000004E-02;  9.9999998E-03; -1.1000000E-01;1033;  0.0000000E+00;  0.0000000E+00;  0.0000000E+00;  1.0001176E+03;  1.0000000E-01;  9.7478722E+01;0;  0.0000000E+00;  0.0000000E+00;  0.0000000E+00;0; -1.8958800E-02;  4.0000000E+04;  0.0000000E+00;  0.0000000E+00;  4.0000000E+04;  0.0000000E+00;  4.0000000E+04; -1.9339729E-02;  0.0000000E+00;  3.8092959E-04;  6.2210846E+02;
 -7.9999998E-02;  9.9999998E-03; -2.7000001E-01;1108;  0.0000000E+00;  0.0000000E+00;  0.0000000E+00;  1.0000603E+03;  1.0000000E-01;  4.9973896E+01;0;  0.0000000E+00;  0.0000000E+00;  0.0000000E+00;0; -1.1645360E-02;  4.0000000E+04;  0.0000000E+00;  0.0000000E+00;  4.0000000E+04;  0.0000000E+00;  4.0000000E+04; -1.0198988E-02;  0.0000000E+00; -1.4463722E-03;  2.4762106E+02;
 -7.9999998E-02;  9.9999998E-03; -2.5999999E-01;1109;  0.0000000E+00;  0.0000000E+00;  0.0000000E+00;  1.0000656E+03;  1.0000000E-01;  5.4319450E+01;0;  0.0000000E+00;  0.0000000E+00;  0.0000000E+00;0; -1.2849031E-02;  4.0000000E+04;  0.0000000E+00;  0.0000000E+00;  4.0000000E+04;  0.0000000E+00;  4.0000000E+04; -1.1733515E-02;  0.0000000E+00; -1.1155156E-03;  1.7524771E+02;
 -7.9999998E-02;  9.9999998E-03; -2.5000000E-01;1110;  0.0000000E+00;  0.0000000E+00;  0.0000000E+00;  1.0000709E+03;  1.0000000E-01;  5.8665009E+01;0;  0.0000000E+00;  0.0000000E+00;  0.0000000E+00;0; -1.4028481E-02;  4.0000000E+04;  0.0000000E+00;  0.0000000E+00;  4.0000000E+04;  0.0000000E+00;  4.0000000E+04; -1.3298523E-02;  0.0000000E+00; -7.2995812E-04;  4.7686688E+02;
 -7.9999998E-02;  9.9999998E-03; -2.3999999E-01;1111;  0.0000000E+00;  0.0000000E+00;  0.0000000E+00;  1.0000764E+03;  1.0000000E-01;  6.3306850E+01;0;  0.0000000E+00;  0.0000000E+00;  0.0000000E+00;0; -1.5205070E-02;  4.0000000E+04;  0.0000000E+00;  0.0000000E+00;  4.0000000E+04;  0.0000000E+00;  4.0000000E+04; -1.4880806E-02;  0.0000000E+00; -3.2426461E-04;  7.7934210E+02;
 -7.9999998E-02;  9.9999998E-03; -2.3000000E-01;1112;  0.0000000E+00;  0.0000000E+00;  0.0000000E+00;  1.0000825E+03;  1.0000000E-01;  6.8343742E+01;0;  0.0000000E+00;  0.0000000E+00;  0.0000000E+00;0; -1.6402099E-02;  4.0000000E+04;  0.0000000E+00;  0.0000000E+00;  4.0000000E+04;  0.0000000E+00;  4.0000000E+04; -1.6469041E-02;  0.0000000E+00;  6.6942033E-05;  1.0366338E+03;
 -7.9999998E-02;  9.9999998E-03; -2.2000000E-01;1113;  0.0000000E+00;  0.0000000E+00;  0.0000000E+00;  1.0000894E+03;  1.0000000E-01;  7.4071976E+01;0;  0.0000000E+00;  0.0000000E+00;  0.0000000E+00;0; -1.7638531E-02;  4.0000000E+04;  0.0000000E+00;  0.0000000E+00;  4.0000000E+04;  0.0000000E+00;  4.0000000E+04; -1.8052125E-02;  0.0000000E+00;  4.1359404E-04;  1.2326071E+03;
 -7.9999998E-02;  9.9999998E-03; -2.0999999E-01;1114;  0.0000000E+00;  0.0000000E+00;  0.0000000E+00;  1.0000971E+03;  1.0000000E-01;  8.0491554E+01;0;  0.0000000E+00;  0.0000000E+00;  0.0000000E+00;0; -1.8923780E-02;  4.0000000E+04;  0.0000000E+00;  0.0000000E+00;  4.0000000E+04;  0.0000000E+00;  4.0000000E+04; -1.9617496E-02;  0.0000000E+00;  6.9371634E-04;  1.3617761E+03;
 -7.9999998E-02;  9.9999998E-03; -2.0000000E-01;1115;  0.0000000E+00;  0.0000000E+00;  0.0000000E+00;  1.0001062E+03;  1.0000000E-01;  8.7997513E+01;0;  0.0000000E+00;  0.0000000E+00;  0.0000000E+00;0; -2.0254532E-02;  4.0000000E+04;  0.0000000E+00;  0.0000000E+00;  4.0000000E+04;  0.0000000E+00;  4.0000000E+04; -2.1150015E-02;  0.0000000E+00;  8.9548295E-04;  1.4271228E+03;
 -7.9999998E-02;  9.9999998E-03; -1.9000000E-01;1116;  0.0000000E+00;  0.0000000E+00;  0.0000000E+00;  1.0001155E+03;  1.0000000E-01;  9.5700996E+01;0;  0.0000000E+00;  0.0000000E+00;  0.0000000E+00;0; -2.1614188E-02;  4.0000000E+04;  0.0000000E+00;  0.0000000E+00;  4.0000000E+04;  0.0000000E+00;  4.0000000E+04; -2.2631690E-02;  0.0000000E+00;  1.0175018E-03;  1.4379983E+03;
 -7.9999998E-02;  9.9999998E-03; -1.8000001E-01;1117;  0.0000000E+00;  0.0000000E+00;  0.0000000E+00;  1.0001260E+03;  1.0000000E-01;  1.0439211E+02;0;  0.0000000E+00;  0.0000000E+00;  0.0000000E+00;0; -2.2974754E-02;  4.0000000E+04;  0.0000000E+00;  0.0000000E+00;  4.0000000E+04;  0.0000000E+00;  4.0000000E+04; -2.4042213E-02;  0.0000000E+00;  1.0674595E-03;  1.4075282E+03;
 -7.9999998E-02;  9.9999998E-03; -1.7000000E-01;1118;  0.0000000E+00;  0.0000000E+00;  0.0000000E+00;  1.0001371E+03;  1.0000000E-01;  1.1357703E+02;0;  0.0000000E+00;  0.0000000E+00;  0.0000000E+00;0; -2.4300847E-02;  4.0000000E+04;  0.0000000E+00;  0.0000000E+00;  4.0000000E+04;  0.0000000E+00;  4.0000000E+04; -2.5360337E-02;  0.0000000E+00;  1.0594900E-03;  1.3497656E+03;
 -7.9999998E-02;  9.9999998E-03; -1.6000000E-01;1119;  0.0000000E+00;  0.0000000E+00;  0.0000000E+00;  1.0001479E+03;  1.0000000E-01;  1.2256444E+02;0;  0.0000000E+00;  0.0000000E+00;  0.0000000E+00;0; -2.5555216E-02;  4.0000000E+04;  0.0000000E+00;  0.0000000E+00;  4.0000000E+04;  0.0000000E+00;  4.0000000E+04; -2.6566118E-02;  0.0000000E+00;  1.0109013E-03;  1.2771450E+03;
 -7.9999998E-02;  9.9999998E-03; -1.5000001E-01;1120;  0.0000000E+00;  0.0000000E+00;  0.0000000E+00;  1.0001588E+03;  1.0000000E-01;  1.3155183E+02;0;  0.0000000E+00;  0.0000000E+00;  0.0000000E+00;0; -2.6704105E-02;  4.0000000E+04;  0.0000000E+00;  0.0000000E+00;  4.0000000E+04;  0.0000000E+00;  4.0000000E+04; -2.7643286E-02;  0.0000000E+00;  9.3918166E-04;  1.1990388E+03;
 -7.9999998E-02;  9.9999998E-03; -1.4000000E-01;1121;  0.0000000E+00;  0.0000000E+00;  0.0000000E+00;  1.0001689E+03;  1.0000000E-01;  1.3994666E+02;0;  0.0000000E+00;  0.0000000E+00;  0.0000000E+00;0; -2.7721677E-02;  4.0000000E+04;  0.0000000E+00;  0.0000000E+00;  4.0000000E+04;  0.0000000E+00;  4.0000000E+04; -2.8581619E-02;  0.0000000E+00;  8.5994316E-04;  1.1220413E+03;
 -7.9999998E-02;  9.9999998E-03; -1.3000000E-01;1122;  0.0000000E+00;  0.0000000E+00;  0.0000000E+00;  1.0001782E+03;  1.0000000E-01;  1.4765015E+02;0;  0.0000000E+00;  0.0000000E+00;  0.0000000E+00;0; -2.8592521E-02;  4.0000000E+04;  0.0000000E+00;  0.0000000E+00;  4.0000000E+04;  0.0000000E+00;  4.0000000E+04; -2.9377799E-02;  0.0000000E+00;  7.8527781E-04;  1.0502488E+03;
 -7.9999998E-02;  9.9999998E-03; -1.2000000E-01;1123;  0.0000000E+00;  0.0000000E+00;  0.0000000E+00;  1.0001857E+03;  1.0000000E-01;  1.5387219E+02;0;  0.0000000E+00;  0.0000000E+00;  0.0000000E+00;0; -2.9312063E-02;  4.0000000E+04;  0.0000000E+00;  0.0000000E+00;  4.0000000E+04;  0.0000000E+00;  4.0000000E+04; -3.0035544E-02;  0.0000000E+00;  7.2348182E-04;  9.8629700E+02;
 -7.9999998E-02;  9.9999998E-03; -1.1000000E-01;1124;  0.0000000E+00;  0.0000000E+00;  0.0000000E+00;  1.0001924E+03;  1.0000000E-01;  1.5940289E+02;0;  0.0000000E+00;  0.0000000E+00;  0.0000000E+00;0; -2.9885421E-02;  4.0000000E+04;  0.0000000E+00;  0.0000000E+00;  4.0000000E+04;  0.0000000E+00;  4.0000000E+04; -3.0564407E-02;  0.0000000E+00;  6.7898544E-04;  9.3193719E+02;
 -7.0000000E-02;  9.9999998E-03; -2.7000001E-01;1199;  0.0000000E+00;  0.0000000E+00;  0.0000000E+00;  1.0000959E+03;  1.0000000E-01;  7.9503922E+01;0;  0.0000000E+00;  0.0000000E+00;  0.0000000E+00;0; -1.7772002E-02;  4.0000000E+04;  0.0000000E+00;  0.0000000E+00;  4.0000000E+04;  0.0000000E+00;  4.0000000E+04; -1.5488858E-02;  0.0000000E+00; -2.2831445E-03;  3.9024646E+02;
 -7.0000000E-02;  9.9999998E-03; -2.5999999E-01;1200;  0.0000000E+00;  0.0000000E+00;  0.0000000E+00;  1.0001042E+03;  1.0000000E-01;  8.6318550E+01;0;  0.0000000E+00;  0.0000000E+00;  0.0000000E+00;0; -1.9593097E-02;  4.0000000E+04;  0.0000000E+00;  0.0000000E+00;  4.0000000E+04;  0.0000000E+00;  4.0000000E+04; -1.7824961E-02;  0.0000000E+00; -1.7681372E-03;  2.7583759E+02;
 -7.0000000E-02;  9.9999998E-03; -2.5000000E-01;1201;  0.0000000E+00;  0.0000000E+00;  0.0000000E+00;  1.0001129E+03;  1.0000000E-01;  9.3528221E+01;0;  0.0000000E+00;  0.0000000E+00;  0.0000000E+00;0; -2.1377772E-02;  4.0000000E+04;  0.0000000E+00;  0.0000000E+00;  4.0000000E+04;  0.0000000E+00;  4.0000000E+04; -2.0207910E-02;  0.0000000E+00; -1.1698622E-03;  6.9414667E+02;
 -7.0000000E-02;  9.9999998E-03; -2.3999999E-01;1202;  0.0000000E+00;  0.0000000E+00;  0.0000000E+00;  1.0001217E+03;  1.0000000E-01;  1.0083665E+02;0;  0.0000000E+00;  0.0000000E+00;  0.0000000E+00;0; -2.3154680E-02;  4.0000000E+04;  0.0000000E+00;  0.0000000E+00;  4.0000000E+04;  0.0000000E+00;  4.0000000E+04; -2.2614155E-02;  0.0000000E+00; -5.4052565E-04;  1.1278497E+03;
 -7.0000000E-02;  9.9999998E-03; -2.3000000E-01;1203;  0.0000000E+00;  0.0000000E+00;  0.0000000E+00;  1.0001311E+03;  1.0000000E-01;  1.0863890E+02;0;  0.0000000E+00;  0.0000000E+00;  0.0000000E+00;0; -2.4955021E-02;  4.0000000E+04;  0.0000000E+00;  0.0000000E+00;  4.0000000E+04;  0.0000000E+00;  4.0000000E+04; -2.5022734E-02;  0.0000000E+00;  6.7712390E-05;  1.4977332E+03;
 -7.0000000E-02;  9.9999998E-03; -2.2000000E-01;1204;  0.0000000E+00;  0.0000000E+00;  0.0000000E+00;  1.0001418E+03;  1.0000000E-01;  1.1752754E+02;0;  0.0000000E+00;  0.0000000E+00;  0.0000000E+00;0; -2.6803713E-02;  4.0000000E+04;  0.0000000E+00;  0.0000000E+00;  4.0000000E+04;  0.0000000E+00;  4.0000000E+04; -2.7413145E-02;  0.0000000E+00;  6.0943188E-04;  1.7792847E+03;
 -7.0000000E-02;  9.9999998E-03; -2.0999999E-01;1205;  0.0000000E+00;  0.0000000E+00;  0.0000000E+00;  1.0001541E+03;  1.0000000E-01;  1.2760133E+02;0;  0.0000000E+00;  0.0000000E+00;  0.0000000E+00;0; -2.8712558E-02;  4.0000000E+04;  0.0000000E+00;  0.0000000E+00;  4.0000000E+04;  0.0000000E+00;  4.0000000E+04; -2.9763654E-02;  0.0000000E+00;  1.0510968E-03;  1.9644263E+03;
 -7.0000000E-02;  9.9999998E-03; -2.0000000E-01;1206;  0.0000000E+00;  0.0000000E+00;  0.0000000E+00;  1.0001674E+03;  1.0000000E-01;  1.3866275E+02;0;  0.0000000E+00;  0.0000000E+00;  0.0000000E+00;0; -3.0676218E-02;  4.0000000E+04;  0.0000000E+00;  0.0000000E+00;  4.0000000E+04;  0.0000000E+00;  4.0000000E+04; -3.2050326E-02;  0.0000000E+00;  1.3741083E-03;  2.0571841E+03;
 -7.0000000E-02;  9.9999998E-03; -1.9000000E-01;1207;  0.0000000E+00;  0.0000000E+00;  0.0000000E+00;  1.0001822E+03;  1.0000000E-01;  1.5090932E+02;0;  0.0000000E+00;  0.0000000E+00;  0.0000000E+00;0; -3.2671258E-02;  4.0000000E+04;  0.0000000E+00;  0.0000000E+00;  4.0000000E+04;  0.0000000E+00;  4.0000000E+04; -3.4246650E-02;  0.0000000E+00;  1.5753913E-03;  2.0706555E+03;
 -7.0000000E-02;  9.9999998E-03; -1.8000001E-01;1208;  0.0000000E+00;  0.0000000E+00;  0.0000000E+00;  1.0001980E+03;  1.0000000E-01;  1.6404474E+02;0;  0.0000000E+00;  0.0000000E+00;  0.0000000E+00;0; -3.4659006E-02;  4.0000000E+04;  0.0000000E+00;  0.0000000E+00;  4.0000000E+04;  0.0000000E+00;  4.0000000E+04; -3.6324635E-02;  0.0000000E+00;  1.6656296E-03;  2.0235190E+03;
 -7.0000000E-02;  9.9999998E-03; -1.7000000E-01;1209;  0.0000000E+00;  0.0000000E+00;  0.0000000E+00;  1.0002144E+03;  1.0000000E-01;  1.7767398E+02;0;  0.0000000E+00;  0.0000000E+00;  0.0000000E+00;0; -3.6590628E-02;  4.0000000E+04;  0.0000000E+00;  0.0000000E+00;  4.0000000E+04;  0.0000000E+00;  4.0000000E+04; -3.8256250E-02;  0.0000000E+00;  1.6656206E-03;  1.9362382E+03;
 -7.0000000E-02;  9.9999998E-03; -1.6000000E-01;1210;  0.0000000E+00;  0.0000000E+00;  0.0000000E+00;  1.0002311E+03;  1.0000000E-01;  1.9150076E+02;0;  0.0000000E+00;  0.0000000E+00;  0.0000000E+00;0; -3.8414381E-02;  4.0000000E+04;  0.0000000E+00;  0.0000000E+00;  4.0000000E+04;  0.0000000E+00;  4.0000000E+04; -4.0015928E-02;  0.0000000E+00;  1.6015463E-03;  1.8275959E+03;
 -7.0000000E-02;  9.9999998E-03; -1.5000001E-01;1211;  0.0000000E+00;  0.0000000E+00;  0.0000000E+00;  1.0002472E+03;  1.0000000E-01;  2.0483371E+02;0;  0.0000000E+00;  0.0000000E+00;  0.0000000E+00;0; -4.0083189E-02;  4.0000000E+04;  0.0000000E+00;  0.0000000E+00;  4.0000000E+04;  0.0000000E+00;  4.0000000E+04; -4.1583419E-02;  0.0000000E+00;  1.5002317E-03;  1.7120814E+03;
 -7.0000000E-02;  9.9999998E-03; -1.4000000E-01;1212;  0.0000000E+00;  0.0000000E+00;  0.0000000E+00;  1.0002626E+03;  1.0000000E-01;  2.1757410E+02;0;  0.0000000E+00;  0.0000000E+00;  0.0000000E+00;0; -4.1560825E-02;  4.0000000E+04;  0.0000000E+00;  0.0000000E+00;  4.0000000E+04;  0.0000000E+00;  4.0000000E+04; -4.2946484E-02;  0.0000000E+00;  1.3856577E-03;  1.5994884E+03;
 -7.0000000E-02;  9.9999998E-03; -1.3000000E-01;1213;  0.0000000E+00;  0.0000000E+00;  0.0000000E+00;  1.0002768E+03;  1.0000000E-01;  2.2932684E+02;0;  0.0000000E+00;  0.0000000E+00;  0.0000000E+00;0; -4.2825475E-02;  4.0000000E+04;  0.0000000E+00;  0.0000000E+00;  4.0000000E+04;  0.0000000E+00;  4.0000000E+04; -4.4102274E-02;  0.0000000E+00;  1.2767968E-03;  1.4959352E+03;
 -7.0000000E-02;  9.9999998E-03; -1.2000000E-01;1214;  0.0000000E+00;  0.0000000E+00;  0.0000000E+00;  1.0002891E+03;  1.0000000E-01;  2.3949940E+02;0;  0.0000000E+00;  0.0000000E+00;  0.0000000E+00;0; -4.3870565E-02;  4.0000000E+04;  0.0000000E+00;  0.0000000E+00;  4.0000000E+04;  0.0000000E+00;  4.0000000E+04; -4.5057084E-02;  0.0000000E+00;  1.1865195E-03;  1.4047795E+03;
 -7.0000000E-02;  9.9999998E-03; -1.1000000E-01;1215;  0.0000000E+00;  0.0000000E+00;  0.0000000E+00;  1.0002998E+03;  1.0000000E-01;  2.4838803E+02;0;  0.0000000E+00;  0.0000000E+00;  0.0000000E+00;0; -4.4703592E-02;  4.0000000E+04;  0.0000000E+00;  0.0000000E+00;  4.0000000E+04;  0.0000000E+00;  4.0000000E+04; -4.5825411E-02;  0.0000000E+00;  1.1218188E-03;  1.3279404E+03;
 -5.9999999E-02;  9.9999998E-03; -2.7000001E-01;1290;  0.0000000E+00;  0.0000000E+00;  0.0000000E+00;  1.0001461E+03;  1.0000000E-01;  1.2098423E+02;0;  0.0000000E+00;  0.0000000E+00;  0.0000000E+00;0; -2.5931135E-02;  4.0000000E+04;  0.0000000E+00;  0.0000000E+00;  4.0000000E+04;  0.0000000E+00;  4.0000000E+04; -2.2512604E-02;  0.0000000E+00; -3.4185306E-03;  5.7679907E+02;
 -5.9999999E-02;  9.9999998E-03; -2.5999999E-01;1291;  0.0000000E+00;  0.0000000E+00;  0.0000000E+00;  1.0001588E+03;  1.0000000E-01;  1.3155183E+02;0;  0.0000000E+00;  0.0000000E+00;  0.0000000E+00;0; -2.8558953E-02;  4.0000000E+04;  0.0000000E+00;  0.0000000E+00;  4.0000000E+04;  0.0000000E+00;  4.0000000E+04; -2.5906483E-02;  0.0000000E+00; -2.6524696E-03;  4.0786011E+02;
 -5.9999999E-02;  9.9999998E-03; -2.5000000E-01;1292;  0.0000000E+00;  0.0000000E+00;  0.0000000E+00;  1.0001714E+03;  1.0000000E-01;  1.4202068E+02;0;  0.0000000E+00;  0.0000000E+00;  0.0000000E+00;0; -3.1131443E-02;  4.0000000E+04;  0.0000000E+00;  0.0000000E+00;  4.0000000E+04;  0.0000000E+00;  4.0000000E+04; -2.9365325E-02;  0.0000000E+00; -1.7661179E-03;  9.6738208E+02;
 -5.9999999E-02;  9.9999998E-03; -2.3999999E-01;1293;  0.0000000E+00;  0.0000000E+00;  0.0000000E+00;  1.0001848E+03;  1.0000000E-01;  1.5308209E+02;0;  0.0000000E+00;  0.0000000E+00;  0.0000000E+00;0; -3.3686902E-02;  4.0000000E+04;  0.0000000E+00;  0.0000000E+00;  4.0000000E+04;  0.0000000E+00;  4.0000000E+04; -3.2851569E-02;  0.0000000E+00; -8.3533197E-04;  1.5617124E+03;
 -5.9999999E-02;  9.9999998E-03; -2.3000000E-01;1294;  0.0000000E+00;  0.0000000E+00;  0.0000000E+00;  1.0001990E+03;  1.0000000E-01;  1.6483484E+02;0;  0.0000000E+00;  0.0000000E+00;  0.0000000E+00;0; -3.6266327E-02;  4.0000000E+04;  0.0000000E+00;  0.0000000E+00;  4.0000000E+04;  0.0000000E+00;  4.0000000E+04; -3.6330856E-02;  0.0000000E+00;  6.4528926E-05;  2.0681301E+03;
 -5.9999999E-02;  9.9999998E-03; -2.2000000E-01;1295;  0.0000000E+00;  0.0000000E+00;  0.0000000E+00;  1.0002150E+03;  1.0000000E-01;  1.7806903E+02;0;  0.0000000E+00;  0.0000000E+00;  0.0000000E+00;0; -3.8902100E-02;  4.0000000E+04;  0.0000000E+00;  0.0000000E+00;  4.0000000E+04;  0.0000000E+00;  4.0000000E+04; -3.9770044E-02;  0.0000000E+00;  8.6794444E-04;  2.4519014E+03;
 -5.9999999E-02;  9.9999998E-03; -2.0999999E-01;1296;  0.0000000E+00;  0.0000000E+00;  0.0000000E+00;  1.0002326E+03;  1.0000000E-01;  1.9268591E+02;0;  0.0000000E+00;  0.0000000E+00;  0.0000000E+00;0; -4.1608825E-02;  4.0000000E+04;  0.0000000E+00;  0.0000000E+00;  4.0000000E+04;  0.0000000E+00;  4.0000000E+04; -4.3135203E-02;  0.0000000E+00;  1.5263781E-03;  2.7023894E+03;
 -5.9999999E-02;  9.9999998E-03; -2.0000000E-01;1297;  0.0000000E+00;  0.0000000E+00;  0.0000000E+00;  1.0002522E+03;  1.0000000E-01;  2.0898175E+02;0;  0.0000000E+00;  0.0000000E+00;  0.0000000E+00;0; -4.4378262E-02;  4.0000000E+04;  0.0000000E+00;  0.0000000E+00;  4.0000000E+04;  0.0000000E+00;  4.0000000E+04; -4.6390790E-02;  0.0000000E+00;  2.0125296E-03;  2.8256052E+03;
 -5.9999999E-02;  9.9999998E-03; -1.9000000E-01;1298;  0.0000000E+00;  0.0000000E+00;  0.0000000E+00;  1.0002736E+03;  1.0000000E-01;  2.2666026E+02;0;  0.0000000E+00;  0.0000000E+00;  0.0000000E+00;0; -4.7178425E-02;  4.0000000E+04;  0.0000000E+00;  0.0000000E+00;  4.0000000E+04;  0.0000000E+00;  4.0000000E+04; -4.9499691E-02;  0.0000000E+00;  2.3212670E-03;  2.8396929E+03;
 -5.9999999E-02;  9.9999998E-03; -1.8000001E-01;1299;  0.0000000E+00;  0.0000000E+00;  0.0000000E+00;  1.0002966E+03;  1.0000000E-01;  2.4572145E+02;0;  0.0000000E+00;  0.0000000E+00;  0.0000000E+00;0; -4.9957182E-02;  4.0000000E+04;  0.0000000E+00;  0.0000000E+00;  4.0000000E+04;  0.0000000E+00;  4.0000000E+04; -5.2424502E-02;  0.0000000E+00;  2.4673177E-03;  2.7702749E+03;
 -5.9999999E-02;  9.9999998E-03; -1.7000000E-01;1300;  0.0000000E+00;  0.0000000E+00;  0.0000000E+00;  1.0003203E+03;  1.0000000E-01;  2.6537521E+02;0;  0.0000000E+00;  0.0000000E+00;  0.0000000E+00;0; -5.2649088E-02;  4.0000000E+04;  0.0000000E+00;  0.0000000E+00;  4.0000000E+04;  0.0000000E+00;  4.0000000E+04; -5.5129409E-02;  0.0000000E+00;  2.4803223E-03;  2.6456340E+03;
 -5.9999999E-02;  9.9999998E-03; -1.6000000E-01;1301;  0.0000000E+00;  0.0000000E+00;  0.0000000E+00;  1.0003447E+03;  1.0000000E-01;  2.8562155E+02;0;  0.0000000E+00;  0.0000000E+00;  0.0000000E+00;0; -5.5184849E-02;  4.0000000E+04;  0.0000000E+00;  0.0000000E+00;  4.0000000E+04;  0.0000000E+00;  4.0000000E+04; -5.7583082E-02;  0.0000000E+00;  2.3982348E-03;  2.4921816E+03;
 -5.9999999E-02;  9.9999998E-03; -1.5000001E-01;1302;  0.0000000E+00;  0.0000000E+00;  0.0000000E+00;  1.0003685E+03;  1.0000000E-01;  3.0527533E+02;0;  0.0000000E+00;  0.0000000E+00;  0.0000000E+00;0; -5.7501391E-02;  4.0000000E+04;  0.0000000E+00;  0.0000000E+00;  4.0000000E+04;  0.0000000E+00;  4.0000000E+04; -5.9761811E-02;  0.0000000E+00;  2.2604221E-03;  2.3308667E+03;
 -5.9999999E-02;  9.9999998E-03; -1.4000000E-01;1303;  0.0000000E+00;  0.0000000E+00;  0.0000000E+00;  1.0003912E+03;  1.0000000E-01;  3.2404022E+02;0;  0.0000000E+00;  0.0000000E+00;  0.0000000E+00;0; -5.9549760E-02;  4.0000000E+04;  0.0000000E+00;  0.0000000E+00;  4.0000000E+04;  0.0000000E+00;  4.0000000E+04; -6.1651878E-02;  0.0000000E+00;  2.1021171E-03;  2.1756208E+03;
 -5.9999999E-02;  9.9999998E-03; -1.3000000E-01;1304;  0.0000000E+00;  0.0000000E+00;  0.0000000E+00;  1.0004121E+03;  1.0000000E-01;  3.4142245E+02;0;  0.0000000E+00;  0.0000000E+00;  0.0000000E+00;0; -6.1300732E-02;  4.0000000E+04;  0.0000000E+00;  0.0000000E+00;  4.0000000E+04;  0.0000000E+00;  4.0000000E+04; -6.3252032E-02;  0.0000000E+00;  1.9512984E-03;  2.0347317E+03;
 -5.9999999E-02;  9.9999998E-03; -1.2000000E-01;1305;  0.0000000E+00;  0.0000000E+00;  0.0000000E+00;  1.0004313E+03;  1.0000000E-01;  3.5732324E+02;0;  0.0000000E+00;  0.0000000E+00;  0.0000000E+00;0; -6.2746085E-02;  4.0000000E+04;  0.0000000E+00;  0.0000000E+00;  4.0000000E+04;  0.0000000E+00;  4.0000000E+04; -6.4572990E-02;  0.0000000E+00;  1.8269019E-03;  1.9123038E+03;
 -5.9999999E-02;  9.9999998E-03; -1.1000000E-01;1306;  0.0000000E+00;  0.0000000E+00;  0.0000000E+00;  1.0004495E+03;  1.0000000E-01;  3.7243390E+02;0;  0.0000000E+00;  0.0000000E+00;  0.0000000E+00;0; -6.3896470E-02;  4.0000000E+04;  0.0000000E+00;  0.0000000E+00;  4.0000000E+04;  0.0000000E+00;  4.0000000E+04; -6.5635622E-02;  0.0000000E+00;  1.7391486E-03;  1.8101387E+03;
 -5.0000001E-02;  9.9999998E-03; -2.7000001E-01;1381;  0.0000000E+00;  0.0000000E+00;  0.0000000E+00;  1.0002130E+03;  1.0000000E-01;  1.7648883E+02;0;  0.0000000E+00;  0.0000000E+00;  0.0000000E+00;0; -3.6321841E-02;  4.0000000E+04;  0.0000000E+00;  0.0000000E+00;  4.0000000E+04;  0.0000000E+00;  4.0000000E+04; -3.1433098E-02;  0.0000000E+00; -4.8887413E-03;  7.9913806E+02;
 -5.0000001E-02;  9.9999998E-03; -2.5999999E-01;1382;  0.0000000E+00;  0.0000000E+00;  0.0000000E+00;  1.0002312E+03;  1.0000000E-01;  1.9150076E+02;0;  0.0000000E+00;  0.0000000E+00;  0.0000000E+00;0; -3.9953329E-02;  4.0000000E+04;  0.0000000E+00;  0.0000000E+00;  4.0000000E+04;  0.0000000E+00;  4.0000000E+04; -3.6159907E-02;  0.0000000E+00; -3.7934217E-03;  5.5612830E+02;
 -5.0000001E-02;  9.9999998E-03; -2.5000000E-01;1383;  0.0000000E+00;  0.0000000E+00;  0.0000000E+00;  1.0002498E+03;  1.0000000E-01;  2.0690773E+02;0;  0.0000000E+00;  0.0000000E+00;  0.0000000E+00;0; -4.3501090E-02;  4.0000000E+04;  0.0000000E+00;  0.0000000E+00;  4.0000000E+04;  0.0000000E+00;  4.0000000E+04; -4.0969014E-02;  0.0000000E+00; -2.5320745E-03;  1.2903760E+03;
 -5.0000001E-02;  9.9999998E-03; -2.3999999E-01;1384;  0.0000000E+00;  0.0000000E+00;  0.0000000E+00;  1.0002687E+03;  1.0000000E-01;  2.2261099E+02;0;  0.0000000E+00;  0.0000000E+00;  0.0000000E+00;0; -4.7016021E-02;  4.0000000E+04;  0.0000000E+00;  0.0000000E+00;  4.0000000E+04;  0.0000000E+00;  4.0000000E+04; -4.5804780E-02;  0.0000000E+00; -1.2112391E-03;  2.0762109E+03;
 -5.0000001E-02;  9.9999998E-03; -2.3000000E-01;1385;  0.0000000E+00;  0.0000000E+00;  0.0000000E+00;  1.0002892E+03;  1.0000000E-01;  2.3959816E+02;0;  0.0000000E+00;  0.0000000E+00;  0.0000000E+00;0; -5.0551608E-02;  4.0000000E+04;  0.0000000E+00;  0.0000000E+00;  4.0000000E+04;  0.0000000E+00;  4.0000000E+04; -5.0615732E-02;  0.0000000E+00;  6.4123655E-05;  2.7416665E+03;
 -5.0000001E-02;  9.9999998E-03; -2.2000000E-01;1386;  0.0000000E+00;  0.0000000E+00;  0.0000000E+00;  1.0003115E+03;  1.0000000E-01;  2.5806677E+02;0;  0.0000000E+00;  0.0000000E+00;  0.0000000E+00;0; -5.4149389E-02;  4.0000000E+04;  0.0000000E+00;  0.0000000E+00;  4.0000000E+04;  0.0000000E+00;  4.0000000E+04; -5.5352546E-02;  0.0000000E+00;  1.2031579E-03;  3.2413740E+03;
 -5.0000001E-02;  9.9999998E-03; -2.0999999E-01;1387;  0.0000000E+00;  0.0000000E+00;  0.0000000E+00;  1.0003364E+03;  1.0000000E-01;  2.7870816E+02;0;  0.0000000E+00;  0.0000000E+00;  0.0000000E+00;0; -5.7827368E-02;  4.0000000E+04;  0.0000000E+00;  0.0000000E+00;  4.0000000E+04;  0.0000000E+00;  4.0000000E+04; -5.9966024E-02;  0.0000000E+00;  2.1386570E-03;  3.5631008E+03;
 -5.0000001E-02;  9.9999998E-03; -2.0000000E-01;1388;  0.0000000E+00;  0.0000000E+00;  0.0000000E+00;  1.0003640E+03;  1.0000000E-01;  3.0152234E+02;0;  0.0000000E+00;  0.0000000E+00;  0.0000000E+00;0; -6.1573610E-02;  4.0000000E+04;  0.0000000E+00;  0.0000000E+00;  4.0000000E+04;  0.0000000E+00;  4.0000000E+04; -6.4406350E-02;  0.0000000E+00;  2.8327391E-03;  3.7164478E+03;
 -5.0000001E-02;  9.9999998E-03; -1.9000000E-01;1389;  0.0000000E+00;  0.0000000E+00;  0.0000000E+00;  1.0003942E+03;  1.0000000E-01;  3.2650928E+02;0;  0.0000000E+00;  0.0000000E+00;  0.0000000E+00;0; -6.5345645E-02;  4.0000000E+04;  0.0000000E+00;  0.0000000E+00;  4.0000000E+04;  0.0000000E+00;  4.0000000E+04; -6.8623774E-02;  0.0000000E+00;  3.2781272E-03;  3.7264707E+03;
 -5.0000001E-02;  9.9999998E-03; -1.8000001E-01;1390;  0.0000000E+00;  0.0000000E+00;  0.0000000E+00;  1.0004260E+03;  1.0000000E-01;  3.5297766E+02;0;  0.0000000E+00;  0.0000000E+00;  0.0000000E+00;0; -6.9075324E-02;  4.0000000E+04;  0.0000000E+00;  0.0000000E+00;  4.0000000E+04;  0.0000000E+00;  4.0000000E+04; -7.2570421E-02;  0.0000000E+00;  3.4950988E-03;  3.6275210E+03;
 -5.0000001E-02;  9.9999998E-03; -1.7000000E-01;1391;  0.0000000E+00;  0.0000000E+00;  0.0000000E+00;  1.0004597E+03;  1.0000000E-01;  3.8082874E+02;0;  0.0000000E+00;  0.0000000E+00;  0.0000000E+00;0; -7.2677292E-02;  4.0000000E+04;  0.0000000E+00;  0.0000000E+00;  4.0000000E+04;  0.0000000E+00;  4.0000000E+04; -7.6202184E-02;  0.0000000E+00;  3.5248909E-03;  3.4571855E+03;
 -5.0000001E-02;  9.9999998E-03; -1.6000000E-01;1392;  0.0000000E+00;  0.0000000E+00;  0.0000000E+00;  1.0004940E+03;  1.0000000E-01;  4.0927237E+02;0;  0.0000000E+00;  0.0000000E+00;  0.0000000E+00;0; -7.6061785E-02;  4.0000000E+04;  0.0000000E+00;  0.0000000E+00;  4.0000000E+04;  0.0000000E+00;  4.0000000E+04; -7.9482488E-02;  0.0000000E+00;  3.4207061E-03;  3.2506829E+03;
 -5.0000001E-02;  9.9999998E-03; -1.5000001E-01;1393;  0.0000000E+00;  0.0000000E+00;  0.0000000E+00;  1.0005275E+03;  1.0000000E-01;  4.3702469E+02;0;  0.0000000E+00;  0.0000000E+00;  0.0000000E+00;0; -7.9146318E-02;  4.0000000E+04;  0.0000000E+00;  0.0000000E+00;  4.0000000E+04;  0.0000000E+00;  4.0000000E+04; -8.2384475E-02;  0.0000000E+00;  3.2381571E-03;  3.0363921E+03;
 -5.0000001E-02;  9.9999998E-03; -1.4000000E-01;1394;  0.0000000E+00;  0.0000000E+00;  0.0000000E+00;  1.0005604E+03;  1.0000000E-01;  4.6428317E+02;0;  0.0000000E+00;  0.0000000E+00;  0.0000000E+00;0; -8.1867799E-02;  4.0000000E+04;  0.0000000E+00;  0.0000000E+00;  4.0000000E+04;  0.0000000E+00;  4.0000000E+04; -8.4894881E-02;  0.0000000E+00;  3.0270829E-03;  2.8332104E+03;
 -5.0000001E-02;  9.9999998E-03; -1.3000000E-01;1395;  0.0000000E+00;  0.0000000E+00;  0.0000000E+00;  1.0005925E+03;  1.0000000E-01;  4.9085031E+02;0;  0.0000000E+00;  0.0000000E+00;  0.0000000E+00;0; -8.4188692E-02;  4.0000000E+04;  0.0000000E+00;  0.0000000E+00;  4.0000000E+04;  0.0000000E+00;  4.0000000E+04; -8.7015443E-02;  0.0000000E+00;  2.8267512E-03;  2.6515469E+03;
 -5.0000001E-02;  9.9999998E-03; -1.2000000E-01;1396;  0.0000000E+00;  0.0000000E+00;  0.0000000E+00;  1.0006246E+03;  1.0000000E-01;  5.1751624E+02;0;  0.0000000E+00;  0.0000000E+00;  0.0000000E+00;0; -8.6099476E-02;  4.0000000E+04;  0.0000000E+00;  0.0000000E+00;  4.0000000E+04;  0.0000000E+00;  4.0000000E+04; -8.8763200E-02;  0.0000000E+00;  2.6637241E-03;  2.4960532E+03;
 -5.0000001E-02;  9.9999998E-03; -1.1000000E-01;1397;  0.0000000E+00;  0.0000000E+00;  0.0000000E+00;  1.0006526E+03;  1.0000000E-01;  5.4062671E+02;0;  0.0000000E+00;  0.0000000E+00;  0.0000000E+00;0; -8.7615743E-02;  4.0000000E+04;  0.0000000E+00;  0.0000000E+00;  4.0000000E+04;  0.0000000E+00;  4.0000000E+04; -9.0167724E-02;  0.0000000E+00;  2.5519782E-03;  2.3679165E+03;
 -3.9999999E-02;  9.9999998E-03; -2.7000001E-01;1472;  0.0000000E+00;  0.0000000E+00;  0.0000000E+00;  1.0002994E+03;  1.0000000E-01;  2.4809175E+02;0;  0.0000000E+00;  0.0000000E+00;  0.0000000E+00;0; -4.8962135E-02;  4.0000000E+04;  0.0000000E+00;  0.0000000E+00;  4.0000000E+04;  0.0000000E+00;  4.0000000E+04; -4.2251777E-02;  0.0000000E+00; -6.7103589E-03;  1.0370326E+03;
 -3.9999999E-02;  9.9999998E-03; -2.5999999E-01;1473;  0.0000000E+00;  0.0000000E+00;  0.0000000E+00;  1.0003246E+03;  1.0000000E-01;  2.6893066E+02;0;  0.0000000E+00;  0.0000000E+00;  0.0000000E+00;0; -5.3779233E-02;  4.0000000E+04;  0.0000000E+00;  0.0000000E+00;  4.0000000E+04;  0.0000000E+00;  4.0000000E+04; -4.8580579E-02;  0.0000000E+00; -5.1986547E-03;  6.8834003E+02;
 -3.9999999E-02;  9.9999998E-03; -2.5000000E-01;1474;  0.0000000E+00;  0.0000000E+00;  0.0000000E+00;  1.0003496E+03;  1.0000000E-01;  2.8967081E+02;0;  0.0000000E+00;  0.0000000E+00;  0.0000000E+00;0; -5.8471970E-02;  4.0000000E+04;  0.0000000E+00;  0.0000000E+00;  4.0000000E+04;  0.0000000E+00;  4.0000000E+04; -5.5004865E-02;  0.0000000E+00; -3.4671072E-03;  1.6461904E+03;
 -3.9999999E-02;  9.9999998E-03; -2.3999999E-01;1475;  0.0000000E+00;  0.0000000E+00;  0.0000000E+00;  1.0003758E+03;  1.0000000E-01;  3.1129984E+02;0;  0.0000000E+00;  0.0000000E+00;  0.0000000E+00;0; -6.3107267E-02;  4.0000000E+04;  0.0000000E+00;  0.0000000E+00;  4.0000000E+04;  0.0000000E+00;  4.0000000E+04; -6.1446570E-02;  0.0000000E+00; -1.6606972E-03;  2.6555947E+03;
 -3.9999999E-02;  9.9999998E-03; -2.3000000E-01;1476;  0.0000000E+00;  0.0000000E+00;  0.0000000E+00;  1.0004034E+03;  1.0000000E-01;  3.3421277E+02;0;  0.0000000E+00;  0.0000000E+00;  0.0000000E+00;0; -6.7754492E-02;  4.0000000E+04;  0.0000000E+00;  0.0000000E+00;  4.0000000E+04;  0.0000000E+00;  4.0000000E+04; -6.7833625E-02;  0.0000000E+00;  7.9133933E-05;  3.4992888E+03;
 -3.9999999E-02;  9.9999998E-03; -2.2000000E-01;1477;  0.0000000E+00;  0.0000000E+00;  0.0000000E+00;  1.0004340E+03;  1.0000000E-01;  3.5959476E+02;0;  0.0000000E+00;  0.0000000E+00;  0.0000000E+00;0; -7.2466567E-02;  4.0000000E+04;  0.0000000E+00;  0.0000000E+00;  4.0000000E+04;  0.0000000E+00;  4.0000000E+04; -7.4097291E-02;  0.0000000E+00;  1.6307248E-03;  4.1236211E+03;
 -3.9999999E-02;  9.9999998E-03; -2.0999999E-01;1478;  0.0000000E+00;  0.0000000E+00;  0.0000000E+00;  1.0004680E+03;  1.0000000E-01;  3.8774213E+02;0;  0.0000000E+00;  0.0000000E+00;  0.0000000E+00;0; -7.7265494E-02;  4.0000000E+04;  0.0000000E+00;  0.0000000E+00;  4.0000000E+04;  0.0000000E+00;  4.0000000E+04; -8.0170006E-02;  0.0000000E+00;  2.9045106E-03;  4.5170405E+03;
 -3.9999999E-02;  9.9999998E-03; -2.0000000E-01;1479;  0.0000000E+00;  0.0000000E+00;  0.0000000E+00;  1.0005049E+03;  1.0000000E-01;  4.1835855E+02;0;  0.0000000E+00;  0.0000000E+00;  0.0000000E+00;0; -8.2135484E-02;  4.0000000E+04;  0.0000000E+00;  0.0000000E+00;  4.0000000E+04;  0.0000000E+00;  4.0000000E+04; -8.5985854E-02;  0.0000000E+00;  3.8503683E-03;  4.6953018E+03;
 -3.9999999E-02;  9.9999998E-03; -1.9000000E-01;1480;  0.0000000E+00;  0.0000000E+00;  0.0000000E+00;  1.0005458E+03;  1.0000000E-01;  4.5223413E+02;0;  0.0000000E+00;  0.0000000E+00;  0.0000000E+00;0; -8.7021969E-02;  4.0000000E+04;  0.0000000E+00;  0.0000000E+00;  4.0000000E+04;  0.0000000E+00;  4.0000000E+04; -9.1481186E-02;  0.0000000E+00;  4.4592200E-03;  4.6929155E+03;
 -3.9999999E-02;  9.9999998E-03; -1.8000001E-01;1481;  0.0000000E+00;  0.0000000E+00;  0.0000000E+00;  1.0005895E+03;  1.0000000E-01;  4.8838126E+02;0;  0.0000000E+00;  0.0000000E+00;  0.0000000E+00;0; -9.1837801E-02;  4.0000000E+04;  0.0000000E+00;  0.0000000E+00;  4.0000000E+04;  0.0000000E+00;  4.0000000E+04; -9.6596852E-02;  0.0000000E+00;  4.7590481E-03;  4.5551240E+03;
 -3.9999999E-02;  9.9999998E-03; -1.7000000E-01;1482;  0.0000000E+00;  0.0000000E+00;  0.0000000E+00;  1.0006348E+03;  1.0000000E-01;  5.2591107E+02;0;  0.0000000E+00;  0.0000000E+00;  0.0000000E+00;0; -9.6475028E-02;  4.0000000E+04;  0.0000000E+00;  0.0000000E+00;  4.0000000E+04;  0.0000000E+00;  4.0000000E+04; -1.0128110E-01;  0.0000000E+00;  4.8060701E-03;  4.3304341E+03;
 -3.9999999E-02;  9.9999998E-03; -1.6000000E-01;1483;  0.0000000E+00;  0.0000000E+00;  0.0000000E+00;  1.0006818E+03;  1.0000000E-01;  5.6492230E+02;0;  0.0000000E+00;  0.0000000E+00;  0.0000000E+00;0; -1.0081982E-01;  4.0000000E+04;  0.0000000E+00;  0.0000000E+00;  4.0000000E+04;  0.0000000E+00;  4.0000000E+04; -1.0549267E-01;  0.0000000E+00;  4.6728491E-03;  4.0639395E+03;
 -3.9999999E-02;  9.9999998E-03; -1.5000001E-01;1484;  0.0000000E+00;  0.0000000E+00;  0.0000000E+00;  1.0007290E+03;  1.0000000E-01;  6.0393353E+02;0;  0.0000000E+00;  0.0000000E+00;  0.0000000E+00;0; -1.0476862E-01;  4.0000000E+04;  0.0000000E+00;  0.0000000E+00;  4.0000000E+04;  0.0000000E+00;  4.0000000E+04; -1.0920400E-01;  0.0000000E+00;  4.4353865E-03;  3.7919209E+03;
 -3.9999999E-02;  9.9999998E-03; -1.4000000E-01;1485;  0.0000000E+00;  0.0000000E+00;  0.0000000E+00;  1.0007781E+03;  1.0000000E-01;  6.4462372E+02;0;  0.0000000E+00;  0.0000000E+00;  0.0000000E+00;0; -1.0824207E-01;  4.0000000E+04;  0.0000000E+00;  0.0000000E+00;  4.0000000E+04;  0.0000000E+00;  4.0000000E+04; -1.1240384E-01;  0.0000000E+00;  4.1617649E-03;  3.5386077E+03;
 -3.9999999E-02;  9.9999998E-03; -1.3000000E-01;1486;  0.0000000E+00;  0.0000000E+00;  0.0000000E+00;  1.0008277E+03;  1.0000000E-01;  6.8570898E+02;0;  0.0000000E+00;  0.0000000E+00;  0.0000000E+00;0; -1.1119447E-01;  4.0000000E+04;  0.0000000E+00;  0.0000000E+00;  4.0000000E+04;  0.0000000E+00;  4.0000000E+04; -1.1509950E-01;  0.0000000E+00;  3.9050370E-03;  3.3162986E+03;
 -3.9999999E-02;  9.9999998E-03; -1.2000000E-01;1487;  0.0000000E+00;  0.0000000E+00;  0.0000000E+00;  1.0008721E+03;  1.0000000E-01;  7.2254749E+02;0;  0.0000000E+00;  0.0000000E+00;  0.0000000E+00;0; -1.1361535E-01;  4.0000000E+04;  0.0000000E+00;  0.0000000E+00;  4.0000000E+04;  0.0000000E+00;  4.0000000E+04; -1.1731607E-01;  0.0000000E+00;  3.7007167E-03;  3.1295122E+03;
 -3.9999999E-02;  9.9999998E-03; -1.1000000E-01;1488;  0.0000000E+00;  0.0000000E+00;  0.0000000E+00;  1.0009099E+03;  1.0000000E-01;  7.5375647E+02;0;  0.0000000E+00;  0.0000000E+00;  0.0000000E+00;0; -1.1552735E-01;  4.0000000E+04;  0.0000000E+00;  0.0000000E+00;  4.0000000E+04;  0.0000000E+00;  4.0000000E+04; -1.1909416E-01;  0.0000000E+00;  3.5667992E-03;  2.9780693E+03;
 -2.9999999E-02;  9.9999998E-03; -2.7000001E-01;1563;  0.0000000E+00;  0.0000000E+00;  0.0000000E+00;  1.0004066E+03;  1.0000000E-01;  3.3687936E+02;0;  0.0000000E+00;  0.0000000E+00;  0.0000000E+00;0; -6.3639499E-02;  4.0000000E+04;  0.0000000E+00;  0.0000000E+00;  4.0000000E+04;  0.0000000E+00;  4.0000000E+04; -5.4768473E-02;  0.0000000E+00; -8.8710291E-03;  1.2634042E+03;
 -2.9999999E-02;  9.9999998E-03; -2.5999999E-01;1564;  0.0000000E+00;  0.0000000E+00;  0.0000000E+00;  1.0004398E+03;  1.0000000E-01;  3.6433539E+02;0;  0.0000000E+00;  0.0000000E+00;  0.0000000E+00;0; -6.9784619E-02;  4.0000000E+04;  0.0000000E+00;  0.0000000E+00;  4.0000000E+04;  0.0000000E+00;  4.0000000E+04; -6.2933162E-02;  0.0000000E+00; -6.8514599E-03;  7.6160211E+02;
 -2.9999999E-02;  9.9999998E-03; -2.5000000E-01;1565;  0.0000000E+00;  0.0000000E+00;  0.0000000E+00;  1.0004727E+03;  1.0000000E-01;  3.9159387E+02;0;  0.0000000E+00;  0.0000000E+00;  0.0000000E+00;0; -7.5750366E-02;  4.0000000E+04;  0.0000000E+00;  0.0000000E+00;  4.0000000E+04;  0.0000000E+00;  4.0000000E+04; -7.1198411E-02;  0.0000000E+00; -4.5519532E-03;  2.0128734E+03;
 -2.9999999E-02;  9.9999998E-03; -2.3999999E-01;1566;  0.0000000E+00;  0.0000000E+00;  0.0000000E+00;  1.0005069E+03;  1.0000000E-01;  4.1993875E+02;0;  0.0000000E+00;  0.0000000E+00;  0.0000000E+00;0; -8.1623979E-02;  4.0000000E+04;  0.0000000E+00;  0.0000000E+00;  4.0000000E+04;  0.0000000E+00;  4.0000000E+04; -7.9460144E-02;  0.0000000E+00; -2.1638377E-03;  3.2754409E+03;
 -2.9999999E-02;  9.9999998E-03; -2.3000000E-01;1567;  0.0000000E+00;  0.0000000E+00;  0.0000000E+00;  1.0005435E+03;  1.0000000E-01;  4.5025888E+02;0;  0.0000000E+00;  0.0000000E+00;  0.0000000E+00;0; -8.7493651E-02;  4.0000000E+04;  0.0000000E+00;  0.0000000E+00;  4.0000000E+04;  0.0000000E+00;  4.0000000E+04; -8.7621756E-02;  0.0000000E+00;  1.2810245E-04;  4.3095142E+03;
 -2.9999999E-02;  9.9999998E-03; -2.2000000E-01;1568;  0.0000000E+00;  0.0000000E+00;  0.0000000E+00;  1.0005831E+03;  1.0000000E-01;  4.8314682E+02;0;  0.0000000E+00;  0.0000000E+00;  0.0000000E+00;0; -9.3426190E-02;  4.0000000E+04;  0.0000000E+00;  0.0000000E+00;  4.0000000E+04;  0.0000000E+00;  4.0000000E+04; -9.5592216E-02;  0.0000000E+00;  2.1660249E-03;  5.0590015E+03;
 -2.9999999E-02;  9.9999998E-03; -2.0999999E-01;1569;  0.0000000E+00;  0.0000000E+00;  0.0000000E+00;  1.0006273E+03;  1.0000000E-01;  5.1968903E+02;0;  0.0000000E+00;  0.0000000E+00;  0.0000000E+00;0; -9.9449247E-02;  4.0000000E+04;  0.0000000E+00;  0.0000000E+00;  4.0000000E+04;  0.0000000E+00;  4.0000000E+04; -1.0328382E-01;  0.0000000E+00;  3.8345756E-03;  5.5168037E+03;
 -2.9999999E-02;  9.9999998E-03; -2.0000000E-01;1570;  0.0000000E+00;  0.0000000E+00;  0.0000000E+00;  1.0006761E+03;  1.0000000E-01;  5.6018170E+02;0;  0.0000000E+00;  0.0000000E+00;  0.0000000E+00;0; -1.0554300E-01;  4.0000000E+04;  0.0000000E+00;  0.0000000E+00;  4.0000000E+04;  0.0000000E+00;  4.0000000E+04; -1.1061311E-01;  0.0000000E+00;  5.0701136E-03;  5.7083594E+03;
 -2.9999999E-02;  9.9999998E-03; -1.9000000E-01;1571;  0.0000000E+00;  0.0000000E+00;  0.0000000E+00;  1.0007296E+03;  1.0000000E-01;  6.0442737E+02;0;  0.0000000E+00;  0.0000000E+00;  0.0000000E+00;0; -1.1163978E-01;  4.0000000E+04;  0.0000000E+00;  0.0000000E+00;  4.0000000E+04;  0.0000000E+00;  4.0000000E+04; -1.1750251E-01;  0.0000000E+00;  5.8627343E-03;  5.6807451E+03;
 -2.9999999E-02;  9.9999998E-03; -1.8000001E-01;1572;  0.0000000E+00;  0.0000000E+00;  0.0000000E+00;  1.0007867E+03;  1.0000000E-01;  6.5183344E+02;0;  0.0000000E+00;  0.0000000E+00;  0.0000000E+00;0; -1.1763139E-01;  4.0000000E+04;  0.0000000E+00;  0.0000000E+00;  4.0000000E+04;  0.0000000E+00;  4.0000000E+04; -1.2388231E-01;  0.0000000E+00;  6.2509160E-03;  5.4926167E+03;
 -2.9999999E-02;  9.9999998E-03; -1.7000000E-01;1573;  0.0000000E+00;  0.0000000E+00;  0.0000000E+00;  1.0008476E+03;  1.0000000E-01;  7.0220239E+02;0;  0.0000000E+00;  0.0000000E+00;  0.0000000E+00;0; -1.2338443E-01;  4.0000000E+04;  0.0000000E+00;  0.0000000E+00;  4.0000000E+04;  0.0000000E+00;  4.0000000E+04; -1.2969446E-01;  0.0000000E+00;  6.3100304E-03;  5.2051050E+03;
 -2.9999999E-02;  9.9999998E-03; -1.6000000E-01;1574;  0.0000000E+00;  0.0000000E+00;  0.0000000E+00;  1.0009113E+03;  1.0000000E-01;  7.5504034E+02;0;  0.0000000E+00;  0.0000000E+00;  0.0000000E+00;0; -1.2875873E-01;  4.0000000E+04;  0.0000000E+00;  0.0000000E+00;  4.0000000E+04;  0.0000000E+00;  4.0000000E+04; -1.3489540E-01;  0.0000000E+00;  6.1366642E-03;  4.8738765E+03;
 -2.9999999E-02;  9.9999998E-03; -1.5000001E-01;1575;  0.0000000E+00;  0.0000000E+00;  0.0000000E+00;  1.0009806E+03;  1.0000000E-01;  8.1242145E+02;0;  0.0000000E+00;  0.0000000E+00;  0.0000000E+00;0; -1.3362731E-01;  4.0000000E+04;  0.0000000E+00;  0.0000000E+00;  4.0000000E+04;  0.0000000E+00;  4.0000000E+04; -1.3945898E-01;  0.0000000E+00;  5.8316682E-03;  4.5432051E+03;
 -2.9999999E-02;  9.9999998E-03; -1.4000000E-01;1576;  0.0000000E+00;  0.0000000E+00;  0.0000000E+00;  1.0010507E+03;  1.0000000E-01;  8.7049390E+02;0;  0.0000000E+00;  0.0000000E+00;  0.0000000E+00;0; -1.3789386E-01;  4.0000000E+04;  0.0000000E+00;  0.0000000E+00;  4.0000000E+04;  0.0000000E+00;  4.0000000E+04; -1.4337899E-01;  0.0000000E+00;  5.4851309E-03;  4.2422104E+03;
 -2.9999999E-02;  9.9999998E-03; -1.3000000E-01;1577;  0.0000000E+00;  0.0000000E+00;  0.0000000E+00;  1.0011158E+03;  1.0000000E-01;  9.2441827E+02;0;  0.0000000E+00;  0.0000000E+00;  0.0000000E+00;0; -1.4150429E-01;  4.0000000E+04;  0.0000000E+00;  0.0000000E+00;  4.0000000E+04;  0.0000000E+00;  4.0000000E+04; -1.4667062E-01;  0.0000000E+00;  5.1663416E-03;  3.9844592E+03;
 -2.9999999E-02;  9.9999998E-03; -1.2000000E-01;1578;  0.0000000E+00;  0.0000000E+00;  0.0000000E+00;  1.0011727E+03;  1.0000000E-01;  9.7162683E+02;0;  0.0000000E+00;  0.0000000E+00;  0.0000000E+00;0; -1.4444916E-01;  4.0000000E+04;  0.0000000E+00;  0.0000000E+00;  4.0000000E+04;  0.0000000E+00;  4.0000000E+04; -1.4936982E-01;  0.0000000E+00;  4.9206573E-03;  3.7731189E+03;
 -2.9999999E-02;  9.9999998E-03; -1.1000000E-01;1579;  0.0000000E+00;  0.0000000E+00;  0.0000000E+00;  1.0012197E+03;  1.0000000E-01;  1.0104406E+03;0;  0.0000000E+00;  0.0000000E+00;  0.0000000E+00;0; -1.4675996E-01;  4.0000000E+04;  0.0000000E+00;  0.0000000E+00;  4.0000000E+04;  0.0000000E+00;  4.0000000E+04; -1.5152992E-01;  0.0000000E+00;  4.7699702E-03;  3.6055137E+03;
 -2.0000000E-02;  9.9999998E-03; -2.7000001E-01;1654;  0.0000000E+00;  0.0000000E+00;  0.0000000E+00;  1.0005350E+03;  1.0000000E-01;  4.4324673E+02;0;  0.0000000E+00;  0.0000000E+00;  0.0000000E+00;0; -7.9916537E-02;  4.0000000E+04;  0.0000000E+00;  0.0000000E+00;  4.0000000E+04;  0.0000000E+00;  4.0000000E+04; -6.8597220E-02;  0.0000000E+00; -1.1319314E-02;  1.4590461E+03;
 -2.0000000E-02;  9.9999998E-03; -2.5999999E-01;1655;  0.0000000E+00;  0.0000000E+00;  0.0000000E+00;  1.0005772E+03;  1.0000000E-01;  4.7820871E+02;0;  0.0000000E+00;  0.0000000E+00;  0.0000000E+00;0; -8.7476216E-02;  4.0000000E+04;  0.0000000E+00;  0.0000000E+00;  4.0000000E+04;  0.0000000E+00;  4.0000000E+04; -7.8772381E-02;  0.0000000E+00; -8.7038362E-03;  7.4753558E+02;
 -2.0000000E-02;  9.9999998E-03; -2.5000000E-01;1656;  0.0000000E+00;  0.0000000E+00;  0.0000000E+00;  1.0006191E+03;  1.0000000E-01;  5.1297314E+02;0;  0.0000000E+00;  0.0000000E+00;  0.0000000E+00;0; -9.4786994E-02;  4.0000000E+04;  0.0000000E+00;  0.0000000E+00;  4.0000000E+04;  0.0000000E+00;  4.0000000E+04; -8.9041986E-02;  0.0000000E+00; -5.7450053E-03;  2.3773088E+03;
 -2.0000000E-02;  9.9999998E-03; -2.3999999E-01;1657;  0.0000000E+00;  0.0000000E+00;  0.0000000E+00;  1.0006616E+03;  1.0000000E-01;  5.4813263E+02;0;  0.0000000E+00;  0.0000000E+00;  0.0000000E+00;0; -1.0195941E-01;  4.0000000E+04;  0.0000000E+00;  0.0000000E+00;  4.0000000E+04;  0.0000000E+00;  4.0000000E+04; -9.9271692E-02;  0.0000000E+00; -2.6877176E-03;  3.9094292E+03;
 -2.0000000E-02;  9.9999998E-03; -2.3000000E-01;1658;  0.0000000E+00;  0.0000000E+00;  0.0000000E+00;  1.0007077E+03;  1.0000000E-01;  5.8635376E+02;0;  0.0000000E+00;  0.0000000E+00;  0.0000000E+00;0; -1.0910334E-01;  4.0000000E+04;  0.0000000E+00;  0.0000000E+00;  4.0000000E+04;  0.0000000E+00;  4.0000000E+04; -1.0933702E-01;  0.0000000E+00;  2.3367263E-04;  5.1320635E+03;
 -2.0000000E-02;  9.9999998E-03; -2.2000000E-01;1659;  0.0000000E+00;  0.0000000E+00;  0.0000000E+00;  1.0007581E+03;  1.0000000E-01;  6.2813037E+02;0;  0.0000000E+00;  0.0000000E+00;  0.0000000E+00;0; -1.1630193E-01;  4.0000000E+04;  0.0000000E+00;  0.0000000E+00;  4.0000000E+04;  0.0000000E+00;  4.0000000E+04; -1.1912227E-01;  0.0000000E+00;  2.8203379E-03;  5.9945229E+03;
 -2.0000000E-02;  9.9999998E-03; -2.0999999E-01;1660;  0.0000000E+00;  0.0000000E+00;  0.0000000E+00;  1.0008142E+03;  1.0000000E-01;  6.7454883E+02;0;  0.0000000E+00;  0.0000000E+00;  0.0000000E+00;0; -1.2359031E-01;  4.0000000E+04;  0.0000000E+00;  0.0000000E+00;  4.0000000E+04;  0.0000000E+00;  4.0000000E+04; -1.2851852E-01;  0.0000000E+00;  4.9282163E-03;  6.4989136E+03;
 -2.0000000E-02;  9.9999998E-03; -2.0000000E-01;1661;  0.0000000E+00;  0.0000000E+00;  0.0000000E+00;  1.0008758E+03;  1.0000000E-01;  7.2560913E+02;0;  0.0000000E+00;  0.0000000E+00;  0.0000000E+00;0; -1.3094583E-01;  4.0000000E+04;  0.0000000E+00;  0.0000000E+00;  4.0000000E+04;  0.0000000E+00;  4.0000000E+04; -1.3742532E-01;  0.0000000E+00;  6.4794943E-03;  6.6843374E+03;
 -2.0000000E-02;  9.9999998E-03; -1.9000000E-01;1662;  0.0000000E+00;  0.0000000E+00;  0.0000000E+00;  1.0009444E+03;  1.0000000E-01;  7.8239764E+02;0;  0.0000000E+00;  0.0000000E+00;  0.0000000E+00;0; -1.3828690E-01;  4.0000000E+04;  0.0000000E+00;  0.0000000E+00;  4.0000000E+04;  0.0000000E+00;  4.0000000E+04; -1.4575195E-01;  0.0000000E+00;  7.4650543E-03;  6.6138501E+03;
 -2.0000000E-02;  9.9999998E-03; -1.8000001E-01;1663;  0.0000000E+00;  0.0000000E+00;  0.0000000E+00;  1.0010185E+03;  1.0000000E-01;  8.4382800E+02;0;  0.0000000E+00;  0.0000000E+00;  0.0000000E+00;0; -1.4548290E-01;  4.0000000E+04;  0.0000000E+00;  0.0000000E+00;  4.0000000E+04;  0.0000000E+00;  4.0000000E+04; -1.5342039E-01;  0.0000000E+00;  7.9374947E-03;  6.3621392E+03;
 -2.0000000E-02;  9.9999998E-03; -1.7000000E-01;1664;  0.0000000E+00;  0.0000000E+00;  0.0000000E+00;  1.0011003E+03;  1.0000000E-01;  9.1157916E+02;0;  0.0000000E+00;  0.0000000E+00;  0.0000000E+00;0; -1.5237342E-01;  4.0000000E+04;  0.0000000E+00;  0.0000000E+00;  4.0000000E+04;  0.0000000E+00;  4.0000000E+04; -1.6036946E-01;  0.0000000E+00;  7.9960404E-03;  6.0043882E+03;
 -2.0000000E-02;  9.9999998E-03; -1.6000000E-01;1665;  0.0000000E+00;  0.0000000E+00;  0.0000000E+00;  1.0011904E+03;  1.0000000E-01;  9.8624371E+02;0;  0.0000000E+00;  0.0000000E+00;  0.0000000E+00;0; -1.5879013E-01;  4.0000000E+04;  0.0000000E+00;  0.0000000E+00;  4.0000000E+04;  0.0000000E+00;  4.0000000E+04; -1.6655652E-01;  0.0000000E+00;  7.7663921E-03;  5.6072373E+03;
 -2.0000000E-02;  9.9999998E-03; -1.5000001E-01;1666;  0.0000000E+00;  0.0000000E+00;  0.0000000E+00;  1.0012828E+03;  1.0000000E-01;  1.0627848E+03;0;  0.0000000E+00;  0.0000000E+00;  0.0000000E+00;0; -1.6458178E-01;  4.0000000E+04;  0.0000000E+00;  0.0000000E+00;  4.0000000E+04;  0.0000000E+00;  4.0000000E+04; -1.7196064E-01;  0.0000000E+00;  7.3788543E-03;  5.2223428E+03;
 -2.0000000E-02;  9.9999998E-03; -1.4000000E-01;1667;  0.0000000E+00;  0.0000000E+00;  0.0000000E+00;  1.0013708E+03;  1.0000000E-01;  1.1357704E+03;0;  0.0000000E+00;  0.0000000E+00;  0.0000000E+00;0; -1.6963404E-01;  4.0000000E+04;  0.0000000E+00;  0.0000000E+00;  4.0000000E+04;  0.0000000E+00;  4.0000000E+04; -1.7658308E-01;  0.0000000E+00;  6.9490410E-03;  4.8824751E+03;
 -2.0000000E-02;  9.9999998E-03; -1.3000000E-01;1668;  0.0000000E+00;  0.0000000E+00;  0.0000000E+00;  1.0014507E+03;  1.0000000E-01;  1.2018425E+03;0;  0.0000000E+00;  0.0000000E+00;  0.0000000E+00;0; -1.7388614E-01;  4.0000000E+04;  0.0000000E+00;  0.0000000E+00;  4.0000000E+04;  0.0000000E+00;  4.0000000E+04; -1.8045065E-01;  0.0000000E+00;  6.5645147E-03;  4.6011211E+03;
 -2.0000000E-02;  9.9999998E-03; -1.2000000E-01;1669;  0.0000000E+00;  0.0000000E+00;  0.0000000E+00;  1.0015198E+03;  1.0000000E-01;  1.2591249E+03;0;  0.0000000E+00;  0.0000000E+00;  0.0000000E+00;0; -1.7733070E-01;  4.0000000E+04;  0.0000000E+00;  0.0000000E+00;  4.0000000E+04;  0.0000000E+00;  4.0000000E+04; -1.8361156E-01;  0.0000000E+00;  6.2808581E-03;  4.3782271E+03;
 -2.0000000E-02;  9.9999998E-03; -1.1000000E-01;1670;  0.0000000E+00;  0.0000000E+00;  0.0000000E+00;  1.0015753E+03;  1.0000000E-01;  1.3051483E+03;0;  0.0000000E+00;  0.0000000E+00;  0.0000000E+00;0; -1.8001065E-01;  4.0000000E+04;  0.0000000E+00;  0.0000000E+00;  4.0000000E+04;  0.0000000E+00;  4.0000000E+04; -1.8613374E-01;  0.0000000E+00;  6.1230967E-03;  4.2071143E+03;
 -9.9999998E-03;  9.9999998E-03; -2.7000001E-01;1745;  0.0000000E+00;  0.0000000E+00;  0.0000000E+00;  1.0006877E+03;  1.0000000E-01;  5.6976166E+02;0;  0.0000000E+00;  0.0000000E+00;  0.0000000E+00;0; -9.7163424E-02;  4.0000000E+04;  0.0000000E+00;  0.0000000E+00;  4.0000000E+04;  0.0000000E+00;  4.0000000E+04; -8.3207898E-02;  0.0000000E+00; -1.3955528E-02;  1.6302289E+03;
 -9.9999998E-03;  9.9999998E-03; -2.5999999E-01;1746;  0.0000000E+00;  0.0000000E+00;  0.0000000E+00;  1.0007388E+03;  1.0000000E-01;  6.1203204E+02;0;  0.0000000E+00;  0.0000000E+00;  0.0000000E+00;0; -1.0616460E-01;  4.0000000E+04;  0.0000000E+00;  0.0000000E+00;  4.0000000E+04;  0.0000000E+00;  4.0000000E+04; -9.5493324E-02;  0.0000000E+00; -1.0671283E-02;  6.9204053E+02;
 -9.9999998E-03;  9.9999998E-03; -2.5000000E-01;1747;  0.0000000E+00;  0.0000000E+00;  0.0000000E+00;  1.0007890E+03;  1.0000000E-01;  6.5370990E+02;0;  0.0000000E+00;  0.0000000E+00;  0.0000000E+00;0; -1.1483419E-01;  4.0000000E+04;  0.0000000E+00;  0.0000000E+00;  4.0000000E+04;  0.0000000E+00;  4.0000000E+04; -1.0785356E-01;  0.0000000E+00; -6.9806268E-03;  2.7468245E+03;
 -9.9999998E-03;  9.9999998E-03; -2.3999999E-01;1748;  0.0000000E+00;  0.0000000E+00;  0.0000000E+00;  1.0008412E+03;  1.0000000E-01;  6.9686920E+02;0;  0.0000000E+00;  0.0000000E+00;  0.0000000E+00;0; -1.2330617E-01;  4.0000000E+04;  0.0000000E+00;  0.0000000E+00;  4.0000000E+04;  0.0000000E+00;  4.0000000E+04; -1.2011852E-01;  0.0000000E+00; -3.1876452E-03;  4.5342549E+03;
 -9.9999998E-03;  9.9999998E-03; -2.3000000E-01;1749;  0.0000000E+00;  0.0000000E+00;  0.0000000E+00;  1.0008975E+03;  1.0000000E-01;  7.4348517E+02;0;  0.0000000E+00;  0.0000000E+00;  0.0000000E+00;0; -1.3171363E-01;  4.0000000E+04;  0.0000000E+00;  0.0000000E+00;  4.0000000E+04;  0.0000000E+00;  4.0000000E+04; -1.3213238E-01;  0.0000000E+00;  4.1874970E-04;  5.9209136E+03;
 -9.9999998E-03;  9.9999998E-03; -2.2000000E-01;1750;  0.0000000E+00;  0.0000000E+00;  0.0000000E+00;  1.0009594E+03;  1.0000000E-01;  7.9484174E+02;0;  0.0000000E+00;  0.0000000E+00;  0.0000000E+00;0; -1.4015792E-01;  4.0000000E+04;  0.0000000E+00;  0.0000000E+00;  4.0000000E+04;  0.0000000E+00;  4.0000000E+04; -1.4375293E-01;  0.0000000E+00;  3.5950087E-03;  6.8666719E+03;
 -9.9999998E-03;  9.9999998E-03; -2.0999999E-01;1751;  0.0000000E+00;  0.0000000E+00;  0.0000000E+00;  1.0010283E+03;  1.0000000E-01;  8.5192651E+02;0;  0.0000000E+00;  0.0000000E+00;  0.0000000E+00;0; -1.4868416E-01;  4.0000000E+04;  0.0000000E+00;  0.0000000E+00;  4.0000000E+04;  0.0000000E+00;  4.0000000E+04; -1.5485057E-01;  0.0000000E+00;  6.1664167E-03;  7.3869863E+03;
 -9.9999998E-03;  9.9999998E-03; -2.0000000E-01;1752;  0.0000000E+00;  0.0000000E+00;  0.0000000E+00;  1.0011055E+03;  1.0000000E-01;  9.1582593E+02;0;  0.0000000E+00;  0.0000000E+00;  0.0000000E+00;0; -1.5726845E-01;  4.0000000E+04;  0.0000000E+00;  0.0000000E+00;  4.0000000E+04;  0.0000000E+00;  4.0000000E+04; -1.6530965E-01;  0.0000000E+00;  8.0411974E-03;  7.5383643E+03;
 -9.9999998E-03;  9.9999998E-03; -1.9000000E-01;1753;  0.0000000E+00;  0.0000000E+00;  0.0000000E+00;  1.0011925E+03;  1.0000000E-01;  9.8792267E+02;0;  0.0000000E+00;  0.0000000E+00;  0.0000000E+00;0; -1.6581610E-01;  4.0000000E+04;  0.0000000E+00;  0.0000000E+00;  4.0000000E+04;  0.0000000E+00;  4.0000000E+04; -1.7502949E-01;  0.0000000E+00;  9.2133908E-03;  7.4030254E+03;
 -9.9999998E-03;  9.9999998E-03; -1.8000001E-01;1754;  0.0000000E+00;  0.0000000E+00;  0.0000000E+00;  1.0012917E+03;  1.0000000E-01;  1.0700931E+03;0;  0.0000000E+00;  0.0000000E+00;  0.0000000E+00;0; -1.7417468E-01;  4.0000000E+04;  0.0000000E+00;  0.0000000E+00;  4.0000000E+04;  0.0000000E+00;  4.0000000E+04; -1.8392853E-01;  0.0000000E+00;  9.7538522E-03;  7.0737837E+03;
 -9.9999998E-03;  9.9999998E-03; -1.7000000E-01;1755;  0.0000000E+00;  0.0000000E+00;  0.0000000E+00;  1.0014008E+03;  1.0000000E-01;  1.1604611E+03;0;  0.0000000E+00;  0.0000000E+00;  0.0000000E+00;0; -1.8215594E-01;  4.0000000E+04;  0.0000000E+00;  0.0000000E+00;  4.0000000E+04;  0.0000000E+00;  4.0000000E+04; -1.9194679E-01;  0.0000000E+00;  9.7908601E-03;  6.6408779E+03;
 -9.9999998E-03;  9.9999998E-03; -1.6000000E-01;1756;  0.0000000E+00;  0.0000000E+00;  0.0000000E+00;  1.0015142E+03;  1.0000000E-01;  1.2544830E+03;0;  0.0000000E+00;  0.0000000E+00;  0.0000000E+00;0; -1.8956238E-01;  4.0000000E+04;  0.0000000E+00;  0.0000000E+00;  4.0000000E+04;  0.0000000E+00;  4.0000000E+04; -1.9904655E-01;  0.0000000E+00;  9.4841681E-03;  6.1817251E+03;
 -9.9999998E-03;  9.9999998E-03; -1.5000001E-01;1757;  0.0000000E+00;  0.0000000E+00;  0.0000000E+00;  1.0016254E+03;  1.0000000E-01;  1.3466285E+03;0;  0.0000000E+00;  0.0000000E+00;  0.0000000E+00;0; -1.9621906E-01;  4.0000000E+04;  0.0000000E+00;  0.0000000E+00;  4.0000000E+04;  0.0000000E+00;  4.0000000E+04; -2.0521685E-01;  0.0000000E+00;  8.9977952E-03;  5.7539272E+03;
 -9.9999998E-03;  9.9999998E-03; -1.4000000E-01;1758;  0.0000000E+00;  0.0000000E+00;  0.0000000E+00;  1.0017300E+03;  1.0000000E-01;  1.4333422E+03;0;  0.0000000E+00;  0.0000000E+00;  0.0000000E+00;0; -2.0199522E-01;  4.0000000E+04;  0.0000000E+00;  0.0000000E+00;  4.0000000E+04;  0.0000000E+00;  4.0000000E+04; -2.1047086E-01;  0.0000000E+00;  8.4756240E-03;  5.3918467E+03;
 -9.9999998E-03;  9.9999998E-03; -1.3000000E-01;1759;  0.0000000E+00;  0.0000000E+00;  0.0000000E+00;  1.0018240E+03;  1.0000000E-01;  1.5111671E+03;0;  0.0000000E+00;  0.0000000E+00;  0.0000000E+00;0; -2.0682350E-01;  4.0000000E+04;  0.0000000E+00;  0.0000000E+00;  4.0000000E+04;  0.0000000E+00;  4.0000000E+04; -2.1484840E-01;  0.0000000E+00;  8.0249067E-03;  5.1065723E+03;
 -9.9999998E-03;  9.9999998E-03; -1.2000000E-01;1760;  0.0000000E+00;  0.0000000E+00;  0.0000000E+00;  1.0019032E+03;  1.0000000E-01;  1.5767455E+03;0;  0.0000000E+00;  0.0000000E+00;  0.0000000E+00;0; -2.1070273E-01;  4.0000000E+04;  0.0000000E+00;  0.0000000E+00;  4.0000000E+04;  0.0000000E+00;  4.0000000E+04; -2.1841373E-01;  0.0000000E+00;  7.7109965E-03;  4.8924702E+03;
 -9.9999998E-03;  9.9999998E-03; -1.1000000E-01;1761;  0.0000000E+00;  0.0000000E+00;  0.0000000E+00;  1.0019667E+03;  1.0000000E-01;  1.6293860E+03;0;  0.0000000E+00;  0.0000000E+00;  0.0000000E+00;0; -2.1368939E-01;  4.0000000E+04;  0.0000000E+00;  0.0000000E+00;  4.0000000E+04;  0.0000000E+00;  4.0000000E+04; -2.2124992E-01;  0.0000000E+00;  7.5605409E-03;  4.7366641E+03;
 -1.9000000E-01;  9.9999998E-03; -1.0000000E-01;124;  0.0000000E+00;  0.0000000E+00;  0.0000000E+00;  1.0000000E+03;  1.0000000E-01;  0.0000000E+00;0;  0.0000000E+00;  0.0000000E+00;  0.0000000E+00;0;  0.0000000E+00;  4.0000000E+04;  0.0000000E+00;  0.0000000E+00;  4.0000000E+04;  0.0000000E+00;  4.0000000E+04;  0.0000000E+00;  0.0000000E+00;  0.0000000E+00;  0.0000000E+00;
 -1.9000000E-01;  9.9999998E-03; -9.0000004E-02;125;  0.0000000E+00;  0.0000000E+00;  0.0000000E+00;  1.0000000E+03;  1.0000000E-01;  0.0000000E+00;0;  0.0000000E+00;  0.0000000E+00;  0.0000000E+00;0;  0.0000000E+00;  4.0000000E+04;  0.0000000E+00;  0.0000000E+00;  4.0000000E+04;  0.0000000E+00;  4.0000000E+04;  0.0000000E+00;  0.0000000E+00;  0.0000000E+00;  0.0000000E+00;
 -1.9000000E-01;  9.9999998E-03; -7.9999998E-02;126;  0.0000000E+00;  0.0000000E+00;  0.0000000E+00;  1.0000000E+03;  1.0000000E-01;  0.0000000E+00;0;  0.0000000E+00;  0.0000000E+00;  0.0000000E+00;0;  0.0000000E+00;  4.0000000E+04;  0.0000000E+00;  0.0000000E+00;  4.0000000E+04;  0.0000000E+00;  4.0000000E+04;  0.0000000E+00;  0.0000000E+00;  0.0000000E+00;  0.0000000E+00;
 -1.9000000E-01;  9.9999998E-03; -7.0000000E-02;127;  0.0000000E+00;  0.0000000E+00;  0.0000000E+00;  1.0000000E+03;  1.0000000E-01;  0.0000000E+00;0;  0.0000000E+00;  0.0000000E+00;  0.0000000E+00;0;  0.0000000E+00;  4.0000000E+04;  0.0000000E+00;  0.0000000E+00;  4.0000000E+04;  0.0000000E+00;  4.0000000E+04;  0.0000000E+00;  0.0000000E+00;  0.0000000E+00;  0.0000000E+00;
 -1.9000000E-01;  9.9999998E-03; -5.9999999E-02;128;  0.0000000E+00;  0.0000000E+00;  0.0000000E+00;  1.0000000E+03;  1.0000000E-01;  0.0000000E+00;0;  0.0000000E+00;  0.0000000E+00;  0.0000000E+00;0;  0.0000000E+00;  4.0000000E+04;  0.0000000E+00;  0.0000000E+00;  4.0000000E+04;  0.0000000E+00;  4.0000000E+04;  0.0000000E+00;  0.0000000E+00;  0.0000000E+00;  0.0000000E+00;
 -1.9000000E-01;  9.9999998E-03; -5.0000001E-02;129;  0.0000000E+00;  0.0000000E+00;  0.0000000E+00;  1.0000000E+03;  1.0000000E-01;  0.0000000E+00;0;  0.0000000E+00;  0.0000000E+00;  0.0000000E+00;0;  0.0000000E+00;  4.0000000E+04;  0.0000000E+00;  0.0000000E+00;  4.0000000E+04;  0.0000000E+00;  4.0000000E+04;  0.0000000E+00;  0.0000000E+00;  0.0000000E+00;  0.0000000E+00;
 -1.9000000E-01;  9.9999998E-03; -3.9999999E-02;130;  0.0000000E+00;  0.0000000E+00;  0.0000000E+00;  1.0000000E+03;  1.0000000E-01;  0.0000000E+00;0;  0.0000000E+00;  0.0000000E+00;  0.0000000E+00;0;  0.0000000E+00;  4.0000000E+04;  0.0000000E+00;  0.0000000E+00;  4.0000000E+04;  0.0000000E+00;  4.0000000E+04;  0.0000000E+00;  0.0000000E+00;  0.0000000E+00;  0.0000000E+00;
 -1.9000000E-01;  9.9999998E-03; -2.9999999E-02;131;  0.0000000E+00;  0.0000000E+00;  0.0000000E+00;  1.0000000E+03;  1.0000000E-01;  0.0000000E+00;0;  0.0000000E+00;  0.0000000E+00;  0.0000000E+00;0;  0.0000000E+00;  4.0000000E+04;  0.0000000E+00;  0.0000000E+00;  4.0000000E+04;  0.0000000E+00;  4.0000000E+04;  0.0000000E+00;  0.0000000E+00;  0.0000000E+00;  0.0000000E+00;
 -1.9000000E-01;  9.9999998E-03; -2.0000000E-02;132;  0.0000000E+00;  0.0000000E+00;  0.0000000E+00;  1.0000000E+03;  1.0000000E-01;  0.0000000E+00;0;  0.0000000E+00;  0.0000000E+00;  0.0000000E+00;0;  0.0000000E+00;  4.0000000E+04;  0.0000000E+00;  0.0000000E+00;  4.0000000E+04;  0.0000000E+00;  4.0000000E+04;  0.0000000E+00;  0.0000000E+00;  0.0000000E+00;  0.0000000E+00;
 -1.9000000E-01;  9.9999998E-03; -9.9999998E-03;133;  0.0000000E+00;  0.0000000E+00;  0.0000000E+00;  1.0000000E+03;  1.0000000E-01;  0.0000000E+00;0;  0.0000000E+00;  0.0000000E+00;  0.0000000E+00;0;  0.0000000E+00;  4.0000000E+04;  0.0000000E+00;  0.0000000E+00;  4.0000000E+04;  0.0000000E+00;  4.0000000E+04;  0.0000000E+00;  0.0000000E+00;  0.0000000E+00;  0.0000000E+00;
 -1.9000000E-01;  9.9999998E-03;  0.0000000E+00;134;  0.0000000E+00;  0.0000000E+00;  0.0000000E+00;  1.0000000E+03;  1.0000000E-01;  0.0000000E+00;0;  0.0000000E+00;  0.0000000E+00;  0.0000000E+00;0;  0.0000000E+00;  4.0000000E+04;  0.0000000E+00;  0.0000000E+00;  4.0000000E+04;  0.0000000E+00;  4.0000000E+04;  0.0000000E+00;  0.0000000E+00;  0.0000000E+00;  0.0000000E+00;
 -1.9000000E-01;  9.9999998E-03;  9.9999998E-03;135;  0.0000000E+00;  0.0000000E+00;  0.0000000E+00;  1.0000000E+03;  1.0000000E-01;  0.0000000E+00;0;  0.0000000E+00;  0.0000000E+00;  0.0000000E+00;0;  0.0000000E+00;  4.0000000E+04;  0.0000000E+00;  0.0000000E+00;  4.0000000E+04;  0.0000000E+00;  4.0000000E+04;  0.0000000E+00;  0.0000000E+00;  0.0000000E+00;  0.0000000E+00;
 -1.9000000E-01;  9.9999998E-03;  2.0000000E-02;136;  0.0000000E+00;  0.0000000E+00;  0.0000000E+00;  1.0000000E+03;  1.0000000E-01;  0.0000000E+00;0;  0.0000000E+00;  0.0000000E+00;  0.0000000E+00;0;  0.0000000E+00;  4.0000000E+04;  0.0000000E+00;  0.0000000E+00;  4.0000000E+04;  0.0000000E+00;  4.0000000E+04;  0.0000000E+00;  0.0000000E+00;  0.0000000E+00;  0.0000000E+00;
 -1.9000000E-01;  9.9999998E-03;  2.9999999E-02;137;  0.0000000E+00;  0.0000000E+00;  0.0000000E+00;  1.0000000E+03;  1.0000000E-01;  0.0000000E+00;0;  0.0000000E+00;  0.0000000E+00;  0.0000000E+00;0;  0.0000000E+00;  4.0000000E+04;  0.0000000E+00;  0.0000000E+00;  4.0000000E+04;  0.0000000E+00;  4.0000000E+04;  0.0000000E+00;  0.0000000E+00;  0.0000000E+00;  0.0000000E+00;
 -1.9000000E-01;  9.9999998E-03;  3.9999999E-02;138;  0.0000000E+00;  0.0000000E+00;  0.0000000E+00;  1.0000000E+03;  1.0000000E-01;  0.0000000E+00;0;  0.0000000E+00;  0.0000000E+00;  0.0000000E+00;0;  0.0000000E+00;  4.0000000E+04;  0.0000000E+00;  0.0000000E+00;  4.0000000E+04;  0.0000000E+00;  4.0000000E+04;  0.0000000E+00;  0.0000000E+00;  0.0000000E+00;  0.0000000E+00;
 -1.9000000E-01;  9.9999998E-03;  5.0000001E-02;139;  0.0000000E+00;  0.0000000E+00;  0.0000000E+00;  1.0000000E+03;  1.0000000E-01;  0.0000000E+00;0;  0.0000000E+00;  0.0000000E+00;  0.0000000E+00;0;  0.0000000E+00;  4.0000000E+04;  0.0000000E+00;  0.0000000E+00;  4.0000000E+04;  0.0000000E+00;  4.0000000E+04;  0.0000000E+00;  0.0000000E+00;  0.0000000E+00;  0.0000000E+00;
 -1.9000000E-01;  9.9999998E-03;  5.9999999E-02;140;  0.0000000E+00;  0.0000000E+00;  0.0000000E+00;  1.0000000E+03;  1.0000000E-01;  0.0000000E+00;0;  0.0000000E+00;  0.0000000E+00;  0.0000000E+00;0;  0.0000000E+00;  4.0000000E+04;  0.0000000E+00;  0.0000000E+00;  4.0000000E+04;  0.0000000E+00;  4.0000000E+04;  0.0000000E+00;  0.0000000E+00;  0.0000000E+00;  0.0000000E+00;
 -1.8000001E-01;  9.9999998E-03; -1.0000000E-01;215;  0.0000000E+00;  0.0000000E+00;  0.0000000E+00;  1.0000000E+03;  1.0000000E-01;  0.0000000E+00;0;  0.0000000E+00;  0.0000000E+00;  0.0000000E+00;0;  0.0000000E+00;  4.0000000E+04;  0.0000000E+00;  0.0000000E+00;  4.0000000E+04;  0.0000000E+00;  4.0000000E+04;  0.0000000E+00;  0.0000000E+00;  0.0000000E+00;  0.0000000E+00;
 -1.8000001E-01;  9.9999998E-03; -9.0000004E-02;216;  0.0000000E+00;  0.0000000E+00;  0.0000000E+00;  1.0000000E+03;  1.0000000E-01;  0.0000000E+00;0;  0.0000000E+00;  0.0000000E+00;  0.0000000E+00;0;  0.0000000E+00;  4.0000000E+04;  0.0000000E+00;  0.0000000E+00;  4.0000000E+04;  0.0000000E+00;  4.0000000E+04;  0.0000000E+00;  0.0000000E+00;  0.0000000E+00;  0.0000000E+00;
 -1.8000001E-01;  9.9999998E-03; -7.9999998E-02;217;  0.0000000E+00;  0.0000000E+00;  0.0000000E+00;  1.0000000E+03;  1.0000000E-01;  0.0000000E+00;0;  0.0000000E+00;  0.0000000E+00;  0.0000000E+00;0;  0.0000000E+00;  4.0000000E+04;  0.0000000E+00;  0.0000000E+00;  4.0000000E+04;  0.0000000E+00;  4.0000000E+04;  0.0000000E+00;  0.0000000E+00;  0.0000000E+00;  0.0000000E+00;
 -1.8000001E-01;  9.9999998E-03; -7.0000000E-02;218;  0.0000000E+00;  0.0000000E+00;  0.0000000E+00;  1.0000000E+03;  1.0000000E-01;  0.0000000E+00;0;  0.0000000E+00;  0.0000000E+00;  0.0000000E+00;0;  0.0000000E+00;  4.0000000E+04;  0.0000000E+00;  0.0000000E+00;  4.0000000E+04;  0.0000000E+00;  4.0000000E+04;  0.0000000E+00;  0.0000000E+00;  0.0000000E+00;  0.0000000E+00;
 -1.8000001E-01;  9.9999998E-03; -5.9999999E-02;219;  0.0000000E+00;  0.0000000E+00;  0.0000000E+00;  1.0000000E+03;  1.0000000E-01;  0.0000000E+00;0;  0.0000000E+00;  0.0000000E+00;  0.0000000E+00;0;  0.0000000E+00;  4.0000000E+04;  0.0000000E+00;  0.0000000E+00;  4.0000000E+04;  0.0000000E+00;  4.0000000E+04;  0.0000000E+00;  0.0000000E+00;  0.0000000E+00;  0.0000000E+00;
 -1.8000001E-01;  9.9999998E-03; -5.0000001E-02;220;  0.0000000E+00;  0.0000000E+00;  0.0000000E+00;  1.0000000E+03;  1.0000000E-01;  0.0000000E+00;0;  0.0000000E+00;  0.0000000E+00;  0.0000000E+00;0;  0.0000000E+00;  4.0000000E+04;  0.0000000E+00;  0.0000000E+00;  4.0000000E+04;  0.0000000E+00;  4.0000000E+04;  0.0000000E+00;  0.0000000E+00;  0.0000000E+00;  0.0000000E+00;
 -1.8000001E-01;  9.9999998E-03; -3.9999999E-02;221;  0.0000000E+00;  0.0000000E+00;  0.0000000E+00;  1.0000000E+03;  1.0000000E-01;  0.0000000E+00;0;  0.0000000E+00;  0.0000000E+00;  0.0000000E+00;0;  0.0000000E+00;  4.0000000E+04;  0.0000000E+00;  0.0000000E+00;  4.0000000E+04;  0.0000000E+00;  4.0000000E+04;  0.0000000E+00;  0.0000000E+00;  0.0000000E+00;  0.0000000E+00;
 -1.8000001E-01;  9.9999998E-03; -2.9999999E-02;222;  0.0000000E+00;  0.0000000E+00;  0.0000000E+00;  1.0000000E+03;  1.0000000E-01;  0.0000000E+00;0;  0.0000000E+00;  0.0000000E+00;  0.0000000E+00;0;  0.0000000E+00;  4.0000000E+04;  0.0000000E+00;  0.0000000E+00;  4.0000000E+04;  0.0000000E+00;  4.0000000E+04;  0.0000000E+00;  0.0000000E+00;  0.0000000E+00;  0.0000000E+00;
 -1.8000001E-01;  9.9999998E-03; -2.0000000E-02;223;  0.0000000E+00;  0.0000000E+00;  0.0000000E+00;  1.0000000E+03;  1.0000000E-01;  0.0000000E+00;0;  0.0000000E+00;  0.0000000E+00;  0.0000000E+00;0;  0.0000000E+00;  4.0000000E+04;  0.0000000E+00;  0.0000000E+00;  4.0000000E+04;  0.0000000E+00;  4.0000000E+04;  0.0000000E+00;  0.0000000E+00;  0.0000000E+00;  0.0000000E+00;
 -1.8000001E-01;  9.9999998E-03; -9.9999998E-03;224;  0.0000000E+00;  0.0000000E+00;  0.0000000E+00;  1.0000000E+03;  1.0000000E-01;  0.0000000E+00;0;  0.0000000E+00;  0.0000000E+00;  0.0000000E+00;0;  0.0000000E+00;  4.0000000E+04;  0.0000000E+00;  0.0000000E+00;  4.0000000E+04;  0.0000000E+00;  4.0000000E+04;  0.0000000E+00;  0.0000000E+00;  0.0000000E+00;  0.0000000E+00;
 -1.8000001E-01;  9.9999998E-03;  0.0000000E+00;225;  0.0000000E+00;  0.0000000E+00;  0.0000000E+00;  1.0000000E+03;  1.0000000E-01;  0.0000000E+00;0;  0.0000000E+00;  0.0000000E+00;  0.0000000E+00;0;  0.0000000E+00;  4.0000000E+04;  0.0000000E+00;  0.0000000E+00;  4.0000000E+04;  0.0000000E+00;  4.0000000E+04;  0.0000000E+00;  0.0000000E+00;  0.0000000E+00;  0.0000000E+00;
 -1.8000001E-01;  9.9999998E-03;  9.9999998E-03;226;  0.0000000E+00;  0.0000000E+00;  0.0000000E+00;  1.0000000E+03;  1.0000000E-01;  0.0000000E+00;0;  0.0000000E+00;  0.0000000E+00;  0.0000000E+00;0;  0.0000000E+00;  4.0000000E+04;  0.0000000E+00;  0.0000000E+00;  4.0000000E+04;  0.0000000E+00;  4.0000000E+04;  0.0000000E+00;  0.0000000E+00;  0.0000000E+00;  0.0000000E+00;
 -1.8000001E-01;  9.9999998E-03;  2.0000000E-02;227;  0.0000000E+00;  0.0000000E+00;  0.0000000E+00;  1.0000000E+03;  1.0000000E-01;  0.0000000E+00;0;  0.0000000E+00;  0.0000000E+00;  0.0000000E+00;0;  0.0000000E+00;  4.0000000E+04;  0.0000000E+00;  0.0000000E+00;  4.0000000E+04;  0.0000000E+00;  4.0000000E+04;  0.0000000E+00;  0.0000000E+00;  0.0000000E+00;  0.0000000E+00;
 -1.8000001E-01;  9.9999998E-03;  2.9999999E-02;228;  0.0000000E+00;  0.0000000E+00;  0.0000000E+00;  1.0000000E+03;  1.0000000E-01;  0.0000000E+00;0;  0.0000000E+00;  0.0000000E+00;  0.0000000E+00;0;  0.0000000E+00;  4.0000000E+04;  0.0000000E+00;  0.0000000E+00;  4.0000000E+04;  0.0000000E+00;  4.0000000E+04;  0.0000000E+00;  0.0000000E+00;  0.0000000E+00;  0.0000000E+00;
 -1.8000001E-01;  9.9999998E-03;  3.9999999E-02;229;  0.0000000E+00;  0.0000000E+00;  0.0000000E+00;  1.0000000E+03;  1.0000000E-01;  0.0000000E+00;0;  0.0000000E+00;  0.0000000E+00;  0.0000000E+00;0;  0.0000000E+00;  4.0000000E+04;  0.0000000E+00;  0.0000000E+00;  4.0000000E+04;  0.0000000E+00;  4.0000000E+04;  0.0000000E+00;  0.0000000E+00;  0.0000000E+00;  0.0000000E+00;
 -1.8000001E-01;  9.9999998E-03;  5.0000001E-02;230;  0.0000000E+00;  0.0000000E+00;  0.0000000E+00;  1.0000000E+03;  1.0000000E-01;  0.0000000E+00;0;  0.0000000E+00;  0.0000000E+00;  0.0000000E+00;0;  0.0000000E+00;  4.0000000E+04;  0.0000000E+00;  0.0000000E+00;  4.0000000E+04;  0.0000000E+00;  4.0000000E+04;  0.0000000E+00;  0.0000000E+00;  0.0000000E+00;  0.0000000E+00;
 -1.8000001E-01;  9.9999998E-03;  5.9999999E-02;231;  0.0000000E+00;  0.0000000E+00;  0.0000000E+00;  1.0000000E+03;  1.0000000E-01;  0.0000000E+00;0;  0.0000000E+00;  0.0000000E+00;  0.0000000E+00;0;  0.0000000E+00;  4.0000000E+04;  0.0000000E+00;  0.0000000E+00;  4.0000000E+04;  0.0000000E+00;  4.0000000E+04;  0.0000000E+00;  0.0000000E+00;  0.0000000E+00;  0.0000000E+00;
 -1.7000000E-01;  9.9999998E-03; -1.0000000E-01;306;  0.0000000E+00;  0.0000000E+00;  0.0000000E+00;  1.0000000E+03;  1.0000000E-01;  0.0000000E+00;0;  0.0000000E+00;  0.0000000E+00;  0.0000000E+00;0;  0.0000000E+00;  4.0000000E+04;  0.0000000E+00;  0.0000000E+00;  4.0000000E+04;  0.0000000E+00;  4.0000000E+04;  0.0000000E+00;  0.0000000E+00;  0.0000000E+00;  1.9801023E-09;
 -1.7000000E-01;  9.9999998E-03; -9.0000004E-02;307;  0.0000000E+00;  0.0000000E+00;  0.0000000E+00;  1.0000000E+03;  1.0000000E-01;  0.0000000E+00;0;  0.0000000E+00;  0.0000000E+00;  0.0000000E+00;0;  0.0000000E+00;  4.0000000E+04;  0.0000000E+00;  0.0000000E+00;  4.0000000E+04;  0.0000000E+00;  4.0000000E+04;  0.0000000E+00;  0.0000000E+00;  0.0000000E+00;  1.9974504E-09;
 -1.7000000E-01;  9.9999998E-03; -7.9999998E-02;308;  0.0000000E+00;  0.0000000E+00;  0.0000000E+00;  1.0000000E+03;  1.0000000E-01;  0.0000000E+00;0;  0.0000000E+00;  0.0000000E+00;  0.0000000E+00;0;  0.0000000E+00;  4.0000000E+04;  0.0000000E+00;  0.0000000E+00;  4.0000000E+04;  0.0000000E+00;  4.0000000E+04;  0.0000000E+00;  0.0000000E+00;  0.0000000E+00;  2.0288866E-09;
 -1.7000000E-01;  9.9999998E-03; -7.0000000E-02;309;  0.0000000E+00;  0.0000000E+00;  0.0000000E+00;  1.0000000E+03;  1.0000000E-01;  0.0000000E+00;0;  0.0000000E+00;  0.0000000E+00;  0.0000000E+00;0;  0.0000000E+00;  4.0000000E+04;  0.0000000E+00;  0.0000000E+00;  4.0000000E+04;  0.0000000E+00;  4.0000000E+04;  0.0000000E+00;  0.0000000E+00;  0.0000000E+00;  2.0664868E-09;
 -1.7000000E-01;  9.9999998E-03; -5.9999999E-02;310;  0.0000000E+00;  0.0000000E+00;  0.0000000E+00;  1.0000000E+03;  1.0000000E-01;  0.0000000E+00;0;  0.0000000E+00;  0.0000000E+00;  0.0000000E+00;0;  0.0000000E+00;  4.0000000E+04;  0.0000000E+00;  0.0000000E+00;  4.0000000E+04;  0.0000000E+00;  4.0000000E+04;  0.0000000E+00;  0.0000000E+00;  0.0000000E+00;  2.0963358E-09;
 -1.7000000E-01;  9.9999998E-03; -5.0000001E-02;311;  0.0000000E+00;  0.0000000E+00;  0.0000000E+00;  1.0000000E+03;  1.0000000E-01;  0.0000000E+00;0;  0.0000000E+00;  0.0000000E+00;  0.0000000E+00;0;  0.0000000E+00;  4.0000000E+04;  0.0000000E+00;  0.0000000E+00;  4.0000000E+04;  0.0000000E+00;  4.0000000E+04;  0.0000000E+00;  0.0000000E+00;  0.0000000E+00;  2.0985100E-09;
 -1.7000000E-01;  9.9999998E-03; -3.9999999E-02;312;  0.0000000E+00;  0.0000000E+00;  0.0000000E+00;  1.0000000E+03;  1.0000000E-01;  0.0000000E+00;0;  0.0000000E+00;  0.0000000E+00;  0.0000000E+00;0;  0.0000000E+00;  4.0000000E+04;  0.0000000E+00;  0.0000000E+00;  4.0000000E+04;  0.0000000E+00;  4.0000000E+04;  0.0000000E+00;  0.0000000E+00;  0.0000000E+00;  2.0709305E-09;
 -1.7000000E-01;  9.9999998E-03; -2.9999999E-02;313;  0.0000000E+00;  0.0000000E+00;  0.0000000E+00;  1.0000000E+03;  1.0000000E-01;  0.0000000E+00;0;  0.0000000E+00;  0.0000000E+00;  0.0000000E+00;0;  0.0000000E+00;  4.0000000E+04;  0.0000000E+00;  0.0000000E+00;  4.0000000E+04;  0.0000000E+00;  4.0000000E+04;  0.0000000E+00;  0.0000000E+00;  0.0000000E+00;  2.0022204E-09;
 -1.7000000E-01;  9.9999998E-03; -2.0000000E-02;314;  0.0000000E+00;  0.0000000E+00;  0.0000000E+00;  1.0000000E+03;  1.0000000E-01;  0.0000000E+00;0;  0.0000000E+00;  0.0000000E+00;  0.0000000E+00;0;  0.0000000E+00;  4.0000000E+04;  0.0000000E+00;  0.0000000E+00;  4.0000000E+04;  0.0000000E+00;  4.0000000E+04;  0.0000000E+00;  0.0000000E+00;  0.0000000E+00;  1.8807096E-09;
 -1.7000000E-01;  9.9999998E-03; -9.9999998E-03;315;  0.0000000E+00;  0.0000000E+00;  0.0000000E+00;  1.0000000E+03;  1.0000000E-01;  0.0000000E+00;0;  0.0000000E+00;  0.0000000E+00;  0.0000000E+00;0;  0.0000000E+00;  4.0000000E+04;  0.0000000E+00;  0.0000000E+00;  4.0000000E+04;  0.0000000E+00;  4.0000000E+04;  0.0000000E+00;  0.0000000E+00;  0.0000000E+00;  1.7538491E-09;
 -1.7000000E-01;  9.9999998E-03;  0.0000000E+00;316;  0.0000000E+00;  0.0000000E+00;  0.0000000E+00;  1.0000000E+03;  1.0000000E-01;  0.0000000E+00;0;  0.0000000E+00;  0.0000000E+00;  0.0000000E+00;0;  0.0000000E+00;  4.0000000E+04;  0.0000000E+00;  0.0000000E+00;  4.0000000E+04;  0.0000000E+00;  4.0000000E+04;  0.0000000E+00;  0.0000000E+00;  0.0000000E+00;  1.6940426E-09;
 -1.7000000E-01;  9.9999998E-03;  9.9999998E-03;317;  0.0000000E+00;  0.0000000E+00;  0.0000000E+00;  1.0000000E+03;  1.0000000E-01;  0.0000000E+00;0;  0.0000000E+00;  0.0000000E+00;  0.0000000E+00;0;  0.0000000E+00;  4.0000000E+04;  0.0000000E+00;  0.0000000E+00;  4.0000000E+04;  0.0000000E+00;  4.0000000E+04;  0.0000000E+00;  0.0000000E+00;  0.0000000E+00;  1.7541210E-09;
 -1.7000000E-01;  9.9999998E-03;  2.0000000E-02;318;  0.0000000E+00;  0.0000000E+00;  0.0000000E+00;  1.0000000E+03;  1.0000000E-01;  0.0000000E+00;0;  0.0000000E+00;  0.0000000E+00;  0.0000000E+00;0;  0.0000000E+00;  4.0000000E+04;  0.0000000E+00;  0.0000000E+00;  4.0000000E+04;  0.0000000E+00;  4.0000000E+04;  0.0000000E+00;  0.0000000E+00;  0.0000000E+00;  1.8806892E-09;
 -1.7000000E-01;  9.9999998E-03;  2.9999999E-02;319;  0.0000000E+00;  0.0000000E+00;  0.0000000E+00;  1.0000000E+03;  1.0000000E-01;  0.0000000E+00;0;  0.0000000E+00;  0.0000000E+00;  0.0000000E+00;0;  0.0000000E+00;  4.0000000E+04;  0.0000000E+00;  0.0000000E+00;  4.0000000E+04;  0.0000000E+00;  4.0000000E+04;  0.0000000E+00;  0.0000000E+00;  0.0000000E+00;  2.0024555E-09;
 -1.7000000E-01;  9.9999998E-03;  3.9999999E-02;320;  0.0000000E+00;  0.0000000E+00;  0.0000000E+00;  1.0000000E+03;  1.0000000E-01;  0.0000000E+00;0;  0.0000000E+00;  0.0000000E+00;  0.0000000E+00;0;  0.0000000E+00;  4.0000000E+04;  0.0000000E+00;  0.0000000E+00;  4.0000000E+04;  0.0000000E+00;  4.0000000E+04;  0.0000000E+00;  0.0000000E+00;  0.0000000E+00;  2.0701814E-09;
 -1.7000000E-01;  9.9999998E-03;  5.0000001E-02;321;  0.0000000E+00;  0.0000000E+00;  0.0000000E+00;  1.0000000E+03;  1.0000000E-01;  0.0000000E+00;0;  0.0000000E+00;  0.0000000E+00;  0.0000000E+00;0;  0.0000000E+00;  4.0000000E+04;  0.0000000E+00;  0.0000000E+00;  4.0000000E+04;  0.0000000E+00;  4.0000000E+04;  0.0000000E+00;  0.0000000E+00;  0.0000000E+00;  2.0988598E-09;
 -1.7000000E-01;  9.9999998E-03;  5.9999999E-02;322;  0.0000000E+00;  0.0000000E+00;  0.0000000E+00;  1.0000000E+03;  1.0000000E-01;  0.0000000E+00;0;  0.0000000E+00;  0.0000000E+00;  0.0000000E+00;0;  0.0000000E+00;  4.0000000E+04;  0.0000000E+00;  0.0000000E+00;  4.0000000E+04;  0.0000000E+00;  4.0000000E+04;  0.0000000E+00;  0.0000000E+00;  0.0000000E+00;  2.0959194E-09;
 -1.6000000E-01;  9.9999998E-03; -1.0000000E-01;397;  0.0000000E+00;  0.0000000E+00;  0.0000000E+00;  1.0000000E+03;  1.0000000E-01;  0.0000000E+00;0;  0.0000000E+00;  0.0000000E+00;  0.0000000E+00;0; -2.5918500E-06;  4.0000000E+04;  0.0000000E+00;  0.0000000E+00;  4.0000000E+04;  0.0000000E+00;  4.0000000E+04; -2.5944782E-06;  0.0000000E+00;  2.6281084E-09;  2.6302192E-01;
 -1.6000000E-01;  9.9999998E-03; -9.0000004E-02;398;  0.0000000E+00;  0.0000000E+00;  0.0000000E+00;  1.0000000E+03;  1.0000000E-01;  0.0000000E+00;0;  0.0000000E+00;  0.0000000E+00;  0.0000000E+00;0; -2.6354312E-06;  4.0000000E+04;  0.0000000E+00;  0.0000000E+00;  4.0000000E+04;  0.0000000E+00;  4.0000000E+04; -2.6383118E-06;  0.0000000E+00;  2.8805822E-09;  2.5945026E-01;
 -1.6000000E-01;  9.9999998E-03; -7.9999998E-02;399;  0.0000000E+00;  0.0000000E+00;  0.0000000E+00;  1.0000000E+03;  1.0000000E-01;  0.0000000E+00;0;  0.0000000E+00;  0.0000000E+00;  0.0000000E+00;0; -2.6744015E-06;  4.0000000E+04;  0.0000000E+00;  0.0000000E+00;  4.0000000E+04;  0.0000000E+00;  4.0000000E+04; -2.6776363E-06;  0.0000000E+00;  3.2348497E-09;  2.5731799E-01;
 -1.6000000E-01;  9.9999998E-03; -7.0000000E-02;400;  0.0000000E+00;  0.0000000E+00;  0.0000000E+00;  1.0000000E+03;  1.0000000E-01;  0.0000000E+00;0;  0.0000000E+00;  0.0000000E+00;  0.0000000E+00;0; -2.7097099E-06;  4.0000000E+04;  0.0000000E+00;  0.0000000E+00;  4.0000000E+04;  0.0000000E+00;  4.0000000E+04; -2.7133151E-06;  0.0000000E+00;  3.6051420E-09;  2.5634670E-01;
 -1.6000000E-01;  9.9999998E-03; -5.9999999E-02;401;  0.0000000E+00;  0.0000000E+00;  0.0000000E+00;  1.0000000E+03;  1.0000000E-01;  0.0000000E+00;0;  0.0000000E+00;  0.0000000E+00;  0.0000000E+00;0; -2.7419999E-06;  4.0000000E+04;  0.0000000E+00;  0.0000000E+00;  4.0000000E+04;  0.0000000E+00;  4.0000000E+04; -2.7459353E-06;  0.0000000E+00;  3.9354453E-09;  2.5614226E-01;
 -1.6000000E-01;  9.9999998E-03; -5.0000001E-02;402;  0.0000000E+00;  0.0000000E+00;  0.0000000E+00;  1.0000000E+03;  1.0000000E-01;  0.0000000E+00;0;  0.0000000E+00;  0.0000000E+00;  0.0000000E+00;0; -2.7714209E-06;  4.0000000E+04;  0.0000000E+00;  0.0000000E+00;  4.0000000E+04;  0.0000000E+00;  4.0000000E+04; -2.7756178E-06;  0.0000000E+00;  4.1969757E-09;  2.5632289E-01;
 -1.6000000E-01;  9.9999998E-03; -3.9999999E-02;403;  0.0000000E+00;  0.0000000E+00;  0.0000000E+00;  1.0000000E+03;  1.0000000E-01;  0.0000000E+00;0;  0.0000000E+00;  0.0000000E+00;  0.0000000E+00;0; -2.7975564E-06;  4.0000000E+04;  0.0000000E+00;  0.0000000E+00;  4.0000000E+04;  0.0000000E+00;  4.0000000E+04; -2.8019397E-06;  0.0000000E+00;  4.3833519E-09;  2.5660253E-01;
 -1.6000000E-01;  9.9999998E-03; -2.9999999E-02;404;  0.0000000E+00;  0.0000000E+00;  0.0000000E+00;  1.0000000E+03;  1.0000000E-01;  0.0000000E+00;0;  0.0000000E+00;  0.0000000E+00;  0.0000000E+00;0; -2.8195761E-06;  4.0000000E+04;  0.0000000E+00;  0.0000000E+00;  4.0000000E+04;  0.0000000E+00;  4.0000000E+04; -2.8240793E-06;  0.0000000E+00;  4.5031103E-09;  2.5681666E-01;
 -1.6000000E-01;  9.9999998E-03; -2.0000000E-02;405;  0.0000000E+00;  0.0000000E+00;  0.0000000E+00;  1.0000000E+03;  1.0000000E-01;  0.0000000E+00;0;  0.0000000E+00;  0.0000000E+00;  0.0000000E+00;0; -2.8363988E-06;  4.0000000E+04;  0.0000000E+00;  0.0000000E+00;  4.0000000E+04;  0.0000000E+00;  4.0000000E+04; -2.8409709E-06;  0.0000000E+00;  4.5719712E-09;  2.5691670E-01;
 -1.6000000E-01;  9.9999998E-03; -9.9999998E-03;406;  0.0000000E+00;  0.0000000E+00;  0.0000000E+00;  1.0000000E+03;  1.0000000E-01;  0.0000000E+00;0;  0.0000000E+00;  0.0000000E+00;  0.0000000E+00;0; -2.8469935E-06;  4.0000000E+04;  0.0000000E+00;  0.0000000E+00;  4.0000000E+04;  0.0000000E+00;  4.0000000E+04; -2.8515997E-06;  0.0000000E+00;  4.6060360E-09;  2.5693634E-01;
 -1.6000000E-01;  9.9999998E-03;  0.0000000E+00;407;  0.0000000E+00;  0.0000000E+00;  0.0000000E+00;  1.0000000E+03;  1.0000000E-01;  0.0000000E+00;0;  0.0000000E+00;  0.0000000E+00;  0.0000000E+00;0; -2.8506101E-06;  4.0000000E+04;  0.0000000E+00;  0.0000000E+00;  4.0000000E+04;  0.0000000E+00;  4.0000000E+04; -2.8552263E-06;  0.0000000E+00;  4.6161452E-09;  2.5693473E-01;
 -1.6000000E-01;  9.9999998E-03;  9.9999998E-03;408;  0.0000000E+00;  0.0000000E+00;  0.0000000E+00;  1.0000000E+03;  1.0000000E-01;  0.0000000E+00;0;  0.0000000E+00;  0.0000000E+00;  0.0000000E+00;0; -2.8469942E-06;  4.0000000E+04;  0.0000000E+00;  0.0000000E+00;  4.0000000E+04;  0.0000000E+00;  4.0000000E+04; -2.8516004E-06;  0.0000000E+00;  4.6060524E-09;  2.5693616E-01;
 -1.6000000E-01;  9.9999998E-03;  2.0000000E-02;409;  0.0000000E+00;  0.0000000E+00;  0.0000000E+00;  1.0000000E+03;  1.0000000E-01;  0.0000000E+00;0;  0.0000000E+00;  0.0000000E+00;  0.0000000E+00;0; -2.8363995E-06;  4.0000000E+04;  0.0000000E+00;  0.0000000E+00;  4.0000000E+04;  0.0000000E+00;  4.0000000E+04; -2.8409715E-06;  0.0000000E+00;  4.5719899E-09;  2.5691655E-01;
 -1.6000000E-01;  9.9999998E-03;  2.9999999E-02;410;  0.0000000E+00;  0.0000000E+00;  0.0000000E+00;  1.0000000E+03;  1.0000000E-01;  0.0000000E+00;0;  0.0000000E+00;  0.0000000E+00;  0.0000000E+00;0; -2.8195770E-06;  4.0000000E+04;  0.0000000E+00;  0.0000000E+00;  4.0000000E+04;  0.0000000E+00;  4.0000000E+04; -2.8240802E-06;  0.0000000E+00;  4.5031197E-09;  2.5681642E-01;
 -1.6000000E-01;  9.9999998E-03;  3.9999999E-02;411;  0.0000000E+00;  0.0000000E+00;  0.0000000E+00;  1.0000000E+03;  1.0000000E-01;  0.0000000E+00;0;  0.0000000E+00;  0.0000000E+00;  0.0000000E+00;0; -2.7975589E-06;  4.0000000E+04;  0.0000000E+00;  0.0000000E+00;  4.0000000E+04;  0.0000000E+00;  4.0000000E+04; -2.8019422E-06;  0.0000000E+00;  4.3833555E-09;  2.5660229E-01;
 -1.6000000E-01;  9.9999998E-03;  5.0000001E-02;412;  0.0000000E+00;  0.0000000E+00;  0.0000000E+00;  1.0000000E+03;  1.0000000E-01;  0.0000000E+00;0;  0.0000000E+00;  0.0000000E+00;  0.0000000E+00;0; -2.7714223E-06;  4.0000000E+04;  0.0000000E+00;  0.0000000E+00;  4.0000000E+04;  0.0000000E+00;  4.0000000E+04; -2.7756194E-06;  0.0000000E+00;  4.1969814E-09;  2.5632259E-01;
 -1.6000000E-01;  9.9999998E-03;  5.9999999E-02;413;  0.0000000E+00;  0.0000000E+00;  0.0000000E+00;  1.0000000E+03;  1.0000000E-01;  0.0000000E+00;0;  0.0000000E+00;  0.0000000E+00;  0.0000000E+00;0; -2.7419987E-06;  4.0000000E+04;  0.0000000E+00;  0.0000000E+00;  4.0000000E+04;  0.0000000E+00;  4.0000000E+04; -2.7459341E-06;  0.0000000E+00;  3.9354684E-09;  2.5614208E-01;
 -1.5000001E-01;  9.9999998E-03; -1.0000000E-01;488;  0.0000000E+00;  0.0000000E+00;  0.0000000E+00;  1.0000000E+03;  1.0000000E-01;  0.0000000E+00;0;  0.0000000E+00;  0.0000000E+00;  0.0000000E+00;0; -6.8746936E-05;  4.0000000E+04;  0.0000000E+00;  0.0000000E+00;  4.0000000E+04;  0.0000000E+00;  4.0000000E+04; -6.8970119E-05;  0.0000000E+00;  2.2318392E-07;  3.8963540E+00;
 -1.5000001E-01;  9.9999998E-03; -9.0000004E-02;489;  0.0000000E+00;  0.0000000E+00;  0.0000000E+00;  1.0000000E+03;  1.0000000E-01;  0.0000000E+00;0;  0.0000000E+00;  0.0000000E+00;  0.0000000E+00;0; -6.9533700E-05;  4.0000000E+04;  0.0000000E+00;  0.0000000E+00;  4.0000000E+04;  0.0000000E+00;  4.0000000E+04; -6.9763533E-05;  0.0000000E+00;  2.2983573E-07;  3.8220718E+00;
 -1.5000001E-01;  9.9999998E-03; -7.9999998E-02;490;  0.0000000E+00;  0.0000000E+00;  0.0000000E+00;  1.0000000E+03;  1.0000000E-01;  0.0000000E+00;0;  0.0000000E+00;  0.0000000E+00;  0.0000000E+00;0; -7.0151298E-05;  4.0000000E+04;  0.0000000E+00;  0.0000000E+00;  4.0000000E+04;  0.0000000E+00;  4.0000000E+04; -7.0394432E-05;  0.0000000E+00;  2.4313280E-07;  3.7805495E+00;
 -1.5000001E-01;  9.9999998E-03; -7.0000000E-02;491;  0.0000000E+00;  0.0000000E+00;  0.0000000E+00;  1.0000000E+03;  1.0000000E-01;  0.0000000E+00;0;  0.0000000E+00;  0.0000000E+00;  0.0000000E+00;0; -7.0655005E-05;  4.0000000E+04;  0.0000000E+00;  0.0000000E+00;  4.0000000E+04;  0.0000000E+00;  4.0000000E+04; -7.0913498E-05;  0.0000000E+00;  2.5848971E-07;  3.7671657E+00;
 -1.5000001E-01;  9.9999998E-03; -5.9999999E-02;492;  0.0000000E+00;  0.0000000E+00;  0.0000000E+00;  1.0000000E+03;  1.0000000E-01;  0.0000000E+00;0;  0.0000000E+00;  0.0000000E+00;  0.0000000E+00;0; -7.1084083E-05;  4.0000000E+04;  0.0000000E+00;  0.0000000E+00;  4.0000000E+04;  0.0000000E+00;  4.0000000E+04; -7.1356924E-05;  0.0000000E+00;  2.7283940E-07;  3.7736671E+00;
 -1.5000001E-01;  9.9999998E-03; -5.0000001E-02;493;  0.0000000E+00;  0.0000000E+00;  0.0000000E+00;  1.0000000E+03;  1.0000000E-01;  0.0000000E+00;0;  0.0000000E+00;  0.0000000E+00;  0.0000000E+00;0; -7.1460629E-05;  4.0000000E+04;  0.0000000E+00;  0.0000000E+00;  4.0000000E+04;  0.0000000E+00;  4.0000000E+04; -7.1745104E-05;  0.0000000E+00;  2.8447568E-07;  3.7909842E+00;
 -1.5000001E-01;  9.9999998E-03; -3.9999999E-02;494;  0.0000000E+00;  0.0000000E+00;  0.0000000E+00;  1.0000000E+03;  1.0000000E-01;  0.0000000E+00;0;  0.0000000E+00;  0.0000000E+00;  0.0000000E+00;0; -7.1791022E-05;  4.0000000E+04;  0.0000000E+00;  0.0000000E+00;  4.0000000E+04;  0.0000000E+00;  4.0000000E+04; -7.2083858E-05;  0.0000000E+00;  2.9283441E-07;  3.8114970E+00;
 -1.5000001E-01;  9.9999998E-03; -2.9999999E-02;495;  0.0000000E+00;  0.0000000E+00;  0.0000000E+00;  1.0000000E+03;  1.0000000E-01;  0.0000000E+00;0;  0.0000000E+00;  0.0000000E+00;  0.0000000E+00;0; -7.2069706E-05;  4.0000000E+04;  0.0000000E+00;  0.0000000E+00;  4.0000000E+04;  0.0000000E+00;  4.0000000E+04; -7.2367868E-05;  0.0000000E+00;  2.9816354E-07;  3.8300896E+00;
 -1.5000001E-01;  9.9999998E-03; -2.0000000E-02;496;  0.0000000E+00;  0.0000000E+00;  0.0000000E+00;  1.0000000E+03;  1.0000000E-01;  0.0000000E+00;0;  0.0000000E+00;  0.0000000E+00;  0.0000000E+00;0; -7.2284100E-05;  4.0000000E+04;  0.0000000E+00;  0.0000000E+00;  4.0000000E+04;  0.0000000E+00;  4.0000000E+04; -7.2585244E-05;  0.0000000E+00;  3.0114407E-07;  3.8441012E+00;
 -1.5000001E-01;  9.9999998E-03; -9.9999998E-03;497;  0.0000000E+00;  0.0000000E+00;  0.0000000E+00;  1.0000000E+03;  1.0000000E-01;  0.0000000E+00;0;  0.0000000E+00;  0.0000000E+00;  0.0000000E+00;0; -7.2419993E-05;  4.0000000E+04;  0.0000000E+00;  0.0000000E+00;  4.0000000E+04;  0.0000000E+00;  4.0000000E+04; -7.2722534E-05;  0.0000000E+00;  3.0254375E-07;  3.8525646E+00;
 -1.5000001E-01;  9.9999998E-03;  0.0000000E+00;498;  0.0000000E+00;  0.0000000E+00;  0.0000000E+00;  1.0000000E+03;  1.0000000E-01;  0.0000000E+00;0;  0.0000000E+00;  0.0000000E+00;  0.0000000E+00;0; -7.2466471E-05;  4.0000000E+04;  0.0000000E+00;  0.0000000E+00;  4.0000000E+04;  0.0000000E+00;  4.0000000E+04; -7.2769413E-05;  0.0000000E+00;  3.0293938E-07;  3.8553715E+00;
 -1.5000001E-01;  9.9999998E-03;  9.9999998E-03;499;  0.0000000E+00;  0.0000000E+00;  0.0000000E+00;  1.0000000E+03;  1.0000000E-01;  0.0000000E+00;0;  0.0000000E+00;  0.0000000E+00;  0.0000000E+00;0; -7.2420014E-05;  4.0000000E+04;  0.0000000E+00;  0.0000000E+00;  4.0000000E+04;  0.0000000E+00;  4.0000000E+04; -7.2722556E-05;  0.0000000E+00;  3.0254398E-07;  3.8525646E+00;
 -1.5000001E-01;  9.9999998E-03;  2.0000000E-02;500;  0.0000000E+00;  0.0000000E+00;  0.0000000E+00;  1.0000000E+03;  1.0000000E-01;  0.0000000E+00;0;  0.0000000E+00;  0.0000000E+00;  0.0000000E+00;0; -7.2284100E-05;  4.0000000E+04;  0.0000000E+00;  0.0000000E+00;  4.0000000E+04;  0.0000000E+00;  4.0000000E+04; -7.2585244E-05;  0.0000000E+00;  3.0114467E-07;  3.8440998E+00;
 -1.5000001E-01;  9.9999998E-03;  2.9999999E-02;501;  0.0000000E+00;  0.0000000E+00;  0.0000000E+00;  1.0000000E+03;  1.0000000E-01;  0.0000000E+00;0;  0.0000000E+00;  0.0000000E+00;  0.0000000E+00;0; -7.2069655E-05;  4.0000000E+04;  0.0000000E+00;  0.0000000E+00;  4.0000000E+04;  0.0000000E+00;  4.0000000E+04; -7.2367817E-05;  0.0000000E+00;  2.9816428E-07;  3.8300867E+00;
 -1.5000001E-01;  9.9999998E-03;  3.9999999E-02;502;  0.0000000E+00;  0.0000000E+00;  0.0000000E+00;  1.0000000E+03;  1.0000000E-01;  0.0000000E+00;0;  0.0000000E+00;  0.0000000E+00;  0.0000000E+00;0; -7.1791037E-05;  4.0000000E+04;  0.0000000E+00;  0.0000000E+00;  4.0000000E+04;  0.0000000E+00;  4.0000000E+04; -7.2083873E-05;  0.0000000E+00;  2.9283564E-07;  3.8114936E+00;
 -1.5000001E-01;  9.9999998E-03;  5.0000001E-02;503;  0.0000000E+00;  0.0000000E+00;  0.0000000E+00;  1.0000000E+03;  1.0000000E-01;  0.0000000E+00;0;  0.0000000E+00;  0.0000000E+00;  0.0000000E+00;0; -7.1460621E-05;  4.0000000E+04;  0.0000000E+00;  0.0000000E+00;  4.0000000E+04;  0.0000000E+00;  4.0000000E+04; -7.1745097E-05;  0.0000000E+00;  2.8447701E-07;  3.7909808E+00;
 -1.5000001E-01;  9.9999998E-03;  5.9999999E-02;504;  0.0000000E+00;  0.0000000E+00;  0.0000000E+00;  1.0000000E+03;  1.0000000E-01;  0.0000000E+00;0;  0.0000000E+00;  0.0000000E+00;  0.0000000E+00;0; -7.1084090E-05;  4.0000000E+04;  0.0000000E+00;  0.0000000E+00;  4.0000000E+04;  0.0000000E+00;  4.0000000E+04; -7.1356932E-05;  0.0000000E+00;  2.7284085E-07;  3.7736633E+00;
 -1.4000000E-01;  9.9999998E-03; -1.0000000E-01;579;  0.0000000E+00;  0.0000000E+00;  0.0000000E+00;  1.0000000E+03;  1.0000000E-01;  0.0000000E+00;0;  0.0000000E+00;  0.0000000E+00;  0.0000000E+00;0; -3.8368427E-04;  4.0000000E+04;  0.0000000E+00;  0.0000000E+00;  4.0000000E+04;  0.0000000E+00;  4.0000000E+04; -3.8578518E-04;  0.0000000E+00;  2.1009193E-06;  1.7907574E+01;
 -1.4000000E-01;  9.9999998E-03; -9.0000004E-02;580;  0.0000000E+00;  0.0000000E+00;  0.0000000E+00;  1.0000000E+03;  1.0000000E-01;  0.0000000E+00;0;  0.0000000E+00;  0.0000000E+00;  0.0000000E+00;0; -3.8791590E-04;  4.0000000E+04;  0.0000000E+00;  0.0000000E+00;  4.0000000E+04;  0.0000000E+00;  4.0000000E+04; -3.9002852E-04;  0.0000000E+00;  2.1126170E-06;  1.7495300E+01;
 -1.4000000E-01;  9.9999998E-03; -7.9999998E-02;581;  0.0000000E+00;  0.0000000E+00;  0.0000000E+00;  1.0000000E+03;  1.0000000E-01;  0.0000000E+00;0;  0.0000000E+00;  0.0000000E+00;  0.0000000E+00;0; -3.9107344E-04;  4.0000000E+04;  0.0000000E+00;  0.0000000E+00;  4.0000000E+04;  0.0000000E+00;  4.0000000E+04; -3.9326018E-04;  0.0000000E+00;  2.1867484E-06;  1.7260324E+01;
 -1.4000000E-01;  9.9999998E-03; -7.0000000E-02;582;  0.0000000E+00;  0.0000000E+00;  0.0000000E+00;  1.0000000E+03;  1.0000000E-01;  0.0000000E+00;0;  0.0000000E+00;  0.0000000E+00;  0.0000000E+00;0; -3.9348312E-04;  4.0000000E+04;  0.0000000E+00;  0.0000000E+00;  4.0000000E+04;  0.0000000E+00;  4.0000000E+04; -3.9577056E-04;  0.0000000E+00;  2.2874342E-06;  1.7183519E+01;
 -1.4000000E-01;  9.9999998E-03; -5.9999999E-02;583;  0.0000000E+00;  0.0000000E+00;  0.0000000E+00;  1.0000000E+03;  1.0000000E-01;  0.0000000E+00;0;  0.0000000E+00;  0.0000000E+00;  0.0000000E+00;0; -3.9539486E-04;  4.0000000E+04;  0.0000000E+00;  0.0000000E+00;  4.0000000E+04;  0.0000000E+00;  4.0000000E+04; -3.9778379E-04;  0.0000000E+00;  2.3889286E-06;  1.7227379E+01;
 -1.4000000E-01;  9.9999998E-03; -5.0000001E-02;584;  0.0000000E+00;  0.0000000E+00;  0.0000000E+00;  1.0000000E+03;  1.0000000E-01;  0.0000000E+00;0;  0.0000000E+00;  0.0000000E+00;  0.0000000E+00;0; -3.9696944E-04;  4.0000000E+04;  0.0000000E+00;  0.0000000E+00;  4.0000000E+04;  0.0000000E+00;  4.0000000E+04; -3.9944521E-04;  0.0000000E+00;  2.4757724E-06;  1.7345858E+01;
 -1.4000000E-01;  9.9999998E-03; -3.9999999E-02;585;  0.0000000E+00;  0.0000000E+00;  0.0000000E+00;  1.0000000E+03;  1.0000000E-01;  0.0000000E+00;0;  0.0000000E+00;  0.0000000E+00;  0.0000000E+00;0; -3.9828787E-04;  4.0000000E+04;  0.0000000E+00;  0.0000000E+00;  4.0000000E+04;  0.0000000E+00;  4.0000000E+04; -4.0082922E-04;  0.0000000E+00;  2.5413453E-06;  1.7494480E+01;
 -1.4000000E-01;  9.9999998E-03; -2.9999999E-02;586;  0.0000000E+00;  0.0000000E+00;  0.0000000E+00;  1.0000000E+03;  1.0000000E-01;  0.0000000E+00;0;  0.0000000E+00;  0.0000000E+00;  0.0000000E+00;0; -3.9936701E-04;  4.0000000E+04;  0.0000000E+00;  0.0000000E+00;  4.0000000E+04;  0.0000000E+00;  4.0000000E+04; -4.0195245E-04;  0.0000000E+00;  2.5854270E-06;  1.7637978E+01;
 -1.4000000E-01;  9.9999998E-03; -2.0000000E-02;587;  0.0000000E+00;  0.0000000E+00;  0.0000000E+00;  1.0000000E+03;  1.0000000E-01;  0.0000000E+00;0;  0.0000000E+00;  0.0000000E+00;  0.0000000E+00;0; -4.0018311E-04;  4.0000000E+04;  0.0000000E+00;  0.0000000E+00;  4.0000000E+04;  0.0000000E+00;  4.0000000E+04; -4.0279471E-04;  0.0000000E+00;  2.6116161E-06;  1.7752758E+01;
 -1.4000000E-01;  9.9999998E-03; -9.9999998E-03;588;  0.0000000E+00;  0.0000000E+00;  0.0000000E+00;  1.0000000E+03;  1.0000000E-01;  0.0000000E+00;0;  0.0000000E+00;  0.0000000E+00;  0.0000000E+00;0; -4.0069519E-04;  4.0000000E+04;  0.0000000E+00;  0.0000000E+00;  4.0000000E+04;  0.0000000E+00;  4.0000000E+04; -4.0331992E-04;  0.0000000E+00;  2.6247264E-06;  1.7825569E+01;
 -1.4000000E-01;  9.9999998E-03;  0.0000000E+00;589;  0.0000000E+00;  0.0000000E+00;  0.0000000E+00;  1.0000000E+03;  1.0000000E-01;  0.0000000E+00;0;  0.0000000E+00;  0.0000000E+00;  0.0000000E+00;0; -4.0087072E-04;  4.0000000E+04;  0.0000000E+00;  0.0000000E+00;  4.0000000E+04;  0.0000000E+00;  4.0000000E+04; -4.0349935E-04;  0.0000000E+00;  2.6286159E-06;  1.7850384E+01;
 -1.4000000E-01;  9.9999998E-03;  9.9999998E-03;590;  0.0000000E+00;  0.0000000E+00;  0.0000000E+00;  1.0000000E+03;  1.0000000E-01;  0.0000000E+00;0;  0.0000000E+00;  0.0000000E+00;  0.0000000E+00;0; -4.0069516E-04;  4.0000000E+04;  0.0000000E+00;  0.0000000E+00;  4.0000000E+04;  0.0000000E+00;  4.0000000E+04; -4.0331989E-04;  0.0000000E+00;  2.6247287E-06;  1.7825575E+01;
 -1.4000000E-01;  9.9999998E-03;  2.0000000E-02;591;  0.0000000E+00;  0.0000000E+00;  0.0000000E+00;  1.0000000E+03;  1.0000000E-01;  0.0000000E+00;0;  0.0000000E+00;  0.0000000E+00;  0.0000000E+00;0; -4.0018279E-04;  4.0000000E+04;  0.0000000E+00;  0.0000000E+00;  4.0000000E+04;  0.0000000E+00;  4.0000000E+04; -4.0279442E-04;  0.0000000E+00;  2.6116190E-06;  1.7752758E+01;
 -1.4000000E-01;  9.9999998E-03;  2.9999999E-02;592;  0.0000000E+00;  0.0000000E+00;  0.0000000E+00;  1.0000000E+03;  1.0000000E-01;  0.0000000E+00;0;  0.0000000E+00;  0.0000000E+00;  0.0000000E+00;0; -3.9936684E-04;  4.0000000E+04;  0.0000000E+00;  0.0000000E+00;  4.0000000E+04;  0.0000000E+00;  4.0000000E+04; -4.0195227E-04;  0.0000000E+00;  2.5854331E-06;  1.7637987E+01;
 -1.4000000E-01;  9.9999998E-03;  3.9999999E-02;593;  0.0000000E+00;  0.0000000E+00;  0.0000000E+00;  1.0000000E+03;  1.0000000E-01;  0.0000000E+00;0;  0.0000000E+00;  0.0000000E+00;  0.0000000E+00;0; -3.9828758E-04;  4.0000000E+04;  0.0000000E+00;  0.0000000E+00;  4.0000000E+04;  0.0000000E+00;  4.0000000E+04; -4.0082893E-04;  0.0000000E+00;  2.5413526E-06;  1.7494482E+01;
 -1.4000000E-01;  9.9999998E-03;  5.0000001E-02;594;  0.0000000E+00;  0.0000000E+00;  0.0000000E+00;  1.0000000E+03;  1.0000000E-01;  0.0000000E+00;0;  0.0000000E+00;  0.0000000E+00;  0.0000000E+00;0; -3.9696894E-04;  4.0000000E+04;  0.0000000E+00;  0.0000000E+00;  4.0000000E+04;  0.0000000E+00;  4.0000000E+04; -3.9944472E-04;  0.0000000E+00;  2.4757790E-06;  1.7345860E+01;
 -1.4000000E-01;  9.9999998E-03;  5.9999999E-02;595;  0.0000000E+00;  0.0000000E+00;  0.0000000E+00;  1.0000000E+03;  1.0000000E-01;  0.0000000E+00;0;  0.0000000E+00;  0.0000000E+00;  0.0000000E+00;0; -3.9539437E-04;  4.0000000E+04;  0.0000000E+00;  0.0000000E+00;  4.0000000E+04;  0.0000000E+00;  4.0000000E+04; -3.9778330E-04;  0.0000000E+00;  2.3889356E-06;  1.7227381E+01;
 -1.3000000E-01;  9.9999998E-03; -1.0000000E-01;670;  0.0000000E+00;  0.0000000E+00;  0.0000000E+00;  1.0000066E+03;  1.0000000E-01;  5.4319453E+00;0;  0.0000000E+00;  0.0000000E+00;  0.0000000E+00;0; -1.2470557E-03;  4.0000000E+04;  0.0000000E+00;  0.0000000E+00;  4.0000000E+04;  0.0000000E+00;  4.0000000E+04; -1.2569253E-03;  0.0000000E+00;  9.8695718E-06;  5.1429283E+01;
 -1.3000000E-01;  9.9999998E-03; -9.0000004E-02;671;  0.0000000E+00;  0.0000000E+00;  0.0000000E+00;  1.0000067E+03;  1.0000000E-01;  5.5307078E+00;0;  0.0000000E+00;  0.0000000E+00;  0.0000000E+00;0; -1.2608605E-03;  4.0000000E+04;  0.0000000E+00;  0.0000000E+00;  4.0000000E+04;  0.0000000E+00;  4.0000000E+04; -1.2706523E-03;  0.0000000E+00;  9.7918146E-06;  5.0061588E+01;
 -1.3000000E-01;  9.9999998E-03; -7.9999998E-02;672;  0.0000000E+00;  0.0000000E+00;  0.0000000E+00;  1.0000067E+03;  1.0000000E-01;  5.5307078E+00;0;  0.0000000E+00;  0.0000000E+00;  0.0000000E+00;0; -1.2709333E-03;  4.0000000E+04;  0.0000000E+00;  0.0000000E+00;  4.0000000E+04;  0.0000000E+00;  4.0000000E+04; -1.2809342E-03;  0.0000000E+00;  1.0000907E-05;  4.9258114E+01;
 -1.3000000E-01;  9.9999998E-03; -7.0000000E-02;673;  0.0000000E+00;  0.0000000E+00;  0.0000000E+00;  1.0000067E+03;  1.0000000E-01;  5.5307078E+00;0;  0.0000000E+00;  0.0000000E+00;  0.0000000E+00;0; -1.2783278E-03;  4.0000000E+04;  0.0000000E+00;  0.0000000E+00;  4.0000000E+04;  0.0000000E+00;  4.0000000E+04; -1.2886801E-03;  0.0000000E+00;  1.0352362E-05;  4.8966976E+01;
 -1.3000000E-01;  9.9999998E-03; -5.9999999E-02;674;  0.0000000E+00;  0.0000000E+00;  0.0000000E+00;  1.0000067E+03;  1.0000000E-01;  5.5307078E+00;0;  0.0000000E+00;  0.0000000E+00;  0.0000000E+00;0; -1.2838804E-03;  4.0000000E+04;  0.0000000E+00;  0.0000000E+00;  4.0000000E+04;  0.0000000E+00;  4.0000000E+04; -1.2946173E-03;  0.0000000E+00;  1.0736921E-05;  4.9084118E+01;
 -1.3000000E-01;  9.9999998E-03; -5.0000001E-02;675;  0.0000000E+00;  0.0000000E+00;  0.0000000E+00;  1.0000067E+03;  1.0000000E-01;  5.5307078E+00;0;  0.0000000E+00;  0.0000000E+00;  0.0000000E+00;0; -1.2881887E-03;  4.0000000E+04;  0.0000000E+00;  0.0000000E+00;  4.0000000E+04;  0.0000000E+00;  4.0000000E+04; -1.2992728E-03;  0.0000000E+00;  1.1084045E-05;  4.9474918E+01;
 -1.3000000E-01;  9.9999998E-03; -3.9999999E-02;676;  0.0000000E+00;  0.0000000E+00;  0.0000000E+00;  1.0000067E+03;  1.0000000E-01;  5.5307078E+00;0;  0.0000000E+00;  0.0000000E+00;  0.0000000E+00;0; -1.2916055E-03;  4.0000000E+04;  0.0000000E+00;  0.0000000E+00;  4.0000000E+04;  0.0000000E+00;  4.0000000E+04; -1.3029639E-03;  0.0000000E+00;  1.1358373E-05;  4.9998852E+01;
 -1.3000000E-01;  9.9999998E-03; -2.9999999E-02;677;  0.0000000E+00;  0.0000000E+00;  0.0000000E+00;  1.0000066E+03;  1.0000000E-01;  5.4319453E+00;0;  0.0000000E+00;  0.0000000E+00;  0.0000000E+00;0; -1.2942898E-03;  4.0000000E+04;  0.0000000E+00;  0.0000000E+00;  4.0000000E+04;  0.0000000E+00;  4.0000000E+04; -1.3058416E-03;  0.0000000E+00;  1.1551811E-05;  5.0530239E+01;
 -1.3000000E-01;  9.9999998E-03; -2.0000000E-02;678;  0.0000000E+00;  0.0000000E+00;  0.0000000E+00;  1.0000066E+03;  1.0000000E-01;  5.4319453E+00;0;  0.0000000E+00;  0.0000000E+00;  0.0000000E+00;0; -1.2962663E-03;  4.0000000E+04;  0.0000000E+00;  0.0000000E+00;  4.0000000E+04;  0.0000000E+00;  4.0000000E+04; -1.3079393E-03;  0.0000000E+00;  1.1673011E-05;  5.0972271E+01;
 -1.3000000E-01;  9.9999998E-03; -9.9999998E-03;679;  0.0000000E+00;  0.0000000E+00;  0.0000000E+00;  1.0000066E+03;  1.0000000E-01;  5.4319453E+00;0;  0.0000000E+00;  0.0000000E+00;  0.0000000E+00;0; -1.2974867E-03;  4.0000000E+04;  0.0000000E+00;  0.0000000E+00;  4.0000000E+04;  0.0000000E+00;  4.0000000E+04; -1.3092237E-03;  0.0000000E+00;  1.1736996E-05;  5.1260593E+01;
 -1.3000000E-01;  9.9999998E-03;  0.0000000E+00;680;  0.0000000E+00;  0.0000000E+00;  0.0000000E+00;  1.0000066E+03;  1.0000000E-01;  5.4319453E+00;0;  0.0000000E+00;  0.0000000E+00;  0.0000000E+00;0; -1.2979020E-03;  4.0000000E+04;  0.0000000E+00;  0.0000000E+00;  4.0000000E+04;  0.0000000E+00;  4.0000000E+04; -1.3096586E-03;  0.0000000E+00;  1.1756672E-05;  5.1360367E+01;
 -1.3000000E-01;  9.9999998E-03;  9.9999998E-03;681;  0.0000000E+00;  0.0000000E+00;  0.0000000E+00;  1.0000066E+03;  1.0000000E-01;  5.4319453E+00;0;  0.0000000E+00;  0.0000000E+00;  0.0000000E+00;0; -1.2974869E-03;  4.0000000E+04;  0.0000000E+00;  0.0000000E+00;  4.0000000E+04;  0.0000000E+00;  4.0000000E+04; -1.3092239E-03;  0.0000000E+00;  1.1736998E-05;  5.1260597E+01;
 -1.3000000E-01;  9.9999998E-03;  2.0000000E-02;682;  0.0000000E+00;  0.0000000E+00;  0.0000000E+00;  1.0000066E+03;  1.0000000E-01;  5.4319453E+00;0;  0.0000000E+00;  0.0000000E+00;  0.0000000E+00;0; -1.2962653E-03;  4.0000000E+04;  0.0000000E+00;  0.0000000E+00;  4.0000000E+04;  0.0000000E+00;  4.0000000E+04; -1.3079382E-03;  0.0000000E+00;  1.1673020E-05;  5.0972279E+01;
 -1.3000000E-01;  9.9999998E-03;  2.9999999E-02;683;  0.0000000E+00;  0.0000000E+00;  0.0000000E+00;  1.0000066E+03;  1.0000000E-01;  5.4319453E+00;0;  0.0000000E+00;  0.0000000E+00;  0.0000000E+00;0; -1.2942901E-03;  4.0000000E+04;  0.0000000E+00;  0.0000000E+00;  4.0000000E+04;  0.0000000E+00;  4.0000000E+04; -1.3058418E-03;  0.0000000E+00;  1.1551829E-05;  5.0530266E+01;
 -1.3000000E-01;  9.9999998E-03;  3.9999999E-02;684;  0.0000000E+00;  0.0000000E+00;  0.0000000E+00;  1.0000067E+03;  1.0000000E-01;  5.5307078E+00;0;  0.0000000E+00;  0.0000000E+00;  0.0000000E+00;0; -1.2916054E-03;  4.0000000E+04;  0.0000000E+00;  0.0000000E+00;  4.0000000E+04;  0.0000000E+00;  4.0000000E+04; -1.3029638E-03;  0.0000000E+00;  1.1358391E-05;  4.9998878E+01;
 -1.3000000E-01;  9.9999998E-03;  5.0000001E-02;685;  0.0000000E+00;  0.0000000E+00;  0.0000000E+00;  1.0000067E+03;  1.0000000E-01;  5.5307078E+00;0;  0.0000000E+00;  0.0000000E+00;  0.0000000E+00;0; -1.2881891E-03;  4.0000000E+04;  0.0000000E+00;  0.0000000E+00;  4.0000000E+04;  0.0000000E+00;  4.0000000E+04; -1.2992731E-03;  0.0000000E+00;  1.1084069E-05;  4.9474976E+01;
 -1.3000000E-01;  9.9999998E-03;  5.9999999E-02;686;  0.0000000E+00;  0.0000000E+00;  0.0000000E+00;  1.0000067E+03;  1.0000000E-01;  5.5307078E+00;0;  0.0000000E+00;  0.0000000E+00;  0.0000000E+00;0; -1.2838803E-03;  4.0000000E+04;  0.0000000E+00;  0.0000000E+00;  4.0000000E+04;  0.0000000E+00;  4.0000000E+04; -1.2946173E-03;  0.0000000E+00;  1.0736939E-05;  4.9084137E+01;
 -1.2000000E-01;  9.9999998E-03; -1.0000000E-01;761;  0.0000000E+00;  0.0000000E+00;  0.0000000E+00;  1.0000174E+03;  1.0000000E-01;  1.4419345E+01;0;  0.0000000E+00;  0.0000000E+00;  0.0000000E+00;0; -3.0496831E-03;  4.0000000E+04;  0.0000000E+00;  0.0000000E+00;  4.0000000E+04;  0.0000000E+00;  4.0000000E+04; -3.0819045E-03;  0.0000000E+00;  3.2221375E-05;  1.1450902E+02;
 -1.2000000E-01;  9.9999998E-03; -9.0000004E-02;762;  0.0000000E+00;  0.0000000E+00;  0.0000000E+00;  1.0000177E+03;  1.0000000E-01;  1.4616871E+01;0;  0.0000000E+00;  0.0000000E+00;  0.0000000E+00;0; -3.0836924E-03;  4.0000000E+04;  0.0000000E+00;  0.0000000E+00;  4.0000000E+04;  0.0000000E+00;  4.0000000E+04; -3.1154200E-03;  0.0000000E+00;  3.1727610E-05;  1.1109129E+02;
 -1.2000000E-01;  9.9999998E-03; -7.9999998E-02;763;  0.0000000E+00;  0.0000000E+00;  0.0000000E+00;  1.0000178E+03;  1.0000000E-01;  1.4814396E+01;0;  0.0000000E+00;  0.0000000E+00;  0.0000000E+00;0; -3.1082472E-03;  4.0000000E+04;  0.0000000E+00;  0.0000000E+00;  4.0000000E+04;  0.0000000E+00;  4.0000000E+04; -3.1403701E-03;  0.0000000E+00;  3.2122898E-05;  1.0901996E+02;
 -1.2000000E-01;  9.9999998E-03; -7.0000000E-02;764;  0.0000000E+00;  0.0000000E+00;  0.0000000E+00;  1.0000179E+03;  1.0000000E-01;  1.4913158E+01;0;  0.0000000E+00;  0.0000000E+00;  0.0000000E+00;0; -3.1258450E-03;  4.0000000E+04;  0.0000000E+00;  0.0000000E+00;  4.0000000E+04;  0.0000000E+00;  4.0000000E+04; -3.1588511E-03;  0.0000000E+00;  3.3005959E-05;  1.0818205E+02;
 -1.2000000E-01;  9.9999998E-03; -5.9999999E-02;765;  0.0000000E+00;  0.0000000E+00;  0.0000000E+00;  1.0000180E+03;  1.0000000E-01;  1.4913158E+01;0;  0.0000000E+00;  0.0000000E+00;  0.0000000E+00;0; -3.1385617E-03;  4.0000000E+04;  0.0000000E+00;  0.0000000E+00;  4.0000000E+04;  0.0000000E+00;  4.0000000E+04; -3.1726165E-03;  0.0000000E+00;  3.4054734E-05;  1.0835269E+02;
 -1.2000000E-01;  9.9999998E-03; -5.0000001E-02;766;  0.0000000E+00;  0.0000000E+00;  0.0000000E+00;  1.0000179E+03;  1.0000000E-01;  1.4814396E+01;0;  0.0000000E+00;  0.0000000E+00;  0.0000000E+00;0; -3.1479371E-03;  4.0000000E+04;  0.0000000E+00;  0.0000000E+00;  4.0000000E+04;  0.0000000E+00;  4.0000000E+04; -3.1829863E-03;  0.0000000E+00;  3.5049081E-05;  1.0923348E+02;
 -1.2000000E-01;  9.9999998E-03; -3.9999999E-02;767;  0.0000000E+00;  0.0000000E+00;  0.0000000E+00;  1.0000179E+03;  1.0000000E-01;  1.4814396E+01;0;  0.0000000E+00;  0.0000000E+00;  0.0000000E+00;0; -3.1549893E-03;  4.0000000E+04;  0.0000000E+00;  0.0000000E+00;  4.0000000E+04;  0.0000000E+00;  4.0000000E+04; -3.1908567E-03;  0.0000000E+00;  3.5867295E-05;  1.1049822E+02;
 -1.2000000E-01;  9.9999998E-03; -2.9999999E-02;768;  0.0000000E+00;  0.0000000E+00;  0.0000000E+00;  1.0000179E+03;  1.0000000E-01;  1.4814396E+01;0;  0.0000000E+00;  0.0000000E+00;  0.0000000E+00;0; -3.1602830E-03;  4.0000000E+04;  0.0000000E+00;  0.0000000E+00;  4.0000000E+04;  0.0000000E+00;  4.0000000E+04; -3.1967498E-03;  0.0000000E+00;  3.6466950E-05;  1.1183554E+02;
 -1.2000000E-01;  9.9999998E-03; -2.0000000E-02;769;  0.0000000E+00;  0.0000000E+00;  0.0000000E+00;  1.0000179E+03;  1.0000000E-01;  1.4814396E+01;0;  0.0000000E+00;  0.0000000E+00;  0.0000000E+00;0; -3.1640544E-03;  4.0000000E+04;  0.0000000E+00;  0.0000000E+00;  4.0000000E+04;  0.0000000E+00;  4.0000000E+04; -3.2009119E-03;  0.0000000E+00;  3.6857502E-05;  1.1298253E+02;
 -1.2000000E-01;  9.9999998E-03; -9.9999998E-03;770;  0.0000000E+00;  0.0000000E+00;  0.0000000E+00;  1.0000179E+03;  1.0000000E-01;  1.4814396E+01;0;  0.0000000E+00;  0.0000000E+00;  0.0000000E+00;0; -3.1663405E-03;  4.0000000E+04;  0.0000000E+00;  0.0000000E+00;  4.0000000E+04;  0.0000000E+00;  4.0000000E+04; -3.2034118E-03;  0.0000000E+00;  3.7071284E-05;  1.1374741E+02;
 -1.2000000E-01;  9.9999998E-03;  0.0000000E+00;771;  0.0000000E+00;  0.0000000E+00;  0.0000000E+00;  1.0000178E+03;  1.0000000E-01;  1.4814396E+01;0;  0.0000000E+00;  0.0000000E+00;  0.0000000E+00;0; -3.1671112E-03;  4.0000000E+04;  0.0000000E+00;  0.0000000E+00;  4.0000000E+04;  0.0000000E+00;  4.0000000E+04; -3.2042498E-03;  0.0000000E+00;  3.7138518E-05;  1.1401493E+02;
 -1.2000000E-01;  9.9999998E-03;  9.9999998E-03;772;  0.0000000E+00;  0.0000000E+00;  0.0000000E+00;  1.0000179E+03;  1.0000000E-01;  1.4814396E+01;0;  0.0000000E+00;  0.0000000E+00;  0.0000000E+00;0; -3.1663426E-03;  4.0000000E+04;  0.0000000E+00;  0.0000000E+00;  4.0000000E+04;  0.0000000E+00;  4.0000000E+04; -3.2034139E-03;  0.0000000E+00;  3.7071281E-05;  1.1374746E+02;
 -1.2000000E-01;  9.9999998E-03;  2.0000000E-02;773;  0.0000000E+00;  0.0000000E+00;  0.0000000E+00;  1.0000179E+03;  1.0000000E-01;  1.4814396E+01;0;  0.0000000E+00;  0.0000000E+00;  0.0000000E+00;0; -3.1640551E-03;  4.0000000E+04;  0.0000000E+00;  0.0000000E+00;  4.0000000E+04;  0.0000000E+00;  4.0000000E+04; -3.2009126E-03;  0.0000000E+00;  3.6857531E-05;  1.1298257E+02;
 -1.2000000E-01;  9.9999998E-03;  2.9999999E-02;774;  0.0000000E+00;  0.0000000E+00;  0.0000000E+00;  1.0000179E+03;  1.0000000E-01;  1.4814396E+01;0;  0.0000000E+00;  0.0000000E+00;  0.0000000E+00;0; -3.1602837E-03;  4.0000000E+04;  0.0000000E+00;  0.0000000E+00;  4.0000000E+04;  0.0000000E+00;  4.0000000E+04; -3.1967508E-03;  0.0000000E+00;  3.6467012E-05;  1.1183559E+02;
 -1.2000000E-01;  9.9999998E-03;  3.9999999E-02;775;  0.0000000E+00;  0.0000000E+00;  0.0000000E+00;  1.0000179E+03;  1.0000000E-01;  1.4814396E+01;0;  0.0000000E+00;  0.0000000E+00;  0.0000000E+00;0; -3.1549889E-03;  4.0000000E+04;  0.0000000E+00;  0.0000000E+00;  4.0000000E+04;  0.0000000E+00;  4.0000000E+04; -3.1908562E-03;  0.0000000E+00;  3.5867368E-05;  1.1049831E+02;
 -1.2000000E-01;  9.9999998E-03;  5.0000001E-02;776;  0.0000000E+00;  0.0000000E+00;  0.0000000E+00;  1.0000179E+03;  1.0000000E-01;  1.4814396E+01;0;  0.0000000E+00;  0.0000000E+00;  0.0000000E+00;0; -3.1479367E-03;  4.0000000E+04;  0.0000000E+00;  0.0000000E+00;  4.0000000E+04;  0.0000000E+00;  4.0000000E+04; -3.1829858E-03;  0.0000000E+00;  3.5049150E-05;  1.0923361E+02;
 -1.2000000E-01;  9.9999998E-03;  5.9999999E-02;777;  0.0000000E+00;  0.0000000E+00;  0.0000000E+00;  1.0000180E+03;  1.0000000E-01;  1.4913158E+01;0;  0.0000000E+00;  0.0000000E+00;  0.0000000E+00;0; -3.1385606E-03;  4.0000000E+04;  0.0000000E+00;  0.0000000E+00;  4.0000000E+04;  0.0000000E+00;  4.0000000E+04; -3.1726153E-03;  0.0000000E+00;  3.4054803E-05;  1.0835284E+02;
 -1.1000000E-01;  9.9999998E-03; -1.0000000E-01;852;  0.0000000E+00;  0.0000000E+00;  0.0000000E+00;  1.0000367E+03;  1.0000000E-01;  3.0418892E+01;0;  0.0000000E+00;  0.0000000E+00;  0.0000000E+00;0; -6.2651406E-03;  4.0000000E+04;  0.0000000E+00;  0.0000000E+00;  4.0000000E+04;  0.0000000E+00;  4.0000000E+04; -6.3488083E-03;  0.0000000E+00;  8.3667517E-05;  2.1796375E+02;
 -1.1000000E-01;  9.9999998E-03; -9.0000004E-02;853;  0.0000000E+00;  0.0000000E+00;  0.0000000E+00;  1.0000372E+03;  1.0000000E-01;  3.0813944E+01;0;  0.0000000E+00;  0.0000000E+00;  0.0000000E+00;0; -6.3351733E-03;  4.0000000E+04;  0.0000000E+00;  0.0000000E+00;  4.0000000E+04;  0.0000000E+00;  4.0000000E+04; -6.4172773E-03;  0.0000000E+00;  8.2104154E-05;  2.1085022E+02;
 -1.1000000E-01;  9.9999998E-03; -7.9999998E-02;854;  0.0000000E+00;  0.0000000E+00;  0.0000000E+00;  1.0000376E+03;  1.0000000E-01;  3.1110231E+01;0;  0.0000000E+00;  0.0000000E+00;  0.0000000E+00;0; -6.3854693E-03;  4.0000000E+04;  0.0000000E+00;  0.0000000E+00;  4.0000000E+04;  0.0000000E+00;  4.0000000E+04; -6.4681498E-03;  0.0000000E+00;  8.2680395E-05;  2.0641078E+02;
 -1.1000000E-01;  9.9999998E-03; -7.0000000E-02;855;  0.0000000E+00;  0.0000000E+00;  0.0000000E+00;  1.0000377E+03;  1.0000000E-01;  3.1208994E+01;0;  0.0000000E+00;  0.0000000E+00;  0.0000000E+00;0; -6.4209816E-03;  4.0000000E+04;  0.0000000E+00;  0.0000000E+00;  4.0000000E+04;  0.0000000E+00;  4.0000000E+04; -6.5054987E-03;  0.0000000E+00;  8.4517102E-05;  2.0443266E+02;
 -1.1000000E-01;  9.9999998E-03; -5.9999999E-02;856;  0.0000000E+00;  0.0000000E+00;  0.0000000E+00;  1.0000378E+03;  1.0000000E-01;  3.1307756E+01;0;  0.0000000E+00;  0.0000000E+00;  0.0000000E+00;0; -6.4459303E-03;  4.0000000E+04;  0.0000000E+00;  0.0000000E+00;  4.0000000E+04;  0.0000000E+00;  4.0000000E+04; -6.5327967E-03;  0.0000000E+00;  8.6866523E-05;  2.0449760E+02;
 -1.1000000E-01;  9.9999998E-03; -5.0000001E-02;857;  0.0000000E+00;  0.0000000E+00;  0.0000000E+00;  1.0000377E+03;  1.0000000E-01;  3.1208994E+01;0;  0.0000000E+00;  0.0000000E+00;  0.0000000E+00;0; -6.4635929E-03;  4.0000000E+04;  0.0000000E+00;  0.0000000E+00;  4.0000000E+04;  0.0000000E+00;  4.0000000E+04; -6.5527819E-03;  0.0000000E+00;  8.9188885E-05;  2.0604631E+02;
 -1.1000000E-01;  9.9999998E-03; -3.9999999E-02;858;  0.0000000E+00;  0.0000000E+00;  0.0000000E+00;  1.0000377E+03;  1.0000000E-01;  3.1208994E+01;0;  0.0000000E+00;  0.0000000E+00;  0.0000000E+00;0; -6.4762668E-03;  4.0000000E+04;  0.0000000E+00;  0.0000000E+00;  4.0000000E+04;  0.0000000E+00;  4.0000000E+04; -6.5674307E-03;  0.0000000E+00;  9.1163762E-05;  2.0845044E+02;
 -1.1000000E-01;  9.9999998E-03; -2.9999999E-02;859;  0.0000000E+00;  0.0000000E+00;  0.0000000E+00;  1.0000376E+03;  1.0000000E-01;  3.1110231E+01;0;  0.0000000E+00;  0.0000000E+00;  0.0000000E+00;0; -6.4853542E-03;  4.0000000E+04;  0.0000000E+00;  0.0000000E+00;  4.0000000E+04;  0.0000000E+00;  4.0000000E+04; -6.5780096E-03;  0.0000000E+00;  9.2655551E-05;  2.1108736E+02;
 -1.1000000E-01;  9.9999998E-03; -2.0000000E-02;860;  0.0000000E+00;  0.0000000E+00;  0.0000000E+00;  1.0000376E+03;  1.0000000E-01;  3.1110231E+01;0;  0.0000000E+00;  0.0000000E+00;  0.0000000E+00;0; -6.4916015E-03;  4.0000000E+04;  0.0000000E+00;  0.0000000E+00;  4.0000000E+04;  0.0000000E+00;  4.0000000E+04; -6.5852567E-03;  0.0000000E+00;  9.3655341E-05;  2.1340527E+02;
 -1.1000000E-01;  9.9999998E-03; -9.9999998E-03;861;  0.0000000E+00;  0.0000000E+00;  0.0000000E+00;  1.0000376E+03;  1.0000000E-01;  3.1110231E+01;0;  0.0000000E+00;  0.0000000E+00;  0.0000000E+00;0; -6.4952932E-03;  4.0000000E+04;  0.0000000E+00;  0.0000000E+00;  4.0000000E+04;  0.0000000E+00;  4.0000000E+04; -6.5895091E-03;  0.0000000E+00;  9.4216048E-05;  2.1497632E+02;
 -1.1000000E-01;  9.9999998E-03;  0.0000000E+00;862;  0.0000000E+00;  0.0000000E+00;  0.0000000E+00;  1.0000376E+03;  1.0000000E-01;  3.1110231E+01;0;  0.0000000E+00;  0.0000000E+00;  0.0000000E+00;0; -6.4965230E-03;  4.0000000E+04;  0.0000000E+00;  0.0000000E+00;  4.0000000E+04;  0.0000000E+00;  4.0000000E+04; -6.5909182E-03;  0.0000000E+00;  9.4395014E-05;  2.1553029E+02;
 -1.1000000E-01;  9.9999998E-03;  9.9999998E-03;863;  0.0000000E+00;  0.0000000E+00;  0.0000000E+00;  1.0000376E+03;  1.0000000E-01;  3.1110231E+01;0;  0.0000000E+00;  0.0000000E+00;  0.0000000E+00;0; -6.4952900E-03;  4.0000000E+04;  0.0000000E+00;  0.0000000E+00;  4.0000000E+04;  0.0000000E+00;  4.0000000E+04; -6.5895058E-03;  0.0000000E+00;  9.4216070E-05;  2.1497636E+02;
 -1.1000000E-01;  9.9999998E-03;  2.0000000E-02;864;  0.0000000E+00;  0.0000000E+00;  0.0000000E+00;  1.0000376E+03;  1.0000000E-01;  3.1110231E+01;0;  0.0000000E+00;  0.0000000E+00;  0.0000000E+00;0; -6.4915963E-03;  4.0000000E+04;  0.0000000E+00;  0.0000000E+00;  4.0000000E+04;  0.0000000E+00;  4.0000000E+04; -6.5852515E-03;  0.0000000E+00;  9.3655421E-05;  2.1340541E+02;
 -1.1000000E-01;  9.9999998E-03;  2.9999999E-02;865;  0.0000000E+00;  0.0000000E+00;  0.0000000E+00;  1.0000376E+03;  1.0000000E-01;  3.1110231E+01;0;  0.0000000E+00;  0.0000000E+00;  0.0000000E+00;0; -6.4853532E-03;  4.0000000E+04;  0.0000000E+00;  0.0000000E+00;  4.0000000E+04;  0.0000000E+00;  4.0000000E+04; -6.5780091E-03;  0.0000000E+00;  9.2655675E-05;  2.1108763E+02;
 -1.1000000E-01;  9.9999998E-03;  3.9999999E-02;866;  0.0000000E+00;  0.0000000E+00;  0.0000000E+00;  1.0000377E+03;  1.0000000E-01;  3.1208994E+01;0;  0.0000000E+00;  0.0000000E+00;  0.0000000E+00;0; -6.4762686E-03;  4.0000000E+04;  0.0000000E+00;  0.0000000E+00;  4.0000000E+04;  0.0000000E+00;  4.0000000E+04; -6.5674325E-03;  0.0000000E+00;  9.1163849E-05;  2.0845078E+02;
 -1.1000000E-01;  9.9999998E-03;  5.0000001E-02;867;  0.0000000E+00;  0.0000000E+00;  0.0000000E+00;  1.0000377E+03;  1.0000000E-01;  3.1208994E+01;0;  0.0000000E+00;  0.0000000E+00;  0.0000000E+00;0; -6.4635938E-03;  4.0000000E+04;  0.0000000E+00;  0.0000000E+00;  4.0000000E+04;  0.0000000E+00;  4.0000000E+04; -6.5527828E-03;  0.0000000E+00;  8.9189052E-05;  2.0604648E+02;
 -1.1000000E-01;  9.9999998E-03;  5.9999999E-02;868;  0.0000000E+00;  0.0000000E+00;  0.0000000E+00;  1.0000378E+03;  1.0000000E-01;  3.1307756E+01;0;  0.0000000E+00;  0.0000000E+00;  0.0000000E+00;0; -6.4459303E-03;  4.0000000E+04;  0.0000000E+00;  0.0000000E+00;  4.0000000E+04;  0.0000000E+00;  4.0000000E+04; -6.5327971E-03;  0.0000000E+00;  8.6866654E-05;  2.0449803E+02;
 -1.0000000E-01;  9.9999998E-03; -1.0000000E-01;943;  0.0000000E+00;  0.0000000E+00;  0.0000000E+00;  1.0000692E+03;  1.0000000E-01;  5.7282330E+01;0;  0.0000000E+00;  0.0000000E+00;  0.0000000E+00;0; -1.1451315E-02;  4.0000000E+04;  0.0000000E+00;  0.0000000E+00;  4.0000000E+04;  0.0000000E+00;  4.0000000E+04; -1.1636560E-02;  0.0000000E+00;  1.8524441E-04;  3.7348114E+02;
 -1.0000000E-01;  9.9999998E-03; -9.0000004E-02;944;  0.0000000E+00;  0.0000000E+00;  0.0000000E+00;  1.0000704E+03;  1.0000000E-01;  5.8269958E+01;0;  0.0000000E+00;  0.0000000E+00;  0.0000000E+00;0; -1.1578674E-02;  4.0000000E+04;  0.0000000E+00;  0.0000000E+00;  4.0000000E+04;  0.0000000E+00;  4.0000000E+04; -1.1760353E-02;  0.0000000E+00;  1.8167828E-04;  3.6048889E+02;
 -1.0000000E-01;  9.9999998E-03; -7.9999998E-02;945;  0.0000000E+00;  0.0000000E+00;  0.0000000E+00;  1.0000712E+03;  1.0000000E-01;  5.8961296E+01;0;  0.0000000E+00;  0.0000000E+00;  0.0000000E+00;0; -1.1669882E-02;  4.0000000E+04;  0.0000000E+00;  0.0000000E+00;  4.0000000E+04;  0.0000000E+00;  4.0000000E+04; -1.1852322E-02;  0.0000000E+00;  1.8244017E-04;  3.5216632E+02;
 -1.0000000E-01;  9.9999998E-03; -7.0000000E-02;946;  0.0000000E+00;  0.0000000E+00;  0.0000000E+00;  1.0000716E+03;  1.0000000E-01;  5.9356346E+01;0;  0.0000000E+00;  0.0000000E+00;  0.0000000E+00;0; -1.1733627E-02;  4.0000000E+04;  0.0000000E+00;  0.0000000E+00;  4.0000000E+04;  0.0000000E+00;  4.0000000E+04; -1.1919510E-02;  0.0000000E+00;  1.8588277E-04;  3.4814545E+02;
 -1.0000000E-01;  9.9999998E-03; -5.9999999E-02;947;  0.0000000E+00;  0.0000000E+00;  0.0000000E+00;  1.0000717E+03;  1.0000000E-01;  5.9356346E+01;0;  0.0000000E+00;  0.0000000E+00;  0.0000000E+00;0; -1.1777501E-02;  4.0000000E+04;  0.0000000E+00;  0.0000000E+00;  4.0000000E+04;  0.0000000E+00;  4.0000000E+04; -1.1968032E-02;  0.0000000E+00;  1.9053217E-04;  3.4772769E+02;
 -1.0000000E-01;  9.9999998E-03; -5.0000001E-02;948;  0.0000000E+00;  0.0000000E+00;  0.0000000E+00;  1.0000716E+03;  1.0000000E-01;  5.9356346E+01;0;  0.0000000E+00;  0.0000000E+00;  0.0000000E+00;0; -1.1807588E-02;  4.0000000E+04;  0.0000000E+00;  0.0000000E+00;  4.0000000E+04;  0.0000000E+00;  4.0000000E+04; -1.2002861E-02;  0.0000000E+00;  1.9527331E-04;  3.4997955E+02;
 -1.0000000E-01;  9.9999998E-03; -3.9999999E-02;949;  0.0000000E+00;  0.0000000E+00;  0.0000000E+00;  1.0000714E+03;  1.0000000E-01;  5.9158821E+01;0;  0.0000000E+00;  0.0000000E+00;  0.0000000E+00;0; -1.1828296E-02;  4.0000000E+04;  0.0000000E+00;  0.0000000E+00;  4.0000000E+04;  0.0000000E+00;  4.0000000E+04; -1.2027702E-02;  0.0000000E+00;  1.9940642E-04;  3.5383600E+02;
 -1.0000000E-01;  9.9999998E-03; -2.9999999E-02;950;  0.0000000E+00;  0.0000000E+00;  0.0000000E+00;  1.0000715E+03;  1.0000000E-01;  5.9257584E+01;0;  0.0000000E+00;  0.0000000E+00;  0.0000000E+00;0; -1.1842526E-02;  4.0000000E+04;  0.0000000E+00;  0.0000000E+00;  4.0000000E+04;  0.0000000E+00;  4.0000000E+04; -1.2045125E-02;  0.0000000E+00;  2.0259985E-04;  3.5821942E+02;
 -1.0000000E-01;  9.9999998E-03; -2.0000000E-02;951;  0.0000000E+00;  0.0000000E+00;  0.0000000E+00;  1.0000714E+03;  1.0000000E-01;  5.9158821E+01;0;  0.0000000E+00;  0.0000000E+00;  0.0000000E+00;0; -1.1851949E-02;  4.0000000E+04;  0.0000000E+00;  0.0000000E+00;  4.0000000E+04;  0.0000000E+00;  4.0000000E+04; -1.2056733E-02;  0.0000000E+00;  2.0478498E-04;  3.6215125E+02;
 -1.0000000E-01;  9.9999998E-03; -9.9999998E-03;952;  0.0000000E+00;  0.0000000E+00;  0.0000000E+00;  1.0000714E+03;  1.0000000E-01;  5.9158821E+01;0;  0.0000000E+00;  0.0000000E+00;  0.0000000E+00;0; -1.1857376E-02;  4.0000000E+04;  0.0000000E+00;  0.0000000E+00;  4.0000000E+04;  0.0000000E+00;  4.0000000E+04; -1.2063407E-02;  0.0000000E+00;  2.0603143E-04;  3.6484732E+02;
 -1.0000000E-01;  9.9999998E-03;  0.0000000E+00;953;  0.0000000E+00;  0.0000000E+00;  0.0000000E+00;  1.0000714E+03;  1.0000000E-01;  5.9158821E+01;0;  0.0000000E+00;  0.0000000E+00;  0.0000000E+00;0; -1.1859160E-02;  4.0000000E+04;  0.0000000E+00;  0.0000000E+00;  4.0000000E+04;  0.0000000E+00;  4.0000000E+04; -1.2065593E-02;  0.0000000E+00;  2.0643318E-04;  3.6580435E+02;
 -1.0000000E-01;  9.9999998E-03;  9.9999998E-03;954;  0.0000000E+00;  0.0000000E+00;  0.0000000E+00;  1.0000714E+03;  1.0000000E-01;  5.9158821E+01;0;  0.0000000E+00;  0.0000000E+00;  0.0000000E+00;0; -1.1857367E-02;  4.0000000E+04;  0.0000000E+00;  0.0000000E+00;  4.0000000E+04;  0.0000000E+00;  4.0000000E+04; -1.2063399E-02;  0.0000000E+00;  2.0603144E-04;  3.6484747E+02;
 -1.0000000E-01;  9.9999998E-03;  2.0000000E-02;955;  0.0000000E+00;  0.0000000E+00;  0.0000000E+00;  1.0000714E+03;  1.0000000E-01;  5.9158821E+01;0;  0.0000000E+00;  0.0000000E+00;  0.0000000E+00;0; -1.1851940E-02;  4.0000000E+04;  0.0000000E+00;  0.0000000E+00;  4.0000000E+04;  0.0000000E+00;  4.0000000E+04; -1.2056725E-02;  0.0000000E+00;  2.0478504E-04;  3.6215143E+02;
 -1.0000000E-01;  9.9999998E-03;  2.9999999E-02;956;  0.0000000E+00;  0.0000000E+00;  0.0000000E+00;  1.0000715E+03;  1.0000000E-01;  5.9257584E+01;0;  0.0000000E+00;  0.0000000E+00;  0.0000000E+00;0; -1.1842519E-02;  4.0000000E+04;  0.0000000E+00;  0.0000000E+00;  4.0000000E+04;  0.0000000E+00;  4.0000000E+04; -1.2045119E-02;  0.0000000E+00;  2.0259984E-04;  3.5821982E+02;
 -1.0000000E-01;  9.9999998E-03;  3.9999999E-02;957;  0.0000000E+00;  0.0000000E+00;  0.0000000E+00;  1.0000714E+03;  1.0000000E-01;  5.9158821E+01;0;  0.0000000E+00;  0.0000000E+00;  0.0000000E+00;0; -1.1828301E-02;  4.0000000E+04;  0.0000000E+00;  0.0000000E+00;  4.0000000E+04;  0.0000000E+00;  4.0000000E+04; -1.2027707E-02;  0.0000000E+00;  1.9940677E-04;  3.5383655E+02;
 -1.0000000E-01;  9.9999998E-03;  5.0000001E-02;958;  0.0000000E+00;  0.0000000E+00;  0.0000000E+00;  1.0000716E+03;  1.0000000E-01;  5.9356346E+01;0;  0.0000000E+00;  0.0000000E+00;  0.0000000E+00;0; -1.1807591E-02;  4.0000000E+04;  0.0000000E+00;  0.0000000E+00;  4.0000000E+04;  0.0000000E+00;  4.0000000E+04; -1.2002864E-02;  0.0000000E+00;  1.9527358E-04;  3.4998016E+02;
 -1.0000000E-01;  9.9999998E-03;  5.9999999E-02;959;  0.0000000E+00;  0.0000000E+00;  0.0000000E+00;  1.0000717E+03;  1.0000000E-01;  5.9356346E+01;0;  0.0000000E+00;  0.0000000E+00;  0.0000000E+00;0; -1.1777493E-02;  4.0000000E+04;  0.0000000E+00;  0.0000000E+00;  4.0000000E+04;  0.0000000E+00;  4.0000000E+04; -1.1968026E-02;  0.0000000E+00;  1.9053236E-04;  3.4772855E+02;
 -9.0000004E-02;  9.9999998E-03; -1.0000000E-01;1034;  0.0000000E+00;  0.0000000E+00;  0.0000000E+00;  1.0001205E+03;  1.0000000E-01;  9.9849030E+01;0;  0.0000000E+00;  0.0000000E+00;  0.0000000E+00;0; -1.9244393E-02;  4.0000000E+04;  0.0000000E+00;  0.0000000E+00;  4.0000000E+04;  0.0000000E+00;  4.0000000E+04; -1.9608635E-02;  0.0000000E+00;  3.6424250E-04;  5.9318616E+02;
 -9.0000004E-02;  9.9999998E-03; -9.0000004E-02;1035;  0.0000000E+00;  0.0000000E+00;  0.0000000E+00;  1.0001228E+03;  1.0000000E-01;  1.0172552E+02;0;  0.0000000E+00;  0.0000000E+00;  0.0000000E+00;0; -1.9455619E-02;  4.0000000E+04;  0.0000000E+00;  0.0000000E+00;  4.0000000E+04;  0.0000000E+00;  4.0000000E+04; -1.9813325E-02;  0.0000000E+00;  3.5770613E-04;  5.7173395E+02;
 -9.0000004E-02;  9.9999998E-03; -7.9999998E-02;1036;  0.0000000E+00;  0.0000000E+00;  0.0000000E+00;  1.0001239E+03;  1.0000000E-01;  1.0261438E+02;0;  0.0000000E+00;  0.0000000E+00;  0.0000000E+00;0; -1.9606613E-02;  4.0000000E+04;  0.0000000E+00;  0.0000000E+00;  4.0000000E+04;  0.0000000E+00;  4.0000000E+04; -1.9965513E-02;  0.0000000E+00;  3.5890072E-04;  5.5767853E+02;
 -9.0000004E-02;  9.9999998E-03; -7.0000000E-02;1037;  0.0000000E+00;  0.0000000E+00;  0.0000000E+00;  1.0001246E+03;  1.0000000E-01;  1.0320695E+02;0;  0.0000000E+00;  0.0000000E+00;  0.0000000E+00;0; -1.9711317E-02;  4.0000000E+04;  0.0000000E+00;  0.0000000E+00;  4.0000000E+04;  0.0000000E+00;  4.0000000E+04; -2.0076359E-02;  0.0000000E+00;  3.6504157E-04;  5.5041895E+02;
 -9.0000004E-02;  9.9999998E-03; -5.9999999E-02;1038;  0.0000000E+00;  0.0000000E+00;  0.0000000E+00;  1.0001249E+03;  1.0000000E-01;  1.0350324E+02;0;  0.0000000E+00;  0.0000000E+00;  0.0000000E+00;0; -1.9782308E-02;  4.0000000E+04;  0.0000000E+00;  0.0000000E+00;  4.0000000E+04;  0.0000000E+00;  4.0000000E+04; -2.0155849E-02;  0.0000000E+00;  3.7353998E-04;  5.4888318E+02;
 -9.0000004E-02;  9.9999998E-03; -5.0000001E-02;1039;  0.0000000E+00;  0.0000000E+00;  0.0000000E+00;  1.0001250E+03;  1.0000000E-01;  1.0360201E+02;0;  0.0000000E+00;  0.0000000E+00;  0.0000000E+00;0; -1.9829733E-02;  4.0000000E+04;  0.0000000E+00;  0.0000000E+00;  4.0000000E+04;  0.0000000E+00;  4.0000000E+04; -2.0212097E-02;  0.0000000E+00;  3.8236458E-04;  5.5164215E+02;
 -9.0000004E-02;  9.9999998E-03; -3.9999999E-02;1040;  0.0000000E+00;  0.0000000E+00;  0.0000000E+00;  1.0001249E+03;  1.0000000E-01;  1.0350324E+02;0;  0.0000000E+00;  0.0000000E+00;  0.0000000E+00;0; -1.9861253E-02;  4.0000000E+04;  0.0000000E+00;  0.0000000E+00;  4.0000000E+04;  0.0000000E+00;  4.0000000E+04; -2.0251436E-02;  0.0000000E+00;  3.9018269E-04;  5.5705951E+02;
 -9.0000004E-02;  9.9999998E-03; -2.9999999E-02;1041;  0.0000000E+00;  0.0000000E+00;  0.0000000E+00;  1.0001247E+03;  1.0000000E-01;  1.0330572E+02;0;  0.0000000E+00;  0.0000000E+00;  0.0000000E+00;0; -1.9882092E-02;  4.0000000E+04;  0.0000000E+00;  0.0000000E+00;  4.0000000E+04;  0.0000000E+00;  4.0000000E+04; -2.0278409E-02;  0.0000000E+00;  3.9631742E-04;  5.6346344E+02;
 -9.0000004E-02;  9.9999998E-03; -2.0000000E-02;1042;  0.0000000E+00;  0.0000000E+00;  0.0000000E+00;  1.0001246E+03;  1.0000000E-01;  1.0330572E+02;0;  0.0000000E+00;  0.0000000E+00;  0.0000000E+00;0; -1.9895390E-02;  4.0000000E+04;  0.0000000E+00;  0.0000000E+00;  4.0000000E+04;  0.0000000E+00;  4.0000000E+04; -2.0295966E-02;  0.0000000E+00;  4.0057601E-04;  5.6931201E+02;
 -9.0000004E-02;  9.9999998E-03; -9.9999998E-03;1043;  0.0000000E+00;  0.0000000E+00;  0.0000000E+00;  1.0001245E+03;  1.0000000E-01;  1.0310819E+02;0;  0.0000000E+00;  0.0000000E+00;  0.0000000E+00;0; -1.9902851E-02;  4.0000000E+04;  0.0000000E+00;  0.0000000E+00;  4.0000000E+04;  0.0000000E+00;  4.0000000E+04; -2.0305885E-02;  0.0000000E+00;  4.0303421E-04;  5.7336273E+02;
 -9.0000004E-02;  9.9999998E-03;  0.0000000E+00;1044;  0.0000000E+00;  0.0000000E+00;  0.0000000E+00;  1.0001243E+03;  1.0000000E-01;  1.0300943E+02;0;  0.0000000E+00;  0.0000000E+00;  0.0000000E+00;0; -1.9905271E-02;  4.0000000E+04;  0.0000000E+00;  0.0000000E+00;  4.0000000E+04;  0.0000000E+00;  4.0000000E+04; -2.0309104E-02;  0.0000000E+00;  4.0383224E-04;  5.7480774E+02;
 -9.0000004E-02;  9.9999998E-03;  9.9999998E-03;1045;  0.0000000E+00;  0.0000000E+00;  0.0000000E+00;  1.0001245E+03;  1.0000000E-01;  1.0310819E+02;0;  0.0000000E+00;  0.0000000E+00;  0.0000000E+00;0; -1.9902861E-02;  4.0000000E+04;  0.0000000E+00;  0.0000000E+00;  4.0000000E+04;  0.0000000E+00;  4.0000000E+04; -2.0305894E-02;  0.0000000E+00;  4.0303436E-04;  5.7336310E+02;
 -9.0000004E-02;  9.9999998E-03;  2.0000000E-02;1046;  0.0000000E+00;  0.0000000E+00;  0.0000000E+00;  1.0001246E+03;  1.0000000E-01;  1.0330572E+02;0;  0.0000000E+00;  0.0000000E+00;  0.0000000E+00;0; -1.9895377E-02;  4.0000000E+04;  0.0000000E+00;  0.0000000E+00;  4.0000000E+04;  0.0000000E+00;  4.0000000E+04; -2.0295953E-02;  0.0000000E+00;  4.0057636E-04;  5.6931213E+02;
 -9.0000004E-02;  9.9999998E-03;  2.9999999E-02;1047;  0.0000000E+00;  0.0000000E+00;  0.0000000E+00;  1.0001247E+03;  1.0000000E-01;  1.0330572E+02;0;  0.0000000E+00;  0.0000000E+00;  0.0000000E+00;0; -1.9882096E-02;  4.0000000E+04;  0.0000000E+00;  0.0000000E+00;  4.0000000E+04;  0.0000000E+00;  4.0000000E+04; -2.0278415E-02;  0.0000000E+00;  3.9631806E-04;  5.6346454E+02;
 -9.0000004E-02;  9.9999998E-03;  3.9999999E-02;1048;  0.0000000E+00;  0.0000000E+00;  0.0000000E+00;  1.0001249E+03;  1.0000000E-01;  1.0350324E+02;0;  0.0000000E+00;  0.0000000E+00;  0.0000000E+00;0; -1.9861266E-02;  4.0000000E+04;  0.0000000E+00;  0.0000000E+00;  4.0000000E+04;  0.0000000E+00;  4.0000000E+04; -2.0251449E-02;  0.0000000E+00;  3.9018309E-04;  5.5706042E+02;
 -9.0000004E-02;  9.9999998E-03;  5.0000001E-02;1049;  0.0000000E+00;  0.0000000E+00;  0.0000000E+00;  1.0001250E+03;  1.0000000E-01;  1.0360201E+02;0;  0.0000000E+00;  0.0000000E+00;  0.0000000E+00;0; -1.9829739E-02;  4.0000000E+04;  0.0000000E+00;  0.0000000E+00;  4.0000000E+04;  0.0000000E+00;  4.0000000E+04; -2.0212105E-02;  0.0000000E+00;  3.8236481E-04;  5.5164301E+02;
 -9.0000004E-02;  9.9999998E-03;  5.9999999E-02;1050;  0.0000000E+00;  0.0000000E+00;  0.0000000E+00;  1.0001249E+03;  1.0000000E-01;  1.0350324E+02;0;  0.0000000E+00;  0.0000000E+00;  0.0000000E+00;0; -1.9782297E-02;  4.0000000E+04;  0.0000000E+00;  0.0000000E+00;  4.0000000E+04;  0.0000000E+00;  4.0000000E+04; -2.0155838E-02;  0.0000000E+00;  3.7354059E-04;  5.4888330E+02;
 -7.9999998E-02;  9.9999998E-03; -1.0000000E-01;1125;  0.0000000E+00;  0.0000000E+00;  0.0000000E+00;  1.0001973E+03;  1.0000000E-01;  1.6345216E+02;0;  0.0000000E+00;  0.0000000E+00;  0.0000000E+00;0; -3.0325755E-02;  4.0000000E+04;  0.0000000E+00;  0.0000000E+00;  4.0000000E+04;  0.0000000E+00;  4.0000000E+04; -3.0978423E-02;  0.0000000E+00;  6.5266789E-04;  8.8824158E+02;
 -7.9999998E-02;  9.9999998E-03; -9.0000004E-02;1126;  0.0000000E+00;  0.0000000E+00;  0.0000000E+00;  1.0002011E+03;  1.0000000E-01;  1.6661258E+02;0;  0.0000000E+00;  0.0000000E+00;  0.0000000E+00;0; -3.0651549E-02;  4.0000000E+04;  0.0000000E+00;  0.0000000E+00;  4.0000000E+04;  0.0000000E+00;  4.0000000E+04; -3.1294167E-02;  0.0000000E+00;  6.4261793E-04;  8.5563373E+02;
 -7.9999998E-02;  9.9999998E-03; -7.9999998E-02;1127;  0.0000000E+00;  0.0000000E+00;  0.0000000E+00;  1.0002036E+03;  1.0000000E-01;  1.6868658E+02;0;  0.0000000E+00;  0.0000000E+00;  0.0000000E+00;0; -3.0883895E-02;  4.0000000E+04;  0.0000000E+00;  0.0000000E+00;  4.0000000E+04;  0.0000000E+00;  4.0000000E+04; -3.1529050E-02;  0.0000000E+00;  6.4515526E-04;  8.3385791E+02;
 -7.9999998E-02;  9.9999998E-03; -7.0000000E-02;1128;  0.0000000E+00;  0.0000000E+00;  0.0000000E+00;  1.0002050E+03;  1.0000000E-01;  1.6977298E+02;0;  0.0000000E+00;  0.0000000E+00;  0.0000000E+00;0; -3.1044036E-02;  4.0000000E+04;  0.0000000E+00;  0.0000000E+00;  4.0000000E+04;  0.0000000E+00;  4.0000000E+04; -3.1699926E-02;  0.0000000E+00;  6.5589015E-04;  8.2198315E+02;
 -7.9999998E-02;  9.9999998E-03; -5.9999999E-02;1129;  0.0000000E+00;  0.0000000E+00;  0.0000000E+00;  1.0002056E+03;  1.0000000E-01;  1.7026678E+02;0;  0.0000000E+00;  0.0000000E+00;  0.0000000E+00;0; -3.1151202E-02;  4.0000000E+04;  0.0000000E+00;  0.0000000E+00;  4.0000000E+04;  0.0000000E+00;  4.0000000E+04; -3.1821832E-02;  0.0000000E+00;  6.7063048E-04;  8.1845874E+02;
 -7.9999998E-02;  9.9999998E-03; -5.0000001E-02;1130;  0.0000000E+00;  0.0000000E+00;  0.0000000E+00;  1.0002056E+03;  1.0000000E-01;  1.7036555E+02;0;  0.0000000E+00;  0.0000000E+00;  0.0000000E+00;0; -3.1221306E-02;  4.0000000E+04;  0.0000000E+00;  0.0000000E+00;  4.0000000E+04;  0.0000000E+00;  4.0000000E+04; -3.1907309E-02;  0.0000000E+00;  6.8600220E-04;  8.2125940E+02;
 -7.9999998E-02;  9.9999998E-03; -3.9999999E-02;1131;  0.0000000E+00;  0.0000000E+00;  0.0000000E+00;  1.0002054E+03;  1.0000000E-01;  1.7016803E+02;0;  0.0000000E+00;  0.0000000E+00;  0.0000000E+00;0; -3.1266581E-02;  4.0000000E+04;  0.0000000E+00;  0.0000000E+00;  4.0000000E+04;  0.0000000E+00;  4.0000000E+04; -3.1966310E-02;  0.0000000E+00;  6.9972884E-04;  8.2806000E+02;
 -7.9999998E-02;  9.9999998E-03; -2.9999999E-02;1132;  0.0000000E+00;  0.0000000E+00;  0.0000000E+00;  1.0002052E+03;  1.0000000E-01;  1.6997050E+02;0;  0.0000000E+00;  0.0000000E+00;  0.0000000E+00;0; -3.1295441E-02;  4.0000000E+04;  0.0000000E+00;  0.0000000E+00;  4.0000000E+04;  0.0000000E+00;  4.0000000E+04; -3.2006040E-02;  0.0000000E+00;  7.1059773E-04;  8.3647931E+02;
 -7.9999998E-02;  9.9999998E-03; -2.0000000E-02;1133;  0.0000000E+00;  0.0000000E+00;  0.0000000E+00;  1.0002048E+03;  1.0000000E-01;  1.6967421E+02;0;  0.0000000E+00;  0.0000000E+00;  0.0000000E+00;0; -3.1313214E-02;  4.0000000E+04;  0.0000000E+00;  0.0000000E+00;  4.0000000E+04;  0.0000000E+00;  4.0000000E+04; -3.2031424E-02;  0.0000000E+00;  7.1821077E-04;  8.4432037E+02;
 -7.9999998E-02;  9.9999998E-03; -9.9999998E-03;1134;  0.0000000E+00;  0.0000000E+00;  0.0000000E+00;  1.0002046E+03;  1.0000000E-01;  1.6947668E+02;0;  0.0000000E+00;  0.0000000E+00;  0.0000000E+00;0; -3.1322923E-02;  4.0000000E+04;  0.0000000E+00;  0.0000000E+00;  4.0000000E+04;  0.0000000E+00;  4.0000000E+04; -3.2045562E-02;  0.0000000E+00;  7.2263886E-04;  8.4980219E+02;
 -7.9999998E-02;  9.9999998E-03;  0.0000000E+00;1135;  0.0000000E+00;  0.0000000E+00;  0.0000000E+00;  1.0002045E+03;  1.0000000E-01;  1.6937793E+02;0;  0.0000000E+00;  0.0000000E+00;  0.0000000E+00;0; -3.1325977E-02;  4.0000000E+04;  0.0000000E+00;  0.0000000E+00;  4.0000000E+04;  0.0000000E+00;  4.0000000E+04; -3.2050062E-02;  0.0000000E+00;  7.2408316E-04;  8.5176404E+02;
 -7.9999998E-02;  9.9999998E-03;  9.9999998E-03;1136;  0.0000000E+00;  0.0000000E+00;  0.0000000E+00;  1.0002046E+03;  1.0000000E-01;  1.6947668E+02;0;  0.0000000E+00;  0.0000000E+00;  0.0000000E+00;0; -3.1322923E-02;  4.0000000E+04;  0.0000000E+00;  0.0000000E+00;  4.0000000E+04;  0.0000000E+00;  4.0000000E+04; -3.2045562E-02;  0.0000000E+00;  7.2263955E-04;  8.4980249E+02;
 -7.9999998E-02;  9.9999998E-03;  2.0000000E-02;1137;  0.0000000E+00;  0.0000000E+00;  0.0000000E+00;  1.0002048E+03;  1.0000000E-01;  1.6967421E+02;0;  0.0000000E+00;  0.0000000E+00;  0.0000000E+00;0; -3.1313226E-02;  4.0000000E+04;  0.0000000E+00;  0.0000000E+00;  4.0000000E+04;  0.0000000E+00;  4.0000000E+04; -3.2031436E-02;  0.0000000E+00;  7.1821170E-04;  8.4432141E+02;
 -7.9999998E-02;  9.9999998E-03;  2.9999999E-02;1138;  0.0000000E+00;  0.0000000E+00;  0.0000000E+00;  1.0002052E+03;  1.0000000E-01;  1.6997050E+02;0;  0.0000000E+00;  0.0000000E+00;  0.0000000E+00;0; -3.1295426E-02;  4.0000000E+04;  0.0000000E+00;  0.0000000E+00;  4.0000000E+04;  0.0000000E+00;  4.0000000E+04; -3.2006025E-02;  0.0000000E+00;  7.1059837E-04;  8.3648016E+02;
 -7.9999998E-02;  9.9999998E-03;  3.9999999E-02;1139;  0.0000000E+00;  0.0000000E+00;  0.0000000E+00;  1.0002054E+03;  1.0000000E-01;  1.7016803E+02;0;  0.0000000E+00;  0.0000000E+00;  0.0000000E+00;0; -3.1266574E-02;  4.0000000E+04;  0.0000000E+00;  0.0000000E+00;  4.0000000E+04;  0.0000000E+00;  4.0000000E+04; -3.1966303E-02;  0.0000000E+00;  6.9972908E-04;  8.2806018E+02;
 -7.9999998E-02;  9.9999998E-03;  5.0000001E-02;1140;  0.0000000E+00;  0.0000000E+00;  0.0000000E+00;  1.0002056E+03;  1.0000000E-01;  1.7036555E+02;0;  0.0000000E+00;  0.0000000E+00;  0.0000000E+00;0; -3.1221306E-02;  4.0000000E+04;  0.0000000E+00;  0.0000000E+00;  4.0000000E+04;  0.0000000E+00;  4.0000000E+04; -3.1907309E-02;  0.0000000E+00;  6.8600290E-04;  8.2126025E+02;
 -7.9999998E-02;  9.9999998E-03;  5.9999999E-02;1141;  0.0000000E+00;  0.0000000E+00;  0.0000000E+00;  1.0002056E+03;  1.0000000E-01;  1.7026678E+02;0;  0.0000000E+00;  0.0000000E+00;  0.0000000E+00;0; -3.1151190E-02;  4.0000000E+04;  0.0000000E+00;  0.0000000E+00;  4.0000000E+04;  0.0000000E+00;  4.0000000E+04; -3.1821821E-02;  0.0000000E+00;  6.7063083E-04;  8.1846130E+02;
 -7.0000000E-02;  9.9999998E-03; -1.0000000E-01;1216;  0.0000000E+00;  0.0000000E+00;  0.0000000E+00;  1.0003082E+03;  1.0000000E-01;  2.5540018E+02;0;  0.0000000E+00;  0.0000000E+00;  0.0000000E+00;0; -4.5343284E-02;  4.0000000E+04;  0.0000000E+00;  0.0000000E+00;  4.0000000E+04;  0.0000000E+00;  4.0000000E+04; -4.6427574E-02;  0.0000000E+00;  1.0842896E-03;  1.2663694E+03;
 -7.0000000E-02;  9.9999998E-03; -9.0000004E-02;1217;  0.0000000E+00;  0.0000000E+00;  0.0000000E+00;  1.0003156E+03;  1.0000000E-01;  2.6152347E+02;0;  0.0000000E+00;  0.0000000E+00;  0.0000000E+00;0; -4.5816001E-02;  4.0000000E+04;  0.0000000E+00;  0.0000000E+00;  4.0000000E+04;  0.0000000E+00;  4.0000000E+04; -4.6887264E-02;  0.0000000E+00;  1.0712621E-03;  1.2202395E+03;
 -7.0000000E-02;  9.9999998E-03; -7.9999998E-02;1218;  0.0000000E+00;  0.0000000E+00;  0.0000000E+00;  1.0003207E+03;  1.0000000E-01;  2.6577026E+02;0;  0.0000000E+00;  0.0000000E+00;  0.0000000E+00;0; -4.6152100E-02;  4.0000000E+04;  0.0000000E+00;  0.0000000E+00;  4.0000000E+04;  0.0000000E+00;  4.0000000E+04; -4.7229413E-02;  0.0000000E+00;  1.0773147E-03;  1.1889497E+03;
 -7.0000000E-02;  9.9999998E-03; -7.0000000E-02;1219;  0.0000000E+00;  0.0000000E+00;  0.0000000E+00;  1.0003245E+03;  1.0000000E-01;  2.6883191E+02;0;  0.0000000E+00;  0.0000000E+00;  0.0000000E+00;0; -4.6382211E-02;  4.0000000E+04;  0.0000000E+00;  0.0000000E+00;  4.0000000E+04;  0.0000000E+00;  4.0000000E+04; -4.7478057E-02;  0.0000000E+00;  1.0958475E-03;  1.1711152E+03;
 -7.0000000E-02;  9.9999998E-03; -5.9999999E-02;1220;  0.0000000E+00;  0.0000000E+00;  0.0000000E+00;  1.0003261E+03;  1.0000000E-01;  2.7021457E+02;0;  0.0000000E+00;  0.0000000E+00;  0.0000000E+00;0; -4.6534460E-02;  4.0000000E+04;  0.0000000E+00;  0.0000000E+00;  4.0000000E+04;  0.0000000E+00;  4.0000000E+04; -4.7654927E-02;  0.0000000E+00;  1.1204657E-03;  1.1646090E+03;
 -7.0000000E-02;  9.9999998E-03; -5.0000001E-02;1221;  0.0000000E+00;  0.0000000E+00;  0.0000000E+00;  1.0003267E+03;  1.0000000E-01;  2.7060962E+02;0;  0.0000000E+00;  0.0000000E+00;  0.0000000E+00;0; -4.6632316E-02;  4.0000000E+04;  0.0000000E+00;  0.0000000E+00;  4.0000000E+04;  0.0000000E+00;  4.0000000E+04; -4.7778264E-02;  0.0000000E+00;  1.1459461E-03;  1.1667301E+03;
 -7.0000000E-02;  9.9999998E-03; -3.9999999E-02;1222;  0.0000000E+00;  0.0000000E+00;  0.0000000E+00;  1.0003262E+03;  1.0000000E-01;  2.7031335E+02;0;  0.0000000E+00;  0.0000000E+00;  0.0000000E+00;0; -4.6693806E-02;  4.0000000E+04;  0.0000000E+00;  0.0000000E+00;  4.0000000E+04;  0.0000000E+00;  4.0000000E+04; -4.7862507E-02;  0.0000000E+00;  1.1687026E-03;  1.1744109E+03;
 -7.0000000E-02;  9.9999998E-03; -2.9999999E-02;1223;  0.0000000E+00;  0.0000000E+00;  0.0000000E+00;  1.0003259E+03;  1.0000000E-01;  2.7001706E+02;0;  0.0000000E+00;  0.0000000E+00;  0.0000000E+00;0; -4.6731785E-02;  4.0000000E+04;  0.0000000E+00;  0.0000000E+00;  4.0000000E+04;  0.0000000E+00;  4.0000000E+04; -4.7918566E-02;  0.0000000E+00;  1.1867796E-03;  1.1845059E+03;
 -7.0000000E-02;  9.9999998E-03; -2.0000000E-02;1224;  0.0000000E+00;  0.0000000E+00;  0.0000000E+00;  1.0003250E+03;  1.0000000E-01;  2.6922696E+02;0;  0.0000000E+00;  0.0000000E+00;  0.0000000E+00;0; -4.6754409E-02;  4.0000000E+04;  0.0000000E+00;  0.0000000E+00;  4.0000000E+04;  0.0000000E+00;  4.0000000E+04; -4.7953907E-02;  0.0000000E+00;  1.1994982E-03;  1.1941198E+03;
 -7.0000000E-02;  9.9999998E-03; -9.9999998E-03;1225;  0.0000000E+00;  0.0000000E+00;  0.0000000E+00;  1.0003248E+03;  1.0000000E-01;  2.6902942E+02;0;  0.0000000E+00;  0.0000000E+00;  0.0000000E+00;0; -4.6766482E-02;  4.0000000E+04;  0.0000000E+00;  0.0000000E+00;  4.0000000E+04;  0.0000000E+00;  4.0000000E+04; -4.7973409E-02;  0.0000000E+00;  1.2069282E-03;  1.2009113E+03;
 -7.0000000E-02;  9.9999998E-03;  0.0000000E+00;1226;  0.0000000E+00;  0.0000000E+00;  0.0000000E+00;  1.0003246E+03;  1.0000000E-01;  2.6893066E+02;0;  0.0000000E+00;  0.0000000E+00;  0.0000000E+00;0; -4.6770241E-02;  4.0000000E+04;  0.0000000E+00;  0.0000000E+00;  4.0000000E+04;  0.0000000E+00;  4.0000000E+04; -4.7979597E-02;  0.0000000E+00;  1.2093554E-03;  1.2033499E+03;
 -7.0000000E-02;  9.9999998E-03;  9.9999998E-03;1227;  0.0000000E+00;  0.0000000E+00;  0.0000000E+00;  1.0003248E+03;  1.0000000E-01;  2.6902942E+02;0;  0.0000000E+00;  0.0000000E+00;  0.0000000E+00;0; -4.6766464E-02;  4.0000000E+04;  0.0000000E+00;  0.0000000E+00;  4.0000000E+04;  0.0000000E+00;  4.0000000E+04; -4.7973391E-02;  0.0000000E+00;  1.2069267E-03;  1.2009116E+03;
 -7.0000000E-02;  9.9999998E-03;  2.0000000E-02;1228;  0.0000000E+00;  0.0000000E+00;  0.0000000E+00;  1.0003250E+03;  1.0000000E-01;  2.6922696E+02;0;  0.0000000E+00;  0.0000000E+00;  0.0000000E+00;0; -4.6754405E-02;  4.0000000E+04;  0.0000000E+00;  0.0000000E+00;  4.0000000E+04;  0.0000000E+00;  4.0000000E+04; -4.7953904E-02;  0.0000000E+00;  1.1994989E-03;  1.1941212E+03;
 -7.0000000E-02;  9.9999998E-03;  2.9999999E-02;1229;  0.0000000E+00;  0.0000000E+00;  0.0000000E+00;  1.0003259E+03;  1.0000000E-01;  2.7001706E+02;0;  0.0000000E+00;  0.0000000E+00;  0.0000000E+00;0; -4.6731763E-02;  4.0000000E+04;  0.0000000E+00;  0.0000000E+00;  4.0000000E+04;  0.0000000E+00;  4.0000000E+04; -4.7918543E-02;  0.0000000E+00;  1.1867803E-03;  1.1845066E+03;
 -7.0000000E-02;  9.9999998E-03;  3.9999999E-02;1230;  0.0000000E+00;  0.0000000E+00;  0.0000000E+00;  1.0003262E+03;  1.0000000E-01;  2.7031335E+02;0;  0.0000000E+00;  0.0000000E+00;  0.0000000E+00;0; -4.6693806E-02;  4.0000000E+04;  0.0000000E+00;  0.0000000E+00;  4.0000000E+04;  0.0000000E+00;  4.0000000E+04; -4.7862507E-02;  0.0000000E+00;  1.1687034E-03;  1.1744111E+03;
 -7.0000000E-02;  9.9999998E-03;  5.0000001E-02;1231;  0.0000000E+00;  0.0000000E+00;  0.0000000E+00;  1.0003267E+03;  1.0000000E-01;  2.7060962E+02;0;  0.0000000E+00;  0.0000000E+00;  0.0000000E+00;0; -4.6632320E-02;  4.0000000E+04;  0.0000000E+00;  0.0000000E+00;  4.0000000E+04;  0.0000000E+00;  4.0000000E+04; -4.7778267E-02;  0.0000000E+00;  1.1459464E-03;  1.1667324E+03;
 -7.0000000E-02;  9.9999998E-03;  5.9999999E-02;1232;  0.0000000E+00;  0.0000000E+00;  0.0000000E+00;  1.0003261E+03;  1.0000000E-01;  2.7021457E+02;0;  0.0000000E+00;  0.0000000E+00;  0.0000000E+00;0; -4.6534479E-02;  4.0000000E+04;  0.0000000E+00;  0.0000000E+00;  4.0000000E+04;  0.0000000E+00;  4.0000000E+04; -4.7654945E-02;  0.0000000E+00;  1.1204673E-03;  1.1646097E+03;
 -5.9999999E-02;  9.9999998E-03; -1.0000000E-01;1307;  0.0000000E+00;  0.0000000E+00;  0.0000000E+00;  1.0004655E+03;  1.0000000E-01;  3.8566809E+02;0;  0.0000000E+00;  0.0000000E+00;  0.0000000E+00;0; -6.4778127E-02;  4.0000000E+04;  0.0000000E+00;  0.0000000E+00;  4.0000000E+04;  0.0000000E+00;  4.0000000E+04; -6.6468522E-02;  0.0000000E+00;  1.6903960E-03;  1.7287062E+03;
 -5.9999999E-02;  9.9999998E-03; -9.0000004E-02;1308;  0.0000000E+00;  0.0000000E+00;  0.0000000E+00;  1.0004772E+03;  1.0000000E-01;  3.9534683E+02;0;  0.0000000E+00;  0.0000000E+00;  0.0000000E+00;0; -6.5427750E-02;  4.0000000E+04;  0.0000000E+00;  0.0000000E+00;  4.0000000E+04;  0.0000000E+00;  4.0000000E+04; -6.7104556E-02;  0.0000000E+00;  1.6768039E-03;  1.6676011E+03;
 -5.9999999E-02;  9.9999998E-03; -7.9999998E-02;1309;  0.0000000E+00;  0.0000000E+00;  0.0000000E+00;  1.0004856E+03;  1.0000000E-01;  4.0226022E+02;0;  0.0000000E+00;  0.0000000E+00;  0.0000000E+00;0; -6.5887488E-02;  4.0000000E+04;  0.0000000E+00;  0.0000000E+00;  4.0000000E+04;  0.0000000E+00;  4.0000000E+04; -6.7578010E-02;  0.0000000E+00;  1.6905224E-03;  1.6256332E+03;
 -5.9999999E-02;  9.9999998E-03; -7.0000000E-02;1310;  0.0000000E+00;  0.0000000E+00;  0.0000000E+00;  1.0004907E+03;  1.0000000E-01;  4.0650702E+02;0;  0.0000000E+00;  0.0000000E+00;  0.0000000E+00;0; -6.6199906E-02;  4.0000000E+04;  0.0000000E+00;  0.0000000E+00;  4.0000000E+04;  0.0000000E+00;  4.0000000E+04; -6.7921862E-02;  0.0000000E+00;  1.7219594E-03;  1.6008170E+03;
 -5.9999999E-02;  9.9999998E-03; -5.9999999E-02;1311;  0.0000000E+00;  0.0000000E+00;  0.0000000E+00;  1.0004933E+03;  1.0000000E-01;  4.0867981E+02;0;  0.0000000E+00;  0.0000000E+00;  0.0000000E+00;0; -6.6404127E-02;  4.0000000E+04;  0.0000000E+00;  0.0000000E+00;  4.0000000E+04;  0.0000000E+00;  4.0000000E+04; -6.8165913E-02;  0.0000000E+00;  1.7617901E-03;  1.5903812E+03;
 -5.9999999E-02;  9.9999998E-03; -5.0000001E-02;1312;  0.0000000E+00;  0.0000000E+00;  0.0000000E+00;  1.0004943E+03;  1.0000000E-01;  4.0956866E+02;0;  0.0000000E+00;  0.0000000E+00;  0.0000000E+00;0; -6.6533066E-02;  4.0000000E+04;  0.0000000E+00;  0.0000000E+00;  4.0000000E+04;  0.0000000E+00;  4.0000000E+04; -6.8335414E-02;  0.0000000E+00;  1.8023478E-03;  1.5909285E+03;
 -5.9999999E-02;  9.9999998E-03; -3.9999999E-02;1313;  0.0000000E+00;  0.0000000E+00;  0.0000000E+00;  1.0004941E+03;  1.0000000E-01;  4.0937112E+02;0;  0.0000000E+00;  0.0000000E+00;  0.0000000E+00;0; -6.6612259E-02;  4.0000000E+04;  0.0000000E+00;  0.0000000E+00;  4.0000000E+04;  0.0000000E+00;  4.0000000E+04; -6.8450615E-02;  0.0000000E+00;  1.8383535E-03;  1.5986542E+03;
 -5.9999999E-02;  9.9999998E-03; -2.9999999E-02;1314;  0.0000000E+00;  0.0000000E+00;  0.0000000E+00;  1.0004936E+03;  1.0000000E-01;  4.0897607E+02;0;  0.0000000E+00;  0.0000000E+00;  0.0000000E+00;0; -6.6659532E-02;  4.0000000E+04;  0.0000000E+00;  0.0000000E+00;  4.0000000E+04;  0.0000000E+00;  4.0000000E+04; -6.8526439E-02;  0.0000000E+00;  1.8669085E-03;  1.6097086E+03;
 -5.9999999E-02;  9.9999998E-03; -2.0000000E-02;1315;  0.0000000E+00;  0.0000000E+00;  0.0000000E+00;  1.0004927E+03;  1.0000000E-01;  4.0818597E+02;0;  0.0000000E+00;  0.0000000E+00;  0.0000000E+00;0; -6.6686973E-02;  4.0000000E+04;  0.0000000E+00;  0.0000000E+00;  4.0000000E+04;  0.0000000E+00;  4.0000000E+04; -6.8573982E-02;  0.0000000E+00;  1.8870094E-03;  1.6205315E+03;
 -5.9999999E-02;  9.9999998E-03; -9.9999998E-03;1316;  0.0000000E+00;  0.0000000E+00;  0.0000000E+00;  1.0004923E+03;  1.0000000E-01;  4.0788971E+02;0;  0.0000000E+00;  0.0000000E+00;  0.0000000E+00;0; -6.6701144E-02;  4.0000000E+04;  0.0000000E+00;  0.0000000E+00;  4.0000000E+04;  0.0000000E+00;  4.0000000E+04; -6.8599910E-02;  0.0000000E+00;  1.8987627E-03;  1.6282693E+03;
 -5.9999999E-02;  9.9999998E-03;  0.0000000E+00;1317;  0.0000000E+00;  0.0000000E+00;  0.0000000E+00;  1.0004921E+03;  1.0000000E-01;  4.0769217E+02;0;  0.0000000E+00;  0.0000000E+00;  0.0000000E+00;0; -6.6705614E-02;  4.0000000E+04;  0.0000000E+00;  0.0000000E+00;  4.0000000E+04;  0.0000000E+00;  4.0000000E+04; -6.8608224E-02;  0.0000000E+00;  1.9026102E-03;  1.6310656E+03;
 -5.9999999E-02;  9.9999998E-03;  9.9999998E-03;1318;  0.0000000E+00;  0.0000000E+00;  0.0000000E+00;  1.0004923E+03;  1.0000000E-01;  4.0788971E+02;0;  0.0000000E+00;  0.0000000E+00;  0.0000000E+00;0; -6.6701196E-02;  4.0000000E+04;  0.0000000E+00;  0.0000000E+00;  4.0000000E+04;  0.0000000E+00;  4.0000000E+04; -6.8599962E-02;  0.0000000E+00;  1.8987624E-03;  1.6282705E+03;
 -5.9999999E-02;  9.9999998E-03;  2.0000000E-02;1319;  0.0000000E+00;  0.0000000E+00;  0.0000000E+00;  1.0004927E+03;  1.0000000E-01;  4.0818597E+02;0;  0.0000000E+00;  0.0000000E+00;  0.0000000E+00;0; -6.6687010E-02;  4.0000000E+04;  0.0000000E+00;  0.0000000E+00;  4.0000000E+04;  0.0000000E+00;  4.0000000E+04; -6.8574019E-02;  0.0000000E+00;  1.8870091E-03;  1.6205326E+03;
 -5.9999999E-02;  9.9999998E-03;  2.9999999E-02;1320;  0.0000000E+00;  0.0000000E+00;  0.0000000E+00;  1.0004936E+03;  1.0000000E-01;  4.0897607E+02;0;  0.0000000E+00;  0.0000000E+00;  0.0000000E+00;0; -6.6659555E-02;  4.0000000E+04;  0.0000000E+00;  0.0000000E+00;  4.0000000E+04;  0.0000000E+00;  4.0000000E+04; -6.8526462E-02;  0.0000000E+00;  1.8669099E-03;  1.6097106E+03;
 -5.9999999E-02;  9.9999998E-03;  3.9999999E-02;1321;  0.0000000E+00;  0.0000000E+00;  0.0000000E+00;  1.0004941E+03;  1.0000000E-01;  4.0937112E+02;0;  0.0000000E+00;  0.0000000E+00;  0.0000000E+00;0; -6.6612214E-02;  4.0000000E+04;  0.0000000E+00;  0.0000000E+00;  4.0000000E+04;  0.0000000E+00;  4.0000000E+04; -6.8450563E-02;  0.0000000E+00;  1.8383522E-03;  1.5986567E+03;
 -5.9999999E-02;  9.9999998E-03;  5.0000001E-02;1322;  0.0000000E+00;  0.0000000E+00;  0.0000000E+00;  1.0004943E+03;  1.0000000E-01;  4.0956866E+02;0;  0.0000000E+00;  0.0000000E+00;  0.0000000E+00;0; -6.6533081E-02;  4.0000000E+04;  0.0000000E+00;  0.0000000E+00;  4.0000000E+04;  0.0000000E+00;  4.0000000E+04; -6.8335429E-02;  0.0000000E+00;  1.8023485E-03;  1.5909313E+03;
 -5.9999999E-02;  9.9999998E-03;  5.9999999E-02;1323;  0.0000000E+00;  0.0000000E+00;  0.0000000E+00;  1.0004933E+03;  1.0000000E-01;  4.0867981E+02;0;  0.0000000E+00;  0.0000000E+00;  0.0000000E+00;0; -6.6404127E-02;  4.0000000E+04;  0.0000000E+00;  0.0000000E+00;  4.0000000E+04;  0.0000000E+00;  4.0000000E+04; -6.8165921E-02;  0.0000000E+00;  1.7617912E-03;  1.5903855E+03;
 -5.0000001E-02;  9.9999998E-03; -1.0000000E-01;1398;  0.0000000E+00;  0.0000000E+00;  0.0000000E+00;  1.0006751E+03;  1.0000000E-01;  5.5929285E+02;0;  0.0000000E+00;  0.0000000E+00;  0.0000000E+00;0; -8.8773318E-02;  4.0000000E+04;  0.0000000E+00;  0.0000000E+00;  4.0000000E+04;  0.0000000E+00;  4.0000000E+04; -9.1267765E-02;  0.0000000E+00;  2.4944488E-03;  2.2665950E+03;
 -5.0000001E-02;  9.9999998E-03; -9.0000004E-02;1399;  0.0000000E+00;  0.0000000E+00;  0.0000000E+00;  1.0006919E+03;  1.0000000E-01;  5.7321838E+02;0;  0.0000000E+00;  0.0000000E+00;  0.0000000E+00;0; -8.9622043E-02;  4.0000000E+04;  0.0000000E+00;  0.0000000E+00;  4.0000000E+04;  0.0000000E+00;  4.0000000E+04; -9.2107475E-02;  0.0000000E+00;  2.4854345E-03;  2.1906409E+03;
 -5.0000001E-02;  9.9999998E-03; -7.9999998E-02;1400;  0.0000000E+00;  0.0000000E+00;  0.0000000E+00;  1.0007028E+03;  1.0000000E-01;  5.8230450E+02;0;  0.0000000E+00;  0.0000000E+00;  0.0000000E+00;0; -9.0218440E-02;  4.0000000E+04;  0.0000000E+00;  0.0000000E+00;  4.0000000E+04;  0.0000000E+00;  4.0000000E+04; -9.2732131E-02;  0.0000000E+00;  2.5136881E-03;  2.1379705E+03;
 -5.0000001E-02;  9.9999998E-03; -7.0000000E-02;1401;  0.0000000E+00;  0.0000000E+00;  0.0000000E+00;  1.0007100E+03;  1.0000000E-01;  5.8823029E+02;0;  0.0000000E+00;  0.0000000E+00;  0.0000000E+00;0; -9.0619922E-02;  4.0000000E+04;  0.0000000E+00;  0.0000000E+00;  4.0000000E+04;  0.0000000E+00;  4.0000000E+04; -9.3185559E-02;  0.0000000E+00;  2.5656351E-03;  2.1058130E+03;
 -5.0000001E-02;  9.9999998E-03; -5.9999999E-02;1402;  0.0000000E+00;  0.0000000E+00;  0.0000000E+00;  1.0007134E+03;  1.0000000E-01;  5.9109442E+02;0;  0.0000000E+00;  0.0000000E+00;  0.0000000E+00;0; -9.0878837E-02;  4.0000000E+04;  0.0000000E+00;  0.0000000E+00;  4.0000000E+04;  0.0000000E+00;  4.0000000E+04; -9.3506970E-02;  0.0000000E+00;  2.6281353E-03;  2.0907373E+03;
 -5.0000001E-02;  9.9999998E-03; -5.0000001E-02;1403;  0.0000000E+00;  0.0000000E+00;  0.0000000E+00;  1.0007145E+03;  1.0000000E-01;  5.9188452E+02;0;  0.0000000E+00;  0.0000000E+00;  0.0000000E+00;0; -9.1039270E-02;  4.0000000E+04;  0.0000000E+00;  0.0000000E+00;  4.0000000E+04;  0.0000000E+00;  4.0000000E+04; -9.3729705E-02;  0.0000000E+00;  2.6904312E-03;  2.0887058E+03;
 -5.0000001E-02;  9.9999998E-03; -3.9999999E-02;1404;  0.0000000E+00;  0.0000000E+00;  0.0000000E+00;  1.0007141E+03;  1.0000000E-01;  5.9158820E+02;0;  0.0000000E+00;  0.0000000E+00;  0.0000000E+00;0; -9.1135085E-02;  4.0000000E+04;  0.0000000E+00;  0.0000000E+00;  4.0000000E+04;  0.0000000E+00;  4.0000000E+04; -9.3880236E-02;  0.0000000E+00;  2.7451511E-03;  2.0953247E+03;
 -5.0000001E-02;  9.9999998E-03; -2.9999999E-02;1405;  0.0000000E+00;  0.0000000E+00;  0.0000000E+00;  1.0007128E+03;  1.0000000E-01;  5.9050183E+02;0;  0.0000000E+00;  0.0000000E+00;  0.0000000E+00;0; -9.1190867E-02;  4.0000000E+04;  0.0000000E+00;  0.0000000E+00;  4.0000000E+04;  0.0000000E+00;  4.0000000E+04; -9.3979187E-02;  0.0000000E+00;  2.7883181E-03;  2.1061853E+03;
 -5.0000001E-02;  9.9999998E-03; -2.0000000E-02;1406;  0.0000000E+00;  0.0000000E+00;  0.0000000E+00;  1.0007117E+03;  1.0000000E-01;  5.8961298E+02;0;  0.0000000E+00;  0.0000000E+00;  0.0000000E+00;0; -9.1222003E-02;  4.0000000E+04;  0.0000000E+00;  0.0000000E+00;  4.0000000E+04;  0.0000000E+00;  4.0000000E+04; -9.4040617E-02;  0.0000000E+00;  2.8186156E-03;  2.1172632E+03;
 -5.0000001E-02;  9.9999998E-03; -9.9999998E-03;1407;  0.0000000E+00;  0.0000000E+00;  0.0000000E+00;  1.0007111E+03;  1.0000000E-01;  5.8911914E+02;0;  0.0000000E+00;  0.0000000E+00;  0.0000000E+00;0; -9.1237798E-02;  4.0000000E+04;  0.0000000E+00;  0.0000000E+00;  4.0000000E+04;  0.0000000E+00;  4.0000000E+04; -9.4074100E-02;  0.0000000E+00;  2.8363052E-03;  2.1253098E+03;
 -5.0000001E-02;  9.9999998E-03;  0.0000000E+00;1408;  0.0000000E+00;  0.0000000E+00;  0.0000000E+00;  1.0007108E+03;  1.0000000E-01;  5.8892163E+02;0;  0.0000000E+00;  0.0000000E+00;  0.0000000E+00;0; -9.1242678E-02;  4.0000000E+04;  0.0000000E+00;  0.0000000E+00;  4.0000000E+04;  0.0000000E+00;  4.0000000E+04; -9.4084769E-02;  0.0000000E+00;  2.8420917E-03;  2.1282314E+03;
 -5.0000001E-02;  9.9999998E-03;  9.9999998E-03;1409;  0.0000000E+00;  0.0000000E+00;  0.0000000E+00;  1.0007111E+03;  1.0000000E-01;  5.8911914E+02;0;  0.0000000E+00;  0.0000000E+00;  0.0000000E+00;0; -9.1237783E-02;  4.0000000E+04;  0.0000000E+00;  0.0000000E+00;  4.0000000E+04;  0.0000000E+00;  4.0000000E+04; -9.4074085E-02;  0.0000000E+00;  2.8363052E-03;  2.1253096E+03;
 -5.0000001E-02;  9.9999998E-03;  2.0000000E-02;1410;  0.0000000E+00;  0.0000000E+00;  0.0000000E+00;  1.0007117E+03;  1.0000000E-01;  5.8961298E+02;0;  0.0000000E+00;  0.0000000E+00;  0.0000000E+00;0; -9.1222033E-02;  4.0000000E+04;  0.0000000E+00;  0.0000000E+00;  4.0000000E+04;  0.0000000E+00;  4.0000000E+04; -9.4040647E-02;  0.0000000E+00;  2.8186140E-03;  2.1172639E+03;
 -5.0000001E-02;  9.9999998E-03;  2.9999999E-02;1411;  0.0000000E+00;  0.0000000E+00;  0.0000000E+00;  1.0007128E+03;  1.0000000E-01;  5.9050183E+02;0;  0.0000000E+00;  0.0000000E+00;  0.0000000E+00;0; -9.1190837E-02;  4.0000000E+04;  0.0000000E+00;  0.0000000E+00;  4.0000000E+04;  0.0000000E+00;  4.0000000E+04; -9.3979158E-02;  0.0000000E+00;  2.7883190E-03;  2.1061895E+03;
 -5.0000001E-02;  9.9999998E-03;  3.9999999E-02;1412;  0.0000000E+00;  0.0000000E+00;  0.0000000E+00;  1.0007141E+03;  1.0000000E-01;  5.9158820E+02;0;  0.0000000E+00;  0.0000000E+00;  0.0000000E+00;0; -9.1135077E-02;  4.0000000E+04;  0.0000000E+00;  0.0000000E+00;  4.0000000E+04;  0.0000000E+00;  4.0000000E+04; -9.3880229E-02;  0.0000000E+00;  2.7451543E-03;  2.0953267E+03;
 -5.0000001E-02;  9.9999998E-03;  5.0000001E-02;1413;  0.0000000E+00;  0.0000000E+00;  0.0000000E+00;  1.0007145E+03;  1.0000000E-01;  5.9188452E+02;0;  0.0000000E+00;  0.0000000E+00;  0.0000000E+00;0; -9.1039203E-02;  4.0000000E+04;  0.0000000E+00;  0.0000000E+00;  4.0000000E+04;  0.0000000E+00;  4.0000000E+04; -9.3729638E-02;  0.0000000E+00;  2.6904345E-03;  2.0887095E+03;
 -5.0000001E-02;  9.9999998E-03;  5.9999999E-02;1414;  0.0000000E+00;  0.0000000E+00;  0.0000000E+00;  1.0007134E+03;  1.0000000E-01;  5.9109442E+02;0;  0.0000000E+00;  0.0000000E+00;  0.0000000E+00;0; -9.0878777E-02;  4.0000000E+04;  0.0000000E+00;  0.0000000E+00;  4.0000000E+04;  0.0000000E+00;  4.0000000E+04; -9.3506917E-02;  0.0000000E+00;  2.6281376E-03;  2.0907405E+03;
 -3.9999999E-02;  9.9999998E-03; -1.0000000E-01;1489;  0.0000000E+00;  0.0000000E+00;  0.0000000E+00;  1.0009396E+03;  1.0000000E-01;  7.7844714E+02;0;  0.0000000E+00;  0.0000000E+00;  0.0000000E+00;0; -1.1697860E-01;  4.0000000E+04;  0.0000000E+00;  0.0000000E+00;  4.0000000E+04;  0.0000000E+00;  4.0000000E+04; -1.2048486E-01;  0.0000000E+00;  3.5062619E-03;  2.8596902E+03;
 -3.9999999E-02;  9.9999998E-03; -9.0000004E-02;1490;  0.0000000E+00;  0.0000000E+00;  0.0000000E+00;  1.0009606E+03;  1.0000000E-01;  7.9582935E+02;0;  0.0000000E+00;  0.0000000E+00;  0.0000000E+00;0; -1.1803472E-01;  4.0000000E+04;  0.0000000E+00;  0.0000000E+00;  4.0000000E+04;  0.0000000E+00;  4.0000000E+04; -1.2154520E-01;  0.0000000E+00;  3.5104717E-03;  2.7712986E+03;
 -3.9999999E-02;  9.9999998E-03; -7.9999998E-02;1491;  0.0000000E+00;  0.0000000E+00;  0.0000000E+00;  1.0009750E+03;  1.0000000E-01;  8.0777960E+02;0;  0.0000000E+00;  0.0000000E+00;  0.0000000E+00;0; -1.1876990E-01;  4.0000000E+04;  0.0000000E+00;  0.0000000E+00;  4.0000000E+04;  0.0000000E+00;  4.0000000E+04; -1.2233341E-01;  0.0000000E+00;  3.5635103E-03;  2.7095098E+03;
 -3.9999999E-02;  9.9999998E-03; -7.0000000E-02;1492;  0.0000000E+00;  0.0000000E+00;  0.0000000E+00;  1.0009842E+03;  1.0000000E-01;  8.1538434E+02;0;  0.0000000E+00;  0.0000000E+00;  0.0000000E+00;0; -1.1925843E-01;  4.0000000E+04;  0.0000000E+00;  0.0000000E+00;  4.0000000E+04;  0.0000000E+00;  4.0000000E+04; -1.2290498E-01;  0.0000000E+00;  3.6465419E-03;  2.6706206E+03;
 -3.9999999E-02;  9.9999998E-03; -5.9999999E-02;1493;  0.0000000E+00;  0.0000000E+00;  0.0000000E+00;  1.0009880E+03;  1.0000000E-01;  8.1854474E+02;0;  0.0000000E+00;  0.0000000E+00;  0.0000000E+00;0; -1.1956797E-01;  4.0000000E+04;  0.0000000E+00;  0.0000000E+00;  4.0000000E+04;  0.0000000E+00;  4.0000000E+04; -1.2330955E-01;  0.0000000E+00;  3.7415854E-03;  2.6505564E+03;
 -3.9999999E-02;  9.9999998E-03; -5.0000001E-02;1494;  0.0000000E+00;  0.0000000E+00;  0.0000000E+00;  1.0009893E+03;  1.0000000E-01;  8.1953235E+02;0;  0.0000000E+00;  0.0000000E+00;  0.0000000E+00;0; -1.1975546E-01;  4.0000000E+04;  0.0000000E+00;  0.0000000E+00;  4.0000000E+04;  0.0000000E+00;  4.0000000E+04; -1.2358957E-01;  0.0000000E+00;  3.8341030E-03;  2.6448638E+03;
 -3.9999999E-02;  9.9999998E-03; -3.9999999E-02;1495;  0.0000000E+00;  0.0000000E+00;  0.0000000E+00;  1.0009890E+03;  1.0000000E-01;  8.1933484E+02;0;  0.0000000E+00;  0.0000000E+00;  0.0000000E+00;0; -1.1986446E-01;  4.0000000E+04;  0.0000000E+00;  0.0000000E+00;  4.0000000E+04;  0.0000000E+00;  4.0000000E+04; -1.2377874E-01;  0.0000000E+00;  3.9142789E-03;  2.6488364E+03;
 -3.9999999E-02;  9.9999998E-03; -2.9999999E-02;1496;  0.0000000E+00;  0.0000000E+00;  0.0000000E+00;  1.0009870E+03;  1.0000000E-01;  8.1775464E+02;0;  0.0000000E+00;  0.0000000E+00;  0.0000000E+00;0; -1.1992567E-01;  4.0000000E+04;  0.0000000E+00;  0.0000000E+00;  4.0000000E+04;  0.0000000E+00;  4.0000000E+04; -1.2390266E-01;  0.0000000E+00;  3.9769881E-03;  2.6578589E+03;
 -3.9999999E-02;  9.9999998E-03; -2.0000000E-02;1497;  0.0000000E+00;  0.0000000E+00;  0.0000000E+00;  1.0009853E+03;  1.0000000E-01;  8.1627319E+02;0;  0.0000000E+00;  0.0000000E+00;  0.0000000E+00;0; -1.1995863E-01;  4.0000000E+04;  0.0000000E+00;  0.0000000E+00;  4.0000000E+04;  0.0000000E+00;  4.0000000E+04; -1.2397940E-01;  0.0000000E+00;  4.0207631E-03;  2.6677351E+03;
 -3.9999999E-02;  9.9999998E-03; -9.9999998E-03;1498;  0.0000000E+00;  0.0000000E+00;  0.0000000E+00;  1.0009843E+03;  1.0000000E-01;  8.1548309E+02;0;  0.0000000E+00;  0.0000000E+00;  0.0000000E+00;0; -1.1997490E-01;  4.0000000E+04;  0.0000000E+00;  0.0000000E+00;  4.0000000E+04;  0.0000000E+00;  4.0000000E+04; -1.2402114E-01;  0.0000000E+00;  4.0462324E-03;  2.6751174E+03;
 -3.9999999E-02;  9.9999998E-03;  0.0000000E+00;1499;  0.0000000E+00;  0.0000000E+00;  0.0000000E+00;  1.0009839E+03;  1.0000000E-01;  8.1518683E+02;0;  0.0000000E+00;  0.0000000E+00;  0.0000000E+00;0; -1.1997989E-01;  4.0000000E+04;  0.0000000E+00;  0.0000000E+00;  4.0000000E+04;  0.0000000E+00;  4.0000000E+04; -1.2403443E-01;  0.0000000E+00;  4.0545492E-03;  2.6778184E+03;
 -3.9999999E-02;  9.9999998E-03;  9.9999998E-03;1500;  0.0000000E+00;  0.0000000E+00;  0.0000000E+00;  1.0009843E+03;  1.0000000E-01;  8.1548309E+02;0;  0.0000000E+00;  0.0000000E+00;  0.0000000E+00;0; -1.1997492E-01;  4.0000000E+04;  0.0000000E+00;  0.0000000E+00;  4.0000000E+04;  0.0000000E+00;  4.0000000E+04; -1.2402115E-01;  0.0000000E+00;  4.0462334E-03;  2.6751174E+03;
 -3.9999999E-02;  9.9999998E-03;  2.0000000E-02;1501;  0.0000000E+00;  0.0000000E+00;  0.0000000E+00;  1.0009853E+03;  1.0000000E-01;  8.1627319E+02;0;  0.0000000E+00;  0.0000000E+00;  0.0000000E+00;0; -1.1995865E-01;  4.0000000E+04;  0.0000000E+00;  0.0000000E+00;  4.0000000E+04;  0.0000000E+00;  4.0000000E+04; -1.2397942E-01;  0.0000000E+00;  4.0207650E-03;  2.6677385E+03;
 -3.9999999E-02;  9.9999998E-03;  2.9999999E-02;1502;  0.0000000E+00;  0.0000000E+00;  0.0000000E+00;  1.0009870E+03;  1.0000000E-01;  8.1775464E+02;0;  0.0000000E+00;  0.0000000E+00;  0.0000000E+00;0; -1.1992569E-01;  4.0000000E+04;  0.0000000E+00;  0.0000000E+00;  4.0000000E+04;  0.0000000E+00;  4.0000000E+04; -1.2390269E-01;  0.0000000E+00;  3.9769914E-03;  2.6578640E+03;
 -3.9999999E-02;  9.9999998E-03;  3.9999999E-02;1503;  0.0000000E+00;  0.0000000E+00;  0.0000000E+00;  1.0009890E+03;  1.0000000E-01;  8.1933484E+02;0;  0.0000000E+00;  0.0000000E+00;  0.0000000E+00;0; -1.1986441E-01;  4.0000000E+04;  0.0000000E+00;  0.0000000E+00;  4.0000000E+04;  0.0000000E+00;  4.0000000E+04; -1.2377869E-01;  0.0000000E+00;  3.9142831E-03;  2.6488428E+03;
 -3.9999999E-02;  9.9999998E-03;  5.0000001E-02;1504;  0.0000000E+00;  0.0000000E+00;  0.0000000E+00;  1.0009893E+03;  1.0000000E-01;  8.1953235E+02;0;  0.0000000E+00;  0.0000000E+00;  0.0000000E+00;0; -1.1975550E-01;  4.0000000E+04;  0.0000000E+00;  0.0000000E+00;  4.0000000E+04;  0.0000000E+00;  4.0000000E+04; -1.2358961E-01;  0.0000000E+00;  3.8341056E-03;  2.6448672E+03;
 -3.9999999E-02;  9.9999998E-03;  5.9999999E-02;1505;  0.0000000E+00;  0.0000000E+00;  0.0000000E+00;  1.0009880E+03;  1.0000000E-01;  8.1854474E+02;0;  0.0000000E+00;  0.0000000E+00;  0.0000000E+00;0; -1.1956798E-01;  4.0000000E+04;  0.0000000E+00;  0.0000000E+00;  4.0000000E+04;  0.0000000E+00;  4.0000000E+04; -1.2330956E-01;  0.0000000E+00;  3.7415877E-03;  2.6505620E+03;
 -2.9999999E-02;  9.9999998E-03; -1.0000000E-01;1580;  0.0000000E+00;  0.0000000E+00;  0.0000000E+00;  1.0012562E+03;  1.0000000E-01;  1.0407607E+03;0;  0.0000000E+00;  0.0000000E+00;  0.0000000E+00;0; -1.4849976E-01;  4.0000000E+04;  0.0000000E+00;  0.0000000E+00;  4.0000000E+04;  0.0000000E+00;  4.0000000E+04; -1.5321603E-01;  0.0000000E+00;  4.7162729E-03;  3.4766699E+03;
 -2.9999999E-02;  9.9999998E-03; -9.0000004E-02;1581;  0.0000000E+00;  0.0000000E+00;  0.0000000E+00;  1.0012825E+03;  1.0000000E-01;  1.0625873E+03;0;  0.0000000E+00;  0.0000000E+00;  0.0000000E+00;0; -1.4975303E-01;  4.0000000E+04;  0.0000000E+00;  0.0000000E+00;  4.0000000E+04;  0.0000000E+00;  4.0000000E+04; -1.5449950E-01;  0.0000000E+00;  4.7464683E-03;  3.3811372E+03;
 -2.9999999E-02;  9.9999998E-03; -7.9999998E-02;1582;  0.0000000E+00;  0.0000000E+00;  0.0000000E+00;  1.0013002E+03;  1.0000000E-01;  1.0772041E+03;0;  0.0000000E+00;  0.0000000E+00;  0.0000000E+00;0; -1.5061396E-01;  4.0000000E+04;  0.0000000E+00;  0.0000000E+00;  4.0000000E+04;  0.0000000E+00;  4.0000000E+04; -1.5545225E-01;  0.0000000E+00;  4.8382888E-03;  3.3137722E+03;
 -2.9999999E-02;  9.9999998E-03; -7.0000000E-02;1583;  0.0000000E+00;  0.0000000E+00;  0.0000000E+00;  1.0013097E+03;  1.0000000E-01;  1.0850063E+03;0;  0.0000000E+00;  0.0000000E+00;  0.0000000E+00;0; -1.5117635E-01;  4.0000000E+04;  0.0000000E+00;  0.0000000E+00;  4.0000000E+04;  0.0000000E+00;  4.0000000E+04; -1.5614249E-01;  0.0000000E+00;  4.9661440E-03;  3.2698513E+03;
 -2.9999999E-02;  9.9999998E-03; -5.9999999E-02;1584;  0.0000000E+00;  0.0000000E+00;  0.0000000E+00;  1.0013143E+03;  1.0000000E-01;  1.0888582E+03;0;  0.0000000E+00;  0.0000000E+00;  0.0000000E+00;0; -1.5152484E-01;  4.0000000E+04;  0.0000000E+00;  0.0000000E+00;  4.0000000E+04;  0.0000000E+00;  4.0000000E+04; -1.5663089E-01;  0.0000000E+00;  5.1060501E-03;  3.2448271E+03;
 -2.9999999E-02;  9.9999998E-03; -5.0000001E-02;1585;  0.0000000E+00;  0.0000000E+00;  0.0000000E+00;  1.0013159E+03;  1.0000000E-01;  1.0901420E+03;0;  0.0000000E+00;  0.0000000E+00;  0.0000000E+00;0; -1.5172955E-01;  4.0000000E+04;  0.0000000E+00;  0.0000000E+00;  4.0000000E+04;  0.0000000E+00;  4.0000000E+04; -1.5696853E-01;  0.0000000E+00;  5.2389856E-03;  3.2342021E+03;
 -2.9999999E-02;  9.9999998E-03; -3.9999999E-02;1586;  0.0000000E+00;  0.0000000E+00;  0.0000000E+00;  1.0013145E+03;  1.0000000E-01;  1.0890557E+03;0;  0.0000000E+00;  0.0000000E+00;  0.0000000E+00;0; -1.5184411E-01;  4.0000000E+04;  0.0000000E+00;  0.0000000E+00;  4.0000000E+04;  0.0000000E+00;  4.0000000E+04; -1.5719655E-01;  0.0000000E+00;  5.3524319E-03;  3.2334712E+03;
 -2.9999999E-02;  9.9999998E-03; -2.9999999E-02;1587;  0.0000000E+00;  0.0000000E+00;  0.0000000E+00;  1.0013120E+03;  1.0000000E-01;  1.0869816E+03;0;  0.0000000E+00;  0.0000000E+00;  0.0000000E+00;0; -1.5190569E-01;  4.0000000E+04;  0.0000000E+00;  0.0000000E+00;  4.0000000E+04;  0.0000000E+00;  4.0000000E+04; -1.5734591E-01;  0.0000000E+00;  5.4402133E-03;  3.2383347E+03;
 -2.9999999E-02;  9.9999998E-03; -2.0000000E-02;1588;  0.0000000E+00;  0.0000000E+00;  0.0000000E+00;  1.0013094E+03;  1.0000000E-01;  1.0848088E+03;0;  0.0000000E+00;  0.0000000E+00;  0.0000000E+00;0; -1.5193735E-01;  4.0000000E+04;  0.0000000E+00;  0.0000000E+00;  4.0000000E+04;  0.0000000E+00;  4.0000000E+04; -1.5743837E-01;  0.0000000E+00;  5.5010226E-03;  3.2449451E+03;
 -2.9999999E-02;  9.9999998E-03; -9.9999998E-03;1589;  0.0000000E+00;  0.0000000E+00;  0.0000000E+00;  1.0013079E+03;  1.0000000E-01;  1.0836237E+03;0;  0.0000000E+00;  0.0000000E+00;  0.0000000E+00;0; -1.5195248E-01;  4.0000000E+04;  0.0000000E+00;  0.0000000E+00;  4.0000000E+04;  0.0000000E+00;  4.0000000E+04; -1.5748869E-01;  0.0000000E+00;  5.5362121E-03;  3.2502410E+03;
 -2.9999999E-02;  9.9999998E-03;  0.0000000E+00;1590;  0.0000000E+00;  0.0000000E+00;  0.0000000E+00;  1.0013072E+03;  1.0000000E-01;  1.0830311E+03;0;  0.0000000E+00;  0.0000000E+00;  0.0000000E+00;0; -1.5195720E-01;  4.0000000E+04;  0.0000000E+00;  0.0000000E+00;  4.0000000E+04;  0.0000000E+00;  4.0000000E+04; -1.5750487E-01;  0.0000000E+00;  5.5476693E-03;  3.2522295E+03;
 -2.9999999E-02;  9.9999998E-03;  9.9999998E-03;1591;  0.0000000E+00;  0.0000000E+00;  0.0000000E+00;  1.0013079E+03;  1.0000000E-01;  1.0836237E+03;0;  0.0000000E+00;  0.0000000E+00;  0.0000000E+00;0; -1.5195243E-01;  4.0000000E+04;  0.0000000E+00;  0.0000000E+00;  4.0000000E+04;  0.0000000E+00;  4.0000000E+04; -1.5748864E-01;  0.0000000E+00;  5.5362121E-03;  3.2502422E+03;
 -2.9999999E-02;  9.9999998E-03;  2.0000000E-02;1592;  0.0000000E+00;  0.0000000E+00;  0.0000000E+00;  1.0013094E+03;  1.0000000E-01;  1.0848088E+03;0;  0.0000000E+00;  0.0000000E+00;  0.0000000E+00;0; -1.5193738E-01;  4.0000000E+04;  0.0000000E+00;  0.0000000E+00;  4.0000000E+04;  0.0000000E+00;  4.0000000E+04; -1.5743840E-01;  0.0000000E+00;  5.5010207E-03;  3.2449480E+03;
 -2.9999999E-02;  9.9999998E-03;  2.9999999E-02;1593;  0.0000000E+00;  0.0000000E+00;  0.0000000E+00;  1.0013120E+03;  1.0000000E-01;  1.0869816E+03;0;  0.0000000E+00;  0.0000000E+00;  0.0000000E+00;0; -1.5190567E-01;  4.0000000E+04;  0.0000000E+00;  0.0000000E+00;  4.0000000E+04;  0.0000000E+00;  4.0000000E+04; -1.5734589E-01;  0.0000000E+00;  5.4402188E-03;  3.2383401E+03;
 -2.9999999E-02;  9.9999998E-03;  3.9999999E-02;1594;  0.0000000E+00;  0.0000000E+00;  0.0000000E+00;  1.0013145E+03;  1.0000000E-01;  1.0890557E+03;0;  0.0000000E+00;  0.0000000E+00;  0.0000000E+00;0; -1.5184416E-01;  4.0000000E+04;  0.0000000E+00;  0.0000000E+00;  4.0000000E+04;  0.0000000E+00;  4.0000000E+04; -1.5719660E-01;  0.0000000E+00;  5.3524324E-03;  3.2334768E+03;
 -2.9999999E-02;  9.9999998E-03;  5.0000001E-02;1595;  0.0000000E+00;  0.0000000E+00;  0.0000000E+00;  1.0013159E+03;  1.0000000E-01;  1.0901420E+03;0;  0.0000000E+00;  0.0000000E+00;  0.0000000E+00;0; -1.5172952E-01;  4.0000000E+04;  0.0000000E+00;  0.0000000E+00;  4.0000000E+04;  0.0000000E+00;  4.0000000E+04; -1.5696850E-01;  0.0000000E+00;  5.2389866E-03;  3.2342114E+03;
 -2.9999999E-02;  9.9999998E-03;  5.9999999E-02;1596;  0.0000000E+00;  0.0000000E+00;  0.0000000E+00;  1.0013143E+03;  1.0000000E-01;  1.0888582E+03;0;  0.0000000E+00;  0.0000000E+00;  0.0000000E+00;0; -1.5152493E-01;  4.0000000E+04;  0.0000000E+00;  0.0000000E+00;  4.0000000E+04;  0.0000000E+00;  4.0000000E+04; -1.5663098E-01;  0.0000000E+00;  5.1060510E-03;  3.2448289E+03;
 -2.0000000E-02;  9.9999998E-03; -1.0000000E-01;1671;  0.0000000E+00;  0.0000000E+00;  0.0000000E+00;  1.0016179E+03;  1.0000000E-01;  1.3404065E+03;0;  0.0000000E+00;  0.0000000E+00;  0.0000000E+00;0; -1.8200760E-01;  4.0000000E+04;  0.0000000E+00;  0.0000000E+00;  4.0000000E+04;  0.0000000E+00;  4.0000000E+04; -1.8809821E-01;  0.0000000E+00;  6.0906094E-03;  4.0788257E+03;
 -2.0000000E-02;  9.9999998E-03; -9.0000004E-02;1672;  0.0000000E+00;  0.0000000E+00;  0.0000000E+00;  1.0016489E+03;  1.0000000E-01;  1.3660848E+03;0;  0.0000000E+00;  0.0000000E+00;  0.0000000E+00;0; -1.8342651E-01;  4.0000000E+04;  0.0000000E+00;  0.0000000E+00;  4.0000000E+04;  0.0000000E+00;  4.0000000E+04; -1.8959035E-01;  0.0000000E+00;  6.1638341E-03;  3.9846797E+03;
 -2.0000000E-02;  9.9999998E-03; -7.9999998E-02;1673;  0.0000000E+00;  0.0000000E+00;  0.0000000E+00;  1.0016681E+03;  1.0000000E-01;  1.3819856E+03;0;  0.0000000E+00;  0.0000000E+00;  0.0000000E+00;0; -1.8438433E-01;  4.0000000E+04;  0.0000000E+00;  0.0000000E+00;  4.0000000E+04;  0.0000000E+00;  4.0000000E+04; -1.9069648E-01;  0.0000000E+00;  6.3121472E-03;  3.9173875E+03;
 -2.0000000E-02;  9.9999998E-03; -7.0000000E-02;1674;  0.0000000E+00;  0.0000000E+00;  0.0000000E+00;  1.0016793E+03;  1.0000000E-01;  1.3912693E+03;0;  0.0000000E+00;  0.0000000E+00;  0.0000000E+00;0; -1.8499540E-01;  4.0000000E+04;  0.0000000E+00;  0.0000000E+00;  4.0000000E+04;  0.0000000E+00;  4.0000000E+04; -1.9149688E-01;  0.0000000E+00;  6.5014772E-03;  3.8711521E+03;
 -2.0000000E-02;  9.9999998E-03; -5.9999999E-02;1675;  0.0000000E+00;  0.0000000E+00;  0.0000000E+00;  1.0016838E+03;  1.0000000E-01;  1.3950222E+03;0;  0.0000000E+00;  0.0000000E+00;  0.0000000E+00;0; -1.8536240E-01;  4.0000000E+04;  0.0000000E+00;  0.0000000E+00;  4.0000000E+04;  0.0000000E+00;  4.0000000E+04; -1.9206302E-01;  0.0000000E+00;  6.7006196E-03;  3.8413535E+03;
 -2.0000000E-02;  9.9999998E-03; -5.0000001E-02;1676;  0.0000000E+00;  0.0000000E+00;  0.0000000E+00;  1.0016839E+03;  1.0000000E-01;  1.3951211E+03;0;  0.0000000E+00;  0.0000000E+00;  0.0000000E+00;0; -1.8556909E-01;  4.0000000E+04;  0.0000000E+00;  0.0000000E+00;  4.0000000E+04;  0.0000000E+00;  4.0000000E+04; -1.9245452E-01;  0.0000000E+00;  6.8854191E-03;  3.8240803E+03;
 -2.0000000E-02;  9.9999998E-03; -3.9999999E-02;1677;  0.0000000E+00;  0.0000000E+00;  0.0000000E+00;  1.0016814E+03;  1.0000000E-01;  1.3930470E+03;0;  0.0000000E+00;  0.0000000E+00;  0.0000000E+00;0; -1.8567833E-01;  4.0000000E+04;  0.0000000E+00;  0.0000000E+00;  4.0000000E+04;  0.0000000E+00;  4.0000000E+04; -1.9271889E-01;  0.0000000E+00;  7.0405612E-03;  3.8157908E+03;
 -2.0000000E-02;  9.9999998E-03; -2.9999999E-02;1678;  0.0000000E+00;  0.0000000E+00;  0.0000000E+00;  1.0016788E+03;  1.0000000E-01;  1.3908743E+03;0;  0.0000000E+00;  0.0000000E+00;  0.0000000E+00;0; -1.8573323E-01;  4.0000000E+04;  0.0000000E+00;  0.0000000E+00;  4.0000000E+04;  0.0000000E+00;  4.0000000E+04; -1.9289236E-01;  0.0000000E+00;  7.1591306E-03;  3.8132971E+03;
 -2.0000000E-02;  9.9999998E-03; -2.0000000E-02;1679;  0.0000000E+00;  0.0000000E+00;  0.0000000E+00;  1.0016757E+03;  1.0000000E-01;  1.3883064E+03;0;  0.0000000E+00;  0.0000000E+00;  0.0000000E+00;0; -1.8575951E-01;  4.0000000E+04;  0.0000000E+00;  0.0000000E+00;  4.0000000E+04;  0.0000000E+00;  4.0000000E+04; -1.9299997E-01;  0.0000000E+00;  7.2404649E-03;  3.8137852E+03;
 -2.0000000E-02;  9.9999998E-03; -9.9999998E-03;1680;  0.0000000E+00;  0.0000000E+00;  0.0000000E+00;  1.0016737E+03;  1.0000000E-01;  1.3866274E+03;0;  0.0000000E+00;  0.0000000E+00;  0.0000000E+00;0; -1.8577123E-01;  4.0000000E+04;  0.0000000E+00;  0.0000000E+00;  4.0000000E+04;  0.0000000E+00;  4.0000000E+04; -1.9305843E-01;  0.0000000E+00;  7.2872075E-03;  3.8150398E+03;
 -2.0000000E-02;  9.9999998E-03;  0.0000000E+00;1681;  0.0000000E+00;  0.0000000E+00;  0.0000000E+00;  1.0016730E+03;  1.0000000E-01;  1.3860349E+03;0;  0.0000000E+00;  0.0000000E+00;  0.0000000E+00;0; -1.8577471E-01;  4.0000000E+04;  0.0000000E+00;  0.0000000E+00;  4.0000000E+04;  0.0000000E+00;  4.0000000E+04; -1.9307709E-01;  0.0000000E+00;  7.3023699E-03;  3.8156194E+03;
 -2.0000000E-02;  9.9999998E-03;  9.9999998E-03;1682;  0.0000000E+00;  0.0000000E+00;  0.0000000E+00;  1.0016737E+03;  1.0000000E-01;  1.3866274E+03;0;  0.0000000E+00;  0.0000000E+00;  0.0000000E+00;0; -1.8577129E-01;  4.0000000E+04;  0.0000000E+00;  0.0000000E+00;  4.0000000E+04;  0.0000000E+00;  4.0000000E+04; -1.9305851E-01;  0.0000000E+00;  7.2872126E-03;  3.8150415E+03;
 -2.0000000E-02;  9.9999998E-03;  2.0000000E-02;1683;  0.0000000E+00;  0.0000000E+00;  0.0000000E+00;  1.0016757E+03;  1.0000000E-01;  1.3883064E+03;0;  0.0000000E+00;  0.0000000E+00;  0.0000000E+00;0; -1.8575960E-01;  4.0000000E+04;  0.0000000E+00;  0.0000000E+00;  4.0000000E+04;  0.0000000E+00;  4.0000000E+04; -1.9300008E-01;  0.0000000E+00;  7.2404710E-03;  3.8137886E+03;
 -2.0000000E-02;  9.9999998E-03;  2.9999999E-02;1684;  0.0000000E+00;  0.0000000E+00;  0.0000000E+00;  1.0016788E+03;  1.0000000E-01;  1.3908743E+03;0;  0.0000000E+00;  0.0000000E+00;  0.0000000E+00;0; -1.8573329E-01;  4.0000000E+04;  0.0000000E+00;  0.0000000E+00;  4.0000000E+04;  0.0000000E+00;  4.0000000E+04; -1.9289242E-01;  0.0000000E+00;  7.1591334E-03;  3.8133059E+03;
 -2.0000000E-02;  9.9999998E-03;  3.9999999E-02;1685;  0.0000000E+00;  0.0000000E+00;  0.0000000E+00;  1.0016814E+03;  1.0000000E-01;  1.3930470E+03;0;  0.0000000E+00;  0.0000000E+00;  0.0000000E+00;0; -1.8567850E-01;  4.0000000E+04;  0.0000000E+00;  0.0000000E+00;  4.0000000E+04;  0.0000000E+00;  4.0000000E+04; -1.9271907E-01;  0.0000000E+00;  7.0405705E-03;  3.8157949E+03;
 -2.0000000E-02;  9.9999998E-03;  5.0000001E-02;1686;  0.0000000E+00;  0.0000000E+00;  0.0000000E+00;  1.0016839E+03;  1.0000000E-01;  1.3951211E+03;0;  0.0000000E+00;  0.0000000E+00;  0.0000000E+00;0; -1.8556918E-01;  4.0000000E+04;  0.0000000E+00;  0.0000000E+00;  4.0000000E+04;  0.0000000E+00;  4.0000000E+04; -1.9245461E-01;  0.0000000E+00;  6.8854271E-03;  3.8240850E+03;
 -2.0000000E-02;  9.9999998E-03;  5.9999999E-02;1687;  0.0000000E+00;  0.0000000E+00;  0.0000000E+00;  1.0016838E+03;  1.0000000E-01;  1.3950222E+03;0;  0.0000000E+00;  0.0000000E+00;  0.0000000E+00;0; -1.8536238E-01;  4.0000000E+04;  0.0000000E+00;  0.0000000E+00;  4.0000000E+04;  0.0000000E+00;  4.0000000E+04; -1.9206300E-01;  0.0000000E+00;  6.7006247E-03;  3.8413601E+03;
 -9.9999998E-03;  9.9999998E-03; -1.0000000E-01;1762;  0.0000000E+00;  0.0000000E+00;  0.0000000E+00;  1.0020148E+03;  1.0000000E-01;  1.6692861E+03;0;  0.0000000E+00;  0.0000000E+00;  0.0000000E+00;0; -2.1588434E-01;  4.0000000E+04;  0.0000000E+00;  0.0000000E+00;  4.0000000E+04;  0.0000000E+00;  4.0000000E+04; -2.2345246E-01;  0.0000000E+00;  7.5681182E-03;  4.6247471E+03;
 -9.9999998E-03;  9.9999998E-03; -9.0000004E-02;1763;  0.0000000E+00;  0.0000000E+00;  0.0000000E+00;  1.0020479E+03;  1.0000000E-01;  1.6966434E+03;0;  0.0000000E+00;  0.0000000E+00;  0.0000000E+00;0; -2.1741712E-01;  4.0000000E+04;  0.0000000E+00;  0.0000000E+00;  4.0000000E+04;  0.0000000E+00;  4.0000000E+04; -2.2512242E-01;  0.0000000E+00;  7.7053029E-03;  4.5438101E+03;
 -9.9999998E-03;  9.9999998E-03; -7.9999998E-02;1764;  0.0000000E+00;  0.0000000E+00;  0.0000000E+00;  1.0020692E+03;  1.0000000E-01;  1.7143219E+03;0;  0.0000000E+00;  0.0000000E+00;  0.0000000E+00;0; -2.1842754E-01;  4.0000000E+04;  0.0000000E+00;  0.0000000E+00;  4.0000000E+04;  0.0000000E+00;  4.0000000E+04; -2.2635837E-01;  0.0000000E+00;  7.9308366E-03;  4.4840391E+03;
 -9.9999998E-03;  9.9999998E-03; -7.0000000E-02;1765;  0.0000000E+00;  0.0000000E+00;  0.0000000E+00;  1.0020799E+03;  1.0000000E-01;  1.7231118E+03;0;  0.0000000E+00;  0.0000000E+00;  0.0000000E+00;0; -2.1905182E-01;  4.0000000E+04;  0.0000000E+00;  0.0000000E+00;  4.0000000E+04;  0.0000000E+00;  4.0000000E+04; -2.2725216E-01;  0.0000000E+00;  8.2003279E-03;  4.4388633E+03;
 -9.9999998E-03;  9.9999998E-03; -5.9999999E-02;1766;  0.0000000E+00;  0.0000000E+00;  0.0000000E+00;  1.0020836E+03;  1.0000000E-01;  1.7261735E+03;0;  0.0000000E+00;  0.0000000E+00;  0.0000000E+00;0; -2.1940996E-01;  4.0000000E+04;  0.0000000E+00;  0.0000000E+00;  4.0000000E+04;  0.0000000E+00;  4.0000000E+04; -2.2788417E-01;  0.0000000E+00;  8.4742103E-03;  4.4042168E+03;
 -9.9999998E-03;  9.9999998E-03; -5.0000001E-02;1767;  0.0000000E+00;  0.0000000E+00;  0.0000000E+00;  1.0020825E+03;  1.0000000E-01;  1.7252845E+03;0;  0.0000000E+00;  0.0000000E+00;  0.0000000E+00;0; -2.1959884E-01;  4.0000000E+04;  0.0000000E+00;  0.0000000E+00;  4.0000000E+04;  0.0000000E+00;  4.0000000E+04; -2.2832154E-01;  0.0000000E+00;  8.7226918E-03;  4.3777036E+03;
 -9.9999998E-03;  9.9999998E-03; -3.9999999E-02;1768;  0.0000000E+00;  0.0000000E+00;  0.0000000E+00;  1.0020791E+03;  1.0000000E-01;  1.7225192E+03;0;  0.0000000E+00;  0.0000000E+00;  0.0000000E+00;0; -2.1968962E-01;  4.0000000E+04;  0.0000000E+00;  0.0000000E+00;  4.0000000E+04;  0.0000000E+00;  4.0000000E+04; -2.2861741E-01;  0.0000000E+00;  8.9277970E-03;  4.3578618E+03;
 -9.9999998E-03;  9.9999998E-03; -2.9999999E-02;1769;  0.0000000E+00;  0.0000000E+00;  0.0000000E+00;  1.0020751E+03;  1.0000000E-01;  1.7191613E+03;0;  0.0000000E+00;  0.0000000E+00;  0.0000000E+00;0; -2.1972938E-01;  4.0000000E+04;  0.0000000E+00;  0.0000000E+00;  4.0000000E+04;  0.0000000E+00;  4.0000000E+04; -2.2881176E-01;  0.0000000E+00;  9.0823779E-03;  4.3436465E+03;
 -9.9999998E-03;  9.9999998E-03; -2.0000000E-02;1770;  0.0000000E+00;  0.0000000E+00;  0.0000000E+00;  1.0020710E+03;  1.0000000E-01;  1.7158033E+03;0;  0.0000000E+00;  0.0000000E+00;  0.0000000E+00;0; -2.1974573E-01;  4.0000000E+04;  0.0000000E+00;  0.0000000E+00;  4.0000000E+04;  0.0000000E+00;  4.0000000E+04; -2.2893296E-01;  0.0000000E+00;  9.1872355E-03;  4.3341904E+03;
 -9.9999998E-03;  9.9999998E-03; -9.9999998E-03;1771;  0.0000000E+00;  0.0000000E+00;  0.0000000E+00;  1.0020675E+03;  1.0000000E-01;  1.7128405E+03;0;  0.0000000E+00;  0.0000000E+00;  0.0000000E+00;0; -2.1975185E-01;  4.0000000E+04;  0.0000000E+00;  0.0000000E+00;  4.0000000E+04;  0.0000000E+00;  4.0000000E+04; -2.2899880E-01;  0.0000000E+00;  9.2469510E-03;  4.3288252E+03;
 -9.9999998E-03;  9.9999998E-03;  0.0000000E+00;1772;  0.0000000E+00;  0.0000000E+00;  0.0000000E+00;  1.0020667E+03;  1.0000000E-01;  1.7121490E+03;0;  0.0000000E+00;  0.0000000E+00;  0.0000000E+00;0; -2.1975361E-01;  4.0000000E+04;  0.0000000E+00;  0.0000000E+00;  4.0000000E+04;  0.0000000E+00;  4.0000000E+04; -2.2901984E-01;  0.0000000E+00;  9.2662312E-03;  4.3270879E+03;
 -9.9999998E-03;  9.9999998E-03;  9.9999998E-03;1773;  0.0000000E+00;  0.0000000E+00;  0.0000000E+00;  1.0020675E+03;  1.0000000E-01;  1.7128405E+03;0;  0.0000000E+00;  0.0000000E+00;  0.0000000E+00;0; -2.1975179E-01;  4.0000000E+04;  0.0000000E+00;  0.0000000E+00;  4.0000000E+04;  0.0000000E+00;  4.0000000E+04; -2.2899874E-01;  0.0000000E+00;  9.2469519E-03;  4.3288296E+03;
 -9.9999998E-03;  9.9999998E-03;  2.0000000E-02;1774;  0.0000000E+00;  0.0000000E+00;  0.0000000E+00;  1.0020710E+03;  1.0000000E-01;  1.7158033E+03;0;  0.0000000E+00;  0.0000000E+00;  0.0000000E+00;0; -2.1974532E-01;  4.0000000E+04;  0.0000000E+00;  0.0000000E+00;  4.0000000E+04;  0.0000000E+00;  4.0000000E+04; -2.2893256E-01;  0.0000000E+00;  9.1872327E-03;  4.3341973E+03;
 -9.9999998E-03;  9.9999998E-03;  2.9999999E-02;1775;  0.0000000E+00;  0.0000000E+00;  0.0000000E+00;  1.0020751E+03;  1.0000000E-01;  1.7191613E+03;0;  0.0000000E+00;  0.0000000E+00;  0.0000000E+00;0; -2.1972929E-01;  4.0000000E+04;  0.0000000E+00;  0.0000000E+00;  4.0000000E+04;  0.0000000E+00;  4.0000000E+04; -2.2881168E-01;  0.0000000E+00;  9.0823928E-03;  4.3436567E+03;
 -9.9999998E-03;  9.9999998E-03;  3.9999999E-02;1776;  0.0000000E+00;  0.0000000E+00;  0.0000000E+00;  1.0020791E+03;  1.0000000E-01;  1.7225192E+03;0;  0.0000000E+00;  0.0000000E+00;  0.0000000E+00;0; -2.1968964E-01;  4.0000000E+04;  0.0000000E+00;  0.0000000E+00;  4.0000000E+04;  0.0000000E+00;  4.0000000E+04; -2.2861744E-01;  0.0000000E+00;  8.9278128E-03;  4.3578721E+03;
 -9.9999998E-03;  9.9999998E-03;  5.0000001E-02;1777;  0.0000000E+00;  0.0000000E+00;  0.0000000E+00;  1.0020825E+03;  1.0000000E-01;  1.7252845E+03;0;  0.0000000E+00;  0.0000000E+00;  0.0000000E+00;0; -2.1959895E-01;  4.0000000E+04;  0.0000000E+00;  0.0000000E+00;  4.0000000E+04;  0.0000000E+00;  4.0000000E+04; -2.2832164E-01;  0.0000000E+00;  8.7226992E-03;  4.3777104E+03;
 -9.9999998E-03;  9.9999998E-03;  5.9999999E-02;1778;  0.0000000E+00;  0.0000000E+00;  0.0000000E+00;  1.0020836E+03;  1.0000000E-01;  1.7261735E+03;0;  0.0000000E+00;  0.0000000E+00;  0.0000000E+00;0; -2.1940985E-01;  4.0000000E+04;  0.0000000E+00;  0.0000000E+00;  4.0000000E+04;  0.0000000E+00;  4.0000000E+04; -2.2788407E-01;  0.0000000E+00;  8.4742215E-03;  4.4042271E+03;
 -1.9000000E-01;  9.9999998E-03;  7.0000000E-02;141;  0.0000000E+00;  0.0000000E+00;  0.0000000E+00;  1.0000000E+03;  1.0000000E-01;  0.0000000E+00;0;  0.0000000E+00;  0.0000000E+00;  0.0000000E+00;0;  0.0000000E+00;  4.0000000E+04;  0.0000000E+00;  0.0000000E+00;  4.0000000E+04;  0.0000000E+00;  4.0000000E+04;  0.0000000E+00;  0.0000000E+00;  0.0000000E+00;  0.0000000E+00;
 -1.9000000E-01;  9.9999998E-03;  7.9999998E-02;142;  0.0000000E+00;  0.0000000E+00;  0.0000000E+00;  1.0000000E+03;  1.0000000E-01;  0.0000000E+00;0;  0.0000000E+00;  0.0000000E+00;  0.0000000E+00;0;  0.0000000E+00;  4.0000000E+04;  0.0000000E+00;  0.0000000E+00;  4.0000000E+04;  0.0000000E+00;  4.0000000E+04;  0.0000000E+00;  0.0000000E+00;  0.0000000E+00;  0.0000000E+00;
 -1.9000000E-01;  9.9999998E-03;  9.0000004E-02;143;  0.0000000E+00;  0.0000000E+00;  0.0000000E+00;  1.0000000E+03;  1.0000000E-01;  0.0000000E+00;0;  0.0000000E+00;  0.0000000E+00;  0.0000000E+00;0;  0.0000000E+00;  4.0000000E+04;  0.0000000E+00;  0.0000000E+00;  4.0000000E+04;  0.0000000E+00;  4.0000000E+04;  0.0000000E+00;  0.0000000E+00;  0.0000000E+00;  0.0000000E+00;
 -1.9000000E-01;  9.9999998E-03;  1.0000000E-01;144;  0.0000000E+00;  0.0000000E+00;  0.0000000E+00;  1.0000000E+03;  1.0000000E-01;  0.0000000E+00;0;  0.0000000E+00;  0.0000000E+00;  0.0000000E+00;0;  0.0000000E+00;  4.0000000E+04;  0.0000000E+00;  0.0000000E+00;  4.0000000E+04;  0.0000000E+00;  4.0000000E+04;  0.0000000E+00;  0.0000000E+00;  0.0000000E+00;  0.0000000E+00;
 -1.9000000E-01;  9.9999998E-03;  1.1000000E-01;145;  0.0000000E+00;  0.0000000E+00;  0.0000000E+00;  1.0000000E+03;  1.0000000E-01;  0.0000000E+00;0;  0.0000000E+00;  0.0000000E+00;  0.0000000E+00;0;  0.0000000E+00;  4.0000000E+04;  0.0000000E+00;  0.0000000E+00;  4.0000000E+04;  0.0000000E+00;  4.0000000E+04;  0.0000000E+00;  0.0000000E+00;  0.0000000E+00;  0.0000000E+00;
 -1.9000000E-01;  9.9999998E-03;  1.2000000E-01;146;  0.0000000E+00;  0.0000000E+00;  0.0000000E+00;  1.0000000E+03;  1.0000000E-01;  0.0000000E+00;0;  0.0000000E+00;  0.0000000E+00;  0.0000000E+00;0;  0.0000000E+00;  4.0000000E+04;  0.0000000E+00;  0.0000000E+00;  4.0000000E+04;  0.0000000E+00;  4.0000000E+04;  0.0000000E+00;  0.0000000E+00;  0.0000000E+00;  0.0000000E+00;
 -1.9000000E-01;  9.9999998E-03;  1.3000000E-01;147;  0.0000000E+00;  0.0000000E+00;  0.0000000E+00;  1.0000000E+03;  1.0000000E-01;  0.0000000E+00;0;  0.0000000E+00;  0.0000000E+00;  0.0000000E+00;0;  0.0000000E+00;  4.0000000E+04;  0.0000000E+00;  0.0000000E+00;  4.0000000E+04;  0.0000000E+00;  4.0000000E+04;  0.0000000E+00;  0.0000000E+00;  0.0000000E+00;  0.0000000E+00;
 -1.9000000E-01;  9.9999998E-03;  1.4000000E-01;148;  0.0000000E+00;  0.0000000E+00;  0.0000000E+00;  1.0000000E+03;  1.0000000E-01;  0.0000000E+00;0;  0.0000000E+00;  0.0000000E+00;  0.0000000E+00;0;  0.0000000E+00;  4.0000000E+04;  0.0000000E+00;  0.0000000E+00;  4.0000000E+04;  0.0000000E+00;  4.0000000E+04;  0.0000000E+00;  0.0000000E+00;  0.0000000E+00;  0.0000000E+00;
 -1.9000000E-01;  9.9999998E-03;  1.5000001E-01;149;  0.0000000E+00;  0.0000000E+00;  0.0000000E+00;  1.0000000E+03;  1.0000000E-01;  0.0000000E+00;0;  0.0000000E+00;  0.0000000E+00;  0.0000000E+00;0;  0.0000000E+00;  4.0000000E+04;  0.0000000E+00;  0.0000000E+00;  4.0000000E+04;  0.0000000E+00;  4.0000000E+04;  0.0000000E+00;  0.0000000E+00;  0.0000000E+00;  0.0000000E+00;
 -1.9000000E-01;  9.9999998E-03;  1.6000000E-01;150;  0.0000000E+00;  0.0000000E+00;  0.0000000E+00;  1.0000000E+03;  1.0000000E-01;  0.0000000E+00;0;  0.0000000E+00;  0.0000000E+00;  0.0000000E+00;0;  0.0000000E+00;  4.0000000E+04;  0.0000000E+00;  0.0000000E+00;  4.0000000E+04;  0.0000000E+00;  4.0000000E+04;  0.0000000E+00;  0.0000000E+00;  0.0000000E+00;  0.0000000E+00;
 -1.9000000E-01;  9.9999998E-03;  1.7000000E-01;151;  0.0000000E+00;  0.0000000E+00;  0.0000000E+00;  1.0000000E+03;  1.0000000E-01;  0.0000000E+00;0;  0.0000000E+00;  0.0000000E+00;  0.0000000E+00;0;  0.0000000E+00;  4.0000000E+04;  0.0000000E+00;  0.0000000E+00;  4.0000000E+04;  0.0000000E+00;  4.0000000E+04;  0.0000000E+00;  0.0000000E+00;  0.0000000E+00;  0.0000000E+00;
 -1.9000000E-01;  9.9999998E-03;  1.8000001E-01;152;  0.0000000E+00;  0.0000000E+00;  0.0000000E+00;  1.0000000E+03;  1.0000000E-01;  0.0000000E+00;0;  0.0000000E+00;  0.0000000E+00;  0.0000000E+00;0;  0.0000000E+00;  4.0000000E+04;  0.0000000E+00;  0.0000000E+00;  4.0000000E+04;  0.0000000E+00;  4.0000000E+04;  0.0000000E+00;  0.0000000E+00;  0.0000000E+00;  0.0000000E+00;
 -1.9000000E-01;  9.9999998E-03;  1.9000000E-01;153;  0.0000000E+00;  0.0000000E+00;  0.0000000E+00;  1.0000000E+03;  1.0000000E-01;  0.0000000E+00;0;  0.0000000E+00;  0.0000000E+00;  0.0000000E+00;0;  0.0000000E+00;  4.0000000E+04;  0.0000000E+00;  0.0000000E+00;  4.0000000E+04;  0.0000000E+00;  4.0000000E+04;  0.0000000E+00;  0.0000000E+00;  0.0000000E+00;  0.0000000E+00;
 -1.9000000E-01;  9.9999998E-03;  2.0000000E-01;154;  0.0000000E+00;  0.0000000E+00;  0.0000000E+00;  1.0000000E+03;  1.0000000E-01;  0.0000000E+00;0;  0.0000000E+00;  0.0000000E+00;  0.0000000E+00;0;  0.0000000E+00;  4.0000000E+04;  0.0000000E+00;  0.0000000E+00;  4.0000000E+04;  0.0000000E+00;  4.0000000E+04;  0.0000000E+00;  0.0000000E+00;  0.0000000E+00;  0.0000000E+00;
 -1.9000000E-01;  9.9999998E-03;  2.0999999E-01;155;  0.0000000E+00;  0.0000000E+00;  0.0000000E+00;  1.0000000E+03;  1.0000000E-01;  0.0000000E+00;0;  0.0000000E+00;  0.0000000E+00;  0.0000000E+00;0;  0.0000000E+00;  4.0000000E+04;  0.0000000E+00;  0.0000000E+00;  4.0000000E+04;  0.0000000E+00;  4.0000000E+04;  0.0000000E+00;  0.0000000E+00;  0.0000000E+00;  0.0000000E+00;
 -1.9000000E-01;  9.9999998E-03;  2.2000000E-01;156;  0.0000000E+00;  0.0000000E+00;  0.0000000E+00;  1.0000000E+03;  1.0000000E-01;  0.0000000E+00;0;  0.0000000E+00;  0.0000000E+00;  0.0000000E+00;0;  0.0000000E+00;  4.0000000E+04;  0.0000000E+00;  0.0000000E+00;  4.0000000E+04;  0.0000000E+00;  4.0000000E+04;  0.0000000E+00;  0.0000000E+00;  0.0000000E+00;  0.0000000E+00;
 -1.9000000E-01;  9.9999998E-03;  2.3000000E-01;157;  0.0000000E+00;  0.0000000E+00;  0.0000000E+00;  1.0000000E+03;  1.0000000E-01;  0.0000000E+00;0;  0.0000000E+00;  0.0000000E+00;  0.0000000E+00;0;  0.0000000E+00;  4.0000000E+04;  0.0000000E+00;  0.0000000E+00;  4.0000000E+04;  0.0000000E+00;  4.0000000E+04;  0.0000000E+00;  0.0000000E+00;  0.0000000E+00;  0.0000000E+00;
 -1.8000001E-01;  9.9999998E-03;  7.0000000E-02;232;  0.0000000E+00;  0.0000000E+00;  0.0000000E+00;  1.0000000E+03;  1.0000000E-01;  0.0000000E+00;0;  0.0000000E+00;  0.0000000E+00;  0.0000000E+00;0;  0.0000000E+00;  4.0000000E+04;  0.0000000E+00;  0.0000000E+00;  4.0000000E+04;  0.0000000E+00;  4.0000000E+04;  0.0000000E+00;  0.0000000E+00;  0.0000000E+00;  0.0000000E+00;
 -1.8000001E-01;  9.9999998E-03;  7.9999998E-02;233;  0.0000000E+00;  0.0000000E+00;  0.0000000E+00;  1.0000000E+03;  1.0000000E-01;  0.0000000E+00;0;  0.0000000E+00;  0.0000000E+00;  0.0000000E+00;0;  0.0000000E+00;  4.0000000E+04;  0.0000000E+00;  0.0000000E+00;  4.0000000E+04;  0.0000000E+00;  4.0000000E+04;  0.0000000E+00;  0.0000000E+00;  0.0000000E+00;  0.0000000E+00;
 -1.8000001E-01;  9.9999998E-03;  9.0000004E-02;234;  0.0000000E+00;  0.0000000E+00;  0.0000000E+00;  1.0000000E+03;  1.0000000E-01;  0.0000000E+00;0;  0.0000000E+00;  0.0000000E+00;  0.0000000E+00;0;  0.0000000E+00;  4.0000000E+04;  0.0000000E+00;  0.0000000E+00;  4.0000000E+04;  0.0000000E+00;  4.0000000E+04;  0.0000000E+00;  0.0000000E+00;  0.0000000E+00;  0.0000000E+00;
 -1.8000001E-01;  9.9999998E-03;  1.0000000E-01;235;  0.0000000E+00;  0.0000000E+00;  0.0000000E+00;  1.0000000E+03;  1.0000000E-01;  0.0000000E+00;0;  0.0000000E+00;  0.0000000E+00;  0.0000000E+00;0;  0.0000000E+00;  4.0000000E+04;  0.0000000E+00;  0.0000000E+00;  4.0000000E+04;  0.0000000E+00;  4.0000000E+04;  0.0000000E+00;  0.0000000E+00;  0.0000000E+00;  0.0000000E+00;
 -1.8000001E-01;  9.9999998E-03;  1.1000000E-01;236;  0.0000000E+00;  0.0000000E+00;  0.0000000E+00;  1.0000000E+03;  1.0000000E-01;  0.0000000E+00;0;  0.0000000E+00;  0.0000000E+00;  0.0000000E+00;0;  0.0000000E+00;  4.0000000E+04;  0.0000000E+00;  0.0000000E+00;  4.0000000E+04;  0.0000000E+00;  4.0000000E+04;  0.0000000E+00;  0.0000000E+00;  0.0000000E+00;  0.0000000E+00;
 -1.8000001E-01;  9.9999998E-03;  1.2000000E-01;237;  0.0000000E+00;  0.0000000E+00;  0.0000000E+00;  1.0000000E+03;  1.0000000E-01;  0.0000000E+00;0;  0.0000000E+00;  0.0000000E+00;  0.0000000E+00;0;  0.0000000E+00;  4.0000000E+04;  0.0000000E+00;  0.0000000E+00;  4.0000000E+04;  0.0000000E+00;  4.0000000E+04;  0.0000000E+00;  0.0000000E+00;  0.0000000E+00;  0.0000000E+00;
 -1.8000001E-01;  9.9999998E-03;  1.3000000E-01;238;  0.0000000E+00;  0.0000000E+00;  0.0000000E+00;  1.0000000E+03;  1.0000000E-01;  0.0000000E+00;0;  0.0000000E+00;  0.0000000E+00;  0.0000000E+00;0;  0.0000000E+00;  4.0000000E+04;  0.0000000E+00;  0.0000000E+00;  4.0000000E+04;  0.0000000E+00;  4.0000000E+04;  0.0000000E+00;  0.0000000E+00;  0.0000000E+00;  0.0000000E+00;
 -1.8000001E-01;  9.9999998E-03;  1.4000000E-01;239;  0.0000000E+00;  0.0000000E+00;  0.0000000E+00;  1.0000000E+03;  1.0000000E-01;  0.0000000E+00;0;  0.0000000E+00;  0.0000000E+00;  0.0000000E+00;0;  0.0000000E+00;  4.0000000E+04;  0.0000000E+00;  0.0000000E+00;  4.0000000E+04;  0.0000000E+00;  4.0000000E+04;  0.0000000E+00;  0.0000000E+00;  0.0000000E+00;  0.0000000E+00;
 -1.8000001E-01;  9.9999998E-03;  1.5000001E-01;240;  0.0000000E+00;  0.0000000E+00;  0.0000000E+00;  1.0000000E+03;  1.0000000E-01;  0.0000000E+00;0;  0.0000000E+00;  0.0000000E+00;  0.0000000E+00;0;  0.0000000E+00;  4.0000000E+04;  0.0000000E+00;  0.0000000E+00;  4.0000000E+04;  0.0000000E+00;  4.0000000E+04;  0.0000000E+00;  0.0000000E+00;  0.0000000E+00;  0.0000000E+00;
 -1.8000001E-01;  9.9999998E-03;  1.6000000E-01;241;  0.0000000E+00;  0.0000000E+00;  0.0000000E+00;  1.0000000E+03;  1.0000000E-01;  0.0000000E+00;0;  0.0000000E+00;  0.0000000E+00;  0.0000000E+00;0;  0.0000000E+00;  4.0000000E+04;  0.0000000E+00;  0.0000000E+00;  4.0000000E+04;  0.0000000E+00;  4.0000000E+04;  0.0000000E+00;  0.0000000E+00;  0.0000000E+00;  0.0000000E+00;
 -1.8000001E-01;  9.9999998E-03;  1.7000000E-01;242;  0.0000000E+00;  0.0000000E+00;  0.0000000E+00;  1.0000000E+03;  1.0000000E-01;  0.0000000E+00;0;  0.0000000E+00;  0.0000000E+00;  0.0000000E+00;0;  0.0000000E+00;  4.0000000E+04;  0.0000000E+00;  0.0000000E+00;  4.0000000E+04;  0.0000000E+00;  4.0000000E+04;  0.0000000E+00;  0.0000000E+00;  0.0000000E+00;  0.0000000E+00;
 -1.8000001E-01;  9.9999998E-03;  1.8000001E-01;243;  0.0000000E+00;  0.0000000E+00;  0.0000000E+00;  1.0000000E+03;  1.0000000E-01;  0.0000000E+00;0;  0.0000000E+00;  0.0000000E+00;  0.0000000E+00;0;  0.0000000E+00;  4.0000000E+04;  0.0000000E+00;  0.0000000E+00;  4.0000000E+04;  0.0000000E+00;  4.0000000E+04;  0.0000000E+00;  0.0000000E+00;  0.0000000E+00;  0.0000000E+00;
 -1.8000001E-01;  9.9999998E-03;  1.9000000E-01;244;  0.0000000E+00;  0.0000000E+00;  0.0000000E+00;  1.0000000E+03;  1.0000000E-01;  0.0000000E+00;0;  0.0000000E+00;  0.0000000E+00;  0.0000000E+00;0;  0.0000000E+00;  4.0000000E+04;  0.0000000E+00;  0.0000000E+00;  4.0000000E+04;  0.0000000E+00;  4.0000000E+04;  0.0000000E+00;  0.0000000E+00;  0.0000000E+00;  0.0000000E+00;
 -1.8000001E-01;  9.9999998E-03;  2.0000000E-01;245;  0.0000000E+00;  0.0000000E+00;  0.0000000E+00;  1.0000000E+03;  1.0000000E-01;  0.0000000E+00;0;  0.0000000E+00;  0.0000000E+00;  0.0000000E+00;0;  0.0000000E+00;  4.0000000E+04;  0.0000000E+00;  0.0000000E+00;  4.0000000E+04;  0.0000000E+00;  4.0000000E+04;  0.0000000E+00;  0.0000000E+00;  0.0000000E+00;  0.0000000E+00;
 -1.8000001E-01;  9.9999998E-03;  2.0999999E-01;246;  0.0000000E+00;  0.0000000E+00;  0.0000000E+00;  1.0000000E+03;  1.0000000E-01;  0.0000000E+00;0;  0.0000000E+00;  0.0000000E+00;  0.0000000E+00;0;  0.0000000E+00;  4.0000000E+04;  0.0000000E+00;  0.0000000E+00;  4.0000000E+04;  0.0000000E+00;  4.0000000E+04;  0.0000000E+00;  0.0000000E+00;  0.0000000E+00;  0.0000000E+00;
 -1.8000001E-01;  9.9999998E-03;  2.2000000E-01;247;  0.0000000E+00;  0.0000000E+00;  0.0000000E+00;  1.0000000E+03;  1.0000000E-01;  0.0000000E+00;0;  0.0000000E+00;  0.0000000E+00;  0.0000000E+00;0;  0.0000000E+00;  4.0000000E+04;  0.0000000E+00;  0.0000000E+00;  4.0000000E+04;  0.0000000E+00;  4.0000000E+04;  0.0000000E+00;  0.0000000E+00;  0.0000000E+00;  0.0000000E+00;
 -1.8000001E-01;  9.9999998E-03;  2.3000000E-01;248;  0.0000000E+00;  0.0000000E+00;  0.0000000E+00;  1.0000000E+03;  1.0000000E-01;  0.0000000E+00;0;  0.0000000E+00;  0.0000000E+00;  0.0000000E+00;0;  0.0000000E+00;  4.0000000E+04;  0.0000000E+00;  0.0000000E+00;  4.0000000E+04;  0.0000000E+00;  4.0000000E+04;  0.0000000E+00;  0.0000000E+00;  0.0000000E+00;  0.0000000E+00;
 -1.7000000E-01;  9.9999998E-03;  7.0000000E-02;323;  0.0000000E+00;  0.0000000E+00;  0.0000000E+00;  1.0000000E+03;  1.0000000E-01;  0.0000000E+00;0;  0.0000000E+00;  0.0000000E+00;  0.0000000E+00;0;  0.0000000E+00;  4.0000000E+04;  0.0000000E+00;  0.0000000E+00;  4.0000000E+04;  0.0000000E+00;  4.0000000E+04;  0.0000000E+00;  0.0000000E+00;  0.0000000E+00;  2.0677076E-09;
 -1.7000000E-01;  9.9999998E-03;  7.9999998E-02;324;  0.0000000E+00;  0.0000000E+00;  0.0000000E+00;  1.0000000E+03;  1.0000000E-01;  0.0000000E+00;0;  0.0000000E+00;  0.0000000E+00;  0.0000000E+00;0;  0.0000000E+00;  4.0000000E+04;  0.0000000E+00;  0.0000000E+00;  4.0000000E+04;  0.0000000E+00;  4.0000000E+04;  0.0000000E+00;  0.0000000E+00;  0.0000000E+00;  2.0276110E-09;
 -1.7000000E-01;  9.9999998E-03;  9.0000004E-02;325;  0.0000000E+00;  0.0000000E+00;  0.0000000E+00;  1.0000000E+03;  1.0000000E-01;  0.0000000E+00;0;  0.0000000E+00;  0.0000000E+00;  0.0000000E+00;0;  0.0000000E+00;  4.0000000E+04;  0.0000000E+00;  0.0000000E+00;  4.0000000E+04;  0.0000000E+00;  4.0000000E+04;  0.0000000E+00;  0.0000000E+00;  0.0000000E+00;  1.9964661E-09;
 -1.7000000E-01;  9.9999998E-03;  1.0000000E-01;326;  0.0000000E+00;  0.0000000E+00;  0.0000000E+00;  1.0000000E+03;  1.0000000E-01;  0.0000000E+00;0;  0.0000000E+00;  0.0000000E+00;  0.0000000E+00;0;  0.0000000E+00;  4.0000000E+04;  0.0000000E+00;  0.0000000E+00;  4.0000000E+04;  0.0000000E+00;  4.0000000E+04;  0.0000000E+00;  0.0000000E+00;  0.0000000E+00;  1.9806543E-09;
 -1.7000000E-01;  9.9999998E-03;  1.1000000E-01;327;  0.0000000E+00;  0.0000000E+00;  0.0000000E+00;  1.0000000E+03;  1.0000000E-01;  0.0000000E+00;0;  0.0000000E+00;  0.0000000E+00;  0.0000000E+00;0;  0.0000000E+00;  4.0000000E+04;  0.0000000E+00;  0.0000000E+00;  4.0000000E+04;  0.0000000E+00;  4.0000000E+04;  0.0000000E+00;  0.0000000E+00;  0.0000000E+00;  1.9613826E-09;
 -1.7000000E-01;  9.9999998E-03;  1.2000000E-01;328;  0.0000000E+00;  0.0000000E+00;  0.0000000E+00;  1.0000000E+03;  1.0000000E-01;  0.0000000E+00;0;  0.0000000E+00;  0.0000000E+00;  0.0000000E+00;0;  0.0000000E+00;  4.0000000E+04;  0.0000000E+00;  0.0000000E+00;  4.0000000E+04;  0.0000000E+00;  4.0000000E+04;  0.0000000E+00;  0.0000000E+00;  0.0000000E+00;  1.9547131E-09;
 -1.7000000E-01;  9.9999998E-03;  1.3000000E-01;329;  0.0000000E+00;  0.0000000E+00;  0.0000000E+00;  1.0000000E+03;  1.0000000E-01;  0.0000000E+00;0;  0.0000000E+00;  0.0000000E+00;  0.0000000E+00;0;  0.0000000E+00;  4.0000000E+04;  0.0000000E+00;  0.0000000E+00;  4.0000000E+04;  0.0000000E+00;  4.0000000E+04;  0.0000000E+00;  0.0000000E+00;  0.0000000E+00;  1.9304123E-09;
 -1.7000000E-01;  9.9999998E-03;  1.4000000E-01;330;  0.0000000E+00;  0.0000000E+00;  0.0000000E+00;  1.0000000E+03;  1.0000000E-01;  0.0000000E+00;0;  0.0000000E+00;  0.0000000E+00;  0.0000000E+00;0;  0.0000000E+00;  4.0000000E+04;  0.0000000E+00;  0.0000000E+00;  4.0000000E+04;  0.0000000E+00;  4.0000000E+04;  0.0000000E+00;  0.0000000E+00;  0.0000000E+00;  1.9071280E-09;
 -1.7000000E-01;  9.9999998E-03;  1.5000001E-01;331;  0.0000000E+00;  0.0000000E+00;  0.0000000E+00;  1.0000000E+03;  1.0000000E-01;  0.0000000E+00;0;  0.0000000E+00;  0.0000000E+00;  0.0000000E+00;0;  0.0000000E+00;  4.0000000E+04;  0.0000000E+00;  0.0000000E+00;  4.0000000E+04;  0.0000000E+00;  4.0000000E+04;  0.0000000E+00;  0.0000000E+00;  0.0000000E+00;  1.8279691E-09;
 -1.7000000E-01;  9.9999998E-03;  1.6000000E-01;332;  0.0000000E+00;  0.0000000E+00;  0.0000000E+00;  1.0000000E+03;  1.0000000E-01;  0.0000000E+00;0;  0.0000000E+00;  0.0000000E+00;  0.0000000E+00;0;  0.0000000E+00;  4.0000000E+04;  0.0000000E+00;  0.0000000E+00;  4.0000000E+04;  0.0000000E+00;  4.0000000E+04;  0.0000000E+00;  0.0000000E+00;  0.0000000E+00;  1.7068014E-09;
 -1.7000000E-01;  9.9999998E-03;  1.7000000E-01;333;  0.0000000E+00;  0.0000000E+00;  0.0000000E+00;  1.0000000E+03;  1.0000000E-01;  0.0000000E+00;0;  0.0000000E+00;  0.0000000E+00;  0.0000000E+00;0;  0.0000000E+00;  4.0000000E+04;  0.0000000E+00;  0.0000000E+00;  4.0000000E+04;  0.0000000E+00;  4.0000000E+04;  0.0000000E+00;  0.0000000E+00;  0.0000000E+00;  1.5737418E-09;
 -1.7000000E-01;  9.9999998E-03;  1.8000001E-01;334;  0.0000000E+00;  0.0000000E+00;  0.0000000E+00;  1.0000000E+03;  1.0000000E-01;  0.0000000E+00;0;  0.0000000E+00;  0.0000000E+00;  0.0000000E+00;0;  0.0000000E+00;  4.0000000E+04;  0.0000000E+00;  0.0000000E+00;  4.0000000E+04;  0.0000000E+00;  4.0000000E+04;  0.0000000E+00;  0.0000000E+00;  0.0000000E+00;  1.4536757E-09;
 -1.7000000E-01;  9.9999998E-03;  1.9000000E-01;335;  0.0000000E+00;  0.0000000E+00;  0.0000000E+00;  1.0000000E+03;  1.0000000E-01;  0.0000000E+00;0;  0.0000000E+00;  0.0000000E+00;  0.0000000E+00;0;  0.0000000E+00;  4.0000000E+04;  0.0000000E+00;  0.0000000E+00;  4.0000000E+04;  0.0000000E+00;  4.0000000E+04;  0.0000000E+00;  0.0000000E+00;  0.0000000E+00;  1.3804979E-09;
 -1.7000000E-01;  9.9999998E-03;  2.0000000E-01;336;  0.0000000E+00;  0.0000000E+00;  0.0000000E+00;  1.0000000E+03;  1.0000000E-01;  0.0000000E+00;0;  0.0000000E+00;  0.0000000E+00;  0.0000000E+00;0;  0.0000000E+00;  4.0000000E+04;  0.0000000E+00;  0.0000000E+00;  4.0000000E+04;  0.0000000E+00;  4.0000000E+04;  0.0000000E+00;  0.0000000E+00;  0.0000000E+00;  1.3572699E-09;
 -1.7000000E-01;  9.9999998E-03;  2.0999999E-01;337;  0.0000000E+00;  0.0000000E+00;  0.0000000E+00;  1.0000000E+03;  1.0000000E-01;  0.0000000E+00;0;  0.0000000E+00;  0.0000000E+00;  0.0000000E+00;0;  0.0000000E+00;  4.0000000E+04;  0.0000000E+00;  0.0000000E+00;  4.0000000E+04;  0.0000000E+00;  4.0000000E+04;  0.0000000E+00;  0.0000000E+00;  0.0000000E+00;  1.3090043E-09;
 -1.7000000E-01;  9.9999998E-03;  2.2000000E-01;338;  0.0000000E+00;  0.0000000E+00;  0.0000000E+00;  1.0000000E+03;  1.0000000E-01;  0.0000000E+00;0;  0.0000000E+00;  0.0000000E+00;  0.0000000E+00;0;  0.0000000E+00;  4.0000000E+04;  0.0000000E+00;  0.0000000E+00;  4.0000000E+04;  0.0000000E+00;  4.0000000E+04;  0.0000000E+00;  0.0000000E+00;  0.0000000E+00;  1.1702984E-09;
 -1.7000000E-01;  9.9999998E-03;  2.3000000E-01;339;  0.0000000E+00;  0.0000000E+00;  0.0000000E+00;  1.0000000E+03;  1.0000000E-01;  0.0000000E+00;0;  0.0000000E+00;  0.0000000E+00;  0.0000000E+00;0;  0.0000000E+00;  4.0000000E+04;  0.0000000E+00;  0.0000000E+00;  4.0000000E+04;  0.0000000E+00;  4.0000000E+04;  0.0000000E+00;  0.0000000E+00;  0.0000000E+00;  9.6134622E-10;
 -1.6000000E-01;  9.9999998E-03;  7.0000000E-02;414;  0.0000000E+00;  0.0000000E+00;  0.0000000E+00;  1.0000000E+03;  1.0000000E-01;  0.0000000E+00;0;  0.0000000E+00;  0.0000000E+00;  0.0000000E+00;0; -2.7097087E-06;  4.0000000E+04;  0.0000000E+00;  0.0000000E+00;  4.0000000E+04;  0.0000000E+00;  4.0000000E+04; -2.7133140E-06;  0.0000000E+00;  3.6051853E-09;  2.5634649E-01;
 -1.6000000E-01;  9.9999998E-03;  7.9999998E-02;415;  0.0000000E+00;  0.0000000E+00;  0.0000000E+00;  1.0000000E+03;  1.0000000E-01;  0.0000000E+00;0;  0.0000000E+00;  0.0000000E+00;  0.0000000E+00;0; -2.6744008E-06;  4.0000000E+04;  0.0000000E+00;  0.0000000E+00;  4.0000000E+04;  0.0000000E+00;  4.0000000E+04; -2.6776356E-06;  0.0000000E+00;  3.2348828E-09;  2.5731793E-01;
 -1.6000000E-01;  9.9999998E-03;  9.0000004E-02;416;  0.0000000E+00;  0.0000000E+00;  0.0000000E+00;  1.0000000E+03;  1.0000000E-01;  0.0000000E+00;0;  0.0000000E+00;  0.0000000E+00;  0.0000000E+00;0; -2.6354305E-06;  4.0000000E+04;  0.0000000E+00;  0.0000000E+00;  4.0000000E+04;  0.0000000E+00;  4.0000000E+04; -2.6383111E-06;  0.0000000E+00;  2.8805804E-09;  2.5945029E-01;
 -1.6000000E-01;  9.9999998E-03;  1.0000000E-01;417;  0.0000000E+00;  0.0000000E+00;  0.0000000E+00;  1.0000000E+03;  1.0000000E-01;  0.0000000E+00;0;  0.0000000E+00;  0.0000000E+00;  0.0000000E+00;0; -2.5918498E-06;  4.0000000E+04;  0.0000000E+00;  0.0000000E+00;  4.0000000E+04;  0.0000000E+00;  4.0000000E+04; -2.5944778E-06;  0.0000000E+00;  2.6280715E-09;  2.6302207E-01;
 -1.6000000E-01;  9.9999998E-03;  1.1000000E-01;418;  0.0000000E+00;  0.0000000E+00;  0.0000000E+00;  1.0000000E+03;  1.0000000E-01;  0.0000000E+00;0;  0.0000000E+00;  0.0000000E+00;  0.0000000E+00;0; -2.5425848E-06;  4.0000000E+04;  0.0000000E+00;  0.0000000E+00;  4.0000000E+04;  0.0000000E+00;  4.0000000E+04; -2.5451704E-06;  0.0000000E+00;  2.5857794E-09;  2.6804796E-01;
 -1.6000000E-01;  9.9999998E-03;  1.2000000E-01;419;  0.0000000E+00;  0.0000000E+00;  0.0000000E+00;  1.0000000E+03;  1.0000000E-01;  0.0000000E+00;0;  0.0000000E+00;  0.0000000E+00;  0.0000000E+00;0; -2.4866722E-06;  4.0000000E+04;  0.0000000E+00;  0.0000000E+00;  4.0000000E+04;  0.0000000E+00;  4.0000000E+04; -2.4895605E-06;  0.0000000E+00;  2.8883584E-09;  2.7416730E-01;
 -1.6000000E-01;  9.9999998E-03;  1.3000000E-01;420;  0.0000000E+00;  0.0000000E+00;  0.0000000E+00;  1.0000000E+03;  1.0000000E-01;  0.0000000E+00;0;  0.0000000E+00;  0.0000000E+00;  0.0000000E+00;0; -2.4235057E-06;  4.0000000E+04;  0.0000000E+00;  0.0000000E+00;  4.0000000E+04;  0.0000000E+00;  4.0000000E+04; -2.4272049E-06;  0.0000000E+00;  3.6991781E-09;  2.8068033E-01;
 -1.6000000E-01;  9.9999998E-03;  1.4000000E-01;421;  0.0000000E+00;  0.0000000E+00;  0.0000000E+00;  1.0000000E+03;  1.0000000E-01;  0.0000000E+00;0;  0.0000000E+00;  0.0000000E+00;  0.0000000E+00;0; -2.3530347E-06;  4.0000000E+04;  0.0000000E+00;  0.0000000E+00;  4.0000000E+04;  0.0000000E+00;  4.0000000E+04; -2.3582404E-06;  0.0000000E+00;  5.2057496E-09;  2.8670141E-01;
 -1.6000000E-01;  9.9999998E-03;  1.5000001E-01;422;  0.0000000E+00;  0.0000000E+00;  0.0000000E+00;  1.0000000E+03;  1.0000000E-01;  0.0000000E+00;0;  0.0000000E+00;  0.0000000E+00;  0.0000000E+00;0; -2.2759725E-06;  4.0000000E+04;  0.0000000E+00;  0.0000000E+00;  4.0000000E+04;  0.0000000E+00;  4.0000000E+04; -2.2836095E-06;  0.0000000E+00;  7.6370119E-09;  2.9133528E-01;
 -1.6000000E-01;  9.9999998E-03;  1.6000000E-01;423;  0.0000000E+00;  0.0000000E+00;  0.0000000E+00;  1.0000000E+03;  1.0000000E-01;  0.0000000E+00;0;  0.0000000E+00;  0.0000000E+00;  0.0000000E+00;0; -2.1936839E-06;  4.0000000E+04;  0.0000000E+00;  0.0000000E+00;  4.0000000E+04;  0.0000000E+00;  4.0000000E+04; -2.2049710E-06;  0.0000000E+00;  1.1287101E-08;  2.9376578E-01;
 -1.6000000E-01;  9.9999998E-03;  1.7000000E-01;424;  0.0000000E+00;  0.0000000E+00;  0.0000000E+00;  1.0000000E+03;  1.0000000E-01;  0.0000000E+00;0;  0.0000000E+00;  0.0000000E+00;  0.0000000E+00;0; -2.1081328E-06;  4.0000000E+04;  0.0000000E+00;  0.0000000E+00;  4.0000000E+04;  0.0000000E+00;  4.0000000E+04; -2.1246065E-06;  0.0000000E+00;  1.6473640E-08;  2.9331127E-01;
 -1.6000000E-01;  9.9999998E-03;  1.8000001E-01;425;  0.0000000E+00;  0.0000000E+00;  0.0000000E+00;  1.0000000E+03;  1.0000000E-01;  0.0000000E+00;0;  0.0000000E+00;  0.0000000E+00;  0.0000000E+00;0; -2.0220587E-06;  4.0000000E+04;  0.0000000E+00;  0.0000000E+00;  4.0000000E+04;  0.0000000E+00;  4.0000000E+04; -2.0454504E-06;  0.0000000E+00;  2.3391710E-08;  2.8954473E-01;
 -1.6000000E-01;  9.9999998E-03;  1.9000000E-01;426;  0.0000000E+00;  0.0000000E+00;  0.0000000E+00;  1.0000000E+03;  1.0000000E-01;  0.0000000E+00;0;  0.0000000E+00;  0.0000000E+00;  0.0000000E+00;0; -1.9395566E-06;  4.0000000E+04;  0.0000000E+00;  0.0000000E+00;  4.0000000E+04;  0.0000000E+00;  4.0000000E+04; -1.9714707E-06;  0.0000000E+00;  3.1914198E-08;  2.8243017E-01;
 -1.6000000E-01;  9.9999998E-03;  2.0000000E-01;427;  0.0000000E+00;  0.0000000E+00;  0.0000000E+00;  1.0000000E+03;  1.0000000E-01;  0.0000000E+00;0;  0.0000000E+00;  0.0000000E+00;  0.0000000E+00;0; -1.8668885E-06;  4.0000000E+04;  0.0000000E+00;  0.0000000E+00;  4.0000000E+04;  0.0000000E+00;  4.0000000E+04; -1.9084084E-06;  0.0000000E+00;  4.1519876E-08;  2.7236989E-01;
 -1.6000000E-01;  9.9999998E-03;  2.0999999E-01;428;  0.0000000E+00;  0.0000000E+00;  0.0000000E+00;  1.0000000E+03;  1.0000000E-01;  0.0000000E+00;0;  0.0000000E+00;  0.0000000E+00;  0.0000000E+00;0; -1.8133143E-06;  4.0000000E+04;  0.0000000E+00;  0.0000000E+00;  4.0000000E+04;  0.0000000E+00;  4.0000000E+04; -1.8645858E-06;  0.0000000E+00;  5.1271460E-08;  2.6007050E-01;
 -1.6000000E-01;  9.9999998E-03;  2.2000000E-01;429;  0.0000000E+00;  0.0000000E+00;  0.0000000E+00;  1.0000000E+03;  1.0000000E-01;  0.0000000E+00;0;  0.0000000E+00;  0.0000000E+00;  0.0000000E+00;0; -1.7919621E-06;  4.0000000E+04;  0.0000000E+00;  0.0000000E+00;  4.0000000E+04;  0.0000000E+00;  4.0000000E+04; -1.8517958E-06;  0.0000000E+00;  5.9833674E-08;  2.4607766E-01;
 -1.6000000E-01;  9.9999998E-03;  2.3000000E-01;430;  0.0000000E+00;  0.0000000E+00;  0.0000000E+00;  1.0000000E+03;  1.0000000E-01;  0.0000000E+00;0;  0.0000000E+00;  0.0000000E+00;  0.0000000E+00;0; -1.8195050E-06;  4.0000000E+04;  0.0000000E+00;  0.0000000E+00;  4.0000000E+04;  0.0000000E+00;  4.0000000E+04; -1.8849062E-06;  0.0000000E+00;  6.5401167E-08;  2.2979324E-01;
 -1.5000001E-01;  9.9999998E-03;  7.0000000E-02;505;  0.0000000E+00;  0.0000000E+00;  0.0000000E+00;  1.0000000E+03;  1.0000000E-01;  0.0000000E+00;0;  0.0000000E+00;  0.0000000E+00;  0.0000000E+00;0; -7.0654998E-05;  4.0000000E+04;  0.0000000E+00;  0.0000000E+00;  4.0000000E+04;  0.0000000E+00;  4.0000000E+04; -7.0913491E-05;  0.0000000E+00;  2.5849099E-07;  3.7671657E+00;
 -1.5000001E-01;  9.9999998E-03;  7.9999998E-02;506;  0.0000000E+00;  0.0000000E+00;  0.0000000E+00;  1.0000000E+03;  1.0000000E-01;  0.0000000E+00;0;  0.0000000E+00;  0.0000000E+00;  0.0000000E+00;0; -7.0151284E-05;  4.0000000E+04;  0.0000000E+00;  0.0000000E+00;  4.0000000E+04;  0.0000000E+00;  4.0000000E+04; -7.0394417E-05;  0.0000000E+00;  2.4313354E-07;  3.7805502E+00;
 -1.5000001E-01;  9.9999998E-03;  9.0000004E-02;507;  0.0000000E+00;  0.0000000E+00;  0.0000000E+00;  1.0000000E+03;  1.0000000E-01;  0.0000000E+00;0;  0.0000000E+00;  0.0000000E+00;  0.0000000E+00;0; -6.9533700E-05;  4.0000000E+04;  0.0000000E+00;  0.0000000E+00;  4.0000000E+04;  0.0000000E+00;  4.0000000E+04; -6.9763533E-05;  0.0000000E+00;  2.2983575E-07;  3.8220718E+00;
 -1.5000001E-01;  9.9999998E-03;  1.0000000E-01;508;  0.0000000E+00;  0.0000000E+00;  0.0000000E+00;  1.0000000E+03;  1.0000000E-01;  0.0000000E+00;0;  0.0000000E+00;  0.0000000E+00;  0.0000000E+00;0; -6.8746936E-05;  4.0000000E+04;  0.0000000E+00;  0.0000000E+00;  4.0000000E+04;  0.0000000E+00;  4.0000000E+04; -6.8970119E-05;  0.0000000E+00;  2.2318346E-07;  3.8963523E+00;
 -1.5000001E-01;  9.9999998E-03;  1.1000000E-01;509;  0.0000000E+00;  0.0000000E+00;  0.0000000E+00;  1.0000000E+03;  1.0000000E-01;  0.0000000E+00;0;  0.0000000E+00;  0.0000000E+00;  0.0000000E+00;0; -6.7724221E-05;  4.0000000E+04;  0.0000000E+00;  0.0000000E+00;  4.0000000E+04;  0.0000000E+00;  4.0000000E+04; -6.7953348E-05;  0.0000000E+00;  2.2912928E-07;  4.0022283E+00;
 -1.5000001E-01;  9.9999998E-03;  1.2000000E-01;510;  0.0000000E+00;  0.0000000E+00;  0.0000000E+00;  1.0000000E+03;  1.0000000E-01;  0.0000000E+00;0;  0.0000000E+00;  0.0000000E+00;  0.0000000E+00;0; -6.6394547E-05;  4.0000000E+04;  0.0000000E+00;  0.0000000E+00;  4.0000000E+04;  0.0000000E+00;  4.0000000E+04; -6.6649118E-05;  0.0000000E+00;  2.5456907E-07;  4.1321492E+00;
 -1.5000001E-01;  9.9999998E-03;  1.3000000E-01;511;  0.0000000E+00;  0.0000000E+00;  0.0000000E+00;  1.0000000E+03;  1.0000000E-01;  0.0000000E+00;0;  0.0000000E+00;  0.0000000E+00;  0.0000000E+00;0; -6.4691769E-05;  4.0000000E+04;  0.0000000E+00;  0.0000000E+00;  4.0000000E+04;  0.0000000E+00;  4.0000000E+04; -6.4998501E-05;  0.0000000E+00;  3.0673334E-07;  4.2732167E+00;
 -1.5000001E-01;  9.9999998E-03;  1.4000000E-01;512;  0.0000000E+00;  0.0000000E+00;  0.0000000E+00;  1.0000000E+03;  1.0000000E-01;  0.0000000E+00;0;  0.0000000E+00;  0.0000000E+00;  0.0000000E+00;0; -6.2564694E-05;  4.0000000E+04;  0.0000000E+00;  0.0000000E+00;  4.0000000E+04;  0.0000000E+00;  4.0000000E+04; -6.2956780E-05;  0.0000000E+00;  3.9208771E-07;  4.4093256E+00;
 -1.5000001E-01;  9.9999998E-03;  1.5000001E-01;513;  0.0000000E+00;  0.0000000E+00;  0.0000000E+00;  1.0000000E+03;  1.0000000E-01;  0.0000000E+00;0;  0.0000000E+00;  0.0000000E+00;  0.0000000E+00;0; -5.9988619E-05;  4.0000000E+04;  0.0000000E+00;  0.0000000E+00;  4.0000000E+04;  0.0000000E+00;  4.0000000E+04; -6.0502880E-05;  0.0000000E+00;  5.1426031E-07;  4.5239410E+00;
 -1.5000001E-01;  9.9999998E-03;  1.6000000E-01;514;  0.0000000E+00;  0.0000000E+00;  0.0000000E+00;  1.0000000E+03;  1.0000000E-01;  0.0000000E+00;0;  0.0000000E+00;  0.0000000E+00;  0.0000000E+00;0; -5.6976980E-05;  4.0000000E+04;  0.0000000E+00;  0.0000000E+00;  4.0000000E+04;  0.0000000E+00;  4.0000000E+04; -5.7648052E-05;  0.0000000E+00;  6.7107277E-07;  4.6025548E+00;
 -1.5000001E-01;  9.9999998E-03;  1.7000000E-01;515;  0.0000000E+00;  0.0000000E+00;  0.0000000E+00;  1.0000000E+03;  1.0000000E-01;  0.0000000E+00;0;  0.0000000E+00;  0.0000000E+00;  0.0000000E+00;0; -5.3592190E-05;  4.0000000E+04;  0.0000000E+00;  0.0000000E+00;  4.0000000E+04;  0.0000000E+00;  4.0000000E+04; -5.4444095E-05;  0.0000000E+00;  8.5190419E-07;  4.6342936E+00;
 -1.5000001E-01;  9.9999998E-03;  1.8000001E-01;516;  0.0000000E+00;  0.0000000E+00;  0.0000000E+00;  1.0000000E+03;  1.0000000E-01;  0.0000000E+00;0;  0.0000000E+00;  0.0000000E+00;  0.0000000E+00;0; -4.9951068E-05;  4.0000000E+04;  0.0000000E+00;  0.0000000E+00;  4.0000000E+04;  0.0000000E+00;  4.0000000E+04; -5.0988023E-05;  0.0000000E+00;  1.0369536E-06;  4.6125855E+00;
 -1.5000001E-01;  9.9999998E-03;  1.9000000E-01;517;  0.0000000E+00;  0.0000000E+00;  0.0000000E+00;  1.0000000E+03;  1.0000000E-01;  0.0000000E+00;0;  0.0000000E+00;  0.0000000E+00;  0.0000000E+00;0; -4.6224657E-05;  4.0000000E+04;  0.0000000E+00;  0.0000000E+00;  4.0000000E+04;  0.0000000E+00;  4.0000000E+04; -4.7423931E-05;  0.0000000E+00;  1.1992760E-06;  4.5347729E+00;
 -1.5000001E-01;  9.9999998E-03;  2.0000000E-01;518;  0.0000000E+00;  0.0000000E+00;  0.0000000E+00;  1.0000000E+03;  1.0000000E-01;  0.0000000E+00;0;  0.0000000E+00;  0.0000000E+00;  0.0000000E+00;0; -4.2628864E-05;  4.0000000E+04;  0.0000000E+00;  0.0000000E+00;  4.0000000E+04;  0.0000000E+00;  4.0000000E+04; -4.3937904E-05;  0.0000000E+00;  1.3090391E-06;  4.4000468E+00;
 -1.5000001E-01;  9.9999998E-03;  2.0999999E-01;519;  0.0000000E+00;  0.0000000E+00;  0.0000000E+00;  1.0000000E+03;  1.0000000E-01;  0.0000000E+00;0;  0.0000000E+00;  0.0000000E+00;  0.0000000E+00;0; -3.9405524E-05;  4.0000000E+04;  0.0000000E+00;  0.0000000E+00;  4.0000000E+04;  0.0000000E+00;  4.0000000E+04; -4.0743758E-05;  0.0000000E+00;  1.3382338E-06;  4.2042713E+00;
 -1.5000001E-01;  9.9999998E-03;  2.2000000E-01;520;  0.0000000E+00;  0.0000000E+00;  0.0000000E+00;  1.0000000E+03;  1.0000000E-01;  0.0000000E+00;0;  0.0000000E+00;  0.0000000E+00;  0.0000000E+00;0; -3.6793004E-05;  4.0000000E+04;  0.0000000E+00;  0.0000000E+00;  4.0000000E+04;  0.0000000E+00;  4.0000000E+04; -3.8057573E-05;  0.0000000E+00;  1.2645696E-06;  3.9344072E+00;
 -1.5000001E-01;  9.9999998E-03;  2.3000000E-01;521;  0.0000000E+00;  0.0000000E+00;  0.0000000E+00;  1.0000000E+03;  1.0000000E-01;  0.0000000E+00;0;  0.0000000E+00;  0.0000000E+00;  0.0000000E+00;0; -3.4953620E-05;  4.0000000E+04;  0.0000000E+00;  0.0000000E+00;  4.0000000E+04;  0.0000000E+00;  4.0000000E+04; -3.6013407E-05;  0.0000000E+00;  1.0597885E-06;  3.5497797E+00;
 -1.4000000E-01;  9.9999998E-03;  7.0000000E-02;596;  0.0000000E+00;  0.0000000E+00;  0.0000000E+00;  1.0000000E+03;  1.0000000E-01;  0.0000000E+00;0;  0.0000000E+00;  0.0000000E+00;  0.0000000E+00;0; -3.9348283E-04;  4.0000000E+04;  0.0000000E+00;  0.0000000E+00;  4.0000000E+04;  0.0000000E+00;  4.0000000E+04; -3.9577027E-04;  0.0000000E+00;  2.2874390E-06;  1.7183519E+01;
 -1.4000000E-01;  9.9999998E-03;  7.9999998E-02;597;  0.0000000E+00;  0.0000000E+00;  0.0000000E+00;  1.0000000E+03;  1.0000000E-01;  0.0000000E+00;0;  0.0000000E+00;  0.0000000E+00;  0.0000000E+00;0; -3.9107329E-04;  4.0000000E+04;  0.0000000E+00;  0.0000000E+00;  4.0000000E+04;  0.0000000E+00;  4.0000000E+04; -3.9326004E-04;  0.0000000E+00;  2.1867513E-06;  1.7260315E+01;
 -1.4000000E-01;  9.9999998E-03;  9.0000004E-02;598;  0.0000000E+00;  0.0000000E+00;  0.0000000E+00;  1.0000000E+03;  1.0000000E-01;  0.0000000E+00;0;  0.0000000E+00;  0.0000000E+00;  0.0000000E+00;0; -3.8791576E-04;  4.0000000E+04;  0.0000000E+00;  0.0000000E+00;  4.0000000E+04;  0.0000000E+00;  4.0000000E+04; -3.9002838E-04;  0.0000000E+00;  2.1126202E-06;  1.7495304E+01;
 -1.4000000E-01;  9.9999998E-03;  1.0000000E-01;599;  0.0000000E+00;  0.0000000E+00;  0.0000000E+00;  1.0000000E+03;  1.0000000E-01;  0.0000000E+00;0;  0.0000000E+00;  0.0000000E+00;  0.0000000E+00;0; -3.8368421E-04;  4.0000000E+04;  0.0000000E+00;  0.0000000E+00;  4.0000000E+04;  0.0000000E+00;  4.0000000E+04; -3.8578513E-04;  0.0000000E+00;  2.1009200E-06;  1.7907562E+01;
 -1.4000000E-01;  9.9999998E-03;  1.1000000E-01;600;  0.0000000E+00;  0.0000000E+00;  0.0000000E+00;  1.0000000E+03;  1.0000000E-01;  0.0000000E+00;0;  0.0000000E+00;  0.0000000E+00;  0.0000000E+00;0; -3.7799723E-04;  4.0000000E+04;  0.0000000E+00;  0.0000000E+00;  4.0000000E+04;  0.0000000E+00;  4.0000000E+04; -3.8019291E-04;  0.0000000E+00;  2.1956944E-06;  1.8490885E+01;
 -1.4000000E-01;  9.9999998E-03;  1.2000000E-01;601;  0.0000000E+00;  0.0000000E+00;  0.0000000E+00;  1.0000000E+03;  1.0000000E-01;  0.0000000E+00;0;  0.0000000E+00;  0.0000000E+00;  0.0000000E+00;0; -3.7045902E-04;  4.0000000E+04;  0.0000000E+00;  0.0000000E+00;  4.0000000E+04;  0.0000000E+00;  4.0000000E+04; -3.7290336E-04;  0.0000000E+00;  2.4443571E-06;  1.9211630E+01;
 -1.4000000E-01;  9.9999998E-03;  1.3000000E-01;602;  0.0000000E+00;  0.0000000E+00;  0.0000000E+00;  1.0000000E+03;  1.0000000E-01;  0.0000000E+00;0;  0.0000000E+00;  0.0000000E+00;  0.0000000E+00;0; -3.6071110E-04;  4.0000000E+04;  0.0000000E+00;  0.0000000E+00;  4.0000000E+04;  0.0000000E+00;  4.0000000E+04; -3.6359965E-04;  0.0000000E+00;  2.8885440E-06;  2.0011995E+01;
 -1.4000000E-01;  9.9999998E-03;  1.4000000E-01;603;  0.0000000E+00;  0.0000000E+00;  0.0000000E+00;  1.0000000E+03;  1.0000000E-01;  0.0000000E+00;0;  0.0000000E+00;  0.0000000E+00;  0.0000000E+00;0; -3.4849768E-04;  4.0000000E+04;  0.0000000E+00;  0.0000000E+00;  4.0000000E+04;  0.0000000E+00;  4.0000000E+04; -3.5204805E-04;  0.0000000E+00;  3.5503851E-06;  2.0818571E+01;
 -1.4000000E-01;  9.9999998E-03;  1.5000001E-01;604;  0.0000000E+00;  0.0000000E+00;  0.0000000E+00;  1.0000000E+03;  1.0000000E-01;  0.0000000E+00;0;  0.0000000E+00;  0.0000000E+00;  0.0000000E+00;0; -3.3373543E-04;  4.0000000E+04;  0.0000000E+00;  0.0000000E+00;  4.0000000E+04;  0.0000000E+00;  4.0000000E+04; -3.3815214E-04;  0.0000000E+00;  4.4166968E-06;  2.1552580E+01;
 -1.4000000E-01;  9.9999998E-03;  1.6000000E-01;605;  0.0000000E+00;  0.0000000E+00;  0.0000000E+00;  1.0000000E+03;  1.0000000E-01;  0.0000000E+00;0;  0.0000000E+00;  0.0000000E+00;  0.0000000E+00;0; -3.1657019E-04;  4.0000000E+04;  0.0000000E+00;  0.0000000E+00;  4.0000000E+04;  0.0000000E+00;  4.0000000E+04; -3.2199707E-04;  0.0000000E+00;  5.4268726E-06;  2.2140774E+01;
 -1.4000000E-01;  9.9999998E-03;  1.7000000E-01;606;  0.0000000E+00;  0.0000000E+00;  0.0000000E+00;  1.0000000E+03;  1.0000000E-01;  0.0000000E+00;0;  0.0000000E+00;  0.0000000E+00;  0.0000000E+00;0; -2.9741862E-04;  4.0000000E+04;  0.0000000E+00;  0.0000000E+00;  4.0000000E+04;  0.0000000E+00;  4.0000000E+04; -3.0388884E-04;  0.0000000E+00;  6.4702131E-06;  2.2523108E+01;
 -1.4000000E-01;  9.9999998E-03;  1.8000001E-01;607;  0.0000000E+00;  0.0000000E+00;  0.0000000E+00;  1.0000000E+03;  1.0000000E-01;  0.0000000E+00;0;  0.0000000E+00;  0.0000000E+00;  0.0000000E+00;0; -2.7696567E-04;  4.0000000E+04;  0.0000000E+00;  0.0000000E+00;  4.0000000E+04;  0.0000000E+00;  4.0000000E+04; -2.8436113E-04;  0.0000000E+00;  7.3954634E-06;  2.2655045E+01;
 -1.4000000E-01;  9.9999998E-03;  1.9000000E-01;608;  0.0000000E+00;  0.0000000E+00;  0.0000000E+00;  1.0000000E+03;  1.0000000E-01;  0.0000000E+00;0;  0.0000000E+00;  0.0000000E+00;  0.0000000E+00;0; -2.5612861E-04;  4.0000000E+04;  0.0000000E+00;  0.0000000E+00;  4.0000000E+04;  0.0000000E+00;  4.0000000E+04; -2.6415969E-04;  0.0000000E+00;  8.0310829E-06;  2.2499432E+01;
 -1.4000000E-01;  9.9999998E-03;  2.0000000E-01;609;  0.0000000E+00;  0.0000000E+00;  0.0000000E+00;  1.0000000E+03;  1.0000000E-01;  0.0000000E+00;0;  0.0000000E+00;  0.0000000E+00;  0.0000000E+00;0; -2.3597201E-04;  4.0000000E+04;  0.0000000E+00;  0.0000000E+00;  4.0000000E+04;  0.0000000E+00;  4.0000000E+04; -2.4418384E-04;  0.0000000E+00;  8.2118286E-06;  2.2009130E+01;
 -1.4000000E-01;  9.9999998E-03;  2.0999999E-01;610;  0.0000000E+00;  0.0000000E+00;  0.0000000E+00;  1.0000000E+03;  1.0000000E-01;  0.0000000E+00;0;  0.0000000E+00;  0.0000000E+00;  0.0000000E+00;0; -2.1757593E-04;  4.0000000E+04;  0.0000000E+00;  0.0000000E+00;  4.0000000E+04;  0.0000000E+00;  4.0000000E+04; -2.2537237E-04;  0.0000000E+00;  7.7964287E-06;  2.1100859E+01;
 -1.4000000E-01;  9.9999998E-03;  2.2000000E-01;611;  0.0000000E+00;  0.0000000E+00;  0.0000000E+00;  1.0000000E+03;  1.0000000E-01;  0.0000000E+00;0;  0.0000000E+00;  0.0000000E+00;  0.0000000E+00;0; -2.0169995E-04;  4.0000000E+04;  0.0000000E+00;  0.0000000E+00;  4.0000000E+04;  0.0000000E+00;  4.0000000E+04; -2.0829472E-04;  0.0000000E+00;  6.5947715E-06;  1.9546551E+01;
 -1.4000000E-01;  9.9999998E-03;  2.3000000E-01;612;  0.0000000E+00;  0.0000000E+00;  0.0000000E+00;  1.0000000E+03;  1.0000000E-01;  0.0000000E+00;0;  0.0000000E+00;  0.0000000E+00;  0.0000000E+00;0; -1.8852430E-04;  4.0000000E+04;  0.0000000E+00;  0.0000000E+00;  4.0000000E+04;  0.0000000E+00;  4.0000000E+04; -1.9297889E-04;  0.0000000E+00;  4.4545936E-06;  1.7076006E+01;
 -1.3000000E-01;  9.9999998E-03;  7.0000000E-02;687;  0.0000000E+00;  0.0000000E+00;  0.0000000E+00;  1.0000067E+03;  1.0000000E-01;  5.5307078E+00;0;  0.0000000E+00;  0.0000000E+00;  0.0000000E+00;0; -1.2783263E-03;  4.0000000E+04;  0.0000000E+00;  0.0000000E+00;  4.0000000E+04;  0.0000000E+00;  4.0000000E+04; -1.2886786E-03;  0.0000000E+00;  1.0352380E-05;  4.8967010E+01;
 -1.3000000E-01;  9.9999998E-03;  7.9999998E-02;688;  0.0000000E+00;  0.0000000E+00;  0.0000000E+00;  1.0000067E+03;  1.0000000E-01;  5.5307078E+00;0;  0.0000000E+00;  0.0000000E+00;  0.0000000E+00;0; -1.2709320E-03;  4.0000000E+04;  0.0000000E+00;  0.0000000E+00;  4.0000000E+04;  0.0000000E+00;  4.0000000E+04; -1.2809329E-03;  0.0000000E+00;  1.0000925E-05;  4.9258121E+01;
 -1.3000000E-01;  9.9999998E-03;  9.0000004E-02;689;  0.0000000E+00;  0.0000000E+00;  0.0000000E+00;  1.0000067E+03;  1.0000000E-01;  5.5307078E+00;0;  0.0000000E+00;  0.0000000E+00;  0.0000000E+00;0; -1.2608599E-03;  4.0000000E+04;  0.0000000E+00;  0.0000000E+00;  4.0000000E+04;  0.0000000E+00;  4.0000000E+04; -1.2706517E-03;  0.0000000E+00;  9.7918264E-06;  5.0061634E+01;
 -1.3000000E-01;  9.9999998E-03;  1.0000000E-01;690;  0.0000000E+00;  0.0000000E+00;  0.0000000E+00;  1.0000066E+03;  1.0000000E-01;  5.4319453E+00;0;  0.0000000E+00;  0.0000000E+00;  0.0000000E+00;0; -1.2470551E-03;  4.0000000E+04;  0.0000000E+00;  0.0000000E+00;  4.0000000E+04;  0.0000000E+00;  4.0000000E+04; -1.2569247E-03;  0.0000000E+00;  9.8695800E-06;  5.1429287E+01;
 -1.3000000E-01;  9.9999998E-03;  1.1000000E-01;691;  0.0000000E+00;  0.0000000E+00;  0.0000000E+00;  1.0000065E+03;  1.0000000E-01;  5.4319453E+00;0;  0.0000000E+00;  0.0000000E+00;  0.0000000E+00;0; -1.2283319E-03;  4.0000000E+04;  0.0000000E+00;  0.0000000E+00;  4.0000000E+04;  0.0000000E+00;  4.0000000E+04; -1.2387316E-03;  0.0000000E+00;  1.0399615E-05;  5.3344887E+01;
 -1.3000000E-01;  9.9999998E-03;  1.2000000E-01;692;  0.0000000E+00;  0.0000000E+00;  0.0000000E+00;  1.0000064E+03;  1.0000000E-01;  5.3331823E+00;0;  0.0000000E+00;  0.0000000E+00;  0.0000000E+00;0; -1.2035012E-03;  4.0000000E+04;  0.0000000E+00;  0.0000000E+00;  4.0000000E+04;  0.0000000E+00;  4.0000000E+04; -1.2150407E-03;  0.0000000E+00;  1.1539400E-05;  5.5719852E+01;
 -1.3000000E-01;  9.9999998E-03;  1.3000000E-01;693;  0.0000000E+00;  0.0000000E+00;  0.0000000E+00;  1.0000062E+03;  1.0000000E-01;  5.1356573E+00;0;  0.0000000E+00;  0.0000000E+00;  0.0000000E+00;0; -1.1715456E-03;  4.0000000E+04;  0.0000000E+00;  0.0000000E+00;  4.0000000E+04;  0.0000000E+00;  4.0000000E+04; -1.1849410E-03;  0.0000000E+00;  1.3395444E-05;  5.8400673E+01;
 -1.3000000E-01;  9.9999998E-03;  1.4000000E-01;694;  0.0000000E+00;  0.0000000E+00;  0.0000000E+00;  1.0000060E+03;  1.0000000E-01;  4.9381318E+00;0;  0.0000000E+00;  0.0000000E+00;  0.0000000E+00;0; -1.1318215E-03;  4.0000000E+04;  0.0000000E+00;  0.0000000E+00;  4.0000000E+04;  0.0000000E+00;  4.0000000E+04; -1.1477949E-03;  0.0000000E+00;  1.5973297E-05;  6.1186493E+01;
 -1.3000000E-01;  9.9999998E-03;  1.5000001E-01;695;  0.0000000E+00;  0.0000000E+00;  0.0000000E+00;  1.0000057E+03;  1.0000000E-01;  4.7406068E+00;0;  0.0000000E+00;  0.0000000E+00;  0.0000000E+00;0; -1.0842439E-03;  4.0000000E+04;  0.0000000E+00;  0.0000000E+00;  4.0000000E+04;  0.0000000E+00;  4.0000000E+04; -1.1033799E-03;  0.0000000E+00;  1.9135994E-05;  6.3854950E+01;
 -1.3000000E-01;  9.9999998E-03;  1.6000000E-01;696;  0.0000000E+00;  0.0000000E+00;  0.0000000E+00;  1.0000053E+03;  1.0000000E-01;  4.4443188E+00;0;  0.0000000E+00;  0.0000000E+00;  0.0000000E+00;0; -1.0294360E-03;  4.0000000E+04;  0.0000000E+00;  0.0000000E+00;  4.0000000E+04;  0.0000000E+00;  4.0000000E+04; -1.0520205E-03;  0.0000000E+00;  2.2584481E-05;  6.6186493E+01;
 -1.3000000E-01;  9.9999998E-03;  1.7000000E-01;697;  0.0000000E+00;  0.0000000E+00;  0.0000000E+00;  1.0000049E+03;  1.0000000E-01;  4.0492682E+00;0;  0.0000000E+00;  0.0000000E+00;  0.0000000E+00;0; -9.6878788E-04;  4.0000000E+04;  0.0000000E+00;  0.0000000E+00;  4.0000000E+04;  0.0000000E+00;  4.0000000E+04; -9.9465903E-04;  0.0000000E+00;  2.5871132E-05;  6.7980995E+01;
 -1.3000000E-01;  9.9999998E-03;  1.8000001E-01;698;  0.0000000E+00;  0.0000000E+00;  0.0000000E+00;  1.0000045E+03;  1.0000000E-01;  3.6542177E+00;0;  0.0000000E+00;  0.0000000E+00;  0.0000000E+00;0; -9.0440828E-04;  4.0000000E+04;  0.0000000E+00;  0.0000000E+00;  4.0000000E+04;  0.0000000E+00;  4.0000000E+04; -9.3285542E-04;  0.0000000E+00;  2.8447150E-05;  6.9052040E+01;
 -1.3000000E-01;  9.9999998E-03;  1.9000000E-01;699;  0.0000000E+00;  0.0000000E+00;  0.0000000E+00;  1.0000040E+03;  1.0000000E-01;  3.2591672E+00;0;  0.0000000E+00;  0.0000000E+00;  0.0000000E+00;0; -8.3896960E-04;  4.0000000E+04;  0.0000000E+00;  0.0000000E+00;  4.0000000E+04;  0.0000000E+00;  4.0000000E+04; -8.6870650E-04;  0.0000000E+00;  2.9736908E-05;  6.9197182E+01;
 -1.3000000E-01;  9.9999998E-03;  2.0000000E-01;700;  0.0000000E+00;  0.0000000E+00;  0.0000000E+00;  1.0000035E+03;  1.0000000E-01;  2.8641164E+00;0;  0.0000000E+00;  0.0000000E+00;  0.0000000E+00;0; -7.7538332E-04;  4.0000000E+04;  0.0000000E+00;  0.0000000E+00;  4.0000000E+04;  0.0000000E+00;  4.0000000E+04; -8.0455851E-04;  0.0000000E+00;  2.9175168E-05;  6.8109314E+01;
 -1.3000000E-01;  9.9999998E-03;  2.0999999E-01;701;  0.0000000E+00;  0.0000000E+00;  0.0000000E+00;  1.0000030E+03;  1.0000000E-01;  2.4690659E+00;0;  0.0000000E+00;  0.0000000E+00;  0.0000000E+00;0; -7.1619335E-04;  4.0000000E+04;  0.0000000E+00;  0.0000000E+00;  4.0000000E+04;  0.0000000E+00;  4.0000000E+04; -7.4232847E-04;  0.0000000E+00;  2.6135112E-05;  6.5194122E+01;
 -1.3000000E-01;  9.9999998E-03;  2.2000000E-01;702;  0.0000000E+00;  0.0000000E+00;  0.0000000E+00;  1.0000024E+03;  1.0000000E-01;  1.9752527E+00;0;  0.0000000E+00;  0.0000000E+00;  0.0000000E+00;0; -6.6307187E-04;  4.0000000E+04;  0.0000000E+00;  0.0000000E+00;  4.0000000E+04;  0.0000000E+00;  4.0000000E+04; -6.8326527E-04;  0.0000000E+00;  2.0193422E-05;  5.9815372E+01;
 -1.3000000E-01;  9.9999998E-03;  2.3000000E-01;703;  0.0000000E+00;  0.0000000E+00;  0.0000000E+00;  1.0000019E+03;  1.0000000E-01;  1.5802022E+00;0;  0.0000000E+00;  0.0000000E+00;  0.0000000E+00;0; -6.1634078E-04;  4.0000000E+04;  0.0000000E+00;  0.0000000E+00;  4.0000000E+04;  0.0000000E+00;  4.0000000E+04; -6.2764029E-04;  0.0000000E+00;  1.1299475E-05;  5.1456379E+01;
 -1.2000000E-01;  9.9999998E-03;  7.0000000E-02;778;  0.0000000E+00;  0.0000000E+00;  0.0000000E+00;  1.0000179E+03;  1.0000000E-01;  1.4913158E+01;0;  0.0000000E+00;  0.0000000E+00;  0.0000000E+00;0; -3.1258434E-03;  4.0000000E+04;  0.0000000E+00;  0.0000000E+00;  4.0000000E+04;  0.0000000E+00;  4.0000000E+04; -3.1588494E-03;  0.0000000E+00;  3.3006014E-05;  1.0818211E+02;
 -1.2000000E-01;  9.9999998E-03;  7.9999998E-02;779;  0.0000000E+00;  0.0000000E+00;  0.0000000E+00;  1.0000178E+03;  1.0000000E-01;  1.4814396E+01;0;  0.0000000E+00;  0.0000000E+00;  0.0000000E+00;0; -3.1082458E-03;  4.0000000E+04;  0.0000000E+00;  0.0000000E+00;  4.0000000E+04;  0.0000000E+00;  4.0000000E+04; -3.1403687E-03;  0.0000000E+00;  3.2122971E-05;  1.0901994E+02;
 -1.2000000E-01;  9.9999998E-03;  9.0000004E-02;780;  0.0000000E+00;  0.0000000E+00;  0.0000000E+00;  1.0000177E+03;  1.0000000E-01;  1.4616871E+01;0;  0.0000000E+00;  0.0000000E+00;  0.0000000E+00;0; -3.0836929E-03;  4.0000000E+04;  0.0000000E+00;  0.0000000E+00;  4.0000000E+04;  0.0000000E+00;  4.0000000E+04; -3.1154205E-03;  0.0000000E+00;  3.1727679E-05;  1.1109131E+02;
 -1.2000000E-01;  9.9999998E-03;  1.0000000E-01;781;  0.0000000E+00;  0.0000000E+00;  0.0000000E+00;  1.0000174E+03;  1.0000000E-01;  1.4419345E+01;0;  0.0000000E+00;  0.0000000E+00;  0.0000000E+00;0; -3.0496807E-03;  4.0000000E+04;  0.0000000E+00;  0.0000000E+00;  4.0000000E+04;  0.0000000E+00;  4.0000000E+04; -3.0819022E-03;  0.0000000E+00;  3.2221422E-05;  1.1450893E+02;
 -1.2000000E-01;  9.9999998E-03;  1.1000000E-01;782;  0.0000000E+00;  0.0000000E+00;  0.0000000E+00;  1.0000170E+03;  1.0000000E-01;  1.4123057E+01;0;  0.0000000E+00;  0.0000000E+00;  0.0000000E+00;0; -3.0034902E-03;  4.0000000E+04;  0.0000000E+00;  0.0000000E+00;  4.0000000E+04;  0.0000000E+00;  4.0000000E+04; -3.0375179E-03;  0.0000000E+00;  3.4027635E-05;  1.1924507E+02;
 -1.2000000E-01;  9.9999998E-03;  1.2000000E-01;783;  0.0000000E+00;  0.0000000E+00;  0.0000000E+00;  1.0000164E+03;  1.0000000E-01;  1.3530481E+01;0;  0.0000000E+00;  0.0000000E+00;  0.0000000E+00;0; -2.9424988E-03;  4.0000000E+04;  0.0000000E+00;  0.0000000E+00;  4.0000000E+04;  0.0000000E+00;  4.0000000E+04; -2.9799971E-03;  0.0000000E+00;  3.7498372E-05;  1.2512495E+02;
 -1.2000000E-01;  9.9999998E-03;  1.3000000E-01;784;  0.0000000E+00;  0.0000000E+00;  0.0000000E+00;  1.0000156E+03;  1.0000000E-01;  1.2937905E+01;0;  0.0000000E+00;  0.0000000E+00;  0.0000000E+00;0; -2.8645850E-03;  4.0000000E+04;  0.0000000E+00;  0.0000000E+00;  4.0000000E+04;  0.0000000E+00;  4.0000000E+04; -2.9073840E-03;  0.0000000E+00;  4.2798983E-05;  1.3183809E+02;
 -1.2000000E-01;  9.9999998E-03;  1.4000000E-01;785;  0.0000000E+00;  0.0000000E+00;  0.0000000E+00;  1.0000144E+03;  1.0000000E-01;  1.1950279E+01;0;  0.0000000E+00;  0.0000000E+00;  0.0000000E+00;0; -2.7685664E-03;  4.0000000E+04;  0.0000000E+00;  0.0000000E+00;  4.0000000E+04;  0.0000000E+00;  4.0000000E+04; -2.8183630E-03;  0.0000000E+00;  4.9796574E-05;  1.3897160E+02;
 -1.2000000E-01;  9.9999998E-03;  1.5000001E-01;786;  0.0000000E+00;  0.0000000E+00;  0.0000000E+00;  1.0000128E+03;  1.0000000E-01;  1.0666365E+01;0;  0.0000000E+00;  0.0000000E+00;  0.0000000E+00;0; -2.6545580E-03;  4.0000000E+04;  0.0000000E+00;  0.0000000E+00;  4.0000000E+04;  0.0000000E+00;  4.0000000E+04; -2.7125415E-03;  0.0000000E+00;  5.7983434E-05;  1.4605193E+02;
 -1.2000000E-01;  9.9999998E-03;  1.6000000E-01;787;  0.0000000E+00;  0.0000000E+00;  0.0000000E+00;  1.0000121E+03;  1.0000000E-01;  1.0073790E+01;0;  0.0000000E+00;  0.0000000E+00;  0.0000000E+00;0; -2.5242430E-03;  4.0000000E+04;  0.0000000E+00;  0.0000000E+00;  4.0000000E+04;  0.0000000E+00;  4.0000000E+04; -2.5907059E-03;  0.0000000E+00;  6.6462802E-05;  1.5258284E+02;
 -1.2000000E-01;  9.9999998E-03;  1.7000000E-01;788;  0.0000000E+00;  0.0000000E+00;  0.0000000E+00;  1.0000113E+03;  1.0000000E-01;  9.3824511E+00;0;  0.0000000E+00;  0.0000000E+00;  0.0000000E+00;0; -2.3809131E-03;  4.0000000E+04;  0.0000000E+00;  0.0000000E+00;  4.0000000E+04;  0.0000000E+00;  4.0000000E+04; -2.4549237E-03;  0.0000000E+00;  7.4010532E-05;  1.5805215E+02;
 -1.2000000E-01;  9.9999998E-03;  1.8000001E-01;789;  0.0000000E+00;  0.0000000E+00;  0.0000000E+00;  1.0000104E+03;  1.0000000E-01;  8.6911125E+00;0;  0.0000000E+00;  0.0000000E+00;  0.0000000E+00;0; -2.2293183E-03;  4.0000000E+04;  0.0000000E+00;  0.0000000E+00;  4.0000000E+04;  0.0000000E+00;  4.0000000E+04; -2.3085265E-03;  0.0000000E+00;  7.9208359E-05;  1.6190211E+02;
 -1.2000000E-01;  9.9999998E-03;  1.9000000E-01;790;  0.0000000E+00;  0.0000000E+00;  0.0000000E+00;  1.0000095E+03;  1.0000000E-01;  7.9010110E+00;0;  0.0000000E+00;  0.0000000E+00;  0.0000000E+00;0; -2.0752028E-03;  4.0000000E+04;  0.0000000E+00;  0.0000000E+00;  4.0000000E+04;  0.0000000E+00;  4.0000000E+04; -2.1557396E-03;  0.0000000E+00;  8.0536825E-05;  1.6337648E+02;
 -1.2000000E-01;  9.9999998E-03;  2.0000000E-01;791;  0.0000000E+00;  0.0000000E+00;  0.0000000E+00;  1.0000086E+03;  1.0000000E-01;  7.1109099E+00;0;  0.0000000E+00;  0.0000000E+00;  0.0000000E+00;0; -1.9244298E-03;  4.0000000E+04;  0.0000000E+00;  0.0000000E+00;  4.0000000E+04;  0.0000000E+00;  4.0000000E+04; -2.0007973E-03;  0.0000000E+00;  7.6367469E-05;  1.6125414E+02;
 -1.2000000E-01;  9.9999998E-03;  2.0999999E-01;792;  0.0000000E+00;  0.0000000E+00;  0.0000000E+00;  1.0000075E+03;  1.0000000E-01;  6.2220464E+00;0;  0.0000000E+00;  0.0000000E+00;  0.0000000E+00;0; -1.7820026E-03;  4.0000000E+04;  0.0000000E+00;  0.0000000E+00;  4.0000000E+04;  0.0000000E+00;  4.0000000E+04; -1.8474283E-03;  0.0000000E+00;  6.5425687E-05;  1.5414757E+02;
 -1.2000000E-01;  9.9999998E-03;  2.2000000E-01;793;  0.0000000E+00;  0.0000000E+00;  0.0000000E+00;  1.0000063E+03;  1.0000000E-01;  5.2344198E+00;0;  0.0000000E+00;  0.0000000E+00;  0.0000000E+00;0; -1.6510031E-03;  4.0000000E+04;  0.0000000E+00;  0.0000000E+00;  4.0000000E+04;  0.0000000E+00;  4.0000000E+04; -1.6981114E-03;  0.0000000E+00;  4.7108260E-05;  1.4068364E+02;
 -1.2000000E-01;  9.9999998E-03;  2.3000000E-01;794;  0.0000000E+00;  0.0000000E+00;  0.0000000E+00;  1.0000054E+03;  1.0000000E-01;  4.4443188E+00;0;  0.0000000E+00;  0.0000000E+00;  0.0000000E+00;0; -1.5318469E-03;  4.0000000E+04;  0.0000000E+00;  0.0000000E+00;  4.0000000E+04;  0.0000000E+00;  4.0000000E+04; -1.5536405E-03;  0.0000000E+00;  2.1793549E-05;  1.1992301E+02;
 -1.1000000E-01;  9.9999998E-03;  7.0000000E-02;869;  0.0000000E+00;  0.0000000E+00;  0.0000000E+00;  1.0000377E+03;  1.0000000E-01;  3.1208994E+01;0;  0.0000000E+00;  0.0000000E+00;  0.0000000E+00;0; -6.4209849E-03;  4.0000000E+04;  0.0000000E+00;  0.0000000E+00;  4.0000000E+04;  0.0000000E+00;  4.0000000E+04; -6.5055019E-03;  0.0000000E+00;  8.4517204E-05;  2.0443274E+02;
 -1.1000000E-01;  9.9999998E-03;  7.9999998E-02;870;  0.0000000E+00;  0.0000000E+00;  0.0000000E+00;  1.0000376E+03;  1.0000000E-01;  3.1110231E+01;0;  0.0000000E+00;  0.0000000E+00;  0.0000000E+00;0; -6.3854740E-03;  4.0000000E+04;  0.0000000E+00;  0.0000000E+00;  4.0000000E+04;  0.0000000E+00;  4.0000000E+04; -6.4681545E-03;  0.0000000E+00;  8.2680526E-05;  2.0641092E+02;
 -1.1000000E-01;  9.9999998E-03;  9.0000004E-02;871;  0.0000000E+00;  0.0000000E+00;  0.0000000E+00;  1.0000372E+03;  1.0000000E-01;  3.0813944E+01;0;  0.0000000E+00;  0.0000000E+00;  0.0000000E+00;0; -6.3351733E-03;  4.0000000E+04;  0.0000000E+00;  0.0000000E+00;  4.0000000E+04;  0.0000000E+00;  4.0000000E+04; -6.4172777E-03;  0.0000000E+00;  8.2104314E-05;  2.1085008E+02;
 -1.1000000E-01;  9.9999998E-03;  1.0000000E-01;872;  0.0000000E+00;  0.0000000E+00;  0.0000000E+00;  1.0000367E+03;  1.0000000E-01;  3.0418892E+01;0;  0.0000000E+00;  0.0000000E+00;  0.0000000E+00;0; -6.2651411E-03;  4.0000000E+04;  0.0000000E+00;  0.0000000E+00;  4.0000000E+04;  0.0000000E+00;  4.0000000E+04; -6.3488088E-03;  0.0000000E+00;  8.3667612E-05;  2.1796347E+02;
 -1.1000000E-01;  9.9999998E-03;  1.1000000E-01;873;  0.0000000E+00;  0.0000000E+00;  0.0000000E+00;  1.0000357E+03;  1.0000000E-01;  2.9628792E+01;0;  0.0000000E+00;  0.0000000E+00;  0.0000000E+00;0; -6.1701536E-03;  4.0000000E+04;  0.0000000E+00;  0.0000000E+00;  4.0000000E+04;  0.0000000E+00;  4.0000000E+04; -6.2583825E-03;  0.0000000E+00;  8.8228728E-05;  2.2772038E+02;
 -1.1000000E-01;  9.9999998E-03;  1.2000000E-01;874;  0.0000000E+00;  0.0000000E+00;  0.0000000E+00;  1.0000345E+03;  1.0000000E-01;  2.8542402E+01;0;  0.0000000E+00;  0.0000000E+00;  0.0000000E+00;0; -6.0453601E-03;  4.0000000E+04;  0.0000000E+00;  0.0000000E+00;  4.0000000E+04;  0.0000000E+00;  4.0000000E+04; -6.1417720E-03;  0.0000000E+00;  9.6412106E-05;  2.3983583E+02;
 -1.1000000E-01;  9.9999998E-03;  1.3000000E-01;875;  0.0000000E+00;  0.0000000E+00;  0.0000000E+00;  1.0000325E+03;  1.0000000E-01;  2.6962200E+01;0;  0.0000000E+00;  0.0000000E+00;  0.0000000E+00;0; -5.8870320E-03;  4.0000000E+04;  0.0000000E+00;  0.0000000E+00;  4.0000000E+04;  0.0000000E+00;  4.0000000E+04; -5.9954063E-03;  0.0000000E+00;  1.0837436E-04;  2.5378781E+02;
 -1.1000000E-01;  9.9999998E-03;  1.4000000E-01;876;  0.0000000E+00;  0.0000000E+00;  0.0000000E+00;  1.0000309E+03;  1.0000000E-01;  2.5678286E+01;0;  0.0000000E+00;  0.0000000E+00;  0.0000000E+00;0; -5.6933160E-03;  4.0000000E+04;  0.0000000E+00;  0.0000000E+00;  4.0000000E+04;  0.0000000E+00;  4.0000000E+04; -5.8169165E-03;  0.0000000E+00;  1.2360029E-04;  2.6886832E+02;
 -1.1000000E-01;  9.9999998E-03;  1.5000001E-01;877;  0.0000000E+00;  0.0000000E+00;  0.0000000E+00;  1.0000292E+03;  1.0000000E-01;  2.4196846E+01;0;  0.0000000E+00;  0.0000000E+00;  0.0000000E+00;0; -5.4648714E-03;  4.0000000E+04;  0.0000000E+00;  0.0000000E+00;  4.0000000E+04;  0.0000000E+00;  4.0000000E+04; -5.6056594E-03;  0.0000000E+00;  1.4078784E-04;  2.8423325E+02;
 -1.1000000E-01;  9.9999998E-03;  1.6000000E-01;878;  0.0000000E+00;  0.0000000E+00;  0.0000000E+00;  1.0000271E+03;  1.0000000E-01;  2.2419119E+01;0;  0.0000000E+00;  0.0000000E+00;  0.0000000E+00;0; -5.2052233E-03;  4.0000000E+04;  0.0000000E+00;  0.0000000E+00;  4.0000000E+04;  0.0000000E+00;  4.0000000E+04; -5.3630830E-03;  0.0000000E+00;  1.5785966E-04;  2.9892667E+02;
 -1.1000000E-01;  9.9999998E-03;  1.7000000E-01;879;  0.0000000E+00;  0.0000000E+00;  0.0000000E+00;  1.0000246E+03;  1.0000000E-01;  2.0345104E+01;0;  0.0000000E+00;  0.0000000E+00;  0.0000000E+00;0; -4.9207835E-03;  4.0000000E+04;  0.0000000E+00;  0.0000000E+00;  4.0000000E+04;  0.0000000E+00;  4.0000000E+04; -5.0929044E-03;  0.0000000E+00;  1.7212113E-04;  3.1185156E+02;
 -1.1000000E-01;  9.9999998E-03;  1.8000001E-01;880;  0.0000000E+00;  0.0000000E+00;  0.0000000E+00;  1.0000222E+03;  1.0000000E-01;  1.8369850E+01;0;  0.0000000E+00;  0.0000000E+00;  0.0000000E+00;0; -4.6204720E-03;  4.0000000E+04;  0.0000000E+00;  0.0000000E+00;  4.0000000E+04;  0.0000000E+00;  4.0000000E+04; -4.8009241E-03;  0.0000000E+00;  1.8045216E-04;  3.2159064E+02;
 -1.1000000E-01;  9.9999998E-03;  1.9000000E-01;881;  0.0000000E+00;  0.0000000E+00;  0.0000000E+00;  1.0000204E+03;  1.0000000E-01;  1.6888411E+01;0;  0.0000000E+00;  0.0000000E+00;  0.0000000E+00;0; -4.3146429E-03;  4.0000000E+04;  0.0000000E+00;  0.0000000E+00;  4.0000000E+04;  0.0000000E+00;  4.0000000E+04; -4.4940040E-03;  0.0000000E+00;  1.7936107E-04;  3.2599106E+02;
 -1.1000000E-01;  9.9999998E-03;  2.0000000E-01;882;  0.0000000E+00;  0.0000000E+00;  0.0000000E+00;  1.0000184E+03;  1.0000000E-01;  1.5308209E+01;0;  0.0000000E+00;  0.0000000E+00;  0.0000000E+00;0; -4.0136562E-03;  4.0000000E+04;  0.0000000E+00;  0.0000000E+00;  4.0000000E+04;  0.0000000E+00;  4.0000000E+04; -4.1793315E-03;  0.0000000E+00;  1.6567508E-04;  3.2242825E+02;
 -1.1000000E-01;  9.9999998E-03;  2.0999999E-01;883;  0.0000000E+00;  0.0000000E+00;  0.0000000E+00;  1.0000159E+03;  1.0000000E-01;  1.3234194E+01;0;  0.0000000E+00;  0.0000000E+00;  0.0000000E+00;0; -3.7260177E-03;  4.0000000E+04;  0.0000000E+00;  0.0000000E+00;  4.0000000E+04;  0.0000000E+00;  4.0000000E+04; -3.8631582E-03;  0.0000000E+00;  1.3714051E-04;  3.0798709E+02;
 -1.1000000E-01;  9.9999998E-03;  2.2000000E-01;884;  0.0000000E+00;  0.0000000E+00;  0.0000000E+00;  1.0000150E+03;  1.0000000E-01;  1.2444093E+01;0;  0.0000000E+00;  0.0000000E+00;  0.0000000E+00;0; -3.4567397E-03;  4.0000000E+04;  0.0000000E+00;  0.0000000E+00;  4.0000000E+04;  0.0000000E+00;  4.0000000E+04; -3.5498238E-03;  0.0000000E+00;  9.3084054E-05;  2.8006165E+02;
 -1.1000000E-01;  9.9999998E-03;  2.3000000E-01;885;  0.0000000E+00;  0.0000000E+00;  0.0000000E+00;  1.0000141E+03;  1.0000000E-01;  1.1653992E+01;0;  0.0000000E+00;  0.0000000E+00;  0.0000000E+00;0; -3.2064321E-03;  4.0000000E+04;  0.0000000E+00;  0.0000000E+00;  4.0000000E+04;  0.0000000E+00;  4.0000000E+04; -3.2413935E-03;  0.0000000E+00;  3.4961326E-05;  2.3723460E+02;
 -1.0000000E-01;  9.9999998E-03;  7.0000000E-02;960;  0.0000000E+00;  0.0000000E+00;  0.0000000E+00;  1.0000716E+03;  1.0000000E-01;  5.9356346E+01;0;  0.0000000E+00;  0.0000000E+00;  0.0000000E+00;0; -1.1733622E-02;  4.0000000E+04;  0.0000000E+00;  0.0000000E+00;  4.0000000E+04;  0.0000000E+00;  4.0000000E+04; -1.1919505E-02;  0.0000000E+00;  1.8588296E-04;  3.4814569E+02;
 -1.0000000E-01;  9.9999998E-03;  7.9999998E-02;961;  0.0000000E+00;  0.0000000E+00;  0.0000000E+00;  1.0000712E+03;  1.0000000E-01;  5.8961296E+01;0;  0.0000000E+00;  0.0000000E+00;  0.0000000E+00;0; -1.1669882E-02;  4.0000000E+04;  0.0000000E+00;  0.0000000E+00;  4.0000000E+04;  0.0000000E+00;  4.0000000E+04; -1.1852322E-02;  0.0000000E+00;  1.8244050E-04;  3.5216714E+02;
 -1.0000000E-01;  9.9999998E-03;  9.0000004E-02;962;  0.0000000E+00;  0.0000000E+00;  0.0000000E+00;  1.0000704E+03;  1.0000000E-01;  5.8269958E+01;0;  0.0000000E+00;  0.0000000E+00;  0.0000000E+00;0; -1.1578663E-02;  4.0000000E+04;  0.0000000E+00;  0.0000000E+00;  4.0000000E+04;  0.0000000E+00;  4.0000000E+04; -1.1760342E-02;  0.0000000E+00;  1.8167851E-04;  3.6048901E+02;
 -1.0000000E-01;  9.9999998E-03;  1.0000000E-01;963;  0.0000000E+00;  0.0000000E+00;  0.0000000E+00;  1.0000692E+03;  1.0000000E-01;  5.7282330E+01;0;  0.0000000E+00;  0.0000000E+00;  0.0000000E+00;0; -1.1451309E-02;  4.0000000E+04;  0.0000000E+00;  0.0000000E+00;  4.0000000E+04;  0.0000000E+00;  4.0000000E+04; -1.1636553E-02;  0.0000000E+00;  1.8524464E-04;  3.7348090E+02;
 -1.0000000E-01;  9.9999998E-03;  1.1000000E-01;964;  0.0000000E+00;  0.0000000E+00;  0.0000000E+00;  1.0000673E+03;  1.0000000E-01;  5.5800892E+01;0;  0.0000000E+00;  0.0000000E+00;  0.0000000E+00;0; -1.1278893E-02;  4.0000000E+04;  0.0000000E+00;  0.0000000E+00;  4.0000000E+04;  0.0000000E+00;  4.0000000E+04; -1.1473538E-02;  0.0000000E+00;  1.9464538E-04;  3.9113580E+02;
 -1.0000000E-01;  9.9999998E-03;  1.2000000E-01;965;  0.0000000E+00;  0.0000000E+00;  0.0000000E+00;  1.0000652E+03;  1.0000000E-01;  5.4023163E+01;0;  0.0000000E+00;  0.0000000E+00;  0.0000000E+00;0; -1.1053349E-02;  4.0000000E+04;  0.0000000E+00;  0.0000000E+00;  4.0000000E+04;  0.0000000E+00;  4.0000000E+04; -1.1264195E-02;  0.0000000E+00;  2.1084574E-04;  4.1305594E+02;
 -1.0000000E-01;  9.9999998E-03;  1.3000000E-01;966;  0.0000000E+00;  0.0000000E+00;  0.0000000E+00;  1.0000626E+03;  1.0000000E-01;  5.1850384E+01;0;  0.0000000E+00;  0.0000000E+00;  0.0000000E+00;0; -1.0768730E-02;  4.0000000E+04;  0.0000000E+00;  0.0000000E+00;  4.0000000E+04;  0.0000000E+00;  4.0000000E+04; -1.1002585E-02;  0.0000000E+00;  2.3385555E-04;  4.3848270E+02;
 -1.0000000E-01;  9.9999998E-03;  1.4000000E-01;967;  0.0000000E+00;  0.0000000E+00;  0.0000000E+00;  1.0000591E+03;  1.0000000E-01;  4.8986267E+01;0;  0.0000000E+00;  0.0000000E+00;  0.0000000E+00;0; -1.0422388E-02;  4.0000000E+04;  0.0000000E+00;  0.0000000E+00;  4.0000000E+04;  0.0000000E+00;  4.0000000E+04; -1.0684787E-02;  0.0000000E+00;  2.6239958E-04;  4.6635101E+02;
 -1.0000000E-01;  9.9999998E-03;  1.5000001E-01;968;  0.0000000E+00;  0.0000000E+00;  0.0000000E+00;  1.0000551E+03;  1.0000000E-01;  4.5628338E+01;0;  0.0000000E+00;  0.0000000E+00;  0.0000000E+00;0; -1.0015888E-02;  4.0000000E+04;  0.0000000E+00;  0.0000000E+00;  4.0000000E+04;  0.0000000E+00;  4.0000000E+04; -1.0309643E-02;  0.0000000E+00;  2.9375451E-04;  4.9532571E+02;
 -1.0000000E-01;  9.9999998E-03;  1.6000000E-01;969;  0.0000000E+00;  0.0000000E+00;  0.0000000E+00;  1.0000516E+03;  1.0000000E-01;  4.2764221E+01;0;  0.0000000E+00;  0.0000000E+00;  0.0000000E+00;0; -9.5555997E-03;  4.0000000E+04;  0.0000000E+00;  0.0000000E+00;  4.0000000E+04;  0.0000000E+00;  4.0000000E+04; -9.8794168E-03;  0.0000000E+00;  3.2381751E-04;  5.2375513E+02;
 -1.0000000E-01;  9.9999998E-03;  1.7000000E-01;970;  0.0000000E+00;  0.0000000E+00;  0.0000000E+00;  1.0000468E+03;  1.0000000E-01;  3.8813717E+01;0;  0.0000000E+00;  0.0000000E+00;  0.0000000E+00;0; -9.0525374E-03;  4.0000000E+04;  0.0000000E+00;  0.0000000E+00;  4.0000000E+04;  0.0000000E+00;  4.0000000E+04; -9.3999030E-03;  0.0000000E+00;  3.4736606E-04;  5.4951154E+02;
 -1.0000000E-01;  9.9999998E-03;  1.8000001E-01;971;  0.0000000E+00;  0.0000000E+00;  0.0000000E+00;  1.0000432E+03;  1.0000000E-01;  3.5752075E+01;0;  0.0000000E+00;  0.0000000E+00;  0.0000000E+00;0; -8.5216071E-03;  4.0000000E+04;  0.0000000E+00;  0.0000000E+00;  4.0000000E+04;  0.0000000E+00;  4.0000000E+04; -8.8797575E-03;  0.0000000E+00;  3.5815046E-04;  5.6938177E+02;
 -1.0000000E-01;  9.9999998E-03;  1.9000000E-01;972;  0.0000000E+00;  0.0000000E+00;  0.0000000E+00;  1.0000388E+03;  1.0000000E-01;  3.2196621E+01;0;  0.0000000E+00;  0.0000000E+00;  0.0000000E+00;0; -7.9797907E-03;  4.0000000E+04;  0.0000000E+00;  0.0000000E+00;  4.0000000E+04;  0.0000000E+00;  4.0000000E+04; -8.3295424E-03;  0.0000000E+00;  3.4975130E-04;  5.7914716E+02;
 -1.0000000E-01;  9.9999998E-03;  2.0000000E-01;973;  0.0000000E+00;  0.0000000E+00;  0.0000000E+00;  1.0000358E+03;  1.0000000E-01;  2.9628792E+01;0;  0.0000000E+00;  0.0000000E+00;  0.0000000E+00;0; -7.4436017E-03;  4.0000000E+04;  0.0000000E+00;  0.0000000E+00;  4.0000000E+04;  0.0000000E+00;  4.0000000E+04; -7.7601667E-03;  0.0000000E+00;  3.1656475E-04;  5.7368469E+02;
 -1.0000000E-01;  9.9999998E-03;  2.0999999E-01;974;  0.0000000E+00;  0.0000000E+00;  0.0000000E+00;  1.0000320E+03;  1.0000000E-01;  2.6567150E+01;0;  0.0000000E+00;  0.0000000E+00;  0.0000000E+00;0; -6.9263126E-03;  4.0000000E+04;  0.0000000E+00;  0.0000000E+00;  4.0000000E+04;  0.0000000E+00;  4.0000000E+04; -7.1812803E-03;  0.0000000E+00;  2.5496786E-04;  5.4763092E+02;
 -1.0000000E-01;  9.9999998E-03;  2.2000000E-01;975;  0.0000000E+00;  0.0000000E+00;  0.0000000E+00;  1.0000297E+03;  1.0000000E-01;  2.4591898E+01;0;  0.0000000E+00;  0.0000000E+00;  0.0000000E+00;0; -6.4356392E-03;  4.0000000E+04;  0.0000000E+00;  0.0000000E+00;  4.0000000E+04;  0.0000000E+00;  4.0000000E+04; -6.6001494E-03;  0.0000000E+00;  1.6451011E-04;  4.9667963E+02;
 -1.0000000E-01;  9.9999998E-03;  2.3000000E-01;976;  0.0000000E+00;  0.0000000E+00;  0.0000000E+00;  1.0000272E+03;  1.0000000E-01;  2.2517881E+01;0;  0.0000000E+00;  0.0000000E+00;  0.0000000E+00;0; -5.9726317E-03;  4.0000000E+04;  0.0000000E+00;  0.0000000E+00;  4.0000000E+04;  0.0000000E+00;  4.0000000E+04; -6.0213353E-03;  0.0000000E+00;  4.8703616E-05;  4.1895309E+02;
 -9.0000004E-02;  9.9999998E-03;  7.0000000E-02;1051;  0.0000000E+00;  0.0000000E+00;  0.0000000E+00;  1.0001246E+03;  1.0000000E-01;  1.0320695E+02;0;  0.0000000E+00;  0.0000000E+00;  0.0000000E+00;0; -1.9711319E-02;  4.0000000E+04;  0.0000000E+00;  0.0000000E+00;  4.0000000E+04;  0.0000000E+00;  4.0000000E+04; -2.0076362E-02;  0.0000000E+00;  3.6504242E-04;  5.5041974E+02;
 -9.0000004E-02;  9.9999998E-03;  7.9999998E-02;1052;  0.0000000E+00;  0.0000000E+00;  0.0000000E+00;  1.0001239E+03;  1.0000000E-01;  1.0261438E+02;0;  0.0000000E+00;  0.0000000E+00;  0.0000000E+00;0; -1.9606603E-02;  4.0000000E+04;  0.0000000E+00;  0.0000000E+00;  4.0000000E+04;  0.0000000E+00;  4.0000000E+04; -1.9965505E-02;  0.0000000E+00;  3.5890136E-04;  5.5767908E+02;
 -9.0000004E-02;  9.9999998E-03;  9.0000004E-02;1053;  0.0000000E+00;  0.0000000E+00;  0.0000000E+00;  1.0001228E+03;  1.0000000E-01;  1.0172552E+02;0;  0.0000000E+00;  0.0000000E+00;  0.0000000E+00;0; -1.9455628E-02;  4.0000000E+04;  0.0000000E+00;  0.0000000E+00;  4.0000000E+04;  0.0000000E+00;  4.0000000E+04; -1.9813335E-02;  0.0000000E+00;  3.5770671E-04;  5.7173431E+02;
 -9.0000004E-02;  9.9999998E-03;  1.0000000E-01;1054;  0.0000000E+00;  0.0000000E+00;  0.0000000E+00;  1.0001205E+03;  1.0000000E-01;  9.9849030E+01;0;  0.0000000E+00;  0.0000000E+00;  0.0000000E+00;0; -1.9244388E-02;  4.0000000E+04;  0.0000000E+00;  0.0000000E+00;  4.0000000E+04;  0.0000000E+00;  4.0000000E+04; -1.9608630E-02;  0.0000000E+00;  3.6424276E-04;  5.9318652E+02;
 -9.0000004E-02;  9.9999998E-03;  1.1000000E-01;1055;  0.0000000E+00;  0.0000000E+00;  0.0000000E+00;  1.0001176E+03;  1.0000000E-01;  9.7478722E+01;0;  0.0000000E+00;  0.0000000E+00;  0.0000000E+00;0; -1.8958801E-02;  4.0000000E+04;  0.0000000E+00;  0.0000000E+00;  4.0000000E+04;  0.0000000E+00;  4.0000000E+04; -1.9339731E-02;  0.0000000E+00;  3.8092979E-04;  6.2210803E+02;
 -9.0000004E-02;  9.9999998E-03;  1.2000000E-01;1056;  0.0000000E+00;  0.0000000E+00;  0.0000000E+00;  1.0001134E+03;  1.0000000E-01;  9.3923271E+01;0;  0.0000000E+00;  0.0000000E+00;  0.0000000E+00;0; -1.8586384E-02;  4.0000000E+04;  0.0000000E+00;  0.0000000E+00;  4.0000000E+04;  0.0000000E+00;  4.0000000E+04; -1.8995529E-02;  0.0000000E+00;  4.0914497E-04;  6.5803314E+02;
 -9.0000004E-02;  9.9999998E-03;  1.3000000E-01;1057;  0.0000000E+00;  0.0000000E+00;  0.0000000E+00;  1.0001088E+03;  1.0000000E-01;  9.0071526E+01;0;  0.0000000E+00;  0.0000000E+00;  0.0000000E+00;0; -1.8118115E-02;  4.0000000E+04;  0.0000000E+00;  0.0000000E+00;  4.0000000E+04;  0.0000000E+00;  4.0000000E+04; -1.8566675E-02;  0.0000000E+00;  4.4856072E-04;  6.9999249E+02;
 -9.0000004E-02;  9.9999998E-03;  1.4000000E-01;1058;  0.0000000E+00;  0.0000000E+00;  0.0000000E+00;  1.0001031E+03;  1.0000000E-01;  8.5429680E+01;0;  0.0000000E+00;  0.0000000E+00;  0.0000000E+00;0; -1.7550306E-02;  4.0000000E+04;  0.0000000E+00;  0.0000000E+00;  4.0000000E+04;  0.0000000E+00;  4.0000000E+04; -1.8046938E-02;  0.0000000E+00;  4.9663190E-04;  7.4655200E+02;
 -9.0000004E-02;  9.9999998E-03;  1.5000001E-01;1059;  0.0000000E+00;  0.0000000E+00;  0.0000000E+00;  1.0000969E+03;  1.0000000E-01;  8.0294022E+01;0;  0.0000000E+00;  0.0000000E+00;  0.0000000E+00;0; -1.6885899E-02;  4.0000000E+04;  0.0000000E+00;  0.0000000E+00;  4.0000000E+04;  0.0000000E+00;  4.0000000E+04; -1.7434273E-02;  0.0000000E+00;  5.4837414E-04;  7.9576349E+02;
 -9.0000004E-02;  9.9999998E-03;  1.6000000E-01;1060;  0.0000000E+00;  0.0000000E+00;  0.0000000E+00;  1.0000900E+03;  1.0000000E-01;  7.4565796E+01;0;  0.0000000E+00;  0.0000000E+00;  0.0000000E+00;0; -1.6135156E-02;  4.0000000E+04;  0.0000000E+00;  0.0000000E+00;  4.0000000E+04;  0.0000000E+00;  4.0000000E+04; -1.6731663E-02;  0.0000000E+00;  5.9650710E-04;  8.4499615E+02;
 -9.0000004E-02;  9.9999998E-03;  1.7000000E-01;1061;  0.0000000E+00;  0.0000000E+00;  0.0000000E+00;  1.0000829E+03;  1.0000000E-01;  6.8640038E+01;0;  0.0000000E+00;  0.0000000E+00;  0.0000000E+00;0; -1.5315507E-02;  4.0000000E+04;  0.0000000E+00;  0.0000000E+00;  4.0000000E+04;  0.0000000E+00;  4.0000000E+04; -1.5947092E-02;  0.0000000E+00;  6.3158589E-04;  8.9025293E+02;
 -9.0000004E-02;  9.9999998E-03;  1.8000001E-01;1062;  0.0000000E+00;  0.0000000E+00;  0.0000000E+00;  1.0000760E+03;  1.0000000E-01;  6.3010563E+01;0;  0.0000000E+00;  0.0000000E+00;  0.0000000E+00;0; -1.4450032E-02;  4.0000000E+04;  0.0000000E+00;  0.0000000E+00;  4.0000000E+04;  0.0000000E+00;  4.0000000E+04; -1.5092784E-02;  0.0000000E+00;  6.4275129E-04;  9.2578479E+02;
 -9.0000004E-02;  9.9999998E-03;  1.9000000E-01;1063;  0.0000000E+00;  0.0000000E+00;  0.0000000E+00;  1.0000697E+03;  1.0000000E-01;  5.7776142E+01;0;  0.0000000E+00;  0.0000000E+00;  0.0000000E+00;0; -1.3564589E-02;  4.0000000E+04;  0.0000000E+00;  0.0000000E+00;  4.0000000E+04;  0.0000000E+00;  4.0000000E+04; -1.4183727E-02;  0.0000000E+00;  6.1913853E-04;  9.4404462E+02;
 -9.0000004E-02;  9.9999998E-03;  2.0000000E-01;1064;  0.0000000E+00;  0.0000000E+00;  0.0000000E+00;  1.0000637E+03;  1.0000000E-01;  5.2739250E+01;0;  0.0000000E+00;  0.0000000E+00;  0.0000000E+00;0; -1.2683842E-02;  4.0000000E+04;  0.0000000E+00;  0.0000000E+00;  4.0000000E+04;  0.0000000E+00;  4.0000000E+04; -1.3235413E-02;  0.0000000E+00;  5.5157038E-04;  9.3609949E+02;
 -9.0000004E-02;  9.9999998E-03;  2.0999999E-01;1065;  0.0000000E+00;  0.0000000E+00;  0.0000000E+00;  1.0000582E+03;  1.0000000E-01;  4.8196167E+01;0;  0.0000000E+00;  0.0000000E+00;  0.0000000E+00;0; -1.1827481E-02;  4.0000000E+04;  0.0000000E+00;  0.0000000E+00;  4.0000000E+04;  0.0000000E+00;  4.0000000E+04; -1.2262126E-02;  0.0000000E+00;  4.3464586E-04;  8.9319684E+02;
 -9.0000004E-02;  9.9999998E-03;  2.2000000E-01;1066;  0.0000000E+00;  0.0000000E+00;  0.0000000E+00;  1.0000532E+03;  1.0000000E-01;  4.4048138E+01;0;  0.0000000E+00;  0.0000000E+00;  0.0000000E+00;0; -1.1006973E-02;  4.0000000E+04;  0.0000000E+00;  0.0000000E+00;  4.0000000E+04;  0.0000000E+00;  4.0000000E+04; -1.1275549E-02;  0.0000000E+00;  2.6857658E-04;  8.0883264E+02;
 -9.0000004E-02;  9.9999998E-03;  2.3000000E-01;1067;  0.0000000E+00;  0.0000000E+00;  0.0000000E+00;  1.0000490E+03;  1.0000000E-01;  4.0591446E+01;0;  0.0000000E+00;  0.0000000E+00;  0.0000000E+00;0; -1.0224205E-02;  4.0000000E+04;  0.0000000E+00;  0.0000000E+00;  4.0000000E+04;  0.0000000E+00;  4.0000000E+04; -1.0284437E-02;  0.0000000E+00;  6.0232385E-05;  6.8065436E+02;
 -7.9999998E-02;  9.9999998E-03;  7.0000000E-02;1142;  0.0000000E+00;  0.0000000E+00;  0.0000000E+00;  1.0002050E+03;  1.0000000E-01;  1.6977298E+02;0;  0.0000000E+00;  0.0000000E+00;  0.0000000E+00;0; -3.1044057E-02;  4.0000000E+04;  0.0000000E+00;  0.0000000E+00;  4.0000000E+04;  0.0000000E+00;  4.0000000E+04; -3.1699948E-02;  0.0000000E+00;  6.5589085E-04;  8.2198401E+02;
 -7.9999998E-02;  9.9999998E-03;  7.9999998E-02;1143;  0.0000000E+00;  0.0000000E+00;  0.0000000E+00;  1.0002036E+03;  1.0000000E-01;  1.6868658E+02;0;  0.0000000E+00;  0.0000000E+00;  0.0000000E+00;0; -3.0883895E-02;  4.0000000E+04;  0.0000000E+00;  0.0000000E+00;  4.0000000E+04;  0.0000000E+00;  4.0000000E+04; -3.1529050E-02;  0.0000000E+00;  6.4515596E-04;  8.3385834E+02;
 -7.9999998E-02;  9.9999998E-03;  9.0000004E-02;1144;  0.0000000E+00;  0.0000000E+00;  0.0000000E+00;  1.0002011E+03;  1.0000000E-01;  1.6661258E+02;0;  0.0000000E+00;  0.0000000E+00;  0.0000000E+00;0; -3.0651549E-02;  4.0000000E+04;  0.0000000E+00;  0.0000000E+00;  4.0000000E+04;  0.0000000E+00;  4.0000000E+04; -3.1294167E-02;  0.0000000E+00;  6.4261846E-04;  8.5563354E+02;
 -7.9999998E-02;  9.9999998E-03;  1.0000000E-01;1145;  0.0000000E+00;  0.0000000E+00;  0.0000000E+00;  1.0001973E+03;  1.0000000E-01;  1.6345216E+02;0;  0.0000000E+00;  0.0000000E+00;  0.0000000E+00;0; -3.0325742E-02;  4.0000000E+04;  0.0000000E+00;  0.0000000E+00;  4.0000000E+04;  0.0000000E+00;  4.0000000E+04; -3.0978411E-02;  0.0000000E+00;  6.5266865E-04;  8.8824060E+02;
 -7.9999998E-02;  9.9999998E-03;  1.1000000E-01;1146;  0.0000000E+00;  0.0000000E+00;  0.0000000E+00;  1.0001924E+03;  1.0000000E-01;  1.5940289E+02;0;  0.0000000E+00;  0.0000000E+00;  0.0000000E+00;0; -2.9885421E-02;  4.0000000E+04;  0.0000000E+00;  0.0000000E+00;  4.0000000E+04;  0.0000000E+00;  4.0000000E+04; -3.0564407E-02;  0.0000000E+00;  6.7898637E-04;  9.3193719E+02;
 -7.9999998E-02;  9.9999998E-03;  1.2000000E-01;1147;  0.0000000E+00;  0.0000000E+00;  0.0000000E+00;  1.0001857E+03;  1.0000000E-01;  1.5387219E+02;0;  0.0000000E+00;  0.0000000E+00;  0.0000000E+00;0; -2.9312067E-02;  4.0000000E+04;  0.0000000E+00;  0.0000000E+00;  4.0000000E+04;  0.0000000E+00;  4.0000000E+04; -3.0035550E-02;  0.0000000E+00;  7.2348211E-04;  9.8629535E+02;
 -7.9999998E-02;  9.9999998E-03;  1.3000000E-01;1148;  0.0000000E+00;  0.0000000E+00;  0.0000000E+00;  1.0001782E+03;  1.0000000E-01;  1.4765015E+02;0;  0.0000000E+00;  0.0000000E+00;  0.0000000E+00;0; -2.8592519E-02;  4.0000000E+04;  0.0000000E+00;  0.0000000E+00;  4.0000000E+04;  0.0000000E+00;  4.0000000E+04; -2.9377798E-02;  0.0000000E+00;  7.8527740E-04;  1.0502480E+03;
 -7.9999998E-02;  9.9999998E-03;  1.4000000E-01;1149;  0.0000000E+00;  0.0000000E+00;  0.0000000E+00;  1.0001689E+03;  1.0000000E-01;  1.3994666E+02;0;  0.0000000E+00;  0.0000000E+00;  0.0000000E+00;0; -2.7721670E-02;  4.0000000E+04;  0.0000000E+00;  0.0000000E+00;  4.0000000E+04;  0.0000000E+00;  4.0000000E+04; -2.8581614E-02;  0.0000000E+00;  8.5994333E-04;  1.1220402E+03;
 -7.9999998E-02;  9.9999998E-03;  1.5000001E-01;1150;  0.0000000E+00;  0.0000000E+00;  0.0000000E+00;  1.0001588E+03;  1.0000000E-01;  1.3155183E+02;0;  0.0000000E+00;  0.0000000E+00;  0.0000000E+00;0; -2.6704093E-02;  4.0000000E+04;  0.0000000E+00;  0.0000000E+00;  4.0000000E+04;  0.0000000E+00;  4.0000000E+04; -2.7643275E-02;  0.0000000E+00;  9.3918125E-04;  1.1990375E+03;
 -7.9999998E-02;  9.9999998E-03;  1.6000000E-01;1151;  0.0000000E+00;  0.0000000E+00;  0.0000000E+00;  1.0001479E+03;  1.0000000E-01;  1.2256444E+02;0;  0.0000000E+00;  0.0000000E+00;  0.0000000E+00;0; -2.5555223E-02;  4.0000000E+04;  0.0000000E+00;  0.0000000E+00;  4.0000000E+04;  0.0000000E+00;  4.0000000E+04; -2.6566124E-02;  0.0000000E+00;  1.0109012E-03;  1.2771443E+03;
 -7.9999998E-02;  9.9999998E-03;  1.7000000E-01;1152;  0.0000000E+00;  0.0000000E+00;  0.0000000E+00;  1.0001371E+03;  1.0000000E-01;  1.1357703E+02;0;  0.0000000E+00;  0.0000000E+00;  0.0000000E+00;0; -2.4300860E-02;  4.0000000E+04;  0.0000000E+00;  0.0000000E+00;  4.0000000E+04;  0.0000000E+00;  4.0000000E+04; -2.5360350E-02;  0.0000000E+00;  1.0594887E-03;  1.3497659E+03;
 -7.9999998E-02;  9.9999998E-03;  1.8000001E-01;1153;  0.0000000E+00;  0.0000000E+00;  0.0000000E+00;  1.0001260E+03;  1.0000000E-01;  1.0439211E+02;0;  0.0000000E+00;  0.0000000E+00;  0.0000000E+00;0; -2.2974761E-02;  4.0000000E+04;  0.0000000E+00;  0.0000000E+00;  4.0000000E+04;  0.0000000E+00;  4.0000000E+04; -2.4042221E-02;  0.0000000E+00;  1.0674602E-03;  1.4075272E+03;
 -7.9999998E-02;  9.9999998E-03;  1.9000000E-01;1154;  0.0000000E+00;  0.0000000E+00;  0.0000000E+00;  1.0001155E+03;  1.0000000E-01;  9.5700996E+01;0;  0.0000000E+00;  0.0000000E+00;  0.0000000E+00;0; -2.1614194E-02;  4.0000000E+04;  0.0000000E+00;  0.0000000E+00;  4.0000000E+04;  0.0000000E+00;  4.0000000E+04; -2.2631695E-02;  0.0000000E+00;  1.0175020E-03;  1.4379990E+03;
 -7.9999998E-02;  9.9999998E-03;  2.0000000E-01;1155;  0.0000000E+00;  0.0000000E+00;  0.0000000E+00;  1.0001062E+03;  1.0000000E-01;  8.7997513E+01;0;  0.0000000E+00;  0.0000000E+00;  0.0000000E+00;0; -2.0254532E-02;  4.0000000E+04;  0.0000000E+00;  0.0000000E+00;  4.0000000E+04;  0.0000000E+00;  4.0000000E+04; -2.1150015E-02;  0.0000000E+00;  8.9548330E-04;  1.4271244E+03;
 -7.9999998E-02;  9.9999998E-03;  2.0999999E-01;1156;  0.0000000E+00;  0.0000000E+00;  0.0000000E+00;  1.0000971E+03;  1.0000000E-01;  8.0491554E+01;0;  0.0000000E+00;  0.0000000E+00;  0.0000000E+00;0; -1.8923771E-02;  4.0000000E+04;  0.0000000E+00;  0.0000000E+00;  4.0000000E+04;  0.0000000E+00;  4.0000000E+04; -1.9617487E-02;  0.0000000E+00;  6.9371663E-04;  1.3617772E+03;
 -7.9999998E-02;  9.9999998E-03;  2.2000000E-01;1157;  0.0000000E+00;  0.0000000E+00;  0.0000000E+00;  1.0000894E+03;  1.0000000E-01;  7.4071976E+01;0;  0.0000000E+00;  0.0000000E+00;  0.0000000E+00;0; -1.7638547E-02;  4.0000000E+04;  0.0000000E+00;  0.0000000E+00;  4.0000000E+04;  0.0000000E+00;  4.0000000E+04; -1.8052142E-02;  0.0000000E+00;  4.1359474E-04;  1.2326082E+03;
 -7.9999998E-02;  9.9999998E-03;  2.3000000E-01;1158;  0.0000000E+00;  0.0000000E+00;  0.0000000E+00;  1.0000825E+03;  1.0000000E-01;  6.8343742E+01;0;  0.0000000E+00;  0.0000000E+00;  0.0000000E+00;0; -1.6402094E-02;  4.0000000E+04;  0.0000000E+00;  0.0000000E+00;  4.0000000E+04;  0.0000000E+00;  4.0000000E+04; -1.6469035E-02;  0.0000000E+00;  6.6942004E-05;  1.0366346E+03;
 -7.0000000E-02;  9.9999998E-03;  7.0000000E-02;1233;  0.0000000E+00;  0.0000000E+00;  0.0000000E+00;  1.0003245E+03;  1.0000000E-01;  2.6883191E+02;0;  0.0000000E+00;  0.0000000E+00;  0.0000000E+00;0; -4.6382245E-02;  4.0000000E+04;  0.0000000E+00;  0.0000000E+00;  4.0000000E+04;  0.0000000E+00;  4.0000000E+04; -4.7478095E-02;  0.0000000E+00;  1.0958489E-03;  1.1711163E+03;
 -7.0000000E-02;  9.9999998E-03;  7.9999998E-02;1234;  0.0000000E+00;  0.0000000E+00;  0.0000000E+00;  1.0003207E+03;  1.0000000E-01;  2.6577026E+02;0;  0.0000000E+00;  0.0000000E+00;  0.0000000E+00;0; -4.6152111E-02;  4.0000000E+04;  0.0000000E+00;  0.0000000E+00;  4.0000000E+04;  0.0000000E+00;  4.0000000E+04; -4.7229428E-02;  0.0000000E+00;  1.0773152E-03;  1.1889508E+03;
 -7.0000000E-02;  9.9999998E-03;  9.0000004E-02;1235;  0.0000000E+00;  0.0000000E+00;  0.0000000E+00;  1.0003156E+03;  1.0000000E-01;  2.6152347E+02;0;  0.0000000E+00;  0.0000000E+00;  0.0000000E+00;0; -4.5815993E-02;  4.0000000E+04;  0.0000000E+00;  0.0000000E+00;  4.0000000E+04;  0.0000000E+00;  4.0000000E+04; -4.6887256E-02;  0.0000000E+00;  1.0712629E-03;  1.2202402E+03;
 -7.0000000E-02;  9.9999998E-03;  1.0000000E-01;1236;  0.0000000E+00;  0.0000000E+00;  0.0000000E+00;  1.0003082E+03;  1.0000000E-01;  2.5540018E+02;0;  0.0000000E+00;  0.0000000E+00;  0.0000000E+00;0; -4.5343284E-02;  4.0000000E+04;  0.0000000E+00;  0.0000000E+00;  4.0000000E+04;  0.0000000E+00;  4.0000000E+04; -4.6427574E-02;  0.0000000E+00;  1.0842896E-03;  1.2663689E+03;
 -7.0000000E-02;  9.9999998E-03;  1.1000000E-01;1237;  0.0000000E+00;  0.0000000E+00;  0.0000000E+00;  1.0002998E+03;  1.0000000E-01;  2.4838803E+02;0;  0.0000000E+00;  0.0000000E+00;  0.0000000E+00;0; -4.4703651E-02;  4.0000000E+04;  0.0000000E+00;  0.0000000E+00;  4.0000000E+04;  0.0000000E+00;  4.0000000E+04; -4.5825470E-02;  0.0000000E+00;  1.1218197E-03;  1.3279391E+03;
 -7.0000000E-02;  9.9999998E-03;  1.2000000E-01;1238;  0.0000000E+00;  0.0000000E+00;  0.0000000E+00;  1.0002891E+03;  1.0000000E-01;  2.3949940E+02;0;  0.0000000E+00;  0.0000000E+00;  0.0000000E+00;0; -4.3870609E-02;  4.0000000E+04;  0.0000000E+00;  0.0000000E+00;  4.0000000E+04;  0.0000000E+00;  4.0000000E+04; -4.5057129E-02;  0.0000000E+00;  1.1865203E-03;  1.4047780E+03;
 -7.0000000E-02;  9.9999998E-03;  1.3000000E-01;1239;  0.0000000E+00;  0.0000000E+00;  0.0000000E+00;  1.0002768E+03;  1.0000000E-01;  2.2932684E+02;0;  0.0000000E+00;  0.0000000E+00;  0.0000000E+00;0; -4.2825457E-02;  4.0000000E+04;  0.0000000E+00;  0.0000000E+00;  4.0000000E+04;  0.0000000E+00;  4.0000000E+04; -4.4102255E-02;  0.0000000E+00;  1.2767970E-03;  1.4959335E+03;
 -7.0000000E-02;  9.9999998E-03;  1.4000000E-01;1240;  0.0000000E+00;  0.0000000E+00;  0.0000000E+00;  1.0002626E+03;  1.0000000E-01;  2.1757410E+02;0;  0.0000000E+00;  0.0000000E+00;  0.0000000E+00;0; -4.1560829E-02;  4.0000000E+04;  0.0000000E+00;  0.0000000E+00;  4.0000000E+04;  0.0000000E+00;  4.0000000E+04; -4.2946484E-02;  0.0000000E+00;  1.3856568E-03;  1.5994875E+03;
 -7.0000000E-02;  9.9999998E-03;  1.5000001E-01;1241;  0.0000000E+00;  0.0000000E+00;  0.0000000E+00;  1.0002472E+03;  1.0000000E-01;  2.0483371E+02;0;  0.0000000E+00;  0.0000000E+00;  0.0000000E+00;0; -4.0083237E-02;  4.0000000E+04;  0.0000000E+00;  0.0000000E+00;  4.0000000E+04;  0.0000000E+00;  4.0000000E+04; -4.1583467E-02;  0.0000000E+00;  1.5002290E-03;  1.7120803E+03;
 -7.0000000E-02;  9.9999998E-03;  1.6000000E-01;1242;  0.0000000E+00;  0.0000000E+00;  0.0000000E+00;  1.0002311E+03;  1.0000000E-01;  1.9150076E+02;0;  0.0000000E+00;  0.0000000E+00;  0.0000000E+00;0; -3.8414385E-02;  4.0000000E+04;  0.0000000E+00;  0.0000000E+00;  4.0000000E+04;  0.0000000E+00;  4.0000000E+04; -4.0015932E-02;  0.0000000E+00;  1.6015460E-03;  1.8275950E+03;
 -7.0000000E-02;  9.9999998E-03;  1.7000000E-01;1243;  0.0000000E+00;  0.0000000E+00;  0.0000000E+00;  1.0002144E+03;  1.0000000E-01;  1.7767398E+02;0;  0.0000000E+00;  0.0000000E+00;  0.0000000E+00;0; -3.6590625E-02;  4.0000000E+04;  0.0000000E+00;  0.0000000E+00;  4.0000000E+04;  0.0000000E+00;  4.0000000E+04; -3.8256243E-02;  0.0000000E+00;  1.6656199E-03;  1.9362382E+03;
 -7.0000000E-02;  9.9999998E-03;  1.8000001E-01;1244;  0.0000000E+00;  0.0000000E+00;  0.0000000E+00;  1.0001980E+03;  1.0000000E-01;  1.6404474E+02;0;  0.0000000E+00;  0.0000000E+00;  0.0000000E+00;0; -3.4659002E-02;  4.0000000E+04;  0.0000000E+00;  0.0000000E+00;  4.0000000E+04;  0.0000000E+00;  4.0000000E+04; -3.6324631E-02;  0.0000000E+00;  1.6656284E-03;  2.0235181E+03;
 -7.0000000E-02;  9.9999998E-03;  1.9000000E-01;1245;  0.0000000E+00;  0.0000000E+00;  0.0000000E+00;  1.0001822E+03;  1.0000000E-01;  1.5090932E+02;0;  0.0000000E+00;  0.0000000E+00;  0.0000000E+00;0; -3.2671254E-02;  4.0000000E+04;  0.0000000E+00;  0.0000000E+00;  4.0000000E+04;  0.0000000E+00;  4.0000000E+04; -3.4246646E-02;  0.0000000E+00;  1.5753902E-03;  2.0706550E+03;
 -7.0000000E-02;  9.9999998E-03;  2.0000000E-01;1246;  0.0000000E+00;  0.0000000E+00;  0.0000000E+00;  1.0001674E+03;  1.0000000E-01;  1.3866275E+02;0;  0.0000000E+00;  0.0000000E+00;  0.0000000E+00;0; -3.0676207E-02;  4.0000000E+04;  0.0000000E+00;  0.0000000E+00;  4.0000000E+04;  0.0000000E+00;  4.0000000E+04; -3.2050315E-02;  0.0000000E+00;  1.3741087E-03;  2.0571848E+03;
 -7.0000000E-02;  9.9999998E-03;  2.0999999E-01;1247;  0.0000000E+00;  0.0000000E+00;  0.0000000E+00;  1.0001541E+03;  1.0000000E-01;  1.2760133E+02;0;  0.0000000E+00;  0.0000000E+00;  0.0000000E+00;0; -2.8712556E-02;  4.0000000E+04;  0.0000000E+00;  0.0000000E+00;  4.0000000E+04;  0.0000000E+00;  4.0000000E+04; -2.9763652E-02;  0.0000000E+00;  1.0510962E-03;  1.9644275E+03;
 -7.0000000E-02;  9.9999998E-03;  2.2000000E-01;1248;  0.0000000E+00;  0.0000000E+00;  0.0000000E+00;  1.0001418E+03;  1.0000000E-01;  1.1752754E+02;0;  0.0000000E+00;  0.0000000E+00;  0.0000000E+00;0; -2.6803704E-02;  4.0000000E+04;  0.0000000E+00;  0.0000000E+00;  4.0000000E+04;  0.0000000E+00;  4.0000000E+04; -2.7413137E-02;  0.0000000E+00;  6.0943252E-04;  1.7792859E+03;
 -7.0000000E-02;  9.9999998E-03;  2.3000000E-01;1249;  0.0000000E+00;  0.0000000E+00;  0.0000000E+00;  1.0001311E+03;  1.0000000E-01;  1.0863890E+02;0;  0.0000000E+00;  0.0000000E+00;  0.0000000E+00;0; -2.4955017E-02;  4.0000000E+04;  0.0000000E+00;  0.0000000E+00;  4.0000000E+04;  0.0000000E+00;  4.0000000E+04; -2.5022732E-02;  0.0000000E+00;  6.7714565E-05;  1.4977332E+03;
 -5.9999999E-02;  9.9999998E-03;  7.0000000E-02;1324;  0.0000000E+00;  0.0000000E+00;  0.0000000E+00;  1.0004907E+03;  1.0000000E-01;  4.0650702E+02;0;  0.0000000E+00;  0.0000000E+00;  0.0000000E+00;0; -6.6199914E-02;  4.0000000E+04;  0.0000000E+00;  0.0000000E+00;  4.0000000E+04;  0.0000000E+00;  4.0000000E+04; -6.7921877E-02;  0.0000000E+00;  1.7219608E-03;  1.6008185E+03;
 -5.9999999E-02;  9.9999998E-03;  7.9999998E-02;1325;  0.0000000E+00;  0.0000000E+00;  0.0000000E+00;  1.0004856E+03;  1.0000000E-01;  4.0226022E+02;0;  0.0000000E+00;  0.0000000E+00;  0.0000000E+00;0; -6.5887496E-02;  4.0000000E+04;  0.0000000E+00;  0.0000000E+00;  4.0000000E+04;  0.0000000E+00;  4.0000000E+04; -6.7578018E-02;  0.0000000E+00;  1.6905246E-03;  1.6256349E+03;
 -5.9999999E-02;  9.9999998E-03;  9.0000004E-02;1326;  0.0000000E+00;  0.0000000E+00;  0.0000000E+00;  1.0004772E+03;  1.0000000E-01;  3.9534683E+02;0;  0.0000000E+00;  0.0000000E+00;  0.0000000E+00;0; -6.5427721E-02;  4.0000000E+04;  0.0000000E+00;  0.0000000E+00;  4.0000000E+04;  0.0000000E+00;  4.0000000E+04; -6.7104526E-02;  0.0000000E+00;  1.6768045E-03;  1.6676021E+03;
 -5.9999999E-02;  9.9999998E-03;  1.0000000E-01;1327;  0.0000000E+00;  0.0000000E+00;  0.0000000E+00;  1.0004655E+03;  1.0000000E-01;  3.8566809E+02;0;  0.0000000E+00;  0.0000000E+00;  0.0000000E+00;0; -6.4778127E-02;  4.0000000E+04;  0.0000000E+00;  0.0000000E+00;  4.0000000E+04;  0.0000000E+00;  4.0000000E+04; -6.6468522E-02;  0.0000000E+00;  1.6903967E-03;  1.7287064E+03;
 -5.9999999E-02;  9.9999998E-03;  1.1000000E-01;1328;  0.0000000E+00;  0.0000000E+00;  0.0000000E+00;  1.0004495E+03;  1.0000000E-01;  3.7243390E+02;0;  0.0000000E+00;  0.0000000E+00;  0.0000000E+00;0; -6.3896507E-02;  4.0000000E+04;  0.0000000E+00;  0.0000000E+00;  4.0000000E+04;  0.0000000E+00;  4.0000000E+04; -6.5635651E-02;  0.0000000E+00;  1.7391478E-03;  1.8101387E+03;
 -5.9999999E-02;  9.9999998E-03;  1.2000000E-01;1329;  0.0000000E+00;  0.0000000E+00;  0.0000000E+00;  1.0004313E+03;  1.0000000E-01;  3.5732324E+02;0;  0.0000000E+00;  0.0000000E+00;  0.0000000E+00;0; -6.2746122E-02;  4.0000000E+04;  0.0000000E+00;  0.0000000E+00;  4.0000000E+04;  0.0000000E+00;  4.0000000E+04; -6.4573027E-02;  0.0000000E+00;  1.8269011E-03;  1.9123031E+03;
 -5.9999999E-02;  9.9999998E-03;  1.3000000E-01;1330;  0.0000000E+00;  0.0000000E+00;  0.0000000E+00;  1.0004121E+03;  1.0000000E-01;  3.4142245E+02;0;  0.0000000E+00;  0.0000000E+00;  0.0000000E+00;0; -6.1300788E-02;  4.0000000E+04;  0.0000000E+00;  0.0000000E+00;  4.0000000E+04;  0.0000000E+00;  4.0000000E+04; -6.3252084E-02;  0.0000000E+00;  1.9512965E-03;  2.0347295E+03;
 -5.9999999E-02;  9.9999998E-03;  1.4000000E-01;1331;  0.0000000E+00;  0.0000000E+00;  0.0000000E+00;  1.0003912E+03;  1.0000000E-01;  3.2404022E+02;0;  0.0000000E+00;  0.0000000E+00;  0.0000000E+00;0; -5.9549816E-02;  4.0000000E+04;  0.0000000E+00;  0.0000000E+00;  4.0000000E+04;  0.0000000E+00;  4.0000000E+04; -6.1651930E-02;  0.0000000E+00;  2.1021159E-03;  2.1756187E+03;
 -5.9999999E-02;  9.9999998E-03;  1.5000001E-01;1332;  0.0000000E+00;  0.0000000E+00;  0.0000000E+00;  1.0003685E+03;  1.0000000E-01;  3.0527533E+02;0;  0.0000000E+00;  0.0000000E+00;  0.0000000E+00;0; -5.7501454E-02;  4.0000000E+04;  0.0000000E+00;  0.0000000E+00;  4.0000000E+04;  0.0000000E+00;  4.0000000E+04; -5.9761874E-02;  0.0000000E+00;  2.2604212E-03;  2.3308657E+03;
 -5.9999999E-02;  9.9999998E-03;  1.6000000E-01;1333;  0.0000000E+00;  0.0000000E+00;  0.0000000E+00;  1.0003447E+03;  1.0000000E-01;  2.8562155E+02;0;  0.0000000E+00;  0.0000000E+00;  0.0000000E+00;0; -5.5184916E-02;  4.0000000E+04;  0.0000000E+00;  0.0000000E+00;  4.0000000E+04;  0.0000000E+00;  4.0000000E+04; -5.7583150E-02;  0.0000000E+00;  2.3982332E-03;  2.4921792E+03;
 -5.9999999E-02;  9.9999998E-03;  1.7000000E-01;1334;  0.0000000E+00;  0.0000000E+00;  0.0000000E+00;  1.0003203E+03;  1.0000000E-01;  2.6537521E+02;0;  0.0000000E+00;  0.0000000E+00;  0.0000000E+00;0; -5.2649114E-02;  4.0000000E+04;  0.0000000E+00;  0.0000000E+00;  4.0000000E+04;  0.0000000E+00;  4.0000000E+04; -5.5129439E-02;  0.0000000E+00;  2.4803234E-03;  2.6456328E+03;
 -5.9999999E-02;  9.9999998E-03;  1.8000001E-01;1335;  0.0000000E+00;  0.0000000E+00;  0.0000000E+00;  1.0002966E+03;  1.0000000E-01;  2.4572145E+02;0;  0.0000000E+00;  0.0000000E+00;  0.0000000E+00;0; -4.9957193E-02;  4.0000000E+04;  0.0000000E+00;  0.0000000E+00;  4.0000000E+04;  0.0000000E+00;  4.0000000E+04; -5.2424513E-02;  0.0000000E+00;  2.4673187E-03;  2.7702749E+03;
 -5.9999999E-02;  9.9999998E-03;  1.9000000E-01;1336;  0.0000000E+00;  0.0000000E+00;  0.0000000E+00;  1.0002736E+03;  1.0000000E-01;  2.2666026E+02;0;  0.0000000E+00;  0.0000000E+00;  0.0000000E+00;0; -4.7178432E-02;  4.0000000E+04;  0.0000000E+00;  0.0000000E+00;  4.0000000E+04;  0.0000000E+00;  4.0000000E+04; -4.9499702E-02;  0.0000000E+00;  2.3212684E-03;  2.8396936E+03;
 -5.9999999E-02;  9.9999998E-03;  2.0000000E-01;1337;  0.0000000E+00;  0.0000000E+00;  0.0000000E+00;  1.0002522E+03;  1.0000000E-01;  2.0898175E+02;0;  0.0000000E+00;  0.0000000E+00;  0.0000000E+00;0; -4.4378288E-02;  4.0000000E+04;  0.0000000E+00;  0.0000000E+00;  4.0000000E+04;  0.0000000E+00;  4.0000000E+04; -4.6390820E-02;  0.0000000E+00;  2.0125334E-03;  2.8256079E+03;
 -5.9999999E-02;  9.9999998E-03;  2.0999999E-01;1338;  0.0000000E+00;  0.0000000E+00;  0.0000000E+00;  1.0002326E+03;  1.0000000E-01;  1.9268591E+02;0;  0.0000000E+00;  0.0000000E+00;  0.0000000E+00;0; -4.1608866E-02;  4.0000000E+04;  0.0000000E+00;  0.0000000E+00;  4.0000000E+04;  0.0000000E+00;  4.0000000E+04; -4.3135244E-02;  0.0000000E+00;  1.5263796E-03;  2.7023916E+03;
 -5.9999999E-02;  9.9999998E-03;  2.2000000E-01;1339;  0.0000000E+00;  0.0000000E+00;  0.0000000E+00;  1.0002150E+03;  1.0000000E-01;  1.7806903E+02;0;  0.0000000E+00;  0.0000000E+00;  0.0000000E+00;0; -3.8902123E-02;  4.0000000E+04;  0.0000000E+00;  0.0000000E+00;  4.0000000E+04;  0.0000000E+00;  4.0000000E+04; -3.9770070E-02;  0.0000000E+00;  8.6794683E-04;  2.4519016E+03;
 -5.9999999E-02;  9.9999998E-03;  2.3000000E-01;1340;  0.0000000E+00;  0.0000000E+00;  0.0000000E+00;  1.0001990E+03;  1.0000000E-01;  1.6483484E+02;0;  0.0000000E+00;  0.0000000E+00;  0.0000000E+00;0; -3.6266319E-02;  4.0000000E+04;  0.0000000E+00;  0.0000000E+00;  4.0000000E+04;  0.0000000E+00;  4.0000000E+04; -3.6330849E-02;  0.0000000E+00;  6.4530133E-05;  2.0681328E+03;
 -5.0000001E-02;  9.9999998E-03;  7.0000000E-02;1415;  0.0000000E+00;  0.0000000E+00;  0.0000000E+00;  1.0007100E+03;  1.0000000E-01;  5.8823029E+02;0;  0.0000000E+00;  0.0000000E+00;  0.0000000E+00;0; -9.0619907E-02;  4.0000000E+04;  0.0000000E+00;  0.0000000E+00;  4.0000000E+04;  0.0000000E+00;  4.0000000E+04; -9.3185544E-02;  0.0000000E+00;  2.5656386E-03;  2.1058164E+03;
 -5.0000001E-02;  9.9999998E-03;  7.9999998E-02;1416;  0.0000000E+00;  0.0000000E+00;  0.0000000E+00;  1.0007028E+03;  1.0000000E-01;  5.8230450E+02;0;  0.0000000E+00;  0.0000000E+00;  0.0000000E+00;0; -9.0218440E-02;  4.0000000E+04;  0.0000000E+00;  0.0000000E+00;  4.0000000E+04;  0.0000000E+00;  4.0000000E+04; -9.2732131E-02;  0.0000000E+00;  2.5136902E-03;  2.1379700E+03;
 -5.0000001E-02;  9.9999998E-03;  9.0000004E-02;1417;  0.0000000E+00;  0.0000000E+00;  0.0000000E+00;  1.0006919E+03;  1.0000000E-01;  5.7321838E+02;0;  0.0000000E+00;  0.0000000E+00;  0.0000000E+00;0; -8.9622028E-02;  4.0000000E+04;  0.0000000E+00;  0.0000000E+00;  4.0000000E+04;  0.0000000E+00;  4.0000000E+04; -9.2107460E-02;  0.0000000E+00;  2.4854350E-03;  2.1906431E+03;
 -5.0000001E-02;  9.9999998E-03;  1.0000000E-01;1418;  0.0000000E+00;  0.0000000E+00;  0.0000000E+00;  1.0006751E+03;  1.0000000E-01;  5.5929285E+02;0;  0.0000000E+00;  0.0000000E+00;  0.0000000E+00;0; -8.8773243E-02;  4.0000000E+04;  0.0000000E+00;  0.0000000E+00;  4.0000000E+04;  0.0000000E+00;  4.0000000E+04; -9.1267690E-02;  0.0000000E+00;  2.4944486E-03;  2.2665940E+03;
 -5.0000001E-02;  9.9999998E-03;  1.1000000E-01;1419;  0.0000000E+00;  0.0000000E+00;  0.0000000E+00;  1.0006526E+03;  1.0000000E-01;  5.4062671E+02;0;  0.0000000E+00;  0.0000000E+00;  0.0000000E+00;0; -8.7615758E-02;  4.0000000E+04;  0.0000000E+00;  0.0000000E+00;  4.0000000E+04;  0.0000000E+00;  4.0000000E+04; -9.0167738E-02;  0.0000000E+00;  2.5519768E-03;  2.3679136E+03;
 -5.0000001E-02;  9.9999998E-03;  1.2000000E-01;1420;  0.0000000E+00;  0.0000000E+00;  0.0000000E+00;  1.0006246E+03;  1.0000000E-01;  5.1751624E+02;0;  0.0000000E+00;  0.0000000E+00;  0.0000000E+00;0; -8.6099461E-02;  4.0000000E+04;  0.0000000E+00;  0.0000000E+00;  4.0000000E+04;  0.0000000E+00;  4.0000000E+04; -8.8763185E-02;  0.0000000E+00;  2.6637251E-03;  2.4960522E+03;
 -5.0000001E-02;  9.9999998E-03;  1.3000000E-01;1421;  0.0000000E+00;  0.0000000E+00;  0.0000000E+00;  1.0005925E+03;  1.0000000E-01;  4.9085031E+02;0;  0.0000000E+00;  0.0000000E+00;  0.0000000E+00;0; -8.4188744E-02;  4.0000000E+04;  0.0000000E+00;  0.0000000E+00;  4.0000000E+04;  0.0000000E+00;  4.0000000E+04; -8.7015495E-02;  0.0000000E+00;  2.8267473E-03;  2.6515420E+03;
 -5.0000001E-02;  9.9999998E-03;  1.4000000E-01;1422;  0.0000000E+00;  0.0000000E+00;  0.0000000E+00;  1.0005604E+03;  1.0000000E-01;  4.6428317E+02;0;  0.0000000E+00;  0.0000000E+00;  0.0000000E+00;0; -8.1867754E-02;  4.0000000E+04;  0.0000000E+00;  0.0000000E+00;  4.0000000E+04;  0.0000000E+00;  4.0000000E+04; -8.4894836E-02;  0.0000000E+00;  3.0270808E-03;  2.8332048E+03;
 -5.0000001E-02;  9.9999998E-03;  1.5000001E-01;1423;  0.0000000E+00;  0.0000000E+00;  0.0000000E+00;  1.0005275E+03;  1.0000000E-01;  4.3702469E+02;0;  0.0000000E+00;  0.0000000E+00;  0.0000000E+00;0; -7.9146296E-02;  4.0000000E+04;  0.0000000E+00;  0.0000000E+00;  4.0000000E+04;  0.0000000E+00;  4.0000000E+04; -8.2384452E-02;  0.0000000E+00;  3.2381571E-03;  3.0363923E+03;
 -5.0000001E-02;  9.9999998E-03;  1.6000000E-01;1424;  0.0000000E+00;  0.0000000E+00;  0.0000000E+00;  1.0004940E+03;  1.0000000E-01;  4.0927237E+02;0;  0.0000000E+00;  0.0000000E+00;  0.0000000E+00;0; -7.6061800E-02;  4.0000000E+04;  0.0000000E+00;  0.0000000E+00;  4.0000000E+04;  0.0000000E+00;  4.0000000E+04; -7.9482511E-02;  0.0000000E+00;  3.4207071E-03;  3.2506804E+03;
 -5.0000001E-02;  9.9999998E-03;  1.7000000E-01;1425;  0.0000000E+00;  0.0000000E+00;  0.0000000E+00;  1.0004598E+03;  1.0000000E-01;  3.8092749E+02;0;  0.0000000E+00;  0.0000000E+00;  0.0000000E+00;0; -7.2677329E-02;  4.0000000E+04;  0.0000000E+00;  0.0000000E+00;  4.0000000E+04;  0.0000000E+00;  4.0000000E+04; -7.6202214E-02;  0.0000000E+00;  3.5248864E-03;  3.4571831E+03;
 -5.0000001E-02;  9.9999998E-03;  1.8000001E-01;1426;  0.0000000E+00;  0.0000000E+00;  0.0000000E+00;  1.0004260E+03;  1.0000000E-01;  3.5297766E+02;0;  0.0000000E+00;  0.0000000E+00;  0.0000000E+00;0; -6.9075361E-02;  4.0000000E+04;  0.0000000E+00;  0.0000000E+00;  4.0000000E+04;  0.0000000E+00;  4.0000000E+04; -7.2570458E-02;  0.0000000E+00;  3.4950983E-03;  3.6275212E+03;
 -5.0000001E-02;  9.9999998E-03;  1.9000000E-01;1427;  0.0000000E+00;  0.0000000E+00;  0.0000000E+00;  1.0003942E+03;  1.0000000E-01;  3.2650928E+02;0;  0.0000000E+00;  0.0000000E+00;  0.0000000E+00;0; -6.5345705E-02;  4.0000000E+04;  0.0000000E+00;  0.0000000E+00;  4.0000000E+04;  0.0000000E+00;  4.0000000E+04; -6.8623826E-02;  0.0000000E+00;  3.2781248E-03;  3.7264722E+03;
 -5.0000001E-02;  9.9999998E-03;  2.0000000E-01;1428;  0.0000000E+00;  0.0000000E+00;  0.0000000E+00;  1.0003640E+03;  1.0000000E-01;  3.0152234E+02;0;  0.0000000E+00;  0.0000000E+00;  0.0000000E+00;0; -6.1573580E-02;  4.0000000E+04;  0.0000000E+00;  0.0000000E+00;  4.0000000E+04;  0.0000000E+00;  4.0000000E+04; -6.4406320E-02;  0.0000000E+00;  2.8327408E-03;  3.7164507E+03;
 -5.0000001E-02;  9.9999998E-03;  2.0999999E-01;1429;  0.0000000E+00;  0.0000000E+00;  0.0000000E+00;  1.0003364E+03;  1.0000000E-01;  2.7870816E+02;0;  0.0000000E+00;  0.0000000E+00;  0.0000000E+00;0; -5.7827342E-02;  4.0000000E+04;  0.0000000E+00;  0.0000000E+00;  4.0000000E+04;  0.0000000E+00;  4.0000000E+04; -5.9966002E-02;  0.0000000E+00;  2.1386582E-03;  3.5631016E+03;
 -5.0000001E-02;  9.9999998E-03;  2.2000000E-01;1430;  0.0000000E+00;  0.0000000E+00;  0.0000000E+00;  1.0003115E+03;  1.0000000E-01;  2.5806677E+02;0;  0.0000000E+00;  0.0000000E+00;  0.0000000E+00;0; -5.4149389E-02;  4.0000000E+04;  0.0000000E+00;  0.0000000E+00;  4.0000000E+04;  0.0000000E+00;  4.0000000E+04; -5.5352550E-02;  0.0000000E+00;  1.2031589E-03;  3.2413770E+03;
 -5.0000001E-02;  9.9999998E-03;  2.3000000E-01;1431;  0.0000000E+00;  0.0000000E+00;  0.0000000E+00;  1.0002892E+03;  1.0000000E-01;  2.3959816E+02;0;  0.0000000E+00;  0.0000000E+00;  0.0000000E+00;0; -5.0551601E-02;  4.0000000E+04;  0.0000000E+00;  0.0000000E+00;  4.0000000E+04;  0.0000000E+00;  4.0000000E+04; -5.0615724E-02;  0.0000000E+00;  6.4125285E-05;  2.7416694E+03;
 -3.9999999E-02;  9.9999998E-03;  7.0000000E-02;1506;  0.0000000E+00;  0.0000000E+00;  0.0000000E+00;  1.0009842E+03;  1.0000000E-01;  8.1538434E+02;0;  0.0000000E+00;  0.0000000E+00;  0.0000000E+00;0; -1.1925847E-01;  4.0000000E+04;  0.0000000E+00;  0.0000000E+00;  4.0000000E+04;  0.0000000E+00;  4.0000000E+04; -1.2290502E-01;  0.0000000E+00;  3.6465449E-03;  2.6706274E+03;
 -3.9999999E-02;  9.9999998E-03;  7.9999998E-02;1507;  0.0000000E+00;  0.0000000E+00;  0.0000000E+00;  1.0009750E+03;  1.0000000E-01;  8.0777960E+02;0;  0.0000000E+00;  0.0000000E+00;  0.0000000E+00;0; -1.1876994E-01;  4.0000000E+04;  0.0000000E+00;  0.0000000E+00;  4.0000000E+04;  0.0000000E+00;  4.0000000E+04; -1.2233344E-01;  0.0000000E+00;  3.5635107E-03;  2.7095139E+03;
 -3.9999999E-02;  9.9999998E-03;  9.0000004E-02;1508;  0.0000000E+00;  0.0000000E+00;  0.0000000E+00;  1.0009606E+03;  1.0000000E-01;  7.9582935E+02;0;  0.0000000E+00;  0.0000000E+00;  0.0000000E+00;0; -1.1803479E-01;  4.0000000E+04;  0.0000000E+00;  0.0000000E+00;  4.0000000E+04;  0.0000000E+00;  4.0000000E+04; -1.2154526E-01;  0.0000000E+00;  3.5104735E-03;  2.7712993E+03;
 -3.9999999E-02;  9.9999998E-03;  1.0000000E-01;1509;  0.0000000E+00;  0.0000000E+00;  0.0000000E+00;  1.0009396E+03;  1.0000000E-01;  7.7844714E+02;0;  0.0000000E+00;  0.0000000E+00;  0.0000000E+00;0; -1.1697869E-01;  4.0000000E+04;  0.0000000E+00;  0.0000000E+00;  4.0000000E+04;  0.0000000E+00;  4.0000000E+04; -1.2048496E-01;  0.0000000E+00;  3.5062626E-03;  2.8596890E+03;
 -3.9999999E-02;  9.9999998E-03;  1.1000000E-01;1510;  0.0000000E+00;  0.0000000E+00;  0.0000000E+00;  1.0009099E+03;  1.0000000E-01;  7.5375647E+02;0;  0.0000000E+00;  0.0000000E+00;  0.0000000E+00;0; -1.1552745E-01;  4.0000000E+04;  0.0000000E+00;  0.0000000E+00;  4.0000000E+04;  0.0000000E+00;  4.0000000E+04; -1.1909425E-01;  0.0000000E+00;  3.5667997E-03;  2.9780659E+03;
 -3.9999999E-02;  9.9999998E-03;  1.2000000E-01;1511;  0.0000000E+00;  0.0000000E+00;  0.0000000E+00;  1.0008721E+03;  1.0000000E-01;  7.2254749E+02;0;  0.0000000E+00;  0.0000000E+00;  0.0000000E+00;0; -1.1361545E-01;  4.0000000E+04;  0.0000000E+00;  0.0000000E+00;  4.0000000E+04;  0.0000000E+00;  4.0000000E+04; -1.1731617E-01;  0.0000000E+00;  3.7007171E-03;  3.1295071E+03;
 -3.9999999E-02;  9.9999998E-03;  1.3000000E-01;1512;  0.0000000E+00;  0.0000000E+00;  0.0000000E+00;  1.0008277E+03;  1.0000000E-01;  6.8570898E+02;0;  0.0000000E+00;  0.0000000E+00;  0.0000000E+00;0; -1.1119441E-01;  4.0000000E+04;  0.0000000E+00;  0.0000000E+00;  4.0000000E+04;  0.0000000E+00;  4.0000000E+04; -1.1509944E-01;  0.0000000E+00;  3.9050374E-03;  3.3162913E+03;
 -3.9999999E-02;  9.9999998E-03;  1.4000000E-01;1513;  0.0000000E+00;  0.0000000E+00;  0.0000000E+00;  1.0007781E+03;  1.0000000E-01;  6.4462372E+02;0;  0.0000000E+00;  0.0000000E+00;  0.0000000E+00;0; -1.0824203E-01;  4.0000000E+04;  0.0000000E+00;  0.0000000E+00;  4.0000000E+04;  0.0000000E+00;  4.0000000E+04; -1.1240379E-01;  0.0000000E+00;  4.1617621E-03;  3.5386040E+03;
 -3.9999999E-02;  9.9999998E-03;  1.5000001E-01;1514;  0.0000000E+00;  0.0000000E+00;  0.0000000E+00;  1.0007290E+03;  1.0000000E-01;  6.0393353E+02;0;  0.0000000E+00;  0.0000000E+00;  0.0000000E+00;0; -1.0476865E-01;  4.0000000E+04;  0.0000000E+00;  0.0000000E+00;  4.0000000E+04;  0.0000000E+00;  4.0000000E+04; -1.0920403E-01;  0.0000000E+00;  4.4353828E-03;  3.7919167E+03;
 -3.9999999E-02;  9.9999998E-03;  1.6000000E-01;1515;  0.0000000E+00;  0.0000000E+00;  0.0000000E+00;  1.0006818E+03;  1.0000000E-01;  5.6492230E+02;0;  0.0000000E+00;  0.0000000E+00;  0.0000000E+00;0; -1.0081984E-01;  4.0000000E+04;  0.0000000E+00;  0.0000000E+00;  4.0000000E+04;  0.0000000E+00;  4.0000000E+04; -1.0549269E-01;  0.0000000E+00;  4.6728514E-03;  4.0639377E+03;
 -3.9999999E-02;  9.9999998E-03;  1.7000000E-01;1516;  0.0000000E+00;  0.0000000E+00;  0.0000000E+00;  1.0006348E+03;  1.0000000E-01;  5.2591107E+02;0;  0.0000000E+00;  0.0000000E+00;  0.0000000E+00;0; -9.6475102E-02;  4.0000000E+04;  0.0000000E+00;  0.0000000E+00;  4.0000000E+04;  0.0000000E+00;  4.0000000E+04; -1.0128117E-01;  0.0000000E+00;  4.8060664E-03;  4.3304380E+03;
 -3.9999999E-02;  9.9999998E-03;  1.8000001E-01;1517;  0.0000000E+00;  0.0000000E+00;  0.0000000E+00;  1.0005895E+03;  1.0000000E-01;  4.8838126E+02;0;  0.0000000E+00;  0.0000000E+00;  0.0000000E+00;0; -9.1837823E-02;  4.0000000E+04;  0.0000000E+00;  0.0000000E+00;  4.0000000E+04;  0.0000000E+00;  4.0000000E+04; -9.6596874E-02;  0.0000000E+00;  4.7590476E-03;  4.5551240E+03;
 -3.9999999E-02;  9.9999998E-03;  1.9000000E-01;1518;  0.0000000E+00;  0.0000000E+00;  0.0000000E+00;  1.0005458E+03;  1.0000000E-01;  4.5223413E+02;0;  0.0000000E+00;  0.0000000E+00;  0.0000000E+00;0; -8.7021939E-02;  4.0000000E+04;  0.0000000E+00;  0.0000000E+00;  4.0000000E+04;  0.0000000E+00;  4.0000000E+04; -9.1481157E-02;  0.0000000E+00;  4.4592205E-03;  4.6929175E+03;
 -3.9999999E-02;  9.9999998E-03;  2.0000000E-01;1519;  0.0000000E+00;  0.0000000E+00;  0.0000000E+00;  1.0005049E+03;  1.0000000E-01;  4.1835855E+02;0;  0.0000000E+00;  0.0000000E+00;  0.0000000E+00;0; -8.2135506E-02;  4.0000000E+04;  0.0000000E+00;  0.0000000E+00;  4.0000000E+04;  0.0000000E+00;  4.0000000E+04; -8.5985877E-02;  0.0000000E+00;  3.8503713E-03;  4.6953042E+03;
 -3.9999999E-02;  9.9999998E-03;  2.0999999E-01;1520;  0.0000000E+00;  0.0000000E+00;  0.0000000E+00;  1.0004680E+03;  1.0000000E-01;  3.8774213E+02;0;  0.0000000E+00;  0.0000000E+00;  0.0000000E+00;0; -7.7265486E-02;  4.0000000E+04;  0.0000000E+00;  0.0000000E+00;  4.0000000E+04;  0.0000000E+00;  4.0000000E+04; -8.0169998E-02;  0.0000000E+00;  2.9045145E-03;  4.5170435E+03;
 -3.9999999E-02;  9.9999998E-03;  2.2000000E-01;1521;  0.0000000E+00;  0.0000000E+00;  0.0000000E+00;  1.0004340E+03;  1.0000000E-01;  3.5959476E+02;0;  0.0000000E+00;  0.0000000E+00;  0.0000000E+00;0; -7.2466560E-02;  4.0000000E+04;  0.0000000E+00;  0.0000000E+00;  4.0000000E+04;  0.0000000E+00;  4.0000000E+04; -7.4097291E-02;  0.0000000E+00;  1.6307288E-03;  4.1236240E+03;
 -3.9999999E-02;  9.9999998E-03;  2.3000000E-01;1522;  0.0000000E+00;  0.0000000E+00;  0.0000000E+00;  1.0004034E+03;  1.0000000E-01;  3.3421277E+02;0;  0.0000000E+00;  0.0000000E+00;  0.0000000E+00;0; -6.7754529E-02;  4.0000000E+04;  0.0000000E+00;  0.0000000E+00;  4.0000000E+04;  0.0000000E+00;  4.0000000E+04; -6.7833669E-02;  0.0000000E+00;  7.9137615E-05;  3.4992922E+03;
 -2.9999999E-02;  9.9999998E-03;  7.0000000E-02;1597;  0.0000000E+00;  0.0000000E+00;  0.0000000E+00;  1.0013097E+03;  1.0000000E-01;  1.0850063E+03;0;  0.0000000E+00;  0.0000000E+00;  0.0000000E+00;0; -1.5117638E-01;  4.0000000E+04;  0.0000000E+00;  0.0000000E+00;  4.0000000E+04;  0.0000000E+00;  4.0000000E+04; -1.5614252E-01;  0.0000000E+00;  4.9661458E-03;  3.2698577E+03;
 -2.9999999E-02;  9.9999998E-03;  7.9999998E-02;1598;  0.0000000E+00;  0.0000000E+00;  0.0000000E+00;  1.0013002E+03;  1.0000000E-01;  1.0772041E+03;0;  0.0000000E+00;  0.0000000E+00;  0.0000000E+00;0; -1.5061396E-01;  4.0000000E+04;  0.0000000E+00;  0.0000000E+00;  4.0000000E+04;  0.0000000E+00;  4.0000000E+04; -1.5545225E-01;  0.0000000E+00;  4.8382906E-03;  3.3137742E+03;
 -2.9999999E-02;  9.9999998E-03;  9.0000004E-02;1599;  0.0000000E+00;  0.0000000E+00;  0.0000000E+00;  1.0012825E+03;  1.0000000E-01;  1.0625873E+03;0;  0.0000000E+00;  0.0000000E+00;  0.0000000E+00;0; -1.4975287E-01;  4.0000000E+04;  0.0000000E+00;  0.0000000E+00;  4.0000000E+04;  0.0000000E+00;  4.0000000E+04; -1.5449934E-01;  0.0000000E+00;  4.7464687E-03;  3.3811401E+03;
 -2.9999999E-02;  9.9999998E-03;  1.0000000E-01;1600;  0.0000000E+00;  0.0000000E+00;  0.0000000E+00;  1.0012562E+03;  1.0000000E-01;  1.0407607E+03;0;  0.0000000E+00;  0.0000000E+00;  0.0000000E+00;0; -1.4849964E-01;  4.0000000E+04;  0.0000000E+00;  0.0000000E+00;  4.0000000E+04;  0.0000000E+00;  4.0000000E+04; -1.5321591E-01;  0.0000000E+00;  4.7162757E-03;  3.4766677E+03;
 -2.9999999E-02;  9.9999998E-03;  1.1000000E-01;1601;  0.0000000E+00;  0.0000000E+00;  0.0000000E+00;  1.0012197E+03;  1.0000000E-01;  1.0104406E+03;0;  0.0000000E+00;  0.0000000E+00;  0.0000000E+00;0; -1.4676005E-01;  4.0000000E+04;  0.0000000E+00;  0.0000000E+00;  4.0000000E+04;  0.0000000E+00;  4.0000000E+04; -1.5153003E-01;  0.0000000E+00;  4.7699749E-03;  3.6055117E+03;
 -2.9999999E-02;  9.9999998E-03;  1.2000000E-01;1602;  0.0000000E+00;  0.0000000E+00;  0.0000000E+00;  1.0011727E+03;  1.0000000E-01;  9.7162683E+02;0;  0.0000000E+00;  0.0000000E+00;  0.0000000E+00;0; -1.4444913E-01;  4.0000000E+04;  0.0000000E+00;  0.0000000E+00;  4.0000000E+04;  0.0000000E+00;  4.0000000E+04; -1.4936979E-01;  0.0000000E+00;  4.9206559E-03;  3.7731116E+03;
 -2.9999999E-02;  9.9999998E-03;  1.3000000E-01;1603;  0.0000000E+00;  0.0000000E+00;  0.0000000E+00;  1.0011158E+03;  1.0000000E-01;  9.2441827E+02;0;  0.0000000E+00;  0.0000000E+00;  0.0000000E+00;0; -1.4150439E-01;  4.0000000E+04;  0.0000000E+00;  0.0000000E+00;  4.0000000E+04;  0.0000000E+00;  4.0000000E+04; -1.4667073E-01;  0.0000000E+00;  5.1663374E-03;  3.9844587E+03;
 -2.9999999E-02;  9.9999998E-03;  1.4000000E-01;1604;  0.0000000E+00;  0.0000000E+00;  0.0000000E+00;  1.0010507E+03;  1.0000000E-01;  8.7049390E+02;0;  0.0000000E+00;  0.0000000E+00;  0.0000000E+00;0; -1.3789386E-01;  4.0000000E+04;  0.0000000E+00;  0.0000000E+00;  4.0000000E+04;  0.0000000E+00;  4.0000000E+04; -1.4337899E-01;  0.0000000E+00;  5.4851286E-03;  4.2422061E+03;
 -2.9999999E-02;  9.9999998E-03;  1.5000001E-01;1605;  0.0000000E+00;  0.0000000E+00;  0.0000000E+00;  1.0009806E+03;  1.0000000E-01;  8.1242145E+02;0;  0.0000000E+00;  0.0000000E+00;  0.0000000E+00;0; -1.3362733E-01;  4.0000000E+04;  0.0000000E+00;  0.0000000E+00;  4.0000000E+04;  0.0000000E+00;  4.0000000E+04; -1.3945900E-01;  0.0000000E+00;  5.8316668E-03;  4.5432017E+03;
 -2.9999999E-02;  9.9999998E-03;  1.6000000E-01;1606;  0.0000000E+00;  0.0000000E+00;  0.0000000E+00;  1.0009113E+03;  1.0000000E-01;  7.5504034E+02;0;  0.0000000E+00;  0.0000000E+00;  0.0000000E+00;0; -1.2875867E-01;  4.0000000E+04;  0.0000000E+00;  0.0000000E+00;  4.0000000E+04;  0.0000000E+00;  4.0000000E+04; -1.3489532E-01;  0.0000000E+00;  6.1366619E-03;  4.8738730E+03;
 -2.9999999E-02;  9.9999998E-03;  1.7000000E-01;1607;  0.0000000E+00;  0.0000000E+00;  0.0000000E+00;  1.0008476E+03;  1.0000000E-01;  7.0220239E+02;0;  0.0000000E+00;  0.0000000E+00;  0.0000000E+00;0; -1.2338451E-01;  4.0000000E+04;  0.0000000E+00;  0.0000000E+00;  4.0000000E+04;  0.0000000E+00;  4.0000000E+04; -1.2969454E-01;  0.0000000E+00;  6.3100313E-03;  5.2051001E+03;
 -2.9999999E-02;  9.9999998E-03;  1.8000001E-01;1608;  0.0000000E+00;  0.0000000E+00;  0.0000000E+00;  1.0007867E+03;  1.0000000E-01;  6.5183344E+02;0;  0.0000000E+00;  0.0000000E+00;  0.0000000E+00;0; -1.1763137E-01;  4.0000000E+04;  0.0000000E+00;  0.0000000E+00;  4.0000000E+04;  0.0000000E+00;  4.0000000E+04; -1.2388229E-01;  0.0000000E+00;  6.2509179E-03;  5.4926196E+03;
 -2.9999999E-02;  9.9999998E-03;  1.9000000E-01;1609;  0.0000000E+00;  0.0000000E+00;  0.0000000E+00;  1.0007296E+03;  1.0000000E-01;  6.0442737E+02;0;  0.0000000E+00;  0.0000000E+00;  0.0000000E+00;0; -1.1163981E-01;  4.0000000E+04;  0.0000000E+00;  0.0000000E+00;  4.0000000E+04;  0.0000000E+00;  4.0000000E+04; -1.1750255E-01;  0.0000000E+00;  5.8627329E-03;  5.6807471E+03;
 -2.9999999E-02;  9.9999998E-03;  2.0000000E-01;1610;  0.0000000E+00;  0.0000000E+00;  0.0000000E+00;  1.0006761E+03;  1.0000000E-01;  5.6018170E+02;0;  0.0000000E+00;  0.0000000E+00;  0.0000000E+00;0; -1.0554305E-01;  4.0000000E+04;  0.0000000E+00;  0.0000000E+00;  4.0000000E+04;  0.0000000E+00;  4.0000000E+04; -1.1061316E-01;  0.0000000E+00;  5.0701131E-03;  5.7083647E+03;
 -2.9999999E-02;  9.9999998E-03;  2.0999999E-01;1611;  0.0000000E+00;  0.0000000E+00;  0.0000000E+00;  1.0006273E+03;  1.0000000E-01;  5.1968903E+02;0;  0.0000000E+00;  0.0000000E+00;  0.0000000E+00;0; -9.9449262E-02;  4.0000000E+04;  0.0000000E+00;  0.0000000E+00;  4.0000000E+04;  0.0000000E+00;  4.0000000E+04; -1.0328384E-01;  0.0000000E+00;  3.8345768E-03;  5.5168066E+03;
 -2.9999999E-02;  9.9999998E-03;  2.2000000E-01;1612;  0.0000000E+00;  0.0000000E+00;  0.0000000E+00;  1.0005831E+03;  1.0000000E-01;  4.8314682E+02;0;  0.0000000E+00;  0.0000000E+00;  0.0000000E+00;0; -9.3426190E-02;  4.0000000E+04;  0.0000000E+00;  0.0000000E+00;  4.0000000E+04;  0.0000000E+00;  4.0000000E+04; -9.5592216E-02;  0.0000000E+00;  2.1660274E-03;  5.0590059E+03;
 -2.9999999E-02;  9.9999998E-03;  2.3000000E-01;1613;  0.0000000E+00;  0.0000000E+00;  0.0000000E+00;  1.0005435E+03;  1.0000000E-01;  4.5025888E+02;0;  0.0000000E+00;  0.0000000E+00;  0.0000000E+00;0; -8.7493710E-02;  4.0000000E+04;  0.0000000E+00;  0.0000000E+00;  4.0000000E+04;  0.0000000E+00;  4.0000000E+04; -8.7621816E-02;  0.0000000E+00;  1.2810508E-04;  4.3095186E+03;
 -2.0000000E-02;  9.9999998E-03;  7.0000000E-02;1688;  0.0000000E+00;  0.0000000E+00;  0.0000000E+00;  1.0016793E+03;  1.0000000E-01;  1.3912693E+03;0;  0.0000000E+00;  0.0000000E+00;  0.0000000E+00;0; -1.8499559E-01;  4.0000000E+04;  0.0000000E+00;  0.0000000E+00;  4.0000000E+04;  0.0000000E+00;  4.0000000E+04; -1.9149707E-01;  0.0000000E+00;  6.5014800E-03;  3.8711536E+03;
 -2.0000000E-02;  9.9999998E-03;  7.9999998E-02;1689;  0.0000000E+00;  0.0000000E+00;  0.0000000E+00;  1.0016681E+03;  1.0000000E-01;  1.3819856E+03;0;  0.0000000E+00;  0.0000000E+00;  0.0000000E+00;0; -1.8438426E-01;  4.0000000E+04;  0.0000000E+00;  0.0000000E+00;  4.0000000E+04;  0.0000000E+00;  4.0000000E+04; -1.9069640E-01;  0.0000000E+00;  6.3121538E-03;  3.9173955E+03;
 -2.0000000E-02;  9.9999998E-03;  9.0000004E-02;1690;  0.0000000E+00;  0.0000000E+00;  0.0000000E+00;  1.0016489E+03;  1.0000000E-01;  1.3660848E+03;0;  0.0000000E+00;  0.0000000E+00;  0.0000000E+00;0; -1.8342645E-01;  4.0000000E+04;  0.0000000E+00;  0.0000000E+00;  4.0000000E+04;  0.0000000E+00;  4.0000000E+04; -1.8959031E-01;  0.0000000E+00;  6.1638434E-03;  3.9846836E+03;
 -2.0000000E-02;  9.9999998E-03;  1.0000000E-01;1691;  0.0000000E+00;  0.0000000E+00;  0.0000000E+00;  1.0016179E+03;  1.0000000E-01;  1.3404065E+03;0;  0.0000000E+00;  0.0000000E+00;  0.0000000E+00;0; -1.8200751E-01;  4.0000000E+04;  0.0000000E+00;  0.0000000E+00;  4.0000000E+04;  0.0000000E+00;  4.0000000E+04; -1.8809812E-01;  0.0000000E+00;  6.0906098E-03;  4.0788271E+03;
 -2.0000000E-02;  9.9999998E-03;  1.1000000E-01;1692;  0.0000000E+00;  0.0000000E+00;  0.0000000E+00;  1.0015753E+03;  1.0000000E-01;  1.3051483E+03;0;  0.0000000E+00;  0.0000000E+00;  0.0000000E+00;0; -1.8001066E-01;  4.0000000E+04;  0.0000000E+00;  0.0000000E+00;  4.0000000E+04;  0.0000000E+00;  4.0000000E+04; -1.8613376E-01;  0.0000000E+00;  6.1231004E-03;  4.2071104E+03;
 -2.0000000E-02;  9.9999998E-03;  1.2000000E-01;1693;  0.0000000E+00;  0.0000000E+00;  0.0000000E+00;  1.0015198E+03;  1.0000000E-01;  1.2591249E+03;0;  0.0000000E+00;  0.0000000E+00;  0.0000000E+00;0; -1.7733069E-01;  4.0000000E+04;  0.0000000E+00;  0.0000000E+00;  4.0000000E+04;  0.0000000E+00;  4.0000000E+04; -1.8361154E-01;  0.0000000E+00;  6.2808581E-03;  4.3782231E+03;
 -2.0000000E-02;  9.9999998E-03;  1.3000000E-01;1694;  0.0000000E+00;  0.0000000E+00;  0.0000000E+00;  1.0014507E+03;  1.0000000E-01;  1.2018425E+03;0;  0.0000000E+00;  0.0000000E+00;  0.0000000E+00;0; -1.7388611E-01;  4.0000000E+04;  0.0000000E+00;  0.0000000E+00;  4.0000000E+04;  0.0000000E+00;  4.0000000E+04; -1.8045062E-01;  0.0000000E+00;  6.5645115E-03;  4.6011167E+03;
 -2.0000000E-02;  9.9999998E-03;  1.4000000E-01;1695;  0.0000000E+00;  0.0000000E+00;  0.0000000E+00;  1.0013708E+03;  1.0000000E-01;  1.1357704E+03;0;  0.0000000E+00;  0.0000000E+00;  0.0000000E+00;0; -1.6963416E-01;  4.0000000E+04;  0.0000000E+00;  0.0000000E+00;  4.0000000E+04;  0.0000000E+00;  4.0000000E+04; -1.7658320E-01;  0.0000000E+00;  6.9490322E-03;  4.8824673E+03;
 -2.0000000E-02;  9.9999998E-03;  1.5000001E-01;1696;  0.0000000E+00;  0.0000000E+00;  0.0000000E+00;  1.0012828E+03;  1.0000000E-01;  1.0627848E+03;0;  0.0000000E+00;  0.0000000E+00;  0.0000000E+00;0; -1.6458170E-01;  4.0000000E+04;  0.0000000E+00;  0.0000000E+00;  4.0000000E+04;  0.0000000E+00;  4.0000000E+04; -1.7196056E-01;  0.0000000E+00;  7.3788627E-03;  5.2223364E+03;
 -2.0000000E-02;  9.9999998E-03;  1.6000000E-01;1697;  0.0000000E+00;  0.0000000E+00;  0.0000000E+00;  1.0011904E+03;  1.0000000E-01;  9.8624371E+02;0;  0.0000000E+00;  0.0000000E+00;  0.0000000E+00;0; -1.5879026E-01;  4.0000000E+04;  0.0000000E+00;  0.0000000E+00;  4.0000000E+04;  0.0000000E+00;  4.0000000E+04; -1.6655666E-01;  0.0000000E+00;  7.7663939E-03;  5.6072275E+03;
 -2.0000000E-02;  9.9999998E-03;  1.7000000E-01;1698;  0.0000000E+00;  0.0000000E+00;  0.0000000E+00;  1.0011003E+03;  1.0000000E-01;  9.1157916E+02;0;  0.0000000E+00;  0.0000000E+00;  0.0000000E+00;0; -1.5237352E-01;  4.0000000E+04;  0.0000000E+00;  0.0000000E+00;  4.0000000E+04;  0.0000000E+00;  4.0000000E+04; -1.6036956E-01;  0.0000000E+00;  7.9960376E-03;  6.0043853E+03;
 -2.0000000E-02;  9.9999998E-03;  1.8000001E-01;1699;  0.0000000E+00;  0.0000000E+00;  0.0000000E+00;  1.0010185E+03;  1.0000000E-01;  8.4382800E+02;0;  0.0000000E+00;  0.0000000E+00;  0.0000000E+00;0; -1.4548285E-01;  4.0000000E+04;  0.0000000E+00;  0.0000000E+00;  4.0000000E+04;  0.0000000E+00;  4.0000000E+04; -1.5342034E-01;  0.0000000E+00;  7.9374872E-03;  6.3621426E+03;
 -2.0000000E-02;  9.9999998E-03;  1.9000000E-01;1700;  0.0000000E+00;  0.0000000E+00;  0.0000000E+00;  1.0009444E+03;  1.0000000E-01;  7.8239764E+02;0;  0.0000000E+00;  0.0000000E+00;  0.0000000E+00;0; -1.3828681E-01;  4.0000000E+04;  0.0000000E+00;  0.0000000E+00;  4.0000000E+04;  0.0000000E+00;  4.0000000E+04; -1.4575186E-01;  0.0000000E+00;  7.4650543E-03;  6.6138560E+03;
 -2.0000000E-02;  9.9999998E-03;  2.0000000E-01;1701;  0.0000000E+00;  0.0000000E+00;  0.0000000E+00;  1.0008758E+03;  1.0000000E-01;  7.2560913E+02;0;  0.0000000E+00;  0.0000000E+00;  0.0000000E+00;0; -1.3094591E-01;  4.0000000E+04;  0.0000000E+00;  0.0000000E+00;  4.0000000E+04;  0.0000000E+00;  4.0000000E+04; -1.3742539E-01;  0.0000000E+00;  6.4794915E-03;  6.6843457E+03;
 -2.0000000E-02;  9.9999998E-03;  2.0999999E-01;1702;  0.0000000E+00;  0.0000000E+00;  0.0000000E+00;  1.0008142E+03;  1.0000000E-01;  6.7454883E+02;0;  0.0000000E+00;  0.0000000E+00;  0.0000000E+00;0; -1.2359041E-01;  4.0000000E+04;  0.0000000E+00;  0.0000000E+00;  4.0000000E+04;  0.0000000E+00;  4.0000000E+04; -1.2851863E-01;  0.0000000E+00;  4.9282154E-03;  6.4989131E+03;
 -2.0000000E-02;  9.9999998E-03;  2.2000000E-01;1703;  0.0000000E+00;  0.0000000E+00;  0.0000000E+00;  1.0007581E+03;  1.0000000E-01;  6.2813037E+02;0;  0.0000000E+00;  0.0000000E+00;  0.0000000E+00;0; -1.1630194E-01;  4.0000000E+04;  0.0000000E+00;  0.0000000E+00;  4.0000000E+04;  0.0000000E+00;  4.0000000E+04; -1.1912227E-01;  0.0000000E+00;  2.8203367E-03;  5.9945303E+03;
 -2.0000000E-02;  9.9999998E-03;  2.3000000E-01;1704;  0.0000000E+00;  0.0000000E+00;  0.0000000E+00;  1.0007077E+03;  1.0000000E-01;  5.8635376E+02;0;  0.0000000E+00;  0.0000000E+00;  0.0000000E+00;0; -1.0910335E-01;  4.0000000E+04;  0.0000000E+00;  0.0000000E+00;  4.0000000E+04;  0.0000000E+00;  4.0000000E+04; -1.0933703E-01;  0.0000000E+00;  2.3368157E-04;  5.1320708E+03;
 -9.9999998E-03;  9.9999998E-03;  7.0000000E-02;1779;  0.0000000E+00;  0.0000000E+00;  0.0000000E+00;  1.0020799E+03;  1.0000000E-01;  1.7231118E+03;0;  0.0000000E+00;  0.0000000E+00;  0.0000000E+00;0; -2.1905179E-01;  4.0000000E+04;  0.0000000E+00;  0.0000000E+00;  4.0000000E+04;  0.0000000E+00;  4.0000000E+04; -2.2725213E-01;  0.0000000E+00;  8.2003362E-03;  4.4388652E+03;
 -9.9999998E-03;  9.9999998E-03;  7.9999998E-02;1780;  0.0000000E+00;  0.0000000E+00;  0.0000000E+00;  1.0020692E+03;  1.0000000E-01;  1.7143219E+03;0;  0.0000000E+00;  0.0000000E+00;  0.0000000E+00;0; -2.1842730E-01;  4.0000000E+04;  0.0000000E+00;  0.0000000E+00;  4.0000000E+04;  0.0000000E+00;  4.0000000E+04; -2.2635815E-01;  0.0000000E+00;  7.9308422E-03;  4.4840483E+03;
 -9.9999998E-03;  9.9999998E-03;  9.0000004E-02;1781;  0.0000000E+00;  0.0000000E+00;  0.0000000E+00;  1.0020479E+03;  1.0000000E-01;  1.6966434E+03;0;  0.0000000E+00;  0.0000000E+00;  0.0000000E+00;0; -2.1741706E-01;  4.0000000E+04;  0.0000000E+00;  0.0000000E+00;  4.0000000E+04;  0.0000000E+00;  4.0000000E+04; -2.2512238E-01;  0.0000000E+00;  7.7053127E-03;  4.5438164E+03;
 -9.9999998E-03;  9.9999998E-03;  1.0000000E-01;1782;  0.0000000E+00;  0.0000000E+00;  0.0000000E+00;  1.0020148E+03;  1.0000000E-01;  1.6692861E+03;0;  0.0000000E+00;  0.0000000E+00;  0.0000000E+00;0; -2.1588430E-01;  4.0000000E+04;  0.0000000E+00;  0.0000000E+00;  4.0000000E+04;  0.0000000E+00;  4.0000000E+04; -2.2345242E-01;  0.0000000E+00;  7.5681233E-03;  4.6247422E+03;
 -9.9999998E-03;  9.9999998E-03;  1.1000000E-01;1783;  0.0000000E+00;  0.0000000E+00;  0.0000000E+00;  1.0019667E+03;  1.0000000E-01;  1.6293860E+03;0;  0.0000000E+00;  0.0000000E+00;  0.0000000E+00;0; -2.1368939E-01;  4.0000000E+04;  0.0000000E+00;  0.0000000E+00;  4.0000000E+04;  0.0000000E+00;  4.0000000E+04; -2.2124992E-01;  0.0000000E+00;  7.5605428E-03;  4.7366626E+03;
 -9.9999998E-03;  9.9999998E-03;  1.2000000E-01;1784;  0.0000000E+00;  0.0000000E+00;  0.0000000E+00;  1.0019032E+03;  1.0000000E-01;  1.5767455E+03;0;  0.0000000E+00;  0.0000000E+00;  0.0000000E+00;0; -2.1070266E-01;  4.0000000E+04;  0.0000000E+00;  0.0000000E+00;  4.0000000E+04;  0.0000000E+00;  4.0000000E+04; -2.1841367E-01;  0.0000000E+00;  7.7110026E-03;  4.8924658E+03;
 -9.9999998E-03;  9.9999998E-03;  1.3000000E-01;1785;  0.0000000E+00;  0.0000000E+00;  0.0000000E+00;  1.0018240E+03;  1.0000000E-01;  1.5111671E+03;0;  0.0000000E+00;  0.0000000E+00;  0.0000000E+00;0; -2.0682353E-01;  4.0000000E+04;  0.0000000E+00;  0.0000000E+00;  4.0000000E+04;  0.0000000E+00;  4.0000000E+04; -2.1484843E-01;  0.0000000E+00;  8.0249077E-03;  5.1065625E+03;
 -9.9999998E-03;  9.9999998E-03;  1.4000000E-01;1786;  0.0000000E+00;  0.0000000E+00;  0.0000000E+00;  1.0017300E+03;  1.0000000E-01;  1.4333422E+03;0;  0.0000000E+00;  0.0000000E+00;  0.0000000E+00;0; -2.0199528E-01;  4.0000000E+04;  0.0000000E+00;  0.0000000E+00;  4.0000000E+04;  0.0000000E+00;  4.0000000E+04; -2.1047091E-01;  0.0000000E+00;  8.4756324E-03;  5.3918325E+03;
 -9.9999998E-03;  9.9999998E-03;  1.5000001E-01;1787;  0.0000000E+00;  0.0000000E+00;  0.0000000E+00;  1.0016254E+03;  1.0000000E-01;  1.3466285E+03;0;  0.0000000E+00;  0.0000000E+00;  0.0000000E+00;0; -1.9621874E-01;  4.0000000E+04;  0.0000000E+00;  0.0000000E+00;  4.0000000E+04;  0.0000000E+00;  4.0000000E+04; -2.0521653E-01;  0.0000000E+00;  8.9977821E-03;  5.7539253E+03;
 -9.9999998E-03;  9.9999998E-03;  1.6000000E-01;1788;  0.0000000E+00;  0.0000000E+00;  0.0000000E+00;  1.0015142E+03;  1.0000000E-01;  1.2544830E+03;0;  0.0000000E+00;  0.0000000E+00;  0.0000000E+00;0; -1.8956235E-01;  4.0000000E+04;  0.0000000E+00;  0.0000000E+00;  4.0000000E+04;  0.0000000E+00;  4.0000000E+04; -1.9904651E-01;  0.0000000E+00;  9.4841644E-03;  6.1817178E+03;
 -9.9999998E-03;  9.9999998E-03;  1.7000000E-01;1789;  0.0000000E+00;  0.0000000E+00;  0.0000000E+00;  1.0014008E+03;  1.0000000E-01;  1.1604611E+03;0;  0.0000000E+00;  0.0000000E+00;  0.0000000E+00;0; -1.8215597E-01;  4.0000000E+04;  0.0000000E+00;  0.0000000E+00;  4.0000000E+04;  0.0000000E+00;  4.0000000E+04; -1.9194682E-01;  0.0000000E+00;  9.7908508E-03;  6.6408701E+03;
 -9.9999998E-03;  9.9999998E-03;  1.8000001E-01;1790;  0.0000000E+00;  0.0000000E+00;  0.0000000E+00;  1.0012917E+03;  1.0000000E-01;  1.0700931E+03;0;  0.0000000E+00;  0.0000000E+00;  0.0000000E+00;0; -1.7417465E-01;  4.0000000E+04;  0.0000000E+00;  0.0000000E+00;  4.0000000E+04;  0.0000000E+00;  4.0000000E+04; -1.8392850E-01;  0.0000000E+00;  9.7538559E-03;  7.0737861E+03;
 -9.9999998E-03;  9.9999998E-03;  1.9000000E-01;1791;  0.0000000E+00;  0.0000000E+00;  0.0000000E+00;  1.0011925E+03;  1.0000000E-01;  9.8792267E+02;0;  0.0000000E+00;  0.0000000E+00;  0.0000000E+00;0; -1.6581614E-01;  4.0000000E+04;  0.0000000E+00;  0.0000000E+00;  4.0000000E+04;  0.0000000E+00;  4.0000000E+04; -1.7502953E-01;  0.0000000E+00;  9.2133880E-03;  7.4030347E+03;
 -9.9999998E-03;  9.9999998E-03;  2.0000000E-01;1792;  0.0000000E+00;  0.0000000E+00;  0.0000000E+00;  1.0011055E+03;  1.0000000E-01;  9.1582593E+02;0;  0.0000000E+00;  0.0000000E+00;  0.0000000E+00;0; -1.5726846E-01;  4.0000000E+04;  0.0000000E+00;  0.0000000E+00;  4.0000000E+04;  0.0000000E+00;  4.0000000E+04; -1.6530965E-01;  0.0000000E+00;  8.0411928E-03;  7.5383677E+03;
 -9.9999998E-03;  9.9999998E-03;  2.0999999E-01;1793;  0.0000000E+00;  0.0000000E+00;  0.0000000E+00;  1.0010283E+03;  1.0000000E-01;  8.5192651E+02;0;  0.0000000E+00;  0.0000000E+00;  0.0000000E+00;0; -1.4868411E-01;  4.0000000E+04;  0.0000000E+00;  0.0000000E+00;  4.0000000E+04;  0.0000000E+00;  4.0000000E+04; -1.5485054E-01;  0.0000000E+00;  6.1664232E-03;  7.3869980E+03;
 -9.9999998E-03;  9.9999998E-03;  2.2000000E-01;1794;  0.0000000E+00;  0.0000000E+00;  0.0000000E+00;  1.0009594E+03;  1.0000000E-01;  7.9484174E+02;0;  0.0000000E+00;  0.0000000E+00;  0.0000000E+00;0; -1.4015795E-01;  4.0000000E+04;  0.0000000E+00;  0.0000000E+00;  4.0000000E+04;  0.0000000E+00;  4.0000000E+04; -1.4375296E-01;  0.0000000E+00;  3.5950101E-03;  6.8666782E+03;
 -9.9999998E-03;  9.9999998E-03;  2.3000000E-01;1795;  0.0000000E+00;  0.0000000E+00;  0.0000000E+00;  1.0008975E+03;  1.0000000E-01;  7.4348517E+02;0;  0.0000000E+00;  0.0000000E+00;  0.0000000E+00;0; -1.3171355E-01;  4.0000000E+04;  0.0000000E+00;  0.0000000E+00;  4.0000000E+04;  0.0000000E+00;  4.0000000E+04; -1.3213231E-01;  0.0000000E+00;  4.1875482E-04;  5.9209219E+03;
 -1.9000000E-01;  9.9999998E-03;  2.3999999E-01;158;  0.0000000E+00;  0.0000000E+00;  0.0000000E+00;  1.0000000E+03;  1.0000000E-01;  0.0000000E+00;0;  0.0000000E+00;  0.0000000E+00;  0.0000000E+00;0;  0.0000000E+00;  4.0000000E+04;  0.0000000E+00;  0.0000000E+00;  4.0000000E+04;  0.0000000E+00;  4.0000000E+04;  0.0000000E+00;  0.0000000E+00;  0.0000000E+00;  0.0000000E+00;
 -1.9000000E-01;  9.9999998E-03;  2.5000000E-01;159;  0.0000000E+00;  0.0000000E+00;  0.0000000E+00;  1.0000000E+03;  1.0000000E-01;  0.0000000E+00;0;  0.0000000E+00;  0.0000000E+00;  0.0000000E+00;0;  0.0000000E+00;  4.0000000E+04;  0.0000000E+00;  0.0000000E+00;  4.0000000E+04;  0.0000000E+00;  4.0000000E+04;  0.0000000E+00;  0.0000000E+00;  0.0000000E+00;  0.0000000E+00;
 -1.9000000E-01;  9.9999998E-03;  2.5999999E-01;160;  0.0000000E+00;  0.0000000E+00;  0.0000000E+00;  1.0000000E+03;  1.0000000E-01;  0.0000000E+00;0;  0.0000000E+00;  0.0000000E+00;  0.0000000E+00;0;  0.0000000E+00;  4.0000000E+04;  0.0000000E+00;  0.0000000E+00;  4.0000000E+04;  0.0000000E+00;  4.0000000E+04;  0.0000000E+00;  0.0000000E+00;  0.0000000E+00;  0.0000000E+00;
 -1.9000000E-01;  9.9999998E-03;  2.7000001E-01;161;  0.0000000E+00;  0.0000000E+00;  0.0000000E+00;  1.0000000E+03;  1.0000000E-01;  0.0000000E+00;0;  0.0000000E+00;  0.0000000E+00;  0.0000000E+00;0;  0.0000000E+00;  4.0000000E+04;  0.0000000E+00;  0.0000000E+00;  4.0000000E+04;  0.0000000E+00;  4.0000000E+04;  0.0000000E+00;  0.0000000E+00;  0.0000000E+00;  0.0000000E+00;
 -1.9000000E-01;  9.9999998E-03;  2.8000000E-01;162;  0.0000000E+00;  0.0000000E+00;  0.0000000E+00;  1.0000000E+03;  1.0000000E-01;  0.0000000E+00;0;  0.0000000E+00;  0.0000000E+00;  0.0000000E+00;0;  0.0000000E+00;  4.0000000E+04;  0.0000000E+00;  0.0000000E+00;  4.0000000E+04;  0.0000000E+00;  4.0000000E+04;  0.0000000E+00;  0.0000000E+00;  0.0000000E+00;  0.0000000E+00;
 -1.9000000E-01;  9.9999998E-03;  2.8999999E-01;163;  0.0000000E+00;  0.0000000E+00;  0.0000000E+00;  1.0000000E+03;  1.0000000E-01;  0.0000000E+00;0;  0.0000000E+00;  0.0000000E+00;  0.0000000E+00;0;  0.0000000E+00;  4.0000000E+04;  0.0000000E+00;  0.0000000E+00;  4.0000000E+04;  0.0000000E+00;  4.0000000E+04;  0.0000000E+00;  0.0000000E+00;  0.0000000E+00;  0.0000000E+00;
 -1.9000000E-01;  9.9999998E-03;  3.0000001E-01;164;  0.0000000E+00;  0.0000000E+00;  0.0000000E+00;  1.0000000E+03;  1.0000000E-01;  0.0000000E+00;0;  0.0000000E+00;  0.0000000E+00;  0.0000000E+00;0;  0.0000000E+00;  4.0000000E+04;  0.0000000E+00;  0.0000000E+00;  4.0000000E+04;  0.0000000E+00;  4.0000000E+04;  0.0000000E+00;  0.0000000E+00;  0.0000000E+00;  0.0000000E+00;
 -1.9000000E-01;  9.9999998E-03;  3.1000000E-01;165;  0.0000000E+00;  0.0000000E+00;  0.0000000E+00;  1.0000000E+03;  1.0000000E-01;  0.0000000E+00;0;  0.0000000E+00;  0.0000000E+00;  0.0000000E+00;0;  0.0000000E+00;  4.0000000E+04;  0.0000000E+00;  0.0000000E+00;  4.0000000E+04;  0.0000000E+00;  4.0000000E+04;  0.0000000E+00;  0.0000000E+00;  0.0000000E+00;  0.0000000E+00;
 -1.9000000E-01;  9.9999998E-03;  3.1999999E-01;166;  0.0000000E+00;  0.0000000E+00;  0.0000000E+00;  1.0000000E+03;  1.0000000E-01;  0.0000000E+00;0;  0.0000000E+00;  0.0000000E+00;  0.0000000E+00;0;  0.0000000E+00;  4.0000000E+04;  0.0000000E+00;  0.0000000E+00;  4.0000000E+04;  0.0000000E+00;  4.0000000E+04;  0.0000000E+00;  0.0000000E+00;  0.0000000E+00;  0.0000000E+00;
 -1.9000000E-01;  9.9999998E-03;  3.3000001E-01;167;  0.0000000E+00;  0.0000000E+00;  0.0000000E+00;  1.0000000E+03;  1.0000000E-01;  0.0000000E+00;0;  0.0000000E+00;  0.0000000E+00;  0.0000000E+00;0;  0.0000000E+00;  4.0000000E+04;  0.0000000E+00;  0.0000000E+00;  4.0000000E+04;  0.0000000E+00;  4.0000000E+04;  0.0000000E+00;  0.0000000E+00;  0.0000000E+00;  0.0000000E+00;
 -1.9000000E-01;  9.9999998E-03;  3.4000000E-01;168;  0.0000000E+00;  0.0000000E+00;  0.0000000E+00;  1.0000000E+03;  1.0000000E-01;  0.0000000E+00;0;  0.0000000E+00;  0.0000000E+00;  0.0000000E+00;0;  0.0000000E+00;  4.0000000E+04;  0.0000000E+00;  0.0000000E+00;  4.0000000E+04;  0.0000000E+00;  4.0000000E+04;  0.0000000E+00;  0.0000000E+00;  0.0000000E+00;  0.0000000E+00;
 -1.9000000E-01;  9.9999998E-03;  3.4999999E-01;169;  0.0000000E+00;  0.0000000E+00;  0.0000000E+00;  1.0000000E+03;  1.0000000E-01;  0.0000000E+00;0;  0.0000000E+00;  0.0000000E+00;  0.0000000E+00;0;  0.0000000E+00;  4.0000000E+04;  0.0000000E+00;  0.0000000E+00;  4.0000000E+04;  0.0000000E+00;  4.0000000E+04;  0.0000000E+00;  0.0000000E+00;  0.0000000E+00;  0.0000000E+00;
 -1.9000000E-01;  9.9999998E-03;  3.6000001E-01;170;  0.0000000E+00;  0.0000000E+00;  0.0000000E+00;  1.0000000E+03;  1.0000000E-01;  0.0000000E+00;0;  0.0000000E+00;  0.0000000E+00;  0.0000000E+00;0;  0.0000000E+00;  4.0000000E+04;  0.0000000E+00;  0.0000000E+00;  4.0000000E+04;  0.0000000E+00;  4.0000000E+04;  0.0000000E+00;  0.0000000E+00;  0.0000000E+00;  0.0000000E+00;
 -1.9000000E-01;  9.9999998E-03;  3.7000000E-01;171;  0.0000000E+00;  0.0000000E+00;  0.0000000E+00;  1.0000000E+03;  1.0000000E-01;  0.0000000E+00;0;  0.0000000E+00;  0.0000000E+00;  0.0000000E+00;0;  0.0000000E+00;  4.0000000E+04;  0.0000000E+00;  0.0000000E+00;  4.0000000E+04;  0.0000000E+00;  4.0000000E+04;  0.0000000E+00;  0.0000000E+00;  0.0000000E+00;  0.0000000E+00;
 -1.9000000E-01;  9.9999998E-03;  3.8000000E-01;172;  0.0000000E+00;  0.0000000E+00;  0.0000000E+00;  1.0000000E+03;  1.0000000E-01;  0.0000000E+00;0;  0.0000000E+00;  0.0000000E+00;  0.0000000E+00;0;  0.0000000E+00;  4.0000000E+04;  0.0000000E+00;  0.0000000E+00;  4.0000000E+04;  0.0000000E+00;  4.0000000E+04;  0.0000000E+00;  0.0000000E+00;  0.0000000E+00;  0.0000000E+00;
 -1.9000000E-01;  9.9999998E-03;  3.8999999E-01;173;  0.0000000E+00;  0.0000000E+00;  0.0000000E+00;  1.0000000E+03;  1.0000000E-01;  0.0000000E+00;0;  0.0000000E+00;  0.0000000E+00;  0.0000000E+00;0;  0.0000000E+00;  4.0000000E+04;  0.0000000E+00;  0.0000000E+00;  4.0000000E+04;  0.0000000E+00;  4.0000000E+04;  0.0000000E+00;  0.0000000E+00;  0.0000000E+00;  0.0000000E+00;
 -1.9000000E-01;  9.9999998E-03;  4.0000001E-01;174;  0.0000000E+00;  0.0000000E+00;  0.0000000E+00;  1.0000000E+03;  1.0000000E-01;  0.0000000E+00;0;  0.0000000E+00;  0.0000000E+00;  0.0000000E+00;0;  0.0000000E+00;  4.0000000E+04;  0.0000000E+00;  0.0000000E+00;  4.0000000E+04;  0.0000000E+00;  4.0000000E+04;  0.0000000E+00;  0.0000000E+00;  0.0000000E+00;  0.0000000E+00;
 -1.8000001E-01;  9.9999998E-03;  2.3999999E-01;249;  0.0000000E+00;  0.0000000E+00;  0.0000000E+00;  1.0000000E+03;  1.0000000E-01;  0.0000000E+00;0;  0.0000000E+00;  0.0000000E+00;  0.0000000E+00;0;  0.0000000E+00;  4.0000000E+04;  0.0000000E+00;  0.0000000E+00;  4.0000000E+04;  0.0000000E+00;  4.0000000E+04;  0.0000000E+00;  0.0000000E+00;  0.0000000E+00;  0.0000000E+00;
 -1.8000001E-01;  9.9999998E-03;  2.5000000E-01;250;  0.0000000E+00;  0.0000000E+00;  0.0000000E+00;  1.0000000E+03;  1.0000000E-01;  0.0000000E+00;0;  0.0000000E+00;  0.0000000E+00;  0.0000000E+00;0;  0.0000000E+00;  4.0000000E+04;  0.0000000E+00;  0.0000000E+00;  4.0000000E+04;  0.0000000E+00;  4.0000000E+04;  0.0000000E+00;  0.0000000E+00;  0.0000000E+00;  0.0000000E+00;
 -1.8000001E-01;  9.9999998E-03;  2.5999999E-01;251;  0.0000000E+00;  0.0000000E+00;  0.0000000E+00;  1.0000000E+03;  1.0000000E-01;  0.0000000E+00;0;  0.0000000E+00;  0.0000000E+00;  0.0000000E+00;0;  0.0000000E+00;  4.0000000E+04;  0.0000000E+00;  0.0000000E+00;  4.0000000E+04;  0.0000000E+00;  4.0000000E+04;  0.0000000E+00;  0.0000000E+00;  0.0000000E+00;  0.0000000E+00;
 -1.8000001E-01;  9.9999998E-03;  2.7000001E-01;252;  0.0000000E+00;  0.0000000E+00;  0.0000000E+00;  1.0000000E+03;  1.0000000E-01;  0.0000000E+00;0;  0.0000000E+00;  0.0000000E+00;  0.0000000E+00;0;  0.0000000E+00;  4.0000000E+04;  0.0000000E+00;  0.0000000E+00;  4.0000000E+04;  0.0000000E+00;  4.0000000E+04;  0.0000000E+00;  0.0000000E+00;  0.0000000E+00;  0.0000000E+00;
 -1.8000001E-01;  9.9999998E-03;  2.8000000E-01;253;  0.0000000E+00;  0.0000000E+00;  0.0000000E+00;  1.0000000E+03;  1.0000000E-01;  0.0000000E+00;0;  0.0000000E+00;  0.0000000E+00;  0.0000000E+00;0;  0.0000000E+00;  4.0000000E+04;  0.0000000E+00;  0.0000000E+00;  4.0000000E+04;  0.0000000E+00;  4.0000000E+04;  0.0000000E+00;  0.0000000E+00;  0.0000000E+00;  0.0000000E+00;
 -1.8000001E-01;  9.9999998E-03;  2.8999999E-01;254;  0.0000000E+00;  0.0000000E+00;  0.0000000E+00;  1.0000000E+03;  1.0000000E-01;  0.0000000E+00;0;  0.0000000E+00;  0.0000000E+00;  0.0000000E+00;0;  0.0000000E+00;  4.0000000E+04;  0.0000000E+00;  0.0000000E+00;  4.0000000E+04;  0.0000000E+00;  4.0000000E+04;  0.0000000E+00;  0.0000000E+00;  0.0000000E+00;  0.0000000E+00;
 -1.8000001E-01;  9.9999998E-03;  3.0000001E-01;255;  0.0000000E+00;  0.0000000E+00;  0.0000000E+00;  1.0000000E+03;  1.0000000E-01;  0.0000000E+00;0;  0.0000000E+00;  0.0000000E+00;  0.0000000E+00;0;  0.0000000E+00;  4.0000000E+04;  0.0000000E+00;  0.0000000E+00;  4.0000000E+04;  0.0000000E+00;  4.0000000E+04;  0.0000000E+00;  0.0000000E+00;  0.0000000E+00;  0.0000000E+00;
 -1.8000001E-01;  9.9999998E-03;  3.1000000E-01;256;  0.0000000E+00;  0.0000000E+00;  0.0000000E+00;  1.0000000E+03;  1.0000000E-01;  0.0000000E+00;0;  0.0000000E+00;  0.0000000E+00;  0.0000000E+00;0;  0.0000000E+00;  4.0000000E+04;  0.0000000E+00;  0.0000000E+00;  4.0000000E+04;  0.0000000E+00;  4.0000000E+04;  0.0000000E+00;  0.0000000E+00;  0.0000000E+00;  0.0000000E+00;
 -1.8000001E-01;  9.9999998E-03;  3.1999999E-01;257;  0.0000000E+00;  0.0000000E+00;  0.0000000E+00;  1.0000000E+03;  1.0000000E-01;  0.0000000E+00;0;  0.0000000E+00;  0.0000000E+00;  0.0000000E+00;0;  0.0000000E+00;  4.0000000E+04;  0.0000000E+00;  0.0000000E+00;  4.0000000E+04;  0.0000000E+00;  4.0000000E+04;  0.0000000E+00;  0.0000000E+00;  0.0000000E+00;  0.0000000E+00;
 -1.8000001E-01;  9.9999998E-03;  3.3000001E-01;258;  0.0000000E+00;  0.0000000E+00;  0.0000000E+00;  1.0000000E+03;  1.0000000E-01;  0.0000000E+00;0;  0.0000000E+00;  0.0000000E+00;  0.0000000E+00;0;  0.0000000E+00;  4.0000000E+04;  0.0000000E+00;  0.0000000E+00;  4.0000000E+04;  0.0000000E+00;  4.0000000E+04;  0.0000000E+00;  0.0000000E+00;  0.0000000E+00;  0.0000000E+00;
 -1.8000001E-01;  9.9999998E-03;  3.4000000E-01;259;  0.0000000E+00;  0.0000000E+00;  0.0000000E+00;  1.0000000E+03;  1.0000000E-01;  0.0000000E+00;0;  0.0000000E+00;  0.0000000E+00;  0.0000000E+00;0;  0.0000000E+00;  4.0000000E+04;  0.0000000E+00;  0.0000000E+00;  4.0000000E+04;  0.0000000E+00;  4.0000000E+04;  0.0000000E+00;  0.0000000E+00;  0.0000000E+00;  0.0000000E+00;
 -1.8000001E-01;  9.9999998E-03;  3.4999999E-01;260;  0.0000000E+00;  0.0000000E+00;  0.0000000E+00;  1.0000000E+03;  1.0000000E-01;  0.0000000E+00;0;  0.0000000E+00;  0.0000000E+00;  0.0000000E+00;0;  0.0000000E+00;  4.0000000E+04;  0.0000000E+00;  0.0000000E+00;  4.0000000E+04;  0.0000000E+00;  4.0000000E+04;  0.0000000E+00;  0.0000000E+00;  0.0000000E+00;  0.0000000E+00;
 -1.8000001E-01;  9.9999998E-03;  3.6000001E-01;261;  0.0000000E+00;  0.0000000E+00;  0.0000000E+00;  1.0000000E+03;  1.0000000E-01;  0.0000000E+00;0;  0.0000000E+00;  0.0000000E+00;  0.0000000E+00;0;  0.0000000E+00;  4.0000000E+04;  0.0000000E+00;  0.0000000E+00;  4.0000000E+04;  0.0000000E+00;  4.0000000E+04;  0.0000000E+00;  0.0000000E+00;  0.0000000E+00;  0.0000000E+00;
 -1.8000001E-01;  9.9999998E-03;  3.7000000E-01;262;  0.0000000E+00;  0.0000000E+00;  0.0000000E+00;  1.0000000E+03;  1.0000000E-01;  0.0000000E+00;0;  0.0000000E+00;  0.0000000E+00;  0.0000000E+00;0;  0.0000000E+00;  4.0000000E+04;  0.0000000E+00;  0.0000000E+00;  4.0000000E+04;  0.0000000E+00;  4.0000000E+04;  0.0000000E+00;  0.0000000E+00;  0.0000000E+00;  0.0000000E+00;
 -1.8000001E-01;  9.9999998E-03;  3.8000000E-01;263;  0.0000000E+00;  0.0000000E+00;  0.0000000E+00;  1.0000000E+03;  1.0000000E-01;  0.0000000E+00;0;  0.0000000E+00;  0.0000000E+00;  0.0000000E+00;0;  0.0000000E+00;  4.0000000E+04;  0.0000000E+00;  0.0000000E+00;  4.0000000E+04;  0.0000000E+00;  4.0000000E+04;  0.0000000E+00;  0.0000000E+00;  0.0000000E+00;  0.0000000E+00;
 -1.8000001E-01;  9.9999998E-03;  3.8999999E-01;264;  0.0000000E+00;  0.0000000E+00;  0.0000000E+00;  1.0000000E+03;  1.0000000E-01;  0.0000000E+00;0;  0.0000000E+00;  0.0000000E+00;  0.0000000E+00;0;  0.0000000E+00;  4.0000000E+04;  0.0000000E+00;  0.0000000E+00;  4.0000000E+04;  0.0000000E+00;  4.0000000E+04;  0.0000000E+00;  0.0000000E+00;  0.0000000E+00;  0.0000000E+00;
 -1.8000001E-01;  9.9999998E-03;  4.0000001E-01;265;  0.0000000E+00;  0.0000000E+00;  0.0000000E+00;  1.0000000E+03;  1.0000000E-01;  0.0000000E+00;0;  0.0000000E+00;  0.0000000E+00;  0.0000000E+00;0;  0.0000000E+00;  4.0000000E+04;  0.0000000E+00;  0.0000000E+00;  4.0000000E+04;  0.0000000E+00;  4.0000000E+04;  0.0000000E+00;  0.0000000E+00;  0.0000000E+00;  0.0000000E+00;
 -1.7000000E-01;  9.9999998E-03;  2.3999999E-01;340;  0.0000000E+00;  0.0000000E+00;  0.0000000E+00;  1.0000000E+03;  1.0000000E-01;  0.0000000E+00;0;  0.0000000E+00;  0.0000000E+00;  0.0000000E+00;0;  0.0000000E+00;  4.0000000E+04;  0.0000000E+00;  0.0000000E+00;  4.0000000E+04;  0.0000000E+00;  4.0000000E+04;  0.0000000E+00;  0.0000000E+00;  0.0000000E+00;  7.1569556E-10;
 -1.7000000E-01;  9.9999998E-03;  2.5000000E-01;341;  0.0000000E+00;  0.0000000E+00;  0.0000000E+00;  1.0000000E+03;  1.0000000E-01;  0.0000000E+00;0;  0.0000000E+00;  0.0000000E+00;  0.0000000E+00;0;  0.0000000E+00;  4.0000000E+04;  0.0000000E+00;  0.0000000E+00;  4.0000000E+04;  0.0000000E+00;  4.0000000E+04;  0.0000000E+00;  0.0000000E+00;  0.0000000E+00;  4.6691867E-10;
 -1.7000000E-01;  9.9999998E-03;  2.5999999E-01;342;  0.0000000E+00;  0.0000000E+00;  0.0000000E+00;  1.0000000E+03;  1.0000000E-01;  0.0000000E+00;0;  0.0000000E+00;  0.0000000E+00;  0.0000000E+00;0;  0.0000000E+00;  4.0000000E+04;  0.0000000E+00;  0.0000000E+00;  4.0000000E+04;  0.0000000E+00;  4.0000000E+04;  0.0000000E+00;  0.0000000E+00;  0.0000000E+00;  2.4656574E-10;
 -1.7000000E-01;  9.9999998E-03;  2.7000001E-01;343;  0.0000000E+00;  0.0000000E+00;  0.0000000E+00;  1.0000000E+03;  1.0000000E-01;  0.0000000E+00;0;  0.0000000E+00;  0.0000000E+00;  0.0000000E+00;0;  0.0000000E+00;  4.0000000E+04;  0.0000000E+00;  0.0000000E+00;  4.0000000E+04;  0.0000000E+00;  4.0000000E+04;  0.0000000E+00;  0.0000000E+00;  0.0000000E+00;  9.0626097E-11;
 -1.7000000E-01;  9.9999998E-03;  2.8000000E-01;344;  0.0000000E+00;  0.0000000E+00;  0.0000000E+00;  1.0000000E+03;  1.0000000E-01;  0.0000000E+00;0;  0.0000000E+00;  0.0000000E+00;  0.0000000E+00;0;  0.0000000E+00;  4.0000000E+04;  0.0000000E+00;  0.0000000E+00;  4.0000000E+04;  0.0000000E+00;  4.0000000E+04;  0.0000000E+00;  0.0000000E+00;  0.0000000E+00;  1.4966250E-11;
 -1.7000000E-01;  9.9999998E-03;  2.8999999E-01;345;  0.0000000E+00;  0.0000000E+00;  0.0000000E+00;  1.0000000E+03;  1.0000000E-01;  0.0000000E+00;0;  0.0000000E+00;  0.0000000E+00;  0.0000000E+00;0;  0.0000000E+00;  4.0000000E+04;  0.0000000E+00;  0.0000000E+00;  4.0000000E+04;  0.0000000E+00;  4.0000000E+04;  0.0000000E+00;  0.0000000E+00;  0.0000000E+00;  6.8908875E-14;
 -1.7000000E-01;  9.9999998E-03;  3.0000001E-01;346;  0.0000000E+00;  0.0000000E+00;  0.0000000E+00;  1.0000000E+03;  1.0000000E-01;  0.0000000E+00;0;  0.0000000E+00;  0.0000000E+00;  0.0000000E+00;0;  0.0000000E+00;  4.0000000E+04;  0.0000000E+00;  0.0000000E+00;  4.0000000E+04;  0.0000000E+00;  4.0000000E+04;  0.0000000E+00;  0.0000000E+00;  0.0000000E+00;  0.0000000E+00;
 -1.7000000E-01;  9.9999998E-03;  3.1000000E-01;347;  0.0000000E+00;  0.0000000E+00;  0.0000000E+00;  1.0000000E+03;  1.0000000E-01;  0.0000000E+00;0;  0.0000000E+00;  0.0000000E+00;  0.0000000E+00;0;  0.0000000E+00;  4.0000000E+04;  0.0000000E+00;  0.0000000E+00;  4.0000000E+04;  0.0000000E+00;  4.0000000E+04;  0.0000000E+00;  0.0000000E+00;  0.0000000E+00;  0.0000000E+00;
 -1.7000000E-01;  9.9999998E-03;  3.1999999E-01;348;  0.0000000E+00;  0.0000000E+00;  0.0000000E+00;  1.0000000E+03;  1.0000000E-01;  0.0000000E+00;0;  0.0000000E+00;  0.0000000E+00;  0.0000000E+00;0;  0.0000000E+00;  4.0000000E+04;  0.0000000E+00;  0.0000000E+00;  4.0000000E+04;  0.0000000E+00;  4.0000000E+04;  0.0000000E+00;  0.0000000E+00;  0.0000000E+00;  0.0000000E+00;
 -1.7000000E-01;  9.9999998E-03;  3.3000001E-01;349;  0.0000000E+00;  0.0000000E+00;  0.0000000E+00;  1.0000000E+03;  1.0000000E-01;  0.0000000E+00;0;  0.0000000E+00;  0.0000000E+00;  0.0000000E+00;0;  0.0000000E+00;  4.0000000E+04;  0.0000000E+00;  0.0000000E+00;  4.0000000E+04;  0.0000000E+00;  4.0000000E+04;  0.0000000E+00;  0.0000000E+00;  0.0000000E+00;  0.0000000E+00;
 -1.7000000E-01;  9.9999998E-03;  3.4000000E-01;350;  0.0000000E+00;  0.0000000E+00;  0.0000000E+00;  1.0000000E+03;  1.0000000E-01;  0.0000000E+00;0;  0.0000000E+00;  0.0000000E+00;  0.0000000E+00;0;  0.0000000E+00;  4.0000000E+04;  0.0000000E+00;  0.0000000E+00;  4.0000000E+04;  0.0000000E+00;  4.0000000E+04;  0.0000000E+00;  0.0000000E+00;  0.0000000E+00;  0.0000000E+00;
 -1.7000000E-01;  9.9999998E-03;  3.4999999E-01;351;  0.0000000E+00;  0.0000000E+00;  0.0000000E+00;  1.0000000E+03;  1.0000000E-01;  0.0000000E+00;0;  0.0000000E+00;  0.0000000E+00;  0.0000000E+00;0;  0.0000000E+00;  4.0000000E+04;  0.0000000E+00;  0.0000000E+00;  4.0000000E+04;  0.0000000E+00;  4.0000000E+04;  0.0000000E+00;  0.0000000E+00;  0.0000000E+00;  0.0000000E+00;
 -1.7000000E-01;  9.9999998E-03;  3.6000001E-01;352;  0.0000000E+00;  0.0000000E+00;  0.0000000E+00;  1.0000000E+03;  1.0000000E-01;  0.0000000E+00;0;  0.0000000E+00;  0.0000000E+00;  0.0000000E+00;0;  0.0000000E+00;  4.0000000E+04;  0.0000000E+00;  0.0000000E+00;  4.0000000E+04;  0.0000000E+00;  4.0000000E+04;  0.0000000E+00;  0.0000000E+00;  0.0000000E+00;  0.0000000E+00;
 -1.7000000E-01;  9.9999998E-03;  3.7000000E-01;353;  0.0000000E+00;  0.0000000E+00;  0.0000000E+00;  1.0000000E+03;  1.0000000E-01;  0.0000000E+00;0;  0.0000000E+00;  0.0000000E+00;  0.0000000E+00;0;  0.0000000E+00;  4.0000000E+04;  0.0000000E+00;  0.0000000E+00;  4.0000000E+04;  0.0000000E+00;  4.0000000E+04;  0.0000000E+00;  0.0000000E+00;  0.0000000E+00;  0.0000000E+00;
 -1.7000000E-01;  9.9999998E-03;  3.8000000E-01;354;  0.0000000E+00;  0.0000000E+00;  0.0000000E+00;  1.0000000E+03;  1.0000000E-01;  0.0000000E+00;0;  0.0000000E+00;  0.0000000E+00;  0.0000000E+00;0;  0.0000000E+00;  4.0000000E+04;  0.0000000E+00;  0.0000000E+00;  4.0000000E+04;  0.0000000E+00;  4.0000000E+04;  0.0000000E+00;  0.0000000E+00;  0.0000000E+00;  0.0000000E+00;
 -1.7000000E-01;  9.9999998E-03;  3.8999999E-01;355;  0.0000000E+00;  0.0000000E+00;  0.0000000E+00;  1.0000000E+03;  1.0000000E-01;  0.0000000E+00;0;  0.0000000E+00;  0.0000000E+00;  0.0000000E+00;0;  0.0000000E+00;  4.0000000E+04;  0.0000000E+00;  0.0000000E+00;  4.0000000E+04;  0.0000000E+00;  4.0000000E+04;  0.0000000E+00;  0.0000000E+00;  0.0000000E+00;  0.0000000E+00;
 -1.7000000E-01;  9.9999998E-03;  4.0000001E-01;356;  0.0000000E+00;  0.0000000E+00;  0.0000000E+00;  1.0000000E+03;  1.0000000E-01;  0.0000000E+00;0;  0.0000000E+00;  0.0000000E+00;  0.0000000E+00;0;  0.0000000E+00;  4.0000000E+04;  0.0000000E+00;  0.0000000E+00;  4.0000000E+04;  0.0000000E+00;  4.0000000E+04;  0.0000000E+00;  0.0000000E+00;  0.0000000E+00;  0.0000000E+00;
 -1.6000000E-01;  9.9999998E-03;  2.3999999E-01;431;  0.0000000E+00;  0.0000000E+00;  0.0000000E+00;  1.0000000E+03;  1.0000000E-01;  0.0000000E+00;0;  0.0000000E+00;  0.0000000E+00;  0.0000000E+00;0; -1.9132799E-06;  4.0000000E+04;  0.0000000E+00;  0.0000000E+00;  4.0000000E+04;  0.0000000E+00;  4.0000000E+04; -1.9788781E-06;  0.0000000E+00;  6.5598158E-08;  2.0867610E-01;
 -1.6000000E-01;  9.9999998E-03;  2.5000000E-01;432;  0.0000000E+00;  0.0000000E+00;  0.0000000E+00;  1.0000000E+03;  1.0000000E-01;  0.0000000E+00;0;  0.0000000E+00;  0.0000000E+00;  0.0000000E+00;0; -2.0800589E-06;  4.0000000E+04;  0.0000000E+00;  0.0000000E+00;  4.0000000E+04;  0.0000000E+00;  4.0000000E+04; -2.1365688E-06;  0.0000000E+00;  5.6509876E-08;  1.7711820E-01;
 -1.6000000E-01;  9.9999998E-03;  2.5999999E-01;433;  0.0000000E+00;  0.0000000E+00;  0.0000000E+00;  1.0000000E+03;  1.0000000E-01;  0.0000000E+00;0;  0.0000000E+00;  0.0000000E+00;  0.0000000E+00;0; -2.2550742E-06;  4.0000000E+04;  0.0000000E+00;  0.0000000E+00;  4.0000000E+04;  0.0000000E+00;  4.0000000E+04; -2.2812194E-06;  0.0000000E+00;  2.6145152E-08;  1.1998000E-01;
 -1.6000000E-01;  9.9999998E-03;  2.7000001E-01;434;  0.0000000E+00;  0.0000000E+00;  0.0000000E+00;  1.0000000E+03;  1.0000000E-01;  0.0000000E+00;0;  0.0000000E+00;  0.0000000E+00;  0.0000000E+00;0; -2.3203283E-06;  4.0000000E+04;  0.0000000E+00;  0.0000000E+00;  4.0000000E+04;  0.0000000E+00;  4.0000000E+04; -2.2933866E-06;  0.0000000E+00; -2.6941720E-08;  3.5815217E-02;
 -1.6000000E-01;  9.9999998E-03;  2.8000000E-01;435;  0.0000000E+00;  0.0000000E+00;  0.0000000E+00;  1.0000000E+03;  1.0000000E-01;  0.0000000E+00;0;  0.0000000E+00;  0.0000000E+00;  0.0000000E+00;0; -2.1819110E-06;  4.0000000E+04;  0.0000000E+00;  0.0000000E+00;  4.0000000E+04;  0.0000000E+00;  4.0000000E+04; -2.0972836E-06;  0.0000000E+00; -8.4627459E-08;  5.3318996E-02;
 -1.6000000E-01;  9.9999998E-03;  2.8999999E-01;436;  0.0000000E+00;  0.0000000E+00;  0.0000000E+00;  1.0000000E+03;  1.0000000E-01;  0.0000000E+00;0;  0.0000000E+00;  0.0000000E+00;  0.0000000E+00;0; -1.8214628E-06;  4.0000000E+04;  0.0000000E+00;  0.0000000E+00;  4.0000000E+04;  0.0000000E+00;  4.0000000E+04; -1.6997078E-06;  0.0000000E+00; -1.2175498E-07;  1.1627483E-01;
 -1.6000000E-01;  9.9999998E-03;  3.0000001E-01;437;  0.0000000E+00;  0.0000000E+00;  0.0000000E+00;  1.0000000E+03;  1.0000000E-01;  0.0000000E+00;0;  0.0000000E+00;  0.0000000E+00;  0.0000000E+00;0; -1.3078902E-06;  4.0000000E+04;  0.0000000E+00;  0.0000000E+00;  4.0000000E+04;  0.0000000E+00;  4.0000000E+04; -1.1848979E-06;  0.0000000E+00; -1.2299238E-07;  1.3308233E-01;
 -1.6000000E-01;  9.9999998E-03;  3.1000000E-01;438;  0.0000000E+00;  0.0000000E+00;  0.0000000E+00;  1.0000000E+03;  1.0000000E-01;  0.0000000E+00;0;  0.0000000E+00;  0.0000000E+00;  0.0000000E+00;0; -7.6935771E-07;  4.0000000E+04;  0.0000000E+00;  0.0000000E+00;  4.0000000E+04;  0.0000000E+00;  4.0000000E+04; -6.7722692E-07;  0.0000000E+00; -9.2130769E-08;  1.0669229E-01;
 -1.6000000E-01;  9.9999998E-03;  3.1999999E-01;439;  0.0000000E+00;  0.0000000E+00;  0.0000000E+00;  1.0000000E+03;  1.0000000E-01;  0.0000000E+00;0;  0.0000000E+00;  0.0000000E+00;  0.0000000E+00;0; -3.3756962E-07;  4.0000000E+04;  0.0000000E+00;  0.0000000E+00;  4.0000000E+04;  0.0000000E+00;  4.0000000E+04; -2.8886427E-07;  0.0000000E+00; -4.8705349E-08;  5.9851296E-02;
 -1.6000000E-01;  9.9999998E-03;  3.3000001E-01;440;  0.0000000E+00;  0.0000000E+00;  0.0000000E+00;  1.0000000E+03;  1.0000000E-01;  0.0000000E+00;0;  0.0000000E+00;  0.0000000E+00;  0.0000000E+00;0; -8.7997563E-08;  4.0000000E+04;  0.0000000E+00;  0.0000000E+00;  4.0000000E+04;  0.0000000E+00;  4.0000000E+04; -7.3116034E-08;  0.0000000E+00; -1.4881529E-08;  1.9992337E-02;
 -1.6000000E-01;  9.9999998E-03;  3.4000000E-01;441;  0.0000000E+00;  0.0000000E+00;  0.0000000E+00;  1.0000000E+03;  1.0000000E-01;  0.0000000E+00;0;  0.0000000E+00;  0.0000000E+00;  0.0000000E+00;0; -5.1335229E-09;  4.0000000E+04;  0.0000000E+00;  0.0000000E+00;  4.0000000E+04;  0.0000000E+00;  4.0000000E+04; -4.0922163E-09;  0.0000000E+00; -1.0413066E-09;  1.9831886E-03;
 -1.6000000E-01;  9.9999998E-03;  3.4999999E-01;442;  0.0000000E+00;  0.0000000E+00;  0.0000000E+00;  1.0000000E+03;  1.0000000E-01;  0.0000000E+00;0;  0.0000000E+00;  0.0000000E+00;  0.0000000E+00;0;  0.0000000E+00;  4.0000000E+04;  0.0000000E+00;  0.0000000E+00;  4.0000000E+04;  0.0000000E+00;  4.0000000E+04;  0.0000000E+00;  0.0000000E+00;  0.0000000E+00;  0.0000000E+00;
 -1.6000000E-01;  9.9999998E-03;  3.6000001E-01;443;  0.0000000E+00;  0.0000000E+00;  0.0000000E+00;  1.0000000E+03;  1.0000000E-01;  0.0000000E+00;0;  0.0000000E+00;  0.0000000E+00;  0.0000000E+00;0;  0.0000000E+00;  4.0000000E+04;  0.0000000E+00;  0.0000000E+00;  4.0000000E+04;  0.0000000E+00;  4.0000000E+04;  0.0000000E+00;  0.0000000E+00;  0.0000000E+00;  0.0000000E+00;
 -1.6000000E-01;  9.9999998E-03;  3.7000000E-01;444;  0.0000000E+00;  0.0000000E+00;  0.0000000E+00;  1.0000000E+03;  1.0000000E-01;  0.0000000E+00;0;  0.0000000E+00;  0.0000000E+00;  0.0000000E+00;0;  0.0000000E+00;  4.0000000E+04;  0.0000000E+00;  0.0000000E+00;  4.0000000E+04;  0.0000000E+00;  4.0000000E+04;  0.0000000E+00;  0.0000000E+00;  0.0000000E+00;  0.0000000E+00;
 -1.6000000E-01;  9.9999998E-03;  3.8000000E-01;445;  0.0000000E+00;  0.0000000E+00;  0.0000000E+00;  1.0000000E+03;  1.0000000E-01;  0.0000000E+00;0;  0.0000000E+00;  0.0000000E+00;  0.0000000E+00;0;  0.0000000E+00;  4.0000000E+04;  0.0000000E+00;  0.0000000E+00;  4.0000000E+04;  0.0000000E+00;  4.0000000E+04;  0.0000000E+00;  0.0000000E+00;  0.0000000E+00;  0.0000000E+00;
 -1.6000000E-01;  9.9999998E-03;  3.8999999E-01;446;  0.0000000E+00;  0.0000000E+00;  0.0000000E+00;  1.0000000E+03;  1.0000000E-01;  0.0000000E+00;0;  0.0000000E+00;  0.0000000E+00;  0.0000000E+00;0;  0.0000000E+00;  4.0000000E+04;  0.0000000E+00;  0.0000000E+00;  4.0000000E+04;  0.0000000E+00;  4.0000000E+04;  0.0000000E+00;  0.0000000E+00;  0.0000000E+00;  0.0000000E+00;
 -1.6000000E-01;  9.9999998E-03;  4.0000001E-01;447;  0.0000000E+00;  0.0000000E+00;  0.0000000E+00;  1.0000000E+03;  1.0000000E-01;  0.0000000E+00;0;  0.0000000E+00;  0.0000000E+00;  0.0000000E+00;0;  0.0000000E+00;  4.0000000E+04;  0.0000000E+00;  0.0000000E+00;  4.0000000E+04;  0.0000000E+00;  4.0000000E+04;  0.0000000E+00;  0.0000000E+00;  0.0000000E+00;  0.0000000E+00;
 -1.5000001E-01;  9.9999998E-03;  2.3999999E-01;522;  0.0000000E+00;  0.0000000E+00;  0.0000000E+00;  1.0000000E+03;  1.0000000E-01;  0.0000000E+00;0;  0.0000000E+00;  0.0000000E+00;  0.0000000E+00;0; -3.3782948E-05;  4.0000000E+04;  0.0000000E+00;  0.0000000E+00;  4.0000000E+04;  0.0000000E+00;  4.0000000E+04; -3.4444467E-05;  0.0000000E+00;  6.6151932E-07;  2.9550695E+00;
 -1.5000001E-01;  9.9999998E-03;  2.5000000E-01;523;  0.0000000E+00;  0.0000000E+00;  0.0000000E+00;  1.0000000E+03;  1.0000000E-01;  0.0000000E+00;0;  0.0000000E+00;  0.0000000E+00;  0.0000000E+00;0; -3.2924891E-05;  4.0000000E+04;  0.0000000E+00;  0.0000000E+00;  4.0000000E+04;  0.0000000E+00;  4.0000000E+04; -3.2976048E-05;  0.0000000E+00;  5.1158235E-08;  2.0985160E+00;
 -1.5000001E-01;  9.9999998E-03;  2.5999999E-01;524;  0.0000000E+00;  0.0000000E+00;  0.0000000E+00;  1.0000000E+03;  1.0000000E-01;  0.0000000E+00;0;  0.0000000E+00;  0.0000000E+00;  0.0000000E+00;0; -3.1894324E-05;  4.0000000E+04;  0.0000000E+00;  0.0000000E+00;  4.0000000E+04;  0.0000000E+00;  4.0000000E+04; -3.1190182E-05;  0.0000000E+00; -7.0414217E-07;  1.0307614E+00;
 -1.5000001E-01;  9.9999998E-03;  2.7000001E-01;525;  0.0000000E+00;  0.0000000E+00;  0.0000000E+00;  1.0000000E+03;  1.0000000E-01;  0.0000000E+00;0;  0.0000000E+00;  0.0000000E+00;  0.0000000E+00;0; -3.0164618E-05;  4.0000000E+04;  0.0000000E+00;  0.0000000E+00;  4.0000000E+04;  0.0000000E+00;  4.0000000E+04; -2.8691766E-05;  0.0000000E+00; -1.4728525E-06;  1.1356306E-01;
 -1.5000001E-01;  9.9999998E-03;  2.8000000E-01;526;  0.0000000E+00;  0.0000000E+00;  0.0000000E+00;  1.0000000E+03;  1.0000000E-01;  0.0000000E+00;0;  0.0000000E+00;  0.0000000E+00;  0.0000000E+00;0; -2.7341841E-05;  4.0000000E+04;  0.0000000E+00;  0.0000000E+00;  4.0000000E+04;  0.0000000E+00;  4.0000000E+04; -2.5249057E-05;  0.0000000E+00; -2.0927846E-06;  1.1425452E+00;
 -1.5000001E-01;  9.9999998E-03;  2.8999999E-01;527;  0.0000000E+00;  0.0000000E+00;  0.0000000E+00;  1.0000000E+03;  1.0000000E-01;  0.0000000E+00;0;  0.0000000E+00;  0.0000000E+00;  0.0000000E+00;0; -2.3337911E-05;  4.0000000E+04;  0.0000000E+00;  0.0000000E+00;  4.0000000E+04;  0.0000000E+00;  4.0000000E+04; -2.0916197E-05;  0.0000000E+00; -2.4217125E-06;  1.8639642E+00;
 -1.5000001E-01;  9.9999998E-03;  3.0000001E-01;528;  0.0000000E+00;  0.0000000E+00;  0.0000000E+00;  1.0000000E+03;  1.0000000E-01;  0.0000000E+00;0;  0.0000000E+00;  0.0000000E+00;  0.0000000E+00;0; -1.8427470E-05;  4.0000000E+04;  0.0000000E+00;  0.0000000E+00;  4.0000000E+04;  0.0000000E+00;  4.0000000E+04; -1.6036245E-05;  0.0000000E+00; -2.3912246E-06;  2.1553886E+00;
 -1.5000001E-01;  9.9999998E-03;  3.1000000E-01;529;  0.0000000E+00;  0.0000000E+00;  0.0000000E+00;  1.0000000E+03;  1.0000000E-01;  0.0000000E+00;0;  0.0000000E+00;  0.0000000E+00;  0.0000000E+00;0; -1.3183580E-05;  4.0000000E+04;  0.0000000E+00;  0.0000000E+00;  4.0000000E+04;  0.0000000E+00;  4.0000000E+04; -1.1147171E-05;  0.0000000E+00; -2.0364098E-06;  2.0152998E+00;
 -1.5000001E-01;  9.9999998E-03;  3.1999999E-01;530;  0.0000000E+00;  0.0000000E+00;  0.0000000E+00;  1.0000000E+03;  1.0000000E-01;  0.0000000E+00;0;  0.0000000E+00;  0.0000000E+00;  0.0000000E+00;0; -8.3081322E-06;  4.0000000E+04;  0.0000000E+00;  0.0000000E+00;  4.0000000E+04;  0.0000000E+00;  4.0000000E+04; -6.8259515E-06;  0.0000000E+00; -1.4821803E-06;  1.5631055E+00;
 -1.5000001E-01;  9.9999998E-03;  3.3000001E-01;531;  0.0000000E+00;  0.0000000E+00;  0.0000000E+00;  1.0000000E+03;  1.0000000E-01;  0.0000000E+00;0;  0.0000000E+00;  0.0000000E+00;  0.0000000E+00;0; -4.4121971E-06;  4.0000000E+04;  0.0000000E+00;  0.0000000E+00;  4.0000000E+04;  0.0000000E+00;  4.0000000E+04; -3.5184109E-06;  0.0000000E+00; -8.9378631E-07;  9.8941034E-01;
 -1.5000001E-01;  9.9999998E-03;  3.4000000E-01;532;  0.0000000E+00;  0.0000000E+00;  0.0000000E+00;  1.0000000E+03;  1.0000000E-01;  0.0000000E+00;0;  0.0000000E+00;  0.0000000E+00;  0.0000000E+00;0; -1.8248950E-06;  4.0000000E+04;  0.0000000E+00;  0.0000000E+00;  4.0000000E+04;  0.0000000E+00;  4.0000000E+04; -1.4082028E-06;  0.0000000E+00; -4.1669219E-07;  4.8202169E-01;
 -1.5000001E-01;  9.9999998E-03;  3.4999999E-01;533;  0.0000000E+00;  0.0000000E+00;  0.0000000E+00;  1.0000000E+03;  1.0000000E-01;  0.0000000E+00;0;  0.0000000E+00;  0.0000000E+00;  0.0000000E+00;0; -4.9849780E-07;  4.0000000E+04;  0.0000000E+00;  0.0000000E+00;  4.0000000E+04;  0.0000000E+00;  4.0000000E+04; -3.7036472E-07;  0.0000000E+00; -1.2813311E-07;  1.5695834E-01;
 -1.5000001E-01;  9.9999998E-03;  3.6000001E-01;534;  0.0000000E+00;  0.0000000E+00;  0.0000000E+00;  1.0000000E+03;  1.0000000E-01;  0.0000000E+00;0;  0.0000000E+00;  0.0000000E+00;  0.0000000E+00;0; -5.5009217E-08;  4.0000000E+04;  0.0000000E+00;  0.0000000E+00;  4.0000000E+04;  0.0000000E+00;  4.0000000E+04; -3.9088949E-08;  0.0000000E+00; -1.5920270E-08;  2.2473354E-02;
 -1.5000001E-01;  9.9999998E-03;  3.7000000E-01;535;  0.0000000E+00;  0.0000000E+00;  0.0000000E+00;  1.0000000E+03;  1.0000000E-01;  0.0000000E+00;0;  0.0000000E+00;  0.0000000E+00;  0.0000000E+00;0;  0.0000000E+00;  4.0000000E+04;  0.0000000E+00;  0.0000000E+00;  4.0000000E+04;  0.0000000E+00;  4.0000000E+04;  0.0000000E+00;  0.0000000E+00;  0.0000000E+00;  3.0836869E-09;
 -1.5000001E-01;  9.9999998E-03;  3.8000000E-01;536;  0.0000000E+00;  0.0000000E+00;  0.0000000E+00;  1.0000000E+03;  1.0000000E-01;  0.0000000E+00;0;  0.0000000E+00;  0.0000000E+00;  0.0000000E+00;0;  0.0000000E+00;  4.0000000E+04;  0.0000000E+00;  0.0000000E+00;  4.0000000E+04;  0.0000000E+00;  4.0000000E+04;  0.0000000E+00;  0.0000000E+00;  0.0000000E+00;  0.0000000E+00;
 -1.5000001E-01;  9.9999998E-03;  3.8999999E-01;537;  0.0000000E+00;  0.0000000E+00;  0.0000000E+00;  1.0000000E+03;  1.0000000E-01;  0.0000000E+00;0;  0.0000000E+00;  0.0000000E+00;  0.0000000E+00;0;  0.0000000E+00;  4.0000000E+04;  0.0000000E+00;  0.0000000E+00;  4.0000000E+04;  0.0000000E+00;  4.0000000E+04;  0.0000000E+00;  0.0000000E+00;  0.0000000E+00;  0.0000000E+00;
 -1.5000001E-01;  9.9999998E-03;  4.0000001E-01;538;  0.0000000E+00;  0.0000000E+00;  0.0000000E+00;  1.0000000E+03;  1.0000000E-01;  0.0000000E+00;0;  0.0000000E+00;  0.0000000E+00;  0.0000000E+00;0;  0.0000000E+00;  4.0000000E+04;  0.0000000E+00;  0.0000000E+00;  4.0000000E+04;  0.0000000E+00;  4.0000000E+04;  0.0000000E+00;  0.0000000E+00;  0.0000000E+00;  0.0000000E+00;
 -1.4000000E-01;  9.9999998E-03;  2.3999999E-01;613;  0.0000000E+00;  0.0000000E+00;  0.0000000E+00;  1.0000000E+03;  1.0000000E-01;  0.0000000E+00;0;  0.0000000E+00;  0.0000000E+00;  0.0000000E+00;0; -1.7759923E-04;  4.0000000E+04;  0.0000000E+00;  0.0000000E+00;  4.0000000E+04;  0.0000000E+00;  4.0000000E+04; -1.7900208E-04;  0.0000000E+00;  1.4028509E-06;  1.3554585E+01;
 -1.4000000E-01;  9.9999998E-03;  2.5000000E-01;614;  0.0000000E+00;  0.0000000E+00;  0.0000000E+00;  1.0000000E+03;  1.0000000E-01;  0.0000000E+00;0;  0.0000000E+00;  0.0000000E+00;  0.0000000E+00;0; -1.6780217E-04;  4.0000000E+04;  0.0000000E+00;  0.0000000E+00;  4.0000000E+04;  0.0000000E+00;  4.0000000E+04; -1.6546712E-04;  0.0000000E+00; -2.3350447E-06;  9.0314827E+00;
 -1.4000000E-01;  9.9999998E-03;  2.5999999E-01;615;  0.0000000E+00;  0.0000000E+00;  0.0000000E+00;  1.0000000E+03;  1.0000000E-01;  0.0000000E+00;0;  0.0000000E+00;  0.0000000E+00;  0.0000000E+00;0; -1.5764379E-04;  4.0000000E+04;  0.0000000E+00;  0.0000000E+00;  4.0000000E+04;  0.0000000E+00;  4.0000000E+04; -1.5132269E-04;  0.0000000E+00; -6.3211023E-06;  3.8313718E+00;
 -1.4000000E-01;  9.9999998E-03;  2.7000001E-01;616;  0.0000000E+00;  0.0000000E+00;  0.0000000E+00;  1.0000000E+03;  1.0000000E-01;  0.0000000E+00;0;  0.0000000E+00;  0.0000000E+00;  0.0000000E+00;0; -1.4563788E-04;  4.0000000E+04;  0.0000000E+00;  0.0000000E+00;  4.0000000E+04;  0.0000000E+00;  4.0000000E+04; -1.3565354E-04;  0.0000000E+00; -9.9843455E-06;  1.4766052E+00;
 -1.4000000E-01;  9.9999998E-03;  2.8000000E-01;617;  0.0000000E+00;  0.0000000E+00;  0.0000000E+00;  1.0000000E+03;  1.0000000E-01;  0.0000000E+00;0;  0.0000000E+00;  0.0000000E+00;  0.0000000E+00;0; -1.3073845E-04;  4.0000000E+04;  0.0000000E+00;  0.0000000E+00;  4.0000000E+04;  0.0000000E+00;  4.0000000E+04; -1.1799303E-04;  0.0000000E+00; -1.2745424E-05;  6.1855989E+00;
 -1.4000000E-01;  9.9999998E-03;  2.8999999E-01;618;  0.0000000E+00;  0.0000000E+00;  0.0000000E+00;  1.0000000E+03;  1.0000000E-01;  0.0000000E+00;0;  0.0000000E+00;  0.0000000E+00;  0.0000000E+00;0; -1.1269318E-04;  4.0000000E+04;  0.0000000E+00;  0.0000000E+00;  4.0000000E+04;  0.0000000E+00;  4.0000000E+04; -9.8533390E-05;  0.0000000E+00; -1.4159791E-05;  9.6309938E+00;
 -1.4000000E-01;  9.9999998E-03;  3.0000001E-01;619;  0.0000000E+00;  0.0000000E+00;  0.0000000E+00;  1.0000000E+03;  1.0000000E-01;  0.0000000E+00;0;  0.0000000E+00;  0.0000000E+00;  0.0000000E+00;0; -9.2163136E-05;  4.0000000E+04;  0.0000000E+00;  0.0000000E+00;  4.0000000E+04;  0.0000000E+00;  4.0000000E+04; -7.8120625E-05;  0.0000000E+00; -1.4042512E-05;  1.1373649E+01;
 -1.4000000E-01;  9.9999998E-03;  3.1000000E-01;620;  0.0000000E+00;  0.0000000E+00;  0.0000000E+00;  1.0000000E+03;  1.0000000E-01;  0.0000000E+00;0;  0.0000000E+00;  0.0000000E+00;  0.0000000E+00;0; -7.0602000E-05;  4.0000000E+04;  0.0000000E+00;  0.0000000E+00;  4.0000000E+04;  0.0000000E+00;  4.0000000E+04; -5.8067424E-05;  0.0000000E+00; -1.2534574E-05;  1.1342094E+01;
 -1.4000000E-01;  9.9999998E-03;  3.1999999E-01;621;  0.0000000E+00;  0.0000000E+00;  0.0000000E+00;  1.0000000E+03;  1.0000000E-01;  0.0000000E+00;0;  0.0000000E+00;  0.0000000E+00;  0.0000000E+00;0; -4.9898266E-05;  4.0000000E+04;  0.0000000E+00;  0.0000000E+00;  4.0000000E+04;  0.0000000E+00;  4.0000000E+04; -3.9839906E-05;  0.0000000E+00; -1.0058360E-05;  9.8472042E+00;
 -1.4000000E-01;  9.9999998E-03;  3.3000001E-01;622;  0.0000000E+00;  0.0000000E+00;  0.0000000E+00;  1.0000000E+03;  1.0000000E-01;  0.0000000E+00;0;  0.0000000E+00;  0.0000000E+00;  0.0000000E+00;0; -3.1881405E-05;  4.0000000E+04;  0.0000000E+00;  0.0000000E+00;  4.0000000E+04;  0.0000000E+00;  4.0000000E+04; -2.4700890E-05;  0.0000000E+00; -7.1805134E-06;  7.4668465E+00;
 -1.4000000E-01;  9.9999998E-03;  3.4000000E-01;623;  0.0000000E+00;  0.0000000E+00;  0.0000000E+00;  1.0000000E+03;  1.0000000E-01;  0.0000000E+00;0;  0.0000000E+00;  0.0000000E+00;  0.0000000E+00;0; -1.7859889E-05;  4.0000000E+04;  0.0000000E+00;  0.0000000E+00;  4.0000000E+04;  0.0000000E+00;  4.0000000E+04; -1.3406037E-05;  0.0000000E+00; -4.4538519E-06;  4.8664823E+00;
 -1.4000000E-01;  9.9999998E-03;  3.4999999E-01;624;  0.0000000E+00;  0.0000000E+00;  0.0000000E+00;  1.0000000E+03;  1.0000000E-01;  0.0000000E+00;0;  0.0000000E+00;  0.0000000E+00;  0.0000000E+00;0; -8.3268760E-06;  4.0000000E+04;  0.0000000E+00;  0.0000000E+00;  4.0000000E+04;  0.0000000E+00;  4.0000000E+04; -6.0369894E-06;  0.0000000E+00; -2.2898867E-06;  2.6175511E+00;
 -1.4000000E-01;  9.9999998E-03;  3.6000001E-01;625;  0.0000000E+00;  0.0000000E+00;  0.0000000E+00;  1.0000000E+03;  1.0000000E-01;  0.0000000E+00;0;  0.0000000E+00;  0.0000000E+00;  0.0000000E+00;0; -2.9100911E-06;  4.0000000E+04;  0.0000000E+00;  0.0000000E+00;  4.0000000E+04;  0.0000000E+00;  4.0000000E+04; -2.0263212E-06;  0.0000000E+00; -8.8376987E-07;  1.0608541E+00;
 -1.4000000E-01;  9.9999998E-03;  3.7000000E-01;626;  0.0000000E+00;  0.0000000E+00;  0.0000000E+00;  1.0000000E+03;  1.0000000E-01;  0.0000000E+00;0;  0.0000000E+00;  0.0000000E+00;  0.0000000E+00;0; -5.8649454E-07;  4.0000000E+04;  0.0000000E+00;  0.0000000E+00;  4.0000000E+04;  0.0000000E+00;  4.0000000E+04; -3.8689805E-07;  0.0000000E+00; -1.9959649E-07;  2.5615638E-01;
 -1.4000000E-01;  9.9999998E-03;  3.8000000E-01;627;  0.0000000E+00;  0.0000000E+00;  0.0000000E+00;  1.0000000E+03;  1.0000000E-01;  0.0000000E+00;0;  0.0000000E+00;  0.0000000E+00;  0.0000000E+00;0; -2.4654987E-08;  4.0000000E+04;  0.0000000E+00;  0.0000000E+00;  4.0000000E+04;  0.0000000E+00;  4.0000000E+04; -1.5020078E-08;  0.0000000E+00; -9.6349089E-09;  1.5532224E-02;
 -1.4000000E-01;  9.9999998E-03;  3.8999999E-01;628;  0.0000000E+00;  0.0000000E+00;  0.0000000E+00;  1.0000000E+03;  1.0000000E-01;  0.0000000E+00;0;  0.0000000E+00;  0.0000000E+00;  0.0000000E+00;0;  0.0000000E+00;  4.0000000E+04;  0.0000000E+00;  0.0000000E+00;  4.0000000E+04;  0.0000000E+00;  4.0000000E+04;  0.0000000E+00;  0.0000000E+00;  0.0000000E+00;  0.0000000E+00;
 -1.4000000E-01;  9.9999998E-03;  4.0000001E-01;629;  0.0000000E+00;  0.0000000E+00;  0.0000000E+00;  1.0000000E+03;  1.0000000E-01;  0.0000000E+00;0;  0.0000000E+00;  0.0000000E+00;  0.0000000E+00;0;  0.0000000E+00;  4.0000000E+04;  0.0000000E+00;  0.0000000E+00;  4.0000000E+04;  0.0000000E+00;  4.0000000E+04;  0.0000000E+00;  0.0000000E+00;  0.0000000E+00;  0.0000000E+00;
 -1.3000000E-01;  9.9999998E-03;  2.3999999E-01;704;  0.0000000E+00;  0.0000000E+00;  0.0000000E+00;  1.0000013E+03;  1.0000000E-01;  1.0863891E+00;0;  0.0000000E+00;  0.0000000E+00;  0.0000000E+00;0; -5.7480799E-04;  4.0000000E+04;  0.0000000E+00;  0.0000000E+00;  4.0000000E+04;  0.0000000E+00;  4.0000000E+04; -5.7471328E-04;  0.0000000E+00; -9.4684808E-08;  3.9960949E+01;
 -1.3000000E-01;  9.9999998E-03;  2.5000000E-01;705;  0.0000000E+00;  0.0000000E+00;  0.0000000E+00;  1.0000002E+03;  1.0000000E-01;  1.9752528E-01;0;  0.0000000E+00;  0.0000000E+00;  0.0000000E+00;0; -5.3596025E-04;  4.0000000E+04;  0.0000000E+00;  0.0000000E+00;  4.0000000E+04;  0.0000000E+00;  4.0000000E+04; -5.2295020E-04;  0.0000000E+00; -1.3010068E-05;  2.5732786E+01;
 -1.3000000E-01;  9.9999998E-03;  2.5999999E-01;706;  0.0000000E+00;  0.0000000E+00;  0.0000000E+00;  1.0000000E+03;  1.0000000E-01;  0.0000000E+00;0;  0.0000000E+00;  0.0000000E+00;  0.0000000E+00;0; -4.9664563E-04;  4.0000000E+04;  0.0000000E+00;  0.0000000E+00;  4.0000000E+04;  0.0000000E+00;  4.0000000E+04; -4.7062270E-04;  0.0000000E+00; -2.6022915E-05;  9.8436537E+00;
 -1.3000000E-01;  9.9999998E-03;  2.7000001E-01;707;  0.0000000E+00;  0.0000000E+00;  0.0000000E+00;  1.0000000E+03;  1.0000000E-01;  0.0000000E+00;0;  0.0000000E+00;  0.0000000E+00;  0.0000000E+00;0; -4.5385413E-04;  4.0000000E+04;  0.0000000E+00;  0.0000000E+00;  4.0000000E+04;  0.0000000E+00;  4.0000000E+04; -4.1634371E-04;  0.0000000E+00; -3.7510406E-05;  6.1607995E+00;
 -1.3000000E-01;  9.9999998E-03;  2.8000000E-01;708;  0.0000000E+00;  0.0000000E+00;  0.0000000E+00;  1.0000000E+03;  1.0000000E-01;  0.0000000E+00;0;  0.0000000E+00;  0.0000000E+00;  0.0000000E+00;0; -4.0553397E-04;  4.0000000E+04;  0.0000000E+00;  0.0000000E+00;  4.0000000E+04;  0.0000000E+00;  4.0000000E+04; -3.5956665E-04;  0.0000000E+00; -4.5967317E-05;  2.0338476E+01;
 -1.3000000E-01;  9.9999998E-03;  2.8999999E-01;709;  0.0000000E+00;  0.0000000E+00;  0.0000000E+00;  1.0000000E+03;  1.0000000E-01;  0.0000000E+00;0;  0.0000000E+00;  0.0000000E+00;  0.0000000E+00;0; -3.5120509E-04;  4.0000000E+04;  0.0000000E+00;  0.0000000E+00;  4.0000000E+04;  0.0000000E+00;  4.0000000E+04; -3.0088489E-04;  0.0000000E+00; -5.0320206E-05;  3.1070065E+01;
 -1.3000000E-01;  9.9999998E-03;  3.0000001E-01;710;  0.0000000E+00;  0.0000000E+00;  0.0000000E+00;  1.0000000E+03;  1.0000000E-01;  0.0000000E+00;0;  0.0000000E+00;  0.0000000E+00;  0.0000000E+00;0; -2.9217309E-04;  4.0000000E+04;  0.0000000E+00;  0.0000000E+00;  4.0000000E+04;  0.0000000E+00;  4.0000000E+04; -2.4200263E-04;  0.0000000E+00; -5.0170464E-05;  3.7197971E+01;
 -1.3000000E-01;  9.9999998E-03;  3.1000000E-01;711;  0.0000000E+00;  0.0000000E+00;  0.0000000E+00;  1.0000000E+03;  1.0000000E-01;  0.0000000E+00;0;  0.0000000E+00;  0.0000000E+00;  0.0000000E+00;0; -2.3134578E-04;  4.0000000E+04;  0.0000000E+00;  0.0000000E+00;  4.0000000E+04;  0.0000000E+00;  4.0000000E+04; -1.8542496E-04;  0.0000000E+00; -4.5920820E-05;  3.8423470E+01;
 -1.3000000E-01;  9.9999998E-03;  3.1999999E-01;712;  0.0000000E+00;  0.0000000E+00;  0.0000000E+00;  1.0000000E+03;  1.0000000E-01;  0.0000000E+00;0;  0.0000000E+00;  0.0000000E+00;  0.0000000E+00;0; -1.7260032E-04;  4.0000000E+04;  0.0000000E+00;  0.0000000E+00;  4.0000000E+04;  0.0000000E+00;  4.0000000E+04; -1.3394405E-04;  0.0000000E+00; -3.8656271E-05;  3.5348064E+01;
 -1.3000000E-01;  9.9999998E-03;  3.3000001E-01;713;  0.0000000E+00;  0.0000000E+00;  0.0000000E+00;  1.0000000E+03;  1.0000000E-01;  0.0000000E+00;0;  0.0000000E+00;  0.0000000E+00;  0.0000000E+00;0; -1.1985442E-04;  4.0000000E+04;  0.0000000E+00;  0.0000000E+00;  4.0000000E+04;  0.0000000E+00;  4.0000000E+04; -9.0035173E-05;  0.0000000E+00; -2.9819246E-05;  2.9239191E+01;
 -1.3000000E-01;  9.9999998E-03;  3.4000000E-01;714;  0.0000000E+00;  0.0000000E+00;  0.0000000E+00;  1.0000000E+03;  1.0000000E-01;  0.0000000E+00;0;  0.0000000E+00;  0.0000000E+00;  0.0000000E+00;0; -7.6179596E-05;  4.0000000E+04;  0.0000000E+00;  0.0000000E+00;  4.0000000E+04;  0.0000000E+00;  4.0000000E+04; -5.5323260E-05;  0.0000000E+00; -2.0856338E-05;  2.1667500E+01;
 -1.3000000E-01;  9.9999998E-03;  3.4999999E-01;715;  0.0000000E+00;  0.0000000E+00;  0.0000000E+00;  1.0000000E+03;  1.0000000E-01;  0.0000000E+00;0;  0.0000000E+00;  0.0000000E+00;  0.0000000E+00;0; -4.3209617E-05;  4.0000000E+04;  0.0000000E+00;  0.0000000E+00;  4.0000000E+04;  0.0000000E+00;  4.0000000E+04; -3.0261208E-05;  0.0000000E+00; -1.2948408E-05;  1.4147764E+01;
 -1.3000000E-01;  9.9999998E-03;  3.6000001E-01;716;  0.0000000E+00;  0.0000000E+00;  0.0000000E+00;  1.0000000E+03;  1.0000000E-01;  0.0000000E+00;0;  0.0000000E+00;  0.0000000E+00;  0.0000000E+00;0; -2.0953707E-05;  4.0000000E+04;  0.0000000E+00;  0.0000000E+00;  4.0000000E+04;  0.0000000E+00;  4.0000000E+04; -1.4098700E-05;  0.0000000E+00; -6.8550071E-06;  7.8533788E+00;
 -1.3000000E-01;  9.9999998E-03;  3.7000000E-01;717;  0.0000000E+00;  0.0000000E+00;  0.0000000E+00;  1.0000000E+03;  1.0000000E-01;  0.0000000E+00;0;  0.0000000E+00;  0.0000000E+00;  0.0000000E+00;0; -8.0164791E-06;  4.0000000E+04;  0.0000000E+00;  0.0000000E+00;  4.0000000E+04;  0.0000000E+00;  4.0000000E+04; -5.1554966E-06;  0.0000000E+00; -2.8609827E-06;  3.4439099E+00;
 -1.3000000E-01;  9.9999998E-03;  3.8000000E-01;718;  0.0000000E+00;  0.0000000E+00;  0.0000000E+00;  1.0000000E+03;  1.0000000E-01;  0.0000000E+00;0;  0.0000000E+00;  0.0000000E+00;  0.0000000E+00;0; -2.0278676E-06;  4.0000000E+04;  0.0000000E+00;  0.0000000E+00;  4.0000000E+04;  0.0000000E+00;  4.0000000E+04; -1.2380801E-06;  0.0000000E+00; -7.8978741E-07;  1.0096838E+00;
 -1.3000000E-01;  9.9999998E-03;  3.8999999E-01;719;  0.0000000E+00;  0.0000000E+00;  0.0000000E+00;  1.0000000E+03;  1.0000000E-01;  0.0000000E+00;0;  0.0000000E+00;  0.0000000E+00;  0.0000000E+00;0; -1.8122483E-07;  4.0000000E+04;  0.0000000E+00;  0.0000000E+00;  4.0000000E+04;  0.0000000E+00;  4.0000000E+04; -1.0167097E-07;  0.0000000E+00; -7.9553864E-08;  1.1270765E-01;
 -1.3000000E-01;  9.9999998E-03;  4.0000001E-01;720;  0.0000000E+00;  0.0000000E+00;  0.0000000E+00;  1.0000000E+03;  1.0000000E-01;  0.0000000E+00;0;  0.0000000E+00;  0.0000000E+00;  0.0000000E+00;0;  0.0000000E+00;  4.0000000E+04;  0.0000000E+00;  0.0000000E+00;  4.0000000E+04;  0.0000000E+00;  4.0000000E+04;  0.0000000E+00;  0.0000000E+00;  0.0000000E+00;  0.0000000E+00;
 -1.2000000E-01;  9.9999998E-03;  2.3999999E-01;795;  0.0000000E+00;  0.0000000E+00;  0.0000000E+00;  1.0000052E+03;  1.0000000E-01;  4.3455563E+00;0;  0.0000000E+00;  0.0000000E+00;  0.0000000E+00;0; -1.4222320E-03;  4.0000000E+04;  0.0000000E+00;  0.0000000E+00;  4.0000000E+04;  0.0000000E+00;  4.0000000E+04; -1.4132753E-03;  0.0000000E+00; -8.9567839E-06;  9.1872871E+01;
 -1.2000000E-01;  9.9999998E-03;  2.5000000E-01;796;  0.0000000E+00;  0.0000000E+00;  0.0000000E+00;  1.0000051E+03;  1.0000000E-01;  4.2467933E+00;0;  0.0000000E+00;  0.0000000E+00;  0.0000000E+00;0; -1.3176850E-03;  4.0000000E+04;  0.0000000E+00;  0.0000000E+00;  4.0000000E+04;  0.0000000E+00;  4.0000000E+04; -1.2752117E-03;  0.0000000E+00; -4.2473261E-05;  5.7810184E+01;
 -1.2000000E-01;  9.9999998E-03;  2.5999999E-01;797;  0.0000000E+00;  0.0000000E+00;  0.0000000E+00;  1.0000050E+03;  1.0000000E-01;  4.1480308E+00;0;  0.0000000E+00;  0.0000000E+00;  0.0000000E+00;0; -1.2127359E-03;  4.0000000E+04;  0.0000000E+00;  0.0000000E+00;  4.0000000E+04;  0.0000000E+00;  4.0000000E+04; -1.1374404E-03;  0.0000000E+00; -7.5295393E-05;  2.0389666E+01;
 -1.2000000E-01;  9.9999998E-03;  2.7000001E-01;798;  0.0000000E+00;  0.0000000E+00;  0.0000000E+00;  1.0000049E+03;  1.0000000E-01;  4.0492682E+00;0;  0.0000000E+00;  0.0000000E+00;  0.0000000E+00;0; -1.1022907E-03;  4.0000000E+04;  0.0000000E+00;  0.0000000E+00;  4.0000000E+04;  0.0000000E+00;  4.0000000E+04; -9.9855452E-04;  0.0000000E+00; -1.0373616E-04;  1.7519707E+01;
 -1.2000000E-01;  9.9999998E-03;  2.8000000E-01;799;  0.0000000E+00;  0.0000000E+00;  0.0000000E+00;  1.0000047E+03;  1.0000000E-01;  3.8517430E+00;0;  0.0000000E+00;  0.0000000E+00;  0.0000000E+00;0; -9.8294637E-04;  4.0000000E+04;  0.0000000E+00;  0.0000000E+00;  4.0000000E+04;  0.0000000E+00;  4.0000000E+04; -8.5841370E-04;  0.0000000E+00; -1.2453264E-04;  5.0859322E+01;
 -1.2000000E-01;  9.9999998E-03;  2.8999999E-01;800;  0.0000000E+00;  0.0000000E+00;  0.0000000E+00;  1.0000043E+03;  1.0000000E-01;  3.5554550E+00;0;  0.0000000E+00;  0.0000000E+00;  0.0000000E+00;0; -8.5398991E-04;  4.0000000E+04;  0.0000000E+00;  0.0000000E+00;  4.0000000E+04;  0.0000000E+00;  4.0000000E+04; -7.1854319E-04;  0.0000000E+00; -1.3544671E-04;  7.6801979E+01;
 -1.2000000E-01;  9.9999998E-03;  3.0000001E-01;801;  0.0000000E+00;  0.0000000E+00;  0.0000000E+00;  1.0000036E+03;  1.0000000E-01;  2.9628792E+00;0;  0.0000000E+00;  0.0000000E+00;  0.0000000E+00;0; -7.1775564E-04;  4.0000000E+04;  0.0000000E+00;  0.0000000E+00;  4.0000000E+04;  0.0000000E+00;  4.0000000E+04; -5.8205426E-04;  0.0000000E+00; -1.3570137E-04;  9.2776131E+01;
 -1.2000000E-01;  9.9999998E-03;  3.1000000E-01;802;  0.0000000E+00;  0.0000000E+00;  0.0000000E+00;  1.0000020E+03;  1.0000000E-01;  1.5802022E+00;0;  0.0000000E+00;  0.0000000E+00;  0.0000000E+00;0; -5.7939801E-04;  4.0000000E+04;  0.0000000E+00;  0.0000000E+00;  4.0000000E+04;  0.0000000E+00;  4.0000000E+04; -4.5318439E-04;  0.0000000E+00; -1.2621359E-04;  9.7965530E+01;
 -1.2000000E-01;  9.9999998E-03;  3.1999999E-01;803;  0.0000000E+00;  0.0000000E+00;  0.0000000E+00;  1.0000000E+03;  1.0000000E-01;  0.0000000E+00;0;  0.0000000E+00;  0.0000000E+00;  0.0000000E+00;0; -4.4587479E-04;  4.0000000E+04;  0.0000000E+00;  0.0000000E+00;  4.0000000E+04;  0.0000000E+00;  4.0000000E+04; -3.3653894E-04;  0.0000000E+00; -1.0933584E-04;  9.3346619E+01;
 -1.2000000E-01;  9.9999998E-03;  3.3000001E-01;804;  0.0000000E+00;  0.0000000E+00;  0.0000000E+00;  1.0000000E+03;  1.0000000E-01;  0.0000000E+00;0;  0.0000000E+00;  0.0000000E+00;  0.0000000E+00;0; -3.2434988E-04;  4.0000000E+04;  0.0000000E+00;  0.0000000E+00;  4.0000000E+04;  0.0000000E+00;  4.0000000E+04; -2.3617751E-04;  0.0000000E+00; -8.8172375E-05;  8.1257996E+01;
 -1.2000000E-01;  9.9999998E-03;  3.4000000E-01;805;  0.0000000E+00;  0.0000000E+00;  0.0000000E+00;  1.0000000E+03;  1.0000000E-01;  0.0000000E+00;0;  0.0000000E+00;  0.0000000E+00;  0.0000000E+00;0; -2.2065322E-04;  4.0000000E+04;  0.0000000E+00;  0.0000000E+00;  4.0000000E+04;  0.0000000E+00;  4.0000000E+04; -1.5479478E-04;  0.0000000E+00; -6.5858447E-05;  6.4727325E+01;
 -1.2000000E-01;  9.9999998E-03;  3.4999999E-01;806;  0.0000000E+00;  0.0000000E+00;  0.0000000E+00;  1.0000000E+03;  1.0000000E-01;  0.0000000E+00;0;  0.0000000E+00;  0.0000000E+00;  0.0000000E+00;0; -1.3825671E-04;  4.0000000E+04;  0.0000000E+00;  0.0000000E+00;  4.0000000E+04;  0.0000000E+00;  4.0000000E+04; -9.3215123E-05;  0.0000000E+00; -4.5041586E-05;  4.6831749E+01;
 -1.2000000E-01;  9.9999998E-03;  3.6000001E-01;807;  0.0000000E+00;  0.0000000E+00;  0.0000000E+00;  1.0000000E+03;  1.0000000E-01;  0.0000000E+00;0;  0.0000000E+00;  0.0000000E+00;  0.0000000E+00;0; -7.7922676E-05;  4.0000000E+04;  0.0000000E+00;  0.0000000E+00;  4.0000000E+04;  0.0000000E+00;  4.0000000E+04; -5.0316790E-05;  0.0000000E+00; -2.7605885E-05;  3.0213753E+01;
 -1.2000000E-01;  9.9999998E-03;  3.7000000E-01;808;  0.0000000E+00;  0.0000000E+00;  0.0000000E+00;  1.0000000E+03;  1.0000000E-01;  0.0000000E+00;0;  0.0000000E+00;  0.0000000E+00;  0.0000000E+00;0; -3.7973055E-05;  4.0000000E+04;  0.0000000E+00;  0.0000000E+00;  4.0000000E+04;  0.0000000E+00;  4.0000000E+04; -2.3387924E-05;  0.0000000E+00; -1.4585130E-05;  1.6766706E+01;
 -1.2000000E-01;  9.9999998E-03;  3.8000000E-01;809;  0.0000000E+00;  0.0000000E+00;  0.0000000E+00;  1.0000000E+03;  1.0000000E-01;  0.0000000E+00;0;  0.0000000E+00;  0.0000000E+00;  0.0000000E+00;0; -1.4882218E-05;  4.0000000E+04;  0.0000000E+00;  0.0000000E+00;  4.0000000E+04;  0.0000000E+00;  4.0000000E+04; -8.7085891E-06;  0.0000000E+00; -6.1736287E-06;  7.4619989E+00;
 -1.2000000E-01;  9.9999998E-03;  3.8999999E-01;810;  0.0000000E+00;  0.0000000E+00;  0.0000000E+00;  1.0000000E+03;  1.0000000E-01;  0.0000000E+00;0;  0.0000000E+00;  0.0000000E+00;  0.0000000E+00;0; -3.9971710E-06;  4.0000000E+04;  0.0000000E+00;  0.0000000E+00;  4.0000000E+04;  0.0000000E+00;  4.0000000E+04; -2.2130687E-06;  0.0000000E+00; -1.7841021E-06;  2.2829916E+00;
 -1.2000000E-01;  9.9999998E-03;  4.0000001E-01;811;  0.0000000E+00;  0.0000000E+00;  0.0000000E+00;  1.0000000E+03;  1.0000000E-01;  0.0000000E+00;0;  0.0000000E+00;  0.0000000E+00;  0.0000000E+00;0; -4.6050013E-07;  4.0000000E+04;  0.0000000E+00;  0.0000000E+00;  4.0000000E+04;  0.0000000E+00;  4.0000000E+04; -2.3965174E-07;  0.0000000E+00; -2.2084839E-07;  3.0821902E-01;
 -1.1000000E-01;  9.9999998E-03;  2.3999999E-01;886;  0.0000000E+00;  0.0000000E+00;  0.0000000E+00;  1.0000130E+03;  1.0000000E-01;  1.0765127E+01;0;  0.0000000E+00;  0.0000000E+00;  0.0000000E+00;0; -2.9714035E-03;  4.0000000E+04;  0.0000000E+00;  0.0000000E+00;  4.0000000E+04;  0.0000000E+00;  4.0000000E+04; -2.9379597E-03;  0.0000000E+00; -3.3443881E-05;  1.8005904E+02;
 -1.1000000E-01;  9.9999998E-03;  2.5000000E-01;887;  0.0000000E+00;  0.0000000E+00;  0.0000000E+00;  1.0000117E+03;  1.0000000E-01;  9.6787386E+00;0;  0.0000000E+00;  0.0000000E+00;  0.0000000E+00;0; -2.7446377E-03;  4.0000000E+04;  0.0000000E+00;  0.0000000E+00;  4.0000000E+04;  0.0000000E+00;  4.0000000E+04; -2.6383088E-03;  0.0000000E+00; -1.0632882E-04;  1.1147641E+02;
 -1.1000000E-01;  9.9999998E-03;  2.5999999E-01;888;  0.0000000E+00;  0.0000000E+00;  0.0000000E+00;  1.0000106E+03;  1.0000000E-01;  8.7898750E+00;0;  0.0000000E+00;  0.0000000E+00;  0.0000000E+00;0; -2.5176655E-03;  4.0000000E+04;  0.0000000E+00;  0.0000000E+00;  4.0000000E+04;  0.0000000E+00;  4.0000000E+04; -2.3410621E-03;  0.0000000E+00; -1.7660337E-04;  3.7241192E+01;
 -1.1000000E-01;  9.9999998E-03;  2.7000001E-01;889;  0.0000000E+00;  0.0000000E+00;  0.0000000E+00;  1.0000102E+03;  1.0000000E-01;  8.4935865E+00;0;  0.0000000E+00;  0.0000000E+00;  0.0000000E+00;0; -2.2826744E-03;  4.0000000E+04;  0.0000000E+00;  0.0000000E+00;  4.0000000E+04;  0.0000000E+00;  4.0000000E+04; -2.0456957E-03;  0.0000000E+00; -2.3697887E-04;  4.0286697E+01;
 -1.1000000E-01;  9.9999998E-03;  2.8000000E-01;890;  0.0000000E+00;  0.0000000E+00;  0.0000000E+00;  1.0000096E+03;  1.0000000E-01;  7.9997740E+00;0;  0.0000000E+00;  0.0000000E+00;  0.0000000E+00;0; -2.0345673E-03;  4.0000000E+04;  0.0000000E+00;  0.0000000E+00;  4.0000000E+04;  0.0000000E+00;  4.0000000E+04; -1.7534057E-03;  0.0000000E+00; -2.8116154E-04;  1.0681840E+02;
 -1.1000000E-01;  9.9999998E-03;  2.8999999E-01;891;  0.0000000E+00;  0.0000000E+00;  0.0000000E+00;  1.0000085E+03;  1.0000000E-01;  7.0121474E+00;0;  0.0000000E+00;  0.0000000E+00;  0.0000000E+00;0; -1.7724601E-03;  4.0000000E+04;  0.0000000E+00;  0.0000000E+00;  4.0000000E+04;  0.0000000E+00;  4.0000000E+04; -1.4675491E-03;  0.0000000E+00; -3.0491099E-04;  1.5989462E+02;
 -1.1000000E-01;  9.9999998E-03;  3.0000001E-01;892;  0.0000000E+00;  0.0000000E+00;  0.0000000E+00;  1.0000062E+03;  1.0000000E-01;  5.1356573E+00;0;  0.0000000E+00;  0.0000000E+00;  0.0000000E+00;0; -1.5002931E-03;  4.0000000E+04;  0.0000000E+00;  0.0000000E+00;  4.0000000E+04;  0.0000000E+00;  4.0000000E+04; -1.1935049E-03;  0.0000000E+00; -3.0678819E-04;  1.9430869E+02;
 -1.1000000E-01;  9.9999998E-03;  3.1000000E-01;893;  0.0000000E+00;  0.0000000E+00;  0.0000000E+00;  1.0000060E+03;  1.0000000E-01;  4.9381318E+00;0;  0.0000000E+00;  0.0000000E+00;  0.0000000E+00;0; -1.2265895E-03;  4.0000000E+04;  0.0000000E+00;  0.0000000E+00;  4.0000000E+04;  0.0000000E+00;  4.0000000E+04; -9.3800563E-04;  0.0000000E+00; -2.8858398E-04;  2.0824234E+02;
 -1.1000000E-01;  9.9999998E-03;  3.1999999E-01;894;  0.0000000E+00;  0.0000000E+00;  0.0000000E+00;  1.0000054E+03;  1.0000000E-01;  4.4443188E+00;0;  0.0000000E+00;  0.0000000E+00;  0.0000000E+00;0; -9.6292247E-04;  4.0000000E+04;  0.0000000E+00;  0.0000000E+00;  4.0000000E+04;  0.0000000E+00;  4.0000000E+04; -7.0809526E-04;  0.0000000E+00; -2.5482717E-04;  2.0309813E+02;
 -1.1000000E-01;  9.9999998E-03;  3.3000001E-01;895;  0.0000000E+00;  0.0000000E+00;  0.0000000E+00;  1.0000041E+03;  1.0000000E-01;  3.3579297E+00;0;  0.0000000E+00;  0.0000000E+00;  0.0000000E+00;0; -7.2131475E-04;  4.0000000E+04;  0.0000000E+00;  0.0000000E+00;  4.0000000E+04;  0.0000000E+00;  4.0000000E+04; -5.0982845E-04;  0.0000000E+00; -2.1148629E-04;  1.8275597E+02;
 -1.1000000E-01;  9.9999998E-03;  3.4000000E-01;896;  0.0000000E+00;  0.0000000E+00;  0.0000000E+00;  1.0000000E+03;  1.0000000E-01;  0.0000000E+00;0;  0.0000000E+00;  0.0000000E+00;  0.0000000E+00;0; -5.1170489E-04;  4.0000000E+04;  0.0000000E+00;  0.0000000E+00;  4.0000000E+04;  0.0000000E+00;  4.0000000E+04; -3.4710034E-04;  0.0000000E+00; -1.6460454E-04;  1.5240605E+02;
 -1.1000000E-01;  9.9999998E-03;  3.4999999E-01;897;  0.0000000E+00;  0.0000000E+00;  0.0000000E+00;  1.0000000E+03;  1.0000000E-01;  0.0000000E+00;0;  0.0000000E+00;  0.0000000E+00;  0.0000000E+00;0; -3.4027424E-04;  4.0000000E+04;  0.0000000E+00;  0.0000000E+00;  4.0000000E+04;  0.0000000E+00;  4.0000000E+04; -2.2092571E-04;  0.0000000E+00; -1.1934855E-04;  1.1745998E+02;
 -1.1000000E-01;  9.9999998E-03;  3.6000001E-01;898;  0.0000000E+00;  0.0000000E+00;  0.0000000E+00;  1.0000000E+03;  1.0000000E-01;  0.0000000E+00;0;  0.0000000E+00;  0.0000000E+00;  0.0000000E+00;0; -2.0890833E-04;  4.0000000E+04;  0.0000000E+00;  0.0000000E+00;  4.0000000E+04;  0.0000000E+00;  4.0000000E+04; -1.2935587E-04;  0.0000000E+00; -7.9552454E-05;  8.2778061E+01;
 -1.1000000E-01;  9.9999998E-03;  3.7000000E-01;899;  0.0000000E+00;  0.0000000E+00;  0.0000000E+00;  1.0000000E+03;  1.0000000E-01;  0.0000000E+00;0;  0.0000000E+00;  0.0000000E+00;  0.0000000E+00;0; -1.1560446E-04;  4.0000000E+04;  0.0000000E+00;  0.0000000E+00;  4.0000000E+04;  0.0000000E+00;  4.0000000E+04; -6.7990703E-05;  0.0000000E+00; -4.7613754E-05;  5.2209255E+01;
 -1.1000000E-01;  9.9999998E-03;  3.8000000E-01;900;  0.0000000E+00;  0.0000000E+00;  0.0000000E+00;  1.0000000E+03;  1.0000000E-01;  0.0000000E+00;0;  0.0000000E+00;  0.0000000E+00;  0.0000000E+00;0; -5.5374680E-05;  4.0000000E+04;  0.0000000E+00;  0.0000000E+00;  4.0000000E+04;  0.0000000E+00;  4.0000000E+04; -3.0823387E-05;  0.0000000E+00; -2.4551295E-05;  2.8327280E+01;
 -1.1000000E-01;  9.9999998E-03;  3.8999999E-01;901;  0.0000000E+00;  0.0000000E+00;  0.0000000E+00;  1.0000000E+03;  1.0000000E-01;  0.0000000E+00;0;  0.0000000E+00;  0.0000000E+00;  0.0000000E+00;0; -2.1281945E-05;  4.0000000E+04;  0.0000000E+00;  0.0000000E+00;  4.0000000E+04;  0.0000000E+00;  4.0000000E+04; -1.1189832E-05;  0.0000000E+00; -1.0092113E-05;  1.2263600E+01;
 -1.1000000E-01;  9.9999998E-03;  4.0000001E-01;902;  0.0000000E+00;  0.0000000E+00;  0.0000000E+00;  1.0000000E+03;  1.0000000E-01;  0.0000000E+00;0;  0.0000000E+00;  0.0000000E+00;  0.0000000E+00;0; -5.5851356E-06;  4.0000000E+04;  0.0000000E+00;  0.0000000E+00;  4.0000000E+04;  0.0000000E+00;  4.0000000E+04; -2.7799417E-06;  0.0000000E+00; -2.8051938E-06;  3.6109023E+00;
 -1.0000000E-01;  9.9999998E-03;  2.3999999E-01;977;  0.0000000E+00;  0.0000000E+00;  0.0000000E+00;  1.0000251E+03;  1.0000000E-01;  2.0740154E+01;0;  0.0000000E+00;  0.0000000E+00;  0.0000000E+00;0; -5.5319644E-03;  4.0000000E+04;  0.0000000E+00;  0.0000000E+00;  4.0000000E+04;  0.0000000E+00;  4.0000000E+04; -5.4471022E-03;  0.0000000E+00; -8.4862055E-05;  3.1606851E+02;
 -1.0000000E-01;  9.9999998E-03;  2.5000000E-01;978;  0.0000000E+00;  0.0000000E+00;  0.0000000E+00;  1.0000236E+03;  1.0000000E-01;  1.9555002E+01;0;  0.0000000E+00;  0.0000000E+00;  0.0000000E+00;0; -5.1034442E-03;  4.0000000E+04;  0.0000000E+00;  0.0000000E+00;  4.0000000E+04;  0.0000000E+00;  4.0000000E+04; -4.8782234E-03;  0.0000000E+00; -2.2522072E-04;  1.9373172E+02;
 -1.0000000E-01;  9.9999998E-03;  2.5999999E-01;979;  0.0000000E+00;  0.0000000E+00;  0.0000000E+00;  1.0000212E+03;  1.0000000E-01;  1.7579750E+01;0;  0.0000000E+00;  0.0000000E+00;  0.0000000E+00;0; -4.6747662E-03;  4.0000000E+04;  0.0000000E+00;  0.0000000E+00;  4.0000000E+04;  0.0000000E+00;  4.0000000E+04; -4.3153623E-03;  0.0000000E+00; -3.5940399E-04;  6.3912270E+01;
 -1.0000000E-01;  9.9999998E-03;  2.7000001E-01;980;  0.0000000E+00;  0.0000000E+00;  0.0000000E+00;  1.0000201E+03;  1.0000000E-01;  1.6690886E+01;0;  0.0000000E+00;  0.0000000E+00;  0.0000000E+00;0; -4.2346641E-03;  4.0000000E+04;  0.0000000E+00;  0.0000000E+00;  4.0000000E+04;  0.0000000E+00;  4.0000000E+04; -3.7603367E-03;  0.0000000E+00; -4.7432727E-04;  8.0779953E+01;
 -1.0000000E-01;  9.9999998E-03;  2.8000000E-01;981;  0.0000000E+00;  0.0000000E+00;  0.0000000E+00;  1.0000179E+03;  1.0000000E-01;  1.4814396E+01;0;  0.0000000E+00;  0.0000000E+00;  0.0000000E+00;0; -3.7759314E-03;  4.0000000E+04;  0.0000000E+00;  0.0000000E+00;  4.0000000E+04;  0.0000000E+00;  4.0000000E+04; -3.2171202E-03;  0.0000000E+00; -5.5881136E-04;  1.9880267E+02;
 -1.0000000E-01;  9.9999998E-03;  2.8999999E-01;982;  0.0000000E+00;  0.0000000E+00;  0.0000000E+00;  1.0000162E+03;  1.0000000E-01;  1.3431719E+01;0;  0.0000000E+00;  0.0000000E+00;  0.0000000E+00;0; -3.2976558E-03;  4.0000000E+04;  0.0000000E+00;  0.0000000E+00;  4.0000000E+04;  0.0000000E+00;  4.0000000E+04; -2.6923043E-03;  0.0000000E+00; -6.0535164E-04;  2.9528894E+02;
 -1.0000000E-01;  9.9999998E-03;  3.0000001E-01;983;  0.0000000E+00;  0.0000000E+00;  0.0000000E+00;  1.0000142E+03;  1.0000000E-01;  1.1752754E+01;0;  0.0000000E+00;  0.0000000E+00;  0.0000000E+00;0; -2.8062235E-03;  4.0000000E+04;  0.0000000E+00;  0.0000000E+00;  4.0000000E+04;  0.0000000E+00;  4.0000000E+04; -2.1948530E-03;  0.0000000E+00; -6.1137037E-04;  3.6025723E+02;
 -1.0000000E-01;  9.9999998E-03;  3.1000000E-01;984;  0.0000000E+00;  0.0000000E+00;  0.0000000E+00;  1.0000118E+03;  1.0000000E-01;  9.7775011E+00;0;  0.0000000E+00;  0.0000000E+00;  0.0000000E+00;0; -2.3151338E-03;  4.0000000E+04;  0.0000000E+00;  0.0000000E+00;  4.0000000E+04;  0.0000000E+00;  4.0000000E+04; -1.7351428E-03;  0.0000000E+00; -5.7999091E-04;  3.9011746E+02;
 -1.0000000E-01;  9.9999998E-03;  3.1999999E-01;985;  0.0000000E+00;  0.0000000E+00;  0.0000000E+00;  1.0000101E+03;  1.0000000E-01;  8.2960615E+00;0;  0.0000000E+00;  0.0000000E+00;  0.0000000E+00;0; -1.8427296E-03;  4.0000000E+04;  0.0000000E+00;  0.0000000E+00;  4.0000000E+04;  0.0000000E+00;  4.0000000E+04; -1.3235270E-03;  0.0000000E+00; -5.1920267E-04;  3.8669119E+02;
 -1.0000000E-01;  9.9999998E-03;  3.3000001E-01;986;  0.0000000E+00;  0.0000000E+00;  0.0000000E+00;  1.0000068E+03;  1.0000000E-01;  5.6294703E+00;0;  0.0000000E+00;  0.0000000E+00;  0.0000000E+00;0; -1.4081618E-03;  4.0000000E+04;  0.0000000E+00;  0.0000000E+00;  4.0000000E+04;  0.0000000E+00;  4.0000000E+04; -9.6859009E-04;  0.0000000E+00; -4.3957171E-04;  3.5597427E+02;
 -1.0000000E-01;  9.9999998E-03;  3.4000000E-01;987;  0.0000000E+00;  0.0000000E+00;  0.0000000E+00;  1.0000060E+03;  1.0000000E-01;  5.0368948E+00;0;  0.0000000E+00;  0.0000000E+00;  0.0000000E+00;0; -1.0273502E-03;  4.0000000E+04;  0.0000000E+00;  0.0000000E+00;  4.0000000E+04;  0.0000000E+00;  4.0000000E+04; -6.7553052E-04;  0.0000000E+00; -3.5181968E-04;  3.0621463E+02;
 -1.0000000E-01;  9.9999998E-03;  3.4999999E-01;988;  0.0000000E+00;  0.0000000E+00;  0.0000000E+00;  1.0000043E+03;  1.0000000E-01;  3.5554550E+00;0;  0.0000000E+00;  0.0000000E+00;  0.0000000E+00;0; -7.1035023E-04;  4.0000000E+04;  0.0000000E+00;  0.0000000E+00;  4.0000000E+04;  0.0000000E+00;  4.0000000E+04; -4.4519553E-04;  0.0000000E+00; -2.6515467E-04;  2.4613387E+02;
 -1.0000000E-01;  9.9999998E-03;  3.6000001E-01;989;  0.0000000E+00;  0.0000000E+00;  0.0000000E+00;  1.0000000E+03;  1.0000000E-01;  0.0000000E+00;0;  0.0000000E+00;  0.0000000E+00;  0.0000000E+00;0; -4.6056957E-04;  4.0000000E+04;  0.0000000E+00;  0.0000000E+00;  4.0000000E+04;  0.0000000E+00;  4.0000000E+04; -2.7404400E-04;  0.0000000E+00; -1.8652559E-04;  1.8371066E+02;
 -1.0000000E-01;  9.9999998E-03;  3.7000000E-01;990;  0.0000000E+00;  0.0000000E+00;  0.0000000E+00;  1.0000000E+03;  1.0000000E-01;  0.0000000E+00;0;  0.0000000E+00;  0.0000000E+00;  0.0000000E+00;0; -2.7546947E-04;  4.0000000E+04;  0.0000000E+00;  0.0000000E+00;  4.0000000E+04;  0.0000000E+00;  4.0000000E+04; -1.5493872E-04;  0.0000000E+00; -1.2053076E-04;  1.2553758E+02;
 -1.0000000E-01;  9.9999998E-03;  3.8000000E-01;991;  0.0000000E+00;  0.0000000E+00;  0.0000000E+00;  1.0000000E+03;  1.0000000E-01;  0.0000000E+00;0;  0.0000000E+00;  0.0000000E+00;  0.0000000E+00;0; -1.4800887E-04;  4.0000000E+04;  0.0000000E+00;  0.0000000E+00;  4.0000000E+04;  0.0000000E+00;  4.0000000E+04; -7.8398756E-05;  0.0000000E+00; -6.9610112E-05;  7.6528740E+01;
 -1.0000000E-01;  9.9999998E-03;  3.8999999E-01;992;  0.0000000E+00;  0.0000000E+00;  0.0000000E+00;  1.0000000E+03;  1.0000000E-01;  0.0000000E+00;0;  0.0000000E+00;  0.0000000E+00;  0.0000000E+00;0; -6.8229630E-05;  4.0000000E+04;  0.0000000E+00;  0.0000000E+00;  4.0000000E+04;  0.0000000E+00;  4.0000000E+04; -3.3977252E-05;  0.0000000E+00; -3.4252378E-05;  3.9733257E+01;
 -1.0000000E-01;  9.9999998E-03;  4.0000001E-01;993;  0.0000000E+00;  0.0000000E+00;  0.0000000E+00;  1.0000000E+03;  1.0000000E-01;  0.0000000E+00;0;  0.0000000E+00;  0.0000000E+00;  0.0000000E+00;0; -2.4773512E-05;  4.0000000E+04;  0.0000000E+00;  0.0000000E+00;  4.0000000E+04;  0.0000000E+00;  4.0000000E+04; -1.1632384E-05;  0.0000000E+00; -1.3141127E-05;  1.6109558E+01;
 -9.0000004E-02;  9.9999998E-03;  2.3999999E-01;1068;  0.0000000E+00;  0.0000000E+00;  0.0000000E+00;  1.0000455E+03;  1.0000000E-01;  3.7727329E+01;0;  0.0000000E+00;  0.0000000E+00;  0.0000000E+00;0; -9.4719483E-03;  4.0000000E+04;  0.0000000E+00;  0.0000000E+00;  4.0000000E+04;  0.0000000E+00;  4.0000000E+04; -9.2950463E-03;  0.0000000E+00; -1.7690162E-04;  5.1192950E+02;
 -9.0000004E-02;  9.9999998E-03;  2.5000000E-01;1069;  0.0000000E+00;  0.0000000E+00;  0.0000000E+00;  1.0000421E+03;  1.0000000E-01;  3.4863213E+01;0;  0.0000000E+00;  0.0000000E+00;  0.0000000E+00;0; -8.7360870E-03;  4.0000000E+04;  0.0000000E+00;  0.0000000E+00;  4.0000000E+04;  0.0000000E+00;  4.0000000E+04; -8.3120801E-03;  0.0000000E+00; -4.2400701E-04;  3.1261526E+02;
 -9.0000004E-02;  9.9999998E-03;  2.5999999E-01;1070;  0.0000000E+00;  0.0000000E+00;  0.0000000E+00;  1.0000388E+03;  1.0000000E-01;  3.2097858E+01;0;  0.0000000E+00;  0.0000000E+00;  0.0000000E+00;0; -7.9994779E-03;  4.0000000E+04;  0.0000000E+00;  0.0000000E+00;  4.0000000E+04;  0.0000000E+00;  4.0000000E+04; -7.3402533E-03;  0.0000000E+00; -6.5922411E-04;  1.0696495E+02;
 -9.0000004E-02;  9.9999998E-03;  2.7000001E-01;1071;  0.0000000E+00;  0.0000000E+00;  0.0000000E+00;  1.0000359E+03;  1.0000000E-01;  2.9727554E+01;0;  0.0000000E+00;  0.0000000E+00;  0.0000000E+00;0; -7.2464147E-03;  4.0000000E+04;  0.0000000E+00;  0.0000000E+00;  4.0000000E+04;  0.0000000E+00;  4.0000000E+04; -6.3857329E-03;  0.0000000E+00; -8.6068176E-04;  1.4694487E+02;
 -9.0000004E-02;  9.9999998E-03;  2.8000000E-01;1072;  0.0000000E+00;  0.0000000E+00;  0.0000000E+00;  1.0000326E+03;  1.0000000E-01;  2.6962200E+01;0;  0.0000000E+00;  0.0000000E+00;  0.0000000E+00;0; -6.4670555E-03;  4.0000000E+04;  0.0000000E+00;  0.0000000E+00;  4.0000000E+04;  0.0000000E+00;  4.0000000E+04; -5.4573203E-03;  0.0000000E+00; -1.0097353E-03;  3.3853949E+02;
 -9.0000004E-02;  9.9999998E-03;  2.8999999E-01;1073;  0.0000000E+00;  0.0000000E+00;  0.0000000E+00;  1.0000288E+03;  1.0000000E-01;  2.3900558E+01;0;  0.0000000E+00;  0.0000000E+00;  0.0000000E+00;0; -5.6607062E-03;  4.0000000E+04;  0.0000000E+00;  0.0000000E+00;  4.0000000E+04;  0.0000000E+00;  4.0000000E+04; -4.5669116E-03;  0.0000000E+00; -1.0937948E-03;  4.9911502E+02;
 -9.0000004E-02;  9.9999998E-03;  3.0000001E-01;1074;  0.0000000E+00;  0.0000000E+00;  0.0000000E+00;  1.0000252E+03;  1.0000000E-01;  2.0838917E+01;0;  0.0000000E+00;  0.0000000E+00;  0.0000000E+00;0; -4.8373593E-03;  4.0000000E+04;  0.0000000E+00;  0.0000000E+00;  4.0000000E+04;  0.0000000E+00;  4.0000000E+04; -3.7289816E-03;  0.0000000E+00; -1.1083778E-03;  6.1040924E+02;
 -9.0000004E-02;  9.9999998E-03;  3.1000000E-01;1075;  0.0000000E+00;  0.0000000E+00;  0.0000000E+00;  1.0000217E+03;  1.0000000E-01;  1.7974800E+01;0;  0.0000000E+00;  0.0000000E+00;  0.0000000E+00;0; -4.0177424E-03;  4.0000000E+04;  0.0000000E+00;  0.0000000E+00;  4.0000000E+04;  0.0000000E+00;  4.0000000E+04; -2.9592609E-03;  0.0000000E+00; -1.0584812E-03;  6.6587372E+02;
 -9.0000004E-02;  9.9999998E-03;  3.1999999E-01;1076;  0.0000000E+00;  0.0000000E+00;  0.0000000E+00;  1.0000178E+03;  1.0000000E-01;  1.4814396E+01;0;  0.0000000E+00;  0.0000000E+00;  0.0000000E+00;0; -3.2300025E-03;  4.0000000E+04;  0.0000000E+00;  0.0000000E+00;  4.0000000E+04;  0.0000000E+00;  4.0000000E+04; -2.2727340E-03;  0.0000000E+00; -9.5726846E-04;  6.6766693E+02;
 -9.0000004E-02;  9.9999998E-03;  3.3000001E-01;1077;  0.0000000E+00;  0.0000000E+00;  0.0000000E+00;  1.0000134E+03;  1.0000000E-01;  1.1061416E+01;0;  0.0000000E+00;  0.0000000E+00;  0.0000000E+00;0; -2.5035418E-03;  4.0000000E+04;  0.0000000E+00;  0.0000000E+00;  4.0000000E+04;  0.0000000E+00;  4.0000000E+04; -1.6812664E-03;  0.0000000E+00; -8.2227535E-04;  6.2459772E+02;
 -9.0000004E-02;  9.9999998E-03;  3.4000000E-01;1078;  0.0000000E+00;  0.0000000E+00;  0.0000000E+00;  1.0000111E+03;  1.0000000E-01;  9.1849251E+00;0;  0.0000000E+00;  0.0000000E+00;  0.0000000E+00;0; -1.8628339E-03;  4.0000000E+04;  0.0000000E+00;  0.0000000E+00;  4.0000000E+04;  0.0000000E+00;  4.0000000E+04; -1.1914733E-03;  0.0000000E+00; -6.7136053E-04;  5.4910345E+02;
 -9.0000004E-02;  9.9999998E-03;  3.4999999E-01;1079;  0.0000000E+00;  0.0000000E+00;  0.0000000E+00;  1.0000073E+03;  1.0000000E-01;  6.0245209E+00;0;  0.0000000E+00;  0.0000000E+00;  0.0000000E+00;0; -1.3233876E-03;  4.0000000E+04;  0.0000000E+00;  0.0000000E+00;  4.0000000E+04;  0.0000000E+00;  4.0000000E+04; -8.0349867E-04;  0.0000000E+00; -5.1988894E-04;  4.5444376E+02;
 -9.0000004E-02;  9.9999998E-03;  3.6000001E-01;1080;  0.0000000E+00;  0.0000000E+00;  0.0000000E+00;  1.0000059E+03;  1.0000000E-01;  4.9381318E+00;0;  0.0000000E+00;  0.0000000E+00;  0.0000000E+00;0; -8.9060020E-04;  4.0000000E+04;  0.0000000E+00;  0.0000000E+00;  4.0000000E+04;  0.0000000E+00;  4.0000000E+04; -5.1108393E-04;  0.0000000E+00; -3.7951628E-04;  3.5281403E+02;
 -9.0000004E-02;  9.9999998E-03;  3.7000000E-01;1081;  0.0000000E+00;  0.0000000E+00;  0.0000000E+00;  1.0000021E+03;  1.0000000E-01;  1.6789649E+00;0;  0.0000000E+00;  0.0000000E+00;  0.0000000E+00;0; -5.6097523E-04;  4.0000000E+04;  0.0000000E+00;  0.0000000E+00;  4.0000000E+04;  0.0000000E+00;  4.0000000E+04; -3.0283449E-04;  0.0000000E+00; -2.5814073E-04;  2.5444846E+02;
 -9.0000004E-02;  9.9999998E-03;  3.8000000E-01;1082;  0.0000000E+00;  0.0000000E+00;  0.0000000E+00;  1.0000000E+03;  1.0000000E-01;  0.0000000E+00;0;  0.0000000E+00;  0.0000000E+00;  0.0000000E+00;0; -3.2445427E-04;  4.0000000E+04;  0.0000000E+00;  0.0000000E+00;  4.0000000E+04;  0.0000000E+00;  4.0000000E+04; -1.6408949E-04;  0.0000000E+00; -1.6036478E-04;  1.6733813E+02;
 -9.0000004E-02;  9.9999998E-03;  3.8999999E-01;1083;  0.0000000E+00;  0.0000000E+00;  0.0000000E+00;  1.0000000E+03;  1.0000000E-01;  0.0000000E+00;0;  0.0000000E+00;  0.0000000E+00;  0.0000000E+00;0; -1.6690229E-04;  4.0000000E+04;  0.0000000E+00;  0.0000000E+00;  4.0000000E+04;  0.0000000E+00;  4.0000000E+04; -7.8926496E-05;  0.0000000E+00; -8.7975794E-05;  9.7156731E+01;
 -9.0000004E-02;  9.9999998E-03;  4.0000001E-01;1084;  0.0000000E+00;  0.0000000E+00;  0.0000000E+00;  1.0000000E+03;  1.0000000E-01;  0.0000000E+00;0;  0.0000000E+00;  0.0000000E+00;  0.0000000E+00;0; -7.2249502E-05;  4.0000000E+04;  0.0000000E+00;  0.0000000E+00;  4.0000000E+04;  0.0000000E+00;  4.0000000E+04; -3.2036714E-05;  0.0000000E+00; -4.0212788E-05;  4.7048649E+01;
 -7.9999998E-02;  9.9999998E-03;  2.3999999E-01;1159;  0.0000000E+00;  0.0000000E+00;  0.0000000E+00;  1.0000764E+03;  1.0000000E-01;  6.3306850E+01;0;  0.0000000E+00;  0.0000000E+00;  0.0000000E+00;0; -1.5205065E-02;  4.0000000E+04;  0.0000000E+00;  0.0000000E+00;  4.0000000E+04;  0.0000000E+00;  4.0000000E+04; -1.4880802E-02;  0.0000000E+00; -3.2426353E-04;  7.7934344E+02;
 -7.9999998E-02;  9.9999998E-03;  2.5000000E-01;1160;  0.0000000E+00;  0.0000000E+00;  0.0000000E+00;  1.0000709E+03;  1.0000000E-01;  5.8665009E+01;0;  0.0000000E+00;  0.0000000E+00;  0.0000000E+00;0; -1.4028481E-02;  4.0000000E+04;  0.0000000E+00;  0.0000000E+00;  4.0000000E+04;  0.0000000E+00;  4.0000000E+04; -1.3298525E-02;  0.0000000E+00; -7.2995678E-04;  4.7686749E+02;
 -7.9999998E-02;  9.9999998E-03;  2.5999999E-01;1161;  0.0000000E+00;  0.0000000E+00;  0.0000000E+00;  1.0000656E+03;  1.0000000E-01;  5.4319450E+01;0;  0.0000000E+00;  0.0000000E+00;  0.0000000E+00;0; -1.2849029E-02;  4.0000000E+04;  0.0000000E+00;  0.0000000E+00;  4.0000000E+04;  0.0000000E+00;  4.0000000E+04; -1.1733513E-02;  0.0000000E+00; -1.1155154E-03;  1.7524818E+02;
 -7.9999998E-02;  9.9999998E-03;  2.7000001E-01;1162;  0.0000000E+00;  0.0000000E+00;  0.0000000E+00;  1.0000603E+03;  1.0000000E-01;  4.9973896E+01;0;  0.0000000E+00;  0.0000000E+00;  0.0000000E+00;0; -1.1645359E-02;  4.0000000E+04;  0.0000000E+00;  0.0000000E+00;  4.0000000E+04;  0.0000000E+00;  4.0000000E+04; -1.0198988E-02;  0.0000000E+00; -1.4463712E-03;  2.4762219E+02;
 -7.9999998E-02;  9.9999998E-03;  2.8000000E-01;1163;  0.0000000E+00;  0.0000000E+00;  0.0000000E+00;  1.0000548E+03;  1.0000000E-01;  4.5430813E+01;0;  0.0000000E+00;  0.0000000E+00;  0.0000000E+00;0; -1.0404246E-02;  4.0000000E+04;  0.0000000E+00;  0.0000000E+00;  4.0000000E+04;  0.0000000E+00;  4.0000000E+04; -8.7112980E-03;  0.0000000E+00; -1.6929479E-03;  5.3814960E+02;
 -7.9999998E-02;  9.9999998E-03;  2.8999999E-01;1164;  0.0000000E+00;  0.0000000E+00;  0.0000000E+00;  1.0000489E+03;  1.0000000E-01;  4.0492683E+01;0;  0.0000000E+00;  0.0000000E+00;  0.0000000E+00;0; -9.1255140E-03;  4.0000000E+04;  0.0000000E+00;  0.0000000E+00;  4.0000000E+04;  0.0000000E+00;  4.0000000E+04; -7.2904630E-03;  0.0000000E+00; -1.8350508E-03;  7.8771112E+02;
 -7.9999998E-02;  9.9999998E-03;  3.0000001E-01;1165;  0.0000000E+00;  0.0000000E+00;  0.0000000E+00;  1.0000424E+03;  1.0000000E-01;  3.5159500E+01;0;  0.0000000E+00;  0.0000000E+00;  0.0000000E+00;0; -7.8243660E-03;  4.0000000E+04;  0.0000000E+00;  0.0000000E+00;  4.0000000E+04;  0.0000000E+00;  4.0000000E+04; -5.9592337E-03;  0.0000000E+00; -1.8651325E-03;  9.6463696E+02;
 -7.9999998E-02;  9.9999998E-03;  3.1000000E-01;1166;  0.0000000E+00;  0.0000000E+00;  0.0000000E+00;  1.0000364E+03;  1.0000000E-01;  3.0122604E+01;0;  0.0000000E+00;  0.0000000E+00;  0.0000000E+00;0; -6.5318393E-03;  4.0000000E+04;  0.0000000E+00;  0.0000000E+00;  4.0000000E+04;  0.0000000E+00;  4.0000000E+04; -4.7411863E-03;  0.0000000E+00; -1.7906531E-03;  1.0577209E+03;
 -7.9999998E-02;  9.9999998E-03;  3.1999999E-01;1167;  0.0000000E+00;  0.0000000E+00;  0.0000000E+00;  1.0000303E+03;  1.0000000E-01;  2.5085711E+01;0;  0.0000000E+00;  0.0000000E+00;  0.0000000E+00;0; -5.2900477E-03;  4.0000000E+04;  0.0000000E+00;  0.0000000E+00;  4.0000000E+04;  0.0000000E+00;  4.0000000E+04; -3.6578916E-03;  0.0000000E+00; -1.6321562E-03;  1.0692843E+03;
 -7.9999998E-02;  9.9999998E-03;  3.3000001E-01;1168;  0.0000000E+00;  0.0000000E+00;  0.0000000E+00;  1.0000244E+03;  1.0000000E-01;  2.0246342E+01;0;  0.0000000E+00;  0.0000000E+00;  0.0000000E+00;0; -4.1429140E-03;  4.0000000E+04;  0.0000000E+00;  0.0000000E+00;  4.0000000E+04;  0.0000000E+00;  4.0000000E+04; -2.7256461E-03;  0.0000000E+00; -1.4172677E-03;  1.0118251E+03;
 -7.9999998E-02;  9.9999998E-03;  3.4000000E-01;1169;  0.0000000E+00;  0.0000000E+00;  0.0000000E+00;  1.0000189E+03;  1.0000000E-01;  1.5703259E+01;0;  0.0000000E+00;  0.0000000E+00;  0.0000000E+00;0; -3.1268937E-03;  4.0000000E+04;  0.0000000E+00;  0.0000000E+00;  4.0000000E+04;  0.0000000E+00;  4.0000000E+04; -1.9526643E-03;  0.0000000E+00; -1.1742292E-03;  9.0338513E+02;
 -7.9999998E-02;  9.9999998E-03;  3.4999999E-01;1170;  0.0000000E+00;  0.0000000E+00;  0.0000000E+00;  1.0000138E+03;  1.0000000E-01;  1.1456466E+01;0;  0.0000000E+00;  0.0000000E+00;  0.0000000E+00;0; -2.2649968E-03;  4.0000000E+04;  0.0000000E+00;  0.0000000E+00;  4.0000000E+04;  0.0000000E+00;  4.0000000E+04; -1.3376183E-03;  0.0000000E+00; -9.2737842E-04;  7.6329199E+02;
 -7.9999998E-02;  9.9999998E-03;  3.6000001E-01;1171;  0.0000000E+00;  0.0000000E+00;  0.0000000E+00;  1.0000081E+03;  1.0000000E-01;  6.7158594E+00;0;  0.0000000E+00;  0.0000000E+00;  0.0000000E+00;0; -1.5651821E-03;  4.0000000E+04;  0.0000000E+00;  0.0000000E+00;  4.0000000E+04;  0.0000000E+00;  4.0000000E+04; -8.6999702E-04;  0.0000000E+00; -6.9518510E-04;  6.0929559E+02;
 -7.9999998E-02;  9.9999998E-03;  3.7000000E-01;1172;  0.0000000E+00;  0.0000000E+00;  0.0000000E+00;  1.0000069E+03;  1.0000000E-01;  5.7282329E+00;0;  0.0000000E+00;  0.0000000E+00;  0.0000000E+00;0; -1.0223240E-03;  4.0000000E+04;  0.0000000E+00;  0.0000000E+00;  4.0000000E+04;  0.0000000E+00;  4.0000000E+04; -5.3207210E-04;  0.0000000E+00; -4.9025187E-04;  4.5630515E+02;
 -7.9999998E-02;  9.9999998E-03;  3.8000000E-01;1173;  0.0000000E+00;  0.0000000E+00;  0.0000000E+00;  1.0000037E+03;  1.0000000E-01;  3.0616417E+00;0;  0.0000000E+00;  0.0000000E+00;  0.0000000E+00;0; -6.2191917E-04;  4.0000000E+04;  0.0000000E+00;  0.0000000E+00;  4.0000000E+04;  0.0000000E+00;  4.0000000E+04; -3.0168748E-04;  0.0000000E+00; -3.2023166E-04;  3.1614938E+02;
 -7.9999998E-02;  9.9999998E-03;  3.8999999E-01;1174;  0.0000000E+00;  0.0000000E+00;  0.0000000E+00;  1.0000000E+03;  1.0000000E-01;  0.0000000E+00;0;  0.0000000E+00;  0.0000000E+00;  0.0000000E+00;0; -3.4397235E-04;  4.0000000E+04;  0.0000000E+00;  0.0000000E+00;  4.0000000E+04;  0.0000000E+00;  4.0000000E+04; -1.5516316E-04;  0.0000000E+00; -1.8880918E-04;  1.9775398E+02;
 -7.9999998E-02;  9.9999998E-03;  4.0000001E-01;1175;  0.0000000E+00;  0.0000000E+00;  0.0000000E+00;  1.0000000E+03;  1.0000000E-01;  0.0000000E+00;0;  0.0000000E+00;  0.0000000E+00;  0.0000000E+00;0; -1.6613280E-04;  4.0000000E+04;  0.0000000E+00;  0.0000000E+00;  4.0000000E+04;  0.0000000E+00;  4.0000000E+04; -6.9860660E-05;  0.0000000E+00; -9.6272139E-05;  1.0713341E+02;
 -7.0000000E-02;  9.9999998E-03;  2.3999999E-01;1250;  0.0000000E+00;  0.0000000E+00;  0.0000000E+00;  1.0001217E+03;  1.0000000E-01;  1.0083665E+02;0;  0.0000000E+00;  0.0000000E+00;  0.0000000E+00;0; -2.3154691E-02;  4.0000000E+04;  0.0000000E+00;  0.0000000E+00;  4.0000000E+04;  0.0000000E+00;  4.0000000E+04; -2.2614166E-02;  0.0000000E+00; -5.4052391E-04;  1.1278507E+03;
 -7.0000000E-02;  9.9999998E-03;  2.5000000E-01;1251;  0.0000000E+00;  0.0000000E+00;  0.0000000E+00;  1.0001129E+03;  1.0000000E-01;  9.3528221E+01;0;  0.0000000E+00;  0.0000000E+00;  0.0000000E+00;0; -2.1377765E-02;  4.0000000E+04;  0.0000000E+00;  0.0000000E+00;  4.0000000E+04;  0.0000000E+00;  4.0000000E+04; -2.0207904E-02;  0.0000000E+00; -1.1698612E-03;  6.9414862E+02;
 -7.0000000E-02;  9.9999998E-03;  2.5999999E-01;1252;  0.0000000E+00;  0.0000000E+00;  0.0000000E+00;  1.0001042E+03;  1.0000000E-01;  8.6318550E+01;0;  0.0000000E+00;  0.0000000E+00;  0.0000000E+00;0; -1.9593095E-02;  4.0000000E+04;  0.0000000E+00;  0.0000000E+00;  4.0000000E+04;  0.0000000E+00;  4.0000000E+04; -1.7824959E-02;  0.0000000E+00; -1.7681356E-03;  2.7583994E+02;
 -7.0000000E-02;  9.9999998E-03;  2.7000001E-01;1253;  0.0000000E+00;  0.0000000E+00;  0.0000000E+00;  1.0000959E+03;  1.0000000E-01;  7.9503922E+01;0;  0.0000000E+00;  0.0000000E+00;  0.0000000E+00;0; -1.7771997E-02;  4.0000000E+04;  0.0000000E+00;  0.0000000E+00;  4.0000000E+04;  0.0000000E+00;  4.0000000E+04; -1.5488854E-02;  0.0000000E+00; -2.2831436E-03;  3.9024551E+02;
 -7.0000000E-02;  9.9999998E-03;  2.8000000E-01;1254;  0.0000000E+00;  0.0000000E+00;  0.0000000E+00;  1.0000873E+03;  1.0000000E-01;  7.2294250E+01;0;  0.0000000E+00;  0.0000000E+00;  0.0000000E+00;0; -1.5896911E-02;  4.0000000E+04;  0.0000000E+00;  0.0000000E+00;  4.0000000E+04;  0.0000000E+00;  4.0000000E+04; -1.3227027E-02;  0.0000000E+00; -2.6698841E-03;  8.0862543E+02;
 -7.0000000E-02;  9.9999998E-03;  2.8999999E-01;1255;  0.0000000E+00;  0.0000000E+00;  0.0000000E+00;  1.0000781E+03;  1.0000000E-01;  6.4689529E+01;0;  0.0000000E+00;  0.0000000E+00;  0.0000000E+00;0; -1.3968423E-02;  4.0000000E+04;  0.0000000E+00;  0.0000000E+00;  4.0000000E+04;  0.0000000E+00;  4.0000000E+04; -1.1071254E-02;  0.0000000E+00; -2.8971694E-03;  1.1760950E+03;
 -7.0000000E-02;  9.9999998E-03;  3.0000001E-01;1256;  0.0000000E+00;  0.0000000E+00;  0.0000000E+00;  1.0000682E+03;  1.0000000E-01;  5.6492229E+01;0;  0.0000000E+00;  0.0000000E+00;  0.0000000E+00;0; -1.2009059E-02;  4.0000000E+04;  0.0000000E+00;  0.0000000E+00;  4.0000000E+04;  0.0000000E+00;  4.0000000E+04; -9.0563409E-03;  0.0000000E+00; -2.9527179E-03;  1.4412108E+03;
 -7.0000000E-02;  9.9999998E-03;  3.1000000E-01;1257;  0.0000000E+00;  0.0000000E+00;  0.0000000E+00;  1.0000583E+03;  1.0000000E-01;  4.8294930E+01;0;  0.0000000E+00;  0.0000000E+00;  0.0000000E+00;0; -1.0064277E-02;  4.0000000E+04;  0.0000000E+00;  0.0000000E+00;  4.0000000E+04;  0.0000000E+00;  4.0000000E+04; -7.2172056E-03;  0.0000000E+00; -2.8470710E-03;  1.5858762E+03;
 -7.0000000E-02;  9.9999998E-03;  3.1999999E-01;1258;  0.0000000E+00;  0.0000000E+00;  0.0000000E+00;  1.0000488E+03;  1.0000000E-01;  4.0393921E+01;0;  0.0000000E+00;  0.0000000E+00;  0.0000000E+00;0; -8.1957495E-03;  4.0000000E+04;  0.0000000E+00;  0.0000000E+00;  4.0000000E+04;  0.0000000E+00;  4.0000000E+04; -5.5848579E-03;  0.0000000E+00; -2.6108918E-03;  1.6123723E+03;
 -7.0000000E-02;  9.9999998E-03;  3.3000001E-01;1259;  0.0000000E+00;  0.0000000E+00;  0.0000000E+00;  1.0000392E+03;  1.0000000E-01;  3.2492908E+01;0;  0.0000000E+00;  0.0000000E+00;  0.0000000E+00;0; -6.4676190E-03;  4.0000000E+04;  0.0000000E+00;  0.0000000E+00;  4.0000000E+04;  0.0000000E+00;  4.0000000E+04; -4.1817436E-03;  0.0000000E+00; -2.2858754E-03;  1.5380195E+03;
 -7.0000000E-02;  9.9999998E-03;  3.4000000E-01;1260;  0.0000000E+00;  0.0000000E+00;  0.0000000E+00;  1.0000307E+03;  1.0000000E-01;  2.5480761E+01;0;  0.0000000E+00;  0.0000000E+00;  0.0000000E+00;0; -4.9327975E-03;  4.0000000E+04;  0.0000000E+00;  0.0000000E+00;  4.0000000E+04;  0.0000000E+00;  4.0000000E+04; -3.0179981E-03;  0.0000000E+00; -1.9147992E-03;  1.3882770E+03;
 -7.0000000E-02;  9.9999998E-03;  3.4999999E-01;1261;  0.0000000E+00;  0.0000000E+00;  0.0000000E+00;  1.0000221E+03;  1.0000000E-01;  1.8271088E+01;0;  0.0000000E+00;  0.0000000E+00;  0.0000000E+00;0; -3.6243484E-03;  4.0000000E+04;  0.0000000E+00;  0.0000000E+00;  4.0000000E+04;  0.0000000E+00;  4.0000000E+04; -2.0898171E-03;  0.0000000E+00; -1.5345314E-03;  1.1903997E+03;
 -7.0000000E-02;  9.9999998E-03;  3.6000001E-01;1262;  0.0000000E+00;  0.0000000E+00;  0.0000000E+00;  1.0000156E+03;  1.0000000E-01;  1.2937905E+01;0;  0.0000000E+00;  0.0000000E+00;  0.0000000E+00;0; -2.5533938E-03;  4.0000000E+04;  0.0000000E+00;  0.0000000E+00;  4.0000000E+04;  0.0000000E+00;  4.0000000E+04; -1.3803822E-03;  0.0000000E+00; -1.1730116E-03;  9.6928516E+02;
 -7.0000000E-02;  9.9999998E-03;  3.7000000E-01;1263;  0.0000000E+00;  0.0000000E+00;  0.0000000E+00;  1.0000115E+03;  1.0000000E-01;  9.4812136E+00;0;  0.0000000E+00;  0.0000000E+00;  0.0000000E+00;0; -1.7122063E-03;  4.0000000E+04;  0.0000000E+00;  0.0000000E+00;  4.0000000E+04;  0.0000000E+00;  4.0000000E+04; -8.6291885E-04;  0.0000000E+00; -8.4928737E-04;  7.4569000E+02;
 -7.0000000E-02;  9.9999998E-03;  3.8000000E-01;1264;  0.0000000E+00;  0.0000000E+00;  0.0000000E+00;  1.0000074E+03;  1.0000000E-01;  6.1232834E+00;0;  0.0000000E+00;  0.0000000E+00;  0.0000000E+00;0; -1.0798887E-03;  4.0000000E+04;  0.0000000E+00;  0.0000000E+00;  4.0000000E+04;  0.0000000E+00;  4.0000000E+04; -5.0479529E-04;  0.0000000E+00; -5.7509338E-04;  5.3607361E+02;
 -7.0000000E-02;  9.9999998E-03;  3.8999999E-01;1265;  0.0000000E+00;  0.0000000E+00;  0.0000000E+00;  1.0000039E+03;  1.0000000E-01;  3.2591672E+00;0;  0.0000000E+00;  0.0000000E+00;  0.0000000E+00;0; -6.2829687E-04;  4.0000000E+04;  0.0000000E+00;  0.0000000E+00;  4.0000000E+04;  0.0000000E+00;  4.0000000E+04; -2.7165419E-04;  0.0000000E+00; -3.5664267E-04;  3.5316446E+02;
 -7.0000000E-02;  9.9999998E-03;  4.0000001E-01;1266;  0.0000000E+00;  0.0000000E+00;  0.0000000E+00;  1.0000000E+03;  1.0000000E-01;  0.0000000E+00;0;  0.0000000E+00;  0.0000000E+00;  0.0000000E+00;0; -3.2668162E-04;  4.0000000E+04;  0.0000000E+00;  0.0000000E+00;  4.0000000E+04;  0.0000000E+00;  4.0000000E+04; -1.3090966E-04;  0.0000000E+00; -1.9577197E-04;  2.0637990E+02;
 -5.9999999E-02;  9.9999998E-03;  2.3999999E-01;1341;  0.0000000E+00;  0.0000000E+00;  0.0000000E+00;  1.0001848E+03;  1.0000000E-01;  1.5308209E+02;0;  0.0000000E+00;  0.0000000E+00;  0.0000000E+00;0; -3.3686884E-02;  4.0000000E+04;  0.0000000E+00;  0.0000000E+00;  4.0000000E+04;  0.0000000E+00;  4.0000000E+04; -3.2851554E-02;  0.0000000E+00; -8.3533063E-04;  1.5617159E+03;
 -5.9999999E-02;  9.9999998E-03;  2.5000000E-01;1342;  0.0000000E+00;  0.0000000E+00;  0.0000000E+00;  1.0001714E+03;  1.0000000E-01;  1.4202068E+02;0;  0.0000000E+00;  0.0000000E+00;  0.0000000E+00;0; -3.1131454E-02;  4.0000000E+04;  0.0000000E+00;  0.0000000E+00;  4.0000000E+04;  0.0000000E+00;  4.0000000E+04; -2.9365338E-02;  0.0000000E+00; -1.7661160E-03;  9.6738666E+02;
 -5.9999999E-02;  9.9999998E-03;  2.5999999E-01;1343;  0.0000000E+00;  0.0000000E+00;  0.0000000E+00;  1.0001588E+03;  1.0000000E-01;  1.3155183E+02;0;  0.0000000E+00;  0.0000000E+00;  0.0000000E+00;0; -2.8558960E-02;  4.0000000E+04;  0.0000000E+00;  0.0000000E+00;  4.0000000E+04;  0.0000000E+00;  4.0000000E+04; -2.5906494E-02;  0.0000000E+00; -2.6524656E-03;  4.0786139E+02;
 -5.9999999E-02;  9.9999998E-03;  2.7000001E-01;1344;  0.0000000E+00;  0.0000000E+00;  0.0000000E+00;  1.0001461E+03;  1.0000000E-01;  1.2098423E+02;0;  0.0000000E+00;  0.0000000E+00;  0.0000000E+00;0; -2.5931135E-02;  4.0000000E+04;  0.0000000E+00;  0.0000000E+00;  4.0000000E+04;  0.0000000E+00;  4.0000000E+04; -2.2512605E-02;  0.0000000E+00; -3.4185296E-03;  5.7679968E+02;
 -5.9999999E-02;  9.9999998E-03;  2.8000000E-01;1345;  0.0000000E+00;  0.0000000E+00;  0.0000000E+00;  1.0001329E+03;  1.0000000E-01;  1.1012035E+02;0;  0.0000000E+00;  0.0000000E+00;  0.0000000E+00;0; -2.3224534E-02;  4.0000000E+04;  0.0000000E+00;  0.0000000E+00;  4.0000000E+04;  0.0000000E+00;  4.0000000E+04; -1.9226314E-02;  0.0000000E+00; -3.9982204E-03;  1.1573003E+03;
 -5.9999999E-02;  9.9999998E-03;  2.8999999E-01;1346;  0.0000000E+00;  0.0000000E+00;  0.0000000E+00;  1.0001190E+03;  1.0000000E-01;  9.8565117E+01;0;  0.0000000E+00;  0.0000000E+00;  0.0000000E+00;0; -2.0440735E-02;  4.0000000E+04;  0.0000000E+00;  0.0000000E+00;  4.0000000E+04;  0.0000000E+00;  4.0000000E+04; -1.6095798E-02;  0.0000000E+00; -4.3449369E-03;  1.6757805E+03;
 -5.9999999E-02;  9.9999998E-03;  3.0000001E-01;1347;  0.0000000E+00;  0.0000000E+00;  0.0000000E+00;  1.0001046E+03;  1.0000000E-01;  8.6614838E+01;0;  0.0000000E+00;  0.0000000E+00;  0.0000000E+00;0; -1.7612055E-02;  4.0000000E+04;  0.0000000E+00;  0.0000000E+00;  4.0000000E+04;  0.0000000E+00;  4.0000000E+04; -1.3172724E-02;  0.0000000E+00; -4.4393307E-03;  2.0546091E+03;
 -5.9999999E-02;  9.9999998E-03;  3.1000000E-01;1348;  0.0000000E+00;  0.0000000E+00;  0.0000000E+00;  1.0000896E+03;  1.0000000E-01;  7.4269501E+01;0;  0.0000000E+00;  0.0000000E+00;  0.0000000E+00;0; -1.4803776E-02;  4.0000000E+04;  0.0000000E+00;  0.0000000E+00;  4.0000000E+04;  0.0000000E+00;  4.0000000E+04; -1.0508175E-02;  0.0000000E+00; -4.2956006E-03;  2.2662559E+03;
 -5.9999999E-02;  9.9999998E-03;  3.1999999E-01;1349;  0.0000000E+00;  0.0000000E+00;  0.0000000E+00;  1.0000743E+03;  1.0000000E-01;  6.1529125E+01;0;  0.0000000E+00;  0.0000000E+00;  0.0000000E+00;0; -1.2104446E-02;  4.0000000E+04;  0.0000000E+00;  0.0000000E+00;  4.0000000E+04;  0.0000000E+00;  4.0000000E+04; -8.1465235E-03;  0.0000000E+00; -3.9579226E-03;  2.3128357E+03;
 -5.9999999E-02;  9.9999998E-03;  3.3000001E-01;1350;  0.0000000E+00;  0.0000000E+00;  0.0000000E+00;  1.0000606E+03;  1.0000000E-01;  5.0171421E+01;0;  0.0000000E+00;  0.0000000E+00;  0.0000000E+00;0; -9.6058175E-03;  4.0000000E+04;  0.0000000E+00;  0.0000000E+00;  4.0000000E+04;  0.0000000E+00;  4.0000000E+04; -6.1188326E-03;  0.0000000E+00; -3.4869849E-03;  2.2180908E+03;
 -5.9999999E-02;  9.9999998E-03;  3.4000000E-01;1351;  0.0000000E+00;  0.0000000E+00;  0.0000000E+00;  1.0000477E+03;  1.0000000E-01;  3.9505054E+01;0;  0.0000000E+00;  0.0000000E+00;  0.0000000E+00;0; -7.3829726E-03;  4.0000000E+04;  0.0000000E+00;  0.0000000E+00;  4.0000000E+04;  0.0000000E+00;  4.0000000E+04; -4.4377297E-03;  0.0000000E+00; -2.9452429E-03;  2.0172128E+03;
 -5.9999999E-02;  9.9999998E-03;  3.4999999E-01;1352;  0.0000000E+00;  0.0000000E+00;  0.0000000E+00;  1.0000359E+03;  1.0000000E-01;  2.9826317E+01;0;  0.0000000E+00;  0.0000000E+00;  0.0000000E+00;0; -5.4820743E-03;  4.0000000E+04;  0.0000000E+00;  0.0000000E+00;  4.0000000E+04;  0.0000000E+00;  4.0000000E+04; -3.0956462E-03;  0.0000000E+00; -2.3864282E-03;  1.7476626E+03;
 -5.9999999E-02;  9.9999998E-03;  3.6000001E-01;1353;  0.0000000E+00;  0.0000000E+00;  0.0000000E+00;  1.0000267E+03;  1.0000000E-01;  2.2122831E+01;0;  0.0000000E+00;  0.0000000E+00;  0.0000000E+00;0; -3.9179306E-03;  4.0000000E+04;  0.0000000E+00;  0.0000000E+00;  4.0000000E+04;  0.0000000E+00;  4.0000000E+04; -2.0668276E-03;  0.0000000E+00; -1.8511033E-03;  1.4433175E+03;
 -5.9999999E-02;  9.9999998E-03;  3.7000000E-01;1354;  0.0000000E+00;  0.0000000E+00;  0.0000000E+00;  1.0000179E+03;  1.0000000E-01;  1.4913158E+01;0;  0.0000000E+00;  0.0000000E+00;  0.0000000E+00;0; -2.6788223E-03;  4.0000000E+04;  0.0000000E+00;  0.0000000E+00;  4.0000000E+04;  0.0000000E+00;  4.0000000E+04; -1.3120404E-03;  0.0000000E+00; -1.3667819E-03;  1.1320365E+03;
 -5.9999999E-02;  9.9999998E-03;  3.8000000E-01;1355;  0.0000000E+00;  0.0000000E+00;  0.0000000E+00;  1.0000125E+03;  1.0000000E-01;  1.0271315E+01;0;  0.0000000E+00;  0.0000000E+00;  0.0000000E+00;0; -1.7349601E-03;  4.0000000E+04;  0.0000000E+00;  0.0000000E+00;  4.0000000E+04;  0.0000000E+00;  4.0000000E+04; -7.8451866E-04;  0.0000000E+00; -9.5044146E-04;  8.3569995E+02;
 -5.9999999E-02;  9.9999998E-03;  3.8999999E-01;1356;  0.0000000E+00;  0.0000000E+00;  0.0000000E+00;  1.0000077E+03;  1.0000000E-01;  6.4195714E+00;0;  0.0000000E+00;  0.0000000E+00;  0.0000000E+00;0; -1.0471686E-03;  4.0000000E+04;  0.0000000E+00;  0.0000000E+00;  4.0000000E+04;  0.0000000E+00;  4.0000000E+04; -4.3570856E-04;  0.0000000E+00; -6.1146001E-04;  5.7131659E+02;
 -5.9999999E-02;  9.9999998E-03;  4.0000001E-01;1357;  0.0000000E+00;  0.0000000E+00;  0.0000000E+00;  1.0000028E+03;  1.0000000E-01;  2.3703034E+00;0;  0.0000000E+00;  0.0000000E+00;  0.0000000E+00;0; -5.7364412E-04;  4.0000000E+04;  0.0000000E+00;  0.0000000E+00;  4.0000000E+04;  0.0000000E+00;  4.0000000E+04; -2.1995536E-04;  0.0000000E+00; -3.5368878E-04;  3.5208398E+02;
 -5.0000001E-02;  9.9999998E-03;  2.3999999E-01;1432;  0.0000000E+00;  0.0000000E+00;  0.0000000E+00;  1.0002687E+03;  1.0000000E-01;  2.2261099E+02;0;  0.0000000E+00;  0.0000000E+00;  0.0000000E+00;0; -4.7015987E-02;  4.0000000E+04;  0.0000000E+00;  0.0000000E+00;  4.0000000E+04;  0.0000000E+00;  4.0000000E+04; -4.5804750E-02;  0.0000000E+00; -1.2112374E-03;  2.0762136E+03;
 -5.0000001E-02;  9.9999998E-03;  2.5000000E-01;1433;  0.0000000E+00;  0.0000000E+00;  0.0000000E+00;  1.0002498E+03;  1.0000000E-01;  2.0690773E+02;0;  0.0000000E+00;  0.0000000E+00;  0.0000000E+00;0; -4.3501094E-02;  4.0000000E+04;  0.0000000E+00;  0.0000000E+00;  4.0000000E+04;  0.0000000E+00;  4.0000000E+04; -4.0969022E-02;  0.0000000E+00; -2.5320742E-03;  1.2903776E+03;
 -5.0000001E-02;  9.9999998E-03;  2.5999999E-01;1434;  0.0000000E+00;  0.0000000E+00;  0.0000000E+00;  1.0002312E+03;  1.0000000E-01;  1.9150076E+02;0;  0.0000000E+00;  0.0000000E+00;  0.0000000E+00;0; -3.9953303E-02;  4.0000000E+04;  0.0000000E+00;  0.0000000E+00;  4.0000000E+04;  0.0000000E+00;  4.0000000E+04; -3.6159884E-02;  0.0000000E+00; -3.7934175E-03;  5.5613300E+02;
 -5.0000001E-02;  9.9999998E-03;  2.7000001E-01;1435;  0.0000000E+00;  0.0000000E+00;  0.0000000E+00;  1.0002130E+03;  1.0000000E-01;  1.7648883E+02;0;  0.0000000E+00;  0.0000000E+00;  0.0000000E+00;0; -3.6321841E-02;  4.0000000E+04;  0.0000000E+00;  0.0000000E+00;  4.0000000E+04;  0.0000000E+00;  4.0000000E+04; -3.1433105E-02;  0.0000000E+00; -4.8887362E-03;  7.9913885E+02;
 -5.0000001E-02;  9.9999998E-03;  2.8000000E-01;1436;  0.0000000E+00;  0.0000000E+00;  0.0000000E+00;  1.0001943E+03;  1.0000000E-01;  1.6098311E+02;0;  0.0000000E+00;  0.0000000E+00;  0.0000000E+00;0; -3.2575060E-02;  4.0000000E+04;  0.0000000E+00;  0.0000000E+00;  4.0000000E+04;  0.0000000E+00;  4.0000000E+04; -2.6851043E-02;  0.0000000E+00; -5.7240166E-03;  1.5847256E+03;
 -5.0000001E-02;  9.9999998E-03;  2.8999999E-01;1437;  0.0000000E+00;  0.0000000E+00;  0.0000000E+00;  1.0001743E+03;  1.0000000E-01;  1.4439098E+02;0;  0.0000000E+00;  0.0000000E+00;  0.0000000E+00;0; -2.8714951E-02;  4.0000000E+04;  0.0000000E+00;  0.0000000E+00;  4.0000000E+04;  0.0000000E+00;  4.0000000E+04; -2.2483403E-02;  0.0000000E+00; -6.2315487E-03;  2.2921228E+03;
 -5.0000001E-02;  9.9999998E-03;  3.0000001E-01;1438;  0.0000000E+00;  0.0000000E+00;  0.0000000E+00;  1.0001531E+03;  1.0000000E-01;  1.2690999E+02;0;  0.0000000E+00;  0.0000000E+00;  0.0000000E+00;0; -2.4786696E-02;  4.0000000E+04;  0.0000000E+00;  0.0000000E+00;  4.0000000E+04;  0.0000000E+00;  4.0000000E+04; -1.8404951E-02;  0.0000000E+00; -6.3817445E-03;  2.8129084E+03;
 -5.0000001E-02;  9.9999998E-03;  3.1000000E-01;1439;  0.0000000E+00;  0.0000000E+00;  0.0000000E+00;  1.0001317E+03;  1.0000000E-01;  1.0913271E+02;0;  0.0000000E+00;  0.0000000E+00;  0.0000000E+00;0; -2.0881945E-02;  4.0000000E+04;  0.0000000E+00;  0.0000000E+00;  4.0000000E+04;  0.0000000E+00;  4.0000000E+04; -1.4689007E-02;  0.0000000E+00; -6.1929384E-03;  3.1076995E+03;
 -5.0000001E-02;  9.9999998E-03;  3.1999999E-01;1440;  0.0000000E+00;  0.0000000E+00;  0.0000000E+00;  1.0001100E+03;  1.0000000E-01;  9.1157913E+01;0;  0.0000000E+00;  0.0000000E+00;  0.0000000E+00;0; -1.7125575E-02;  4.0000000E+04;  0.0000000E+00;  0.0000000E+00;  4.0000000E+04;  0.0000000E+00;  4.0000000E+04; -1.1398686E-02;  0.0000000E+00; -5.7268892E-03;  3.1787849E+03;
 -5.0000001E-02;  9.9999998E-03;  3.3000001E-01;1441;  0.0000000E+00;  0.0000000E+00;  0.0000000E+00;  1.0000897E+03;  1.0000000E-01;  7.4368271E+01;0;  0.0000000E+00;  0.0000000E+00;  0.0000000E+00;0; -1.3646248E-02;  4.0000000E+04;  0.0000000E+00;  0.0000000E+00;  4.0000000E+04;  0.0000000E+00;  4.0000000E+04; -8.5768970E-03;  0.0000000E+00; -5.0693508E-03;  3.0586047E+03;
 -5.0000001E-02;  9.9999998E-03;  3.4000000E-01;1442;  0.0000000E+00;  0.0000000E+00;  0.0000000E+00;  1.0000709E+03;  1.0000000E-01;  5.8665009E+01;0;  0.0000000E+00;  0.0000000E+00;  0.0000000E+00;0; -1.0548115E-02;  4.0000000E+04;  0.0000000E+00;  0.0000000E+00;  4.0000000E+04;  0.0000000E+00;  4.0000000E+04; -6.2395413E-03;  0.0000000E+00; -4.3085730E-03;  2.7950674E+03;
 -5.0000001E-02;  9.9999998E-03;  3.4999999E-01;1443;  0.0000000E+00;  0.0000000E+00;  0.0000000E+00;  1.0000535E+03;  1.0000000E-01;  4.4344425E+01;0;  0.0000000E+00;  0.0000000E+00;  0.0000000E+00;0; -7.8939926E-03;  4.0000000E+04;  0.0000000E+00;  0.0000000E+00;  4.0000000E+04;  0.0000000E+00;  4.0000000E+04; -4.3737818E-03;  0.0000000E+00; -3.5202107E-03;  2.4385854E+03;
 -5.0000001E-02;  9.9999998E-03;  3.6000001E-01;1444;  0.0000000E+00;  0.0000000E+00;  0.0000000E+00;  1.0000394E+03;  1.0000000E-01;  3.2690434E+01;0;  0.0000000E+00;  0.0000000E+00;  0.0000000E+00;0; -5.7026967E-03;  4.0000000E+04;  0.0000000E+00;  0.0000000E+00;  4.0000000E+04;  0.0000000E+00;  4.0000000E+04; -2.9417116E-03;  0.0000000E+00; -2.7609854E-03;  2.0339865E+03;
 -5.0000001E-02;  9.9999998E-03;  3.7000000E-01;1445;  0.0000000E+00;  0.0000000E+00;  0.0000000E+00;  1.0000288E+03;  1.0000000E-01;  2.3900558E+01;0;  0.0000000E+00;  0.0000000E+00;  0.0000000E+00;0; -3.9566415E-03;  4.0000000E+04;  0.0000000E+00;  0.0000000E+00;  4.0000000E+04;  0.0000000E+00;  4.0000000E+04; -1.8875765E-03;  0.0000000E+00; -2.0690649E-03;  1.6175203E+03;
 -5.0000001E-02;  9.9999998E-03;  3.8000000E-01;1446;  0.0000000E+00;  0.0000000E+00;  0.0000000E+00;  1.0000178E+03;  1.0000000E-01;  1.4814396E+01;0;  0.0000000E+00;  0.0000000E+00;  0.0000000E+00;0; -2.6140651E-03;  4.0000000E+04;  0.0000000E+00;  0.0000000E+00;  4.0000000E+04;  0.0000000E+00;  4.0000000E+04; -1.1462144E-03;  0.0000000E+00; -1.4678508E-03;  1.2171846E+03;
 -5.0000001E-02;  9.9999998E-03;  3.8999999E-01;1447;  0.0000000E+00;  0.0000000E+00;  0.0000000E+00;  1.0000115E+03;  1.0000000E-01;  9.4812136E+00;0;  0.0000000E+00;  0.0000000E+00;  0.0000000E+00;0; -1.6214056E-03;  4.0000000E+04;  0.0000000E+00;  0.0000000E+00;  4.0000000E+04;  0.0000000E+00;  4.0000000E+04; -6.5089605E-04;  0.0000000E+00; -9.7050949E-04;  8.5464453E+02;
 -5.0000001E-02;  9.9999998E-03;  4.0000001E-01;1448;  0.0000000E+00;  0.0000000E+00;  0.0000000E+00;  1.0000073E+03;  1.0000000E-01;  6.0245209E+00;0;  0.0000000E+00;  0.0000000E+00;  0.0000000E+00;0; -9.2274713E-04;  4.0000000E+04;  0.0000000E+00;  0.0000000E+00;  4.0000000E+04;  0.0000000E+00;  4.0000000E+04; -3.3943378E-04;  0.0000000E+00; -5.8331335E-04;  5.4711145E+02;
 -3.9999999E-02;  9.9999998E-03;  2.3999999E-01;1523;  0.0000000E+00;  0.0000000E+00;  0.0000000E+00;  1.0003758E+03;  1.0000000E-01;  3.1129984E+02;0;  0.0000000E+00;  0.0000000E+00;  0.0000000E+00;0; -6.3107230E-02;  4.0000000E+04;  0.0000000E+00;  0.0000000E+00;  4.0000000E+04;  0.0000000E+00;  4.0000000E+04; -6.1446536E-02;  0.0000000E+00; -1.6606936E-03;  2.6555957E+03;
 -3.9999999E-02;  9.9999998E-03;  2.5000000E-01;1524;  0.0000000E+00;  0.0000000E+00;  0.0000000E+00;  1.0003496E+03;  1.0000000E-01;  2.8967081E+02;0;  0.0000000E+00;  0.0000000E+00;  0.0000000E+00;0; -5.8471948E-02;  4.0000000E+04;  0.0000000E+00;  0.0000000E+00;  4.0000000E+04;  0.0000000E+00;  4.0000000E+04; -5.5004843E-02;  0.0000000E+00; -3.4671037E-03;  1.6461892E+03;
 -3.9999999E-02;  9.9999998E-03;  2.5999999E-01;1525;  0.0000000E+00;  0.0000000E+00;  0.0000000E+00;  1.0003246E+03;  1.0000000E-01;  2.6893066E+02;0;  0.0000000E+00;  0.0000000E+00;  0.0000000E+00;0; -5.3779237E-02;  4.0000000E+04;  0.0000000E+00;  0.0000000E+00;  4.0000000E+04;  0.0000000E+00;  4.0000000E+04; -4.8580587E-02;  0.0000000E+00; -5.1986501E-03;  6.8834839E+02;
 -3.9999999E-02;  9.9999998E-03;  2.7000001E-01;1526;  0.0000000E+00;  0.0000000E+00;  0.0000000E+00;  1.0002994E+03;  1.0000000E-01;  2.4809175E+02;0;  0.0000000E+00;  0.0000000E+00;  0.0000000E+00;0; -4.8962116E-02;  4.0000000E+04;  0.0000000E+00;  0.0000000E+00;  4.0000000E+04;  0.0000000E+00;  4.0000000E+04; -4.2251758E-02;  0.0000000E+00; -6.7103589E-03;  1.0370248E+03;
 -3.9999999E-02;  9.9999998E-03;  2.8000000E-01;1527;  0.0000000E+00;  0.0000000E+00;  0.0000000E+00;  1.0002736E+03;  1.0000000E-01;  2.2666026E+02;0;  0.0000000E+00;  0.0000000E+00;  0.0000000E+00;0; -4.3977402E-02;  4.0000000E+04;  0.0000000E+00;  0.0000000E+00;  4.0000000E+04;  0.0000000E+00;  4.0000000E+04; -3.6105093E-02;  0.0000000E+00; -7.8723077E-03;  2.0824238E+03;
 -3.9999999E-02;  9.9999998E-03;  2.8999999E-01;1528;  0.0000000E+00;  0.0000000E+00;  0.0000000E+00;  1.0002458E+03;  1.0000000E-01;  2.0364856E+02;0;  0.0000000E+00;  0.0000000E+00;  0.0000000E+00;0; -3.8826112E-02;  4.0000000E+04;  0.0000000E+00;  0.0000000E+00;  4.0000000E+04;  0.0000000E+00;  4.0000000E+04; -3.0237459E-02;  0.0000000E+00; -8.5886531E-03;  3.0217205E+03;
 -3.9999999E-02;  9.9999998E-03;  3.0000001E-01;1529;  0.0000000E+00;  0.0000000E+00;  0.0000000E+00;  1.0002166E+03;  1.0000000E-01;  1.7945172E+02;0;  0.0000000E+00;  0.0000000E+00;  0.0000000E+00;0; -3.3568483E-02;  4.0000000E+04;  0.0000000E+00;  0.0000000E+00;  4.0000000E+04;  0.0000000E+00;  4.0000000E+04; -2.4753366E-02;  0.0000000E+00; -8.8151172E-03;  3.7149053E+03;
 -3.9999999E-02;  9.9999998E-03;  3.1000000E-01;1530;  0.0000000E+00;  0.0000000E+00;  0.0000000E+00;  1.0001865E+03;  1.0000000E-01;  1.5446477E+02;0;  0.0000000E+00;  0.0000000E+00;  0.0000000E+00;0; -2.8330730E-02;  4.0000000E+04;  0.0000000E+00;  0.0000000E+00;  4.0000000E+04;  0.0000000E+00;  4.0000000E+04; -1.9756250E-02;  0.0000000E+00; -8.5744802E-03;  4.1089395E+03;
 -3.9999999E-02;  9.9999998E-03;  3.1999999E-01;1531;  0.0000000E+00;  0.0000000E+00;  0.0000000E+00;  1.0001564E+03;  1.0000000E-01;  1.2957658E+02;0;  0.0000000E+00;  0.0000000E+00;  0.0000000E+00;0; -2.3285583E-02;  4.0000000E+04;  0.0000000E+00;  0.0000000E+00;  4.0000000E+04;  0.0000000E+00;  4.0000000E+04; -1.5334610E-02;  0.0000000E+00; -7.9509728E-03;  4.2074233E+03;
 -3.9999999E-02;  9.9999998E-03;  3.3000001E-01;1532;  0.0000000E+00;  0.0000000E+00;  0.0000000E+00;  1.0001277E+03;  1.0000000E-01;  1.0577479E+02;0;  0.0000000E+00;  0.0000000E+00;  0.0000000E+00;0; -1.8610010E-02;  4.0000000E+04;  0.0000000E+00;  0.0000000E+00;  4.0000000E+04;  0.0000000E+00;  4.0000000E+04; -1.1547321E-02;  0.0000000E+00; -7.0626899E-03;  4.0548081E+03;
 -3.9999999E-02;  9.9999998E-03;  3.4000000E-01;1533;  0.0000000E+00;  0.0000000E+00;  0.0000000E+00;  1.0001015E+03;  1.0000000E-01;  8.4047005E+01;0;  0.0000000E+00;  0.0000000E+00;  0.0000000E+00;0; -1.4445176E-02;  4.0000000E+04;  0.0000000E+00;  0.0000000E+00;  4.0000000E+04;  0.0000000E+00;  4.0000000E+04; -8.4143868E-03;  0.0000000E+00; -6.0307900E-03;  3.7155757E+03;
 -3.9999999E-02;  9.9999998E-03;  3.4999999E-01;1534;  0.0000000E+00;  0.0000000E+00;  0.0000000E+00;  1.0000779E+03;  1.0000000E-01;  6.4492004E+01;0;  0.0000000E+00;  0.0000000E+00;  0.0000000E+00;0; -1.0874227E-02;  4.0000000E+04;  0.0000000E+00;  0.0000000E+00;  4.0000000E+04;  0.0000000E+00;  4.0000000E+04; -5.9158471E-03;  0.0000000E+00; -4.9583791E-03;  3.2561174E+03;
 -3.9999999E-02;  9.9999998E-03;  3.6000001E-01;1535;  0.0000000E+00;  0.0000000E+00;  0.0000000E+00;  1.0000582E+03;  1.0000000E-01;  4.8196167E+01;0;  0.0000000E+00;  0.0000000E+00;  0.0000000E+00;0; -7.9200473E-03;  4.0000000E+04;  0.0000000E+00;  0.0000000E+00;  4.0000000E+04;  0.0000000E+00;  4.0000000E+04; -3.9980249E-03;  0.0000000E+00; -3.9220229E-03;  2.7342280E+03;
 -3.9999999E-02;  9.9999998E-03;  3.7000000E-01;1536;  0.0000000E+00;  0.0000000E+00;  0.0000000E+00;  1.0000421E+03;  1.0000000E-01;  3.4863213E+01;0;  0.0000000E+00;  0.0000000E+00;  0.0000000E+00;0; -5.5568684E-03;  4.0000000E+04;  0.0000000E+00;  0.0000000E+00;  4.0000000E+04;  0.0000000E+00;  4.0000000E+04; -2.5841778E-03;  0.0000000E+00; -2.9726904E-03;  2.1956787E+03;
 -3.9999999E-02;  9.9999998E-03;  3.8000000E-01;1537;  0.0000000E+00;  0.0000000E+00;  0.0000000E+00;  1.0000287E+03;  1.0000000E-01;  2.3801796E+01;0;  0.0000000E+00;  0.0000000E+00;  0.0000000E+00;0; -3.7274980E-03;  4.0000000E+04;  0.0000000E+00;  0.0000000E+00;  4.0000000E+04;  0.0000000E+00;  4.0000000E+04; -1.5861696E-03;  0.0000000E+00; -2.1413283E-03;  1.6751252E+03;
 -3.9999999E-02;  9.9999998E-03;  3.8999999E-01;1538;  0.0000000E+00;  0.0000000E+00;  0.0000000E+00;  1.0000181E+03;  1.0000000E-01;  1.5011921E+01;0;  0.0000000E+00;  0.0000000E+00;  0.0000000E+00;0; -2.3603174E-03;  4.0000000E+04;  0.0000000E+00;  0.0000000E+00;  4.0000000E+04;  0.0000000E+00;  4.0000000E+04; -9.1490056E-04;  0.0000000E+00; -1.4454168E-03;  1.1991042E+03;
 -3.9999999E-02;  9.9999998E-03;  4.0000001E-01;1539;  0.0000000E+00;  0.0000000E+00;  0.0000000E+00;  1.0000098E+03;  1.0000000E-01;  8.0985365E+00;0;  0.0000000E+00;  0.0000000E+00;  0.0000000E+00;0; -1.3821186E-03;  4.0000000E+04;  0.0000000E+00;  0.0000000E+00;  4.0000000E+04;  0.0000000E+00;  4.0000000E+04; -4.8810776E-04;  0.0000000E+00; -8.9401077E-04;  7.8895715E+02;
 -2.9999999E-02;  9.9999998E-03;  2.3999999E-01;1614;  0.0000000E+00;  0.0000000E+00;  0.0000000E+00;  1.0005069E+03;  1.0000000E-01;  4.1993875E+02;0;  0.0000000E+00;  0.0000000E+00;  0.0000000E+00;0; -8.1623971E-02;  4.0000000E+04;  0.0000000E+00;  0.0000000E+00;  4.0000000E+04;  0.0000000E+00;  4.0000000E+04; -7.9460137E-02;  0.0000000E+00; -2.1638337E-03;  3.2754417E+03;
 -2.9999999E-02;  9.9999998E-03;  2.5000000E-01;1615;  0.0000000E+00;  0.0000000E+00;  0.0000000E+00;  1.0004727E+03;  1.0000000E-01;  3.9159387E+02;0;  0.0000000E+00;  0.0000000E+00;  0.0000000E+00;0; -7.5750366E-02;  4.0000000E+04;  0.0000000E+00;  0.0000000E+00;  4.0000000E+04;  0.0000000E+00;  4.0000000E+04; -7.1198426E-02;  0.0000000E+00; -4.5519434E-03;  2.0128802E+03;
 -2.9999999E-02;  9.9999998E-03;  2.5999999E-01;1616;  0.0000000E+00;  0.0000000E+00;  0.0000000E+00;  1.0004398E+03;  1.0000000E-01;  3.6433539E+02;0;  0.0000000E+00;  0.0000000E+00;  0.0000000E+00;0; -6.9784686E-02;  4.0000000E+04;  0.0000000E+00;  0.0000000E+00;  4.0000000E+04;  0.0000000E+00;  4.0000000E+04; -6.2933229E-02;  0.0000000E+00; -6.8514557E-03;  7.6160535E+02;
 -2.9999999E-02;  9.9999998E-03;  2.7000001E-01;1617;  0.0000000E+00;  0.0000000E+00;  0.0000000E+00;  1.0004066E+03;  1.0000000E-01;  3.3687936E+02;0;  0.0000000E+00;  0.0000000E+00;  0.0000000E+00;0; -6.3639447E-02;  4.0000000E+04;  0.0000000E+00;  0.0000000E+00;  4.0000000E+04;  0.0000000E+00;  4.0000000E+04; -5.4768424E-02;  0.0000000E+00; -8.8710198E-03;  1.2634038E+03;
 -2.9999999E-02;  9.9999998E-03;  2.8000000E-01;1618;  0.0000000E+00;  0.0000000E+00;  0.0000000E+00;  1.0003720E+03;  1.0000000E-01;  3.0823819E+02;0;  0.0000000E+00;  0.0000000E+00;  0.0000000E+00;0; -5.7255708E-02;  4.0000000E+04;  0.0000000E+00;  0.0000000E+00;  4.0000000E+04;  0.0000000E+00;  4.0000000E+04; -4.6819456E-02;  0.0000000E+00; -1.0436253E-02;  2.6333801E+03;
 -2.9999999E-02;  9.9999998E-03;  2.8999999E-01;1619;  0.0000000E+00;  0.0000000E+00;  0.0000000E+00;  1.0003353E+03;  1.0000000E-01;  2.7772055E+02;0;  0.0000000E+00;  0.0000000E+00;  0.0000000E+00;0; -5.0630096E-02;  4.0000000E+04;  0.0000000E+00;  0.0000000E+00;  4.0000000E+04;  0.0000000E+00;  4.0000000E+04; -3.9215438E-02;  0.0000000E+00; -1.1414658E-02;  3.8504363E+03;
 -2.9999999E-02;  9.9999998E-03;  3.0000001E-01;1620;  0.0000000E+00;  0.0000000E+00;  0.0000000E+00;  1.0002961E+03;  1.0000000E-01;  2.4532640E+02;0;  0.0000000E+00;  0.0000000E+00;  0.0000000E+00;0; -4.3839019E-02;  4.0000000E+04;  0.0000000E+00;  0.0000000E+00;  4.0000000E+04;  0.0000000E+00;  4.0000000E+04; -3.2097857E-02;  0.0000000E+00; -1.1741160E-02;  4.7470322E+03;
 -2.9999999E-02;  9.9999998E-03;  3.1000000E-01;1621;  0.0000000E+00;  0.0000000E+00;  0.0000000E+00;  1.0002554E+03;  1.0000000E-01;  2.1164833E+02;0;  0.0000000E+00;  0.0000000E+00;  0.0000000E+00;0; -3.7051827E-02;  4.0000000E+04;  0.0000000E+00;  0.0000000E+00;  4.0000000E+04;  0.0000000E+00;  4.0000000E+04; -2.5609083E-02;  0.0000000E+00; -1.1442745E-02;  5.2549946E+03;
 -2.9999999E-02;  9.9999998E-03;  3.1999999E-01;1622;  0.0000000E+00;  0.0000000E+00;  0.0000000E+00;  1.0002149E+03;  1.0000000E-01;  1.7806903E+02;0;  0.0000000E+00;  0.0000000E+00;  0.0000000E+00;0; -3.0503111E-02;  4.0000000E+04;  0.0000000E+00;  0.0000000E+00;  4.0000000E+04;  0.0000000E+00;  4.0000000E+04; -1.9871032E-02;  0.0000000E+00; -1.0632079E-02;  5.3814585E+03;
 -2.9999999E-02;  9.9999998E-03;  3.3000001E-01;1623;  0.0000000E+00;  0.0000000E+00;  0.0000000E+00;  1.0001765E+03;  1.0000000E-01;  1.4616870E+02;0;  0.0000000E+00;  0.0000000E+00;  0.0000000E+00;0; -2.4431139E-02;  4.0000000E+04;  0.0000000E+00;  0.0000000E+00;  4.0000000E+04;  0.0000000E+00;  4.0000000E+04; -1.4962983E-02;  0.0000000E+00; -9.4681568E-03;  5.1876685E+03;
 -2.9999999E-02;  9.9999998E-03;  3.4000000E-01;1624;  0.0000000E+00;  0.0000000E+00;  0.0000000E+00;  1.0001429E+03;  1.0000000E-01;  1.1841640E+02;0;  0.0000000E+00;  0.0000000E+00;  0.0000000E+00;0; -1.9022495E-02;  4.0000000E+04;  0.0000000E+00;  0.0000000E+00;  4.0000000E+04;  0.0000000E+00;  4.0000000E+04; -1.0909686E-02;  0.0000000E+00; -8.1128078E-03;  4.7590947E+03;
 -2.9999999E-02;  9.9999998E-03;  3.4999999E-01;1625;  0.0000000E+00;  0.0000000E+00;  0.0000000E+00;  1.0001125E+03;  1.0000000E-01;  9.3231934E+01;0;  0.0000000E+00;  0.0000000E+00;  0.0000000E+00;0; -1.4384051E-02;  4.0000000E+04;  0.0000000E+00;  0.0000000E+00;  4.0000000E+04;  0.0000000E+00;  4.0000000E+04; -7.6818690E-03;  0.0000000E+00; -6.7021819E-03;  4.1812212E+03;
 -2.9999999E-02;  9.9999998E-03;  3.6000001E-01;1626;  0.0000000E+00;  0.0000000E+00;  0.0000000E+00;  1.0000858E+03;  1.0000000E-01;  7.1109100E+01;0;  0.0000000E+00;  0.0000000E+00;  0.0000000E+00;0; -1.0542463E-02;  4.0000000E+04;  0.0000000E+00;  0.0000000E+00;  4.0000000E+04;  0.0000000E+00;  4.0000000E+04; -5.2063284E-03;  0.0000000E+00; -5.3361342E-03;  3.5265322E+03;
 -2.9999999E-02;  9.9999998E-03;  3.7000000E-01;1627;  0.0000000E+00;  0.0000000E+00;  0.0000000E+00;  1.0000634E+03;  1.0000000E-01;  5.2442963E+01;0;  0.0000000E+00;  0.0000000E+00;  0.0000000E+00;0; -7.4612116E-03;  4.0000000E+04;  0.0000000E+00;  0.0000000E+00;  4.0000000E+04;  0.0000000E+00;  4.0000000E+04; -3.3809000E-03;  0.0000000E+00; -4.0803114E-03;  2.8510659E+03;
 -2.9999999E-02;  9.9999998E-03;  3.8000000E-01;1628;  0.0000000E+00;  0.0000000E+00;  0.0000000E+00;  1.0000458E+03;  1.0000000E-01;  3.7924854E+01;0;  0.0000000E+00;  0.0000000E+00;  0.0000000E+00;0; -5.0641848E-03;  4.0000000E+04;  0.0000000E+00;  0.0000000E+00;  4.0000000E+04;  0.0000000E+00;  4.0000000E+04; -2.0900844E-03;  0.0000000E+00; -2.9741004E-03;  2.1964485E+03;
 -2.9999999E-02;  9.9999998E-03;  3.8999999E-01;1629;  0.0000000E+00;  0.0000000E+00;  0.0000000E+00;  1.0000316E+03;  1.0000000E-01;  2.6172100E+01;0;  0.0000000E+00;  0.0000000E+00;  0.0000000E+00;0; -3.2581748E-03;  4.0000000E+04;  0.0000000E+00;  0.0000000E+00;  4.0000000E+04;  0.0000000E+00;  4.0000000E+04; -1.2184494E-03;  0.0000000E+00; -2.0397252E-03;  1.5941609E+03;
 -2.9999999E-02;  9.9999998E-03;  4.0000001E-01;1630;  0.0000000E+00;  0.0000000E+00;  0.0000000E+00;  1.0000168E+03;  1.0000000E-01;  1.3925532E+01;0;  0.0000000E+00;  0.0000000E+00;  0.0000000E+00;0; -1.9496923E-03;  4.0000000E+04;  0.0000000E+00;  0.0000000E+00;  4.0000000E+04;  0.0000000E+00;  4.0000000E+04; -6.6034251E-04;  0.0000000E+00; -1.2893497E-03;  1.0697074E+03;
 -2.0000000E-02;  9.9999998E-03;  2.3999999E-01;1705;  0.0000000E+00;  0.0000000E+00;  0.0000000E+00;  1.0006616E+03;  1.0000000E-01;  5.4813263E+02;0;  0.0000000E+00;  0.0000000E+00;  0.0000000E+00;0; -1.0195938E-01;  4.0000000E+04;  0.0000000E+00;  0.0000000E+00;  4.0000000E+04;  0.0000000E+00;  4.0000000E+04; -9.9271670E-02;  0.0000000E+00; -2.6877150E-03;  3.9094353E+03;
 -2.0000000E-02;  9.9999998E-03;  2.5000000E-01;1706;  0.0000000E+00;  0.0000000E+00;  0.0000000E+00;  1.0006191E+03;  1.0000000E-01;  5.1297314E+02;0;  0.0000000E+00;  0.0000000E+00;  0.0000000E+00;0; -9.4787024E-02;  4.0000000E+04;  0.0000000E+00;  0.0000000E+00;  4.0000000E+04;  0.0000000E+00;  4.0000000E+04; -8.9042023E-02;  0.0000000E+00; -5.7450002E-03;  2.3773228E+03;
 -2.0000000E-02;  9.9999998E-03;  2.5999999E-01;1707;  0.0000000E+00;  0.0000000E+00;  0.0000000E+00;  1.0005772E+03;  1.0000000E-01;  4.7820871E+02;0;  0.0000000E+00;  0.0000000E+00;  0.0000000E+00;0; -8.7476201E-02;  4.0000000E+04;  0.0000000E+00;  0.0000000E+00;  4.0000000E+04;  0.0000000E+00;  4.0000000E+04; -7.8772373E-02;  0.0000000E+00; -8.7038251E-03;  7.4757208E+02;
 -2.0000000E-02;  9.9999998E-03;  2.7000001E-01;1708;  0.0000000E+00;  0.0000000E+00;  0.0000000E+00;  1.0005350E+03;  1.0000000E-01;  4.4324673E+02;0;  0.0000000E+00;  0.0000000E+00;  0.0000000E+00;0; -7.9916529E-02;  4.0000000E+04;  0.0000000E+00;  0.0000000E+00;  4.0000000E+04;  0.0000000E+00;  4.0000000E+04; -6.8597220E-02;  0.0000000E+00; -1.1319309E-02;  1.4590422E+03;
 -2.0000000E-02;  9.9999998E-03;  2.8000000E-01;1709;  0.0000000E+00;  0.0000000E+00;  0.0000000E+00;  1.0004911E+03;  1.0000000E-01;  4.0690207E+02;0;  0.0000000E+00;  0.0000000E+00;  0.0000000E+00;0; -7.2029106E-02;  4.0000000E+04;  0.0000000E+00;  0.0000000E+00;  4.0000000E+04;  0.0000000E+00;  4.0000000E+04; -5.8664590E-02;  0.0000000E+00; -1.3364517E-02;  3.2143203E+03;
 -2.0000000E-02;  9.9999998E-03;  2.8999999E-01;1710;  0.0000000E+00;  0.0000000E+00;  0.0000000E+00;  1.0004439E+03;  1.0000000E-01;  3.6779205E+02;0;  0.0000000E+00;  0.0000000E+00;  0.0000000E+00;0; -6.3801199E-02;  4.0000000E+04;  0.0000000E+00;  0.0000000E+00;  4.0000000E+04;  0.0000000E+00;  4.0000000E+04; -4.9140081E-02;  0.0000000E+00; -1.4661120E-02;  4.7511572E+03;
 -2.0000000E-02;  9.9999998E-03;  3.0000001E-01;1711;  0.0000000E+00;  0.0000000E+00;  0.0000000E+00;  1.0003934E+03;  1.0000000E-01;  3.2591672E+02;0;  0.0000000E+00;  0.0000000E+00;  0.0000000E+00;0; -5.5322573E-02;  4.0000000E+04;  0.0000000E+00;  0.0000000E+00;  4.0000000E+04;  0.0000000E+00;  4.0000000E+04; -4.0208079E-02;  0.0000000E+00; -1.5114492E-02;  5.8793354E+03;
 -2.0000000E-02;  9.9999998E-03;  3.1000000E-01;1712;  0.0000000E+00;  0.0000000E+00;  0.0000000E+00;  1.0003419E+03;  1.0000000E-01;  2.8325125E+02;0;  0.0000000E+00;  0.0000000E+00;  0.0000000E+00;0; -4.6813905E-02;  4.0000000E+04;  0.0000000E+00;  0.0000000E+00;  4.0000000E+04;  0.0000000E+00;  4.0000000E+04; -3.2059480E-02;  0.0000000E+00; -1.4754424E-02;  6.5126182E+03;
 -2.0000000E-02;  9.9999998E-03;  3.1999999E-01;1713;  0.0000000E+00;  0.0000000E+00;  0.0000000E+00;  1.0002922E+03;  1.0000000E-01;  2.4206723E+02;0;  0.0000000E+00;  0.0000000E+00;  0.0000000E+00;0; -3.8587313E-02;  4.0000000E+04;  0.0000000E+00;  0.0000000E+00;  4.0000000E+04;  0.0000000E+00;  4.0000000E+04; -2.4857929E-02;  0.0000000E+00; -1.3729383E-02;  6.6652739E+03;
 -2.0000000E-02;  9.9999998E-03;  3.3000001E-01;1714;  0.0000000E+00;  0.0000000E+00;  0.0000000E+00;  1.0002426E+03;  1.0000000E-01;  2.0098196E+02;0;  0.0000000E+00;  0.0000000E+00;  0.0000000E+00;0; -3.0956037E-02;  4.0000000E+04;  0.0000000E+00;  0.0000000E+00;  4.0000000E+04;  0.0000000E+00;  4.0000000E+04; -1.8707281E-02;  0.0000000E+00; -1.2248757E-02;  6.4210986E+03;
 -2.0000000E-02;  9.9999998E-03;  3.4000000E-01;1715;  0.0000000E+00;  0.0000000E+00;  0.0000000E+00;  1.0001969E+03;  1.0000000E-01;  1.6315588E+02;0;  0.0000000E+00;  0.0000000E+00;  0.0000000E+00;0; -2.4159923E-02;  4.0000000E+04;  0.0000000E+00;  0.0000000E+00;  4.0000000E+04;  0.0000000E+00;  4.0000000E+04; -1.3637144E-02;  0.0000000E+00; -1.0522778E-02;  5.8911768E+03;
 -2.0000000E-02;  9.9999998E-03;  3.4999999E-01;1716;  0.0000000E+00;  0.0000000E+00;  0.0000000E+00;  1.0001553E+03;  1.0000000E-01;  1.2868771E+02;0;  0.0000000E+00;  0.0000000E+00;  0.0000000E+00;0; -1.8332258E-02;  4.0000000E+04;  0.0000000E+00;  0.0000000E+00;  4.0000000E+04;  0.0000000E+00;  4.0000000E+04; -9.6066184E-03;  0.0000000E+00; -8.7256404E-03;  5.1825317E+03;
 -2.0000000E-02;  9.9999998E-03;  3.6000001E-01;1717;  0.0000000E+00;  0.0000000E+00;  0.0000000E+00;  1.0001185E+03;  1.0000000E-01;  9.8170067E+01;0;  0.0000000E+00;  0.0000000E+00;  0.0000000E+00;0; -1.3502769E-02;  4.0000000E+04;  0.0000000E+00;  0.0000000E+00;  4.0000000E+04;  0.0000000E+00;  4.0000000E+04; -6.5195239E-03;  0.0000000E+00; -6.9832453E-03;  4.3833188E+03;
 -2.0000000E-02;  9.9999998E-03;  3.7000000E-01;1718;  0.0000000E+00;  0.0000000E+00;  0.0000000E+00;  1.0000885E+03;  1.0000000E-01;  7.3281876E+01;0;  0.0000000E+00;  0.0000000E+00;  0.0000000E+00;0; -9.6218195E-03;  4.0000000E+04;  0.0000000E+00;  0.0000000E+00;  4.0000000E+04;  0.0000000E+00;  4.0000000E+04; -4.2445739E-03;  0.0000000E+00; -5.3772461E-03;  3.5600972E+03;
 -2.0000000E-02;  9.9999998E-03;  3.8000000E-01;1719;  0.0000000E+00;  0.0000000E+00;  0.0000000E+00;  1.0000638E+03;  1.0000000E-01;  5.2936775E+01;0;  0.0000000E+00;  0.0000000E+00;  0.0000000E+00;0; -6.5913652E-03;  4.0000000E+04;  0.0000000E+00;  0.0000000E+00;  4.0000000E+04;  0.0000000E+00;  4.0000000E+04; -2.6352759E-03;  0.0000000E+00; -3.9560893E-03;  2.7614607E+03;
 -2.0000000E-02;  9.9999998E-03;  3.8999999E-01;1720;  0.0000000E+00;  0.0000000E+00;  0.0000000E+00;  1.0000414E+03;  1.0000000E-01;  3.4369400E+01;0;  0.0000000E+00;  0.0000000E+00;  0.0000000E+00;0; -4.2936616E-03;  4.0000000E+04;  0.0000000E+00;  0.0000000E+00;  4.0000000E+04;  0.0000000E+00;  4.0000000E+04; -1.5466030E-03;  0.0000000E+00; -2.7470584E-03;  2.0238239E+03;
 -2.0000000E-02;  9.9999998E-03;  4.0000001E-01;1721;  0.0000000E+00;  0.0000000E+00;  0.0000000E+00;  1.0000262E+03;  1.0000000E-01;  2.1727781E+01;0;  0.0000000E+00;  0.0000000E+00;  0.0000000E+00;0; -2.6125368E-03;  4.0000000E+04;  0.0000000E+00;  0.0000000E+00;  4.0000000E+04;  0.0000000E+00;  4.0000000E+04; -8.4678136E-04;  0.0000000E+00; -1.7657555E-03;  1.3769163E+03;
 -9.9999998E-03;  9.9999998E-03;  2.3999999E-01;1796;  0.0000000E+00;  0.0000000E+00;  0.0000000E+00;  1.0008412E+03;  1.0000000E-01;  6.9686920E+02;0;  0.0000000E+00;  0.0000000E+00;  0.0000000E+00;0; -1.2330609E-01;  4.0000000E+04;  0.0000000E+00;  0.0000000E+00;  4.0000000E+04;  0.0000000E+00;  4.0000000E+04; -1.2011845E-01;  0.0000000E+00; -3.1876317E-03;  4.5342612E+03;
 -9.9999998E-03;  9.9999998E-03;  2.5000000E-01;1797;  0.0000000E+00;  0.0000000E+00;  0.0000000E+00;  1.0007890E+03;  1.0000000E-01;  6.5370990E+02;0;  0.0000000E+00;  0.0000000E+00;  0.0000000E+00;0; -1.1483410E-01;  4.0000000E+04;  0.0000000E+00;  0.0000000E+00;  4.0000000E+04;  0.0000000E+00;  4.0000000E+04; -1.0785348E-01;  0.0000000E+00; -6.9806189E-03;  2.7468323E+03;
 -9.9999998E-03;  9.9999998E-03;  2.5999999E-01;1798;  0.0000000E+00;  0.0000000E+00;  0.0000000E+00;  1.0007388E+03;  1.0000000E-01;  6.1203204E+02;0;  0.0000000E+00;  0.0000000E+00;  0.0000000E+00;0; -1.0616457E-01;  4.0000000E+04;  0.0000000E+00;  0.0000000E+00;  4.0000000E+04;  0.0000000E+00;  4.0000000E+04; -9.5493287E-02;  0.0000000E+00; -1.0671280E-02;  6.9207166E+02;
 -9.9999998E-03;  9.9999998E-03;  2.7000001E-01;1799;  0.0000000E+00;  0.0000000E+00;  0.0000000E+00;  1.0006877E+03;  1.0000000E-01;  5.6976166E+02;0;  0.0000000E+00;  0.0000000E+00;  0.0000000E+00;0; -9.7163409E-02;  4.0000000E+04;  0.0000000E+00;  0.0000000E+00;  4.0000000E+04;  0.0000000E+00;  4.0000000E+04; -8.3207883E-02;  0.0000000E+00; -1.3955522E-02;  1.6302300E+03;
 -9.9999998E-03;  9.9999998E-03;  2.8000000E-01;1800;  0.0000000E+00;  0.0000000E+00;  0.0000000E+00;  1.0006351E+03;  1.0000000E-01;  5.2610858E+02;0;  0.0000000E+00;  0.0000000E+00;  0.0000000E+00;0; -8.7732606E-02;  4.0000000E+04;  0.0000000E+00;  0.0000000E+00;  4.0000000E+04;  0.0000000E+00;  4.0000000E+04; -7.1184553E-02;  0.0000000E+00; -1.6548052E-02;  3.7960312E+03;
 -9.9999998E-03;  9.9999998E-03;  2.8999999E-01;1801;  0.0000000E+00;  0.0000000E+00;  0.0000000E+00;  1.0005804E+03;  1.0000000E-01;  4.8087527E+02;0;  0.0000000E+00;  0.0000000E+00;  0.0000000E+00;0; -7.7847004E-02;  4.0000000E+04;  0.0000000E+00;  0.0000000E+00;  4.0000000E+04;  0.0000000E+00;  4.0000000E+04; -5.9629500E-02;  0.0000000E+00; -1.8217504E-02;  5.6785928E+03;
 -9.9999998E-03;  9.9999998E-03;  3.0000001E-01;1802;  0.0000000E+00;  0.0000000E+00;  0.0000000E+00;  1.0005219E+03;  1.0000000E-01;  4.3238284E+02;0;  0.0000000E+00;  0.0000000E+00;  0.0000000E+00;0; -6.7599908E-02;  4.0000000E+04;  0.0000000E+00;  0.0000000E+00;  4.0000000E+04;  0.0000000E+00;  4.0000000E+04; -4.8772234E-02;  0.0000000E+00; -1.8827677E-02;  7.0590366E+03;
 -9.9999998E-03;  9.9999998E-03;  3.1000000E-01;1803;  0.0000000E+00;  0.0000000E+00;  0.0000000E+00;  1.0004576E+03;  1.0000000E-01;  3.7914978E+02;0;  0.0000000E+00;  0.0000000E+00;  0.0000000E+00;0; -5.7266854E-02;  4.0000000E+04;  0.0000000E+00;  0.0000000E+00;  4.0000000E+04;  0.0000000E+00;  4.0000000E+04; -3.8859416E-02;  0.0000000E+00; -1.8407438E-02;  7.8251060E+03;
 -9.9999998E-03;  9.9999998E-03;  3.1999999E-01;1804;  0.0000000E+00;  0.0000000E+00;  0.0000000E+00;  1.0003908E+03;  1.0000000E-01;  3.2374393E+02;0;  0.0000000E+00;  0.0000000E+00;  0.0000000E+00;0; -4.7252264E-02;  4.0000000E+04;  0.0000000E+00;  0.0000000E+00;  4.0000000E+04;  0.0000000E+00;  4.0000000E+04; -3.0103117E-02;  0.0000000E+00; -1.7149147E-02;  8.0017339E+03;
 -9.9999998E-03;  9.9999998E-03;  3.3000001E-01;1805;  0.0000000E+00;  0.0000000E+00;  0.0000000E+00;  1.0003247E+03;  1.0000000E-01;  2.6902942E+02;0;  0.0000000E+00;  0.0000000E+00;  0.0000000E+00;0; -3.7956864E-02;  4.0000000E+04;  0.0000000E+00;  0.0000000E+00;  4.0000000E+04;  0.0000000E+00;  4.0000000E+04; -2.2635147E-02;  0.0000000E+00; -1.5321716E-02;  7.7010151E+03;
 -9.9999998E-03;  9.9999998E-03;  3.4000000E-01;1806;  0.0000000E+00;  0.0000000E+00;  0.0000000E+00;  1.0002629E+03;  1.0000000E-01;  2.1787038E+02;0;  0.0000000E+00;  0.0000000E+00;  0.0000000E+00;0; -2.9680192E-02;  4.0000000E+04;  0.0000000E+00;  0.0000000E+00;  4.0000000E+04;  0.0000000E+00;  4.0000000E+04; -1.6489696E-02;  0.0000000E+00; -1.3190497E-02;  7.0632373E+03;
 -9.9999998E-03;  9.9999998E-03;  3.4999999E-01;1807;  0.0000000E+00;  0.0000000E+00;  0.0000000E+00;  1.0002083E+03;  1.0000000E-01;  1.7253833E+02;0;  0.0000000E+00;  0.0000000E+00;  0.0000000E+00;0; -2.2583939E-02;  4.0000000E+04;  0.0000000E+00;  0.0000000E+00;  4.0000000E+04;  0.0000000E+00;  4.0000000E+04; -1.1612528E-02;  0.0000000E+00; -1.0971411E-02;  6.2179863E+03;
 -9.9999998E-03;  9.9999998E-03;  3.6000001E-01;1808;  0.0000000E+00;  0.0000000E+00;  0.0000000E+00;  1.0001597E+03;  1.0000000E-01;  1.3234193E+02;0;  0.0000000E+00;  0.0000000E+00;  0.0000000E+00;0; -1.6700540E-02;  4.0000000E+04;  0.0000000E+00;  0.0000000E+00;  4.0000000E+04;  0.0000000E+00;  4.0000000E+04; -7.8823678E-03;  0.0000000E+00; -8.8181728E-03;  5.2690464E+03;
 -9.9999998E-03;  9.9999998E-03;  3.7000000E-01;1809;  0.0000000E+00;  0.0000000E+00;  0.0000000E+00;  1.0001169E+03;  1.0000000E-01;  9.6787384E+01;0;  0.0000000E+00;  0.0000000E+00;  0.0000000E+00;0; -1.1965737E-02;  4.0000000E+04;  0.0000000E+00;  0.0000000E+00;  4.0000000E+04;  0.0000000E+00;  4.0000000E+04; -5.1365285E-03;  0.0000000E+00; -6.8292082E-03;  4.2932534E+03;
 -9.9999998E-03;  9.9999998E-03;  3.8000000E-01;1810;  0.0000000E+00;  0.0000000E+00;  0.0000000E+00;  1.0000827E+03;  1.0000000E-01;  6.8541275E+01;0;  0.0000000E+00;  0.0000000E+00;  0.0000000E+00;0; -8.2575455E-03;  4.0000000E+04;  0.0000000E+00;  0.0000000E+00;  4.0000000E+04;  0.0000000E+00;  4.0000000E+04; -3.1952462E-03;  0.0000000E+00; -5.0622988E-03;  3.3459810E+03;
 -9.9999998E-03;  9.9999998E-03;  3.8999999E-01;1811;  0.0000000E+00;  0.0000000E+00;  0.0000000E+00;  1.0000581E+03;  1.0000000E-01;  4.8097404E+01;0;  0.0000000E+00;  0.0000000E+00;  0.0000000E+00;0; -5.4317620E-03;  4.0000000E+04;  0.0000000E+00;  0.0000000E+00;  4.0000000E+04;  0.0000000E+00;  4.0000000E+04; -1.8817271E-03;  0.0000000E+00; -3.5500349E-03;  2.4686382E+03;
 -9.9999998E-03;  9.9999998E-03;  4.0000001E-01;1812;  0.0000000E+00;  0.0000000E+00;  0.0000000E+00;  1.0000346E+03;  1.0000000E-01;  2.8641165E+01;0;  0.0000000E+00;  0.0000000E+00;  0.0000000E+00;0; -3.3480083E-03;  4.0000000E+04;  0.0000000E+00;  0.0000000E+00;  4.0000000E+04;  0.0000000E+00;  4.0000000E+04; -1.0361626E-03;  0.0000000E+00; -2.3118458E-03;  1.6953473E+03;
  0.0000000E+00;  9.9999998E-03;  3.0000001E-01;1834;  0.0000000E+00;  0.0000000E+00;  0.0000000E+00;  1.0006792E+03;  1.0000000E-01;  5.6274951E+02;0;  0.0000000E+00;  0.0000000E+00;  0.0000000E+00;0; -8.0117665E-02;  4.0000000E+04;  0.0000000E+00;  0.0000000E+00;  4.0000000E+04;  0.0000000E+00;  4.0000000E+04; -5.7419252E-02;  0.0000000E+00; -2.2698414E-02;  8.2011797E+03;
  0.0000000E+00;  9.9999998E-03;  3.1000000E-01;1835;  0.0000000E+00;  0.0000000E+00;  0.0000000E+00;  1.0005945E+03;  1.0000000E-01;  4.9252927E+02;0;  0.0000000E+00;  0.0000000E+00;  0.0000000E+00;0; -6.7957312E-02;  4.0000000E+04;  0.0000000E+00;  0.0000000E+00;  4.0000000E+04;  0.0000000E+00;  4.0000000E+04; -4.5723349E-02;  0.0000000E+00; -2.2233961E-02;  9.1093262E+03;
  0.0000000E+00;  9.9999998E-03;  3.1999999E-01;1836;  0.0000000E+00;  0.0000000E+00;  0.0000000E+00;  1.0005062E+03;  1.0000000E-01;  4.1944492E+02;0;  0.0000000E+00;  0.0000000E+00;  0.0000000E+00;0; -5.6133606E-02;  4.0000000E+04;  0.0000000E+00;  0.0000000E+00;  4.0000000E+04;  0.0000000E+00;  4.0000000E+04; -3.5392541E-02;  0.0000000E+00; -2.0741064E-02;  9.3130518E+03;
  0.0000000E+00;  9.9999998E-03;  3.3000001E-01;1837;  0.0000000E+00;  0.0000000E+00;  0.0000000E+00;  1.0004211E+03;  1.0000000E-01;  3.4882965E+02;0;  0.0000000E+00;  0.0000000E+00;  0.0000000E+00;0; -4.5146927E-02;  4.0000000E+04;  0.0000000E+00;  0.0000000E+00;  4.0000000E+04;  0.0000000E+00;  4.0000000E+04; -2.6590072E-02;  0.0000000E+00; -1.8556857E-02;  8.9588057E+03;
  0.0000000E+00;  9.9999998E-03;  3.4000000E-01;1838;  0.0000000E+00;  0.0000000E+00;  0.0000000E+00;  1.0003382E+03;  1.0000000E-01;  2.8018961E+02;0;  0.0000000E+00;  0.0000000E+00;  0.0000000E+00;0; -3.5361655E-02;  4.0000000E+04;  0.0000000E+00;  0.0000000E+00;  4.0000000E+04;  0.0000000E+00;  4.0000000E+04; -1.9354934E-02;  0.0000000E+00; -1.6006719E-02;  8.2172500E+03;
  0.0000000E+00;  9.9999998E-03;  3.4999999E-01;1839;  0.0000000E+00;  0.0000000E+00;  0.0000000E+00;  1.0002664E+03;  1.0000000E-01;  2.2073450E+02;0;  0.0000000E+00;  0.0000000E+00;  0.0000000E+00;0; -2.6970327E-02;  4.0000000E+04;  0.0000000E+00;  0.0000000E+00;  4.0000000E+04;  0.0000000E+00;  4.0000000E+04; -1.3619917E-02;  0.0000000E+00; -1.3350411E-02;  7.2397344E+03;
  0.0000000E+00;  9.9999998E-03;  3.6000001E-01;1840;  0.0000000E+00;  0.0000000E+00;  0.0000000E+00;  1.0002050E+03;  1.0000000E-01;  1.6977298E+02;0;  0.0000000E+00;  0.0000000E+00;  0.0000000E+00;0; -2.0009313E-02;  4.0000000E+04;  0.0000000E+00;  0.0000000E+00;  4.0000000E+04;  0.0000000E+00;  4.0000000E+04; -9.2390263E-03;  0.0000000E+00; -1.0770287E-02;  6.1447114E+03;
  0.0000000E+00;  9.9999998E-03;  3.7000000E-01;1841;  0.0000000E+00;  0.0000000E+00;  0.0000000E+00;  1.0001522E+03;  1.0000000E-01;  1.2611989E+02;0;  0.0000000E+00;  0.0000000E+00;  0.0000000E+00;0; -1.4399986E-02;  4.0000000E+04;  0.0000000E+00;  0.0000000E+00;  4.0000000E+04;  0.0000000E+00;  4.0000000E+04; -6.0181050E-03;  0.0000000E+00; -8.3818808E-03;  5.0189810E+03;
  0.0000000E+00;  9.9999998E-03;  3.8000000E-01;1842;  0.0000000E+00;  0.0000000E+00;  0.0000000E+00;  1.0001072E+03;  1.0000000E-01;  8.8787613E+01;0;  0.0000000E+00;  0.0000000E+00;  0.0000000E+00;0; -9.9960584E-03;  4.0000000E+04;  0.0000000E+00;  0.0000000E+00;  4.0000000E+04;  0.0000000E+00;  4.0000000E+04; -3.7436027E-03;  0.0000000E+00; -6.2524555E-03;  3.9247002E+03;
  0.0000000E+00;  9.9999998E-03;  3.8999999E-01;1843;  0.0000000E+00;  0.0000000E+00;  0.0000000E+00;  1.0000721E+03;  1.0000000E-01;  5.9751396E+01;0;  0.0000000E+00;  0.0000000E+00;  0.0000000E+00;0; -6.6262609E-03;  4.0000000E+04;  0.0000000E+00;  0.0000000E+00;  4.0000000E+04;  0.0000000E+00;  4.0000000E+04; -2.2061751E-03;  0.0000000E+00; -4.4200858E-03;  2.9085024E+03;
  0.0000000E+00;  9.9999998E-03;  4.0000001E-01;1844;  0.0000000E+00;  0.0000000E+00;  0.0000000E+00;  1.0000488E+03;  1.0000000E-01;  4.0492683E+01;0;  0.0000000E+00;  0.0000000E+00;  0.0000000E+00;0; -4.1255206E-03;  4.0000000E+04;  0.0000000E+00;  0.0000000E+00;  4.0000000E+04;  0.0000000E+00;  4.0000000E+04; -1.2170803E-03;  0.0000000E+00; -2.9084405E-03;  2.0093279E+03;
  9.9999998E-03;  9.9999998E-03;  3.1000000E-01;1865;  0.0000000E+00;  0.0000000E+00;  0.0000000E+00;  1.0007466E+03;  1.0000000E-01;  6.1855042E+02;0;  0.0000000E+00;  0.0000000E+00;  0.0000000E+00;0; -7.8392483E-02;  4.0000000E+04;  0.0000000E+00;  0.0000000E+00;  4.0000000E+04;  0.0000000E+00;  4.0000000E+04; -5.2380390E-02;  0.0000000E+00; -2.6012095E-02;  1.0264901E+04;
  9.9999998E-03;  9.9999998E-03;  3.1999999E-01;1866;  0.0000000E+00;  0.0000000E+00;  0.0000000E+00;  1.0006335E+03;  1.0000000E-01;  5.2482465E+02;0;  0.0000000E+00;  0.0000000E+00;  0.0000000E+00;0; -6.4839140E-02;  4.0000000E+04;  0.0000000E+00;  0.0000000E+00;  4.0000000E+04;  0.0000000E+00;  4.0000000E+04; -4.0530559E-02;  0.0000000E+00; -2.4308579E-02;  1.0511512E+04;
  9.9999998E-03;  9.9999998E-03;  3.3000001E-01;1867;  0.0000000E+00;  0.0000000E+00;  0.0000000E+00;  1.0005231E+03;  1.0000000E-01;  4.3337045E+02;0;  0.0000000E+00;  0.0000000E+00;  0.0000000E+00;0; -5.2218743E-02;  4.0000000E+04;  0.0000000E+00;  0.0000000E+00;  4.0000000E+04;  0.0000000E+00;  4.0000000E+04; -3.0433241E-02;  0.0000000E+00; -2.1785500E-02;  1.0122668E+04;
  9.9999998E-03;  9.9999998E-03;  3.4000000E-01;1868;  0.0000000E+00;  0.0000000E+00;  0.0000000E+00;  1.0004217E+03;  1.0000000E-01;  3.4932346E+02;0;  0.0000000E+00;  0.0000000E+00;  0.0000000E+00;0; -4.0965788E-02;  4.0000000E+04;  0.0000000E+00;  0.0000000E+00;  4.0000000E+04;  0.0000000E+00;  4.0000000E+04; -2.2135673E-02;  0.0000000E+00; -1.8830117E-02;  9.2960000E+03;
  9.9999998E-03;  9.9999998E-03;  3.4999999E-01;1869;  0.0000000E+00;  0.0000000E+00;  0.0000000E+00;  1.0003313E+03;  1.0000000E-01;  2.7446136E+02;0;  0.0000000E+00;  0.0000000E+00;  0.0000000E+00;0; -3.1308316E-02;  4.0000000E+04;  0.0000000E+00;  0.0000000E+00;  4.0000000E+04;  0.0000000E+00;  4.0000000E+04; -1.5561544E-02;  0.0000000E+00; -1.5746772E-02;  8.2023945E+03;
  9.9999998E-03;  9.9999998E-03;  3.6000001E-01;1870;  0.0000000E+00;  0.0000000E+00;  0.0000000E+00;  1.0002532E+03;  1.0000000E-01;  2.0977185E+02;0;  0.0000000E+00;  0.0000000E+00;  0.0000000E+00;0; -2.3290256E-02;  4.0000000E+04;  0.0000000E+00;  0.0000000E+00;  4.0000000E+04;  0.0000000E+00;  4.0000000E+04; -1.0543391E-02;  0.0000000E+00; -1.2746865E-02;  6.9744883E+03;
  9.9999998E-03;  9.9999998E-03;  3.7000000E-01;1871;  0.0000000E+00;  0.0000000E+00;  0.0000000E+00;  1.0001870E+03;  1.0000000E-01;  1.5495859E+02;0;  0.0000000E+00;  0.0000000E+00;  0.0000000E+00;0; -1.6820986E-02;  4.0000000E+04;  0.0000000E+00;  0.0000000E+00;  4.0000000E+04;  0.0000000E+00;  4.0000000E+04; -6.8578864E-03;  0.0000000E+00; -9.9630998E-03;  5.7089858E+03;
  9.9999998E-03;  9.9999998E-03;  3.8000000E-01;1872;  0.0000000E+00;  0.0000000E+00;  0.0000000E+00;  1.0001346E+03;  1.0000000E-01;  1.1150302E+02;0;  0.0000000E+00;  0.0000000E+00;  0.0000000E+00;0; -1.1731412E-02;  4.0000000E+04;  0.0000000E+00;  0.0000000E+00;  4.0000000E+04;  0.0000000E+00;  4.0000000E+04; -4.2590820E-03;  0.0000000E+00; -7.4723298E-03;  4.4753257E+03;
  9.9999998E-03;  9.9999998E-03;  3.8999999E-01;1873;  0.0000000E+00;  0.0000000E+00;  0.0000000E+00;  1.0000891E+03;  1.0000000E-01;  7.3874451E+01;0;  0.0000000E+00;  0.0000000E+00;  0.0000000E+00;0; -7.8239851E-03;  4.0000000E+04;  0.0000000E+00;  0.0000000E+00;  4.0000000E+04;  0.0000000E+00;  4.0000000E+04; -2.5057332E-03;  0.0000000E+00; -5.3182514E-03;  3.3259795E+03;
  9.9999998E-03;  9.9999998E-03;  4.0000001E-01;1874;  0.0000000E+00;  0.0000000E+00;  0.0000000E+00;  1.0000577E+03;  1.0000000E-01;  4.7801117E+01;0;  0.0000000E+00;  0.0000000E+00;  0.0000000E+00;0; -4.9094083E-03;  4.0000000E+04;  0.0000000E+00;  0.0000000E+00;  4.0000000E+04;  0.0000000E+00;  4.0000000E+04; -1.3802447E-03;  0.0000000E+00; -3.5291638E-03;  2.3054133E+03;
  2.0000000E-02;  9.9999998E-03;  3.1000000E-01;1895;  0.0000000E+00;  0.0000000E+00;  0.0000000E+00;  1.0009075E+03;  1.0000000E-01;  7.5178119E+02;0;  0.0000000E+00;  0.0000000E+00;  0.0000000E+00;0; -8.8151157E-02;  4.0000000E+04;  0.0000000E+00;  0.0000000E+00;  4.0000000E+04;  0.0000000E+00;  4.0000000E+04; -5.8648378E-02;  0.0000000E+00; -2.9502779E-02;  1.1205603E+04;
  2.0000000E-02;  9.9999998E-03;  3.1999999E-01;1896;  0.0000000E+00;  0.0000000E+00;  0.0000000E+00;  1.0007688E+03;  1.0000000E-01;  6.3692029E+02;0;  0.0000000E+00;  0.0000000E+00;  0.0000000E+00;0; -7.3021092E-02;  4.0000000E+04;  0.0000000E+00;  0.0000000E+00;  4.0000000E+04;  0.0000000E+00;  4.0000000E+04; -4.5384414E-02;  0.0000000E+00; -2.7636677E-02;  1.1525712E+04;
  2.0000000E-02;  9.9999998E-03;  3.3000001E-01;1897;  0.0000000E+00;  0.0000000E+00;  0.0000000E+00;  1.0006332E+03;  1.0000000E-01;  5.2452838E+02;0;  0.0000000E+00;  0.0000000E+00;  0.0000000E+00;0; -5.8892168E-02;  4.0000000E+04;  0.0000000E+00;  0.0000000E+00;  4.0000000E+04;  0.0000000E+00;  4.0000000E+04; -3.4071516E-02;  0.0000000E+00; -2.4820650E-02;  1.1136738E+04;
  2.0000000E-02;  9.9999998E-03;  3.4000000E-01;1898;  0.0000000E+00;  0.0000000E+00;  0.0000000E+00;  1.0005085E+03;  1.0000000E-01;  4.2122266E+02;0;  0.0000000E+00;  0.0000000E+00;  0.0000000E+00;0; -4.6270400E-02;  4.0000000E+04;  0.0000000E+00;  0.0000000E+00;  4.0000000E+04;  0.0000000E+00;  4.0000000E+04; -2.4768649E-02;  0.0000000E+00; -2.1501753E-02;  1.0256302E+04;
  2.0000000E-02;  9.9999998E-03;  3.4999999E-01;1899;  0.0000000E+00;  0.0000000E+00;  0.0000000E+00;  1.0003981E+03;  1.0000000E-01;  3.2976846E+02;0;  0.0000000E+00;  0.0000000E+00;  0.0000000E+00;0; -3.5423838E-02;  4.0000000E+04;  0.0000000E+00;  0.0000000E+00;  4.0000000E+04;  0.0000000E+00;  4.0000000E+04; -1.7395627E-02;  0.0000000E+00; -1.8028211E-02;  9.0728018E+03;
  2.0000000E-02;  9.9999998E-03;  3.6000001E-01;1900;  0.0000000E+00;  0.0000000E+00;  0.0000000E+00;  1.0003041E+03;  1.0000000E-01;  2.5194350E+02;0;  0.0000000E+00;  0.0000000E+00;  0.0000000E+00;0; -2.6408523E-02;  4.0000000E+04;  0.0000000E+00;  0.0000000E+00;  4.0000000E+04;  0.0000000E+00;  4.0000000E+04; -1.1768363E-02;  0.0000000E+00; -1.4640160E-02;  7.7327871E+03;
  2.0000000E-02;  9.9999998E-03;  3.7000000E-01;1901;  0.0000000E+00;  0.0000000E+00;  0.0000000E+00;  1.0002257E+03;  1.0000000E-01;  1.8695767E+02;0;  0.0000000E+00;  0.0000000E+00;  0.0000000E+00;0; -1.9125899E-02;  4.0000000E+04;  0.0000000E+00;  0.0000000E+00;  4.0000000E+04;  0.0000000E+00;  4.0000000E+04; -7.6383892E-03;  0.0000000E+00; -1.1487510E-02;  6.3435405E+03;
  2.0000000E-02;  9.9999998E-03;  3.8000000E-01;1902;  0.0000000E+00;  0.0000000E+00;  0.0000000E+00;  1.0001626E+03;  1.0000000E-01;  1.3471223E+02;0;  0.0000000E+00;  0.0000000E+00;  0.0000000E+00;0; -1.3386978E-02;  4.0000000E+04;  0.0000000E+00;  0.0000000E+00;  4.0000000E+04;  0.0000000E+00;  4.0000000E+04; -4.7303066E-03;  0.0000000E+00; -8.6566713E-03;  4.9826685E+03;
  2.0000000E-02;  9.9999998E-03;  3.8999999E-01;1903;  0.0000000E+00;  0.0000000E+00;  0.0000000E+00;  1.0001093E+03;  1.0000000E-01;  9.0565338E+01;0;  0.0000000E+00;  0.0000000E+00;  0.0000000E+00;0; -8.9698955E-03;  4.0000000E+04;  0.0000000E+00;  0.0000000E+00;  4.0000000E+04;  0.0000000E+00;  4.0000000E+04; -2.7728905E-03;  0.0000000E+00; -6.1970055E-03;  3.7094639E+03;
  2.0000000E-02;  9.9999998E-03;  4.0000001E-01;1904;  0.0000000E+00;  0.0000000E+00;  0.0000000E+00;  1.0000719E+03;  1.0000000E-01;  5.9553871E+01;0;  0.0000000E+00;  0.0000000E+00;  0.0000000E+00;0; -5.6622149E-03;  4.0000000E+04;  0.0000000E+00;  0.0000000E+00;  4.0000000E+04;  0.0000000E+00;  4.0000000E+04; -1.5206703E-03;  0.0000000E+00; -4.1415445E-03;  2.5748250E+03;
  2.9999999E-02;  9.9999998E-03;  3.1000000E-01;1925;  0.0000000E+00;  0.0000000E+00;  0.0000000E+00;  1.0010679E+03;  1.0000000E-01;  8.8471570E+02;0;  0.0000000E+00;  0.0000000E+00;  0.0000000E+00;0; -9.6950889E-02;  4.0000000E+04;  0.0000000E+00;  0.0000000E+00;  4.0000000E+04;  0.0000000E+00;  4.0000000E+04; -6.4453065E-02;  0.0000000E+00; -3.2497823E-02;  1.1906347E+04;
  2.9999999E-02;  9.9999998E-03;  3.1999999E-01;1926;  0.0000000E+00;  0.0000000E+00;  0.0000000E+00;  1.0009029E+03;  1.0000000E-01;  7.4802820E+02;0;  0.0000000E+00;  0.0000000E+00;  0.0000000E+00;0; -8.0426909E-02;  4.0000000E+04;  0.0000000E+00;  0.0000000E+00;  4.0000000E+04;  0.0000000E+00;  4.0000000E+04; -4.9900815E-02;  0.0000000E+00; -3.0526096E-02;  1.2328990E+04;
  2.9999999E-02;  9.9999998E-03;  3.3000001E-01;1927;  0.0000000E+00;  0.0000000E+00;  0.0000000E+00;  1.0007424E+03;  1.0000000E-01;  6.1499493E+02;0;  0.0000000E+00;  0.0000000E+00;  0.0000000E+00;0; -6.4951569E-02;  4.0000000E+04;  0.0000000E+00;  0.0000000E+00;  4.0000000E+04;  0.0000000E+00;  4.0000000E+04; -3.7469838E-02;  0.0000000E+00; -2.7481735E-02;  1.1978117E+04;
  2.9999999E-02;  9.9999998E-03;  3.4000000E-01;1928;  0.0000000E+00;  0.0000000E+00;  0.0000000E+00;  1.0005960E+03;  1.0000000E-01;  4.9381320E+02;0;  0.0000000E+00;  0.0000000E+00;  0.0000000E+00;0; -5.1096749E-02;  4.0000000E+04;  0.0000000E+00;  0.0000000E+00;  4.0000000E+04;  0.0000000E+00;  4.0000000E+04; -2.7233342E-02;  0.0000000E+00; -2.3863407E-02;  1.1080088E+04;
  2.9999999E-02;  9.9999998E-03;  3.4999999E-01;1929;  0.0000000E+00;  0.0000000E+00;  0.0000000E+00;  1.0004658E+03;  1.0000000E-01;  3.8586563E+02;0;  0.0000000E+00;  0.0000000E+00;  0.0000000E+00;0; -3.9171543E-02;  4.0000000E+04;  0.0000000E+00;  0.0000000E+00;  4.0000000E+04;  0.0000000E+00;  4.0000000E+04; -1.9112008E-02;  0.0000000E+00; -2.0059535E-02;  9.8371699E+03;
  2.9999999E-02;  9.9999998E-03;  3.6000001E-01;1930;  0.0000000E+00;  0.0000000E+00;  0.0000000E+00;  1.0003547E+03;  1.0000000E-01;  2.9381885E+02;0;  0.0000000E+00;  0.0000000E+00;  0.0000000E+00;0; -2.9247925E-02;  4.0000000E+04;  0.0000000E+00;  0.0000000E+00;  4.0000000E+04;  0.0000000E+00;  4.0000000E+04; -1.2910397E-02;  0.0000000E+00; -1.6337527E-02;  8.4093301E+03;
  2.9999999E-02;  9.9999998E-03;  3.7000000E-01;1931;  0.0000000E+00;  0.0000000E+00;  0.0000000E+00;  1.0002623E+03;  1.0000000E-01;  2.1727780E+02;0;  0.0000000E+00;  0.0000000E+00;  0.0000000E+00;0; -2.1223370E-02;  4.0000000E+04;  0.0000000E+00;  0.0000000E+00;  4.0000000E+04;  0.0000000E+00;  4.0000000E+04; -8.3595850E-03;  0.0000000E+00; -1.2863786E-02;  6.9151294E+03;
  2.9999999E-02;  9.9999998E-03;  3.8000000E-01;1932;  0.0000000E+00;  0.0000000E+00;  0.0000000E+00;  1.0001873E+03;  1.0000000E-01;  1.5515611E+02;0;  0.0000000E+00;  0.0000000E+00;  0.0000000E+00;0; -1.4892617E-02;  4.0000000E+04;  0.0000000E+00;  0.0000000E+00;  4.0000000E+04;  0.0000000E+00;  4.0000000E+04; -5.1585748E-03;  0.0000000E+00; -9.7340420E-03;  5.4414072E+03;
  2.9999999E-02;  9.9999998E-03;  3.8999999E-01;1933;  0.0000000E+00;  0.0000000E+00;  0.0000000E+00;  1.0001286E+03;  1.0000000E-01;  1.0656489E+02;0;  0.0000000E+00;  0.0000000E+00;  0.0000000E+00;0; -1.0012126E-02;  4.0000000E+04;  0.0000000E+00;  0.0000000E+00;  4.0000000E+04;  0.0000000E+00;  4.0000000E+04; -3.0089614E-03;  0.0000000E+00; -7.0031644E-03;  4.0552849E+03;
  2.9999999E-02;  9.9999998E-03;  4.0000001E-01;1934;  0.0000000E+00;  0.0000000E+00;  0.0000000E+00;  1.0000808E+03;  1.0000000E-01;  6.6961067E+01;0;  0.0000000E+00;  0.0000000E+00;  0.0000000E+00;0; -6.3478583E-03;  4.0000000E+04;  0.0000000E+00;  0.0000000E+00;  4.0000000E+04;  0.0000000E+00;  4.0000000E+04; -1.6391871E-03;  0.0000000E+00; -4.7086710E-03;  2.8151384E+03;
  3.9999999E-02;  9.9999998E-03;  3.1000000E-01;1955;  0.0000000E+00;  0.0000000E+00;  0.0000000E+00;  1.0012242E+03;  1.0000000E-01;  1.0142923E+03;0;  0.0000000E+00;  0.0000000E+00;  0.0000000E+00;0; -1.0463379E-01;  4.0000000E+04;  0.0000000E+00;  0.0000000E+00;  4.0000000E+04;  0.0000000E+00;  4.0000000E+04; -6.9803998E-02;  0.0000000E+00; -3.4829788E-02;  1.2390691E+04;
  3.9999999E-02;  9.9999998E-03;  3.1999999E-01;1956;  0.0000000E+00;  0.0000000E+00;  0.0000000E+00;  1.0010339E+03;  1.0000000E-01;  8.5656836E+02;0;  0.0000000E+00;  0.0000000E+00;  0.0000000E+00;0; -8.6907700E-02;  4.0000000E+04;  0.0000000E+00;  0.0000000E+00;  4.0000000E+04;  0.0000000E+00;  4.0000000E+04; -5.4097455E-02;  0.0000000E+00; -3.2810245E-02;  1.2938457E+04;
  3.9999999E-02;  9.9999998E-03;  3.3000001E-01;1957;  0.0000000E+00;  0.0000000E+00;  0.0000000E+00;  1.0008484E+03;  1.0000000E-01;  7.0289368E+02;0;  0.0000000E+00;  0.0000000E+00;  0.0000000E+00;0; -7.0259541E-02;  4.0000000E+04;  0.0000000E+00;  0.0000000E+00;  4.0000000E+04;  0.0000000E+00;  4.0000000E+04; -4.0648293E-02;  0.0000000E+00; -2.9611250E-02;  1.2657729E+04;
  3.9999999E-02;  9.9999998E-03;  3.4000000E-01;1958;  0.0000000E+00;  0.0000000E+00;  0.0000000E+00;  1.0006802E+03;  1.0000000E-01;  5.6353961E+02;0;  0.0000000E+00;  0.0000000E+00;  0.0000000E+00;0; -5.5322662E-02;  4.0000000E+04;  0.0000000E+00;  0.0000000E+00;  4.0000000E+04;  0.0000000E+00;  4.0000000E+04; -2.9550102E-02;  0.0000000E+00; -2.5772562E-02;  1.1774768E+04;
  3.9999999E-02;  9.9999998E-03;  3.4999999E-01;1959;  0.0000000E+00;  0.0000000E+00;  0.0000000E+00;  1.0005302E+03;  1.0000000E-01;  4.3929620E+02;0;  0.0000000E+00;  0.0000000E+00;  0.0000000E+00;0; -4.2446509E-02;  4.0000000E+04;  0.0000000E+00;  0.0000000E+00;  4.0000000E+04;  0.0000000E+00;  4.0000000E+04; -2.0730402E-02;  0.0000000E+00; -2.1716107E-02;  1.0501320E+04;
  3.9999999E-02;  9.9999998E-03;  3.6000001E-01;1960;  0.0000000E+00;  0.0000000E+00;  0.0000000E+00;  1.0004023E+03;  1.0000000E-01;  3.3332391E+02;0;  0.0000000E+00;  0.0000000E+00;  0.0000000E+00;0; -3.1720538E-02;  4.0000000E+04;  0.0000000E+00;  0.0000000E+00;  4.0000000E+04;  0.0000000E+00;  4.0000000E+04; -1.3987808E-02;  0.0000000E+00; -1.7732730E-02;  9.0093516E+03;
  3.9999999E-02;  9.9999998E-03;  3.7000000E-01;1961;  0.0000000E+00;  0.0000000E+00;  0.0000000E+00;  1.0002983E+03;  1.0000000E-01;  2.4720288E+02;0;  0.0000000E+00;  0.0000000E+00;  0.0000000E+00;0; -2.3041369E-02;  4.0000000E+04;  0.0000000E+00;  0.0000000E+00;  4.0000000E+04;  0.0000000E+00;  4.0000000E+04; -9.0376968E-03;  0.0000000E+00; -1.4003673E-02;  7.4288135E+03;
  3.9999999E-02;  9.9999998E-03;  3.8000000E-01;1962;  0.0000000E+00;  0.0000000E+00;  0.0000000E+00;  1.0002120E+03;  1.0000000E-01;  1.7569873E+02;0;  0.0000000E+00;  0.0000000E+00;  0.0000000E+00;0; -1.6190810E-02;  4.0000000E+04;  0.0000000E+00;  0.0000000E+00;  4.0000000E+04;  0.0000000E+00;  4.0000000E+04; -5.5573233E-03;  0.0000000E+00; -1.0633486E-02;  5.8564360E+03;
  3.9999999E-02;  9.9999998E-03;  3.8999999E-01;1963;  0.0000000E+00;  0.0000000E+00;  0.0000000E+00;  1.0001442E+03;  1.0000000E-01;  1.1950279E+02;0;  0.0000000E+00;  0.0000000E+00;  0.0000000E+00;0; -1.0906497E-02;  4.0000000E+04;  0.0000000E+00;  0.0000000E+00;  4.0000000E+04;  0.0000000E+00;  4.0000000E+04; -3.2241563E-03;  0.0000000E+00; -7.6823412E-03;  4.3681548E+03;
  3.9999999E-02;  9.9999998E-03;  4.0000001E-01;1964;  0.0000000E+00;  0.0000000E+00;  0.0000000E+00;  1.0000945E+03;  1.0000000E-01;  7.8318771E+01;0;  0.0000000E+00;  0.0000000E+00;  0.0000000E+00;0; -6.9344440E-03;  4.0000000E+04;  0.0000000E+00;  0.0000000E+00;  4.0000000E+04;  0.0000000E+00;  4.0000000E+04; -1.7427616E-03;  0.0000000E+00; -5.1916824E-03;  3.0306506E+03;
  5.0000001E-02;  9.9999998E-03;  3.1000000E-01;1985;  0.0000000E+00;  0.0000000E+00;  0.0000000E+00;  1.0013710E+03;  1.0000000E-01;  1.1358691E+03;0;  0.0000000E+00;  0.0000000E+00;  0.0000000E+00;0; -1.1116493E-01;  4.0000000E+04;  0.0000000E+00;  0.0000000E+00;  4.0000000E+04;  0.0000000E+00;  4.0000000E+04; -7.4795000E-02;  0.0000000E+00; -3.6369927E-02;  1.2701748E+04;
  5.0000001E-02;  9.9999998E-03;  3.1999999E-01;1986;  0.0000000E+00;  0.0000000E+00;  0.0000000E+00;  1.0011561E+03;  1.0000000E-01;  9.5780005E+02;0;  0.0000000E+00;  0.0000000E+00;  0.0000000E+00;0; -9.2418879E-02;  4.0000000E+04;  0.0000000E+00;  0.0000000E+00;  4.0000000E+04;  0.0000000E+00;  4.0000000E+04; -5.8061156E-02;  0.0000000E+00; -3.4357723E-02;  1.3393100E+04;
  5.0000001E-02;  9.9999998E-03;  3.3000001E-01;1987;  0.0000000E+00;  0.0000000E+00;  0.0000000E+00;  1.0009474E+03;  1.0000000E-01;  7.8486670E+02;0;  0.0000000E+00;  0.0000000E+00;  0.0000000E+00;0; -7.4763231E-02;  4.0000000E+04;  0.0000000E+00;  0.0000000E+00;  4.0000000E+04;  0.0000000E+00;  4.0000000E+04; -4.3681644E-02;  0.0000000E+00; -3.1081585E-02;  1.3206142E+04;
  5.0000001E-02;  9.9999998E-03;  3.4000000E-01;1988;  0.0000000E+00;  0.0000000E+00;  0.0000000E+00;  1.0007574E+03;  1.0000000E-01;  6.2743903E+02;0;  0.0000000E+00;  0.0000000E+00;  0.0000000E+00;0; -5.8891013E-02;  4.0000000E+04;  0.0000000E+00;  0.0000000E+00;  4.0000000E+04;  0.0000000E+00;  4.0000000E+04; -3.1780105E-02;  0.0000000E+00; -2.7110910E-02;  1.2363463E+04;
  5.0000001E-02;  9.9999998E-03;  3.4999999E-01;1989;  0.0000000E+00;  0.0000000E+00;  0.0000000E+00;  1.0005892E+03;  1.0000000E-01;  4.8808496E+02;0;  0.0000000E+00;  0.0000000E+00;  0.0000000E+00;0; -4.5191534E-02;  4.0000000E+04;  0.0000000E+00;  0.0000000E+00;  4.0000000E+04;  0.0000000E+00;  4.0000000E+04; -2.2299116E-02;  0.0000000E+00; -2.2892417E-02;  1.1083301E+04;
  5.0000001E-02;  9.9999998E-03;  3.6000001E-01;1990;  0.0000000E+00;  0.0000000E+00;  0.0000000E+00;  1.0004465E+03;  1.0000000E-01;  3.6986609E+02;0;  0.0000000E+00;  0.0000000E+00;  0.0000000E+00;0; -3.3772845E-02;  4.0000000E+04;  0.0000000E+00;  0.0000000E+00;  4.0000000E+04;  0.0000000E+00;  4.0000000E+04; -1.5038164E-02;  0.0000000E+00; -1.8734680E-02;  9.5479619E+03;
  5.0000001E-02;  9.9999998E-03;  3.7000000E-01;1991;  0.0000000E+00;  0.0000000E+00;  0.0000000E+00;  1.0003279E+03;  1.0000000E-01;  2.7169601E+02;0;  0.0000000E+00;  0.0000000E+00;  0.0000000E+00;0; -2.4532532E-02;  4.0000000E+04;  0.0000000E+00;  0.0000000E+00;  4.0000000E+04;  0.0000000E+00;  4.0000000E+04; -9.7018294E-03;  0.0000000E+00; -1.4830703E-02;  7.8980503E+03;
  5.0000001E-02;  9.9999998E-03;  3.8000000E-01;1992;  0.0000000E+00;  0.0000000E+00;  0.0000000E+00;  1.0002343E+03;  1.0000000E-01;  1.9416734E+02;0;  0.0000000E+00;  0.0000000E+00;  0.0000000E+00;0; -1.7241562E-02;  4.0000000E+04;  0.0000000E+00;  0.0000000E+00;  4.0000000E+04;  0.0000000E+00;  4.0000000E+04; -5.9490656E-03;  0.0000000E+00; -1.1292496E-02;  6.2401089E+03;
  5.0000001E-02;  9.9999998E-03;  3.8999999E-01;1993;  0.0000000E+00;  0.0000000E+00;  0.0000000E+00;  1.0001599E+03;  1.0000000E-01;  1.3244070E+02;0;  0.0000000E+00;  0.0000000E+00;  0.0000000E+00;0; -1.1620577E-02;  4.0000000E+04;  0.0000000E+00;  0.0000000E+00;  4.0000000E+04;  0.0000000E+00;  4.0000000E+04; -3.4354990E-03;  0.0000000E+00; -8.1850784E-03;  4.6592480E+03;
  5.0000001E-02;  9.9999998E-03;  4.0000001E-01;1994;  0.0000000E+00;  0.0000000E+00;  0.0000000E+00;  1.0001016E+03;  1.0000000E-01;  8.4145767E+01;0;  0.0000000E+00;  0.0000000E+00;  0.0000000E+00;0; -7.3972717E-03;  4.0000000E+04;  0.0000000E+00;  0.0000000E+00;  4.0000000E+04;  0.0000000E+00;  4.0000000E+04; -1.8434857E-03;  0.0000000E+00; -5.5537857E-03;  3.2311621E+03;
  5.9999999E-02;  9.9999998E-03;  3.1000000E-01;2015;  0.0000000E+00;  0.0000000E+00;  0.0000000E+00;  1.0015051E+03;  1.0000000E-01;  1.2469771E+03;0;  0.0000000E+00;  0.0000000E+00;  0.0000000E+00;0; -1.1665732E-01;  4.0000000E+04;  0.0000000E+00;  0.0000000E+00;  4.0000000E+04;  0.0000000E+00;  4.0000000E+04; -7.9629399E-02;  0.0000000E+00; -3.7027922E-02;  1.2882210E+04;
  5.9999999E-02;  9.9999998E-03;  3.1999999E-01;2016;  0.0000000E+00;  0.0000000E+00;  0.0000000E+00;  1.0012678E+03;  1.0000000E-01;  1.0503407E+03;0;  0.0000000E+00;  0.0000000E+00;  0.0000000E+00;0; -9.7043596E-02;  4.0000000E+04;  0.0000000E+00;  0.0000000E+00;  4.0000000E+04;  0.0000000E+00;  4.0000000E+04; -6.1970737E-02;  0.0000000E+00; -3.5072859E-02;  1.3732660E+04;
  5.9999999E-02;  9.9999998E-03;  3.3000001E-01;2017;  0.0000000E+00;  0.0000000E+00;  0.0000000E+00;  1.0010379E+03;  1.0000000E-01;  8.5992627E+02;0;  0.0000000E+00;  0.0000000E+00;  0.0000000E+00;0; -7.8517295E-02;  4.0000000E+04;  0.0000000E+00;  0.0000000E+00;  4.0000000E+04;  0.0000000E+00;  4.0000000E+04; -4.6720039E-02;  0.0000000E+00; -3.1797256E-02;  1.3655943E+04;
  5.9999999E-02;  9.9999998E-03;  3.4000000E-01;2018;  0.0000000E+00;  0.0000000E+00;  0.0000000E+00;  1.0008273E+03;  1.0000000E-01;  6.8541272E+02;0;  0.0000000E+00;  0.0000000E+00;  0.0000000E+00;0; -6.1831765E-02;  4.0000000E+04;  0.0000000E+00;  0.0000000E+00;  4.0000000E+04;  0.0000000E+00;  4.0000000E+04; -3.4043591E-02;  0.0000000E+00; -2.7788173E-02;  1.2871501E+04;
  5.9999999E-02;  9.9999998E-03;  3.4999999E-01;2019;  0.0000000E+00;  0.0000000E+00;  0.0000000E+00;  1.0006407E+03;  1.0000000E-01;  5.3075043E+02;0;  0.0000000E+00;  0.0000000E+00;  0.0000000E+00;0; -4.7416966E-02;  4.0000000E+04;  0.0000000E+00;  0.0000000E+00;  4.0000000E+04;  0.0000000E+00;  4.0000000E+04; -2.3910102E-02;  0.0000000E+00; -2.3506865E-02;  1.1602897E+04;
  5.9999999E-02;  9.9999998E-03;  3.6000001E-01;2020;  0.0000000E+00;  0.0000000E+00;  0.0000000E+00;  1.0004852E+03;  1.0000000E-01;  4.0196393E+02;0;  0.0000000E+00;  0.0000000E+00;  0.0000000E+00;0; -3.5401370E-02;  4.0000000E+04;  0.0000000E+00;  0.0000000E+00;  4.0000000E+04;  0.0000000E+00;  4.0000000E+04; -1.6128739E-02;  0.0000000E+00; -1.9272631E-02;  1.0041400E+04;
  5.9999999E-02;  9.9999998E-03;  3.7000000E-01;2021;  0.0000000E+00;  0.0000000E+00;  0.0000000E+00;  1.0003551E+03;  1.0000000E-01;  2.9421390E+02;0;  0.0000000E+00;  0.0000000E+00;  0.0000000E+00;0; -2.5685381E-02;  4.0000000E+04;  0.0000000E+00;  0.0000000E+00;  4.0000000E+04;  0.0000000E+00;  4.0000000E+04; -1.0399687E-02;  0.0000000E+00; -1.5285695E-02;  8.3373477E+03;
  5.9999999E-02;  9.9999998E-03;  3.8000000E-01;2022;  0.0000000E+00;  0.0000000E+00;  0.0000000E+00;  1.0002527E+03;  1.0000000E-01;  2.0937680E+02;0;  0.0000000E+00;  0.0000000E+00;  0.0000000E+00;0; -1.8030196E-02;  4.0000000E+04;  0.0000000E+00;  0.0000000E+00;  4.0000000E+04;  0.0000000E+00;  4.0000000E+04; -6.3671549E-03;  0.0000000E+00; -1.1663042E-02;  6.6063208E+03;
  5.9999999E-02;  9.9999998E-03;  3.8999999E-01;2023;  0.0000000E+00;  0.0000000E+00;  0.0000000E+00;  1.0001716E+03;  1.0000000E-01;  1.4221820E+02;0;  0.0000000E+00;  0.0000000E+00;  0.0000000E+00;0; -1.2139670E-02;  4.0000000E+04;  0.0000000E+00;  0.0000000E+00;  4.0000000E+04;  0.0000000E+00;  4.0000000E+04; -3.6661895E-03;  0.0000000E+00; -8.4734801E-03;  4.9420781E+03;
  5.9999999E-02;  9.9999998E-03;  4.0000001E-01;2024;  0.0000000E+00;  0.0000000E+00;  0.0000000E+00;  1.0001086E+03;  1.0000000E-01;  8.9972763E+01;0;  0.0000000E+00;  0.0000000E+00;  0.0000000E+00;0; -7.7230847E-03;  4.0000000E+04;  0.0000000E+00;  0.0000000E+00;  4.0000000E+04;  0.0000000E+00;  4.0000000E+04; -1.9573364E-03;  0.0000000E+00; -5.7657482E-03;  3.4291392E+03;
  7.0000000E-02;  9.9999998E-03;  3.1000000E-01;2045;  0.0000000E+00;  0.0000000E+00;  0.0000000E+00;  1.0016264E+03;  1.0000000E-01;  1.3474187E+03;0;  0.0000000E+00;  0.0000000E+00;  0.0000000E+00;0; -1.2136681E-01;  4.0000000E+04;  0.0000000E+00;  0.0000000E+00;  4.0000000E+04;  0.0000000E+00;  4.0000000E+04; -8.4613144E-02;  0.0000000E+00; -3.6753666E-02;  1.2959544E+04;
  7.0000000E-02;  9.9999998E-03;  3.1999999E-01;2046;  0.0000000E+00;  0.0000000E+00;  0.0000000E+00;  1.0013683E+03;  1.0000000E-01;  1.1335975E+03;0;  0.0000000E+00;  0.0000000E+00;  0.0000000E+00;0; -1.0098862E-01;  4.0000000E+04;  0.0000000E+00;  0.0000000E+00;  4.0000000E+04;  0.0000000E+00;  4.0000000E+04; -6.6090390E-02;  0.0000000E+00; -3.4898229E-02;  1.3979093E+04;
  7.0000000E-02;  9.9999998E-03;  3.3000001E-01;2047;  0.0000000E+00;  0.0000000E+00;  0.0000000E+00;  1.0011181E+03;  1.0000000E-01;  9.2629480E+02;0;  0.0000000E+00;  0.0000000E+00;  0.0000000E+00;0; -8.1682041E-02;  4.0000000E+04;  0.0000000E+00;  0.0000000E+00;  4.0000000E+04;  0.0000000E+00;  4.0000000E+04; -4.9983427E-02;  0.0000000E+00; -3.1698618E-02;  1.4024846E+04;
  7.0000000E-02;  9.9999998E-03;  3.4000000E-01;2048;  0.0000000E+00;  0.0000000E+00;  0.0000000E+00;  1.0008880E+03;  1.0000000E-01;  7.3568292E+02;0;  0.0000000E+00;  0.0000000E+00;  0.0000000E+00;0; -6.4262971E-02;  4.0000000E+04;  0.0000000E+00;  0.0000000E+00;  4.0000000E+04;  0.0000000E+00;  4.0000000E+04; -3.6516532E-02;  0.0000000E+00; -2.7746435E-02;  1.3313032E+04;
  7.0000000E-02;  9.9999998E-03;  3.4999999E-01;2049;  0.0000000E+00;  0.0000000E+00;  0.0000000E+00;  1.0006863E+03;  1.0000000E-01;  5.6857654E+02;0;  0.0000000E+00;  0.0000000E+00;  0.0000000E+00;0; -4.9204927E-02;  4.0000000E+04;  0.0000000E+00;  0.0000000E+00;  4.0000000E+04;  0.0000000E+00;  4.0000000E+04; -2.5698464E-02;  0.0000000E+00; -2.3506463E-02;  1.2071412E+04;
  7.0000000E-02;  9.9999998E-03;  3.6000001E-01;2050;  0.0000000E+00;  0.0000000E+00;  0.0000000E+00;  1.0005168E+03;  1.0000000E-01;  4.2823480E+02;0;  0.0000000E+00;  0.0000000E+00;  0.0000000E+00;0; -3.6659457E-02;  4.0000000E+04;  0.0000000E+00;  0.0000000E+00;  4.0000000E+04;  0.0000000E+00;  4.0000000E+04; -1.7358959E-02;  0.0000000E+00; -1.9300496E-02;  1.0499207E+04;
  7.0000000E-02;  9.9999998E-03;  3.7000000E-01;2051;  0.0000000E+00;  0.0000000E+00;  0.0000000E+00;  1.0003774E+03;  1.0000000E-01;  3.1268253E+02;0;  0.0000000E+00;  0.0000000E+00;  0.0000000E+00;0; -2.6531309E-02;  4.0000000E+04;  0.0000000E+00;  0.0000000E+00;  4.0000000E+04;  0.0000000E+00;  4.0000000E+04; -1.1200823E-02;  0.0000000E+00; -1.5330486E-02;  8.7555430E+03;
  7.0000000E-02;  9.9999998E-03;  3.8000000E-01;2052;  0.0000000E+00;  0.0000000E+00;  0.0000000E+00;  1.0002666E+03;  1.0000000E-01;  2.2083327E+02;0;  0.0000000E+00;  0.0000000E+00;  0.0000000E+00;0; -1.8572295E-02;  4.0000000E+04;  0.0000000E+00;  0.0000000E+00;  4.0000000E+04;  0.0000000E+00;  4.0000000E+04; -6.8574087E-03;  0.0000000E+00; -1.1714886E-02;  6.9642388E+03;
  7.0000000E-02;  9.9999998E-03;  3.8999999E-01;2053;  0.0000000E+00;  0.0000000E+00;  0.0000000E+00;  1.0001813E+03;  1.0000000E-01;  1.5021797E+02;0;  0.0000000E+00;  0.0000000E+00;  0.0000000E+00;0; -1.2469346E-02;  4.0000000E+04;  0.0000000E+00;  0.0000000E+00;  4.0000000E+04;  0.0000000E+00;  4.0000000E+04; -3.9449651E-03;  0.0000000E+00; -8.5243806E-03;  5.2266284E+03;
  7.0000000E-02;  9.9999998E-03;  4.0000001E-01;2054;  0.0000000E+00;  0.0000000E+00;  0.0000000E+00;  1.0001147E+03;  1.0000000E-01;  9.5108421E+01;0;  0.0000000E+00;  0.0000000E+00;  0.0000000E+00;0; -7.9120388E-03;  4.0000000E+04;  0.0000000E+00;  0.0000000E+00;  4.0000000E+04;  0.0000000E+00;  4.0000000E+04; -2.1018961E-03;  0.0000000E+00; -5.8101430E-03;  3.6351748E+03;
  7.9999998E-02;  9.9999998E-03;  3.1000000E-01;2075;  0.0000000E+00;  0.0000000E+00;  0.0000000E+00;  1.0017368E+03;  1.0000000E-01;  1.4388729E+03;0;  0.0000000E+00;  0.0000000E+00;  0.0000000E+00;0; -1.2565340E-01;  4.0000000E+04;  0.0000000E+00;  0.0000000E+00;  4.0000000E+04;  0.0000000E+00;  4.0000000E+04; -9.0113327E-02;  0.0000000E+00; -3.5540078E-02;  1.2987974E+04;
  7.9999998E-02;  9.9999998E-03;  3.1999999E-01;2076;  0.0000000E+00;  0.0000000E+00;  0.0000000E+00;  1.0014585E+03;  1.0000000E-01;  1.2083608E+03;0;  0.0000000E+00;  0.0000000E+00;  0.0000000E+00;0; -1.0455371E-01;  4.0000000E+04;  0.0000000E+00;  0.0000000E+00;  4.0000000E+04;  0.0000000E+00;  4.0000000E+04; -7.0734844E-02;  0.0000000E+00; -3.3818867E-02;  1.4152503E+04;
  7.9999998E-02;  9.9999998E-03;  3.3000001E-01;2077;  0.0000000E+00;  0.0000000E+00;  0.0000000E+00;  1.0011882E+03;  1.0000000E-01;  9.8446600E+02;0;  0.0000000E+00;  0.0000000E+00;  0.0000000E+00;0; -8.4500000E-02;  4.0000000E+04;  0.0000000E+00;  0.0000000E+00;  4.0000000E+04;  0.0000000E+00;  4.0000000E+04; -5.3733211E-02;  0.0000000E+00; -3.0766785E-02;  1.4316059E+04;
  7.9999998E-02;  9.9999998E-03;  3.4000000E-01;2078;  0.0000000E+00;  0.0000000E+00;  0.0000000E+00;  1.0009411E+03;  1.0000000E-01;  7.7973102E+02;0;  0.0000000E+00;  0.0000000E+00;  0.0000000E+00;0; -6.6374548E-02;  4.0000000E+04;  0.0000000E+00;  0.0000000E+00;  4.0000000E+04;  0.0000000E+00;  4.0000000E+04; -3.9408699E-02;  0.0000000E+00; -2.6965847E-02;  1.3685118E+04;
  7.9999998E-02;  9.9999998E-03;  3.4999999E-01;2079;  0.0000000E+00;  0.0000000E+00;  0.0000000E+00;  1.0007241E+03;  1.0000000E-01;  5.9988428E+02;0;  0.0000000E+00;  0.0000000E+00;  0.0000000E+00;0; -5.0698809E-02;  4.0000000E+04;  0.0000000E+00;  0.0000000E+00;  4.0000000E+04;  0.0000000E+00;  4.0000000E+04; -2.7826514E-02;  0.0000000E+00; -2.2872293E-02;  1.2485194E+04;
  7.9999998E-02;  9.9999998E-03;  3.6000001E-01;2080;  0.0000000E+00;  0.0000000E+00;  0.0000000E+00;  1.0005430E+03;  1.0000000E-01;  4.4986383E+02;0;  0.0000000E+00;  0.0000000E+00;  0.0000000E+00;0; -3.7650093E-02;  4.0000000E+04;  0.0000000E+00;  0.0000000E+00;  4.0000000E+04;  0.0000000E+00;  4.0000000E+04; -1.8848911E-02;  0.0000000E+00; -1.8801183E-02;  1.0918822E+04;
  7.9999998E-02;  9.9999998E-03;  3.7000000E-01;2081;  0.0000000E+00;  0.0000000E+00;  0.0000000E+00;  1.0003953E+03;  1.0000000E-01;  3.2749692E+02;0;  0.0000000E+00;  0.0000000E+00;  0.0000000E+00;0; -2.7139584E-02;  4.0000000E+04;  0.0000000E+00;  0.0000000E+00;  4.0000000E+04;  0.0000000E+00;  4.0000000E+04; -1.2189282E-02;  0.0000000E+00; -1.4950301E-02;  9.1515684E+03;
  7.9999998E-02;  9.9999998E-03;  3.8000000E-01;2082;  0.0000000E+00;  0.0000000E+00;  0.0000000E+00;  1.0002770E+03;  1.0000000E-01;  2.2952437E+02;0;  0.0000000E+00;  0.0000000E+00;  0.0000000E+00;0; -1.8911248E-02;  4.0000000E+04;  0.0000000E+00;  0.0000000E+00;  4.0000000E+04;  0.0000000E+00;  4.0000000E+04; -7.4749785E-03;  0.0000000E+00; -1.1436270E-02;  7.3142725E+03;
  7.9999998E-02;  9.9999998E-03;  3.8999999E-01;2083;  0.0000000E+00;  0.0000000E+00;  0.0000000E+00;  1.0001859E+03;  1.0000000E-01;  1.5406972E+02;0;  0.0000000E+00;  0.0000000E+00;  0.0000000E+00;0; -1.2634642E-02;  4.0000000E+04;  0.0000000E+00;  0.0000000E+00;  4.0000000E+04;  0.0000000E+00;  4.0000000E+04; -4.3051867E-03;  0.0000000E+00; -8.3294557E-03;  5.5150264E+03;
  7.9999998E-02;  9.9999998E-03;  4.0000001E-01;2084;  0.0000000E+00;  0.0000000E+00;  0.0000000E+00;  1.0001182E+03;  1.0000000E-01;  9.7873772E+01;0;  0.0000000E+00;  0.0000000E+00;  0.0000000E+00;0; -7.9773720E-03;  4.0000000E+04;  0.0000000E+00;  0.0000000E+00;  4.0000000E+04;  0.0000000E+00;  4.0000000E+04; -2.2956096E-03;  0.0000000E+00; -5.6817629E-03;  3.8533447E+03;
  9.0000004E-02;  9.9999998E-03;  3.1000000E-01;2105;  0.0000000E+00;  0.0000000E+00;  0.0000000E+00;  1.0018389E+03;  1.0000000E-01;  1.5235125E+03;0;  0.0000000E+00;  0.0000000E+00;  0.0000000E+00;0; -1.2993538E-01;  4.0000000E+04;  0.0000000E+00;  0.0000000E+00;  4.0000000E+04;  0.0000000E+00;  4.0000000E+04; -9.6508704E-02;  0.0000000E+00; -3.3426672E-02;  1.3411910E+04;
  9.0000004E-02;  9.9999998E-03;  3.1999999E-01;2106;  0.0000000E+00;  0.0000000E+00;  0.0000000E+00;  1.0015427E+03;  1.0000000E-01;  1.2780873E+03;0;  0.0000000E+00;  0.0000000E+00;  0.0000000E+00;0; -1.0809924E-01;  4.0000000E+04;  0.0000000E+00;  0.0000000E+00;  4.0000000E+04;  0.0000000E+00;  4.0000000E+04; -7.6232113E-02;  0.0000000E+00; -3.1867128E-02;  1.4494269E+04;
  9.0000004E-02;  9.9999998E-03;  3.3000001E-01;2107;  0.0000000E+00;  0.0000000E+00;  0.0000000E+00;  1.0012536E+03;  1.0000000E-01;  1.0385879E+03;0;  0.0000000E+00;  0.0000000E+00;  0.0000000E+00;0; -8.7273978E-02;  4.0000000E+04;  0.0000000E+00;  0.0000000E+00;  4.0000000E+04;  0.0000000E+00;  4.0000000E+04; -5.8244631E-02;  0.0000000E+00; -2.9029345E-02;  1.4638419E+04;
  9.0000004E-02;  9.9999998E-03;  3.4000000E-01;2108;  0.0000000E+00;  0.0000000E+00;  0.0000000E+00;  1.0009884E+03;  1.0000000E-01;  8.1884106E+02;0;  0.0000000E+00;  0.0000000E+00;  0.0000000E+00;0; -6.8414032E-02;  4.0000000E+04;  0.0000000E+00;  0.0000000E+00;  4.0000000E+04;  0.0000000E+00;  4.0000000E+04; -4.2943820E-02;  0.0000000E+00; -2.5470216E-02;  1.4023575E+04;
  9.0000004E-02;  9.9999998E-03;  3.4999999E-01;2109;  0.0000000E+00;  0.0000000E+00;  0.0000000E+00;  1.0007577E+03;  1.0000000E-01;  6.2773535E+02;0;  0.0000000E+00;  0.0000000E+00;  0.0000000E+00;0; -5.2092414E-02;  4.0000000E+04;  0.0000000E+00;  0.0000000E+00;  4.0000000E+04;  0.0000000E+00;  4.0000000E+04; -3.0468505E-02;  0.0000000E+00; -2.1623909E-02;  1.2847203E+04;
  9.0000004E-02;  9.9999998E-03;  3.6000001E-01;2110;  0.0000000E+00;  0.0000000E+00;  0.0000000E+00;  1.0005646E+03;  1.0000000E-01;  4.6773987E+02;0;  0.0000000E+00;  0.0000000E+00;  0.0000000E+00;0; -3.8517356E-02;  4.0000000E+04;  0.0000000E+00;  0.0000000E+00;  4.0000000E+04;  0.0000000E+00;  4.0000000E+04; -2.0727687E-02;  0.0000000E+00; -1.7789671E-02;  1.1292025E+04;
  9.0000004E-02;  9.9999998E-03;  3.7000000E-01;2111;  0.0000000E+00;  0.0000000E+00;  0.0000000E+00;  1.0004072E+03;  1.0000000E-01;  3.3737317E+02;0;  0.0000000E+00;  0.0000000E+00;  0.0000000E+00;0; -2.7611792E-02;  4.0000000E+04;  0.0000000E+00;  0.0000000E+00;  4.0000000E+04;  0.0000000E+00;  4.0000000E+04; -1.3455842E-02;  0.0000000E+00; -1.4155950E-02;  9.5150459E+03;
  9.0000004E-02;  9.9999998E-03;  3.8000000E-01;2112;  0.0000000E+00;  0.0000000E+00;  0.0000000E+00;  1.0002836E+03;  1.0000000E-01;  2.3495631E+02;0;  0.0000000E+00;  0.0000000E+00;  0.0000000E+00;0; -1.9114621E-02;  4.0000000E+04;  0.0000000E+00;  0.0000000E+00;  4.0000000E+04;  0.0000000E+00;  4.0000000E+04; -8.2798954E-03;  0.0000000E+00; -1.0834726E-02;  7.6470581E+03;
  9.0000004E-02;  9.9999998E-03;  3.8999999E-01;2113;  0.0000000E+00;  0.0000000E+00;  0.0000000E+00;  1.0001886E+03;  1.0000000E-01;  1.5624249E+02;0;  0.0000000E+00;  0.0000000E+00;  0.0000000E+00;0; -1.2677955E-02;  4.0000000E+04;  0.0000000E+00;  0.0000000E+00;  4.0000000E+04;  0.0000000E+00;  4.0000000E+04; -4.7835810E-03;  0.0000000E+00; -7.8943735E-03;  5.8002891E+03;
  9.0000004E-02;  9.9999998E-03;  4.0000001E-01;2114;  0.0000000E+00;  0.0000000E+00;  0.0000000E+00;  1.0001188E+03;  1.0000000E-01;  9.8367592E+01;0;  0.0000000E+00;  0.0000000E+00;  0.0000000E+00;0; -7.9441480E-03;  4.0000000E+04;  0.0000000E+00;  0.0000000E+00;  4.0000000E+04;  0.0000000E+00;  4.0000000E+04; -2.5585503E-03;  0.0000000E+00; -5.3855982E-03;  4.0799783E+03;
  1.0000000E-01;  9.9999998E-03;  3.1000000E-01;2135;  0.0000000E+00;  0.0000000E+00;  0.0000000E+00;  1.0019385E+03;  1.0000000E-01;  1.6060780E+03;0;  0.0000000E+00;  0.0000000E+00;  0.0000000E+00;0; -1.3465039E-01;  4.0000000E+04;  0.0000000E+00;  0.0000000E+00;  4.0000000E+04;  0.0000000E+00;  4.0000000E+04; -1.0414772E-01;  0.0000000E+00; -3.0502670E-02;  1.6052866E+04;
  1.0000000E-01;  9.9999998E-03;  3.1999999E-01;2136;  0.0000000E+00;  0.0000000E+00;  0.0000000E+00;  1.0016219E+03;  1.0000000E-01;  1.3436656E+03;0;  0.0000000E+00;  0.0000000E+00;  0.0000000E+00;0; -1.1201958E-01;  4.0000000E+04;  0.0000000E+00;  0.0000000E+00;  4.0000000E+04;  0.0000000E+00;  4.0000000E+04; -8.2892455E-02;  0.0000000E+00; -2.9127127E-02;  1.6217563E+04;
  1.0000000E-01;  9.9999998E-03;  3.3000001E-01;2137;  0.0000000E+00;  0.0000000E+00;  0.0000000E+00;  1.0013152E+03;  1.0000000E-01;  1.0896482E+03;0;  0.0000000E+00;  0.0000000E+00;  0.0000000E+00;0; -9.0351872E-02;  4.0000000E+04;  0.0000000E+00;  0.0000000E+00;  4.0000000E+04;  0.0000000E+00;  4.0000000E+04; -6.3786790E-02;  0.0000000E+00; -2.6565081E-02;  1.5695760E+04;
  1.0000000E-01;  9.9999998E-03;  3.4000000E-01;2138;  0.0000000E+00;  0.0000000E+00;  0.0000000E+00;  1.0010341E+03;  1.0000000E-01;  8.5666711E+02;0;  0.0000000E+00;  0.0000000E+00;  0.0000000E+00;0; -7.0675448E-02;  4.0000000E+04;  0.0000000E+00;  0.0000000E+00;  4.0000000E+04;  0.0000000E+00;  4.0000000E+04; -4.7345225E-02;  0.0000000E+00; -2.3330221E-02;  1.4677535E+04;
  1.0000000E-01;  9.9999998E-03;  3.4999999E-01;2139;  0.0000000E+00;  0.0000000E+00;  0.0000000E+00;  1.0007897E+03;  1.0000000E-01;  6.5430249E+02;0;  0.0000000E+00;  0.0000000E+00;  0.0000000E+00;0; -5.3622454E-02;  4.0000000E+04;  0.0000000E+00;  0.0000000E+00;  4.0000000E+04;  0.0000000E+00;  4.0000000E+04; -3.3800907E-02;  0.0000000E+00; -1.9821545E-02;  1.3296931E+04;
  1.0000000E-01;  9.9999998E-03;  3.6000001E-01;2140;  0.0000000E+00;  0.0000000E+00;  0.0000000E+00;  1.0005834E+03;  1.0000000E-01;  4.8334436E+02;0;  0.0000000E+00;  0.0000000E+00;  0.0000000E+00;0; -3.9442599E-02;  4.0000000E+04;  0.0000000E+00;  0.0000000E+00;  4.0000000E+04;  0.0000000E+00;  4.0000000E+04; -2.3127727E-02;  0.0000000E+00; -1.6314870E-02;  1.1653134E+04;
  1.0000000E-01;  9.9999998E-03;  3.7000000E-01;2141;  0.0000000E+00;  0.0000000E+00;  0.0000000E+00;  1.0004185E+03;  1.0000000E-01;  3.4675562E+02;0;  0.0000000E+00;  0.0000000E+00;  0.0000000E+00;0; -2.8079748E-02;  4.0000000E+04;  0.0000000E+00;  0.0000000E+00;  4.0000000E+04;  0.0000000E+00;  4.0000000E+04; -1.5094446E-02;  0.0000000E+00; -1.2985301E-02;  9.8380254E+03;
  1.0000000E-01;  9.9999998E-03;  3.8000000E-01;2142;  0.0000000E+00;  0.0000000E+00;  0.0000000E+00;  1.0002875E+03;  1.0000000E-01;  2.3821548E+02;0;  0.0000000E+00;  0.0000000E+00;  0.0000000E+00;0; -1.9273089E-02;  4.0000000E+04;  0.0000000E+00;  0.0000000E+00;  4.0000000E+04;  0.0000000E+00;  4.0000000E+04; -9.3348166E-03;  0.0000000E+00; -9.9382726E-03;  7.9449761E+03;
  1.0000000E-01;  9.9999998E-03;  3.8999999E-01;2143;  0.0000000E+00;  0.0000000E+00;  0.0000000E+00;  1.0001900E+03;  1.0000000E-01;  1.5742764E+02;0;  0.0000000E+00;  0.0000000E+00;  0.0000000E+00;0; -1.2657985E-02;  4.0000000E+04;  0.0000000E+00;  0.0000000E+00;  4.0000000E+04;  0.0000000E+00;  4.0000000E+04; -5.4189987E-03;  0.0000000E+00; -7.2389869E-03;  6.0695322E+03;
  1.0000000E-01;  9.9999998E-03;  4.0000001E-01;2144;  0.0000000E+00;  0.0000000E+00;  0.0000000E+00;  1.0001158E+03;  1.0000000E-01;  9.5997284E+01;0;  0.0000000E+00;  0.0000000E+00;  0.0000000E+00;0; -7.8480663E-03;  4.0000000E+04;  0.0000000E+00;  0.0000000E+00;  4.0000000E+04;  0.0000000E+00;  4.0000000E+04; -2.9124964E-03;  0.0000000E+00; -4.9355701E-03;  4.3112466E+03;
  1.1000000E-01;  9.9999998E-03;  3.1000000E-01;2165;  0.0000000E+00;  0.0000000E+00;  0.0000000E+00;  1.0020414E+03;  1.0000000E-01;  1.6912114E+03;0;  0.0000000E+00;  0.0000000E+00;  0.0000000E+00;0; -1.4022224E-01;  4.0000000E+04;  0.0000000E+00;  0.0000000E+00;  4.0000000E+04;  0.0000000E+00;  4.0000000E+04; -1.1331299E-01;  0.0000000E+00; -2.6909243E-02;  2.4224035E+04;
  1.1000000E-01;  9.9999998E-03;  3.1999999E-01;2166;  0.0000000E+00;  0.0000000E+00;  0.0000000E+00;  1.0017057E+03;  1.0000000E-01;  1.4131946E+03;0;  0.0000000E+00;  0.0000000E+00;  0.0000000E+00;0; -1.1672274E-01;  4.0000000E+04;  0.0000000E+00;  0.0000000E+00;  4.0000000E+04;  0.0000000E+00;  4.0000000E+04; -9.0985380E-02;  0.0000000E+00; -2.5737360E-02;  2.2253629E+04;
  1.1000000E-01;  9.9999998E-03;  3.3000001E-01;2167;  0.0000000E+00;  0.0000000E+00;  0.0000000E+00;  1.0013802E+03;  1.0000000E-01;  1.1434739E+03;0;  0.0000000E+00;  0.0000000E+00;  0.0000000E+00;0; -9.4109982E-02;  4.0000000E+04;  0.0000000E+00;  0.0000000E+00;  4.0000000E+04;  0.0000000E+00;  4.0000000E+04; -7.0605814E-02;  0.0000000E+00; -2.3504170E-02;  1.9646260E+04;
  1.1000000E-01;  9.9999998E-03;  3.4000000E-01;2168;  0.0000000E+00;  0.0000000E+00;  0.0000000E+00;  1.0010822E+03;  1.0000000E-01;  8.9656726E+02;0;  0.0000000E+00;  0.0000000E+00;  0.0000000E+00;0; -7.3488720E-02;  4.0000000E+04;  0.0000000E+00;  0.0000000E+00;  4.0000000E+04;  0.0000000E+00;  4.0000000E+04; -5.2826311E-02;  0.0000000E+00; -2.0662406E-02;  1.6961791E+04;
  1.1000000E-01;  9.9999998E-03;  3.4999999E-01;2169;  0.0000000E+00;  0.0000000E+00;  0.0000000E+00;  1.0008218E+03;  1.0000000E-01;  6.8086963E+02;0;  0.0000000E+00;  0.0000000E+00;  0.0000000E+00;0; -5.5563439E-02;  4.0000000E+04;  0.0000000E+00;  0.0000000E+00;  4.0000000E+04;  0.0000000E+00;  4.0000000E+04; -3.7998285E-02;  0.0000000E+00; -1.7565154E-02;  1.4476749E+04;
  1.1000000E-01;  9.9999998E-03;  3.6000001E-01;2170;  0.0000000E+00;  0.0000000E+00;  0.0000000E+00;  1.0006047E+03;  1.0000000E-01;  5.0092410E+02;0;  0.0000000E+00;  0.0000000E+00;  0.0000000E+00;0; -4.0642336E-02;  4.0000000E+04;  0.0000000E+00;  0.0000000E+00;  4.0000000E+04;  0.0000000E+00;  4.0000000E+04; -2.6183354E-02;  0.0000000E+00; -1.4458983E-02;  1.2228521E+04;
  1.1000000E-01;  9.9999998E-03;  3.7000000E-01;2171;  0.0000000E+00;  0.0000000E+00;  0.0000000E+00;  1.0004285E+03;  1.0000000E-01;  3.5495291E+02;0;  0.0000000E+00;  0.0000000E+00;  0.0000000E+00;0; -2.8705116E-02;  4.0000000E+04;  0.0000000E+00;  0.0000000E+00;  4.0000000E+04;  0.0000000E+00;  4.0000000E+04; -1.7202053E-02;  0.0000000E+00; -1.1503064E-02;  1.0151876E+04;
  1.1000000E-01;  9.9999998E-03;  3.8000000E-01;2172;  0.0000000E+00;  0.0000000E+00;  0.0000000E+00;  1.0002930E+03;  1.0000000E-01;  2.4275856E+02;0;  0.0000000E+00;  0.0000000E+00;  0.0000000E+00;0; -1.9500505E-02;  4.0000000E+04;  0.0000000E+00;  0.0000000E+00;  4.0000000E+04;  0.0000000E+00;  4.0000000E+04; -1.0705141E-02;  0.0000000E+00; -8.7953648E-03;  8.1858696E+03;
  1.1000000E-01;  9.9999998E-03;  3.8999999E-01;2173;  0.0000000E+00;  0.0000000E+00;  0.0000000E+00;  1.0001910E+03;  1.0000000E-01;  1.5821774E+02;0;  0.0000000E+00;  0.0000000E+00;  0.0000000E+00;0; -1.2649908E-02;  4.0000000E+04;  0.0000000E+00;  0.0000000E+00;  4.0000000E+04;  0.0000000E+00;  4.0000000E+04; -6.2523959E-03;  0.0000000E+00; -6.3975118E-03;  6.3150645E+03;
  1.1000000E-01;  9.9999998E-03;  4.0000001E-01;2174;  0.0000000E+00;  0.0000000E+00;  0.0000000E+00;  1.0001149E+03;  1.0000000E-01;  9.5207184E+01;0;  0.0000000E+00;  0.0000000E+00;  0.0000000E+00;0; -7.7352524E-03;  4.0000000E+04;  0.0000000E+00;  0.0000000E+00;  4.0000000E+04;  0.0000000E+00;  4.0000000E+04; -3.3809629E-03;  0.0000000E+00; -4.3542897E-03;  4.5709224E+03;
  1.2000000E-01;  9.9999998E-03;  3.1000000E-01;2195;  0.0000000E+00;  0.0000000E+00;  0.0000000E+00;  1.0021530E+03;  1.0000000E-01;  1.7837521E+03;0;  0.0000000E+00;  0.0000000E+00;  0.0000000E+00;0; -1.4703205E-01;  4.0000000E+04;  0.0000000E+00;  0.0000000E+00;  4.0000000E+04;  0.0000000E+00;  4.0000000E+04; -1.2419344E-01;  0.0000000E+00; -2.2838607E-02;  4.0606219E+04;
  1.2000000E-01;  9.9999998E-03;  3.1999999E-01;2196;  0.0000000E+00;  0.0000000E+00;  0.0000000E+00;  1.0017996E+03;  1.0000000E-01;  1.4909208E+03;0;  0.0000000E+00;  0.0000000E+00;  0.0000000E+00;0; -1.2260359E-01;  4.0000000E+04;  0.0000000E+00;  0.0000000E+00;  4.0000000E+04;  0.0000000E+00;  4.0000000E+04; -1.0071576E-01;  0.0000000E+00; -2.1887822E-02;  3.5834098E+04;
  1.2000000E-01;  9.9999998E-03;  3.3000001E-01;2197;  0.0000000E+00;  0.0000000E+00;  0.0000000E+00;  1.0014550E+03;  1.0000000E-01;  1.2054968E+03;0;  0.0000000E+00;  0.0000000E+00;  0.0000000E+00;0; -9.8932423E-02;  4.0000000E+04;  0.0000000E+00;  0.0000000E+00;  4.0000000E+04;  0.0000000E+00;  4.0000000E+04; -7.8908309E-02;  0.0000000E+00; -2.0024115E-02;  2.9710432E+04;
  1.2000000E-01;  9.9999998E-03;  3.4000000E-01;2198;  0.0000000E+00;  0.0000000E+00;  0.0000000E+00;  1.0011382E+03;  1.0000000E-01;  9.4298566E+02;0;  0.0000000E+00;  0.0000000E+00;  0.0000000E+00;0; -7.7204719E-02;  4.0000000E+04;  0.0000000E+00;  0.0000000E+00;  4.0000000E+04;  0.0000000E+00;  4.0000000E+04; -5.9579816E-02;  0.0000000E+00; -1.7624905E-02;  2.3480391E+04;
  1.2000000E-01;  9.9999998E-03;  3.4999999E-01;2199;  0.0000000E+00;  0.0000000E+00;  0.0000000E+00;  1.0008607E+03;  1.0000000E-01;  7.1306622E+02;0;  0.0000000E+00;  0.0000000E+00;  0.0000000E+00;0; -5.8217071E-02;  4.0000000E+04;  0.0000000E+00;  0.0000000E+00;  4.0000000E+04;  0.0000000E+00;  4.0000000E+04; -4.3227069E-02;  0.0000000E+00; -1.4990004E-02;  1.8022102E+04;
  1.2000000E-01;  9.9999998E-03;  3.6000001E-01;2200;  0.0000000E+00;  0.0000000E+00;  0.0000000E+00;  1.0006288E+03;  1.0000000E-01;  5.2097290E+02;0;  0.0000000E+00;  0.0000000E+00;  0.0000000E+00;0; -4.2361502E-02;  4.0000000E+04;  0.0000000E+00;  0.0000000E+00;  4.0000000E+04;  0.0000000E+00;  4.0000000E+04; -3.0027868E-02;  0.0000000E+00; -1.2333632E-02;  1.3740484E+04;
  1.2000000E-01;  9.9999998E-03;  3.7000000E-01;2201;  0.0000000E+00;  0.0000000E+00;  0.0000000E+00;  1.0004427E+03;  1.0000000E-01;  3.6680444E+02;0;  0.0000000E+00;  0.0000000E+00;  0.0000000E+00;0; -2.9675581E-02;  4.0000000E+04;  0.0000000E+00;  0.0000000E+00;  4.0000000E+04;  0.0000000E+00;  4.0000000E+04; -1.9877616E-02;  0.0000000E+00; -9.7979642E-03;  1.0615576E+04;
  1.2000000E-01;  9.9999998E-03;  3.8000000E-01;2202;  0.0000000E+00;  0.0000000E+00;  0.0000000E+00;  1.0002992E+03;  1.0000000E-01;  2.4789423E+02;0;  0.0000000E+00;  0.0000000E+00;  0.0000000E+00;0; -1.9932384E-02;  4.0000000E+04;  0.0000000E+00;  0.0000000E+00;  4.0000000E+04;  0.0000000E+00;  4.0000000E+04; -1.2459040E-02;  0.0000000E+00; -7.4733444E-03;  8.3482383E+03;
  1.2000000E-01;  9.9999998E-03;  3.8999999E-01;2203;  0.0000000E+00;  0.0000000E+00;  0.0000000E+00;  1.0001929E+03;  1.0000000E-01;  1.5979794E+02;0;  0.0000000E+00;  0.0000000E+00;  0.0000000E+00;0; -1.2745216E-02;  4.0000000E+04;  0.0000000E+00;  0.0000000E+00;  4.0000000E+04;  0.0000000E+00;  4.0000000E+04; -7.3272195E-03;  0.0000000E+00; -5.4179961E-03;  6.5637275E+03;
  1.2000000E-01;  9.9999998E-03;  4.0000001E-01;2204;  0.0000000E+00;  0.0000000E+00;  0.0000000E+00;  1.0001144E+03;  1.0000000E-01;  9.4713371E+01;0;  0.0000000E+00;  0.0000000E+00;  0.0000000E+00;0; -7.6627452E-03;  4.0000000E+04;  0.0000000E+00;  0.0000000E+00;  4.0000000E+04;  0.0000000E+00;  4.0000000E+04; -3.9894562E-03;  0.0000000E+00; -3.6732890E-03;  4.9855239E+03;
  1.3000000E-01;  9.9999998E-03;  3.1000000E-01;2225;  0.0000000E+00;  0.0000000E+00;  0.0000000E+00;  1.0022808E+03;  1.0000000E-01;  1.8896256E+03;0;  0.0000000E+00;  0.0000000E+00;  0.0000000E+00;0; -1.5537886E-01;  4.0000000E+04;  0.0000000E+00;  0.0000000E+00;  4.0000000E+04;  0.0000000E+00;  4.0000000E+04; -1.3685216E-01;  0.0000000E+00; -1.8526709E-02;  6.7155414E+04;
  1.3000000E-01;  9.9999998E-03;  3.1999999E-01;2226;  0.0000000E+00;  0.0000000E+00;  0.0000000E+00;  1.0019102E+03;  1.0000000E-01;  1.5825725E+03;0;  0.0000000E+00;  0.0000000E+00;  0.0000000E+00;0; -1.3000470E-01;  4.0000000E+04;  0.0000000E+00;  0.0000000E+00;  4.0000000E+04;  0.0000000E+00;  4.0000000E+04; -1.1219362E-01;  0.0000000E+00; -1.7811080E-02;  5.9254281E+04;
  1.3000000E-01;  9.9999998E-03;  3.3000001E-01;2227;  0.0000000E+00;  0.0000000E+00;  0.0000000E+00;  1.0015458E+03;  1.0000000E-01;  1.2806552E+03;0;  0.0000000E+00;  0.0000000E+00;  0.0000000E+00;0; -1.0517425E-01;  4.0000000E+04;  0.0000000E+00;  0.0000000E+00;  4.0000000E+04;  0.0000000E+00;  4.0000000E+04; -8.8834055E-02;  0.0000000E+00; -1.6340194E-02;  4.8471105E+04;
  1.3000000E-01;  9.9999998E-03;  3.4000000E-01;2228;  0.0000000E+00;  0.0000000E+00;  0.0000000E+00;  1.0012091E+03;  1.0000000E-01;  1.0017495E+03;0;  0.0000000E+00;  0.0000000E+00;  0.0000000E+00;0; -8.2162835E-02;  4.0000000E+04;  0.0000000E+00;  0.0000000E+00;  4.0000000E+04;  0.0000000E+00;  4.0000000E+04; -6.7754917E-02;  0.0000000E+00; -1.4407919E-02;  3.6890746E+04;
  1.3000000E-01;  9.9999998E-03;  3.4999999E-01;2229;  0.0000000E+00;  0.0000000E+00;  0.0000000E+00;  1.0009125E+03;  1.0000000E-01;  7.5602802E+02;0;  0.0000000E+00;  0.0000000E+00;  0.0000000E+00;0; -6.1886184E-02;  4.0000000E+04;  0.0000000E+00;  0.0000000E+00;  4.0000000E+04;  0.0000000E+00;  4.0000000E+04; -4.9627863E-02;  0.0000000E+00; -1.2258319E-02;  2.6223254E+04;
  1.3000000E-01;  9.9999998E-03;  3.6000001E-01;2230;  0.0000000E+00;  0.0000000E+00;  0.0000000E+00;  1.0006637E+03;  1.0000000E-01;  5.4981158E+02;0;  0.0000000E+00;  0.0000000E+00;  0.0000000E+00;0; -4.4853836E-02;  4.0000000E+04;  0.0000000E+00;  0.0000000E+00;  4.0000000E+04;  0.0000000E+00;  4.0000000E+04; -3.4780812E-02;  0.0000000E+00; -1.0073023E-02;  1.7612482E+04;
  1.3000000E-01;  9.9999998E-03;  3.7000000E-01;2231;  0.0000000E+00;  0.0000000E+00;  0.0000000E+00;  1.0004633E+03;  1.0000000E-01;  3.8379163E+02;0;  0.0000000E+00;  0.0000000E+00;  0.0000000E+00;0; -3.1191714E-02;  4.0000000E+04;  0.0000000E+00;  0.0000000E+00;  4.0000000E+04;  0.0000000E+00;  4.0000000E+04; -2.3214227E-02;  0.0000000E+00; -7.9774885E-03;  1.1670958E+04;
  1.3000000E-01;  9.9999998E-03;  3.8000000E-01;2232;  0.0000000E+00;  0.0000000E+00;  0.0000000E+00;  1.0003094E+03;  1.0000000E-01;  2.5638782E+02;0;  0.0000000E+00;  0.0000000E+00;  0.0000000E+00;0; -2.0718008E-02;  4.0000000E+04;  0.0000000E+00;  0.0000000E+00;  4.0000000E+04;  0.0000000E+00;  4.0000000E+04; -1.4663121E-02;  0.0000000E+00; -6.0548866E-03;  8.4175459E+03;
  1.3000000E-01;  9.9999998E-03;  3.8999999E-01;2233;  0.0000000E+00;  0.0000000E+00;  0.0000000E+00;  1.0001948E+03;  1.0000000E-01;  1.6137816E+02;0;  0.0000000E+00;  0.0000000E+00;  0.0000000E+00;0; -1.3048004E-02;  4.0000000E+04;  0.0000000E+00;  0.0000000E+00;  4.0000000E+04;  0.0000000E+00;  4.0000000E+04; -8.6875316E-03;  0.0000000E+00; -4.3604732E-03;  6.9482593E+03;
  1.3000000E-01;  9.9999998E-03;  4.0000001E-01;2234;  0.0000000E+00;  0.0000000E+00;  0.0000000E+00;  1.0001146E+03;  1.0000000E-01;  9.5009659E+01;0;  0.0000000E+00;  0.0000000E+00;  0.0000000E+00;0; -7.6975245E-03;  4.0000000E+04;  0.0000000E+00;  0.0000000E+00;  4.0000000E+04;  0.0000000E+00;  4.0000000E+04; -4.7649075E-03;  0.0000000E+00; -2.9326167E-03;  5.9263262E+03;
  1.4000000E-01;  9.9999998E-03;  3.1000000E-01;2255;  0.0000000E+00;  0.0000000E+00;  0.0000000E+00;  1.0024293E+03;  1.0000000E-01;  2.0125851E+03;0;  0.0000000E+00;  0.0000000E+00;  0.0000000E+00;0; -1.6542715E-01;  4.0000000E+04;  0.0000000E+00;  0.0000000E+00;  4.0000000E+04;  0.0000000E+00;  4.0000000E+04; -1.5118931E-01;  0.0000000E+00; -1.4237829E-02;  1.0596824E+05;
  1.4000000E-01;  9.9999998E-03;  3.1999999E-01;2256;  0.0000000E+00;  0.0000000E+00;  0.0000000E+00;  1.0020425E+03;  1.0000000E-01;  1.6921991E+03;0;  0.0000000E+00;  0.0000000E+00;  0.0000000E+00;0; -1.3915497E-01;  4.0000000E+04;  0.0000000E+00;  0.0000000E+00;  4.0000000E+04;  0.0000000E+00;  4.0000000E+04; -1.2538898E-01;  0.0000000E+00; -1.3765992E-02;  9.4714227E+04;
  1.4000000E-01;  9.9999998E-03;  3.3000001E-01;2257;  0.0000000E+00;  0.0000000E+00;  0.0000000E+00;  1.0016577E+03;  1.0000000E-01;  1.3732944E+03;0;  0.0000000E+00;  0.0000000E+00;  0.0000000E+00;0; -1.1309764E-01;  4.0000000E+04;  0.0000000E+00;  0.0000000E+00;  4.0000000E+04;  0.0000000E+00;  4.0000000E+04; -1.0040808E-01;  0.0000000E+00; -1.2689556E-02;  7.8058141E+04;
  1.4000000E-01;  9.9999998E-03;  3.4000000E-01;2258;  0.0000000E+00;  0.0000000E+00;  0.0000000E+00;  1.0012993E+03;  1.0000000E-01;  1.0764139E+03;0;  0.0000000E+00;  0.0000000E+00;  0.0000000E+00;0; -8.8630795E-02;  4.0000000E+04;  0.0000000E+00;  0.0000000E+00;  4.0000000E+04;  0.0000000E+00;  4.0000000E+04; -7.7410951E-02;  0.0000000E+00; -1.1219841E-02;  5.9199848E+04;
  1.4000000E-01;  9.9999998E-03;  3.4999999E-01;2259;  0.0000000E+00;  0.0000000E+00;  0.0000000E+00;  1.0009794E+03;  1.0000000E-01;  8.1143384E+02;0;  0.0000000E+00;  0.0000000E+00;  0.0000000E+00;0; -6.6822596E-02;  4.0000000E+04;  0.0000000E+00;  0.0000000E+00;  4.0000000E+04;  0.0000000E+00;  4.0000000E+04; -5.7274528E-02;  0.0000000E+00; -9.5480680E-03;  4.0977410E+04;
  1.4000000E-01;  9.9999998E-03;  3.6000001E-01;2260;  0.0000000E+00;  0.0000000E+00;  0.0000000E+00;  1.0007106E+03;  1.0000000E-01;  5.8872406E+02;0;  0.0000000E+00;  0.0000000E+00;  0.0000000E+00;0; -4.8340950E-02;  4.0000000E+04;  0.0000000E+00;  0.0000000E+00;  4.0000000E+04;  0.0000000E+00;  4.0000000E+04; -4.0515609E-02;  0.0000000E+00; -7.8253411E-03;  2.5470678E+04;
  1.4000000E-01;  9.9999998E-03;  3.7000000E-01;2261;  0.0000000E+00;  0.0000000E+00;  0.0000000E+00;  1.0004934E+03;  1.0000000E-01;  4.0877856E+02;0;  0.0000000E+00;  0.0000000E+00;  0.0000000E+00;0; -3.3437263E-02;  4.0000000E+04;  0.0000000E+00;  0.0000000E+00;  4.0000000E+04;  0.0000000E+00;  4.0000000E+04; -2.7275598E-02;  0.0000000E+00; -6.1616669E-03;  1.4135049E+04;
  1.4000000E-01;  9.9999998E-03;  3.8000000E-01;2262;  0.0000000E+00;  0.0000000E+00;  0.0000000E+00;  1.0003254E+03;  1.0000000E-01;  2.6952325E+02;0;  0.0000000E+00;  0.0000000E+00;  0.0000000E+00;0; -2.2001356E-02;  4.0000000E+04;  0.0000000E+00;  0.0000000E+00;  4.0000000E+04;  0.0000000E+00;  4.0000000E+04; -1.7367592E-02;  0.0000000E+00; -4.6337647E-03;  8.3919629E+03;
  1.4000000E-01;  9.9999998E-03;  3.8999999E-01;2263;  0.0000000E+00;  0.0000000E+00;  0.0000000E+00;  1.0002028E+03;  1.0000000E-01;  1.6799525E+02;0;  0.0000000E+00;  0.0000000E+00;  0.0000000E+00;0; -1.3664204E-02;  4.0000000E+04;  0.0000000E+00;  0.0000000E+00;  4.0000000E+04;  0.0000000E+00;  4.0000000E+04; -1.0369682E-02;  0.0000000E+00; -3.2945219E-03;  7.8353477E+03;
  1.4000000E-01;  9.9999998E-03;  4.0000001E-01;2264;  0.0000000E+00;  0.0000000E+00;  0.0000000E+00;  1.0001196E+03;  1.0000000E-01;  9.9157692E+01;0;  0.0000000E+00;  0.0000000E+00;  0.0000000E+00;0; -7.9117268E-03;  4.0000000E+04;  0.0000000E+00;  0.0000000E+00;  4.0000000E+04;  0.0000000E+00;  4.0000000E+04; -5.7316422E-03;  0.0000000E+00; -2.1800846E-03;  8.0854331E+03;
  1.5000001E-01;  9.9999998E-03;  3.1000000E-01;2285;  0.0000000E+00;  0.0000000E+00;  0.0000000E+00;  1.0025983E+03;  1.0000000E-01;  2.1526304E+03;0;  0.0000000E+00;  0.0000000E+00;  0.0000000E+00;0; -1.7714006E-01;  4.0000000E+04;  0.0000000E+00;  0.0000000E+00;  4.0000000E+04;  0.0000000E+00;  4.0000000E+04; -1.6689748E-01;  0.0000000E+00; -1.0242584E-02;  1.5901658E+05;
  1.5000001E-01;  9.9999998E-03;  3.1999999E-01;2286;  0.0000000E+00;  0.0000000E+00;  0.0000000E+00;  1.0021985E+03;  1.0000000E-01;  1.8214794E+03;0;  0.0000000E+00;  0.0000000E+00;  0.0000000E+00;0; -1.5008356E-01;  4.0000000E+04;  0.0000000E+00;  0.0000000E+00;  4.0000000E+04;  0.0000000E+00;  4.0000000E+04; -1.4006841E-01;  0.0000000E+00; -1.0015145E-02;  1.4440359E+05;
  1.5000001E-01;  9.9999998E-03;  3.3000001E-01;2287;  0.0000000E+00;  0.0000000E+00;  0.0000000E+00;  1.0017958E+03;  1.0000000E-01;  1.4877604E+03;0;  0.0000000E+00;  0.0000000E+00;  0.0000000E+00;0; -1.2277521E-01;  4.0000000E+04;  0.0000000E+00;  0.0000000E+00;  4.0000000E+04;  0.0000000E+00;  4.0000000E+04; -1.1346375E-01;  0.0000000E+00; -9.3114581E-03;  1.2057413E+05;
  1.5000001E-01;  9.9999998E-03;  3.4000000E-01;2288;  0.0000000E+00;  0.0000000E+00;  0.0000000E+00;  1.0014125E+03;  1.0000000E-01;  1.1702385E+03;0;  0.0000000E+00;  0.0000000E+00;  0.0000000E+00;0; -9.6709087E-02;  4.0000000E+04;  0.0000000E+00;  0.0000000E+00;  4.0000000E+04;  0.0000000E+00;  4.0000000E+04; -8.8437259E-02;  0.0000000E+00; -8.2718311E-03;  9.2196555E+04;
  1.5000001E-01;  9.9999998E-03;  3.4999999E-01;2289;  0.0000000E+00;  0.0000000E+00;  0.0000000E+00;  1.0010684E+03;  1.0000000E-01;  8.8520953E+02;0;  0.0000000E+00;  0.0000000E+00;  0.0000000E+00;0; -7.3141836E-02;  4.0000000E+04;  0.0000000E+00;  0.0000000E+00;  4.0000000E+04;  0.0000000E+00;  4.0000000E+04; -6.6100270E-02;  0.0000000E+00; -7.0415684E-03;  6.3697172E+04;
  1.5000001E-01;  9.9999998E-03;  3.6000001E-01;2290;  0.0000000E+00;  0.0000000E+00;  0.0000000E+00;  1.0007729E+03;  1.0000000E-01;  6.4037695E+02;0;  0.0000000E+00;  0.0000000E+00;  0.0000000E+00;0; -5.2942425E-02;  4.0000000E+04;  0.0000000E+00;  0.0000000E+00;  4.0000000E+04;  0.0000000E+00;  4.0000000E+04; -4.7197673E-02;  0.0000000E+00; -5.7447511E-03;  3.8477582E+04;
  1.5000001E-01;  9.9999998E-03;  3.7000000E-01;2291;  0.0000000E+00;  0.0000000E+00;  0.0000000E+00;  1.0005356E+03;  1.0000000E-01;  4.4374054E+02;0;  0.0000000E+00;  0.0000000E+00;  0.0000000E+00;0; -3.6526777E-02;  4.0000000E+04;  0.0000000E+00;  0.0000000E+00;  4.0000000E+04;  0.0000000E+00;  4.0000000E+04; -3.2049142E-02;  0.0000000E+00; -4.4776336E-03;  1.8916139E+04;
  1.5000001E-01;  9.9999998E-03;  3.8000000E-01;2292;  0.0000000E+00;  0.0000000E+00;  0.0000000E+00;  1.0003514E+03;  1.0000000E-01;  2.9115225E+02;0;  0.0000000E+00;  0.0000000E+00;  0.0000000E+00;0; -2.3885082E-02;  4.0000000E+04;  0.0000000E+00;  0.0000000E+00;  4.0000000E+04;  0.0000000E+00;  4.0000000E+04; -2.0573700E-02;  0.0000000E+00; -3.3113835E-03;  8.2837168E+03;
  1.5000001E-01;  9.9999998E-03;  3.8999999E-01;2293;  0.0000000E+00;  0.0000000E+00;  0.0000000E+00;  1.0002163E+03;  1.0000000E-01;  1.7925420E+02;0;  0.0000000E+00;  0.0000000E+00;  0.0000000E+00;0; -1.4679535E-02;  4.0000000E+04;  0.0000000E+00;  0.0000000E+00;  4.0000000E+04;  0.0000000E+00;  4.0000000E+04; -1.2382234E-02;  0.0000000E+00; -2.2973006E-03;  9.8887939E+03;
  1.5000001E-01;  9.9999998E-03;  4.0000001E-01;2294;  0.0000000E+00;  0.0000000E+00;  0.0000000E+00;  1.0001257E+03;  1.0000000E-01;  1.0409582E+02;0;  0.0000000E+00;  0.0000000E+00;  0.0000000E+00;0; -8.3708521E-03;  4.0000000E+04;  0.0000000E+00;  0.0000000E+00;  4.0000000E+04;  0.0000000E+00;  4.0000000E+04; -6.9007254E-03;  0.0000000E+00; -1.4701268E-03;  1.2262434E+04;
  1.6000000E-01;  9.9999998E-03;  3.1000000E-01;2315;  0.0000000E+00;  0.0000000E+00;  0.0000000E+00;  1.0027865E+03;  1.0000000E-01;  2.3085767E+03;0;  0.0000000E+00;  0.0000000E+00;  0.0000000E+00;0; -1.9021674E-01;  4.0000000E+04;  0.0000000E+00;  0.0000000E+00;  4.0000000E+04;  0.0000000E+00;  4.0000000E+04; -1.8342277E-01;  0.0000000E+00; -6.7939623E-03;  2.2731459E+05;
  1.6000000E-01;  9.9999998E-03;  3.1999999E-01;2316;  0.0000000E+00;  0.0000000E+00;  0.0000000E+00;  1.0023768E+03;  1.0000000E-01;  1.9691295E+03;0;  0.0000000E+00;  0.0000000E+00;  0.0000000E+00;0; -1.6252460E-01;  4.0000000E+04;  0.0000000E+00;  0.0000000E+00;  4.0000000E+04;  0.0000000E+00;  4.0000000E+04; -1.5572269E-01;  0.0000000E+00; -6.8019098E-03;  2.0964455E+05;
  1.6000000E-01;  9.9999998E-03;  3.3000001E-01;2317;  0.0000000E+00;  0.0000000E+00;  0.0000000E+00;  1.0019556E+03;  1.0000000E-01;  1.6202010E+03;0;  0.0000000E+00;  0.0000000E+00;  0.0000000E+00;0; -1.3397853E-01;  4.0000000E+04;  0.0000000E+00;  0.0000000E+00;  4.0000000E+04;  0.0000000E+00;  4.0000000E+04; -1.2754855E-01;  0.0000000E+00; -6.4299922E-03;  1.7739100E+05;
  1.6000000E-01;  9.9999998E-03;  3.4000000E-01;2318;  0.0000000E+00;  0.0000000E+00;  0.0000000E+00;  1.0015479E+03;  1.0000000E-01;  1.2824329E+03;0;  0.0000000E+00;  0.0000000E+00;  0.0000000E+00;0; -1.0621590E-01;  4.0000000E+04;  0.0000000E+00;  0.0000000E+00;  4.0000000E+04;  0.0000000E+00;  4.0000000E+04; -1.0044970E-01;  0.0000000E+00; -5.7661990E-03;  1.3708289E+05;
  1.6000000E-01;  9.9999998E-03;  3.4999999E-01;2319;  0.0000000E+00;  0.0000000E+00;  0.0000000E+00;  1.0011745E+03;  1.0000000E-01;  9.7300952E+02;0;  0.0000000E+00;  0.0000000E+00;  0.0000000E+00;0; -8.0715537E-02;  4.0000000E+04;  0.0000000E+00;  0.0000000E+00;  4.0000000E+04;  0.0000000E+00;  4.0000000E+04; -7.5797260E-02;  0.0000000E+00; -4.9182773E-03;  9.5274094E+04;
  1.6000000E-01;  9.9999998E-03;  3.6000001E-01;2320;  0.0000000E+00;  0.0000000E+00;  0.0000000E+00;  1.0008528E+03;  1.0000000E-01;  7.0654791E+02;0;  0.0000000E+00;  0.0000000E+00;  0.0000000E+00;0; -5.8583982E-02;  4.0000000E+04;  0.0000000E+00;  0.0000000E+00;  4.0000000E+04;  0.0000000E+00;  4.0000000E+04; -5.4596797E-02;  0.0000000E+00; -3.9871861E-03;  5.7207223E+04;
  1.6000000E-01;  9.9999998E-03;  3.7000000E-01;2321;  0.0000000E+00;  0.0000000E+00;  0.0000000E+00;  1.0005893E+03;  1.0000000E-01;  4.8818372E+02;0;  0.0000000E+00;  0.0000000E+00;  0.0000000E+00;0; -4.0433977E-02;  4.0000000E+04;  0.0000000E+00;  0.0000000E+00;  4.0000000E+04;  0.0000000E+00;  4.0000000E+04; -3.7376560E-02;  0.0000000E+00; -3.0574163E-03;  2.6503219E+04;
  1.6000000E-01;  9.9999998E-03;  3.8000000E-01;2322;  0.0000000E+00;  0.0000000E+00;  0.0000000E+00;  1.0003851E+03;  1.0000000E-01;  3.1910208E+02;0;  0.0000000E+00;  0.0000000E+00;  0.0000000E+00;0; -2.6379237E-02;  4.0000000E+04;  0.0000000E+00;  0.0000000E+00;  4.0000000E+04;  0.0000000E+00;  4.0000000E+04; -2.4183480E-02;  0.0000000E+00; -2.1957569E-03;  8.1092949E+03;
  1.6000000E-01;  9.9999998E-03;  3.8999999E-01;2323;  0.0000000E+00;  0.0000000E+00;  0.0000000E+00;  1.0002363E+03;  1.0000000E-01;  1.9574754E+02;0;  0.0000000E+00;  0.0000000E+00;  0.0000000E+00;0; -1.6126117E-02;  4.0000000E+04;  0.0000000E+00;  0.0000000E+00;  4.0000000E+04;  0.0000000E+00;  4.0000000E+04; -1.4673318E-02;  0.0000000E+00; -1.4527983E-03;  1.3810584E+04;
  1.6000000E-01;  9.9999998E-03;  4.0000001E-01;2324;  0.0000000E+00;  0.0000000E+00;  0.0000000E+00;  1.0001356E+03;  1.0000000E-01;  1.1229312E+02;0;  0.0000000E+00;  0.0000000E+00;  0.0000000E+00;0; -9.1147367E-03;  4.0000000E+04;  0.0000000E+00;  0.0000000E+00;  4.0000000E+04;  0.0000000E+00;  4.0000000E+04; -8.2513010E-03;  0.0000000E+00; -8.6343585E-04;  1.9120715E+04;
  1.7000000E-01;  9.9999998E-03;  3.1000000E-01;2345;  0.0000000E+00;  0.0000000E+00;  0.0000000E+00;  1.0029855E+03;  1.0000000E-01;  2.4734114E+03;0;  0.0000000E+00;  0.0000000E+00;  0.0000000E+00;0; -2.0406477E-01;  4.0000000E+04;  0.0000000E+00;  0.0000000E+00;  4.0000000E+04;  0.0000000E+00;  4.0000000E+04; -1.9995603E-01;  0.0000000E+00; -4.1087451E-03;  3.0974219E+05;
  1.7000000E-01;  9.9999998E-03;  3.1999999E-01;2346;  0.0000000E+00;  0.0000000E+00;  0.0000000E+00;  1.0025702E+03;  1.0000000E-01;  2.1293223E+03;0;  0.0000000E+00;  0.0000000E+00;  0.0000000E+00;0; -1.7586201E-01;  4.0000000E+04;  0.0000000E+00;  0.0000000E+00;  4.0000000E+04;  0.0000000E+00;  4.0000000E+04; -1.7152436E-01;  0.0000000E+00; -4.3376540E-03;  2.8952844E+05;
  1.7000000E-01;  9.9999998E-03;  3.3000001E-01;2347;  0.0000000E+00;  0.0000000E+00;  0.0000000E+00;  1.0021315E+03;  1.0000000E-01;  1.7659746E+03;0;  0.0000000E+00;  0.0000000E+00;  0.0000000E+00;0; -1.4610595E-01;  4.0000000E+04;  0.0000000E+00;  0.0000000E+00;  4.0000000E+04;  0.0000000E+00;  4.0000000E+04; -1.4185666E-01;  0.0000000E+00; -4.2492836E-03;  2.4777441E+05;
  1.7000000E-01;  9.9999998E-03;  3.4000000E-01;2348;  0.0000000E+00;  0.0000000E+00;  0.0000000E+00;  1.0016992E+03;  1.0000000E-01;  1.4077626E+03;0;  0.0000000E+00;  0.0000000E+00;  0.0000000E+00;0; -1.1660808E-01;  4.0000000E+04;  0.0000000E+00;  0.0000000E+00;  4.0000000E+04;  0.0000000E+00;  4.0000000E+04; -1.1271167E-01;  0.0000000E+00; -3.8964080E-03;  1.9329138E+05;
  1.7000000E-01;  9.9999998E-03;  3.4999999E-01;2349;  0.0000000E+00;  0.0000000E+00;  0.0000000E+00;  1.0012963E+03;  1.0000000E-01;  1.0739448E+03;0;  0.0000000E+00;  0.0000000E+00;  0.0000000E+00;0; -8.9094907E-02;  4.0000000E+04;  0.0000000E+00;  0.0000000E+00;  4.0000000E+04;  0.0000000E+00;  4.0000000E+04; -8.5738130E-02;  0.0000000E+00; -3.3567741E-03;  1.3529123E+05;
  1.7000000E-01;  9.9999998E-03;  3.6000001E-01;2350;  0.0000000E+00;  0.0000000E+00;  0.0000000E+00;  1.0009449E+03;  1.0000000E-01;  7.8289136E+02;0;  0.0000000E+00;  0.0000000E+00;  0.0000000E+00;0; -6.4930193E-02;  4.0000000E+04;  0.0000000E+00;  0.0000000E+00;  4.0000000E+04;  0.0000000E+00;  4.0000000E+04; -6.2217433E-02;  0.0000000E+00; -2.7127576E-03;  8.1351367E+04;
  1.7000000E-01;  9.9999998E-03;  3.7000000E-01;2351;  0.0000000E+00;  0.0000000E+00;  0.0000000E+00;  1.0006542E+03;  1.0000000E-01;  5.4200934E+02;0;  0.0000000E+00;  0.0000000E+00;  0.0000000E+00;0; -4.4936825E-02;  4.0000000E+04;  0.0000000E+00;  0.0000000E+00;  4.0000000E+04;  0.0000000E+00;  4.0000000E+04; -4.2896725E-02;  0.0000000E+00; -2.0401010E-03;  3.6727156E+04;
  1.7000000E-01;  9.9999998E-03;  3.8000000E-01;2352;  0.0000000E+00;  0.0000000E+00;  0.0000000E+00;  1.0004291E+03;  1.0000000E-01;  3.5544672E+02;0;  0.0000000E+00;  0.0000000E+00;  0.0000000E+00;0; -2.9359795E-02;  4.0000000E+04;  0.0000000E+00;  0.0000000E+00;  4.0000000E+04;  0.0000000E+00;  4.0000000E+04; -2.7956508E-02;  0.0000000E+00; -1.4032873E-03;  7.8685225E+03;
  1.7000000E-01;  9.9999998E-03;  3.8999999E-01;2353;  0.0000000E+00;  0.0000000E+00;  0.0000000E+00;  1.0002628E+03;  1.0000000E-01;  2.1777161E+02;0;  0.0000000E+00;  0.0000000E+00;  0.0000000E+00;0; -1.7953513E-02;  4.0000000E+04;  0.0000000E+00;  0.0000000E+00;  4.0000000E+04;  0.0000000E+00;  4.0000000E+04; -1.7099492E-02;  0.0000000E+00; -8.5402018E-04;  1.9958852E+04;
  1.7000000E-01;  9.9999998E-03;  4.0000001E-01;2354;  0.0000000E+00;  0.0000000E+00;  0.0000000E+00;  1.0001495E+03;  1.0000000E-01;  1.2384834E+02;0;  0.0000000E+00;  0.0000000E+00;  0.0000000E+00;0; -1.0138910E-02;  4.0000000E+04;  0.0000000E+00;  0.0000000E+00;  4.0000000E+04;  0.0000000E+00;  4.0000000E+04; -9.7093424E-03;  0.0000000E+00; -4.2956817E-04;  2.9066998E+04;
  1.8000001E-01;  9.9999998E-03;  3.1000000E-01;2375;  0.0000000E+00;  0.0000000E+00;  0.0000000E+00;  1.0031876E+03;  1.0000000E-01;  2.6408140E+03;0;  0.0000000E+00;  0.0000000E+00;  0.0000000E+00;0; -2.1785066E-01;  4.0000000E+04;  0.0000000E+00;  0.0000000E+00;  4.0000000E+04;  0.0000000E+00;  4.0000000E+04; -2.1548069E-01;  0.0000000E+00; -2.3699682E-03;  4.0176319E+05;
  1.8000001E-01;  9.9999998E-03;  3.1999999E-01;2376;  0.0000000E+00;  0.0000000E+00;  0.0000000E+00;  1.0027677E+03;  1.0000000E-01;  2.2929719E+03;0;  0.0000000E+00;  0.0000000E+00;  0.0000000E+00;0; -1.8918653E-01;  4.0000000E+04;  0.0000000E+00;  0.0000000E+00;  4.0000000E+04;  0.0000000E+00;  4.0000000E+04; -1.8637137E-01;  0.0000000E+00; -2.8151546E-03;  3.7943441E+05;
  1.8000001E-01;  9.9999998E-03;  3.3000001E-01;2377;  0.0000000E+00;  0.0000000E+00;  0.0000000E+00;  1.0023131E+03;  1.0000000E-01;  1.9163901E+03;0;  0.0000000E+00;  0.0000000E+00;  0.0000000E+00;0; -1.5825127E-01;  4.0000000E+04;  0.0000000E+00;  0.0000000E+00;  4.0000000E+04;  0.0000000E+00;  4.0000000E+04; -1.5528008E-01;  0.0000000E+00; -2.9711830E-03;  3.2741466E+05;
  1.8000001E-01;  9.9999998E-03;  3.4000000E-01;2378;  0.0000000E+00;  0.0000000E+00;  0.0000000E+00;  1.0018553E+03;  1.0000000E-01;  1.5371416E+03;0;  0.0000000E+00;  0.0000000E+00;  0.0000000E+00;0; -1.2705515E-01;  4.0000000E+04;  0.0000000E+00;  0.0000000E+00;  4.0000000E+04;  0.0000000E+00;  4.0000000E+04; -1.2419219E-01;  0.0000000E+00; -2.8629608E-03;  2.5721398E+05;
  1.8000001E-01;  9.9999998E-03;  3.4999999E-01;2379;  0.0000000E+00;  0.0000000E+00;  0.0000000E+00;  1.0014242E+03;  1.0000000E-01;  1.1799171E+03;0;  0.0000000E+00;  0.0000000E+00;  0.0000000E+00;0; -9.7580448E-02;  4.0000000E+04;  0.0000000E+00;  0.0000000E+00;  4.0000000E+04;  0.0000000E+00;  4.0000000E+04; -9.5033601E-02;  0.0000000E+00; -2.5468494E-03;  1.8107747E+05;
  1.8000001E-01;  9.9999998E-03;  3.6000001E-01;2380;  0.0000000E+00;  0.0000000E+00;  0.0000000E+00;  1.0010430E+03;  1.0000000E-01;  8.6407428E+02;0;  0.0000000E+00;  0.0000000E+00;  0.0000000E+00;0; -7.1442157E-02;  4.0000000E+04;  0.0000000E+00;  0.0000000E+00;  4.0000000E+04;  0.0000000E+00;  4.0000000E+04; -6.9347627E-02;  0.0000000E+00; -2.0945305E-03;  1.0920009E+05;
  1.8000001E-01;  9.9999998E-03;  3.7000000E-01;2381;  0.0000000E+00;  0.0000000E+00;  0.0000000E+00;  1.0007264E+03;  1.0000000E-01;  6.0176074E+02;0;  0.0000000E+00;  0.0000000E+00;  0.0000000E+00;0; -4.9659885E-02;  4.0000000E+04;  0.0000000E+00;  0.0000000E+00;  4.0000000E+04;  0.0000000E+00;  4.0000000E+04; -4.8081171E-02;  0.0000000E+00; -1.5787135E-03;  4.8696676E+04;
  1.8000001E-01;  9.9999998E-03;  3.8000000E-01;2382;  0.0000000E+00;  0.0000000E+00;  0.0000000E+00;  1.0004791E+03;  1.0000000E-01;  3.9692700E+02;0;  0.0000000E+00;  0.0000000E+00;  0.0000000E+00;0; -3.2595735E-02;  4.0000000E+04;  0.0000000E+00;  0.0000000E+00;  4.0000000E+04;  0.0000000E+00;  4.0000000E+04; -3.1530570E-02;  0.0000000E+00; -1.0651633E-03;  7.5427017E+03;
  1.8000001E-01;  9.9999998E-03;  3.8999999E-01;2383;  0.0000000E+00;  0.0000000E+00;  0.0000000E+00;  1.0002960E+03;  1.0000000E-01;  2.4522762E+02;0;  0.0000000E+00;  0.0000000E+00;  0.0000000E+00;0; -2.0042511E-02;  4.0000000E+04;  0.0000000E+00;  0.0000000E+00;  4.0000000E+04;  0.0000000E+00;  4.0000000E+04; -1.9433359E-02;  0.0000000E+00; -6.0915132E-04;  2.8205922E+04;
  1.8000001E-01;  9.9999998E-03;  4.0000001E-01;2384;  0.0000000E+00;  0.0000000E+00;  0.0000000E+00;  1.0001684E+03;  1.0000000E-01;  1.3955161E+02;0;  0.0000000E+00;  0.0000000E+00;  0.0000000E+00;0; -1.1400198E-02;  4.0000000E+04;  0.0000000E+00;  0.0000000E+00;  4.0000000E+04;  0.0000000E+00;  4.0000000E+04; -1.1147273E-02;  0.0000000E+00; -2.5292489E-04;  4.2017703E+04;
  1.9000000E-01;  9.9999998E-03;  3.1000000E-01;2405;  0.0000000E+00;  0.0000000E+00;  0.0000000E+00;  1.0033845E+03;  1.0000000E-01;  2.8039700E+03;0;  0.0000000E+00;  0.0000000E+00;  0.0000000E+00;0; -2.3069562E-01;  4.0000000E+04;  0.0000000E+00;  0.0000000E+00;  4.0000000E+04;  0.0000000E+00;  4.0000000E+04; -2.2892003E-01;  0.0000000E+00; -1.7755922E-03;  4.9470294E+05;
  1.9000000E-01;  9.9999998E-03;  3.1999999E-01;2406;  0.0000000E+00;  0.0000000E+00;  0.0000000E+00;  1.0029605E+03;  1.0000000E-01;  2.4527700E+03;0;  0.0000000E+00;  0.0000000E+00;  0.0000000E+00;0; -2.0157868E-01;  4.0000000E+04;  0.0000000E+00;  0.0000000E+00;  4.0000000E+04;  0.0000000E+00;  4.0000000E+04; -1.9911994E-01;  0.0000000E+00; -2.4587349E-03;  4.7035875E+05;
  1.9000000E-01;  9.9999998E-03;  3.3000001E-01;2407;  0.0000000E+00;  0.0000000E+00;  0.0000000E+00;  1.0024898E+03;  1.0000000E-01;  2.0627563E+03;0;  0.0000000E+00;  0.0000000E+00;  0.0000000E+00;0; -1.6953415E-01;  4.0000000E+04;  0.0000000E+00;  0.0000000E+00;  4.0000000E+04;  0.0000000E+00;  4.0000000E+04; -1.6670166E-01;  0.0000000E+00; -2.8324865E-03;  4.0795475E+05;
  1.9000000E-01;  9.9999998E-03;  3.4000000E-01;2408;  0.0000000E+00;  0.0000000E+00;  0.0000000E+00;  1.0020085E+03;  1.0000000E-01;  1.6640516E+03;0;  0.0000000E+00;  0.0000000E+00;  0.0000000E+00;0; -1.3677935E-01;  4.0000000E+04;  0.0000000E+00;  0.0000000E+00;  4.0000000E+04;  0.0000000E+00;  4.0000000E+04; -1.3388117E-01;  0.0000000E+00; -2.8981850E-03;  3.2194144E+05;
  1.9000000E-01;  9.9999998E-03;  3.4999999E-01;2409;  0.0000000E+00;  0.0000000E+00;  0.0000000E+00;  1.0015510E+03;  1.0000000E-01;  1.2849019E+03;0;  0.0000000E+00;  0.0000000E+00;  0.0000000E+00;0; -1.0553939E-01;  4.0000000E+04;  0.0000000E+00;  0.0000000E+00;  4.0000000E+04;  0.0000000E+00;  4.0000000E+04; -1.0283320E-01;  0.0000000E+00; -2.7061854E-03;  2.2759873E+05;
  1.9000000E-01;  9.9999998E-03;  3.6000001E-01;2410;  0.0000000E+00;  0.0000000E+00;  0.0000000E+00;  1.0011426E+03;  1.0000000E-01;  9.4663983E+02;0;  0.0000000E+00;  0.0000000E+00;  0.0000000E+00;0; -7.7648386E-02;  4.0000000E+04;  0.0000000E+00;  0.0000000E+00;  4.0000000E+04;  0.0000000E+00;  4.0000000E+04; -7.5317495E-02;  0.0000000E+00; -2.3308918E-03;  1.3762670E+05;
  1.9000000E-01;  9.9999998E-03;  3.7000000E-01;2411;  0.0000000E+00;  0.0000000E+00;  0.0000000E+00;  1.0008011E+03;  1.0000000E-01;  6.6378363E+02;0;  0.0000000E+00;  0.0000000E+00;  0.0000000E+00;0; -5.4284975E-02;  4.0000000E+04;  0.0000000E+00;  0.0000000E+00;  4.0000000E+04;  0.0000000E+00;  4.0000000E+04; -5.2434374E-02;  0.0000000E+00; -1.8506004E-03;  6.0917906E+04;
  1.9000000E-01;  9.9999998E-03;  3.8000000E-01;2412;  0.0000000E+00;  0.0000000E+00;  0.0000000E+00;  1.0005322E+03;  1.0000000E-01;  4.4087637E+02;0;  0.0000000E+00;  0.0000000E+00;  0.0000000E+00;0; -3.5897829E-02;  4.0000000E+04;  0.0000000E+00;  0.0000000E+00;  4.0000000E+04;  0.0000000E+00;  4.0000000E+04; -3.4560855E-02;  0.0000000E+00; -1.3369714E-03;  7.1617334E+03;
  1.9000000E-01;  9.9999998E-03;  3.8999999E-01;2413;  0.0000000E+00;  0.0000000E+00;  0.0000000E+00;  1.0003339E+03;  1.0000000E-01;  2.7663412E+02;0;  0.0000000E+00;  0.0000000E+00;  0.0000000E+00;0; -2.2301408E-02;  4.0000000E+04;  0.0000000E+00;  0.0000000E+00;  4.0000000E+04;  0.0000000E+00;  4.0000000E+04; -2.1450166E-02;  0.0000000E+00; -8.5124228E-04;  3.7954402E+04;
  1.9000000E-01;  9.9999998E-03;  4.0000001E-01;2414;  0.0000000E+00;  0.0000000E+00;  0.0000000E+00;  1.0001943E+03;  1.0000000E-01;  1.6098309E+02;0;  0.0000000E+00;  0.0000000E+00;  0.0000000E+00;0; -1.2872055E-02;  4.0000000E+04;  0.0000000E+00;  0.0000000E+00;  4.0000000E+04;  0.0000000E+00;  4.0000000E+04; -1.2429317E-02;  0.0000000E+00; -4.4273864E-04;  5.7227590E+04;
  2.0000000E-01;  9.9999998E-03;  3.1000000E-01;2434;  0.0000000E+00;  0.0000000E+00;  0.0000000E+00;  1.0035759E+03;  1.0000000E-01;  2.9625828E+03;0;  0.0000000E+00;  0.0000000E+00;  0.0000000E+00;0; -2.4214195E-01;  4.0000000E+04;  0.0000000E+00;  0.0000000E+00;  4.0000000E+04;  0.0000000E+00;  4.0000000E+04; -2.3950781E-01;  0.0000000E+00; -2.6341351E-03;  5.7661206E+05;
  2.0000000E-01;  9.9999998E-03;  3.1999999E-01;2435;  0.0000000E+00;  0.0000000E+00;  0.0000000E+00;  1.0031470E+03;  1.0000000E-01;  2.6072346E+03;0;  0.0000000E+00;  0.0000000E+00;  0.0000000E+00;0; -2.1264547E-01;  4.0000000E+04;  0.0000000E+00;  0.0000000E+00;  4.0000000E+04;  0.0000000E+00;  4.0000000E+04; -2.0906331E-01;  0.0000000E+00; -3.5821605E-03;  5.5028725E+05;
  2.0000000E-01;  9.9999998E-03;  3.3000001E-01;2436;  0.0000000E+00;  0.0000000E+00;  0.0000000E+00;  1.0026624E+03;  1.0000000E-01;  2.2057646E+03;0;  0.0000000E+00;  0.0000000E+00;  0.0000000E+00;0; -1.7966025E-01;  4.0000000E+04;  0.0000000E+00;  0.0000000E+00;  4.0000000E+04;  0.0000000E+00;  4.0000000E+04; -1.7552742E-01;  0.0000000E+00; -4.1328180E-03;  4.7873359E+05;
  2.0000000E-01;  9.9999998E-03;  3.4000000E-01;2437;  0.0000000E+00;  0.0000000E+00;  0.0000000E+00;  1.0021588E+03;  1.0000000E-01;  1.7884924E+03;0;  0.0000000E+00;  0.0000000E+00;  0.0000000E+00;0; -1.4559647E-01;  4.0000000E+04;  0.0000000E+00;  0.0000000E+00;  4.0000000E+04;  0.0000000E+00;  4.0000000E+04; -1.4131768E-01;  0.0000000E+00; -4.2787907E-03;  3.7902747E+05;
  2.0000000E-01;  9.9999998E-03;  3.4999999E-01;2438;  0.0000000E+00;  0.0000000E+00;  0.0000000E+00;  1.0016764E+03;  1.0000000E-01;  1.3888989E+03;0;  0.0000000E+00;  0.0000000E+00;  0.0000000E+00;0; -1.1288875E-01;  4.0000000E+04;  0.0000000E+00;  0.0000000E+00;  4.0000000E+04;  0.0000000E+00;  4.0000000E+04; -1.0880153E-01;  0.0000000E+00; -4.0872204E-03;  2.6891934E+05;
  2.0000000E-01;  9.9999998E-03;  3.6000001E-01;2439;  0.0000000E+00;  0.0000000E+00;  0.0000000E+00;  1.0012430E+03;  1.0000000E-01;  1.0297980E+03;0;  0.0000000E+00;  0.0000000E+00;  0.0000000E+00;0; -8.3544560E-02;  4.0000000E+04;  0.0000000E+00;  0.0000000E+00;  4.0000000E+04;  0.0000000E+00;  4.0000000E+04; -7.9892896E-02;  0.0000000E+00; -3.6516669E-03;  1.6307628E+05;
  2.0000000E-01;  9.9999998E-03;  3.7000000E-01;2440;  0.0000000E+00;  0.0000000E+00;  0.0000000E+00;  1.0008800E+03;  1.0000000E-01;  7.2906573E+02;0;  0.0000000E+00;  0.0000000E+00;  0.0000000E+00;0; -5.8859754E-02;  4.0000000E+04;  0.0000000E+00;  0.0000000E+00;  4.0000000E+04;  0.0000000E+00;  4.0000000E+04; -5.5794850E-02;  0.0000000E+00; -3.0649053E-03;  7.1800570E+04;
  2.0000000E-01;  9.9999998E-03;  3.8000000E-01;2441;  0.0000000E+00;  0.0000000E+00;  0.0000000E+00;  1.0005925E+03;  1.0000000E-01;  4.9085028E+02;0;  0.0000000E+00;  0.0000000E+00;  0.0000000E+00;0; -3.9341796E-02;  4.0000000E+04;  0.0000000E+00;  0.0000000E+00;  4.0000000E+04;  0.0000000E+00;  4.0000000E+04; -3.6933668E-02;  0.0000000E+00; -2.4081282E-03;  6.9314458E+03;
  2.0000000E-01;  9.9999998E-03;  3.8999999E-01;2442;  0.0000000E+00;  0.0000000E+00;  0.0000000E+00;  1.0003773E+03;  1.0000000E-01;  3.1258374E+02;0;  0.0000000E+00;  0.0000000E+00;  0.0000000E+00;0; -2.4816139E-02;  4.0000000E+04;  0.0000000E+00;  0.0000000E+00;  4.0000000E+04;  0.0000000E+00;  4.0000000E+04; -2.3066824E-02;  0.0000000E+00; -1.7493148E-03;  4.8355273E+04;
  2.0000000E-01;  9.9999998E-03;  4.0000001E-01;2443;  0.0000000E+00;  0.0000000E+00;  0.0000000E+00;  1.0002267E+03;  1.0000000E-01;  1.8784653E+02;0;  0.0000000E+00;  0.0000000E+00;  0.0000000E+00;0; -1.4639284E-02;  4.0000000E+04;  0.0000000E+00;  0.0000000E+00;  4.0000000E+04;  0.0000000E+00;  4.0000000E+04; -1.3494186E-02;  0.0000000E+00; -1.1450973E-03;  7.3544656E+04;
 -1.9000000E-01;  9.9999998E-03;  4.1000000E-01;175;  0.0000000E+00;  0.0000000E+00;  0.0000000E+00;  1.0000000E+03;  1.0000000E-01;  0.0000000E+00;0;  0.0000000E+00;  0.0000000E+00;  0.0000000E+00;0;  0.0000000E+00;  4.0000000E+04;  0.0000000E+00;  0.0000000E+00;  4.0000000E+04;  0.0000000E+00;  4.0000000E+04;  0.0000000E+00;  0.0000000E+00;  0.0000000E+00;  0.0000000E+00;
 -1.9000000E-01;  9.9999998E-03;  4.1999999E-01;176;  0.0000000E+00;  0.0000000E+00;  0.0000000E+00;  1.0000000E+03;  1.0000000E-01;  0.0000000E+00;0;  0.0000000E+00;  0.0000000E+00;  0.0000000E+00;0;  0.0000000E+00;  4.0000000E+04;  0.0000000E+00;  0.0000000E+00;  4.0000000E+04;  0.0000000E+00;  4.0000000E+04;  0.0000000E+00;  0.0000000E+00;  0.0000000E+00;  0.0000000E+00;
 -1.9000000E-01;  9.9999998E-03;  4.3000001E-01;177;  0.0000000E+00;  0.0000000E+00;  0.0000000E+00;  1.0000000E+03;  1.0000000E-01;  0.0000000E+00;0;  0.0000000E+00;  0.0000000E+00;  0.0000000E+00;0;  0.0000000E+00;  4.0000000E+04;  0.0000000E+00;  0.0000000E+00;  4.0000000E+04;  0.0000000E+00;  4.0000000E+04;  0.0000000E+00;  0.0000000E+00;  0.0000000E+00;  0.0000000E+00;
 -1.9000000E-01;  9.9999998E-03;  4.4000000E-01;178;  0.0000000E+00;  0.0000000E+00;  0.0000000E+00;  1.0000000E+03;  1.0000000E-01;  0.0000000E+00;0;  0.0000000E+00;  0.0000000E+00;  0.0000000E+00;0;  0.0000000E+00;  4.0000000E+04;  0.0000000E+00;  0.0000000E+00;  4.0000000E+04;  0.0000000E+00;  4.0000000E+04;  0.0000000E+00;  0.0000000E+00;  0.0000000E+00;  0.0000000E+00;
 -1.9000000E-01;  9.9999998E-03;  4.4999999E-01;179;  0.0000000E+00;  0.0000000E+00;  0.0000000E+00;  1.0000000E+03;  1.0000000E-01;  0.0000000E+00;0;  0.0000000E+00;  0.0000000E+00;  0.0000000E+00;0;  0.0000000E+00;  4.0000000E+04;  0.0000000E+00;  0.0000000E+00;  4.0000000E+04;  0.0000000E+00;  4.0000000E+04;  0.0000000E+00;  0.0000000E+00;  0.0000000E+00;  0.0000000E+00;
 -1.8000001E-01;  9.9999998E-03;  4.1000000E-01;266;  0.0000000E+00;  0.0000000E+00;  0.0000000E+00;  1.0000000E+03;  1.0000000E-01;  0.0000000E+00;0;  0.0000000E+00;  0.0000000E+00;  0.0000000E+00;0;  0.0000000E+00;  4.0000000E+04;  0.0000000E+00;  0.0000000E+00;  4.0000000E+04;  0.0000000E+00;  4.0000000E+04;  0.0000000E+00;  0.0000000E+00;  0.0000000E+00;  0.0000000E+00;
 -1.8000001E-01;  9.9999998E-03;  4.1999999E-01;267;  0.0000000E+00;  0.0000000E+00;  0.0000000E+00;  1.0000000E+03;  1.0000000E-01;  0.0000000E+00;0;  0.0000000E+00;  0.0000000E+00;  0.0000000E+00;0;  0.0000000E+00;  4.0000000E+04;  0.0000000E+00;  0.0000000E+00;  4.0000000E+04;  0.0000000E+00;  4.0000000E+04;  0.0000000E+00;  0.0000000E+00;  0.0000000E+00;  0.0000000E+00;
 -1.8000001E-01;  9.9999998E-03;  4.3000001E-01;268;  0.0000000E+00;  0.0000000E+00;  0.0000000E+00;  1.0000000E+03;  1.0000000E-01;  0.0000000E+00;0;  0.0000000E+00;  0.0000000E+00;  0.0000000E+00;0;  0.0000000E+00;  4.0000000E+04;  0.0000000E+00;  0.0000000E+00;  4.0000000E+04;  0.0000000E+00;  4.0000000E+04;  0.0000000E+00;  0.0000000E+00;  0.0000000E+00;  0.0000000E+00;
 -1.8000001E-01;  9.9999998E-03;  4.4000000E-01;269;  0.0000000E+00;  0.0000000E+00;  0.0000000E+00;  1.0000000E+03;  1.0000000E-01;  0.0000000E+00;0;  0.0000000E+00;  0.0000000E+00;  0.0000000E+00;0;  0.0000000E+00;  4.0000000E+04;  0.0000000E+00;  0.0000000E+00;  4.0000000E+04;  0.0000000E+00;  4.0000000E+04;  0.0000000E+00;  0.0000000E+00;  0.0000000E+00;  0.0000000E+00;
 -1.8000001E-01;  9.9999998E-03;  4.4999999E-01;270;  0.0000000E+00;  0.0000000E+00;  0.0000000E+00;  1.0000000E+03;  1.0000000E-01;  0.0000000E+00;0;  0.0000000E+00;  0.0000000E+00;  0.0000000E+00;0;  0.0000000E+00;  4.0000000E+04;  0.0000000E+00;  0.0000000E+00;  4.0000000E+04;  0.0000000E+00;  4.0000000E+04;  0.0000000E+00;  0.0000000E+00;  0.0000000E+00;  0.0000000E+00;
 -1.7000000E-01;  9.9999998E-03;  4.1000000E-01;357;  0.0000000E+00;  0.0000000E+00;  0.0000000E+00;  1.0000000E+03;  1.0000000E-01;  0.0000000E+00;0;  0.0000000E+00;  0.0000000E+00;  0.0000000E+00;0;  0.0000000E+00;  4.0000000E+04;  0.0000000E+00;  0.0000000E+00;  4.0000000E+04;  0.0000000E+00;  4.0000000E+04;  0.0000000E+00;  0.0000000E+00;  0.0000000E+00;  0.0000000E+00;
 -1.7000000E-01;  9.9999998E-03;  4.1999999E-01;358;  0.0000000E+00;  0.0000000E+00;  0.0000000E+00;  1.0000000E+03;  1.0000000E-01;  0.0000000E+00;0;  0.0000000E+00;  0.0000000E+00;  0.0000000E+00;0;  0.0000000E+00;  4.0000000E+04;  0.0000000E+00;  0.0000000E+00;  4.0000000E+04;  0.0000000E+00;  4.0000000E+04;  0.0000000E+00;  0.0000000E+00;  0.0000000E+00;  0.0000000E+00;
 -1.7000000E-01;  9.9999998E-03;  4.3000001E-01;359;  0.0000000E+00;  0.0000000E+00;  0.0000000E+00;  1.0000000E+03;  1.0000000E-01;  0.0000000E+00;0;  0.0000000E+00;  0.0000000E+00;  0.0000000E+00;0;  0.0000000E+00;  4.0000000E+04;  0.0000000E+00;  0.0000000E+00;  4.0000000E+04;  0.0000000E+00;  4.0000000E+04;  0.0000000E+00;  0.0000000E+00;  0.0000000E+00;  0.0000000E+00;
 -1.7000000E-01;  9.9999998E-03;  4.4000000E-01;360;  0.0000000E+00;  0.0000000E+00;  0.0000000E+00;  1.0000000E+03;  1.0000000E-01;  0.0000000E+00;0;  0.0000000E+00;  0.0000000E+00;  0.0000000E+00;0;  0.0000000E+00;  4.0000000E+04;  0.0000000E+00;  0.0000000E+00;  4.0000000E+04;  0.0000000E+00;  4.0000000E+04;  0.0000000E+00;  0.0000000E+00;  0.0000000E+00;  0.0000000E+00;
 -1.7000000E-01;  9.9999998E-03;  4.4999999E-01;361;  0.0000000E+00;  0.0000000E+00;  0.0000000E+00;  1.0000000E+03;  1.0000000E-01;  0.0000000E+00;0;  0.0000000E+00;  0.0000000E+00;  0.0000000E+00;0;  0.0000000E+00;  4.0000000E+04;  0.0000000E+00;  0.0000000E+00;  4.0000000E+04;  0.0000000E+00;  4.0000000E+04;  0.0000000E+00;  0.0000000E+00;  0.0000000E+00;  0.0000000E+00;
 -1.6000000E-01;  9.9999998E-03;  4.1000000E-01;448;  0.0000000E+00;  0.0000000E+00;  0.0000000E+00;  1.0000000E+03;  1.0000000E-01;  0.0000000E+00;0;  0.0000000E+00;  0.0000000E+00;  0.0000000E+00;0;  0.0000000E+00;  4.0000000E+04;  0.0000000E+00;  0.0000000E+00;  4.0000000E+04;  0.0000000E+00;  4.0000000E+04;  0.0000000E+00;  0.0000000E+00;  0.0000000E+00;  0.0000000E+00;
 -1.6000000E-01;  9.9999998E-03;  4.1999999E-01;449;  0.0000000E+00;  0.0000000E+00;  0.0000000E+00;  1.0000000E+03;  1.0000000E-01;  0.0000000E+00;0;  0.0000000E+00;  0.0000000E+00;  0.0000000E+00;0;  0.0000000E+00;  4.0000000E+04;  0.0000000E+00;  0.0000000E+00;  4.0000000E+04;  0.0000000E+00;  4.0000000E+04;  0.0000000E+00;  0.0000000E+00;  0.0000000E+00;  0.0000000E+00;
 -1.6000000E-01;  9.9999998E-03;  4.3000001E-01;450;  0.0000000E+00;  0.0000000E+00;  0.0000000E+00;  1.0000000E+03;  1.0000000E-01;  0.0000000E+00;0;  0.0000000E+00;  0.0000000E+00;  0.0000000E+00;0;  0.0000000E+00;  4.0000000E+04;  0.0000000E+00;  0.0000000E+00;  4.0000000E+04;  0.0000000E+00;  4.0000000E+04;  0.0000000E+00;  0.0000000E+00;  0.0000000E+00;  0.0000000E+00;
 -1.6000000E-01;  9.9999998E-03;  4.4000000E-01;451;  0.0000000E+00;  0.0000000E+00;  0.0000000E+00;  1.0000000E+03;  1.0000000E-01;  0.0000000E+00;0;  0.0000000E+00;  0.0000000E+00;  0.0000000E+00;0;  0.0000000E+00;  4.0000000E+04;  0.0000000E+00;  0.0000000E+00;  4.0000000E+04;  0.0000000E+00;  4.0000000E+04;  0.0000000E+00;  0.0000000E+00;  0.0000000E+00;  0.0000000E+00;
 -1.6000000E-01;  9.9999998E-03;  4.4999999E-01;452;  0.0000000E+00;  0.0000000E+00;  0.0000000E+00;  1.0000000E+03;  1.0000000E-01;  0.0000000E+00;0;  0.0000000E+00;  0.0000000E+00;  0.0000000E+00;0;  0.0000000E+00;  4.0000000E+04;  0.0000000E+00;  0.0000000E+00;  4.0000000E+04;  0.0000000E+00;  4.0000000E+04;  0.0000000E+00;  0.0000000E+00;  0.0000000E+00;  0.0000000E+00;
 -1.5000001E-01;  9.9999998E-03;  4.1000000E-01;539;  0.0000000E+00;  0.0000000E+00;  0.0000000E+00;  1.0000000E+03;  1.0000000E-01;  0.0000000E+00;0;  0.0000000E+00;  0.0000000E+00;  0.0000000E+00;0;  0.0000000E+00;  4.0000000E+04;  0.0000000E+00;  0.0000000E+00;  4.0000000E+04;  0.0000000E+00;  4.0000000E+04;  0.0000000E+00;  0.0000000E+00;  0.0000000E+00;  0.0000000E+00;
 -1.5000001E-01;  9.9999998E-03;  4.1999999E-01;540;  0.0000000E+00;  0.0000000E+00;  0.0000000E+00;  1.0000000E+03;  1.0000000E-01;  0.0000000E+00;0;  0.0000000E+00;  0.0000000E+00;  0.0000000E+00;0;  0.0000000E+00;  4.0000000E+04;  0.0000000E+00;  0.0000000E+00;  4.0000000E+04;  0.0000000E+00;  4.0000000E+04;  0.0000000E+00;  0.0000000E+00;  0.0000000E+00;  0.0000000E+00;
 -1.5000001E-01;  9.9999998E-03;  4.3000001E-01;541;  0.0000000E+00;  0.0000000E+00;  0.0000000E+00;  1.0000000E+03;  1.0000000E-01;  0.0000000E+00;0;  0.0000000E+00;  0.0000000E+00;  0.0000000E+00;0;  0.0000000E+00;  4.0000000E+04;  0.0000000E+00;  0.0000000E+00;  4.0000000E+04;  0.0000000E+00;  4.0000000E+04;  0.0000000E+00;  0.0000000E+00;  0.0000000E+00;  0.0000000E+00;
 -1.5000001E-01;  9.9999998E-03;  4.4000000E-01;542;  0.0000000E+00;  0.0000000E+00;  0.0000000E+00;  1.0000000E+03;  1.0000000E-01;  0.0000000E+00;0;  0.0000000E+00;  0.0000000E+00;  0.0000000E+00;0;  0.0000000E+00;  4.0000000E+04;  0.0000000E+00;  0.0000000E+00;  4.0000000E+04;  0.0000000E+00;  4.0000000E+04;  0.0000000E+00;  0.0000000E+00;  0.0000000E+00;  0.0000000E+00;
 -1.5000001E-01;  9.9999998E-03;  4.4999999E-01;543;  0.0000000E+00;  0.0000000E+00;  0.0000000E+00;  1.0000000E+03;  1.0000000E-01;  0.0000000E+00;0;  0.0000000E+00;  0.0000000E+00;  0.0000000E+00;0;  0.0000000E+00;  4.0000000E+04;  0.0000000E+00;  0.0000000E+00;  4.0000000E+04;  0.0000000E+00;  4.0000000E+04;  0.0000000E+00;  0.0000000E+00;  0.0000000E+00;  0.0000000E+00;
 -1.4000000E-01;  9.9999998E-03;  4.1000000E-01;630;  0.0000000E+00;  0.0000000E+00;  0.0000000E+00;  1.0000000E+03;  1.0000000E-01;  0.0000000E+00;0;  0.0000000E+00;  0.0000000E+00;  0.0000000E+00;0;  0.0000000E+00;  4.0000000E+04;  0.0000000E+00;  0.0000000E+00;  4.0000000E+04;  0.0000000E+00;  4.0000000E+04;  0.0000000E+00;  0.0000000E+00;  0.0000000E+00;  0.0000000E+00;
 -1.4000000E-01;  9.9999998E-03;  4.1999999E-01;631;  0.0000000E+00;  0.0000000E+00;  0.0000000E+00;  1.0000000E+03;  1.0000000E-01;  0.0000000E+00;0;  0.0000000E+00;  0.0000000E+00;  0.0000000E+00;0;  0.0000000E+00;  4.0000000E+04;  0.0000000E+00;  0.0000000E+00;  4.0000000E+04;  0.0000000E+00;  4.0000000E+04;  0.0000000E+00;  0.0000000E+00;  0.0000000E+00;  0.0000000E+00;
 -1.4000000E-01;  9.9999998E-03;  4.3000001E-01;632;  0.0000000E+00;  0.0000000E+00;  0.0000000E+00;  1.0000000E+03;  1.0000000E-01;  0.0000000E+00;0;  0.0000000E+00;  0.0000000E+00;  0.0000000E+00;0;  0.0000000E+00;  4.0000000E+04;  0.0000000E+00;  0.0000000E+00;  4.0000000E+04;  0.0000000E+00;  4.0000000E+04;  0.0000000E+00;  0.0000000E+00;  0.0000000E+00;  0.0000000E+00;
 -1.4000000E-01;  9.9999998E-03;  4.4000000E-01;633;  0.0000000E+00;  0.0000000E+00;  0.0000000E+00;  1.0000000E+03;  1.0000000E-01;  0.0000000E+00;0;  0.0000000E+00;  0.0000000E+00;  0.0000000E+00;0;  0.0000000E+00;  4.0000000E+04;  0.0000000E+00;  0.0000000E+00;  4.0000000E+04;  0.0000000E+00;  4.0000000E+04;  0.0000000E+00;  0.0000000E+00;  0.0000000E+00;  0.0000000E+00;
 -1.4000000E-01;  9.9999998E-03;  4.4999999E-01;634;  0.0000000E+00;  0.0000000E+00;  0.0000000E+00;  1.0000000E+03;  1.0000000E-01;  0.0000000E+00;0;  0.0000000E+00;  0.0000000E+00;  0.0000000E+00;0;  0.0000000E+00;  4.0000000E+04;  0.0000000E+00;  0.0000000E+00;  4.0000000E+04;  0.0000000E+00;  4.0000000E+04;  0.0000000E+00;  0.0000000E+00;  0.0000000E+00;  0.0000000E+00;
 -1.3000000E-01;  9.9999998E-03;  4.1000000E-01;721;  0.0000000E+00;  0.0000000E+00;  0.0000000E+00;  1.0000000E+03;  1.0000000E-01;  0.0000000E+00;0;  0.0000000E+00;  0.0000000E+00;  0.0000000E+00;0;  0.0000000E+00;  4.0000000E+04;  0.0000000E+00;  0.0000000E+00;  4.0000000E+04;  0.0000000E+00;  4.0000000E+04;  0.0000000E+00;  0.0000000E+00;  0.0000000E+00;  0.0000000E+00;
 -1.3000000E-01;  9.9999998E-03;  4.1999999E-01;722;  0.0000000E+00;  0.0000000E+00;  0.0000000E+00;  1.0000000E+03;  1.0000000E-01;  0.0000000E+00;0;  0.0000000E+00;  0.0000000E+00;  0.0000000E+00;0;  0.0000000E+00;  4.0000000E+04;  0.0000000E+00;  0.0000000E+00;  4.0000000E+04;  0.0000000E+00;  4.0000000E+04;  0.0000000E+00;  0.0000000E+00;  0.0000000E+00;  0.0000000E+00;
 -1.3000000E-01;  9.9999998E-03;  4.3000001E-01;723;  0.0000000E+00;  0.0000000E+00;  0.0000000E+00;  1.0000000E+03;  1.0000000E-01;  0.0000000E+00;0;  0.0000000E+00;  0.0000000E+00;  0.0000000E+00;0;  0.0000000E+00;  4.0000000E+04;  0.0000000E+00;  0.0000000E+00;  4.0000000E+04;  0.0000000E+00;  4.0000000E+04;  0.0000000E+00;  0.0000000E+00;  0.0000000E+00;  0.0000000E+00;
 -1.3000000E-01;  9.9999998E-03;  4.4000000E-01;724;  0.0000000E+00;  0.0000000E+00;  0.0000000E+00;  1.0000000E+03;  1.0000000E-01;  0.0000000E+00;0;  0.0000000E+00;  0.0000000E+00;  0.0000000E+00;0;  0.0000000E+00;  4.0000000E+04;  0.0000000E+00;  0.0000000E+00;  4.0000000E+04;  0.0000000E+00;  4.0000000E+04;  0.0000000E+00;  0.0000000E+00;  0.0000000E+00;  0.0000000E+00;
 -1.3000000E-01;  9.9999998E-03;  4.4999999E-01;725;  0.0000000E+00;  0.0000000E+00;  0.0000000E+00;  1.0000000E+03;  1.0000000E-01;  0.0000000E+00;0;  0.0000000E+00;  0.0000000E+00;  0.0000000E+00;0;  0.0000000E+00;  4.0000000E+04;  0.0000000E+00;  0.0000000E+00;  4.0000000E+04;  0.0000000E+00;  4.0000000E+04;  0.0000000E+00;  0.0000000E+00;  0.0000000E+00;  0.0000000E+00;
 -1.2000000E-01;  9.9999998E-03;  4.1000000E-01;812;  0.0000000E+00;  0.0000000E+00;  0.0000000E+00;  1.0000000E+03;  1.0000000E-01;  0.0000000E+00;0;  0.0000000E+00;  0.0000000E+00;  0.0000000E+00;0;  0.0000000E+00;  4.0000000E+04;  0.0000000E+00;  0.0000000E+00;  4.0000000E+04;  0.0000000E+00;  4.0000000E+04;  0.0000000E+00;  0.0000000E+00;  0.0000000E+00;  3.0553776E-06;
 -1.2000000E-01;  9.9999998E-03;  4.1999999E-01;813;  0.0000000E+00;  0.0000000E+00;  0.0000000E+00;  1.0000000E+03;  1.0000000E-01;  0.0000000E+00;0;  0.0000000E+00;  0.0000000E+00;  0.0000000E+00;0;  0.0000000E+00;  4.0000000E+04;  0.0000000E+00;  0.0000000E+00;  4.0000000E+04;  0.0000000E+00;  4.0000000E+04;  0.0000000E+00;  0.0000000E+00;  0.0000000E+00;  0.0000000E+00;
 -1.2000000E-01;  9.9999998E-03;  4.3000001E-01;814;  0.0000000E+00;  0.0000000E+00;  0.0000000E+00;  1.0000000E+03;  1.0000000E-01;  0.0000000E+00;0;  0.0000000E+00;  0.0000000E+00;  0.0000000E+00;0;  0.0000000E+00;  4.0000000E+04;  0.0000000E+00;  0.0000000E+00;  4.0000000E+04;  0.0000000E+00;  4.0000000E+04;  0.0000000E+00;  0.0000000E+00;  0.0000000E+00;  0.0000000E+00;
 -1.2000000E-01;  9.9999998E-03;  4.4000000E-01;815;  0.0000000E+00;  0.0000000E+00;  0.0000000E+00;  1.0000000E+03;  1.0000000E-01;  0.0000000E+00;0;  0.0000000E+00;  0.0000000E+00;  0.0000000E+00;0;  0.0000000E+00;  4.0000000E+04;  0.0000000E+00;  0.0000000E+00;  4.0000000E+04;  0.0000000E+00;  4.0000000E+04;  0.0000000E+00;  0.0000000E+00;  0.0000000E+00;  0.0000000E+00;
 -1.2000000E-01;  9.9999998E-03;  4.4999999E-01;816;  0.0000000E+00;  0.0000000E+00;  0.0000000E+00;  1.0000000E+03;  1.0000000E-01;  0.0000000E+00;0;  0.0000000E+00;  0.0000000E+00;  0.0000000E+00;0;  0.0000000E+00;  4.0000000E+04;  0.0000000E+00;  0.0000000E+00;  4.0000000E+04;  0.0000000E+00;  4.0000000E+04;  0.0000000E+00;  0.0000000E+00;  0.0000000E+00;  0.0000000E+00;
 -1.1000000E-01;  9.9999998E-03;  4.1000000E-01;903;  0.0000000E+00;  0.0000000E+00;  0.0000000E+00;  1.0000000E+03;  1.0000000E-01;  0.0000000E+00;0;  0.0000000E+00;  0.0000000E+00;  0.0000000E+00;0; -6.2247830E-07;  4.0000000E+04;  0.0000000E+00;  0.0000000E+00;  4.0000000E+04;  0.0000000E+00;  4.0000000E+04; -2.9601102E-07;  0.0000000E+00; -3.2646727E-07;  4.5980227E-01;
 -1.1000000E-01;  9.9999998E-03;  4.1999999E-01;904;  0.0000000E+00;  0.0000000E+00;  0.0000000E+00;  1.0000000E+03;  1.0000000E-01;  0.0000000E+00;0;  0.0000000E+00;  0.0000000E+00;  0.0000000E+00;0;  0.0000000E+00;  4.0000000E+04;  0.0000000E+00;  0.0000000E+00;  4.0000000E+04;  0.0000000E+00;  4.0000000E+04;  0.0000000E+00;  0.0000000E+00;  0.0000000E+00;  2.4097315E-06;
 -1.1000000E-01;  9.9999998E-03;  4.3000001E-01;905;  0.0000000E+00;  0.0000000E+00;  0.0000000E+00;  1.0000000E+03;  1.0000000E-01;  0.0000000E+00;0;  0.0000000E+00;  0.0000000E+00;  0.0000000E+00;0;  0.0000000E+00;  4.0000000E+04;  0.0000000E+00;  0.0000000E+00;  4.0000000E+04;  0.0000000E+00;  4.0000000E+04;  0.0000000E+00;  0.0000000E+00;  0.0000000E+00;  0.0000000E+00;
 -1.1000000E-01;  9.9999998E-03;  4.4000000E-01;906;  0.0000000E+00;  0.0000000E+00;  0.0000000E+00;  1.0000000E+03;  1.0000000E-01;  0.0000000E+00;0;  0.0000000E+00;  0.0000000E+00;  0.0000000E+00;0;  0.0000000E+00;  4.0000000E+04;  0.0000000E+00;  0.0000000E+00;  4.0000000E+04;  0.0000000E+00;  4.0000000E+04;  0.0000000E+00;  0.0000000E+00;  0.0000000E+00;  0.0000000E+00;
 -1.1000000E-01;  9.9999998E-03;  4.4999999E-01;907;  0.0000000E+00;  0.0000000E+00;  0.0000000E+00;  1.0000000E+03;  1.0000000E-01;  0.0000000E+00;0;  0.0000000E+00;  0.0000000E+00;  0.0000000E+00;0;  0.0000000E+00;  4.0000000E+04;  0.0000000E+00;  0.0000000E+00;  4.0000000E+04;  0.0000000E+00;  4.0000000E+04;  0.0000000E+00;  0.0000000E+00;  0.0000000E+00;  0.0000000E+00;
 -1.0000000E-01;  9.9999998E-03;  4.1000000E-01;994;  0.0000000E+00;  0.0000000E+00;  0.0000000E+00;  1.0000000E+03;  1.0000000E-01;  0.0000000E+00;0;  0.0000000E+00;  0.0000000E+00;  0.0000000E+00;0; -5.8700389E-06;  4.0000000E+04;  0.0000000E+00;  0.0000000E+00;  4.0000000E+04;  0.0000000E+00;  4.0000000E+04; -2.6275502E-06;  0.0000000E+00; -3.2424889E-06;  4.2340360E+00;
 -1.0000000E-01;  9.9999998E-03;  4.1999999E-01;995;  0.0000000E+00;  0.0000000E+00;  0.0000000E+00;  1.0000000E+03;  1.0000000E-01;  0.0000000E+00;0;  0.0000000E+00;  0.0000000E+00;  0.0000000E+00;0; -5.0284496E-07;  4.0000000E+04;  0.0000000E+00;  0.0000000E+00;  4.0000000E+04;  0.0000000E+00;  4.0000000E+04; -2.2102016E-07;  0.0000000E+00; -2.8182481E-07;  4.1266114E-01;
 -1.0000000E-01;  9.9999998E-03;  4.3000001E-01;996;  0.0000000E+00;  0.0000000E+00;  0.0000000E+00;  1.0000000E+03;  1.0000000E-01;  0.0000000E+00;0;  0.0000000E+00;  0.0000000E+00;  0.0000000E+00;0;  0.0000000E+00;  4.0000000E+04;  0.0000000E+00;  0.0000000E+00;  4.0000000E+04;  0.0000000E+00;  4.0000000E+04;  0.0000000E+00;  0.0000000E+00;  0.0000000E+00;  0.0000000E+00;
 -1.0000000E-01;  9.9999998E-03;  4.4000000E-01;997;  0.0000000E+00;  0.0000000E+00;  0.0000000E+00;  1.0000000E+03;  1.0000000E-01;  0.0000000E+00;0;  0.0000000E+00;  0.0000000E+00;  0.0000000E+00;0;  0.0000000E+00;  4.0000000E+04;  0.0000000E+00;  0.0000000E+00;  4.0000000E+04;  0.0000000E+00;  4.0000000E+04;  0.0000000E+00;  0.0000000E+00;  0.0000000E+00;  0.0000000E+00;
 -1.0000000E-01;  9.9999998E-03;  4.4999999E-01;998;  0.0000000E+00;  0.0000000E+00;  0.0000000E+00;  1.0000000E+03;  1.0000000E-01;  0.0000000E+00;0;  0.0000000E+00;  0.0000000E+00;  0.0000000E+00;0;  0.0000000E+00;  4.0000000E+04;  0.0000000E+00;  0.0000000E+00;  4.0000000E+04;  0.0000000E+00;  4.0000000E+04;  0.0000000E+00;  0.0000000E+00;  0.0000000E+00;  0.0000000E+00;
 -9.0000004E-02;  9.9999998E-03;  4.1000000E-01;1085;  0.0000000E+00;  0.0000000E+00;  0.0000000E+00;  1.0000000E+03;  1.0000000E-01;  0.0000000E+00;0;  0.0000000E+00;  0.0000000E+00;  0.0000000E+00;0; -2.3672139E-05;  4.0000000E+04;  0.0000000E+00;  0.0000000E+00;  4.0000000E+04;  0.0000000E+00;  4.0000000E+04; -9.9477384E-06;  0.0000000E+00; -1.3724400E-05;  1.7070957E+01;
 -9.0000004E-02;  9.9999998E-03;  4.1999999E-01;1086;  0.0000000E+00;  0.0000000E+00;  0.0000000E+00;  1.0000000E+03;  1.0000000E-01;  0.0000000E+00;0;  0.0000000E+00;  0.0000000E+00;  0.0000000E+00;0; -4.6015530E-06;  4.0000000E+04;  0.0000000E+00;  0.0000000E+00;  4.0000000E+04;  0.0000000E+00;  4.0000000E+04; -1.8754891E-06;  0.0000000E+00; -2.7260639E-06;  3.6523833E+00;
 -9.0000004E-02;  9.9999998E-03;  4.3000001E-01;1087;  0.0000000E+00;  0.0000000E+00;  0.0000000E+00;  1.0000000E+03;  1.0000000E-01;  0.0000000E+00;0;  0.0000000E+00;  0.0000000E+00;  0.0000000E+00;0; -2.1565674E-07;  4.0000000E+04;  0.0000000E+00;  0.0000000E+00;  4.0000000E+04;  0.0000000E+00;  4.0000000E+04; -9.1252424E-08;  0.0000000E+00; -1.2440432E-07;  1.9910212E-01;
 -9.0000004E-02;  9.9999998E-03;  4.4000000E-01;1088;  0.0000000E+00;  0.0000000E+00;  0.0000000E+00;  1.0000000E+03;  1.0000000E-01;  0.0000000E+00;0;  0.0000000E+00;  0.0000000E+00;  0.0000000E+00;0;  0.0000000E+00;  4.0000000E+04;  0.0000000E+00;  0.0000000E+00;  4.0000000E+04;  0.0000000E+00;  4.0000000E+04;  0.0000000E+00;  0.0000000E+00;  0.0000000E+00;  0.0000000E+00;
 -9.0000004E-02;  9.9999998E-03;  4.4999999E-01;1089;  0.0000000E+00;  0.0000000E+00;  0.0000000E+00;  1.0000000E+03;  1.0000000E-01;  0.0000000E+00;0;  0.0000000E+00;  0.0000000E+00;  0.0000000E+00;0;  0.0000000E+00;  4.0000000E+04;  0.0000000E+00;  0.0000000E+00;  4.0000000E+04;  0.0000000E+00;  4.0000000E+04;  0.0000000E+00;  0.0000000E+00;  0.0000000E+00;  0.0000000E+00;
 -7.9999998E-02;  9.9999998E-03;  4.1000000E-01;1176;  0.0000000E+00;  0.0000000E+00;  0.0000000E+00;  1.0000000E+03;  1.0000000E-01;  0.0000000E+00;0;  0.0000000E+00;  0.0000000E+00;  0.0000000E+00;0; -6.5244414E-05;  4.0000000E+04;  0.0000000E+00;  0.0000000E+00;  4.0000000E+04;  0.0000000E+00;  4.0000000E+04; -2.5838217E-05;  0.0000000E+00; -3.9406194E-05;  4.6738014E+01;
 -7.9999998E-02;  9.9999998E-03;  4.1999999E-01;1177;  0.0000000E+00;  0.0000000E+00;  0.0000000E+00;  1.0000000E+03;  1.0000000E-01;  0.0000000E+00;0;  0.0000000E+00;  0.0000000E+00;  0.0000000E+00;0; -1.8101704E-05;  4.0000000E+04;  0.0000000E+00;  0.0000000E+00;  4.0000000E+04;  0.0000000E+00;  4.0000000E+04; -6.8953636E-06;  0.0000000E+00; -1.1206341E-05;  1.4262372E+01;
 -7.9999998E-02;  9.9999998E-03;  4.3000001E-01;1178;  0.0000000E+00;  0.0000000E+00;  0.0000000E+00;  1.0000000E+03;  1.0000000E-01;  0.0000000E+00;0;  0.0000000E+00;  0.0000000E+00;  0.0000000E+00;0; -2.4957842E-06;  4.0000000E+04;  0.0000000E+00;  0.0000000E+00;  4.0000000E+04;  0.0000000E+00;  4.0000000E+04; -9.4903311E-07;  0.0000000E+00; -1.5467510E-06;  2.1626430E+00;
 -7.9999998E-02;  9.9999998E-03;  4.4000000E-01;1179;  0.0000000E+00;  0.0000000E+00;  0.0000000E+00;  1.0000000E+03;  1.0000000E-01;  0.0000000E+00;0;  0.0000000E+00;  0.0000000E+00;  0.0000000E+00;0; -3.1602561E-08;  4.0000000E+04;  0.0000000E+00;  0.0000000E+00;  4.0000000E+04;  0.0000000E+00;  4.0000000E+04; -1.2984755E-08;  0.0000000E+00; -1.8617804E-08;  3.4258872E-02;
 -7.9999998E-02;  9.9999998E-03;  4.4999999E-01;1180;  0.0000000E+00;  0.0000000E+00;  0.0000000E+00;  1.0000000E+03;  1.0000000E-01;  0.0000000E+00;0;  0.0000000E+00;  0.0000000E+00;  0.0000000E+00;0;  0.0000000E+00;  4.0000000E+04;  0.0000000E+00;  0.0000000E+00;  4.0000000E+04;  0.0000000E+00;  4.0000000E+04;  0.0000000E+00;  0.0000000E+00;  0.0000000E+00;  0.0000000E+00;
 -7.0000000E-02;  9.9999998E-03;  4.1000000E-01;1267;  0.0000000E+00;  0.0000000E+00;  0.0000000E+00;  1.0000000E+03;  1.0000000E-01;  0.0000000E+00;0;  0.0000000E+00;  0.0000000E+00;  0.0000000E+00;0; -1.4387145E-04;  4.0000000E+04;  0.0000000E+00;  0.0000000E+00;  4.0000000E+04;  0.0000000E+00;  4.0000000E+04; -5.3958993E-05;  0.0000000E+00; -8.9912464E-05;  1.0128219E+02;
 -7.0000000E-02;  9.9999998E-03;  4.1999999E-01;1268;  0.0000000E+00;  0.0000000E+00;  0.0000000E+00;  1.0000000E+03;  1.0000000E-01;  0.0000000E+00;0;  0.0000000E+00;  0.0000000E+00;  0.0000000E+00;0; -4.8725145E-05;  4.0000000E+04;  0.0000000E+00;  0.0000000E+00;  4.0000000E+04;  0.0000000E+00;  4.0000000E+04; -1.7455070E-05;  0.0000000E+00; -3.1270076E-05;  3.7870571E+01;
 -7.0000000E-02;  9.9999998E-03;  4.3000001E-01;1269;  0.0000000E+00;  0.0000000E+00;  0.0000000E+00;  1.0000000E+03;  1.0000000E-01;  0.0000000E+00;0;  0.0000000E+00;  0.0000000E+00;  0.0000000E+00;0; -1.0357756E-05;  4.0000000E+04;  0.0000000E+00;  0.0000000E+00;  4.0000000E+04;  0.0000000E+00;  4.0000000E+04; -3.6641302E-06;  0.0000000E+00; -6.6936254E-06;  8.8268900E+00;
 -7.0000000E-02;  9.9999998E-03;  4.4000000E-01;1270;  0.0000000E+00;  0.0000000E+00;  0.0000000E+00;  1.0000000E+03;  1.0000000E-01;  0.0000000E+00;0;  0.0000000E+00;  0.0000000E+00;  0.0000000E+00;0; -7.5144146E-07;  4.0000000E+04;  0.0000000E+00;  0.0000000E+00;  4.0000000E+04;  0.0000000E+00;  4.0000000E+04; -2.7786353E-07;  0.0000000E+00; -4.7357790E-07;  7.1740109E-01;
 -7.0000000E-02;  9.9999998E-03;  4.4999999E-01;1271;  0.0000000E+00;  0.0000000E+00;  0.0000000E+00;  1.0000000E+03;  1.0000000E-01;  0.0000000E+00;0;  0.0000000E+00;  0.0000000E+00;  0.0000000E+00;0;  0.0000000E+00;  4.0000000E+04;  0.0000000E+00;  0.0000000E+00;  4.0000000E+04;  0.0000000E+00;  4.0000000E+04;  0.0000000E+00;  0.0000000E+00;  0.0000000E+00;  8.6631813E-12;
 -5.9999999E-02;  9.9999998E-03;  4.1000000E-01;1358;  0.0000000E+00;  0.0000000E+00;  0.0000000E+00;  1.0000000E+03;  1.0000000E-01;  0.0000000E+00;0;  0.0000000E+00;  0.0000000E+00;  0.0000000E+00;0; -2.7311567E-04;  4.0000000E+04;  0.0000000E+00;  0.0000000E+00;  4.0000000E+04;  0.0000000E+00;  4.0000000E+04; -9.7401353E-05;  0.0000000E+00; -1.7571432E-04;  1.8718655E+02;
 -5.9999999E-02;  9.9999998E-03;  4.1999999E-01;1359;  0.0000000E+00;  0.0000000E+00;  0.0000000E+00;  1.0000000E+03;  1.0000000E-01;  0.0000000E+00;0;  0.0000000E+00;  0.0000000E+00;  0.0000000E+00;0; -1.0498806E-04;  4.0000000E+04;  0.0000000E+00;  0.0000000E+00;  4.0000000E+04;  0.0000000E+00;  4.0000000E+04; -3.5513913E-05;  0.0000000E+00; -6.9474147E-05;  7.9735512E+01;
 -5.9999999E-02;  9.9999998E-03;  4.3000001E-01;1360;  0.0000000E+00;  0.0000000E+00;  0.0000000E+00;  1.0000000E+03;  1.0000000E-01;  0.0000000E+00;0;  0.0000000E+00;  0.0000000E+00;  0.0000000E+00;0; -2.8358405E-05;  4.0000000E+04;  0.0000000E+00;  0.0000000E+00;  4.0000000E+04;  0.0000000E+00;  4.0000000E+04; -9.3863791E-06;  0.0000000E+00; -1.8972027E-05;  2.3709040E+01;
 -5.9999999E-02;  9.9999998E-03;  4.4000000E-01;1361;  0.0000000E+00;  0.0000000E+00;  0.0000000E+00;  1.0000000E+03;  1.0000000E-01;  0.0000000E+00;0;  0.0000000E+00;  0.0000000E+00;  0.0000000E+00;0; -3.8588000E-06;  4.0000000E+04;  0.0000000E+00;  0.0000000E+00;  4.0000000E+04;  0.0000000E+00;  4.0000000E+04; -1.3048709E-06;  0.0000000E+00; -2.5539291E-06;  3.5607708E+00;
 -5.9999999E-02;  9.9999998E-03;  4.4999999E-01;1362;  0.0000000E+00;  0.0000000E+00;  0.0000000E+00;  1.0000000E+03;  1.0000000E-01;  0.0000000E+00;0;  0.0000000E+00;  0.0000000E+00;  0.0000000E+00;0; -7.0504640E-08;  4.0000000E+04;  0.0000000E+00;  0.0000000E+00;  4.0000000E+04;  0.0000000E+00;  4.0000000E+04; -2.5418666E-08;  0.0000000E+00; -4.5085976E-08;  7.6800257E-02;
 -5.0000001E-02;  9.9999998E-03;  4.1000000E-01;1449;  0.0000000E+00;  0.0000000E+00;  0.0000000E+00;  1.0000000E+03;  1.0000000E-01;  0.0000000E+00;0;  0.0000000E+00;  0.0000000E+00;  0.0000000E+00;0; -4.6436139E-04;  4.0000000E+04;  0.0000000E+00;  0.0000000E+00;  4.0000000E+04;  0.0000000E+00;  4.0000000E+04; -1.5787788E-04;  0.0000000E+00; -3.0648350E-04;  3.0770554E+02;
 -5.0000001E-02;  9.9999998E-03;  4.1999999E-01;1450;  0.0000000E+00;  0.0000000E+00;  0.0000000E+00;  1.0000000E+03;  1.0000000E-01;  0.0000000E+00;0;  0.0000000E+00;  0.0000000E+00;  0.0000000E+00;0; -1.9454409E-04;  4.0000000E+04;  0.0000000E+00;  0.0000000E+00;  4.0000000E+04;  0.0000000E+00;  4.0000000E+04; -6.2295920E-05;  0.0000000E+00; -1.3224817E-04;  1.4319620E+02;
 -5.0000001E-02;  9.9999998E-03;  4.3000001E-01;1451;  0.0000000E+00;  0.0000000E+00;  0.0000000E+00;  1.0000000E+03;  1.0000000E-01;  0.0000000E+00;0;  0.0000000E+00;  0.0000000E+00;  0.0000000E+00;0; -6.1038583E-05;  4.0000000E+04;  0.0000000E+00;  0.0000000E+00;  4.0000000E+04;  0.0000000E+00;  4.0000000E+04; -1.8963920E-05;  0.0000000E+00; -4.2074666E-05;  4.9674805E+01;
 -5.0000001E-02;  9.9999998E-03;  4.4000000E-01;1452;  0.0000000E+00;  0.0000000E+00;  0.0000000E+00;  1.0000000E+03;  1.0000000E-01;  0.0000000E+00;0;  0.0000000E+00;  0.0000000E+00;  0.0000000E+00;0; -1.1479652E-05;  4.0000000E+04;  0.0000000E+00;  0.0000000E+00;  4.0000000E+04;  0.0000000E+00;  4.0000000E+04; -3.5971245E-06;  0.0000000E+00; -7.8825278E-06;  1.0335621E+01;
 -5.0000001E-02;  9.9999998E-03;  4.4999999E-01;1453;  0.0000000E+00;  0.0000000E+00;  0.0000000E+00;  1.0000000E+03;  1.0000000E-01;  0.0000000E+00;0;  0.0000000E+00;  0.0000000E+00;  0.0000000E+00;0; -6.5964070E-07;  4.0000000E+04;  0.0000000E+00;  0.0000000E+00;  4.0000000E+04;  0.0000000E+00;  4.0000000E+04; -2.1817397E-07;  0.0000000E+00; -4.4146674E-07;  6.7452329E-01;
 -3.9999999E-02;  9.9999998E-03;  4.1000000E-01;1540;  0.0000000E+00;  0.0000000E+00;  0.0000000E+00;  1.0000057E+03;  1.0000000E-01;  4.7406068E+00;0;  0.0000000E+00;  0.0000000E+00;  0.0000000E+00;0; -7.2432146E-04;  4.0000000E+04;  0.0000000E+00;  0.0000000E+00;  4.0000000E+04;  0.0000000E+00;  4.0000000E+04; -2.3490824E-04;  0.0000000E+00; -4.8941321E-04;  4.6189902E+02;
 -3.9999999E-02;  9.9999998E-03;  4.1999999E-01;1541;  0.0000000E+00;  0.0000000E+00;  0.0000000E+00;  1.0000000E+03;  1.0000000E-01;  0.0000000E+00;0;  0.0000000E+00;  0.0000000E+00;  0.0000000E+00;0; -3.2251197E-04;  4.0000000E+04;  0.0000000E+00;  0.0000000E+00;  4.0000000E+04;  0.0000000E+00;  4.0000000E+04; -9.7796437E-05;  0.0000000E+00; -2.2471554E-04;  2.2867039E+02;
 -3.9999999E-02;  9.9999998E-03;  4.3000001E-01;1542;  0.0000000E+00;  0.0000000E+00;  0.0000000E+00;  1.0000000E+03;  1.0000000E-01;  0.0000000E+00;0;  0.0000000E+00;  0.0000000E+00;  0.0000000E+00;0; -1.1186906E-04;  4.0000000E+04;  0.0000000E+00;  0.0000000E+00;  4.0000000E+04;  0.0000000E+00;  4.0000000E+04; -3.2631731E-05;  0.0000000E+00; -7.9237332E-05;  8.7978363E+01;
 -3.9999999E-02;  9.9999998E-03;  4.4000000E-01;1543;  0.0000000E+00;  0.0000000E+00;  0.0000000E+00;  1.0000000E+03;  1.0000000E-01;  0.0000000E+00;0;  0.0000000E+00;  0.0000000E+00;  0.0000000E+00;0; -2.5565254E-05;  4.0000000E+04;  0.0000000E+00;  0.0000000E+00;  4.0000000E+04;  0.0000000E+00;  4.0000000E+04; -7.4358809E-06;  0.0000000E+00; -1.8129373E-05;  2.2361643E+01;
 -3.9999999E-02;  9.9999998E-03;  4.4999999E-01;1544;  0.0000000E+00;  0.0000000E+00;  0.0000000E+00;  1.0000000E+03;  1.0000000E-01;  0.0000000E+00;0;  0.0000000E+00;  0.0000000E+00;  0.0000000E+00;0; -2.4886033E-06;  4.0000000E+04;  0.0000000E+00;  0.0000000E+00;  4.0000000E+04;  0.0000000E+00;  4.0000000E+04; -7.5031005E-07;  0.0000000E+00; -1.7382932E-06;  2.4671762E+00;
 -2.9999999E-02;  9.9999998E-03;  4.1000000E-01;1631;  0.0000000E+00;  0.0000000E+00;  0.0000000E+00;  1.0000087E+03;  1.0000000E-01;  7.2096725E+00;0;  0.0000000E+00;  0.0000000E+00;  0.0000000E+00;0; -1.0531653E-03;  4.0000000E+04;  0.0000000E+00;  0.0000000E+00;  4.0000000E+04;  0.0000000E+00;  4.0000000E+04; -3.2535670E-04;  0.0000000E+00; -7.2780857E-04;  6.4446832E+02;
 -2.9999999E-02;  9.9999998E-03;  4.1999999E-01;1632;  0.0000000E+00;  0.0000000E+00;  0.0000000E+00;  1.0000000E+03;  1.0000000E-01;  0.0000000E+00;0;  0.0000000E+00;  0.0000000E+00;  0.0000000E+00;0; -4.9015443E-04;  4.0000000E+04;  0.0000000E+00;  0.0000000E+00;  4.0000000E+04;  0.0000000E+00;  4.0000000E+04; -1.4048954E-04;  0.0000000E+00; -3.4966489E-04;  3.3330264E+02;
 -2.9999999E-02;  9.9999998E-03;  4.3000001E-01;1633;  0.0000000E+00;  0.0000000E+00;  0.0000000E+00;  1.0000000E+03;  1.0000000E-01;  0.0000000E+00;0;  0.0000000E+00;  0.0000000E+00;  0.0000000E+00;0; -1.8235818E-04;  4.0000000E+04;  0.0000000E+00;  0.0000000E+00;  4.0000000E+04;  0.0000000E+00;  4.0000000E+04; -4.9818515E-05;  0.0000000E+00; -1.3253967E-04;  1.3774129E+02;
 -2.9999999E-02;  9.9999998E-03;  4.4000000E-01;1634;  0.0000000E+00;  0.0000000E+00;  0.0000000E+00;  1.0000000E+03;  1.0000000E-01;  0.0000000E+00;0;  0.0000000E+00;  0.0000000E+00;  0.0000000E+00;0; -4.7325193E-05;  4.0000000E+04;  0.0000000E+00;  0.0000000E+00;  4.0000000E+04;  0.0000000E+00;  4.0000000E+04; -1.2737741E-05;  0.0000000E+00; -3.4587454E-05;  3.9936386E+01;
 -2.9999999E-02;  9.9999998E-03;  4.4999999E-01;1635;  0.0000000E+00;  0.0000000E+00;  0.0000000E+00;  1.0000000E+03;  1.0000000E-01;  0.0000000E+00;0;  0.0000000E+00;  0.0000000E+00;  0.0000000E+00;0; -6.2167101E-06;  4.0000000E+04;  0.0000000E+00;  0.0000000E+00;  4.0000000E+04;  0.0000000E+00;  4.0000000E+04; -1.7010115E-06;  0.0000000E+00; -4.5156985E-06;  5.9790440E+00;
 -2.0000000E-02;  9.9999998E-03;  4.1000000E-01;1722;  0.0000000E+00;  0.0000000E+00;  0.0000000E+00;  1.0000112E+03;  1.0000000E-01;  9.2836876E+00;0;  0.0000000E+00;  0.0000000E+00;  0.0000000E+00;0; -1.4438306E-03;  4.0000000E+04;  0.0000000E+00;  0.0000000E+00;  4.0000000E+04;  0.0000000E+00;  4.0000000E+04; -4.2374607E-04;  0.0000000E+00; -1.0200845E-03;  8.4638043E+02;
 -2.0000000E-02;  9.9999998E-03;  4.1999999E-01;1723;  0.0000000E+00;  0.0000000E+00;  0.0000000E+00;  1.0000056E+03;  1.0000000E-01;  4.6418438E+00;0;  0.0000000E+00;  0.0000000E+00;  0.0000000E+00;0; -6.9424597E-04;  4.0000000E+04;  0.0000000E+00;  0.0000000E+00;  4.0000000E+04;  0.0000000E+00;  4.0000000E+04; -1.8745645E-04;  0.0000000E+00; -5.0678954E-04;  4.5127625E+02;
 -2.0000000E-02;  9.9999998E-03;  4.3000001E-01;1724;  0.0000000E+00;  0.0000000E+00;  0.0000000E+00;  1.0000000E+03;  1.0000000E-01;  0.0000000E+00;0;  0.0000000E+00;  0.0000000E+00;  0.0000000E+00;0; -2.7151717E-04;  4.0000000E+04;  0.0000000E+00;  0.0000000E+00;  4.0000000E+04;  0.0000000E+00;  4.0000000E+04; -6.9176698E-05;  0.0000000E+00; -2.0234048E-04;  1.9594763E+02;
 -2.0000000E-02;  9.9999998E-03;  4.4000000E-01;1725;  0.0000000E+00;  0.0000000E+00;  0.0000000E+00;  1.0000000E+03;  1.0000000E-01;  0.0000000E+00;0;  0.0000000E+00;  0.0000000E+00;  0.0000000E+00;0; -7.6811499E-05;  4.0000000E+04;  0.0000000E+00;  0.0000000E+00;  4.0000000E+04;  0.0000000E+00;  4.0000000E+04; -1.9027671E-05;  0.0000000E+00; -5.7783825E-05;  6.2084446E+01;
 -2.0000000E-02;  9.9999998E-03;  4.4999999E-01;1726;  0.0000000E+00;  0.0000000E+00;  0.0000000E+00;  1.0000000E+03;  1.0000000E-01;  0.0000000E+00;0;  0.0000000E+00;  0.0000000E+00;  0.0000000E+00;0; -1.2145008E-05;  4.0000000E+04;  0.0000000E+00;  0.0000000E+00;  4.0000000E+04;  0.0000000E+00;  4.0000000E+04; -2.9959301E-06;  0.0000000E+00; -9.1490783E-06;  1.1260328E+01;
 -9.9999998E-03;  9.9999998E-03;  4.1000000E-01;1813;  0.0000000E+00;  0.0000000E+00;  0.0000000E+00;  1.0000233E+03;  1.0000000E-01;  1.9258715E+01;0;  0.0000000E+00;  0.0000000E+00;  0.0000000E+00;0; -1.8826694E-03;  4.0000000E+04;  0.0000000E+00;  0.0000000E+00;  4.0000000E+04;  0.0000000E+00;  4.0000000E+04; -5.2329502E-04;  0.0000000E+00; -1.3593744E-03;  1.0562612E+03;
 -9.9999998E-03;  9.9999998E-03;  4.1999999E-01;1814;  0.0000000E+00;  0.0000000E+00;  0.0000000E+00;  1.0000083E+03;  1.0000000E-01;  6.9133849E+00;0;  0.0000000E+00;  0.0000000E+00;  0.0000000E+00;0; -9.2736579E-04;  4.0000000E+04;  0.0000000E+00;  0.0000000E+00;  4.0000000E+04;  0.0000000E+00;  4.0000000E+04; -2.3493840E-04;  0.0000000E+00; -6.9242739E-04;  5.7479456E+02;
 -9.9999998E-03;  9.9999998E-03;  4.3000001E-01;1815;  0.0000000E+00;  0.0000000E+00;  0.0000000E+00;  1.0000000E+03;  1.0000000E-01;  0.0000000E+00;0;  0.0000000E+00;  0.0000000E+00;  0.0000000E+00;0; -3.7591916E-04;  4.0000000E+04;  0.0000000E+00;  0.0000000E+00;  4.0000000E+04;  0.0000000E+00;  4.0000000E+04; -8.8855857E-05;  0.0000000E+00; -2.8706330E-04;  2.5799161E+02;
 -9.9999998E-03;  9.9999998E-03;  4.4000000E-01;1816;  0.0000000E+00;  0.0000000E+00;  0.0000000E+00;  1.0000000E+03;  1.0000000E-01;  0.0000000E+00;0;  0.0000000E+00;  0.0000000E+00;  0.0000000E+00;0; -1.1285042E-04;  4.0000000E+04;  0.0000000E+00;  0.0000000E+00;  4.0000000E+04;  0.0000000E+00;  4.0000000E+04; -2.5552195E-05;  0.0000000E+00; -8.7298220E-05;  8.6722565E+01;
 -9.9999998E-03;  9.9999998E-03;  4.4999999E-01;1817;  0.0000000E+00;  0.0000000E+00;  0.0000000E+00;  1.0000000E+03;  1.0000000E-01;  0.0000000E+00;0;  0.0000000E+00;  0.0000000E+00;  0.0000000E+00;0; -2.0101754E-05;  4.0000000E+04;  0.0000000E+00;  0.0000000E+00;  4.0000000E+04;  0.0000000E+00;  4.0000000E+04; -4.4281073E-06;  0.0000000E+00; -1.5673646E-05;  1.7793846E+01;
  0.0000000E+00;  9.9999998E-03;  4.1000000E-01;1845;  0.0000000E+00;  0.0000000E+00;  0.0000000E+00;  1.0000265E+03;  1.0000000E-01;  2.1925306E+01;0;  0.0000000E+00;  0.0000000E+00;  0.0000000E+00;0; -2.3506936E-03;  4.0000000E+04;  0.0000000E+00;  0.0000000E+00;  4.0000000E+04;  0.0000000E+00;  4.0000000E+04; -6.1701325E-04;  0.0000000E+00; -1.7336804E-03;  1.2623101E+03;
  0.0000000E+00;  9.9999998E-03;  4.1999999E-01;1846;  0.0000000E+00;  0.0000000E+00;  0.0000000E+00;  1.0000109E+03;  1.0000000E-01;  9.0861626E+00;0;  0.0000000E+00;  0.0000000E+00;  0.0000000E+00;0; -1.1787340E-03;  4.0000000E+04;  0.0000000E+00;  0.0000000E+00;  4.0000000E+04;  0.0000000E+00;  4.0000000E+04; -2.7897838E-04;  0.0000000E+00; -8.9975563E-04;  6.9552539E+02;
  0.0000000E+00;  9.9999998E-03;  4.3000001E-01;1847;  0.0000000E+00;  0.0000000E+00;  0.0000000E+00;  1.0000000E+03;  1.0000000E-01;  0.0000000E+00;0;  0.0000000E+00;  0.0000000E+00;  0.0000000E+00;0; -4.9019267E-04;  4.0000000E+04;  0.0000000E+00;  0.0000000E+00;  4.0000000E+04;  0.0000000E+00;  4.0000000E+04; -1.0686119E-04;  0.0000000E+00; -3.8333150E-04;  3.1862421E+02;
  0.0000000E+00;  9.9999998E-03;  4.4000000E-01;1848;  0.0000000E+00;  0.0000000E+00;  0.0000000E+00;  1.0000000E+03;  1.0000000E-01;  0.0000000E+00;0;  0.0000000E+00;  0.0000000E+00;  0.0000000E+00;0; -1.5326741E-04;  4.0000000E+04;  0.0000000E+00;  0.0000000E+00;  4.0000000E+04;  0.0000000E+00;  4.0000000E+04; -3.1464646E-05;  0.0000000E+00; -1.2180277E-04;  1.1115189E+02;
  0.0000000E+00;  9.9999998E-03;  4.4999999E-01;1849;  0.0000000E+00;  0.0000000E+00;  0.0000000E+00;  1.0000000E+03;  1.0000000E-01;  0.0000000E+00;0;  0.0000000E+00;  0.0000000E+00;  0.0000000E+00;0; -2.9492567E-05;  4.0000000E+04;  0.0000000E+00;  0.0000000E+00;  4.0000000E+04;  0.0000000E+00;  4.0000000E+04; -5.7319126E-06;  0.0000000E+00; -2.3760655E-05;  2.4636000E+01;
  9.9999998E-03;  9.9999998E-03;  4.1000000E-01;1875;  0.0000000E+00;  0.0000000E+00;  0.0000000E+00;  1.0000323E+03;  1.0000000E-01;  2.6764675E+01;0;  0.0000000E+00;  0.0000000E+00;  0.0000000E+00;0; -2.8255354E-03;  4.0000000E+04;  0.0000000E+00;  0.0000000E+00;  4.0000000E+04;  0.0000000E+00;  4.0000000E+04; -6.9909025E-04;  0.0000000E+00; -2.1264451E-03;  1.4544326E+03;
  9.9999998E-03;  9.9999998E-03;  4.1999999E-01;1876;  0.0000000E+00;  0.0000000E+00;  0.0000000E+00;  1.0000190E+03;  1.0000000E-01;  1.5703259E+01;0;  0.0000000E+00;  0.0000000E+00;  0.0000000E+00;0; -1.4355360E-03;  4.0000000E+04;  0.0000000E+00;  0.0000000E+00;  4.0000000E+04;  0.0000000E+00;  4.0000000E+04; -3.1621396E-04;  0.0000000E+00; -1.1193220E-03;  8.0622180E+02;
  9.9999998E-03;  9.9999998E-03;  4.3000001E-01;1877;  0.0000000E+00;  0.0000000E+00;  0.0000000E+00;  1.0000044E+03;  1.0000000E-01;  3.6542177E+00;0;  0.0000000E+00;  0.0000000E+00;  0.0000000E+00;0; -6.0785195E-04;  4.0000000E+04;  0.0000000E+00;  0.0000000E+00;  4.0000000E+04;  0.0000000E+00;  4.0000000E+04; -1.2147317E-04;  0.0000000E+00; -4.8637876E-04;  3.7308633E+02;
  9.9999998E-03;  9.9999998E-03;  4.4000000E-01;1878;  0.0000000E+00;  0.0000000E+00;  0.0000000E+00;  1.0000000E+03;  1.0000000E-01;  0.0000000E+00;0;  0.0000000E+00;  0.0000000E+00;  0.0000000E+00;0; -1.9532557E-04;  4.0000000E+04;  0.0000000E+00;  0.0000000E+00;  4.0000000E+04;  0.0000000E+00;  4.0000000E+04; -3.6034198E-05;  0.0000000E+00; -1.5929138E-04;  1.3272461E+02;
  9.9999998E-03;  9.9999998E-03;  4.4999999E-01;1879;  0.0000000E+00;  0.0000000E+00;  0.0000000E+00;  1.0000000E+03;  1.0000000E-01;  0.0000000E+00;0;  0.0000000E+00;  0.0000000E+00;  0.0000000E+00;0; -3.9471397E-05;  4.0000000E+04;  0.0000000E+00;  0.0000000E+00;  4.0000000E+04;  0.0000000E+00;  4.0000000E+04; -6.6751227E-06;  0.0000000E+00; -3.2796273E-05;  3.0708031E+01;
  2.0000000E-02;  9.9999998E-03;  4.1000000E-01;1905;  0.0000000E+00;  0.0000000E+00;  0.0000000E+00;  1.0000421E+03;  1.0000000E-01;  3.4863213E+01;0;  0.0000000E+00;  0.0000000E+00;  0.0000000E+00;0; -3.2835871E-03;  4.0000000E+04;  0.0000000E+00;  0.0000000E+00;  4.0000000E+04;  0.0000000E+00;  4.0000000E+04; -7.6628668E-04;  0.0000000E+00; -2.5173004E-03;  1.6260931E+03;
  2.0000000E-02;  9.9999998E-03;  4.1999999E-01;1906;  0.0000000E+00;  0.0000000E+00;  0.0000000E+00;  1.0000228E+03;  1.0000000E-01;  1.8863665E+01;0;  0.0000000E+00;  0.0000000E+00;  0.0000000E+00;0; -1.6843480E-03;  4.0000000E+04;  0.0000000E+00;  0.0000000E+00;  4.0000000E+04;  0.0000000E+00;  4.0000000E+04; -3.4467716E-04;  0.0000000E+00; -1.3396709E-03;  9.0217950E+02;
  2.0000000E-02;  9.9999998E-03;  4.3000001E-01;1907;  0.0000000E+00;  0.0000000E+00;  0.0000000E+00;  1.0000067E+03;  1.0000000E-01;  5.5307078E+00;0;  0.0000000E+00;  0.0000000E+00;  0.0000000E+00;0; -7.2221155E-04;  4.0000000E+04;  0.0000000E+00;  0.0000000E+00;  4.0000000E+04;  0.0000000E+00;  4.0000000E+04; -1.3165045E-04;  0.0000000E+00; -5.9056107E-04;  4.1816797E+02;
  2.0000000E-02;  9.9999998E-03;  4.4000000E-01;1908;  0.0000000E+00;  0.0000000E+00;  0.0000000E+00;  1.0000000E+03;  1.0000000E-01;  0.0000000E+00;0;  0.0000000E+00;  0.0000000E+00;  0.0000000E+00;0; -2.3624355E-04;  4.0000000E+04;  0.0000000E+00;  0.0000000E+00;  4.0000000E+04;  0.0000000E+00;  4.0000000E+04; -3.8826300E-05;  0.0000000E+00; -1.9741725E-04;  1.4951031E+02;
  2.0000000E-02;  9.9999998E-03;  4.4999999E-01;1909;  0.0000000E+00;  0.0000000E+00;  0.0000000E+00;  1.0000000E+03;  1.0000000E-01;  0.0000000E+00;0;  0.0000000E+00;  0.0000000E+00;  0.0000000E+00;0; -4.9166592E-05;  4.0000000E+04;  0.0000000E+00;  0.0000000E+00;  4.0000000E+04;  0.0000000E+00;  4.0000000E+04; -7.1335330E-06;  0.0000000E+00; -4.2033058E-05;  3.5128704E+01;
  2.9999999E-02;  9.9999998E-03;  4.1000000E-01;1935;  0.0000000E+00;  0.0000000E+00;  0.0000000E+00;  1.0000486E+03;  1.0000000E-01;  4.0295158E+01;0;  0.0000000E+00;  0.0000000E+00;  0.0000000E+00;0; -3.7019155E-03;  4.0000000E+04;  0.0000000E+00;  0.0000000E+00;  4.0000000E+04;  0.0000000E+00;  4.0000000E+04; -8.1893109E-04;  0.0000000E+00; -2.8829845E-03;  1.7756714E+03;
  2.9999999E-02;  9.9999998E-03;  4.1999999E-01;1936;  0.0000000E+00;  0.0000000E+00;  0.0000000E+00;  1.0000255E+03;  1.0000000E-01;  2.1135204E+01;0;  0.0000000E+00;  0.0000000E+00;  0.0000000E+00;0; -1.9122977E-03;  4.0000000E+04;  0.0000000E+00;  0.0000000E+00;  4.0000000E+04;  0.0000000E+00;  4.0000000E+04; -3.6439224E-04;  0.0000000E+00; -1.5479055E-03;  9.8223145E+02;
  2.9999999E-02;  9.9999998E-03;  4.3000001E-01;1937;  0.0000000E+00;  0.0000000E+00;  0.0000000E+00;  1.0000084E+03;  1.0000000E-01;  7.0121474E+00;0;  0.0000000E+00;  0.0000000E+00;  0.0000000E+00;0; -8.2712609E-04;  4.0000000E+04;  0.0000000E+00;  0.0000000E+00;  4.0000000E+04;  0.0000000E+00;  4.0000000E+04; -1.3732762E-04;  0.0000000E+00; -6.8979850E-04;  4.5295108E+02;
  2.9999999E-02;  9.9999998E-03;  4.4000000E-01;1938;  0.0000000E+00;  0.0000000E+00;  0.0000000E+00;  1.0000000E+03;  1.0000000E-01;  0.0000000E+00;0;  0.0000000E+00;  0.0000000E+00;  0.0000000E+00;0; -2.7363186E-04;  4.0000000E+04;  0.0000000E+00;  0.0000000E+00;  4.0000000E+04;  0.0000000E+00;  4.0000000E+04; -3.9813189E-05;  0.0000000E+00; -2.3381868E-04;  1.6080458E+02;
  2.9999999E-02;  9.9999998E-03;  4.4999999E-01;1939;  0.0000000E+00;  0.0000000E+00;  0.0000000E+00;  1.0000000E+03;  1.0000000E-01;  0.0000000E+00;0;  0.0000000E+00;  0.0000000E+00;  0.0000000E+00;0; -5.7884045E-05;  4.0000000E+04;  0.0000000E+00;  0.0000000E+00;  4.0000000E+04;  0.0000000E+00;  4.0000000E+04; -7.1218606E-06;  0.0000000E+00; -5.0762184E-05;  3.7486366E+01;
  3.9999999E-02;  9.9999998E-03;  4.1000000E-01;1965;  0.0000000E+00;  0.0000000E+00;  0.0000000E+00;  1.0000536E+03;  1.0000000E-01;  4.4443188E+01;0;  0.0000000E+00;  0.0000000E+00;  0.0000000E+00;0; -4.0597441E-03;  4.0000000E+04;  0.0000000E+00;  0.0000000E+00;  4.0000000E+04;  0.0000000E+00;  4.0000000E+04; -8.6124649E-04;  0.0000000E+00; -3.1984975E-03;  1.9067997E+03;
  3.9999999E-02;  9.9999998E-03;  4.1999999E-01;1966;  0.0000000E+00;  0.0000000E+00;  0.0000000E+00;  1.0000272E+03;  1.0000000E-01;  2.2517881E+01;0;  0.0000000E+00;  0.0000000E+00;  0.0000000E+00;0; -2.1077699E-03;  4.0000000E+04;  0.0000000E+00;  0.0000000E+00;  4.0000000E+04;  0.0000000E+00;  4.0000000E+04; -3.7760445E-04;  0.0000000E+00; -1.7301654E-03;  1.0490590E+03;
  3.9999999E-02;  9.9999998E-03;  4.3000001E-01;1967;  0.0000000E+00;  0.0000000E+00;  0.0000000E+00;  1.0000129E+03;  1.0000000E-01;  1.0765127E+01;0;  0.0000000E+00;  0.0000000E+00;  0.0000000E+00;0; -9.1734540E-04;  4.0000000E+04;  0.0000000E+00;  0.0000000E+00;  4.0000000E+04;  0.0000000E+00;  4.0000000E+04; -1.3953191E-04;  0.0000000E+00; -7.7781349E-04;  4.7907004E+02;
  3.9999999E-02;  9.9999998E-03;  4.4000000E-01;1968;  0.0000000E+00;  0.0000000E+00;  0.0000000E+00;  1.0000000E+03;  1.0000000E-01;  0.0000000E+00;0;  0.0000000E+00;  0.0000000E+00;  0.0000000E+00;0; -3.0570681E-04;  4.0000000E+04;  0.0000000E+00;  0.0000000E+00;  4.0000000E+04;  0.0000000E+00;  4.0000000E+04; -3.9394232E-05;  0.0000000E+00; -2.6631259E-04;  1.6734009E+02;
  3.9999999E-02;  9.9999998E-03;  4.4999999E-01;1969;  0.0000000E+00;  0.0000000E+00;  0.0000000E+00;  1.0000000E+03;  1.0000000E-01;  0.0000000E+00;0;  0.0000000E+00;  0.0000000E+00;  0.0000000E+00;0; -6.5216635E-05;  4.0000000E+04;  0.0000000E+00;  0.0000000E+00;  4.0000000E+04;  0.0000000E+00;  4.0000000E+04; -6.7754113E-06;  0.0000000E+00; -5.8441223E-05;  3.7976654E+01;
  5.0000001E-02;  9.9999998E-03;  4.1000000E-01;1995;  0.0000000E+00;  0.0000000E+00;  0.0000000E+00;  1.0000594E+03;  1.0000000E-01;  4.9282558E+01;0;  0.0000000E+00;  0.0000000E+00;  0.0000000E+00;0; -4.3400489E-03;  4.0000000E+04;  0.0000000E+00;  0.0000000E+00;  4.0000000E+04;  0.0000000E+00;  4.0000000E+04; -9.0095506E-04;  0.0000000E+00; -3.4390937E-03;  2.0275673E+03;
  5.0000001E-02;  9.9999998E-03;  4.1999999E-01;1996;  0.0000000E+00;  0.0000000E+00;  0.0000000E+00;  1.0000286E+03;  1.0000000E-01;  2.3703033E+01;0;  0.0000000E+00;  0.0000000E+00;  0.0000000E+00;0; -2.2608961E-03;  4.0000000E+04;  0.0000000E+00;  0.0000000E+00;  4.0000000E+04;  0.0000000E+00;  4.0000000E+04; -3.8862048E-04;  0.0000000E+00; -1.8722757E-03;  1.1087189E+03;
  5.0000001E-02;  9.9999998E-03;  4.3000001E-01;1997;  0.0000000E+00;  0.0000000E+00;  0.0000000E+00;  1.0000193E+03;  1.0000000E-01;  1.5999548E+01;0;  0.0000000E+00;  0.0000000E+00;  0.0000000E+00;0; -9.8850508E-04;  4.0000000E+04;  0.0000000E+00;  0.0000000E+00;  4.0000000E+04;  0.0000000E+00;  4.0000000E+04; -1.4029228E-04;  0.0000000E+00; -8.4821280E-04;  5.0042334E+02;
  5.0000001E-02;  9.9999998E-03;  4.4000000E-01;1998;  0.0000000E+00;  0.0000000E+00;  0.0000000E+00;  1.0000000E+03;  1.0000000E-01;  0.0000000E+00;0;  0.0000000E+00;  0.0000000E+00;  0.0000000E+00;0; -3.3121213E-04;  4.0000000E+04;  0.0000000E+00;  0.0000000E+00;  4.0000000E+04;  0.0000000E+00;  4.0000000E+04; -3.8331022E-05;  0.0000000E+00; -2.9288110E-04;  1.7114175E+02;
  5.0000001E-02;  9.9999998E-03;  4.4999999E-01;1999;  0.0000000E+00;  0.0000000E+00;  0.0000000E+00;  1.0000000E+03;  1.0000000E-01;  0.0000000E+00;0;  0.0000000E+00;  0.0000000E+00;  0.0000000E+00;0; -7.1016017E-05;  4.0000000E+04;  0.0000000E+00;  0.0000000E+00;  4.0000000E+04;  0.0000000E+00;  4.0000000E+04; -6.2986742E-06;  0.0000000E+00; -6.4717344E-05;  3.7354500E+01;
  5.9999999E-02;  9.9999998E-03;  4.1000000E-01;2025;  0.0000000E+00;  0.0000000E+00;  0.0000000E+00;  1.0000646E+03;  1.0000000E-01;  5.3529350E+01;0;  0.0000000E+00;  0.0000000E+00;  0.0000000E+00;0; -4.5320424E-03;  4.0000000E+04;  0.0000000E+00;  0.0000000E+00;  4.0000000E+04;  0.0000000E+00;  4.0000000E+04; -9.4842893E-04;  0.0000000E+00; -3.5836133E-03;  2.1485962E+03;
  5.9999999E-02;  9.9999998E-03;  4.1999999E-01;2026;  0.0000000E+00;  0.0000000E+00;  0.0000000E+00;  1.0000297E+03;  1.0000000E-01;  2.4591898E+01;0;  0.0000000E+00;  0.0000000E+00;  0.0000000E+00;0; -2.3643870E-03;  4.0000000E+04;  0.0000000E+00;  0.0000000E+00;  4.0000000E+04;  0.0000000E+00;  4.0000000E+04; -4.0335205E-04;  0.0000000E+00; -1.9610350E-03;  1.1693230E+03;
  5.9999999E-02;  9.9999998E-03;  4.3000001E-01;2027;  0.0000000E+00;  0.0000000E+00;  0.0000000E+00;  1.0000197E+03;  1.0000000E-01;  1.6295835E+01;0;  0.0000000E+00;  0.0000000E+00;  0.0000000E+00;0; -1.0370135E-03;  4.0000000E+04;  0.0000000E+00;  0.0000000E+00;  4.0000000E+04;  0.0000000E+00;  4.0000000E+04; -1.4239580E-04;  0.0000000E+00; -8.9461764E-04;  5.2234406E+02;
  5.9999999E-02;  9.9999998E-03;  4.4000000E-01;2028;  0.0000000E+00;  0.0000000E+00;  0.0000000E+00;  1.0000000E+03;  1.0000000E-01;  0.0000000E+00;0;  0.0000000E+00;  0.0000000E+00;  0.0000000E+00;0; -3.4911517E-04;  4.0000000E+04;  0.0000000E+00;  0.0000000E+00;  4.0000000E+04;  0.0000000E+00;  4.0000000E+04; -3.7623398E-05;  0.0000000E+00; -3.1149178E-04;  1.7502928E+02;
  5.9999999E-02;  9.9999998E-03;  4.4999999E-01;2029;  0.0000000E+00;  0.0000000E+00;  0.0000000E+00;  1.0000000E+03;  1.0000000E-01;  0.0000000E+00;0;  0.0000000E+00;  0.0000000E+00;  0.0000000E+00;0; -7.5227566E-05;  4.0000000E+04;  0.0000000E+00;  0.0000000E+00;  4.0000000E+04;  0.0000000E+00;  4.0000000E+04; -5.9152312E-06;  0.0000000E+00; -6.9312337E-05;  3.6688915E+01;
  7.0000000E-02;  9.9999998E-03;  4.1000000E-01;2055;  0.0000000E+00;  0.0000000E+00;  0.0000000E+00;  1.0000685E+03;  1.0000000E-01;  5.6788517E+01;0;  0.0000000E+00;  0.0000000E+00;  0.0000000E+00;0; -4.6332367E-03;  4.0000000E+04;  0.0000000E+00;  0.0000000E+00;  4.0000000E+04;  0.0000000E+00;  4.0000000E+04; -1.0144248E-03;  0.0000000E+00; -3.6188120E-03;  2.2799348E+03;
  7.0000000E-02;  9.9999998E-03;  4.1999999E-01;2056;  0.0000000E+00;  0.0000000E+00;  0.0000000E+00;  1.0000322E+03;  1.0000000E-01;  2.6665913E+01;0;  0.0000000E+00;  0.0000000E+00;  0.0000000E+00;0; -2.4147651E-03;  4.0000000E+04;  0.0000000E+00;  0.0000000E+00;  4.0000000E+04;  0.0000000E+00;  4.0000000E+04; -4.2806572E-04;  0.0000000E+00; -1.9866994E-03;  1.2390916E+03;
  7.0000000E-02;  9.9999998E-03;  4.3000001E-01;2057;  0.0000000E+00;  0.0000000E+00;  0.0000000E+00;  1.0000200E+03;  1.0000000E-01;  1.6493361E+01;0;  0.0000000E+00;  0.0000000E+00;  0.0000000E+00;0; -1.0602289E-03;  4.0000000E+04;  0.0000000E+00;  0.0000000E+00;  4.0000000E+04;  0.0000000E+00;  4.0000000E+04; -1.4886986E-04;  0.0000000E+00; -9.1135909E-04;  5.5042328E+02;
  7.0000000E-02;  9.9999998E-03;  4.4000000E-01;2058;  0.0000000E+00;  0.0000000E+00;  0.0000000E+00;  1.0000000E+03;  1.0000000E-01;  0.0000000E+00;0;  0.0000000E+00;  0.0000000E+00;  0.0000000E+00;0; -3.5833713E-04;  4.0000000E+04;  0.0000000E+00;  0.0000000E+00;  4.0000000E+04;  0.0000000E+00;  4.0000000E+04; -3.8327340E-05;  0.0000000E+00; -3.2000980E-04;  1.8197556E+02;
  7.0000000E-02;  9.9999998E-03;  4.4999999E-01;2059;  0.0000000E+00;  0.0000000E+00;  0.0000000E+00;  1.0000000E+03;  1.0000000E-01;  0.0000000E+00;0;  0.0000000E+00;  0.0000000E+00;  0.0000000E+00;0; -7.7708333E-05;  4.0000000E+04;  0.0000000E+00;  0.0000000E+00;  4.0000000E+04;  0.0000000E+00;  4.0000000E+04; -5.8215946E-06;  0.0000000E+00; -7.1886738E-05;  3.7067009E+01;
  7.9999998E-02;  9.9999998E-03;  4.1000000E-01;2085;  0.0000000E+00;  0.0000000E+00;  0.0000000E+00;  1.0000692E+03;  1.0000000E-01;  5.7381092E+01;0;  0.0000000E+00;  0.0000000E+00;  0.0000000E+00;0; -4.6497923E-03;  4.0000000E+04;  0.0000000E+00;  0.0000000E+00;  4.0000000E+04;  0.0000000E+00;  4.0000000E+04; -1.1085650E-03;  0.0000000E+00; -3.5412274E-03;  2.4273062E+03;
  7.9999998E-02;  9.9999998E-03;  4.1999999E-01;2086;  0.0000000E+00;  0.0000000E+00;  0.0000000E+00;  1.0000329E+03;  1.0000000E-01;  2.7258488E+01;0;  0.0000000E+00;  0.0000000E+00;  0.0000000E+00;0; -2.4138098E-03;  4.0000000E+04;  0.0000000E+00;  0.0000000E+00;  4.0000000E+04;  0.0000000E+00;  4.0000000E+04; -4.6783220E-04;  0.0000000E+00; -1.9459777E-03;  1.3240323E+03;
  7.9999998E-02;  9.9999998E-03;  4.3000001E-01;2087;  0.0000000E+00;  0.0000000E+00;  0.0000000E+00;  1.0000201E+03;  1.0000000E-01;  1.6592123E+01;0;  0.0000000E+00;  0.0000000E+00;  0.0000000E+00;0; -1.0573351E-03;  4.0000000E+04;  0.0000000E+00;  0.0000000E+00;  4.0000000E+04;  0.0000000E+00;  4.0000000E+04; -1.6229210E-04;  0.0000000E+00; -8.9504296E-04;  5.8931427E+02;
  7.9999998E-02;  9.9999998E-03;  4.4000000E-01;2088;  0.0000000E+00;  0.0000000E+00;  0.0000000E+00;  1.0000000E+03;  1.0000000E-01;  0.0000000E+00;0;  0.0000000E+00;  0.0000000E+00;  0.0000000E+00;0; -3.5783590E-04;  4.0000000E+04;  0.0000000E+00;  0.0000000E+00;  4.0000000E+04;  0.0000000E+00;  4.0000000E+04; -4.1371637E-05;  0.0000000E+00; -3.1646425E-04;  1.9456137E+02;
  7.9999998E-02;  9.9999998E-03;  4.4999999E-01;2089;  0.0000000E+00;  0.0000000E+00;  0.0000000E+00;  1.0000000E+03;  1.0000000E-01;  0.0000000E+00;0;  0.0000000E+00;  0.0000000E+00;  0.0000000E+00;0; -7.8147554E-05;  4.0000000E+04;  0.0000000E+00;  0.0000000E+00;  4.0000000E+04;  0.0000000E+00;  4.0000000E+04; -6.1436058E-06;  0.0000000E+00; -7.2003946E-05;  3.9421959E+01;
  9.0000004E-02;  9.9999998E-03;  4.1000000E-01;2115;  0.0000000E+00;  0.0000000E+00;  0.0000000E+00;  1.0000696E+03;  1.0000000E-01;  5.7677380E+01;0;  0.0000000E+00;  0.0000000E+00;  0.0000000E+00;0; -4.5956369E-03;  4.0000000E+04;  0.0000000E+00;  0.0000000E+00;  4.0000000E+04;  0.0000000E+00;  4.0000000E+04; -1.2401260E-03;  0.0000000E+00; -3.3555108E-03;  2.5907454E+03;
  9.0000004E-02;  9.9999998E-03;  4.1999999E-01;2116;  0.0000000E+00;  0.0000000E+00;  0.0000000E+00;  1.0000321E+03;  1.0000000E-01;  2.6567150E+01;0;  0.0000000E+00;  0.0000000E+00;  0.0000000E+00;0; -2.3684218E-03;  4.0000000E+04;  0.0000000E+00;  0.0000000E+00;  4.0000000E+04;  0.0000000E+00;  4.0000000E+04; -5.2629126E-04;  0.0000000E+00; -1.8421304E-03;  1.4270486E+03;
  9.0000004E-02;  9.9999998E-03;  4.3000001E-01;2117;  0.0000000E+00;  0.0000000E+00;  0.0000000E+00;  1.0000201E+03;  1.0000000E-01;  1.6690886E+01;0;  0.0000000E+00;  0.0000000E+00;  0.0000000E+00;0; -1.0304931E-03;  4.0000000E+04;  0.0000000E+00;  0.0000000E+00;  4.0000000E+04;  0.0000000E+00;  4.0000000E+04; -1.8418359E-04;  0.0000000E+00; -8.4630953E-04;  6.4260962E+02;
  9.0000004E-02;  9.9999998E-03;  4.4000000E-01;2118;  0.0000000E+00;  0.0000000E+00;  0.0000000E+00;  1.0000000E+03;  1.0000000E-01;  0.0000000E+00;0;  0.0000000E+00;  0.0000000E+00;  0.0000000E+00;0; -3.4718003E-04;  4.0000000E+04;  0.0000000E+00;  0.0000000E+00;  4.0000000E+04;  0.0000000E+00;  4.0000000E+04; -4.7417660E-05;  0.0000000E+00; -2.9976238E-04;  2.1507217E+02;
  9.0000004E-02;  9.9999998E-03;  4.4999999E-01;2119;  0.0000000E+00;  0.0000000E+00;  0.0000000E+00;  1.0000000E+03;  1.0000000E-01;  0.0000000E+00;0;  0.0000000E+00;  0.0000000E+00;  0.0000000E+00;0; -7.6065677E-05;  4.0000000E+04;  0.0000000E+00;  0.0000000E+00;  4.0000000E+04;  0.0000000E+00;  4.0000000E+04; -6.9829393E-06;  0.0000000E+00; -6.9082736E-05;  4.4506092E+01;
  1.0000000E-01;  9.9999998E-03;  4.1000000E-01;2145;  0.0000000E+00;  0.0000000E+00;  0.0000000E+00;  1.0000671E+03;  1.0000000E-01;  5.5603367E+01;0;  0.0000000E+00;  0.0000000E+00;  0.0000000E+00;0; -4.4912384E-03;  4.0000000E+04;  0.0000000E+00;  0.0000000E+00;  4.0000000E+04;  0.0000000E+00;  4.0000000E+04; -1.4194377E-03;  0.0000000E+00; -3.0718008E-03;  2.7741567E+03;
  1.0000000E-01;  9.9999998E-03;  4.1999999E-01;2146;  0.0000000E+00;  0.0000000E+00;  0.0000000E+00;  1.0000303E+03;  1.0000000E-01;  2.5085711E+01;0;  0.0000000E+00;  0.0000000E+00;  0.0000000E+00;0; -2.2896468E-03;  4.0000000E+04;  0.0000000E+00;  0.0000000E+00;  4.0000000E+04;  0.0000000E+00;  4.0000000E+04; -6.0695352E-04;  0.0000000E+00; -1.6826933E-03;  1.5559071E+03;
  1.0000000E-01;  9.9999998E-03;  4.3000001E-01;2147;  0.0000000E+00;  0.0000000E+00;  0.0000000E+00;  1.0000201E+03;  1.0000000E-01;  1.6592123E+01;0;  0.0000000E+00;  0.0000000E+00;  0.0000000E+00;0; -9.8486221E-04;  4.0000000E+04;  0.0000000E+00;  0.0000000E+00;  4.0000000E+04;  0.0000000E+00;  4.0000000E+04; -2.1518633E-04;  0.0000000E+00; -7.6967583E-04;  7.1787714E+02;
  1.0000000E-01;  9.9999998E-03;  4.4000000E-01;2148;  0.0000000E+00;  0.0000000E+00;  0.0000000E+00;  1.0000000E+03;  1.0000000E-01;  0.0000000E+00;0;  0.0000000E+00;  0.0000000E+00;  0.0000000E+00;0; -3.2760607E-04;  4.0000000E+04;  0.0000000E+00;  0.0000000E+00;  4.0000000E+04;  0.0000000E+00;  4.0000000E+04; -5.6625195E-05;  0.0000000E+00; -2.7098088E-04;  2.4817705E+02;
  1.0000000E-01;  9.9999998E-03;  4.4999999E-01;2149;  0.0000000E+00;  0.0000000E+00;  0.0000000E+00;  1.0000000E+03;  1.0000000E-01;  0.0000000E+00;0;  0.0000000E+00;  0.0000000E+00;  0.0000000E+00;0; -7.1096263E-05;  4.0000000E+04;  0.0000000E+00;  0.0000000E+00;  4.0000000E+04;  0.0000000E+00;  4.0000000E+04; -8.4985550E-06;  0.0000000E+00; -6.2597705E-05;  5.3618862E+01;
  1.1000000E-01;  9.9999998E-03;  4.1000000E-01;2175;  0.0000000E+00;  0.0000000E+00;  0.0000000E+00;  1.0000650E+03;  1.0000000E-01;  5.3825638E+01;0;  0.0000000E+00;  0.0000000E+00;  0.0000000E+00;0; -4.3628081E-03;  4.0000000E+04;  0.0000000E+00;  0.0000000E+00;  4.0000000E+04;  0.0000000E+00;  4.0000000E+04; -1.6584088E-03;  0.0000000E+00; -2.7043992E-03;  3.0215017E+03;
  1.1000000E-01;  9.9999998E-03;  4.1999999E-01;2176;  0.0000000E+00;  0.0000000E+00;  0.0000000E+00;  1.0000298E+03;  1.0000000E-01;  2.4690660E+01;0;  0.0000000E+00;  0.0000000E+00;  0.0000000E+00;0; -2.1914919E-03;  4.0000000E+04;  0.0000000E+00;  0.0000000E+00;  4.0000000E+04;  0.0000000E+00;  4.0000000E+04; -7.1453914E-04;  0.0000000E+00; -1.4769527E-03;  1.7547334E+03;
  1.1000000E-01;  9.9999998E-03;  4.3000001E-01;2177;  0.0000000E+00;  0.0000000E+00;  0.0000000E+00;  1.0000157E+03;  1.0000000E-01;  1.3036669E+01;0;  0.0000000E+00;  0.0000000E+00;  0.0000000E+00;0; -9.2762848E-04;  4.0000000E+04;  0.0000000E+00;  0.0000000E+00;  4.0000000E+04;  0.0000000E+00;  4.0000000E+04; -2.5614680E-04;  0.0000000E+00; -6.7148166E-04;  8.4548962E+02;
  1.1000000E-01;  9.9999998E-03;  4.4000000E-01;2178;  0.0000000E+00;  0.0000000E+00;  0.0000000E+00;  1.0000000E+03;  1.0000000E-01;  0.0000000E+00;0;  0.0000000E+00;  0.0000000E+00;  0.0000000E+00;0; -3.0215029E-04;  4.0000000E+04;  0.0000000E+00;  0.0000000E+00;  4.0000000E+04;  0.0000000E+00;  4.0000000E+04; -6.8813526E-05;  0.0000000E+00; -2.3333677E-04;  3.0830582E+02;
  1.1000000E-01;  9.9999998E-03;  4.4999999E-01;2179;  0.0000000E+00;  0.0000000E+00;  0.0000000E+00;  1.0000000E+03;  1.0000000E-01;  0.0000000E+00;0;  0.0000000E+00;  0.0000000E+00;  0.0000000E+00;0; -6.3564628E-05;  4.0000000E+04;  0.0000000E+00;  0.0000000E+00;  4.0000000E+04;  0.0000000E+00;  4.0000000E+04; -1.0770030E-05;  0.0000000E+00; -5.2794596E-05;  7.0887215E+01;
  1.2000000E-01;  9.9999998E-03;  4.1000000E-01;2205;  0.0000000E+00;  0.0000000E+00;  0.0000000E+00;  1.0000633E+03;  1.0000000E-01;  5.2442963E+01;0;  0.0000000E+00;  0.0000000E+00;  0.0000000E+00;0; -4.2426474E-03;  4.0000000E+04;  0.0000000E+00;  0.0000000E+00;  4.0000000E+04;  0.0000000E+00;  4.0000000E+04; -1.9706818E-03;  0.0000000E+00; -2.2719654E-03;  3.5070901E+03;
  1.2000000E-01;  9.9999998E-03;  4.1999999E-01;2206;  0.0000000E+00;  0.0000000E+00;  0.0000000E+00;  1.0000291E+03;  1.0000000E-01;  2.4098083E+01;0;  0.0000000E+00;  0.0000000E+00;  0.0000000E+00;0; -2.0905989E-03;  4.0000000E+04;  0.0000000E+00;  0.0000000E+00;  4.0000000E+04;  0.0000000E+00;  4.0000000E+04; -8.5533521E-04;  0.0000000E+00; -1.2352638E-03;  2.1752017E+03;
  1.2000000E-01;  9.9999998E-03;  4.3000001E-01;2207;  0.0000000E+00;  0.0000000E+00;  0.0000000E+00;  1.0000130E+03;  1.0000000E-01;  1.0765127E+01;0;  0.0000000E+00;  0.0000000E+00;  0.0000000E+00;0; -8.6702115E-04;  4.0000000E+04;  0.0000000E+00;  0.0000000E+00;  4.0000000E+04;  0.0000000E+00;  4.0000000E+04; -3.0906277E-04;  0.0000000E+00; -5.5795838E-04;  1.1174336E+03;
  1.2000000E-01;  9.9999998E-03;  4.4000000E-01;2208;  0.0000000E+00;  0.0000000E+00;  0.0000000E+00;  1.0000000E+03;  1.0000000E-01;  0.0000000E+00;0;  0.0000000E+00;  0.0000000E+00;  0.0000000E+00;0; -2.7479278E-04;  4.0000000E+04;  0.0000000E+00;  0.0000000E+00;  4.0000000E+04;  0.0000000E+00;  4.0000000E+04; -8.4115760E-05;  0.0000000E+00; -1.9067700E-04;  4.3315454E+02;
  1.2000000E-01;  9.9999998E-03;  4.4999999E-01;2209;  0.0000000E+00;  0.0000000E+00;  0.0000000E+00;  1.0000000E+03;  1.0000000E-01;  0.0000000E+00;0;  0.0000000E+00;  0.0000000E+00;  0.0000000E+00;0; -5.4828794E-05;  4.0000000E+04;  0.0000000E+00;  0.0000000E+00;  4.0000000E+04;  0.0000000E+00;  4.0000000E+04; -1.3688861E-05;  0.0000000E+00; -4.1139934E-05;  1.0582455E+02;
  1.3000000E-01;  9.9999998E-03;  4.1000000E-01;2235;  0.0000000E+00;  0.0000000E+00;  0.0000000E+00;  1.0000624E+03;  1.0000000E-01;  5.1652859E+01;0;  0.0000000E+00;  0.0000000E+00;  0.0000000E+00;0; -4.1695926E-03;  4.0000000E+04;  0.0000000E+00;  0.0000000E+00;  4.0000000E+04;  0.0000000E+00;  4.0000000E+04; -2.3713920E-03;  0.0000000E+00; -1.7982005E-03;  4.6551616E+03;
  1.3000000E-01;  9.9999998E-03;  4.1999999E-01;2236;  0.0000000E+00;  0.0000000E+00;  0.0000000E+00;  1.0000286E+03;  1.0000000E-01;  2.3703033E+01;0;  0.0000000E+00;  0.0000000E+00;  0.0000000E+00;0; -2.0067110E-03;  4.0000000E+04;  0.0000000E+00;  0.0000000E+00;  4.0000000E+04;  0.0000000E+00;  4.0000000E+04; -1.0370256E-03;  0.0000000E+00; -9.6968538E-04;  3.1427271E+03;
  1.3000000E-01;  9.9999998E-03;  4.3000001E-01;2237;  0.0000000E+00;  0.0000000E+00;  0.0000000E+00;  1.0000111E+03;  1.0000000E-01;  9.1849251E+00;0;  0.0000000E+00;  0.0000000E+00;  0.0000000E+00;0; -8.1189442E-04;  4.0000000E+04;  0.0000000E+00;  0.0000000E+00;  4.0000000E+04;  0.0000000E+00;  4.0000000E+04; -3.7741379E-04;  0.0000000E+00; -4.3448061E-04;  1.7163245E+03;
  1.3000000E-01;  9.9999998E-03;  4.4000000E-01;2238;  0.0000000E+00;  0.0000000E+00;  0.0000000E+00;  1.0000000E+03;  1.0000000E-01;  0.0000000E+00;0;  0.0000000E+00;  0.0000000E+00;  0.0000000E+00;0; -2.4959585E-04;  4.0000000E+04;  0.0000000E+00;  0.0000000E+00;  4.0000000E+04;  0.0000000E+00;  4.0000000E+04; -1.0342344E-04;  0.0000000E+00; -1.4617242E-04;  6.9490942E+02;
  1.3000000E-01;  9.9999998E-03;  4.4999999E-01;2239;  0.0000000E+00;  0.0000000E+00;  0.0000000E+00;  1.0000000E+03;  1.0000000E-01;  0.0000000E+00;0;  0.0000000E+00;  0.0000000E+00;  0.0000000E+00;0; -4.6747056E-05;  4.0000000E+04;  0.0000000E+00;  0.0000000E+00;  4.0000000E+04;  0.0000000E+00;  4.0000000E+04; -1.7122889E-05;  0.0000000E+00; -2.9624167E-05;  1.7530334E+02;
  1.4000000E-01;  9.9999998E-03;  4.1000000E-01;2265;  0.0000000E+00;  0.0000000E+00;  0.0000000E+00;  1.0000626E+03;  1.0000000E-01;  5.1850384E+01;0;  0.0000000E+00;  0.0000000E+00;  0.0000000E+00;0; -4.1877106E-03;  4.0000000E+04;  0.0000000E+00;  0.0000000E+00;  4.0000000E+04;  0.0000000E+00;  4.0000000E+04; -2.8755283E-03;  0.0000000E+00; -1.3121823E-03;  7.1065356E+03;
  1.4000000E-01;  9.9999998E-03;  4.1999999E-01;2266;  0.0000000E+00;  0.0000000E+00;  0.0000000E+00;  1.0000284E+03;  1.0000000E-01;  2.3505508E+01;0;  0.0000000E+00;  0.0000000E+00;  0.0000000E+00;0; -1.9628610E-03;  4.0000000E+04;  0.0000000E+00;  0.0000000E+00;  4.0000000E+04;  0.0000000E+00;  4.0000000E+04; -1.2683362E-03;  0.0000000E+00; -6.9452496E-04;  5.1128794E+03;
  1.4000000E-01;  9.9999998E-03;  4.3000001E-01;2267;  0.0000000E+00;  0.0000000E+00;  0.0000000E+00;  1.0000104E+03;  1.0000000E-01;  8.6911125E+00;0;  0.0000000E+00;  0.0000000E+00;  0.0000000E+00;0; -7.7206746E-04;  4.0000000E+04;  0.0000000E+00;  0.0000000E+00;  4.0000000E+04;  0.0000000E+00;  4.0000000E+04; -4.6560456E-04;  0.0000000E+00; -3.0646287E-04;  2.9033550E+03;
  1.4000000E-01;  9.9999998E-03;  4.4000000E-01;2268;  0.0000000E+00;  0.0000000E+00;  0.0000000E+00;  1.0000000E+03;  1.0000000E-01;  0.0000000E+00;0;  0.0000000E+00;  0.0000000E+00;  0.0000000E+00;0; -2.3019507E-04;  4.0000000E+04;  0.0000000E+00;  0.0000000E+00;  4.0000000E+04;  0.0000000E+00;  4.0000000E+04; -1.2839945E-04;  0.0000000E+00; -1.0179562E-04;  1.2051024E+03;
  1.4000000E-01;  9.9999998E-03;  4.4999999E-01;2269;  0.0000000E+00;  0.0000000E+00;  0.0000000E+00;  1.0000000E+03;  1.0000000E-01;  0.0000000E+00;0;  0.0000000E+00;  0.0000000E+00;  0.0000000E+00;0; -4.0874962E-05;  4.0000000E+04;  0.0000000E+00;  0.0000000E+00;  4.0000000E+04;  0.0000000E+00;  4.0000000E+04; -2.1270429E-05;  0.0000000E+00; -1.9604533E-05;  3.0789719E+02;
  1.5000001E-01;  9.9999998E-03;  4.1000000E-01;2295;  0.0000000E+00;  0.0000000E+00;  0.0000000E+00;  1.0000637E+03;  1.0000000E-01;  5.2838013E+01;0;  0.0000000E+00;  0.0000000E+00;  0.0000000E+00;0; -4.3413597E-03;  4.0000000E+04;  0.0000000E+00;  0.0000000E+00;  4.0000000E+04;  0.0000000E+00;  4.0000000E+04; -3.4935465E-03;  0.0000000E+00; -8.4781309E-04;  1.1552991E+04;
  1.5000001E-01;  9.9999998E-03;  4.1999999E-01;2296;  0.0000000E+00;  0.0000000E+00;  0.0000000E+00;  1.0000305E+03;  1.0000000E-01;  2.5184473E+01;0;  0.0000000E+00;  0.0000000E+00;  0.0000000E+00;0; -1.9841709E-03;  4.0000000E+04;  0.0000000E+00;  0.0000000E+00;  4.0000000E+04;  0.0000000E+00;  4.0000000E+04; -1.5569500E-03;  0.0000000E+00; -4.2722089E-04;  8.6235020E+03;
  1.5000001E-01;  9.9999998E-03;  4.3000001E-01;2297;  0.0000000E+00;  0.0000000E+00;  0.0000000E+00;  1.0000105E+03;  1.0000000E-01;  8.6911125E+00;0;  0.0000000E+00;  0.0000000E+00;  0.0000000E+00;0; -7.5847167E-04;  4.0000000E+04;  0.0000000E+00;  0.0000000E+00;  4.0000000E+04;  0.0000000E+00;  4.0000000E+04; -5.7826005E-04;  0.0000000E+00; -1.8021165E-04;  5.0262168E+03;
  1.5000001E-01;  9.9999998E-03;  4.4000000E-01;2298;  0.0000000E+00;  0.0000000E+00;  0.0000000E+00;  1.0000000E+03;  1.0000000E-01;  0.0000000E+00;0;  0.0000000E+00;  0.0000000E+00;  0.0000000E+00;0; -2.1989516E-04;  4.0000000E+04;  0.0000000E+00;  0.0000000E+00;  4.0000000E+04;  0.0000000E+00;  4.0000000E+04; -1.6126869E-04;  0.0000000E+00; -5.8626461E-05;  2.1312302E+03;
  1.5000001E-01;  9.9999998E-03;  4.4999999E-01;2299;  0.0000000E+00;  0.0000000E+00;  0.0000000E+00;  1.0000000E+03;  1.0000000E-01;  0.0000000E+00;0;  0.0000000E+00;  0.0000000E+00;  0.0000000E+00;0; -3.8160539E-05;  4.0000000E+04;  0.0000000E+00;  0.0000000E+00;  4.0000000E+04;  0.0000000E+00;  4.0000000E+04; -2.6815065E-05;  0.0000000E+00; -1.1345474E-05;  5.5281781E+02;
  1.6000000E-01;  9.9999998E-03;  4.1000000E-01;2325;  0.0000000E+00;  0.0000000E+00;  0.0000000E+00;  1.0000698E+03;  1.0000000E-01;  5.7874905E+01;0;  0.0000000E+00;  0.0000000E+00;  0.0000000E+00;0; -4.6659755E-03;  4.0000000E+04;  0.0000000E+00;  0.0000000E+00;  4.0000000E+04;  0.0000000E+00;  4.0000000E+04; -4.2215642E-03;  0.0000000E+00; -4.4441115E-04;  1.8688729E+04;
  1.6000000E-01;  9.9999998E-03;  4.1999999E-01;2326;  0.0000000E+00;  0.0000000E+00;  0.0000000E+00;  1.0000323E+03;  1.0000000E-01;  2.6764675E+01;0;  0.0000000E+00;  0.0000000E+00;  0.0000000E+00;0; -2.0946471E-03;  4.0000000E+04;  0.0000000E+00;  0.0000000E+00;  4.0000000E+04;  0.0000000E+00;  4.0000000E+04; -1.9057003E-03;  0.0000000E+00; -1.8894691E-04;  1.4309578E+04;
  1.6000000E-01;  9.9999998E-03;  4.3000001E-01;2327;  0.0000000E+00;  0.0000000E+00;  0.0000000E+00;  1.0000113E+03;  1.0000000E-01;  9.3824511E+00;0;  0.0000000E+00;  0.0000000E+00;  0.0000000E+00;0; -7.8278763E-04;  4.0000000E+04;  0.0000000E+00;  0.0000000E+00;  4.0000000E+04;  0.0000000E+00;  4.0000000E+04; -7.1903702E-04;  0.0000000E+00; -6.3750602E-05;  8.5461611E+03;
  1.6000000E-01;  9.9999998E-03;  4.4000000E-01;2328;  0.0000000E+00;  0.0000000E+00;  0.0000000E+00;  1.0000000E+03;  1.0000000E-01;  0.0000000E+00;0;  0.0000000E+00;  0.0000000E+00;  0.0000000E+00;0; -2.2206373E-04;  4.0000000E+04;  0.0000000E+00;  0.0000000E+00;  4.0000000E+04;  0.0000000E+00;  4.0000000E+04; -2.0437778E-04;  0.0000000E+00; -1.7685945E-05;  3.7184822E+03;
  1.6000000E-01;  9.9999998E-03;  4.4999999E-01;2329;  0.0000000E+00;  0.0000000E+00;  0.0000000E+00;  1.0000000E+03;  1.0000000E-01;  0.0000000E+00;0;  0.0000000E+00;  0.0000000E+00;  0.0000000E+00;0; -3.8950511E-05;  4.0000000E+04;  0.0000000E+00;  0.0000000E+00;  4.0000000E+04;  0.0000000E+00;  4.0000000E+04; -3.4710658E-05;  0.0000000E+00; -4.2398542E-06;  9.9061438E+02;
  1.7000000E-01;  9.9999998E-03;  4.1000000E-01;2355;  0.0000000E+00;  0.0000000E+00;  0.0000000E+00;  1.0000783E+03;  1.0000000E-01;  6.4887047E+01;0;  0.0000000E+00;  0.0000000E+00;  0.0000000E+00;0; -5.1782331E-03;  4.0000000E+04;  0.0000000E+00;  0.0000000E+00;  4.0000000E+04;  0.0000000E+00;  4.0000000E+04; -5.0293016E-03;  0.0000000E+00; -1.4893149E-04;  2.9090521E+04;
  1.7000000E-01;  9.9999998E-03;  4.1999999E-01;2356;  0.0000000E+00;  0.0000000E+00;  0.0000000E+00;  1.0000342E+03;  1.0000000E-01;  2.8344875E+01;0;  0.0000000E+00;  0.0000000E+00;  0.0000000E+00;0; -2.3134516E-03;  4.0000000E+04;  0.0000000E+00;  0.0000000E+00;  4.0000000E+04;  0.0000000E+00;  4.0000000E+04; -2.3069305E-03;  0.0000000E+00; -6.5211862E-06;  2.2806355E+04;
  1.7000000E-01;  9.9999998E-03;  4.3000001E-01;2357;  0.0000000E+00;  0.0000000E+00;  0.0000000E+00;  1.0000125E+03;  1.0000000E-01;  1.0271314E+01;0;  0.0000000E+00;  0.0000000E+00;  0.0000000E+00;0; -8.5689436E-04;  4.0000000E+04;  0.0000000E+00;  0.0000000E+00;  4.0000000E+04;  0.0000000E+00;  4.0000000E+04; -8.8853622E-04;  0.0000000E+00;  3.1641866E-05;  1.3995380E+04;
  1.7000000E-01;  9.9999998E-03;  4.4000000E-01;2358;  0.0000000E+00;  0.0000000E+00;  0.0000000E+00;  1.0000000E+03;  1.0000000E-01;  0.0000000E+00;0;  0.0000000E+00;  0.0000000E+00;  0.0000000E+00;0; -2.4048868E-04;  4.0000000E+04;  0.0000000E+00;  0.0000000E+00;  4.0000000E+04;  0.0000000E+00;  4.0000000E+04; -2.5945849E-04;  0.0000000E+00;  1.8969826E-05;  6.2860498E+03;
  1.7000000E-01;  9.9999998E-03;  4.4999999E-01;2359;  0.0000000E+00;  0.0000000E+00;  0.0000000E+00;  1.0000000E+03;  1.0000000E-01;  0.0000000E+00;0;  0.0000000E+00;  0.0000000E+00;  0.0000000E+00;0; -4.3143547E-05;  4.0000000E+04;  0.0000000E+00;  0.0000000E+00;  4.0000000E+04;  0.0000000E+00;  4.0000000E+04; -4.5843099E-05;  0.0000000E+00;  2.6995510E-06;  1.7389521E+03;
  1.8000001E-01;  9.9999998E-03;  4.1000000E-01;2385;  0.0000000E+00;  0.0000000E+00;  0.0000000E+00;  1.0000905E+03;  1.0000000E-01;  7.4960838E+01;0;  0.0000000E+00;  0.0000000E+00;  0.0000000E+00;0; -5.8774548E-03;  4.0000000E+04;  0.0000000E+00;  0.0000000E+00;  4.0000000E+04;  0.0000000E+00;  4.0000000E+04; -5.8556795E-03;  0.0000000E+00; -2.1775229E-05;  4.2903445E+04;
  1.8000001E-01;  9.9999998E-03;  4.1999999E-01;2386;  0.0000000E+00;  0.0000000E+00;  0.0000000E+00;  1.0000435E+03;  1.0000000E-01;  3.6048359E+01;0;  0.0000000E+00;  0.0000000E+00;  0.0000000E+00;0; -2.6555408E-03;  4.0000000E+04;  0.0000000E+00;  0.0000000E+00;  4.0000000E+04;  0.0000000E+00;  4.0000000E+04; -2.7381249E-03;  0.0000000E+00;  8.2584178E-05;  3.4484551E+04;
  1.8000001E-01;  9.9999998E-03;  4.3000001E-01;2387;  0.0000000E+00;  0.0000000E+00;  0.0000000E+00;  1.0000139E+03;  1.0000000E-01;  1.1555228E+01;0;  0.0000000E+00;  0.0000000E+00;  0.0000000E+00;0; -9.9392142E-04;  4.0000000E+04;  0.0000000E+00;  0.0000000E+00;  4.0000000E+04;  0.0000000E+00;  4.0000000E+04; -1.0818394E-03;  0.0000000E+00;  8.7918001E-05;  2.1820881E+04;
  1.8000001E-01;  9.9999998E-03;  4.4000000E-01;2388;  0.0000000E+00;  0.0000000E+00;  0.0000000E+00;  1.0000000E+03;  1.0000000E-01;  0.0000000E+00;0;  0.0000000E+00;  0.0000000E+00;  0.0000000E+00;0; -2.8023706E-04;  4.0000000E+04;  0.0000000E+00;  0.0000000E+00;  4.0000000E+04;  0.0000000E+00;  4.0000000E+04; -3.2662897E-04;  0.0000000E+00;  4.6391902E-05;  1.0168109E+04;
  1.8000001E-01;  9.9999998E-03;  4.4999999E-01;2389;  0.0000000E+00;  0.0000000E+00;  0.0000000E+00;  1.0000000E+03;  1.0000000E-01;  0.0000000E+00;0;  0.0000000E+00;  0.0000000E+00;  0.0000000E+00;0; -5.0507042E-05;  4.0000000E+04;  0.0000000E+00;  0.0000000E+00;  4.0000000E+04;  0.0000000E+00;  4.0000000E+04; -6.0589351E-05;  0.0000000E+00;  1.0082310E-05;  2.9417771E+03;
  1.9000000E-01;  9.9999998E-03;  4.1000000E-01;2415;  0.0000000E+00;  0.0000000E+00;  0.0000000E+00;  1.0001042E+03;  1.0000000E-01;  8.6318542E+01;0;  0.0000000E+00;  0.0000000E+00;  0.0000000E+00;0; -6.7739296E-03;  4.0000000E+04;  0.0000000E+00;  0.0000000E+00;  4.0000000E+04;  0.0000000E+00;  4.0000000E+04; -6.6272910E-03;  0.0000000E+00; -1.4663838E-04;  5.9586027E+04;
  1.9000000E-01;  9.9999998E-03;  4.1999999E-01;2416;  0.0000000E+00;  0.0000000E+00;  0.0000000E+00;  1.0000494E+03;  1.0000000E-01;  4.0887730E+01;0;  0.0000000E+00;  0.0000000E+00;  0.0000000E+00;0; -3.1447338E-03;  4.0000000E+04;  0.0000000E+00;  0.0000000E+00;  4.0000000E+04;  0.0000000E+00;  4.0000000E+04; -3.1662409E-03;  0.0000000E+00;  2.1507141E-05;  4.9177898E+04;
  1.9000000E-01;  9.9999998E-03;  4.3000001E-01;2417;  0.0000000E+00;  0.0000000E+00;  0.0000000E+00;  1.0000179E+03;  1.0000000E-01;  1.4913157E+01;0;  0.0000000E+00;  0.0000000E+00;  0.0000000E+00;0; -1.2142068E-03;  4.0000000E+04;  0.0000000E+00;  0.0000000E+00;  4.0000000E+04;  0.0000000E+00;  4.0000000E+04; -1.2880825E-03;  0.0000000E+00;  7.3875621E-05;  3.2169451E+04;
  1.9000000E-01;  9.9999998E-03;  4.4000000E-01;2418;  0.0000000E+00;  0.0000000E+00;  0.0000000E+00;  1.0000029E+03;  1.0000000E-01;  2.4690657E+00;0;  0.0000000E+00;  0.0000000E+00;  0.0000000E+00;0; -3.5034702E-04;  4.0000000E+04;  0.0000000E+00;  0.0000000E+00;  4.0000000E+04;  0.0000000E+00;  4.0000000E+04; -4.0363471E-04;  0.0000000E+00;  5.3287684E-05;  1.5596954E+04;
  1.9000000E-01;  9.9999998E-03;  4.4999999E-01;2419;  0.0000000E+00;  0.0000000E+00;  0.0000000E+00;  1.0000000E+03;  1.0000000E-01;  0.0000000E+00;0;  0.0000000E+00;  0.0000000E+00;  0.0000000E+00;0; -6.1520535E-05;  4.0000000E+04;  0.0000000E+00;  0.0000000E+00;  4.0000000E+04;  0.0000000E+00;  4.0000000E+04; -7.8458987E-05;  0.0000000E+00;  1.6938449E-05;  4.7311196E+03;
  2.0000000E-01;  9.9999998E-03;  4.1000000E-01;2444;  0.0000000E+00;  0.0000000E+00;  0.0000000E+00;  1.0001269E+03;  1.0000000E-01;  1.0508344E+02;0;  0.0000000E+00;  0.0000000E+00;  0.0000000E+00;0; -7.9437699E-03;  4.0000000E+04;  0.0000000E+00;  0.0000000E+00;  4.0000000E+04;  0.0000000E+00;  4.0000000E+04; -7.3012933E-03;  0.0000000E+00; -6.4247631E-04;  7.8094430E+04;
  2.0000000E-01;  9.9999998E-03;  4.1999999E-01;2445;  0.0000000E+00;  0.0000000E+00;  0.0000000E+00;  1.0000624E+03;  1.0000000E-01;  5.1751617E+01;0;  0.0000000E+00;  0.0000000E+00;  0.0000000E+00;0; -3.8423205E-03;  4.0000000E+04;  0.0000000E+00;  0.0000000E+00;  4.0000000E+04;  0.0000000E+00;  4.0000000E+04; -3.5654469E-03;  0.0000000E+00; -2.7687367E-04;  6.6221297E+04;
  2.0000000E-01;  9.9999998E-03;  4.3000001E-01;2446;  0.0000000E+00;  0.0000000E+00;  0.0000000E+00;  1.0000280E+03;  1.0000000E-01;  2.3110456E+01;0;  0.0000000E+00;  0.0000000E+00;  0.0000000E+00;0; -1.5587994E-03;  4.0000000E+04;  0.0000000E+00;  0.0000000E+00;  4.0000000E+04;  0.0000000E+00;  4.0000000E+04; -1.4953769E-03;  0.0000000E+00; -6.3422500E-05;  4.4810199E+04;
  2.0000000E-01;  9.9999998E-03;  4.4000000E-01;2447;  0.0000000E+00;  0.0000000E+00;  0.0000000E+00;  1.0000089E+03;  1.0000000E-01;  7.4071975E+00;0;  0.0000000E+00;  0.0000000E+00;  0.0000000E+00;0; -4.6989234E-04;  4.0000000E+04;  0.0000000E+00;  0.0000000E+00;  4.0000000E+04;  0.0000000E+00;  4.0000000E+04; -4.8657894E-04;  0.0000000E+00;  1.6686599E-05;  2.2608283E+04;
 -2.0000000E-01;  9.9999998E-03; -4.4000000E-01;0;  0.0000000E+00;  0.0000000E+00;  0.0000000E+00;  1.0000000E+03;  1.0000000E-01;  0.0000000E+00;0;  0.0000000E+00;  0.0000000E+00;  0.0000000E+00;0;  0.0000000E+00;  4.0000000E+04;  0.0000000E+00;  0.0000000E+00;  4.0000000E+04;  0.0000000E+00;  4.0000000E+04;  0.0000000E+00;  0.0000000E+00;  0.0000000E+00;  0.0000000E+00;
 -2.0000000E-01;  9.9999998E-03; -4.3000001E-01;1;  0.0000000E+00;  0.0000000E+00;  0.0000000E+00;  1.0000000E+03;  1.0000000E-01;  0.0000000E+00;0;  0.0000000E+00;  0.0000000E+00;  0.0000000E+00;0;  0.0000000E+00;  4.0000000E+04;  0.0000000E+00;  0.0000000E+00;  4.0000000E+04;  0.0000000E+00;  4.0000000E+04;  0.0000000E+00;  0.0000000E+00;  0.0000000E+00;  0.0000000E+00;
 -2.0000000E-01;  9.9999998E-03; -4.1999999E-01;2;  0.0000000E+00;  0.0000000E+00;  0.0000000E+00;  1.0000000E+03;  1.0000000E-01;  0.0000000E+00;0;  0.0000000E+00;  0.0000000E+00;  0.0000000E+00;0;  0.0000000E+00;  4.0000000E+04;  0.0000000E+00;  0.0000000E+00;  4.0000000E+04;  0.0000000E+00;  4.0000000E+04;  0.0000000E+00;  0.0000000E+00;  0.0000000E+00;  0.0000000E+00;
 -2.0000000E-01;  9.9999998E-03; -4.1000000E-01;3;  0.0000000E+00;  0.0000000E+00;  0.0000000E+00;  1.0000000E+03;  1.0000000E-01;  0.0000000E+00;0;  0.0000000E+00;  0.0000000E+00;  0.0000000E+00;0;  0.0000000E+00;  4.0000000E+04;  0.0000000E+00;  0.0000000E+00;  4.0000000E+04;  0.0000000E+00;  4.0000000E+04;  0.0000000E+00;  0.0000000E+00;  0.0000000E+00;  0.0000000E+00;
 -2.0000000E-01;  9.9999998E-03; -4.0000001E-01;4;  0.0000000E+00;  0.0000000E+00;  0.0000000E+00;  1.0000000E+03;  1.0000000E-01;  0.0000000E+00;0;  0.0000000E+00;  0.0000000E+00;  0.0000000E+00;0;  0.0000000E+00;  4.0000000E+04;  0.0000000E+00;  0.0000000E+00;  4.0000000E+04;  0.0000000E+00;  4.0000000E+04;  0.0000000E+00;  0.0000000E+00;  0.0000000E+00;  0.0000000E+00;
 -2.0000000E-01;  9.9999998E-03; -3.8999999E-01;5;  0.0000000E+00;  0.0000000E+00;  0.0000000E+00;  1.0000000E+03;  1.0000000E-01;  0.0000000E+00;0;  0.0000000E+00;  0.0000000E+00;  0.0000000E+00;0;  0.0000000E+00;  4.0000000E+04;  0.0000000E+00;  0.0000000E+00;  4.0000000E+04;  0.0000000E+00;  4.0000000E+04;  0.0000000E+00;  0.0000000E+00;  0.0000000E+00;  0.0000000E+00;
 -2.0000000E-01;  9.9999998E-03; -3.8000000E-01;6;  0.0000000E+00;  0.0000000E+00;  0.0000000E+00;  1.0000000E+03;  1.0000000E-01;  0.0000000E+00;0;  0.0000000E+00;  0.0000000E+00;  0.0000000E+00;0;  0.0000000E+00;  4.0000000E+04;  0.0000000E+00;  0.0000000E+00;  4.0000000E+04;  0.0000000E+00;  4.0000000E+04;  0.0000000E+00;  0.0000000E+00;  0.0000000E+00;  0.0000000E+00;
 -2.0000000E-01;  9.9999998E-03; -3.7000000E-01;7;  0.0000000E+00;  0.0000000E+00;  0.0000000E+00;  1.0000000E+03;  1.0000000E-01;  0.0000000E+00;0;  0.0000000E+00;  0.0000000E+00;  0.0000000E+00;0;  0.0000000E+00;  4.0000000E+04;  0.0000000E+00;  0.0000000E+00;  4.0000000E+04;  0.0000000E+00;  4.0000000E+04;  0.0000000E+00;  0.0000000E+00;  0.0000000E+00;  0.0000000E+00;
 -2.0000000E-01;  9.9999998E-03; -3.6000001E-01;8;  0.0000000E+00;  0.0000000E+00;  0.0000000E+00;  1.0000000E+03;  1.0000000E-01;  0.0000000E+00;0;  0.0000000E+00;  0.0000000E+00;  0.0000000E+00;0;  0.0000000E+00;  4.0000000E+04;  0.0000000E+00;  0.0000000E+00;  4.0000000E+04;  0.0000000E+00;  4.0000000E+04;  0.0000000E+00;  0.0000000E+00;  0.0000000E+00;  0.0000000E+00;
 -2.0000000E-01;  9.9999998E-03; -3.4999999E-01;9;  0.0000000E+00;  0.0000000E+00;  0.0000000E+00;  1.0000000E+03;  1.0000000E-01;  0.0000000E+00;0;  0.0000000E+00;  0.0000000E+00;  0.0000000E+00;0;  0.0000000E+00;  4.0000000E+04;  0.0000000E+00;  0.0000000E+00;  4.0000000E+04;  0.0000000E+00;  4.0000000E+04;  0.0000000E+00;  0.0000000E+00;  0.0000000E+00;  0.0000000E+00;
 -2.0000000E-01;  9.9999998E-03; -3.4000000E-01;10;  0.0000000E+00;  0.0000000E+00;  0.0000000E+00;  1.0000000E+03;  1.0000000E-01;  0.0000000E+00;0;  0.0000000E+00;  0.0000000E+00;  0.0000000E+00;0;  0.0000000E+00;  4.0000000E+04;  0.0000000E+00;  0.0000000E+00;  4.0000000E+04;  0.0000000E+00;  4.0000000E+04;  0.0000000E+00;  0.0000000E+00;  0.0000000E+00;  0.0000000E+00;
 -2.0000000E-01;  9.9999998E-03; -3.3000001E-01;11;  0.0000000E+00;  0.0000000E+00;  0.0000000E+00;  1.0000000E+03;  1.0000000E-01;  0.0000000E+00;0;  0.0000000E+00;  0.0000000E+00;  0.0000000E+00;0;  0.0000000E+00;  4.0000000E+04;  0.0000000E+00;  0.0000000E+00;  4.0000000E+04;  0.0000000E+00;  4.0000000E+04;  0.0000000E+00;  0.0000000E+00;  0.0000000E+00;  0.0000000E+00;
 -2.0000000E-01;  9.9999998E-03; -3.1999999E-01;12;  0.0000000E+00;  0.0000000E+00;  0.0000000E+00;  1.0000000E+03;  1.0000000E-01;  0.0000000E+00;0;  0.0000000E+00;  0.0000000E+00;  0.0000000E+00;0;  0.0000000E+00;  4.0000000E+04;  0.0000000E+00;  0.0000000E+00;  4.0000000E+04;  0.0000000E+00;  4.0000000E+04;  0.0000000E+00;  0.0000000E+00;  0.0000000E+00;  0.0000000E+00;
 -2.0000000E-01;  9.9999998E-03; -3.1000000E-01;13;  0.0000000E+00;  0.0000000E+00;  0.0000000E+00;  1.0000000E+03;  1.0000000E-01;  0.0000000E+00;0;  0.0000000E+00;  0.0000000E+00;  0.0000000E+00;0;  0.0000000E+00;  4.0000000E+04;  0.0000000E+00;  0.0000000E+00;  4.0000000E+04;  0.0000000E+00;  4.0000000E+04;  0.0000000E+00;  0.0000000E+00;  0.0000000E+00;  0.0000000E+00;
 -2.0000000E-01;  9.9999998E-03; -3.0000001E-01;14;  0.0000000E+00;  0.0000000E+00;  0.0000000E+00;  1.0000000E+03;  1.0000000E-01;  0.0000000E+00;0;  0.0000000E+00;  0.0000000E+00;  0.0000000E+00;0;  0.0000000E+00;  4.0000000E+04;  0.0000000E+00;  0.0000000E+00;  4.0000000E+04;  0.0000000E+00;  4.0000000E+04;  0.0000000E+00;  0.0000000E+00;  0.0000000E+00;  0.0000000E+00;
 -2.0000000E-01;  9.9999998E-03; -2.8999999E-01;15;  0.0000000E+00;  0.0000000E+00;  0.0000000E+00;  1.0000000E+03;  1.0000000E-01;  0.0000000E+00;0;  0.0000000E+00;  0.0000000E+00;  0.0000000E+00;0;  0.0000000E+00;  4.0000000E+04;  0.0000000E+00;  0.0000000E+00;  4.0000000E+04;  0.0000000E+00;  4.0000000E+04;  0.0000000E+00;  0.0000000E+00;  0.0000000E+00;  0.0000000E+00;
 -2.0000000E-01;  9.9999998E-03; -2.8000000E-01;16;  0.0000000E+00;  0.0000000E+00;  0.0000000E+00;  1.0000000E+03;  1.0000000E-01;  0.0000000E+00;0;  0.0000000E+00;  0.0000000E+00;  0.0000000E+00;0;  0.0000000E+00;  4.0000000E+04;  0.0000000E+00;  0.0000000E+00;  4.0000000E+04;  0.0000000E+00;  4.0000000E+04;  0.0000000E+00;  0.0000000E+00;  0.0000000E+00;  0.0000000E+00;
 -2.0000000E-01;  9.9999998E-03; -2.7000001E-01;17;  0.0000000E+00;  0.0000000E+00;  0.0000000E+00;  1.0000000E+03;  1.0000000E-01;  0.0000000E+00;0;  0.0000000E+00;  0.0000000E+00;  0.0000000E+00;0;  0.0000000E+00;  4.0000000E+04;  0.0000000E+00;  0.0000000E+00;  4.0000000E+04;  0.0000000E+00;  4.0000000E+04;  0.0000000E+00;  0.0000000E+00;  0.0000000E+00;  0.0000000E+00;
 -2.0000000E-01;  9.9999998E-03; -2.5999999E-01;18;  0.0000000E+00;  0.0000000E+00;  0.0000000E+00;  1.0000000E+03;  1.0000000E-01;  0.0000000E+00;0;  0.0000000E+00;  0.0000000E+00;  0.0000000E+00;0;  0.0000000E+00;  4.0000000E+04;  0.0000000E+00;  0.0000000E+00;  4.0000000E+04;  0.0000000E+00;  4.0000000E+04;  0.0000000E+00;  0.0000000E+00;  0.0000000E+00;  0.0000000E+00;
 -2.0000000E-01;  9.9999998E-03; -2.5000000E-01;19;  0.0000000E+00;  0.0000000E+00;  0.0000000E+00;  1.0000000E+03;  1.0000000E-01;  0.0000000E+00;0;  0.0000000E+00;  0.0000000E+00;  0.0000000E+00;0;  0.0000000E+00;  4.0000000E+04;  0.0000000E+00;  0.0000000E+00;  4.0000000E+04;  0.0000000E+00;  4.0000000E+04;  0.0000000E+00;  0.0000000E+00;  0.0000000E+00;  0.0000000E+00;
 -2.0000000E-01;  9.9999998E-03; -2.3999999E-01;20;  0.0000000E+00;  0.0000000E+00;  0.0000000E+00;  1.0000000E+03;  1.0000000E-01;  0.0000000E+00;0;  0.0000000E+00;  0.0000000E+00;  0.0000000E+00;0;  0.0000000E+00;  4.0000000E+04;  0.0000000E+00;  0.0000000E+00;  4.0000000E+04;  0.0000000E+00;  4.0000000E+04;  0.0000000E+00;  0.0000000E+00;  0.0000000E+00;  0.0000000E+00;
 -2.0000000E-01;  9.9999998E-03; -2.3000000E-01;21;  0.0000000E+00;  0.0000000E+00;  0.0000000E+00;  1.0000000E+03;  1.0000000E-01;  0.0000000E+00;0;  0.0000000E+00;  0.0000000E+00;  0.0000000E+00;0;  0.0000000E+00;  4.0000000E+04;  0.0000000E+00;  0.0000000E+00;  4.0000000E+04;  0.0000000E+00;  4.0000000E+04;  0.0000000E+00;  0.0000000E+00;  0.0000000E+00;  0.0000000E+00;
 -2.0000000E-01;  9.9999998E-03; -2.2000000E-01;22;  0.0000000E+00;  0.0000000E+00;  0.0000000E+00;  1.0000000E+03;  1.0000000E-01;  0.0000000E+00;0;  0.0000000E+00;  0.0000000E+00;  0.0000000E+00;0;  0.0000000E+00;  4.0000000E+04;  0.0000000E+00;  0.0000000E+00;  4.0000000E+04;  0.0000000E+00;  4.0000000E+04;  0.0000000E+00;  0.0000000E+00;  0.0000000E+00;  0.0000000E+00;
 -2.0000000E-01;  9.9999998E-03; -2.0999999E-01;23;  0.0000000E+00;  0.0000000E+00;  0.0000000E+00;  1.0000000E+03;  1.0000000E-01;  0.0000000E+00;0;  0.0000000E+00;  0.0000000E+00;  0.0000000E+00;0;  0.0000000E+00;  4.0000000E+04;  0.0000000E+00;  0.0000000E+00;  4.0000000E+04;  0.0000000E+00;  4.0000000E+04;  0.0000000E+00;  0.0000000E+00;  0.0000000E+00;  0.0000000E+00;
 -2.0000000E-01;  9.9999998E-03; -2.0000000E-01;24;  0.0000000E+00;  0.0000000E+00;  0.0000000E+00;  1.0000000E+03;  1.0000000E-01;  0.0000000E+00;0;  0.0000000E+00;  0.0000000E+00;  0.0000000E+00;0;  0.0000000E+00;  4.0000000E+04;  0.0000000E+00;  0.0000000E+00;  4.0000000E+04;  0.0000000E+00;  4.0000000E+04;  0.0000000E+00;  0.0000000E+00;  0.0000000E+00;  0.0000000E+00;
 -2.0000000E-01;  9.9999998E-03; -1.9000000E-01;25;  0.0000000E+00;  0.0000000E+00;  0.0000000E+00;  1.0000000E+03;  1.0000000E-01;  0.0000000E+00;0;  0.0000000E+00;  0.0000000E+00;  0.0000000E+00;0;  0.0000000E+00;  4.0000000E+04;  0.0000000E+00;  0.0000000E+00;  4.0000000E+04;  0.0000000E+00;  4.0000000E+04;  0.0000000E+00;  0.0000000E+00;  0.0000000E+00;  0.0000000E+00;
 -2.0000000E-01;  9.9999998E-03; -1.8000001E-01;26;  0.0000000E+00;  0.0000000E+00;  0.0000000E+00;  1.0000000E+03;  1.0000000E-01;  0.0000000E+00;0;  0.0000000E+00;  0.0000000E+00;  0.0000000E+00;0;  0.0000000E+00;  4.0000000E+04;  0.0000000E+00;  0.0000000E+00;  4.0000000E+04;  0.0000000E+00;  4.0000000E+04;  0.0000000E+00;  0.0000000E+00;  0.0000000E+00;  0.0000000E+00;
 -2.0000000E-01;  9.9999998E-03; -1.7000000E-01;27;  0.0000000E+00;  0.0000000E+00;  0.0000000E+00;  1.0000000E+03;  1.0000000E-01;  0.0000000E+00;0;  0.0000000E+00;  0.0000000E+00;  0.0000000E+00;0;  0.0000000E+00;  4.0000000E+04;  0.0000000E+00;  0.0000000E+00;  4.0000000E+04;  0.0000000E+00;  4.0000000E+04;  0.0000000E+00;  0.0000000E+00;  0.0000000E+00;  0.0000000E+00;
 -2.0000000E-01;  9.9999998E-03; -1.6000000E-01;28;  0.0000000E+00;  0.0000000E+00;  0.0000000E+00;  1.0000000E+03;  1.0000000E-01;  0.0000000E+00;0;  0.0000000E+00;  0.0000000E+00;  0.0000000E+00;0;  0.0000000E+00;  4.0000000E+04;  0.0000000E+00;  0.0000000E+00;  4.0000000E+04;  0.0000000E+00;  4.0000000E+04;  0.0000000E+00;  0.0000000E+00;  0.0000000E+00;  0.0000000E+00;
 -2.0000000E-01;  9.9999998E-03; -1.5000001E-01;29;  0.0000000E+00;  0.0000000E+00;  0.0000000E+00;  1.0000000E+03;  1.0000000E-01;  0.0000000E+00;0;  0.0000000E+00;  0.0000000E+00;  0.0000000E+00;0;  0.0000000E+00;  4.0000000E+04;  0.0000000E+00;  0.0000000E+00;  4.0000000E+04;  0.0000000E+00;  4.0000000E+04;  0.0000000E+00;  0.0000000E+00;  0.0000000E+00;  0.0000000E+00;
 -2.0000000E-01;  9.9999998E-03; -1.4000000E-01;30;  0.0000000E+00;  0.0000000E+00;  0.0000000E+00;  1.0000000E+03;  1.0000000E-01;  0.0000000E+00;0;  0.0000000E+00;  0.0000000E+00;  0.0000000E+00;0;  0.0000000E+00;  4.0000000E+04;  0.0000000E+00;  0.0000000E+00;  4.0000000E+04;  0.0000000E+00;  4.0000000E+04;  0.0000000E+00;  0.0000000E+00;  0.0000000E+00;  0.0000000E+00;
 -2.0000000E-01;  9.9999998E-03; -1.3000000E-01;31;  0.0000000E+00;  0.0000000E+00;  0.0000000E+00;  1.0000000E+03;  1.0000000E-01;  0.0000000E+00;0;  0.0000000E+00;  0.0000000E+00;  0.0000000E+00;0;  0.0000000E+00;  4.0000000E+04;  0.0000000E+00;  0.0000000E+00;  4.0000000E+04;  0.0000000E+00;  4.0000000E+04;  0.0000000E+00;  0.0000000E+00;  0.0000000E+00;  0.0000000E+00;
 -2.0000000E-01;  9.9999998E-03; -1.2000000E-01;32;  0.0000000E+00;  0.0000000E+00;  0.0000000E+00;  1.0000000E+03;  1.0000000E-01;  0.0000000E+00;0;  0.0000000E+00;  0.0000000E+00;  0.0000000E+00;0;  0.0000000E+00;  4.0000000E+04;  0.0000000E+00;  0.0000000E+00;  4.0000000E+04;  0.0000000E+00;  4.0000000E+04;  0.0000000E+00;  0.0000000E+00;  0.0000000E+00;  0.0000000E+00;
 -2.0000000E-01;  9.9999998E-03; -1.1000000E-01;33;  0.0000000E+00;  0.0000000E+00;  0.0000000E+00;  1.0000000E+03;  1.0000000E-01;  0.0000000E+00;0;  0.0000000E+00;  0.0000000E+00;  0.0000000E+00;0;  0.0000000E+00;  4.0000000E+04;  0.0000000E+00;  0.0000000E+00;  4.0000000E+04;  0.0000000E+00;  4.0000000E+04;  0.0000000E+00;  0.0000000E+00;  0.0000000E+00;  0.0000000E+00;
 -2.0000000E-01;  9.9999998E-03; -1.0000000E-01;34;  0.0000000E+00;  0.0000000E+00;  0.0000000E+00;  1.0000000E+03;  1.0000000E-01;  0.0000000E+00;0;  0.0000000E+00;  0.0000000E+00;  0.0000000E+00;0;  0.0000000E+00;  4.0000000E+04;  0.0000000E+00;  0.0000000E+00;  4.0000000E+04;  0.0000000E+00;  4.0000000E+04;  0.0000000E+00;  0.0000000E+00;  0.0000000E+00;  0.0000000E+00;
 -2.0000000E-01;  9.9999998E-03; -9.0000004E-02;35;  0.0000000E+00;  0.0000000E+00;  0.0000000E+00;  1.0000000E+03;  1.0000000E-01;  0.0000000E+00;0;  0.0000000E+00;  0.0000000E+00;  0.0000000E+00;0;  0.0000000E+00;  4.0000000E+04;  0.0000000E+00;  0.0000000E+00;  4.0000000E+04;  0.0000000E+00;  4.0000000E+04;  0.0000000E+00;  0.0000000E+00;  0.0000000E+00;  0.0000000E+00;
 -2.0000000E-01;  9.9999998E-03; -7.9999998E-02;36;  0.0000000E+00;  0.0000000E+00;  0.0000000E+00;  1.0000000E+03;  1.0000000E-01;  0.0000000E+00;0;  0.0000000E+00;  0.0000000E+00;  0.0000000E+00;0;  0.0000000E+00;  4.0000000E+04;  0.0000000E+00;  0.0000000E+00;  4.0000000E+04;  0.0000000E+00;  4.0000000E+04;  0.0000000E+00;  0.0000000E+00;  0.0000000E+00;  0.0000000E+00;
 -2.0000000E-01;  9.9999998E-03; -7.0000000E-02;37;  0.0000000E+00;  0.0000000E+00;  0.0000000E+00;  1.0000000E+03;  1.0000000E-01;  0.0000000E+00;0;  0.0000000E+00;  0.0000000E+00;  0.0000000E+00;0;  0.0000000E+00;  4.0000000E+04;  0.0000000E+00;  0.0000000E+00;  4.0000000E+04;  0.0000000E+00;  4.0000000E+04;  0.0000000E+00;  0.0000000E+00;  0.0000000E+00;  0.0000000E+00;
 -2.0000000E-01;  9.9999998E-03; -5.9999999E-02;38;  0.0000000E+00;  0.0000000E+00;  0.0000000E+00;  1.0000000E+03;  1.0000000E-01;  0.0000000E+00;0;  0.0000000E+00;  0.0000000E+00;  0.0000000E+00;0;  0.0000000E+00;  4.0000000E+04;  0.0000000E+00;  0.0000000E+00;  4.0000000E+04;  0.0000000E+00;  4.0000000E+04;  0.0000000E+00;  0.0000000E+00;  0.0000000E+00;  0.0000000E+00;
 -2.0000000E-01;  9.9999998E-03; -5.0000001E-02;39;  0.0000000E+00;  0.0000000E+00;  0.0000000E+00;  1.0000000E+03;  1.0000000E-01;  0.0000000E+00;0;  0.0000000E+00;  0.0000000E+00;  0.0000000E+00;0;  0.0000000E+00;  4.0000000E+04;  0.0000000E+00;  0.0000000E+00;  4.0000000E+04;  0.0000000E+00;  4.0000000E+04;  0.0000000E+00;  0.0000000E+00;  0.0000000E+00;  0.0000000E+00;
 -2.0000000E-01;  9.9999998E-03; -3.9999999E-02;40;  0.0000000E+00;  0.0000000E+00;  0.0000000E+00;  1.0000000E+03;  1.0000000E-01;  0.0000000E+00;0;  0.0000000E+00;  0.0000000E+00;  0.0000000E+00;0;  0.0000000E+00;  4.0000000E+04;  0.0000000E+00;  0.0000000E+00;  4.0000000E+04;  0.0000000E+00;  4.0000000E+04;  0.0000000E+00;  0.0000000E+00;  0.0000000E+00;  0.0000000E+00;
 -2.0000000E-01;  9.9999998E-03; -2.9999999E-02;41;  0.0000000E+00;  0.0000000E+00;  0.0000000E+00;  1.0000000E+03;  1.0000000E-01;  0.0000000E+00;0;  0.0000000E+00;  0.0000000E+00;  0.0000000E+00;0;  0.0000000E+00;  4.0000000E+04;  0.0000000E+00;  0.0000000E+00;  4.0000000E+04;  0.0000000E+00;  4.0000000E+04;  0.0000000E+00;  0.0000000E+00;  0.0000000E+00;  0.0000000E+00;
 -2.0000000E-01;  9.9999998E-03; -2.0000000E-02;42;  0.0000000E+00;  0.0000000E+00;  0.0000000E+00;  1.0000000E+03;  1.0000000E-01;  0.0000000E+00;0;  0.0000000E+00;  0.0000000E+00;  0.0000000E+00;0;  0.0000000E+00;  4.0000000E+04;  0.0000000E+00;  0.0000000E+00;  4.0000000E+04;  0.0000000E+00;  4.0000000E+04;  0.0000000E+00;  0.0000000E+00;  0.0000000E+00;  0.0000000E+00;
 -2.0000000E-01;  9.9999998E-03; -9.9999998E-03;43;  0.0000000E+00;  0.0000000E+00;  0.0000000E+00;  1.0000000E+03;  1.0000000E-01;  0.0000000E+00;0;  0.0000000E+00;  0.0000000E+00;  0.0000000E+00;0;  0.0000000E+00;  4.0000000E+04;  0.0000000E+00;  0.0000000E+00;  4.0000000E+04;  0.0000000E+00;  4.0000000E+04;  0.0000000E+00;  0.0000000E+00;  0.0000000E+00;  0.0000000E+00;
 -2.0000000E-01;  9.9999998E-03;  0.0000000E+00;44;  0.0000000E+00;  0.0000000E+00;  0.0000000E+00;  1.0000000E+03;  1.0000000E-01;  0.0000000E+00;0;  0.0000000E+00;  0.0000000E+00;  0.0000000E+00;0;  0.0000000E+00;  4.0000000E+04;  0.0000000E+00;  0.0000000E+00;  4.0000000E+04;  0.0000000E+00;  4.0000000E+04;  0.0000000E+00;  0.0000000E+00;  0.0000000E+00;  0.0000000E+00;
 -2.0000000E-01;  9.9999998E-03;  9.9999998E-03;45;  0.0000000E+00;  0.0000000E+00;  0.0000000E+00;  1.0000000E+03;  1.0000000E-01;  0.0000000E+00;0;  0.0000000E+00;  0.0000000E+00;  0.0000000E+00;0;  0.0000000E+00;  4.0000000E+04;  0.0000000E+00;  0.0000000E+00;  4.0000000E+04;  0.0000000E+00;  4.0000000E+04;  0.0000000E+00;  0.0000000E+00;  0.0000000E+00;  0.0000000E+00;
 -2.0000000E-01;  9.9999998E-03;  2.0000000E-02;46;  0.0000000E+00;  0.0000000E+00;  0.0000000E+00;  1.0000000E+03;  1.0000000E-01;  0.0000000E+00;0;  0.0000000E+00;  0.0000000E+00;  0.0000000E+00;0;  0.0000000E+00;  4.0000000E+04;  0.0000000E+00;  0.0000000E+00;  4.0000000E+04;  0.0000000E+00;  4.0000000E+04;  0.0000000E+00;  0.0000000E+00;  0.0000000E+00;  0.0000000E+00;
 -2.0000000E-01;  9.9999998E-03;  2.9999999E-02;47;  0.0000000E+00;  0.0000000E+00;  0.0000000E+00;  1.0000000E+03;  1.0000000E-01;  0.0000000E+00;0;  0.0000000E+00;  0.0000000E+00;  0.0000000E+00;0;  0.0000000E+00;  4.0000000E+04;  0.0000000E+00;  0.0000000E+00;  4.0000000E+04;  0.0000000E+00;  4.0000000E+04;  0.0000000E+00;  0.0000000E+00;  0.0000000E+00;  0.0000000E+00;
 -2.0000000E-01;  9.9999998E-03;  3.9999999E-02;48;  0.0000000E+00;  0.0000000E+00;  0.0000000E+00;  1.0000000E+03;  1.0000000E-01;  0.0000000E+00;0;  0.0000000E+00;  0.0000000E+00;  0.0000000E+00;0;  0.0000000E+00;  4.0000000E+04;  0.0000000E+00;  0.0000000E+00;  4.0000000E+04;  0.0000000E+00;  4.0000000E+04;  0.0000000E+00;  0.0000000E+00;  0.0000000E+00;  0.0000000E+00;
 -2.0000000E-01;  9.9999998E-03;  5.0000001E-02;49;  0.0000000E+00;  0.0000000E+00;  0.0000000E+00;  1.0000000E+03;  1.0000000E-01;  0.0000000E+00;0;  0.0000000E+00;  0.0000000E+00;  0.0000000E+00;0;  0.0000000E+00;  4.0000000E+04;  0.0000000E+00;  0.0000000E+00;  4.0000000E+04;  0.0000000E+00;  4.0000000E+04;  0.0000000E+00;  0.0000000E+00;  0.0000000E+00;  0.0000000E+00;
 -2.0000000E-01;  9.9999998E-03;  5.9999999E-02;50;  0.0000000E+00;  0.0000000E+00;  0.0000000E+00;  1.0000000E+03;  1.0000000E-01;  0.0000000E+00;0;  0.0000000E+00;  0.0000000E+00;  0.0000000E+00;0;  0.0000000E+00;  4.0000000E+04;  0.0000000E+00;  0.0000000E+00;  4.0000000E+04;  0.0000000E+00;  4.0000000E+04;  0.0000000E+00;  0.0000000E+00;  0.0000000E+00;  0.0000000E+00;
 -2.0000000E-01;  9.9999998E-03;  7.0000000E-02;51;  0.0000000E+00;  0.0000000E+00;  0.0000000E+00;  1.0000000E+03;  1.0000000E-01;  0.0000000E+00;0;  0.0000000E+00;  0.0000000E+00;  0.0000000E+00;0;  0.0000000E+00;  4.0000000E+04;  0.0000000E+00;  0.0000000E+00;  4.0000000E+04;  0.0000000E+00;  4.0000000E+04;  0.0000000E+00;  0.0000000E+00;  0.0000000E+00;  0.0000000E+00;
 -2.0000000E-01;  9.9999998E-03;  7.9999998E-02;52;  0.0000000E+00;  0.0000000E+00;  0.0000000E+00;  1.0000000E+03;  1.0000000E-01;  0.0000000E+00;0;  0.0000000E+00;  0.0000000E+00;  0.0000000E+00;0;  0.0000000E+00;  4.0000000E+04;  0.0000000E+00;  0.0000000E+00;  4.0000000E+04;  0.0000000E+00;  4.0000000E+04;  0.0000000E+00;  0.0000000E+00;  0.0000000E+00;  0.0000000E+00;
 -2.0000000E-01;  9.9999998E-03;  9.0000004E-02;53;  0.0000000E+00;  0.0000000E+00;  0.0000000E+00;  1.0000000E+03;  1.0000000E-01;  0.0000000E+00;0;  0.0000000E+00;  0.0000000E+00;  0.0000000E+00;0;  0.0000000E+00;  4.0000000E+04;  0.0000000E+00;  0.0000000E+00;  4.0000000E+04;  0.0000000E+00;  4.0000000E+04;  0.0000000E+00;  0.0000000E+00;  0.0000000E+00;  0.0000000E+00;
 -2.0000000E-01;  9.9999998E-03;  1.0000000E-01;54;  0.0000000E+00;  0.0000000E+00;  0.0000000E+00;  1.0000000E+03;  1.0000000E-01;  0.0000000E+00;0;  0.0000000E+00;  0.0000000E+00;  0.0000000E+00;0;  0.0000000E+00;  4.0000000E+04;  0.0000000E+00;  0.0000000E+00;  4.0000000E+04;  0.0000000E+00;  4.0000000E+04;  0.0000000E+00;  0.0000000E+00;  0.0000000E+00;  0.0000000E+00;
 -2.0000000E-01;  9.9999998E-03;  1.1000000E-01;55;  0.0000000E+00;  0.0000000E+00;  0.0000000E+00;  1.0000000E+03;  1.0000000E-01;  0.0000000E+00;0;  0.0000000E+00;  0.0000000E+00;  0.0000000E+00;0;  0.0000000E+00;  4.0000000E+04;  0.0000000E+00;  0.0000000E+00;  4.0000000E+04;  0.0000000E+00;  4.0000000E+04;  0.0000000E+00;  0.0000000E+00;  0.0000000E+00;  0.0000000E+00;
 -2.0000000E-01;  9.9999998E-03;  1.2000000E-01;56;  0.0000000E+00;  0.0000000E+00;  0.0000000E+00;  1.0000000E+03;  1.0000000E-01;  0.0000000E+00;0;  0.0000000E+00;  0.0000000E+00;  0.0000000E+00;0;  0.0000000E+00;  4.0000000E+04;  0.0000000E+00;  0.0000000E+00;  4.0000000E+04;  0.0000000E+00;  4.0000000E+04;  0.0000000E+00;  0.0000000E+00;  0.0000000E+00;  0.0000000E+00;
 -2.0000000E-01;  9.9999998E-03;  1.3000000E-01;57;  0.0000000E+00;  0.0000000E+00;  0.0000000E+00;  1.0000000E+03;  1.0000000E-01;  0.0000000E+00;0;  0.0000000E+00;  0.0000000E+00;  0.0000000E+00;0;  0.0000000E+00;  4.0000000E+04;  0.0000000E+00;  0.0000000E+00;  4.0000000E+04;  0.0000000E+00;  4.0000000E+04;  0.0000000E+00;  0.0000000E+00;  0.0000000E+00;  0.0000000E+00;
 -2.0000000E-01;  9.9999998E-03;  1.4000000E-01;58;  0.0000000E+00;  0.0000000E+00;  0.0000000E+00;  1.0000000E+03;  1.0000000E-01;  0.0000000E+00;0;  0.0000000E+00;  0.0000000E+00;  0.0000000E+00;0;  0.0000000E+00;  4.0000000E+04;  0.0000000E+00;  0.0000000E+00;  4.0000000E+04;  0.0000000E+00;  4.0000000E+04;  0.0000000E+00;  0.0000000E+00;  0.0000000E+00;  0.0000000E+00;
 -2.0000000E-01;  9.9999998E-03;  1.5000001E-01;59;  0.0000000E+00;  0.0000000E+00;  0.0000000E+00;  1.0000000E+03;  1.0000000E-01;  0.0000000E+00;0;  0.0000000E+00;  0.0000000E+00;  0.0000000E+00;0;  0.0000000E+00;  4.0000000E+04;  0.0000000E+00;  0.0000000E+00;  4.0000000E+04;  0.0000000E+00;  4.0000000E+04;  0.0000000E+00;  0.0000000E+00;  0.0000000E+00;  0.0000000E+00;
 -2.0000000E-01;  9.9999998E-03;  1.6000000E-01;60;  0.0000000E+00;  0.0000000E+00;  0.0000000E+00;  1.0000000E+03;  1.0000000E-01;  0.0000000E+00;0;  0.0000000E+00;  0.0000000E+00;  0.0000000E+00;0;  0.0000000E+00;  4.0000000E+04;  0.0000000E+00;  0.0000000E+00;  4.0000000E+04;  0.0000000E+00;  4.0000000E+04;  0.0000000E+00;  0.0000000E+00;  0.0000000E+00;  0.0000000E+00;
 -2.0000000E-01;  9.9999998E-03;  1.7000000E-01;61;  0.0000000E+00;  0.0000000E+00;  0.0000000E+00;  1.0000000E+03;  1.0000000E-01;  0.0000000E+00;0;  0.0000000E+00;  0.0000000E+00;  0.0000000E+00;0;  0.0000000E+00;  4.0000000E+04;  0.0000000E+00;  0.0000000E+00;  4.0000000E+04;  0.0000000E+00;  4.0000000E+04;  0.0000000E+00;  0.0000000E+00;  0.0000000E+00;  0.0000000E+00;
 -2.0000000E-01;  9.9999998E-03;  1.8000001E-01;62;  0.0000000E+00;  0.0000000E+00;  0.0000000E+00;  1.0000000E+03;  1.0000000E-01;  0.0000000E+00;0;  0.0000000E+00;  0.0000000E+00;  0.0000000E+00;0;  0.0000000E+00;  4.0000000E+04;  0.0000000E+00;  0.0000000E+00;  4.0000000E+04;  0.0000000E+00;  4.0000000E+04;  0.0000000E+00;  0.0000000E+00;  0.0000000E+00;  0.0000000E+00;
 -2.0000000E-01;  9.9999998E-03;  1.9000000E-01;63;  0.0000000E+00;  0.0000000E+00;  0.0000000E+00;  1.0000000E+03;  1.0000000E-01;  0.0000000E+00;0;  0.0000000E+00;  0.0000000E+00;  0.0000000E+00;0;  0.0000000E+00;  4.0000000E+04;  0.0000000E+00;  0.0000000E+00;  4.0000000E+04;  0.0000000E+00;  4.0000000E+04;  0.0000000E+00;  0.0000000E+00;  0.0000000E+00;  0.0000000E+00;
 -2.0000000E-01;  9.9999998E-03;  2.0000000E-01;64;  0.0000000E+00;  0.0000000E+00;  0.0000000E+00;  1.0000000E+03;  1.0000000E-01;  0.0000000E+00;0;  0.0000000E+00;  0.0000000E+00;  0.0000000E+00;0;  0.0000000E+00;  4.0000000E+04;  0.0000000E+00;  0.0000000E+00;  4.0000000E+04;  0.0000000E+00;  4.0000000E+04;  0.0000000E+00;  0.0000000E+00;  0.0000000E+00;  0.0000000E+00;
 -2.0000000E-01;  9.9999998E-03;  2.0999999E-01;65;  0.0000000E+00;  0.0000000E+00;  0.0000000E+00;  1.0000000E+03;  1.0000000E-01;  0.0000000E+00;0;  0.0000000E+00;  0.0000000E+00;  0.0000000E+00;0;  0.0000000E+00;  4.0000000E+04;  0.0000000E+00;  0.0000000E+00;  4.0000000E+04;  0.0000000E+00;  4.0000000E+04;  0.0000000E+00;  0.0000000E+00;  0.0000000E+00;  0.0000000E+00;
 -2.0000000E-01;  9.9999998E-03;  2.2000000E-01;66;  0.0000000E+00;  0.0000000E+00;  0.0000000E+00;  1.0000000E+03;  1.0000000E-01;  0.0000000E+00;0;  0.0000000E+00;  0.0000000E+00;  0.0000000E+00;0;  0.0000000E+00;  4.0000000E+04;  0.0000000E+00;  0.0000000E+00;  4.0000000E+04;  0.0000000E+00;  4.0000000E+04;  0.0000000E+00;  0.0000000E+00;  0.0000000E+00;  0.0000000E+00;
 -2.0000000E-01;  9.9999998E-03;  2.3000000E-01;67;  0.0000000E+00;  0.0000000E+00;  0.0000000E+00;  1.0000000E+03;  1.0000000E-01;  0.0000000E+00;0;  0.0000000E+00;  0.0000000E+00;  0.0000000E+00;0;  0.0000000E+00;  4.0000000E+04;  0.0000000E+00;  0.0000000E+00;  4.0000000E+04;  0.0000000E+00;  4.0000000E+04;  0.0000000E+00;  0.0000000E+00;  0.0000000E+00;  0.0000000E+00;
 -2.0000000E-01;  9.9999998E-03;  2.3999999E-01;68;  0.0000000E+00;  0.0000000E+00;  0.0000000E+00;  1.0000000E+03;  1.0000000E-01;  0.0000000E+00;0;  0.0000000E+00;  0.0000000E+00;  0.0000000E+00;0;  0.0000000E+00;  4.0000000E+04;  0.0000000E+00;  0.0000000E+00;  4.0000000E+04;  0.0000000E+00;  4.0000000E+04;  0.0000000E+00;  0.0000000E+00;  0.0000000E+00;  0.0000000E+00;
 -2.0000000E-01;  9.9999998E-03;  2.5000000E-01;69;  0.0000000E+00;  0.0000000E+00;  0.0000000E+00;  1.0000000E+03;  1.0000000E-01;  0.0000000E+00;0;  0.0000000E+00;  0.0000000E+00;  0.0000000E+00;0;  0.0000000E+00;  4.0000000E+04;  0.0000000E+00;  0.0000000E+00;  4.0000000E+04;  0.0000000E+00;  4.0000000E+04;  0.0000000E+00;  0.0000000E+00;  0.0000000E+00;  0.0000000E+00;
 -2.0000000E-01;  9.9999998E-03;  2.5999999E-01;70;  0.0000000E+00;  0.0000000E+00;  0.0000000E+00;  1.0000000E+03;  1.0000000E-01;  0.0000000E+00;0;  0.0000000E+00;  0.0000000E+00;  0.0000000E+00;0;  0.0000000E+00;  4.0000000E+04;  0.0000000E+00;  0.0000000E+00;  4.0000000E+04;  0.0000000E+00;  4.0000000E+04;  0.0000000E+00;  0.0000000E+00;  0.0000000E+00;  0.0000000E+00;
 -2.0000000E-01;  9.9999998E-03;  2.7000001E-01;71;  0.0000000E+00;  0.0000000E+00;  0.0000000E+00;  1.0000000E+03;  1.0000000E-01;  0.0000000E+00;0;  0.0000000E+00;  0.0000000E+00;  0.0000000E+00;0;  0.0000000E+00;  4.0000000E+04;  0.0000000E+00;  0.0000000E+00;  4.0000000E+04;  0.0000000E+00;  4.0000000E+04;  0.0000000E+00;  0.0000000E+00;  0.0000000E+00;  0.0000000E+00;
 -2.0000000E-01;  9.9999998E-03;  2.8000000E-01;72;  0.0000000E+00;  0.0000000E+00;  0.0000000E+00;  1.0000000E+03;  1.0000000E-01;  0.0000000E+00;0;  0.0000000E+00;  0.0000000E+00;  0.0000000E+00;0;  0.0000000E+00;  4.0000000E+04;  0.0000000E+00;  0.0000000E+00;  4.0000000E+04;  0.0000000E+00;  4.0000000E+04;  0.0000000E+00;  0.0000000E+00;  0.0000000E+00;  0.0000000E+00;
 -2.0000000E-01;  9.9999998E-03;  2.8999999E-01;73;  0.0000000E+00;  0.0000000E+00;  0.0000000E+00;  1.0000000E+03;  1.0000000E-01;  0.0000000E+00;0;  0.0000000E+00;  0.0000000E+00;  0.0000000E+00;0;  0.0000000E+00;  4.0000000E+04;  0.0000000E+00;  0.0000000E+00;  4.0000000E+04;  0.0000000E+00;  4.0000000E+04;  0.0000000E+00;  0.0000000E+00;  0.0000000E+00;  0.0000000E+00;
 -2.0000000E-01;  9.9999998E-03;  3.0000001E-01;74;  0.0000000E+00;  0.0000000E+00;  0.0000000E+00;  1.0000000E+03;  1.0000000E-01;  0.0000000E+00;0;  0.0000000E+00;  0.0000000E+00;  0.0000000E+00;0;  0.0000000E+00;  4.0000000E+04;  0.0000000E+00;  0.0000000E+00;  4.0000000E+04;  0.0000000E+00;  4.0000000E+04;  0.0000000E+00;  0.0000000E+00;  0.0000000E+00;  0.0000000E+00;
 -2.0000000E-01;  9.9999998E-03;  3.1000000E-01;75;  0.0000000E+00;  0.0000000E+00;  0.0000000E+00;  1.0000000E+03;  1.0000000E-01;  0.0000000E+00;0;  0.0000000E+00;  0.0000000E+00;  0.0000000E+00;0;  0.0000000E+00;  4.0000000E+04;  0.0000000E+00;  0.0000000E+00;  4.0000000E+04;  0.0000000E+00;  4.0000000E+04;  0.0000000E+00;  0.0000000E+00;  0.0000000E+00;  0.0000000E+00;
 -2.0000000E-01;  9.9999998E-03;  3.1999999E-01;76;  0.0000000E+00;  0.0000000E+00;  0.0000000E+00;  1.0000000E+03;  1.0000000E-01;  0.0000000E+00;0;  0.0000000E+00;  0.0000000E+00;  0.0000000E+00;0;  0.0000000E+00;  4.0000000E+04;  0.0000000E+00;  0.0000000E+00;  4.0000000E+04;  0.0000000E+00;  4.0000000E+04;  0.0000000E+00;  0.0000000E+00;  0.0000000E+00;  0.0000000E+00;
 -2.0000000E-01;  9.9999998E-03;  3.3000001E-01;77;  0.0000000E+00;  0.0000000E+00;  0.0000000E+00;  1.0000000E+03;  1.0000000E-01;  0.0000000E+00;0;  0.0000000E+00;  0.0000000E+00;  0.0000000E+00;0;  0.0000000E+00;  4.0000000E+04;  0.0000000E+00;  0.0000000E+00;  4.0000000E+04;  0.0000000E+00;  4.0000000E+04;  0.0000000E+00;  0.0000000E+00;  0.0000000E+00;  0.0000000E+00;
 -2.0000000E-01;  9.9999998E-03;  3.4000000E-01;78;  0.0000000E+00;  0.0000000E+00;  0.0000000E+00;  1.0000000E+03;  1.0000000E-01;  0.0000000E+00;0;  0.0000000E+00;  0.0000000E+00;  0.0000000E+00;0;  0.0000000E+00;  4.0000000E+04;  0.0000000E+00;  0.0000000E+00;  4.0000000E+04;  0.0000000E+00;  4.0000000E+04;  0.0000000E+00;  0.0000000E+00;  0.0000000E+00;  0.0000000E+00;
 -2.0000000E-01;  9.9999998E-03;  3.4999999E-01;79;  0.0000000E+00;  0.0000000E+00;  0.0000000E+00;  1.0000000E+03;  1.0000000E-01;  0.0000000E+00;0;  0.0000000E+00;  0.0000000E+00;  0.0000000E+00;0;  0.0000000E+00;  4.0000000E+04;  0.0000000E+00;  0.0000000E+00;  4.0000000E+04;  0.0000000E+00;  4.0000000E+04;  0.0000000E+00;  0.0000000E+00;  0.0000000E+00;  0.0000000E+00;
 -2.0000000E-01;  9.9999998E-03;  3.6000001E-01;80;  0.0000000E+00;  0.0000000E+00;  0.0000000E+00;  1.0000000E+03;  1.0000000E-01;  0.0000000E+00;0;  0.0000000E+00;  0.0000000E+00;  0.0000000E+00;0;  0.0000000E+00;  4.0000000E+04;  0.0000000E+00;  0.0000000E+00;  4.0000000E+04;  0.0000000E+00;  4.0000000E+04;  0.0000000E+00;  0.0000000E+00;  0.0000000E+00;  0.0000000E+00;
 -2.0000000E-01;  9.9999998E-03;  3.7000000E-01;81;  0.0000000E+00;  0.0000000E+00;  0.0000000E+00;  1.0000000E+03;  1.0000000E-01;  0.0000000E+00;0;  0.0000000E+00;  0.0000000E+00;  0.0000000E+00;0;  0.0000000E+00;  4.0000000E+04;  0.0000000E+00;  0.0000000E+00;  4.0000000E+04;  0.0000000E+00;  4.0000000E+04;  0.0000000E+00;  0.0000000E+00;  0.0000000E+00;  0.0000000E+00;
 -2.0000000E-01;  9.9999998E-03;  3.8000000E-01;82;  0.0000000E+00;  0.0000000E+00;  0.0000000E+00;  1.0000000E+03;  1.0000000E-01;  0.0000000E+00;0;  0.0000000E+00;  0.0000000E+00;  0.0000000E+00;0;  0.0000000E+00;  4.0000000E+04;  0.0000000E+00;  0.0000000E+00;  4.0000000E+04;  0.0000000E+00;  4.0000000E+04;  0.0000000E+00;  0.0000000E+00;  0.0000000E+00;  0.0000000E+00;
 -2.0000000E-01;  9.9999998E-03;  3.8999999E-01;83;  0.0000000E+00;  0.0000000E+00;  0.0000000E+00;  1.0000000E+03;  1.0000000E-01;  0.0000000E+00;0;  0.0000000E+00;  0.0000000E+00;  0.0000000E+00;0;  0.0000000E+00;  4.0000000E+04;  0.0000000E+00;  0.0000000E+00;  4.0000000E+04;  0.0000000E+00;  4.0000000E+04;  0.0000000E+00;  0.0000000E+00;  0.0000000E+00;  0.0000000E+00;
 -2.0000000E-01;  9.9999998E-03;  4.0000001E-01;84;  0.0000000E+00;  0.0000000E+00;  0.0000000E+00;  1.0000000E+03;  1.0000000E-01;  0.0000000E+00;0;  0.0000000E+00;  0.0000000E+00;  0.0000000E+00;0;  0.0000000E+00;  4.0000000E+04;  0.0000000E+00;  0.0000000E+00;  4.0000000E+04;  0.0000000E+00;  4.0000000E+04;  0.0000000E+00;  0.0000000E+00;  0.0000000E+00;  0.0000000E+00;
 -2.0000000E-01;  9.9999998E-03;  4.1000000E-01;85;  0.0000000E+00;  0.0000000E+00;  0.0000000E+00;  1.0000000E+03;  1.0000000E-01;  0.0000000E+00;0;  0.0000000E+00;  0.0000000E+00;  0.0000000E+00;0;  0.0000000E+00;  4.0000000E+04;  0.0000000E+00;  0.0000000E+00;  4.0000000E+04;  0.0000000E+00;  4.0000000E+04;  0.0000000E+00;  0.0000000E+00;  0.0000000E+00;  0.0000000E+00;
 -2.0000000E-01;  9.9999998E-03;  4.1999999E-01;86;  0.0000000E+00;  0.0000000E+00;  0.0000000E+00;  1.0000000E+03;  1.0000000E-01;  0.0000000E+00;0;  0.0000000E+00;  0.0000000E+00;  0.0000000E+00;0;  0.0000000E+00;  4.0000000E+04;  0.0000000E+00;  0.0000000E+00;  4.0000000E+04;  0.0000000E+00;  4.0000000E+04;  0.0000000E+00;  0.0000000E+00;  0.0000000E+00;  0.0000000E+00;
 -2.0000000E-01;  9.9999998E-03;  4.3000001E-01;87;  0.0000000E+00;  0.0000000E+00;  0.0000000E+00;  1.0000000E+03;  1.0000000E-01;  0.0000000E+00;0;  0.0000000E+00;  0.0000000E+00;  0.0000000E+00;0;  0.0000000E+00;  4.0000000E+04;  0.0000000E+00;  0.0000000E+00;  4.0000000E+04;  0.0000000E+00;  4.0000000E+04;  0.0000000E+00;  0.0000000E+00;  0.0000000E+00;  0.0000000E+00;
 -2.0000000E-01;  9.9999998E-03;  4.4000000E-01;88;  0.0000000E+00;  0.0000000E+00;  0.0000000E+00;  1.0000000E+03;  1.0000000E-01;  0.0000000E+00;0;  0.0000000E+00;  0.0000000E+00;  0.0000000E+00;0;  0.0000000E+00;  4.0000000E+04;  0.0000000E+00;  0.0000000E+00;  4.0000000E+04;  0.0000000E+00;  4.0000000E+04;  0.0000000E+00;  0.0000000E+00;  0.0000000E+00;  0.0000000E+00;
  2.9002898E-04;  9.9999998E-03; -2.8970951E-01;2448; -2.5140455E-03;  0.0000000E+00; -2.7816074E-03;  9.8994720E+02;  1.0000000E-01; -8.3285547E+03;3;  1.4034704E+01;  0.0000000E+00;  6.3308914E+01;0; -9.3100496E-02;  3.9257422E+04;  0.0000000E+00;  6.7102157E-02;  4.0000000E+04;  0.0000000E+00;  3.9939582E+04; -7.0858210E-02;  0.0000000E+00; -2.2242283E-02;  6.7024756E+03;
  5.6827889E-04;  9.9999998E-03; -2.7967691E-01;2449; -2.4134684E-03;  0.0000000E+00; -3.3410741E-03;  9.8810260E+02;  1.0000000E-01; -9.8567578E+03;3;  3.2463776E+01;  0.0000000E+00;  5.6813080E+01;0; -1.0518031E-01;  3.9097289E+04;  0.0000000E+00;  1.0086370E-01;  4.0000000E+04;  0.0000000E+00;  3.9955965E+04; -8.4902033E-02;  0.0000000E+00; -2.0278275E-02;  4.5074331E+03;
  1.0148829E-02;  9.9999998E-03; -2.9965243E-01;2507; -3.2232839E-03;  0.0000000E+00; -2.4673673E-03;  9.9132086E+02;  1.0000000E-01; -7.1905127E+03;3; -8.0782013E+00;  0.0000000E+00;  7.8434341E+01;0; -9.3041137E-02;  3.9385625E+04;  0.0000000E+00;  1.9550760E-01;  4.0000000E+04;  0.0000000E+00;  3.9920105E+04; -6.6317998E-02;  0.0000000E+00; -2.6723137E-02;  9.2838672E+03;
  1.0363441E-02;  9.9999998E-03; -2.8965178E-01;2508; -3.3152925E-03;  0.0000000E+00; -3.1064888E-03;  9.8963452E+02;  1.0000000E-01; -8.5876094E+03;3;  3.3016989E+00;  0.0000000E+00;  7.4368782E+01;0; -1.0698423E-01;  3.9238734E+04;  0.0000000E+00;  3.0346796E-01;  4.0000000E+04;  0.0000000E+00;  3.9934289E+04; -8.1199951E-02;  0.0000000E+00; -2.5784276E-02;  7.3779907E+03;
  1.0663394E-02;  9.9999998E-03; -2.7964967E-01;2509; -3.4614042E-03;  0.0000000E+00; -3.7007153E-03;  9.8786462E+02;  1.0000000E-01; -1.0053938E+04;3;  2.0247358E+01;  0.0000000E+00;  6.5979446E+01;0; -1.2052224E-01;  3.9081648E+04;  0.0000000E+00;  3.9232650E-01;  4.0000000E+04;  0.0000000E+00;  3.9953383E+04; -9.7156212E-02;  0.0000000E+00; -2.3366027E-02;  4.8640649E+03;
  2.0172054E-02;  9.9999998E-03; -2.9966843E-01;2568; -3.9363713E-03;  0.0000000E+00; -2.7376357E-03;  9.9121350E+02;  1.0000000E-01; -7.2794482E+03;3; -1.7462566E+01;  0.0000000E+00;  8.8453224E+01;0; -1.0430110E-01;  3.9382477E+04;  0.0000000E+00;  3.6312324E-01;  4.0000000E+04;  0.0000000E+00;  3.9914512E+04; -7.4145854E-02;  0.0000000E+00; -3.0155241E-02;  9.9860703E+03;
  2.0403003E-02;  9.9999998E-03; -2.8969082E-01;2569; -4.2778188E-03;  0.0000000E+00; -3.4304163E-03;  9.8962646E+02;  1.0000000E-01; -8.5942754E+03;3; -8.1383362E+00;  0.0000000E+00;  8.2760193E+01;0; -1.1963038E-01;  3.9241148E+04;  0.0000000E+00;  5.3270018E-01;  4.0000000E+04;  0.0000000E+00;  3.9930734E+04; -9.0682380E-02;  0.0000000E+00; -2.8948005E-02;  7.8387900E+03;
  2.0732364E-02;  9.9999998E-03; -2.7969900E-01;2570; -4.6796598E-03;  0.0000000E+00; -4.0714671E-03;  9.8799213E+02;  1.0000000E-01; -9.9483115E+03;3;  6.1292539E+00;  0.0000000E+00;  7.2366486E+01;0; -1.3445325E-01;  3.9092789E+04;  0.0000000E+00;  6.7501861E-01;  4.0000000E+04;  0.0000000E+00;  3.9952020E+04; -1.0838135E-01;  0.0000000E+00; -2.6071895E-02;  5.0855200E+03;
  3.0191118E-02;  9.9999998E-03; -2.9973710E-01;2629; -4.7153137E-03;  0.0000000E+00; -2.9992617E-03;  9.9128448E+02;  1.0000000E-01; -7.2206353E+03;3; -2.6076738E+01;  0.0000000E+00;  9.5337250E+01;0; -1.1429803E-01;  3.9391359E+04;  0.0000000E+00;  4.8281384E-01;  4.0000000E+04;  0.0000000E+00;  3.9910801E+04; -8.1259005E-02;  0.0000000E+00; -3.3039022E-02;  1.0466201E+04;
  3.0443292E-02;  9.9999998E-03; -2.8975990E-01;2630; -5.3301002E-03;  0.0000000E+00; -3.7408895E-03;  9.8983258E+02;  1.0000000E-01; -8.4235146E+03;3; -1.8917048E+01;  0.0000000E+00;  8.7744385E+01;0; -1.3083151E-01;  3.9259113E+04;  0.0000000E+00;  7.0661402E-01;  4.0000000E+04;  0.0000000E+00;  3.9928812E+04; -9.9279270E-02;  0.0000000E+00; -3.1552248E-02;  8.1245586E+03;
  3.0805666E-02;  9.9999998E-03; -2.7976230E-01;2631; -6.0141128E-03;  0.0000000E+00; -4.4314312E-03;  9.8838068E+02;  1.0000000E-01; -9.6263945E+03;3; -7.5475197E+00;  0.0000000E+00;  7.5272339E+01;0; -1.4672215E-01;  3.9122660E+04;  0.0000000E+00;  8.9804482E-01;  4.0000000E+04;  0.0000000E+00;  3.9952043E+04; -1.1849972E-01;  0.0000000E+00; -2.8222438E-02;  5.1887646E+03;
  4.0227693E-02;  9.9999998E-03; -2.9980493E-01;2690; -5.5191671E-03;  0.0000000E+00; -3.2529172E-03;  9.9145819E+02;  1.0000000E-01; -7.0767383E+03;3; -3.3459141E+01;  0.0000000E+00;  9.9088943E+01;0; -1.2297934E-01;  3.9406789E+04;  0.0000000E+00;  5.1922745E-01;  4.0000000E+04;  0.0000000E+00;  3.9908645E+04; -8.7759472E-02;  0.0000000E+00; -3.5219871E-02;  1.0756802E+04;
  4.0512767E-02;  9.9999998E-03; -2.8980878E-01;2691; -6.4290990E-03;  0.0000000E+00; -4.0338445E-03;  9.9016284E+02;  1.0000000E-01; -8.1498931E+03;3; -2.8120665E+01;  0.0000000E+00;  8.9260429E+01;0; -1.4053696E-01;  3.9285258E+04;  0.0000000E+00;  7.8904837E-01;  4.0000000E+04;  0.0000000E+00;  3.9928211E+04; -1.0709136E-01;  0.0000000E+00; -3.3445608E-02;  8.2381777E+03;
  4.0903311E-02;  9.9999998E-03; -2.7980182E-01;2692; -7.4168243E-03;  0.0000000E+00; -4.7663609E-03;  9.8891046E+02;  1.0000000E-01; -9.1874932E+03;3; -1.9147558E+01;  0.0000000E+00;  7.4677498E+01;0; -1.5724628E-01;  3.9163082E+04;  0.0000000E+00;  1.0272087E+00;  4.0000000E+04;  0.0000000E+00;  3.9953238E+04; -1.2756509E-01;  0.0000000E+00; -2.9681193E-02;  5.1437236E+03;
  5.0289463E-02;  9.9999998E-03; -2.9984599E-01;2751; -6.3224030E-03;  0.0000000E+00; -3.4972318E-03;  9.9165997E+02;  1.0000000E-01; -6.9095332E+03;3; -3.9519711E+01;  0.0000000E+00;  1.0021156E+02;0; -1.3039009E-01;  3.9423109E+04;  0.0000000E+00;  4.5467046E-01;  4.0000000E+04;  0.0000000E+00;  3.9907586E+04; -9.3814231E-02;  0.0000000E+00; -3.6575858E-02;  1.0885739E+04;
  5.0609339E-02;  9.9999998E-03; -2.8982911E-01;2752; -7.5450186E-03;  0.0000000E+00; -4.3048146E-03;  9.9052441E+02;  1.0000000E-01; -7.8503457E+03;3; -3.5393642E+01;  0.0000000E+00;  8.7844330E+01;0; -1.4877030E-01;  3.9312906E+04;  0.0000000E+00;  7.6366258E-01;  4.0000000E+04;  0.0000000E+00;  3.9928906E+04; -1.1425348E-01;  0.0000000E+00; -3.4516819E-02;  8.1801953E+03;
  5.1020291E-02;  9.9999998E-03; -2.7981430E-01;2753; -8.8509833E-03;  0.0000000E+00; -5.0680586E-03;  9.8948016E+02;  1.0000000E-01; -8.7155068E+03;3; -2.8009396E+01;  0.0000000E+00;  7.1025215E+01;0; -1.6606307E-01;  3.9205309E+04;  0.0000000E+00;  1.0499368E+00;  4.0000000E+04;  0.0000000E+00;  3.9955602E+04; -1.3570020E-01;  0.0000000E+00; -3.0362880E-02;  4.9229976E+03;
  6.0370337E-02;  9.9999998E-03; -2.9986367E-01;2812; -7.1068252E-03;  0.0000000E+00; -3.7305260E-03;  9.9181506E+02;  1.0000000E-01; -6.7810430E+03;3; -4.4498753E+01;  0.0000000E+00;  9.9510841E+01;0; -1.3669921E-01;  3.9434934E+04;  0.0000000E+00;  3.4911865E-01;  4.0000000E+04;  0.0000000E+00;  3.9907691E+04; -9.9676855E-02;  0.0000000E+00; -3.7022360E-02;  1.0883439E+04;
  6.0721006E-02;  9.9999998E-03; -2.8982806E-01;2813; -8.6576035E-03;  0.0000000E+00; -4.5525441E-03;  9.9083710E+02;  1.0000000E-01; -7.5912915E+03;3; -4.0982151E+01;  0.0000000E+00;  8.4347961E+01;0; -1.5572625E-01;  3.9335434E+04;  0.0000000E+00;  6.9290763E-01;  4.0000000E+04;  0.0000000E+00;  3.9930617E+04; -1.2102453E-01;  0.0000000E+00; -3.4701720E-02;  7.9715581E+03;
  6.1146334E-02;  9.9999998E-03; -2.7980807E-01;2814; -1.0296941E-02;  0.0000000E+00; -5.3296755E-03;  9.8998779E+02;  1.0000000E-01; -8.2949258E+03;3; -3.4347046E+01;  0.0000000E+00;  6.5287094E+01;0; -1.7340761E-01;  3.9241836E+04;  0.0000000E+00;  1.0233605E+00;  4.0000000E+04;  0.0000000E+00;  3.9958945E+04; -1.4317349E-01;  0.0000000E+00; -3.0234125E-02;  4.5406943E+03;
  7.0465684E-02;  9.9999998E-03; -2.9986322E-01;2873; -7.8626741E-03;  0.0000000E+00; -3.9507495E-03;  9.9186176E+02;  1.0000000E-01; -6.7423774E+03;3; -4.8849716E+01;  0.0000000E+00;  9.7770454E+01;0; -1.4227331E-01;  3.9437207E+04;  0.0000000E+00;  4.3758577E-01;  4.0000000E+04;  0.0000000E+00;  3.9908637E+04; -1.0576017E-01;  0.0000000E+00; -3.6513142E-02;  1.0781059E+04;
  7.0843369E-02;  9.9999998E-03; -2.8981206E-01;2874; -9.7622108E-03;  0.0000000E+00; -4.7746361E-03;  9.9102142E+02;  1.0000000E-01; -7.4386045E+03;3; -4.5466026E+01;  0.0000000E+00;  7.9744934E+01;0; -1.6182743E-01;  3.9346926E+04;  0.0000000E+00;  8.1790590E-01;  4.0000000E+04;  0.0000000E+00;  3.9933535E+04; -1.2784991E-01;  0.0000000E+00; -3.3977520E-02;  7.6648481E+03;
  7.1275465E-02;  9.9999998E-03; -2.7979070E-01;2875; -1.1742331E-02;  0.0000000E+00; -5.5535389E-03;  9.9035077E+02;  1.0000000E-01; -7.9941938E+03;3; -3.8878571E+01;  0.0000000E+00;  5.8475430E+01;0; -1.7975351E-01;  3.9265734E+04;  0.0000000E+00;  1.1710492E+00;  4.0000000E+04;  0.0000000E+00;  3.9963531E+04; -1.5045080E-01;  0.0000000E+00; -2.9302720E-02;  4.1140347E+03;
  8.0575302E-02;  9.9999998E-03; -2.9984695E-01;2934; -8.5793873E-03;  0.0000000E+00; -4.1618156E-03;  9.9174152E+02;  1.0000000E-01; -6.8419795E+03;3; -5.2967823E+01;  0.0000000E+00;  9.5524292E+01;0; -1.4764890E-01;  3.9425852E+04;  0.0000000E+00;  1.1890116E+00;  4.0000000E+04;  0.0000000E+00;  3.9910406E+04; -1.1261230E-01;  0.0000000E+00; -3.5036594E-02;  1.0677622E+04;
  8.0975756E-02;  9.9999998E-03; -2.8978387E-01;2935; -1.0859082E-02;  0.0000000E+00; -4.9633025E-03;  9.9101422E+02;  1.0000000E-01; -7.4445303E+03;3; -4.9374653E+01;  0.0000000E+00;  7.4706024E+01;0; -1.6768365E-01;  3.9342586E+04;  0.0000000E+00;  1.6128426E+00;  4.0000000E+04;  0.0000000E+00;  3.9937250E+04; -1.3532904E-01;  0.0000000E+00; -3.2354608E-02;  7.4686987E+03;
  8.1406616E-02;  9.9999998E-03; -2.7976686E-01;2936; -1.3205269E-02;  0.0000000E+00; -5.7006069E-03;  9.9049945E+02;  1.0000000E-01; -7.8710366E+03;3; -4.2317318E+01;  0.0000000E+00;  5.1507568E+01;0; -1.8576758E-01;  3.9271691E+04;  0.0000000E+00;  1.9323781E+00;  4.0000000E+04;  0.0000000E+00;  3.9969211E+04; -1.5815902E-01;  0.0000000E+00; -2.7608562E-02;  4.1339775E+03;
  9.0700530E-02;  9.9999998E-03; -2.9981518E-01;2995; -9.2754913E-03;  0.0000000E+00; -4.3183700E-03;  9.9141217E+02;  1.0000000E-01; -7.1148604E+03;3; -5.7021709E+01;  0.0000000E+00;  9.3227722E+01;0; -1.5347672E-01;  3.9396879E+04;  0.0000000E+00;  3.3184319E+00;  4.0000000E+04;  0.0000000E+00;  3.9912957E+04; -1.2086062E-01;  0.0000000E+00; -3.2616101E-02;  1.1249896E+04;
  9.1114499E-02;  9.9999998E-03; -2.8974667E-01;2996; -1.1991323E-02;  0.0000000E+00; -5.0530564E-03;  9.9076984E+02;  1.0000000E-01; -7.6469937E+03;3; -5.3004383E+01;  0.0000000E+00;  6.9897606E+01;0; -1.7402358E-01;  3.9318492E+04;  0.0000000E+00;  3.7811387E+00;  4.0000000E+04;  0.0000000E+00;  3.9942098E+04; -1.4414410E-01;  0.0000000E+00; -2.9879482E-02;  8.4569629E+03;
  9.1535747E-02;  9.9999998E-03; -2.7973998E-01;2997; -1.4727876E-02;  0.0000000E+00; -5.7137320E-03;  9.9038458E+02;  1.0000000E-01; -7.9661943E+03;3; -4.5149918E+01;  0.0000000E+00;  4.5150280E+01;0; -1.9223017E-01;  3.9256125E+04;  0.0000000E+00;  3.9461293E+00;  4.0000000E+04;  0.0000000E+00;  3.9975988E+04; -1.6700989E-01;  0.0000000E+00; -2.5220271E-02;  6.1021777E+03;
  1.0084394E-01;  9.9999998E-03; -2.9976684E-01;3056; -1.0059184E-02;  0.0000000E+00; -4.2756931E-03;  9.9083405E+02;  1.0000000E-01; -7.5938101E+03;3; -6.0716564E+01;  0.0000000E+00;  9.1453018E+01;0; -1.6051164E-01;  3.9347508E+04;  0.0000000E+00;  7.7669754E+00;  4.0000000E+04;  0.0000000E+00;  3.9916715E+04; -1.3118535E-01;  0.0000000E+00; -2.9326284E-02;  1.4779244E+04;
  1.0125709E-01;  9.9999998E-03; -2.8970233E-01;3057; -1.3269048E-02;  0.0000000E+00; -4.8908326E-03;  9.9025330E+02;  1.0000000E-01; -8.0749814E+03;3; -5.5987709E+01;  0.0000000E+00;  6.6008133E+01;0; -1.8167403E-01;  3.9271922E+04;  0.0000000E+00;  8.2094736E+00;  4.0000000E+04;  0.0000000E+00;  3.9948375E+04; -1.5502445E-01;  0.0000000E+00; -2.6649585E-02;  1.3122821E+04;
  1.0165759E-01;  9.9999998E-03; -2.7971148E-01;3058; -1.6409287E-02;  0.0000000E+00; -5.4648467E-03;  9.8998035E+02;  1.0000000E-01; -8.3010986E+03;3; -4.7177879E+01;  0.0000000E+00;  3.9954296E+01;0; -1.9998564E-01;  3.9216629E+04;  0.0000000E+00;  7.9850869E+00;  4.0000000E+04;  0.0000000E+00;  3.9984070E+04; -1.7774025E-01;  0.0000000E+00; -2.2245387E-02;  1.1593851E+04;
  1.1100014E-01;  9.9999998E-03; -2.9970604E-01;3117; -1.1097506E-02;  0.0000000E+00; -3.8383040E-03;  9.8997473E+02;  1.0000000E-01; -8.3057402E+03;3; -6.2766575E+01;  0.0000000E+00;  9.0485817E+01;0; -1.6967233E-01;  3.9274832E+04;  0.0000000E+00;  1.5662955E+01;  4.0000000E+04;  0.0000000E+00;  3.9922527E+04; -1.4433073E-01;  0.0000000E+00; -2.5341596E-02;  2.4280318E+04;
  1.1139446E-01;  9.9999998E-03; -2.8965545E-01;3118; -1.4827556E-02;  0.0000000E+00; -4.3190974E-03;  9.8944940E+02;  1.0000000E-01; -8.7409873E+03;3; -5.6945911E+01;  0.0000000E+00;  6.3128605E+01;0; -1.9157636E-01;  3.9201340E+04;  0.0000000E+00;  1.5897156E+01;  4.0000000E+04;  0.0000000E+00;  3.9956391E+04; -1.6872540E-01;  0.0000000E+00; -2.2850955E-02;  2.3434271E+04;
  1.1176626E-01;  9.9999998E-03; -2.7968299E-01;3119; -1.8355161E-02;  0.0000000E+00; -4.8349756E-03;  9.8928375E+02;  1.0000000E-01; -8.8782178E+03;3; -4.7305981E+01;  0.0000000E+00;  3.5971916E+01;0; -2.0992380E-01;  3.9153203E+04;  0.0000000E+00;  1.4863659E+01;  4.0000000E+04;  0.0000000E+00;  3.9993297E+04; -1.9107132E-01;  0.0000000E+00; -1.8852482E-02;  2.1512982E+04;
  1.2115674E-01;  9.9999998E-03; -2.9964149E-01;3178; -1.2578450E-02;  0.0000000E+00; -2.8231679E-03;  9.8882758E+02;  1.0000000E-01; -9.2561328E+03;3; -6.0271191E+01;  0.0000000E+00;  8.9799561E+01;0; -1.8221292E-01;  3.9177055E+04;  0.0000000E+00;  2.8267626E+01;  4.0000000E+04;  0.0000000E+00;  3.9931035E+04; -1.6119289E-01;  0.0000000E+00; -2.1020019E-02;  4.1607734E+04;
  1.2151998E-01;  9.9999998E-03; -2.8961000E-01;3179; -1.6810726E-02;  0.0000000E+00; -3.2007592E-03;  9.8837036E+02;  1.0000000E-01; -9.6349375E+03;3; -5.3129055E+01;  0.0000000E+00;  6.0556957E+01;0; -2.0489515E-01;  3.9107191E+04;  0.0000000E+00;  2.7870031E+01;  4.0000000E+04;  0.0000000E+00;  3.9966676E+04; -1.8607509E-01;  0.0000000E+00; -1.8820068E-02;  4.0515023E+04;
  1.2187229E-01;  9.9999998E-03; -2.7965087E-01;3180; -2.0702075E-02;  0.0000000E+00; -3.6999309E-03;  9.8831830E+02;  1.0000000E-01; -9.6780469E+03;3; -4.3354435E+01;  0.0000000E+00;  3.2563889E+01;0; -2.2306660E-01;  3.9066906E+04;  0.0000000E+00;  2.5332054E+01;  4.0000000E+04;  0.0000000E+00;  4.0004465E+04; -2.0774737E-01;  0.0000000E+00; -1.5319230E-02;  3.6786164E+04;
  1.3131005E-01;  9.9999998E-03; -2.9957652E-01;3239; -1.4637702E-02;  0.0000000E+00; -1.1836542E-03;  9.8740448E+02;  1.0000000E-01; -1.0435162E+04;3; -4.8346676E+01;  0.0000000E+00;  8.7956093E+01;0; -1.9989103E-01;  3.9053727E+04;  0.0000000E+00;  4.6880112E+01;  4.0000000E+04;  0.0000000E+00;  3.9944082E+04; -1.8292418E-01;  0.0000000E+00; -1.6966842E-02;  6.8257164E+04;
  1.3164906E-01;  9.9999998E-03; -2.8956178E-01;3240; -1.9310823E-02;  0.0000000E+00; -1.5649742E-03;  9.8704187E+02;  1.0000000E-01; -1.0735548E+04;3; -4.0582630E+01;  0.0000000E+00;  5.6957954E+01;0; -2.2308998E-01;  3.8990211E+04;  0.0000000E+00;  4.5059246E+01;  4.0000000E+04;  0.0000000E+00;  3.9980785E+04; -2.0802720E-01;  0.0000000E+00; -1.5062777E-02;  6.5495297E+04;
  1.3198641E-01;  9.9999998E-03; -2.7961844E-01;3241; -2.3506235E-02;  0.0000000E+00; -2.1374172E-03;  9.8712524E+02;  1.0000000E-01; -1.0666513E+04;3; -3.2556858E+01;  0.0000000E+00;  2.8640753E+01;0; -2.4048975E-01;  3.8961215E+04;  0.0000000E+00;  3.9939766E+01;  4.0000000E+04;  0.0000000E+00;  4.0018016E+04; -2.2844997E-01;  0.0000000E+00; -1.2039786E-02;  5.8205832E+04;
  1.4147069E-01;  9.9999998E-03; -2.9951349E-01;3300; -1.7226718E-02;  0.0000000E+00;  6.8118190E-04;  9.8572327E+02;  1.0000000E-01; -1.1828011E+04;3; -2.0872972E+01;  0.0000000E+00;  8.4396332E+01;0; -2.2450739E-01;  3.8905316E+04;  0.0000000E+00;  7.2620354E+01;  4.0000000E+04;  0.0000000E+00;  3.9963266E+04; -2.1069315E-01;  0.0000000E+00; -1.3814244E-02;  1.0568141E+05;
  1.4178899E-01;  9.9999998E-03; -2.8951874E-01;3301; -2.2324687E-02;  0.0000000E+00;  2.5802117E-04;  9.8551184E+02;  1.0000000E-01; -1.2003167E+04;3; -1.4910550E+01;  0.0000000E+00;  5.1992008E+01;0; -2.4755779E-01;  3.8853766E+04;  0.0000000E+00;  6.8065376E+01;  4.0000000E+04;  0.0000000E+00;  3.9999500E+04; -2.3543526E-01;  0.0000000E+00; -1.2122531E-02;  9.9210867E+04;
  1.4213228E-01;  9.9999998E-03; -2.7958685E-01;3302; -2.6875772E-02;  0.0000000E+00; -3.2526665E-04;  9.8575537E+02;  1.0000000E-01; -1.1801395E+04;3; -1.2068947E+01;  0.0000000E+00;  2.3954487E+01;0; -2.6335683E-01;  3.8839078E+04;  0.0000000E+00;  5.8851398E+01;  4.0000000E+04;  0.0000000E+00;  4.0034738E+04; -2.5385639E-01;  0.0000000E+00; -9.5004374E-03;  8.6061391E+04;
  1.5165220E-01;  9.9999998E-03; -2.9947224E-01;3361; -2.0235969E-02;  0.0000000E+00;  2.2173319E-03;  9.8380597E+02;  1.0000000E-01; -1.3416460E+04;3;  2.8720201E+01;  0.0000000E+00;  8.1649948E+01;0; -2.5720689E-01;  3.8732883E+04;  0.0000000E+00;  1.0582890E+02;  4.0000000E+04;  0.0000000E+00;  3.9988977E+04; -2.4531564E-01;  0.0000000E+00; -1.1891251E-02;  1.5435916E+05;
  1.5196528E-01;  9.9999998E-03; -2.8948852E-01;3362; -2.5899591E-02;  0.0000000E+00;  1.8909655E-03;  9.8381580E+02;  1.0000000E-01; -1.3408312E+04;3;  2.7847059E+01;  0.0000000E+00;  4.7147396E+01;0; -2.7947706E-01;  3.8699793E+04;  0.0000000E+00;  9.6731483E+01;  4.0000000E+04;  0.0000000E+00;  4.0023586E+04; -2.6907873E-01;  0.0000000E+00; -1.0398313E-02;  1.4146867E+05;
  1.5233622E-01;  9.9999998E-03; -2.7956235E-01;3363; -3.0737147E-02;  0.0000000E+00;  1.2988176E-03;  9.8425549E+02;  1.0000000E-01; -1.3044026E+04;3;  2.0018476E+01;  0.0000000E+00;  1.9500851E+01;0; -2.9223773E-01;  3.8703734E+04;  0.0000000E+00;  8.1458481E+01;  4.0000000E+04;  0.0000000E+00;  4.0054773E+04; -2.8425586E-01;  0.0000000E+00; -7.9818731E-03;  1.1953013E+05;
  1.6189942E-01;  9.9999998E-03; -2.9948699E-01;3422; -2.3123173E-02;  0.0000000E+00;  2.1443076E-03;  9.8153967E+02;  1.0000000E-01; -1.5294035E+04;3;  1.0262411E+02;  0.0000000E+00;  9.0518639E+01;0; -2.9505831E-01;  3.8531457E+04;  0.0000000E+00;  1.4453493E+02;  4.0000000E+04;  0.0000000E+00;  4.0016805E+04; -2.8560176E-01;  0.0000000E+00; -9.4565358E-03;  2.1151084E+05;
  1.6223130E-01;  9.9999998E-03; -2.8948975E-01;3423; -2.9730974E-02;  0.0000000E+00;  2.6041053E-03;  9.8188135E+02;  1.0000000E-01; -1.5010981E+04;3;  8.8266235E+01;  0.0000000E+00;  4.8677654E+01;0; -3.1780899E-01;  3.8524617E+04;  0.0000000E+00;  1.2901749E+02;  4.0000000E+04;  0.0000000E+00;  4.0050902E+04; -3.0856094E-01;  0.0000000E+00; -9.2480369E-03;  1.8939291E+05;
  1.6266507E-01;  9.9999998E-03; -2.7955148E-01;3424; -3.4915693E-02;  0.0000000E+00;  2.2634882E-03;  9.8256879E+02;  1.0000000E-01; -1.4441418E+04;3;  6.2887001E+01;  0.0000000E+00;  1.7849949E+01;0; -3.2647195E-01;  3.8551754E+04;  0.0000000E+00;  1.0558334E+02;  4.0000000E+04;  0.0000000E+00;  4.0077555E+04; -3.1925067E-01;  0.0000000E+00; -7.2212713E-03;  1.5552998E+05;
  1.7230658E-01;  9.9999998E-03; -2.9960233E-01;3483; -2.4731748E-02;  0.0000000E+00; -9.0715534E-04;  9.7842645E+02;  1.0000000E-01; -1.7873271E+04;3;  1.9024875E+02;  0.0000000E+00;  1.2588058E+02;0; -3.2639113E-01;  3.8278410E+04;  0.0000000E+00;  1.8112970E+02;  4.0000000E+04;  0.0000000E+00;  4.0030734E+04; -3.2559645E-01;  0.0000000E+00; -7.9467800E-04;  2.6634316E+05;
  1.7266905E-01;  9.9999998E-03; -2.8955251E-01;3484; -3.3180404E-02;  0.0000000E+00;  1.5856385E-03;  9.7940710E+02;  1.0000000E-01; -1.7060801E+04;3;  1.5714799E+02;  0.0000000E+00;  6.6976669E+01;0; -3.5693285E-01;  3.8314074E+04;  0.0000000E+00;  1.5873820E+02;  4.0000000E+04;  0.0000000E+00;  4.0071867E+04; -3.5100964E-01;  0.0000000E+00; -5.9232237E-03;  2.3416464E+05;
  1.7313001E-01;  9.9999998E-03; -2.7959543E-01;3485; -3.9140102E-02;  0.0000000E+00;  2.2694527E-03;  9.8060754E+02;  1.0000000E-01; -1.6066261E+04;3;  1.0866510E+02;  0.0000000E+00;  2.6060320E+01;0; -3.6325601E-01;  3.8384258E+04;  0.0000000E+00;  1.2629659E+02;  4.0000000E+04;  0.0000000E+00;  4.0095160E+04; -3.5700619E-01;  0.0000000E+00; -6.2498217E-03;  1.8691005E+05;
  1.8305895E-01;  9.9999998E-03; -2.9985592E-01;3544; -2.4608217E-02;  0.0000000E+00; -5.4958174E-03;  9.7318909E+02;  1.0000000E-01; -2.2212309E+04;3;  2.5684036E+02;  0.0000000E+00;  2.1169720E+02;0; -3.4049061E-01;  3.7908871E+04;  0.0000000E+00;  1.9693901E+02;  4.0000000E+04;  0.0000000E+00;  3.9996512E+04; -3.5798341E-01;  0.0000000E+00;  1.7492808E-02;  2.9206419E+05;
  1.8329562E-01;  9.9999998E-03; -2.8973535E-01;3545; -3.5683095E-02;  0.0000000E+00; -6.6606986E-04;  9.7599170E+02;  1.0000000E-01; -1.9890398E+04;3;  2.0741147E+02;  0.0000000E+00;  1.1581942E+02;0; -3.8912615E-01;  3.8064734E+04;  0.0000000E+00;  1.7385318E+02;  4.0000000E+04;  0.0000000E+00;  4.0058688E+04; -3.9094323E-01;  0.0000000E+00;  1.8170690E-03;  2.5820669E+05;
  1.8365145E-01;  9.9999998E-03; -2.7974853E-01;3546; -4.2902108E-02;  0.0000000E+00;  1.6090986E-03;  9.7836823E+02;  1.0000000E-01; -1.7921516E+04;3;  1.3993385E+02;  0.0000000E+00;  5.3125336E+01;0; -3.9792073E-01;  3.8222164E+04;  0.0000000E+00;  1.3657690E+02;  4.0000000E+04;  0.0000000E+00;  4.0084961E+04; -3.9349675E-01;  0.0000000E+00; -4.4239722E-03;  2.0314939E+05;
  1.9433214E-01;  9.9999998E-03; -3.0020502E-01;3605; -2.8495615E-02;  0.0000000E+00; -1.0376488E-03;  9.6440259E+02;  1.0000000E-01; -2.9491756E+04;3;  2.4301195E+02;  0.0000000E+00;  3.6982919E+02;0; -4.0082997E-01;  3.7348422E+04;  0.0000000E+00;  1.6400630E+02;  4.0000000E+04;  0.0000000E+00;  3.9884617E+04; -4.0482333E-01;  0.0000000E+00;  3.9933557E-03;  2.4701816E+05;
  1.9402914E-01;  9.9999998E-03; -2.9002109E-01;3606; -3.8124122E-02;  0.0000000E+00; -2.0655589E-04;  9.7171729E+02;  1.0000000E-01; -2.3431682E+04;3;  2.0629837E+02;  0.0000000E+00;  2.0300487E+02;0; -4.2498219E-01;  3.7809309E+04;  0.0000000E+00;  1.6268660E+02;  4.0000000E+04;  0.0000000E+00;  3.9983379E+04; -4.2609930E-01;  0.0000000E+00;  1.1170955E-03;  2.4353478E+05;
  1.9400285E-01;  9.9999998E-03; -2.7996299E-01;3607; -4.6009831E-02;  0.0000000E+00;  1.4637809E-03;  9.7655072E+02;  1.0000000E-01; -1.9427301E+04;3;  1.4115240E+02;  0.0000000E+00;  9.5250290E+01;0; -4.2863849E-01;  3.8129492E+04;  0.0000000E+00;  1.3484618E+02;  4.0000000E+04;  0.0000000E+00;  4.0035883E+04; -4.2393446E-01;  0.0000000E+00; -4.7040349E-03;  2.0125778E+05;
  2.0498773E-01;  9.9999998E-03; -3.0019808E-01;3666; -3.4786936E-02;  0.0000000E+00;  4.7290558E-03;  9.6061981E+02;  1.0000000E-01; -3.2625742E+04;3;  1.9953624E+02;  0.0000000E+00;  3.9799445E+02;0; -4.8518592E-01;  3.7077656E+04;  0.0000000E+00;  1.3109767E+02;  4.0000000E+04;  0.0000000E+00;  3.9873051E+04; -4.5385164E-01;  0.0000000E+00; -3.1334266E-02;  1.9780339E+05;
  2.0447582E-01;  9.9999998E-03; -2.9015270E-01;3667; -4.1450135E-02;  0.0000000E+00;  2.8961629E-03;  9.6945453E+02;  1.0000000E-01; -2.5306344E+04;3;  1.6630846E+02;  0.0000000E+00;  2.5254999E+02;0; -4.7218627E-01;  3.7693605E+04;  0.0000000E+00;  1.4041165E+02;  4.0000000E+04;  0.0000000E+00;  3.9924176E+04; -4.5489794E-01;  0.0000000E+00; -1.7288329E-02;  2.1057041E+05;
  2.0413071E-01;  9.9999998E-03; -2.8007954E-01;3668; -4.8832130E-02;  0.0000000E+00;  2.2454602E-03;  9.7610242E+02;  1.0000000E-01; -1.9798697E+04;3;  1.1759210E+02;  0.0000000E+00;  1.2173448E+02;0; -4.5640725E-01;  3.8139965E+04;  0.0000000E+00;  1.2711974E+02;  4.0000000E+04;  0.0000000E+00;  3.9988617E+04; -4.4576663E-01;  0.0000000E+00; -1.0640628E-02;  1.8969330E+05;
  2.1501927E-01;  9.9999998E-03; -3.0005479E-01;3727; -3.8607869E-02;  0.0000000E+00;  4.6233563E-03;  9.6267029E+02;  1.0000000E-01; -3.0926975E+04;3;  1.4565706E+02;  0.0000000E+00;  3.2747449E+02;0; -5.1758486E-01;  3.7177250E+04;  0.0000000E+00;  1.1490836E+02;  4.0000000E+04;  0.0000000E+00;  3.9930965E+04; -4.7667718E-01;  0.0000000E+00; -4.0907681E-02;  1.7071980E+05;
  2.1454622E-01;  9.9999998E-03; -2.9007217E-01;3728; -4.4561375E-02;  0.0000000E+00;  3.1627524E-03;  9.7082147E+02;  1.0000000E-01; -2.4173832E+04;3;  1.1719028E+02;  0.0000000E+00;  2.1770607E+02;0; -4.9677166E-01;  3.7777465E+04;  0.0000000E+00;  1.2531750E+02;  4.0000000E+04;  0.0000000E+00;  3.9945145E+04; -4.7111595E-01;  0.0000000E+00; -2.5655726E-02;  1.8651108E+05;
  2.1417718E-01;  9.9999998E-03; -2.8003898E-01;3729; -5.1801652E-02;  0.0000000E+00;  2.3396437E-03;  9.7726080E+02;  1.0000000E-01; -1.8838973E+04;3;  8.1663559E+01;  0.0000000E+00;  1.0574441E+02;0; -4.7413516E-01;  3.8227375E+04;  0.0000000E+00;  1.1631889E+02;  4.0000000E+04;  0.0000000E+00;  3.9990816E+04; -4.5874047E-01;  0.0000000E+00; -1.5394676E-02;  1.7289914E+05;
  2.2496209E-01;  9.9999998E-03; -2.9992467E-01;3788; -4.2816989E-02;  0.0000000E+00;  1.7708148E-03;  9.6669836E+02;  1.0000000E-01; -2.7589785E+04;3;  8.2590424E+01;  0.0000000E+00;  2.3358463E+02;0; -5.1671481E-01;  3.7414121E+04;  0.0000000E+00;  9.7695709E+01;  4.0000000E+04;  0.0000000E+00;  4.0001539E+04; -4.8962465E-01;  0.0000000E+00; -2.7090166E-02;  1.4322800E+05;
  2.2455905E-01;  9.9999998E-03; -2.8996071E-01;3789; -4.8293535E-02;  0.0000000E+00;  1.0439686E-03;  9.7369812E+02;  1.0000000E-01; -2.1790592E+04;3;  6.1579353E+01;  0.0000000E+00;  1.5477847E+02;0; -4.9546614E-01;  3.7949117E+04;  0.0000000E+00;  1.0759438E+02;  4.0000000E+04;  0.0000000E+00;  3.9996332E+04; -4.7933286E-01;  0.0000000E+00; -1.6133273E-02;  1.5879467E+05;
  2.2424497E-01;  9.9999998E-03; -2.7995345E-01;3790; -5.5243541E-02;  0.0000000E+00;  9.2247722E-04;  9.7929327E+02;  1.0000000E-01; -1.7155119E+04;3;  3.9740883E+01;  0.0000000E+00;  7.0701797E+01;0; -4.7453949E-01;  3.8354914E+04;  0.0000000E+00;  9.9911118E+01;  4.0000000E+04;  0.0000000E+00;  4.0021836E+04; -4.6422532E-01;  0.0000000E+00; -1.0314169E-02;  1.4782944E+05;
  2.3485543E-01;  9.9999998E-03; -2.9984790E-01;3849; -4.7645964E-02;  0.0000000E+00; -1.9818570E-03;  9.7139575E+02;  1.0000000E-01; -2.3698094E+04;3;  2.2679747E+01;  0.0000000E+00;  1.5241849E+02;0; -4.9212393E-01;  3.7724656E+04;  0.0000000E+00;  8.0057495E+01;  4.0000000E+04;  0.0000000E+00;  4.0050016E+04; -4.9537206E-01;  0.0000000E+00;  3.2481146E-03;  1.1681187E+05;
  2.3454356E-01;  9.9999998E-03; -2.8987783E-01;3850; -5.2936580E-02;  0.0000000E+00; -2.1622812E-03;  9.7714728E+02;  1.0000000E-01; -1.8933043E+04;3;  1.0618155E+01;  0.0000000E+00;  9.4614479E+01;0; -4.7314632E-01;  3.8170902E+04;  0.0000000E+00;  8.7365250E+01;  4.0000000E+04;  0.0000000E+00;  4.0041973E+04; -4.8188925E-01;  0.0000000E+00;  8.7429387E-03;  1.2843669E+05;
  2.3430286E-01;  9.9999998E-03; -2.7987736E-01;3851; -5.9323210E-02;  0.0000000E+00; -1.5662035E-03;  9.8176404E+02;  1.0000000E-01; -1.5108164E+04;3;  1.9110529E+00;  0.0000000E+00;  3.5337700E+01;0; -4.5724103E-01;  3.8513258E+04;  0.0000000E+00;  8.0155869E+01;  4.0000000E+04;  0.0000000E+00;  4.0057316E+04; -4.6375147E-01;  0.0000000E+00;  6.5104505E-03;  1.1842949E+05;
  2.4472024E-01;  9.9999998E-03; -2.9980925E-01;3910; -5.3372737E-02;  0.0000000E+00; -4.9210177E-03;  9.7605182E+02;  1.0000000E-01; -1.9840623E+04;3; -2.2406534E+01;  0.0000000E+00;  9.2620964E+01;0; -4.6331561E-01;  3.8057652E+04;  0.0000000E+00;  6.4382477E+01;  4.0000000E+04;  0.0000000E+00;  4.0074184E+04; -4.9614763E-01;  0.0000000E+00;  3.2832041E-02;  9.4279859E+04;
  2.4449946E-01;  9.9999998E-03; -2.8982908E-01;3911; -5.8465645E-02;  0.0000000E+00; -4.8713228E-03;  9.8060785E+02;  1.0000000E-01; -1.6066014E+04;3; -2.6251375E+01;  0.0000000E+00;  5.0385315E+01;0; -4.4446087E-01;  3.8412797E+04;  0.0000000E+00;  6.7720589E+01;  4.0000000E+04;  0.0000000E+00;  4.0069500E+04; -4.7961238E-01;  0.0000000E+00;  3.5151500E-02;  9.9764328E+04;
  2.4434128E-01;  9.9999998E-03; -2.7982837E-01;3912; -6.3984320E-02;  0.0000000E+00; -4.0419162E-03;  9.8425439E+02;  1.0000000E-01; -1.3044914E+04;3; -2.4980143E+01;  0.0000000E+00;  1.0454818E+01;0; -4.3045691E-01;  3.8685008E+04;  0.0000000E+00;  6.0002258E+01;  4.0000000E+04;  0.0000000E+00;  4.0080840E+04; -4.5836002E-01;  0.0000000E+00;  2.7903106E-02;  8.9054180E+04;
  2.5457984E-01;  9.9999998E-03; -2.9979008E-01;3971; -5.9955399E-02;  0.0000000E+00; -6.6684945E-03;  9.8028064E+02;  1.0000000E-01; -1.6337117E+04;3; -4.9034695E+01;  0.0000000E+00;  5.1033207E+01;0; -4.3982077E-01;  3.8375277E+04;  0.0000000E+00;  5.1153519E+01;  4.0000000E+04;  0.0000000E+00;  4.0082863E+04; -4.9206820E-01;  0.0000000E+00;  5.2247427E-02;  7.5579391E+04;
  2.5444451E-01;  9.9999998E-03; -2.8980291E-01;3972; -6.4571947E-02;  0.0000000E+00; -6.5059061E-03;  9.8375464E+02;  1.0000000E-01; -1.3458977E+04;3; -4.6388794E+01;  0.0000000E+00;  2.1960941E+01;0; -4.1928464E-01;  3.8646461E+04;  0.0000000E+00;  5.0240425E+01;  4.0000000E+04;  0.0000000E+00;  4.0081262E+04; -4.7225228E-01;  0.0000000E+00;  5.2967630E-02;  7.4610031E+04;
  2.5436980E-01;  9.9999998E-03; -2.7980098E-01;3973; -6.9047533E-02;  0.0000000E+00; -5.7792054E-03;  9.8650922E+02;  1.0000000E-01; -1.1176868E+04;3; -3.8872322E+01;  0.0000000E+00; -3.2531199E+00;0; -4.0366295E-01;  3.8852234E+04;  0.0000000E+00;  4.1674698E+01;  4.0000000E+04;  0.0000000E+00;  4.0091086E+04; -4.4869003E-01;  0.0000000E+00;  4.5027081E-02;  6.2713680E+04;
  2.6446807E-01;  9.9999998E-03; -2.9977939E-01;4032; -6.7067891E-02;  0.0000000E+00; -7.6266369E-03;  9.8386322E+02;  1.0000000E-01; -1.3369004E+04;3; -5.8984047E+01;  0.0000000E+00;  2.3338568E+01;0; -4.2005551E-01;  3.8653230E+04;  0.0000000E+00;  3.8632809E+01;  4.0000000E+04;  0.0000000E+00;  4.0084152E+04; -4.8222643E-01;  0.0000000E+00;  6.2170923E-02;  5.7904723E+04;
  2.6441738E-01;  9.9999998E-03; -2.8978753E-01;4033; -7.0911922E-02;  0.0000000E+00; -7.3605394E-03;  9.8640820E+02;  1.0000000E-01; -1.1260569E+04;3; -5.2075134E+01;  0.0000000E+00;  5.1344743E+00;0; -3.9808559E-01;  3.8851512E+04;  0.0000000E+00;  3.4148113E+01;  4.0000000E+04;  0.0000000E+00;  4.0084480E+04; -4.5972219E-01;  0.0000000E+00;  6.1636612E-02;  5.1685512E+04;
  2.6441574E-01;  9.9999998E-03; -2.7978531E-01;4034; -7.4213922E-02;  0.0000000E+00; -6.8125548E-03;  9.8840607E+02;  1.0000000E-01; -9.6053574E+03;3; -4.1632256E+01;  0.0000000E+00; -9.1038723E+00;0; -3.7998572E-01;  3.9000539E+04;  0.0000000E+00;  2.5724981E+01;  4.0000000E+04;  0.0000000E+00;  4.0092629E+04; -4.3518177E-01;  0.0000000E+00;  5.5196047E-02;  4.0193918E+04;
  2.7442616E-01;  9.9999998E-03; -2.9977325E-01;4093; -7.4314982E-02;  0.0000000E+00; -8.0918642E-03;  9.8669922E+02;  1.0000000E-01; -1.1019440E+04;3; -5.6410885E+01;  0.0000000E+00;  6.9387703E+00;0; -4.0176064E-01;  3.8879016E+04;  0.0000000E+00;  2.5014156E+01;  4.0000000E+04;  0.0000000E+00;  4.0081051E+04; -4.6618468E-01;  0.0000000E+00;  6.4424038E-02;  3.8724289E+04;
  2.7444133E-01;  9.9999998E-03; -2.8977934E-01;4094; -7.6995023E-02;  0.0000000E+00; -7.7941939E-03;  9.8850232E+02;  1.0000000E-01; -9.5256064E+03;3; -4.7618336E+01;  0.0000000E+00; -2.8327248E+00;0; -3.7849557E-01;  3.9019852E+04;  0.0000000E+00;  1.9543045E+01;  4.0000000E+04;  0.0000000E+00;  4.0081598E+04; -4.4225508E-01;  0.0000000E+00;  6.3759521E-02;  3.1205855E+04;
  2.7447197E-01;  9.9999998E-03; -2.7977750E-01;4095; -7.9144508E-02;  0.0000000E+00; -7.4074250E-03;  9.8992773E+02;  1.0000000E-01; -8.3447012E+03;3; -3.6981373E+01;  0.0000000E+00; -9.7653999E+00;0; -3.5902956E-01;  3.9125234E+04;  0.0000000E+00;  1.3560341E+01;  4.0000000E+04;  0.0000000E+00;  4.0088246E+04; -4.1857362E-01;  0.0000000E+00;  5.9544064E-02;  2.3627641E+04;
  2.8448063E-01;  9.9999998E-03; -2.9977098E-01;4154; -8.1062414E-02;  0.0000000E+00; -8.3214100E-03;  9.8881982E+02;  1.0000000E-01; -9.2625518E+03;3; -4.6041748E+01;  0.0000000E+00; -5.6044167E-01;0; -3.8215655E-01;  3.9053742E+04;  0.0000000E+00;  1.1119799E+01;  4.0000000E+04;  0.0000000E+00;  4.0074590E+04; -4.4416952E-01;  0.0000000E+00;  6.2012963E-02;  1.9800656E+04;
  2.8450382E-01;  9.9999998E-03; -2.8977647E-01;4155; -8.2481749E-02;  0.0000000E+00; -8.0258492E-03;  9.9009430E+02;  1.0000000E-01; -8.2066807E+03;3; -3.7685795E+01;  0.0000000E+00; -4.8560443E+00;0; -3.5938165E-01;  3.9152984E+04;  0.0000000E+00;  8.3119974E+00;  4.0000000E+04;  0.0000000E+00;  4.0074523E+04; -4.2117459E-01;  0.0000000E+00;  6.1792929E-02;  1.6311720E+04;
  2.8451136E-01;  9.9999998E-03; -2.7977526E-01;4156; -8.3683297E-02;  0.0000000E+00; -7.7473642E-03;  9.9108929E+02;  1.0000000E-01; -7.3823584E+03;3; -2.8697126E+01;  0.0000000E+00; -7.7229776E+00;0; -3.4053239E-01;  3.9225066E+04;  0.0000000E+00;  6.0717874E+00;  4.0000000E+04;  0.0000000E+00;  4.0080105E+04; -4.0013406E-01;  0.0000000E+00;  5.9601676E-02;  1.4302779E+04;
  2.9459539E-01;  9.9999998E-03; -2.9977250E-01;4215; -8.6784117E-02;  0.0000000E+00; -8.5048899E-03;  9.9038220E+02;  1.0000000E-01; -7.9681689E+03;3; -3.2797058E+01;  0.0000000E+00; -2.2014375E+00;0; -3.6006564E-01;  3.9186875E+04;  0.0000000E+00;  1.0134435E+00;  4.0000000E+04;  0.0000000E+00;  4.0065406E+04; -4.1818085E-01;  0.0000000E+00;  5.8115225E-02;  9.2480264E+03;
  2.9456857E-01;  9.9999998E-03; -2.8977737E-01;4216; -8.7281153E-02;  0.0000000E+00; -8.2022967E-03;  9.9126227E+02;  1.0000000E-01; -7.2390542E+03;3; -2.6289164E+01;  0.0000000E+00; -3.8589494E+00;0; -3.4043267E-01;  3.9254391E+04;  0.0000000E+00;  1.7956320E+00;  4.0000000E+04;  0.0000000E+00;  4.0065559E+04; -3.9851573E-01;  0.0000000E+00;  5.8083050E-02;  9.4770430E+03;
  2.9453143E-01;  9.9999998E-03; -2.7977648E-01;4217; -8.7858215E-02;  0.0000000E+00; -7.9616299E-03;  9.9190784E+02;  1.0000000E-01; -6.7042051E+03;3; -1.9701756E+01;  0.0000000E+00; -4.7919130E+00;0; -3.2414460E-01;  3.9298641E+04;  0.0000000E+00;  2.1611216E+00;  4.0000000E+04;  0.0000000E+00;  4.0070926E+04; -3.8121438E-01;  0.0000000E+00;  5.7069793E-02;  1.0200107E+04;
  3.0468965E-01;  9.9999998E-03; -2.9977667E-01;4276; -9.1502979E-02;  0.0000000E+00; -8.6190980E-03;  9.9152020E+02;  1.0000000E-01; -7.0253315E+03;3; -2.0437424E+01;  0.0000000E+00; -1.2725753E+00;0; -3.3873180E-01;  3.9286488E+04;  0.0000000E+00; -3.0707171E+00;  4.0000000E+04;  0.0000000E+00;  4.0055383E+04; -3.9152509E-01;  0.0000000E+00;  5.2793302E-02;  8.6045850E+03;
  3.0461657E-01;  9.9999998E-03; -2.8978065E-01;4277; -9.1496363E-02;  0.0000000E+00; -8.3383499E-03;  9.9205554E+02;  1.0000000E-01; -6.5818379E+03;3; -1.6071573E+01;  0.0000000E+00; -1.7981867E+00;0; -3.2287887E-01;  3.9325355E+04;  0.0000000E+00; -9.0390557E-01;  4.0000000E+04;  0.0000000E+00;  4.0056727E+04; -3.7624714E-01;  0.0000000E+00;  5.3368278E-02;  7.8227510E+03;
  3.0455187E-01;  9.9999998E-03; -2.7977997E-01;4278; -9.1693379E-02;  0.0000000E+00; -8.1627788E-03;  9.9241632E+02;  1.0000000E-01; -6.2829331E+03;3; -1.1785978E+01;  0.0000000E+00; -2.0003948E+00;0; -3.0906922E-01;  3.9346613E+04;  0.0000000E+00;  2.8245732E-01;  4.0000000E+04;  0.0000000E+00;  4.0062441E+04; -3.6290285E-01;  0.0000000E+00;  5.3833619E-02;  8.4843389E+03;
  3.1474611E-01;  9.9999998E-03; -2.9978186E-01;4337; -9.5495857E-02;  0.0000000E+00; -8.7211374E-03;  9.9226245E+02;  1.0000000E-01; -6.4104355E+03;3; -1.0808245E+01;  0.0000000E+00;  2.9668793E-01;0; -3.1928995E-01;  3.9351887E+04;  0.0000000E+00; -3.4562755E+00;  4.0000000E+04;  0.0000000E+00;  4.0047477E+04; -3.6680335E-01;  0.0000000E+00;  4.7513407E-02;  8.0974258E+03;
  3.1466809E-01;  9.9999998E-03; -2.8978512E-01;4338; -9.5243335E-02;  0.0000000E+00; -8.4698247E-03;  9.9251447E+02;  1.0000000E-01; -6.2016021E+03;3; -8.2439718E+00;  0.0000000E+00;  1.4461483E-01;0; -3.0711275E-01;  3.9367512E+04;  0.0000000E+00; -1.6560977E+00;  4.0000000E+04;  0.0000000E+00;  4.0050035E+04; -3.5575739E-01;  0.0000000E+00;  4.8644625E-02;  7.2246465E+03;
  3.1460223E-01;  9.9999998E-03; -2.7978510E-01;4339; -9.5229626E-02;  0.0000000E+00; -8.3042132E-03;  9.9266962E+02;  1.0000000E-01; -6.0730625E+03;3; -5.8191190E+00;  0.0000000E+00;  1.8923445E-01;0; -2.9634333E-01;  3.9372270E+04;  0.0000000E+00; -5.5613476E-01;  4.0000000E+04;  0.0000000E+00;  4.0055773E+04; -3.4601516E-01;  0.0000000E+00;  4.9671818E-02;  7.6222080E+03;
  3.2468784E-01;  9.9999998E-03; -2.7979141E-01;4400; -9.8495089E-02;  0.0000000E+00; -8.4248828E-03;  9.9275220E+02;  1.0000000E-01; -6.0046694E+03;3; -1.9593319E+00;  0.0000000E+00;  1.6291667E+00;0; -2.8555346E-01;  3.9382113E+04;  0.0000000E+00; -6.9839960E-01;  4.0000000E+04;  0.0000000E+00;  4.0051395E+04; -3.3108303E-01;  0.0000000E+00;  4.5529563E-02;  7.0909932E+03;
  3.2473999E-01;  9.9999998E-03; -2.8979036E-01;4399; -9.8606847E-02;  0.0000000E+00; -8.5864859E-03;  9.9271826E+02;  1.0000000E-01; -6.0327671E+03;3; -3.0986373E+00;  0.0000000E+00;  1.5868875E+00;0; -2.9368952E-01;  3.9386148E+04;  0.0000000E+00; -1.5063317E+00;  4.0000000E+04;  0.0000000E+00;  4.0045938E+04; -3.3787739E-01;  0.0000000E+00;  4.4187874E-02;  6.6965112E+03;
  3.2479852E-01;  9.9999998E-03; -2.9978722E-01;4398; -9.8951936E-02;  0.0000000E+00; -8.8279378E-03;  9.9264746E+02;  1.0000000E-01; -6.0914321E+03;3; -4.3422041E+00;  0.0000000E+00;  1.6155735E+00;0; -3.0247244E-01;  3.9385312E+04;  0.0000000E+00; -2.6418779E+00;  4.0000000E+04;  0.0000000E+00;  4.0043039E+04; -3.4540388E-01;  0.0000000E+00;  4.2931430E-02;  7.0225723E+03;
  3.3484733E-01;  9.9999998E-03; -2.9979262E-01;4459; -1.0200213E-01;  0.0000000E+00; -8.9248354E-03;  9.9276190E+02;  1.0000000E-01; -5.9966201E+03;3; -6.8384165E-01;  0.0000000E+00;  2.4645579E+00;0; -2.8876665E-01;  3.9393723E+04;  0.0000000E+00; -1.6046566E+00;  4.0000000E+04;  0.0000000E+00;  4.0041645E+04; -3.2785860E-01;  0.0000000E+00;  3.9091948E-02;  6.2413135E+03;
  3.3481535E-01;  9.9999998E-03; -2.8979623E-01;4460; -1.0166622E-01;  0.0000000E+00; -8.6872550E-03;  9.9274628E+02;  1.0000000E-01; -6.0095581E+03;3; -2.4850267E-01;  0.0000000E+00;  2.4485509E+00;0; -2.8263652E-01;  3.9388199E+04;  0.0000000E+00; -9.5503801E-01;  4.0000000E+04;  0.0000000E+00;  4.0044492E+04; -3.2292989E-01;  0.0000000E+00;  4.0293358E-02;  6.3351450E+03;
  3.3479038E-01;  9.9999998E-03; -2.7979866E-01;4461; -1.0153628E-01;  0.0000000E+00; -8.5295821E-03;  9.9273132E+02;  1.0000000E-01; -6.0219526E+03;3;  1.3276593E-01;  0.0000000E+00;  2.4590468E+00;0; -2.7648541E-01;  3.9381391E+04;  0.0000000E+00; -4.2767674E-01;  4.0000000E+04;  0.0000000E+00;  4.0048957E+04; -3.1831172E-01;  0.0000000E+00;  4.1826315E-02;  6.7754604E+03;
  3.4487718E-01;  9.9999998E-03; -2.9979810E-01;4520; -1.0477727E-01;  0.0000000E+00; -9.0094758E-03;  9.9269666E+02;  1.0000000E-01; -6.0506924E+03;3;  9.8384207E-01;  0.0000000E+00;  2.9206958E+00;0; -2.7781749E-01;  3.9384996E+04;  0.0000000E+00; -8.0196285E-01;  4.0000000E+04;  0.0000000E+00;  4.0042902E+04; -3.1394923E-01;  0.0000000E+00;  3.6131732E-02;  6.0900063E+03;
  3.4487808E-01;  9.9999998E-03; -2.8980261E-01;4521; -1.0451464E-01;  0.0000000E+00; -8.7716170E-03;  9.9266467E+02;  1.0000000E-01; -6.0771611E+03;3;  1.0199198E+00;  0.0000000E+00;  2.9042428E+00;0; -2.7357137E-01;  3.9379102E+04;  0.0000000E+00; -4.2841950E-01;  4.0000000E+04;  0.0000000E+00;  4.0045254E+04; -3.1073236E-01;  0.0000000E+00;  3.7160981E-02;  6.3197559E+03;
  3.4489763E-01;  9.9999998E-03; -2.7980658E-01;4522; -1.0441880E-01;  0.0000000E+00; -8.6015621E-03;  9.9265112E+02;  1.0000000E-01; -6.0884199E+03;3;  1.0423288E+00;  0.0000000E+00;  2.8847709E+00;0; -2.6904246E-01;  3.9373902E+04;  0.0000000E+00; -9.8789237E-02;  4.0000000E+04;  0.0000000E+00;  4.0048613E+04; -3.0757725E-01;  0.0000000E+00;  3.8534787E-02;  6.7154106E+03;
  3.5489094E-01;  9.9999998E-03; -2.9980373E-01;4581; -1.0741099E-01;  0.0000000E+00; -9.0756752E-03;  9.9251752E+02;  1.0000000E-01; -6.1990835E+03;3;  1.5426013E+00;  0.0000000E+00;  3.1641552E+00;0; -2.6896757E-01;  3.9366055E+04;  0.0000000E+00; -3.7159577E-01;  4.0000000E+04;  0.0000000E+00;  4.0045777E+04; -3.0296278E-01;  0.0000000E+00;  3.3995222E-02;  6.3878242E+03;
  3.5493341E-01;  9.9999998E-03; -2.8980935E-01;4582; -1.0724790E-01;  0.0000000E+00; -8.8263303E-03;  9.9251562E+02;  1.0000000E-01; -6.2006636E+03;3;  1.4378269E+00;  0.0000000E+00;  3.1404524E+00;0; -2.6614302E-01;  3.9363293E+04;  0.0000000E+00; -1.3208824E-01;  4.0000000E+04;  0.0000000E+00;  4.0047543E+04; -3.0078399E-01;  0.0000000E+00;  3.4640957E-02;  6.5811611E+03;
  3.5499802E-01;  9.9999998E-03; -2.7981484E-01;4583; -1.0720577E-01;  0.0000000E+00; -8.6377207E-03;  9.9253772E+02;  1.0000000E-01; -6.1823433E+03;3;  1.3340468E+00;  0.0000000E+00;  3.1235251E+00;0; -2.6284844E-01;  3.9362188E+04;  0.0000000E+00;  8.0733523E-02;  4.0000000E+04;  0.0000000E+00;  4.0049828E+04; -2.9856762E-01;  0.0000000E+00;  3.5719194E-02;  6.8635371E+03;
  3.6491033E-01;  9.9999998E-03; -2.9980952E-01;4642; -1.1001525E-01;  0.0000000E+00; -9.1163479E-03;  9.9228290E+02;  1.0000000E-01; -6.3934482E+03;3;  1.6566085E+00;  0.0000000E+00;  3.3272779E+00;0; -2.6157191E-01;  3.9341668E+04;  0.0000000E+00; -2.1964169E-01;  4.0000000E+04;  0.0000000E+00;  4.0049527E+04; -2.9408327E-01;  0.0000000E+00;  3.2511350E-02;  6.8635420E+03;
  3.6499166E-01;  9.9999998E-03; -2.8981617E-01;4643; -1.0994391E-01;  0.0000000E+00; -8.8519147E-03;  9.9232599E+02;  1.0000000E-01; -6.3577949E+03;3;  1.5272529E+00;  0.0000000E+00;  3.3151579E+00;0; -2.5981003E-01;  3.9343559E+04;  0.0000000E+00; -4.8362583E-02;  4.0000000E+04;  0.0000000E+00;  4.0050727E+04; -2.9254052E-01;  0.0000000E+00;  3.2730475E-02;  6.9836592E+03;
  3.6508027E-01;  9.9999998E-03; -2.7982295E-01;4644; -1.0994851E-01;  0.0000000E+00; -8.6390777E-03;  9.9239740E+02;  1.0000000E-01; -6.2985869E+03;3;  1.4063932E+00;  0.0000000E+00;  3.2984650E+00;0; -2.5754875E-01;  3.9347234E+04;  0.0000000E+00;  9.9631928E-02;  4.0000000E+04;  0.0000000E+00;  4.0051816E+04; -2.9094473E-01;  0.0000000E+00;  3.3395987E-02;  7.1495649E+03;
  3.7495157E-01;  9.9999998E-03; -2.9981521E-01;4703; -1.1266239E-01;  0.0000000E+00; -9.1280881E-03;  9.9202039E+02;  1.0000000E-01; -6.6109731E+03;3;  1.6725676E+00;  0.0000000E+00;  3.4706161E+00;0; -2.5519538E-01;  3.9315156E+04;  0.0000000E+00; -1.9869967E-01;  4.0000000E+04;  0.0000000E+00;  4.0053637E+04; -2.8670955E-01;  0.0000000E+00;  3.1514153E-02;  7.3952192E+03;
  3.7505227E-01;  9.9999998E-03; -2.8982273E-01;4704; -1.1265290E-01;  0.0000000E+00; -8.8442899E-03;  9.9211298E+02;  1.0000000E-01; -6.5342344E+03;3;  1.5515999E+00;  0.0000000E+00;  3.4665198E+00;0; -2.5434691E-01;  3.9321316E+04;  0.0000000E+00; -6.7822121E-02;  4.0000000E+04;  0.0000000E+00;  4.0054180E+04; -2.8560567E-01;  0.0000000E+00;  3.1258751E-02;  7.4471484E+03;
  3.7514719E-01;  9.9999998E-03; -2.7983040E-01;4705; -1.1268624E-01;  0.0000000E+00; -8.6052837E-03;  9.9222888E+02;  1.0000000E-01; -6.4382373E+03;3;  1.4381993E+00;  0.0000000E+00;  3.4647863E+00;0; -2.5296503E-01;  3.9329633E+04;  0.0000000E+00;  4.4472005E-02;  4.0000000E+04;  0.0000000E+00;  4.0054859E+04; -2.8445095E-01;  0.0000000E+00;  3.1485904E-02;  7.5319673E+03;
  3.8501611E-01;  9.9999998E-03; -2.9982051E-01;4764; -1.1538447E-01;  0.0000000E+00; -9.1114072E-03;  9.9175092E+02;  1.0000000E-01; -6.8342261E+03;3;  1.6732281E+00;  0.0000000E+00;  3.6092589E+00;0; -2.4965930E-01;  3.9288273E+04;  0.0000000E+00; -2.0301884E-01;  4.0000000E+04;  0.0000000E+00;  4.0057621E+04; -2.8053012E-01;  0.0000000E+00;  3.0870818E-02;  7.9251826E+03;
  3.8511840E-01;  9.9999998E-03; -2.8982860E-01;4765; -1.1540074E-01;  0.0000000E+00; -8.8081546E-03;  9.9188110E+02;  1.0000000E-01; -6.7263276E+03;3;  1.5625076E+00;  0.0000000E+00;  3.6131246E+00;0; -2.4957773E-01;  3.9298078E+04;  0.0000000E+00; -1.0333697E-01;  4.0000000E+04;  0.0000000E+00;  4.0057875E+04; -2.7974749E-01;  0.0000000E+00;  3.0169757E-02;  7.9412935E+03;
  3.8520727E-01;  9.9999998E-03; -2.7983683E-01;4766; -1.1544188E-01;  0.0000000E+00; -8.5448995E-03;  9.9203754E+02;  1.0000000E-01; -6.5967510E+03;3;  1.4585466E+00;  0.0000000E+00;  3.6199822E+00;0; -2.4892287E-01;  3.9309938E+04;  0.0000000E+00; -1.7845491E-02;  4.0000000E+04;  0.0000000E+00;  4.0058383E+04; -2.7891186E-01;  0.0000000E+00;  2.9988993E-02;  7.9768486E+03;
  3.9510608E-01;  9.9999998E-03; -2.9982528E-01;4825; -1.1818735E-01;  0.0000000E+00; -9.0695368E-03;  9.9149707E+02;  1.0000000E-01; -7.0444917E+03;3;  1.6601812E+00;  0.0000000E+00;  3.7354646E+00;0; -2.4481210E-01;  3.9263262E+04;  0.0000000E+00; -2.0175387E-01;  4.0000000E+04;  0.0000000E+00;  4.0061402E+04; -2.7528629E-01;  0.0000000E+00;  3.0474184E-02;  8.4129463E+03;
  3.9519778E-01;  9.9999998E-03; -2.8983369E-01;4826; -1.1819646E-01;  0.0000000E+00; -8.7457281E-03;  9.9165668E+02;  1.0000000E-01; -6.9122979E+03;3;  1.5612462E+00;  0.0000000E+00;  3.7555776E+00;0; -2.4538262E-01;  3.9275508E+04;  0.0000000E+00; -1.3162586E-01;  4.0000000E+04;  0.0000000E+00;  4.0061488E+04; -2.7472791E-01;  0.0000000E+00;  2.9345289E-02;  8.4122490E+03;
  3.9527234E-01;  9.9999998E-03; -2.7984211E-01;4827; -1.1822635E-01;  0.0000000E+00; -8.4619718E-03;  9.9184113E+02;  1.0000000E-01; -6.7594624E+03;3;  1.4680890E+00;  0.0000000E+00;  3.7673061E+00;0; -2.4529405E-01;  3.9289742E+04;  0.0000000E+00; -7.1412079E-02;  4.0000000E+04;  0.0000000E+00;  4.0061906E+04; -2.7411586E-01;  0.0000000E+00;  2.8821811E-02;  8.4309346E+03;
  4.0523005E-01;  9.9999998E-03; -2.9982957E-01;4886; -1.2105864E-01;  0.0000000E+00; -9.0060653E-03;  9.9129724E+02;  1.0000000E-01; -7.2100674E+03;3;  1.6337968E+00;  0.0000000E+00;  3.8539772E+00;0; -2.4043939E-01;  3.9243719E+04;  0.0000000E+00; -1.9219974E-01;  4.0000000E+04;  0.0000000E+00;  4.0064457E+04; -2.7067521E-01;  0.0000000E+00;  3.0235831E-02;  8.8023291E+03;
  4.0530089E-01;  9.9999998E-03; -2.8983808E-01;4887; -1.2103450E-01;  0.0000000E+00; -8.6635519E-03;  9.9147339E+02;  1.0000000E-01; -7.0641455E+03;3;  1.5472033E+00;  0.0000000E+00;  3.8816226E+00;0; -2.4154541E-01;  3.9257340E+04;  0.0000000E+00; -1.5170440E-01;  4.0000000E+04;  0.0000000E+00;  4.0064570E+04; -2.7027461E-01;  0.0000000E+00;  2.8729199E-02;  8.8027217E+03;
  4.0535426E-01;  9.9999998E-03; -2.7984640E-01;4888; -1.2103776E-01;  0.0000000E+00; -8.3616460E-03;  9.9167273E+02;  1.0000000E-01; -6.8989648E+03;3;  1.4671074E+00;  0.0000000E+00;  3.9096518E+00;0; -2.4190708E-01;  3.9272719E+04;  0.0000000E+00; -1.1397587E-01;  4.0000000E+04;  0.0000000E+00;  4.0064836E+04; -2.6982093E-01;  0.0000000E+00;  2.7913848E-02;  8.8263408E+03;
  4.1538349E-01;  9.9999998E-03; -2.9983369E-01;4947; -1.2396491E-01;  0.0000000E+00; -8.9237038E-03;  9.9120093E+02;  1.0000000E-01; -7.2898667E+03;3;  1.5953389E+00;  0.0000000E+00;  3.9660006E+00;0; -2.3635006E-01;  3.9233703E+04;  0.0000000E+00; -1.7096999E-01;  4.0000000E+04;  0.0000000E+00;  4.0066047E+04; -2.6641122E-01;  0.0000000E+00;  3.0061159E-02;  9.0281855E+03;
  4.1543868E-01;  9.9999998E-03; -2.8984207E-01;4948; -1.2389465E-01;  0.0000000E+00; -8.5641453E-03;  9.9137915E+02;  1.0000000E-01; -7.1422168E+03;3;  1.5224851E+00;  0.0000000E+00;  4.0061412E+00;0; -2.3790136E-01;  3.9247320E+04;  0.0000000E+00; -1.6544746E-01;  4.0000000E+04;  0.0000000E+00;  4.0066457E+04; -2.6612541E-01;  0.0000000E+00;  2.8224053E-02;  9.0412920E+03;
  4.1547877E-01;  9.9999998E-03; -2.7985010E-01;4949; -1.2386560E-01;  0.0000000E+00; -8.2475040E-03;  9.9158179E+02;  1.0000000E-01; -6.9743203E+03;3;  1.4553810E+00;  0.0000000E+00;  4.0420141E+00;0; -2.3861501E-01;  3.9262906E+04;  0.0000000E+00; -1.5087454E-01;  4.0000000E+04;  0.0000000E+00;  4.0066871E+04; -2.6579091E-01;  0.0000000E+00;  2.7175909E-02;  9.0801338E+03;
  4.2555681E-01;  9.9999998E-03; -2.9983780E-01;5008; -1.2686148E-01;  0.0000000E+00; -8.8225408E-03;  9.9124786E+02;  1.0000000E-01; -7.2509541E+03;3;  1.5443591E+00;  0.0000000E+00;  4.0664005E+00;0; -2.3244385E-01;  3.9236816E+04;  0.0000000E+00; -1.2012955E-01;  4.0000000E+04;  0.0000000E+00;  4.0066188E+04; -2.6226783E-01;  0.0000000E+00;  2.9823978E-02;  9.0384033E+03;
  4.2560774E-01;  9.9999998E-03; -2.8984594E-01;5009; -1.2674432E-01;  0.0000000E+00; -8.4499335E-03;  9.9141669E+02;  1.0000000E-01; -7.1111064E+03;3;  1.4858112E+00;  0.0000000E+00;  4.1177521E+00;0; -2.3433910E-01;  3.9249867E+04;  0.0000000E+00; -1.5771370E-01;  4.0000000E+04;  0.0000000E+00;  4.0066637E+04; -2.6207742E-01;  0.0000000E+00;  2.7738322E-02;  9.0684795E+03;
  4.2564303E-01;  9.9999998E-03; -2.7985358E-01;5010; -1.2668364E-01;  0.0000000E+00; -8.1232479E-03;  9.9161102E+02;  1.0000000E-01; -6.9501235E+03;3;  1.4334819E+00;  0.0000000E+00;  4.1669092E+00;0; -2.3530854E-01;  3.9264410E+04;  0.0000000E+00; -1.7332849E-01;  4.0000000E+04;  0.0000000E+00;  4.0067094E+04; -2.6184732E-01;  0.0000000E+00;  2.6538773E-02;  9.1261016E+03;
  4.3574750E-01;  9.9999998E-03; -2.9984215E-01;5069; -1.2970327E-01;  0.0000000E+00; -8.7072318E-03;  9.9146350E+02;  1.0000000E-01; -7.0723423E+03;3;  1.4805814E+00;  0.0000000E+00;  4.1544328E+00;0; -2.2859298E-01;  3.9255133E+04;  0.0000000E+00; -3.8405575E-02;  4.0000000E+04;  0.0000000E+00;  4.0064441E+04; -2.5810367E-01;  0.0000000E+00;  2.9510697E-02;  8.8039023E+03;
  4.3579295E-01;  9.9999998E-03; -2.8985000E-01;5070; -1.2954491E-01;  0.0000000E+00; -8.3236983E-03;  9.9161682E+02;  1.0000000E-01; -6.9452842E+03;3;  1.4378837E+00;  0.0000000E+00;  4.2175593E+00;0; -2.3079719E-01;  3.9266844E+04;  0.0000000E+00; -1.2007083E-01;  4.0000000E+04;  0.0000000E+00;  4.0064973E+04; -2.5801077E-01;  0.0000000E+00;  2.7213586E-02;  8.8429912E+03;
  4.3582371E-01;  9.9999998E-03; -2.7985728E-01;5071; -1.2945706E-01;  0.0000000E+00; -7.9911472E-03;  9.9179028E+02;  1.0000000E-01; -6.8015845E+03;3;  1.4011607E+00;  0.0000000E+00;  4.2790380E+00;0; -2.3196061E-01;  3.9279961E+04;  0.0000000E+00; -1.6810656E-01;  4.0000000E+04;  0.0000000E+00;  4.0065605E+04; -2.5788963E-01;  0.0000000E+00;  2.5929017E-02;  8.9193330E+03;
  4.4595429E-01;  9.9999998E-03; -2.9984686E-01;5130; -1.3244951E-01;  0.0000000E+00; -8.5799573E-03;  9.9184448E+02;  1.0000000E-01; -6.7566968E+03;3;  1.4044727E+00;  0.0000000E+00;  4.2272663E+00;0; -2.2478223E-01;  3.9288762E+04;  0.0000000E+00;  5.1204063E-02;  4.0000000E+04;  0.0000000E+00;  4.0061121E+04; -2.5387400E-01;  0.0000000E+00;  2.9091779E-02;  8.3332002E+03;
  4.4598988E-01;  9.9999998E-03; -2.8985438E-01;5131; -1.3226303E-01;  0.0000000E+00; -8.1887646E-03;  9.9197418E+02;  1.0000000E-01; -6.6492432E+03;3;  1.3785198E+00;  0.0000000E+00;  4.3016591E+00;0; -2.2725651E-01;  3.9298617E+04;  0.0000000E+00; -6.4769283E-02;  4.0000000E+04;  0.0000000E+00;  4.0061441E+04; -2.5388908E-01;  0.0000000E+00;  2.6632585E-02;  8.3772812E+03;
  4.4601244E-01;  9.9999998E-03; -2.7986139E-01;5132; -1.3215654E-01;  0.0000000E+00; -7.8553054E-03;  9.9212604E+02;  1.0000000E-01; -6.5234194E+03;3;  1.3585883E+00;  0.0000000E+00;  4.3782530E+00;0; -2.2855300E-01;  3.9309746E+04;  0.0000000E+00; -1.4011550E-01;  4.0000000E+04;  0.0000000E+00;  4.0062176E+04; -2.5388858E-01;  0.0000000E+00;  2.5335576E-02;  8.4557197E+03;
  4.5617333E-01;  9.9999998E-03; -2.9985183E-01;5191; -1.3506967E-01;  0.0000000E+00; -8.4421746E-03;  9.9235583E+02;  1.0000000E-01; -6.3330547E+03;3;  1.3151742E+00;  0.0000000E+00;  4.2829199E+00;0; -2.2106364E-01;  3.9334078E+04;  0.0000000E+00;  1.3394123E-01;  4.0000000E+04;  0.0000000E+00;  4.0055988E+04; -2.4961822E-01;  0.0000000E+00;  2.8554576E-02;  7.6748052E+03;
  4.5619610E-01;  9.9999998E-03; -2.8985909E-01;5192; -1.3487399E-01;  0.0000000E+00; -8.0473879E-03;  9.9246075E+02;  1.0000000E-01; -6.2461436E+03;3;  1.3072367E+00;  0.0000000E+00;  4.3750334E+00;0; -2.2375394E-01;  3.9341922E+04;  0.0000000E+00; -3.0374527E-03;  4.0000000E+04;  0.0000000E+00;  4.0056469E+04; -2.4974966E-01;  0.0000000E+00;  2.5995711E-02;  7.7132046E+03;
  4.5620677E-01;  9.9999998E-03; -2.7986589E-01;5193; -1.3476115E-01;  0.0000000E+00; -7.7163605E-03;  9.9258148E+02;  1.0000000E-01; -6.1460967E+03;3;  1.3065840E+00;  0.0000000E+00;  4.4695048E+00;0; -2.2515176E-01;  3.9350883E+04;  0.0000000E+00; -9.8001778E-02;  4.0000000E+04;  0.0000000E+00;  4.0057195E+04; -2.4988158E-01;  0.0000000E+00;  2.4729822E-02;  7.7905605E+03;
  4.6633273E-01;  9.9999998E-03; -2.9985666E-01;5252; -1.3753420E-01;  0.0000000E+00; -8.2958210E-03;  9.9292065E+02;  1.0000000E-01; -5.8651167E+03;3;  1.2135903E+00;  0.0000000E+00;  4.3241248E+00;0; -2.1754239E-01;  3.9384453E+04;  0.0000000E+00;  2.1385828E-01;  4.0000000E+04;  0.0000000E+00;  4.0050500E+04; -2.4545512E-01;  0.0000000E+00;  2.7912721E-02;  6.9344580E+03;
  4.6634915E-01;  9.9999998E-03; -2.8986371E-01;5253; -1.3735284E-01;  0.0000000E+00; -7.9019396E-03;  9.9300311E+02;  1.0000000E-01; -5.7967729E+03;3;  1.2253597E+00;  0.0000000E+00;  4.4335628E+00;0; -2.2038013E-01;  3.9390672E+04;  0.0000000E+00;  6.6717744E-02;  4.0000000E+04;  0.0000000E+00;  4.0050836E+04; -2.4570173E-01;  0.0000000E+00;  2.5321597E-02;  6.9565938E+03;
  4.6635672E-01;  9.9999998E-03; -2.7987048E-01;5254; -1.3725057E-01;  0.0000000E+00; -7.5791045E-03;  9.9309503E+02;  1.0000000E-01; -5.7206270E+03;3;  1.2430904E+00;  0.0000000E+00;  4.5366912E+00;0; -2.2180560E-01;  3.9397281E+04;  0.0000000E+00; -4.2699821E-02;  4.0000000E+04;  0.0000000E+00;  4.0051359E+04; -2.4596438E-01;  0.0000000E+00;  2.4158783E-02;  7.0216260E+03;
  4.7637966E-01;  9.9999998E-03; -2.9986078E-01;5313; -1.3983887E-01;  0.0000000E+00; -8.1426306E-03;  9.9344031E+02;  1.0000000E-01; -5.4345610E+03;3;  1.1018562E+00;  0.0000000E+00;  4.3518906E+00;0; -2.1430235E-01;  3.9431180E+04;  0.0000000E+00;  2.6459682E-01;  4.0000000E+04;  0.0000000E+00;  4.0045316E+04; -2.4150224E-01;  0.0000000E+00;  2.7199894E-02;  6.2459551E+03;
  4.7639418E-01;  9.9999998E-03; -2.8986770E-01;5314; -1.3969292E-01;  0.0000000E+00; -7.7537717E-03;  9.9350543E+02;  1.0000000E-01; -5.3806367E+03;3;  1.1319606E+00;  0.0000000E+00;  4.4683805E+00;0; -2.1722789E-01;  3.9436039E+04;  0.0000000E+00;  1.2294444E-01;  4.0000000E+04;  0.0000000E+00;  4.0045434E+04; -2.4185684E-01;  0.0000000E+00;  2.4628950E-02;  6.2472031E+03;
  4.7640511E-01;  9.9999998E-03; -2.7987456E-01;5315; -1.3961624E-01;  0.0000000E+00; -7.4415477E-03;  9.9357202E+02;  1.0000000E-01; -5.3254780E+03;3;  1.1695158E+00;  0.0000000E+00;  4.5835910E+00;0; -2.1864247E-01;  3.9440754E+04;  0.0000000E+00;  1.0036995E-02;  4.0000000E+04;  0.0000000E+00;  4.0045914E+04; -2.4224205E-01;  0.0000000E+00;  2.3599576E-02;  6.2954873E+03;
  4.8635074E-01;  9.9999998E-03; -2.9986379E-01;5374; -1.4201668E-01;  0.0000000E+00; -7.9824766E-03;  9.9384088E+02;  1.0000147E-01; -5.1027188E+03;3;  9.7641599E-01;  0.0000000E+00;  4.3488421E+00;0; -2.1137990E-01;  3.9465980E+04;  0.0000000E+00;  2.5582212E-01;  4.0000000E+04;  0.0000000E+00;  4.0041211E+04; -2.3781526E-01;  0.0000000E+00;  2.6435360E-02;  5.7068662E+03;
  4.8636359E-01;  9.9999998E-03; -2.8987065E-01;5375; -1.4192110E-01;  0.0000000E+00; -7.6000108E-03;  9.9388824E+02;  1.0000147E-01; -5.0634604E+03;3;  1.0281237E+00;  0.0000000E+00;  4.4895620E+00;0; -2.1435612E-01;  3.9469754E+04;  0.0000000E+00;  1.3659048E-01;  4.0000000E+04;  0.0000000E+00;  4.0041398E+04; -2.3826727E-01;  0.0000000E+00;  2.3911152E-02;  5.6983540E+03;
  4.8637304E-01;  9.9999998E-03; -2.7987760E-01;5376; -1.4187950E-01;  0.0000000E+00; -7.3033152E-03;  9.9393628E+02;  1.0000148E-01; -5.0236592E+03;3;  1.0857042E+00;  0.0000000E+00;  4.6132612E+00;0; -2.1568756E-01;  3.9473168E+04;  0.0000000E+00;  3.4976814E-02;  4.0000000E+04;  0.0000000E+00;  4.0041691E+04; -2.3876631E-01;  0.0000000E+00;  2.3078751E-02;  5.7330825E+03;
  4.9630234E-01;  9.9999998E-03; -2.7987897E-01;5437; -1.4407477E-01;  0.0000000E+00; -7.1674916E-03;  9.9410492E+02;  1.0000204E-01; -4.8839590E+03;3;  9.9219137E-01;  0.0000000E+00;  4.6270385E+00;0; -2.1285677E-01;  3.9488172E+04;  0.0000000E+00;  2.0521112E-02;  4.0000000E+04;  0.0000000E+00;  4.0039633E+04; -2.3553959E-01;  0.0000000E+00;  2.2682812E-02;  5.4634414E+03;
  4.9629489E-01;  9.9999998E-03; -2.8987196E-01;5436; -1.4407606E-01;  0.0000000E+00; -7.4441703E-03;  9.9406689E+02;  1.0000199E-01; -4.9154639E+03;3;  9.1238946E-01;  0.0000000E+00;  4.4869795E+00;0; -2.1167727E-01;  3.9485574E+04;  0.0000000E+00;  9.5851861E-02;  4.0000000E+04;  0.0000000E+00;  4.0039418E+04; -2.3494177E-01;  0.0000000E+00;  2.3264494E-02;  5.4356011E+03;
  4.9628559E-01;  9.9999998E-03; -2.9986516E-01;5435; -1.4411321E-01;  0.0000000E+00; -7.8124572E-03;  9.9402777E+02;  1.0000207E-01; -4.9478584E+03;3;  8.3827412E-01;  0.0000000E+00;  4.3255463E+00;0; -2.0878081E-01;  3.9482574E+04;  0.0000000E+00;  1.7850721E-01;  4.0000000E+04;  0.0000000E+00;  4.0039375E+04; -2.3440224E-01;  0.0000000E+00;  2.5621425E-02;  5.4506245E+03;
  5.0622302E-01;  9.9999998E-03; -2.9986486E-01;5496; -1.4618213E-01;  0.0000000E+00; -7.6301862E-03;  9.9398993E+02;  1.0000388E-01; -4.9792153E+03;3;  6.8592125E-01;  0.0000000E+00;  4.2821679E+00;0; -2.0645484E-01;  3.9477840E+04;  0.0000000E+00;  6.0013402E-02;  4.0000000E+04;  0.0000000E+00;  4.0039770E+04; -2.3121938E-01;  0.0000000E+00;  2.4764536E-02;  5.4994814E+03;
  5.0622714E-01;  9.9999998E-03; -2.8987160E-01;5497; -1.4620240E-01;  0.0000000E+00; -7.2828941E-03;  9.9402429E+02;  1.0000371E-01; -4.9507715E+03;3;  7.8314197E-01;  0.0000000E+00;  4.4659295E+00;0; -2.0915155E-01;  3.9480527E+04;  0.0000000E+00;  1.7232653E-02;  4.0000000E+04;  0.0000000E+00;  4.0039680E+04; -2.3183586E-01;  0.0000000E+00;  2.2684304E-02;  5.4872441E+03;
  5.0623322E-01;  9.9999998E-03; -2.7987856E-01;5498; -1.4624189E-01;  0.0000000E+00; -7.0293546E-03;  9.9405811E+02;  1.0000388E-01; -4.9227231E+03;3;  8.8715076E-01;  0.0000000E+00;  4.6127386E+00;0; -2.1013385E-01;  3.9482887E+04;  0.0000000E+00; -2.4327777E-02;  4.0000000E+04;  0.0000000E+00;  4.0040086E+04; -2.3251702E-01;  0.0000000E+00;  2.2383174E-02;  5.5232939E+03;
  5.1619518E-01;  9.9999998E-03; -2.9986301E-01;5557; -1.4827578E-01;  0.0000000E+00; -7.4382303E-03;  9.9373895E+02;  1.0000626E-01; -5.1871597E+03;3;  5.2158481E-01;  0.0000000E+00;  4.2215328E+00;0; -2.0420471E-01;  3.9453617E+04;  0.0000000E+00; -4.3575201E-02;  4.0000000E+04;  0.0000000E+00;  4.0042379E+04; -2.2817010E-01;  0.0000000E+00;  2.3965389E-02;  5.8481294E+03;
  5.1619333E-01;  9.9999998E-03; -2.8986970E-01;5558; -1.4834431E-01;  0.0000000E+00; -7.1144341E-03;  9.9377246E+02;  1.0000617E-01; -5.1594072E+03;3;  6.4138061E-01;  0.0000000E+00;  4.4140949E+00;0; -2.0666642E-01;  3.9456121E+04;  0.0000000E+00; -5.7959083E-02;  4.0000000E+04;  0.0000000E+00;  4.0042344E+04; -2.2885473E-01;  0.0000000E+00;  2.2188302E-02;  5.8452002E+03;
  5.1619655E-01;  9.9999998E-03; -2.7987644E-01;5559; -1.4841931E-01;  0.0000000E+00; -6.8842312E-03;  9.9381024E+02;  1.0000617E-01; -5.1280996E+03;3;  7.7038068E-01;  0.0000000E+00;  4.5722375E+00;0; -2.0745049E-01;  3.9458633E+04;  0.0000000E+00; -7.3768198E-02;  4.0000000E+04;  0.0000000E+00;  4.0042840E+04; -2.2960714E-01;  0.0000000E+00;  2.2156637E-02;  5.8964087E+03;
  5.2621615E-01;  9.9999998E-03; -2.9986012E-01;5618; -1.5043314E-01;  0.0000000E+00; -7.2361515E-03;  9.9334509E+02;  1.0001039E-01; -5.5134707E+03;3;  3.4062645E-01;  0.0000000E+00;  4.1271768E+00;0; -2.0185356E-01;  3.9414883E+04;  0.0000000E+00; -8.3807684E-02;  4.0000000E+04;  0.0000000E+00;  4.0046488E+04; -2.2511534E-01;  0.0000000E+00;  2.3261780E-02;  6.4004102E+03;
  5.2620703E-01;  9.9999998E-03; -2.8986663E-01;5619; -1.5053385E-01;  0.0000000E+00; -6.9355201E-03;  9.9337811E+02;  1.0001048E-01; -5.4861138E+03;3;  4.8555952E-01;  0.0000000E+00;  4.3341241E+00;0; -2.0409192E-01;  3.9417383E+04;  0.0000000E+00; -8.9396872E-02;  4.0000000E+04;  0.0000000E+00;  4.0046684E+04; -2.2586447E-01;  0.0000000E+00;  2.1772549E-02;  6.4169351E+03;
  5.2620566E-01;  9.9999998E-03; -2.7987307E-01;5620; -1.5063526E-01;  0.0000000E+00; -6.7306538E-03;  9.9342163E+02;  1.0001054E-01; -5.4500654E+03;3;  6.4034420E-01;  0.0000000E+00;  4.5015497E+00;0; -2.0465796E-01;  3.9420270E+04;  0.0000000E+00; -9.8798335E-02;  4.0000000E+04;  0.0000000E+00;  4.0047340E+04; -2.2668141E-01;  0.0000000E+00;  2.2023452E-02;  6.4970303E+03;
  5.3629017E-01;  9.9999998E-03; -2.9985684E-01;5679; -1.5267040E-01;  0.0000000E+00; -7.0176446E-03;  9.9290692E+02;  1.0001730E-01; -5.8764727E+03;3;  1.4361331E-01;  0.0000000E+00;  4.0081673E+00;0; -1.9929060E-01;  3.9370336E+04;  0.0000000E+00; -4.5462340E-02;  4.0000000E+04;  0.0000000E+00;  4.0051141E+04; -2.2188973E-01;  0.0000000E+00;  2.2599138E-02;  7.0203989E+03;
  5.3627306E-01;  9.9999998E-03; -2.8986314E-01;5680; -1.5278517E-01;  0.0000000E+00; -6.7437096E-03;  9.9294006E+02;  1.0001743E-01; -5.8490166E+03;3;  3.1612325E-01;  0.0000000E+00;  4.2250538E+00;0; -2.0125863E-01;  3.9372465E+04;  0.0000000E+00; -5.7537306E-02;  4.0000000E+04;  0.0000000E+00;  4.0051645E+04; -2.2270568E-01;  0.0000000E+00;  2.1447040E-02;  7.0629927E+03;
  5.3626710E-01;  9.9999998E-03; -2.7986917E-01;5681; -1.5290271E-01;  0.0000000E+00; -6.5661436E-03;  9.9299255E+02;  1.0001760E-01; -5.8055117E+03;3;  4.9814153E-01;  0.0000000E+00;  4.4085946E+00;0; -2.0159511E-01;  3.9375723E+04;  0.0000000E+00; -8.1724383E-02;  4.0000000E+04;  0.0000000E+00;  4.0052414E+04; -2.2358967E-01;  0.0000000E+00;  2.1994555E-02;  7.1762129E+03;
  5.4641670E-01;  9.9999998E-03; -2.9985413E-01;5740; -1.5497921E-01;  0.0000000E+00; -6.7761540E-03;  9.9255334E+02;  1.0002959E-01; -6.1694019E+03;3; -6.9570325E-02;  0.0000000E+00;  3.8683784E+00;0; -1.9640779E-01;  3.9328969E+04;  0.0000000E+00;  3.4362432E-02;  4.0000000E+04;  0.0000000E+00;  4.0054934E+04; -2.1833602E-01;  0.0000000E+00;  2.1928225E-02;  7.5323970E+03;
  5.4639375E-01;  9.9999998E-03; -2.8986010E-01;5741; -1.5509182E-01;  0.0000000E+00; -6.5317210E-03;  9.9258307E+02;  1.0002951E-01; -6.1447607E+03;3;  1.3209325E-01;  0.0000000E+00;  4.0906968E+00;0; -1.9808052E-01;  3.9330797E+04;  0.0000000E+00;  1.4297506E-02;  4.0000000E+04;  0.0000000E+00;  4.0055504E+04; -2.1923123E-01;  0.0000000E+00;  2.1150704E-02;  7.6057456E+03;
  5.4638469E-01;  9.9999998E-03; -2.7986559E-01;5742; -1.5521638E-01;  0.0000000E+00; -6.3842912E-03;  9.9264020E+02;  1.0002955E-01; -6.0974536E+03;3;  3.4275612E-01;  0.0000000E+00;  4.2870069E+00;0; -1.9817074E-01;  3.9334027E+04;  0.0000000E+00; -3.3656821E-02;  4.0000000E+04;  0.0000000E+00;  4.0056797E+04; -2.2019334E-01;  0.0000000E+00;  2.2022605E-02;  7.7581963E+03;
  5.5659342E-01;  9.9999998E-03; -2.9985264E-01;5801; -1.5733030E-01;  0.0000000E+00; -6.5058866E-03;  9.9237988E+02;  1.0004847E-01; -6.3131001E+03;3; -2.9493603E-01;  0.0000000E+00;  3.6990902E+00;0; -1.9313955E-01;  3.9298270E+04;  0.0000000E+00;  5.7723626E-02;  4.0000000E+04;  0.0000000E+00;  4.0056852E+04; -2.1434917E-01;  0.0000000E+00;  2.1209620E-02;  7.8050615E+03;
  5.5656797E-01;  9.9999998E-03; -2.8985816E-01;5802; -1.5742888E-01;  0.0000000E+00; -6.2938901E-03;  9.9240442E+02;  1.0004845E-01; -6.2928047E+03;3; -6.6176943E-02;  0.0000000E+00;  3.9277461E+00;0; -1.9449143E-01;  3.9299273E+04;  0.0000000E+00;  4.8572350E-02;  4.0000000E+04;  0.0000000E+00;  4.0057691E+04; -2.1534485E-01;  0.0000000E+00;  2.0853411E-02;  7.9055488E+03;
  5.5655736E-01;  9.9999998E-03; -2.7986303E-01;5803; -1.5755379E-01;  0.0000000E+00; -6.1824350E-03;  9.9246124E+02;  1.0004848E-01; -6.2456948E+03;3;  1.7477137E-01;  0.0000000E+00;  4.1333127E+00;0; -1.9427764E-01;  3.9302191E+04;  0.0000000E+00; -5.4910923E-03;  4.0000000E+04;  0.0000000E+00;  4.0059230E+04; -2.1640667E-01;  0.0000000E+00;  2.2129031E-02;  8.0965454E+03;
  5.6681150E-01;  9.9999998E-03; -2.9985294E-01;5862; -1.5968001E-01;  0.0000000E+00; -6.1976155E-03;  9.9245282E+02;  1.0007981E-01; -6.2527065E+03;3; -5.3559840E-01;  0.0000000E+00;  3.4919376E+00;0; -1.8957190E-01;  3.9280148E+04;  0.0000000E+00; -1.0622388E-01;  4.0000000E+04;  0.0000000E+00;  4.0056148E+04; -2.0992282E-01;  0.0000000E+00;  2.0350924E-02;  7.7407212E+03;
  5.6678981E-01;  9.9999998E-03; -2.8985780E-01;5863; -1.5975854E-01;  0.0000000E+00; -6.0242484E-03;  9.9246698E+02;  1.0007969E-01; -6.2409536E+03;3; -2.7676722E-01;  0.0000000E+00;  3.7399819E+00;0; -1.9050661E-01;  3.9279969E+04;  0.0000000E+00; -7.1457960E-02;  4.0000000E+04;  0.0000000E+00;  4.0057180E+04; -2.1104468E-01;  0.0000000E+00;  2.0538071E-02;  7.8663633E+03;
  5.6678182E-01;  9.9999998E-03; -2.7986190E-01;5864; -1.5988165E-01;  0.0000000E+00; -5.9524896E-03;  9.9251562E+02;  1.0007984E-01; -6.2006587E+03;3; -6.1465451E-03;  0.0000000E+00;  3.9500642E+00;0; -1.8996005E-01;  3.9281941E+04;  0.0000000E+00; -8.5427314E-02;  4.0000000E+04;  0.0000000E+00;  4.0058980E+04; -2.1223208E-01;  0.0000000E+00;  2.2272032E-02;  8.0935859E+03;
  5.7704186E-01;  9.9999998E-03; -2.9985514E-01;5923; -1.6197369E-01;  0.0000000E+00; -5.8478434E-03;  9.9277197E+02;  1.0013096E-01; -5.9882681E+03;3; -7.9150420E-01;  0.0000000E+00;  3.2585003E+00;0; -1.8581864E-01;  3.9268398E+04;  0.0000000E+00; -5.0990433E-01;  4.0000000E+04;  0.0000000E+00;  4.0052750E+04; -2.0519450E-01;  0.0000000E+00;  1.9375864E-02;  7.3653867E+03;
  5.7703143E-01;  9.9999998E-03; -2.8985915E-01;5924; -1.6203348E-01;  0.0000000E+00; -5.7182168E-03;  9.9277209E+02;  1.0013096E-01; -5.9881694E+03;3; -4.9958056E-01;  0.0000000E+00;  3.5246928E+00;0; -1.8625256E-01;  3.9267012E+04;  0.0000000E+00; -3.9802095E-01;  4.0000000E+04;  0.0000000E+00;  4.0053902E+04; -2.0646499E-01;  0.0000000E+00;  2.0212421E-02;  7.4959224E+03;
  5.7703304E-01;  9.9999998E-03; -2.7986237E-01;5925; -1.6215768E-01;  0.0000000E+00; -5.6863585E-03;  9.9281042E+02;  1.0013135E-01; -5.9564175E+03;3; -1.9792207E-01;  0.0000000E+00;  3.7327614E+00;0; -1.8538430E-01;  3.9267953E+04;  0.0000000E+00; -3.2183248E-01;  4.0000000E+04;  0.0000000E+00;  4.0055996E+04; -2.0780174E-01;  0.0000000E+00;  2.2417434E-02;  7.7355859E+03;
  5.8723259E-01;  9.9999998E-03; -2.9985902E-01;5984; -1.6414817E-01;  0.0000000E+00; -5.4608448E-03;  9.9325909E+02;  1.0021381E-01; -5.5847241E+03;3; -1.0583907E+00;  0.0000000E+00;  3.0107183E+00;0; -1.8202788E-01;  3.9247285E+04;  0.0000000E+00; -9.5843822E-01;  4.0000000E+04;  0.0000000E+00;  4.0047348E+04; -2.0046610E-01;  0.0000000E+00;  1.8438213E-02;  6.8180430E+03;
  5.8723795E-01;  9.9999998E-03; -2.8986195E-01;5985; -1.6420004E-01;  0.0000000E+00; -5.3738868E-03;  9.9324438E+02;  1.0021405E-01; -5.5968721E+03;3; -7.3341936E-01;  0.0000000E+00;  3.2793694E+00;0; -1.8197376E-01;  3.9244688E+04;  0.0000000E+00; -7.6327747E-01;  4.0000000E+04;  0.0000000E+00;  4.0048586E+04; -2.0189781E-01;  0.0000000E+00;  1.9924063E-02;  6.9137515E+03;
  5.8725268E-01;  9.9999998E-03; -2.7986404E-01;5986; -1.6433373E-01;  0.0000000E+00; -5.3791520E-03;  9.9326782E+02;  1.0021434E-01; -5.5774653E+03;3; -3.9817679E-01;  0.0000000E+00;  3.4776070E+00;0; -1.8082166E-01;  3.9244457E+04;  0.0000000E+00; -5.8666515E-01;  4.0000000E+04;  0.0000000E+00;  4.0050641E+04; -2.0339730E-01;  0.0000000E+00;  2.2575649E-02;  7.1315396E+03;
  5.9733886E-01;  9.9999998E-03; -2.9986423E-01;6045; -1.6614202E-01;  0.0000000E+00; -5.0446759E-03;  9.9379370E+02;  1.0034749E-01; -5.1417734E+03;3; -1.3312246E+00;  0.0000000E+00;  2.7495306E+00;0; -1.7841715E-01;  3.9191488E+04;  0.0000000E+00; -1.0680345E+00;  4.0000000E+04;  0.0000000E+00;  4.0041078E+04; -1.9617355E-01;  0.0000000E+00;  1.7756402E-02;  6.1500063E+03;
  5.9736031E-01;  9.9999998E-03; -2.8986585E-01;6046; -1.6620906E-01;  0.0000000E+00; -4.9968273E-03;  9.9376685E+02;  1.0034800E-01; -5.1640444E+03;3; -9.7441798E-01;  0.0000000E+00;  2.9940925E+00;0; -1.7791873E-01;  3.9187883E+04;  0.0000000E+00; -8.5240221E-01;  4.0000000E+04;  0.0000000E+00;  4.0042121E+04; -1.9775683E-01;  0.0000000E+00;  1.9838095E-02;  6.2093540E+03;
  5.9738779E-01;  9.9999998E-03; -2.7986658E-01;6047; -1.6636817E-01;  0.0000000E+00; -5.0332216E-03;  9.9377570E+02;  1.0034849E-01; -5.1566865E+03;3; -6.0533941E-01;  0.0000000E+00;  3.1885831E+00;0; -1.7655294E-01;  3.9186277E+04;  0.0000000E+00; -6.4102840E-01;  4.0000000E+04;  0.0000000E+00;  4.0044055E+04; -1.9941428E-01;  0.0000000E+00;  2.2861343E-02;  6.3956084E+03;
  6.0737717E-01;  9.9999998E-03; -2.9987070E-01;6106; -1.6791844E-01;  0.0000000E+00; -4.6030488E-03;  9.9426367E+02;  1.0056060E-01; -4.7524502E+03;3; -1.6117281E+00;  0.0000000E+00;  2.4510491E+00;0; -1.7530236E-01;  3.9070098E+04;  0.0000000E+00; -7.5332981E-01;  4.0000000E+04;  0.0000000E+00;  4.0034863E+04; -1.9280317E-01;  0.0000000E+00;  1.7500816E-02;  5.4256074E+03;
  6.0740823E-01;  9.9999998E-03; -2.8987083E-01;6107; -1.6803418E-01;  0.0000000E+00; -4.5873383E-03;  9.9422998E+02;  1.0056145E-01; -4.7803506E+03;3; -1.2191529E+00;  0.0000000E+00;  2.6876476E+00;0; -1.7441547E-01;  3.9065555E+04;  0.0000000E+00; -5.9314126E-01;  4.0000000E+04;  0.0000000E+00;  4.0035469E+04; -1.9450277E-01;  0.0000000E+00;  2.0087305E-02;  5.4792295E+03;
  6.0744214E-01;  9.9999998E-03; -2.7986977E-01;6108; -1.6824065E-01;  0.0000000E+00; -4.6513597E-03;  9.9422406E+02;  1.0056195E-01; -4.7852393E+03;3; -8.1598806E-01;  0.0000000E+00;  2.8730049E+00;0; -1.7286475E-01;  3.9062824E+04;  0.0000000E+00; -4.2272431E-01;  4.0000000E+04;  0.0000000E+00;  4.0037281E+04; -1.9628799E-01;  0.0000000E+00;  2.3423240E-02;  5.6624814E+03;
  6.1737257E-01;  9.9999998E-03; -2.9987901E-01;6167; -1.6946834E-01;  0.0000000E+00; -4.1310103E-03;  9.9462488E+02;  1.0089329E-01; -4.4531987E+03;3; -1.8962096E+00;  0.0000000E+00;  2.1152935E+00;0; -1.7313498E-01;  3.8848801E+04;  0.0000000E+00; -2.1963568E-01;  4.0000000E+04;  0.0000000E+00;  4.0028906E+04; -1.9084528E-01;  0.0000000E+00;  1.7710304E-02;  4.8221416E+03;
  6.1740893E-01;  9.9999998E-03; -2.8987736E-01;6168; -1.6967271E-01;  0.0000000E+00; -4.1418131E-03;  9.9458344E+02;  1.0089496E-01; -4.4875186E+03;3; -1.4693438E+00;  0.0000000E+00;  2.3382013E+00;0; -1.7187777E-01;  3.8843652E+04;  0.0000000E+00; -1.5791672E-01;  4.0000000E+04;  0.0000000E+00;  4.0029188E+04; -1.9259550E-01;  0.0000000E+00;  2.0717727E-02;  4.8799678E+03;
  6.1744666E-01;  9.9999998E-03; -2.7987429E-01;6169; -1.6995227E-01;  0.0000000E+00; -4.2282641E-03;  9.9457025E+02;  1.0089624E-01; -4.4984316E+03;3; -1.0311195E+00;  0.0000000E+00;  2.5253906E+00;0; -1.7015079E-01;  3.8839574E+04;  0.0000000E+00; -6.9683596E-02;  4.0000000E+04;  0.0000000E+00;  4.0030641E+04; -1.9444828E-01;  0.0000000E+00;  2.4297483E-02;  5.0590347E+03;
  6.2732589E-01;  9.9999998E-03; -2.9989037E-01;6228; -1.7080787E-01;  0.0000000E+00; -3.6262269E-03;  9.9490387E+02;  1.0139926E-01; -4.2220439E+03;3; -2.1872797E+00;  0.0000000E+00;  1.7350004E+00;0; -1.7227785E-01;  3.8492227E+04;  0.0000000E+00;  2.5028729E-01;  4.0000000E+04;  0.0000000E+00;  4.0022324E+04; -1.9072197E-01;  0.0000000E+00;  1.8444117E-02;  4.4138262E+03;
  6.2736928E-01;  9.9999998E-03; -2.8988695E-01;6229; -1.7114149E-01;  0.0000000E+00; -3.6580143E-03;  9.9486761E+02;  1.0140163E-01; -4.2520679E+03;3; -1.7239283E+00;  0.0000000E+00;  1.9593598E+00;0; -1.7062180E-01;  3.8486566E+04;  0.0000000E+00;  2.1718591E-01;  4.0000000E+04;  0.0000000E+00;  4.0022320E+04; -1.9243586E-01;  0.0000000E+00;  2.1814061E-02;  4.4324375E+03;
  6.2741095E-01;  9.9999998E-03; -2.7988178E-01;6230; -1.7151922E-01;  0.0000000E+00; -3.7588016E-03;  9.9485150E+02;  1.0140407E-01; -4.2654004E+03;3; -1.2505219E+00;  0.0000000E+00;  2.1393373E+00;0; -1.6876866E-01;  3.8481867E+04;  0.0000000E+00;  2.3515111E-01;  4.0000000E+04;  0.0000000E+00;  4.0023594E+04; -1.9427001E-01;  0.0000000E+00;  2.5501354E-02;  4.5873970E+03;
  6.3723224E-01;  9.9999998E-03; -2.9990652E-01;6289; -1.7198177E-01;  0.0000000E+00; -3.0861739E-03;  9.9519629E+02;  1.0213719E-01; -3.9797781E+03;3; -2.4805470E+00;  0.0000000E+00;  1.3018756E+00;0; -1.7296764E-01;  3.7969266E+04;  0.0000000E+00;  1.7733152E-01;  4.0000000E+04;  0.0000000E+00;  4.0013996E+04; -1.9270439E-01;  0.0000000E+00;  1.9736754E-02;  3.9580491E+03;
  6.3728470E-01;  9.9999998E-03; -2.8990138E-01;6290; -1.7247918E-01;  0.0000000E+00; -3.1328718E-03;  9.9516974E+02;  1.0214166E-01; -4.0017527E+03;3; -1.9819244E+00;  0.0000000E+00;  1.5282364E+00;0; -1.7090073E-01;  3.7963172E+04;  0.0000000E+00;  1.6217496E-01;  4.0000000E+04;  0.0000000E+00;  4.0013801E+04; -1.9428585E-01;  0.0000000E+00;  2.3385117E-02;  3.9513467E+03;
  6.3733047E-01;  9.9999998E-03; -2.7989432E-01;6291; -1.7297614E-01;  0.0000000E+00; -3.2375446E-03;  9.9515710E+02;  1.0214505E-01; -4.0122217E+03;3; -1.4734883E+00;  0.0000000E+00;  1.7125190E+00;0; -1.6898161E-01;  3.7958051E+04;  0.0000000E+00;  2.2740269E-01;  4.0000000E+04;  0.0000000E+00;  4.0014871E+04; -1.9599891E-01;  0.0000000E+00;  2.7017297E-02;  4.0892739E+03;
  6.4711261E-01;  9.9999998E-03; -2.9992911E-01;6350; -1.7305432E-01;  0.0000000E+00; -2.4950146E-03;  9.9558875E+02;  1.0316052E-01; -3.6546511E+03;3; -2.7756963E+00;  0.0000000E+00;  8.2522595E-01;0; -1.7546415E-01;  3.7258852E+04;  0.0000000E+00; -1.1523371E+00;  4.0000000E+04;  0.0000000E+00;  4.0002590E+04; -1.9686610E-01;  0.0000000E+00;  2.1401934E-02;  3.7740864E+03;
  6.4717340E-01;  9.9999998E-03; -2.8992245E-01;6351; -1.7374326E-01;  0.0000000E+00; -2.5493314E-03;  9.9557690E+02;  1.0316702E-01; -3.6644285E+03;3; -2.2437854E+00;  0.0000000E+00;  1.0499470E+00;0; -1.7299803E-01;  3.7252105E+04;  0.0000000E+00; -8.7644190E-01;  4.0000000E+04;  0.0000000E+00;  4.0002383E+04; -1.9821976E-01;  0.0000000E+00;  2.5221730E-02;  3.5865818E+03;
  6.4722204E-01;  9.9999998E-03; -2.7991384E-01;6352; -1.7437568E-01;  0.0000000E+00; -2.6494800E-03;  9.9557458E+02;  1.0317223E-01; -3.6663545E+03;3; -1.7026534E+00;  0.0000000E+00;  1.2354555E+00;0; -1.7102373E-01;  3.7246477E+04;  0.0000000E+00; -4.9682748E-01;  4.0000000E+04;  0.0000000E+00;  4.0003426E+04; -1.9969822E-01;  0.0000000E+00;  2.8674496E-02;  3.5424231E+03;
  6.5700614E-01;  9.9999998E-03; -2.9995862E-01;6411; -1.7409821E-01;  0.0000000E+00; -1.8489624E-03;  9.9605249E+02;  1.0449903E-01; -3.2704148E+03;3; -3.0744851E+00;  0.0000000E+00;  3.1006908E-01;0; -1.7963505E-01;  3.6353348E+04;  0.0000000E+00; -4.2310190E+00;  4.0000000E+04;  0.0000000E+00;  3.9988379E+04; -2.0309658E-01;  0.0000000E+00;  2.3461541E-02;  7.0618252E+03;
  6.5706950E-01;  9.9999998E-03; -2.8995052E-01;6412; -1.7500328E-01;  0.0000000E+00; -1.9053298E-03;  9.9604834E+02;  1.0450752E-01; -3.2738713E+03;3; -2.5098841E+00;  0.0000000E+00;  5.3685921E-01;0; -1.7677352E-01;  3.6345520E+04;  0.0000000E+00; -3.3073685E+00;  4.0000000E+04;  0.0000000E+00;  3.9988438E+04; -2.0412694E-01;  0.0000000E+00;  2.7353415E-02;  5.7807939E+03;
  6.5711659E-01;  9.9999998E-03; -2.7994066E-01;6413; -1.7578481E-01;  0.0000000E+00; -1.9948315E-03;  9.9605536E+02;  1.0451335E-01; -3.2680444E+03;3; -1.9373546E+00;  0.0000000E+00;  7.1651149E-01;0; -1.7474264E-01;  3.6339430E+04;  0.0000000E+00; -2.2474465E+00;  4.0000000E+04;  0.0000000E+00;  3.9989938E+04; -2.0525010E-01;  0.0000000E+00;  3.0507457E-02;  4.5062979E+03;
  6.6695225E-01;  9.9999998E-03; -2.9999384E-01;6472; -1.7521057E-01;  0.0000000E+00; -1.1470616E-03;  9.9636957E+02;  1.0614894E-01; -3.0077546E+03;3; -3.3856759E+00;  0.0000000E+00; -2.8678957E-01;0; -1.8513633E-01;  3.5260699E+04;  0.0000000E+00; -8.9962921E+00;  4.0000000E+04;  0.0000000E+00;  3.9973473E+04; -2.1107154E-01;  0.0000000E+00;  2.5935199E-02;  1.4470631E+04;
  6.6701359E-01;  9.9999998E-03; -2.8998426E-01;6473; -1.7635275E-01;  0.0000000E+00; -1.2034972E-03;  9.9636395E+02;  1.0615933E-01; -3.0123965E+03;3; -2.7910278E+00;  0.0000000E+00; -5.8158584E-02;0; -1.8185316E-01;  3.5250914E+04;  0.0000000E+00; -7.1025743E+00;  4.0000000E+04;  0.0000000E+00;  3.9974582E+04; -2.1168807E-01;  0.0000000E+00;  2.9834906E-02;  1.1556309E+04;
  6.6705632E-01;  9.9999998E-03; -2.7997318E-01;6474; -1.7729361E-01;  0.0000000E+00; -1.2756182E-03;  9.9637921E+02;  1.0616629E-01; -2.9997551E+03;3; -2.1882808E+00;  0.0000000E+00;  1.3283508E-01;0; -1.7979294E-01;  3.5244250E+04;  0.0000000E+00; -5.0186348E+00;  4.0000000E+04;  0.0000000E+00;  3.9976887E+04; -2.1233393E-01;  0.0000000E+00;  3.2540984E-02;  8.4354727E+03;
  6.7702883E-01;  9.9999998E-03; -3.0003321E-01;6533; -1.7654775E-01;  0.0000000E+00; -3.8726701E-04;  9.9627936E+02;  1.0809341E-01; -3.0824663E+03;3; -3.7064803E+00;  0.0000000E+00; -9.2800760E-01;0; -1.9111550E-01;  3.4000703E+04;  0.0000000E+00; -1.4423179E+01;  4.0000000E+04;  0.0000000E+00;  3.9961293E+04; -2.2003128E-01;  0.0000000E+00;  2.8915783E-02;  2.3799092E+04;
  6.7707551E-01;  9.9999998E-03; -2.9002193E-01;6534; -1.7792481E-01;  0.0000000E+00; -4.4077434E-04;  9.9626276E+02;  1.0810378E-01; -3.0962437E+03;3; -3.0872984E+00;  0.0000000E+00; -7.0014149E-01;0; -1.8744591E-01;  3.3989211E+04;  0.0000000E+00; -1.1555627E+01;  4.0000000E+04;  0.0000000E+00;  3.9963719E+04; -2.2012898E-01;  0.0000000E+00;  3.2683067E-02;  1.9224385E+04;
  6.7710912E-01;  9.9999998E-03; -2.8000915E-01;6535; -1.7902173E-01;  0.0000000E+00; -4.8737752E-04;  9.9627759E+02;  1.0810942E-01; -3.0839478E+03;3; -2.4527969E+00;  0.0000000E+00; -4.8932964E-01;0; -1.8546602E-01;  3.3981855E+04;  0.0000000E+00; -8.3278332E+00;  4.0000000E+04;  0.0000000E+00;  3.9967344E+04; -2.2018944E-01;  0.0000000E+00;  3.4723416E-02;  1.4124943E+04;
  6.8757743E-01;  9.9999998E-03; -3.0007675E-01;6594; -1.7841053E-01;  0.0000000E+00;  4.5398087E-04;  9.9558838E+02;  1.1035950E-01; -3.6549385E+03;3; -4.0494380E+00;  0.0000000E+00; -1.6662230E+00;0; -1.9575985E-01;  3.2575578E+04;  0.0000000E+00; -1.7261389E+01;  4.0000000E+04;  0.0000000E+00;  3.9953531E+04; -2.2829008E-01;  0.0000000E+00;  3.2530237E-02;  2.9709238E+04;
  6.8755096E-01;  9.9999998E-03; -2.9006317E-01;6595; -1.7994387E-01;  0.0000000E+00;  3.9394927E-04;  9.9556573E+02;  1.1035960E-01; -3.6737034E+03;3; -3.4087975E+00;  0.0000000E+00; -1.4342251E+00;0; -1.9160299E-01;  3.2568729E+04;  0.0000000E+00; -1.4332282E+01;  4.0000000E+04;  0.0000000E+00;  3.9957730E+04; -2.2771108E-01;  0.0000000E+00;  3.6108091E-02;  2.4913525E+04;
  6.8750799E-01;  9.9999998E-03; -2.8004789E-01;6596; -1.8114160E-01;  0.0000000E+00;  3.8528457E-04;  9.9559113E+02;  1.1035372E-01; -3.6526670E+03;3; -2.7554119E+00;  0.0000000E+00; -1.2026608E+00;0; -1.9003534E-01;  3.2567592E+04;  0.0000000E+00; -1.0749314E+01;  4.0000000E+04;  0.0000000E+00;  3.9963156E+04; -2.2705939E-01;  0.0000000E+00;  3.7024058E-02;  1.9093734E+04;
  6.9926506E-01;  9.9999998E-03; -3.0012935E-01;6655; -1.8126734E-01;  0.0000000E+00;  1.4864472E-03;  9.9438849E+02;  1.1310507E-01; -4.6490234E+03;3; -4.4319930E+00;  0.0000000E+00; -2.4823465E+00;0; -1.9455852E-01;  3.0943863E+04;  0.0000000E+00; -1.4203512E+01;  4.0000000E+04;  0.0000000E+00;  3.9948785E+04; -2.3075360E-01;  0.0000000E+00;  3.6195081E-02;  2.6389904E+04;
  6.9916904E-01;  9.9999998E-03; -2.9011270E-01;6656; -1.8278959E-01;  0.0000000E+00;  1.4246576E-03;  9.9434479E+02;  1.1308472E-01; -4.6852197E+03;3; -3.7774727E+00;  0.0000000E+00; -2.2190149E+00;0; -1.9002849E-01;  3.0945246E+04;  0.0000000E+00; -1.2191175E+01;  4.0000000E+04;  0.0000000E+00;  3.9955309E+04; -2.2939254E-01;  0.0000000E+00;  3.9364055E-02;  2.3081146E+04;
  6.9899660E-01;  9.9999998E-03; -2.8009361E-01;6657; -1.8396690E-01;  0.0000000E+00;  1.4566586E-03;  9.9437018E+02;  1.1304853E-01; -4.6641836E+03;3; -3.1044834E+00;  0.0000000E+00; -1.9796182E+00;0; -1.8919200E-01;  3.0958436E+04;  0.0000000E+00; -9.6175737E+00;  4.0000000E+04;  0.0000000E+00;  3.9963297E+04; -2.2805227E-01;  0.0000000E+00;  3.8860280E-02;  1.8949473E+04;
  7.1171618E-01;  9.9999998E-03; -3.0019540E-01;6716; -1.8514766E-01;  0.0000000E+00;  2.7632406E-03;  9.9316064E+02;  1.1634472E-01; -5.6662153E+03;3; -4.8696594E+00;  0.0000000E+00; -3.3666878E+00;0; -1.7676288E-01;  2.9182486E+04;  0.0000000E+00; -1.1186357E+01;  4.0000000E+04;  0.0000000E+00;  3.9942352E+04; -2.1527606E-01;  0.0000000E+00;  3.8513187E-02;  2.3258662E+04;
  7.1168721E-01;  9.9999998E-03; -2.9017648E-01;6717; -1.8652891E-01;  0.0000000E+00;  2.7331789E-03;  9.9311206E+02;  1.1632753E-01; -5.7064609E+03;3; -4.2068958E+00;  0.0000000E+00; -3.1018457E+00;0; -1.7225528E-01;  2.9180350E+04;  0.0000000E+00; -9.3937435E+00;  4.0000000E+04;  0.0000000E+00;  3.9950953E+04; -2.1308704E-01;  0.0000000E+00;  4.0831760E-02;  2.0391969E+04;
  7.1155530E-01;  9.9999998E-03; -2.8015393E-01;6718; -1.8760818E-01;  0.0000000E+00;  2.8533349E-03;  9.9310205E+02;  1.1628661E-01; -5.7147568E+03;3; -3.5141897E+00;  0.0000000E+00; -2.8071253E+00;0; -1.7280301E-01;  2.9191211E+04;  0.0000000E+00; -7.2515287E+00;  4.0000000E+04;  0.0000000E+00;  3.9961551E+04; -2.1128407E-01;  0.0000000E+00;  3.8481049E-02;  1.7244355E+04;
  7.2320879E-01;  9.9999998E-03; -3.0026510E-01;6777; -1.8942553E-01;  0.0000000E+00;  4.2232806E-03;  9.9200446E+02;  1.1963852E-01; -6.6240967E+03;3; -5.2952485E+00;  0.0000000E+00; -4.0689769E+00;0; -1.3557744E-01;  2.7542807E+04;  0.0000000E+00; -1.1840583E+01;  4.0000000E+04;  0.0000000E+00;  3.9935973E+04; -1.7287859E-01;  0.0000000E+00;  3.7301145E-02;  2.6152873E+04;
  7.2338158E-01;  9.9999998E-03; -2.9024595E-01;6778; -1.9060212E-01;  0.0000000E+00;  4.2156386E-03;  9.9201648E+02;  1.1966560E-01; -6.6141221E+03;3; -4.6375237E+00;  0.0000000E+00; -3.8718963E+00;0; -1.3000795E-01;  2.7523449E+04;  0.0000000E+00; -9.8635683E+00;  4.0000000E+04;  0.0000000E+00;  3.9944977E+04; -1.6930832E-01;  0.0000000E+00;  3.9300367E-02;  2.2922785E+04;
  7.2347772E-01;  9.9999998E-03; -2.8022268E-01;6779; -1.9156632E-01;  0.0000000E+00;  4.4401730E-03;  9.9203223E+02;  1.1967390E-01; -6.6010854E+03;3; -3.9480078E+00;  0.0000000E+00; -3.6406968E+00;0; -1.3105844E-01;  2.7511727E+04;  0.0000000E+00; -7.4416151E+00;  4.0000000E+04;  0.0000000E+00;  3.9956324E+04; -1.6646354E-01;  0.0000000E+00;  3.5405096E-02;  1.9335029E+04;
  7.3454952E-01;  9.9999998E-03; -3.0033791E-01;6838; -1.9433871E-01;  0.0000000E+00;  5.9717973E-03;  9.9065210E+02;  1.2304461E-01; -7.7444858E+03;3; -5.7525363E+00;  0.0000000E+00; -4.7644520E+00;0; -6.1799422E-02;  2.5975916E+04;  0.0000000E+00; -9.3699064E+00;  4.0000000E+04;  0.0000000E+00;  3.9931414E+04; -9.4488658E-02;  0.0000000E+00;  3.2689236E-02;  2.3064768E+04;
  7.3478574E-01;  9.9999998E-03; -2.9031834E-01;6839; -1.9506913E-01;  0.0000000E+00;  5.9921681E-03;  9.9076642E+02;  1.2308550E-01; -7.6497729E+03;3; -5.0828967E+00;  0.0000000E+00; -4.5708966E+00;0; -5.5726547E-02;  2.5957672E+04;  0.0000000E+00; -8.1516619E+00;  4.0000000E+04;  0.0000000E+00;  3.9940035E+04; -9.0015002E-02;  0.0000000E+00;  3.4288455E-02;  2.1349564E+04;
  7.3494720E-01;  9.9999998E-03; -2.8029433E-01;6840; -1.9575237E-01;  0.0000000E+00;  6.2648822E-03;  9.9086072E+02;  1.2311079E-01; -7.5716523E+03;3; -4.3886003E+00;  0.0000000E+00; -4.3943725E+00;0; -5.6792174E-02;  2.5944299E+04;  0.0000000E+00; -6.3711700E+00;  4.0000000E+04;  0.0000000E+00;  3.9950719E+04; -8.6675100E-02;  0.0000000E+00;  2.9882926E-02;  1.9111959E+04;
  7.4690729E-01;  9.9999998E-03; -3.0042198E-01;6899; -2.0005913E-01;  0.0000000E+00;  8.2354257E-03;  9.8939398E+02;  1.2685165E-01; -8.7867461E+03;3; -6.2803049E+00;  0.0000000E+00; -5.4349122E+00;0;  6.5580443E-02;  2.4387379E+04;  0.0000000E+00; -1.0654446E+00;  4.0000000E+04;  0.0000000E+00;  3.9923766E+04;  4.0753152E-02;  0.0000000E+00;  2.4827294E-02;  1.2144802E+04;
  7.4709129E-01;  9.9999998E-03; -2.9040152E-01;6900; -2.0008951E-01;  0.0000000E+00;  8.2496339E-03;  9.8961694E+02;  1.2687095E-01; -8.6020625E+03;3; -5.5880284E+00;  0.0000000E+00; -5.2451248E+00;0;  7.1086623E-02;  2.4385174E+04;  0.0000000E+00; -1.8510315E+00;  4.0000000E+04;  0.0000000E+00;  3.9931156E+04;  4.4321034E-02;  0.0000000E+00;  2.6765591E-02;  1.3573664E+04;
  7.4720478E-01;  9.9999998E-03; -2.8037697E-01;6901; -2.0031741E-01;  0.0000000E+00;  8.4816162E-03;  9.8980743E+02;  1.2687722E-01; -8.4442412E+03;3; -4.8815517E+00;  0.0000000E+00; -5.0631528E+00;0;  7.0034966E-02;  2.4385832E+04;  0.0000000E+00; -2.0463638E+00;  4.0000000E+04;  0.0000000E+00;  3.9940070E+04;  4.6503726E-02;  0.0000000E+00;  2.3531239E-02;  1.4728818E+04;
  7.5974607E-01;  9.9999998E-03; -3.0051932E-01;6960; -2.0565744E-01;  0.0000000E+00;  1.0844720E-02;  9.8917603E+02;  1.3083704E-01; -8.9673057E+03;3; -6.8662066E+00;  0.0000000E+00; -5.9208298E+00;0;  2.5809807E-01;  2.2928111E+04;  0.0000000E+00;  8.6512327E+00;  4.0000000E+04;  0.0000000E+00;  3.9903129E+04;  2.4020988E-01;  0.0000000E+00;  1.7888192E-02;  2.2870582E+04;
  7.5997257E-01;  9.9999998E-03; -2.9049948E-01;6961; -2.0503666E-01;  0.0000000E+00;  1.0760761E-02;  9.8949280E+02;  1.3086683E-01; -8.7048975E+03;3; -6.1438680E+00;  0.0000000E+00; -5.7793698E+00;0;  2.6561096E-01;  2.2928219E+04;  0.0000000E+00;  5.5118909E+00;  4.0000000E+04;  0.0000000E+00;  3.9908492E+04;  2.4303992E-01;  0.0000000E+00;  2.2571044E-02;  1.7579637E+04;
  7.6014161E-01;  9.9999998E-03; -2.8047690E-01;6962; -2.0481506E-01;  0.0000000E+00;  1.0841355E-02;  9.8977405E+02;  1.3088636E-01; -8.4718701E+03;3; -5.4092674E+00;  0.0000000E+00; -5.6844559E+00;0;  2.6743710E-01;  2.2930387E+04;  0.0000000E+00;  3.1042717E+00;  4.0000000E+04;  0.0000000E+00;  3.9914148E+04;  2.4469754E-01;  0.0000000E+00;  2.2739546E-02;  1.4778111E+04;
  7.7414870E-01;  9.9999998E-03; -3.0064619E-01;7021; -2.1076626E-01;  0.0000000E+00;  1.3726816E-02;  9.9146729E+02;  1.3525079E-01; -7.0690420E+03;3; -7.5138478E+00;  0.0000000E+00; -6.5257554E+00;0;  5.5096501E-01;  2.1577688E+04;  0.0000000E+00;  1.2265983E+01;  4.0000000E+04;  0.0000000E+00;  3.9851445E+04;  5.3046733E-01;  0.0000000E+00;  2.0497667E-02;  3.2900246E+04;
  7.7424365E-01;  9.9999998E-03; -2.9062644E-01;7022; -2.0957553E-01;  0.0000000E+00;  1.3368504E-02;  9.9178467E+02;  1.3524710E-01; -6.8060918E+03;3; -6.7711239E+00;  0.0000000E+00; -6.4625773E+00;0;  5.5936533E-01;  2.1589953E+04;  0.0000000E+00;  8.3872404E+00;  4.0000000E+04;  0.0000000E+00;  3.9855594E+04;  5.2815008E-01;  0.0000000E+00;  3.1215232E-02;  2.3690502E+04;
  7.7428395E-01;  9.9999998E-03; -2.8060687E-01;7023; -2.0892753E-01;  0.0000000E+00;  1.3092711E-02;  9.9207233E+02;  1.3523465E-01; -6.5677822E+03;3; -5.9915252E+00;  0.0000000E+00; -6.4546647E+00;0;  5.6252515E-01;  2.1604582E+04;  0.0000000E+00;  5.2107320E+00;  4.0000000E+04;  0.0000000E+00;  3.9858684E+04;  5.2512759E-01;  0.0000000E+00;  3.7397549E-02;  1.6482719E+04;
  7.9004943E-01;  9.9999998E-03; -3.0079815E-01;7082; -2.1522775E-01;  0.0000000E+00;  1.6059816E-02;  9.9657776E+02;  1.3994688E-01; -2.8352061E+03;3; -8.2156086E+00;  0.0000000E+00; -7.1958833E+00;0;  9.6235430E-01;  2.0388510E+04;  0.0000000E+00;  7.9580679E+00;  4.0000000E+04;  0.0000000E+00;  3.9766945E+04;  9.0904969E-01;  0.0000000E+00;  5.3304609E-02;  2.6310840E+04;
  7.8988111E-01;  9.9999998E-03; -2.9077876E-01;7083; -2.1330838E-01;  0.0000000E+00;  1.5522291E-02;  9.9678040E+02;  1.3987362E-01; -2.6673142E+03;3; -7.3610120E+00;  0.0000000E+00; -7.2183442E+00;0;  9.6635211E-01;  2.0416725E+04;  0.0000000E+00;  5.3971696E+00;  4.0000000E+04;  0.0000000E+00;  3.9770160E+04;  8.9757568E-01;  0.0000000E+00;  6.8776414E-02;  1.8495631E+04;
  7.8964859E-01;  9.9999998E-03; -2.8076282E-01;7084; -2.1222930E-01;  0.0000000E+00;  1.4840604E-02;  9.9693402E+02;  1.3978963E-01; -2.5400618E+03;3; -6.5245805E+00;  0.0000000E+00; -7.3205833E+00;0;  9.6618479E-01;  2.0446715E+04;  0.0000000E+00;  3.4069893E+00;  4.0000000E+04;  0.0000000E+00;  3.9772863E+04;  8.8567787E-01;  0.0000000E+00;  8.0506921E-02;  1.2118077E+04;
  8.0570734E-01;  9.9999998E-03; -3.0092877E-01;7143; -2.1696270E-01;  0.0000000E+00;  1.7299302E-02;  1.0017313E+03;  1.4407259E-01;  1.4342839E+03;3; -9.0490389E+00;  0.0000000E+00; -7.8306160E+00;0;  1.4101681E+00;  1.9454707E+04;  0.0000000E+00;  5.5639501E+00;  4.0000000E+04;  0.0000000E+00;  3.9691914E+04;  1.2888029E+00;  0.0000000E+00;  1.2136520E-01;  2.3567479E+04;
  8.0570817E-01;  9.9999998E-03; -2.9091507E-01;7144; -2.1503642E-01;  0.0000000E+00;  1.6808014E-02;  1.0020396E+03;  1.4404874E-01;  1.6897747E+03;3; -7.9699025E+00;  0.0000000E+00; -7.9392877E+00;0;  1.4232875E+00;  1.9473639E+04;  0.0000000E+00;  3.0524015E+00;  4.0000000E+04;  0.0000000E+00;  3.9688961E+04;  1.2817796E+00;  0.0000000E+00;  1.4150785E-01;  1.6258871E+04;
  8.0550700E-01;  9.9999998E-03; -2.8090683E-01;7145; -2.1390051E-01;  0.0000000E+00;  1.5898880E-02;  1.0022298E+03;  1.4398450E-01;  1.8472963E+03;3; -7.0577831E+00;  0.0000000E+00; -8.1631336E+00;0;  1.4282337E+00;  1.9499426E+04;  0.0000000E+00;  1.5517132E+00;  4.0000000E+04;  0.0000000E+00;  3.9688008E+04;  1.2708266E+00;  0.0000000E+00;  1.5740721E-01;  1.1800663E+04;
  8.2024735E-01;  9.9999998E-03; -3.0100757E-01;7204; -2.1404596E-01;  0.0000000E+00;  1.8141966E-02;  1.0046753E+03;  1.4702268E-01;  3.8732180E+03;3; -9.5183229E+00;  0.0000000E+00; -8.1159573E+00;0;  1.7728318E+00;  1.8797416E+04;  0.0000000E+00;  3.8910832E+00;  4.0000000E+04;  0.0000000E+00;  3.9656234E+04;  1.5687202E+00;  0.0000000E+00;  2.0411156E-01;  1.8334537E+04;
  8.2017624E-01;  9.9999998E-03; -2.9099503E-01;7205; -2.1273850E-01;  0.0000000E+00;  1.7789287E-02;  1.0049309E+03;  1.4699824E-01;  4.0849565E+03;3; -8.3585815E+00;  0.0000000E+00; -8.3077221E+00;0;  1.7927579E+00;  1.8814695E+04;  0.0000000E+00;  2.5946679E+00;  4.0000000E+04;  0.0000000E+00;  3.9649738E+04;  1.5651637E+00;  0.0000000E+00;  2.2759411E-01;  1.5669233E+04;
  8.2001424E-01;  9.9999998E-03; -2.8099060E-01;7206; -2.1202078E-01;  0.0000000E+00;  1.6902536E-02;  1.0050701E+03;  1.4696750E-01;  4.2003076E+03;3; -7.5200181E+00;  0.0000000E+00; -8.9082451E+00;0;  1.8049282E+00;  1.8829939E+04;  0.0000000E+00;  1.8375827E+00;  4.0000000E+04;  0.0000000E+00;  3.9644926E+04;  1.5595464E+00;  0.0000000E+00;  2.4538186E-01;  1.4353892E+04;
  8.3370638E-01;  9.9999998E-03; -2.8100657E-01;7267; -1.4555350E-01;  0.0000000E+00;  2.6368394E-02;  1.0053038E+03;  1.4899580E-01;  4.3939336E+03;3; -2.1724205E+01;  0.0000000E+00; -6.4077373E+00;0;  1.9018046E+00;  1.8323438E+04;  0.0000000E+00;  2.8916810E+00;  4.0000000E+04;  0.0000000E+00;  3.9660527E+04;  1.6850553E+00;  0.0000000E+00;  2.1674934E-01;  1.2820361E+04;
  8.3385491E-01;  9.9999998E-03; -2.9102045E-01;7266; -1.2868388E-01;  0.0000000E+00;  2.9920565E-02;  1.0050269E+03;  1.4901550E-01;  4.1645186E+03;3; -2.1502756E+01;  0.0000000E+00; -8.5406075E+00;0;  1.8127599E+00;  1.8309447E+04;  0.0000000E+00;  3.9304008E+00;  4.0000000E+04;  0.0000000E+00;  3.9660562E+04;  1.6792814E+00;  0.0000000E+00;  1.3347857E-01;  1.5224692E+04;
  8.3400875E-01;  9.9999998E-03; -3.0103540E-01;7265; -1.1130849E-01;  0.0000000E+00;  3.1044804E-02;  1.0047437E+03;  1.4903855E-01;  3.9298696E+03;3; -2.1289886E+01;  0.0000000E+00; -1.0148085E+01;0;  1.7500436E+00;  1.8291809E+04;  0.0000000E+00;  5.2472692E+00;  4.0000000E+04;  0.0000000E+00;  3.9669309E+04;  1.6723981E+00;  0.0000000E+00;  7.7645548E-02;  1.7911211E+04;
  8.4771073E-01;  9.9999998E-03; -3.0105463E-01;7326; -2.0744903E-02;  0.0000000E+00;  4.1423712E-02;  1.0025388E+03;  1.5036978E-01;  2.1032217E+03;3;  1.5183585E+01;  0.0000000E+00; -1.2095602E+01;0;  1.6397640E+00;  1.7902420E+04;  0.0000000E+00;  5.3917942E+00;  4.0000000E+04;  0.0000000E+00;  3.9679586E+04;  1.6453391E+00;  0.0000000E+00; -5.5751936E-03;  1.6587107E+04;
  8.4754425E-01;  9.9999998E-03; -2.9103109E-01;7327; -1.8866230E-02;  0.0000000E+00;  3.7410472E-02;  1.0029617E+03;  1.5034539E-01;  2.4535120E+03;3;  1.5094414E+01;  0.0000000E+00; -8.5867786E+00;0;  1.7734126E+00;  1.7921139E+04;  0.0000000E+00;  4.0318551E+00;  4.0000000E+04;  0.0000000E+00;  3.9676527E+04;  1.6569935E+00;  0.0000000E+00;  1.1641902E-01;  1.3178954E+04;
  8.4734851E-01;  9.9999998E-03; -2.8100595E-01;7328; -1.9719802E-02;  0.0000000E+00;  2.9539365E-02;  1.0033711E+03;  1.5032339E-01;  2.7927419E+03;3;  1.5872951E+01;  0.0000000E+00; -6.6770782E+00;0;  1.9488733E+00;  1.7936238E+04;  0.0000000E+00;  3.1111126E+00;  4.0000000E+04;  0.0000000E+00;  3.9682145E+04;  1.6695951E+00;  0.0000000E+00;  2.7927819E-01;  1.0483784E+04;
  8.6159980E-01;  9.9999998E-03; -2.8099701E-01;7389; -1.4553675E-02;  0.0000000E+00;  3.2137044E-02;  1.0005203E+03;  1.5119720E-01;  4.3096829E+02;3;  2.1553360E+01;  0.0000000E+00; -8.6568985E+00;0;  1.8631593E+00;  1.7641359E+04;  0.0000000E+00;  1.9094119E+00;  4.0000000E+04;  0.0000000E+00;  3.9707922E+04;  1.5214058E+00;  0.0000000E+00;  3.4175345E-01;  5.8786162E+03;
  8.6171216E-01;  9.9999998E-03; -2.9102960E-01;7388; -1.3576201E-02;  0.0000000E+00;  3.5317644E-02;  1.0000981E+03;  1.5121518E-01;  8.1275635E+01;3;  2.3522903E+01;  0.0000000E+00; -9.5667124E+00;0;  1.7502400E+00;  1.7628066E+04;  0.0000000E+00;  2.4129164E+00;  4.0000000E+04;  0.0000000E+00;  3.9701789E+04;  1.5014967E+00;  0.0000000E+00;  2.4874330E-01;  7.8453125E+03;
  8.6176461E-01;  9.9999998E-03; -3.0105942E-01;7387; -1.2725697E-02;  0.0000000E+00;  3.6949698E-02;  9.9967926E+02;  1.5123551E-01; -2.6570120E+02;3;  2.4818045E+01;  0.0000000E+00; -1.0161230E+01;0;  1.6508663E+00;  1.7612504E+04;  0.0000000E+00;  3.2462471E+00;  4.0000000E+04;  0.0000000E+00;  3.9702539E+04;  1.4863528E+00;  0.0000000E+00;  1.6451347E-01;  1.0597525E+04;
  8.7705582E-01;  9.9999998E-03; -2.8098908E-01;7450; -1.4783599E-02;  0.0000000E+00;  3.4458008E-02;  9.9788525E+02;  1.5175261E-01; -1.7518859E+03;3;  2.4345201E+01;  0.0000000E+00; -6.6281767E+00;0;  1.6983596E+00;  1.7438680E+04;  0.0000000E+00;  8.2846856E-01;  4.0000000E+04;  0.0000000E+00;  3.9732496E+04;  1.3119202E+00;  0.0000000E+00;  3.8643947E-01;  3.9560439E+03;
  8.7701815E-01;  9.9999998E-03; -2.9102942E-01;7449; -1.3634028E-02;  0.0000000E+00;  3.6851600E-02;  9.9751300E+02;  1.5177023E-01; -2.0602437E+03;3;  2.6281141E+01;  0.0000000E+00; -6.6458621E+00;0;  1.5879645E+00;  1.7428875E+04;  0.0000000E+00;  9.3229014E-01;  4.0000000E+04;  0.0000000E+00;  3.9724543E+04;  1.2858649E+00;  0.0000000E+00;  3.0209956E-01;  4.0935410E+03;
  8.7686628E-01;  9.9999998E-03; -3.0106482E-01;7448; -1.2329876E-02;  0.0000000E+00;  3.7697785E-02;  9.9720203E+02;  1.5178528E-01; -2.3178425E+03;3;  2.8139755E+01;  0.0000000E+00; -7.0341139E+00;0;  1.4930354E+00;  1.7419182E+04;  0.0000000E+00;  9.0954286E-01;  4.0000000E+04;  0.0000000E+00;  3.9723027E+04;  1.2671381E+00;  0.0000000E+00;  2.2589727E-01;  4.6726162E+03;
  8.9295322E-01;  9.9999998E-03; -3.0107924E-01;7509; -1.4217708E-02;  0.0000000E+00;  3.8270567E-02;  9.9607233E+02;  1.5206768E-01; -3.2535972E+03;3;  3.0713551E+01;  0.0000000E+00; -4.4179363E+00;0;  1.3902838E+00;  1.7335943E+04;  0.0000000E+00;  7.2234493E-01;  4.0000000E+04;  0.0000000E+00;  3.9735078E+04;  1.1366227E+00;  0.0000000E+00;  2.5366122E-01;  4.5295522E+03;
  8.9316630E-01;  9.9999998E-03; -2.9103985E-01;7510; -1.5510006E-02;  0.0000000E+00;  3.7798192E-02;  9.9629303E+02;  1.5204953E-01; -3.0708079E+03;3;  2.8591570E+01;  0.0000000E+00; -4.4035292E+00;0;  1.4860383E+00;  1.7341682E+04;  0.0000000E+00;  8.6495644E-01;  4.0000000E+04;  0.0000000E+00;  3.9738855E+04;  1.1648666E+00;  0.0000000E+00;  3.2117179E-01;  4.9284312E+03;
  8.9320838E-01;  9.9999998E-03; -2.8099447E-01;7511; -1.6723942E-02;  0.0000000E+00;  3.6103293E-02;  9.9661670E+02;  1.5202853E-01; -2.8026497E+03;3;  2.6389420E+01;  0.0000000E+00; -4.3908505E+00;0;  1.5919735E+00;  1.7349299E+04;  0.0000000E+00;  6.7293394E-01;  4.0000000E+04;  0.0000000E+00;  3.9748188E+04;  1.1998328E+00;  0.0000000E+00;  3.9214072E-01;  5.5967690E+03;
  9.0926653E-01;  9.9999998E-03; -3.0110580E-01;7570; -1.6479179E-02;  0.0000000E+00;  3.7786346E-02;  9.9638776E+02;  1.5208580E-01; -2.9922041E+03;3;  3.3002907E+01;  0.0000000E+00; -1.3020399E+00;0;  1.4962652E+00;  1.7351791E+04;  0.0000000E+00;  1.5857096E+00;  4.0000000E+04;  0.0000000E+00;  3.9738137E+04;  1.2487384E+00;  0.0000000E+00;  2.4752674E-01;  6.3682852E+03;
  9.0943444E-01;  9.9999998E-03; -2.9106537E-01;7571; -1.7711161E-02;  0.0000000E+00;  3.7381712E-02;  9.9655591E+02;  1.5206766E-01; -2.8529194E+03;3;  3.0396944E+01;  0.0000000E+00; -1.4737451E+00;0;  1.5903614E+00;  1.7355291E+04;  0.0000000E+00;  1.2851692E+00;  4.0000000E+04;  0.0000000E+00;  3.9743023E+04;  1.2869058E+00;  0.0000000E+00;  3.0345565E-01;  6.2024990E+03;
  9.0943611E-01;  9.9999998E-03; -2.8101835E-01;7572; -1.8980764E-02;  0.0000000E+00;  3.6000293E-02;  9.9684576E+02;  1.5204506E-01; -2.6128145E+03;3;  2.7484043E+01;  0.0000000E+00; -1.6276613E+00;0;  1.6889790E+00;  1.7361199E+04;  0.0000000E+00;  9.0456527E-01;  4.0000000E+04;  0.0000000E+00;  3.9753219E+04;  1.3292103E+00;  0.0000000E+00;  3.5976878E-01;  6.6795161E+03;
  9.2610937E-01;  9.9999998E-03; -3.0114293E-01;7631; -1.8739210E-02;  0.0000000E+00;  3.6625821E-02;  9.9755640E+02;  1.5185273E-01; -2.0240924E+03;3;  3.5182510E+01;  0.0000000E+00;  2.3246872E+00;0;  1.9077098E+00;  1.7438252E+04;  0.0000000E+00;  2.1666059E+00;  4.0000000E+04;  0.0000000E+00;  3.9735684E+04;  1.7150493E+00;  0.0000000E+00;  1.9266054E-01;  8.4939580E+03;
  9.2610639E-01;  9.9999998E-03; -2.9110339E-01;7632; -1.9954827E-02;  0.0000000E+00;  3.5848357E-02;  9.9773077E+02;  1.5183675E-01; -1.8796307E+03;3;  3.2237209E+01;  0.0000000E+00;  2.0441380E+00;0;  1.9926600E+00;  1.7441633E+04;  0.0000000E+00;  1.5986528E+00;  4.0000000E+04;  0.0000000E+00;  3.9741137E+04;  1.7543122E+00;  0.0000000E+00;  2.3834792E-01;  7.4897339E+03;
  9.2597425E-01;  9.9999998E-03; -2.8105798E-01;7633; -2.1429073E-02;  0.0000000E+00;  3.5724603E-02;  9.9800586E+02;  1.5181808E-01; -1.6517809E+03;3;  2.9290915E+01;  0.0000000E+00;  4.9156302E-01;0;  2.0577679E+00;  1.7446967E+04;  0.0000000E+00;  1.1986613E+00;  4.0000000E+04;  0.0000000E+00;  3.9751070E+04;  1.7964398E+00;  0.0000000E+00;  2.6132804E-01;  7.4396421E+03;
  9.4283265E-01;  9.9999998E-03; -3.0118161E-01;7692; -2.1229856E-02;  0.0000000E+00;  3.7919044E-02;  9.9869550E+02;  1.5136062E-01; -1.0804895E+03;3;  3.7173584E+01;  0.0000000E+00;  2.9419680E+00;0;  2.5992165E+00;  1.7569494E+04;  0.0000000E+00;  1.1741564E-01;  4.0000000E+04;  0.0000000E+00;  3.9731539E+04;  2.5649972E+00;  0.0000000E+00;  3.4219187E-02;  4.6330469E+03;
  9.4271916E-01;  9.9999998E-03; -2.9114521E-01;7693; -2.2536803E-02;  0.0000000E+00;  3.8126674E-02;  9.9896075E+02;  1.5135086E-01; -8.6079797E+02;3;  3.4042961E+01;  0.0000000E+00;  2.0762279E+00;0;  2.6436734E+00;  1.7575844E+04;  0.0000000E+00;  3.4215850E-01;  4.0000000E+04;  0.0000000E+00;  3.9736801E+04;  2.5973451E+00;  0.0000000E+00;  4.6328273E-02;  5.3676577E+03;
  9.4249696E-01;  9.9999998E-03; -2.8110862E-01;7694; -2.4068788E-02;  0.0000000E+00;  4.1890141E-02;  9.9920923E+02;  1.5134068E-01; -6.5497913E+02;3;  3.0731764E+01;  0.0000000E+00;  2.3889782E+00;0;  2.6383386E+00;  1.7582090E+04;  0.0000000E+00;  6.7275119E-01;  4.0000000E+04;  0.0000000E+00;  3.9740512E+04;  2.6319680E+00;  0.0000000E+00;  6.3705891E-03;  6.0536177E+03;
  9.5815969E-01;  9.9999998E-03; -3.0121610E-01;7753; -2.1912884E-02;  0.0000000E+00;  5.0057013E-02;  9.9823712E+02;  1.5061122E-01; -1.4600428E+03;3;  3.9508389E+01;  0.0000000E+00;  7.6470089E+00;0;  3.2758229E+00;  1.7706678E+04;  0.0000000E+00;  1.4063108E+00;  4.0000000E+04;  0.0000000E+00;  3.9722395E+04;  3.6256533E+00;  0.0000000E+00; -3.4983030E-01;  8.3434600E+03;
  9.5799726E-01;  9.9999998E-03; -2.9119316E-01;7754; -2.4031525E-02;  0.0000000E+00;  5.1592775E-02;  9.9853430E+02;  1.5060776E-01; -1.2139059E+03;3;  3.5763683E+01;  0.0000000E+00;  9.9014626E+00;0;  3.2861147E+00;  1.7718943E+04;  0.0000000E+00;  1.3133184E+00;  4.0000000E+04;  0.0000000E+00;  3.9714371E+04;  3.6496584E+00;  0.0000000E+00; -3.6354378E-01;  7.1598755E+03;
  9.5774078E-01;  9.9999998E-03; -2.8117853E-01;7755; -2.6270855E-02;  0.0000000E+00;  5.3406820E-02;  9.9868408E+02;  1.5060802E-01; -1.0898508E+03;3;  3.1367733E+01;  0.0000000E+00;  1.3466241E+01;0;  3.3178389E+00;  1.7729004E+04;  0.0000000E+00;  1.2852219E+00;  4.0000000E+04;  0.0000000E+00;  3.9699238E+04;  3.6747398E+00;  0.0000000E+00; -3.5690102E-01;  6.2849766E+03;
  9.7253430E-01;  9.9999998E-03; -3.0122900E-01;7814; -2.5576744E-02;  0.0000000E+00;  5.0789244E-02;  9.9647968E+02;  1.4961489E-01; -2.9153728E+03;3;  3.8096928E+01;  0.0000000E+00;  1.1965739E+01;0;  4.1431947E+00;  1.7856998E+04;  0.0000000E+00;  2.7492862E+00;  4.0000000E+04;  0.0000000E+00;  3.9731609E+04;  4.7081766E+00;  0.0000000E+00; -5.6498212E-01;  1.1421056E+04;
  9.7237688E-01;  9.9999998E-03; -2.9121521E-01;7815; -2.6439980E-02;  0.0000000E+00;  5.2123293E-02;  9.9685040E+02;  1.4961603E-01; -2.6083430E+03;3;  3.3875515E+01;  0.0000000E+00;  1.5700359E+01;0;  4.1395092E+00;  1.7875000E+04;  0.0000000E+00;  2.3076129E+00;  4.0000000E+04;  0.0000000E+00;  3.9714332E+04;  4.7275238E+00;  0.0000000E+00; -5.8801442E-01;  9.1682900E+03;
  9.7211868E-01;  9.9999998E-03; -2.8121403E-01;7816; -2.7315354E-02;  0.0000000E+00;  5.2862264E-02;  9.9701361E+02;  1.4962536E-01; -2.4731934E+03;3;  2.9234325E+01;  0.0000000E+00;  1.9209023E+01;0;  4.1754193E+00;  1.7889633E+04;  0.0000000E+00;  1.8975300E+00;  4.0000000E+04;  0.0000000E+00;  3.9687133E+04;  4.7438188E+00;  0.0000000E+00; -5.6839949E-01;  7.7234824E+03;
  9.8607999E-01;  9.9999998E-03; -3.0121559E-01;7875;  1.1399143E-02;  0.0000000E+00;  3.5819083E-02;  9.9425812E+02;  1.4840457E-01; -4.7547778E+03;3; -1.6600744E+01;  0.0000000E+00;  1.5299870E+01;0;  5.0693293E+00;  1.8046139E+04;  0.0000000E+00;  2.5397179E+00;  4.0000000E+04;  0.0000000E+00;  3.9764484E+04;  5.5948491E+00;  0.0000000E+00; -5.2552003E-01;  1.0678480E+04;
  9.8597658E-01;  9.9999998E-03; -2.9120392E-01;7876;  2.6439270E-02;  0.0000000E+00;  3.5764344E-02;  9.9470721E+02;  1.4840746E-01; -4.3828706E+03;3; -1.8078024E+01;  0.0000000E+00;  1.7694950E+01;0;  5.0640044E+00;  1.8068443E+04;  0.0000000E+00;  2.2489271E+00;  4.0000000E+04;  0.0000000E+00;  3.9744156E+04;  5.6144400E+00;  0.0000000E+00; -5.5043566E-01;  8.4771738E+03;
  9.8581737E-01;  9.9999998E-03; -2.8120339E-01;7877;  3.8807865E-02;  0.0000000E+00;  3.5716731E-02;  9.9497803E+02;  1.4841908E-01; -4.1586431E+03;3; -1.9635105E+01;  0.0000000E+00;  2.1013056E+01;0;  5.0797682E+00;  1.8087994E+04;  0.0000000E+00;  1.9025230E+00;  4.0000000E+04;  0.0000000E+00;  3.9714625E+04;  5.6294208E+00;  0.0000000E+00; -5.4965270E-01;  6.1659194E+03;
  9.9931508E-01;  9.9999998E-03; -2.8118491E-01;7938;  2.5942186E-01;  0.0000000E+00;  1.5677076E-02;  9.9281732E+02;  1.4702359E-01; -5.9472295E+03;3; -4.4634735E+01;  0.0000000E+00;  2.0901293E+01;0;  5.7588286E+00;  1.8345084E+04;  0.0000000E+00;  1.3649764E+00;  4.0000000E+04;  0.0000000E+00;  3.9738289E+04;  6.2536569E+00;  0.0000000E+00; -4.9482813E-01;  5.6220576E+03;
  9.9944985E-01;  9.9999998E-03; -2.9118964E-01;7937;  2.5138569E-01;  0.0000000E+00;  1.7297836E-02;  9.9239911E+02;  1.4701185E-01; -6.2935288E+03;3; -4.5095951E+01;  0.0000000E+00;  1.8682894E+01;0;  5.7549253E+00;  1.8320924E+04;  0.0000000E+00;  1.3830466E+00;  4.0000000E+04;  0.0000000E+00;  3.9765488E+04;  6.2479343E+00;  0.0000000E+00; -4.9300891E-01;  8.3938105E+03;
  9.9952239E-01;  9.9999998E-03; -3.0120313E-01;7936;  2.4096930E-01;  0.0000000E+00;  1.8975420E-02;  9.9186816E+02;  1.4700824E-01; -6.7331567E+03;3; -4.5420181E+01;  0.0000000E+00;  1.7045620E+01;0;  5.7588425E+00;  1.8295807E+04;  0.0000000E+00;  1.3209802E+00;  4.0000000E+04;  0.0000000E+00;  3.9784621E+04;  6.2342329E+00;  0.0000000E+00; -4.7539020E-01;  1.0526473E+04;
  1.0134145E+00;  9.9999998E-03; -2.8116146E-01;7999;  4.4293973E-01;  0.0000000E+00; -3.6046463E-03;  9.9130609E+02;  1.4543252E-01; -7.1975762E+03;3; -7.3931030E+01;  0.0000000E+00;  1.8828650E+01;0;  6.0667739E+00;  1.8695602E+04;  0.0000000E+00;  4.5150641E-01;  4.0000000E+04;  0.0000000E+00;  3.9754457E+04;  6.5280895E+00;  0.0000000E+00; -4.6131578E-01;  6.1965747E+03;
  1.0135770E+00;  9.9999998E-03; -2.9116988E-01;7998;  4.3757096E-01;  0.0000000E+00; -1.1284611E-03;  9.9078937E+02;  1.4542021E-01; -7.6253418E+03;3; -7.6860168E+01;  0.0000000E+00;  1.7324097E+01;0;  6.0774527E+00;  1.8667717E+04;  0.0000000E+00;  5.2933866E-01;  4.0000000E+04;  0.0000000E+00;  3.9781289E+04;  6.5347977E+00;  0.0000000E+00; -4.5734477E-01;  9.5814463E+03;
  1.0136890E+00;  9.9999998E-03; -3.0118603E-01;7997;  4.3304846E-01;  0.0000000E+00;  1.4111145E-03;  9.9021985E+02;  1.4541346E-01; -8.0968296E+03;3; -7.9597328E+01;  0.0000000E+00;  1.6226547E+01;0;  6.0932560E+00;  1.8641494E+04;  0.0000000E+00;  6.6431683E-01;  4.0000000E+04;  0.0000000E+00;  3.9799609E+04;  6.5360174E+00;  0.0000000E+00; -4.4276145E-01;  1.1986992E+04;
  1.0286144E+00;  9.9999998E-03; -2.8114292E-01;8060;  5.6598568E-01;  0.0000000E+00; -2.0510582E-02;  9.9135962E+02;  1.4359541E-01; -7.1519473E+03;3; -1.0136503E+02;  0.0000000E+00;  1.5572574E+01;0;  5.8980670E+00;  1.9197494E+04;  0.0000000E+00; -5.3106469E-01;  4.0000000E+04;  0.0000000E+00;  3.9751066E+04;  6.3664160E+00;  0.0000000E+00; -4.6834889E-01;  5.2343628E+03;
  1.0287801E+00;  9.9999998E-03; -2.9115525E-01;8059;  5.5895746E-01;  0.0000000E+00; -1.7318888E-02;  9.9080139E+02;  1.4358401E-01; -7.6139683E+03;3; -1.0643340E+02;  0.0000000E+00;  1.4221177E+01;0;  5.9085741E+00;  1.9167863E+04;  0.0000000E+00;  4.8771091E-03;  4.0000000E+04;  0.0000000E+00;  3.9777020E+04;  6.3838549E+00;  0.0000000E+00; -4.7528076E-01;  8.5262207E+03;
  1.0289154E+00;  9.9999998E-03; -3.0117479E-01;8058;  5.5425853E-01;  0.0000000E+00; -1.4115664E-02;  9.9025739E+02;  1.4357561E-01; -8.0642485E+03;3; -1.1131190E+02;  0.0000000E+00;  1.3102087E+01;0;  5.9274273E+00;  1.9142502E+04;  0.0000000E+00;  8.0958855E-01;  4.0000000E+04;  0.0000000E+00;  3.9794391E+04;  6.3986759E+00;  0.0000000E+00; -4.7124872E-01;  1.1372329E+04;
  1.0453569E+00;  9.9999998E-03; -2.8113794E-01;8121;  6.3482052E-01;  0.0000000E+00; -4.1412216E-02;  9.9397620E+02;  1.4139159E-01; -4.9848311E+03;3; -1.1879152E+02;  0.0000000E+00;  1.2154947E+01;0;  5.3892746E+00;  1.9937695E+04;  0.0000000E+00; -1.1074606E+00;  4.0000000E+04;  0.0000000E+00;  3.9716262E+04;  5.8000307E+00;  0.0000000E+00; -4.1075620E-01;  2.0964561E+03;
  1.0455775E+00;  9.9999998E-03; -2.9115394E-01;8120;  6.2375647E-01;  0.0000000E+00; -3.7945941E-02;  9.9348132E+02;  1.4137472E-01; -5.3942983E+03;3; -1.2493690E+02;  0.0000000E+00;  1.1067273E+01;0;  5.4051652E+00;  1.9913143E+04;  0.0000000E+00; -3.3658674E-01;  4.0000000E+04;  0.0000000E+00;  3.9739379E+04;  5.8306017E+00;  0.0000000E+00; -4.2543650E-01;  2.9636509E+03;
  1.0458268E+00;  9.9999998E-03; -3.0117661E-01;8119;  6.1541903E-01;  0.0000000E+00; -3.4626517E-02;  9.9306055E+02;  1.4135329E-01; -5.7424990E+03;3; -1.3084517E+02;  0.0000000E+00;  1.0284147E+01;0;  5.4276781E+00;  1.9895783E+04;  0.0000000E+00;  7.6978147E-01;  4.0000000E+04;  0.0000000E+00;  3.9755477E+04;  5.8566780E+00;  0.0000000E+00; -4.2899993E-01;  5.9845142E+03;
  1.0615730E+00;  9.9999998E-03; -2.8113461E-01;8182;  6.9948244E-01;  0.0000000E+00; -6.8258815E-02;  9.9867108E+02;  1.3893490E-01; -1.0993770E+03;3; -1.2108086E+02;  0.0000000E+00;  8.8331385E+00;0;  4.8244901E+00;  2.0872205E+04;  0.0000000E+00; -2.1253030E+00;  4.0000000E+04;  0.0000000E+00;  3.9670582E+04;  5.0359597E+00;  0.0000000E+00; -2.1146949E-01;  8.0245317E+03;
  1.0618979E+00;  9.9999998E-03; -2.9115695E-01;8181;  6.8718344E-01;  0.0000000E+00; -6.3720934E-02;  9.9827087E+02;  1.3890415E-01; -1.4304224E+03;3; -1.2852344E+02;  0.0000000E+00;  8.9220390E+00;0;  4.8436332E+00;  2.0859373E+04;  0.0000000E+00; -2.2399220E+00;  4.0000000E+04;  0.0000000E+00;  3.9685570E+04;  5.0801978E+00;  0.0000000E+00; -2.3656477E-01;  6.8736885E+03;
  1.0622336E+00;  9.9999998E-03; -3.0118406E-01;8180;  6.7671943E-01;  0.0000000E+00; -5.9672743E-02;  9.9793665E+02;  1.3886933E-01; -1.7068789E+03;3; -1.3535338E+02;  0.0000000E+00;  8.7334576E+00;0;  4.8622212E+00;  2.0851287E+04;  0.0000000E+00; -2.0995080E+00;  4.0000000E+04;  0.0000000E+00;  3.9697902E+04;  5.1179709E+00;  0.0000000E+00; -2.5574970E-01;  5.8407700E+03;
  1.0759356E+00;  9.9999998E-03; -2.8112248E-01;8243;  7.6667202E-01;  0.0000000E+00; -9.0055354E-02;  1.0032481E+03;  1.3645625E-01;  2.6860505E+03;3; -1.0925866E+02;  0.0000000E+00;  4.6785436E+00;0;  4.2367873E+00;  2.1850789E+04;  0.0000000E+00; -3.4623444E+00;  4.0000000E+04;  0.0000000E+00;  3.9633848E+04;  4.2509427E+00;  0.0000000E+00; -1.4155192E-02;  1.4069490E+04;
  1.0763260E+00;  9.9999998E-03; -2.9115048E-01;8242;  7.5555825E-01;  0.0000000E+00; -8.4863439E-02;  1.0029297E+03;  1.3641134E-01;  2.4228120E+03;3; -1.1643133E+02;  0.0000000E+00;  5.4965506E+00;0;  4.2612171E+00;  2.1849441E+04;  0.0000000E+00; -4.2681522E+00;  4.0000000E+04;  0.0000000E+00;  3.9641387E+04;  4.3051934E+00;  0.0000000E+00; -4.3976173E-02;  1.4573675E+04;
  1.0767337E+00;  9.9999998E-03; -3.0118152E-01;8241;  7.4562019E-01;  0.0000000E+00; -8.0380797E-02;  1.0026171E+03;  1.3636327E-01;  2.1642109E+03;3; -1.2304561E+02;  0.0000000E+00;  6.2075167E+00;0;  4.2754908E+00;  2.1849129E+04;  0.0000000E+00; -4.4941630E+00;  4.0000000E+04;  0.0000000E+00;  3.9649863E+04;  4.3497233E+00;  0.0000000E+00; -7.4232668E-02;  1.4480950E+04;
  1.0888464E+00;  9.9999998E-03; -2.8109786E-01;8304;  8.3624703E-01;  0.0000000E+00; -1.0425757E-01;  1.0064624E+03;  1.3404562E-01;  5.3421143E+03;3; -8.2357216E+01;  0.0000000E+00;  8.7074566E-01;0;  3.6300206E+00;  2.2791830E+04;  0.0000000E+00; -4.3324552E+00;  4.0000000E+04;  0.0000000E+00;  3.9612902E+04;  3.4999778E+00;  0.0000000E+00;  1.3004273E-01;  1.7486758E+04;
  1.0890727E+00;  9.9999998E-03; -2.9113039E-01;8303;  8.2844466E-01;  0.0000000E+00; -9.8880515E-02;  1.0061588E+03;  1.3401945E-01;  5.0910864E+03;3; -8.8978012E+01;  0.0000000E+00;  1.9729546E+00;0;  3.6680176E+00;  2.2787996E+04;  0.0000000E+00; -4.3712249E+00;  4.0000000E+04;  0.0000000E+00;  3.9615754E+04;  3.5697141E+00;  0.0000000E+00;  9.8303527E-02;  1.7370160E+04;
  1.0892876E+00;  9.9999998E-03; -3.0116442E-01;8302;  8.2244045E-01;  0.0000000E+00; -9.4137974E-02;  1.0057968E+03;  1.3399479E-01;  4.7917798E+03;3; -9.4671356E+01;  0.0000000E+00;  2.9894912E+00;0;  3.6884689E+00;  2.2779639E+04;  0.0000000E+00; -3.2266049E+00;  4.0000000E+04;  0.0000000E+00;  3.9622590E+04;  3.6289589E+00;  0.0000000E+00;  5.9510048E-02;  1.5695597E+04;
  1.1006184E+00;  9.9999998E-03; -2.8106430E-01;8365;  9.0008593E-01;  0.0000000E+00; -1.1049752E-01;  1.0080377E+03;  1.3176948E-01;  6.6414165E+03;3; -4.5868530E+01;  0.0000000E+00; -2.3601558E+00;0;  3.0272987E+00;  2.3654396E+04;  0.0000000E+00; -4.3505878E+00;  4.0000000E+04;  0.0000000E+00;  3.9605051E+04;  2.8248005E+00;  0.0000000E+00;  2.0249821E-01;  1.8418385E+04;
  1.1008130E+00;  9.9999998E-03; -2.9109964E-01;8364;  8.9843315E-01;  0.0000000E+00; -1.0564225E-01;  1.0078112E+03;  1.3174608E-01;  6.4542148E+03;3; -5.0798016E+01;  0.0000000E+00; -1.0566761E+00;0;  3.0682750E+00;  2.3654551E+04;  0.0000000E+00; -2.8375542E+00;  4.0000000E+04;  0.0000000E+00;  3.9605895E+04;  2.8974771E+00;  0.0000000E+00;  1.7079790E-01;  1.7350232E+04;
  1.1010213E+00;  9.9999998E-03; -3.0113533E-01;8363;  8.9863086E-01;  0.0000000E+00; -1.0165343E-01;  1.0074883E+03;  1.3172248E-01;  6.1873267E+03;3; -5.4604828E+01;  0.0000000E+00;  7.0572972E-01;0;  3.0944431E+00;  2.3648463E+04;  0.0000000E+00;  4.3941900E-01;  4.0000000E+04;  0.0000000E+00;  3.9612078E+04;  2.9585209E+00;  0.0000000E+00;  1.3592212E-01;  1.5990022E+04;
  1.1122270E+00;  9.9999998E-03; -2.8101972E-01;8426;  9.4501078E-01;  0.0000000E+00; -1.1137886E-01;  1.0082881E+03;  1.2955680E-01;  6.8449263E+03;3; -5.5809503E+00;  0.0000000E+00; -4.4126501E+00;0;  2.4448907E+00;  2.4467582E+04;  0.0000000E+00; -4.3182135E+00;  4.0000000E+04;  0.0000000E+00;  3.9611941E+04;  2.2130606E+00;  0.0000000E+00;  2.3183022E-01;  1.7609625E+04;
  1.1124953E+00;  9.9999998E-03; -2.9105833E-01;8425;  9.4894338E-01;  0.0000000E+00; -1.0711347E-01;  1.0081125E+03;  1.2952670E-01;  6.6998223E+03;3; -8.5789843E+00;  0.0000000E+00; -3.6510880E+00;0;  2.4775362E+00;  2.4474656E+04;  0.0000000E+00; -1.7296692E+00;  4.0000000E+04;  0.0000000E+00;  3.9610441E+04;  2.2819841E+00;  0.0000000E+00;  1.9555219E-01;  1.6562234E+04;
  1.1128057E+00;  9.9999998E-03; -3.0109575E-01;8424;  9.5375872E-01;  0.0000000E+00; -1.0412054E-01;  1.0078171E+03;  1.2949221E-01;  6.4557676E+03;3; -1.0510192E+01;  0.0000000E+00; -2.5901122E+00;0;  2.5055597E+00;  2.4474932E+04;  0.0000000E+00;  3.1355491E+00;  4.0000000E+04;  0.0000000E+00;  3.9615902E+04;  2.3401513E+00;  0.0000000E+00;  1.6540836E-01;  1.7303631E+04;
  1.1242114E+00;  9.9999998E-03; -2.8096679E-01;8487;  9.6107137E-01;  0.0000000E+00; -1.0913835E-01;  1.0074429E+03;  1.2740469E-01;  6.1431069E+03;3;  1.5392735E+01;  0.0000000E+00; -7.6416917E+00;0;  1.9065819E+00;  2.5238982E+04;  0.0000000E+00; -5.4255924E+00;  4.0000000E+04;  0.0000000E+00;  3.9630379E+04;  1.6593487E+00;  0.0000000E+00;  2.4723320E-01;  1.6379575E+04;
  1.1245595E+00;  9.9999998E-03; -2.9100898E-01;8486;  9.6795219E-01;  0.0000000E+00; -1.0583150E-01;  1.0072592E+03;  1.2736824E-01;  5.9912715E+03;3;  1.3818402E+01;  0.0000000E+00; -7.2227845E+00;0;  1.9350728E+00;  2.5250006E+04;  0.0000000E+00; -2.8698978E+00;  4.0000000E+04;  0.0000000E+00;  3.9627105E+04;  1.7234267E+00;  0.0000000E+00;  2.1164609E-01;  1.5024322E+04;
  1.1249774E+00;  9.9999998E-03; -3.0104831E-01;8485;  9.7574192E-01;  0.0000000E+00; -1.0380520E-01;  1.0069311E+03;  1.2732476E-01;  5.7203701E+03;3;  1.1893911E+01;  0.0000000E+00; -6.4339991E+00;0;  1.9651959E+00;  2.5253420E+04;  0.0000000E+00;  2.7226279E+00;  4.0000000E+04;  0.0000000E+00;  3.9631715E+04;  1.7790632E+00;  0.0000000E+00;  1.8613267E-01;  1.5087458E+04;
  1.1375259E+00;  9.9999998E-03; -3.0099624E-01;8546;  9.8368376E-01;  0.0000000E+00; -9.9453732E-02;  1.0051682E+03;  1.2530446E-01;  4.2620864E+03;3;  1.8708132E+01;  0.0000000E+00; -1.0665273E+01;0;  1.4631639E+00;  2.5963654E+04;  0.0000000E+00;  3.4455252E+00;  4.0000000E+04;  0.0000000E+00;  3.9655680E+04;  1.2892801E+00;  0.0000000E+00;  1.7388375E-01;  1.2635587E+04;
  1.1370108E+00;  9.9999998E-03; -2.9095578E-01;8547;  9.7402310E-01;  0.0000000E+00; -1.0064858E-01;  1.0056093E+03;  1.2535028E-01;  4.6259922E+03;3;  1.9893717E+01;  0.0000000E+00; -1.0971707E+01;0;  1.4342024E+00;  2.5964344E+04;  0.0000000E+00; -3.5194988E+00;  4.0000000E+04;  0.0000000E+00;  3.9650879E+04;  1.2364925E+00;  0.0000000E+00;  1.9770992E-01;  1.2754288E+04;
  1.1365336E+00;  9.9999998E-03; -2.8091002E-01;8548;  9.6553493E-01;  0.0000000E+00; -1.0347131E-01;  1.0059071E+03;  1.2539162E-01;  4.8717349E+03;3;  2.0942602E+01;  0.0000000E+00; -1.0931775E+01;0;  1.4220166E+00;  2.5955566E+04;  0.0000000E+00; -5.7681518E+00;  4.0000000E+04;  0.0000000E+00;  3.9655566E+04;  1.1804723E+00;  0.0000000E+00;  2.4154432E-01;  1.4210680E+04;
  1.1501660E+00;  9.9999998E-03; -3.0094460E-01;8607;  9.8587161E-01;  0.0000000E+00; -9.2168584E-02;  1.0027864E+03;  1.2337501E-01;  2.2956843E+03;3;  2.2364857E+01;  0.0000000E+00; -1.3683308E+01;0;  1.0291042E+00;  2.6635447E+04;  0.0000000E+00;  6.1099048E+00;  4.0000000E+04;  0.0000000E+00;  3.9684781E+04;  8.8757229E-01;  0.0000000E+00;  1.4153193E-01;  1.2770730E+04;
  1.1496243E+00;  9.9999998E-03; -2.9090443E-01;8608;  9.7529155E-01;  0.0000000E+00; -9.2667855E-02;  1.0034371E+03;  1.2342203E-01;  2.8318696E+03;3;  2.2810280E+01;  0.0000000E+00; -1.3715673E+01;0;  1.0028279E+00;  2.6647350E+04;  0.0000000E+00; -4.6094537E+00;  4.0000000E+04;  0.0000000E+00;  3.9677637E+04;  8.3700567E-01;  0.0000000E+00;  1.6582225E-01;  1.1130572E+04;
  1.1490870E+00;  9.9999998E-03; -2.8085768E-01;8609;  9.6594614E-01;  0.0000000E+00; -9.4670922E-02;  1.0039141E+03;  1.2346844E-01;  3.2250864E+03;3;  2.3268614E+01;  0.0000000E+00; -1.3457726E+01;0;  1.0005858E+00;  2.6646785E+04;  0.0000000E+00; -7.4327254E+00;  4.0000000E+04;  0.0000000E+00;  3.9680160E+04;  7.8752464E-01;  0.0000000E+00;  2.1306121E-01;  1.4570453E+04;
  1.1628623E+00;  9.9999998E-03; -3.0089751E-01;8668;  9.8438507E-01;  0.0000000E+00; -8.2771406E-02;  1.0000375E+03;  1.2152353E-01;  3.0804035E+01;3;  2.4574682E+01;  0.0000000E+00; -1.5772486E+01;0;  6.6107869E-01;  2.7289160E+04;  0.0000000E+00;  1.1008785E+01;  4.0000000E+04;  0.0000000E+00;  3.9714426E+04;  5.6632668E-01;  0.0000000E+00;  9.4752014E-02;  1.8600441E+04;
  1.1623241E+00;  9.9999998E-03; -2.9085895E-01;8669;  9.7402924E-01;  0.0000000E+00; -8.3178632E-02;  1.0010344E+03;  1.2156774E-01;  8.5127679E+02;3;  2.4211187E+01;  0.0000000E+00; -1.5288741E+01;0;  6.4871979E-01;  2.7322480E+04;  0.0000000E+00; -7.5034704E+00;  4.0000000E+04;  0.0000000E+00;  3.9703285E+04;  5.1980329E-01;  0.0000000E+00;  1.2891652E-01;  1.3469550E+04;
  1.1616876E+00;  9.9999998E-03; -2.8081393E-01;8670;  9.6460533E-01;  0.0000000E+00; -8.4684029E-02;  1.0018650E+03;  1.2161933E-01;  1.5349843E+03;3;  2.4369640E+01;  0.0000000E+00; -1.5266688E+01;0;  6.6052282E-01;  2.7340443E+04;  0.0000000E+00; -1.2134733E+01;  4.0000000E+04;  0.0000000E+00;  3.9700797E+04;  4.7865960E-01;  0.0000000E+00;  1.8186322E-01;  2.1029791E+04;
  1.1740205E+00;  9.9999998E-03; -2.8078389E-01;8731;  9.6249163E-01;  0.0000000E+00; -7.4823633E-02;  1.0001577E+03;  1.1987410E-01;  1.2953430E+02;3;  2.5256432E+01;  0.0000000E+00; -1.6284977E+01;0;  4.0239644E-01;  2.8042092E+04;  0.0000000E+00; -1.8849360E+01;  4.0000000E+04;  0.0000000E+00;  3.9715371E+04;  2.4493462E-01;  0.0000000E+00;  1.5746184E-01;  3.0791436E+04;
  1.1747488E+00;  9.9999998E-03; -2.9082656E-01;8730;  9.7171563E-01;  0.0000000E+00; -7.3508263E-02;  9.9881409E+02;  1.1981975E-01; -9.7465686E+02;3;  2.5276045E+01;  0.0000000E+00; -1.6338770E+01;0;  3.7591803E-01;  2.7995594E+04;  0.0000000E+00; -1.1119326E+01;  4.0000000E+04;  0.0000000E+00;  3.9723215E+04;  2.7879810E-01;  0.0000000E+00;  9.7119920E-02;  1.8226924E+04;
  1.1751121E+00;  9.9999998E-03; -3.0086446E-01;8729;  9.8135060E-01;  0.0000000E+00; -7.3196262E-02;  9.9763617E+02;  1.1978957E-01; -1.9426656E+03;3;  2.5118168E+01;  0.0000000E+00; -1.6362070E+01;0;  3.7730786E-01;  2.7944373E+04;  0.0000000E+00;  1.8040190E+01;  4.0000000E+04;  0.0000000E+00;  3.9736531E+04;  3.2319444E-01;  0.0000000E+00;  5.4113429E-02;  2.8688361E+04;
  1.1860706E+00;  9.9999998E-03; -2.8076661E-01;8792;  9.6001464E-01;  0.0000000E+00; -6.5584637E-02;  9.9880511E+02;  1.1824636E-01; -9.8062079E+02;3;  2.6164986E+01;  0.0000000E+00; -1.6900103E+01;0;  2.1147257E-01;  2.8742244E+04;  0.0000000E+00; -2.5646597E+01;  4.0000000E+04;  0.0000000E+00;  3.9725785E+04;  7.0183359E-02;  0.0000000E+00;  1.4128922E-01;  3.9438516E+04;
  1.1868206E+00;  9.9999998E-03; -3.0084813E-01;8790;  9.7784221E-01;  0.0000000E+00; -6.4258605E-02;  9.9605359E+02;  1.1818925E-01; -3.2383921E+03;3;  2.6165592E+01;  0.0000000E+00; -1.6955303E+01;0;  1.6764626E-01;  2.8618371E+04;  0.0000000E+00;  2.7833145E+01;  4.0000000E+04;  0.0000000E+00;  3.9747496E+04;  1.4340661E-01;  0.0000000E+00;  2.4239644E-02;  4.2084609E+04;
  1.1867996E+00;  9.9999998E-03; -2.9080778E-01;8791;  9.6889710E-01;  0.0000000E+00; -6.4284392E-02;  9.9695312E+02;  1.1819676E-01; -2.5002361E+03;3;  2.6115887E+01;  0.0000000E+00; -1.7053148E+01;0;  1.7239714E-01;  2.8664504E+04;  0.0000000E+00; -1.2460875E+01;  4.0000000E+04;  0.0000000E+00;  3.9736957E+04;  9.9675670E-02;  0.0000000E+00;  7.2721466E-02;  1.9278359E+04;
  1.1975173E+00;  9.9999998E-03; -2.8076723E-01;8853;  9.5760697E-01;  0.0000000E+00; -5.7222776E-02;  9.9825085E+02;  1.1675861E-01; -1.4329915E+03;3;  2.7126505E+01;  0.0000000E+00; -1.7181704E+01;0;  7.5443789E-02;  2.9453799E+04;  0.0000000E+00; -2.6295809E+01;  4.0000000E+04;  0.0000000E+00;  3.9726066E+04; -5.4543767E-02;  0.0000000E+00;  1.2998755E-01;  3.7451289E+04;
  1.1977260E+00;  9.9999998E-03; -3.0085602E-01;8851;  9.7457594E-01;  0.0000000E+00; -5.6372087E-02;  9.9633228E+02;  1.1673705E-01; -3.0046565E+03;3;  2.6966551E+01;  0.0000000E+00; -1.7197670E+01;0;  2.1657852E-02;  2.9364168E+04;  0.0000000E+00;  3.5859459E+01;  4.0000000E+04;  0.0000000E+00;  3.9736695E+04;  1.7067259E-02;  0.0000000E+00;  4.5905933E-03;  5.0816152E+04;
  1.1981752E+00;  9.9999998E-03; -2.9080743E-01;8852;  9.6610850E-01;  0.0000000E+00; -5.6039408E-02;  9.9613574E+02;  1.1671779E-01; -3.1654099E+03;3;  2.7109430E+01;  0.0000000E+00; -1.7341164E+01;0;  2.9604113E-02;  2.9356256E+04;  0.0000000E+00; -7.6793594E+00;  4.0000000E+04;  0.0000000E+00;  3.9738688E+04; -2.6943209E-02;  0.0000000E+00;  5.6547321E-02;  1.1083214E+04;
  1.2085727E+00;  9.9999998E-03; -2.8078461E-01;8913;  9.5538342E-01;  0.0000000E+00; -4.9566139E-02;  9.9825928E+02;  1.1540332E-01; -1.4232346E+03;3;  2.8099020E+01;  0.0000000E+00; -1.7037952E+01;0; -2.1252289E-02;  3.0163961E+04;  0.0000000E+00; -2.0636696E+01;  4.0000000E+04;  0.0000000E+00;  3.9716750E+04; -1.4223573E-01;  0.0000000E+00;  1.2098344E-01;  2.6355123E+04;
  1.2090726E+00;  9.9999998E-03; -2.9082471E-01;8912;  9.6347493E-01;  0.0000000E+00; -4.8672628E-02;  9.9629565E+02;  1.1537634E-01; -3.0284897E+03;3;  2.8215261E+01;  0.0000000E+00; -1.7101654E+01;0; -6.8082929E-02;  3.0068113E+04;  0.0000000E+00;  2.4327154E+00;  4.0000000E+04;  0.0000000E+00;  3.9727918E+04; -1.1443242E-01;  0.0000000E+00;  4.6349488E-02;  3.5716072E+03;
  1.2193964E+00;  9.9999998E-03; -2.8081667E-01;8972;  9.5327592E-01;  0.0000000E+00; -4.2764273E-02;  9.9859302E+02;  1.1417571E-01; -1.1477626E+03;3;  2.9124384E+01;  0.0000000E+00; -1.6387955E+01;0; -8.4291577E-02;  3.0854992E+04;  0.0000000E+00; -1.1089978E+01;  4.0000000E+04;  0.0000000E+00;  3.9699512E+04; -2.0152873E-01;  0.0000000E+00;  1.1723715E-01;  1.1650507E+04;
  1.2195860E+00;  9.9999998E-03; -2.9086095E-01;8971;  9.6112406E-01;  0.0000000E+00; -4.2203780E-02;  9.9750439E+02;  1.1416698E-01; -2.0357382E+03;3;  2.9348145E+01;  0.0000000E+00; -1.6492455E+01;0; -1.2900610E-01;  3.0804770E+04;  0.0000000E+00;  1.3232157E+01;  4.0000000E+04;  0.0000000E+00;  3.9702195E+04; -1.7127281E-01;  0.0000000E+00;  4.2266712E-02;  1.6892479E+04;
  1.2300656E+00;  9.9999998E-03; -2.8086099E-01;9031;  9.5117170E-01;  0.0000000E+00; -3.7002530E-02;  9.9919391E+02;  1.1306813E-01; -6.5587299E+02;3;  3.0083500E+01;  0.0000000E+00; -1.5186965E+01;0; -1.1657828E-01;  3.1519791E+04;  0.0000000E+00; -9.2412966E-01;  4.0000000E+04;  0.0000000E+00;  3.9676863E+04; -2.3906796E-01;  0.0000000E+00;  1.2248968E-01;  4.6176587E+03;
  1.2298486E+00;  9.9999998E-03; -2.9091546E-01;9030;  9.5944411E-01;  0.0000000E+00; -3.6545720E-02;  9.9973267E+02;  1.1307493E-01; -2.1752130E+02;3;  3.0395758E+01;  0.0000000E+00; -1.5516806E+01;0; -1.5880588E-01;  3.1569689E+04;  0.0000000E+00;  1.7482897E+01;  4.0000000E+04;  0.0000000E+00;  3.9661215E+04; -2.0281006E-01;  0.0000000E+00;  4.4004194E-02;  1.9924098E+04;
  1.2402655E+00;  9.9999998E-03; -2.9097569E-01;9089;  9.5846820E-01;  0.0000000E+00; -3.1791274E-02;  1.0016426E+03;  1.1208480E-01;  1.3326189E+03;3;  3.1372839E+01;  0.0000000E+00; -1.4260949E+01;0; -1.5590146E-01;  3.2274119E+04;  0.0000000E+00;  1.2514883E+01;  4.0000000E+04;  0.0000000E+00;  3.9621066E+04; -2.1262977E-01;  0.0000000E+00;  5.6728307E-02;  1.3005523E+04;
  1.2407478E+00;  9.9999998E-03; -2.8091192E-01;9090;  9.4897956E-01;  0.0000000E+00; -3.2245986E-02;  9.9966235E+02;  1.1207051E-01; -2.7390134E+02;3;  3.0983477E+01;  0.0000000E+00; -1.3736229E+01;0; -1.2238173E-01;  3.2129836E+04;  0.0000000E+00;  5.5854988E+00;  4.0000000E+04;  0.0000000E+00;  3.9655031E+04; -2.6006395E-01;  0.0000000E+00;  1.3768221E-01;  9.8114404E+03;
  1.2515568E+00;  9.9999998E-03; -2.8096280E-01;9148;  9.4637620E-01;  0.0000000E+00; -2.8249046E-02;  9.9951501E+02;  1.1117406E-01; -3.9201715E+02;3;  3.1898190E+01;  0.0000000E+00; -1.2310963E+01;0; -1.0928069E-01;  3.2646186E+04;  0.0000000E+00;  7.6207528E+00;  4.0000000E+04;  0.0000000E+00;  3.9641777E+04; -2.6887468E-01;  0.0000000E+00;  1.5959398E-01;  9.3010371E+03;
  1.2624401E+00;  9.9999998E-03; -2.8101215E-01;9205;  9.4291735E-01;  0.0000000E+00; -2.4869578E-02;  9.9880585E+02;  1.1036909E-01; -9.6119568E+02;3;  3.2984909E+01;  0.0000000E+00; -1.1337407E+01;0; -8.5386917E-02;  3.3072184E+04;  0.0000000E+00;  8.6136684E+00;  4.0000000E+04;  0.0000000E+00;  3.9638266E+04; -2.7045253E-01;  0.0000000E+00;  1.8506561E-01;  7.1020361E+03;
  1.2732687E+00;  9.9999998E-03; -2.8106388E-01;9262;  9.3832421E-01;  0.0000000E+00; -2.1274388E-02;  9.9815076E+02;  1.0964926E-01; -1.4812738E+03;3;  3.4360050E+01;  0.0000000E+00; -1.1416466E+01;0; -7.0710823E-02;  3.3455539E+04;  0.0000000E+00;  1.0799290E+01;  4.0000000E+04;  0.0000000E+00;  3.9638750E+04; -2.6973283E-01;  0.0000000E+00;  1.9902201E-01;  6.3861738E+03;
  9.0696907E-04;  9.9999998E-03; -2.6966020E-01;2450; -2.3529199E-03;  0.0000000E+00; -3.8202459E-03;  9.8618054E+02;  1.0000000E-01; -1.1449157E+04;3;  5.5373436E+01;  0.0000000E+00;  4.8201405E+01;0; -1.1684501E-01;  3.8929770E+04;  0.0000000E+00;  1.1276175E-01;  4.0000000E+04;  0.0000000E+00;  3.9974875E+04; -9.9650778E-02;  0.0000000E+00; -1.7194232E-02;  1.9868021E+03;
  1.2756286E-03;  9.9999998E-03; -2.5966597E-01;2451; -2.3529753E-03;  0.0000000E+00; -4.1933167E-03;  9.8422333E+02;  1.0000000E-01; -1.3070692E+04;3;  8.0928490E+01;  0.0000000E+00;  3.8746975E+01;0; -1.2806793E-01;  3.8760066E+04;  0.0000000E+00;  9.7153783E-02;  4.0000000E+04;  0.0000000E+00;  3.9994066E+04; -1.1481790E-01;  0.0000000E+00; -1.3250018E-02;  6.2549414E+02;
  1.6430070E-03;  9.9999998E-03; -2.4968852E-01;2452; -2.4442049E-03;  0.0000000E+00; -4.4390070E-03;  9.8227570E+02;  1.0000000E-01; -1.4684227E+04;3;  1.0695730E+02;  0.0000000E+00;  2.9215508E+01;0; -1.3889560E-01;  3.8593418E+04;  0.0000000E+00;  5.5606373E-02;  4.0000000E+04;  0.0000000E+00;  4.0012164E+04; -1.3012277E-01;  0.0000000E+00; -8.7728426E-03;  3.0025728E+03;
  1.9961062E-03;  9.9999998E-03; -2.3971772E-01;2453; -2.6533748E-03;  0.0000000E+00; -4.5418185E-03;  9.8038129E+02;  1.0000000E-01; -1.6253713E+04;3;  1.3131668E+02;  0.0000000E+00;  1.9964977E+01;0; -1.4944410E-01;  3.8434504E+04;  0.0000000E+00; -3.4735221E-03;  4.0000000E+04;  0.0000000E+00;  4.0026801E+04; -1.4532028E-01;  0.0000000E+00; -4.1238191E-03;  5.0029404E+03;
  2.3321579E-03;  9.9999998E-03; -2.2974984E-01;2454; -2.9919371E-03;  0.0000000E+00; -4.4970703E-03;  9.7858191E+02;  1.0000000E-01; -1.7744486E+04;3;  1.5222812E+02;  0.0000000E+00;  1.1180065E+01;0; -1.5984753E-01;  3.8287570E+04;  0.0000000E+00; -6.7807212E-02;  4.0000000E+04;  0.0000000E+00;  4.0037758E+04; -1.6018765E-01;  0.0000000E+00;  3.4011481E-04;  6.4981421E+03;
  2.6395745E-03;  9.9999998E-03; -2.1978335E-01;2455; -3.4535010E-03;  0.0000000E+00; -4.3083304E-03;  9.7691760E+02;  1.0000000E-01; -1.9123311E+04;3;  1.6849323E+02;  0.0000000E+00;  3.1024380E+00;0; -1.7019209E-01;  3.8155379E+04;  0.0000000E+00; -1.2550442E-01;  4.0000000E+04;  0.0000000E+00;  4.0043859E+04; -1.7449887E-01;  0.0000000E+00;  4.3067853E-03;  7.4537793E+03;
  2.9070734E-03;  9.9999998E-03; -2.0981757E-01;2456; -4.0097181E-03;  0.0000000E+00; -3.9904807E-03;  9.7541876E+02;  1.0000000E-01; -2.0365104E+04;3;  1.7950462E+02;  0.0000000E+00; -3.7430859E+00;0; -1.8050580E-01;  3.8039637E+04;  0.0000000E+00; -1.6783467E-01;  4.0000000E+04;  0.0000000E+00;  4.0046680E+04; -1.8804646E-01;  0.0000000E+00;  7.5406600E-03;  7.9040405E+03;
  3.1293114E-03;  9.9999998E-03; -1.9985099E-01;2457; -4.6333382E-03;  0.0000000E+00; -3.5731166E-03;  9.7410773E+02;  1.0000000E-01; -2.1451246E+04;3;  1.8549677E+02;  0.0000000E+00; -9.0786905E+00;0; -1.9075519E-01;  3.7941637E+04;  0.0000000E+00; -1.9065216E-01;  4.0000000E+04;  0.0000000E+00;  4.0045938E+04; -2.0066325E-01;  0.0000000E+00;  9.9080708E-03;  7.9327007E+03;
  3.3065972E-03;  9.9999998E-03; -1.8988261E-01;2458; -5.2787489E-03;  0.0000000E+00; -3.1287023E-03;  9.7300153E+02;  1.0000000E-01; -2.2367713E+04;3;  1.8712442E+02;  0.0000000E+00; -1.2702733E+01;0; -2.0084256E-01;  3.7860992E+04;  0.0000000E+00; -1.9428273E-01;  4.0000000E+04;  0.0000000E+00;  4.0042922E+04; -2.1222784E-01;  0.0000000E+00;  1.1385280E-02;  7.6529189E+03;
  3.4406108E-03;  9.9999998E-03; -1.7991179E-01;2459; -5.9061865E-03;  0.0000000E+00; -2.7165571E-03;  9.7210278E+02;  1.0000000E-01; -2.3112334E+04;3;  1.8552887E+02;  0.0000000E+00; -1.4816009E+01;0; -2.1060093E-01;  3.7797398E+04;  0.0000000E+00; -1.8228802E-01;  4.0000000E+04;  0.0000000E+00;  4.0038555E+04; -2.2265710E-01;  0.0000000E+00;  1.2056172E-02;  7.1862163E+03;
  3.5366439E-03;  9.9999998E-03; -1.6993731E-01;2460; -6.4824712E-03;  0.0000000E+00; -2.3733764E-03;  9.7140735E+02;  1.0000000E-01; -2.3688467E+04;3;  1.8190340E+02;  0.0000000E+00; -1.5775317E+01;0; -2.1982481E-01;  3.7749289E+04;  0.0000000E+00; -1.5973975E-01;  4.0000000E+04;  0.0000000E+00;  4.0033781E+04; -2.3191199E-01;  0.0000000E+00;  1.2087177E-02;  6.6444531E+03;
  3.6002884E-03;  9.9999998E-03; -1.5995851E-01;2461; -6.9859480E-03;  0.0000000E+00; -2.1037541E-03;  9.7090021E+02;  1.0000000E-01; -2.4108652E+04;3;  1.7731062E+02;  0.0000000E+00; -1.6007977E+01;0; -2.2829595E-01;  3.7715453E+04;  0.0000000E+00; -1.3169137E-01;  4.0000000E+04;  0.0000000E+00;  4.0029320E+04; -2.3998590E-01;  0.0000000E+00;  1.1689945E-02;  6.1179170E+03;
  3.6380314E-03;  9.9999998E-03; -1.4997531E-01;2462; -7.4059279E-03;  0.0000000E+00; -1.8946705E-03;  9.7056525E+02;  1.0000000E-01; -2.4386125E+04;3;  1.7247203E+02;  0.0000000E+00; -1.5795845E+01;0; -2.3582397E-01;  3.7693520E+04;  0.0000000E+00; -1.0227620E-01;  4.0000000E+04;  0.0000000E+00;  4.0025512E+04; -2.4690524E-01;  0.0000000E+00;  1.1081264E-02;  5.6679194E+03;
  3.6556073E-03;  9.9999998E-03; -1.3998857E-01;2463; -7.7368179E-03;  0.0000000E+00; -1.7370806E-03;  9.7037506E+02;  1.0000000E-01; -2.4543701E+04;3;  1.6792419E+02;  0.0000000E+00; -1.5400291E+01;0; -2.4227199E-01;  3.7681918E+04;  0.0000000E+00; -7.4478485E-02;  4.0000000E+04;  0.0000000E+00;  4.0022648E+04; -2.5272125E-01;  0.0000000E+00;  1.0449257E-02;  5.3244883E+03;
  3.6575447E-03;  9.9999998E-03; -1.2999792E-01;2464; -7.9810861E-03;  0.0000000E+00; -1.6183348E-03;  9.7030450E+02;  1.0000000E-01; -2.4602168E+04;3;  1.6391035E+02;  0.0000000E+00; -1.4928944E+01;0; -2.4757801E-01;  3.7678191E+04;  0.0000000E+00; -5.0311361E-02;  4.0000000E+04;  0.0000000E+00;  4.0020738E+04; -2.5750875E-01;  0.0000000E+00;  9.9307466E-03;  5.0885166E+03;
  3.6479894E-03;  9.9999998E-03; -1.2000197E-01;2465; -8.1508635E-03;  0.0000000E+00; -1.5152039E-03;  9.7032330E+02;  1.0000000E-01; -2.4586564E+04;3;  1.6048071E+02;  0.0000000E+00; -1.4313639E+01;0; -2.5175798E-01;  3.7680660E+04;  0.0000000E+00; -3.1096512E-02;  4.0000000E+04;  0.0000000E+00;  4.0019395E+04; -2.6136258E-01;  0.0000000E+00;  9.6046077E-03;  4.9407319E+03;
  3.6308554E-03;  9.9999998E-03; -1.1000121E-01;2466; -8.2586715E-03;  0.0000000E+00; -1.4194895E-03;  9.7040765E+02;  1.0000000E-01; -2.4516689E+04;3;  1.5758281E+02;  0.0000000E+00; -1.3559117E+01;0; -2.5489679E-01;  3.7687328E+04;  0.0000000E+00; -1.7184477E-02;  4.0000000E+04;  0.0000000E+00;  4.0018738E+04; -2.6439467E-01;  0.0000000E+00;  9.4978735E-03;  4.8550718E+03;
  1.1030123E-02;  9.9999998E-03; -2.6965526E-01;2510; -3.6531400E-03;  0.0000000E+00; -4.2115650E-03;  9.8604553E+02;  1.0000000E-01; -1.1561007E+04;3;  4.1189137E+01;  0.0000000E+00;  5.5354877E+01;0; -1.3352582E-01;  3.8919625E+04;  0.0000000E+00;  4.3982771E-01;  4.0000000E+04;  0.0000000E+00;  3.9974711E+04; -1.1386384E-01;  0.0000000E+00; -1.9661982E-02;  2.0780479E+03;
  1.1416973E-02;  9.9999998E-03; -2.5967863E-01;2511; -3.9176419E-03;  0.0000000E+00; -4.6035340E-03;  9.8422119E+02;  1.0000000E-01; -1.3072420E+04;3;  6.4181931E+01;  0.0000000E+00;  4.4027813E+01;0; -1.4592972E-01;  3.8757828E+04;  0.0000000E+00;  4.3216693E-01;  4.0000000E+04;  0.0000000E+00;  3.9996480E+04; -1.3094428E-01;  0.0000000E+00; -1.4985436E-02;  1.0990610E+03;
  1.1784700E-02;  9.9999998E-03; -2.4971622E-01;2512; -4.2733839E-03;  0.0000000E+00; -4.8582596E-03;  9.8242450E+02;  1.0000000E-01; -1.4560971E+04;3;  8.7007530E+01;  0.0000000E+00;  3.3046459E+01;0; -1.5776995E-01;  3.8601215E+04;  0.0000000E+00;  3.6928058E-01;  4.0000000E+04;  0.0000000E+00;  4.0015906E+04; -1.4803895E-01;  0.0000000E+00; -9.7309900E-03;  3.5311487E+03;
  1.2127205E-02;  9.9999998E-03; -2.3975651E-01;2513; -4.7376673E-03;  0.0000000E+00; -4.9649845E-03;  9.8069305E+02;  1.0000000E-01; -1.5995449E+04;3;  1.0748340E+02;  0.0000000E+00;  2.2878277E+01;0; -1.6919041E-01;  3.8453969E+04;  0.0000000E+00;  2.6469600E-01;  4.0000000E+04;  0.0000000E+00;  4.0031820E+04; -1.6486320E-01;  0.0000000E+00; -4.3272111E-03;  5.6112734E+03;
  1.2446818E-02;  9.9999998E-03; -2.2979453E-01;2514; -5.3114765E-03;  0.0000000E+00; -4.9338974E-03;  9.7906561E+02;  1.0000000E-01; -1.7343756E+04;3;  1.2388277E+02;  0.0000000E+00;  1.3683313E+01;0; -1.8035796E-01;  3.8319418E+04;  0.0000000E+00;  1.3984728E-01;  4.0000000E+04;  0.0000000E+00;  4.0042781E+04; -1.8116699E-01;  0.0000000E+00;  8.0902409E-04;  7.1104414E+03;
  1.2732732E-02;  9.9999998E-03; -2.1983041E-01;2515; -5.9954813E-03;  0.0000000E+00; -4.7536492E-03;  9.7756946E+02;  1.0000000E-01; -1.8583277E+04;3;  1.3537277E+02;  0.0000000E+00;  5.5509419E+00;0; -1.9137789E-01;  3.8200129E+04;  0.0000000E+00;  1.6988657E-02;  4.0000000E+04;  0.0000000E+00;  4.0048734E+04; -1.9669884E-01;  0.0000000E+00;  5.3209495E-03;  8.0014019E+03;
  1.2976559E-02;  9.9999998E-03; -2.0986299E-01;2516; -6.7633418E-03;  0.0000000E+00; -4.4412138E-03;  9.7623315E+02;  1.0000000E-01; -1.9690406E+04;3;  1.4167368E+02;  0.0000000E+00; -1.1761035E+00;0; -2.0230578E-01;  3.8097211E+04;  0.0000000E+00; -8.5977480E-02;  4.0000000E+04;  0.0000000E+00;  4.0050605E+04; -2.1125223E-01;  0.0000000E+00;  8.9464551E-03;  8.3385586E+03;
  1.3176316E-02;  9.9999998E-03; -1.9989166E-01;2517; -7.5812293E-03;  0.0000000E+00; -4.0343348E-03;  9.7507629E+02;  1.0000000E-01; -2.0648799E+04;3;  1.4329910E+02;  0.0000000E+00; -6.3348660E+00;0; -2.1312927E-01;  3.8011328E+04;  0.0000000E+00; -1.5855093E-01;  4.0000000E+04;  0.0000000E+00;  4.0048953E+04; -2.2467504E-01;  0.0000000E+00;  1.1545781E-02;  8.2315117E+03;
  1.3332986E-02;  9.9999998E-03; -1.8991639E-01;2518; -8.4044896E-03;  0.0000000E+00; -3.5921941E-03;  9.7411041E+02;  1.0000000E-01; -2.1449023E+04;3;  1.4123981E+02;  0.0000000E+00; -9.8879166E+00;0; -2.2375341E-01;  3.7942141E+04;  0.0000000E+00; -1.9804689E-01;  4.0000000E+04;  0.0000000E+00;  4.0044941E+04; -2.3686463E-01;  0.0000000E+00;  1.3111223E-02;  7.8186626E+03;
  1.3448651E-02;  9.9999998E-03; -1.7993687E-01;2519; -9.1845542E-03;  0.0000000E+00; -3.1780887E-03;  9.7333942E+02;  1.0000000E-01; -2.2087770E+04;3;  1.3676459E+02;  0.0000000E+00; -1.2065665E+01;0; -2.3401035E-01;  3.7888672E+04;  0.0000000E+00; -2.0800197E-01;  4.0000000E+04;  0.0000000E+00;  4.0039949E+04; -2.4776678E-01;  0.0000000E+00;  1.3756429E-02;  7.2419849E+03;
  1.3528170E-02;  9.9999998E-03; -1.6995296E-01;2520; -9.8842997E-03;  0.0000000E+00; -2.8217111E-03;  9.7275647E+02;  1.0000000E-01; -2.2570770E+04;3;  1.3107249E+02;  0.0000000E+00; -1.3153152E+01;0; -2.4368291E-01;  3.7849496E+04;  0.0000000E+00; -1.9552523E-01;  4.0000000E+04;  0.0000000E+00;  4.0034512E+04; -2.5736994E-01;  0.0000000E+00;  1.3687026E-02;  6.6278281E+03;
  1.3577444E-02;  9.9999998E-03; -1.5996547E-01;2521; -1.0484121E-02;  0.0000000E+00; -2.5344766E-03;  9.7234692E+02;  1.0000000E-01; -2.2910068E+04;3;  1.2508703E+02;  0.0000000E+00; -1.3496139E+01;0; -2.5253978E-01;  3.7823016E+04;  0.0000000E+00; -1.6878253E-01;  4.0000000E+04;  0.0000000E+00;  4.0029891E+04; -2.6569527E-01;  0.0000000E+00;  1.3155499E-02;  6.0730186E+03;
  1.3603185E-02;  9.9999998E-03; -1.4997582E-01;2522; -1.0971612E-02;  0.0000000E+00; -2.3186062E-03;  9.7209784E+02;  1.0000000E-01; -2.3116434E+04;3;  1.1943523E+02;  0.0000000E+00; -1.3453860E+01;0; -2.6037896E-01;  3.7807441E+04;  0.0000000E+00; -1.3520515E-01;  4.0000000E+04;  0.0000000E+00;  4.0026145E+04; -2.7279514E-01;  0.0000000E+00;  1.2416181E-02;  5.6375693E+03;
  1.3610300E-02;  9.9999998E-03; -1.3998368E-01;2523; -1.1344629E-02;  0.0000000E+00; -2.1615687E-03;  9.7198138E+02;  1.0000000E-01; -2.3212875E+04;3;  1.1453078E+02;  0.0000000E+00; -1.3254804E+01;0; -2.6705623E-01;  3.7800824E+04;  0.0000000E+00; -1.0066299E-01;  4.0000000E+04;  0.0000000E+00;  4.0023641E+04; -2.7874249E-01;  0.0000000E+00;  1.1686252E-02;  5.3438623E+03;
  1.3603595E-02;  9.9999998E-03; -1.2998863E-01;2524; -1.1613752E-02;  0.0000000E+00; -2.0367804E-03;  9.7196942E+02;  1.0000000E-01; -2.3222801E+04;3;  1.1048415E+02;  0.0000000E+00; -1.2936354E+01;0; -2.7250862E-01;  3.7800992E+04;  0.0000000E+00; -6.9308221E-02;  4.0000000E+04;  0.0000000E+00;  4.0022391E+04; -2.8362831E-01;  0.0000000E+00;  1.1119679E-02;  5.1815630E+03;
  1.3587642E-02;  9.9999998E-03; -1.1999065E-01;2525; -1.1791891E-02;  0.0000000E+00; -1.9286216E-03;  9.7203772E+02;  1.0000000E-01; -2.3166209E+04;3;  1.0722683E+02;  0.0000000E+00; -1.2493868E+01;0; -2.7676186E-01;  3.7806445E+04;  0.0000000E+00; -4.3785345E-02;  4.0000000E+04;  0.0000000E+00;  4.0022000E+04; -2.8756171E-01;  0.0000000E+00;  1.0799853E-02;  5.1175210E+03;
  1.3566419E-02;  9.9999998E-03; -1.0998986E-01;2526; -1.1898534E-02;  0.0000000E+00; -1.8204678E-03;  9.7215802E+02;  1.0000000E-01; -2.3066557E+04;3;  1.0461874E+02;  0.0000000E+00; -1.1891060E+01;0; -2.7991447E-01;  3.7815359E+04;  0.0000000E+00; -2.5042653E-02;  4.0000000E+04;  0.0000000E+00;  4.0022020E+04; -2.9066351E-01;  0.0000000E+00;  1.0749044E-02;  5.1124185E+03;
  2.1124823E-02;  9.9999998E-03; -2.6970983E-01;2571; -5.1497207E-03;  0.0000000E+00; -4.6162182E-03;  9.8634821E+02;  1.0000000E-01; -1.1310248E+04;3;  2.3728859E+01;  0.0000000E+00;  5.9819572E+01;0; -1.4857709E-01;  3.8942164E+04;  0.0000000E+00;  7.5568676E-01;  4.0000000E+04;  0.0000000E+00;  3.9975852E+04; -1.2682146E-01;  0.0000000E+00; -2.1755632E-02;  2.1767039E+03;
  2.1521969E-02;  9.9999998E-03; -2.5973937E-01;2572; -5.6996043E-03;  0.0000000E+00; -5.0333850E-03;  9.8472668E+02;  1.0000000E-01; -1.2653667E+04;3;  4.2659878E+01;  0.0000000E+00;  4.7101044E+01;0; -1.6190413E-01;  3.8794379E+04;  0.0000000E+00;  7.5379825E-01;  4.0000000E+04;  0.0000000E+00;  3.9999348E+04; -1.4552958E-01;  0.0000000E+00; -1.6374538E-02;  1.6368508E+03;
  2.1888532E-02;  9.9999998E-03; -2.4978189E-01;2573; -6.3430499E-03;  0.0000000E+00; -5.3001544E-03;  9.8315533E+02;  1.0000000E-01; -1.3955507E+04;3;  6.0770473E+01;  0.0000000E+00;  3.5418419E+01;0; -1.7448781E-01;  3.8653598E+04;  0.0000000E+00;  6.6906375E-01;  4.0000000E+04;  0.0000000E+00;  4.0019879E+04; -1.6409655E-01;  0.0000000E+00; -1.0391265E-02;  4.0519360E+03;
  2.2224862E-02;  9.9999998E-03; -2.3982321E-01;2574; -7.0932521E-03;  0.0000000E+00; -5.4092244E-03;  9.8165643E+02;  1.0000000E-01; -1.5197299E+04;3;  7.6108932E+01;  0.0000000E+00;  2.5195503E+01;0; -1.8650343E-01;  3.8523449E+04;  0.0000000E+00;  5.2041841E-01;  4.0000000E+04;  0.0000000E+00;  4.0036094E+04; -1.8220603E-01;  0.0000000E+00; -4.2973962E-03;  6.1300327E+03;
  2.2533996E-02;  9.9999998E-03; -2.2985806E-01;2575; -7.9549309E-03;  0.0000000E+00; -5.3610792E-03;  9.8026312E+02;  1.0000000E-01; -1.6351637E+04;3;  8.7239670E+01;  0.0000000E+00;  1.6368093E+01;0; -1.9813956E-01;  3.8406902E+04;  0.0000000E+00;  3.3801645E-01;  4.0000000E+04;  0.0000000E+00;  4.0047102E+04; -1.9957606E-01;  0.0000000E+00;  1.4365073E-03;  7.5644976E+03;
  2.2805518E-02;  9.9999998E-03; -2.1988672E-01;2576; -8.9177871E-03;  0.0000000E+00; -5.1519591E-03;  9.7899750E+02;  1.0000000E-01; -1.7400199E+04;3;  9.3534706E+01;  0.0000000E+00;  8.8954411E+00;0; -2.0953298E-01;  3.8305484E+04;  0.0000000E+00;  1.5387084E-01;  4.0000000E+04;  0.0000000E+00;  4.0052434E+04; -2.1594428E-01;  0.0000000E+00;  6.4112954E-03;  8.3318340E+03;
  2.3032701E-02;  9.9999998E-03; -2.0990938E-01;2577; -9.9567892E-03;  0.0000000E+00; -4.7925944E-03;  9.7787756E+02;  1.0000000E-01; -1.8328025E+04;3;  9.5118668E+01;  0.0000000E+00;  2.7867134E+00;0; -2.2076575E-01;  3.8219992E+04;  0.0000000E+00; -5.6570708E-03;  4.0000000E+04;  0.0000000E+00;  4.0053219E+04; -2.3110929E-01;  0.0000000E+00;  1.0343543E-02;  8.5093516E+03;
  2.3215421E-02;  9.9999998E-03; -1.9992624E-01;2578; -1.1027502E-02;  0.0000000E+00; -4.3322188E-03;  9.7692200E+02;  1.0000000E-01; -1.9119707E+04;3;  9.2725632E+01;  0.0000000E+00; -1.9498268E+00;0; -2.3184879E-01;  3.8150223E+04;  0.0000000E+00; -1.2438884E-01;  4.0000000E+04;  0.0000000E+00;  4.0050293E+04; -2.4494249E-01;  0.0000000E+00;  1.3093696E-02;  8.2342559E+03;
  2.3354422E-02;  9.9999998E-03; -1.8993796E-01;2579; -1.2067559E-02;  0.0000000E+00; -3.8619165E-03;  9.7613690E+02;  1.0000000E-01; -1.9770107E+04;3;  8.7597305E+01;  0.0000000E+00; -5.4593301E+00;0; -2.4270207E-01;  3.8095582E+04;  0.0000000E+00; -1.9706580E-01;  4.0000000E+04;  0.0000000E+00;  4.0045188E+04; -2.5737527E-01;  0.0000000E+00;  1.4673205E-02;  7.6712446E+03;
  2.3452906E-02;  9.9999998E-03; -1.7994550E-01;2580; -1.3024005E-02;  0.0000000E+00; -3.4454269E-03;  9.7552887E+02;  1.0000000E-01; -2.0273846E+04;3;  8.0957970E+01;  0.0000000E+00; -7.8662782E+00;0; -2.5315931E-01;  3.8054906E+04;  0.0000000E+00; -2.2732139E-01;  4.0000000E+04;  0.0000000E+00;  4.0039234E+04; -2.6839095E-01;  0.0000000E+00;  1.5231647E-02;  6.9836616E+03;
  2.3516862E-02;  9.9999998E-03; -1.6995074E-01;2581; -1.3864073E-02;  0.0000000E+00; -3.0953691E-03;  9.7508667E+02;  1.0000000E-01; -2.0640207E+04;3;  7.3883362E+01;  0.0000000E+00; -9.2743502E+00;0; -2.6299676E-01;  3.8026766E+04;  0.0000000E+00; -2.2423418E-01;  4.0000000E+04;  0.0000000E+00;  4.0033555E+04; -2.7801439E-01;  0.0000000E+00;  1.5017628E-02;  6.3107549E+03;
  2.3552846E-02;  9.9999998E-03; -1.5995501E-01;2582; -1.4565994E-02;  0.0000000E+00; -2.8290024E-03;  9.7479968E+02;  1.0000000E-01; -2.0877977E+04;3;  6.7171165E+01;  0.0000000E+00; -9.9718437E+00;0; -2.7197692E-01;  3.8009449E+04;  0.0000000E+00; -1.9890690E-01;  4.0000000E+04;  0.0000000E+00;  4.0028797E+04; -2.8630263E-01;  0.0000000E+00;  1.4325710E-02;  5.7525791E+03;
  2.3567092E-02;  9.9999998E-03; -1.4995858E-01;2583; -1.5125138E-02;  0.0000000E+00; -2.6346014E-03;  9.7465387E+02;  1.0000000E-01; -2.0998814E+04;3;  6.1283997E+01;  0.0000000E+00; -1.0225744E+01;0; -2.7988866E-01;  3.8001152E+04;  0.0000000E+00; -1.6189902E-01;  4.0000000E+04;  0.0000000E+00;  4.0025754E+04; -2.9333526E-01;  0.0000000E+00;  1.3446605E-02;  5.3642070E+03;
  2.3564752E-02;  9.9999998E-03; -1.3996132E-01;2584; -1.5544534E-02;  0.0000000E+00; -2.4965366E-03;  9.7462231E+02;  1.0000000E-01; -2.1024936E+04;3;  5.6490257E+01;  0.0000000E+00; -1.0263540E+01;0; -2.8658316E-01;  3.8000312E+04;  0.0000000E+00; -1.2176086E-01;  4.0000000E+04;  0.0000000E+00;  4.0023887E+04; -2.9920655E-01;  0.0000000E+00;  1.2623409E-02;  5.1574321E+03;
  2.3550646E-02;  9.9999998E-03; -1.2996343E-01;2585; -1.5839428E-02;  0.0000000E+00; -2.3853576E-03;  9.7467871E+02;  1.0000000E-01; -2.0978221E+04;3;  5.2779434E+01;  0.0000000E+00; -1.0154917E+01;0; -2.9200032E-01;  3.8004973E+04;  0.0000000E+00; -8.4573962E-02;  4.0000000E+04;  0.0000000E+00;  4.0023672E+04; -3.0402344E-01;  0.0000000E+00;  1.2023109E-02;  5.1067085E+03;
  2.3529427E-02;  9.9999998E-03; -1.1996505E-01;2586; -1.6028933E-02;  0.0000000E+00; -2.2802101E-03;  9.7479913E+02;  1.0000000E-01; -2.0878422E+04;3;  4.9974098E+01;  0.0000000E+00; -9.8913698E+00;0; -2.9617488E-01;  3.8013629E+04;  0.0000000E+00; -5.4067995E-02;  4.0000000E+04;  0.0000000E+00;  4.0024371E+04; -3.0790469E-01;  0.0000000E+00;  1.1729793E-02;  5.1612588E+03;
  2.3505129E-02;  9.9999998E-03; -1.0996657E-01;2587; -1.6136441E-02;  0.0000000E+00; -2.1656416E-03;  9.7496008E+02;  1.0000000E-01; -2.0745092E+04;3;  4.7833576E+01;  0.0000000E+00; -9.4609613E+00;0; -2.9921791E-01;  3.8025016E+04;  0.0000000E+00; -3.1594116E-02;  4.0000000E+04;  0.0000000E+00;  4.0025250E+04; -3.1097555E-01;  0.0000000E+00;  1.1757636E-02;  5.2657896E+03;
  3.1222025E-02;  9.9999998E-03; -2.6976690E-01;2632; -6.7813378E-03;  0.0000000E+00; -5.0138361E-03;  9.8695367E+02;  1.0000000E-01; -1.0808633E+04;3;  6.4375024E+00;  0.0000000E+00;  6.1017700E+01;0; -1.6171324E-01;  3.8987414E+04;  0.0000000E+00;  1.0114833E+00;  4.0000000E+04;  0.0000000E+00;  3.9977590E+04; -1.3839109E-01;  0.0000000E+00; -2.3322158E-02;  2.2507468E+03;
  3.1630732E-02;  9.9999998E-03; -2.5979158E-01;2633; -7.6384419E-03;  0.0000000E+00; -5.4535517E-03;  9.8558069E+02;  1.0000000E-01; -1.1946131E+04;3;  2.1084093E+01;  0.0000000E+00;  4.7330555E+01;0; -1.7569356E-01;  3.8857469E+04;  0.0000000E+00;  1.0198067E+00;  4.0000000E+04;  0.0000000E+00;  4.0002484E+04; -1.5840159E-01;  0.0000000E+00; -1.7291961E-02;  2.1409688E+03;
  3.1999424E-02;  9.9999998E-03; -2.4983104E-01;2634; -8.5948315E-03;  0.0000000E+00; -5.7229069E-03;  9.8427551E+02;  1.0000000E-01; -1.3027434E+04;3;  3.4419441E+01;  0.0000000E+00;  3.5551441E+01;0; -1.8873107E-01;  3.8736445E+04;  0.0000000E+00;  9.2244589E-01;  4.0000000E+04;  0.0000000E+00;  4.0023902E+04; -1.7806986E-01;  0.0000000E+00; -1.0661212E-02;  4.5379722E+03;
  3.2330226E-02;  9.9999998E-03; -2.3986928E-01;2635; -9.6602319E-03;  0.0000000E+00; -5.8140983E-03;  9.8305615E+02;  1.0000000E-01; -1.4037677E+04;3;  4.4788006E+01;  0.0000000E+00;  2.5854183E+01;0; -2.0102587E-01;  3.8627500E+04;  0.0000000E+00;  7.4254239E-01;  4.0000000E+04;  0.0000000E+00;  4.0040254E+04; -1.9704619E-01;  0.0000000E+00; -3.9796764E-03;  6.5593550E+03;
  3.2628246E-02;  9.9999998E-03; -2.2989890E-01;2636; -1.0838077E-02;  0.0000000E+00; -5.7171029E-03;  9.8193787E+02;  1.0000000E-01; -1.4964120E+04;3;  5.1090549E+01;  0.0000000E+00;  1.7972221E+01;0; -2.1279785E-01;  3.8532273E+04;  0.0000000E+00;  5.1704186E-01;  4.0000000E+04;  0.0000000E+00;  4.0050461E+04; -2.1503296E-01;  0.0000000E+00;  2.2351146E-03;  7.8755698E+03;
  3.2885253E-02;  9.9999998E-03; -2.1991993E-01;2637; -1.2119098E-02;  0.0000000E+00; -5.4156431E-03;  9.8093402E+02;  1.0000000E-01; -1.5795800E+04;3;  5.2971420E+01;  0.0000000E+00;  1.1552591E+01;0; -2.2421940E-01;  3.8452016E+04;  0.0000000E+00;  2.8567776E-01;  4.0000000E+04;  0.0000000E+00;  4.0054703E+04; -2.3177092E-01;  0.0000000E+00;  7.5515262E-03;  8.4732705E+03;
  3.3095822E-02;  9.9999998E-03; -2.0993343E-01;2638; -1.3457255E-02;  0.0000000E+00; -4.9546757E-03;  9.8006439E+02;  1.0000000E-01; -1.6516273E+04;3;  5.0839844E+01;  0.0000000E+00;  6.2300811E+00;0; -2.3541230E-01;  3.8386344E+04;  0.0000000E+00;  8.1452690E-02;  4.0000000E+04;  0.0000000E+00;  4.0054188E+04; -2.4708453E-01;  0.0000000E+00;  1.1672232E-02;  8.4554385E+03;
  3.3260878E-02;  9.9999998E-03; -1.9994023E-01;2639; -1.4785335E-02;  0.0000000E+00; -4.4341963E-03;  9.7933417E+02;  1.0000000E-01; -1.7121244E+04;3;  4.5705616E+01;  0.0000000E+00;  1.8014323E+00;0; -2.4641792E-01;  3.8334953E+04;  0.0000000E+00; -7.4877672E-02;  4.0000000E+04;  0.0000000E+00;  4.0049871E+04; -2.6088387E-01;  0.0000000E+00;  1.4465943E-02;  7.9889409E+03;
  3.3382423E-02;  9.9999998E-03; -1.8994184E-01;2640; -1.6038507E-02;  0.0000000E+00; -3.9444105E-03;  9.7875397E+02;  1.0000000E-01; -1.7601922E+04;3;  3.8711418E+01;  0.0000000E+00; -1.7158921E+00;0; -2.5717351E-01;  3.8296898E+04;  0.0000000E+00; -1.7580278E-01;  4.0000000E+04;  0.0000000E+00;  4.0043746E+04; -2.7314669E-01;  0.0000000E+00;  1.5973182E-02;  7.2655493E+03;
  3.3465657E-02;  9.9999998E-03; -1.7994066E-01;2641; -1.7164223E-02;  0.0000000E+00; -3.5415399E-03;  9.7832513E+02;  1.0000000E-01; -1.7957221E+04;3;  3.0986443E+01;  0.0000000E+00; -4.2762790E+00;0; -2.6751962E-01;  3.8270574E+04;  0.0000000E+00; -2.2468911E-01;  4.0000000E+04;  0.0000000E+00;  4.0037031E+04; -2.8390238E-01;  0.0000000E+00;  1.6382750E-02;  6.4690264E+03;
  3.3515766E-02;  9.9999998E-03; -1.6993865E-01;2642; -1.8134004E-02;  0.0000000E+00; -3.2254742E-03;  9.7803827E+02;  1.0000000E-01; -1.8194893E+04;3;  2.3436993E+01;  0.0000000E+00; -5.8919187E+00;0; -2.7723077E-01;  3.8254609E+04;  0.0000000E+00; -2.3186076E-01;  4.0000000E+04;  0.0000000E+00;  4.0031055E+04; -2.9321581E-01;  0.0000000E+00;  1.5985038E-02;  5.7493193E+03;
  3.3539392E-02;  9.9999998E-03; -1.5993682E-01;2643; -1.8933157E-02;  0.0000000E+00; -2.9984212E-03;  9.7788458E+02;  1.0000000E-01; -1.8322197E+04;3;  1.6687868E+01;  0.0000000E+00; -6.7785144E+00;0; -2.8606537E-01;  3.8247203E+04;  0.0000000E+00; -2.1049944E-01;  4.0000000E+04;  0.0000000E+00;  4.0026570E+04; -3.0117953E-01;  0.0000000E+00;  1.5114151E-02;  5.2079023E+03;
  3.3542555E-02;  9.9999998E-03; -1.4993577E-01;2644; -1.9558964E-02;  0.0000000E+00; -2.8477244E-03;  9.7784503E+02;  1.0000000E-01; -1.8354986E+04;3;  1.1120466E+01;  0.0000000E+00; -7.2061124E+00;0; -2.9380786E-01;  3.8246832E+04;  0.0000000E+00; -1.7345035E-01;  4.0000000E+04;  0.0000000E+00;  4.0024094E+04; -3.0790073E-01;  0.0000000E+00;  1.4092854E-02;  4.8933442E+03;
  3.3530679E-02;  9.9999998E-03; -1.3993579E-01;2645; -2.0023054E-02;  0.0000000E+00; -2.7424667E-03;  9.7790424E+02;  1.0000000E-01; -1.8305902E+04;3;  6.7993441E+00;  0.0000000E+00; -7.3809967E+00;0; -3.0030742E-01;  3.8251773E+04;  0.0000000E+00; -1.3129695E-01;  4.0000000E+04;  0.0000000E+00;  4.0023480E+04; -3.1349313E-01;  0.0000000E+00;  1.3185719E-02;  4.8035381E+03;
  3.3509202E-02;  9.9999998E-03; -1.2993714E-01;2646; -2.0343529E-02;  0.0000000E+00; -2.6563469E-03;  9.7803149E+02;  1.0000000E-01; -1.8200473E+04;3;  3.6611900E+00;  0.0000000E+00; -7.4065018E+00;0; -3.0550951E-01;  3.8260887E+04;  0.0000000E+00; -9.1633134E-02;  4.0000000E+04;  0.0000000E+00;  4.0024320E+04; -3.1807783E-01;  0.0000000E+00;  1.2568328E-02;  4.8940410E+03;
  3.3482894E-02;  9.9999998E-03; -1.1994023E-01;2647; -2.0545784E-02;  0.0000000E+00; -2.5645241E-03;  9.7820654E+02;  1.0000000E-01; -1.8055490E+04;3;  1.4338027E+00;  0.0000000E+00; -7.2796292E+00;0; -3.0945829E-01;  3.8272629E+04;  0.0000000E+00; -5.8961924E-02;  4.0000000E+04;  0.0000000E+00;  4.0026020E+04; -3.2177982E-01;  0.0000000E+00;  1.2321535E-02;  5.0937266E+03;
  3.3455260E-02;  9.9999998E-03; -1.0994522E-01;2648; -2.0655749E-02;  0.0000000E+00; -2.4510827E-03;  9.7840643E+02;  1.0000000E-01; -1.7889865E+04;3; -1.5737079E-01;  0.0000000E+00; -6.9970427E+00;0; -3.1227455E-01;  3.8286180E+04;  0.0000000E+00; -3.4892343E-02;  4.0000000E+04;  0.0000000E+00;  4.0028137E+04; -3.2472301E-01;  0.0000000E+00;  1.2448448E-02;  5.3295532E+03;
  4.1334029E-02;  9.9999998E-03; -2.6980060E-01;2693; -8.4978780E-03;  0.0000000E+00; -5.3803045E-03;  9.8772571E+02;  1.0000000E-01; -1.0168996E+04;3; -8.1964827E+00;  0.0000000E+00;  5.8846275E+01;0; -1.7282391E-01;  3.9045000E+04;  0.0000000E+00;  1.1789163E+00;  4.0000000E+04;  0.0000000E+00;  3.9980270E+04; -1.4857094E-01;  0.0000000E+00; -2.4252960E-02;  2.2331025E+03;
  4.1747931E-02;  9.9999998E-03; -2.5982112E-01;2694; -9.6756117E-03;  0.0000000E+00; -5.8321934E-03;  9.8662366E+02;  1.0000000E-01; -1.1082057E+04;3;  2.8540978E+00;  0.0000000E+00;  4.4568535E+01;0; -1.8716145E-01;  3.8934945E+04;  0.0000000E+00;  1.2110242E+00;  4.0000000E+04;  0.0000000E+00;  4.0006164E+04; -1.6949639E-01;  0.0000000E+00; -1.7665058E-02;  2.6047952E+03;
  4.2115670E-02;  9.9999998E-03; -2.4985698E-01;2695; -1.0958725E-02;  0.0000000E+00; -6.0863402E-03;  9.8560583E+02;  1.0000000E-01; -1.1925292E+04;3;  1.2320077E+01;  0.0000000E+00;  3.3083611E+01;0; -2.0034571E-01;  3.8835742E+04;  0.0000000E+00;  1.1210479E+00;  4.0000000E+04;  0.0000000E+00;  4.0028125E+04; -1.8983936E-01;  0.0000000E+00; -1.0506340E-02;  5.0119360E+03;
  4.2439863E-02;  9.9999998E-03; -2.3989196E-01;2696; -1.2357550E-02;  0.0000000E+00; -6.1214063E-03;  9.8467615E+02;  1.0000000E-01; -1.2695542E+04;3;  1.8822186E+01;  0.0000000E+00;  2.4394716E+01;0; -2.1259917E-01;  3.8749398E+04;  0.0000000E+00;  9.3334508E-01;  4.0000000E+04;  0.0000000E+00;  4.0044215E+04; -2.0922273E-01;  0.0000000E+00; -3.3764336E-03;  6.9488955E+03;
  4.2725969E-02;  9.9999998E-03; -2.2991814E-01;2697; -1.3877357E-02;  0.0000000E+00; -5.9056403E-03;  9.8384760E+02;  1.0000000E-01; -1.3381942E+04;3;  2.1532425E+01;  0.0000000E+00;  1.7848492E+01;0; -2.2417200E-01;  3.8677199E+04;  0.0000000E+00;  6.8820715E-01;  4.0000000E+04;  0.0000000E+00;  4.0053434E+04; -2.2734120E-01;  0.0000000E+00;  3.1692097E-03;  8.1117920E+03;
  4.2967848E-02;  9.9999998E-03; -2.1993510E-01;2698; -1.5475327E-02;  0.0000000E+00; -5.4803421E-03;  9.8312048E+02;  1.0000000E-01; -1.3984346E+04;3;  2.0500151E+01;  0.0000000E+00;  1.2563603E+01;0; -2.3528719E-01;  3.8619047E+04;  0.0000000E+00;  4.3004534E-01;  4.0000000E+04;  0.0000000E+00;  4.0056570E+04; -2.4396351E-01;  0.0000000E+00;  8.6763250E-03;  8.5074102E+03;
  4.3162473E-02;  9.9999998E-03; -2.0994323E-01;2699; -1.7090876E-02;  0.0000000E+00; -4.9312529E-03;  9.8250537E+02;  1.0000000E-01; -1.4493960E+04;3;  1.6288866E+01;  0.0000000E+00;  7.9876480E+00;0; -2.4610923E-01;  3.8574480E+04;  0.0000000E+00;  1.9631964E-01;  4.0000000E+04;  0.0000000E+00;  4.0054293E+04; -2.5895727E-01;  0.0000000E+00;  1.2848038E-02;  8.2672969E+03;
  4.3311924E-02;  9.9999998E-03; -1.9994372E-01;2700; -1.8648580E-02;  0.0000000E+00; -4.3773069E-03;  9.8200824E+02;  1.0000000E-01; -1.4905850E+04;3;  9.8739691E+00;  0.0000000E+00;  3.9661376E+00;0; -2.5671127E-01;  3.8542523E+04;  0.0000000E+00;  1.1439225E-02;  4.0000000E+04;  0.0000000E+00;  4.0048574E+04; -2.7228457E-01;  0.0000000E+00;  1.5573306E-02;  7.5894365E+03;
  4.3419693E-02;  9.9999998E-03; -1.8993925E-01;2701; -2.0084394E-02;  0.0000000E+00; -3.8983361E-03;  9.8163812E+02;  1.0000000E-01; -1.5212459E+04;3;  2.2942462E+00;  0.0000000E+00;  6.4326894E-01;0; -2.6705015E-01;  3.8521523E+04;  0.0000000E+00; -1.1445042E-01;  4.0000000E+04;  0.0000000E+00;  4.0041109E+04; -2.8397596E-01;  0.0000000E+00;  1.6925817E-02;  6.6936675E+03;
  4.3489546E-02;  9.9999998E-03; -1.7993207E-01;2702; -2.1361599E-02;  0.0000000E+00; -3.5134258E-03;  9.8138922E+02;  1.0000000E-01; -1.5418675E+04;3; -5.5071044E+00;  0.0000000E+00; -1.8020020E+00;0; -2.7697423E-01;  3.8510117E+04;  0.0000000E+00; -1.8333519E-01;  4.0000000E+04;  0.0000000E+00;  4.0033582E+04; -2.9410729E-01;  0.0000000E+00;  1.7133046E-02;  5.7840635E+03;
  4.3526780E-02;  9.9999998E-03; -1.6992408E-01;2703; -2.2440629E-02;  0.0000000E+00; -3.2465176E-03;  9.8125830E+02;  1.0000000E-01; -1.5527166E+04;3; -1.2721122E+01;  0.0000000E+00; -3.4003842E+00;0; -2.8627202E-01;  3.8506219E+04;  0.0000000E+00; -2.0522331E-01;  4.0000000E+04;  0.0000000E+00;  4.0027398E+04; -3.0279481E-01;  0.0000000E+00;  1.6522797E-02;  5.0214805E+03;
  4.3538239E-02;  9.9999998E-03; -1.5991744E-01;2704; -2.3323685E-02;  0.0000000E+00; -3.0667642E-03;  9.8123450E+02;  1.0000000E-01; -1.5546869E+04;3; -1.8909262E+01;  0.0000000E+00; -4.2938781E+00;0; -2.9469872E-01;  3.8508719E+04;  0.0000000E+00; -1.9380607E-01;  4.0000000E+04;  0.0000000E+00;  4.0023367E+04; -3.1016222E-01;  0.0000000E+00;  1.5463509E-02;  4.5082646E+03;
  4.3530513E-02;  9.9999998E-03; -1.4991356E-01;2705; -2.4006547E-02;  0.0000000E+00; -2.9673581E-03;  9.8130408E+02;  1.0000000E-01; -1.5489241E+04;3; -2.3795729E+01;  0.0000000E+00; -4.7542725E+00;0; -3.0204111E-01;  3.8516027E+04;  0.0000000E+00; -1.6297746E-01;  4.0000000E+04;  0.0000000E+00;  4.0021609E+04; -3.1634572E-01;  0.0000000E+00;  1.4304620E-02;  4.2838110E+03;
  4.3509524E-02;  9.9999998E-03; -1.3991232E-01;2706; -2.4508979E-02;  0.0000000E+00; -2.9043483E-03;  9.8144684E+02;  1.0000000E-01; -1.5370923E+04;3; -2.7388350E+01;  0.0000000E+00; -4.9745984E+00;0; -3.0814993E-01;  3.8526645E+04;  0.0000000E+00; -1.2458293E-01;  4.0000000E+04;  0.0000000E+00;  4.0022008E+04; -3.2147676E-01;  0.0000000E+00;  1.3326813E-02;  4.3293452E+03;
  4.3481000E-02;  9.9999998E-03; -1.2991454E-01;2707; -2.4853265E-02;  0.0000000E+00; -2.8504925E-03;  9.8164075E+02;  1.0000000E-01; -1.5210286E+04;3; -2.9850605E+01;  0.0000000E+00; -5.0615478E+00;0; -3.1297508E-01;  3.8539801E+04;  0.0000000E+00; -8.7316908E-02;  4.0000000E+04;  0.0000000E+00;  4.0024133E+04; -3.2568493E-01;  0.0000000E+00;  1.2709863E-02;  4.5787817E+03;
  4.3449517E-02;  9.9999998E-03; -1.1992032E-01;2708; -2.5067359E-02;  0.0000000E+00; -2.7798738E-03;  9.8186523E+02;  1.0000000E-01; -1.5024315E+04;3; -3.1466248E+01;  0.0000000E+00; -5.0182528E+00;0; -3.1656849E-01;  3.8554285E+04;  0.0000000E+00; -5.6280717E-02;  4.0000000E+04;  0.0000000E+00;  4.0027395E+04; -3.2909638E-01;  0.0000000E+00;  1.2527884E-02;  4.9386982E+03;
  4.3418154E-02;  9.9999998E-03; -1.0992885E-01;2709; -2.5181698E-02;  0.0000000E+00; -2.6752290E-03;  9.8210120E+02;  1.0000000E-01; -1.4828815E+04;3; -3.2543137E+01;  0.0000000E+00; -4.8476610E+00;0; -3.1906113E-01;  3.8569449E+04;  0.0000000E+00; -3.3367787E-02;  4.0000000E+04;  0.0000000E+00;  4.0030453E+04; -3.3183178E-01;  0.0000000E+00;  1.2770662E-02;  5.3178472E+03;
  5.1455993E-02;  9.9999998E-03; -2.6981226E-01;2754; -1.0253155E-02;  0.0000000E+00; -5.7035061E-03;  9.8853918E+02;  1.0000000E-01; -9.4950898E+03;3; -1.9125591E+01;  0.0000000E+00;  5.3820267E+01;0; -1.8196961E-01;  3.9104805E+04;  0.0000000E+00;  1.2517537E+00;  4.0000000E+04;  0.0000000E+00;  3.9983969E+04; -1.5747219E-01;  0.0000000E+00; -2.4497418E-02;  2.0938032E+03;
  5.1866695E-02;  9.9999998E-03; -2.5983346E-01;2755; -1.1761451E-02;  0.0000000E+00; -6.1416654E-03;  9.8770502E+02;  1.0000000E-01; -1.0186181E+04;3; -1.0496581E+01;  0.0000000E+00;  3.9265339E+01;0; -1.9639242E-01;  3.9014898E+04;  0.0000000E+00;  1.3296819E+00;  4.0000000E+04;  0.0000000E+00;  4.0010684E+04; -1.7891225E-01;  0.0000000E+00; -1.7480165E-02;  3.0704150E+03;
  5.2229058E-02;  9.9999998E-03; -2.4986763E-01;2756; -1.3382182E-02;  0.0000000E+00; -6.3407724E-03;  9.8697205E+02;  1.0000000E-01; -1.0793423E+04;3; -3.6081395E+00;  0.0000000E+00;  2.8481159E+01;0; -2.0944321E-01;  3.8937574E+04;  0.0000000E+00;  1.2757747E+00;  4.0000000E+04;  0.0000000E+00;  4.0032789E+04; -1.9949643E-01;  0.0000000E+00; -9.9467710E-03;  5.5249189E+03;
  5.2543871E-02;  9.9999998E-03; -2.3990203E-01;2757; -1.5120385E-02;  0.0000000E+00; -6.2655890E-03;  9.8633331E+02;  1.0000000E-01; -1.1322594E+04;3;  4.7991151E-01;  0.0000000E+00;  2.1088667E+01;0; -2.2136337E-01;  3.8874062E+04;  0.0000000E+00;  1.1104349E+00;  4.0000000E+04;  0.0000000E+00;  4.0048215E+04; -2.1882533E-01;  0.0000000E+00; -2.5380477E-03;  7.3700137E+03;
  5.2817233E-02;  9.9999998E-03; -2.2992782E-01;2758; -1.6955385E-02;  0.0000000E+00; -5.9276475E-03;  9.8578424E+02;  1.0000000E-01; -1.1777494E+04;3;  1.2885443E+00;  0.0000000E+00;  1.5937050E+01;0; -2.3244408E-01;  3.8824605E+04;  0.0000000E+00;  8.7289679E-01;  4.0000000E+04;  0.0000000E+00;  4.0056312E+04; -2.3660931E-01;  0.0000000E+00;  4.1652340E-03;  8.3609102E+03;
  5.3045284E-02;  9.9999998E-03; -2.1994342E-01;2759; -1.8833248E-02;  0.0000000E+00; -5.3952420E-03;  9.8532385E+02;  1.0000000E-01; -1.2158915E+04;3; -1.0176874E+00;  0.0000000E+00;  1.1849880E+01;0; -2.4295479E-01;  3.8788602E+04;  0.0000000E+00;  6.0901845E-01;  4.0000000E+04;  0.0000000E+00;  4.0057965E+04; -2.5265735E-01;  0.0000000E+00;  9.7025661E-03;  8.5327295E+03;
  5.3227231E-02;  9.9999998E-03; -2.0994854E-01;2760; -2.0689106E-02;  0.0000000E+00; -4.7747837E-03;  9.8495605E+02;  1.0000000E-01; -1.2463647E+04;3; -5.8483334E+00;  0.0000000E+00;  8.1718254E+00;0; -2.5310227E-01;  3.8764797E+04;  0.0000000E+00;  3.5916016E-01;  4.0000000E+04;  0.0000000E+00;  4.0054129E+04; -2.6689181E-01;  0.0000000E+00;  1.3789544E-02;  8.0486875E+03;
  5.3365767E-02;  9.9999998E-03; -1.9994530E-01;2761; -2.2444259E-02;  0.0000000E+00; -4.1911714E-03;  9.8468329E+02;  1.0000000E-01; -1.2689616E+04;3; -1.2297673E+01;  0.0000000E+00;  4.7845573E+00;0; -2.6299158E-01;  3.8751680E+04;  0.0000000E+00;  1.5155515E-01;  4.0000000E+04;  0.0000000E+00;  4.0046664E+04; -2.7933347E-01;  0.0000000E+00;  1.6341884E-02;  7.1397383E+03;
  5.3463031E-02;  9.9999998E-03; -1.8993607E-01;2762; -2.4032341E-02;  0.0000000E+00; -3.7266025E-03;  9.8450977E+02;  1.0000000E-01; -1.2833365E+04;3; -1.9424238E+01;  0.0000000E+00;  1.8832264E+00;0; -2.7260622E-01;  3.8747277E+04;  0.0000000E+00;  7.4658739E-05;  4.0000000E+04;  0.0000000E+00;  4.0037930E+04; -2.9007447E-01;  0.0000000E+00;  1.7468231E-02;  6.0552983E+03;
  5.3521805E-02;  9.9999998E-03; -1.7992359E-01;2763; -2.5422936E-02;  0.0000000E+00; -3.3786851E-03;  9.8443066E+02;  1.0000000E-01; -1.2898895E+04;3; -2.6447313E+01;  0.0000000E+00; -2.9131222E-01;0; -2.8181919E-01;  3.8749871E+04;  0.0000000E+00; -9.3994126E-02;  4.0000000E+04;  0.0000000E+00;  4.0029602E+04; -2.9925060E-01;  0.0000000E+00;  1.7431414E-02;  5.0217178E+03;
  5.3548064E-02;  9.9999998E-03; -1.6991098E-01;2764; -2.6590623E-02;  0.0000000E+00; -3.1591791E-03;  9.8444440E+02;  1.0000000E-01; -1.2887537E+04;3; -3.2751163E+01;  0.0000000E+00; -1.7184614E+00;0; -2.9042977E-01;  3.8757812E+04;  0.0000000E+00; -1.3826218E-01;  4.0000000E+04;  0.0000000E+00;  4.0022973E+04; -3.0702198E-01;  0.0000000E+00;  1.6592208E-02;  4.2117808E+03;
  5.3549089E-02;  9.9999998E-03; -1.5990153E-01;2765; -2.7534360E-02;  0.0000000E+00; -3.0404248E-03;  9.8453998E+02;  1.0000000E-01; -1.2808329E+04;3; -3.7969292E+01;  0.0000000E+00; -2.5219929E+00;0; -2.9820704E-01;  3.8769336E+04;  0.0000000E+00; -1.4515613E-01;  4.0000000E+04;  0.0000000E+00;  4.0019316E+04; -3.1355307E-01;  0.0000000E+00;  1.5346006E-02;  3.7273364E+03;
  5.3531863E-02;  9.9999998E-03; -1.4989574E-01;2766; -2.8261025E-02;  0.0000000E+00; -2.9967453E-03;  9.8470404E+02;  1.0000000E-01; -1.2672432E+04;3; -4.1941608E+01;  0.0000000E+00; -2.9336383E+00;0; -3.0494186E-01;  3.8783453E+04;  0.0000000E+00; -1.2841041E-01;  4.0000000E+04;  0.0000000E+00;  4.0018438E+04; -3.1900349E-01;  0.0000000E+00;  1.4061624E-02;  3.5969678E+03;
  5.3502705E-02;  9.9999998E-03; -1.3989444E-01;2767; -2.8793054E-02;  0.0000000E+00; -2.9814683E-03;  9.8492188E+02;  1.0000000E-01; -1.2491943E+04;3; -4.4730259E+01;  0.0000000E+00; -3.1394136E+00;0; -3.1048879E-01;  3.8799078E+04;  0.0000000E+00; -1.0047443E-01;  4.0000000E+04;  0.0000000E+00;  4.0020004E+04; -3.2351893E-01;  0.0000000E+00;  1.3030132E-02;  3.7831045E+03;
  5.3467587E-02;  9.9999998E-03; -1.2989831E-01;2768; -2.9156975E-02;  0.0000000E+00; -2.9637231E-03;  9.8517273E+02;  1.0000000E-01; -1.2284097E+04;3; -4.6524113E+01;  0.0000000E+00; -3.2361846E+00;0; -3.1480193E-01;  3.8815344E+04;  0.0000000E+00; -7.0906743E-02;  4.0000000E+04;  0.0000000E+00;  4.0023652E+04; -3.2723308E-01;  0.0000000E+00;  1.2431142E-02;  4.1959175E+03;
  5.3430691E-02;  9.9999998E-03; -1.1990669E-01;2769; -2.9382203E-02;  0.0000000E+00; -2.9181431E-03;  9.8543573E+02;  1.0000000E-01; -1.2066227E+04;3; -4.7590965E+01;  0.0000000E+00; -3.2332954E+00;0; -3.1793967E-01;  3.8831941E+04;  0.0000000E+00; -4.5422722E-02;  4.0000000E+04;  0.0000000E+00;  4.0027953E+04; -3.3026907E-01;  0.0000000E+00;  1.2329401E-02;  4.7192939E+03;
  5.3394929E-02;  9.9999998E-03; -1.0991807E-01;2770; -2.9501805E-02;  0.0000000E+00; -2.8269570E-03;  9.8569623E+02;  1.0000000E-01; -1.1850381E+04;3; -4.8227001E+01;  0.0000000E+00; -3.1348152E+00;0; -3.2003772E-01;  3.8848043E+04;  0.0000000E+00; -2.6418600E-02;  4.0000000E+04;  0.0000000E+00;  4.0032312E+04; -3.3273768E-01;  0.0000000E+00;  1.2699975E-02;  5.2437617E+03;
  6.1579760E-02;  9.9999998E-03; -2.6981100E-01;2815; -1.2029468E-02;  0.0000000E+00; -5.9610186E-03;  9.8928082E+02;  1.0000000E-01; -8.8806377E+03;3; -2.6527760E+01;  0.0000000E+00;  4.6919266E+01;0; -1.8942881E-01;  3.9158195E+04;  0.0000000E+00;  1.2761430E+00;  4.0000000E+04;  0.0000000E+00;  3.9988781E+04; -1.6537131E-01;  0.0000000E+00; -2.4057498E-02;  1.9184326E+03;
  6.1979719E-02;  9.9999998E-03; -2.5983676E-01;2816; -1.3869286E-02;  0.0000000E+00; -6.3525732E-03;  9.8870093E+02;  1.0000000E-01; -9.3610684E+03;3; -1.9118620E+01;  0.0000000E+00;  3.2365150E+01;0; -2.0371355E-01;  3.9087395E+04;  0.0000000E+00;  1.4096190E+00;  4.0000000E+04;  0.0000000E+00;  4.0016254E+04; -1.8694106E-01;  0.0000000E+00; -1.6772490E-02;  3.6177109E+03;
  6.2332146E-02;  9.9999998E-03; -2.4987228E-01;2817; -1.5818397E-02;  0.0000000E+00; -6.4613726E-03;  9.8823334E+02;  1.0000000E-01; -9.7484648E+03;3; -1.3436300E+01;  0.0000000E+00;  2.2501919E+01;0; -2.1639943E-01;  3.9030699E+04;  0.0000000E+00;  1.4110168E+00;  4.0000000E+04;  0.0000000E+00;  4.0038250E+04; -2.0735282E-01;  0.0000000E+00; -9.0466123E-03;  6.1340327E+03;
  6.2635824E-02;  9.9999998E-03; -2.3990840E-01;2818; -1.7864859E-02;  0.0000000E+00; -6.2736003E-03;  9.8785999E+02;  1.0000000E-01; -1.0057790E+04;3; -1.0297626E+01;  0.0000000E+00;  1.6508455E+01;0; -2.2774994E-01;  3.8988699E+04;  0.0000000E+00;  1.2931890E+00;  4.0000000E+04;  0.0000000E+00;  4.0053070E+04; -2.2620335E-01;  0.0000000E+00; -1.5465859E-03;  7.8877139E+03;
  6.2896721E-02;  9.9999998E-03; -2.2993577E-01;2819; -1.9975964E-02;  0.0000000E+00; -5.8156112E-03;  9.8757147E+02;  1.0000000E-01; -1.0296795E+04;3; -9.9956989E+00;  0.0000000E+00;  1.2826249E+01;0; -2.3809381E-01;  3.8960723E+04;  0.0000000E+00;  1.0871278E+00;  4.0000000E+04;  0.0000000E+00;  4.0060070E+04; -2.4323067E-01;  0.0000000E+00;  5.1368689E-03;  8.6986943E+03;
  6.3114017E-02;  9.9999998E-03; -2.1995115E-01;2820; -2.2093661E-02;  0.0000000E+00; -5.1777218E-03;  9.8735663E+02;  1.0000000E-01; -1.0474814E+04;3; -1.2302503E+01;  0.0000000E+00;  1.0037258E+01;0; -2.4774531E-01;  3.8945406E+04;  0.0000000E+00;  8.3404976E-01;  4.0000000E+04;  0.0000000E+00;  4.0059633E+04; -2.5829500E-01;  0.0000000E+00;  1.0549687E-02;  8.6338291E+03;
  6.3287452E-02;  9.9999998E-03; -2.0995457E-01;2821; -2.4141656E-02;  0.0000000E+00; -4.5024320E-03;  9.8721423E+02;  1.0000000E-01; -1.0592787E+04;3; -1.6624327E+01;  0.0000000E+00;  7.3697267E+00;0; -2.5695130E-01;  3.8940973E+04;  0.0000000E+00;  5.7621348E-01;  4.0000000E+04;  0.0000000E+00;  4.0054039E+04; -2.7137876E-01;  0.0000000E+00;  1.4427454E-02;  7.8901113E+03;
  6.3418843E-02;  9.9999998E-03; -1.9994810E-01;2822; -2.6050018E-02;  0.0000000E+00; -3.9016355E-03;  9.8714459E+02;  1.0000000E-01; -1.0650464E+04;3; -2.2176693E+01;  0.0000000E+00;  4.7309766E+00;0; -2.6585475E-01;  3.8945375E+04;  0.0000000E+00;  3.4697187E-01;  4.0000000E+04;  0.0000000E+00;  4.0045000E+04; -2.8257081E-01;  0.0000000E+00;  1.6716067E-02;  6.7328696E+03;
  6.3508563E-02;  9.9999998E-03; -1.8993455E-01;2823; -2.7753523E-02;  0.0000000E+00; -3.4466772E-03;  9.8714624E+02;  1.0000000E-01; -1.0649081E+04;3; -2.8144279E+01;  0.0000000E+00;  2.3531485E+00;0; -2.7447325E-01;  3.8956305E+04;  0.0000000E+00;  1.6585037E-01;  4.0000000E+04;  0.0000000E+00;  4.0034816E+04; -2.9203185E-01;  0.0000000E+00;  1.7558603E-02;  5.4425869E+03;
  6.3559398E-02;  9.9999998E-03; -1.7991771E-01;2824; -2.9220654E-02;  0.0000000E+00; -3.1445569E-03;  9.8721716E+02;  1.0000000E-01; -1.0590317E+04;3; -3.3877647E+01;  0.0000000E+00;  5.2047229E-01;0; -2.8271192E-01;  3.8971738E+04;  0.0000000E+00;  3.9456364E-02;  4.0000000E+04;  0.0000000E+00;  4.0025434E+04; -2.9996279E-01;  0.0000000E+00;  1.7250881E-02;  4.2693184E+03;
  6.3577838E-02;  9.9999998E-03; -1.6990241E-01;2825; -3.0447468E-02;  0.0000000E+00; -2.9786688E-03;  9.8735693E+02;  1.0000000E-01; -1.0474519E+04;3; -3.8934052E+01;  0.0000000E+00; -6.8123823E-01;0; -2.9039311E-01;  3.8989820E+04;  0.0000000E+00; -3.5606626E-02;  4.0000000E+04;  0.0000000E+00;  4.0018719E+04; -3.0657333E-01;  0.0000000E+00;  1.6180232E-02;  3.3985813E+03;
  6.3571468E-02;  9.9999998E-03; -1.5989079E-01;2826; -3.1430479E-02;  0.0000000E+00; -2.9247520E-03;  9.8755048E+02;  1.0000000E-01; -1.0314178E+04;3; -4.3004108E+01;  0.0000000E+00; -1.3487654E+00;0; -2.9730833E-01;  3.9009117E+04;  0.0000000E+00; -6.9084182E-02;  4.0000000E+04;  0.0000000E+00;  4.0015012E+04; -3.1206852E-01;  0.0000000E+00;  1.4760192E-02;  2.9326650E+03;
  6.3547172E-02;  9.9999998E-03; -1.4988384E-01;2827; -3.2185890E-02;  0.0000000E+00; -2.9351960E-03;  9.8779401E+02;  1.0000000E-01; -1.0112455E+04;3; -4.6016895E+01;  0.0000000E+00; -1.6738188E+00;0; -3.0325940E-01;  3.9028836E+04;  0.0000000E+00; -7.3646195E-02;  4.0000000E+04;  0.0000000E+00;  4.0014809E+04; -3.1662971E-01;  0.0000000E+00;  1.3370291E-02;  2.8885986E+03;
  6.3511685E-02;  9.9999998E-03; -1.3988270E-01;2828; -3.2738186E-02;  0.0000000E+00; -2.9668463E-03;  9.8806952E+02;  1.0000000E-01; -9.8841650E+03;3; -4.8033413E+01;  0.0000000E+00; -1.8349314E+00;0; -3.0810601E-01;  3.9048082E+04;  0.0000000E+00; -6.1996523E-02;  4.0000000E+04;  0.0000000E+00;  4.0017551E+04; -3.2041174E-01;  0.0000000E+00;  1.2305729E-02;  3.2082664E+03;
  6.3470803E-02;  9.9999998E-03; -1.2988809E-01;2829; -3.3115890E-02;  0.0000000E+00; -2.9874390E-03;  9.8836047E+02;  1.0000000E-01; -9.6431348E+03;3; -4.9239258E+01;  0.0000000E+00; -1.9157255E+00;0; -3.1180578E-01;  3.9066691E+04;  0.0000000E+00; -4.4516765E-02;  4.0000000E+04;  0.0000000E+00;  4.0022402E+04; -3.2354787E-01;  0.0000000E+00;  1.1742078E-02;  3.7770107E+03;
  6.3428730E-02;  9.9999998E-03; -1.1989877E-01;2830; -3.3351090E-02;  0.0000000E+00; -2.9722673E-03;  9.8865167E+02;  1.0000000E-01; -9.4018574E+03;3; -4.9883244E+01;  0.0000000E+00; -1.9276975E+00;0; -3.1441960E-01;  3.9084109E+04;  0.0000000E+00; -2.7695077E-02;  4.0000000E+04;  0.0000000E+00;  4.0028074E+04; -3.2615268E-01;  0.0000000E+00;  1.1733072E-02;  4.4561934E+03;
  6.3389011E-02;  9.9999998E-03; -1.0991193E-01;2831; -3.3477467E-02;  0.0000000E+00; -2.8973690E-03;  9.8892603E+02;  1.0000000E-01; -9.1745557E+03;3; -5.0202732E+01;  0.0000000E+00; -1.8733402E+00;0; -3.1608361E-01;  3.9100266E+04;  0.0000000E+00; -1.4755577E-02;  4.0000000E+04;  0.0000000E+00;  4.0033445E+04; -3.2832184E-01;  0.0000000E+00;  1.2238245E-02;  5.1186929E+03;
  7.1699142E-02;  9.9999998E-03; -2.6980346E-01;2876; -1.3811128E-02;  0.0000000E+00; -6.1457767E-03;  9.8985272E+02;  1.0000000E-01; -8.4068242E+03;3; -3.1226126E+01;  0.0000000E+00;  3.9200829E+01;0; -1.9572522E-01;  3.9197438E+04;  0.0000000E+00;  1.4375615E+00;  4.0000000E+04;  0.0000000E+00;  3.9994625E+04; -1.7275211E-01;  0.0000000E+00; -2.2973105E-02;  2.0896562E+03;
  7.2083957E-02;  9.9999998E-03; -2.5983664E-01;2877; -1.5976517E-02;  0.0000000E+00; -6.4633717E-03;  9.8950470E+02;  1.0000000E-01; -8.6951611E+03;3; -2.4033213E+01;  0.0000000E+00;  2.4825140E+01;0; -2.0969549E-01;  3.9143984E+04;  0.0000000E+00;  1.5851984E+00;  4.0000000E+04;  0.0000000E+00;  4.0022805E+04; -1.9408599E-01;  0.0000000E+00; -1.5609508E-02;  4.3846479E+03;
  7.2422169E-02;  9.9999998E-03; -2.4987669E-01;2878; -1.8230591E-02;  0.0000000E+00; -6.4673438E-03;  9.8927716E+02;  1.0000000E-01; -8.8836504E+03;3; -1.8492188E+01;  0.0000000E+00;  1.5986732E+01;0; -2.2182442E-01;  3.9106207E+04;  0.0000000E+00;  1.6076145E+00;  4.0000000E+04;  0.0000000E+00;  4.0044664E+04; -2.1393150E-01;  0.0000000E+00; -7.8929253E-03;  6.9083599E+03;
  7.2714686E-02;  9.9999998E-03; -2.3991568E-01;2879; -2.0551581E-02;  0.0000000E+00; -6.1533693E-03;  9.8914502E+02;  1.0000000E-01; -8.9931279E+03;3; -1.5261212E+01;  0.0000000E+00;  1.1447598E+01;0; -2.3240790E-01;  3.9083699E+04;  0.0000000E+00;  1.5171289E+00;  4.0000000E+04;  0.0000000E+00;  4.0058836E+04; -2.3191150E-01;  0.0000000E+00; -4.9640983E-04;  8.5512471E+03;
  7.2965294E-02;  9.9999998E-03; -2.2994491E-01;2880; -2.2896631E-02;  0.0000000E+00; -5.5753193E-03;  9.8908722E+02;  1.0000000E-01; -9.0410283E+03;3; -1.4505715E+01;  0.0000000E+00;  9.2546377E+00;0; -2.4181281E-01;  3.9075277E+04;  0.0000000E+00;  1.3368438E+00;  4.0000000E+04;  0.0000000E+00;  4.0064254E+04; -2.4780650E-01;  0.0000000E+00;  5.9936987E-03;  9.1722539E+03;
  7.3174842E-02;  9.9999998E-03; -2.1996039E-01;2881; -2.5204070E-02;  0.0000000E+00; -4.8446106E-03;  9.8908887E+02;  1.0000000E-01; -9.0396455E+03;3; -1.5979016E+01;  0.0000000E+00;  7.7729549E+00;0; -2.5039548E-01;  3.9078688E+04;  0.0000000E+00;  1.0971649E+00;  4.0000000E+04;  0.0000000E+00;  4.0062398E+04; -2.6153511E-01;  0.0000000E+00;  1.1139641E-02;  8.8632441E+03;
  7.3342957E-02;  9.9999998E-03; -2.0996232E-01;2882; -2.7393313E-02;  0.0000000E+00; -4.1285940E-03;  9.8914392E+02;  1.0000000E-01; -8.9940664E+03;3; -1.9119371E+01;  0.0000000E+00;  6.1124678E+00;0; -2.5844300E-01;  3.9091555E+04;  0.0000000E+00;  8.3315444E-01;  4.0000000E+04;  0.0000000E+00;  4.0054617E+04; -2.7314490E-01;  0.0000000E+00;  1.4701890E-02;  7.8512676E+03;
  7.3469520E-02;  9.9999998E-03; -1.9995274E-01;2883; -2.9406291E-02;  0.0000000E+00; -3.5162563E-03;  9.8924713E+02;  1.0000000E-01; -8.9085381E+03;3; -2.3257105E+01;  0.0000000E+00;  4.2138147E+00;0; -2.6613647E-01;  3.9111484E+04;  0.0000000E+00;  5.7973480E-01;  4.0000000E+04;  0.0000000E+00;  4.0043688E+04; -2.8279236E-01;  0.0000000E+00;  1.6655905E-02;  6.4350806E+03;
  7.3554054E-02;  9.9999998E-03; -1.8993555E-01;2884; -3.1179279E-02;  0.0000000E+00; -3.0752884E-03;  9.8939740E+02;  1.0000000E-01; -8.7840479E+03;3; -2.7717606E+01;  0.0000000E+00;  2.3653545E+00;0; -2.7353573E-01;  3.9135715E+04;  0.0000000E+00;  3.6404759E-01;  4.0000000E+04;  0.0000000E+00;  4.0031965E+04; -2.9071197E-01;  0.0000000E+00;  1.7176244E-02;  4.9258042E+03;
  7.3599808E-02;  9.9999998E-03; -1.7991577E-01;2885; -3.2688469E-02;  0.0000000E+00; -2.8247829E-03;  9.8959442E+02;  1.0000000E-01; -8.6208428E+03;3; -3.1981543E+01;  0.0000000E+00;  8.7839687E-01;0; -2.8058431E-01;  3.9161938E+04;  0.0000000E+00;  1.9956331E-01;  4.0000000E+04;  0.0000000E+00;  4.0021699E+04; -2.9717189E-01;  0.0000000E+00;  1.6587578E-02;  3.5963062E+03;
  7.3614232E-02;  9.9999998E-03; -1.6989851E-01;2886; -3.3943471E-02;  0.0000000E+00; -2.7246403E-03;  9.8983069E+02;  1.0000000E-01; -8.4250947E+03;3; -3.5695778E+01;  0.0000000E+00; -9.9085271E-02;0; -2.8713962E-01;  3.9188547E+04;  0.0000000E+00;  8.7965868E-02;  4.0000000E+04;  0.0000000E+00;  4.0014344E+04; -3.0243677E-01;  0.0000000E+00;  1.5297135E-02;  2.6455691E+03;
  7.3603906E-02;  9.9999998E-03; -1.5988515E-01;2887; -3.4945190E-02;  0.0000000E+00; -2.7267586E-03;  9.9010431E+02;  1.0000000E-01; -8.1983857E+03;3; -3.8645123E+01;  0.0000000E+00; -6.2388825E-01;0; -2.9302189E-01;  3.9214066E+04;  0.0000000E+00;  2.2712618E-02;  4.0000000E+04;  0.0000000E+00;  4.0010754E+04; -3.0674946E-01;  0.0000000E+00;  1.3727576E-02;  2.1790061E+03;
  7.3576018E-02;  9.9999998E-03; -1.4987707E-01;2888; -3.5714276E-02;  0.0000000E+00; -2.7845907E-03;  9.9040399E+02;  1.0000000E-01; -7.9500962E+03;3; -4.0765594E+01;  0.0000000E+00; -8.6170936E-01;0; -2.9805088E-01;  3.9237820E+04;  0.0000000E+00; -7.5200577E-03;  4.0000000E+04;  0.0000000E+00;  4.0011055E+04; -3.1031099E-01;  0.0000000E+00;  1.2260121E-02;  2.2035669E+03;
  7.3537119E-02;  9.9999998E-03; -1.3987623E-01;2889; -3.6276966E-02;  0.0000000E+00; -2.8576790E-03;  9.9071710E+02;  1.0000000E-01; -7.6906963E+03;3; -4.2119965E+01;  0.0000000E+00; -9.7018957E-01;0; -3.0209595E-01;  3.9259230E+04;  0.0000000E+00; -1.5597584E-02;  4.0000000E+04;  0.0000000E+00;  4.0014891E+04; -3.1328297E-01;  0.0000000E+00;  1.1187005E-02;  2.6396248E+03;
  7.3492818E-02;  9.9999998E-03; -1.2988313E-01;2890; -3.6663502E-02;  0.0000000E+00; -2.9144608E-03;  9.9103131E+02;  1.0000000E-01; -7.4304072E+03;3; -4.2868736E+01;  0.0000000E+00; -1.0252061E+00;0; -3.0511603E-01;  3.9278508E+04;  0.0000000E+00; -1.2649358E-02;  4.0000000E+04;  0.0000000E+00;  4.0020855E+04; -3.1579226E-01;  0.0000000E+00;  1.0676248E-02;  3.3471472E+03;
  7.3447451E-02;  9.9999998E-03; -1.1989528E-01;2891; -3.6906987E-02;  0.0000000E+00; -2.9282160E-03;  9.9132965E+02;  1.0000000E-01; -7.1832041E+03;3; -4.3204285E+01;  0.0000000E+00; -1.0367135E+00;0; -3.0717054E-01;  3.9295547E+04;  0.0000000E+00; -6.1792126E-03;  4.0000000E+04;  0.0000000E+00;  4.0027637E+04; -3.1794009E-01;  0.0000000E+00;  1.0769557E-02;  4.1657729E+03;
  7.3404163E-02;  9.9999998E-03; -1.0990980E-01;2892; -3.7041735E-02;  0.0000000E+00; -2.8790848E-03;  9.9160223E+02;  1.0000000E-01; -6.9573833E+03;3; -4.3322086E+01;  0.0000000E+00; -1.0092179E+00;0; -3.0838957E-01;  3.9310762E+04;  0.0000000E+00; -4.6090884E-04;  4.0000000E+04;  0.0000000E+00;  4.0034078E+04; -3.1980091E-01;  0.0000000E+00;  1.1411327E-02;  4.9514995E+03;
  8.1813484E-02;  9.9999998E-03; -2.6979229E-01;2937; -1.5612113E-02;  0.0000000E+00; -6.2309811E-03;  9.9018762E+02;  1.0000000E-01; -8.1293501E+03;3; -3.4210262E+01;  0.0000000E+00;  3.1500210E+01;0; -2.0157363E-01;  3.9216715E+04;  0.0000000E+00;  2.1073790E+00;  4.0000000E+04;  0.0000000E+00;  4.0001703E+04; -1.8026498E-01;  0.0000000E+00; -2.1308646E-02;  3.2170820E+03;
  8.2180269E-02;  9.9999998E-03; -2.5983489E-01;2938; -1.8087897E-02;  0.0000000E+00; -6.4603416E-03;  9.9004425E+02;  1.0000000E-01; -8.2481621E+03;3; -2.6588625E+01;  0.0000000E+00;  1.7495745E+01;0; -2.1508770E-01;  3.9178789E+04;  0.0000000E+00;  2.1388021E+00;  4.0000000E+04;  0.0000000E+00;  4.0030426E+04; -2.0101404E-01;  0.0000000E+00; -1.4073661E-02;  5.5806538E+03;
  8.2501419E-02;  9.9999998E-03; -2.4988221E-01;2939; -2.0615082E-02;  0.0000000E+00; -6.3555399E-03;  9.9003070E+02;  1.0000000E-01; -8.2593711E+03;3; -2.0515362E+01;  0.0000000E+00;  9.6867094E+00;0; -2.2649485E-01;  3.9157926E+04;  0.0000000E+00;  2.0523818E+00;  4.0000000E+04;  0.0000000E+00;  4.0052188E+04; -2.1991636E-01;  0.0000000E+00; -6.5784883E-03;  7.9515786E+03;
  8.2783408E-02;  9.9999998E-03; -2.3992452E-01;2940; -2.3168078E-02;  0.0000000E+00; -5.9231138E-03;  9.9011176E+02;  1.0000000E-01; -8.1922129E+03;3; -1.6575533E+01;  0.0000000E+00;  6.5347834E+00;0; -2.3613746E-01;  3.9152992E+04;  0.0000000E+00;  1.8811822E+00;  4.0000000E+04;  0.0000000E+00;  4.0065309E+04; -2.3665690E-01;  0.0000000E+00;  5.1943772E-04;  9.4110488E+03;
  8.3026059E-02;  9.9999998E-03; -2.2995532E-01;2941; -2.5704626E-02;  0.0000000E+00; -5.2242135E-03;  9.9025476E+02;  1.0000000E-01; -8.0737471E+03;3; -1.4866291E+01;  0.0000000E+00;  5.7735553E+00;0; -2.4442542E-01;  3.9161727E+04;  0.0000000E+00;  1.6518708E+00;  4.0000000E+04;  0.0000000E+00;  4.0069496E+04; -2.5107586E-01;  0.0000000E+00;  6.6504404E-03;  9.8058545E+03;
  8.3230242E-02;  9.9999998E-03; -2.1997109E-01;2942; -2.8148651E-02;  0.0000000E+00; -4.4175969E-03;  9.9044318E+02;  1.0000000E-01; -7.9176528E+03;3; -1.5119104E+01;  0.0000000E+00;  5.4793477E+00;0; -2.5176170E-01;  3.9181684E+04;  0.0000000E+00;  1.3845676E+00;  4.0000000E+04;  0.0000000E+00;  4.0065703E+04; -2.6316413E-01;  0.0000000E+00;  1.1402441E-02;  9.2365439E+03;
  8.3395019E-02;  9.9999998E-03; -2.0997170E-01;2943; -3.0433258E-02;  0.0000000E+00; -3.6617650E-03;  9.9066193E+02;  1.0000000E-01; -7.7364233E+03;3; -1.6836193E+01;  0.0000000E+00;  4.7586579E+00;0; -2.5847790E-01;  3.9209801E+04;  0.0000000E+00;  1.0984412E+00;  4.0000000E+04;  0.0000000E+00;  4.0055973E+04; -2.7304107E-01;  0.0000000E+00;  1.4563174E-02;  7.9504077E+03;
  8.3517641E-02;  9.9999998E-03; -1.9995978E-01;2944; -3.2499608E-02;  0.0000000E+00; -3.0465608E-03;  9.9091138E+02;  1.0000000E-01; -7.5297622E+03;3; -1.9443832E+01;  0.0000000E+00;  3.5501163E+00;0; -2.6479501E-01;  3.9242910E+04;  0.0000000E+00;  8.1646574E-01;  4.0000000E+04;  0.0000000E+00;  4.0043102E+04; -2.8093046E-01;  0.0000000E+00;  1.6135465E-02;  6.2722661E+03;
  8.3598725E-02;  9.9999998E-03; -1.8993999E-01;2945; -3.4298014E-02;  0.0000000E+00; -2.6332072E-03;  9.9118274E+02;  1.0000000E-01; -7.3049292E+03;3; -2.2385983E+01;  0.0000000E+00;  2.1701636E+00;0; -2.7081302E-01;  3.9278191E+04;  0.0000000E+00;  5.6394285E-01;  4.0000000E+04;  0.0000000E+00;  4.0029793E+04; -2.8713211E-01;  0.0000000E+00;  1.6319107E-02;  4.5387544E+03;
  8.3641455E-02;  9.9999998E-03; -1.7991836E-01;2946; -3.5814125E-02;  0.0000000E+00; -2.4458915E-03;  9.9147382E+02;  1.0000000E-01; -7.0638003E+03;3; -2.5242170E+01;  0.0000000E+00;  9.8580921E-01;0; -2.7651826E-01;  3.9313250E+04;  0.0000000E+00;  3.6033231E-01;  4.0000000E+04;  0.0000000E+00;  4.0018145E+04; -2.9197770E-01;  0.0000000E+00;  1.5459453E-02;  3.0433079E+03;
  8.3653480E-02;  9.9999998E-03; -1.6989921E-01;2947; -3.7069712E-02;  0.0000000E+00; -2.3973912E-03;  9.9178253E+02;  1.0000000E-01; -6.8080049E+03;3; -2.7738243E+01;  0.0000000E+00;  2.0167670E-01;0; -2.8181046E-01;  3.9346160E+04;  0.0000000E+00;  2.1198478E-01;  4.0000000E+04;  0.0000000E+00;  4.0010289E+04; -2.9578540E-01;  0.0000000E+00;  1.3974927E-02;  1.9960703E+03;
  8.3642282E-02;  9.9999998E-03; -1.5988401E-01;2948; -3.8069747E-02;  0.0000000E+00; -2.4472089E-03;  9.9210675E+02;  1.0000000E-01; -6.5394199E+03;3; -2.9699938E+01;  0.0000000E+00; -2.0529670E-01;0; -2.8654152E-01;  3.9375863E+04;  0.0000000E+00;  1.1487804E-01;  4.0000000E+04;  0.0000000E+00;  4.0006715E+04; -2.9883215E-01;  0.0000000E+00;  1.2290625E-02;  1.5053367E+03;
  8.3614446E-02;  9.9999998E-03; -1.4987484E-01;2949; -3.8837913E-02;  0.0000000E+00; -2.5466101E-03;  9.9243713E+02;  1.0000000E-01; -6.2656992E+03;3; -3.1073938E+01;  0.0000000E+00; -3.7247533E-01;0; -2.9055762E-01;  3.9401691E+04;  0.0000000E+00;  5.8737773E-02;  4.0000000E+04;  0.0000000E+00;  4.0007422E+04; -3.0133867E-01;  0.0000000E+00;  1.0781048E-02;  1.5730144E+03;
  8.3576865E-02;  9.9999998E-03; -1.3987477E-01;2950; -3.9401915E-02;  0.0000000E+00; -2.6568691E-03;  9.9276715E+02;  1.0000000E-01; -5.9922749E+03;3; -3.1911541E+01;  0.0000000E+00; -4.3776470E-01;0; -2.9373914E-01;  3.9423574E+04;  0.0000000E+00;  3.0649247E-02;  4.0000000E+04;  0.0000000E+00;  4.0012004E+04; -3.0346692E-01;  0.0000000E+00;  9.7277910E-03;  2.1007327E+03;
  8.3533533E-02;  9.9999998E-03; -1.2988286E-01;2951; -3.9792724E-02;  0.0000000E+00; -2.7468316E-03;  9.9308160E+02;  1.0000000E-01; -5.7317393E+03;3; -3.2328476E+01;  0.0000000E+00; -4.6913487E-01;0; -2.9604763E-01;  3.9442078E+04;  0.0000000E+00;  1.8956540E-02;  4.0000000E+04;  0.0000000E+00;  4.0018836E+04; -3.0533552E-01;  0.0000000E+00;  9.2878984E-03;  2.9235430E+03;
  8.3488487E-02;  9.9999998E-03; -1.1989619E-01;2952; -4.0043719E-02;  0.0000000E+00; -2.7900294E-03;  9.9337018E+02;  1.0000000E-01; -5.4926841E+03;3; -3.2471523E+01;  0.0000000E+00; -4.7565892E-01;0; -2.9753494E-01;  3.9457445E+04;  0.0000000E+00;  1.5040156E-02;  4.0000000E+04;  0.0000000E+00;  4.0026402E+04; -3.0702573E-01;  0.0000000E+00;  9.4907796E-03;  3.8593960E+03;
  8.3443560E-02;  9.9999998E-03; -1.0991190E-01;2953; -4.0188123E-02;  0.0000000E+00; -2.7647186E-03;  9.9362201E+02;  1.0000000E-01; -5.2840479E+03;3; -3.2478386E+01;  0.0000000E+00; -4.6115437E-01;0; -2.9832551E-01;  3.9470242E+04;  0.0000000E+00;  1.3528720E-02;  4.0000000E+04;  0.0000000E+00;  4.0033664E+04; -3.0859211E-01;  0.0000000E+00;  1.0266592E-02;  4.7481699E+03;
  9.1920085E-02;  9.9999998E-03; -2.6977938E-01;2998; -1.7476359E-02;  0.0000000E+00; -6.1603272E-03;  9.9023749E+02;  1.0000000E-01; -8.0880674E+03;3; -3.6230209E+01;  0.0000000E+00;  2.4590652E+01;0; -2.0778514E-01;  3.9212617E+04;  0.0000000E+00;  3.8210790E+00;  4.0000000E+04;  0.0000000E+00;  4.0009754E+04; -1.8863711E-01;  0.0000000E+00; -1.9148033E-02;  5.8849307E+03;
  9.2268690E-02;  9.9999998E-03; -2.5983179E-01;2999; -2.0237265E-02;  0.0000000E+00; -6.3071498E-03;  9.9027588E+02;  1.0000000E-01; -8.0562661E+03;3; -2.7822350E+01;  0.0000000E+00;  1.0885046E+01;0; -2.2071618E-01;  3.9188562E+04;  0.0000000E+00;  3.4823375E+00;  4.0000000E+04;  0.0000000E+00;  4.0039020E+04; -2.0846139E-01;  0.0000000E+00; -1.2254791E-02;  7.6041143E+03;
  9.2574917E-02;  9.9999998E-03; -2.4988613E-01;3000; -2.3003330E-02;  0.0000000E+00; -6.0985154E-03;  9.9045337E+02;  1.0000000E-01; -7.9092085E+03;3; -2.0950155E+01;  0.0000000E+00;  4.0849724E+00;0; -2.3124999E-01;  3.9182996E+04;  0.0000000E+00;  3.0303752E+00;  4.0000000E+04;  0.0000000E+00;  4.0060523E+04; -2.2605887E-01;  0.0000000E+00; -5.1911194E-03;  9.4585244E+03;
  9.2847392E-02;  9.9999998E-03; -2.3993210E-01;3001; -2.5747132E-02;  0.0000000E+00; -5.5584279E-03;  9.9071991E+02;  1.0000000E-01; -7.6883750E+03;3; -1.6099360E+01;  0.0000000E+00;  2.2086337E+00;0; -2.3978603E-01;  3.9193801E+04;  0.0000000E+00;  2.5553012E+00;  4.0000000E+04;  0.0000000E+00;  4.0072742E+04; -2.4120486E-01;  0.0000000E+00;  1.4188346E-03;  1.0546057E+04;
  9.3083613E-02;  9.9999998E-03; -2.2996525E-01;3002; -2.8418301E-02;  0.0000000E+00; -4.7719958E-03;  9.9104102E+02;  1.0000000E-01; -7.4223579E+03;3; -1.3316475E+01;  0.0000000E+00;  2.6731105E+00;0; -2.4679147E-01;  3.9217973E+04;  0.0000000E+00;  2.1090281E+00;  4.0000000E+04;  0.0000000E+00;  4.0075320E+04; -2.5382918E-01;  0.0000000E+00;  7.0377095E-03;  1.0618648E+04;
  9.3284585E-02;  9.9999998E-03; -2.1998212E-01;3003; -3.0952876E-02;  0.0000000E+00; -3.8982930E-03;  9.9139056E+02;  1.0000000E-01; -7.1327363E+03;3; -1.2342526E+01;  0.0000000E+00;  3.4464242E+00;0; -2.5272566E-01;  3.9252406E+04;  0.0000000E+00;  1.7074533E+00;  4.0000000E+04;  0.0000000E+00;  4.0069492E+04; -2.6401123E-01;  0.0000000E+00;  1.1285583E-02;  9.7437305E+03;
  9.3445122E-02;  9.9999998E-03; -2.0998281E-01;3004; -3.3280682E-02;  0.0000000E+00; -3.1248364E-03;  9.9175024E+02;  1.0000000E-01; -6.8347695E+03;3; -1.2726138E+01;  0.0000000E+00;  3.5522320E+00;0; -2.5797141E-01;  3.9293336E+04;  0.0000000E+00;  1.3460829E+00;  4.0000000E+04;  0.0000000E+00;  4.0057789E+04; -2.7195174E-01;  0.0000000E+00;  1.3980314E-02;  8.1670688E+03;
  9.3565330E-02;  9.9999998E-03; -1.9996972E-01;3005; -3.5352539E-02;  0.0000000E+00; -2.5143062E-03;  9.9211401E+02;  1.0000000E-01; -6.5333955E+03;3; -1.3957903E+01;  0.0000000E+00;  2.9291208E+00;0; -2.6279518E-01;  3.9337535E+04;  0.0000000E+00;  1.0195208E+00;  4.0000000E+04;  0.0000000E+00;  4.0043074E+04; -2.7794227E-01;  0.0000000E+00;  1.5147099E-02;  6.2250356E+03;
  9.3642294E-02;  9.9999998E-03; -1.8994848E-01;3006; -3.7135374E-02;  0.0000000E+00; -2.1509323E-03;  9.9247406E+02;  1.0000000E-01; -6.2350830E+03;3; -1.5589673E+01;  0.0000000E+00;  1.9261599E+00;0; -2.6733345E-01;  3.9381375E+04;  0.0000000E+00;  7.3197830E-01;  4.0000000E+04;  0.0000000E+00;  4.0028008E+04; -2.8233716E-01;  0.0000000E+00;  1.5003709E-02;  4.2711372E+03;
  9.3681410E-02;  9.9999998E-03; -1.7992544E-01;3007; -3.8629398E-02;  0.0000000E+00; -2.0110649E-03;  9.9283209E+02;  1.0000000E-01; -5.9384985E+03;3; -1.7277451E+01;  0.0000000E+00;  9.8220938E-01;0; -2.7161047E-01;  3.9422949E+04;  0.0000000E+00;  4.9490809E-01;  4.0000000E+04;  0.0000000E+00;  4.0015324E+04; -2.8551376E-01;  0.0000000E+00;  1.3903297E-02;  2.6132954E+03;
  9.3691669E-02;  9.9999998E-03; -1.6990428E-01;3008; -3.9860044E-02;  0.0000000E+00; -2.0066446E-03;  9.9318372E+02;  1.0000000E-01; -5.6471489E+03;3; -1.8784315E+01;  0.0000000E+00;  3.4167528E-01;0; -2.7556682E-01;  3.9459914E+04;  0.0000000E+00;  3.1606311E-01;  4.0000000E+04;  0.0000000E+00;  4.0006574E+04; -2.8783259E-01;  0.0000000E+00;  1.2265783E-02;  1.4688873E+03;
  9.3680814E-02;  9.9999998E-03; -1.5988673E-01;3009; -4.0839627E-02;  0.0000000E+00; -2.0955873E-03;  9.9352972E+02;  1.0000000E-01; -5.3604902E+03;3; -1.9967701E+01;  0.0000000E+00;  1.9837853E-02;0; -2.7909079E-01;  3.9491668E+04;  0.0000000E+00;  1.9252835E-01;  4.0000000E+04;  0.0000000E+00;  4.0002805E+04; -2.8960177E-01;  0.0000000E+00;  1.0510985E-02;  9.3704730E+02;
  9.3656361E-02;  9.9999998E-03; -1.4987679E-01;3010; -4.1593272E-02;  0.0000000E+00; -2.2315979E-03;  9.9386682E+02;  1.0000000E-01; -5.0812388E+03;3; -2.0777609E+01;  0.0000000E+00; -9.7168773E-02;0; -2.8205386E-01;  3.9517633E+04;  0.0000000E+00;  1.1441965E-01;  4.0000000E+04;  0.0000000E+00;  4.0003762E+04; -2.9105473E-01;  0.0000000E+00;  9.0008546E-03;  1.0143416E+03;
  9.3623862E-02;  9.9999998E-03; -1.3987771E-01;3011; -4.2149805E-02;  0.0000000E+00; -2.3752796E-03;  9.9418848E+02;  1.0000000E-01; -4.8147280E+03;3; -2.1244171E+01;  0.0000000E+00; -1.3322376E-01;0; -2.8435344E-01;  3.9538188E+04;  0.0000000E+00;  6.9166079E-02;  4.0000000E+04;  0.0000000E+00;  4.0008879E+04; -2.9235300E-01;  0.0000000E+00;  7.9995636E-03;  1.6041830E+03;
  9.3587011E-02;  9.9999998E-03; -1.2988721E-01;3012; -4.2540833E-02;  0.0000000E+00; -2.4958828E-03;  9.9448047E+02;  1.0000000E-01; -4.5728091E+03;3; -2.1444042E+01;  0.0000000E+00; -1.4786808E-01;0; -2.8595152E-01;  3.9554312E+04;  0.0000000E+00;  4.4864278E-02;  4.0000000E+04;  0.0000000E+00;  4.0016359E+04; -2.9360080E-01;  0.0000000E+00;  7.6492680E-03;  2.5160676E+03;
  9.3547307E-02;  9.9999998E-03; -1.1990200E-01;3013; -4.2798832E-02;  0.0000000E+00; -2.5664517E-03;  9.9473596E+02;  1.0000000E-01; -4.3611606E+03;3; -2.1477652E+01;  0.0000000E+00; -1.4926335E-01;0; -2.8689244E-01;  3.9566445E+04;  0.0000000E+00;  3.1999547E-02;  4.0000000E+04;  0.0000000E+00;  4.0024859E+04; -2.9485953E-01;  0.0000000E+00;  7.9670893E-03;  3.5441838E+03;
  9.3506016E-02;  9.9999998E-03; -1.0991848E-01;3014; -4.2955805E-02;  0.0000000E+00; -2.5657199E-03;  9.9495038E+02;  1.0000000E-01; -4.1835361E+03;3; -2.1438004E+01;  0.0000000E+00; -1.4112191E-01;0; -2.8728637E-01;  3.9575598E+04;  0.0000000E+00;  2.4311725E-02;  4.0000000E+04;  0.0000000E+00;  4.0032785E+04; -2.9615685E-01;  0.0000000E+00;  8.8704787E-03;  4.5129482E+03;
  1.0201997E-01;  9.9999998E-03; -2.6976335E-01;3059; -1.9479999E-02;  0.0000000E+00; -5.8439746E-03;  9.8997821E+02;  1.0000000E-01; -8.3028760E+03;3; -3.7365360E+01;  0.0000000E+00;  1.8861383E+01;0; -2.1519676E-01;  3.9183711E+04;  0.0000000E+00;  7.2055969E+00;  4.0000000E+04;  0.0000000E+00;  4.0018816E+04; -1.9860354E-01;  0.0000000E+00; -1.6593222E-02;  1.0895630E+04;
  1.0234973E-01;  9.9999998E-03; -2.5982657E-01;3060; -2.2503996E-02;  0.0000000E+00; -5.9125279E-03;  9.9018524E+02;  1.0000000E-01; -8.1313257E+03;3; -2.8211460E+01;  0.0000000E+00;  5.4744124E+00;0; -2.2739632E-01;  3.9172570E+04;  0.0000000E+00;  6.0865068E+00;  4.0000000E+04;  0.0000000E+00;  4.0048371E+04; -2.1714669E-01;  0.0000000E+00; -1.0249630E-02;  1.1168390E+04;
  1.0264841E-01;  9.9999998E-03; -2.4988554E-01;3061; -2.5462629E-02;  0.0000000E+00; -5.6411861E-03;  9.9053888E+02;  1.0000000E-01; -7.8383462E+03;3; -2.0634495E+01;  0.0000000E+00; -5.2927107E-01;0; -2.3688740E-01;  3.9181227E+04;  0.0000000E+00;  4.8679090E+00;  4.0000000E+04;  0.0000000E+00;  4.0069520E+04; -2.3307587E-01;  0.0000000E+00; -3.8115177E-03;  1.1813693E+04;
  1.0291362E-01;  9.9999998E-03; -2.3993543E-01;3062; -2.8342167E-02;  0.0000000E+00; -5.0332537E-03;  9.9097968E+02;  1.0000000E-01; -7.4731714E+03;3; -1.5010614E+01;  0.0000000E+00; -1.3637823E+00;0; -2.4413890E-01;  3.9206637E+04;  0.0000000E+00;  3.7426007E+00;  4.0000000E+04;  0.0000000E+00;  4.0080539E+04; -2.4627656E-01;  0.0000000E+00;  2.1376610E-03;  1.2105562E+04;
  1.0314578E-01;  9.9999998E-03; -2.2997189E-01;3063; -3.1095676E-02;  0.0000000E+00; -4.1919686E-03;  9.9146063E+02;  1.0000000E-01; -7.0747134E+03;3; -1.1346845E+01;  0.0000000E+00;  1.5054396E-01;0; -2.4969614E-01;  3.9245066E+04;  0.0000000E+00;  2.8158727E+00;  4.0000000E+04;  0.0000000E+00;  4.0081445E+04; -2.5680560E-01;  0.0000000E+00;  7.1094669E-03;  1.1640472E+04;
  1.0334069E-01;  9.9999998E-03; -2.1999209E-01;3064; -3.3658277E-02;  0.0000000E+00; -3.3010312E-03;  9.9194965E+02;  1.0000000E-01; -6.6695894E+03;3; -9.3828068E+00;  0.0000000E+00;  1.8160503E+00;0; -2.5408626E-01;  3.9292270E+04;  0.0000000E+00;  2.1056929E+00;  4.0000000E+04;  0.0000000E+00;  4.0073809E+04; -2.6485118E-01;  0.0000000E+00;  1.0764930E-02;  1.0362252E+04;
  1.0349973E-01;  9.9999998E-03; -2.0999421E-01;3065; -3.5977669E-02;  0.0000000E+00; -2.5366500E-03;  9.9242743E+02;  1.0000000E-01; -6.2737485E+03;3; -8.7072458E+00;  0.0000000E+00;  2.5990224E+00;0; -2.5775144E-01;  3.9344199E+04;  0.0000000E+00;  1.5740304E+00;  4.0000000E+04;  0.0000000E+00;  4.0060227E+04; -2.7070215E-01;  0.0000000E+00;  1.2950711E-02;  8.4569248E+03;
  1.0361382E-01;  9.9999998E-03; -1.9998236E-01;3066; -3.8010899E-02;  0.0000000E+00; -1.9568447E-03;  9.9287915E+02;  1.0000000E-01; -5.8994873E+03;3; -8.8776350E+00;  0.0000000E+00;  2.4288845E+00;0; -2.6100430E-01;  3.9397043E+04;  0.0000000E+00;  1.1664289E+00;  4.0000000E+04;  0.0000000E+00;  4.0043367E+04; -2.7471432E-01;  0.0000000E+00;  1.3710035E-02;  6.2433823E+03;
  1.0368539E-01;  9.9999998E-03; -1.8996070E-01;3067; -3.9745186E-02;  0.0000000E+00; -1.6427541E-03;  9.9330212E+02;  1.0000000E-01; -5.5490776E+03;3; -9.5195198E+00;  0.0000000E+00;  1.7095503E+00;0; -2.6401672E-01;  3.9447508E+04;  0.0000000E+00;  8.4200794E-01;  4.0000000E+04;  0.0000000E+00;  4.0026637E+04; -2.7728474E-01;  0.0000000E+00;  1.3268014E-02;  4.0763889E+03;
  1.0372024E-01;  9.9999998E-03; -1.7993677E-01;3068; -4.1191988E-02;  0.0000000E+00; -1.5370070E-03;  9.9369617E+02;  1.0000000E-01; -5.2226177E+03;3; -1.0338855E+01;  0.0000000E+00;  9.4177914E-01;0; -2.6684380E-01;  3.9492961E+04;  0.0000000E+00;  5.8281159E-01;  4.0000000E+04;  0.0000000E+00;  4.0012668E+04; -2.7881801E-01;  0.0000000E+00;  1.1974216E-02;  2.2725640E+03;
  1.0372716E-01;  9.9999998E-03; -1.6991319E-01;3069; -4.2376194E-02;  0.0000000E+00; -1.5692825E-03;  9.9406403E+02;  1.0000000E-01; -4.9178364E+03;3; -1.1128443E+01;  0.0000000E+00;  4.0107918E-01;0; -2.6945728E-01;  3.9531848E+04;  0.0000000E+00;  3.8512960E-01;  4.0000000E+04;  0.0000000E+00;  4.0003273E+04; -2.7969590E-01;  0.0000000E+00;  1.0238609E-02;  1.0594532E+03;
  1.0371500E-01;  9.9999998E-03; -1.5989247E-01;3070; -4.3318454E-02;  0.0000000E+00; -1.6917675E-03;  9.9440717E+02;  1.0000000E-01; -4.6335479E+03;3; -1.1761994E+01;  0.0000000E+00;  1.3437378E-01;0; -2.7177760E-01;  3.9563301E+04;  0.0000000E+00;  2.4482056E-01;  4.0000000E+04;  0.0000000E+00;  3.9999242E+04; -2.8024417E-01;  0.0000000E+00;  8.4665716E-03;  5.1145657E+02;
  1.0369220E-01;  9.9999998E-03; -1.4988230E-01;3071; -4.4045106E-02;  0.0000000E+00; -1.8579558E-03;  9.9472009E+02;  1.0000000E-01; -4.3742959E+03;3; -1.2187633E+01;  0.0000000E+00;  4.8029952E-02;0; -2.7370289E-01;  3.9587262E+04;  0.0000000E+00;  1.5190925E-01;  4.0000000E+04;  0.0000000E+00;  4.0000465E+04; -2.8070527E-01;  0.0000000E+00;  7.0023951E-03;  5.4052197E+02;
  1.0366359E-01;  9.9999998E-03; -1.3988446E-01;3072; -4.4586129E-02;  0.0000000E+00; -2.0306688E-03;  9.9500336E+02;  1.0000000E-01; -4.1396362E+03;3; -1.2417923E+01;  0.0000000E+00;  3.0096188E-02;0; -2.7514812E-01;  3.9604629E+04;  0.0000000E+00;  9.4612360E-02;  4.0000000E+04;  0.0000000E+00;  4.0005883E+04; -2.8123668E-01;  0.0000000E+00;  6.0885455E-03;  1.1539827E+03;
  1.0363097E-01;  9.9999998E-03; -1.2989551E-01;3073; -4.4972956E-02;  0.0000000E+00; -2.1767109E-03;  9.9525061E+02;  1.0000000E-01; -3.9348022E+03;3; -1.2500016E+01;  0.0000000E+00;  2.5473837E-02;0; -2.7607816E-01;  3.9616246E+04;  0.0000000E+00;  6.1207172E-02;  4.0000000E+04;  0.0000000E+00;  4.0013832E+04; -2.8192675E-01;  0.0000000E+00;  5.8485945E-03;  2.1303838E+03;
  1.0359445E-01;  9.9999998E-03; -1.1991133E-01;3074; -4.5236867E-02;  0.0000000E+00; -2.2713395E-03;  9.9545508E+02;  1.0000000E-01; -3.7653750E+03;3; -1.2493482E+01;  0.0000000E+00;  2.6419876E-02;0; -2.7652544E-01;  3.9623613E+04;  0.0000000E+00;  4.1848183E-02;  4.0000000E+04;  0.0000000E+00;  4.0022742E+04; -2.8281227E-01;  0.0000000E+00;  6.2868441E-03;  3.2267747E+03;
  1.0355475E-01;  9.9999998E-03; -1.0992777E-01;3075; -4.5407698E-02;  0.0000000E+00; -2.2940417E-03;  9.9561121E+02;  1.0000000E-01; -3.6360454E+03;3; -1.2450745E+01;  0.0000000E+00;  3.1175280E-02;0; -2.7658156E-01;  3.9627895E+04;  0.0000000E+00;  2.9782645E-02;  4.0000000E+04;  0.0000000E+00;  4.0031066E+04; -2.8389156E-01;  0.0000000E+00;  7.3099956E-03;  4.2526382E+03;
  1.1211191E-01;  9.9999998E-03; -2.6974505E-01;3120; -2.1738423E-02;  0.0000000E+00; -5.1546120E-03;  9.8942523E+02;  1.0000000E-01; -8.7609863E+03;3; -3.6955627E+01;  0.0000000E+00;  1.4478846E+01;0; -2.2463162E-01;  3.9130652E+04;  0.0000000E+00;  1.2875597E+01;  4.0000000E+04;  0.0000000E+00;  4.0028824E+04; -2.1084125E-01;  0.0000000E+00; -1.3790369E-02;  1.9178447E+04;
  1.1243256E-01;  9.9999998E-03; -2.5981551E-01;3121; -2.4970545E-02;  0.0000000E+00; -5.2081137E-03;  9.8979468E+02;  1.0000000E-01; -8.4549209E+03;3; -2.7526901E+01;  0.0000000E+00;  1.2722806E+00;0; -2.3587325E-01;  3.9132316E+04;  0.0000000E+00;  1.0384638E+01;  4.0000000E+04;  0.0000000E+00;  4.0058320E+04; -2.2770959E-01;  0.0000000E+00; -8.1636608E-03;  1.7101311E+04;
  1.1272746E-01;  9.9999998E-03; -2.4987894E-01;3122; -2.8071402E-02;  0.0000000E+00; -4.9174298E-03;  9.9031915E+02;  1.0000000E-01; -8.0204150E+03;3; -1.9710772E+01;  0.0000000E+00; -4.0840960E+00;0; -2.4408372E-01;  3.9155191E+04;  0.0000000E+00;  7.8488250E+00;  4.0000000E+04;  0.0000000E+00;  4.0078613E+04; -2.4156594E-01;  0.0000000E+00; -2.5177710E-03;  1.5568741E+04;
  1.1299144E-01;  9.9999998E-03; -2.3993267E-01;3123; -3.1022469E-02;  0.0000000E+00; -4.3071220E-03;  9.9092670E+02;  1.0000000E-01; -7.5170713E+03;3; -1.3763085E+01;  0.0000000E+00; -4.0900025E+00;0; -2.4983431E-01;  3.9194902E+04;  0.0000000E+00;  5.6168761E+00;  4.0000000E+04;  0.0000000E+00;  4.0088289E+04; -2.5246397E-01;  0.0000000E+00;  2.6296470E-03;  1.4330158E+04;
  1.1321682E-01;  9.9999998E-03; -2.2997457E-01;3124; -3.3787493E-02;  0.0000000E+00; -3.4830817E-03;  9.9155969E+02;  1.0000000E-01; -6.9926416E+03;3; -9.6292601E+00;  0.0000000E+00; -1.7560077E+00;0; -2.5375953E-01;  3.9246723E+04;  0.0000000E+00;  3.8698683E+00;  4.0000000E+04;  0.0000000E+00;  4.0087395E+04; -2.6060876E-01;  0.0000000E+00;  6.8492414E-03;  1.2922124E+04;
  1.1340933E-01;  9.9999998E-03; -2.1999909E-01;3125; -3.6317650E-02;  0.0000000E+00; -2.6390799E-03;  9.9217493E+02;  1.0000000E-01; -6.4829277E+03;3; -7.0613575E+00;  0.0000000E+00;  6.0364789E-01;0; -2.5646961E-01;  3.9305688E+04;  0.0000000E+00;  2.6274993E+00;  4.0000000E+04;  0.0000000E+00;  4.0077867E+04; -2.6632059E-01;  0.0000000E+00;  9.8509900E-03;  1.1061601E+04;
  1.1355988E-01;  9.9999998E-03; -2.1000573E-01;3126; -3.8579095E-02;  0.0000000E+00; -1.9088099E-03;  9.9274628E+02;  1.0000000E-01; -6.0095586E+03;3; -5.6916642E+00;  0.0000000E+00;  1.8860433E+00;0; -2.5846604E-01;  3.9367129E+04;  0.0000000E+00;  1.7994775E+00;  4.0000000E+04;  0.0000000E+00;  4.0062090E+04; -2.6997340E-01;  0.0000000E+00;  1.1507358E-02;  8.7647686E+03;
  1.1366551E-01;  9.9999998E-03; -1.9999669E-01;3127; -4.0536951E-02;  0.0000000E+00; -1.3887165E-03;  9.9326501E+02;  1.0000000E-01; -5.5797930E+03;3; -5.1572104E+00;  0.0000000E+00;  2.0497832E+00;0; -2.6010528E-01;  3.9426891E+04;  0.0000000E+00;  1.2563219E+00;  4.0000000E+04;  0.0000000E+00;  4.0043371E+04; -2.7198091E-01;  0.0000000E+00;  1.1875633E-02;  6.2668696E+03;
  1.1373043E-01;  9.9999998E-03; -1.8997605E-01;3128; -4.2194515E-02;  0.0000000E+00; -1.1224409E-03;  9.9372559E+02;  1.0000000E-01; -5.1982231E+03;3; -5.1400928E+00;  0.0000000E+00;  1.5509309E+00;0; -2.6158959E-01;  3.9481590E+04;  0.0000000E+00;  8.8461465E-01;  4.0000000E+04;  0.0000000E+00;  4.0025336E+04; -2.7276641E-01;  0.0000000E+00;  1.1176828E-02;  3.8952681E+03;
  1.1375752E-01;  9.9999998E-03; -1.7995097E-01;3129; -4.3571379E-02;  0.0000000E+00; -1.0470062E-03;  9.9413055E+02;  1.0000000E-01; -4.8627266E+03;3; -5.3861246E+00;  0.0000000E+00;  9.0483272E-01;0; -2.6299584E-01;  3.9528691E+04;  0.0000000E+00;  6.1365902E-01;  4.0000000E+04;  0.0000000E+00;  4.0010070E+04; -2.7274361E-01;  0.0000000E+00;  9.7477827E-03;  1.9684290E+03;
  1.1375780E-01;  9.9999998E-03; -1.6992423E-01;3130; -4.4692583E-02;  0.0000000E+00; -1.1091062E-03;  9.9448523E+02;  1.0000000E-01; -4.5688584E+03;3; -5.7094965E+00;  0.0000000E+00;  4.2724705E-01;0; -2.6431334E-01;  3.9567008E+04;  0.0000000E+00;  4.1168064E-01;  4.0000000E+04;  0.0000000E+00;  4.0000129E+04; -2.7229103E-01;  0.0000000E+00;  7.9776859E-03;  7.5485651E+02;
  1.1374051E-01;  9.9999998E-03; -1.5989989E-01;3131; -4.5583945E-02;  0.0000000E+00; -1.2581461E-03;  9.9479401E+02;  1.0000000E-01; -4.3130630E+03;3; -5.9957590E+00;  0.0000000E+00;  1.9332302E-01;0; -2.6548570E-01;  3.9595766E+04;  0.0000000E+00;  2.6621085E-01;  4.0000000E+04;  0.0000000E+00;  3.9995832E+04; -2.7173340E-01;  0.0000000E+00;  6.2477002E-03;  3.9344159E+02;
  1.1371534E-01;  9.9999998E-03; -1.4988971E-01;3132; -4.6274010E-02;  0.0000000E+00; -1.4496511E-03;  9.9505774E+02;  1.0000000E-01; -4.0945508E+03;3; -6.1921782E+00;  0.0000000E+00;  1.2361606E-01;0; -2.6643446E-01;  3.9615727E+04;  0.0000000E+00;  1.6736569E-01;  4.0000000E+04;  0.0000000E+00;  3.9997199E+04; -2.7131307E-01;  0.0000000E+00;  4.8786090E-03;  2.4495296E+02;
  1.1368650E-01;  9.9999998E-03; -1.3989335E-01;3133; -4.6793904E-02;  0.0000000E+00; -1.6431808E-03;  9.9528296E+02;  1.0000000E-01; -3.9079883E+03;3; -6.2951555E+00;  0.0000000E+00;  1.1455625E-01;0; -2.6709038E-01;  3.9627766E+04;  0.0000000E+00;  1.0420758E-01;  4.0000000E+04;  0.0000000E+00;  4.0002797E+04; -2.7117920E-01;  0.0000000E+00;  4.0888162E-03;  7.4950934E+02;
  1.1365239E-01;  9.9999998E-03; -1.2990531E-01;3134; -4.7173619E-02;  0.0000000E+00; -1.8109559E-03;  9.9546021E+02;  1.0000000E-01; -3.7611282E+03;3; -6.3263588E+00;  0.0000000E+00;  1.1420760E-01;0; -2.6742133E-01;  3.9633520E+04;  0.0000000E+00;  6.5912843E-02;  4.0000000E+04;  0.0000000E+00;  4.0011145E+04; -2.7140218E-01;  0.0000000E+00;  3.9808508E-03;  1.7697518E+03;
  1.1361377E-01;  9.9999998E-03; -1.1992114E-01;3135; -4.7443107E-02;  0.0000000E+00; -1.9270360E-03;  9.9558972E+02;  1.0000000E-01; -3.6538225E+03;3; -6.3165555E+00;  0.0000000E+00;  1.1610471E-01;0; -2.6744565E-01;  3.9634605E+04;  0.0000000E+00;  4.3030921E-02;  4.0000000E+04;  0.0000000E+00;  4.0020391E+04; -2.7199084E-01;  0.0000000E+00;  4.5451960E-03;  2.9137156E+03;
  1.1357144E-01;  9.9999998E-03; -1.0993695E-01;3136; -4.7629971E-02;  0.0000000E+00; -1.9716416E-03;  9.9567267E+02;  1.0000000E-01; -3.5851331E+03;3; -6.2928553E+00;  0.0000000E+00;  1.1827732E-01;0; -2.6723424E-01;  3.9632574E+04;  0.0000000E+00;  2.8813651E-02;  4.0000000E+04;  0.0000000E+00;  4.0028859E+04; -2.7291369E-01;  0.0000000E+00;  5.6794686E-03;  3.9758027E+03;
  1.2220655E-01;  9.9999998E-03; -2.6972181E-01;3181; -2.4325481E-02;  0.0000000E+00; -4.0656789E-03;  9.8860590E+02;  1.0000000E-01; -9.4397822E+03;3; -3.3625618E+01;  0.0000000E+00;  1.0962863E+01;0; -2.3688941E-01;  3.9056230E+04;  0.0000000E+00;  2.1321455E+01;  4.0000000E+04;  0.0000000E+00;  4.0039766E+04; -2.2595137E-01;  0.0000000E+00; -1.0938038E-02;  3.1512760E+04;
  1.2252799E-01;  9.9999998E-03; -2.5979656E-01;3182; -2.7723586E-02;  0.0000000E+00; -4.1521862E-03;  9.8914514E+02;  1.0000000E-01; -8.9930293E+03;3; -2.4980370E+01;  0.0000000E+00; -1.8894341E+00;0; -2.4679117E-01;  3.9071891E+04;  0.0000000E+00;  1.6666780E+01;  4.0000000E+04;  0.0000000E+00;  4.0068410E+04; -2.4065334E-01;  0.0000000E+00; -6.1378293E-03;  2.5978975E+04;
  1.2282309E-01;  9.9999998E-03; -2.4986616E-01;3183; -3.0893276E-02;  0.0000000E+00; -3.9189085E-03;  9.8984766E+02;  1.0000000E-01; -8.4110215E+03;3; -1.7828968E+01;  0.0000000E+00; -6.6974845E+00;0; -2.5335395E-01;  3.9109727E+04;  0.0000000E+00;  1.2127783E+01;  4.0000000E+04;  0.0000000E+00;  4.0087504E+04; -2.5196302E-01;  0.0000000E+00; -1.3909191E-03;  2.1179400E+04;
  1.2308464E-01;  9.9999998E-03; -2.3992608E-01;3184; -3.3837654E-02;  0.0000000E+00; -3.3848966E-03;  9.9062390E+02;  1.0000000E-01; -7.7679282E+03;3; -1.2272635E+01;  0.0000000E+00; -6.0445995E+00;0; -2.5730208E-01;  3.9164277E+04;  0.0000000E+00;  8.2560530E+00;  4.0000000E+04;  0.0000000E+00;  4.0095562E+04; -2.6016587E-01;  0.0000000E+00;  2.8637974E-03;  1.7466633E+04;
  1.2331044E-01;  9.9999998E-03; -2.2997357E-01;3185; -3.6537156E-02;  0.0000000E+00; -2.6701519E-03;  9.9140387E+02;  1.0000000E-01; -7.1217246E+03;3; -8.2363853E+00;  0.0000000E+00; -3.1328104E+00;0; -2.5937873E-01;  3.9229242E+04;  0.0000000E+00;  5.3138213E+00;  4.0000000E+04;  0.0000000E+00;  4.0092730E+04; -2.6565042E-01;  0.0000000E+00;  6.2716850E-03;  1.4519946E+04;
  1.2349090E-01;  9.9999998E-03; -2.2000523E-01;3186; -3.8981251E-02;  0.0000000E+00; -1.9167747E-03;  9.9213660E+02;  1.0000000E-01; -6.5146802E+03;3; -5.5140696E+00;  0.0000000E+00; -3.0823383E-01;0; -2.6026681E-01;  3.9299352E+04;  0.0000000E+00;  3.3002698E+00;  4.0000000E+04;  0.0000000E+00;  4.0081121E+04; -2.6885670E-01;  0.0000000E+00;  8.5898833E-03;  1.1804259E+04;
  1.2362716E-01;  9.9999998E-03; -2.1001777E-01;3187; -4.1139536E-02;  0.0000000E+00; -1.2687051E-03;  9.9279510E+02;  1.0000000E-01; -5.9691152E+03;3; -3.8352599E+00;  0.0000000E+00;  1.3552895E+00;0; -2.6052341E-01;  3.9368898E+04;  0.0000000E+00;  2.0420377E+00;  4.0000000E+04;  0.0000000E+00;  4.0063379E+04; -2.7024549E-01;  0.0000000E+00;  9.7220726E-03;  9.0278867E+03;
  1.2372357E-01;  9.9999998E-03; -2.0001295E-01;3188; -4.2990934E-02;  0.0000000E+00; -8.2762551E-04;  9.9335919E+02;  1.0000000E-01; -5.5017705E+03;3; -2.9246345E+00;  0.0000000E+00;  1.7904212E+00;0; -2.6053762E-01;  3.9433734E+04;  0.0000000E+00;  1.3017459E+00;  4.0000000E+04;  0.0000000E+00;  4.0043090E+04; -2.7026793E-01;  0.0000000E+00;  9.7302953E-03;  6.2352866E+03;
  1.2377631E-01;  9.9999998E-03; -1.8999386E-01;3189; -4.4548683E-02;  0.0000000E+00; -6.1266270E-04;  9.9383142E+02;  1.0000000E-01; -5.1105713E+03;3; -2.5318642E+00;  0.0000000E+00;  1.4518268E+00;0; -2.6052853E-01;  3.9490520E+04;  0.0000000E+00;  8.6554068E-01;  4.0000000E+04;  0.0000000E+00;  4.0023484E+04; -2.6935399E-01;  0.0000000E+00;  8.8254483E-03;  3.6752219E+03;
  1.2379163E-01;  9.9999998E-03; -1.7996670E-01;3190; -4.5838308E-02;  0.0000000E+00; -5.6531379E-04;  9.9421973E+02;  1.0000000E-01; -4.7888521E+03;3; -2.4453654E+00;  0.0000000E+00;  8.8738799E-01;0; -2.6058137E-01;  3.9537125E+04;  0.0000000E+00;  5.8819503E-01;  4.0000000E+04;  0.0000000E+00;  4.0007375E+04; -2.6790377E-01;  0.0000000E+00;  7.3223910E-03;  1.6524976E+03;
  1.2378132E-01;  9.9999998E-03; -1.6993535E-01;3191; -4.6884704E-02;  0.0000000E+00; -6.5016368E-04;  9.9453638E+02;  1.0000000E-01; -4.5264893E+03;3; -2.5035284E+00;  0.0000000E+00;  4.4653115E-01;0; -2.6069197E-01;  3.9572477E+04;  0.0000000E+00;  3.9459974E-01;  4.0000000E+04;  0.0000000E+00;  3.9996773E+04; -2.6627374E-01;  0.0000000E+00;  5.5817543E-03;  5.7104755E+02;
  1.2375605E-01;  9.9999998E-03; -1.5990695E-01;3192; -4.7716405E-02;  0.0000000E+00; -8.2015182E-04;  9.9478711E+02;  1.0000000E-01; -4.3187915E+03;3; -2.5994391E+00;  0.0000000E+00;  2.2786976E-01;0; -2.6081148E-01;  3.9596473E+04;  0.0000000E+00;  2.5562847E-01;  4.0000000E+04;  0.0000000E+00;  3.9992461E+04; -2.6476464E-01;  0.0000000E+00;  3.9531677E-03;  6.2607361E+02;
  1.2372657E-01;  9.9999998E-03; -1.4989725E-01;3193; -4.8364602E-02;  0.0000000E+00; -1.0286403E-03;  9.9497955E+02;  1.0000000E-01; -4.1593394E+03;3; -2.6770027E+00;  0.0000000E+00;  1.6517334E-01;0; -2.6087606E-01;  3.9610355E+04;  0.0000000E+00;  1.5956603E-01;  4.0000000E+04;  0.0000000E+00;  3.9993703E+04; -2.6360324E-01;  0.0000000E+00;  2.7271921E-03;  4.2346295E+02;
  1.2369436E-01;  9.9999998E-03; -1.3990188E-01;3194; -4.8860393E-02;  0.0000000E+00; -1.2411788E-03;  9.9511633E+02;  1.0000000E-01; -4.0460090E+03;3; -2.7203374E+00;  0.0000000E+00;  1.5957209E-01;0; -2.6082999E-01;  3.9615496E+04;  0.0000000E+00;  9.6776195E-02;  4.0000000E+04;  0.0000000E+00;  3.9999555E+04; -2.6292607E-01;  0.0000000E+00;  2.0960898E-03;  3.9158942E+02;
  1.2365726E-01;  9.9999998E-03; -1.2991440E-01;3195; -4.9233224E-02;  0.0000000E+00; -1.4263955E-03;  9.9520667E+02;  1.0000000E-01; -3.9711963E+03;3; -2.7361722E+00;  0.0000000E+00;  1.6112986E-01;0; -2.6064116E-01;  3.9613914E+04;  0.0000000E+00;  5.7980631E-02;  4.0000000E+04;  0.0000000E+00;  4.0008293E+04; -2.6278090E-01;  0.0000000E+00;  2.1397334E-03;  1.4377419E+03;
  1.2361396E-01;  9.9999998E-03; -1.1992949E-01;3196; -4.9510814E-02;  0.0000000E+00; -1.5597524E-03;  9.9524695E+02;  1.0000000E-01; -3.9378145E+03;3; -2.7369299E+00;  0.0000000E+00;  1.6271111E-01;0; -2.6031673E-01;  3.9607406E+04;  0.0000000E+00;  3.4786019E-02;  4.0000000E+04;  0.0000000E+00;  4.0017633E+04; -2.6315135E-01;  0.0000000E+00;  2.8346258E-03;  2.6123704E+03;
  1.2356701E-01;  9.9999998E-03; -1.0994413E-01;3197; -4.9717866E-02;  0.0000000E+00; -1.6221274E-03;  9.9523859E+02;  1.0000000E-01; -3.9447280E+03;3; -2.7328558E+00;  0.0000000E+00;  1.6432188E-01;0; -2.5990352E-01;  3.9598121E+04;  0.0000000E+00;  2.0899745E-02;  4.0000000E+04;  0.0000000E+00;  4.0026328E+04; -2.6397416E-01;  0.0000000E+00;  4.0706364E-03;  3.6924517E+03;
  1.3232464E-01;  9.9999998E-03; -2.6969334E-01;3242; -2.7346199E-02;  0.0000000E+00; -2.5794059E-03;  9.8757904E+02;  1.0000000E-01; -1.0290523E+04;3; -2.5506807E+01;  0.0000000E+00;  7.4333968E+00;0; -2.5278679E-01;  3.8964453E+04;  0.0000000E+00;  3.2793545E+01;  4.0000000E+04;  0.0000000E+00;  4.0052109E+04; -2.4444951E-01;  0.0000000E+00; -8.3372854E-03;  4.8327312E+04;
  1.3264786E-01;  9.9999998E-03; -2.5977436E-01;3243; -3.0828981E-02;  0.0000000E+00; -2.7625479E-03;  9.8830847E+02;  1.0000000E-01; -9.6861953E+03;3; -1.9469072E+01;  0.0000000E+00; -4.6682520E+00;0; -2.6067740E-01;  3.8996305E+04;  0.0000000E+00;  2.4975826E+01;  4.0000000E+04;  0.0000000E+00;  4.0079055E+04; -2.5630292E-01;  0.0000000E+00; -4.3744612E-03;  3.7929262E+04;
  1.3294841E-01;  9.9999998E-03; -2.4985026E-01;3244; -3.3974670E-02;  0.0000000E+00; -2.6672317E-03;  9.8919965E+02;  1.0000000E-01; -8.9478955E+03;3; -1.4367800E+01;  0.0000000E+00; -8.7506208E+00;0; -2.6502970E-01;  3.9051125E+04;  0.0000000E+00;  1.7654518E+01;  4.0000000E+04;  0.0000000E+00;  4.0095863E+04; -2.6449329E-01;  0.0000000E+00; -5.3640921E-04;  2.8721348E+04;
  1.3320832E-01;  9.9999998E-03; -2.3991863E-01;3245; -3.6815144E-02;  0.0000000E+00; -2.3173934E-03;  9.9015137E+02;  1.0000000E-01; -8.1594233E+03;3; -1.0188947E+01;  0.0000000E+00; -7.5651326E+00;0; -2.6674727E-01;  3.9121555E+04;  0.0000000E+00;  1.1591928E+01;  4.0000000E+04;  0.0000000E+00;  4.0101473E+04; -2.6956853E-01;  0.0000000E+00;  2.8212667E-03;  2.1586717E+04;
  1.3342020E-01;  9.9999998E-03; -2.2997491E-01;3246; -3.9388727E-02;  0.0000000E+00; -1.7625588E-03;  9.9108405E+02;  1.0000000E-01; -7.3867046E+03;3; -6.9179945E+00;  0.0000000E+00; -4.1905355E+00;0; -2.6669797E-01;  3.9200371E+04;  0.0000000E+00;  7.1004286E+00;  4.0000000E+04;  0.0000000E+00;  4.0096609E+04; -2.7211040E-01;  0.0000000E+00;  5.4124207E-03;  1.6437328E+04;
  1.3358577E-01;  9.9999998E-03; -2.2001362E-01;3247; -4.1691087E-02;  0.0000000E+00; -1.1506933E-03;  9.9192993E+02;  1.0000000E-01; -6.6858848E+03;3; -4.5116982E+00;  0.0000000E+00; -9.6945709E-01;0; -2.6561460E-01;  3.9280738E+04;  0.0000000E+00;  4.1074233E+00;  4.0000000E+04;  0.0000000E+00;  4.0082855E+04; -2.7267513E-01;  0.0000000E+00;  7.0605287E-03;  1.2535913E+04;
  1.3370699E-01;  9.9999998E-03; -2.1003264E-01;3248; -4.3701906E-02;  0.0000000E+00; -6.4134761E-04;  9.9265631E+02;  1.0000000E-01; -6.0841240E+03;3; -2.8704455E+00;  0.0000000E+00;  9.8628116E-01;0; -2.6407430E-01;  3.9357359E+04;  0.0000000E+00;  2.3067727E+00;  4.0000000E+04;  0.0000000E+00;  4.0063371E+04; -2.7177450E-01;  0.0000000E+00;  7.7002076E-03;  9.1782480E+03;
  1.3378429E-01;  9.9999998E-03; -2.0003244E-01;3249; -4.5421980E-02;  0.0000000E+00; -2.9734973E-04;  9.9324945E+02;  1.0000000E-01; -5.5926812E+03;3; -1.8473697E+00;  0.0000000E+00;  1.6170467E+00;0; -2.6247731E-01;  3.9425473E+04;  0.0000000E+00;  1.3162069E+00;  4.0000000E+04;  0.0000000E+00;  4.0041711E+04; -2.6987129E-01;  0.0000000E+00;  7.3939916E-03;  6.0931816E+03;
  1.3381849E-01;  9.9999998E-03; -1.9001397E-01;3250; -4.6865746E-02;  0.0000000E+00; -1.2928637E-04;  9.9371423E+02;  1.0000000E-01; -5.2076553E+03;3; -1.2879914E+00;  0.0000000E+00;  1.3941284E+00;0; -2.6104087E-01;  3.9482285E+04;  0.0000000E+00;  7.9700845E-01;  4.0000000E+04;  0.0000000E+00;  4.0021172E+04; -2.6737788E-01;  0.0000000E+00;  6.3370261E-03;  3.3767996E+03;
  1.3381945E-01;  9.9999998E-03; -1.7998306E-01;3251; -4.8056543E-02;  0.0000000E+00; -1.1389513E-04;  9.9406433E+02;  1.0000000E-01; -4.9175894E+03;3; -1.0407400E+00;  0.0000000E+00;  8.8472503E-01;0; -2.5984162E-01;  3.9525984E+04;  0.0000000E+00;  5.1335317E-01;  4.0000000E+04;  0.0000000E+00;  4.0004371E+04; -2.6465881E-01;  0.0000000E+00;  4.8171924E-03;  1.2937799E+03;
  1.3379757E-01;  9.9999998E-03; -1.6994518E-01;3252; -4.9021225E-02;  0.0000000E+00; -2.1843685E-04;  9.9431610E+02;  1.0000000E-01; -4.7090024E+03;3; -9.7198486E-01;  0.0000000E+00;  4.6579853E-01;0; -2.5886270E-01;  3.9556324E+04;  0.0000000E+00;  3.3653906E-01;  4.0000000E+04;  0.0000000E+00;  3.9993637E+04; -2.6202518E-01;  0.0000000E+00;  3.1624832E-03;  5.7878442E+02;
  1.3376275E-01;  9.9999998E-03; -1.5991290E-01;3253; -4.9789444E-02;  0.0000000E+00; -4.0278031E-04;  9.9448236E+02;  1.0000000E-01; -4.5712783E+03;3; -9.8073292E-01;  0.0000000E+00;  2.5390008E-01;0; -2.5805154E-01;  3.9573820E+04;  0.0000000E+00;  2.1376219E-01;  4.0000000E+04;  0.0000000E+00;  3.9989262E+04; -2.5973940E-01;  0.0000000E+00;  1.6878468E-03;  9.3769092E+02;
  1.3372934E-01;  9.9999998E-03; -1.4990398E-01;3254; -5.0394535E-02;  0.0000000E+00; -6.2595040E-04;  9.9458337E+02;  1.0000000E-01; -4.4875767E+03;3; -1.0074949E+00;  0.0000000E+00;  1.9316497E-01;0; -2.5734708E-01;  3.9579875E+04;  0.0000000E+00;  1.2812597E-01;  4.0000000E+04;  0.0000000E+00;  3.9990742E+04; -2.5799459E-01;  0.0000000E+00;  6.4752385E-04;  7.3239941E+02;
  1.3369237E-01;  9.9999998E-03; -1.3990913E-01;3255; -5.0867446E-02;  0.0000000E+00; -8.5059047E-04;  9.9462042E+02;  1.0000000E-01; -4.4568618E+03;3; -1.0295010E+00;  0.0000000E+00;  1.8867202E-01;0; -2.5669995E-01;  3.9576578E+04;  0.0000000E+00;  7.1611658E-02;  4.0000000E+04;  0.0000000E+00;  3.9996832E+04; -2.5690481E-01;  0.0000000E+00;  2.0485352E-04;  1.1277071E+02;
  1.3365176E-01;  9.9999998E-03; -1.2992136E-01;3256; -5.1236700E-02;  0.0000000E+00; -1.0488473E-03;  9.9460468E+02;  1.0000000E-01; -4.4699478E+03;3; -1.0439575E+00;  0.0000000E+00;  1.9048677E-01;0; -2.5607672E-01;  3.9566430E+04;  0.0000000E+00;  3.6845114E-02;  4.0000000E+04;  0.0000000E+00;  4.0005445E+04; -2.5649315E-01;  0.0000000E+00;  4.1643126E-04;  1.1423087E+03;
  1.3360564E-01;  9.9999998E-03; -1.1993532E-01;3257; -5.1527232E-02;  0.0000000E+00; -1.1954434E-03;  9.9454150E+02;  1.0000000E-01; -4.5222427E+03;3; -1.0541642E+00;  0.0000000E+00;  1.9186632E-01;0; -2.5547239E-01;  3.9551723E+04;  0.0000000E+00;  1.6847016E-02;  4.0000000E+04;  0.0000000E+00;  4.0014883E+04; -2.5671649E-01;  0.0000000E+00;  1.2440837E-03;  2.3337891E+03;
  1.3355596E-01;  9.9999998E-03; -1.0994831E-01;3258; -5.1760450E-02;  0.0000000E+00; -1.2724944E-03;  9.9443372E+02;  1.0000000E-01; -4.6115732E+03;3; -1.0628608E+00;  0.0000000E+00;  1.9246396E-01;0; -2.5491455E-01;  3.9534480E+04;  0.0000000E+00;  6.0357833E-03;  4.0000000E+04;  0.0000000E+00;  4.0023453E+04; -2.5748613E-01;  0.0000000E+00;  2.5715944E-03;  3.4158767E+03;
  1.4248389E-01;  9.9999998E-03; -2.6966909E-01;3303; -3.0854110E-02;  0.0000000E+00; -8.7108806E-04;  9.8640656E+02;  1.0000000E-01; -1.1261903E+04;3; -1.1008634E+01;  0.0000000E+00;  3.6121778E+00;0; -2.7301726E-01;  3.8860113E+04;  0.0000000E+00;  4.7137486E+01;  4.0000000E+04;  0.0000000E+00;  4.0065918E+04; -2.6666984E-01;  0.0000000E+00; -6.3474174E-03;  6.9451648E+04;
  1.4282773E-01;  9.9999998E-03; -2.5975093E-01;3304; -3.4310762E-02;  0.0000000E+00; -1.2297793E-03;  9.8734894E+02;  1.0000000E-01; -1.0481185E+04;3; -1.0184111E+01;  0.0000000E+00; -7.5291862E+00;0; -2.7787822E-01;  3.8911684E+04;  0.0000000E+00;  3.5013100E+01;  4.0000000E+04;  0.0000000E+00;  4.0089770E+04; -2.7480039E-01;  0.0000000E+00; -3.0778470E-03;  5.2545270E+04;
  1.4312178E-01;  9.9999998E-03; -2.4983822E-01;3305; -3.7323210E-02;  0.0000000E+00; -1.3345634E-03;  9.8845984E+02;  1.0000000E-01; -9.5608164E+03;3; -8.9368267E+00;  0.0000000E+00; -1.0635344E+01;0; -2.7919412E-01;  3.8986453E+04;  0.0000000E+00;  2.4111347E+01;  4.0000000E+04;  0.0000000E+00;  4.0103133E+04; -2.7914888E-01;  0.0000000E+00; -4.5242719E-05;  3.7775121E+04;
  1.4336000E-01;  9.9999998E-03; -2.3991899E-01;3306; -3.9991602E-02;  0.0000000E+00; -1.1683010E-03;  9.8960754E+02;  1.0000000E-01; -8.6099297E+03;3; -7.2364693E+00;  0.0000000E+00; -8.7215757E+00;0; -2.7813125E-01;  3.9074801E+04;  0.0000000E+00;  1.5380945E+01;  4.0000000E+04;  0.0000000E+00;  4.0105621E+04; -2.8061384E-01;  0.0000000E+00;  2.4826012E-03;  2.6438781E+04;
  1.4354944E-01;  9.9999998E-03; -2.2998342E-01;3307; -4.2363267E-02;  0.0000000E+00; -8.2149613E-04;  9.9069061E+02;  1.0000000E-01; -7.7126709E+03;3; -5.4066319E+00;  0.0000000E+00; -4.9127274E+00;0; -2.7561915E-01;  3.9167781E+04;  0.0000000E+00;  9.0820675E+00;  4.0000000E+04;  0.0000000E+00;  4.0098020E+04; -2.7994770E-01;  0.0000000E+00;  4.3285564E-03;  1.8551541E+04;
  1.4369532E-01;  9.9999998E-03; -2.2002764E-01;3308; -4.4464167E-02;  0.0000000E+00; -4.0494101E-04;  9.9164288E+02;  1.0000000E-01; -6.9237056E+03;3; -3.7391343E+00;  0.0000000E+00; -1.4174724E+00;0; -2.7240038E-01;  3.9258074E+04;  0.0000000E+00;  4.9810538E+00;  4.0000000E+04;  0.0000000E+00;  4.0082434E+04; -2.7777076E-01;  0.0000000E+00;  5.3703897E-03;  1.3173021E+04;
  1.4379275E-01;  9.9999998E-03; -2.1005192E-01;3309; -4.6299510E-02;  0.0000000E+00; -3.8095975E-05;  9.9242407E+02;  1.0000000E-01; -6.2765137E+03;3; -2.4019628E+00;  0.0000000E+00;  7.3318249E-01;0; -2.6902336E-01;  3.9339941E+04;  0.0000000E+00;  2.5758982E+00;  4.0000000E+04;  0.0000000E+00;  4.0061785E+04; -2.7459708E-01;  0.0000000E+00;  5.5737314E-03;  9.1494287E+03;
  1.4384279E-01;  9.9999998E-03; -2.0005552E-01;3310; -4.7870863E-02;  0.0000000E+00;  2.0434509E-04;  9.9302832E+02;  1.0000000E-01; -5.7758862E+03;3; -1.4495792E+00;  0.0000000E+00;  1.4920527E+00;0; -2.6585576E-01;  3.9409531E+04;  0.0000000E+00;  1.3052952E+00;  4.0000000E+04;  0.0000000E+00;  4.0039035E+04; -2.7086473E-01;  0.0000000E+00;  5.0089513E-03;  5.7950098E+03;
  1.4385715E-01;  9.9999998E-03; -1.9003645E-01;3311; -4.9190354E-02;  0.0000000E+00;  3.0926988E-04;  9.9346564E+02;  1.0000000E-01; -5.4135752E+03;3; -8.5927212E-01;  0.0000000E+00;  1.3506842E+00;0; -2.6308569E-01;  3.9464379E+04;  0.0000000E+00;  6.8961507E-01;  4.0000000E+04;  0.0000000E+00;  4.0017969E+04; -2.6693797E-01;  0.0000000E+00;  3.8522738E-03;  2.9749958E+03;
  1.4384282E-01;  9.9999998E-03; -1.8000041E-01;3312; -5.0278403E-02;  0.0000000E+00;  2.9257845E-04;  9.9375580E+02;  1.0000000E-01; -5.1731870E+03;3; -5.5714387E-01;  0.0000000E+00;  8.8630229E-01;0; -2.6075846E-01;  3.9503309E+04;  0.0000000E+00;  3.9676231E-01;  4.0000000E+04;  0.0000000E+00;  4.0001004E+04; -2.6312298E-01;  0.0000000E+00;  2.3645086E-03;  8.8183032E+02;
  1.4380595E-01;  9.9999998E-03; -1.6995378E-01;3313; -5.1158719E-02;  0.0000000E+00;  1.6684584E-04;  9.9392377E+02;  1.0000000E-01; -5.0340303E+03;3; -4.4103810E-01;  0.0000000E+00;  4.8450711E-01;0; -2.5883117E-01;  3.9526641E+04;  0.0000000E+00;  2.4074580E-01;  4.0000000E+04;  0.0000000E+00;  3.9990391E+04; -2.5967240E-01;  0.0000000E+00;  8.4123889E-04;  7.7465912E+02;
  1.4376473E-01;  9.9999998E-03; -1.5991832E-01;3314; -5.1864740E-02;  0.0000000E+00; -3.0480876E-05;  9.9399237E+02;  1.0000000E-01; -4.9771924E+03;3; -4.1892734E-01;  0.0000000E+00;  2.7717730E-01;0; -2.5723106E-01;  3.9535895E+04;  0.0000000E+00;  1.4109316E-01;  4.0000000E+04;  0.0000000E+00;  3.9986047E+04; -2.5679094E-01;  0.0000000E+00; -4.4010862E-04;  1.2422635E+03;
  1.4372694E-01;  9.9999998E-03; -1.4990883E-01;3315; -5.2429948E-02;  0.0000000E+00; -2.6196297E-04;  9.9398267E+02;  1.0000000E-01; -4.9852417E+03;3; -4.2983118E-01;  0.0000000E+00;  2.1716523E-01;0; -2.5588614E-01;  3.9532984E+04;  0.0000000E+00;  7.2773792E-02;  4.0000000E+04;  0.0000000E+00;  3.9987812E+04; -2.5462398E-01;  0.0000000E+00; -1.2621653E-03;  1.0122214E+03;
  1.4368866E-01;  9.9999998E-03; -1.3991374E-01;3316; -5.2885067E-02;  0.0000000E+00; -4.9618667E-04;  9.9390619E+02;  1.0000000E-01; -5.0485981E+03;3; -4.4664419E-01;  0.0000000E+00;  2.1308142E-01;0; -2.5474405E-01;  3.9520426E+04;  0.0000000E+00;  2.8509274E-02;  4.0000000E+04;  0.0000000E+00;  3.9994078E+04; -2.5324920E-01;  0.0000000E+00; -1.4948591E-03;  2.2320071E+02;
  1.4364712E-01;  9.9999998E-03; -1.2992479E-01;3317; -5.3256825E-02;  0.0000000E+00; -7.0352189E-04;  9.9377899E+02;  1.0000000E-01; -5.1539775E+03;3; -4.6270707E-01;  0.0000000E+00;  2.1461102E-01;0; -2.5376970E-01;  3.9501141E+04;  0.0000000E+00;  2.8085378E-03;  4.0000000E+04;  0.0000000E+00;  4.0002867E+04; -2.5266528E-01;  0.0000000E+00; -1.1044171E-03;  8.9730573E+02;
  1.4360109E-01;  9.9999998E-03; -1.1993705E-01;3318; -5.3567201E-02;  0.0000000E+00; -8.6012302E-04;  9.9360437E+02;  1.0000000E-01; -5.2986650E+03;3; -4.7765717E-01;  0.0000000E+00;  2.1594170E-01;0; -2.5294974E-01;  3.9477668E+04;  0.0000000E+00; -9.9732568E-03;  4.0000000E+04;  0.0000000E+00;  4.0012512E+04; -2.5280562E-01;  0.0000000E+00; -1.4412827E-04;  2.0931021E+03;
  1.4355177E-01;  9.9999998E-03; -1.0994748E-01;3319; -5.3833466E-02;  0.0000000E+00; -9.4906025E-04;  9.9339331E+02;  1.0000000E-01; -5.4735244E+03;3; -4.9154106E-01;  0.0000000E+00;  2.1549521E-01;0; -2.5229314E-01;  3.9452523E+04;  0.0000000E+00; -1.4693454E-02;  4.0000000E+04;  0.0000000E+00;  4.0020777E+04; -2.5355750E-01;  0.0000000E+00;  1.2643652E-03;  3.1625056E+03;
  1.5358040E-01;  9.9999998E-03; -1.0993686E-01;3380; -5.5997066E-02;  0.0000000E+00; -6.7096110E-04;  9.9225403E+02;  1.0000000E-01; -6.4173989E+03;3; -3.9080104E-01;  0.0000000E+00;  2.4014401E-01;0; -2.5181949E-01;  3.9363113E+04;  0.0000000E+00; -3.7946790E-02;  4.0000000E+04;  0.0000000E+00;  4.0018238E+04; -2.5204080E-01;  0.0000000E+00;  2.2131611E-04;  2.9494072E+03;
  1.5362322E-01;  9.9999998E-03; -1.1992988E-01;3379; -5.5689879E-02;  0.0000000E+00; -5.7335576E-04;  9.9256116E+02;  1.0000000E-01; -6.1629370E+03;3; -3.7604794E-01;  0.0000000E+00;  2.4050483E-01;0; -2.5254411E-01;  3.9395672E+04;  0.0000000E+00; -4.2329289E-02;  4.0000000E+04;  0.0000000E+00;  4.0010281E+04; -2.5128698E-01;  0.0000000E+00; -1.2571340E-03;  1.9072654E+03;
  1.5366280E-01;  9.9999998E-03; -1.2992063E-01;3378; -5.5351131E-02;  0.0000000E+00; -4.0918222E-04;  9.9284436E+02;  1.0000000E-01; -5.9283262E+03;3; -3.5984471E-01;  0.0000000E+00;  2.3960885E-01;0; -2.5352699E-01;  3.9427359E+04;  0.0000000E+00; -4.1261822E-02;  4.0000000E+04;  0.0000000E+00;  4.0000840E+04; -2.5118032E-01;  0.0000000E+00; -2.3466717E-03;  7.2276074E+02;
  1.5369888E-01;  9.9999998E-03; -1.3991238E-01;3377; -5.4968119E-02;  0.0000000E+00; -1.9521883E-04;  9.9308588E+02;  1.0000000E-01; -5.7282329E+03;3; -3.4283912E-01;  0.0000000E+00;  2.3713933E-01;0; -2.5477338E-01;  3.9455652E+04;  0.0000000E+00; -3.0483991E-02;  4.0000000E+04;  0.0000000E+00;  3.9992117E+04; -2.5185323E-01;  0.0000000E+00; -2.9201559E-03;  4.1037921E+02;
  1.5373369E-01;  9.9999998E-03; -1.4990957E-01;3376; -5.4522257E-02;  0.0000000E+00;  4.5322184E-05;  9.9327771E+02;  1.0000000E-01; -5.5692744E+03;3; -3.2593343E-01;  0.0000000E+00;  2.4127705E-01;0; -2.5630394E-01;  3.9477609E+04;  0.0000000E+00; -5.2525275E-03;  4.0000000E+04;  0.0000000E+00;  3.9985492E+04; -2.5339463E-01;  0.0000000E+00; -2.9092927E-03;  1.2322760E+03;
  1.5377222E-01;  9.9999998E-03; -1.5992096E-01;3375; -5.3989459E-02;  0.0000000E+00;  2.8506664E-04;  9.9340442E+02;  1.0000000E-01; -5.4642900E+03;3; -3.1765190E-01;  0.0000000E+00;  3.0055860E-01;0; -2.5815585E-01;  3.9490293E+04;  0.0000000E+00;  3.8767930E-02;  4.0000000E+04;  0.0000000E+00;  3.9983578E+04; -2.5583187E-01;  0.0000000E+00; -2.3239832E-03;  1.5094443E+03;
  1.5381856E-01;  9.9999998E-03; -1.6996048E-01;3374; -5.3339586E-02;  0.0000000E+00;  4.9421476E-04;  9.9344562E+02;  1.0000000E-01; -5.4301675E+03;3; -3.4687352E-01;  0.0000000E+00;  4.9929866E-01;0; -2.6039553E-01;  3.9490457E+04;  0.0000000E+00;  1.1028133E-01;  4.0000000E+04;  0.0000000E+00;  3.9987223E+04; -2.5913510E-01;  0.0000000E+00; -1.2604336E-03;  1.0554866E+03;
  1.5386234E-01;  9.9999998E-03; -1.8001640E-01;3373; -5.2538276E-02;  0.0000000E+00;  6.4212701E-04;  9.9337482E+02;  1.0000000E-01; -5.4888325E+03;3; -4.7404054E-01;  0.0000000E+00;  8.7721384E-01;0; -2.6311719E-01;  3.9475547E+04;  0.0000000E+00;  2.4497557E-01;  4.0000000E+04;  0.0000000E+00;  3.9997484E+04; -2.6321927E-01;  0.0000000E+00;  1.0206069E-04;  4.3577640E+02;
  1.5389284E-01;  9.9999998E-03; -1.9006039E-01;3372; -5.1554915E-02;  0.0000000E+00;  7.0178986E-04;  9.9316254E+02;  1.0000000E-01; -5.6647285E+03;3; -7.8030652E-01;  0.0000000E+00;  1.2981648E+00;0; -2.6642737E-01;  3.9443277E+04;  0.0000000E+00;  5.5065727E-01;  4.0000000E+04;  0.0000000E+00;  4.0014039E+04; -2.6794612E-01;  0.0000000E+00;  1.5187480E-03;  2.4660771E+03;
  1.5390435E-01;  9.9999998E-03; -2.0008147E-01;3371; -5.0366402E-02;  0.0000000E+00;  6.5600721E-04;  9.9277368E+02;  1.0000000E-01; -5.9868926E+03;3; -1.3279001E+00;  0.0000000E+00;  1.3743781E+00;0; -2.7041286E-01;  3.9392590E+04;  0.0000000E+00;  1.2661768E+00;  4.0000000E+04;  0.0000000E+00;  4.0034969E+04; -2.7313790E-01;  0.0000000E+00;  2.7250289E-03;  5.3136426E+03;
  1.5387173E-01;  9.9999998E-03; -2.1007581E-01;3370; -4.8955251E-02;  0.0000000E+00;  5.0588080E-04;  9.9217706E+02;  1.0000000E-01; -6.4811499E+03;3; -2.1049638E+00;  0.0000000E+00;  5.4044241E-01;0; -2.7507204E-01;  3.9323691E+04;  0.0000000E+00;  2.8137572E+00;  4.0000000E+04;  0.0000000E+00;  4.0057844E+04; -2.7856156E-01;  0.0000000E+00;  3.4895176E-03;  8.8856152E+03;
  1.5273710E-01;  9.9999998E-03; -2.6964700E-01;3364; -3.4764238E-02;  0.0000000E+00;  6.4567971E-04;  9.8511908E+02;  1.0000000E-01; -1.2328540E+04;3;  1.0475186E+01;  0.0000000E+00;  2.3821149E-02;0; -2.9776892E-01;  3.8745859E+04;  0.0000000E+00;  6.3521168E+01;  4.0000000E+04;  0.0000000E+00;  4.0081250E+04; -2.9264027E-01;  0.0000000E+00; -5.1286598E-03;  9.3730195E+04;
  1.5308337E-01;  9.9999998E-03; -2.5974324E-01;3365; -3.8118787E-02;  0.0000000E+00;  1.4087460E-04;  9.8633081E+02;  1.0000000E-01; -1.1324667E+04;3;  2.7996831E+00;  0.0000000E+00; -9.8943586E+00;0; -2.9827765E-01;  3.8823180E+04;  0.0000000E+00;  4.5962048E+01;  4.0000000E+04;  0.0000000E+00;  4.0099555E+04; -2.9592422E-01;  0.0000000E+00; -2.3534165E-03;  6.8631664E+04;
  1.5335314E-01;  9.9999998E-03; -2.4984212E-01;3366; -4.0934175E-02;  0.0000000E+00; -1.2080259E-04;  9.8770227E+02;  1.0000000E-01; -1.0188452E+04;3; -1.6864097E+00;  0.0000000E+00; -1.1977164E+01;0; -2.9560584E-01;  3.8922891E+04;  0.0000000E+00;  3.0870464E+01;  4.0000000E+04;  0.0000000E+00;  4.0108184E+04; -2.9564577E-01;  0.0000000E+00;  3.9927312E-05;  4.7402789E+04;
  1.5355906E-01;  9.9999998E-03; -2.3993208E-01;3367; -4.3341931E-02;  0.0000000E+00; -1.4306881E-04;  9.8906482E+02;  1.0000000E-01; -9.0595957E+03;3; -3.4818475E+00;  0.0000000E+00; -9.4441299E+00;0; -2.9112938E-01;  3.9031238E+04;  0.0000000E+00;  1.9208509E+01;  4.0000000E+04;  0.0000000E+00;  4.0106734E+04; -2.9302356E-01;  0.0000000E+00;  1.8941849E-03;  3.1441164E+04;
  1.5370607E-01;  9.9999998E-03; -2.3000312E-01;3368; -4.5451358E-02;  0.0000000E+00;  1.8416353E-05;  9.9030457E+02;  1.0000000E-01; -8.0324644E+03;3; -3.6219988E+00;  0.0000000E+00; -5.3300734E+00;0; -2.8580278E-01;  3.9138754E+04;  0.0000000E+00;  1.1026315E+01;  4.0000000E+04;  0.0000000E+00;  4.0096566E+04; -2.8891575E-01;  0.0000000E+00;  3.1129573E-03;  2.0586266E+04;
  1.5380521E-01;  9.9999998E-03; -2.2005075E-01;3369; -4.7317997E-02;  0.0000000E+00;  2.7202448E-04;  9.9135321E+02;  1.0000000E-01; -7.1636987E+03;3; -2.9746895E+00;  0.0000000E+00; -1.6936586E+00;0; -2.8029579E-01;  3.9237980E+04;  0.0000000E+00;  5.8133254E+00;  4.0000000E+04;  0.0000000E+00;  4.0079438E+04; -2.8393999E-01;  0.0000000E+00;  3.6441854E-03;  1.3598097E+04;
  1.6309546E-01;  9.9999998E-03; -2.6964530E-01;3425; -3.9027657E-02;  0.0000000E+00;  1.7012622E-03;  9.8374286E+02;  1.0000000E-01; -1.3468754E+04;3;  3.7314476E+01;  0.0000000E+00; -1.6203301E+00;0; -3.2644367E-01;  3.8624992E+04;  0.0000000E+00;  7.9935417E+01;  4.0000000E+04;  0.0000000E+00;  4.0096449E+04; -3.2179859E-01;  0.0000000E+00; -4.6450933E-03;  1.1825762E+05;
  1.6343740E-01;  9.9999998E-03; -2.5976089E-01;3426; -4.2209838E-02;  0.0000000E+00;  1.1417166E-03;  9.8528674E+02;  1.0000000E-01; -1.2189630E+04;3;  1.8101528E+01;  0.0000000E+00; -1.0684397E+01;0; -3.2123700E-01;  3.8735852E+04;  0.0000000E+00;  5.6301479E+01;  4.0000000E+04;  0.0000000E+00;  4.0106539E+04; -3.1907544E-01;  0.0000000E+00; -2.1615676E-03;  8.3947391E+04;
  1.6367342E-01;  9.9999998E-03; -2.4987099E-01;3427; -4.4743899E-02;  0.0000000E+00;  7.6565135E-04;  9.8696637E+02;  1.0000000E-01; -1.0798113E+04;3;  6.4553304E+00;  0.0000000E+00; -1.2281040E+01;0; -3.1360099E-01;  3.8865238E+04;  0.0000000E+00;  3.6944599E+01;  4.0000000E+04;  0.0000000E+00;  4.0108809E+04; -3.1341502E-01;  0.0000000E+00; -1.8596603E-04;  5.6111879E+04;
  1.6380300E-01;  9.9999998E-03; -2.3996620E-01;3428; -4.6837203E-02;  0.0000000E+00;  6.1847077E-04;  9.8858099E+02;  1.0000000E-01; -9.4604229E+03;3;  5.7796144E-01;  0.0000000E+00; -9.5756035E+00;0; -3.0511194E-01;  3.8996934E+04;  0.0000000E+00;  2.2520828E+01;  4.0000000E+04;  0.0000000E+00;  4.0103562E+04; -3.0627623E-01;  0.0000000E+00;  1.1642955E-03;  3.5748129E+04;
  1.6387378E-01;  9.9999998E-03; -2.3003846E-01;3429; -4.8647352E-02;  0.0000000E+00;  6.6015957E-04;  9.8998517E+02;  1.0000000E-01; -8.2970977E+03;3; -1.7408944E+00;  0.0000000E+00; -5.4535217E+00;0; -2.9668692E-01;  3.9118926E+04;  0.0000000E+00;  1.2658092E+01;  4.0000000E+04;  0.0000000E+00;  4.0091195E+04; -2.9857868E-01;  0.0000000E+00;  1.8917632E-03;  2.2157857E+04;
  1.6390833E-01;  9.9999998E-03; -2.2008291E-01;3430; -5.0249744E-02;  0.0000000E+00;  7.9012034E-04;  9.9111798E+02;  1.0000000E-01; -7.3586060E+03;3; -2.1926613E+00;  0.0000000E+00; -1.8698161E+00;0; -2.8880647E-01;  3.9225203E+04;  0.0000000E+00;  6.4868274E+00;  4.0000000E+04;  0.0000000E+00;  4.0073234E+04; -2.9083294E-01;  0.0000000E+00;  2.0264783E-03;  1.3685913E+04;
  1.6393177E-01;  9.9999998E-03; -2.1010342E-01;3431; -5.1674925E-02;  0.0000000E+00;  9.2914398E-04;  9.9196405E+02;  1.0000000E-01; -6.6576382E+03;3; -1.8297060E+00;  0.0000000E+00;  3.5317892E-01;0; -2.8177729E-01;  3.9312223E+04;  0.0000000E+00;  2.9819093E+00;  4.0000000E+04;  0.0000000E+00;  4.0051695E+04; -2.8337604E-01;  0.0000000E+00;  1.5987554E-03;  8.3606025E+03;
  1.6394705E-01;  9.9999998E-03; -2.0010427E-01;3432; -5.2919690E-02;  0.0000000E+00;  1.0037671E-03;  9.9253308E+02;  1.0000000E-01; -6.1861948E+03;3; -1.2558545E+00;  0.0000000E+00;  1.2222590E+00;0; -2.7574047E-01;  3.9378254E+04;  0.0000000E+00;  1.1951486E+00;  4.0000000E+04;  0.0000000E+00;  4.0029602E+04; -2.7643734E-01;  0.0000000E+00;  6.9686933E-04;  4.6590420E+03;
  1.6394129E-01;  9.9999998E-03; -1.9008300E-01;3433; -5.3981520E-02;  0.0000000E+00;  9.9717616E-04;  9.9285699E+02;  1.0000000E-01; -5.9178569E+03;3; -7.7379692E-01;  0.0000000E+00;  1.2106948E+00;0; -2.7070433E-01;  3.9422801E+04;  0.0000000E+00;  3.8739750E-01;  4.0000000E+04;  0.0000000E+00;  4.0009488E+04; -2.7018243E-01;  0.0000000E+00; -5.2188418E-04;  1.8757251E+03;
  1.6389574E-01;  9.9999998E-03; -1.8003234E-01;3434; -5.4863479E-02;  0.0000000E+00;  9.0405269E-04;  9.9298242E+02;  1.0000000E-01; -5.8139092E+03;3; -4.8088640E-01;  0.0000000E+00;  8.4936905E-01;0; -2.6657212E-01;  3.9446977E+04;  0.0000000E+00;  6.6028945E-02;  4.0000000E+04;  0.0000000E+00;  3.9993996E+04; -2.6473263E-01;  0.0000000E+00; -1.8394754E-03;  1.8592551E+02;
  1.6385259E-01;  9.9999998E-03; -1.6996925E-01;3435; -5.5593535E-02;  0.0000000E+00;  7.3776371E-04;  9.9294708E+02;  1.0000000E-01; -5.8431924E+03;3; -3.5412908E-01;  0.0000000E+00;  5.0835454E-01;0; -2.6321971E-01;  3.9452594E+04;  0.0000000E+00; -4.8451044E-02;  4.0000000E+04;  0.0000000E+00;  3.9984484E+04; -2.6019472E-01;  0.0000000E+00; -3.0249981E-03;  1.3384880E+03;
  1.6381340E-01;  9.9999998E-03; -1.5992621E-01;3436; -5.6198299E-02;  0.0000000E+00;  5.2044838E-04;  9.9279242E+02;  1.0000000E-01; -5.9713369E+03;3; -3.2491845E-01;  0.0000000E+00;  3.2457614E-01;0; -2.6049280E-01;  3.9442691E+04;  0.0000000E+00; -8.7540805E-02;  4.0000000E+04;  0.0000000E+00;  3.9981410E+04; -2.5662938E-01;  0.0000000E+00; -3.8634171E-03;  1.7088752E+03;
  1.6378345E-01;  9.9999998E-03; -1.4991419E-01;3437; -5.6709949E-02;  0.0000000E+00;  2.7582468E-04;  9.9255237E+02;  1.0000000E-01; -6.1702446E+03;3; -3.3403733E-01;  0.0000000E+00;  2.6966518E-01;0; -2.5826329E-01;  3.9420523E+04;  0.0000000E+00; -9.9560842E-02;  4.0000000E+04;  0.0000000E+00;  3.9984102E+04; -2.5405449E-01;  0.0000000E+00; -4.2088004E-03;  1.3666799E+03;
  1.6376223E-01;  9.9999998E-03; -1.3991812E-01;3438; -5.7157755E-02;  0.0000000E+00;  3.0305340E-05;  9.9225006E+02;  1.0000000E-01; -6.4206572E+03;3; -3.5178873E-01;  0.0000000E+00;  2.6645261E-01;0; -2.5644669E-01;  3.9389594E+04;  0.0000000E+00; -9.7913310E-02;  4.0000000E+04;  0.0000000E+00;  3.9990809E+04; -2.5244853E-01;  0.0000000E+00; -3.9981701E-03;  5.1842596E+02;
  1.6374484E-01;  9.9999998E-03; -1.2992962E-01;3439; -5.7563458E-02;  0.0000000E+00; -1.8831412E-04;  9.9190271E+02;  1.0000000E-01; -6.7084517E+03;3; -3.6943960E-01;  0.0000000E+00;  2.6808366E-01;0; -2.5499940E-01;  3.9353020E+04;  0.0000000E+00; -8.7391354E-02;  4.0000000E+04;  0.0000000E+00;  3.9999430E+04; -2.5175273E-01;  0.0000000E+00; -3.2466515E-03;  6.4522815E+02;
  1.6372360E-01;  9.9999998E-03; -1.1994381E-01;3440; -5.7940595E-02;  0.0000000E+00; -3.5516242E-04;  9.9152686E+02;  1.0000000E-01; -7.0198501E+03;3; -3.8593054E-01;  0.0000000E+00;  2.6711896E-01;0; -2.5389355E-01;  3.9314344E+04;  0.0000000E+00; -7.2379149E-02;  4.0000000E+04;  0.0000000E+00;  4.0008652E+04; -2.5185624E-01;  0.0000000E+00; -2.0373184E-03;  1.8011704E+03;
  1.6369599E-01;  9.9999998E-03; -1.0995672E-01;3441; -5.8296736E-02;  0.0000000E+00; -4.5637001E-04;  9.9114014E+02;  1.0000000E-01; -7.3402363E+03;3; -4.0035936E-01;  0.0000000E+00;  2.6531759E-01;0; -2.5311634E-01;  3.9275934E+04;  0.0000000E+00; -5.6634232E-02;  4.0000000E+04;  0.0000000E+00;  4.0016684E+04; -2.5261322E-01;  0.0000000E+00; -5.0313101E-04;  2.8048250E+03;
  1.7355023E-01;  9.9999998E-03; -2.6970106E-01;3486; -4.3383349E-02;  0.0000000E+00;  2.0792256E-03;  9.8226471E+02;  1.0000000E-01; -1.4693361E+04;3;  6.3813301E+01;  0.0000000E+00;  2.7392192E+00;0; -3.5695690E-01;  3.8504082E+04;  0.0000000E+00;  9.2854530E+01;  4.0000000E+04;  0.0000000E+00;  4.0103918E+04; -3.5254395E-01;  0.0000000E+00; -4.4129500E-03;  1.3782512E+05;
  1.7384407E-01;  9.9999998E-03; -2.5983021E-01;3487; -4.6420533E-02;  0.0000000E+00;  1.6407581E-03;  9.8425885E+02;  1.0000000E-01; -1.3041260E+04;3;  3.2184605E+01;  0.0000000E+00; -7.8826165E+00;0; -3.4519786E-01;  3.8658449E+04;  0.0000000E+00;  6.3851147E+01;  4.0000000E+04;  0.0000000E+00;  4.0104512E+04; -3.4295607E-01;  0.0000000E+00; -2.2417991E-03;  9.5201906E+04;
  1.7399730E-01;  9.9999998E-03; -2.4994674E-01;3488; -4.8659541E-02;  0.0000000E+00;  1.2592016E-03;  9.8631750E+02;  1.0000000E-01; -1.1335679E+04;3;  1.3547396E+01;  0.0000000E+00; -1.0600921E+01;0; -3.3195350E-01;  3.8822457E+04;  0.0000000E+00;  4.1176891E+01;  4.0000000E+04;  0.0000000E+00;  4.0101047E+04; -3.3140963E-01;  0.0000000E+00; -5.4384908E-04;  6.2089773E+04;
  1.7403436E-01;  9.9999998E-03; -2.4003221E-01;3489; -5.0417311E-02;  0.0000000E+00;  1.0572529E-03;  9.8820703E+02;  1.0000000E-01; -9.7702412E+03;3;  4.0046959E+00;  0.0000000E+00; -8.8757334E+00;0; -3.1913504E-01;  3.8977258E+04;  0.0000000E+00;  2.4769150E+01;  4.0000000E+04;  0.0000000E+00;  4.0093738E+04; -3.1960049E-01;  0.0000000E+00;  4.6545011E-04;  3.8475277E+04;
  1.7401820E-01;  9.9999998E-03; -2.3008984E-01;3490; -5.1911887E-02;  0.0000000E+00;  1.0348991E-03;  9.8976654E+02;  1.0000000E-01; -8.4782285E+03;3; -1.7563337E-01;  0.0000000E+00; -5.3308740E+00;0; -3.0752367E-01;  3.9111727E+04;  0.0000000E+00;  1.3741725E+01;  4.0000000E+04;  0.0000000E+00;  4.0081105E+04; -3.0835834E-01;  0.0000000E+00;  8.3468622E-04;  2.2914934E+04;
  1.7399105E-01;  9.9999998E-03; -2.2012143E-01;3491; -5.3244162E-02;  0.0000000E+00;  1.0990949E-03;  9.9096252E+02;  1.0000000E-01; -7.4873926E+03;3; -1.5352526E+00;  0.0000000E+00; -2.0344167E+00;0; -2.9733360E-01;  3.9221801E+04;  0.0000000E+00;  6.9143419E+00;  4.0000000E+04;  0.0000000E+00;  4.0063883E+04; -2.9800597E-01;  0.0000000E+00;  6.7237875E-04;  1.3360036E+04;
  1.7397127E-01;  9.9999998E-03; -2.1013105E-01;3492; -5.4451764E-02;  0.0000000E+00;  1.1746242E-03;  9.9180328E+02;  1.0000000E-01; -6.7908198E+03;3; -1.5886291E+00;  0.0000000E+00;  1.0089225E-01;0; -2.8862584E-01;  3.9307031E+04;  0.0000000E+00;  3.0592339E+00;  4.0000000E+04;  0.0000000E+00;  4.0043703E+04; -2.8867581E-01;  0.0000000E+00;  4.9965631E-05;  7.6053433E+03;
  1.7396462E-01;  9.9999998E-03; -2.0012240E-01;3493; -5.5530187E-02;  0.0000000E+00;  1.2036412E-03;  9.9232593E+02;  1.0000000E-01; -6.3578442E+03;3; -1.1837597E+00;  0.0000000E+00;  1.0001209E+00;0; -2.8137350E-01;  3.9367453E+04;  0.0000000E+00;  1.0972216E+00;  4.0000000E+04;  0.0000000E+00;  4.0023098E+04; -2.8043863E-01;  0.0000000E+00; -9.3486003E-04;  3.8852068E+03;
  1.7396750E-01;  9.9999998E-03; -1.9009309E-01;3494; -5.6470789E-02;  0.0000000E+00;  1.1623877E-03;  9.9257471E+02;  1.0000000E-01; -6.1517266E+03;3; -7.5930291E-01;  0.0000000E+00;  1.0693730E+00;0; -2.7546322E-01;  3.9404430E+04;  0.0000000E+00;  2.1369337E-01;  4.0000000E+04;  0.0000000E+00;  4.0004812E+04; -2.7333122E-01;  0.0000000E+00; -2.1319871E-03;  1.2656500E+03;
  1.7396599E-01;  9.9999998E-03; -1.8004581E-01;3495; -5.7270858E-02;  0.0000000E+00;  1.0484037E-03;  9.9260370E+02;  1.0000000E-01; -6.1276782E+03;3; -4.8318318E-01;  0.0000000E+00;  7.9259253E-01;0; -2.7071312E-01;  3.9419414E+04;  0.0000000E+00; -1.2409747E-01;  4.0000000E+04;  0.0000000E+00;  3.9990895E+04; -2.6737216E-01;  0.0000000E+00; -3.3409479E-03;  5.4652106E+02;
  1.7394532E-01;  9.9999998E-03; -1.6999181E-01;3496; -5.7941739E-02;  0.0000000E+00;  8.7243516E-04;  9.9246570E+02;  1.0000000E-01; -6.2420454E+03;3; -3.6129269E-01;  0.0000000E+00;  5.0935167E-01;0; -2.6690397E-01;  3.9415660E+04;  0.0000000E+00; -2.1946424E-01;  4.0000000E+04;  0.0000000E+00;  3.9982633E+04; -2.6255777E-01;  0.0000000E+00; -4.3461840E-03;  1.5581281E+03;
  1.7392266E-01;  9.9999998E-03; -1.5996328E-01;3497; -5.8512248E-02;  0.0000000E+00;  6.5091753E-04;  9.9220728E+02;  1.0000000E-01; -6.4561133E+03;3; -3.3430263E-01;  0.0000000E+00;  3.5221589E-01;0; -2.6383933E-01;  3.9396492E+04;  0.0000000E+00; -2.2189972E-01;  4.0000000E+04;  0.0000000E+00;  3.9980621E+04; -2.5887471E-01;  0.0000000E+00; -4.9646329E-03;  1.7974370E+03;
  1.7391028E-01;  9.9999998E-03; -1.4995889E-01;3498; -5.9014782E-02;  0.0000000E+00;  4.0568324E-04;  9.9186578E+02;  1.0000000E-01; -6.7390684E+03;3; -3.4488147E-01;  0.0000000E+00;  3.0439693E-01;0; -2.6135117E-01;  3.9365977E+04;  0.0000000E+00; -1.9410054E-01;  4.0000000E+04;  0.0000000E+00;  3.9983707E+04; -2.5626940E-01;  0.0000000E+00; -5.0817649E-03;  1.3762443E+03;
  1.7390507E-01;  9.9999998E-03; -1.3996799E-01;3499; -5.9475183E-02;  0.0000000E+00;  1.6181389E-04;  9.9146875E+02;  1.0000000E-01; -7.0679971E+03;3; -3.6352137E-01;  0.0000000E+00;  3.0017927E-01;0; -2.5933331E-01;  3.9327527E+04;  0.0000000E+00; -1.5792891E-01;  4.0000000E+04;  0.0000000E+00;  3.9990594E+04; -2.5467071E-01;  0.0000000E+00; -4.6625948E-03;  5.1110211E+02;
  1.7389947E-01;  9.9999998E-03; -1.2998283E-01;3500; -5.9911121E-02;  0.0000000E+00; -5.3659307E-05;  9.9104163E+02;  1.0000000E-01; -7.4218638E+03;3; -3.8157946E-01;  0.0000000E+00;  3.0221850E-01;0; -2.5773332E-01;  3.9285031E+04;  0.0000000E+00; -1.2085487E-01;  4.0000000E+04;  0.0000000E+00;  3.9999211E+04; -2.5398743E-01;  0.0000000E+00; -3.7458888E-03;  6.8663135E+02;
  1.7388444E-01;  9.9999998E-03; -1.1999996E-01;3501; -6.0331248E-02;  0.0000000E+00; -2.1807940E-04;  9.9060071E+02;  1.0000000E-01; -7.7871372E+03;3; -3.9801577E-01;  0.0000000E+00;  2.9989338E-01;0; -2.5652069E-01;  3.9241398E+04;  0.0000000E+00; -8.7301590E-02;  4.0000000E+04;  0.0000000E+00;  4.0007695E+04; -2.5409091E-01;  0.0000000E+00; -2.4297761E-03;  1.7982820E+03;
  1.7385489E-01;  9.9999998E-03; -1.1001600E-01;3502; -6.0737539E-02;  0.0000000E+00; -3.1823645E-04;  9.9016187E+02;  1.0000000E-01; -8.1507319E+03;3; -4.1223782E-01;  0.0000000E+00;  2.9487374E-01;0; -2.5567901E-01;  3.9199406E+04;  0.0000000E+00; -6.0259249E-02;  4.0000000E+04;  0.0000000E+00;  4.0015270E+04; -2.5482577E-01;  0.0000000E+00; -8.5323380E-04;  2.7497793E+03;
  1.8395267E-01;  9.9999998E-03; -2.6984325E-01;3547; -4.7533784E-02;  0.0000000E+00;  2.0799292E-03;  9.8086664E+02;  1.0000000E-01; -1.5851649E+04;3;  8.0322083E+01;  0.0000000E+00;  1.7671232E+01;0; -3.8649988E-01;  3.8410984E+04;  0.0000000E+00;  9.8873444E+01;  4.0000000E+04;  0.0000000E+00;  4.0089078E+04; -3.8205791E-01;  0.0000000E+00; -4.4419728E-03;  1.4716473E+05;
  1.8413535E-01;  9.9999998E-03; -2.5995967E-01;3548; -5.0515443E-02;  0.0000000E+00;  1.8196967E-03;  9.8344214E+02;  1.0000000E-01; -1.3717883E+04;3;  4.0179958E+01;  0.0000000E+00;  8.3131947E-02;0; -3.6806977E-01;  3.8613688E+04;  0.0000000E+00;  6.7150894E+01;  4.0000000E+04;  0.0000000E+00;  4.0085988E+04; -3.6552584E-01;  0.0000000E+00; -2.5439216E-03;  1.0005299E+05;
  1.8420054E-01;  9.9999998E-03; -2.5005975E-01;3549; -5.2516822E-02;  0.0000000E+00;  1.4574250E-03;  9.8587634E+02;  1.0000000E-01; -1.1701199E+04;3;  1.7300692E+01;  0.0000000E+00; -6.7040634E+00;0; -3.4915769E-01;  3.8807434E+04;  0.0000000E+00;  4.2930714E+01;  4.0000000E+04;  0.0000000E+00;  4.0081477E+04; -3.4825966E-01;  0.0000000E+00; -8.9803897E-04;  6.4302793E+04;
  1.8417980E-01;  9.9999998E-03; -2.4012037E-01;3550; -5.3985935E-02;  0.0000000E+00;  1.2326816E-03;  9.8798950E+02;  1.0000000E-01; -9.9504834E+03;3;  5.7664571E+00;  0.0000000E+00; -7.3966093E+00;0; -3.3213338E-01;  3.8977707E+04;  0.0000000E+00;  2.5662600E+01;  4.0000000E+04;  0.0000000E+00;  4.0076105E+04; -3.3208743E-01;  0.0000000E+00; -4.5954483E-05;  3.9154488E+04;
  1.8411042E-01;  9.9999998E-03; -2.3015039E-01;3551; -5.5193264E-02;  0.0000000E+00;  1.1740427E-03;  9.8966663E+02;  1.0000000E-01; -8.5609922E+03;3;  6.2811595E-01;  0.0000000E+00; -5.1005292E+00;0; -3.1752965E-01;  3.9117969E+04;  0.0000000E+00;  1.4163552E+01;  4.0000000E+04;  0.0000000E+00;  4.0066523E+04; -3.1762853E-01;  0.0000000E+00;  9.8891906E-05;  2.2702773E+04;
  1.8403633E-01;  9.9999998E-03; -2.2016089E-01;3552; -5.6274917E-02;  0.0000000E+00;  1.2088696E-03;  9.9088434E+02;  1.0000000E-01; -7.5521313E+03;3; -1.1898592E+00;  0.0000000E+00; -2.2839780E+00;0; -3.0525541E-01;  3.9227109E+04;  0.0000000E+00;  7.0671225E+00;  4.0000000E+04;  0.0000000E+00;  4.0052070E+04; -3.0498374E-01;  0.0000000E+00; -2.7169019E-04;  1.2645915E+04;
  1.8398321E-01;  9.9999998E-03; -2.1015443E-01;3553; -5.7276305E-02;  0.0000000E+00;  1.2477180E-03;  9.9169281E+02;  1.0000000E-01; -6.8823726E+03;3; -1.4483984E+00;  0.0000000E+00; -2.7783564E-01;0; -2.9509482E-01;  3.9306934E+04;  0.0000000E+00;  3.0505683E+00;  4.0000000E+04;  0.0000000E+00;  4.0034508E+04; -2.9407120E-01;  0.0000000E+00; -1.0236098E-03;  6.7177227E+03;
  1.8395998E-01;  9.9999998E-03; -2.0013183E-01;3554; -5.8196526E-02;  0.0000000E+00;  1.2479090E-03;  9.9214886E+02;  1.0000000E-01; -6.5045068E+03;3; -1.1294061E+00;  0.0000000E+00;  6.7877316E-01;0; -2.8683895E-01;  3.9359586E+04;  0.0000000E+00;  9.8989940E-01;  4.0000000E+04;  0.0000000E+00;  4.0016559E+04; -2.8478965E-01;  0.0000000E+00; -2.0492992E-03;  3.0929878E+03;
  1.8396969E-01;  9.9999998E-03; -1.9009002E-01;3555; -5.9022151E-02;  0.0000000E+00;  1.1858852E-03;  9.9231580E+02;  1.0000000E-01; -6.3662393E+03;3; -7.3859578E-01;  0.0000000E+00;  8.6683971E-01;0; -2.8024802E-01;  3.9387379E+04;  0.0000000E+00;  5.3510118E-02;  4.0000000E+04;  0.0000000E+00;  4.0000469E+04; -2.7704683E-01;  0.0000000E+00; -3.2011825E-03;  7.2609662E+02;
  1.8399924E-01;  9.9999998E-03; -1.8004160E-01;3556; -5.9745908E-02;  0.0000000E+00;  1.0608494E-03;  9.9225494E+02;  1.0000000E-01; -6.4166084E+03;3; -4.7731540E-01;  0.0000000E+00;  7.0750487E-01;0; -2.7505085E-01;  3.9393211E+04;  0.0000000E+00; -2.9746267E-01;  4.0000000E+04;  0.0000000E+00;  3.9988602E+04; -2.7075920E-01;  0.0000000E+00; -4.2916457E-03;  8.7373993E+02;
  1.8401293E-01;  9.9999998E-03; -1.7000714E-01;3557; -6.0370296E-02;  0.0000000E+00;  8.8143826E-04;  9.9202393E+02;  1.0000000E-01; -6.6080103E+03;3; -3.6343709E-01;  0.0000000E+00;  5.0366473E-01;0; -2.7094895E-01;  3.9380887E+04;  0.0000000E+00; -3.7313145E-01;  4.0000000E+04;  0.0000000E+00;  3.9981984E+04; -2.6582471E-01;  0.0000000E+00; -5.1242537E-03;  1.6600939E+03;
  1.8401553E-01;  9.9999998E-03; -1.5999305E-01;3558; -6.0919598E-02;  0.0000000E+00;  6.6345860E-04;  9.9167920E+02;  1.0000000E-01; -6.8936318E+03;3; -3.4105960E-01;  0.0000000E+00;  3.8292956E-01;0; -2.6767555E-01;  3.9353965E+04;  0.0000000E+00; -3.3532068E-01;  4.0000000E+04;  0.0000000E+00;  3.9980832E+04; -2.6213375E-01;  0.0000000E+00; -5.5418131E-03;  1.7450198E+03;
  1.8401738E-01;  9.9999998E-03; -1.4999659E-01;3559; -6.1422788E-02;  0.0000000E+00;  4.2577230E-04;  9.9126147E+02;  1.0000000E-01; -7.2396958E+03;3; -3.5373294E-01;  0.0000000E+00;  3.4457245E-01;0; -2.6502430E-01;  3.9316980E+04;  0.0000000E+00; -2.6206768E-01;  4.0000000E+04;  0.0000000E+00;  3.9984445E+04; -2.5957039E-01;  0.0000000E+00; -5.4539200E-03;  1.2435508E+03;
  1.8401629E-01;  9.9999998E-03; -1.4000987E-01;3560; -6.1902236E-02;  0.0000000E+00;  1.9241040E-04;  9.9080286E+02;  1.0000000E-01; -7.6196357E+03;3; -3.7305015E-01;  0.0000000E+00;  3.4048808E-01;0; -2.6286539E-01;  3.9273734E+04;  0.0000000E+00; -1.8694955E-01;  4.0000000E+04;  0.0000000E+00;  3.9991496E+04; -2.5801563E-01;  0.0000000E+00; -4.8497668E-03;  3.8866782E+02;
  1.8400939E-01;  9.9999998E-03; -1.3002677E-01;3561; -6.2372182E-02;  0.0000000E+00; -1.2183241E-05;  9.9033087E+02;  1.0000000E-01; -8.0106865E+03;3; -3.9131036E-01;  0.0000000E+00;  3.4110555E-01;0; -2.6113924E-01;  3.9227828E+04;  0.0000000E+00; -1.2199982E-01;  4.0000000E+04;  0.0000000E+00;  3.9999910E+04; -2.5734934E-01;  0.0000000E+00; -3.7898936E-03;  8.3184241E+02;
  1.8399644E-01;  9.9999998E-03; -1.2004416E-01;3562; -6.2838502E-02;  0.0000000E+00; -1.6674362E-04;  9.8985767E+02;  1.0000000E-01; -8.4027246E+03;3; -4.0756688E-01;  0.0000000E+00;  3.3810443E-01;0; -2.5981951E-01;  3.9182336E+04;  0.0000000E+00; -7.1553163E-02;  4.0000000E+04;  0.0000000E+00;  4.0008230E+04; -2.5743303E-01;  0.0000000E+00; -2.3864789E-03;  1.8917709E+03;
  1.8397643E-01;  9.9999998E-03; -1.1006056E-01;3563; -6.3299343E-02;  0.0000000E+00; -2.5867493E-04;  9.8940277E+02;  1.0000000E-01; -8.7796025E+03;3; -4.2120820E-01;  0.0000000E+00;  3.3143285E-01;0; -2.5889245E-01;  3.9139645E+04;  0.0000000E+00; -3.7038218E-02;  4.0000000E+04;  0.0000000E+00;  4.0015078E+04; -2.5810799E-01;  0.0000000E+00; -7.8446436E-04;  2.7792344E+03;
  1.9413956E-01;  9.9999998E-03; -2.7000913E-01;3608; -5.1222540E-02;  0.0000000E+00;  2.1321638E-03;  9.8004376E+02;  1.0000000E-01; -1.6533357E+04;3;  7.9934952E+01;  0.0000000E+00;  3.8319698E+01;0; -4.1251862E-01;  3.8384957E+04;  0.0000000E+00;  9.8334320E+01;  4.0000000E+04;  0.0000000E+00;  4.0050133E+04; -4.0698779E-01;  0.0000000E+00; -5.5308221E-03;  1.4650453E+05;
  1.9425316E-01;  9.9999998E-03; -2.6009268E-01;3609; -5.4323502E-02;  0.0000000E+00;  1.9142942E-03;  9.8305841E+02;  1.0000000E-01; -1.4035800E+04;3;  3.9038544E+01;  0.0000000E+00;  1.0165563E+01;0; -3.8803428E-01;  3.8617320E+04;  0.0000000E+00;  6.6401741E+01;  4.0000000E+04;  0.0000000E+00;  4.0051766E+04; -3.8474882E-01;  0.0000000E+00; -3.2854606E-03;  9.8772539E+04;
  1.9427872E-01;  9.9999998E-03; -2.5016662E-01;3610; -5.6212839E-02;  0.0000000E+00;  1.5195333E-03;  9.8572784E+02;  1.0000000E-01; -1.1824208E+04;3;  1.6350544E+01;  0.0000000E+00; -2.2354405E+00;0; -3.6396140E-01;  3.8824668E+04;  0.0000000E+00;  4.2264698E+01;  4.0000000E+04;  0.0000000E+00;  4.0052109E+04; -3.6270982E-01;  0.0000000E+00; -1.2515881E-03;  6.2905879E+04;
  1.9423297E-01;  9.9999998E-03; -2.4020022E-01;3611; -5.7469610E-02;  0.0000000E+00;  1.2443024E-03;  9.8796375E+02;  1.0000000E-01; -9.9718164E+03;3;  5.2368994E+00;  0.0000000E+00; -5.9911628E+00;0; -3.4316549E-01;  3.8998758E+04;  0.0000000E+00;  2.5241150E+01;  4.0000000E+04;  0.0000000E+00;  4.0052703E+04; -3.4289470E-01;  0.0000000E+00; -2.7078879E-04;  3.7926852E+04;
  1.9414100E-01;  9.9999998E-03; -2.3020163E-01;3612; -5.8445450E-02;  0.0000000E+00;  1.1503138E-03;  9.8968542E+02;  1.0000000E-01; -8.5454365E+03;3;  3.9734700E-01;  0.0000000E+00; -5.1374950E+00;0; -3.2599625E-01;  3.9136699E+04;  0.0000000E+00;  1.3954823E+01;  4.0000000E+04;  0.0000000E+00;  4.0048863E+04; -3.2579967E-01;  0.0000000E+00; -1.9656378E-04;  2.1649395E+04;
  1.9404452E-01;  9.9999998E-03; -2.2018780E-01;3613; -5.9315287E-02;  0.0000000E+00;  1.1602655E-03;  9.9088306E+02;  1.0000000E-01; -7.5532178E+03;3; -1.2674116E+00;  0.0000000E+00; -2.8094957E+00;0; -3.1200814E-01;  3.9239363E+04;  0.0000000E+00;  6.9685593E+00;  4.0000000E+04;  0.0000000E+00;  4.0039176E+04; -3.1132421E-01;  0.0000000E+00; -6.8391906E-04;  1.1686852E+04;
  1.9397625E-01;  9.9999998E-03; -2.1016157E-01;3614; -6.0135946E-02;  0.0000000E+00;  1.1749784E-03;  9.9162726E+02;  1.0000000E-01; -6.9366426E+03;3; -1.4545156E+00;  0.0000000E+00; -8.4952581E-01;0; -3.0070901E-01;  3.9310316E+04;  0.0000000E+00;  2.9758031E+00;  4.0000000E+04;  0.0000000E+00;  4.0025504E+04; -2.9919657E-01;  0.0000000E+00; -1.5124311E-03;  5.8556265E+03;
  1.9394562E-01;  9.9999998E-03; -2.0012647E-01;3615; -6.0912516E-02;  0.0000000E+00;  1.1524822E-03;  9.9199890E+02;  1.0000000E-01; -6.6287505E+03;3; -1.1090143E+00;  0.0000000E+00;  2.3883773E-01;0; -2.9171175E-01;  3.9352926E+04;  0.0000000E+00;  8.9697361E-01;  4.0000000E+04;  0.0000000E+00;  4.0010695E+04; -2.8916237E-01;  0.0000000E+00; -2.5493791E-03;  2.4154478E+03;
  1.9396472E-01;  9.9999998E-03; -1.9007502E-01;3616; -6.1634902E-02;  0.0000000E+00;  1.0766108E-03;  9.9208002E+02;  1.0000000E-01; -6.5615425E+03;3; -7.1718061E-01;  0.0000000E+00;  6.0614860E-01;0; -2.8465283E-01;  3.9371180E+04;  0.0000000E+00; -6.2497158E-02;  4.0000000E+04;  0.0000000E+00;  3.9997465E+04; -2.8100753E-01;  0.0000000E+00; -3.6452978E-03;  3.6920187E+02;
  1.9400395E-01;  9.9999998E-03; -1.8003222E-01;3617; -6.2287707E-02;  0.0000000E+00;  9.4655860E-04;  9.9193658E+02;  1.0000000E-01; -6.6804033E+03;3; -4.6520719E-01;  0.0000000E+00;  6.0009700E-01;0; -2.7917087E-01;  3.9368422E+04;  0.0000000E+00; -4.1745022E-01;  4.0000000E+04;  0.0000000E+00;  3.9987793E+04; -2.7455050E-01;  0.0000000E+00; -4.6203611E-03;  1.0298289E+03;
  1.9403473E-01;  9.9999998E-03; -1.7001221E-01;3618; -6.2872656E-02;  0.0000000E+00;  7.7147863E-04;  9.9163257E+02;  1.0000000E-01; -6.9322480E+03;3; -3.6092550E-01;  0.0000000E+00;  4.9286100E-01;0; -2.7490038E-01;  3.9348738E+04;  0.0000000E+00; -4.7036034E-01;  4.0000000E+04;  0.0000000E+00;  3.9982848E+04; -2.6960182E-01;  0.0000000E+00; -5.2985628E-03;  1.5877640E+03;
  1.9405714E-01;  9.9999998E-03; -1.6000940E-01;3619; -6.3410148E-02;  0.0000000E+00;  5.6422566E-04;  9.9123071E+02;  1.0000000E-01; -7.2651768E+03;3; -3.4425399E-01;  0.0000000E+00;  4.1682088E-01;0; -2.7151462E-01;  3.9316516E+04;  0.0000000E+00; -3.9074680E-01;  4.0000000E+04;  0.0000000E+00;  3.9982777E+04; -2.6597112E-01;  0.0000000E+00; -5.5434937E-03;  1.5180537E+03;
  1.9407386E-01;  9.9999998E-03; -1.5001765E-01;3620; -6.3923426E-02;  0.0000000E+00;  3.4231544E-04;  9.9077087E+02;  1.0000000E-01; -7.6461533E+03;3; -3.5944855E-01;  0.0000000E+00;  3.9021698E-01;0; -2.6876834E-01;  3.9275715E+04;  0.0000000E+00; -2.7181035E-01;  4.0000000E+04;  0.0000000E+00;  3.9986938E+04; -2.6348430E-01;  0.0000000E+00; -5.2840305E-03;  9.4621710E+02;
  1.9408666E-01;  9.9999998E-03; -1.4003177E-01;3621; -6.4431168E-02;  0.0000000E+00;  1.2703979E-04;  9.9028619E+02;  1.0000000E-01; -8.0477222E+03;3; -3.7935865E-01;  0.0000000E+00;  3.8818380E-01;0; -2.6651084E-01;  3.9230570E+04;  0.0000000E+00; -1.6009045E-01;  4.0000000E+04;  0.0000000E+00;  3.9993621E+04; -2.6198268E-01;  0.0000000E+00; -4.5281565E-03;  2.3217827E+02;
  1.9409493E-01;  9.9999998E-03; -1.3004771E-01;3622; -6.4943239E-02;  0.0000000E+00; -5.9661943E-05;  9.8980646E+02;  1.0000000E-01; -8.4451436E+03;3; -3.9757854E-01;  0.0000000E+00;  3.8705605E-01;0; -2.6467484E-01;  3.9184566E+04;  0.0000000E+00; -7.2651148E-02;  4.0000000E+04;  0.0000000E+00;  4.0001848E+04; -2.6132041E-01;  0.0000000E+00; -3.3544230E-03;  1.0900304E+03;
  1.9410133E-01;  9.9999998E-03; -1.2006352E-01;3623; -6.5461434E-02;  0.0000000E+00; -1.9681809E-04;  9.8934424E+02;  1.0000000E-01; -8.8280957E+03;3; -4.1348952E-01;  0.0000000E+00;  3.8231108E-01;0; -2.6324046E-01;  3.9140547E+04;  0.0000000E+00; -1.2835058E-02;  4.0000000E+04;  0.0000000E+00;  4.0009465E+04; -2.6135242E-01;  0.0000000E+00; -1.8880223E-03;  2.0918674E+03;
  1.9411120E-01;  9.9999998E-03; -1.1007816E-01;3624; -6.5980904E-02;  0.0000000E+00; -2.7262885E-04;  9.8891382E+02;  1.0000000E-01; -9.1846777E+03;3; -4.2594114E-01;  0.0000000E+00;  3.7175459E-01;0; -2.6219931E-01;  3.9100766E+04;  0.0000000E+00;  2.0735215E-02;  4.0000000E+04;  0.0000000E+00;  4.0015742E+04; -2.6192003E-01;  0.0000000E+00; -2.7929174E-04;  2.9063398E+03;
  2.0417471E-01;  9.9999998E-03; -2.7009481E-01;3669; -5.4536175E-02;  0.0000000E+00;  2.5456871E-03;  9.8011694E+02;  1.0000000E-01; -1.6472719E+04;3;  6.5037872E+01;  0.0000000E+00;  5.0242878E+01;0; -4.3436143E-01;  3.8427555E+04;  0.0000000E+00;  9.3538635E+01;  4.0000000E+04;  0.0000000E+00;  4.0011938E+04; -4.2521778E-01;  0.0000000E+00; -9.1436487E-03;  1.3929889E+05;
  2.0426494E-01;  9.9999998E-03; -2.6015896E-01;3670; -5.7858557E-02;  0.0000000E+00;  2.2495065E-03;  9.8325024E+02;  1.0000000E-01; -1.3876841E+04;3;  2.9903471E+01;  0.0000000E+00;  1.5588626E+01;0; -4.0458086E-01;  3.8665414E+04;  0.0000000E+00;  6.2636635E+01;  4.0000000E+04;  0.0000000E+00;  4.0017594E+04; -3.9915198E-01;  0.0000000E+00; -5.4288772E-03;  9.3047750E+04;
  2.0427991E-01;  9.9999998E-03; -2.5021487E-01;3671; -5.9696101E-02;  0.0000000E+00;  1.7113897E-03;  9.8594067E+02;  1.0000000E-01; -1.1647867E+04;3;  1.1256978E+01;  0.0000000E+00; -4.1212022E-01;0; -3.7580112E-01;  3.8869836E+04;  0.0000000E+00;  3.9702396E+01;  4.0000000E+04;  0.0000000E+00;  4.0023234E+04; -3.7371728E-01;  0.0000000E+00; -2.0838305E-03;  5.8853363E+04;
  2.0422348E-01;  9.9999998E-03; -2.4023117E-01;3672; -6.0819041E-02;  0.0000000E+00;  1.3026814E-03;  9.8816412E+02;  1.0000000E-01; -9.8057959E+03;3;  2.6434076E+00;  0.0000000E+00; -6.0735331E+00;0; -3.5171723E-01;  3.9036641E+04;  0.0000000E+00;  2.3775106E+01;  4.0000000E+04;  0.0000000E+00;  4.0030230E+04; -3.5132077E-01;  0.0000000E+00; -3.9645238E-04;  3.5360211E+04;
  2.0412661E-01;  9.9999998E-03; -2.3021385E-01;3673; -6.1626438E-02;  0.0000000E+00;  1.1045099E-03;  9.8983453E+02;  1.0000000E-01; -8.4218848E+03;3; -8.0026090E-01;  0.0000000E+00; -5.9943728E+00;0; -3.3244589E-01;  3.9164445E+04;  0.0000000E+00;  1.3232772E+01;  4.0000000E+04;  0.0000000E+00;  4.0032707E+04; -3.3238089E-01;  0.0000000E+00; -6.4992462E-05;  2.0073418E+04;
  2.0402490E-01;  9.9999998E-03; -2.2018269E-01;3674; -6.2331188E-02;  0.0000000E+00;  1.0432053E-03;  9.9095233E+02;  1.0000000E-01; -7.4958369E+03;3; -1.7518512E+00;  0.0000000E+00; -3.7890310E+00;0; -3.1716901E-01;  3.9255523E+04;  0.0000000E+00;  6.6633177E+00;  4.0000000E+04;  0.0000000E+00;  4.0027980E+04; -3.1666064E-01;  0.0000000E+00; -5.0835387E-04;  1.0678177E+04;
  2.0395283E-01;  9.9999998E-03; -2.1014445E-01;3675; -6.3008286E-02;  0.0000000E+00;  1.0135947E-03;  9.9159735E+02;  1.0000000E-01; -6.9614321E+03;3; -1.6060127E+00;  0.0000000E+00; -1.6522427E+00;0; -3.0509588E-01;  3.9314512E+04;  0.0000000E+00;  2.8574617E+00;  4.0000000E+04;  0.0000000E+00;  4.0018309E+04; -3.0375049E-01;  0.0000000E+00; -1.3453839E-03;  5.1666094E+03;
  2.0392565E-01;  9.9999998E-03; -2.0010448E-01;3676; -6.3668288E-02;  0.0000000E+00;  9.6240669E-04;  9.9187018E+02;  1.0000000E-01; -6.7354141E+03;3; -1.1294503E+00;  0.0000000E+00; -3.0197951E-01;0; -2.9565006E-01;  3.9346211E+04;  0.0000000E+00;  8.4052628E-01;  4.0000000E+04;  0.0000000E+00;  4.0006746E+04; -2.9328057E-01;  0.0000000E+00; -2.3694944E-03;  1.9777528E+03;
  2.0395878E-01;  9.9999998E-03; -1.9005135E-01;3677; -6.4305037E-02;  0.0000000E+00;  8.6934760E-04;  9.9186591E+02;  1.0000000E-01; -6.7389199E+03;3; -7.0087516E-01;  0.0000000E+00;  3.0699173E-01;0; -2.8834245E-01;  3.9354766E+04;  0.0000000E+00; -1.0491218E-01;  4.0000000E+04;  0.0000000E+00;  3.9996285E+04; -2.8493428E-01;  0.0000000E+00; -3.4081622E-03;  2.6273523E+02;
  2.0400515E-01;  9.9999998E-03; -1.8002014E-01;3678; -6.4898655E-02;  0.0000000E+00;  7.3405675E-04;  9.9165228E+02;  1.0000000E-01; -6.9159028E+03;3; -4.5017242E-01;  0.0000000E+00;  4.8304838E-01;0; -2.8273523E-01;  3.9344574E+04;  0.0000000E+00; -4.4783309E-01;  4.0000000E+04;  0.0000000E+00;  3.9988902E+04; -2.7845076E-01;  0.0000000E+00; -4.2844638E-03;  9.4556097E+02;
  2.0404978E-01;  9.9999998E-03; -1.7001066E-01;3679; -6.5453604E-02;  0.0000000E+00;  5.6314497E-04;  9.9130341E+02;  1.0000000E-01; -7.2049810E+03;3; -3.5468844E-01;  0.0000000E+00;  4.8440918E-01;0; -2.7840129E-01;  3.9319977E+04;  0.0000000E+00; -4.7336239E-01;  4.0000000E+04;  0.0000000E+00;  3.9985340E+04; -2.7356443E-01;  0.0000000E+00; -4.8368638E-03;  1.2878459E+03;
  2.0409073E-01;  9.9999998E-03; -1.6001371E-01;3680; -6.5987542E-02;  0.0000000E+00;  3.6931917E-04;  9.9087421E+02;  1.0000000E-01; -7.5605264E+03;3; -3.4393126E-01;  0.0000000E+00;  4.5678276E-01;0; -2.7497318E-01;  3.9284938E+04;  0.0000000E+00; -3.5473678E-01;  4.0000000E+04;  0.0000000E+00;  3.9986363E+04; -2.7002859E-01;  0.0000000E+00; -4.9446020E-03;  1.0794463E+03;
  2.0412575E-01;  9.9999998E-03; -1.5002394E-01;3681; -6.6518329E-02;  0.0000000E+00;  1.6767025E-04;  9.9041302E+02;  1.0000000E-01; -7.9426392E+03;3; -3.6136860E-01;  0.0000000E+00;  4.4432884E-01;0; -2.7217379E-01;  3.9243680E+04;  0.0000000E+00; -1.9834056E-01;  4.0000000E+04;  0.0000000E+00;  3.9990570E+04; -2.6762143E-01;  0.0000000E+00; -4.5523574E-03;  4.6367545E+02;
  2.0415844E-01;  9.9999998E-03; -1.4003724E-01;3682; -6.7059927E-02;  0.0000000E+00; -2.4484849E-05;  9.8994733E+02;  1.0000000E-01; -8.3284551E+03;3; -3.8152221E-01;  0.0000000E+00;  4.4305953E-01;0; -2.6983517E-01;  3.9200312E+04;  0.0000000E+00; -6.1956927E-02;  4.0000000E+04;  0.0000000E+00;  3.9997188E+04; -2.6615238E-01;  0.0000000E+00; -3.6827957E-03;  5.1601105E+02;
  2.0419453E-01;  9.9999998E-03; -1.3005078E-01;3683; -6.7618698E-02;  0.0000000E+00; -1.8666040E-04;  9.8950220E+02;  1.0000000E-01; -8.6972344E+03;3; -3.9966175E-01;  0.0000000E+00;  4.4023126E-01;0; -2.6788870E-01;  3.9157930E+04;  0.0000000E+00;  3.4141414E-02;  4.0000000E+04;  0.0000000E+00;  4.0004941E+04; -2.6545995E-01;  0.0000000E+00; -2.4287540E-03;  1.4950669E+03;
  2.0424041E-01;  9.9999998E-03; -1.2006345E-01;3684; -6.8192601E-02;  0.0000000E+00; -2.9923260E-04;  9.8909967E+02;  1.0000000E-01; -9.0307070E+03;3; -4.1448176E-01;  0.0000000E+00;  4.3210098E-01;0; -2.6631865E-01;  3.9119070E+04;  0.0000000E+00;  8.9363910E-02;  4.0000000E+04;  0.0000000E+00;  4.0012008E+04; -2.6539198E-01;  0.0000000E+00; -9.2668558E-04;  2.4237698E+03;
  2.0429663E-01;  9.9999998E-03; -1.1007432E-01;3685; -6.8771414E-02;  0.0000000E+00; -3.5173411E-04;  9.8874701E+02;  1.0000000E-01; -9.3228965E+03;3; -4.2602816E-01;  0.0000000E+00;  4.1922721E-01;0; -2.6512539E-01;  3.9085871E+04;  0.0000000E+00;  1.0950967E-01;  4.0000000E+04;  0.0000000E+00;  4.0017621E+04; -2.6579282E-01;  0.0000000E+00;  6.6741544E-04;  3.1554939E+03;
  2.1416004E-01;  9.9999998E-03; -2.7005851E-01;3730; -5.7741161E-02;  0.0000000E+00;  2.7131923E-03;  9.8122449E+02;  1.0000000E-01; -1.5555164E+04;3;  4.2388531E+01;  0.0000000E+00;  4.0170742E+01;0; -4.4915450E-01;  3.8518887E+04;  0.0000000E+00;  8.6020760E+01;  4.0000000E+04;  0.0000000E+00;  4.0006684E+04; -4.3605930E-01;  0.0000000E+00; -1.3095207E-02;  1.2784683E+05;
  2.1424161E-01;  9.9999998E-03; -2.6012045E-01;3731; -6.1174341E-02;  0.0000000E+00;  2.4775548E-03;  9.8412476E+02;  1.0000000E-01; -1.3152318E+04;3;  1.6447702E+01;  0.0000000E+00;  9.4599838E+00;0; -4.1589633E-01;  3.8744816E+04;  0.0000000E+00;  5.6827625E+01;  4.0000000E+04;  0.0000000E+00;  4.0006586E+04; -4.0789494E-01;  0.0000000E+00; -8.0013862E-03;  8.4335781E+04;
  2.1425518E-01;  9.9999998E-03; -2.5017557E-01;3732; -6.2975064E-02;  0.0000000E+00;  1.8628375E-03;  9.8658466E+02;  1.0000000E-01; -1.1114352E+04;3;  3.7603433E+00;  0.0000000E+00; -4.0838470E+00;0; -3.8367733E-01;  3.8933695E+04;  0.0000000E+00;  3.5794102E+01;  4.0000000E+04;  0.0000000E+00;  4.0009742E+04; -3.8066840E-01;  0.0000000E+00; -3.0089444E-03;  5.2989875E+04;
  2.1419315E-01;  9.9999998E-03; -2.4019255E-01;3733; -6.4003803E-02;  0.0000000E+00;  1.3236974E-03;  9.8861517E+02;  1.0000000E-01; -9.4321279E+03;3; -1.2535657E+00;  0.0000000E+00; -8.4851656E+00;0; -3.5716331E-01;  3.9084512E+04;  0.0000000E+00;  2.1531939E+01;  4.0000000E+04;  0.0000000E+00;  4.0017500E+04; -3.5693491E-01;  0.0000000E+00; -2.2839522E-04;  3.1900691E+04;
  2.1409416E-01;  9.9999998E-03; -2.3017308E-01;3734; -6.4708181E-02;  0.0000000E+00;  1.0167474E-03;  9.9011926E+02;  1.0000000E-01; -8.1859902E+03;3; -2.6492486E+00;  0.0000000E+00; -7.7520862E+00;0; -3.3648098E-01;  3.9196270E+04;  0.0000000E+00;  1.2113215E+01;  4.0000000E+04;  0.0000000E+00;  4.0022793E+04; -3.3707067E-01;  0.0000000E+00;  5.8969774E-04;  1.8200229E+04;
  2.1399501E-01;  9.9999998E-03; -2.2013912E-01;3735; -6.5306097E-02;  0.0000000E+00;  8.7754574E-04;  9.9108209E+02;  1.0000000E-01; -7.3883335E+03;3; -2.5245457E+00;  0.0000000E+00; -5.0728216E+00;0; -3.2045284E-01;  3.9272246E+04;  0.0000000E+00;  6.1883850E+00;  4.0000000E+04;  0.0000000E+00;  4.0021043E+04; -3.2076177E-01;  0.0000000E+00;  3.0894118E-04;  9.7186611E+03;
  2.1393096E-01;  9.9999998E-03; -2.1010292E-01;3736; -6.5883674E-02;  0.0000000E+00;  7.9257711E-04;  9.9159137E+02;  1.0000000E-01; -6.9663701E+03;3; -1.8684013E+00;  0.0000000E+00; -2.5311484E+00;0; -3.0801415E-01;  3.9317652E+04;  0.0000000E+00;  2.7050858E+00;  4.0000000E+04;  0.0000000E+00;  4.0014270E+04; -3.0753329E-01;  0.0000000E+00; -4.8087008E-04;  4.7045645E+03;
  2.1392123E-01;  9.9999998E-03; -2.0006339E-01;3737; -6.6458777E-02;  0.0000000E+00;  6.9982960E-04;  9.9175958E+02;  1.0000000E-01; -6.8270161E+03;3; -1.1816361E+00;  0.0000000E+00; -8.4901899E-01;0; -2.9841554E-01;  3.9338070E+04;  0.0000000E+00;  8.3013910E-01;  4.0000000E+04;  0.0000000E+00;  4.0005410E+04; -2.9694012E-01;  0.0000000E+00; -1.4754327E-03;  1.8527211E+03;
  2.1396424E-01;  9.9999998E-03; -1.9002253E-01;3738; -6.7025997E-02;  0.0000000E+00;  5.7933136E-04;  9.9167206E+02;  1.0000000E-01; -6.8995576E+03;3; -6.9111848E-01;  0.0000000E+00;  2.8163020E-02;0; -2.9107448E-01;  3.9338180E+04;  0.0000000E+00; -5.5558715E-02;  4.0000000E+04;  0.0000000E+00;  3.9997309E+04; -2.8860891E-01;  0.0000000E+00; -2.4655778E-03;  3.7443591E+02;
  2.1401556E-01;  9.9999998E-03; -1.8000618E-01;3739; -6.7572922E-02;  0.0000000E+00;  4.3411777E-04;  9.9141138E+02;  1.0000000E-01; -7.1155020E+03;3; -4.3428814E-01;  0.0000000E+00;  3.8555732E-01;0; -2.8548393E-01;  3.9322492E+04;  0.0000000E+00; -3.6458230E-01;  4.0000000E+04;  0.0000000E+00;  3.9991656E+04; -2.8221425E-01;  0.0000000E+00; -3.2696631E-03;  6.0123102E+02;
  2.1407202E-01;  9.9999998E-03; -1.7000514E-01;3740; -6.8107709E-02;  0.0000000E+00;  2.6836878E-04;  9.9104993E+02;  1.0000000E-01; -7.4149502E+03;3; -3.4554356E-01;  0.0000000E+00;  4.9073717E-01;0; -2.8117272E-01;  3.9295309E+04;  0.0000000E+00; -3.5888907E-01;  4.0000000E+04;  0.0000000E+00;  3.9989781E+04; -2.7744141E-01;  0.0000000E+00; -3.7313059E-03;  7.3638721E+02;
  2.1412855E-01;  9.9999998E-03; -1.6001281E-01;3741; -6.8644673E-02;  0.0000000E+00;  9.1413371E-05;  9.9063470E+02;  1.0000000E-01; -7.7589897E+03;3; -3.3988759E-01;  0.0000000E+00;  5.0867218E-01;0; -2.7774689E-01;  3.9260820E+04;  0.0000000E+00; -2.1114312E-01;  4.0000000E+04;  0.0000000E+00;  3.9991277E+04; -2.7400517E-01;  0.0000000E+00; -3.7417028E-03;  4.2064203E+02;
  2.1418808E-01;  9.9999998E-03; -1.5002331E-01;3742; -6.9198824E-02;  0.0000000E+00; -8.6070700E-05;  9.9021106E+02;  1.0000000E-01; -8.1099429E+03;3; -3.5875383E-01;  0.0000000E+00;  5.0933957E-01;0; -2.7491423E-01;  3.9222773E+04;  0.0000000E+00; -3.6020026E-02;  4.0000000E+04;  0.0000000E+00;  3.9995855E+04; -2.7165642E-01;  0.0000000E+00; -3.2578181E-03;  3.1270294E+02;
  2.1425734E-01;  9.9999998E-03; -1.4003262E-01;3743; -6.9779940E-02;  0.0000000E+00; -2.5001989E-04;  9.8980994E+02;  1.0000000E-01; -8.4422793E+03;3; -3.7897405E-01;  0.0000000E+00;  5.0717640E-01;0; -2.7249581E-01;  3.9184859E+04;  0.0000000E+00;  1.0280903E-01;  4.0000000E+04;  0.0000000E+00;  4.0002230E+04; -2.7018231E-01;  0.0000000E+00; -2.3134975E-03;  1.1537045E+03;
  2.1434212E-01;  9.9999998E-03; -1.3003764E-01;3744; -7.0389368E-02;  0.0000000E+00; -3.8197282E-04;  9.8945520E+02;  1.0000000E-01; -8.7361475E+03;3; -3.9653686E-01;  0.0000000E+00;  5.0208586E-01;0; -2.7042270E-01;  3.9149922E+04;  0.0000000E+00;  1.8604931E-01;  4.0000000E+04;  0.0000000E+00;  4.0009203E+04; -2.6940927E-01;  0.0000000E+00; -1.0134178E-03;  2.0723152E+03;
  2.1444792E-01;  9.9999998E-03; -1.2003749E-01;3745; -7.1020491E-02;  0.0000000E+00; -4.6376072E-04;  9.8915820E+02;  1.0000000E-01; -8.9822148E+03;3; -4.1048709E-01;  0.0000000E+00;  4.9216059E-01;0; -2.6868674E-01;  3.9120102E+04;  0.0000000E+00;  2.1836123E-01;  4.0000000E+04;  0.0000000E+00;  4.0015699E+04; -2.6918289E-01;  0.0000000E+00;  4.9614790E-04;  2.9072083E+03;
  2.1457924E-01;  9.9999998E-03; -1.1002954E-01;3746; -7.1660899E-02;  0.0000000E+00; -4.8631191E-04;  9.8892444E+02;  1.0000000E-01; -9.1758877E+03;3; -4.1997910E-01;  0.0000000E+00;  4.7408393E-01;0; -2.6729959E-01;  3.9096910E+04;  0.0000000E+00;  2.1150154E-01;  4.0000000E+04;  0.0000000E+00;  4.0020773E+04; -2.6935491E-01;  0.0000000E+00;  2.0553202E-03;  3.5431677E+03;
  2.2416870E-01;  9.9999998E-03; -2.6997691E-01;3791; -6.1008163E-02;  0.0000000E+00;  1.9243874E-03;  9.8294092E+02;  1.0000000E-01; -1.4133130E+04;3;  1.6906277E+01;  0.0000000E+00;  2.0777864E+01;0; -4.5223516E-01;  3.8633957E+04;  0.0000000E+00;  7.4973129E+01;  4.0000000E+04;  0.0000000E+00;  4.0026355E+04; -4.4004086E-01;  0.0000000E+00; -1.2194304E-02;  1.1114439E+05;
  2.2423550E-01;  9.9999998E-03; -2.6003468E-01;3792; -6.4371414E-02;  0.0000000E+00;  2.0765900E-03;  9.8544867E+02;  1.0000000E-01; -1.2055510E+04;3;  1.9228321E+00;  0.0000000E+00; -1.1239754E+00;0; -4.1933015E-01;  3.8838633E+04;  0.0000000E+00;  4.8981541E+01;  4.0000000E+04;  0.0000000E+00;  4.0017039E+04; -4.1118905E-01;  0.0000000E+00; -8.1411088E-03;  7.2637367E+04;
  2.2423999E-01;  9.9999998E-03; -2.5009200E-01;3793; -6.6113003E-02;  0.0000000E+00;  1.6428564E-03;  9.8752692E+02;  1.0000000E-01; -1.0333731E+04;3; -4.1826606E+00;  0.0000000E+00; -9.3023272E+00;0; -3.8633320E-01;  3.9005656E+04;  0.0000000E+00;  3.0779636E+01;  4.0000000E+04;  0.0000000E+00;  4.0012191E+04; -3.8364071E-01;  0.0000000E+00; -2.6924834E-03;  4.5574301E+04;
  2.2417025E-01;  9.9999998E-03; -2.4011423E-01;3794; -6.7068830E-02;  0.0000000E+00;  1.1084827E-03;  9.8923956E+02;  1.0000000E-01; -8.9148086E+03;3; -5.3603878E+00;  0.0000000E+00; -1.1016940E+01;0; -3.5891211E-01;  3.9135012E+04;  0.0000000E+00;  1.8682253E+01;  4.0000000E+04;  0.0000000E+00;  4.0015969E+04; -3.5974368E-01;  0.0000000E+00;  8.3156122E-04;  2.7700566E+04;
  2.2406685E-01;  9.9999998E-03; -2.3010103E-01;3795; -6.7716099E-02;  0.0000000E+00;  7.7173184E-04;  9.9048529E+02;  1.0000000E-01; -7.8827393E+03;3; -4.5894990E+00;  0.0000000E+00; -9.0697861E+00;0; -3.3781159E-01;  3.9227438E+04;  0.0000000E+00;  1.0675616E+01;  4.0000000E+04;  0.0000000E+00;  4.0020230E+04; -3.3983251E-01;  0.0000000E+00;  2.0209257E-03;  1.6070089E+04;
  2.2397481E-01;  9.9999998E-03; -2.2007442E-01;3796; -6.8249531E-02;  0.0000000E+00;  5.8766140E-04;  9.9124261E+02;  1.0000000E-01; -7.2553496E+03;3; -3.3258603E+00;  0.0000000E+00; -5.8450274E+00;0; -3.2167891E-01;  3.9286504E+04;  0.0000000E+00;  5.5636516E+00;  4.0000000E+04;  0.0000000E+00;  4.0019223E+04; -3.2356009E-01;  0.0000000E+00;  1.8811956E-03;  8.7796074E+03;
  2.2392882E-01;  9.9999998E-03; -2.1004736E-01;3797; -6.8762183E-02;  0.0000000E+00;  4.6052848E-04;  9.9159534E+02;  1.0000000E-01; -6.9631113E+03;3; -2.1271458E+00;  0.0000000E+00; -3.0163486E+00;0; -3.0931470E-01;  3.9318074E+04;  0.0000000E+00;  2.5168355E+00;  4.0000000E+04;  0.0000000E+00;  4.0013707E+04; -3.1044248E-01;  0.0000000E+00;  1.1277836E-03;  4.4420840E+03;
  2.2394042E-01;  9.9999998E-03; -2.0001553E-01;3798; -6.9278441E-02;  0.0000000E+00;  3.3666586E-04;  9.9165790E+02;  1.0000000E-01; -6.9112607E+03;3; -1.2247810E+00;  0.0000000E+00; -1.1341044E+00;0; -2.9986635E-01;  3.9328340E+04;  0.0000000E+00;  8.6345774E-01;  4.0000000E+04;  0.0000000E+00;  4.0006898E+04; -3.0000949E-01;  0.0000000E+00;  1.4315051E-04;  2.0316278E+03;
  2.2398597E-01;  9.9999998E-03; -1.8999383E-01;3799; -6.9793932E-02;  0.0000000E+00;  2.0176767E-04;  9.9150873E+02;  1.0000000E-01; -7.0348623E+03;3; -6.7440099E-01;  0.0000000E+00; -1.0194333E-01;0; -2.9269511E-01;  3.9321965E+04;  0.0000000E+00;  8.6768568E-02;  4.0000000E+04;  0.0000000E+00;  4.0000652E+04; -2.9186654E-01;  0.0000000E+00; -8.2857063E-04;  8.1051239E+02;
  2.2404644E-01;  9.9999998E-03; -1.7998958E-01;3800; -7.0308924E-02;  0.0000000E+00;  5.5721699E-05;  9.9123358E+02;  1.0000000E-01; -7.2628062E+03;3; -4.1380864E-01;  0.0000000E+00;  3.6393881E-01;0; -2.8724295E-01;  3.9303434E+04;  0.0000000E+00; -1.6601872E-01;  4.0000000E+04;  0.0000000E+00;  3.9996711E+04; -2.8564903E-01;  0.0000000E+00; -1.5939036E-03;  4.0057556E+02;
  2.2411770E-01;  9.9999998E-03; -1.6999507E-01;3801; -7.0833318E-02;  0.0000000E+00; -9.7951917E-05;  9.9088995E+02;  1.0000000E-01; -7.5474897E+03;3; -3.3216879E-01;  0.0000000E+00;  5.3244442E-01;0; -2.8301939E-01;  3.9276766E+04;  0.0000000E+00; -1.2999499E-01;  4.0000000E+04;  0.0000000E+00;  3.9995840E+04; -2.8101811E-01;  0.0000000E+00; -2.0012783E-03;  3.1590500E+02;
  2.2420013E-01;  9.9999998E-03; -1.6000371E-01;3802; -7.1380660E-02;  0.0000000E+00; -2.5418348E-04;  9.9053143E+02;  1.0000000E-01; -7.8445181E+03;3; -3.3069071E-01;  0.0000000E+00;  5.7783419E-01;0; -2.7962294E-01;  3.9246023E+04;  0.0000000E+00;  2.8183388E-02;  4.0000000E+04;  0.0000000E+00;  3.9998164E+04; -2.7767089E-01;  0.0000000E+00; -1.9520614E-03;  5.6490210E+02;
  2.2430132E-01;  9.9999998E-03; -1.5000831E-01;3803; -7.1963981E-02;  0.0000000E+00; -4.0417927E-04;  9.9019196E+02;  1.0000000E-01; -8.1257944E+03;3; -3.5077283E-01;  0.0000000E+00;  5.8483624E-01;0; -2.7675655E-01;  3.9214742E+04;  0.0000000E+00;  1.9363396E-01;  4.0000000E+04;  0.0000000E+00;  4.0002648E+04; -2.7534285E-01;  0.0000000E+00; -1.4136976E-03;  1.1983972E+03;
  2.2443311E-01;  9.9999998E-03; -1.4000103E-01;3804; -7.2590046E-02;  0.0000000E+00; -5.3631980E-04;  9.8990387E+02;  1.0000000E-01; -8.3644541E+03;3; -3.7061313E-01;  0.0000000E+00;  5.8152944E-01;0; -2.7424309E-01;  3.9185953E+04;  0.0000000E+00;  3.0534494E-01;  4.0000000E+04;  0.0000000E+00;  4.0008762E+04; -2.7381435E-01;  0.0000000E+00; -4.2873292E-04;  1.9971370E+03;
  2.2460695E-01;  9.9999998E-03; -1.2997846E-01;3805; -7.3257640E-02;  0.0000000E+00; -6.3443132E-04;  9.8968121E+02;  1.0000000E-01; -8.5489424E+03;3; -3.8692564E-01;  0.0000000E+00;  5.7439959E-01;0; -2.7201793E-01;  3.9162094E+04;  0.0000000E+00;  3.5093552E-01;  4.0000000E+04;  0.0000000E+00;  4.0015324E+04; -2.7290729E-01;  0.0000000E+00;  8.8936498E-04;  2.8202573E+03;
  2.2478630E-01;  9.9999998E-03; -1.1995796E-01;3806; -7.3943861E-02;  0.0000000E+00; -6.8080629E-04;  9.8952832E+02;  1.0000000E-01; -8.6756055E+03;3; -3.9878857E-01;  0.0000000E+00;  5.6019562E-01;0; -2.7008072E-01;  3.9144480E+04;  0.0000000E+00;  3.4236902E-01;  4.0000000E+04;  0.0000000E+00;  4.0020938E+04; -2.7245566E-01;  0.0000000E+00;  2.3749447E-03;  3.5432935E+03;
  2.2492097E-01;  9.9999998E-03; -1.0995160E-01;3807; -7.4616387E-02;  0.0000000E+00; -6.6752767E-04;  9.8944037E+02;  1.0000000E-01; -8.7484434E+03;3; -4.0595087E-01;  0.0000000E+00;  5.3656155E-01;0; -2.6845691E-01;  3.9133473E+04;  0.0000000E+00;  2.9820082E-01;  4.0000000E+04;  0.0000000E+00;  4.0025059E+04; -2.7230921E-01;  0.0000000E+00;  3.8523192E-03;  4.0697202E+03;
  2.3422109E-01;  9.9999998E-03; -2.6989466E-01;3852; -6.4577408E-02;  0.0000000E+00;  2.4398188E-04;  9.8489545E+02;  1.0000000E-01; -1.2513818E+04;3; -5.8701811E+00;  0.0000000E+00;  1.3511260E+00;0; -4.4245005E-01;  3.8757961E+04;  0.0000000E+00;  6.0395435E+01;  4.0000000E+04;  0.0000000E+00;  4.0056426E+04; -4.3846118E-01;  0.0000000E+00; -3.9888592E-03;  8.9610719E+04;
  2.3426183E-01;  9.9999998E-03; -2.5994447E-01;3853; -6.7640916E-02;  0.0000000E+00;  1.1245629E-03;  9.8695935E+02;  1.0000000E-01; -1.0803940E+04;3; -1.0442929E+01;  0.0000000E+00; -1.0900661E+01;0; -4.1477135E-01;  3.8936277E+04;  0.0000000E+00;  3.9410583E+01;  4.0000000E+04;  0.0000000E+00;  4.0038840E+04; -4.0991253E-01;  0.0000000E+00; -4.8588114E-03;  5.8614883E+04;
  2.3424312E-01;  9.9999998E-03; -2.4999887E-01;3854; -6.9211788E-02;  0.0000000E+00;  1.0659196E-03;  9.8860529E+02;  1.0000000E-01; -9.4403252E+03;3; -1.0670194E+01;  0.0000000E+00; -1.3647154E+01;0; -3.8374013E-01;  3.9077645E+04;  0.0000000E+00;  2.5011328E+01;  4.0000000E+04;  0.0000000E+00;  4.0025270E+04; -3.8312581E-01;  0.0000000E+00; -6.1431073E-04;  3.7192859E+04;
  2.3416205E-01;  9.9999998E-03; -2.4002562E-01;3855; -7.0095085E-02;  0.0000000E+00;  6.9222727E-04;  9.8993396E+02;  1.0000000E-01; -8.3395166E+03;3; -8.6110582E+00;  0.0000000E+00; -1.2576796E+01;0; -3.5713252E-01;  3.9183254E+04;  0.0000000E+00;  1.5427963E+01;  4.0000000E+04;  0.0000000E+00;  4.0022512E+04; -3.6003056E-01;  0.0000000E+00;  2.8980263E-03;  2.3053186E+04;
  2.3405716E-01;  9.9999998E-03; -2.3002218E-01;3856; -7.0695207E-02;  0.0000000E+00;  3.8574534E-04;  9.9087549E+02;  1.0000000E-01; -7.5594893E+03;3; -6.0671420E+00;  0.0000000E+00; -9.4930220E+00;0; -3.3654210E-01;  3.9254777E+04;  0.0000000E+00;  8.9941549E+00;  4.0000000E+04;  0.0000000E+00;  4.0023410E+04; -3.4080166E-01;  0.0000000E+00;  4.2595603E-03;  1.3763146E+04;
  2.3398186E-01;  9.9999998E-03; -2.2000609E-01;3857; -7.1192302E-02;  0.0000000E+00;  1.9143356E-04;  9.9140613E+02;  1.0000000E-01; -7.1198477E+03;3; -3.8781881E+00;  0.0000000E+00; -5.9366875E+00;0; -3.2090598E-01;  3.9296816E+04;  0.0000000E+00;  4.8038487E+00;  4.0000000E+04;  0.0000000E+00;  4.0021410E+04; -3.2509336E-01;  0.0000000E+00;  4.1873869E-03;  7.8617100E+03;
  2.3395513E-01;  9.9999998E-03; -2.0998879E-01;3858; -7.1662851E-02;  0.0000000E+00;  4.1429841E-05;  9.9160681E+02;  1.0000000E-01; -6.9535806E+03;3; -2.2596090E+00;  0.0000000E+00; -3.0381215E+00;0; -3.0901027E-01;  3.9315863E+04;  0.0000000E+00;  2.2903807E+00;  4.0000000E+04;  0.0000000E+00;  4.0016531E+04; -3.1244507E-01;  0.0000000E+00;  3.4348133E-03;  4.3760669E+03;
  2.3397897E-01;  9.9999998E-03; -1.9997106E-01;3859; -7.2135463E-02;  0.0000000E+00; -9.9822937E-05;  9.9157648E+02;  1.0000000E-01; -6.9787158E+03;3; -1.2094926E+00;  0.0000000E+00; -1.1322019E+00;0; -2.9997924E-01;  3.9317859E+04;  0.0000000E+00;  9.2880684E-01;  4.0000000E+04;  0.0000000E+00;  4.0010809E+04; -3.0240893E-01;  0.0000000E+00;  2.4297053E-03;  2.4883875E+03;
  2.3403317E-01;  9.9999998E-03; -1.8996504E-01;3860; -7.2613366E-02;  0.0000000E+00; -2.4327084E-04;  9.9139618E+02;  1.0000000E-01; -7.1280942E+03;3; -6.3341832E-01;  0.0000000E+00; -7.2967067E-02;0; -2.9314166E-01;  3.9307551E+04;  0.0000000E+00;  3.0343086E-01;  4.0000000E+04;  0.0000000E+00;  4.0006051E+04; -2.9458922E-01;  0.0000000E+00;  1.4475530E-03;  1.5582648E+03;
  2.3411031E-01;  9.9999998E-03; -1.7996892E-01;3861; -7.3107675E-02;  0.0000000E+00; -3.8469251E-04;  9.9113629E+02;  1.0000000E-01; -7.3433965E+03;3; -3.8252690E-01;  0.0000000E+00;  4.2185032E-01;0; -2.8792015E-01;  3.9288930E+04;  0.0000000E+00;  1.2223067E-01;  4.0000000E+04;  0.0000000E+00;  4.0003559E+04; -2.8861102E-01;  0.0000000E+00;  6.9086975E-04;  1.2154817E+03;
  2.3420961E-01;  9.9999998E-03; -1.6997589E-01;3862; -7.3630244E-02;  0.0000000E+00; -5.2313437E-04;  9.9085339E+02;  1.0000000E-01; -7.5778096E+03;3; -3.1255525E-01;  0.0000000E+00;  6.1128002E-01;0; -2.8382599E-01;  3.9266109E+04;  0.0000000E+00;  1.7918892E-01;  4.0000000E+04;  0.0000000E+00;  4.0003773E+04; -2.8413355E-01;  0.0000000E+00;  3.0755720E-04;  1.2771052E+03;
  2.3434006E-01;  9.9999998E-03; -1.5997638E-01;3863; -7.4196167E-02;  0.0000000E+00; -6.5509358E-04;  9.9058704E+02;  1.0000000E-01; -7.7984453E+03;3; -3.1568736E-01;  0.0000000E+00;  6.6417021E-01;0; -2.8046465E-01;  3.9242523E+04;  0.0000000E+00;  3.2105586E-01;  4.0000000E+04;  0.0000000E+00;  4.0006500E+04; -2.8085199E-01;  0.0000000E+00;  3.8734544E-04;  1.6698658E+03;
  2.3451044E-01;  9.9999998E-03; -1.4996000E-01;3864; -7.4815474E-02;  0.0000000E+00; -7.7445607E-04;  9.9037677E+02;  1.0000000E-01; -7.9726626E+03;3; -3.3607060E-01;  0.0000000E+00;  6.7057431E-01;0; -2.7754888E-01;  3.9221203E+04;  0.0000000E+00;  4.4329706E-01;  4.0000000E+04;  0.0000000E+00;  4.0010969E+04; -2.7850085E-01;  0.0000000E+00;  9.5198106E-04;  2.2830249E+03;
  2.3471846E-01;  9.9999998E-03; -1.3992794E-01;3865; -7.5486973E-02;  0.0000000E+00; -8.7100302E-04;  9.9023730E+02;  1.0000000E-01; -8.0882148E+03;3; -3.5475671E-01;  0.0000000E+00;  6.6523182E-01;0; -2.7491334E-01;  3.9204715E+04;  0.0000000E+00;  4.9746129E-01;  4.0000000E+04;  0.0000000E+00;  4.0016570E+04; -2.7685761E-01;  0.0000000E+00;  1.9442823E-03;  2.9985786E+03;
  2.3490655E-01;  9.9999998E-03; -1.2990674E-01;3866; -7.6183856E-02;  0.0000000E+00; -9.2952396E-04;  9.9017346E+02;  1.0000000E-01; -8.1411025E+03;3; -3.6983865E-01;  0.0000000E+00;  6.5572840E-01;0; -2.7251256E-01;  3.9194188E+04;  0.0000000E+00;  4.8384568E-01;  4.0000000E+04;  0.0000000E+00;  4.0022188E+04; -2.7573329E-01;  0.0000000E+00;  3.2207374E-03;  3.7042568E+03;
  2.3503833E-01;  9.9999998E-03; -1.1990495E-01;3867; -7.6879688E-02;  0.0000000E+00; -9.3356386E-04;  9.9017615E+02;  1.0000000E-01; -8.1388804E+03;3; -3.7882453E-01;  0.0000000E+00;  6.3290173E-01;0; -2.7036193E-01;  3.9189664E+04;  0.0000000E+00;  4.2464814E-01;  4.0000000E+04;  0.0000000E+00;  4.0027223E+04; -2.7497312E-01;  0.0000000E+00;  4.6111834E-03;  4.2986372E+03;
  2.3511523E-01;  9.9999998E-03; -1.0991434E-01;3868; -7.7556223E-02;  0.0000000E+00; -8.7361922E-04;  9.9023230E+02;  1.0000000E-01; -8.0923633E+03;3; -3.8117275E-01;  0.0000000E+00;  5.9487230E-01;0; -2.6850381E-01;  3.9190711E+04;  0.0000000E+00;  3.4390971E-01;  4.0000000E+04;  0.0000000E+00;  4.0030742E+04; -2.7446035E-01;  0.0000000E+00;  5.9565399E-03;  4.7056636E+03;
  2.4429823E-01;  9.9999998E-03; -2.6983377E-01;3913; -6.8400159E-02;  0.0000000E+00; -2.0732600E-03;  9.8680316E+02;  1.0000000E-01; -1.0933319E+04;3; -2.2081196E+01;  0.0000000E+00; -1.1654874E+01;0; -4.2042246E-01;  3.8883410E+04;  0.0000000E+00;  4.4287739E+01;  4.0000000E+04;  0.0000000E+00;  4.0081859E+04; -4.3232116E-01;  0.0000000E+00;  1.1898693E-02;  6.6385867E+04;
  2.4432093E-01;  9.9999998E-03; -2.5986755E-01;3914; -7.1036689E-02;  0.0000000E+00; -3.5876222E-04;  9.8845477E+02;  1.0000000E-01; -9.5650127E+03;3; -1.8661781E+01;  0.0000000E+00; -1.7022564E+01;0; -4.0216088E-01;  3.9030309E+04;  0.0000000E+00;  2.9022171E+01;  4.0000000E+04;  0.0000000E+00;  4.0063316E+04; -4.0495107E-01;  0.0000000E+00;  2.7901821E-03;  4.3871391E+04;
  2.4427843E-01;  9.9999998E-03; -2.4991360E-01;3915; -7.2375253E-02;  0.0000000E+00;  1.2284912E-04;  9.8967212E+02;  1.0000000E-01; -8.5564482E+03;3; -1.4638008E+01;  0.0000000E+00; -1.5781050E+01;0; -3.7609372E-01;  3.9143949E+04;  0.0000000E+00;  1.8856060E+01;  4.0000000E+04;  0.0000000E+00;  4.0043355E+04; -3.7977698E-01;  0.0000000E+00;  3.6832807E-03;  2.8595938E+04;
  2.4418281E-01;  9.9999998E-03; -2.3994194E-01;3916; -7.3161945E-02;  0.0000000E+00;  3.5505618E-05;  9.9061438E+02;  1.0000000E-01; -7.7758291E+03;3; -1.0397371E+01;  0.0000000E+00; -1.2710744E+01;0; -3.5201666E-01;  3.9225137E+04;  0.0000000E+00;  1.1965040E+01;  4.0000000E+04;  0.0000000E+00;  4.0034066E+04; -3.5818779E-01;  0.0000000E+00;  6.1711324E-03;  1.8382684E+04;
  2.4408264E-01;  9.9999998E-03; -2.2994629E-01;3917; -7.3710151E-02;  0.0000000E+00; -1.6254283E-04;  9.9124304E+02;  1.0000000E-01; -7.2549546E+03;3; -6.7345181E+00;  0.0000000E+00; -8.9494314E+00;0; -3.3287400E-01;  3.9276320E+04;  0.0000000E+00;  7.1526127E+00;  4.0000000E+04;  0.0000000E+00;  4.0030551E+04; -3.4018669E-01;  0.0000000E+00;  7.3126890E-03;  1.1508314E+04;
  2.4402034E-01;  9.9999998E-03; -2.1994029E-01;3918; -7.4169174E-02;  0.0000000E+00; -3.2535187E-04;  9.9155731E+02;  1.0000000E-01; -6.9946167E+03;3; -4.0107555E+00;  0.0000000E+00; -5.3741107E+00;0; -3.1828031E-01;  3.9303160E+04;  0.0000000E+00;  3.9562771E+00;  4.0000000E+04;  0.0000000E+00;  4.0026695E+04; -3.2544386E-01;  0.0000000E+00;  7.1635456E-03;  7.1191240E+03;
  2.4400844E-01;  9.9999998E-03; -2.0993285E-01;3919; -7.4601710E-02;  0.0000000E+00; -4.7288652E-04;  9.9162506E+02;  1.0000000E-01; -6.9384697E+03;3; -2.1910150E+00;  0.0000000E+00; -2.6424427E+00;0; -3.0719841E-01;  3.9311961E+04;  0.0000000E+00;  2.0352859E+00;  4.0000000E+04;  0.0000000E+00;  4.0021844E+04; -3.1354633E-01;  0.0000000E+00;  6.3479352E-03;  4.5647231E+03;
  2.4404442E-01;  9.9999998E-03; -1.9992949E-01;3920; -7.5038388E-02;  0.0000000E+00; -6.1177864E-04;  9.9153247E+02;  1.0000000E-01; -7.0152085E+03;3; -1.1091714E+00;  0.0000000E+00; -8.8048190E-01;0; -2.9880473E-01;  3.9308336E+04;  0.0000000E+00;  1.0091009E+00;  4.0000000E+04;  0.0000000E+00;  4.0016855E+04; -3.0408987E-01;  0.0000000E+00;  5.2851397E-03;  3.1958047E+03;
  2.4412116E-01;  9.9999998E-03; -1.8993218E-01;3921; -7.5490303E-02;  0.0000000E+00; -7.4976444E-04;  9.9135132E+02;  1.0000000E-01; -7.1652783E+03;3; -5.5824244E-01;  0.0000000E+00;  9.2212856E-02;0; -2.9242116E-01;  3.9296855E+04;  0.0000000E+00;  5.5882990E-01;  4.0000000E+04;  0.0000000E+00;  4.0013367E+04; -2.9669058E-01;  0.0000000E+00;  4.2694155E-03;  2.5465479E+03;
  2.4423149E-01;  9.9999998E-03; -1.7993754E-01;3922; -7.5973749E-02;  0.0000000E+00; -8.7766571E-04;  9.9114453E+02;  1.0000000E-01; -7.3365820E+03;3; -3.3813164E-01;  0.0000000E+00;  5.4811144E-01;0; -2.8748980E-01;  3.9281352E+04;  0.0000000E+00;  4.5027873E-01;  4.0000000E+04;  0.0000000E+00;  4.0012098E+04; -2.9099247E-01;  0.0000000E+00;  3.5026667E-03;  2.3625906E+03;
  2.4438162E-01;  9.9999998E-03; -1.6993603E-01;3923; -7.6503597E-02;  0.0000000E+00; -9.9495426E-04;  9.9095728E+02;  1.0000000E-01; -7.4917383E+03;3; -2.8471550E-01;  0.0000000E+00;  7.2130960E-01;0; -2.8354076E-01;  3.9265332E+04;  0.0000000E+00;  5.0891858E-01;  4.0000000E+04;  0.0000000E+00;  4.0013039E+04; -2.8666705E-01;  0.0000000E+00;  3.1262832E-03;  2.5216882E+03;
  2.4457189E-01;  9.9999998E-03; -1.5991983E-01;3924; -7.7091083E-02;  0.0000000E+00; -1.0985098E-03;  9.9082306E+02;  1.0000000E-01; -7.6029448E+03;3; -2.9263252E-01;  0.0000000E+00;  7.6497549E-01;0; -2.8020373E-01;  3.9251750E+04;  0.0000000E+00;  6.0354519E-01;  4.0000000E+04;  0.0000000E+00;  4.0016094E+04; -2.8341845E-01;  0.0000000E+00;  3.2147078E-03;  2.9266345E+03;
  2.4478452E-01;  9.9999998E-03; -1.4989218E-01;3925; -7.7735066E-02;  0.0000000E+00; -1.1824862E-03;  9.9076917E+02;  1.0000000E-01; -7.6475854E+03;3; -3.1357357E-01;  0.0000000E+00;  7.6879650E-01;0; -2.7722248E-01;  3.9243066E+04;  0.0000000E+00;  6.5146810E-01;  4.0000000E+04;  0.0000000E+00;  4.0020516E+04; -2.8099003E-01;  0.0000000E+00;  3.7675407E-03;  3.4792751E+03;
  2.4497196E-01;  9.9999998E-03; -1.3987339E-01;3926; -7.8415692E-02;  0.0000000E+00; -1.2374531E-03;  9.9079205E+02;  1.0000000E-01; -7.6286230E+03;3; -3.3074269E-01;  0.0000000E+00;  7.5797695E-01;0; -2.7446714E-01;  3.9240125E+04;  0.0000000E+00;  6.2741137E-01;  4.0000000E+04;  0.0000000E+00;  4.0025676E+04; -2.7916703E-01;  0.0000000E+00;  4.6998775E-03;  4.0873159E+03;
  2.4510168E-01;  9.9999998E-03; -1.2987339E-01;3927; -7.9110824E-02;  0.0000000E+00; -1.2466876E-03;  9.9088483E+02;  1.0000000E-01; -7.5517363E+03;3; -3.4164113E-01;  0.0000000E+00;  7.3403668E-01;0; -2.7190742E-01;  3.9242742E+04;  0.0000000E+00;  5.4919064E-01;  4.0000000E+04;  0.0000000E+00;  4.0030395E+04; -2.7777770E-01;  0.0000000E+00;  5.8702864E-03;  4.6612876E+03;
  2.4517603E-01;  9.9999998E-03; -1.1988629E-01;3928; -7.9802774E-02;  0.0000000E+00; -1.1980420E-03;  9.9102753E+02;  1.0000000E-01; -7.4335176E+03;3; -3.4726542E-01;  0.0000000E+00;  7.0079380E-01;0; -2.6956981E-01;  3.9250336E+04;  0.0000000E+00;  4.4522810E-01;  4.0000000E+04;  0.0000000E+00;  4.0034324E+04; -2.7669185E-01;  0.0000000E+00;  7.1220510E-03;  5.1185630E+03;
  2.4520355E-01;  9.9999998E-03; -1.0990664E-01;3929; -8.0471702E-02;  0.0000000E+00; -1.0906325E-03;  9.9120392E+02;  1.0000000E-01; -7.2873984E+03;3; -3.4808743E-01;  0.0000000E+00;  6.5738887E-01;0; -2.6751009E-01;  3.9261766E+04;  0.0000000E+00;  3.3942756E-01;  4.0000000E+04;  0.0000000E+00;  4.0037039E+04; -2.7581373E-01;  0.0000000E+00;  8.3036441E-03;  5.3987954E+03;
  2.5437975E-01;  9.9999998E-03; -2.6979703E-01;3974; -7.2454810E-02;  0.0000000E+00; -4.1948087E-03;  9.8849133E+02;  1.0000000E-01; -9.5346924E+03;3; -3.0091623E+01;  0.0000000E+00; -1.6714231E+01;0; -3.9362806E-01;  3.9002922E+04;  0.0000000E+00;  2.9239752E+01;  4.0000000E+04;  0.0000000E+00;  4.0095879E+04; -4.2269477E-01;  0.0000000E+00;  2.9066708E-02;  4.5227012E+04;
  2.5438988E-01;  9.9999998E-03; -2.5981039E-01;3975; -7.4528083E-02;  0.0000000E+00; -2.2658855E-03;  9.8980444E+02;  1.0000000E-01; -8.4468223E+03;3; -2.2204346E+01;  0.0000000E+00; -1.8629129E+01;0; -3.8236901E-01;  3.9117137E+04;  0.0000000E+00;  1.9392666E+01;  4.0000000E+04;  0.0000000E+00;  4.0083395E+04; -3.9715150E-01;  0.0000000E+00;  1.4782501E-02;  3.0946646E+04;
  2.5433135E-01;  9.9999998E-03; -2.4984181E-01;3976; -7.5647123E-02;  0.0000000E+00; -1.1289940E-03;  9.9065308E+02;  1.0000000E-01; -7.7437310E+03;3; -1.5807822E+01;  0.0000000E+00; -1.5469081E+01;0; -3.6408591E-01;  3.9202441E+04;  0.0000000E+00;  1.3075606E+01;  4.0000000E+04;  0.0000000E+00;  4.0062484E+04; -3.7422541E-01;  0.0000000E+00;  1.0139501E-02;  2.1226535E+04;
  2.5422874E-01;  9.9999998E-03; -2.3986866E-01;3977; -7.6311357E-02;  0.0000000E+00; -8.2908262E-04;  9.9122559E+02;  1.0000000E-01; -7.2694233E+03;3; -1.0564342E+01;  0.0000000E+00; -1.1438704E+01;0; -3.4409958E-01;  3.9259754E+04;  0.0000000E+00;  8.6207361E+00;  4.0000000E+04;  0.0000000E+00;  4.0047836E+04; -3.5461459E-01;  0.0000000E+00;  1.0515013E-02;  1.4433720E+04;
  2.5413451E-01;  9.9999998E-03; -2.2987908E-01;3978; -7.6791070E-02;  0.0000000E+00; -8.4870320E-04;  9.9157141E+02;  1.0000000E-01; -6.9829131E+03;3; -6.5141883E+00;  0.0000000E+00; -7.5745525E+00;0; -3.2721764E-01;  3.9292633E+04;  0.0000000E+00;  5.3339405E+00;  4.0000000E+04;  0.0000000E+00;  4.0040031E+04; -3.3821639E-01;  0.0000000E+00;  1.0998741E-02;  9.7543896E+03;
  2.5408581E-01;  9.9999998E-03; -2.1988130E-01;3979; -7.7199854E-02;  0.0000000E+00; -9.4653823E-04;  9.9169818E+02;  1.0000000E-01; -6.8778789E+03;3; -3.6961930E+00;  0.0000000E+00; -4.3049831E+00;0; -3.1408975E-01;  3.9306668E+04;  0.0000000E+00;  3.1029928E+00;  4.0000000E+04;  0.0000000E+00;  4.0034035E+04; -3.2472318E-01;  0.0000000E+00;  1.0633450E-02;  6.7703174E+03;
  2.5409105E-01;  9.9999998E-03; -2.0988396E-01;3980; -7.7593438E-02;  0.0000000E+00; -1.0639639E-03;  9.9166235E+02;  1.0000000E-01; -6.9075571E+03;3; -1.9187921E+00;  0.0000000E+00; -1.9363471E+00;0; -3.0408114E-01;  3.9308066E+04;  0.0000000E+00;  1.7733854E+00;  4.0000000E+04;  0.0000000E+00;  4.0028629E+04; -3.1377971E-01;  0.0000000E+00;  9.6985847E-03;  5.0299302E+03;
  2.5415766E-01;  9.9999998E-03; -1.9988729E-01;3981; -7.7998728E-02;  0.0000000E+00; -1.1888266E-03;  9.9154358E+02;  1.0000000E-01; -7.0059741E+03;3; -9.2422217E-01;  0.0000000E+00; -4.5120811E-01;0; -2.9645804E-01;  3.9301824E+04;  0.0000000E+00;  1.0858010E+00;  4.0000000E+04;  0.0000000E+00;  4.0024418E+04; -3.0502376E-01;  0.0000000E+00;  8.5657313E-03;  4.1071377E+03;
  2.5427034E-01;  9.9999998E-03; -1.8989189E-01;3982; -7.8430779E-02;  0.0000000E+00; -1.3104443E-03;  9.9140063E+02;  1.0000000E-01; -7.1243906E+03;3; -4.5205614E-01;  0.0000000E+00;  3.5364494E-01;0; -2.9060078E-01;  3.9292137E+04;  0.0000000E+00;  8.0755544E-01;  4.0000000E+04;  0.0000000E+00;  4.0022184E+04; -2.9811114E-01;  0.0000000E+00;  7.5103738E-03;  3.6962969E+03;
  2.5442630E-01;  9.9999998E-03; -1.7989187E-01;3983; -7.8909382E-02;  0.0000000E+00; -1.4143105E-03;  9.9128064E+02;  1.0000000E-01; -7.2238447E+03;3; -2.7940112E-01;  0.0000000E+00;  7.2037715E-01;0; -2.8598499E-01;  3.9282637E+04;  0.0000000E+00;  7.5479555E-01;  4.0000000E+04;  0.0000000E+00;  4.0021871E+04; -2.9271379E-01;  0.0000000E+00;  6.7287842E-03;  3.6453633E+03;
  2.5461718E-01;  9.9999998E-03; -1.6988228E-01;3984; -7.9443492E-02;  0.0000000E+00; -1.5024497E-03;  9.9121906E+02;  1.0000000E-01; -7.2748555E+03;3; -2.4773487E-01;  0.0000000E+00;  8.5288990E-01;0; -2.8218144E-01;  3.9276035E+04;  0.0000000E+00;  7.8838146E-01;  4.0000000E+04;  0.0000000E+00;  4.0023406E+04; -2.8852698E-01;  0.0000000E+00;  6.3455421E-03;  3.8511301E+03;
  2.5482255E-01;  9.9999998E-03; -1.5986472E-01;3985; -8.0036752E-02;  0.0000000E+00; -1.5689327E-03;  9.9123492E+02;  1.0000000E-01; -7.2617202E+03;3; -2.6094365E-01;  0.0000000E+00;  8.7770039E-01;0; -2.7886897E-01;  3.9274305E+04;  0.0000000E+00;  8.0896407E-01;  4.0000000E+04;  0.0000000E+00;  4.0026527E+04; -2.8527984E-01;  0.0000000E+00;  6.4108679E-03;  4.2264736E+03;
  2.5500497E-01;  9.9999998E-03; -1.4985092E-01;3986; -8.0677070E-02;  0.0000000E+00; -1.6091263E-03;  9.9133948E+02;  1.0000000E-01; -7.1750557E+03;3; -2.8097507E-01;  0.0000000E+00;  8.7197888E-01;0; -2.7583823E-01;  3.9278559E+04;  0.0000000E+00;  7.6737207E-01;  4.0000000E+04;  0.0000000E+00;  4.0030543E+04; -2.8273857E-01;  0.0000000E+00;  6.9003301E-03;  4.6957720E+03;
  2.5513610E-01;  9.9999998E-03; -1.3985130E-01;3987; -8.1347212E-02;  0.0000000E+00; -1.6124636E-03;  9.9151532E+02;  1.0000000E-01; -7.0293809E+03;3; -2.9482150E-01;  0.0000000E+00;  8.5078061E-01;0; -2.7298960E-01;  3.9288398E+04;  0.0000000E+00;  6.6666788E-01;  4.0000000E+04;  0.0000000E+00;  4.0035047E+04; -2.8071409E-01;  0.0000000E+00;  7.7245003E-03;  5.1869512E+03;
  2.5521246E-01;  9.9999998E-03; -1.2986511E-01;3988; -8.2029983E-02;  0.0000000E+00; -1.5678660E-03;  9.9174536E+02;  1.0000000E-01; -6.8388184E+03;3; -3.0510199E-01;  0.0000000E+00;  8.2360756E-01;0; -2.7030623E-01;  3.9302840E+04;  0.0000000E+00;  5.3615499E-01;  4.0000000E+04;  0.0000000E+00;  4.0039020E+04; -2.7905905E-01;  0.0000000E+00;  8.7528108E-03;  5.6245020E+03;
  2.5524256E-01;  9.9999998E-03; -1.1988739E-01;3989; -8.2707427E-02;  0.0000000E+00; -1.4657015E-03;  9.9200189E+02;  1.0000000E-01; -6.6262812E+03;3; -3.0612311E-01;  0.0000000E+00;  7.7720195E-01;0; -2.6782629E-01;  3.9320461E+04;  0.0000000E+00;  4.0412644E-01;  4.0000000E+04;  0.0000000E+00;  4.0041828E+04; -2.7766165E-01;  0.0000000E+00;  9.8353690E-03;  5.9397588E+03;
  2.5523978E-01;  9.9999998E-03; -1.0991123E-01;3990; -8.3359852E-02;  0.0000000E+00; -1.3109680E-03;  9.9226544E+02;  1.0000000E-01; -6.4079170E+03;3; -3.0419540E-01;  0.0000000E+00;  7.2406900E-01;0; -2.6561102E-01;  3.9339848E+04;  0.0000000E+00;  2.8995213E-01;  4.0000000E+04;  0.0000000E+00;  4.0043340E+04; -2.7644172E-01;  0.0000000E+00;  1.0830692E-02;  6.0886699E+03;
  2.6444474E-01;  9.9999998E-03; -2.6977769E-01;4035; -7.6597519E-02;  0.0000000E+00; -5.7345149E-03;  9.8990277E+02;  1.0000000E-01; -8.3653428E+03;3; -3.0877480E+01;  0.0000000E+00; -1.6144007E+01;0; -3.6799634E-01;  3.9111297E+04;  0.0000000E+00;  1.7388765E+01;  4.0000000E+04;  0.0000000E+00;  4.0099309E+04; -4.1041330E-01;  0.0000000E+00;  4.2416964E-02;  2.9172133E+04;
  2.6444167E-01;  9.9999998E-03; -2.5977463E-01;4036; -7.8104250E-02;  0.0000000E+00; -4.0682019E-03;  9.9091846E+02;  1.0000000E-01; -7.5238853E+03;3; -2.1665846E+01;  0.0000000E+00; -1.6462900E+01;0; -3.6007738E-01;  3.9193699E+04;  0.0000000E+00;  1.1848563E+01;  4.0000000E+04;  0.0000000E+00;  4.0095195E+04; -3.8734680E-01;  0.0000000E+00;  2.7269427E-02;  2.1794414E+04;
  2.6437452E-01;  9.9999998E-03; -2.4978836E-01;4037; -7.8993000E-02;  0.0000000E+00; -2.5979823E-03;  9.9147528E+02;  1.0000000E-01; -7.0625649E+03;3; -1.4660662E+01;  0.0000000E+00; -1.3116132E+01;0; -3.4880385E-01;  3.9251770E+04;  0.0000000E+00;  8.4081564E+00;  4.0000000E+04;  0.0000000E+00;  4.0078285E+04; -3.6704013E-01;  0.0000000E+00;  1.8236279E-02;  1.6368079E+04;
  2.6427719E-01;  9.9999998E-03; -2.3981039E-01;4038; -7.9540141E-02;  0.0000000E+00; -1.8349265E-03;  9.9173956E+02;  1.0000000E-01; -6.8436084E+03;3; -9.4014635E+00;  0.0000000E+00; -9.1247635E+00;0; -3.3416736E-01;  3.9287535E+04;  0.0000000E+00;  5.7872162E+00;  4.0000000E+04;  0.0000000E+00;  4.0060891E+04; -3.4969378E-01;  0.0000000E+00;  1.5526419E-02;  1.1968816E+04;
  2.6420233E-01;  9.9999998E-03; -2.2982521E-01;4039; -7.9941377E-02;  0.0000000E+00; -1.6421787E-03;  9.9184357E+02;  1.0000000E-01; -6.7574380E+03;3; -5.5825486E+00;  0.0000000E+00; -5.6595616E+00;0; -3.2008100E-01;  3.9304715E+04;  0.0000000E+00;  3.7286031E+00;  4.0000000E+04;  0.0000000E+00;  4.0049520E+04; -3.3512285E-01;  0.0000000E+00;  1.5041850E-02;  8.8432129E+03;
  2.6417705E-01;  9.9999998E-03; -2.1983375E-01;4040; -8.0291077E-02;  0.0000000E+00; -1.6592618E-03;  9.9182526E+02;  1.0000000E-01; -6.7725981E+03;3; -3.0322378E+00;  0.0000000E+00; -2.9539080E+00;0; -3.0867630E-01;  3.9309250E+04;  0.0000000E+00;  2.3347340E+00;  4.0000000E+04;  0.0000000E+00;  4.0042004E+04; -3.2305142E-01;  0.0000000E+00;  1.4375119E-02;  6.8823013E+03;
  2.6421988E-01;  9.9999998E-03; -2.0984071E-01;4041; -8.0644593E-02;  0.0000000E+00; -1.7323734E-03;  9.9173730E+02;  1.0000000E-01; -6.8454849E+03;3; -1.4949558E+00;  0.0000000E+00; -1.0794970E+00;0; -2.9987779E-01;  3.9306262E+04;  0.0000000E+00;  1.5295559E+00;  4.0000000E+04;  0.0000000E+00;  4.0036523E+04; -3.1317836E-01;  0.0000000E+00;  1.3300565E-02;  5.7352969E+03;
  2.6432139E-01;  9.9999998E-03; -1.9984724E-01;4042; -8.1017330E-02;  0.0000000E+00; -1.8288182E-03;  9.9163312E+02;  1.0000000E-01; -6.9318032E+03;3; -6.8378454E-01;  0.0000000E+00;  6.3703418E-02;0; -2.9309997E-01;  3.9300496E+04;  0.0000000E+00;  1.1439213E+00;  4.0000000E+04;  0.0000000E+00;  4.0032992E+04; -3.0519778E-01;  0.0000000E+00;  1.2097812E-02;  5.1277749E+03;
  2.6447010E-01;  9.9999998E-03; -1.8985008E-01;4043; -8.1431441E-02;  0.0000000E+00; -1.9142815E-03;  9.9155914E+02;  1.0000000E-01; -6.9930854E+03;3; -3.2488734E-01;  0.0000000E+00;  6.5629923E-01;0; -2.8779957E-01;  3.9295570E+04;  0.0000000E+00;  1.0045184E+00;  4.0000000E+04;  0.0000000E+00;  4.0031559E+04; -2.9880777E-01;  0.0000000E+00;  1.1008211E-02;  4.8972070E+03;
  2.6465213E-01;  9.9999998E-03; -1.7984767E-01;4044; -8.1898540E-02;  0.0000000E+00; -1.9825913E-03;  9.9154993E+02;  1.0000000E-01; -7.0007397E+03;3; -2.1125007E-01;  0.0000000E+00;  9.1336852E-01;0; -2.8350571E-01;  3.9294273E+04;  0.0000000E+00;  9.7584093E-01;  4.0000000E+04;  0.0000000E+00;  4.0031965E+04; -2.9371905E-01;  0.0000000E+00;  1.0213345E-02;  4.9294756E+03;
  2.6484531E-01;  9.9999998E-03; -1.6984038E-01;4045; -8.2423188E-02;  0.0000000E+00; -2.0310478E-03;  9.9162512E+02;  1.0000000E-01; -6.9384204E+03;3; -2.0167577E-01;  0.0000000E+00;  9.9397808E-01;0; -2.7985424E-01;  3.9298309E+04;  0.0000000E+00;  9.5913959E-01;  4.0000000E+04;  0.0000000E+00;  4.0033734E+04; -2.8966519E-01;  0.0000000E+00;  9.8109553E-03;  5.1420947E+03;
  2.6502100E-01;  9.9999998E-03; -1.5983373E-01;4046; -8.3002925E-02;  0.0000000E+00; -2.0514720E-03;  9.9179395E+02;  1.0000000E-01; -6.7985728E+03;3; -2.1964811E-01;  0.0000000E+00;  9.9837601E-01;0; -2.7658233E-01;  3.9308578E+04;  0.0000000E+00;  8.9538354E-01;  4.0000000E+04;  0.0000000E+00;  4.0036816E+04; -2.8640962E-01;  0.0000000E+00;  9.8272776E-03;  5.4684072E+03;
  2.6515386E-01;  9.9999998E-03; -1.4983542E-01;4047; -8.3624512E-02;  0.0000000E+00; -2.0413201E-03;  9.9204089E+02;  1.0000000E-01; -6.5939858E+03;3; -2.3882759E-01;  0.0000000E+00;  9.8295987E-01;0; -2.7352938E-01;  3.9324691E+04;  0.0000000E+00;  7.7251154E-01;  4.0000000E+04;  0.0000000E+00;  4.0040355E+04; -2.8375471E-01;  0.0000000E+00;  1.0225339E-02;  5.8501499E+03;
  2.6523533E-01;  9.9999998E-03; -1.3984886E-01;4048; -8.4273972E-02;  0.0000000E+00; -1.9893053E-03;  9.9234363E+02;  1.0000000E-01; -6.3431782E+03;3; -2.5130150E-01;  0.0000000E+00;  9.5435238E-01;0; -2.7062717E-01;  3.9345441E+04;  0.0000000E+00;  6.1517143E-01;  4.0000000E+04;  0.0000000E+00;  4.0043965E+04; -2.8154427E-01;  0.0000000E+00;  1.0917105E-02;  6.2242700E+03;
  2.6527166E-01;  9.9999998E-03; -1.2987100E-01;4049; -8.4935218E-02;  0.0000000E+00; -1.8859616E-03;  9.9267688E+02;  1.0000000E-01; -6.0670874E+03;3; -2.5684229E-01;  0.0000000E+00;  9.1431391E-01;0; -2.6786888E-01;  3.9369141E+04;  0.0000000E+00;  4.5508155E-01;  4.0000000E+04;  0.0000000E+00;  4.0046910E+04; -2.7964911E-01;  0.0000000E+00;  1.1780244E-02;  6.5244165E+03;
  2.6527369E-01;  9.9999998E-03; -1.1989624E-01;4050; -8.5589170E-02;  0.0000000E+00; -1.7282782E-03;  9.9301245E+02;  1.0000000E-01; -5.7890703E+03;3; -2.5659496E-01;  0.0000000E+00;  8.6138445E-01;0; -2.6529923E-01;  3.9394180E+04;  0.0000000E+00;  3.1575969E-01;  4.0000000E+04;  0.0000000E+00;  4.0048695E+04; -2.7797273E-01;  0.0000000E+00;  1.2673507E-02;  6.6969888E+03;
  2.6525205E-01;  9.9999998E-03; -1.0991982E-01;4051; -8.6214557E-02;  0.0000000E+00; -1.5281014E-03;  9.9333057E+02;  1.0000000E-01; -5.5255225E+03;3; -2.5082570E-01;  0.0000000E+00;  8.0021179E-01;0; -2.6298824E-01;  3.9418949E+04;  0.0000000E+00;  2.0960732E-01;  4.0000000E+04;  0.0000000E+00;  4.0049176E+04; -2.7645394E-01;  0.0000000E+00;  1.3465698E-02;  6.7158750E+03;
  2.7448347E-01;  9.9999998E-03; -2.6976874E-01;4096; -8.0689043E-02;  0.0000000E+00; -6.7097275E-03;  9.9101929E+02;  1.0000000E-01; -7.4403320E+03;3; -2.6833937E+01;  0.0000000E+00; -1.2847300E+01;0; -3.4602055E-01;  3.9202910E+04;  0.0000000E+00;  9.3856268E+00;  4.0000000E+04;  0.0000000E+00;  4.0095898E+04; -3.9629576E-01;  0.0000000E+00;  5.0275218E-02;  1.9102594E+04;
  2.7446178E-01;  9.9999998E-03; -2.5975612E-01;4097; -8.1723742E-02;  0.0000000E+00; -5.5090627E-03;  9.9175873E+02;  1.0000000E-01; -6.8277568E+03;3; -1.8368877E+01;  0.0000000E+00; -1.2379789E+01;0; -3.3880806E-01;  3.9256836E+04;  0.0000000E+00;  6.7999454E+00;  4.0000000E+04;  0.0000000E+00;  4.0098422E+04; -3.7623012E-01;  0.0000000E+00;  3.7422050E-02;  1.6582711E+04;
  2.7440327E-01;  9.9999998E-03; -2.4975444E-01;4098; -8.2393624E-02;  0.0000000E+00; -3.9964421E-03;  9.9209198E+02;  1.0000000E-01; -6.5516660E+03;3; -1.1997462E+01;  0.0000000E+00; -9.6067095E+00;0; -3.3264551E-01;  3.9290711E+04;  0.0000000E+00;  5.0375228E+00;  4.0000000E+04;  0.0000000E+00;  4.0088059E+04; -3.5872996E-01;  0.0000000E+00;  2.6084447E-02;  1.3922916E+04;
  2.7433646E-01;  9.9999998E-03; -2.3977001E-01;4099; -8.2829006E-02;  0.0000000E+00; -2.9419046E-03;  9.9212640E+02;  1.0000000E-01; -6.5231235E+03;3; -7.4223552E+00;  0.0000000E+00; -6.3277073E+00;0; -3.2293153E-01;  3.9308395E+04;  0.0000000E+00;  3.5747588E+00;  4.0000000E+04;  0.0000000E+00;  4.0070613E+04; -3.4376150E-01;  0.0000000E+00;  2.0829972E-02;  1.0911628E+04;
  2.7429625E-01;  9.9999998E-03; -2.2978652E-01;4100; -8.3152145E-02;  0.0000000E+00; -2.5433647E-03;  9.9206024E+02;  1.0000000E-01; -6.5779370E+03;3; -4.2377152E+00;  0.0000000E+00; -3.5873826E+00;0; -3.1188399E-01;  3.9313996E+04;  0.0000000E+00;  2.4424086E+00;  4.0000000E+04;  0.0000000E+00;  4.0057695E+04; -3.3111230E-01;  0.0000000E+00;  1.9228324E-02;  8.6852168E+03;
  2.7430987E-01;  9.9999998E-03; -2.1979904E-01;4101; -8.3441146E-02;  0.0000000E+00; -2.4614697E-03;  9.9195874E+02;  1.0000000E-01; -6.6620332E+03;3; -2.1888630E+00;  0.0000000E+00; -1.5574645E+00;0; -3.0235922E-01;  3.9312504E+04;  0.0000000E+00;  1.7136867E+00;  4.0000000E+04;  0.0000000E+00;  4.0049262E+04; -3.2053837E-01;  0.0000000E+00;  1.8179161E-02;  7.3089453E+03;
  2.7438828E-01;  9.9999998E-03; -2.0980862E-01;4102; -8.3747670E-02;  0.0000000E+00; -2.4741741E-03;  9.9186066E+02;  1.0000000E-01; -6.7433149E+03;3; -1.0095403E+00;  0.0000000E+00; -2.1245389E-01;0; -2.9484028E-01;  3.9308762E+04;  0.0000000E+00;  1.3300273E+00;  4.0000000E+04;  0.0000000E+00;  4.0044156E+04; -3.1179118E-01;  0.0000000E+00;  1.6950905E-02;  6.5212837E+03;
  2.7451923E-01;  9.9999998E-03; -1.9981489E-01;4103; -8.4086835E-02;  0.0000000E+00; -2.5184206E-03;  9.9180823E+02;  1.0000000E-01; -6.7867212E+03;3; -4.2650753E-01;  0.0000000E+00;  5.7426250E-01;0; -2.8893119E-01;  3.9306363E+04;  0.0000000E+00;  1.1704893E+00;  4.0000000E+04;  0.0000000E+00;  4.0041508E+04; -3.0461732E-01;  0.0000000E+00;  1.5686117E-02;  6.1348872E+03;
  2.7468440E-01;  9.9999998E-03; -1.8981753E-01;4104; -8.4475078E-02;  0.0000000E+00; -2.5561491E-03;  9.9182935E+02;  1.0000000E-01; -6.7692402E+03;3; -1.9457012E-01;  0.0000000E+00;  9.5868576E-01;0; -2.8418341E-01;  3.9308086E+04;  0.0000000E+00;  1.1150173E+00;  4.0000000E+04;  0.0000000E+00;  4.0040762E+04; -2.9876482E-01;  0.0000000E+00;  1.4581414E-02;  6.0225610E+03;
  2.7486143E-01;  9.9999998E-03; -1.7981775E-01;4105; -8.4918834E-02;  0.0000000E+00; -2.5779665E-03;  9.9194275E+02;  1.0000000E-01; -6.6752676E+03;3; -1.3760431E-01;  0.0000000E+00;  1.1052896E+00;0; -2.8020835E-01;  3.9316059E+04;  0.0000000E+00;  1.0749402E+00;  4.0000000E+04;  0.0000000E+00;  4.0041578E+04; -2.9399174E-01;  0.0000000E+00;  1.3783389E-02;  6.0971494E+03;
  2.7502763E-01;  9.9999998E-03; -1.6981794E-01;4106; -8.5421145E-02;  0.0000000E+00; -2.5734026E-03;  9.9215131E+02;  1.0000000E-01; -6.5024824E+03;3; -1.4809397E-01;  0.0000000E+00;  1.1409173E+00;0; -2.7671587E-01;  3.9330562E+04;  0.0000000E+00;  9.9497503E-01;  4.0000000E+04;  0.0000000E+00;  4.0043555E+04; -2.9007792E-01;  0.0000000E+00;  1.3362041E-02;  6.2974106E+03;
  2.7515963E-01;  9.9999998E-03; -1.5982281E-01;4107; -8.5974552E-02;  0.0000000E+00; -2.5396834E-03;  9.9245050E+02;  1.0000000E-01; -6.2546372E+03;3; -1.6982524E-01;  0.0000000E+00;  1.1293447E+00;0; -2.7350724E-01;  3.9351613E+04;  0.0000000E+00;  8.5706484E-01;  4.0000000E+04;  0.0000000E+00;  4.0046426E+04; -2.8683069E-01;  0.0000000E+00;  1.3323442E-02;  6.5722520E+03;
  2.7524692E-01;  9.9999998E-03; -1.4983603E-01;4108; -8.6568743E-02;  0.0000000E+00; -2.4681226E-03;  9.9281329E+02;  1.0000000E-01; -5.9540532E+03;3; -1.8600324E-01;  0.0000000E+00;  1.0995843E+00;0; -2.7047023E-01;  3.9377590E+04;  0.0000000E+00;  6.7878371E-01;  4.0000000E+04;  0.0000000E+00;  4.0049410E+04; -2.8409183E-01;  0.0000000E+00;  1.3621602E-02;  6.8695811E+03;
  2.7529156E-01;  9.9999998E-03; -1.3985740E-01;4109; -8.7190114E-02;  0.0000000E+00; -2.3512889E-03;  9.9321014E+02;  1.0000000E-01; -5.6252725E+03;3; -1.9547766E-01;  0.0000000E+00;  1.0593983E+00;0; -2.6756108E-01;  3.9406730E+04;  0.0000000E+00;  4.9376321E-01;  4.0000000E+04;  0.0000000E+00;  4.0052051E+04; -2.8173244E-01;  0.0000000E+00;  1.4171347E-02;  7.1292095E+03;
  2.7530175E-01;  9.9999998E-03; -1.2988272E-01;4110; -8.7821350E-02;  0.0000000E+00; -2.1867768E-03;  9.9361005E+02;  1.0000000E-01; -5.2939731E+03;3; -1.9800106E-01;  0.0000000E+00;  1.0121523E+00;0; -2.6478311E-01;  3.9436875E+04;  0.0000000E+00;  3.2920730E-01;  4.0000000E+04;  0.0000000E+00;  4.0053793E+04; -2.7964127E-01;  0.0000000E+00;  1.4858150E-02;  7.2950376E+03;
  2.7528626E-01;  9.9999998E-03; -1.1990765E-01;4111; -8.8442206E-02;  0.0000000E+00; -1.9796505E-03;  9.9398865E+02;  1.0000000E-01; -4.9803032E+03;3; -1.9531932E-01;  0.0000000E+00;  9.5437032E-01;0; -2.6218894E-01;  3.9466348E+04;  0.0000000E+00;  2.0146358E-01;  4.0000000E+04;  0.0000000E+00;  4.0054523E+04; -2.7773973E-01;  0.0000000E+00;  1.5550804E-02;  7.3308823E+03;
  2.7525362E-01;  9.9999998E-03; -1.0992891E-01;4112; -8.9030854E-02;  0.0000000E+00; -1.7413256E-03;  9.9432501E+02;  1.0000000E-01; -4.7015952E+03;3; -1.8777858E-01;  0.0000000E+00;  8.8756579E-01;0; -2.5985143E-01;  3.9493488E+04;  0.0000000E+00;  1.1545830E-01;  4.0000000E+04;  0.0000000E+00;  4.0053918E+04; -2.7598271E-01;  0.0000000E+00;  1.6131286E-02;  7.2293765E+03;
  2.8449765E-01;  9.9999998E-03; -2.6976651E-01;4157; -8.4628388E-02;  0.0000000E+00; -7.3371995E-03;  9.9183295E+02;  1.0000000E-01; -6.7662280E+03;3; -2.0503881E+01;  0.0000000E+00; -8.7208834E+00;0; -3.2732296E-01;  3.9274168E+04;  0.0000000E+00;  4.6393151E+00;  4.0000000E+04;  0.0000000E+00;  4.0088598E+04; -3.8117456E-01;  0.0000000E+00;  5.3851616E-02;  1.3786376E+04;
  2.8447092E-01;  9.9999998E-03; -2.5974980E-01;4158; -8.5322201E-02;  0.0000000E+00; -6.5279645E-03;  9.9232117E+02;  1.0000000E-01; -6.3617456E+03;3; -1.3749031E+01;  0.0000000E+00; -7.9558740E+00;0; -3.2046372E-01;  3.9303992E+04;  0.0000000E+00;  3.5931947E+00;  4.0000000E+04;  0.0000000E+00;  4.0095480E+04; -3.6436534E-01;  0.0000000E+00;  4.3901630E-02;  1.3750333E+04;
  2.8443933E-01;  9.9999998E-03; -2.4973792E-01;4159; -8.5810155E-02;  0.0000000E+00; -5.2085547E-03;  9.9248810E+02;  1.0000000E-01; -6.2234780E+03;3; -8.6928873E+00;  0.0000000E+00; -5.9333496E+00;0; -3.1711477E-01;  3.9318895E+04;  0.0000000E+00;  2.7242713E+00;  4.0000000E+04;  0.0000000E+00;  4.0091344E+04; -3.4971097E-01;  0.0000000E+00;  3.2596216E-02;  1.2766537E+04;
  2.8441542E-01;  9.9999998E-03; -2.3974419E-01;4160; -8.6139336E-02;  0.0000000E+00; -4.0740413E-03;  9.9240076E+02;  1.0000000E-01; -6.2958213E+03;3; -5.1575933E+00;  0.0000000E+00; -3.5943162E+00;0; -3.1118944E-01;  3.9323547E+04;  0.0000000E+00;  2.0215647E+00;  4.0000000E+04;  0.0000000E+00;  4.0077324E+04; -3.3710927E-01;  0.0000000E+00;  2.5919834E-02;  1.0759969E+04;
  2.8441808E-01;  9.9999998E-03; -2.2976078E-01;4161; -8.6390600E-02;  0.0000000E+00; -3.5180813E-03;  9.9223865E+02;  1.0000000E-01; -6.4301387E+03;3; -2.7942524E+00;  0.0000000E+00; -1.6742939E+00;0; -3.0308807E-01;  3.9322105E+04;  0.0000000E+00;  1.5441307E+00;  4.0000000E+04;  0.0000000E+00;  4.0063875E+04; -3.2637578E-01;  0.0000000E+00;  2.3287702E-02;  8.9608037E+03;
  2.8447074E-01;  9.9999998E-03; -2.1977599E-01;4162; -8.6624801E-02;  0.0000000E+00; -3.3232365E-03;  9.9210901E+02;  1.0000000E-01; -6.5375430E+03;3; -1.3397311E+00;  0.0000000E+00; -3.0674532E-01;0; -2.9548806E-01;  3.9318633E+04;  0.0000000E+00;  1.2838418E+00;  4.0000000E+04;  0.0000000E+00;  4.0055477E+04; -3.1729740E-01;  0.0000000E+00;  2.1809330E-02;  7.8508335E+03;
  2.8457928E-01;  9.9999998E-03; -2.0978653E-01;4163; -8.6884767E-02;  0.0000000E+00; -3.2636193E-03;  9.9204602E+02;  1.0000000E-01; -6.5897393E+03;3; -5.4847819E-01;  0.0000000E+00;  5.5119145E-01;0; -2.8923345E-01;  3.9316992E+04;  0.0000000E+00;  1.1814632E+00;  4.0000000E+04;  0.0000000E+00;  4.0050988E+04; -3.0967364E-01;  0.0000000E+00;  2.0440176E-02;  7.2719268E+03;
  2.8472114E-01;  9.9999998E-03; -1.9979402E-01;4164; -8.7184742E-02;  0.0000000E+00; -3.2408617E-03;  9.9206909E+02;  1.0000000E-01; -6.5706284E+03;3; -1.9026807E-01;  0.0000000E+00;  1.0185719E+00;0; -2.8416622E-01;  3.9320035E+04;  0.0000000E+00;  1.1520396E+00;  4.0000000E+04;  0.0000000E+00;  4.0049043E+04; -3.0330694E-01;  0.0000000E+00;  1.9140715E-02;  7.0170015E+03;
  2.8487766E-01;  9.9999998E-03; -1.8979935E-01;4165; -8.7539293E-02;  0.0000000E+00; -3.2152429E-03;  9.9219550E+02;  1.0000000E-01; -6.4658906E+03;3; -7.3318459E-02;  0.0000000E+00;  1.2280787E+00;0; -2.7994591E-01;  3.9329617E+04;  0.0000000E+00;  1.1209044E+00;  4.0000000E+04;  0.0000000E+00;  4.0048883E+04; -2.9799566E-01;  0.0000000E+00;  1.8049734E-02;  6.9728848E+03;
  2.8503054E-01;  9.9999998E-03; -1.7980412E-01;4166; -8.7952390E-02;  0.0000000E+00; -3.1737054E-03;  9.9242444E+02;  1.0000000E-01; -6.2762173E+03;3; -6.3997827E-02;  0.0000000E+00;  1.2929246E+00;0; -2.7627814E-01;  3.9346570E+04;  0.0000000E+00;  1.0432482E+00;  4.0000000E+04;  0.0000000E+00;  4.0050031E+04; -2.9355076E-01;  0.0000000E+00;  1.7272627E-02;  7.0674814E+03;
  2.8515676E-01;  9.9999998E-03; -1.6981207E-01;4167; -8.8421926E-02;  0.0000000E+00; -3.1049594E-03;  9.9275183E+02;  1.0000000E-01; -6.0049653E+03;3; -8.5970275E-02;  0.0000000E+00;  1.2875873E+00;0; -2.7295265E-01;  3.9370484E+04;  0.0000000E+00;  9.0419930E-01;  4.0000000E+04;  0.0000000E+00;  4.0052020E+04; -2.8980064E-01;  0.0000000E+00;  1.6847994E-02;  7.2498403E+03;
  2.8524682E-01;  9.9999998E-03; -1.5982576E-01;4168; -8.8942021E-02;  0.0000000E+00; -3.0056168E-03;  9.9315283E+02;  1.0000000E-01; -5.6727280E+03;3; -1.0769519E-01;  0.0000000E+00;  1.2604976E+00;0; -2.6983535E-01;  3.9400000E+04;  0.0000000E+00;  7.1793252E-01;  4.0000000E+04;  0.0000000E+00;  4.0054523E+04; -2.8659958E-01;  0.0000000E+00;  1.6764233E-02;  7.4759429E+03;
  2.8529978E-01;  9.9999998E-03; -1.4984608E-01;4169; -8.9502461E-02;  0.0000000E+00; -2.8689313E-03;  9.9359766E+02;  1.0000000E-01; -5.3042446E+03;3; -1.2245936E-01;  0.0000000E+00;  1.2215525E+00;0; -2.6685771E-01;  3.9433281E+04;  0.0000000E+00;  5.1742065E-01;  4.0000000E+04;  0.0000000E+00;  4.0056773E+04; -2.8382629E-01;  0.0000000E+00;  1.6968582E-02;  7.6922471E+03;
  2.8531995E-01;  9.9999998E-03; -1.3987060E-01;4170; -9.0088695E-02;  0.0000000E+00; -2.6920859E-03;  9.9405341E+02;  1.0000000E-01; -4.9266255E+03;3; -1.2974578E-01;  0.0000000E+00;  1.1790758E+00;0; -2.6399273E-01;  3.9467836E+04;  0.0000000E+00;  3.3334330E-01;  4.0000000E+04;  0.0000000E+00;  4.0058570E+04; -2.8137174E-01;  0.0000000E+00;  1.7379008E-02;  7.8418765E+03;
  2.8531420E-01;  9.9999998E-03; -1.2989600E-01;4171; -9.0682171E-02;  0.0000000E+00; -2.4743869E-03;  9.9448517E+02;  1.0000000E-01; -4.5689570E+03;3; -1.2976740E-01;  0.0000000E+00;  1.1212810E+00;0; -2.6125649E-01;  3.9501410E+04;  0.0000000E+00;  1.8547715E-01;  4.0000000E+04;  0.0000000E+00;  4.0059211E+04; -2.7914530E-01;  0.0000000E+00;  1.7888822E-02;  7.8822603E+03;
  2.8528935E-01;  9.9999998E-03; -1.1991864E-01;4172; -9.1261812E-02;  0.0000000E+00; -2.2224977E-03;  9.9487000E+02;  1.0000000E-01; -4.2501016E+03;3; -1.2502469E-01;  0.0000000E+00;  1.0574453E+00;0; -2.5870690E-01;  3.9532445E+04;  0.0000000E+00;  8.2456231E-02;  4.0000000E+04;  0.0000000E+00;  4.0058902E+04; -2.7708650E-01;  0.0000000E+00;  1.8379608E-02;  7.7957432E+03;
  2.8525189E-01;  9.9999998E-03; -1.0993657E-01;4173; -9.1806680E-02;  0.0000000E+00; -1.9492588E-03;  9.9519269E+02;  1.0000000E-01; -3.9827512E+03;3; -1.1507525E-01;  0.0000000E+00;  9.8282760E-01;0; -2.5641778E-01;  3.9559402E+04;  0.0000000E+00;  2.2779847E-02;  4.0000000E+04;  0.0000000E+00;  4.0057355E+04; -2.7516702E-01;  0.0000000E+00;  1.8749235E-02;  7.5925630E+03;
  2.9449356E-01;  9.9999998E-03; -2.6976860E-01;4218; -8.8391960E-02;  0.0000000E+00; -7.7318326E-03;  9.9236243E+02;  1.0000000E-01; -6.3275737E+03;3; -1.3827791E+01;  0.0000000E+00; -4.8592553E+00;0; -3.1176800E-01;  3.9324383E+04;  0.0000000E+00;  2.1239772E+00;  4.0000000E+04;  0.0000000E+00;  4.0079703E+04; -3.6587349E-01;  0.0000000E+00;  5.4105487E-02;  1.1144317E+04;
  2.9448304E-01;  9.9999998E-03; -2.5975174E-01;4219; -8.8842578E-02;  0.0000000E+00; -7.2118128E-03;  9.9264288E+02;  1.0000000E-01; -6.0952344E+03;3; -9.0317640E+00;  0.0000000E+00; -4.1047139E+00;0; -3.0530038E-01;  3.9335582E+04;  0.0000000E+00;  1.6891450E+00;  4.0000000E+04;  0.0000000E+00;  4.0088812E+04; -3.5228336E-01;  0.0000000E+00;  4.6982974E-02;  1.2037720E+04;
  2.9450145E-01;  9.9999998E-03; -2.4973422E-01;4220; -8.9189447E-02;  0.0000000E+00; -6.2002218E-03;  9.9270953E+02;  1.0000000E-01; -6.0400264E+03;3; -5.4739795E+00;  0.0000000E+00; -2.7682784E+00;0; -3.0305445E-01;  3.9337660E+04;  0.0000000E+00;  1.2712768E+00;  4.0000000E+04;  0.0000000E+00;  4.0090098E+04; -3.4035414E-01;  0.0000000E+00;  3.7299704E-02;  1.2061944E+04;
  2.9452521E-01;  9.9999998E-03; -2.3973395E-01;4221; -8.9437768E-02;  0.0000000E+00; -5.1037548E-03;  9.9257422E+02;  1.0000000E-01; -6.1521221E+03;3; -3.0564096E+00;  0.0000000E+00; -1.3023951E+00;0; -2.9989970E-01;  3.9334848E+04;  0.0000000E+00;  1.0734949E+00;  4.0000000E+04;  0.0000000E+00;  4.0079930E+04; -3.3001304E-01;  0.0000000E+00;  3.0113343E-02;  1.0756404E+04;
  2.9456732E-01;  9.9999998E-03; -2.2974935E-01;4222; -8.9627884E-02;  0.0000000E+00; -4.4711465E-03;  9.9239172E+02;  1.0000000E-01; -6.3033276E+03;3; -1.5133491E+00;  0.0000000E+00; -1.1897785E-01;0; -2.9427010E-01;  3.9330785E+04;  0.0000000E+00;  1.0123774E+00;  4.0000000E+04;  0.0000000E+00;  4.0067715E+04; -3.2110307E-01;  0.0000000E+00;  2.6832970E-02;  9.2370723E+03;
  2.9465148E-01;  9.9999998E-03; -2.1976452E-01;4223; -8.9813605E-02;  0.0000000E+00; -4.2023477E-03;  9.9228937E+02;  1.0000000E-01; -6.3881152E+03;3; -6.1445409E-01;  0.0000000E+00;  6.7832524E-01;0; -2.8838977E-01;  3.9328789E+04;  0.0000000E+00;  1.0267414E+00;  4.0000000E+04;  0.0000000E+00;  4.0060164E+04; -3.1344980E-01;  0.0000000E+00;  2.5060041E-02;  8.3187852E+03;
  2.9476729E-01;  9.9999998E-03; -2.0977692E-01;4224; -9.0026967E-02;  0.0000000E+00; -4.0643062E-03;  9.9228992E+02;  1.0000000E-01; -6.3876709E+03;3; -1.6816342E-01;  0.0000000E+00;  1.1498866E+00;0; -2.8331921E-01;  3.9331543E+04;  0.0000000E+00;  1.0663635E+00;  4.0000000E+04;  0.0000000E+00;  4.0056309E+04; -3.0690628E-01;  0.0000000E+00;  2.3587065E-02;  7.8614697E+03;
  2.9489949E-01;  9.9999998E-03; -1.9978702E-01;4225; -9.0286523E-02;  0.0000000E+00; -3.9649727E-03;  9.9240314E+02;  1.0000000E-01; -6.2938462E+03;3;  1.5183715E-03;  0.0000000E+00;  1.3843390E+00;0; -2.7902609E-01;  3.9341109E+04;  0.0000000E+00;  1.0763868E+00;  4.0000000E+04;  0.0000000E+00;  4.0054992E+04; -3.0132169E-01;  0.0000000E+00;  2.2295589E-02;  7.6881479E+03;
  2.9503566E-01;  9.9999998E-03; -1.8979509E-01;4226; -9.0604767E-02;  0.0000000E+00; -3.8656469E-03;  9.9263123E+02;  1.0000000E-01; -6.1049131E+03;3;  3.1196583E-02;  0.0000000E+00;  1.4712108E+00;0; -2.7528700E-01;  3.9358445E+04;  0.0000000E+00;  1.0236133E+00;  4.0000000E+04;  0.0000000E+00;  4.0055328E+04; -2.9654700E-01;  0.0000000E+00;  2.1259988E-02;  7.6900576E+03;
  2.9515228E-01;  9.9999998E-03; -1.7980498E-01;4227; -9.0980962E-02;  0.0000000E+00; -3.7533962E-03;  9.9296198E+02;  1.0000000E-01; -5.8308472E+03;3;  1.1970526E-02;  0.0000000E+00;  1.4729849E+00;0; -2.7190965E-01;  3.9383320E+04;  0.0000000E+00;  9.0021420E-01;  4.0000000E+04;  0.0000000E+00;  4.0056633E+04; -2.9244640E-01;  0.0000000E+00;  2.0536752E-02;  7.7935200E+03;
  2.9523981E-01;  9.9999998E-03; -1.6981861E-01;4228; -9.1413423E-02;  0.0000000E+00; -3.6175700E-03;  9.9337970E+02;  1.0000000E-01; -5.4847827E+03;3; -1.5874075E-02;  0.0000000E+00;  1.4442534E+00;0; -2.6876262E-01;  3.9414457E+04;  0.0000000E+00;  7.2131526E-01;  4.0000000E+04;  0.0000000E+00;  4.0058531E+04; -2.8889781E-01;  0.0000000E+00;  2.0135194E-02;  7.9578345E+03;
  2.9529718E-01;  9.9999998E-03; -1.5983726E-01;4229; -9.1896102E-02;  0.0000000E+00; -3.4526247E-03;  9.9385248E+02;  1.0000000E-01; -5.0930903E+03;3; -3.6425699E-02;  0.0000000E+00;  1.4080709E+00;0; -2.6576915E-01;  3.9450102E+04;  0.0000000E+00;  5.1883924E-01;  4.0000000E+04;  0.0000000E+00;  4.0060641E+04; -2.8579569E-01;  0.0000000E+00;  2.0026535E-02;  8.1361602E+03;
  2.9532611E-01;  9.9999998E-03; -1.4985996E-01;4230; -9.2417702E-02;  0.0000000E+00; -3.2532450E-03;  9.9434491E+02;  1.0000000E-01; -4.6851509E+03;3; -4.9071986E-02;  0.0000000E+00;  1.3598261E+00;0; -2.6289377E-01;  3.9487754E+04;  0.0000000E+00;  3.2598975E-01;  4.0000000E+04;  0.0000000E+00;  4.0062148E+04; -2.8304681E-01;  0.0000000E+00;  2.0153036E-02;  8.2734893E+03;
  2.9533023E-01;  9.9999998E-03; -1.3988464E-01;4231; -9.2962511E-02;  0.0000000E+00; -3.0167152E-03;  9.9482074E+02;  1.0000000E-01; -4.2909399E+03;3; -5.4661140E-02;  0.0000000E+00;  1.3055159E+00;0; -2.6012734E-01;  3.9524844E+04;  0.0000000E+00;  1.6482310E-01;  4.0000000E+04;  0.0000000E+00;  4.0063051E+04; -2.8056297E-01;  0.0000000E+00;  2.0435629E-02;  8.3208574E+03;
  2.9531559E-01;  9.9999998E-03; -1.2990798E-01;4232; -9.3512096E-02;  0.0000000E+00; -2.7468826E-03;  9.9525134E+02;  1.0000000E-01; -3.9341602E+03;3; -5.2149594E-02;  0.0000000E+00;  1.2407557E+00;0; -2.5749555E-01;  3.9559219E+04;  0.0000000E+00;  4.7295250E-02;  4.0000000E+04;  0.0000000E+00;  4.0062684E+04; -2.7827266E-01;  0.0000000E+00;  2.0777119E-02;  8.2514600E+03;
  2.9528749E-01;  9.9999998E-03; -1.1992741E-01;4233; -9.4045624E-02;  0.0000000E+00; -2.4530378E-03;  9.9561145E+02;  1.0000000E-01; -3.6358474E+03;3; -4.2420998E-02;  0.0000000E+00;  1.1637441E+00;0; -2.5506008E-01;  3.9589172E+04;  0.0000000E+00; -2.4729798E-02;  4.0000000E+04;  0.0000000E+00;  4.0061469E+04; -2.7613476E-01;  0.0000000E+00;  2.1074681E-02;  8.0650923E+03;
  2.9524997E-01;  9.9999998E-03; -1.0994162E-01;4234; -9.4543055E-02;  0.0000000E+00; -2.1450713E-03;  9.9589209E+02;  1.0000000E-01; -3.4033108E+03;3; -2.9571459E-02;  0.0000000E+00;  1.0746111E+00;0; -2.5289321E-01;  3.9613480E+04;  0.0000000E+00; -5.7332769E-02;  4.0000000E+04;  0.0000000E+00;  4.0059441E+04; -2.7413723E-01;  0.0000000E+00;  2.1244025E-02;  7.7866108E+03;
  3.0451071E-01;  9.9999998E-03; -2.6977360E-01;4279; -9.1969140E-02;  0.0000000E+00; -7.9933358E-03;  9.9264996E+02;  1.0000000E-01; -6.0893584E+03;3; -8.0398111E+00;  0.0000000E+00; -1.7724272E+00;0; -2.9878029E-01;  3.9354805E+04;  0.0000000E+00;  6.8330353E-01;  4.0000000E+04;  0.0000000E+00;  4.0071133E+04; -3.5104823E-01;  0.0000000E+00;  5.2267943E-02;  9.5948457E+03;
  3.0452043E-01;  9.9999998E-03; -2.5975907E-01;4280; -9.2245080E-02;  0.0000000E+00; -7.6715834E-03;  9.9278790E+02;  1.0000000E-01; -5.9750898E+03;3; -5.0295777E+00;  0.0000000E+00; -1.1945899E+00;0; -2.9287681E-01;  3.9354504E+04;  0.0000000E+00;  6.2995476E-01;  4.0000000E+04;  0.0000000E+00;  4.0080844E+04; -3.4044963E-01;  0.0000000E+00;  4.7572814E-02;  1.0776549E+04;
  3.0458477E-01;  9.9999998E-03; -2.4974076E-01;4281; -9.2488810E-02;  0.0000000E+00; -6.9457055E-03;  9.9280701E+02;  1.0000000E-01; -5.9592383E+03;3; -2.8348598E+00;  0.0000000E+00; -4.1008374E-01;0; -2.9105547E-01;  3.9349711E+04;  0.0000000E+00;  5.4902285E-01;  4.0000000E+04;  0.0000000E+00;  4.0085457E+04; -3.3101907E-01;  0.0000000E+00;  3.9963596E-02;  1.1338480E+04;
  3.0465621E-01;  9.9999998E-03; -2.3973756E-01;4282; -9.2679530E-02;  0.0000000E+00; -5.9875655E-03;  9.9267944E+02;  1.0000000E-01; -6.0649639E+03;3; -1.3999112E+00;  0.0000000E+00;  3.8179260E-01;0; -2.8954968E-01;  3.9344402E+04;  0.0000000E+00;  6.2638271E-01;  4.0000000E+04;  0.0000000E+00;  4.0078895E+04; -3.2273024E-01;  0.0000000E+00;  3.3180557E-02;  1.0524729E+04;
  3.0473137E-01;  9.9999998E-03; -2.2975112E-01;4283; -9.2827536E-02;  0.0000000E+00; -5.3498931E-03;  9.9253693E+02;  1.0000000E-01; -6.1830347E+03;3; -5.3650612E-01;  0.0000000E+00;  9.9548465E-01;0; -2.8580970E-01;  3.9341488E+04;  0.0000000E+00;  7.6485288E-01;  4.0000000E+04;  0.0000000E+00;  4.0068738E+04; -3.1547680E-01;  0.0000000E+00;  2.9667117E-02;  9.3062969E+03;
  3.0482417E-01;  9.9999998E-03; -2.1976672E-01;4284; -9.2973173E-02;  0.0000000E+00; -5.0315969E-03;  9.9249670E+02;  1.0000000E-01; -6.2163174E+03;3; -8.2174473E-02;  0.0000000E+00;  1.3863523E+00;0; -2.8138891E-01;  3.9343262E+04;  0.0000000E+00;  8.8722062E-01;  4.0000000E+04;  0.0000000E+00;  4.0062449E+04; -3.0913219E-01;  0.0000000E+00;  2.7743269E-02;  8.5592148E+03;
  3.0493274E-01;  9.9999998E-03; -2.0978041E-01;4285; -9.3148164E-02;  0.0000000E+00; -4.8275236E-03;  9.9258020E+02;  1.0000000E-01; -6.1471836E+03;3;  1.0615160E-01;  0.0000000E+00;  1.5943866E+00;0; -2.7733597E-01;  3.9351723E+04;  0.0000000E+00;  9.5260876E-01;  4.0000000E+04;  0.0000000E+00;  4.0059621E+04; -3.0358812E-01;  0.0000000E+00;  2.6252154E-02;  8.2162275E+03;
  3.0504671E-01;  9.9999998E-03; -1.9979182E-01;4286; -9.3372084E-02;  0.0000000E+00; -4.6593552E-03;  9.9278473E+02;  1.0000000E-01; -5.9777070E+03;3;  1.4590666E-01;  0.0000000E+00;  1.6792587E+00;0; -2.7371088E-01;  3.9367945E+04;  0.0000000E+00;  9.3902296E-01;  4.0000000E+04;  0.0000000E+00;  4.0058988E+04; -2.9874182E-01;  0.0000000E+00;  2.5030948E-02;  8.1166831E+03;
  3.0515096E-01;  9.9999998E-03; -1.8980241E-01;4287; -9.3652837E-02;  0.0000000E+00; -4.4911415E-03;  9.9310211E+02;  1.0000000E-01; -5.7147515E+03;3;  1.2617491E-01;  0.0000000E+00;  1.6819839E+00;0; -2.7040049E-01;  3.9392098E+04;  0.0000000E+00;  8.4413844E-01;  4.0000000E+04;  0.0000000E+00;  4.0059711E+04; -2.9449588E-01;  0.0000000E+00;  2.4095388E-02;  8.1515522E+03;
  3.0523154E-01;  9.9999998E-03; -1.7981581E-01;4288; -9.3990922E-02;  0.0000000E+00; -4.3101874E-03;  9.9351318E+02;  1.0000000E-01; -5.3742178E+03;3;  9.2436992E-02;  0.0000000E+00;  1.6531458E+00;0; -2.6730004E-01;  3.9423086E+04;  0.0000000E+00;  6.8516064E-01;  4.0000000E+04;  0.0000000E+00;  4.0061172E+04; -2.9076117E-01;  0.0000000E+00;  2.3461143E-02;  8.2597461E+03;
  3.0528915E-01;  9.9999998E-03; -1.6983247E-01;4289; -9.4384886E-02;  0.0000000E+00; -4.1049537E-03;  9.9399048E+02;  1.0000000E-01; -4.9787725E+03;3;  6.3890986E-02;  0.0000000E+00;  1.6116006E+00;0; -2.6434582E-01;  3.9459355E+04;  0.0000000E+00;  4.9342531E-01;  4.0000000E+04;  0.0000000E+00;  4.0062820E+04; -2.8745720E-01;  0.0000000E+00;  2.3111384E-02;  8.4028184E+03;
  3.0532336E-01;  9.9999998E-03; -1.5985239E-01;4290; -9.4827496E-02;  0.0000000E+00; -3.8729087E-03;  9.9449982E+02;  1.0000000E-01; -4.5568091E+03;3;  4.5042846E-02;  0.0000000E+00;  1.5639157E+00;0; -2.6150885E-01;  3.9498340E+04;  0.0000000E+00;  3.0314147E-01;  4.0000000E+04;  0.0000000E+00;  4.0064375E+04; -2.8451151E-01;  0.0000000E+00;  2.3002641E-02;  8.5307080E+03;
  3.0533552E-01;  9.9999998E-03; -1.4987484E-01;4291; -9.5306508E-02;  0.0000000E+00; -3.6103697E-03;  9.9500598E+02;  1.0000000E-01; -4.1374629E+03;3;  3.4059767E-02;  0.0000000E+00;  1.5090361E+00;0; -2.5877786E-01;  3.9537617E+04;  0.0000000E+00;  1.3820294E-01;  4.0000000E+04;  0.0000000E+00;  4.0065188E+04; -2.8185061E-01;  0.0000000E+00;  2.3072736E-02;  8.5916436E+03;
  3.0532968E-01;  9.9999998E-03; -1.3989739E-01;4292; -9.5806256E-02;  0.0000000E+00; -3.3183661E-03;  9.9546912E+02;  1.0000000E-01; -3.7537700E+03;3;  3.2519981E-02;  0.0000000E+00;  1.4446920E+00;0; -2.5616044E-01;  3.9574539E+04;  0.0000000E+00;  1.2477499E-02;  4.0000000E+04;  0.0000000E+00;  4.0065160E+04; -2.7940646E-01;  0.0000000E+00;  2.3246033E-02;  8.5491338E+03;
  3.0531064E-01;  9.9999998E-03; -1.2991722E-01;4293; -9.6308663E-02;  0.0000000E+00; -2.9985497E-03;  9.9586713E+02;  1.0000000E-01; -3.4240017E+03;3;  3.9878052E-02;  0.0000000E+00;  1.3607334E+00;0; -2.5369254E-01;  3.9607348E+04;  0.0000000E+00; -6.9111958E-02;  4.0000000E+04;  0.0000000E+00;  4.0064227E+04; -2.7712864E-01;  0.0000000E+00;  2.3436097E-02;  8.3918838E+03;
  3.0528235E-01;  9.9999998E-03; -1.1993295E-01;4294; -9.6793741E-02;  0.0000000E+00; -2.6618110E-03;  9.9618140E+02;  1.0000000E-01; -3.1636633E+03;3;  5.4238033E-02;  0.0000000E+00;  1.2647958E+00;0; -2.5143671E-01;  3.9634203E+04;  0.0000000E+00; -1.0979944E-01;  4.0000000E+04;  0.0000000E+00;  4.0062445E+04; -2.7499464E-01;  0.0000000E+00;  2.3557933E-02;  8.1339678E+03;
  3.0524781E-01;  9.9999998E-03; -1.0994349E-01;4295; -9.7242713E-02;  0.0000000E+00; -2.3230617E-03;  9.9640155E+02;  1.0000000E-01; -2.9812488E+03;3;  6.9595836E-02;  0.0000000E+00;  1.1676877E+00;0; -2.4945924E-01;  3.9654039E+04;  0.0000000E+00; -1.1828404E-01;  4.0000000E+04;  0.0000000E+00;  4.0059871E+04; -2.7300626E-01;  0.0000000E+00;  2.3547029E-02;  7.8106758E+03;
  3.1456852E-01;  9.9999998E-03; -2.6978076E-01;4340; -9.5341250E-02;  0.0000000E+00; -8.1988862E-03;  9.9276233E+02;  1.0000000E-01; -5.9962744E+03;3; -3.7412841E+00;  0.0000000E+00;  3.9099231E-01;0; -2.8769240E-01;  3.9370320E+04;  0.0000000E+00; -3.3820856E-02;  4.0000000E+04;  0.0000000E+00;  4.0063703E+04; -3.3723685E-01;  0.0000000E+00;  4.9544442E-02;  8.5944961E+03;
  3.1459883E-01;  9.9999998E-03; -2.5976992E-01;4341; -9.5507286E-02;  0.0000000E+00; -7.9863053E-03;  9.9281940E+02;  1.0000000E-01; -5.9490166E+03;3; -2.1181660E+00;  0.0000000E+00;  7.3985100E-01;0; -2.8269622E-01;  3.9364250E+04;  0.0000000E+00;  1.6594984E-01;  4.0000000E+04;  0.0000000E+00;  4.0072957E+04; -3.2924488E-01;  0.0000000E+00;  4.6548657E-02;  9.7375127E+03;
  3.1469876E-01;  9.9999998E-03; -2.4975438E-01;4342; -9.5686100E-02;  0.0000000E+00; -7.4826051E-03;  9.9283258E+02;  1.0000000E-01; -5.9380537E+03;3; -9.7568607E-01;  0.0000000E+00;  1.1254574E+00;0; -2.8106692E-01;  3.9357770E+04;  0.0000000E+00;  3.0501798E-01;  4.0000000E+04;  0.0000000E+00;  4.0078965E+04; -3.2198361E-01;  0.0000000E+00;  4.0916678E-02;  1.0496584E+04;
  3.1480393E-01;  9.9999998E-03; -2.3975019E-01;4343; -9.5840231E-02;  0.0000000E+00; -6.7137405E-03;  9.9275861E+02;  1.0000000E-01; -5.9993359E+03;3; -2.7373657E-01;  0.0000000E+00;  1.4780840E+00;0; -2.8034198E-01;  3.9353789E+04;  0.0000000E+00;  4.9835590E-01;  4.0000000E+04;  0.0000000E+00;  4.0075512E+04; -3.1547573E-01;  0.0000000E+00;  3.5133742E-02;  1.0089169E+04;
  3.1489220E-01;  9.9999998E-03; -2.2976358E-01;4344; -9.5961906E-02;  0.0000000E+00; -6.1132354E-03;  9.9268530E+02;  1.0000000E-01; -6.0600752E+03;3;  1.0228369E-01;  0.0000000E+00;  1.7276574E+00;0; -2.7796552E-01;  3.9354602E+04;  0.0000000E+00;  6.7952687E-01;  4.0000000E+04;  0.0000000E+00;  4.0067676E+04; -3.0967122E-01;  0.0000000E+00;  3.1705715E-02;  9.1377461E+03;
  3.1498003E-01;  9.9999998E-03; -2.1977980E-01;4345; -9.6080549E-02;  0.0000000E+00; -5.7733459E-03;  9.9272827E+02;  1.0000000E-01; -6.0244712E+03;3;  2.5917980E-01;  0.0000000E+00;  1.8700261E+00;0; -2.7469063E-01;  3.9361551E+04;  0.0000000E+00;  7.9094529E-01;  4.0000000E+04;  0.0000000E+00;  4.0062941E+04; -3.0448034E-01;  0.0000000E+00;  2.9789709E-02;  8.5636934E+03;
  3.1507158E-01;  9.9999998E-03; -2.0979346E-01;4346; -9.6228182E-02;  0.0000000E+00; -5.5233059E-03;  9.9289807E+02;  1.0000000E-01; -5.8838330E+03;3;  2.8730878E-01;  0.0000000E+00;  1.9261444E+00;0; -2.7146322E-01;  3.9375996E+04;  0.0000000E+00;  8.1472307E-01;  4.0000000E+04;  0.0000000E+00;  4.0061184E+04; -2.9983422E-01;  0.0000000E+00;  2.8371019E-02;  8.3431172E+03;
  3.1515756E-01;  9.9999998E-03; -1.9980502E-01;4347; -9.6421391E-02;  0.0000000E+00; -5.2969786E-03;  9.9318579E+02;  1.0000000E-01; -5.6454199E+03;3;  2.5876716E-01;  0.0000000E+00;  1.9209243E+00;0; -2.6840189E-01;  3.9398145E+04;  0.0000000E+00;  7.5178415E-01;  4.0000000E+04;  0.0000000E+00;  4.0061246E+04; -2.9567468E-01;  0.0000000E+00;  2.7272793E-02;  8.3103037E+03;
  3.1522775E-01;  9.9999998E-03; -1.8981707E-01;4348; -9.6667565E-02;  0.0000000E+00; -5.0665573E-03;  9.9357043E+02;  1.0000000E-01; -5.3267627E+03;3;  2.1700390E-01;  0.0000000E+00;  1.8850042E+00;0; -2.6547188E-01;  3.9427457E+04;  0.0000000E+00;  6.1903411E-01;  4.0000000E+04;  0.0000000E+00;  4.0062113E+04; -2.9194695E-01;  0.0000000E+00;  2.6475076E-02;  8.3689980E+03;
  3.1528059E-01;  9.9999998E-03; -1.7983164E-01;4349; -9.6970111E-02;  0.0000000E+00; -4.8173754E-03;  9.9403137E+02;  1.0000000E-01; -4.9448970E+03;3;  1.8012610E-01;  0.0000000E+00;  1.8389181E+00;0; -2.6263976E-01;  3.9462527E+04;  0.0000000E+00;  4.4615337E-01;  4.0000000E+04;  0.0000000E+00;  4.0063449E+04; -2.8859964E-01;  0.0000000E+00;  2.5959885E-02;  8.4747539E+03;
  3.1531587E-01;  9.9999998E-03; -1.6984856E-01;4350; -9.7326383E-02;  0.0000000E+00; -4.5485012E-03;  9.9453729E+02;  1.0000000E-01; -4.5257480E+03;3;  1.5339786E-01;  0.0000000E+00;  1.7885787E+00;0; -2.5989425E-01;  3.9501266E+04;  0.0000000E+00;  2.6658255E-01;  4.0000000E+04;  0.0000000E+00;  4.0064898E+04; -2.8558323E-01;  0.0000000E+00;  2.5688984E-02;  8.5882197E+03;
  3.1533286E-01;  9.9999998E-03; -1.5986788E-01;4351; -9.7728007E-02;  0.0000000E+00; -4.2546336E-03;  9.9505292E+02;  1.0000000E-01; -4.0985503E+03;3;  1.3529874E-01;  0.0000000E+00;  1.7339778E+00;0; -2.5724226E-01;  3.9541234E+04;  0.0000000E+00;  1.0557807E-01;  4.0000000E+04;  0.0000000E+00;  4.0065762E+04; -2.8284749E-01;  0.0000000E+00;  2.5605233E-02;  8.6610850E+03;
  3.1533360E-01;  9.9999998E-03; -1.4988834E-01;4352; -9.8162740E-02;  0.0000000E+00; -3.9329715E-03;  9.9553796E+02;  1.0000000E-01; -3.6967346E+03;3;  1.2567572E-01;  0.0000000E+00;  1.6699388E+00;0; -2.5469193E-01;  3.9579570E+04;  0.0000000E+00; -2.1797603E-02;  4.0000000E+04;  0.0000000E+00;  4.0066070E+04; -2.8033471E-01;  0.0000000E+00;  2.5642779E-02;  8.6512070E+03;
  3.1532237E-01;  9.9999998E-03; -1.3990736E-01;4353; -9.8616108E-02;  0.0000000E+00; -3.5858278E-03;  9.9596490E+02;  1.0000000E-01; -3.3430164E+03;3;  1.2998629E-01;  0.0000000E+00;  1.5817651E+00;0; -2.5226736E-01;  3.9614277E+04;  0.0000000E+00; -1.0848930E-01;  4.0000000E+04;  0.0000000E+00;  4.0065488E+04; -2.7799705E-01;  0.0000000E+00;  2.5729677E-02;  8.5355352E+03;
  3.1530210E-01;  9.9999998E-03; -1.2992314E-01;4354; -9.9070691E-02;  0.0000000E+00; -3.2205849E-03;  9.9631439E+02;  1.0000000E-01; -3.0534443E+03;3;  1.4185375E-01;  0.0000000E+00;  1.4843982E+00;0; -2.5001320E-01;  3.9643504E+04;  0.0000000E+00; -1.5508582E-01;  4.0000000E+04;  0.0000000E+00;  4.0063906E+04; -2.7580515E-01;  0.0000000E+00;  2.5791932E-02;  8.3160166E+03;
  3.1527579E-01;  9.9999998E-03; -1.1993485E-01;4355; -9.9507630E-02;  0.0000000E+00; -2.8513893E-03;  9.9656604E+02;  1.0000000E-01; -2.8449563E+03;3;  1.5827662E-01;  0.0000000E+00;  1.3806671E+00;0; -2.4799037E-01;  3.9665633E+04;  0.0000000E+00; -1.6809025E-01;  4.0000000E+04;  0.0000000E+00;  4.0061668E+04; -2.7375436E-01;  0.0000000E+00;  2.5763985E-02;  8.0169980E+03;
  3.1524581E-01;  9.9999998E-03; -1.0994206E-01;4356; -9.9910513E-02;  0.0000000E+00; -2.4934928E-03;  9.9671698E+02;  1.0000000E-01; -2.7199229E+03;3;  1.7632152E-01;  0.0000000E+00;  1.2765840E+00;0; -2.4625646E-01;  3.9680195E+04;  0.0000000E+00; -1.5719011E-01;  4.0000000E+04;  0.0000000E+00;  4.0059059E+04; -2.7185759E-01;  0.0000000E+00;  2.5601137E-02;  7.6795449E+03;
  3.2524520E-01;  9.9999998E-03; -1.0993794E-01;4417; -1.0255299E-01;  0.0000000E+00; -2.6574419E-03;  9.9683240E+02;  1.0000000E-01; -2.6243206E+03;3;  2.9042730E-01;  0.0000000E+00;  1.3963876E+00;0; -2.4337839E-01;  3.9691836E+04;  0.0000000E+00; -1.7375420E-01;  4.0000000E+04;  0.0000000E+00;  4.0057156E+04; -2.7074209E-01;  0.0000000E+00;  2.7363706E-02;  7.4194829E+03;
  3.2526955E-01;  9.9999998E-03; -1.1993351E-01;4416; -1.0219111E-01;  0.0000000E+00; -3.0282403E-03;  9.9675244E+02;  1.0000000E-01; -2.6905410E+03;3;  2.7251986E-01;  0.0000000E+00;  1.5045141E+00;0; -2.4483299E-01;  3.9683059E+04;  0.0000000E+00; -1.9895291E-01;  4.0000000E+04;  0.0000000E+00;  4.0059684E+04; -2.7247670E-01;  0.0000000E+00;  2.7643712E-02;  7.7440352E+03;
  3.2529238E-01;  9.9999998E-03; -1.2992541E-01;4415; -1.0179899E-01;  0.0000000E+00; -3.4188463E-03;  9.9657263E+02;  1.0000000E-01; -2.8395244E+03;3;  2.5366151E-01;  0.0000000E+00;  1.6182938E+00;0; -2.4658522E-01;  3.9666383E+04;  0.0000000E+00; -2.0798691E-01;  4.0000000E+04;  0.0000000E+00;  4.0062102E+04; -2.7437475E-01;  0.0000000E+00;  2.7789533E-02;  8.0555928E+03;
  3.2531166E-01;  9.9999998E-03; -1.3991348E-01;4414; -1.0139037E-01;  0.0000000E+00; -3.8163117E-03;  9.9629272E+02;  1.0000000E-01; -3.0714192E+03;3;  2.3738247E-01;  0.0000000E+00;  1.7307785E+00;0; -2.4858859E-01;  3.9642035E+04;  0.0000000E+00; -1.9129853E-01;  4.0000000E+04;  0.0000000E+00;  4.0063883E+04; -2.7641502E-01;  0.0000000E+00;  2.7826423E-02;  8.3114883E+03;
  3.2532522E-01;  9.9999998E-03; -1.4989834E-01;4413; -1.0098210E-01;  0.0000000E+00; -4.2078295E-03;  9.9591876E+02;  1.0000000E-01; -3.3812375E+03;3;  2.2902839E-01;  0.0000000E+00;  1.8332193E+00;0; -2.5078666E-01;  3.9611359E+04;  0.0000000E+00; -1.4068358E-01;  4.0000000E+04;  0.0000000E+00;  4.0065020E+04; -2.7858740E-01;  0.0000000E+00;  2.7800735E-02;  8.4812910E+03;
  3.2533115E-01;  9.9999998E-03; -1.5988114E-01;4412; -1.0059039E-01;  0.0000000E+00; -4.5822188E-03;  9.9547418E+02;  1.0000000E-01; -3.7495728E+03;3;  2.3293816E-01;  0.0000000E+00;  1.9151908E+00;0; -2.5312927E-01;  3.9575664E+04;  0.0000000E+00; -5.1745296E-02;  4.0000000E+04;  0.0000000E+00;  4.0065344E+04; -2.8090194E-01;  0.0000000E+00;  2.7772661E-02;  8.5531416E+03;
  3.2532680E-01;  9.9999998E-03; -1.6986385E-01;4411; -1.0022944E-01;  0.0000000E+00; -4.9336790E-03;  9.9498431E+02;  1.0000000E-01; -4.1553882E+03;3;  2.4875227E-01;  0.0000000E+00;  1.9837319E+00;0; -2.5557792E-01;  3.9537258E+04;  0.0000000E+00;  7.3835298E-02;  4.0000000E+04;  0.0000000E+00;  4.0064773E+04; -2.8338745E-01;  0.0000000E+00;  2.7809545E-02;  8.5379033E+03;
  3.2531020E-01;  9.9999998E-03; -1.7984816E-01;4410; -9.9909663E-02;  0.0000000E+00; -5.2597225E-03;  9.9448114E+02;  1.0000000E-01; -4.5722656E+03;3;  2.7491808E-01;  0.0000000E+00;  2.0383983E+00;0; -2.5810248E-01;  3.9498297E+04;  0.0000000E+00;  2.2696163E-01;  4.0000000E+04;  0.0000000E+00;  4.0063820E+04; -2.8608346E-01;  0.0000000E+00;  2.7980978E-02;  8.4659473E+03;
  3.2527924E-01;  9.9999998E-03; -1.8983455E-01;4409; -9.9638745E-02;  0.0000000E+00; -5.5629560E-03;  9.9399872E+02;  1.0000000E-01; -4.9719580E+03;3;  3.1088209E-01;  0.0000000E+00;  2.0906453E+00;0; -2.6067382E-01;  3.9461328E+04;  0.0000000E+00;  3.9146340E-01;  4.0000000E+04;  0.0000000E+00;  4.0062730E+04; -2.8902724E-01;  0.0000000E+00;  2.8353419E-02;  8.3765801E+03;
  3.2523534E-01;  9.9999998E-03; -1.9982302E-01;4408; -9.9420227E-02;  0.0000000E+00; -5.8486131E-03;  9.9356854E+02;  1.0000000E-01; -5.3283428E+03;3;  3.5758024E-01;  0.0000000E+00;  2.1401770E+00;0; -2.6326358E-01;  3.9428594E+04;  0.0000000E+00;  5.4230976E-01;  4.0000000E+04;  0.0000000E+00;  4.0061754E+04; -2.9224947E-01;  0.0000000E+00;  2.8985897E-02;  8.3045156E+03;
  3.2518122E-01;  9.9999998E-03; -2.0981221E-01;4407; -9.9251360E-02;  0.0000000E+00; -6.1197802E-03;  9.9322083E+02;  1.0000000E-01; -5.6164331E+03;3;  4.1244289E-01;  0.0000000E+00;  2.1809685E+00;0; -2.6585662E-01;  3.9401844E+04;  0.0000000E+00;  6.4920014E-01;  4.0000000E+04;  0.0000000E+00;  4.0061141E+04; -2.9577526E-01;  0.0000000E+00;  2.9918654E-02;  8.2836729E+03;
  3.2511768E-01;  9.9999998E-03; -2.1979925E-01;4406; -9.9123046E-02;  0.0000000E+00; -6.3993684E-03;  9.9297290E+02;  1.0000000E-01; -5.8218101E+03;3;  4.5840007E-01;  0.0000000E+00;  2.2032456E+00;0; -2.6843244E-01;  3.9382184E+04;  0.0000000E+00;  6.8673277E-01;  4.0000000E+04;  0.0000000E+00;  4.0061801E+04; -2.9962674E-01;  0.0000000E+00;  3.1194307E-02;  8.3945566E+03;
  3.2504606E-01;  9.9999998E-03; -2.2978318E-01;4405; -9.9017911E-02;  0.0000000E+00; -6.7407633E-03;  9.9284332E+02;  1.0000000E-01; -5.9291650E+03;3;  4.6287853E-01;  0.0000000E+00;  2.1905181E+00;0; -2.7085263E-01;  3.9369863E+04;  0.0000000E+00;  6.4053035E-01;  4.0000000E+04;  0.0000000E+00;  4.0065035E+04; -3.0383068E-01;  0.0000000E+00;  3.2978054E-02;  8.7929434E+03;
  3.2496196E-01;  9.9999998E-03; -2.3976967E-01;4404; -9.8910160E-02;  0.0000000E+00; -7.2586434E-03;  9.9282977E+02;  1.0000000E-01; -5.9403745E+03;3;  3.7656426E-01;  0.0000000E+00;  2.1334019E+00;0; -2.7242026E-01;  3.9364125E+04;  0.0000000E+00;  5.1020867E-01;  4.0000000E+04;  0.0000000E+00;  4.0070660E+04; -3.0841994E-01;  0.0000000E+00;  3.5999689E-02;  9.4841104E+03;
  3.2484895E-01;  9.9999998E-03; -2.4977227E-01;4403; -9.8777212E-02;  0.0000000E+00; -7.8489725E-03;  9.9283167E+02;  1.0000000E-01; -5.9388438E+03;3;  1.3874517E-01;  0.0000000E+00;  2.0306375E+00;0; -2.7285114E-01;  3.9364270E+04;  0.0000000E+00;  3.1821162E-01;  4.0000000E+04;  0.0000000E+00;  4.0072004E+04; -3.1344506E-01;  0.0000000E+00;  4.0593930E-02;  9.6238838E+03;
  3.2472691E-01;  9.9999998E-03; -2.5978309E-01;4402; -9.8633245E-02;  0.0000000E+00; -8.1944019E-03;  9.9279681E+02;  1.0000000E-01; -5.9676826E+03;3; -3.1699106E-01;  0.0000000E+00;  1.8967437E+00;0; -2.7439284E-01;  3.9368805E+04;  0.0000000E+00;  9.7546838E-02;  4.0000000E+04;  0.0000000E+00;  4.0065941E+04; -3.1892341E-01;  0.0000000E+00;  4.4530556E-02;  8.8594600E+03;
  3.2466957E-01;  9.9999998E-03; -2.6978955E-01;4401; -9.8522000E-02;  0.0000000E+00; -8.3449651E-03;  9.9277069E+02;  1.0000000E-01; -5.9893608E+03;3; -1.0189284E+00;  0.0000000E+00;  1.7498041E+00;0; -2.7853489E-01;  3.9375602E+04;  0.0000000E+00; -1.9735666E-01;  4.0000000E+04;  0.0000000E+00;  4.0058137E+04; -3.2480255E-01;  0.0000000E+00;  4.6267662E-02;  7.8927026E+03;
  3.3480731E-01;  9.9999998E-03; -2.6979950E-01;4462; -1.0154129E-01;  0.0000000E+00; -8.4414557E-03;  9.9272961E+02;  1.0000000E-01; -6.0233848E+03;3;  4.2549261E-01;  0.0000000E+00;  2.4886374E+00;0; -2.7103323E-01;  3.9374910E+04;  0.0000000E+00; -4.4607513E-02;  4.0000000E+04;  0.0000000E+00;  4.0054359E+04; -3.1388694E-01;  0.0000000E+00;  4.2853698E-02;  7.4195244E+03;
  3.3489138E-01;  9.9999998E-03; -2.5979754E-01;4463; -1.0163399E-01;  0.0000000E+00; -8.3257342E-03;  9.9276135E+02;  1.0000000E-01; -5.9970645E+03;3;  6.1293566E-01;  0.0000000E+00;  2.5131104E+00;0; -2.6755795E-01;  3.9370625E+04;  0.0000000E+00;  2.2152767E-01;  4.0000000E+04;  0.0000000E+00;  4.0060273E+04; -3.0961490E-01;  0.0000000E+00;  4.2056955E-02;  8.1660884E+03;
  3.3501822E-01;  9.9999998E-03; -2.4979232E-01;4464; -1.0176488E-01;  0.0000000E+00; -8.0815498E-03;  9.9283240E+02;  1.0000000E-01; -5.9382021E+03;3;  6.9656479E-01;  0.0000000E+00;  2.5230157E+00;0; -2.6608211E-01;  3.9370211E+04;  0.0000000E+00;  4.0987489E-01;  4.0000000E+04;  0.0000000E+00;  4.0065367E+04; -3.0552673E-01;  0.0000000E+00;  3.9444622E-02;  8.8119990E+03;
  3.3512458E-01;  9.9999998E-03; -2.3979333E-01;4465; -1.0188948E-01;  0.0000000E+00; -7.6389383E-03;  9.9290192E+02;  1.0000000E-01; -5.8806235E+03;3;  6.9795209E-01;  0.0000000E+00;  2.5181341E+00;0; -2.6567221E-01;  3.9374984E+04;  0.0000000E+00;  5.3189009E-01;  4.0000000E+04;  0.0000000E+00;  4.0065129E+04; -3.0167982E-01;  0.0000000E+00;  3.6007609E-02;  8.7944619E+03;
  3.3519229E-01;  9.9999998E-03; -2.2980729E-01;4466; -1.0199453E-01;  0.0000000E+00; -7.2080712E-03;  9.9300116E+02;  1.0000000E-01; -5.7984033E+03;3;  6.4921594E-01;  0.0000000E+00;  2.4972939E+00;0; -2.6455677E-01;  3.9385754E+04;  0.0000000E+00;  5.8240449E-01;  4.0000000E+04;  0.0000000E+00;  4.0061555E+04; -2.9807994E-01;  0.0000000E+00;  3.3523183E-02;  8.3309141E+03;
  3.3523646E-01;  9.9999998E-03; -2.1982217E-01;4467; -1.0209410E-01;  0.0000000E+00; -6.8888748E-03;  9.9320807E+02;  1.0000000E-01; -5.6270010E+03;3;  5.8106029E-01;  0.0000000E+00;  2.4586539E+00;0; -2.6271516E-01;  3.9402938E+04;  0.0000000E+00;  5.5981940E-01;  4.0000000E+04;  0.0000000E+00;  4.0059836E+04; -2.9470760E-01;  0.0000000E+00;  3.1992439E-02;  8.1078032E+03;
  3.3526850E-01;  9.9999998E-03; -2.0983277E-01;4468; -1.0221095E-01;  0.0000000E+00; -6.5975818E-03;  9.9351715E+02;  1.0000000E-01; -5.3709092E+03;3;  5.1240093E-01;  0.0000000E+00;  2.4134603E+00;0; -2.6063535E-01;  3.9426668E+04;  0.0000000E+00;  4.7467205E-01;  4.0000000E+04;  0.0000000E+00;  4.0060137E+04; -2.9155138E-01;  0.0000000E+00;  3.0916022E-02;  8.1009766E+03;
  3.3529553E-01;  9.9999998E-03; -1.9984122E-01;4469; -1.0236356E-01;  0.0000000E+00; -6.2949304E-03;  9.9390460E+02;  1.0000000E-01; -5.0499307E+03;3;  4.5471668E-01;  0.0000000E+00;  2.3611963E+00;0; -2.5843266E-01;  3.9456152E+04;  0.0000000E+00;  3.4625599E-01;  4.0000000E+04;  0.0000000E+00;  4.0060977E+04; -2.8860754E-01;  0.0000000E+00;  3.0174868E-02;  8.1585742E+03;
  3.3531564E-01;  9.9999998E-03; -1.8985061E-01;4470; -1.0255981E-01;  0.0000000E+00; -5.9679765E-03;  9.9434564E+02;  1.0000000E-01; -4.6845093E+03;3;  4.1006619E-01;  0.0000000E+00;  2.3022995E+00;0; -2.5614959E-01;  3.9490250E+04;  0.0000000E+00;  1.9910938E-01;  4.0000000E+04;  0.0000000E+00;  4.0061777E+04; -2.8587279E-01;  0.0000000E+00;  2.9723197E-02;  8.2224590E+03;
  3.3532670E-01;  9.9999998E-03; -1.7986235E-01;4471; -1.0280226E-01;  0.0000000E+00; -5.6169261E-03;  9.9481976E+02;  1.0000000E-01; -4.2917300E+03;3;  3.7627769E-01;  0.0000000E+00;  2.2397301E+00;0; -2.5383255E-01;  3.9526887E+04;  0.0000000E+00;  5.5588759E-02;  4.0000000E+04;  0.0000000E+00;  4.0062582E+04; -2.8333685E-01;  0.0000000E+00;  2.9504295E-02;  8.2751777E+03;
  3.3532941E-01;  9.9999998E-03; -1.6987585E-01;4472; -1.0308879E-01;  0.0000000E+00; -5.2425442E-03;  9.9529712E+02;  1.0000000E-01; -3.8962351E+03;3;  3.5099569E-01;  0.0000000E+00;  2.1777837E+00;0; -2.5152969E-01;  3.9564023E+04;  0.0000000E+00; -6.7532346E-02;  4.0000000E+04;  0.0000000E+00;  4.0063078E+04; -2.8097567E-01;  0.0000000E+00;  2.9445965E-02;  8.2945615E+03;
  3.3532497E-01;  9.9999998E-03; -1.5989017E-01;4473; -1.0341258E-01;  0.0000000E+00; -4.8482134E-03;  9.9574243E+02;  1.0000000E-01; -3.5273074E+03;3;  3.4059024E-01;  0.0000000E+00;  2.0970497E+00;0; -2.4929436E-01;  3.9599477E+04;  0.0000000E+00; -1.5893412E-01;  4.0000000E+04;  0.0000000E+00;  4.0062965E+04; -2.7876648E-01;  0.0000000E+00;  2.9472126E-02;  8.2524268E+03;
  3.3531466E-01;  9.9999998E-03; -1.4990398E-01;4474; -1.0376381E-01;  0.0000000E+00; -4.4339285E-03;  9.9612891E+02;  1.0000000E-01; -3.2071189E+03;3;  3.4217614E-01;  0.0000000E+00;  1.9982812E+00;0; -2.4717580E-01;  3.9631023E+04;  0.0000000E+00; -2.1417470E-01;  4.0000000E+04;  0.0000000E+00;  4.0062250E+04; -2.7668637E-01;  0.0000000E+00;  2.9510567E-02;  8.1294033E+03;
  3.3530051E-01;  9.9999998E-03; -1.3991559E-01;4475; -1.0412999E-01;  0.0000000E+00; -4.0114969E-03;  9.9643628E+02;  1.0000000E-01; -2.9524595E+03;3;  3.5536802E-01;  0.0000000E+00;  1.8851967E+00;0; -2.4522479E-01;  3.9656738E+04;  0.0000000E+00; -2.3535542E-01;  4.0000000E+04;  0.0000000E+00;  4.0060793E+04; -2.7472496E-01;  0.0000000E+00;  2.9500175E-02;  7.9242559E+03;
  3.3528367E-01;  9.9999998E-03; -1.2992416E-01;4476; -1.0449678E-01;  0.0000000E+00; -3.5935824E-03;  9.9664624E+02;  1.0000000E-01; -2.7785386E+03;3;  3.7290624E-01;  0.0000000E+00;  1.7647368E+00;0; -2.4349283E-01;  3.9675512E+04;  0.0000000E+00; -2.2909296E-01;  4.0000000E+04;  0.0000000E+00;  4.0058777E+04; -2.7288780E-01;  0.0000000E+00;  2.9394966E-02;  7.6550371E+03;
  3.3526576E-01;  9.9999998E-03; -1.1992937E-01;4477; -1.0485003E-01;  0.0000000E+00; -3.1925854E-03;  9.9675696E+02;  1.0000000E-01; -2.6867881E+03;3;  3.9424509E-01;  0.0000000E+00;  1.6419435E+00;0; -2.4202901E-01;  3.9686680E+04;  0.0000000E+00; -2.0415446E-01;  4.0000000E+04;  0.0000000E+00;  4.0056398E+04; -2.7119610E-01;  0.0000000E+00;  2.9167082E-02;  7.3544531E+03;
  3.3524796E-01;  9.9999998E-03; -1.0993195E-01;4478; -1.0517824E-01;  0.0000000E+00; -2.8167097E-03;  9.9677197E+02;  1.0000000E-01; -2.6743440E+03;3;  4.1614732E-01;  0.0000000E+00;  1.5236506E+00;0; -2.4086851E-01;  3.9689863E+04;  0.0000000E+00; -1.6937113E-01;  4.0000000E+04;  0.0000000E+00;  4.0054211E+04; -2.6967731E-01;  0.0000000E+00;  2.8808797E-02;  7.0636108E+03;
  3.4495309E-01;  9.9999998E-03; -2.6981005E-01;4523; -1.0443725E-01;  0.0000000E+00; -8.4919548E-03;  9.9266852E+02;  1.0000000E-01; -6.0740005E+03;3;  1.0335610E+00;  0.0000000E+00;  2.8751328E+00;0; -2.6486206E-01;  3.9370738E+04;  0.0000000E+00;  1.5910207E-01;  4.0000000E+04;  0.0000000E+00;  4.0052363E+04; -3.0444679E-01;  0.0000000E+00;  3.9584719E-02;  7.1774888E+03;
  3.4505102E-01;  9.9999998E-03; -2.5981233E-01;4524; -1.0452941E-01;  0.0000000E+00; -8.3858157E-03;  9.9272791E+02;  1.0000000E-01; -6.0248169E+03;3;  9.9347913E-01;  0.0000000E+00;  2.8534610E+00;0; -2.6193744E-01;  3.9370715E+04;  0.0000000E+00;  3.4199199E-01;  4.0000000E+04;  0.0000000E+00;  4.0056242E+04; -3.0134079E-01;  0.0000000E+00;  3.9403342E-02;  7.6759956E+03;
  3.4517291E-01;  9.9999998E-03; -2.4981272E-01;4525; -1.0465836E-01;  0.0000000E+00; -8.2049193E-03;  9.9283862E+02;  1.0000000E-01; -5.9330664E+03;3;  9.2526716E-01;  0.0000000E+00;  2.8220108E+00;0; -2.6047224E-01;  3.9375379E+04;  0.0000000E+00;  4.5485514E-01;  4.0000000E+04;  0.0000000E+00;  4.0059910E+04; -2.9829034E-01;  0.0000000E+00;  3.7818089E-02;  8.1294858E+03;
  3.4526795E-01;  9.9999998E-03; -2.3981804E-01;4526; -1.0478516E-01;  0.0000000E+00; -7.8703854E-03;  9.9296967E+02;  1.0000000E-01; -5.8244766E+03;3;  8.4183258E-01;  0.0000000E+00;  2.7835200E+00;0; -2.5997198E-01;  3.9385113E+04;  0.0000000E+00;  5.0269359E-01;  4.0000000E+04;  0.0000000E+00;  4.0060035E+04; -2.9534855E-01;  0.0000000E+00;  3.5376567E-02;  8.1328115E+03;
  3.4531736E-01;  9.9999998E-03; -2.2983220E-01;4527; -1.0489365E-01;  0.0000000E+00; -7.5301090E-03;  9.9314355E+02;  1.0000000E-01; -5.6804316E+03;3;  7.5610906E-01;  0.0000000E+00;  2.7353778E+00;0; -2.5903848E-01;  3.9400340E+04;  0.0000000E+00;  4.9041012E-01;  4.0000000E+04;  0.0000000E+00;  4.0057840E+04; -2.9253879E-01;  0.0000000E+00;  3.3500321E-02;  7.8566045E+03;
  3.4533769E-01;  9.9999998E-03; -2.1984474E-01;4528; -1.0499478E-01;  0.0000000E+00; -7.2400793E-03;  9.9340997E+02;  1.0000000E-01; -5.4596973E+03;3;  6.7662555E-01;  0.0000000E+00;  2.6883776E+00;0; -2.5758970E-01;  3.9421113E+04;  0.0000000E+00;  4.2508325E-01;  4.0000000E+04;  0.0000000E+00;  4.0057578E+04; -2.8985712E-01;  0.0000000E+00;  3.2267425E-02;  7.7922012E+03;
  3.4534547E-01;  9.9999998E-03; -2.0985173E-01;4529; -1.0510818E-01;  0.0000000E+00; -6.9427728E-03;  9.9375531E+02;  1.0000000E-01; -5.1736309E+03;3;  6.0891819E-01;  0.0000000E+00;  2.6381783E+00;0; -2.5589615E-01;  3.9447266E+04;  0.0000000E+00;  3.2003501E-01;  4.0000000E+04;  0.0000000E+00;  4.0058438E+04; -2.8730550E-01;  0.0000000E+00;  3.1409338E-02;  7.8650142E+03;
  3.4534749E-01;  9.9999998E-03; -1.9985679E-01;4530; -1.0525001E-01;  0.0000000E+00; -6.6164597E-03;  9.9415363E+02;  1.0000000E-01; -4.8436157E+03;3;  5.5504113E-01;  0.0000000E+00;  2.5770190E+00;0; -2.5402120E-01;  3.9477750E+04;  0.0000000E+00;  1.9304802E-01;  4.0000000E+04;  0.0000000E+00;  4.0059391E+04; -2.8489065E-01;  0.0000000E+00;  3.0869463E-02;  7.9291172E+03;
  3.4534594E-01;  9.9999998E-03; -1.8986347E-01;4531; -1.0542887E-01;  0.0000000E+00; -6.2611937E-03;  9.9458563E+02;  1.0000000E-01; -4.4857002E+03;3;  5.1285285E-01;  0.0000000E+00;  2.5147331E+00;0; -2.5200891E-01;  3.9511258E+04;  0.0000000E+00;  6.1639231E-02;  4.0000000E+04;  0.0000000E+00;  4.0059875E+04; -2.8261340E-01;  0.0000000E+00;  3.0604491E-02;  7.9566309E+03;
  3.4534064E-01;  9.9999998E-03; -1.7987266E-01;4532; -1.0564730E-01;  0.0000000E+00; -5.8787460E-03;  9.9502747E+02;  1.0000000E-01; -4.1196362E+03;3;  4.8293197E-01;  0.0000000E+00;  2.4457104E+00;0; -2.4992368E-01;  3.9546055E+04;  0.0000000E+00; -5.8050331E-02;  4.0000000E+04;  0.0000000E+00;  4.0060137E+04; -2.8046650E-01;  0.0000000E+00;  3.0542828E-02;  7.9539937E+03;
  3.4533170E-01;  9.9999998E-03; -1.6988347E-01;4533; -1.0590442E-01;  0.0000000E+00; -5.4712738E-03;  9.9545764E+02;  1.0000000E-01; -3.7632512E+03;3;  4.6327868E-01;  0.0000000E+00;  2.3684378E+00;0; -2.4783674E-01;  3.9579859E+04;  0.0000000E+00; -1.5292303E-01;  4.0000000E+04;  0.0000000E+00;  4.0060109E+04; -2.7843854E-01;  0.0000000E+00;  3.0601796E-02;  7.9130391E+03;
  3.4532014E-01;  9.9999998E-03; -1.5989479E-01;4534; -1.0619482E-01;  0.0000000E+00; -5.0458768E-03;  9.9584149E+02;  1.0000000E-01; -3.4452356E+03;3;  4.5844522E-01;  0.0000000E+00;  2.2742760E+00;0; -2.4581555E-01;  3.9610980E+04;  0.0000000E+00; -2.1539608E-01;  4.0000000E+04;  0.0000000E+00;  4.0059594E+04; -2.7651486E-01;  0.0000000E+00;  3.0699318E-02;  7.8162407E+03;
  3.4530652E-01;  9.9999998E-03; -1.4990550E-01;4535; -1.0650981E-01;  0.0000000E+00; -4.6098423E-03;  9.9616083E+02;  1.0000000E-01; -3.1807000E+03;3;  4.6437854E-01;  0.0000000E+00;  2.1687307E+00;0; -2.4392720E-01;  3.9637488E+04;  0.0000000E+00; -2.4429733E-01;  4.0000000E+04;  0.0000000E+00;  4.0058457E+04; -2.7469063E-01;  0.0000000E+00;  3.0763427E-02;  7.6532354E+03;
  3.4529275E-01;  9.9999998E-03; -1.3991430E-01;4536; -1.0683885E-01;  0.0000000E+00; -4.1727517E-03;  9.9639880E+02;  1.0000000E-01; -2.9835203E+03;3;  4.8163104E-01;  0.0000000E+00;  2.0453506E+00;0; -2.4222931E-01;  3.9657852E+04;  0.0000000E+00; -2.4393788E-01;  4.0000000E+04;  0.0000000E+00;  4.0056852E+04; -2.7296969E-01;  0.0000000E+00;  3.0740380E-02;  7.4290957E+03;
  3.4527943E-01;  9.9999998E-03; -1.2992042E-01;4537; -1.0717016E-01;  0.0000000E+00; -3.7473547E-03;  9.9654132E+02;  1.0000000E-01; -2.8654497E+03;3;  5.0231856E-01;  0.0000000E+00;  1.9175951E+00;0; -2.4077234E-01;  3.9671164E+04;  0.0000000E+00; -2.2191510E-01;  4.0000000E+04;  0.0000000E+00;  4.0054805E+04; -2.7137032E-01;  0.0000000E+00;  3.0597990E-02;  7.1646118E+03;
  3.4526715E-01;  9.9999998E-03; -1.1992386E-01;4538; -1.0749186E-01;  0.0000000E+00; -3.3450196E-03;  9.9659106E+02;  1.0000000E-01; -2.8242163E+03;3;  5.2714539E-01;  0.0000000E+00;  1.7868819E+00;0; -2.3959582E-01;  3.9677109E+04;  0.0000000E+00; -1.8687212E-01;  4.0000000E+04;  0.0000000E+00;  4.0052699E+04; -2.6992044E-01;  0.0000000E+00;  3.0324629E-02;  6.8917700E+03;
  3.4525636E-01;  9.9999998E-03; -1.0992556E-01;4539; -1.0779454E-01;  0.0000000E+00; -2.9724545E-03;  9.9654755E+02;  1.0000000E-01; -2.8603140E+03;3;  5.5414474E-01;  0.0000000E+00;  1.6521189E+00;0; -2.3872221E-01;  3.9675617E+04;  0.0000000E+00; -1.4673179E-01;  4.0000000E+04;  0.0000000E+00;  4.0050730E+04; -2.6865014E-01;  0.0000000E+00;  2.9927939E-02;  6.6477217E+03;
  3.5507563E-01;  9.9999998E-03; -2.6982060E-01;4584; -1.0724637E-01;  0.0000000E+00; -8.5049067E-03;  9.9259216E+02;  1.0000000E-01; -6.1372583E+03;3;  1.2294211E+00;  0.0000000E+00;  3.1006856E+00;0; -2.5963217E-01;  3.9363652E+04;  0.0000000E+00;  2.4654137E-01;  4.0000000E+04;  0.0000000E+00;  4.0051910E+04; -2.9631856E-01;  0.0000000E+00;  3.6686406E-02;  7.1371699E+03;
  3.5517403E-01;  9.9999998E-03; -2.5982648E-01;4585; -1.0734560E-01;  0.0000000E+00; -8.3790664E-03;  9.9268750E+02;  1.0000000E-01; -6.0582480E+03;3;  1.1250997E+00;  0.0000000E+00;  3.0707331E+00;0; -2.5730085E-01;  3.9368816E+04;  0.0000000E+00;  3.5887590E-01;  4.0000000E+04;  0.0000000E+00;  4.0053938E+04; -2.9403737E-01;  0.0000000E+00;  3.6736533E-02;  7.3874971E+03;
  3.5528478E-01;  9.9999998E-03; -2.4983215E-01;4586; -1.0747647E-01;  0.0000000E+00; -8.2213907E-03;  9.9283484E+02;  1.0000000E-01; -5.9361772E+03;3;  1.0239547E+00;  0.0000000E+00;  3.0315199E+00;0; -2.5590122E-01;  3.9378266E+04;  0.0000000E+00;  4.1646057E-01;  4.0000000E+04;  0.0000000E+00;  4.0055734E+04; -2.9174936E-01;  0.0000000E+00;  3.5848148E-02;  7.6035264E+03;
  3.5536808E-01;  9.9999998E-03; -2.3984113E-01;4587; -1.0760766E-01;  0.0000000E+00; -7.9734251E-03;  9.9301672E+02;  1.0000000E-01; -5.7855151E+03;3;  9.2808974E-01;  0.0000000E+00;  2.9965601E+00;0; -2.5518915E-01;  3.9392285E+04;  0.0000000E+00;  4.2271128E-01;  4.0000000E+04;  0.0000000E+00;  4.0055777E+04; -2.8950047E-01;  0.0000000E+00;  3.4311324E-02;  7.5930195E+03;
  3.5540602E-01;  9.9999998E-03; -2.2985464E-01;4588; -1.0772303E-01;  0.0000000E+00; -7.7077090E-03;  9.9324615E+02;  1.0000000E-01; -5.5954463E+03;3;  8.4112042E-01;  0.0000000E+00;  2.9605620E+00;0; -2.5430340E-01;  3.9411027E+04;  0.0000000E+00;  3.8360885E-01;  4.0000000E+04;  0.0000000E+00;  4.0054914E+04; -2.8731835E-01;  0.0000000E+00;  3.3014942E-02;  7.4702603E+03;
  3.5541582E-01;  9.9999998E-03; -2.1986437E-01;4589; -1.0783090E-01;  0.0000000E+00; -7.4471286E-03;  9.9354779E+02;  1.0000000E-01; -5.3455273E+03;3;  7.6727331E-01;  0.0000000E+00;  2.9129186E+00;0; -2.5310987E-01;  3.9434023E+04;  0.0000000E+00;  3.0748522E-01;  4.0000000E+04;  0.0000000E+00;  4.0055578E+04; -2.8520662E-01;  0.0000000E+00;  3.2096758E-02;  7.5181416E+03;
  3.5540986E-01;  9.9999998E-03; -2.0986797E-01;4590; -1.0794637E-01;  0.0000000E+00; -7.1505178E-03;  9.9390717E+02;  1.0000000E-01; -5.0478076E+03;3;  7.0631206E-01;  0.0000000E+00;  2.8565426E+00;0; -2.5170389E-01;  3.9460977E+04;  0.0000000E+00;  2.0599133E-01;  4.0000000E+04;  0.0000000E+00;  4.0056758E+04; -2.8317195E-01;  0.0000000E+00;  3.1468071E-02;  7.6217822E+03;
  3.5539553E-01;  9.9999998E-03; -1.9986977E-01;4591; -1.0808302E-01;  0.0000000E+00; -6.8132854E-03;  9.9429474E+02;  1.0000000E-01; -4.7266807E+03;3;  6.5723610E-01;  0.0000000E+00;  2.7952597E+00;0; -2.5008693E-01;  3.9490898E+04;  0.0000000E+00;  9.2222780E-02;  4.0000000E+04;  0.0000000E+00;  4.0057211E+04; -2.8121942E-01;  0.0000000E+00;  3.1132493E-02;  7.6577314E+03;
  3.5537764E-01;  9.9999998E-03; -1.8987341E-01;4592; -1.0824896E-01;  0.0000000E+00; -6.4437683E-03;  9.9469440E+02;  1.0000000E-01; -4.3955791E+03;3;  6.2174016E-01;  0.0000000E+00;  2.7229567E+00;0; -2.4830204E-01;  3.9522445E+04;  0.0000000E+00; -1.9515339E-02;  4.0000000E+04;  0.0000000E+00;  4.0057418E+04; -2.7935043E-01;  0.0000000E+00;  3.1048393E-02;  7.6272578E+03;
  3.5535881E-01;  9.9999998E-03; -1.7987967E-01;4593; -1.0844792E-01;  0.0000000E+00; -6.0439985E-03;  9.9508832E+02;  1.0000000E-01; -4.0692180E+03;3;  5.9777099E-01;  0.0000000E+00;  2.6460230E+00;0; -2.4642488E-01;  3.9554023E+04;  0.0000000E+00; -1.1581273E-01;  4.0000000E+04;  0.0000000E+00;  4.0056996E+04; -2.7756071E-01;  0.0000000E+00;  3.1135822E-02;  7.5570059E+03;
  3.5534036E-01;  9.9999998E-03; -1.6988768E-01;4594; -1.0867995E-01;  0.0000000E+00; -5.6223967E-03;  9.9545929E+02;  1.0000000E-01; -3.7618687E+03;3;  5.8626562E-01;  0.0000000E+00;  2.5525506E+00;0; -2.4453887E-01;  3.9583715E+04;  0.0000000E+00; -1.8651369E-01;  4.0000000E+04;  0.0000000E+00;  4.0056348E+04; -2.7584571E-01;  0.0000000E+00;  3.1306840E-02;  7.4521792E+03;
  3.5532331E-01;  9.9999998E-03; -1.5989637E-01;4595; -1.0894152E-01;  0.0000000E+00; -5.1845573E-03;  9.9577460E+02;  1.0000000E-01; -3.5006414E+03;3;  5.8737409E-01;  0.0000000E+00;  2.4482584E+00;0; -2.4272633E-01;  3.9609891E+04;  0.0000000E+00; -2.2664994E-01;  4.0000000E+04;  0.0000000E+00;  4.0055500E+04; -2.7420321E-01;  0.0000000E+00;  3.1476885E-02;  7.3051689E+03;
  3.5530752E-01;  9.9999998E-03; -1.4990470E-01;4596; -1.0922551E-01;  0.0000000E+00; -4.7400021E-03;  9.9602710E+02;  1.0000000E-01; -3.2914622E+03;3;  5.9762138E-01;  0.0000000E+00;  2.3319924E+00;0; -2.4106318E-01;  3.9631059E+04;  0.0000000E+00; -2.3691122E-01;  4.0000000E+04;  0.0000000E+00;  4.0054039E+04; -2.7264026E-01;  0.0000000E+00;  3.1577084E-02;  7.1122617E+03;
  3.5529414E-01;  9.9999998E-03; -1.3991152E-01;4597; -1.0952322E-01;  0.0000000E+00; -4.3016849E-03;  9.9619519E+02;  1.0000000E-01; -3.1522068E+03;3;  6.1672401E-01;  0.0000000E+00;  2.2053349E+00;0; -2.3961022E-01;  3.9646324E+04;  0.0000000E+00; -2.2252759E-01;  4.0000000E+04;  0.0000000E+00;  4.0052383E+04; -2.7117202E-01;  0.0000000E+00;  3.1561799E-02;  6.8817280E+03;
  3.5528404E-01;  9.9999998E-03; -1.2991633E-01;4598; -1.0982588E-01;  0.0000000E+00; -3.8801243E-03;  9.9627979E+02;  1.0000000E-01; -3.0821348E+03;3;  6.4235187E-01;  0.0000000E+00;  2.0685220E+00;0; -2.3841381E-01;  3.9654676E+04;  0.0000000E+00; -1.9125590E-01;  4.0000000E+04;  0.0000000E+00;  4.0050457E+04; -2.6982498E-01;  0.0000000E+00;  3.1411171E-02;  6.6342573E+03;
  3.5527733E-01;  9.9999998E-03; -1.1991927E-01;4599; -1.1012401E-01;  0.0000000E+00; -3.4851488E-03;  9.9627521E+02;  1.0000000E-01; -3.0859373E+03;3;  6.7190474E-01;  0.0000000E+00;  1.9281981E+00;0; -2.3750407E-01;  3.9656242E+04;  0.0000000E+00; -1.5129121E-01;  4.0000000E+04;  0.0000000E+00;  4.0048438E+04; -2.6863134E-01;  0.0000000E+00;  3.1127276E-02;  6.3987539E+03;
  3.5527357E-01;  9.9999998E-03; -1.0992101E-01;4600; -1.1040997E-01;  0.0000000E+00; -3.1219316E-03;  9.9619171E+02;  1.0000000E-01; -3.1550710E+03;3;  7.0239866E-01;  0.0000000E+00;  1.7876084E+00;0; -2.3688993E-01;  3.9651078E+04;  0.0000000E+00; -1.0969818E-01;  4.0000000E+04;  0.0000000E+00;  4.0047000E+04; -2.6762000E-01;  0.0000000E+00;  3.0730067E-02;  6.2070425E+03;
  3.6516553E-01;  9.9999998E-03; -2.6983044E-01;4645; -1.1000837E-01;  0.0000000E+00; -8.4760655E-03;  9.9249573E+02;  1.0000000E-01; -6.2171572E+03;3;  1.2928896E+00;  0.0000000E+00;  3.2801116E+00;0; -2.5516933E-01;  3.9353746E+04;  0.0000000E+00;  2.1450675E-01;  4.0000000E+04;  0.0000000E+00;  4.0052844E+04; -2.8930250E-01;  0.0000000E+00;  3.4133166E-02;  7.2629756E+03;
  3.6525485E-01;  9.9999998E-03; -2.5983915E-01;4646; -1.1011121E-01;  0.0000000E+00; -8.3177714E-03;  9.9262677E+02;  1.0000000E-01; -6.1085674E+03;3;  1.1862587E+00;  0.0000000E+00;  3.2588508E+00;0; -2.5340167E-01;  3.9363621E+04;  0.0000000E+00;  2.9152444E-01;  4.0000000E+04;  0.0000000E+00;  4.0053199E+04; -2.8761500E-01;  0.0000000E+00;  3.4213327E-02;  7.2952979E+03;
  3.6534953E-01;  9.9999998E-03; -2.4984935E-01;4647; -1.1024084E-01;  0.0000000E+00; -8.1520705E-03;  9.9280090E+02;  1.0000000E-01; -5.9643247E+03;3;  1.0892736E+00;  0.0000000E+00;  3.2288351E+00;0; -2.5215843E-01;  3.9377285E+04;  0.0000000E+00;  3.2777974E-01;  4.0000000E+04;  0.0000000E+00;  4.0053082E+04; -2.8589845E-01;  0.0000000E+00;  3.3740014E-02;  7.2689307E+03;
  3.6541975E-01;  9.9999998E-03; -2.3986129E-01;4648; -1.1037334E-01;  0.0000000E+00; -7.9632699E-03;  9.9301697E+02;  1.0000000E-01; -5.7853174E+03;3;  1.0014329E+00;  0.0000000E+00;  3.1978645E+00;0; -2.5122985E-01;  3.9394496E+04;  0.0000000E+00;  3.2484031E-01;  4.0000000E+04;  0.0000000E+00;  4.0052785E+04; -2.8418735E-01;  0.0000000E+00;  3.2957491E-02;  7.2129331E+03;
  3.6545438E-01;  9.9999998E-03; -2.2987348E-01;4649; -1.1049600E-01;  0.0000000E+00; -7.7550476E-03;  9.9328369E+02;  1.0000000E-01; -5.5643359E+03;3;  9.2443460E-01;  0.0000000E+00;  3.1611822E+00;0; -2.5031391E-01;  3.9415324E+04;  0.0000000E+00;  2.8638184E-01;  4.0000000E+04;  0.0000000E+00;  4.0052859E+04; -2.8250316E-01;  0.0000000E+00;  3.2189261E-02;  7.2062690E+03;
  3.6546457E-01;  9.9999998E-03; -2.1988028E-01;4650; -1.1061309E-01;  0.0000000E+00; -7.5177923E-03;  9.9360236E+02;  1.0000000E-01; -5.3003438E+03;3;  8.5505158E-01;  0.0000000E+00;  3.1274347E+00;0; -2.4927305E-01;  3.9439301E+04;  0.0000000E+00;  2.1879858E-01;  4.0000000E+04;  0.0000000E+00;  4.0054078E+04; -2.8085214E-01;  0.0000000E+00;  3.1579096E-02;  7.3168696E+03;
  3.6545616E-01;  9.9999998E-03; -2.0988140E-01;4651; -1.1073358E-01;  0.0000000E+00; -7.2275479E-03;  9.9395203E+02;  1.0000000E-01; -5.0106235E+03;3;  8.0160427E-01;  0.0000000E+00;  3.0724382E+00;0; -2.4805963E-01;  3.9466000E+04;  0.0000000E+00;  1.3182019E-01;  4.0000000E+04;  0.0000000E+00;  4.0055031E+04; -2.7924144E-01;  0.0000000E+00;  3.1181820E-02;  7.4015859E+03;
  3.6543646E-01;  9.9999998E-03; -1.9988082E-01;4652; -1.1086863E-01;  0.0000000E+00; -6.8925950E-03;  9.9430951E+02;  1.0000000E-01; -4.7144834E+03;3;  7.6089334E-01;  0.0000000E+00;  3.0030305E+00;0; -2.4663159E-01;  3.9494203E+04;  0.0000000E+00;  3.7201602E-02;  4.0000000E+04;  0.0000000E+00;  4.0055113E+04; -2.7767503E-01;  0.0000000E+00;  3.1043448E-02;  7.3802134E+03;
  3.6541146E-01;  9.9999998E-03; -1.8988186E-01;4653; -1.1102613E-01;  0.0000000E+00; -6.5214750E-03;  9.9466583E+02;  1.0000000E-01; -4.4192329E+03;3;  7.3204392E-01;  0.0000000E+00;  2.9291418E+00;0; -2.4502884E-01;  3.9522816E+04;  0.0000000E+00; -5.2791137E-02;  4.0000000E+04;  0.0000000E+00;  4.0054520E+04; -2.7615255E-01;  0.0000000E+00;  3.1123711E-02;  7.2779785E+03;
  3.6538470E-01;  9.9999998E-03; -1.7988534E-01;4654; -1.1120944E-01;  0.0000000E+00; -6.1216019E-03;  9.9500427E+02;  1.0000000E-01; -4.1388457E+03;3;  7.1654814E-01;  0.0000000E+00;  2.8401136E+00;0; -2.4333134E-01;  3.9550500E+04;  0.0000000E+00; -1.2716262E-01;  4.0000000E+04;  0.0000000E+00;  4.0053578E+04; -2.7467456E-01;  0.0000000E+00;  3.1343214E-02;  7.1351035E+03;
  3.6535951E-01;  9.9999998E-03; -1.6989082E-01;4655; -1.1142083E-01;  0.0000000E+00; -5.6996341E-03;  9.9530688E+02;  1.0000000E-01; -3.8881367E+03;3;  7.1136105E-01;  0.0000000E+00;  2.7402608E+00;0; -2.4163055E-01;  3.9575668E+04;  0.0000000E+00; -1.7797840E-01;  4.0000000E+04;  0.0000000E+00;  4.0052449E+04; -2.7324343E-01;  0.0000000E+00;  3.1612873E-02;  6.9675923E+03;
  3.6533833E-01;  9.9999998E-03; -1.5989746E-01;4656; -1.1165794E-01;  0.0000000E+00; -5.2650264E-03;  9.9555981E+02;  1.0000000E-01; -3.6786118E+03;3;  7.1890455E-01;  0.0000000E+00;  2.6240914E+00;0; -2.4001341E-01;  3.9596988E+04;  0.0000000E+00; -2.0179850E-01;  4.0000000E+04;  0.0000000E+00;  4.0051012E+04; -2.7186400E-01;  0.0000000E+00;  3.1850591E-02;  6.7760522E+03;
  3.6532134E-01;  9.9999998E-03; -1.4990413E-01;4657; -1.1191647E-01;  0.0000000E+00; -4.8268693E-03;  9.9574438E+02;  1.0000000E-01; -3.5256777E+03;3;  7.3598152E-01;  0.0000000E+00;  2.4964726E+00;0; -2.3856077E-01;  3.9613156E+04;  0.0000000E+00; -1.9999936E-01;  4.0000000E+04;  0.0000000E+00;  4.0049355E+04; -2.7055350E-01;  0.0000000E+00;  3.1992737E-02;  6.5613813E+03;
  3.6530861E-01;  9.9999998E-03; -1.3990992E-01;4658; -1.1218999E-01;  0.0000000E+00; -4.3991576E-03;  9.9585669E+02;  1.0000000E-01; -3.4326433E+03;3;  7.5951672E-01;  0.0000000E+00;  2.3642685E+00;0; -2.3733214E-01;  3.9623598E+04;  0.0000000E+00; -1.7787379E-01;  4.0000000E+04;  0.0000000E+00;  4.0047785E+04; -2.6933390E-01;  0.0000000E+00;  3.2001760E-02;  6.3328940E+03;
  3.6530152E-01;  9.9999998E-03; -1.2991442E-01;4659; -1.1247155E-01;  0.0000000E+00; -3.9923890E-03;  9.9588922E+02;  1.0000000E-01; -3.4056812E+03;3;  7.9094201E-01;  0.0000000E+00;  2.2205529E+00;0; -2.3636746E-01;  3.9628027E+04;  0.0000000E+00; -1.4285432E-01;  4.0000000E+04;  0.0000000E+00;  4.0045871E+04; -2.6823539E-01;  0.0000000E+00;  3.1867918E-02;  6.1089438E+03;
  3.6529988E-01;  9.9999998E-03; -1.1991771E-01;4660; -1.1275394E-01;  0.0000000E+00; -3.6128259E-03;  9.9584784E+02;  1.0000000E-01; -3.4400012E+03;3;  8.2516152E-01;  0.0000000E+00;  2.0753934E+00;0; -2.3568639E-01;  3.9626215E+04;  0.0000000E+00; -1.0251121E-01;  4.0000000E+04;  0.0000000E+00;  4.0044430E+04; -2.6729050E-01;  0.0000000E+00;  3.1604119E-02;  5.9139312E+03;
  3.6530298E-01;  9.9999998E-03; -1.0992014E-01;4661; -1.1303134E-01;  0.0000000E+00; -3.2632996E-03;  9.9574194E+02;  1.0000000E-01; -3.5277024E+03;3;  8.6247885E-01;  0.0000000E+00;  1.9207355E+00;0; -2.3528771E-01;  3.9618941E+04;  0.0000000E+00; -6.3138999E-02;  4.0000000E+04;  0.0000000E+00;  4.0043211E+04; -2.6652700E-01;  0.0000000E+00;  3.1239288E-02;  5.7733472E+03;
  3.7522921E-01;  9.9999998E-03; -2.6983908E-01;4706; -1.1275408E-01;  0.0000000E+00; -8.4136641E-03;  9.9237103E+02;  1.0000000E-01; -6.3204629E+03;3;  1.3323745E+00;  0.0000000E+00;  3.4555869E+00;0; -2.5127417E-01;  3.9340371E+04;  0.0000000E+00;  1.3447145E-01;  4.0000000E+04;  0.0000000E+00;  4.0055023E+04; -2.8324920E-01;  0.0000000E+00;  3.1975035E-02;  7.5309385E+03;
  3.7530452E-01;  9.9999998E-03; -2.5984964E-01;4707; -1.1285272E-01;  0.0000000E+00; -8.2145836E-03;  9.9253168E+02;  1.0000000E-01; -6.1873799E+03;3;  1.2357075E+00;  0.0000000E+00;  3.4352238E+00;0; -2.5007197E-01;  3.9354117E+04;  0.0000000E+00;  1.9812405E-01;  4.0000000E+04;  0.0000000E+00;  4.0054031E+04; -2.8200182E-01;  0.0000000E+00;  3.1929847E-02;  7.3975054E+03;
  3.7538031E-01;  9.9999998E-03; -2.4986316E-01;4708; -1.1297497E-01;  0.0000000E+00; -8.0157937E-03;  9.9271942E+02;  1.0000000E-01; -6.0318291E+03;3;  1.1469029E+00;  0.0000000E+00;  3.4166026E+00;0; -2.4908885E-01;  3.9370781E+04;  0.0000000E+00;  2.3078507E-01;  4.0000000E+04;  0.0000000E+00;  4.0052148E+04; -2.8071702E-01;  0.0000000E+00;  3.1628154E-02;  7.1538315E+03;
  3.7544000E-01;  9.9999998E-03; -2.3987734E-01;4709; -1.1310426E-01;  0.0000000E+00; -7.8595160E-03;  9.9295422E+02;  1.0000000E-01; -5.8373159E+03;3;  1.0676192E+00;  0.0000000E+00;  3.3905182E+00;0; -2.4797407E-01;  3.9390219E+04;  0.0000000E+00;  2.3173830E-01;  4.0000000E+04;  0.0000000E+00;  4.0051297E+04; -2.7941653E-01;  0.0000000E+00;  3.1442456E-02;  7.0219150E+03;
  3.7547448E-01;  9.9999998E-03; -2.2988854E-01;4710; -1.1323058E-01;  0.0000000E+00; -7.6898555E-03;  9.9323895E+02;  1.0000000E-01; -5.6014214E+03;3;  9.9939525E-01;  0.0000000E+00;  3.3579392E+00;0; -2.4697804E-01;  3.9412039E+04;  0.0000000E+00;  2.0377463E-01;  4.0000000E+04;  0.0000000E+00;  4.0051766E+04; -2.7811670E-01;  0.0000000E+00;  3.1138655E-02;  7.0621748E+03;
  3.7548774E-01;  9.9999998E-03; -2.1989357E-01;4711; -1.1335422E-01;  0.0000000E+00; -7.4676005E-03;  9.9355676E+02;  1.0000000E-01; -5.3381201E+03;3;  9.4249451E-01;  0.0000000E+00;  3.3215771E+00;0; -2.4601027E-01;  3.9436129E+04;  0.0000000E+00;  1.5261306E-01;  4.0000000E+04;  0.0000000E+00;  4.0052918E+04; -2.7682635E-01;  0.0000000E+00;  3.0816084E-02;  7.1756890E+03;
  3.7548360E-01;  9.9999998E-03; -2.0989344E-01;4712; -1.1347952E-01;  0.0000000E+00; -7.1890010E-03;  9.9388513E+02;  1.0000000E-01; -5.0660293E+03;3;  8.9530158E-01;  0.0000000E+00;  3.2760870E+00;0; -2.4490419E-01;  3.9461586E+04;  0.0000000E+00;  8.6427398E-02;  4.0000000E+04;  0.0000000E+00;  4.0053449E+04; -2.7555019E-01;  0.0000000E+00;  3.0645996E-02;  7.2094058E+03;
  3.7546632E-01;  9.9999998E-03; -1.9989157E-01;4713; -1.1361419E-01;  0.0000000E+00; -6.8654935E-03;  9.9420374E+02;  1.0000000E-01; -4.8020859E+03;3;  8.6338115E-01;  0.0000000E+00;  3.2083039E+00;0; -2.4360377E-01;  3.9487520E+04;  0.0000000E+00;  1.4843406E-02;  4.0000000E+04;  0.0000000E+00;  4.0052887E+04; -2.7429241E-01;  0.0000000E+00;  3.0688647E-02;  7.1185391E+03;
  3.7544253E-01;  9.9999998E-03; -1.8989092E-01;4714; -1.1376563E-01;  0.0000000E+00; -6.5076756E-03;  9.9451007E+02;  1.0000000E-01; -4.5483154E+03;3;  8.4484541E-01;  0.0000000E+00;  3.1251791E+00;0; -2.4214283E-01;  3.9512941E+04;  0.0000000E+00; -5.2176606E-02;  4.0000000E+04;  0.0000000E+00;  4.0051688E+04; -2.7305403E-01;  0.0000000E+00;  3.0911211E-02;  6.9425723E+03;
  3.7541613E-01;  9.9999998E-03; -1.7989241E-01;4715; -1.1393762E-01;  0.0000000E+00; -6.1201733E-03;  9.9478931E+02;  1.0000000E-01; -4.3169639E+03;3;  8.3734769E-01;  0.0000000E+00;  3.0352604E+00;0; -2.4060021E-01;  3.9536562E+04;  0.0000000E+00; -1.0588431E-01;  4.0000000E+04;  0.0000000E+00;  4.0050195E+04; -2.7183902E-01;  0.0000000E+00;  3.1238809E-02;  6.7302812E+03;
  3.7538937E-01;  9.9999998E-03; -1.6989593E-01;4716; -1.1413272E-01;  0.0000000E+00; -5.7131513E-03;  9.9502838E+02;  1.0000000E-01; -4.1188955E+03;3;  8.4136379E-01;  0.0000000E+00;  2.9239857E+00;0; -2.3906456E-01;  3.9557320E+04;  0.0000000E+00; -1.4001808E-01;  4.0000000E+04;  0.0000000E+00;  4.0048598E+04; -2.7065352E-01;  0.0000000E+00;  3.1588957E-02;  6.5059214E+03;
  3.7536573E-01;  9.9999998E-03; -1.5990098E-01;4717; -1.1435087E-01;  0.0000000E+00; -5.2945116E-03;  9.9522107E+02;  1.0000000E-01; -3.9592458E+03;3;  8.5496151E-01;  0.0000000E+00;  2.8094735E+00;0; -2.3762576E-01;  3.9573949E+04;  0.0000000E+00; -1.5189202E-01;  4.0000000E+04;  0.0000000E+00;  4.0046895E+04; -2.6951104E-01;  0.0000000E+00;  3.1885285E-02;  6.2767598E+03;
  3.7534869E-01;  9.9999998E-03; -1.4990664E-01;4718; -1.1458965E-01;  0.0000000E+00; -4.8763719E-03;  9.9535236E+02;  1.0000000E-01; -3.8505081E+03;3;  8.7884003E-01;  0.0000000E+00;  2.6708958E+00;0; -2.3635963E-01;  3.9586051E+04;  0.0000000E+00; -1.4282672E-01;  4.0000000E+04;  0.0000000E+00;  4.0045086E+04; -2.6843059E-01;  0.0000000E+00;  3.2070968E-02;  6.0467021E+03;
  3.7533808E-01;  9.9999998E-03; -1.3991204E-01;4719; -1.1484550E-01;  0.0000000E+00; -4.4691782E-03;  9.9541345E+02;  1.0000000E-01; -3.7998923E+03;3;  9.0986860E-01;  0.0000000E+00;  2.5249617E+00;0; -2.3532358E-01;  3.9592719E+04;  0.0000000E+00; -1.1767822E-01;  4.0000000E+04;  0.0000000E+00;  4.0043359E+04; -2.6743966E-01;  0.0000000E+00;  3.2116082E-02;  5.8247422E+03;
  3.7533364E-01;  9.9999998E-03; -1.2991662E-01;4720; -1.1511298E-01;  0.0000000E+00; -4.0829135E-03;  9.9541309E+02;  1.0000000E-01; -3.8001885E+03;3;  9.4839382E-01;  0.0000000E+00;  2.3710527E+00;0; -2.3454985E-01;  3.9594102E+04;  0.0000000E+00; -8.3259448E-02;  4.0000000E+04;  0.0000000E+00;  4.0041793E+04; -2.6656860E-01;  0.0000000E+00;  3.2018758E-02;  5.6260796E+03;
  3.7533650E-01;  9.9999998E-03; -1.1992032E-01;4721; -1.1538718E-01;  0.0000000E+00; -3.7228137E-03;  9.9535052E+02;  1.0000000E-01; -3.8519895E+03;3;  9.8825067E-01;  0.0000000E+00;  2.2203538E+00;0; -2.3404855E-01;  3.9590449E+04;  0.0000000E+00; -4.6384797E-02;  4.0000000E+04;  0.0000000E+00;  4.0040418E+04; -2.6584780E-01;  0.0000000E+00;  3.1799264E-02;  5.4694800E+03;
  3.7534514E-01;  9.9999998E-03; -1.0992328E-01;4722; -1.1566316E-01;  0.0000000E+00; -3.3895718E-03;  9.9523663E+02;  1.0000000E-01; -3.9463572E+03;3;  1.0299860E+00;  0.0000000E+00;  2.0640042E+00;0; -2.3380849E-01;  3.9582164E+04;  0.0000000E+00; -1.2552496E-02;  4.0000000E+04;  0.0000000E+00;  4.0039719E+04; -2.6530075E-01;  0.0000000E+00;  3.1492256E-02;  5.3739150E+03;
  3.8527817E-01;  9.9999998E-03; -2.6984602E-01;4767; -1.1550515E-01;  0.0000000E+00; -8.3236173E-03;  9.9221246E+02;  1.0000000E-01; -6.4518169E+03;3;  1.3626827E+00;  0.0000000E+00;  3.6211174E+00;0; -2.4784300E-01;  3.9323855E+04;  0.0000000E+00;  5.3315479E-02;  4.0000000E+04;  0.0000000E+00;  4.0058000E+04; -2.7802810E-01;  0.0000000E+00;  3.0185096E-02;  7.9129946E+03;
  3.8533691E-01;  9.9999998E-03; -2.5985751E-01;4768; -1.1559083E-01;  0.0000000E+00; -8.0804247E-03;  9.9239667E+02;  1.0000000E-01; -6.2992290E+03;3;  1.2748899E+00;  0.0000000E+00;  3.6117425E+00;0; -2.4716897E-01;  3.9340363E+04;  0.0000000E+00;  1.0719573E-01;  4.0000000E+04;  0.0000000E+00;  4.0056113E+04; -2.7709898E-01;  0.0000000E+00;  2.9930014E-02;  7.6682910E+03;
  3.8539621E-01;  9.9999998E-03; -2.4987309E-01;4769; -1.1569874E-01;  0.0000000E+00; -7.8355409E-03;  9.9259216E+02;  1.0000000E-01; -6.1372583E+03;3;  1.1971498E+00;  0.0000000E+00;  3.5924172E+00;0; -2.4648373E-01;  3.9358992E+04;  0.0000000E+00;  1.3791779E-01;  4.0000000E+04;  0.0000000E+00;  4.0052793E+04; -2.7612826E-01;  0.0000000E+00;  2.9644534E-02;  7.2431519E+03;
  3.8544828E-01;  9.9999998E-03; -2.3988919E-01;4770; -1.1582001E-01;  0.0000000E+00; -7.6782284E-03;  9.9282837E+02;  1.0000000E-01; -5.9415601E+03;3;  1.1282923E+00;  0.0000000E+00;  3.5747552E+00;0; -2.4527976E-01;  3.9379688E+04;  0.0000000E+00;  1.4494300E-01;  4.0000000E+04;  0.0000000E+00;  4.0051004E+04; -2.7513084E-01;  0.0000000E+00;  2.9851083E-02;  6.9925762E+03;
  3.8548240E-01;  9.9999998E-03; -2.2990063E-01;4771; -1.1594396E-01;  0.0000000E+00; -7.5309151E-03;  9.9311163E+02;  1.0000000E-01; -5.7068999E+03;3;  1.0701853E+00;  0.0000000E+00;  3.5426350E+00;0; -2.4416400E-01;  3.9401906E+04;  0.0000000E+00;  1.3078426E-01;  4.0000000E+04;  0.0000000E+00;  4.0051215E+04; -2.7411956E-01;  0.0000000E+00;  2.9955549E-02;  6.9983911E+03;
  3.8549846E-01;  9.9999998E-03; -2.1990551E-01;4772; -1.1606834E-01;  0.0000000E+00; -7.3231859E-03;  9.9341534E+02;  1.0000000E-01; -5.4552529E+03;3;  1.0241901E+00;  0.0000000E+00;  3.5044720E+00;0; -2.4318741E-01;  3.9425164E+04;  0.0000000E+00;  9.9488854E-02;  4.0000000E+04;  0.0000000E+00;  4.0051941E+04; -2.7310297E-01;  0.0000000E+00;  2.9915560E-02;  7.0676948E+03;
  3.8549960E-01;  9.9999998E-03; -2.0990551E-01;4773; -1.1619519E-01;  0.0000000E+00; -7.0591234E-03;  9.9371283E+02;  1.0000000E-01; -5.2087905E+03;3;  9.8994392E-01;  0.0000000E+00;  3.4579327E+00;0; -2.4212824E-01;  3.9449043E+04;  0.0000000E+00;  5.6903902E-02;  4.0000000E+04;  0.0000000E+00;  4.0051945E+04; -2.7208447E-01;  0.0000000E+00;  2.9956242E-02;  7.0385762E+03;
  3.8548902E-01;  9.9999998E-03; -1.9990367E-01;4774; -1.1632869E-01;  0.0000000E+00; -6.7556961E-03;  9.9399585E+02;  1.0000000E-01; -4.9743281E+03;3;  9.6649903E-01;  0.0000000E+00;  3.3988514E+00;0; -2.4090950E-01;  3.9472418E+04;  0.0000000E+00;  1.0097113E-02;  4.0000000E+04;  0.0000000E+00;  4.0050867E+04; -2.7106830E-01;  0.0000000E+00;  3.0158807E-02;  6.8813960E+03;
  3.8547054E-01;  9.9999998E-03; -1.8990242E-01;4775; -1.1647466E-01;  0.0000000E+00; -6.4205253E-03;  9.9425055E+02;  1.0000000E-01; -4.7633218E+03;3;  9.5752972E-01;  0.0000000E+00;  3.3191533E+00;0; -2.3956108E-01;  3.9494480E+04;  0.0000000E+00; -3.3528168E-02;  4.0000000E+04;  0.0000000E+00;  4.0049094E+04; -2.7005735E-01;  0.0000000E+00;  3.0496268E-02;  6.6422793E+03;
  3.8544858E-01;  9.9999998E-03; -1.7990294E-01;4776; -1.1663771E-01;  0.0000000E+00; -6.0580447E-03;  9.9447723E+02;  1.0000000E-01; -4.5755244E+03;3;  9.6074069E-01;  0.0000000E+00;  3.2169559E+00;0; -2.3815162E-01;  3.9514453E+04;  0.0000000E+00; -6.7345060E-02;  4.0000000E+04;  0.0000000E+00;  4.0047102E+04; -2.6905757E-01;  0.0000000E+00;  3.0905947E-02;  6.3723896E+03;
  3.8542631E-01;  9.9999998E-03; -1.6990532E-01;4777; -1.1682116E-01;  0.0000000E+00; -5.6772274E-03;  9.9466547E+02;  1.0000000E-01; -4.4195786E+03;3;  9.7392565E-01;  0.0000000E+00;  3.1079843E+00;0; -2.3676349E-01;  3.9531309E+04;  0.0000000E+00; -8.6506449E-02;  4.0000000E+04;  0.0000000E+00;  4.0045070E+04; -2.6807940E-01;  0.0000000E+00;  3.1315912E-02;  6.1016211E+03;
  3.8540518E-01;  9.9999998E-03; -1.5990922E-01;4778; -1.1702546E-01;  0.0000000E+00; -5.2842745E-03;  9.9480438E+02;  1.0000000E-01; -4.3044707E+03;3;  9.9768949E-01;  0.0000000E+00;  2.9765818E+00;0; -2.3547940E-01;  3.9544164E+04;  0.0000000E+00; -8.8838749E-02;  4.0000000E+04;  0.0000000E+00;  4.0043109E+04; -2.6713845E-01;  0.0000000E+00;  3.1659056E-02;  5.8428379E+03;
  3.8538909E-01;  9.9999998E-03; -1.4991401E-01;4779; -1.1725052E-01;  0.0000000E+00; -4.8926291E-03;  9.9488910E+02;  1.0000000E-01; -4.2342998E+03;3;  1.0286804E+00;  0.0000000E+00;  2.8443437E+00;0; -2.3437212E-01;  3.9552781E+04;  0.0000000E+00; -7.5403951E-02;  4.0000000E+04;  0.0000000E+00;  4.0041207E+04; -2.6625854E-01;  0.0000000E+00;  3.1886410E-02;  5.6026753E+03;
  3.8538131E-01;  9.9999998E-03; -1.3991889E-01;4780; -1.1749464E-01;  0.0000000E+00; -4.5131049E-03;  9.9491895E+02;  1.0000000E-01; -4.2095596E+03;3;  1.0678136E+00;  0.0000000E+00;  2.6896253E+00;0; -2.3349036E-01;  3.9556953E+04;  0.0000000E+00; -5.0359953E-02;  4.0000000E+04;  0.0000000E+00;  4.0039613E+04; -2.6546469E-01;  0.0000000E+00;  3.1974327E-02;  5.3892788E+03;
  3.8538077E-01;  9.9999998E-03; -1.2992330E-01;4781; -1.1775436E-01;  0.0000000E+00; -4.1522789E-03;  9.9489722E+02;  1.0000000E-01; -4.2275347E+03;3;  1.1134151E+00;  0.0000000E+00;  2.5233266E+00;0; -2.3285986E-01;  3.9556520E+04;  0.0000000E+00; -1.9651184E-02;  4.0000000E+04;  0.0000000E+00;  4.0038160E+04; -2.6478621E-01;  0.0000000E+00;  3.1926349E-02;  5.2141089E+03;
  3.8538682E-01;  9.9999998E-03; -1.1992711E-01;4782; -1.1802597E-01;  0.0000000E+00; -3.8125890E-03;  9.9483130E+02;  1.0000000E-01; -4.2821504E+03;3;  1.1612509E+00;  0.0000000E+00;  2.3624189E+00;0; -2.3248166E-01;  3.9552168E+04;  0.0000000E+00;  1.0855325E-02;  4.0000000E+04;  0.0000000E+00;  4.0037176E+04; -2.6424879E-01;  0.0000000E+00;  3.1767126E-02;  5.0902524E+03;
  3.8539991E-01;  9.9999998E-03; -1.0993028E-01;4783; -1.1830601E-01;  0.0000000E+00; -3.4957619E-03;  9.9472339E+02;  1.0000000E-01; -4.3715796E+03;3;  1.2094332E+00;  0.0000000E+00;  2.1991172E+00;0; -2.3233911E-01;  3.9544445E+04;  0.0000000E+00;  3.6610451E-02;  4.0000000E+04;  0.0000000E+00;  4.0036602E+04; -2.6387313E-01;  0.0000000E+00;  3.1534020E-02;  5.0303193E+03;
  3.9532578E-01;  9.9999998E-03; -2.6985130E-01;4828; -1.1827285E-01;  0.0000000E+00; -8.2144290E-03;  9.9203876E+02;  1.0000000E-01; -6.5957144E+03;3;  1.3828177E+00;  0.0000000E+00;  3.7778795E+00;0; -2.4470654E-01;  3.9305914E+04;  0.0000000E+00; -1.8415861E-02;  4.0000000E+04;  0.0000000E+00;  4.0061258E+04; -2.7345622E-01;  0.0000000E+00;  2.8749673E-02;  8.3468359E+03;
  3.9537001E-01;  9.9999998E-03; -2.5986275E-01;4829; -1.1833898E-01;  0.0000000E+00; -7.9323156E-03;  9.9223920E+02;  1.0000000E-01; -6.4296943E+03;3;  1.3066610E+00;  0.0000000E+00;  3.7768090E+00;0; -2.4446654E-01;  3.9324098E+04;  0.0000000E+00;  2.3906415E-02;  4.0000000E+04;  0.0000000E+00;  4.0059129E+04; -2.7275133E-01;  0.0000000E+00;  2.8284792E-02;  8.0507915E+03;
  3.9541787E-01;  9.9999998E-03; -2.4987917E-01;4830; -1.1842749E-01;  0.0000000E+00; -7.6327566E-03;  9.9243323E+02;  1.0000000E-01; -6.2689087E+03;3;  1.2392558E+00;  0.0000000E+00;  3.7656837E+00;0; -2.4411751E-01;  3.9343863E+04;  0.0000000E+00;  5.1021855E-02;  4.0000000E+04;  0.0000000E+00;  4.0054660E+04; -2.7200496E-01;  0.0000000E+00;  2.7887451E-02;  7.4897456E+03;
  3.9546299E-01;  9.9999998E-03; -2.3989725E-01;4831; -1.1853353E-01;  0.0000000E+00; -7.4470392E-03;  9.9265582E+02;  1.0000000E-01; -6.0845190E+03;3;  1.1830720E+00;  0.0000000E+00;  3.7444701E+00;0; -2.4292964E-01;  3.9364910E+04;  0.0000000E+00;  6.3471727E-02;  4.0000000E+04;  0.0000000E+00;  4.0051406E+04; -2.7122745E-01;  0.0000000E+00;  2.8297810E-02;  7.0723149E+03;
  3.9549366E-01;  9.9999998E-03; -2.2991078E-01;4832; -1.1864823E-01;  0.0000000E+00; -7.3023480E-03;  9.9292462E+02;  1.0000000E-01; -5.8618091E+03;3;  1.1367285E+00;  0.0000000E+00;  3.7206299E+00;0; -2.4170208E-01;  3.9386750E+04;  0.0000000E+00;  6.2821701E-02;  4.0000000E+04;  0.0000000E+00;  4.0050816E+04; -2.7043119E-01;  0.0000000E+00;  2.8729104E-02;  6.9599053E+03;
  3.9551055E-01;  9.9999998E-03; -2.1991725E-01;4833; -1.1876679E-01;  0.0000000E+00; -7.1125822E-03;  9.9320526E+02;  1.0000000E-01; -5.6293218E+03;3;  1.1024197E+00;  0.0000000E+00;  3.6792598E+00;0; -2.4065198E-01;  3.9409039E+04;  0.0000000E+00;  5.1112704E-02;  4.0000000E+04;  0.0000000E+00;  4.0050988E+04; -2.6962066E-01;  0.0000000E+00;  2.8968671E-02;  6.9581494E+03;
  3.9551562E-01;  9.9999998E-03; -2.0991866E-01;4834; -1.1888938E-01;  0.0000000E+00; -6.8707173E-03;  9.9347375E+02;  1.0000000E-01; -5.4068589E+03;3;  1.0805596E+00;  0.0000000E+00;  3.6301501E+00;0; -2.3959324E-01;  3.9430773E+04;  0.0000000E+00;  3.1785764E-02;  4.0000000E+04;  0.0000000E+00;  4.0050461E+04; -2.6879960E-01;  0.0000000E+00;  2.9206360E-02;  6.8733579E+03;
  3.9551103E-01;  9.9999998E-03; -1.9991787E-01;4835; -1.1901890E-01;  0.0000000E+00; -6.5921051E-03;  9.9371674E+02;  1.0000000E-01; -5.2055806E+03;3;  1.0721415E+00;  0.0000000E+00;  3.5640168E+00;0; -2.3843116E-01;  3.9451598E+04;  0.0000000E+00;  9.3061160E-03;  4.0000000E+04;  0.0000000E+00;  4.0048988E+04; -2.6797137E-01;  0.0000000E+00;  2.9540213E-02;  6.6689473E+03;
  3.9549980E-01;  9.9999998E-03; -1.8991710E-01;4836; -1.1915946E-01;  0.0000000E+00; -6.2847920E-03;  9.9393115E+02;  1.0000000E-01; -5.0279067E+03;3;  1.0729319E+00;  0.0000000E+00;  3.4907136E+00;0; -2.3717746E-01;  3.9470840E+04;  0.0000000E+00; -1.1447736E-02;  4.0000000E+04;  0.0000000E+00;  4.0046934E+04; -2.6714119E-01;  0.0000000E+00;  2.9963739E-02;  6.3867266E+03;
  3.9548424E-01;  9.9999998E-03; -1.7991734E-01;4837; -1.1931501E-01;  0.0000000E+00; -5.9542684E-03;  9.9411163E+02;  1.0000000E-01; -4.8783804E+03;3;  1.0852313E+00;  0.0000000E+00;  3.3979628E+00;0; -2.3588534E-01;  3.9487516E+04;  0.0000000E+00; -2.5966311E-02;  4.0000000E+04;  0.0000000E+00;  4.0044562E+04; -2.6631519E-01;  0.0000000E+00;  3.0429857E-02;  6.0778867E+03;
  3.9546776E-01;  9.9999998E-03; -1.6991894E-01;4838; -1.1948961E-01;  0.0000000E+00; -5.6052408E-03;  9.9425592E+02;  1.0000000E-01; -4.7588774E+03;3;  1.1100743E+00;  0.0000000E+00;  3.2764499E+00;0; -2.3462746E-01;  3.9501133E+04;  0.0000000E+00; -3.0828917E-02;  4.0000000E+04;  0.0000000E+00;  4.0042285E+04; -2.6550683E-01;  0.0000000E+00;  3.0879384E-02;  5.7753979E+03;
  3.9545360E-01;  9.9999998E-03; -1.5992191E-01;4839; -1.1968508E-01;  0.0000000E+00; -5.2444078E-03;  9.9435815E+02;  1.0000000E-01; -4.6741392E+03;3;  1.1432388E+00;  0.0000000E+00;  3.1486585E+00;0; -2.3347707E-01;  3.9511309E+04;  0.0000000E+00; -2.4515744E-02;  4.0000000E+04;  0.0000000E+00;  4.0040039E+04; -2.6473382E-01;  0.0000000E+00;  3.1256747E-02;  5.4965625E+03;
  3.9544231E-01;  9.9999998E-03; -1.4992575E-01;4840; -1.1990180E-01;  0.0000000E+00; -4.8831701E-03;  9.9440955E+02;  1.0000000E-01; -4.6315723E+03;3;  1.1858385E+00;  0.0000000E+00;  2.9999230E+00;0; -2.3249592E-01;  3.9517531E+04;  0.0000000E+00; -7.9913493E-03;  4.0000000E+04;  0.0000000E+00;  4.0038195E+04; -2.6401666E-01;  0.0000000E+00;  3.1520743E-02;  5.2512534E+03;
  3.9543757E-01;  9.9999998E-03; -1.3992995E-01;4841; -1.2013949E-01;  0.0000000E+00; -4.5318617E-03;  9.9442322E+02;  1.0000000E-01; -4.6202642E+03;3;  1.2321664E+00;  0.0000000E+00;  2.8472867E+00;0; -2.3172796E-01;  3.9520219E+04;  0.0000000E+00;  1.5347543E-02;  4.0000000E+04;  0.0000000E+00;  4.0036523E+04; -2.6338083E-01;  0.0000000E+00;  3.1652875E-02;  5.0471553E+03;
  3.9544111E-01;  9.9999998E-03; -1.2993394E-01;4842; -1.2039659E-01;  0.0000000E+00; -4.1956864E-03;  9.9439502E+02;  1.0000000E-01; -4.6436216E+03;3;  1.2849009E+00;  0.0000000E+00;  2.6853185E+00;0; -2.3119035E-01;  3.9519367E+04;  0.0000000E+00;  4.0658023E-02;  4.0000000E+04;  0.0000000E+00;  4.0035215E+04; -2.6285008E-01;  0.0000000E+00;  3.1659719E-02;  4.8919287E+03;
  3.9545122E-01;  9.9999998E-03; -1.1993737E-01;4843; -1.2067037E-01;  0.0000000E+00; -3.8769038E-03;  9.9433771E+02;  1.0000000E-01; -4.6911265E+03;3;  1.3390274E+00;  0.0000000E+00;  2.5150867E+00;0; -2.3087853E-01;  3.9515660E+04;  0.0000000E+00;  6.3249141E-02;  4.0000000E+04;  0.0000000E+00;  4.0034379E+04; -2.6244611E-01;  0.0000000E+00;  3.1567574E-02;  4.7931528E+03;
  3.9546713E-01;  9.9999998E-03; -1.0994004E-01;4844; -1.2095764E-01;  0.0000000E+00; -3.5754975E-03;  9.9425427E+02;  1.0000000E-01; -4.7602104E+03;3;  1.3963342E+00;  0.0000000E+00;  2.3395550E+00;0; -2.3077101E-01;  3.9509348E+04;  0.0000000E+00;  7.9732433E-02;  4.0000000E+04;  0.0000000E+00;  4.0034160E+04; -2.6218507E-01;  0.0000000E+00;  3.1414069E-02;  4.7578218E+03;
  4.0539259E-01;  9.9999998E-03; -2.6985520E-01;4889; -1.2106057E-01;  0.0000000E+00; -8.0952067E-03;  9.9188440E+02;  1.0000000E-01; -6.7236118E+03;3;  1.3937088E+00;  0.0000000E+00;  3.9287295E+00;0; -2.4166821E-01;  3.9289887E+04;  0.0000000E+00; -7.9232171E-02;  4.0000000E+04;  0.0000000E+00;  4.0064395E+04; -2.6932043E-01;  0.0000000E+00;  2.7652217E-02;  8.7490801E+03;
  4.0542510E-01;  9.9999998E-03; -2.5986582E-01;4890; -1.2110187E-01;  0.0000000E+00; -7.7850888E-03;  9.9209296E+02;  1.0000000E-01; -6.5508267E+03;3;  1.3294647E+00;  0.0000000E+00;  3.9328732E+00;0; -2.4174197E-01;  3.9308688E+04;  0.0000000E+00; -4.9943537E-02;  4.0000000E+04;  0.0000000E+00;  4.0062156E+04; -2.6877749E-01;  0.0000000E+00;  2.7035519E-02;  8.4593105E+03;
  4.0546212E-01;  9.9999998E-03; -2.4988212E-01;4891; -1.2116606E-01;  0.0000000E+00; -7.4293767E-03;  9.9228137E+02;  1.0000000E-01; -6.3947324E+03;3;  1.2757615E+00;  0.0000000E+00;  3.9275155E+00;0; -2.4175784E-01;  3.9328574E+04;  0.0000000E+00; -2.8214382E-02;  4.0000000E+04;  0.0000000E+00;  4.0057145E+04; -2.6819581E-01;  0.0000000E+00;  2.6437972E-02;  7.8069092E+03;
  4.0549734E-01;  9.9999998E-03; -2.3990245E-01;4892; -1.2125036E-01;  0.0000000E+00; -7.1925013E-03;  9.9247925E+02;  1.0000000E-01; -6.2307861E+03;3;  1.2312680E+00;  0.0000000E+00;  3.9129155E+00;0; -2.4070930E-01;  3.9349258E+04;  0.0000000E+00; -1.2700747E-02;  4.0000000E+04;  0.0000000E+00;  4.0052320E+04; -2.6758441E-01;  0.0000000E+00;  2.6875105E-02;  7.1844941E+03;
  4.0552279E-01;  9.9999998E-03; -2.2991943E-01;4893; -1.2134819E-01;  0.0000000E+00; -7.0392010E-03;  9.9271729E+02;  1.0000000E-01; -6.0336064E+03;3;  1.1993608E+00;  0.0000000E+00;  3.8821323E+00;0; -2.3938797E-01;  3.9370090E+04;  0.0000000E+00; -2.7420023E-03;  4.0000000E+04;  0.0000000E+00;  4.0050195E+04; -2.6695180E-01;  0.0000000E+00;  2.7563822E-02;  6.9073130E+03;
  4.0553850E-01;  9.9999998E-03; -2.1992888E-01;4894; -1.2145486E-01;  0.0000000E+00; -6.8679657E-03;  9.9297028E+02;  1.0000000E-01; -5.8239829E+03;3;  1.1784781E+00;  0.0000000E+00;  3.8459108E+00;0; -2.3824100E-01;  3.9390812E+04;  0.0000000E+00;  2.1172825E-03;  4.0000000E+04;  0.0000000E+00;  4.0049762E+04; -2.6630107E-01;  0.0000000E+00;  2.8060058E-02;  6.8252397E+03;
  4.0554491E-01;  9.9999998E-03; -2.0993245E-01;4895; -1.2156820E-01;  0.0000000E+00; -6.6529317E-03;  9.9320837E+02;  1.0000000E-01; -5.6267539E+03;3;  1.1694472E+00;  0.0000000E+00;  3.7943587E+00;0; -2.3716338E-01;  3.9410715E+04;  0.0000000E+00;  3.1909845E-03;  4.0000000E+04;  0.0000000E+00;  4.0049008E+04; -2.6563549E-01;  0.0000000E+00;  2.8472116E-02;  6.7053037E+03;
  4.0554389E-01;  9.9999998E-03; -1.9993319E-01;4896; -1.2168984E-01;  0.0000000E+00; -6.4033465E-03;  9.9342078E+02;  1.0000000E-01; -5.4507588E+03;3;  1.1721687E+00;  0.0000000E+00;  3.7327390E+00;0; -2.3604740E-01;  3.9429266E+04;  0.0000000E+00;  2.6185883E-03;  4.0000000E+04;  0.0000000E+00;  4.0047246E+04; -2.6495779E-01;  0.0000000E+00;  2.8910382E-02;  6.4796943E+03;
  4.0553749E-01;  9.9999998E-03; -1.8993323E-01;4897; -1.2182342E-01;  0.0000000E+00; -6.1262446E-03;  9.9360101E+02;  1.0000000E-01; -5.3014297E+03;3;  1.1889824E+00;  0.0000000E+00;  3.6469605E+00;0; -2.3488125E-01;  3.9445805E+04;  0.0000000E+00;  2.9725465E-03;  4.0000000E+04;  0.0000000E+00;  4.0045020E+04; -2.6427341E-01;  0.0000000E+00;  2.9392149E-02;  6.1793262E+03;
  4.0552780E-01;  9.9999998E-03; -1.7993358E-01;4898; -1.2197271E-01;  0.0000000E+00; -5.8272099E-03;  9.9374561E+02;  1.0000000E-01; -5.1816309E+03;3;  1.2121711E+00;  0.0000000E+00;  3.5586195E+00;0; -2.3369873E-01;  3.9459945E+04;  0.0000000E+00;  6.7121303E-03;  4.0000000E+04;  0.0000000E+00;  4.0042430E+04; -2.6358977E-01;  0.0000000E+00;  2.9891038E-02;  5.8523252E+03;
  4.0551770E-01;  9.9999998E-03; -1.6993487E-01;4899; -1.2214068E-01;  0.0000000E+00; -5.5114115E-03;  9.9385693E+02;  1.0000000E-01; -5.0894360E+03;3;  1.2482206E+00;  0.0000000E+00;  3.4420547E+00;0; -2.3255651E-01;  3.9471211E+04;  0.0000000E+00;  1.5658880E-02;  4.0000000E+04;  0.0000000E+00;  4.0039973E+04; -2.6291910E-01;  0.0000000E+00;  3.0362597E-02;  5.5341602E+03;
  4.0550938E-01;  9.9999998E-03; -1.5993719E-01;4900; -1.2233032E-01;  0.0000000E+00; -5.1825810E-03;  9.9393201E+02;  1.0000000E-01; -5.0272153E+03;3;  1.2945857E+00;  0.0000000E+00;  3.3050754E+00;0; -2.3151653E-01;  3.9479320E+04;  0.0000000E+00;  3.0380713E-02;  4.0000000E+04;  0.0000000E+00;  4.0037730E+04; -2.6227850E-01;  0.0000000E+00;  3.0761972E-02;  5.2465420E+03;
  4.0550581E-01;  9.9999998E-03; -1.4994028E-01;4901; -1.2254316E-01;  0.0000000E+00; -4.8516062E-03;  9.9397205E+02;  1.0000000E-01; -4.9940312E+03;3;  1.3453870E+00;  0.0000000E+00;  3.1574159E+00;0; -2.3063146E-01;  3.9484492E+04;  0.0000000E+00;  4.9795922E-02;  4.0000000E+04;  0.0000000E+00;  4.0035770E+04; -2.6168671E-01;  0.0000000E+00;  3.1055251E-02;  5.0018770E+03;
  4.0550631E-01;  9.9999998E-03; -1.3994357E-01;4902; -1.2277887E-01;  0.0000000E+00; -4.5267795E-03;  9.9397833E+02;  1.0000000E-01; -4.9888462E+03;3;  1.4039674E+00;  0.0000000E+00;  2.9992802E+00;0; -2.2993709E-01;  3.9486742E+04;  0.0000000E+00;  7.1190730E-02;  4.0000000E+04;  0.0000000E+00;  4.0034320E+04; -2.6116502E-01;  0.0000000E+00;  3.1227930E-02;  4.8077617E+03;
  4.0551290E-01;  9.9999998E-03; -1.2994660E-01;4903; -1.2303672E-01;  0.0000000E+00; -4.2128465E-03;  9.9396021E+02;  1.0000000E-01; -5.0038579E+03;3;  1.4647796E+00;  0.0000000E+00;  2.8319230E+00;0; -2.2944528E-01;  3.9486512E+04;  0.0000000E+00;  9.0923622E-02;  4.0000000E+04;  0.0000000E+00;  4.0033160E+04; -2.6073301E-01;  0.0000000E+00;  3.1287737E-02;  4.6686758E+03;
  4.0552640E-01;  9.9999998E-03; -1.1994909E-01;4904; -1.2331532E-01;  0.0000000E+00; -3.9116694E-03;  9.9392279E+02;  1.0000000E-01; -5.0348696E+03;3;  1.5290450E+00;  0.0000000E+00;  2.6575434E+00;0; -2.2914729E-01;  3.9484230E+04;  0.0000000E+00;  1.0567559E-01;  4.0000000E+04;  0.0000000E+00;  4.0032414E+04; -2.6040766E-01;  0.0000000E+00;  3.1260364E-02;  4.5870161E+03;
  4.0554422E-01;  9.9999998E-03; -1.0995097E-01;4905; -1.2361149E-01;  0.0000000E+00; -3.6229601E-03;  9.9387006E+02;  1.0000000E-01; -5.0785225E+03;3;  1.5949388E+00;  0.0000000E+00;  2.4744294E+00;0; -2.2902003E-01;  3.9480516E+04;  0.0000000E+00;  1.1335817E-01;  4.0000000E+04;  0.0000000E+00;  4.0032332E+04; -2.6020169E-01;  0.0000000E+00;  3.1181658E-02;  4.5650171E+03;
  4.1550469E-01;  9.9999998E-03; -2.6985824E-01;4950; -1.2386084E-01;  0.0000000E+00; -7.9666730E-03;  9.9179309E+02;  1.0000000E-01; -6.7992637E+03;3;  1.3961314E+00;  0.0000000E+00;  4.0753326E+00;0; -2.3863682E-01;  3.9280195E+04;  0.0000000E+00; -1.3260941E-01;  4.0000000E+04;  0.0000000E+00;  4.0066547E+04; -2.6541501E-01;  0.0000000E+00;  2.6778199E-02;  9.0316660E+03;
  4.1552496E-01;  9.9999998E-03; -2.5986761E-01;4951; -1.2387562E-01;  0.0000000E+00; -7.6466436E-03;  9.9200232E+02;  1.0000000E-01; -6.6259351E+03;3;  1.3450233E+00;  0.0000000E+00;  4.0861492E+00;0; -2.3884715E-01;  3.9298383E+04;  0.0000000E+00; -1.1503865E-01;  4.0000000E+04;  0.0000000E+00;  4.0064793E+04; -2.6500246E-01;  0.0000000E+00;  2.6155302E-02;  8.7847402E+03;
  4.1554755E-01;  9.9999998E-03; -2.4988288E-01;4952; -1.2391125E-01;  0.0000000E+00; -7.2441967E-03;  9.9217725E+02;  1.0000000E-01; -6.4810010E+03;3;  1.3047352E+00;  0.0000000E+00;  4.0811615E+00;0; -2.3920554E-01;  3.9317480E+04;  0.0000000E+00; -9.8749124E-02;  4.0000000E+04;  0.0000000E+00;  4.0059422E+04; -2.6455584E-01;  0.0000000E+00;  2.5350297E-02;  8.1031343E+03;
  4.1556904E-01;  9.9999998E-03; -2.3990534E-01;4953; -1.2396815E-01;  0.0000000E+00; -6.9430671E-03;  9.9234204E+02;  1.0000000E-01; -6.3444614E+03;3;  1.2759036E+00;  0.0000000E+00;  4.0646629E+00;0; -2.3841262E-01;  3.9337109E+04;  0.0000000E+00; -8.2424760E-02;  4.0000000E+04;  0.0000000E+00;  4.0052871E+04; -2.6408258E-01;  0.0000000E+00;  2.5669970E-02;  7.2764092E+03;
  4.1558439E-01;  9.9999998E-03; -2.2992645E-01;4954; -1.2404349E-01;  0.0000000E+00; -6.7774202E-03;  9.9254309E+02;  1.0000000E-01; -6.1778984E+03;3;  1.2565926E+00;  0.0000000E+00;  4.0415440E+00;0; -2.3703052E-01;  3.9356613E+04;  0.0000000E+00; -6.5693982E-02;  4.0000000E+04;  0.0000000E+00;  4.0049359E+04; -2.6358664E-01;  0.0000000E+00;  2.6556125E-02;  6.8170503E+03;
  4.1559458E-01;  9.9999998E-03; -2.1993947E-01;4955; -1.2413197E-01;  0.0000000E+00; -6.6237398E-03;  9.9276642E+02;  1.0000000E-01; -5.9928667E+03;3;  1.2510011E+00;  0.0000000E+00;  4.0001087E+00;0; -2.3580316E-01;  3.9375426E+04;  0.0000000E+00; -4.8848797E-02;  4.0000000E+04;  0.0000000E+00;  4.0048227E+04; -2.6306990E-01;  0.0000000E+00;  2.7266739E-02;  6.6625693E+03;
  4.1559926E-01;  9.9999998E-03; -2.0994547E-01;4956; -1.2423172E-01;  0.0000000E+00; -6.4350837E-03;  9.9297852E+02;  1.0000000E-01; -5.8171680E+03;3;  1.2564765E+00;  0.0000000E+00;  3.9494357E+00;0; -2.3471710E-01;  3.9393238E+04;  0.0000000E+00; -3.1993326E-02;  4.0000000E+04;  0.0000000E+00;  4.0047492E+04; -2.6253566E-01;  0.0000000E+00;  2.7818561E-02;  6.5308057E+03;
  4.1559866E-01;  9.9999998E-03; -1.9994763E-01;4957; -1.2434316E-01;  0.0000000E+00; -6.2121148E-03;  9.9316101E+02;  1.0000000E-01; -5.6659624E+03;3;  1.2736007E+00;  0.0000000E+00;  3.8886559E+00;0; -2.3365518E-01;  3.9409602E+04;  0.0000000E+00; -1.4749594E-02;  4.0000000E+04;  0.0000000E+00;  4.0045773E+04; -2.6198593E-01;  0.0000000E+00;  2.8330738E-02;  6.3111963E+03;
  4.1559428E-01;  9.9999998E-03; -1.8994845E-01;4958; -1.2446850E-01;  0.0000000E+00; -5.9638605E-03;  9.9331238E+02;  1.0000000E-01; -5.5405830E+03;3;  1.3029948E+00;  0.0000000E+00;  3.8034585E+00;0; -2.3257719E-01;  3.9423914E+04;  0.0000000E+00;  3.5255100E-03;  4.0000000E+04;  0.0000000E+00;  4.0043480E+04; -2.6142466E-01;  0.0000000E+00;  2.8847473E-02;  6.0160488E+03;
  4.1558826E-01;  9.9999998E-03; -1.7994919E-01;4959; -1.2461152E-01;  0.0000000E+00; -5.6930971E-03;  9.9343237E+02;  1.0000000E-01; -5.4411294E+03;3;  1.3421426E+00;  0.0000000E+00;  3.7061944E+00;0; -2.3149897E-01;  3.9435992E+04;  0.0000000E+00;  2.3381645E-02;  4.0000000E+04;  0.0000000E+00;  4.0040957E+04; -2.6085913E-01;  0.0000000E+00;  2.9360155E-02;  5.6908472E+03;
  4.1558221E-01;  9.9999998E-03; -1.6995038E-01;4960; -1.2477479E-01;  0.0000000E+00; -5.4049054E-03;  9.9351978E+02;  1.0000000E-01; -5.3687363E+03;3;  1.3911341E+00;  0.0000000E+00;  3.5933921E+00;0; -2.3046032E-01;  3.9445715E+04;  0.0000000E+00;  4.4975705E-02;  4.0000000E+04;  0.0000000E+00;  4.0038492E+04; -2.6029959E-01;  0.0000000E+00;  2.9839285E-02;  5.3736895E+03;
  4.1557887E-01;  9.9999998E-03; -1.5995215E-01;4961; -1.2496096E-01;  0.0000000E+00; -5.1049320E-03;  9.9358105E+02;  1.0000000E-01; -5.3179722E+03;3;  1.4506581E+00;  0.0000000E+00;  3.4519720E+00;0; -2.2951086E-01;  3.9452977E+04;  0.0000000E+00;  6.7748144E-02;  4.0000000E+04;  0.0000000E+00;  4.0036293E+04; -2.5976065E-01;  0.0000000E+00;  3.0249787E-02;  5.0894375E+03;
  4.1557953E-01;  9.9999998E-03; -1.4995439E-01;4962; -1.2517203E-01;  0.0000000E+00; -4.7994745E-03;  9.9362006E+02;  1.0000000E-01; -5.2856768E+03;3;  1.5136292E+00;  0.0000000E+00;  3.3070493E+00;0; -2.2869380E-01;  3.9457895E+04;  0.0000000E+00;  9.0296753E-02;  4.0000000E+04;  0.0000000E+00;  4.0034301E+04; -2.5925747E-01;  0.0000000E+00;  3.0563664E-02;  4.8525298E+03;
  4.1558549E-01;  9.9999998E-03; -1.3995670E-01;4963; -1.2540831E-01;  0.0000000E+00; -4.4973437E-03;  9.9363660E+02;  1.0000000E-01; -5.2719487E+03;3;  1.5828398E+00;  0.0000000E+00;  3.1399729E+00;0; -2.2803856E-01;  3.9460566E+04;  0.0000000E+00;  1.1046860E-01;  4.0000000E+04;  0.0000000E+00;  4.0032891E+04; -2.5880736E-01;  0.0000000E+00;  3.0768795E-02;  4.6700859E+03;
  4.1559574E-01;  9.9999998E-03; -1.2995867E-01;4964; -1.2566911E-01;  0.0000000E+00; -4.2019445E-03;  9.9363635E+02;  1.0000000E-01; -5.2721465E+03;3;  1.6546021E+00;  0.0000000E+00;  2.9689088E+00;0; -2.2755291E-01;  3.9461797E+04;  0.0000000E+00;  1.2578127E-01;  4.0000000E+04;  0.0000000E+00;  4.0031938E+04; -2.5842565E-01;  0.0000000E+00;  3.0872753E-02;  4.5438364E+03;
  4.1560993E-01;  9.9999998E-03; -1.1996017E-01;4965; -1.2595291E-01;  0.0000000E+00; -3.9148624E-03;  9.9362769E+02;  1.0000000E-01; -5.2793560E+03;3;  1.7299019E+00;  0.0000000E+00;  2.7873456E+00;0; -2.2722575E-01;  3.9461770E+04;  0.0000000E+00;  1.3427335E-01;  4.0000000E+04;  0.0000000E+00;  4.0031246E+04; -2.5812519E-01;  0.0000000E+00;  3.0899428E-02;  4.4722246E+03;
  4.1562864E-01;  9.9999998E-03; -1.0996128E-01;4966; -1.2625770E-01;  0.0000000E+00; -3.6352342E-03;  9.9361505E+02;  1.0000000E-01; -5.2898247E+03;3;  1.8043512E+00;  0.0000000E+00;  2.5967741E+00;0; -2.2703467E-01;  3.9461086E+04;  0.0000000E+00;  1.3514350E-01;  4.0000000E+04;  0.0000000E+00;  4.0031281E+04; -2.5791612E-01;  0.0000000E+00;  3.0881451E-02;  4.4533154E+03;
  4.2566523E-01;  9.9999998E-03; -2.6986107E-01;5011; -1.2665367E-01;  0.0000000E+00; -7.8345165E-03;  9.9181122E+02;  1.0000000E-01; -6.7842515E+03;3;  1.3888249E+00;  0.0000000E+00;  4.2088623E+00;0; -2.3550330E-01;  3.9280504E+04;  0.0000000E+00; -1.7513625E-01;  4.0000000E+04;  0.0000000E+00;  4.0067207E+04; -2.6158354E-01;  0.0000000E+00;  2.6080238E-02;  9.1115430E+03;
  4.2567855E-01;  9.9999998E-03; -2.5986907E-01;5012; -1.2664436E-01;  0.0000000E+00; -7.5202170E-03;  9.9201227E+02;  1.0000000E-01; -6.6176885E+03;3;  1.3527784E+00;  0.0000000E+00;  4.2276721E+00;0; -2.3571363E-01;  3.9297605E+04;  0.0000000E+00; -1.6928776E-01;  4.0000000E+04;  0.0000000E+00;  4.0065812E+04; -2.6129049E-01;  0.0000000E+00;  2.5576860E-02;  8.9307314E+03;
  4.2568648E-01;  9.9999998E-03; -2.4988261E-01;5013; -1.2665217E-01;  0.0000000E+00; -7.0970166E-03;  9.9217194E+02;  1.0000000E-01; -6.4853960E+03;3;  1.3277692E+00;  0.0000000E+00;  4.2249169E+00;0; -2.3628631E-01;  3.9315188E+04;  0.0000000E+00; -1.5831631E-01;  4.0000000E+04;  0.0000000E+00;  4.0060898E+04; -2.6097077E-01;  0.0000000E+00;  2.4684455E-02;  8.2845244E+03;
  4.2569062E-01;  9.9999998E-03; -2.3990598E-01;5014; -1.2667944E-01;  0.0000000E+00; -6.7387549E-03;  9.9229999E+02;  1.0000000E-01; -6.3793247E+03;3;  1.3146011E+00;  0.0000000E+00;  4.2059770E+00;0; -2.3580527E-01;  3.9332977E+04;  0.0000000E+00; -1.4274172E-01;  4.0000000E+04;  0.0000000E+00;  4.0053230E+04; -2.6062772E-01;  0.0000000E+00;  2.4822446E-02;  7.3239102E+03;
  4.2569083E-01;  9.9999998E-03; -2.2993027E-01;5015; -1.2672734E-01;  0.0000000E+00; -6.5514897E-03;  9.9245978E+02;  1.0000000E-01; -6.2469336E+03;3;  1.3105989E+00;  0.0000000E+00;  4.1906290E+00;0; -2.3447120E-01;  3.9350492E+04;  0.0000000E+00; -1.2287260E-01;  4.0000000E+04;  0.0000000E+00;  4.0048559E+04; -2.6026118E-01;  0.0000000E+00;  2.5789980E-02;  6.7150273E+03;
  4.2568994E-01;  9.9999998E-03; -2.1994646E-01;5016; -1.2679408E-01;  0.0000000E+00; -6.4107464E-03;  9.9264899E+02;  1.0000000E-01; -6.0901973E+03;3;  1.3191749E+00;  0.0000000E+00;  4.1481929E+00;0; -2.3322241E-01;  3.9367137E+04;  0.0000000E+00; -9.9102050E-02;  4.0000000E+04;  0.0000000E+00;  4.0046941E+04; -2.5987232E-01;  0.0000000E+00;  2.6649905E-02;  6.4982085E+03;
  4.2568809E-01;  9.9999998E-03; -2.0995474E-01;5017; -1.2687716E-01;  0.0000000E+00; -6.2407446E-03;  9.9283496E+02;  1.0000000E-01; -5.9360781E+03;3;  1.3413185E+00;  0.0000000E+00;  4.0954380E+00;0; -2.3216745E-01;  3.9382824E+04;  0.0000000E+00; -7.2047867E-02;  4.0000000E+04;  0.0000000E+00;  4.0045953E+04; -2.5946051E-01;  0.0000000E+00;  2.7293049E-02;  6.3643896E+03;
  4.2568409E-01;  9.9999998E-03; -1.9995837E-01;5018; -1.2697649E-01;  0.0000000E+00; -6.0389740E-03;  9.9299213E+02;  1.0000000E-01; -5.8059092E+03;3;  1.3740675E+00;  0.0000000E+00;  4.0313339E+00;0; -2.3117836E-01;  3.9397000E+04;  0.0000000E+00; -4.2358968E-02;  4.0000000E+04;  0.0000000E+00;  4.0044379E+04; -2.5902796E-01;  0.0000000E+00;  2.7849605E-02;  6.1637402E+03;
  4.2567846E-01;  9.9999998E-03; -1.8995997E-01;5019; -1.2709363E-01;  0.0000000E+00; -5.8105937E-03;  9.9312366E+02;  1.0000000E-01; -5.6969243E+03;3;  1.4177213E+00;  0.0000000E+00;  3.9511483E+00;0; -2.3019749E-01;  3.9409473E+04;  0.0000000E+00; -1.0793583E-02;  4.0000000E+04;  0.0000000E+00;  4.0042363E+04; -2.5857764E-01;  0.0000000E+00;  2.8380161E-02;  5.8903921E+03;
  4.2567241E-01;  9.9999998E-03; -1.7996097E-01;5020; -1.2723069E-01;  0.0000000E+00; -5.5613676E-03;  9.9322168E+02;  1.0000000E-01; -5.6156924E+03;3;  1.4717797E+00;  0.0000000E+00;  3.8503704E+00;0; -2.2922054E-01;  3.9420117E+04;  0.0000000E+00;  2.1614322E-02;  4.0000000E+04;  0.0000000E+00;  4.0039984E+04; -2.5811353E-01;  0.0000000E+00;  2.8893001E-02;  5.5839590E+03;
  4.2566800E-01;  9.9999998E-03; -1.6996205E-01;5021; -1.2739024E-01;  0.0000000E+00; -5.2945400E-03;  9.9330206E+02;  1.0000000E-01; -5.5491260E+03;3;  1.5346310E+00;  0.0000000E+00;  3.7351811E+00;0; -2.2827540E-01;  3.9428742E+04;  0.0000000E+00;  5.3522106E-02;  4.0000000E+04;  0.0000000E+00;  4.0037590E+04; -2.5764444E-01;  0.0000000E+00;  2.9369045E-02;  5.2828682E+03;
  4.2566663E-01;  9.9999998E-03; -1.5996341E-01;5022; -1.2757446E-01;  0.0000000E+00; -5.0151823E-03;  9.9336017E+02;  1.0000000E-01; -5.5009795E+03;3;  1.6061727E+00;  0.0000000E+00;  3.5956745E+00;0; -2.2739924E-01;  3.9435633E+04;  0.0000000E+00;  8.3283864E-02;  4.0000000E+04;  0.0000000E+00;  4.0035508E+04; -2.5718036E-01;  0.0000000E+00;  2.9781122E-02;  5.0137832E+03;
  4.2566928E-01;  9.9999998E-03; -1.4996503E-01;5023; -1.2778504E-01;  0.0000000E+00; -4.7293915E-03;  9.9340393E+02;  1.0000000E-01; -5.4647334E+03;3;  1.6846080E+00;  0.0000000E+00;  3.4411664E+00;0; -2.2662744E-01;  3.9440836E+04;  0.0000000E+00;  1.0908312E-01;  4.0000000E+04;  0.0000000E+00;  4.0033758E+04; -2.5673300E-01;  0.0000000E+00;  3.0105565E-02;  4.7920659E+03;
  4.2567667E-01;  9.9999998E-03; -1.3996658E-01;5024; -1.2802245E-01;  0.0000000E+00; -4.4441060E-03;  9.9343671E+02;  1.0000000E-01; -5.4375737E+03;3;  1.7662672E+00;  0.0000000E+00;  3.2753825E+00;0; -2.2598451E-01;  3.9444887E+04;  0.0000000E+00;  1.2912911E-01;  4.0000000E+04;  0.0000000E+00;  4.0032367E+04; -2.5631616E-01;  0.0000000E+00;  3.0331643E-02;  4.6239829E+03;
  4.2568913E-01;  9.9999998E-03; -1.2996788E-01;5025; -1.2828642E-01;  0.0000000E+00; -4.1623483E-03;  9.9346118E+02;  1.0000000E-01; -5.4172778E+03;3;  1.8507490E+00;  0.0000000E+00;  3.0962923E+00;0; -2.2547443E-01;  3.9447996E+04;  0.0000000E+00;  1.4193052E-01;  4.0000000E+04;  0.0000000E+00;  4.0031516E+04; -2.5594002E-01;  0.0000000E+00;  3.0465590E-02;  4.5086528E+03;
  4.2570543E-01;  9.9999998E-03; -1.1996891E-01;5026; -1.2857538E-01;  0.0000000E+00; -3.8847032E-03;  9.9348785E+02;  1.0000000E-01; -5.3952046E+03;3;  1.9361836E+00;  0.0000000E+00;  2.9054379E+00;0; -2.2508684E-01;  3.9450730E+04;  0.0000000E+00;  1.4670850E-01;  4.0000000E+04;  0.0000000E+00;  4.0030945E+04; -2.5561535E-01;  0.0000000E+00;  3.0528514E-02;  4.4412603E+03;
  4.2572445E-01;  9.9999998E-03; -1.0996974E-01;5027; -1.2888664E-01;  0.0000000E+00; -3.6100233E-03;  9.9351727E+02;  1.0000000E-01; -5.3708101E+03;3;  2.0207224E+00;  0.0000000E+00;  2.7073302E+00;0; -2.2480114E-01;  3.9453262E+04;  0.0000000E+00;  1.4363712E-01;  4.0000000E+04;  0.0000000E+00;  4.0030730E+04; -2.5535083E-01;  0.0000000E+00;  3.0549690E-02;  4.4170933E+03;
  4.3584210E-01;  9.9999998E-03; -2.6986423E-01;5072; -1.2940587E-01;  0.0000000E+00; -7.7025727E-03;  9.9197180E+02;  1.0000000E-01; -6.6512183E+03;3;  1.3722333E+00;  0.0000000E+00;  4.3315482E+00;0; -2.3223521E-01;  3.9294246E+04;  0.0000000E+00; -1.9216114E-01;  4.0000000E+04;  0.0000000E+00;  4.0065887E+04; -2.5774357E-01;  0.0000000E+00;  2.5508353E-02;  8.9309053E+03;
  4.3585140E-01;  9.9999998E-03; -2.5987104E-01;5073; -1.2937759E-01;  0.0000000E+00; -7.4068257E-03;  9.9215448E+02;  1.0000000E-01; -6.4998647E+03;3;  1.3527193E+00;  0.0000000E+00;  4.3581519E+00;0; -2.3234811E-01;  3.9309340E+04;  0.0000000E+00; -2.0059365E-01;  4.0000000E+04;  0.0000000E+00;  4.0065172E+04; -2.5757584E-01;  0.0000000E+00;  2.5227731E-02;  8.8248428E+03;
  4.3584993E-01;  9.9999998E-03; -2.4988215E-01;5074; -1.2936303E-01;  0.0000000E+00; -6.9999369E-03;  9.9229529E+02;  1.0000000E-01; -6.3832261E+03;3;  1.3439934E+00;  0.0000000E+00;  4.3602214E+00;0; -2.3293090E-01;  3.9324750E+04;  0.0000000E+00; -1.9824094E-01;  4.0000000E+04;  0.0000000E+00;  4.0061016E+04; -2.5738746E-01;  0.0000000E+00;  2.4456568E-02;  8.2963701E+03;
  4.3584260E-01;  9.9999998E-03; -2.3990384E-01;5075; -1.2936446E-01;  0.0000000E+00; -6.6145868E-03;  9.9239630E+02;  1.0000000E-01; -6.2995244E+03;3;  1.3472220E+00;  0.0000000E+00;  4.3441801E+00;0; -2.3272654E-01;  3.9340102E+04;  0.0000000E+00; -1.8726400E-01;  4.0000000E+04;  0.0000000E+00;  4.0053520E+04; -2.5717705E-01;  0.0000000E+00;  2.4450507E-02;  7.3461626E+03;
  4.3583262E-01;  9.9999998E-03; -2.2992861E-01;5076; -1.2938693E-01;  0.0000000E+00; -6.3991933E-03;  9.9251831E+02;  1.0000000E-01; -6.1984409E+03;3;  1.3600351E+00;  0.0000000E+00;  4.3270135E+00;0; -2.3158669E-01;  3.9355129E+04;  0.0000000E+00; -1.6863143E-01;  4.0000000E+04;  0.0000000E+00;  4.0048027E+04; -2.5694326E-01;  0.0000000E+00;  2.5356568E-02;  6.6604502E+03;
  4.3582150E-01;  9.9999998E-03; -2.1994668E-01;5077; -1.2943178E-01;  0.0000000E+00; -6.2520672E-03;  9.9267053E+02;  1.0000000E-01; -6.0723213E+03;3;  1.3858879E+00;  0.0000000E+00;  4.2882929E+00;0; -2.3043564E-01;  3.9369516E+04;  0.0000000E+00; -1.4313108E-01;  4.0000000E+04;  0.0000000E+00;  4.0046031E+04; -2.5668335E-01;  0.0000000E+00;  2.6247704E-02;  6.3809917E+03;
  4.3581095E-01;  9.9999998E-03; -2.0995684E-01;5078; -1.2949802E-01;  0.0000000E+00; -6.0869241E-03;  9.9282379E+02;  1.0000000E-01; -5.9453618E+03;3;  1.4238842E+00;  0.0000000E+00;  4.2325845E+00;0; -2.2947098E-01;  3.9382727E+04;  0.0000000E+00; -1.1171977E-01;  4.0000000E+04;  0.0000000E+00;  4.0044848E+04; -2.5639522E-01;  0.0000000E+00;  2.6924243E-02;  6.2321304E+03;
  4.3580067E-01;  9.9999998E-03; -1.9996196E-01;5079; -1.2958546E-01;  0.0000000E+00; -5.8939923E-03;  9.9295679E+02;  1.0000000E-01; -5.8351919E+03;3;  1.4726191E+00;  0.0000000E+00;  4.1670117E+00;0; -2.2858351E-01;  3.9394887E+04;  0.0000000E+00; -7.5606570E-02;  4.0000000E+04;  0.0000000E+00;  4.0043457E+04; -2.5607821E-01;  0.0000000E+00;  2.7494693E-02;  6.0454976E+03;
  4.3579084E-01;  9.9999998E-03; -1.8996455E-01;5080; -1.2969466E-01;  0.0000000E+00; -5.6764707E-03;  9.9306799E+02;  1.0000000E-01; -5.7430464E+03;3;  1.5337113E+00;  0.0000000E+00;  4.0804095E+00;0; -2.2770901E-01;  3.9405633E+04;  0.0000000E+00; -3.6402769E-02;  4.0000000E+04;  0.0000000E+00;  4.0041672E+04; -2.5573289E-01;  0.0000000E+00;  2.8023882E-02;  5.7982319E+03;
  4.3578216E-01;  9.9999998E-03; -1.7996606E-01;5081; -1.2982686E-01;  0.0000000E+00; -5.4387571E-03;  9.9315784E+02;  1.0000000E-01; -5.6685796E+03;3;  1.6028323E+00;  0.0000000E+00;  3.9829865E+00;0; -2.2683285E-01;  3.9415043E+04;  0.0000000E+00;  3.7713612E-03;  4.0000000E+04;  0.0000000E+00;  4.0039477E+04; -2.5536028E-01;  0.0000000E+00;  2.8527427E-02;  5.5205571E+03;
  4.3577620E-01;  9.9999998E-03; -1.6996723E-01;5082; -1.2998363E-01;  0.0000000E+00; -5.1845545E-03;  9.9322906E+02;  1.0000000E-01; -5.6095688E+03;3;  1.6803420E+00;  0.0000000E+00;  3.8658044E+00;0; -2.2597225E-01;  3.9423047E+04;  0.0000000E+00;  4.2464647E-02;  4.0000000E+04;  0.0000000E+00;  4.0037285E+04; -2.5496534E-01;  0.0000000E+00;  2.8993087E-02;  5.2471851E+03;
  4.3577421E-01;  9.9999998E-03; -1.5996855E-01;5083; -1.3016669E-01;  0.0000000E+00; -4.9177394E-03;  9.9329132E+02;  1.0000000E-01; -5.5580146E+03;3;  1.7664504E+00;  0.0000000E+00;  3.7258451E+00;0; -2.2515573E-01;  3.9429840E+04;  0.0000000E+00;  7.7167504E-02;  4.0000000E+04;  0.0000000E+00;  4.0035402E+04; -2.5455421E-01;  0.0000000E+00;  2.9398492E-02;  5.0035239E+03;
  4.3577704E-01;  9.9999998E-03; -1.4997007E-01;5084; -1.3037729E-01;  0.0000000E+00; -4.6440610E-03;  9.9334637E+02;  1.0000000E-01; -5.5123867E+03;3;  1.8591812E+00;  0.0000000E+00;  3.5656912E+00;0; -2.2441274E-01;  3.9435957E+04;  0.0000000E+00;  1.0567592E-01;  4.0000000E+04;  0.0000000E+00;  4.0033754E+04; -2.5413549E-01;  0.0000000E+00;  2.9722752E-02;  4.8039087E+03;
  4.3578556E-01;  9.9999998E-03; -1.3997154E-01;5085; -1.3061602E-01;  0.0000000E+00; -4.3688044E-03;  9.9340015E+02;  1.0000000E-01; -5.4678447E+03;3;  1.9544655E+00;  0.0000000E+00;  3.3927696E+00;0; -2.2376205E-01;  3.9441562E+04;  0.0000000E+00;  1.2640139E-01;  4.0000000E+04;  0.0000000E+00;  4.0032602E+04; -2.5371745E-01;  0.0000000E+00;  2.9955408E-02;  4.6528970E+03;
  4.3579924E-01;  9.9999998E-03; -1.2997286E-01;5086; -1.3088216E-01;  0.0000000E+00; -4.0943203E-03;  9.9345807E+02;  1.0000000E-01; -5.4198457E+03;3;  2.0520413E+00;  0.0000000E+00;  3.2070086E+00;0; -2.2320913E-01;  3.9447086E+04;  0.0000000E+00;  1.3860112E-01;  4.0000000E+04;  0.0000000E+00;  4.0031801E+04; -2.5331029E-01;  0.0000000E+00;  3.0101160E-02;  4.5472744E+03;
  4.3581709E-01;  9.9999998E-03; -1.1997417E-01;5087; -1.3117401E-01;  0.0000000E+00; -3.8206659E-03;  9.9352008E+02;  1.0000000E-01; -5.3684893E+03;3;  2.1490936E+00;  0.0000000E+00;  3.0130591E+00;0; -2.2274342E-01;  3.9452547E+04;  0.0000000E+00;  1.4230011E-01;  4.0000000E+04;  0.0000000E+00;  4.0031301E+04; -2.5292161E-01;  0.0000000E+00;  3.0178191E-02;  4.4798872E+03;
  4.3583739E-01;  9.9999998E-03; -1.0997552E-01;5088; -1.3148868E-01;  0.0000000E+00; -3.5467402E-03;  9.9358630E+02;  1.0000000E-01; -5.3136265E+03;3;  2.2451558E+00;  0.0000000E+00;  2.8083086E+00;0; -2.2234765E-01;  3.9458332E+04;  0.0000000E+00;  1.3828515E-01;  4.0000000E+04;  0.0000000E+00;  4.0031055E+04; -2.5255957E-01;  0.0000000E+00;  3.0211918E-02;  4.4439536E+03;
  4.4602305E-01;  9.9999998E-03; -2.6986805E-01;5133; -1.3209078E-01;  0.0000000E+00; -7.5702029E-03;  9.9228101E+02;  1.0000000E-01; -6.3950278E+03;3;  1.3471353E+00;  0.0000000E+00;  4.4410591E+00;0; -2.2888723E-01;  3.9321637E+04;  0.0000000E+00; -1.8469830E-01;  4.0000000E+04;  0.0000000E+00;  4.0062594E+04; -2.5387427E-01;  0.0000000E+00;  2.4987034E-02;  8.4819873E+03;
  4.4602638E-01;  9.9999998E-03; -2.5987405E-01;5134; -1.3204955E-01;  0.0000000E+00; -7.3051727E-03;  9.9243597E+02;  1.0000000E-01; -6.2666367E+03;3;  1.3436787E+00;  0.0000000E+00;  4.4789987E+00;0; -2.2880904E-01;  3.9334297E+04;  0.0000000E+00; -2.0779566E-01;  4.0000000E+04;  0.0000000E+00;  4.0062281E+04; -2.5384483E-01;  0.0000000E+00;  2.5035786E-02;  8.4466904E+03;
  4.4601882E-01;  9.9999998E-03; -2.4988261E-01;5135; -1.3202040E-01;  0.0000000E+00; -6.9486932E-03;  9.9256140E+02;  1.0000000E-01; -6.1627383E+03;3;  1.3524873E+00;  0.0000000E+00;  4.4863806E+00;0; -2.2921103E-01;  3.9347004E+04;  0.0000000E+00; -2.1573979E-01;  4.0000000E+04;  0.0000000E+00;  4.0059586E+04; -2.5379881E-01;  0.0000000E+00;  2.4587782E-02;  8.0903374E+03;
  4.4600430E-01;  9.9999998E-03; -2.3990022E-01;5136; -1.3200316E-01;  0.0000000E+00; -6.5717846E-03;  9.9264191E+02;  1.0000000E-01; -6.0960244E+03;3;  1.3732829E+00;  0.0000000E+00;  4.4762354E+00;0; -2.2921188E-01;  3.9359684E+04;  0.0000000E+00; -2.1188453E-01;  4.0000000E+04;  0.0000000E+00;  4.0053223E+04; -2.5373235E-01;  0.0000000E+00;  2.4520468E-02;  7.3017251E+03;
  4.4598812E-01;  9.9999998E-03; -2.2992200E-01;5137; -1.3200575E-01;  0.0000000E+00; -6.3297572E-03;  9.9273224E+02;  1.0000000E-01; -6.0212114E+03;3;  1.4044945E+00;  0.0000000E+00;  4.4560251E+00;0; -2.2838084E-01;  3.9371910E+04;  0.0000000E+00; -1.9787748E-01;  4.0000000E+04;  0.0000000E+00;  4.0048035E+04; -2.5363904E-01;  0.0000000E+00;  2.5258198E-02;  6.6500664E+03;
  4.4597116E-01;  9.9999998E-03; -2.1993920E-01;5138; -1.3203295E-01;  0.0000000E+00; -6.1587119E-03;  9.9284882E+02;  1.0000000E-01; -5.9246216E+03;3;  1.4485186E+00;  0.0000000E+00;  4.4147353E+00;0; -2.2744775E-01;  3.9383547E+04;  0.0000000E+00; -1.7497621E-01;  4.0000000E+04;  0.0000000E+00;  4.0045656E+04; -2.5351524E-01;  0.0000000E+00;  2.6067492E-02;  6.3337632E+03;
  4.4595411E-01;  9.9999998E-03; -2.0995007E-01;5139; -1.3208534E-01;  0.0000000E+00; -5.9803044E-03;  9.9296692E+02;  1.0000000E-01; -5.8267974E+03;3;  1.5043949E+00;  0.0000000E+00;  4.3603306E+00;0; -2.2663848E-01;  3.9394469E+04;  0.0000000E+00; -1.4438479E-01;  4.0000000E+04;  0.0000000E+00;  4.0044402E+04; -2.5335503E-01;  0.0000000E+00;  2.6716540E-02;  6.1530049E+03;
  4.4593766E-01;  9.9999998E-03; -1.9995642E-01;5140; -1.3216308E-01;  0.0000000E+00; -5.7825237E-03;  9.9307538E+02;  1.0000000E-01; -5.7369233E+03;3;  1.5716212E+00;  0.0000000E+00;  4.2890658E+00;0; -2.2588032E-01;  3.9404543E+04;  0.0000000E+00; -1.0757219E-01;  4.0000000E+04;  0.0000000E+00;  4.0042891E+04; -2.5315523E-01;  0.0000000E+00;  2.7274912E-02;  5.9641445E+03;
  4.4592243E-01;  9.9999998E-03; -1.8996018E-01;5141; -1.3226599E-01;  0.0000000E+00; -5.5640573E-03;  9.9316675E+02;  1.0000000E-01; -5.6612217E+03;3;  1.6479813E+00;  0.0000000E+00;  4.2053447E+00;0; -2.2512004E-01;  3.9413730E+04;  0.0000000E+00; -6.6554368E-02;  4.0000000E+04;  0.0000000E+00;  4.0041125E+04; -2.5291210E-01;  0.0000000E+00;  2.7792070E-02;  5.7372690E+03;
  4.4590983E-01;  9.9999998E-03; -1.7996258E-01;5142; -1.3239455E-01;  0.0000000E+00; -5.3278976E-03;  9.9324646E+02;  1.0000000E-01; -5.5951987E+03;3;  1.7340479E+00;  0.0000000E+00;  4.1054592E+00;0; -2.2434232E-01;  3.9422098E+04;  0.0000000E+00; -2.3979044E-02;  4.0000000E+04;  0.0000000E+00;  4.0039137E+04; -2.5262356E-01;  0.0000000E+00;  2.8281234E-02;  5.4911719E+03;
  4.4590136E-01;  9.9999998E-03; -1.6996449E-01;5143; -1.3254957E-01;  0.0000000E+00; -5.0767804E-03;  9.9331689E+02;  1.0000000E-01; -5.5368301E+03;3;  1.8295798E+00;  0.0000000E+00;  3.9818008E+00;0; -2.2355825E-01;  3.9429582E+04;  0.0000000E+00;  1.7114857E-02;  4.0000000E+04;  0.0000000E+00;  4.0037383E+04; -2.5229013E-01;  0.0000000E+00;  2.8731875E-02;  5.2523071E+03;
  4.4589809E-01;  9.9999998E-03; -1.5996648E-01;5144; -1.3273220E-01;  0.0000000E+00; -4.8140003E-03;  9.9338495E+02;  1.0000000E-01; -5.4804365E+03;3;  1.9301345E+00;  0.0000000E+00;  3.8407528E+00;0; -2.2279119E-01;  3.9436785E+04;  0.0000000E+00;  5.3731304E-02;  4.0000000E+04;  0.0000000E+00;  4.0035777E+04; -2.5191480E-01;  0.0000000E+00;  2.9123608E-02;  5.0411157E+03;
  4.4590062E-01;  9.9999998E-03; -1.4996864E-01;5145; -1.3294297E-01;  0.0000000E+00; -4.5440746E-03;  9.9345746E+02;  1.0000000E-01; -5.4203892E+03;3;  2.0380845E+00;  0.0000000E+00;  3.6749880E+00;0; -2.2206581E-01;  3.9443895E+04;  0.0000000E+00;  8.3446801E-02;  4.0000000E+04;  0.0000000E+00;  4.0034371E+04; -2.5150248E-01;  0.0000000E+00;  2.9436681E-02;  4.8685503E+03;
  4.4590893E-01;  9.9999998E-03; -1.3997075E-01;5146; -1.3318190E-01;  0.0000000E+00; -4.2714346E-03;  9.9353278E+02;  1.0000000E-01; -5.3579712E+03;3;  2.1491907E+00;  0.0000000E+00;  3.4955997E+00;0; -2.2139853E-01;  3.9451141E+04;  0.0000000E+00;  1.0485244E-01;  4.0000000E+04;  0.0000000E+00;  4.0033406E+04; -2.5105900E-01;  0.0000000E+00;  2.9660460E-02;  4.7363726E+03;
  4.4592220E-01;  9.9999998E-03; -1.2997286E-01;5147; -1.3344799E-01;  0.0000000E+00; -3.9982488E-03;  9.9361633E+02;  1.0000000E-01; -5.2887383E+03;3;  2.2592981E+00;  0.0000000E+00;  3.3085783E+00;0; -2.2079435E-01;  3.9458820E+04;  0.0000000E+00;  1.1762606E-01;  4.0000000E+04;  0.0000000E+00;  4.0032695E+04; -2.5059232E-01;  0.0000000E+00;  2.9797968E-02;  4.6392119E+03;
  4.4593927E-01;  9.9999998E-03; -1.1997519E-01;5148; -1.3373917E-01;  0.0000000E+00; -3.7239930E-03;  9.9371289E+02;  1.0000000E-01; -5.2087407E+03;3;  2.3690832E+00;  0.0000000E+00;  3.1092050E+00;0; -2.2024682E-01;  3.9466824E+04;  0.0000000E+00;  1.2221900E-01;  4.0000000E+04;  0.0000000E+00;  4.0032250E+04; -2.5011131E-01;  0.0000000E+00;  2.9864494E-02;  4.5684556E+03;
  4.4595757E-01;  9.9999998E-03; -1.0997771E-01;5149; -1.3405223E-01;  0.0000000E+00; -3.4474425E-03;  9.9381702E+02;  1.0000000E-01; -5.1224717E+03;3;  2.4775708E+00;  0.0000000E+00;  2.8976905E+00;0; -2.1974185E-01;  3.9475516E+04;  0.0000000E+00;  1.1963527E-01;  4.0000000E+04;  0.0000000E+00;  4.0031762E+04; -2.4962425E-01;  0.0000000E+00;  2.9882394E-02;  4.5165117E+03;
  4.5620599E-01;  9.9999998E-03; -2.6987255E-01;5194; -1.3468978E-01;  0.0000000E+00; -7.4396501E-03;  9.9270624E+02;  1.0000000E-01; -6.0427417E+03;3;  1.3131192E+00;  0.0000000E+00;  4.5358124E+00;0; -2.2550625E-01;  3.9360387E+04;  0.0000000E+00; -1.5976945E-01;  4.0000000E+04;  0.0000000E+00;  4.0057461E+04; -2.5001097E-01;  0.0000000E+00;  2.4504729E-02;  7.8191123E+03;
  4.5619985E-01;  9.9999998E-03; -2.5987828E-01;5195; -1.3464302E-01;  0.0000000E+00; -7.2085578E-03;  9.9282971E+02;  1.0000000E-01; -5.9404238E+03;3;  1.3279679E+00;  0.0000000E+00;  4.5792971E+00;0; -2.2522940E-01;  3.9370105E+04;  0.0000000E+00; -1.9640841E-01;  4.0000000E+04;  0.0000000E+00;  4.0057621E+04; -2.5013185E-01;  0.0000000E+00;  2.4902446E-02;  7.8357173E+03;
  4.5618764E-01;  9.9999998E-03; -2.4988447E-01;5196; -1.3460806E-01;  0.0000000E+00; -6.9277254E-03;  9.9293842E+02;  1.0000000E-01; -5.8504014E+03;3;  1.3549833E+00;  0.0000000E+00;  4.5942788E+00;0; -2.2529839E-01;  3.9379883E+04;  0.0000000E+00; -2.1428201E-01;  4.0000000E+04;  0.0000000E+00;  4.0056566E+04; -2.5023875E-01;  0.0000000E+00;  2.4940353E-02;  7.6838369E+03;
  4.5617029E-01;  9.9999998E-03; -2.3989630E-01;5197; -1.3458219E-01;  0.0000000E+00; -6.5934970E-03;  9.9301001E+02;  1.0000000E-01; -5.7910947E+03;3;  1.3942078E+00;  0.0000000E+00;  4.5903268E+00;0; -2.2540081E-01;  3.9389598E+04;  0.0000000E+00; -2.1758905E-01;  4.0000000E+04;  0.0000000E+00;  4.0052527E+04; -2.5032467E-01;  0.0000000E+00;  2.4923867E-02;  7.1811333E+03;
  4.5614982E-01;  9.9999998E-03; -2.2991191E-01;5198; -1.3457328E-01;  0.0000000E+00; -6.3321479E-03;  9.9308167E+02;  1.0000000E-01; -5.7316890E+03;3;  1.4451632E+00;  0.0000000E+00;  4.5689931E+00;0; -2.2494642E-01;  3.9399145E+04;  0.0000000E+00; -2.0904650E-01;  4.0000000E+04;  0.0000000E+00;  4.0048531E+04; -2.5038153E-01;  0.0000000E+00;  2.5435105E-02;  6.6719087E+03;
  4.5612720E-01;  9.9999998E-03; -2.1992537E-01;5199; -1.3458900E-01;  0.0000000E+00; -6.1237016E-03;  9.9316248E+02;  1.0000000E-01; -5.6647773E+03;3;  1.5078808E+00;  0.0000000E+00;  4.5275750E+00;0; -2.2432569E-01;  3.9408145E+04;  0.0000000E+00; -1.9074024E-01;  4.0000000E+04;  0.0000000E+00;  4.0046121E+04; -2.5040099E-01;  0.0000000E+00;  2.6075304E-02;  6.3552012E+03;
  4.5610347E-01;  9.9999998E-03; -2.0993516E-01;5200; -1.3463210E-01;  0.0000000E+00; -5.9177945E-03;  9.9324982E+02;  1.0000000E-01; -5.5923843E+03;3;  1.5826671E+00;  0.0000000E+00;  4.4740944E+00;0; -2.2372299E-01;  3.9416863E+04;  0.0000000E+00; -1.6425355E-01;  4.0000000E+04;  0.0000000E+00;  4.0044316E+04; -2.5037432E-01;  0.0000000E+00;  2.6651319E-02;  6.1343115E+03;
  4.5608097E-01;  9.9999998E-03; -1.9994189E-01;5201; -1.3470355E-01;  0.0000000E+00; -5.7019629E-03;  9.9333093E+02;  1.0000000E-01; -5.5251763E+03;3;  1.6679205E+00;  0.0000000E+00;  4.4043393E+00;0; -2.2311442E-01;  3.9425023E+04;  0.0000000E+00; -1.3112174E-01;  4.0000000E+04;  0.0000000E+00;  4.0042758E+04; -2.5029311E-01;  0.0000000E+00;  2.7178688E-02;  5.9258848E+03;
  4.5606104E-01;  9.9999998E-03; -1.8994664E-01;5202; -1.3480270E-01;  0.0000000E+00; -5.4718913E-03;  9.9340570E+02;  1.0000000E-01; -5.4632520E+03;3;  1.7634119E+00;  0.0000000E+00;  4.3175702E+00;0; -2.2247262E-01;  3.9432652E+04;  0.0000000E+00; -9.3327075E-02;  4.0000000E+04;  0.0000000E+00;  4.0041031E+04; -2.5015059E-01;  0.0000000E+00;  2.7677974E-02;  5.7079126E+03;
  4.5604470E-01;  9.9999998E-03; -1.7995033E-01;5203; -1.3492931E-01;  0.0000000E+00; -5.2277078E-03;  9.9347650E+02;  1.0000000E-01; -5.4045869E+03;3;  1.8676525E+00;  0.0000000E+00;  4.2133498E+00;0; -2.2178926E-01;  3.9440121E+04;  0.0000000E+00; -5.3491253E-02;  4.0000000E+04;  0.0000000E+00;  4.0039418E+04; -2.4994054E-01;  0.0000000E+00;  2.8151287E-02;  5.4892124E+03;
  4.5603290E-01;  9.9999998E-03; -1.6995363E-01;5204; -1.3508345E-01;  0.0000000E+00; -4.9708262E-03;  9.9354932E+02;  1.0000000E-01; -5.3442925E+03;3;  1.9807891E+00;  0.0000000E+00;  4.0834360E+00;0; -2.2107503E-01;  3.9447410E+04;  0.0000000E+00; -1.4658612E-02;  4.0000000E+04;  0.0000000E+00;  4.0037734E+04; -2.4965970E-01;  0.0000000E+00;  2.8584680E-02;  5.2858369E+03;
  4.5602643E-01;  9.9999998E-03; -1.5995686E-01;5205; -1.3526535E-01;  0.0000000E+00; -4.7034021E-03;  9.9362219E+02;  1.0000000E-01; -5.2838989E+03;3;  2.1017220E+00;  0.0000000E+00;  3.9291923E+00;0; -2.2035098E-01;  3.9454938E+04;  0.0000000E+00;  2.0189064E-02;  4.0000000E+04;  0.0000000E+00;  4.0036379E+04; -2.4930802E-01;  0.0000000E+00;  2.8957045E-02;  5.1097500E+03;
  4.5602578E-01;  9.9999998E-03; -1.4996020E-01;5206; -1.3547523E-01;  0.0000000E+00; -4.4294624E-03;  9.9370905E+02;  1.0000000E-01; -5.2119507E+03;3;  2.2235680E+00;  0.0000000E+00;  3.7682610E+00;0; -2.1963824E-01;  3.9462926E+04;  0.0000000E+00;  4.8729900E-02;  4.0000000E+04;  0.0000000E+00;  4.0035430E+04; -2.4888684E-01;  0.0000000E+00;  2.9248592E-02;  4.9658389E+03;
  4.5603076E-01;  9.9999998E-03; -1.3996369E-01;5207; -1.3571210E-01;  0.0000000E+00; -4.1535832E-03;  9.9380634E+02;  1.0000000E-01; -5.1313110E+03;3;  2.3478742E+00;  0.0000000E+00;  3.5912130E+00;0; -2.1895409E-01;  3.9471516E+04;  0.0000000E+00;  6.9748774E-02;  4.0000000E+04;  0.0000000E+00;  4.0034480E+04; -2.4840227E-01;  0.0000000E+00;  2.9448178E-02;  4.8521519E+03;
  4.5604014E-01;  9.9999998E-03; -1.2996732E-01;5208; -1.3597466E-01;  0.0000000E+00; -3.8768819E-03;  9.9391309E+02;  1.0000000E-01; -5.0428691E+03;3;  2.4724183E+00;  0.0000000E+00;  3.3990395E+00;0; -2.1830268E-01;  3.9480965E+04;  0.0000000E+00;  8.3133020E-02;  4.0000000E+04;  0.0000000E+00;  4.0033887E+04; -2.4786006E-01;  0.0000000E+00;  2.9557377E-02;  4.7615732E+03;
  4.5605236E-01;  9.9999998E-03; -1.1997100E-01;5209; -1.3626060E-01;  0.0000000E+00; -3.5982139E-03;  9.9403632E+02;  1.0000000E-01; -4.9407979E+03;3;  2.5969424E+00;  0.0000000E+00;  3.1932728E+00;0; -2.1768111E-01;  3.9491281E+04;  0.0000000E+00;  8.9425139E-02;  4.0000000E+04;  0.0000000E+00;  4.0033324E+04; -2.4727052E-01;  0.0000000E+00;  2.9589415E-02;  4.6848579E+03;
  4.5606673E-01;  9.9999998E-03; -1.0997450E-01;5210; -1.3656700E-01;  0.0000000E+00; -3.3165507E-03;  9.9416949E+02;  1.0000000E-01; -4.8304800E+03;3;  2.7191966E+00;  0.0000000E+00;  2.9737356E+00;0; -2.1708149E-01;  3.9502250E+04;  0.0000000E+00;  8.9551151E-02;  4.0000000E+04;  0.0000000E+00;  4.0032828E+04; -2.4664550E-01;  0.0000000E+00;  2.9564016E-02;  4.6144834E+03;
  4.6635607E-01;  9.9999998E-03; -2.6987734E-01;5255; -1.3718705E-01;  0.0000000E+00; -7.3151551E-03;  9.9318488E+02;  1.0000000E-01; -5.6462095E+03;3;  1.2690928E+00;  0.0000000E+00;  4.6124969E+00;0; -2.2213867E-01;  3.9404316E+04;  0.0000000E+00; -1.2001066E-01;  4.0000000E+04;  0.0000000E+00;  4.0051660E+04; -2.4623635E-01;  0.0000000E+00;  2.4097681E-02;  7.0475127E+03;
  4.6635008E-01;  9.9999998E-03; -2.5988337E-01;5256; -1.3714613E-01;  0.0000000E+00; -7.1159774E-03;  9.9327887E+02;  1.0000000E-01; -5.5683350E+03;3;  1.3039675E+00;  0.0000000E+00;  4.6648226E+00;0; -2.2169985E-01;  3.9411395E+04;  0.0000000E+00; -1.6986360E-01;  4.0000000E+04;  0.0000000E+00;  4.0052047E+04; -2.4650851E-01;  0.0000000E+00;  2.4808664E-02;  7.0917134E+03;
  4.6633792E-01;  9.9999998E-03; -2.4988812E-01;5257; -1.3711518E-01;  0.0000000E+00; -6.9094743E-03;  9.9337012E+02;  1.0000000E-01; -5.4927324E+03;3;  1.3501040E+00;  0.0000000E+00;  4.6821470E+00;0; -2.2145420E-01;  3.9418453E+04;  0.0000000E+00; -1.9708733E-01;  4.0000000E+04;  0.0000000E+00;  4.0052340E+04; -2.4677102E-01;  0.0000000E+00;  2.5316827E-02;  7.1197598E+03;
  4.6632153E-01;  9.9999998E-03; -2.3989439E-01;5258; -1.3709131E-01;  0.0000000E+00; -6.6373982E-03;  9.9344226E+02;  1.0000000E-01; -5.4329810E+03;3;  1.4094741E+00;  0.0000000E+00;  4.6819096E+00;0; -2.2156708E-01;  3.9425582E+04;  0.0000000E+00; -2.0649816E-01;  4.0000000E+04;  0.0000000E+00;  4.0050875E+04; -2.4701291E-01;  0.0000000E+00;  2.5445834E-02;  6.9386758E+03;
  4.6630123E-01;  9.9999998E-03; -2.2990233E-01;5259; -1.3708182E-01;  0.0000000E+00; -6.3716983E-03;  9.9350262E+02;  1.0000000E-01; -5.3829575E+03;3;  1.4815478E+00;  0.0000000E+00;  4.6659279E+00;0; -2.2146359E-01;  3.9432566E+04;  0.0000000E+00; -2.0260620E-01;  4.0000000E+04;  0.0000000E+00;  4.0048738E+04; -2.4722262E-01;  0.0000000E+00;  2.5759025E-02;  6.6592686E+03;
  4.6627635E-01;  9.9999998E-03; -2.1990973E-01;5260; -1.3709499E-01;  0.0000000E+00; -6.1264941E-03;  9.9356232E+02;  1.0000000E-01; -5.3334775E+03;3;  1.5643388E+00;  0.0000000E+00;  4.6281881E+00;0; -2.2118056E-01;  3.9439383E+04;  0.0000000E+00; -1.8888219E-01;  4.0000000E+04;  0.0000000E+00;  4.0046715E+04; -2.4738784E-01;  0.0000000E+00;  2.6207287E-02;  6.4010259E+03;
  4.6624869E-01;  9.9999998E-03; -2.0991592E-01;5261; -1.3713558E-01;  0.0000000E+00; -5.8861310E-03;  9.9362262E+02;  1.0000000E-01; -5.2835532E+03;3;  1.6598389E+00;  0.0000000E+00;  4.5731053E+00;0; -2.2080718E-01;  3.9446070E+04;  0.0000000E+00; -1.6767797E-01;  4.0000000E+04;  0.0000000E+00;  4.0044891E+04; -2.4749571E-01;  0.0000000E+00;  2.6688533E-02;  6.1623257E+03;
  4.6622029E-01;  9.9999998E-03; -1.9992116E-01;5262; -1.3720493E-01;  0.0000000E+00; -5.6439470E-03;  9.9368195E+02;  1.0000000E-01; -5.2343691E+03;3;  1.7651657E+00;  0.0000000E+00;  4.5050182E+00;0; -2.2035663E-01;  3.9452602E+04;  0.0000000E+00; -1.4071035E-01;  4.0000000E+04;  0.0000000E+00;  4.0043066E+04; -2.4753328E-01;  0.0000000E+00;  2.7176652E-02;  5.9316323E+03;
  4.6619377E-01;  9.9999998E-03; -1.8992586E-01;5263; -1.3730259E-01;  0.0000000E+00; -5.3940821E-03;  9.9374249E+02;  1.0000000E-01; -5.1842471E+03;3;  1.8806912E+00;  0.0000000E+00;  4.4168491E+00;0; -2.1983190E-01;  3.9459184E+04;  0.0000000E+00; -1.0970432E-01;  4.0000000E+04;  0.0000000E+00;  4.0041324E+04; -2.4748924E-01;  0.0000000E+00;  2.7657347E-02;  5.7120908E+03;
  4.6617046E-01;  9.9999998E-03; -1.7993037E-01;5264; -1.3742821E-01;  0.0000000E+00; -5.1330538E-03;  9.9380524E+02;  1.0000000E-01; -5.1322485E+03;3;  2.0068762E+00;  0.0000000E+00;  4.3013568E+00;0; -2.1923733E-01;  3.9465797E+04;  0.0000000E+00; -7.6794505E-02;  4.0000000E+04;  0.0000000E+00;  4.0039727E+04; -2.4735317E-01;  0.0000000E+00;  2.8115839E-02;  5.5123384E+03;
  4.6615180E-01;  9.9999998E-03; -1.6993514E-01;5265; -1.3758132E-01;  0.0000000E+00; -4.8624403E-03;  9.9387701E+02;  1.0000000E-01; -5.0727935E+03;3;  2.1382661E+00;  0.0000000E+00;  4.1718445E+00;0; -2.1858732E-01;  3.9472984E+04;  0.0000000E+00; -4.4468597E-02;  4.0000000E+04;  0.0000000E+00;  4.0038539E+04; -2.4711892E-01;  0.0000000E+00;  2.8531592E-02;  5.3390845E+03;
  4.6613902E-01;  9.9999998E-03; -1.5994017E-01;5266; -1.3776156E-01;  0.0000000E+00; -4.5841173E-03;  9.9395911E+02;  1.0000000E-01; -5.0047461E+03;3;  2.2742095E+00;  0.0000000E+00;  4.0231795E+00;0; -2.1790226E-01;  3.9480668E+04;  0.0000000E+00; -1.5160989E-02;  4.0000000E+04;  0.0000000E+00;  4.0037281E+04; -2.4678271E-01;  0.0000000E+00;  2.8880453E-02;  5.1948105E+03;
  4.6613237E-01;  9.9999998E-03; -1.4994536E-01;5267; -1.3796835E-01;  0.0000000E+00; -4.3017259E-03;  9.9405469E+02;  1.0000000E-01; -4.9255879E+03;3;  2.4120581E+00;  0.0000000E+00;  3.8592021E+00;0; -2.1720408E-01;  3.9489242E+04;  0.0000000E+00;  9.2684859E-03;  4.0000000E+04;  0.0000000E+00;  4.0036629E+04; -2.4634552E-01;  0.0000000E+00;  2.9141441E-02;  5.0767129E+03;
  4.6613169E-01;  9.9999998E-03; -1.3995068E-01;5268; -1.3820048E-01;  0.0000000E+00; -4.0185279E-03;  9.9416693E+02;  1.0000000E-01; -4.8326030E+03;3;  2.5526078E+00;  0.0000000E+00;  3.6762772E+00;0; -2.1650812E-01;  3.9498820E+04;  0.0000000E+00;  2.7903693E-02;  4.0000000E+04;  0.0000000E+00;  4.0035848E+04; -2.4581103E-01;  0.0000000E+00;  2.9302912E-02;  4.9784873E+03;
  4.6613553E-01;  9.9999998E-03; -1.2995595E-01;5269; -1.3845618E-01;  0.0000000E+00; -3.7345674E-03;  9.9429370E+02;  1.0000000E-01; -4.7275688E+03;3;  2.6933584E+00;  0.0000000E+00;  3.4774995E+00;0; -2.1582255E-01;  3.9509664E+04;  0.0000000E+00;  4.0735949E-02;  4.0000000E+04;  0.0000000E+00;  4.0035141E+04; -2.4518828E-01;  0.0000000E+00;  2.9365741E-02;  4.8913232E+03;
  4.6614292E-01;  9.9999998E-03; -1.1996105E-01;5270; -1.3873315E-01;  0.0000000E+00; -3.4489392E-03;  9.9443433E+02;  1.0000000E-01; -4.6110786E+03;3;  2.8318541E+00;  0.0000000E+00;  3.2658701E+00;0; -2.1514609E-01;  3.9521375E+04;  0.0000000E+00;  4.8243530E-02;  4.0000000E+04;  0.0000000E+00;  4.0034617E+04; -2.4448790E-01;  0.0000000E+00;  2.9341798E-02;  4.8063716E+03;
  4.6615335E-01;  9.9999998E-03; -1.0996586E-01;5271; -1.3902828E-01;  0.0000000E+00; -3.1606662E-03;  9.9458435E+02;  1.0000000E-01; -4.4867856E+03;3;  2.9684763E+00;  0.0000000E+00;  3.0397220E+00;0; -2.1447462E-01;  3.9534035E+04;  0.0000000E+00;  5.1120318E-02;  4.0000000E+04;  0.0000000E+00;  4.0033898E+04; -2.4372394E-01;  0.0000000E+00;  2.9249318E-02;  4.7166406E+03;
  4.7641164E-01;  9.9999998E-03; -2.6988176E-01;5316; -1.3957238E-01;  0.0000000E+00; -7.1931561E-03;  9.9363409E+02;  1.0000000E-01; -5.2740225E+03;3;  1.2155124E+00;  0.0000000E+00;  4.6706724E+00;0; -2.1892002E-01;  3.9445605E+04;  0.0000000E+00; -7.5404204E-02;  4.0000000E+04;  0.0000000E+00;  4.0046062E+04; -2.4264894E-01;  0.0000000E+00;  2.3728916E-02;  6.3082393E+03;
  4.7640958E-01;  9.9999998E-03; -2.5988835E-01;5317; -1.3954681E-01;  0.0000000E+00; -7.0247492E-03;  9.9370050E+02;  1.0000000E-01; -5.2190117E+03;3;  1.2713209E+00;  0.0000000E+00;  4.7302284E+00;0; -2.1833631E-01;  3.9450539E+04;  0.0000000E+00; -1.3359165E-01;  4.0000000E+04;  0.0000000E+00;  4.0046551E+04; -2.4306583E-01;  0.0000000E+00;  2.4729514E-02;  6.3682925E+03;
  4.7640216E-01;  9.9999998E-03; -2.4989262E-01;5318; -1.3952932E-01;  0.0000000E+00; -6.8799052E-03;  9.9377832E+02;  1.0000000E-01; -5.1545195E+03;3;  1.3381333E+00;  0.0000000E+00;  4.7500992E+00;0; -2.1785809E-01;  3.9455457E+04;  0.0000000E+00; -1.6698790E-01;  4.0000000E+04;  0.0000000E+00;  4.0047922E+04; -2.4347793E-01;  0.0000000E+00;  2.5619840E-02;  6.5255420E+03;
  4.7639433E-01;  9.9999998E-03; -2.3989491E-01;5319; -1.3951857E-01;  0.0000000E+00; -6.6681863E-03;  9.9385101E+02;  1.0000000E-01; -5.0943237E+03;3;  1.4190807E+00;  0.0000000E+00;  4.7586703E+00;0; -2.1795490E-01;  3.9460559E+04;  0.0000000E+00; -1.8051918E-01;  4.0000000E+04;  0.0000000E+00;  4.0048703E+04; -2.4386905E-01;  0.0000000E+00;  2.5914146E-02;  6.6228037E+03;
  4.7638392E-01;  9.9999998E-03; -2.2989631E-01;5320; -1.3952065E-01;  0.0000000E+00; -6.4104325E-03;  9.9391113E+02;  1.0000000E-01; -5.0444980E+03;3;  1.5116334E+00;  0.0000000E+00;  4.7486687E+00;0; -2.1813029E-01;  3.9465746E+04;  0.0000000E+00; -1.7989919E-01;  4.0000000E+04;  0.0000000E+00;  4.0048391E+04; -2.4422529E-01;  0.0000000E+00;  2.6095003E-02;  6.5793335E+03;
  4.7636694E-01;  9.9999998E-03; -2.1989757E-01;5321; -1.3954258E-01;  0.0000000E+00; -6.1385813E-03;  9.9396051E+02;  1.0000000E-01; -5.0036104E+03;3;  1.6151166E+00;  0.0000000E+00;  4.7168984E+00;0; -2.1814784E-01;  3.9470953E+04;  0.0000000E+00; -1.6980724E-01;  4.0000000E+04;  0.0000000E+00;  4.0047160E+04; -2.4453026E-01;  0.0000000E+00;  2.6382424E-02;  6.4204551E+03;
  4.7634393E-01;  9.9999998E-03; -2.0989931E-01;5322; -1.3958950E-01;  0.0000000E+00; -5.8653010E-03;  9.9400635E+02;  1.0000000E-01; -4.9656362E+03;3;  1.7330308E+00;  0.0000000E+00;  4.6618137E+00;0; -2.1799228E-01;  3.9476312E+04;  0.0000000E+00; -1.5364985E-01;  4.0000000E+04;  0.0000000E+00;  4.0045344E+04; -2.4476676E-01;  0.0000000E+00;  2.6774473E-02;  6.1977026E+03;
  4.7631699E-01;  9.9999998E-03; -1.9990174E-01;5323; -1.3966297E-01;  0.0000000E+00; -5.5946428E-03;  9.9405243E+02;  1.0000000E-01; -4.9274644E+03;3;  1.8611192E+00;  0.0000000E+00;  4.5898037E+00;0; -2.1769121E-01;  3.9481816E+04;  0.0000000E+00; -1.3361156E-01;  4.0000000E+04;  0.0000000E+00;  4.0043492E+04; -2.4491730E-01;  0.0000000E+00;  2.7226092E-02;  5.9612095E+03;
  4.7628909E-01;  9.9999998E-03; -1.8990502E-01;5324; -1.3976300E-01;  0.0000000E+00; -5.3206580E-03;  9.9410284E+02;  1.0000000E-01; -4.8856880E+03;3;  1.9991124E+00;  0.0000000E+00;  4.4931030E+00;0; -2.1727359E-01;  3.9487582E+04;  0.0000000E+00; -1.1122859E-01;  4.0000000E+04;  0.0000000E+00;  4.0041816E+04; -2.4496551E-01;  0.0000000E+00;  2.7691917E-02;  5.7424468E+03;
  4.7626278E-01;  9.9999998E-03; -1.7990932E-01;5325; -1.3988964E-01;  0.0000000E+00; -5.0388225E-03;  9.9416455E+02;  1.0000000E-01; -4.8345781E+03;3;  2.1443248E+00;  0.0000000E+00;  4.3823848E+00;0; -2.1675847E-01;  3.9493883E+04;  0.0000000E+00; -8.7958492E-02;  4.0000000E+04;  0.0000000E+00;  4.0040371E+04; -2.4489775E-01;  0.0000000E+00;  2.8139282E-02;  5.5559995E+03;
  4.7624061E-01;  9.9999998E-03; -1.6991468E-01;5326; -1.4004219E-01;  0.0000000E+00; -4.7512474E-03;  9.9423517E+02;  1.0000000E-01; -4.7760615E+03;3;  2.2954071E+00;  0.0000000E+00;  4.2520466E+00;0; -2.1616590E-01;  3.9500879E+04;  0.0000000E+00; -6.5340541E-02;  4.0000000E+04;  0.0000000E+00;  4.0039172E+04; -2.4470437E-01;  0.0000000E+00;  2.8538465E-02;  5.4049038E+03;
  4.7622365E-01;  9.9999998E-03; -1.5992093E-01;5327; -1.4022011E-01;  0.0000000E+00; -4.4584284E-03;  9.9432275E+02;  1.0000000E-01; -4.7034707E+03;3;  2.4499464E+00;  0.0000000E+00;  4.1032887E+00;0; -2.1551844E-01;  3.9508727E+04;  0.0000000E+00; -4.4831168E-02;  4.0000000E+04;  0.0000000E+00;  4.0038340E+04; -2.4437934E-01;  0.0000000E+00;  2.8860889E-02;  5.2840903E+03;
  4.7621226E-01;  9.9999998E-03; -1.4992785E-01;5328; -1.4042233E-01;  0.0000000E+00; -4.1640205E-03;  9.9442578E+02;  1.0000000E-01; -4.6181401E+03;3;  2.6066661E+00;  0.0000000E+00;  3.9352291E+00;0; -2.1483861E-01;  3.9517691E+04;  0.0000000E+00; -2.7499903E-02;  4.0000000E+04;  0.0000000E+00;  4.0037570E+04; -2.4392274E-01;  0.0000000E+00;  2.9084127E-02;  5.1842656E+03;
  4.7620606E-01;  9.9999998E-03; -1.3993511E-01;5329; -1.4064731E-01;  0.0000000E+00; -3.8703296E-03;  9.9454547E+02;  1.0000000E-01; -4.5189824E+03;3;  2.7651296E+00;  0.0000000E+00;  3.7491500E+00;0; -2.1414387E-01;  3.9527840E+04;  0.0000000E+00; -1.3781882E-02;  4.0000000E+04;  0.0000000E+00;  4.0036953E+04; -2.4334012E-01;  0.0000000E+00;  2.9196247E-02;  5.0950317E+03;
  4.7620422E-01;  9.9999998E-03; -1.2994231E-01;5330; -1.4089315E-01;  0.0000000E+00; -3.5770186E-03;  9.9468048E+02;  1.0000000E-01; -4.4071338E+03;3;  2.9227860E+00;  0.0000000E+00;  3.5461452E+00;0; -2.1344230E-01;  3.9539148E+04;  0.0000000E+00; -3.5128782E-03;  4.0000000E+04;  0.0000000E+00;  4.0036312E+04; -2.4264042E-01;  0.0000000E+00;  2.9198123E-02;  5.0066470E+03;
  4.7620606E-01;  9.9999998E-03; -1.1994918E-01;5331; -1.4115730E-01;  0.0000000E+00; -3.2832571E-03;  9.9482996E+02;  1.0000000E-01; -4.2832852E+03;3;  3.0774653E+00;  0.0000000E+00;  3.3269153E+00;0; -2.1273611E-01;  3.9551824E+04;  0.0000000E+00;  3.6983762E-03;  4.0000000E+04;  0.0000000E+00;  4.0035680E+04; -2.4183737E-01;  0.0000000E+00;  2.9101256E-02;  4.9109663E+03;
  4.7621092E-01;  9.9999998E-03; -1.0995565E-01;5332; -1.4143652E-01;  0.0000000E+00; -2.9884495E-03;  9.9498950E+02;  1.0000000E-01; -4.1510913E+03;3;  3.2289436E+00;  0.0000000E+00;  3.0947866E+00;0; -2.1202509E-01;  3.9565184E+04;  0.0000000E+00;  8.3116852E-03;  4.0000000E+04;  0.0000000E+00;  4.0034922E+04; -2.4094854E-01;  0.0000000E+00;  2.8923450E-02;  4.8020371E+03;
  4.8623830E-01;  9.9999998E-03; -1.0994796E-01;5393; -1.4379740E-01;  0.0000000E+00; -2.8081252E-03;  9.9531873E+02;  1.0000146E-01; -3.8783586E+03;3;  3.4923859E+00;  0.0000000E+00;  3.1199348E+00;0; -2.0981596E-01;  3.9589629E+04;  0.0000000E+00; -3.4435805E-02;  4.0000000E+04;  0.0000000E+00;  4.0035527E+04; -2.3838334E-01;  0.0000000E+00;  2.8567374E-02;  4.8527329E+03;
  4.8624015E-01;  9.9999998E-03; -1.1994015E-01;5392; -1.4353773E-01;  0.0000000E+00; -3.1083419E-03;  9.9516278E+02;  1.0000150E-01; -4.0075400E+03;3;  3.3254120E+00;  0.0000000E+00;  3.3576229E+00;0; -2.1053165E-01;  3.9576461E+04;  0.0000000E+00; -3.9142702E-02;  4.0000000E+04;  0.0000000E+00;  4.0036402E+04; -2.3937382E-01;  0.0000000E+00;  2.8842159E-02;  4.9799956E+03;
  4.8624438E-01;  9.9999998E-03; -1.2993181E-01;5391; -1.4328966E-01;  0.0000000E+00; -3.4097321E-03;  9.9501599E+02;  1.0000146E-01; -4.1291660E+03;3;  3.1550043E+00;  0.0000000E+00;  3.5821586E+00;0; -2.1123751E-01;  3.9563871E+04;  0.0000000E+00; -4.4056218E-02;  4.0000000E+04;  0.0000000E+00;  4.0037258E+04; -2.4026088E-01;  0.0000000E+00;  2.9023381E-02;  5.0891558E+03;
  4.8625124E-01;  9.9999998E-03; -1.3992317E-01;5390; -1.4305636E-01;  0.0000000E+00; -3.7124918E-03;  9.9487878E+02;  1.0000150E-01; -4.2428418E+03;3;  2.9798110E+00;  0.0000000E+00;  3.7925429E+00;0; -2.1193157E-01;  3.9552512E+04;  0.0000000E+00; -4.9476456E-02;  4.0000000E+04;  0.0000000E+00;  4.0037793E+04; -2.4102442E-01;  0.0000000E+00;  2.9092846E-02;  5.1850557E+03;
  4.8626110E-01;  9.9999998E-03; -1.4991461E-01;5389; -1.4284042E-01;  0.0000000E+00; -4.0175039E-03;  9.9475793E+02;  1.0000141E-01; -4.3429380E+03;3;  2.8035409E+00;  0.0000000E+00;  3.9840989E+00;0; -2.1260989E-01;  3.9542227E+04;  0.0000000E+00; -5.5839352E-02;  4.0000000E+04;  0.0000000E+00;  4.0038531E+04; -2.4164796E-01;  0.0000000E+00;  2.9038079E-02;  5.2748369E+03;
  4.8627415E-01;  9.9999998E-03; -1.5990658E-01;5388; -1.4264390E-01;  0.0000000E+00; -4.3250215E-03;  9.9465143E+02;  1.0000144E-01; -4.4311821E+03;3;  2.6272259E+00;  0.0000000E+00;  4.1580491E+00;0; -2.1326230E-01;  3.9532992E+04;  0.0000000E+00; -6.3641593E-02;  4.0000000E+04;  0.0000000E+00;  4.0039191E+04; -2.4211979E-01;  0.0000000E+00;  2.8857483E-02;  5.3683843E+03;
  4.8629066E-01;  9.9999998E-03; -1.6989954E-01;5387; -1.4246859E-01;  0.0000000E+00; -4.6331570E-03;  9.9456146E+02;  1.0000145E-01; -4.5057480E+03;3;  2.4531572E+00;  0.0000000E+00;  4.3093700E+00;0; -2.1387070E-01;  3.9524992E+04;  0.0000000E+00; -7.3159330E-02;  4.0000000E+04;  0.0000000E+00;  4.0040000E+04; -2.4243370E-01;  0.0000000E+00;  2.8562997E-02;  5.4783101E+03;
  4.8630983E-01;  9.9999998E-03; -1.7989397E-01;5386; -1.4231567E-01;  0.0000000E+00; -4.9385703E-03;  9.9448578E+02;  1.0000140E-01; -4.5684131E+03;3;  2.2821169E+00;  0.0000000E+00;  4.4419360E+00;0; -2.1441148E-01;  3.9518023E+04;  0.0000000E+00; -8.4368743E-02;  4.0000000E+04;  0.0000000E+00;  4.0041059E+04; -2.4259019E-01;  0.0000000E+00;  2.8178705E-02;  5.6179175E+03;
  4.8633000E-01;  9.9999998E-03; -1.8989015E-01;5385; -1.4218557E-01;  0.0000000E+00; -5.2408134E-03;  9.9442523E+02;  1.0000148E-01; -4.6185845E+03;3;  2.1159451E+00;  0.0000000E+00;  4.5534263E+00;0; -2.1485785E-01;  3.9511688E+04;  0.0000000E+00; -9.6997201E-02;  4.0000000E+04;  0.0000000E+00;  4.0042477E+04; -2.4259558E-01;  0.0000000E+00;  2.7737729E-02;  5.7965679E+03;
  4.8634857E-01;  9.9999998E-03; -1.9988827E-01;5384; -1.4207871E-01;  0.0000000E+00; -5.5383211E-03;  9.9437518E+02;  1.0000140E-01; -4.6600645E+03;3;  1.9563347E+00;  0.0000000E+00;  4.6507173E+00;0; -2.1518354E-01;  3.9505941E+04;  0.0000000E+00; -1.1055169E-01;  4.0000000E+04;  0.0000000E+00;  4.0044176E+04; -2.4246296E-01;  0.0000000E+00;  2.7279420E-02;  6.0121914E+03;
  4.8636222E-01;  9.9999998E-03; -2.0988803E-01;5383; -1.4199473E-01;  0.0000000E+00; -5.8359285E-03;  9.9433411E+02;  1.0000147E-01; -4.6940884E+03;3;  1.8059329E+00;  0.0000000E+00;  4.7217512E+00;0; -2.1535556E-01;  3.9500793E+04;  0.0000000E+00; -1.2418772E-01;  4.0000000E+04;  0.0000000E+00;  4.0045918E+04; -2.4220933E-01;  0.0000000E+00;  2.6853776E-02;  6.2460854E+03;
  4.8637095E-01;  9.9999998E-03; -2.1988913E-01;5382; -1.4193331E-01;  0.0000000E+00; -6.1384384E-03;  9.9429199E+02;  1.0000146E-01; -4.7289517E+03;3;  1.6647913E+00;  0.0000000E+00;  4.7734408E+00;0; -2.1532108E-01;  3.9496016E+04;  0.0000000E+00; -1.3643791E-01;  4.0000000E+04;  0.0000000E+00;  4.0047633E+04; -2.4185464E-01;  0.0000000E+00;  2.6533563E-02;  6.4543989E+03;
  4.8637632E-01;  9.9999998E-03; -2.2989182E-01;5381; -1.4189404E-01;  0.0000000E+00; -6.4357286E-03;  9.9424524E+02;  1.0000141E-01; -4.7677158E+03;3;  1.5364500E+00;  0.0000000E+00;  4.8045902E+00;0; -2.1503018E-01;  3.9491453E+04;  0.0000000E+00; -1.4483696E-01;  4.0000000E+04;  0.0000000E+00;  4.0048359E+04; -2.4142008E-01;  0.0000000E+00;  2.6389893E-02;  6.5462139E+03;
  4.8637828E-01;  9.9999998E-03; -2.3989503E-01;5380; -1.4187260E-01;  0.0000000E+00; -6.6909762E-03;  9.9417755E+02;  1.0000148E-01; -4.8237637E+03;3;  1.4212198E+00;  0.0000000E+00;  4.8193793E+00;0; -2.1457684E-01;  3.9487285E+04;  0.0000000E+00; -1.4553067E-01;  4.0000000E+04;  0.0000000E+00;  4.0047258E+04; -2.4092734E-01;  0.0000000E+00;  2.6350500E-02;  6.4170293E+03;
  4.8637828E-01;  9.9999998E-03; -2.4989603E-01;5379; -1.4186205E-01;  0.0000000E+00; -6.8511465E-03;  9.9409973E+02;  1.0000146E-01; -4.8882559E+03;3;  1.3193195E+00;  0.0000000E+00;  4.8029661E+00;0; -2.1445730E-01;  3.9483410E+04;  0.0000000E+00; -1.3311173E-01;  4.0000000E+04;  0.0000000E+00;  4.0044613E+04; -2.4039702E-01;  0.0000000E+00;  2.5939722E-02;  6.0875137E+03;
  4.8637986E-01;  9.9999998E-03; -2.5989226E-01;5378; -1.4185843E-01;  0.0000000E+00; -6.9381534E-03;  9.9402686E+02;  1.0000148E-01; -4.9486489E+03;3;  1.2310712E+00;  0.0000000E+00;  4.7742252E+00;0; -2.1513584E-01;  3.9479832E+04;  0.0000000E+00; -1.0141259E-01;  4.0000000E+04;  0.0000000E+00;  4.0042359E+04; -2.3984776E-01;  0.0000000E+00;  2.4711926E-02;  5.8104639E+03;
  4.8638001E-01;  9.9999998E-03; -2.6988515E-01;5377; -1.4186192E-01;  0.0000000E+00; -7.0743938E-03;  9.9397888E+02;  1.0000148E-01; -4.9884009E+03;3;  1.1535058E+00;  0.0000000E+00;  4.7074857E+00;0; -2.1586907E-01;  3.9476449E+04;  0.0000000E+00; -4.5494534E-02;  4.0000000E+04;  0.0000000E+00;  4.0041633E+04; -2.3929812E-01;  0.0000000E+00;  2.3429045E-02;  5.7344561E+03;
  4.9624306E-01;  9.9999998E-03; -1.0994428E-01;5454; -1.4612143E-01;  0.0000000E+00; -2.6276377E-03;  9.9549084E+02;  1.0000202E-01; -3.7357449E+03;3;  3.7636740E+00;  0.0000000E+00;  3.1349103E+00;0; -2.0790188E-01;  3.9602793E+04;  0.0000000E+00; -7.2706133E-02;  4.0000000E+04;  0.0000000E+00;  4.0035652E+04; -2.3606212E-01;  0.0000000E+00;  2.8160250E-02;  4.8567827E+03;
  4.9625131E-01;  9.9999998E-03; -1.1993587E-01;5453; -1.4588369E-01;  0.0000000E+00; -2.9309015E-03;  9.9534723E+02;  1.0000196E-01; -3.8547537E+03;3;  3.5816407E+00;  0.0000000E+00;  3.3789198E+00;0; -2.0858486E-01;  3.9590395E+04;  0.0000000E+00; -7.5699478E-02;  4.0000000E+04;  0.0000000E+00;  4.0036793E+04; -2.3712197E-01;  0.0000000E+00;  2.8537106E-02;  5.0010747E+03;
  4.9626097E-01;  9.9999998E-03; -1.2992689E-01;5452; -1.4565399E-01;  0.0000000E+00; -3.2380112E-03;  9.9521045E+02;  1.0000198E-01; -3.9680344E+03;3;  3.3927302E+00;  0.0000000E+00;  3.6084301E+00;0; -2.0925860E-01;  3.9578531E+04;  0.0000000E+00; -7.6402150E-02;  4.0000000E+04;  0.0000000E+00;  4.0037703E+04; -2.3806739E-01;  0.0000000E+00;  2.8808786E-02;  5.1266890E+03;
  4.9627170E-01;  9.9999998E-03; -1.3991760E-01;5451; -1.4543523E-01;  0.0000000E+00; -3.5487211E-03;  9.9508179E+02;  1.0000201E-01; -4.0746487E+03;3;  3.1998768E+00;  0.0000000E+00;  3.8243628E+00;0; -2.0991865E-01;  3.9567637E+04;  0.0000000E+00; -7.5092457E-02;  4.0000000E+04;  0.0000000E+00;  4.0038414E+04; -2.3887394E-01;  0.0000000E+00;  2.8955301E-02;  5.2375864E+03;
  4.9628338E-01;  9.9999998E-03; -1.4990847E-01;5450; -1.4523000E-01;  0.0000000E+00; -3.8637714E-03;  9.9496307E+02;  1.0000207E-01; -4.1730161E+03;3;  3.0044854E+00;  0.0000000E+00;  4.0188484E+00;0; -2.1056053E-01;  3.9557527E+04;  0.0000000E+00; -7.2404385E-02;  4.0000000E+04;  0.0000000E+00;  4.0039133E+04; -2.3952335E-01;  0.0000000E+00;  2.8962824E-02;  5.3398208E+03;
  4.9629608E-01;  9.9999998E-03; -1.5989998E-01;5449; -1.4504054E-01;  0.0000000E+00; -4.1828179E-03;  9.9485742E+02;  1.0000201E-01; -4.2605200E+03;3;  2.8086150E+00;  0.0000000E+00;  4.1951842E+00;0; -2.1117295E-01;  3.9548297E+04;  0.0000000E+00; -6.9355682E-02;  4.0000000E+04;  0.0000000E+00;  4.0039824E+04; -2.4000101E-01;  0.0000000E+00;  2.8828049E-02;  5.4423813E+03;
  4.9630919E-01;  9.9999998E-03; -1.6989279E-01;5448; -1.4486852E-01;  0.0000000E+00; -4.5042988E-03;  9.9476599E+02;  1.0000210E-01; -4.3362710E+03;3;  2.6132312E+00;  0.0000000E+00;  4.3504429E+00;0; -2.1173671E-01;  3.9540117E+04;  0.0000000E+00; -6.7124560E-02;  4.0000000E+04;  0.0000000E+00;  4.0040809E+04; -2.4029903E-01;  0.0000000E+00;  2.8562326E-02;  5.5577319E+03;
  4.9632198E-01;  9.9999998E-03; -1.7988732E-01;5447; -1.4471525E-01;  0.0000000E+00; -4.8247851E-03;  9.9468579E+02;  1.0000210E-01; -4.4027378E+03;3;  2.4202726E+00;  0.0000000E+00;  4.4852271E+00;0; -2.1222703E-01;  3.9532637E+04;  0.0000000E+00; -6.6871181E-02;  4.0000000E+04;  0.0000000E+00;  4.0041844E+04; -2.4041817E-01;  0.0000000E+00;  2.8191136E-02;  5.6997070E+03;
  4.9633199E-01;  9.9999998E-03; -1.8988389E-01;5446; -1.4458084E-01;  0.0000000E+00; -5.1436056E-03;  9.9461713E+02;  1.0000215E-01; -4.4596255E+03;3;  2.2326212E+00;  0.0000000E+00;  4.5957947E+00;0; -2.1261314E-01;  3.9525777E+04;  0.0000000E+00; -6.9511667E-02;  4.0000000E+04;  0.0000000E+00;  4.0043238E+04; -2.4036479E-01;  0.0000000E+00;  2.7751662E-02;  5.8784380E+03;
  4.9633697E-01;  9.9999998E-03; -1.9988197E-01;5445; -1.4446525E-01;  0.0000000E+00; -5.4591671E-03;  9.9455933E+02;  1.0000205E-01; -4.5074756E+03;3;  2.0498233E+00;  0.0000000E+00;  4.6896615E+00;0; -2.1286288E-01;  3.9519594E+04;  0.0000000E+00; -7.5459264E-02;  4.0000000E+04;  0.0000000E+00;  4.0044938E+04; -2.4015391E-01;  0.0000000E+00;  2.7291037E-02;  6.0960825E+03;
  4.9633902E-01;  9.9999998E-03; -2.0988177E-01;5444; -1.4436869E-01;  0.0000000E+00; -5.7764403E-03;  9.9451105E+02;  1.0000203E-01; -4.5474746E+03;3;  1.8759176E+00;  0.0000000E+00;  4.7609649E+00;0; -2.1293183E-01;  3.9513945E+04;  0.0000000E+00; -8.4355064E-02;  4.0000000E+04;  0.0000000E+00;  4.0046844E+04; -2.3980466E-01;  0.0000000E+00;  2.6872832E-02;  6.3368169E+03;
  4.9633807E-01;  9.9999998E-03; -2.1988367E-01;5443; -1.4429016E-01;  0.0000000E+00; -6.1011841E-03;  9.9446661E+02;  1.0000205E-01; -4.5843130E+03;3;  1.7111166E+00;  0.0000000E+00;  4.8097610E+00;0; -2.1274678E-01;  3.9508668E+04;  0.0000000E+00; -9.4869226E-02;  4.0000000E+04;  0.0000000E+00;  4.0048512E+04; -2.3933984E-01;  0.0000000E+00;  2.6593061E-02;  6.5491211E+03;
  4.9633408E-01;  9.9999998E-03; -2.2988792E-01;5442; -1.4422852E-01;  0.0000000E+00; -6.4176181E-03;  9.9441522E+02;  1.0000207E-01; -4.6268799E+03;3;  1.5591470E+00;  0.0000000E+00;  4.8373203E+00;0; -2.1224385E-01;  3.9503992E+04;  0.0000000E+00; -1.0442249E-01;  4.0000000E+04;  0.0000000E+00;  4.0049082E+04; -2.3878619E-01;  0.0000000E+00;  2.6542343E-02;  6.6239370E+03;
  4.9632716E-01;  9.9999998E-03; -2.3989375E-01;5441; -1.4418091E-01;  0.0000000E+00; -6.6810595E-03;  9.9434326E+02;  1.0000210E-01; -4.6864829E+03;3;  1.4185166E+00;  0.0000000E+00;  4.8432693E+00;0; -2.1153018E-01;  3.9499852E+04;  0.0000000E+00; -1.0910239E-01;  4.0000000E+04;  0.0000000E+00;  4.0047293E+04; -2.3816980E-01;  0.0000000E+00;  2.6639633E-02;  6.4083965E+03;
  4.9631861E-01;  9.9999998E-03; -2.4989709E-01;5440; -1.4414248E-01;  0.0000000E+00; -6.8084635E-03;  9.9425183E+02;  1.0000207E-01; -4.7622339E+03;3;  1.2934585E+00;  0.0000000E+00;  4.8320060E+00;0; -2.1132311E-01;  3.9496324E+04;  0.0000000E+00; -1.0372883E-01;  4.0000000E+04;  0.0000000E+00;  4.0043395E+04; -2.3751551E-01;  0.0000000E+00;  2.6192404E-02;  5.9306406E+03;
  4.9631181E-01;  9.9999998E-03; -2.5989401E-01;5439; -1.4411177E-01;  0.0000000E+00; -6.8498352E-03;  9.9417621E+02;  1.0000200E-01; -4.8248989E+03;3;  1.1819283E+00;  0.0000000E+00;  4.7941303E+00;0; -2.1212073E-01;  3.9493320E+04;  0.0000000E+00; -8.2524069E-02;  4.0000000E+04;  0.0000000E+00;  4.0040352E+04; -2.3684534E-01;  0.0000000E+00;  2.4724616E-02;  5.5567065E+03;
  4.9630845E-01;  9.9999998E-03; -2.6988667E-01;5438; -1.4408810E-01;  0.0000000E+00; -6.9589107E-03;  9.9413629E+02;  1.0000207E-01; -4.8579844E+03;3;  1.0827451E+00;  0.0000000E+00;  4.7278337E+00;0; -2.1294279E-01;  3.9490715E+04;  0.0000000E+00; -4.0868387E-02;  4.0000000E+04;  0.0000000E+00;  4.0039668E+04; -2.3618001E-01;  0.0000000E+00;  2.3237213E-02;  5.4648521E+03;
  5.0624090E-01;  9.9999998E-03; -2.6988620E-01;5499; -1.4628777E-01;  0.0000000E+00; -6.8436018E-03;  9.9408899E+02;  1.0000364E-01; -4.8971436E+03;3;  1.0015582E+00;  0.0000000E+00;  4.7236695E+00;0; -2.1009699E-01;  3.9485316E+04;  0.0000000E+00; -5.8573980E-02;  4.0000000E+04;  0.0000000E+00;  4.0040133E+04; -2.3324810E-01;  0.0000000E+00;  2.3151109E-02;  5.5342158E+03;
  5.0625265E-01;  9.9999998E-03; -2.5989348E-01;5500; -1.4634122E-01;  0.0000000E+00; -6.7506074E-03;  9.9413293E+02;  1.0000370E-01; -4.8607495E+03;3;  1.1239111E+00;  0.0000000E+00;  4.7922668E+00;0; -2.0930092E-01;  3.9488004E+04;  0.0000000E+00; -7.9248339E-02;  4.0000000E+04;  0.0000000E+00;  4.0041027E+04; -2.3401086E-01;  0.0000000E+00;  2.4709944E-02;  5.6356255E+03;
  5.0626713E-01;  9.9999998E-03; -2.4989627E-01;5501; -1.4640190E-01;  0.0000000E+00; -6.7267464E-03;  9.9421484E+02;  1.0000373E-01; -4.7928999E+03;3;  1.2612147E+00;  0.0000000E+00;  4.8348904E+00;0; -2.0855947E-01;  3.9491438E+04;  0.0000000E+00; -8.4342748E-02;  4.0000000E+04;  0.0000000E+00;  4.0044266E+04; -2.3478478E-01;  0.0000000E+00;  2.6225308E-02;  6.0415957E+03;
  5.0628191E-01;  9.9999998E-03; -2.3989232E-01;5502; -1.4647093E-01;  0.0000000E+00; -6.6064270E-03;  9.9431683E+02;  1.0000383E-01; -4.7084082E+03;3;  1.4099641E+00;  0.0000000E+00;  4.8466930E+00;0; -2.0890829E-01;  3.9495449E+04;  0.0000000E+00; -7.8191027E-02;  4.0000000E+04;  0.0000000E+00;  4.0048508E+04; -2.3554873E-01;  0.0000000E+00;  2.6640447E-02;  6.5548667E+03;
  5.0629574E-01;  9.9999998E-03; -2.2988650E-01;5503; -1.4654809E-01;  0.0000000E+00; -6.3377009E-03;  9.9439819E+02;  1.0000373E-01; -4.6410029E+03;3;  1.5759584E+00;  0.0000000E+00;  4.8442268E+00;0; -2.0978689E-01;  3.9500285E+04;  0.0000000E+00; -6.6057988E-02;  4.0000000E+04;  0.0000000E+00;  4.0050332E+04; -2.3627558E-01;  0.0000000E+00;  2.6488692E-02;  6.7692861E+03;
  5.0630671E-01;  9.9999998E-03; -2.1988298E-01;5504; -1.4663450E-01;  0.0000000E+00; -6.0131890E-03;  9.9445990E+02;  1.0000384E-01; -4.5898438E+03;3;  1.7540416E+00;  0.0000000E+00;  4.8228860E+00;0; -2.1041939E-01;  3.9506031E+04;  0.0000000E+00; -5.2436117E-02;  4.0000000E+04;  0.0000000E+00;  4.0049531E+04; -2.3693673E-01;  0.0000000E+00;  2.6517352E-02;  6.6811797E+03;
  5.0631410E-01;  9.9999998E-03; -2.0988210E-01;5505; -1.4673123E-01;  0.0000000E+00; -5.6795152E-03;  9.9451770E+02;  1.0000365E-01; -4.5419932E+03;3;  1.9437135E+00;  0.0000000E+00;  4.7768884E+00;0; -2.1070445E-01;  3.9512363E+04;  0.0000000E+00; -4.0979736E-02;  4.0000000E+04;  0.0000000E+00;  4.0047906E+04; -2.3750283E-01;  0.0000000E+00;  2.6798390E-02;  6.4606504E+03;
  5.0631815E-01;  9.9999998E-03; -1.9988316E-01;5506; -1.4684021E-01;  0.0000000E+00; -5.3526857E-03;  9.9458075E+02;  1.0000372E-01; -4.4897480E+03;3;  2.1412821E+00;  0.0000000E+00;  4.7081151E+00;0; -2.1071507E-01;  3.9519090E+04;  0.0000000E+00; -3.4271881E-02;  4.0000000E+04;  0.0000000E+00;  4.0045934E+04; -2.3794281E-01;  0.0000000E+00;  2.7227743E-02;  6.2165122E+03;
  5.0631922E-01;  9.9999998E-03; -1.8988565E-01;5507; -1.4696296E-01;  0.0000000E+00; -5.0269109E-03;  9.9465326E+02;  1.0000368E-01; -4.4296509E+03;3;  2.3478048E+00;  0.0000000E+00;  4.6171422E+00;0; -2.1053262E-01;  3.9526555E+04;  0.0000000E+00; -3.3577286E-02;  4.0000000E+04;  0.0000000E+00;  4.0044164E+04; -2.3823111E-01;  0.0000000E+00;  2.7698481E-02;  5.9930991E+03;
  5.0631678E-01;  9.9999998E-03; -1.7988949E-01;5508; -1.4710066E-01;  0.0000000E+00; -4.6976008E-03;  9.9473230E+02;  1.0000376E-01; -4.3641714E+03;3;  2.5596030E+00;  0.0000000E+00;  4.5050163E+00;0; -2.1020485E-01;  3.9534316E+04;  0.0000000E+00; -3.8911261E-02;  4.0000000E+04;  0.0000000E+00;  4.0042707E+04; -2.3834427E-01;  0.0000000E+00;  2.8139407E-02;  5.8022891E+03;
  5.0631005E-01;  9.9999998E-03; -1.6989475E-01;5509; -1.4725325E-01;  0.0000000E+00; -4.3666447E-03;  9.9481812E+02;  1.0000373E-01; -4.2931113E+03;3;  2.7758069E+00;  0.0000000E+00;  4.3697996E+00;0; -2.0977023E-01;  3.9542441E+04;  0.0000000E+00; -4.9147218E-02;  4.0000000E+04;  0.0000000E+00;  4.0041562E+04; -2.3826827E-01;  0.0000000E+00;  2.8498037E-02;  5.6420347E+03;
  5.0630057E-01;  9.9999998E-03; -1.5990165E-01;5510; -1.4742070E-01;  0.0000000E+00; -4.0355716E-03;  9.9491412E+02;  1.0000366E-01; -4.2135581E+03;3;  2.9926512E+00;  0.0000000E+00;  4.2142234E+00;0; -2.0926148E-01;  3.9551059E+04;  0.0000000E+00; -6.2319484E-02;  4.0000000E+04;  0.0000000E+00;  4.0040496E+04; -2.3799542E-01;  0.0000000E+00;  2.8733943E-02;  5.5034380E+03;
  5.0628936E-01;  9.9999998E-03; -1.4990988E-01;5511; -1.4760181E-01;  0.0000000E+00; -3.7078641E-03;  9.9501855E+02;  1.0000379E-01; -4.1270420E+03;3;  3.2101023E+00;  0.0000000E+00;  4.0373893E+00;0; -2.0870630E-01;  3.9560195E+04;  0.0000000E+00; -7.6098785E-02;  4.0000000E+04;  0.0000000E+00;  4.0039398E+04; -2.3752725E-01;  0.0000000E+00;  2.8820943E-02;  5.3754385E+03;
  5.0627708E-01;  9.9999998E-03; -1.3991888E-01;5512; -1.4779499E-01;  0.0000000E+00; -3.3856712E-03;  9.9512836E+02;  1.0000389E-01; -4.0360818E+03;3;  3.4250720E+00;  0.0000000E+00;  3.8401403E+00;0; -2.0812421E-01;  3.9569828E+04;  0.0000000E+00; -8.8316239E-02;  4.0000000E+04;  0.0000000E+00;  4.0038570E+04; -2.3687300E-01;  0.0000000E+00;  2.8748799E-02;  5.2481382E+03;
  5.0626403E-01;  9.9999998E-03; -1.2992802E-01;5513; -1.4799790E-01;  0.0000000E+00; -3.0698380E-03;  9.9524255E+02;  1.0000376E-01; -3.9414673E+03;3;  3.6367197E+00;  0.0000000E+00;  3.6229351E+00;0; -2.0752671E-01;  3.9580012E+04;  0.0000000E+00; -9.7319476E-02;  4.0000000E+04;  0.0000000E+00;  4.0037543E+04; -2.3604959E-01;  0.0000000E+00;  2.8522883E-02;  5.1144468E+03;
  5.0625050E-01;  9.9999998E-03; -1.1993687E-01;5514; -1.4820802E-01;  0.0000000E+00; -2.7601130E-03;  9.9536279E+02;  1.0000389E-01; -3.8418159E+03;3;  3.8438697E+00;  0.0000000E+00;  3.3893492E+00;0; -2.0691873E-01;  3.9590461E+04;  0.0000000E+00; -1.0216136E-01;  4.0000000E+04;  0.0000000E+00;  4.0036512E+04; -2.3507833E-01;  0.0000000E+00;  2.8159603E-02;  4.9695264E+03;
  5.0623703E-01;  9.9999998E-03; -1.0994511E-01;5515; -1.4842272E-01;  0.0000000E+00; -2.4573354E-03;  9.9548486E+02;  1.0000384E-01; -3.7406829E+03;3;  4.0427113E+00;  0.0000000E+00;  3.1338165E+00;0; -2.0630458E-01;  3.9601230E+04;  0.0000000E+00; -1.0243046E-01;  4.0000000E+04;  0.0000000E+00;  4.0035266E+04; -2.3398590E-01;  0.0000000E+00;  2.7681326E-02;  4.8098882E+03;
  5.1620579E-01;  9.9999998E-03; -2.6988372E-01;5560; -1.4849551E-01;  0.0000000E+00; -6.7238351E-03;  9.9384760E+02;  1.0000632E-01; -5.0971377E+03;3;  9.0956163E-01;  0.0000000E+00;  4.6890588E+00;0; -2.0726645E-01;  3.9461492E+04;  0.0000000E+00; -8.5812509E-02;  4.0000000E+04;  0.0000000E+00;  4.0043188E+04; -2.3041491E-01;  0.0000000E+00;  2.3148466E-02;  5.9328354E+03;
  5.1622611E-01;  9.9999998E-03; -2.5989068E-01;5561; -1.4857753E-01;  0.0000000E+00; -6.6328151E-03;  9.9389838E+02;  1.0000619E-01; -5.0550645E+03;3;  1.0576080E+00;  0.0000000E+00;  4.7694550E+00;0; -2.0663415E-01;  3.9464891E+04;  0.0000000E+00; -8.8189416E-02;  4.0000000E+04;  0.0000000E+00;  4.0044070E+04; -2.3125951E-01;  0.0000000E+00;  2.4625359E-02;  6.0400508E+03;
  5.1624548E-01;  9.9999998E-03; -2.4989375E-01;5562; -1.4866738E-01;  0.0000000E+00; -6.5921280E-03;  9.9398859E+02;  1.0000618E-01; -4.9803506E+03;3;  1.2207117E+00;  0.0000000E+00;  4.8104424E+00;0; -2.0616333E-01;  3.9469227E+04;  0.0000000E+00; -7.7094428E-02;  4.0000000E+04;  0.0000000E+00;  4.0046832E+04; -2.3212406E-01;  0.0000000E+00;  2.5960723E-02;  6.3941309E+03;
  5.1626378E-01;  9.9999998E-03; -2.3989117E-01;5563; -1.4876647E-01;  0.0000000E+00; -6.4573223E-03;  9.9409705E+02;  1.0000615E-01; -4.8904766E+03;3;  1.3960704E+00;  0.0000000E+00;  4.8282385E+00;0; -2.0667258E-01;  3.9474395E+04;  0.0000000E+00; -5.7956629E-02;  4.0000000E+04;  0.0000000E+00;  4.0050438E+04; -2.3298462E-01;  0.0000000E+00;  2.6312035E-02;  6.8224980E+03;
  5.1628023E-01;  9.9999998E-03; -2.2988781E-01;5564; -1.4887212E-01;  0.0000000E+00; -6.1883735E-03;  9.9418970E+02;  1.0000625E-01; -4.8137383E+03;3;  1.5881152E+00;  0.0000000E+00;  4.8298693E+00;0; -2.0761018E-01;  3.9480715E+04;  0.0000000E+00; -3.6136024E-02;  4.0000000E+04;  0.0000000E+00;  4.0051621E+04; -2.3381136E-01;  0.0000000E+00;  2.6201190E-02;  6.9611069E+03;
  5.1629370E-01;  9.9999998E-03; -2.1988723E-01;5565; -1.4898224E-01;  0.0000000E+00; -5.8695176E-03;  9.9426904E+02;  1.0000622E-01; -4.7480117E+03;3;  1.7918547E+00;  0.0000000E+00;  4.8123050E+00;0; -2.0828772E-01;  3.9487844E+04;  0.0000000E+00; -1.5935784E-02;  4.0000000E+04;  0.0000000E+00;  4.0050656E+04; -2.3457249E-01;  0.0000000E+00;  2.6284762E-02;  6.8339048E+03;
  5.1630366E-01;  9.9999998E-03; -2.0988888E-01;5566; -1.4909601E-01;  0.0000000E+00; -5.5425689E-03;  9.9434735E+02;  1.0000617E-01; -4.6831245E+03;3;  2.0073836E+00;  0.0000000E+00;  4.7696600E+00;0; -2.0862456E-01;  3.9495723E+04;  0.0000000E+00; -8.6205086E-04;  4.0000000E+04;  0.0000000E+00;  4.0048883E+04; -2.3523413E-01;  0.0000000E+00;  2.6609575E-02;  6.6066187E+03;
  5.1631027E-01;  9.9999998E-03; -1.9989157E-01;5567; -1.4921629E-01;  0.0000000E+00; -5.2177287E-03;  9.9442761E+02;  1.0000618E-01; -4.6166079E+03;3;  2.2309833E+00;  0.0000000E+00;  4.7019882E+00;0; -2.0869729E-01;  3.9504152E+04;  0.0000000E+00;  6.5152915E-03;  4.0000000E+04;  0.0000000E+00;  4.0046996E+04; -2.3576330E-01;  0.0000000E+00;  2.7066013E-02;  6.3644912E+03;
  5.1631349E-01;  9.9999998E-03; -1.8989509E-01;5568; -1.4934480E-01;  0.0000000E+00; -4.8910105E-03;  9.9451697E+02;  1.0000610E-01; -4.5425854E+03;3;  2.4625616E+00;  0.0000000E+00;  4.6150956E+00;0; -2.0857778E-01;  3.9512910E+04;  0.0000000E+00;  4.9478775E-03;  4.0000000E+04;  0.0000000E+00;  4.0045215E+04; -2.3612979E-01;  0.0000000E+00;  2.7552009E-02;  6.1331084E+03;
  5.1631349E-01;  9.9999998E-03; -1.7989945E-01;5569; -1.4948376E-01;  0.0000000E+00; -4.5587043E-03;  9.9461047E+02;  1.0000620E-01; -4.4651064E+03;3;  2.6996326E+00;  0.0000000E+00;  4.5018740E+00;0; -2.0831458E-01;  3.9521938E+04;  0.0000000E+00; -5.3861625E-03;  4.0000000E+04;  0.0000000E+00;  4.0043570E+04; -2.3630923E-01;  0.0000000E+00;  2.7994653E-02;  5.9207773E+03;
  5.1630974E-01;  9.9999998E-03; -1.6990484E-01;5570; -1.4963408E-01;  0.0000000E+00; -4.2231446E-03;  9.9470660E+02;  1.0000616E-01; -4.3854541E+03;3;  2.9390423E+00;  0.0000000E+00;  4.3680730E+00;0; -2.0794718E-01;  3.9530902E+04;  0.0000000E+00; -2.2854896E-02;  4.0000000E+04;  0.0000000E+00;  4.0042129E+04; -2.3628637E-01;  0.0000000E+00;  2.8339187E-02;  5.7276431E+03;
  5.1630217E-01;  9.9999998E-03; -1.5991132E-01;5571; -1.4979543E-01;  0.0000000E+00; -3.8871462E-03;  9.9480298E+02;  1.0000635E-01; -4.3056543E+03;3;  3.1799054E+00;  0.0000000E+00;  4.2123742E+00;0; -2.0751108E-01;  3.9539879E+04;  0.0000000E+00; -4.4668272E-02;  4.0000000E+04;  0.0000000E+00;  4.0040707E+04; -2.3605447E-01;  0.0000000E+00;  2.8543379E-02;  5.5498584E+03;
  5.1629168E-01;  9.9999998E-03; -1.4991879E-01;5572; -1.4996688E-01;  0.0000000E+00; -3.5548829E-03;  9.9490106E+02;  1.0000607E-01; -4.2243726E+03;3;  3.4191296E+00;  0.0000000E+00;  4.0355158E+00;0; -2.0703541E-01;  3.9548938E+04;  0.0000000E+00; -6.7507535E-02;  4.0000000E+04;  0.0000000E+00;  4.0039484E+04; -2.3561634E-01;  0.0000000E+00;  2.8580930E-02;  5.3817563E+03;
  5.1627892E-01;  9.9999998E-03; -1.3992688E-01;5573; -1.5014689E-01;  0.0000000E+00; -3.2294579E-03;  9.9500055E+02;  1.0000619E-01; -4.1419551E+03;3;  3.6549747E+00;  0.0000000E+00;  3.8369970E+00;0; -2.0654003E-01;  3.9557945E+04;  0.0000000E+00; -8.8283405E-02;  4.0000000E+04;  0.0000000E+00;  4.0038230E+04; -2.3498319E-01;  0.0000000E+00;  2.8443154E-02;  5.2182534E+03;
  5.1626432E-01;  9.9999998E-03; -1.2993515E-01;5574; -1.5033318E-01;  0.0000000E+00; -2.9122126E-03;  9.9509753E+02;  1.0000630E-01; -4.0616116E+03;3;  3.8867657E+00;  0.0000000E+00;  3.6201258E+00;0; -2.0603603E-01;  3.9566863E+04;  0.0000000E+00; -1.0472579E-01;  4.0000000E+04;  0.0000000E+00;  4.0036992E+04; -2.3417436E-01;  0.0000000E+00;  2.8138325E-02;  5.0552314E+03;
  5.1624805E-01;  9.9999998E-03; -1.1994312E-01;5575; -1.5052345E-01;  0.0000000E+00; -2.6037784E-03;  9.9519403E+02;  1.0000610E-01; -3.9816633E+03;3;  4.1117268E+00;  0.0000000E+00;  3.3779023E+00;0; -2.0552710E-01;  3.9575840E+04;  0.0000000E+00; -1.1551986E-01;  4.0000000E+04;  0.0000000E+00;  4.0035770E+04; -2.3321305E-01;  0.0000000E+00;  2.7685955E-02;  4.8891353E+03;
  5.1623082E-01;  9.9999998E-03; -1.0995053E-01;5576; -1.5071526E-01;  0.0000000E+00; -2.3048029E-03;  9.9528949E+02;  1.0000629E-01; -3.9025544E+03;3;  4.3288865E+00;  0.0000000E+00;  3.1219318E+00;0; -2.0501715E-01;  3.9584656E+04;  0.0000000E+00; -1.2003893E-01;  4.0000000E+04;  0.0000000E+00;  4.0034309E+04; -2.3212831E-01;  0.0000000E+00;  2.7111152E-02;  4.7164629E+03;
  5.2621818E-01;  9.9999998E-03; -2.6987976E-01;5621; -1.5073703E-01;  0.0000000E+00; -6.5956763E-03;  9.9347272E+02;  1.0001041E-01; -5.4077456E+03;3;  8.0536562E-01;  0.0000000E+00;  4.6238861E+00;0; -2.0433976E-01;  3.9423781E+04;  0.0000000E+00; -1.0646402E-01;  4.0000000E+04;  0.0000000E+00;  4.0047930E+04; -2.2755656E-01;  0.0000000E+00;  2.3216793E-02;  6.5688892E+03;
  5.2624363E-01;  9.9999998E-03; -2.5988629E-01;5622; -1.5084335E-01;  0.0000000E+00; -6.4919963E-03;  9.9353839E+02;  1.0001060E-01; -5.3533271E+03;3;  9.8226911E-01;  0.0000000E+00;  4.7170296E+00;0; -2.0402536E-01;  3.9428238E+04;  0.0000000E+00; -1.0205936E-01;  4.0000000E+04;  0.0000000E+00;  4.0048754E+04; -2.2847515E-01;  0.0000000E+00;  2.4449803E-02;  6.6639614E+03;
  5.2626544E-01;  9.9999998E-03; -2.4989042E-01;5623; -1.5095884E-01;  0.0000000E+00; -6.4005153E-03;  9.9363049E+02;  1.0001060E-01; -5.2770332E+03;3;  1.1719142E+00;  0.0000000E+00;  4.7606878E+00;0; -2.0403662E-01;  3.9433762E+04;  0.0000000E+00; -8.0505699E-02;  4.0000000E+04;  0.0000000E+00;  4.0050641E+04; -2.2942233E-01;  0.0000000E+00;  2.5385706E-02;  6.8886045E+03;
  5.2628309E-01;  9.9999998E-03; -2.3989129E-01;5624; -1.5108402E-01;  0.0000000E+00; -6.2339325E-03;  9.9373828E+02;  1.0001048E-01; -5.1877021E+03;3;  1.3755105E+00;  0.0000000E+00;  4.7835908E+00;0; -2.0471208E-01;  3.9440375E+04;  0.0000000E+00; -5.0332595E-02;  4.0000000E+04;  0.0000000E+00;  4.0052617E+04; -2.3037259E-01;  0.0000000E+00;  2.5660517E-02;  7.1226128E+03;
  5.2629721E-01;  9.9999998E-03; -2.2989260E-01;5625; -1.5121382E-01;  0.0000000E+00; -5.9726252E-03;  9.9383990E+02;  1.0001051E-01; -5.1035073E+03;3;  1.5952696E+00;  0.0000000E+00;  4.7925367E+00;0; -2.0560566E-01;  3.9448277E+04;  0.0000000E+00; -1.8668864E-02;  4.0000000E+04;  0.0000000E+00;  4.0052691E+04; -2.3129459E-01;  0.0000000E+00;  2.5688937E-02;  7.1338882E+03;
  5.2630824E-01;  9.9999998E-03; -2.1989638E-01;5626; -1.5134385E-01;  0.0000000E+00; -5.6748288E-03;  9.9393561E+02;  1.0001040E-01; -5.0242505E+03;3;  1.8267980E+00;  0.0000000E+00;  4.7760468E+00;0; -2.0625378E-01;  3.9457148E+04;  0.0000000E+00;  9.4207488E-03;  4.0000000E+04;  0.0000000E+00;  4.0051410E+04; -2.3215307E-01;  0.0000000E+00;  2.5899293E-02;  6.9687300E+03;
  5.2631664E-01;  9.9999998E-03; -2.0990126E-01;5627; -1.5147203E-01;  0.0000000E+00; -5.3690434E-03;  9.9403461E+02;  1.0001054E-01; -4.9422280E+03;3;  2.0676928E+00;  0.0000000E+00;  4.7376423E+00;0; -2.0660929E-01;  3.9466633E+04;  0.0000000E+00;  3.0134238E-02;  4.0000000E+04;  0.0000000E+00;  4.0049836E+04; -2.3291065E-01;  0.0000000E+00;  2.6301360E-02;  6.7500410E+03;
  5.2632219E-01;  9.9999998E-03; -1.9990617E-01;5628; -1.5160121E-01;  0.0000000E+00; -5.0587445E-03;  9.9414062E+02;  1.0001054E-01; -4.8543789E+03;3;  2.3188365E+00;  0.0000000E+00;  4.6722355E+00;0; -2.0673573E-01;  3.9476711E+04;  0.0000000E+00;  4.0788874E-02;  4.0000000E+04;  0.0000000E+00;  4.0047934E+04; -2.3353189E-01;  0.0000000E+00;  2.6796162E-02;  6.5184521E+03;
  5.2632475E-01;  9.9999998E-03; -1.8991107E-01;5629; -1.5173395E-01;  0.0000000E+00; -4.7392827E-03;  9.9424847E+02;  1.0001057E-01; -4.7650479E+03;3;  2.5770078E+00;  0.0000000E+00;  4.5879974E+00;0; -2.0668732E-01;  3.9487004E+04;  0.0000000E+00;  4.0080722E-02;  4.0000000E+04;  0.0000000E+00;  4.0046176E+04; -2.3398431E-01;  0.0000000E+00;  2.7296996E-02;  6.2808540E+03;
  5.2632421E-01;  9.9999998E-03; -1.7991611E-01;5630; -1.5187268E-01;  0.0000000E+00; -4.4114417E-03;  9.9435474E+02;  1.0001040E-01; -4.6770010E+03;3;  2.8390830E+00;  0.0000000E+00;  4.4795141E+00;0; -2.0650324E-01;  3.9497328E+04;  0.0000000E+00;  2.8262287E-02;  4.0000000E+04;  0.0000000E+00;  4.0044324E+04; -2.3424135E-01;  0.0000000E+00;  2.7738102E-02;  6.0422031E+03;
  5.2632040E-01;  9.9999998E-03; -1.6992167E-01;5631; -1.5201904E-01;  0.0000000E+00; -4.0775305E-03;  9.9445831E+02;  1.0001042E-01; -4.5911763E+03;3;  3.1044202E+00;  0.0000000E+00;  4.3441916E+00;0; -2.0622364E-01;  3.9507207E+04;  0.0000000E+00;  7.2514191E-03;  4.0000000E+04;  0.0000000E+00;  4.0042516E+04; -2.3428792E-01;  0.0000000E+00;  2.8064279E-02;  5.8071816E+03;
  5.2631307E-01;  9.9999998E-03; -1.5992777E-01;5632; -1.5217309E-01;  0.0000000E+00; -3.7414385E-03;  9.9455603E+02;  1.0001034E-01; -4.5102402E+03;3;  3.3684323E+00;  0.0000000E+00;  4.1908846E+00;0; -2.0588402E-01;  3.9516570E+04;  0.0000000E+00; -1.9635694E-02;  4.0000000E+04;  0.0000000E+00;  4.0040766E+04; -2.3411712E-01;  0.0000000E+00;  2.8233098E-02;  5.5795127E+03;
  5.2630210E-01;  9.9999998E-03; -1.4993429E-01;5633; -1.5233387E-01;  0.0000000E+00; -3.4092832E-03;  9.9464905E+02;  1.0001054E-01; -4.4331562E+03;3;  3.6304150E+00;  0.0000000E+00;  4.0118918E+00;0; -2.0551558E-01;  3.9525465E+04;  0.0000000E+00; -4.8385262E-02;  4.0000000E+04;  0.0000000E+00;  4.0039133E+04; -2.3373418E-01;  0.0000000E+00;  2.8218592E-02;  5.3615747E+03;
  5.2628821E-01;  9.9999998E-03; -1.3994105E-01;5634; -1.5249996E-01;  0.0000000E+00; -3.0847376E-03;  9.9473169E+02;  1.0001052E-01; -4.3647139E+03;3;  3.8901949E+00;  0.0000000E+00;  3.8133893E+00;0; -2.0513794E-01;  3.9533754E+04;  0.0000000E+00; -7.5242937E-02;  4.0000000E+04;  0.0000000E+00;  4.0037496E+04; -2.3315240E-01;  0.0000000E+00;  2.8014472E-02;  5.1547104E+03;
  5.2627188E-01;  9.9999998E-03; -1.2994781E-01;5635; -1.5266952E-01;  0.0000000E+00; -2.7704125E-03;  9.9481055E+02;  1.0001041E-01; -4.2993823E+03;3;  4.1425529E+00;  0.0000000E+00;  3.5896025E+00;0; -2.0476064E-01;  3.9541348E+04;  0.0000000E+00; -9.7518295E-02;  4.0000000E+04;  0.0000000E+00;  4.0036023E+04; -2.3239294E-01;  0.0000000E+00;  2.7632304E-02;  4.9587363E+03;
  5.2625352E-01;  9.9999998E-03; -1.1995429E-01;5636; -1.5284036E-01;  0.0000000E+00; -2.4669245E-03;  9.9488336E+02;  1.0001054E-01; -4.2390386E+03;3;  4.3867564E+00;  0.0000000E+00;  3.3518023E+00;0; -2.0438485E-01;  3.9548512E+04;  0.0000000E+00; -1.1358683E-01;  4.0000000E+04;  0.0000000E+00;  4.0034570E+04; -2.3148005E-01;  0.0000000E+00;  2.7095204E-02;  4.7715366E+03;
  5.2623379E-01;  9.9999998E-03; -1.0996032E-01;5637; -1.5301038E-01;  0.0000000E+00; -2.1752040E-03;  9.9495032E+02;  1.0001040E-01; -4.1835830E+03;3;  4.6192923E+00;  0.0000000E+00;  3.0976641E+00;0; -2.0401281E-01;  3.9555012E+04;  0.0000000E+00; -1.2256025E-01;  4.0000000E+04;  0.0000000E+00;  4.0033070E+04; -2.3044433E-01;  0.0000000E+00;  2.6431518E-02;  4.5894634E+03;
  5.3628165E-01;  9.9999998E-03; -2.6987511E-01;5682; -1.5302293E-01;  0.0000000E+00; -6.4534633E-03;  9.9305719E+02;  1.0001741E-01; -5.7519824E+03;3;  6.9098467E-01;  0.0000000E+00;  4.5393596E+00;0; -2.0120841E-01;  3.9379953E+04;  0.0000000E+00; -1.0748178E-01;  4.0000000E+04;  0.0000000E+00;  4.0053473E+04; -2.2453295E-01;  0.0000000E+00;  2.3324536E-02;  7.2947671E+03;
  5.3630984E-01;  9.9999998E-03; -2.5988108E-01;5683; -1.5314899E-01;  0.0000000E+00; -6.3270070E-03;  9.9313263E+02;  1.0001738E-01; -5.6894658E+03;3;  8.9795506E-01;  0.0000000E+00;  4.6321664E+00;0; -2.0133156E-01;  3.9385535E+04;  0.0000000E+00; -1.1226798E-01;  4.0000000E+04;  0.0000000E+00;  4.0054078E+04; -2.2552671E-01;  0.0000000E+00;  2.4195155E-02;  7.3757578E+03;
  5.3633058E-01;  9.9999998E-03; -2.4988694E-01;5684; -1.5328452E-01;  0.0000000E+00; -6.1609717E-03;  9.9322266E+02;  1.0001735E-01; -5.6148999E+03;3;  1.1165491E+00;  0.0000000E+00;  4.6852813E+00;0; -2.0198175E-01;  3.9392234E+04;  0.0000000E+00; -8.9672022E-02;  4.0000000E+04;  0.0000000E+00;  4.0054516E+04; -2.2655717E-01;  0.0000000E+00;  2.4575410E-02;  7.4086353E+03;
  5.3634346E-01;  9.9999998E-03; -2.3989300E-01;5685; -1.5342942E-01;  0.0000000E+00; -5.9515936E-03;  9.9332190E+02;  1.0001748E-01; -5.5326802E+03;3;  1.3493935E+00;  0.0000000E+00;  4.7111344E+00;0; -2.0283215E-01;  3.9400277E+04;  0.0000000E+00; -5.3559195E-02;  4.0000000E+04;  0.0000000E+00;  4.0054266E+04; -2.2759938E-01;  0.0000000E+00;  2.4767239E-02;  7.3696333E+03;
  5.3635049E-01;  9.9999998E-03; -2.2990073E-01;5686; -1.5357745E-01;  0.0000000E+00; -5.7036476E-03;  9.9342529E+02;  1.0001731E-01; -5.4470034E+03;3;  1.5968021E+00;  0.0000000E+00;  4.7225289E+00;0; -2.0362091E-01;  3.9409492E+04;  0.0000000E+00; -1.4461298E-02;  4.0000000E+04;  0.0000000E+00;  4.0053102E+04; -2.2861955E-01;  0.0000000E+00;  2.4998629E-02;  7.2241421E+03;
  5.3635448E-01;  9.9999998E-03; -2.1990967E-01;5687; -1.5372200E-01;  0.0000000E+00; -5.4430529E-03;  9.9353766E+02;  1.0001730E-01; -5.3539199E+03;3;  1.8563701E+00;  0.0000000E+00;  4.7112780E+00;0; -2.0418768E-01;  3.9419660E+04;  0.0000000E+00;  2.0874411E-02;  4.0000000E+04;  0.0000000E+00;  4.0051688E+04; -2.2958036E-01;  0.0000000E+00;  2.5392676E-02;  7.0393862E+03;
  5.3635687E-01;  9.9999998E-03; -2.0991808E-01;5688; -1.5386090E-01;  0.0000000E+00; -5.1699062E-03;  9.9365997E+02;  1.0001735E-01; -5.2525894E+03;3;  2.1263926E+00;  0.0000000E+00;  4.6749439E+00;0; -2.0455399E-01;  3.9430730E+04;  0.0000000E+00;  4.7884468E-02;  4.0000000E+04;  0.0000000E+00;  4.0050211E+04; -2.3044199E-01;  0.0000000E+00;  2.5888003E-02;  6.8524419E+03;
  5.3635800E-01;  9.9999998E-03; -1.9992514E-01;5689; -1.5399675E-01;  0.0000000E+00; -4.8816921E-03;  9.9378534E+02;  1.0001750E-01; -5.1487407E+03;3;  2.4042292E+00;  0.0000000E+00;  4.6184220E+00;0; -2.0474584E-01;  3.9442195E+04;  0.0000000E+00;  6.3553303E-02;  4.0000000E+04;  0.0000000E+00;  4.0048773E+04; -2.3116612E-01;  0.0000000E+00;  2.6420286E-02;  6.6479756E+03;
  5.3635734E-01;  9.9999998E-03; -1.8993135E-01;5690; -1.5413196E-01;  0.0000000E+00; -4.5775753E-03;  9.9390869E+02;  1.0001754E-01; -5.0465215E+03;3;  2.6891632E+00;  0.0000000E+00;  4.5389118E+00;0; -2.0478776E-01;  3.9453648E+04;  0.0000000E+00;  6.6431604E-02;  4.0000000E+04;  0.0000000E+00;  4.0046910E+04; -2.3171796E-01;  0.0000000E+00;  2.6930194E-02;  6.4115801E+03;
  5.3635442E-01;  9.9999998E-03; -1.7993709E-01;5691; -1.5426943E-01;  0.0000000E+00; -4.2596031E-03;  9.9402740E+02;  1.0001744E-01; -4.9482031E+03;3;  2.9786677E+00;  0.0000000E+00;  4.4291434E+00;0; -2.0470881E-01;  3.9464746E+04;  0.0000000E+00;  5.6725133E-02;  4.0000000E+04;  0.0000000E+00;  4.0044840E+04; -2.3207013E-01;  0.0000000E+00;  2.7361315E-02;  6.1481895E+03;
  5.3634876E-01;  9.9999998E-03; -1.6994274E-01;5692; -1.5441093E-01;  0.0000000E+00; -3.9325147E-03;  9.9413440E+02;  1.0001736E-01; -4.8595142E+03;3;  3.2687938E+00;  0.0000000E+00;  4.3018389E+00;0; -2.0454544E-01;  3.9475465E+04;  0.0000000E+00;  3.6411867E-02;  4.0000000E+04;  0.0000000E+00;  4.0042797E+04; -2.3220682E-01;  0.0000000E+00;  2.7661385E-02;  5.8696914E+03;
  5.3634000E-01;  9.9999998E-03; -1.5994838E-01;5693; -1.5455681E-01;  0.0000000E+00; -3.6015757E-03;  9.9423145E+02;  1.0001750E-01; -4.7791216E+03;3;  3.5590880E+00;  0.0000000E+00;  4.1432791E+00;0; -2.0433423E-01;  3.9485148E+04;  0.0000000E+00;  8.9866053E-03;  4.0000000E+04;  0.0000000E+00;  4.0040605E+04; -2.3212253E-01;  0.0000000E+00;  2.7788298E-02;  5.5893511E+03;
  5.3632808E-01;  9.9999998E-03; -1.4995399E-01;5694; -1.5470652E-01;  0.0000000E+00; -3.2736098E-03;  9.9431470E+02;  1.0001726E-01; -4.7101851E+03;3;  3.8463283E+00;  0.0000000E+00;  3.9674141E+00;0; -2.0410642E-01;  3.9493750E+04;  0.0000000E+00; -2.1263681E-02;  4.0000000E+04;  0.0000000E+00;  4.0038484E+04; -2.3182377E-01;  0.0000000E+00;  2.7717359E-02;  5.3190640E+03;
  5.3631294E-01;  9.9999998E-03; -1.3995947E-01;5695; -1.5485884E-01;  0.0000000E+00; -2.9546577E-03;  9.9438635E+02;  1.0001726E-01; -4.6507798E+03;3;  4.1280727E+00;  0.0000000E+00;  3.7628336E+00;0; -2.0388114E-01;  3.9501195E+04;  0.0000000E+00; -5.0379429E-02;  4.0000000E+04;  0.0000000E+00;  4.0036445E+04; -2.3132604E-01;  0.0000000E+00;  2.7444901E-02;  5.0678325E+03;
  5.3629506E-01;  9.9999998E-03; -1.2996458E-01;5696; -1.5501213E-01;  0.0000000E+00; -2.6469033E-03;  9.9444427E+02;  1.0001732E-01; -4.6028306E+03;3;  4.4014316E+00;  0.0000000E+00;  3.5467455E+00;0; -2.0366481E-01;  3.9507535E+04;  0.0000000E+00; -7.5571626E-02;  4.0000000E+04;  0.0000000E+00;  4.0034750E+04; -2.3065135E-01;  0.0000000E+00;  2.6986536E-02;  4.8400088E+03;
  5.3627503E-01;  9.9999998E-03; -1.1996920E-01;5697; -1.5516476E-01;  0.0000000E+00; -2.3518689E-03;  9.9449091E+02;  1.0001743E-01; -4.5641650E+03;3;  4.6645708E+00;  0.0000000E+00;  3.3098874E+00;0; -2.0345676E-01;  3.9512914E+04;  0.0000000E+00; -9.5090866E-02;  4.0000000E+04;  0.0000000E+00;  4.0033105E+04; -2.2982597E-01;  0.0000000E+00;  2.6369220E-02;  4.6349355E+03;
  5.3625375E-01;  9.9999998E-03; -1.0997346E-01;5698; -1.5531492E-01;  0.0000000E+00; -2.0701862E-03;  9.9452985E+02;  1.0001746E-01; -4.5319189E+03;3;  4.9169726E+00;  0.0000000E+00;  3.0633092E+00;0; -2.0325565E-01;  3.9517211E+04;  0.0000000E+00; -1.0782304E-01;  4.0000000E+04;  0.0000000E+00;  4.0031645E+04; -2.2888042E-01;  0.0000000E+00;  2.5624769E-02;  4.4487803E+03;
  5.4639965E-01;  9.9999998E-03; -2.6987070E-01;5743; -1.5534881E-01;  0.0000000E+00; -6.2958430E-03;  9.9271490E+02;  1.0002949E-01; -6.0355786E+03;3;  5.6490403E-01;  0.0000000E+00;  4.4277248E+00;0; -1.9772243E-01;  3.9338805E+04;  0.0000000E+00; -8.9857109E-02;  4.0000000E+04;  0.0000000E+00;  4.0058121E+04; -2.2121680E-01;  0.0000000E+00;  2.3494359E-02;  7.9273804E+03;
  5.4642683E-01;  9.9999998E-03; -2.5987616E-01;5744; -1.5549000E-01;  0.0000000E+00; -6.1434289E-03;  9.9279980E+02;  1.0002950E-01; -5.9652104E+03;3;  8.0122602E-01;  0.0000000E+00;  4.5178990E+00;0; -1.9835289E-01;  3.9345012E+04;  0.0000000E+00; -1.1437694E-01;  4.0000000E+04;  0.0000000E+00;  4.0058648E+04; -2.2229713E-01;  0.0000000E+00;  2.3944248E-02;  7.9907783E+03;
  5.4644406E-01;  9.9999998E-03; -2.4988419E-01;5745; -1.5564016E-01;  0.0000000E+00; -5.8953278E-03;  9.9288037E+02;  1.0002951E-01; -5.8984961E+03;3;  1.0521452E+00;  0.0000000E+00;  4.5818176E+00;0; -1.9972159E-01;  3.9352676E+04;  0.0000000E+00; -9.8964408E-02;  4.0000000E+04;  0.0000000E+00;  4.0057441E+04; -2.2342233E-01;  0.0000000E+00;  2.3700740E-02;  7.8109360E+03;
  5.4644740E-01;  9.9999998E-03; -2.3989628E-01;5746; -1.5579821E-01;  0.0000000E+00; -5.6402110E-03;  9.9296283E+02;  1.0002956E-01; -5.8301523E+03;3;  1.3154030E+00;  0.0000000E+00;  4.6136484E+00;0; -2.0077690E-01;  3.9361520E+04;  0.0000000E+00; -6.2912703E-02;  4.0000000E+04;  0.0000000E+00;  4.0054695E+04; -2.2456738E-01;  0.0000000E+00;  2.3790482E-02;  7.4764209E+03;
  5.4644251E-01;  9.9999998E-03; -2.2991101E-01;5747; -1.5595728E-01;  0.0000000E+00; -5.4143858E-03;  9.9306201E+02;  1.0002951E-01; -5.7479819E+03;3;  1.5927051E+00;  0.0000000E+00;  4.6237130E+00;0; -2.0144881E-01;  3.9371441E+04;  0.0000000E+00; -2.0941965E-02;  4.0000000E+04;  0.0000000E+00;  4.0052398E+04; -2.2569819E-01;  0.0000000E+00;  2.4249369E-02;  7.1853389E+03;
  5.4643500E-01;  9.9999998E-03; -2.1992515E-01;5748; -1.5611100E-01;  0.0000000E+00; -5.1964284E-03;  9.9318646E+02;  1.0002942E-01; -5.6448740E+03;3;  1.8818241E+00;  0.0000000E+00;  4.6130347E+00;0; -2.0195204E-01;  3.9382508E+04;  0.0000000E+00;  1.8692784E-02;  4.0000000E+04;  0.0000000E+00;  4.0051098E+04; -2.2677502E-01;  0.0000000E+00;  2.4822980E-02;  7.0101636E+03;
  5.4642725E-01;  9.9999998E-03; -2.0993680E-01;5749; -1.5625712E-01;  0.0000000E+00; -4.9605588E-03;  9.9332458E+02;  1.0002949E-01; -5.5304575E+03;3;  2.1802251E+00;  0.0000000E+00;  4.5852652E+00;0; -2.0235623E-01;  3.9394281E+04;  0.0000000E+00;  5.0742950E-02;  4.0000000E+04;  0.0000000E+00;  4.0050184E+04; -2.2775625E-01;  0.0000000E+00;  2.5400009E-02;  6.8806309E+03;
  5.4642016E-01;  9.9999998E-03; -1.9994575E-01;5750; -1.5639728E-01;  0.0000000E+00; -4.6979859E-03;  9.9346295E+02;  1.0002949E-01; -5.4157939E+03;3;  2.4881880E+00;  0.0000000E+00;  4.5309863E+00;0; -2.0264634E-01;  3.9406395E+04;  0.0000000E+00;  7.1773611E-02;  4.0000000E+04;  0.0000000E+00;  4.0049055E+04; -2.2860040E-01;  0.0000000E+00;  2.5954057E-02;  6.7202744E+03;
  5.4641354E-01;  9.9999998E-03; -1.8995292E-01;5751; -1.5653397E-01;  0.0000000E+00; -4.4116075E-03;  9.9359778E+02;  1.0002939E-01; -5.3040938E+03;3;  2.8006403E+00;  0.0000000E+00;  4.4574966E+00;0; -2.0281440E-01;  3.9418520E+04;  0.0000000E+00;  8.0062620E-02;  4.0000000E+04;  0.0000000E+00;  4.0047250E+04; -2.2927190E-01;  0.0000000E+00;  2.6457502E-02;  6.4970723E+03;
  5.4640651E-01;  9.9999998E-03; -1.7995901E-01;5752; -1.5666954E-01;  0.0000000E+00; -4.1073333E-03;  9.9372119E+02;  1.0002954E-01; -5.2018745E+03;3;  3.1167750E+00;  0.0000000E+00;  4.3542180E+00;0; -2.0287761E-01;  3.9430230E+04;  0.0000000E+00;  7.5639166E-02;  4.0000000E+04;  0.0000000E+00;  4.0045223E+04; -2.2974241E-01;  0.0000000E+00;  2.6864795E-02;  6.2175171E+03;
  5.4639804E-01;  9.9999998E-03; -1.6996451E-01;5753; -1.5680602E-01;  0.0000000E+00; -3.7903935E-03;  9.9382745E+02;  1.0002955E-01; -5.1138276E+03;3;  3.4347763E+00;  0.0000000E+00;  4.2256846E+00;0; -2.0286842E-01;  3.9441137E+04;  0.0000000E+00;  6.0314693E-02;  4.0000000E+04;  0.0000000E+00;  4.0042676E+04; -2.2999479E-01;  0.0000000E+00;  2.7126377E-02;  5.9024312E+03;
  5.4638737E-01;  9.9999998E-03; -1.5996957E-01;5754; -1.5694378E-01;  0.0000000E+00; -3.4681996E-03;  9.9391949E+02;  1.0002933E-01; -5.0375830E+03;3;  3.7504046E+00;  0.0000000E+00;  4.0734901E+00;0; -2.0282418E-01;  3.9450762E+04;  0.0000000E+00;  3.7371609E-02;  4.0000000E+04;  0.0000000E+00;  4.0040074E+04; -2.3002546E-01;  0.0000000E+00;  2.7201278E-02;  5.5757866E+03;
  5.4637408E-01;  9.9999998E-03; -1.4997427E-01;5755; -1.5708277E-01;  0.0000000E+00; -3.1484989E-03;  9.9399329E+02;  1.0002962E-01; -4.9764487E+03;3;  4.0624413E+00;  0.0000000E+00;  3.8951921E+00;0; -2.0277566E-01;  3.9459184E+04;  0.0000000E+00;  1.0812797E-02;  4.0000000E+04;  0.0000000E+00;  4.0037656E+04; -2.2984204E-01;  0.0000000E+00;  2.7066374E-02;  5.2594800E+03;
  5.4635805E-01;  9.9999998E-03; -1.3997853E-01;5756; -1.5722203E-01;  0.0000000E+00; -2.8383613E-03;  9.9405304E+02;  1.0002943E-01; -4.9269194E+03;3;  4.3670239E+00;  0.0000000E+00;  3.7018991E+00;0; -2.0274033E-01;  3.9465879E+04;  0.0000000E+00; -1.5754279E-02;  4.0000000E+04;  0.0000000E+00;  4.0035340E+04; -2.2946166E-01;  0.0000000E+00;  2.6721328E-02;  4.9704033E+03;
  5.4633975E-01;  9.9999998E-03; -1.2998222E-01;5757; -1.5736052E-01;  0.0000000E+00; -2.5408661E-03;  9.9409613E+02;  1.0002955E-01; -4.8912168E+03;3;  4.6627469E+00;  0.0000000E+00;  3.4850378E+00;0; -2.0272198E-01;  3.9471039E+04;  0.0000000E+00; -3.9883662E-02;  4.0000000E+04;  0.0000000E+00;  4.0033484E+04; -2.2890782E-01;  0.0000000E+00;  2.6185837E-02;  4.7174277E+03;
  5.4631948E-01;  9.9999998E-03; -1.1998537E-01;5758; -1.5749688E-01;  0.0000000E+00; -2.2571308E-03;  9.9412146E+02;  1.0002952E-01; -4.8702793E+03;3;  4.9477615E+00;  0.0000000E+00;  3.2576466E+00;0; -2.0271623E-01;  3.9474832E+04;  0.0000000E+00; -5.9976831E-02;  4.0000000E+04;  0.0000000E+00;  4.0031719E+04; -2.2820760E-01;  0.0000000E+00;  2.5491374E-02;  4.5015835E+03;
  5.4629815E-01;  9.9999998E-03; -1.0998803E-01;5759; -1.5762976E-01;  0.0000000E+00; -1.9877271E-03;  9.9413544E+02;  1.0002936E-01; -4.8586743E+03;3;  5.2200403E+00;  0.0000000E+00;  3.0131903E+00;0; -2.0271875E-01;  3.9477273E+04;  0.0000000E+00; -7.4846253E-02;  4.0000000E+04;  0.0000000E+00;  4.0030309E+04; -2.2739176E-01;  0.0000000E+00;  2.4673019E-02;  4.3189561E+03;
  5.5657381E-01;  9.9999998E-03; -2.6986730E-01;5804; -1.5769550E-01;  0.0000000E+00; -6.1188741E-03;  9.9254187E+02;  1.0004872E-01; -6.1789312E+03;3;  4.2648643E-01;  0.0000000E+00;  4.2784128E+00;0; -1.9380566E-01;  3.9306902E+04;  0.0000000E+00; -8.0706626E-02;  4.0000000E+04;  0.0000000E+00;  4.0060930E+04; -2.1753119E-01;  0.0000000E+00;  2.3725528E-02;  8.3098721E+03;
  5.5659753E-01;  9.9999998E-03; -2.5987214E-01;5805; -1.5784849E-01;  0.0000000E+00; -5.9497920E-03;  9.9262897E+02;  1.0004855E-01; -6.1067358E+03;3;  6.9537932E-01;  0.0000000E+00;  4.3742185E+00;0; -1.9490129E-01;  3.9313379E+04;  0.0000000E+00; -1.1694408E-01;  4.0000000E+04;  0.0000000E+00;  4.0061566E+04; -2.1871917E-01;  0.0000000E+00;  2.3817874E-02;  8.3710527E+03;
  5.5660754E-01;  9.9999998E-03; -2.4988197E-01;5806; -1.5800929E-01;  0.0000000E+00; -5.6329733E-03;  9.9269434E+02;  1.0004877E-01; -6.0526138E+03;3;  9.7840244E-01;  0.0000000E+00;  4.4450316E+00;0; -1.9697060E-01;  3.9321156E+04;  0.0000000E+00; -1.0668214E-01;  4.0000000E+04;  0.0000000E+00;  4.0058688E+04; -2.1996003E-01;  0.0000000E+00;  2.2989443E-02;  8.0169316E+03;
  5.5659735E-01;  9.9999998E-03; -2.3989952E-01;5807; -1.5817535E-01;  0.0000000E+00; -5.3387922E-03;  9.9275269E+02;  1.0004855E-01; -6.0042695E+03;3;  1.2730075E+00;  0.0000000E+00;  4.4818096E+00;0; -1.9828814E-01;  3.9330121E+04;  0.0000000E+00; -7.2943725E-02;  4.0000000E+04;  0.0000000E+00;  4.0054098E+04; -2.2122894E-01;  0.0000000E+00;  2.2940794E-02;  7.4278843E+03;
  5.5657554E-01;  9.9999998E-03; -2.2992042E-01;5808; -1.5833978E-01;  0.0000000E+00; -5.1356871E-03;  9.9284161E+02;  1.0004845E-01; -5.9305928E+03;3;  1.5833156E+00;  0.0000000E+00;  4.4964104E+00;0; -1.9892587E-01;  3.9340129E+04;  0.0000000E+00; -3.2686114E-02;  4.0000000E+04;  0.0000000E+00;  4.0050906E+04; -2.2249010E-01;  0.0000000E+00;  2.3564234E-02;  7.0258169E+03;
  5.5655217E-01;  9.9999998E-03; -2.1993910E-01;5809; -1.5849830E-01;  0.0000000E+00; -4.9570687E-03;  9.9296881E+02;  1.0004871E-01; -5.8252129E+03;3;  1.9018054E+00;  0.0000000E+00;  4.4855409E+00;0; -1.9944391E-01;  3.9351047E+04;  0.0000000E+00;  6.5250434E-03;  4.0000000E+04;  0.0000000E+00;  4.0049867E+04; -2.2370274E-01;  0.0000000E+00;  2.4258835E-02;  6.8775444E+03;
  5.5653036E-01;  9.9999998E-03; -2.0995358E-01;5810; -1.5864860E-01;  0.0000000E+00; -4.7525526E-03;  9.9311322E+02;  1.0004860E-01; -5.7055625E+03;3;  2.2302108E+00;  0.0000000E+00;  4.4613819E+00;0; -1.9995259E-01;  3.9362750E+04;  0.0000000E+00;  4.0343422E-02;  4.0000000E+04;  0.0000000E+00;  4.0049410E+04; -2.2482403E-01;  0.0000000E+00;  2.4871433E-02;  6.8161821E+03;
  5.5651128E-01;  9.9999998E-03; -1.9996396E-01;5811; -1.5879165E-01;  0.0000000E+00; -4.5141107E-03;  9.9325909E+02;  1.0004871E-01; -5.5847261E+03;3;  2.5670137E+00;  0.0000000E+00;  4.4138956E+00;0; -2.0039313E-01;  3.9374695E+04;  0.0000000E+00;  6.5333933E-02;  4.0000000E+04;  0.0000000E+00;  4.0048625E+04; -2.2581114E-01;  0.0000000E+00;  2.5418013E-02;  6.7111899E+03;
  5.5649549E-01;  9.9999998E-03; -1.8997152E-01;5812; -1.5892939E-01;  0.0000000E+00; -4.2457324E-03;  9.9339355E+02;  1.0004846E-01; -5.4733223E+03;3;  2.9101820E+00;  0.0000000E+00;  4.3433337E+00;0; -2.0073533E-01;  3.9386770E+04;  0.0000000E+00;  7.9517558E-02;  4.0000000E+04;  0.0000000E+00;  4.0047152E+04; -2.2662653E-01;  0.0000000E+00;  2.5891207E-02;  6.5137646E+03;
  5.5648184E-01;  9.9999998E-03; -1.7997752E-01;5813; -1.5906310E-01;  0.0000000E+00; -3.9551463E-03;  9.9351349E+02;  1.0004858E-01; -5.3739668E+03;3;  3.2547777E+00;  0.0000000E+00;  4.2506313E+00;0; -2.0098642E-01;  3.9398395E+04;  0.0000000E+00;  8.2584791E-02;  4.0000000E+04;  0.0000000E+00;  4.0045008E+04; -2.2724074E-01;  0.0000000E+00;  2.6254332E-02;  6.2313525E+03;
  5.5646920E-01;  9.9999998E-03; -1.6998252E-01;5814; -1.5919486E-01;  0.0000000E+00; -3.6502425E-03;  9.9361761E+02;  1.0004850E-01; -5.2876978E+03;3;  3.6007040E+00;  0.0000000E+00;  4.1231050E+00;0; -2.0117736E-01;  3.9409078E+04;  0.0000000E+00;  7.5914390E-02;  4.0000000E+04;  0.0000000E+00;  4.0042340E+04; -2.2763753E-01;  0.0000000E+00;  2.6460173E-02;  5.8942627E+03;
  5.5645633E-01;  9.9999998E-03; -1.5998682E-01;5815; -1.5932530E-01;  0.0000000E+00; -3.3386287E-03;  9.9370343E+02;  1.0004857E-01; -5.2165889E+03;3;  3.9420643E+00;  0.0000000E+00;  3.9785128E+00;0; -2.0134416E-01;  3.9418496E+04;  0.0000000E+00;  6.2165953E-02;  4.0000000E+04;  0.0000000E+00;  4.0039602E+04; -2.2781278E-01;  0.0000000E+00;  2.6468622E-02;  5.5365693E+03;
  5.5644208E-01;  9.9999998E-03; -1.4999051E-01;5816; -1.5945457E-01;  0.0000000E+00; -3.0300415E-03;  9.9376880E+02;  1.0004828E-01; -5.1624175E+03;3;  4.2796192E+00;  0.0000000E+00;  3.8062882E+00;0; -2.0151775E-01;  3.9426332E+04;  0.0000000E+00;  4.4490501E-02;  4.0000000E+04;  0.0000000E+00;  4.0036844E+04; -2.2777624E-01;  0.0000000E+00;  2.6258497E-02;  5.1894761E+03;
  5.5642623E-01;  9.9999998E-03; -1.3999362E-01;5817; -1.5958238E-01;  0.0000000E+00; -2.7313528E-03;  9.9381824E+02;  1.0004857E-01; -5.1214805E+03;3;  4.6076951E+00;  0.0000000E+00;  3.6172190E+00;0; -2.0171338E-01;  3.9432383E+04;  0.0000000E+00;  2.5546288E-02;  4.0000000E+04;  0.0000000E+00;  4.0034371E+04; -2.2754639E-01;  0.0000000E+00;  2.5833007E-02;  4.8767417E+03;
  5.5640894E-01;  9.9999998E-03; -1.2999617E-01;5818; -1.5970799E-01;  0.0000000E+00; -2.4466885E-03;  9.9384357E+02;  1.0004845E-01; -5.1004937E+03;3;  4.9270325E+00;  0.0000000E+00;  3.4094882E+00;0; -2.0193058E-01;  3.9436719E+04;  0.0000000E+00;  6.9942423E-03;  4.0000000E+04;  0.0000000E+00;  4.0032297E+04; -2.2714713E-01;  0.0000000E+00;  2.5216550E-02;  4.6114648E+03;
  5.5639035E-01;  9.9999998E-03; -1.1999821E-01;5819; -1.5983054E-01;  0.0000000E+00; -2.1763758E-03;  9.9385693E+02;  1.0004851E-01; -5.0894321E+03;3;  5.2345381E+00;  0.0000000E+00;  3.1879129E+00;0; -2.0216185E-01;  3.9439250E+04;  0.0000000E+00; -1.0080940E-02;  4.0000000E+04;  0.0000000E+00;  4.0030484E+04; -2.2660673E-01;  0.0000000E+00;  2.4444882E-02;  4.3960679E+03;
  5.5637121E-01;  9.9999998E-03; -1.0999975E-01;5820; -1.5994932E-01;  0.0000000E+00; -1.9212218E-03;  9.9385809E+02;  1.0004858E-01; -5.0884443E+03;3;  5.5265484E+00;  0.0000000E+00;  2.9427831E+00;0; -2.0239887E-01;  3.9440426E+04;  0.0000000E+00; -2.4673287E-02;  4.0000000E+04;  0.0000000E+00;  4.0029258E+04; -2.2595543E-01;  0.0000000E+00;  2.3556568E-02;  4.2266987E+03;
  5.6680250E-01;  9.9999998E-03; -2.6986533E-01;5865; -1.6003220E-01;  0.0000000E+00; -5.9144762E-03;  9.9259436E+02;  1.0007987E-01; -6.1354258E+03;3;  2.7760336E-01;  0.0000000E+00;  4.1006608E+00;0; -1.8949057E-01;  3.9286312E+04;  0.0000000E+00; -1.3569076E-01;  4.0000000E+04;  0.0000000E+00;  4.0061020E+04; -2.1348409E-01;  0.0000000E+00;  2.3993518E-02;  8.3427812E+03;
  5.6682324E-01;  9.9999998E-03; -2.5986934E-01;5866; -1.6019696E-01;  0.0000000E+00; -5.7512540E-03;  9.9268018E+02;  1.0007985E-01; -6.0643169E+03;3;  5.7775283E-01;  0.0000000E+00;  4.1917028E+00;0; -1.9088988E-01;  3.9292332E+04;  0.0000000E+00; -1.4761811E-01;  4.0000000E+04;  0.0000000E+00;  4.0061715E+04; -2.1480614E-01;  0.0000000E+00;  2.3916259E-02;  8.4238213E+03;
  5.6681991E-01;  9.9999998E-03; -2.4987981E-01;5867; -1.6036654E-01;  0.0000000E+00; -5.4022083E-03;  9.9273242E+02;  1.0007981E-01; -6.0210586E+03;3;  8.9557749E-01;  0.0000000E+00;  4.2740130E+00;0; -1.9351067E-01;  3.9299598E+04;  0.0000000E+00; -1.1977044E-01;  4.0000000E+04;  0.0000000E+00;  4.0058336E+04; -2.1619014E-01;  0.0000000E+00;  2.2679476E-02;  7.9867832E+03;
  5.6679171E-01;  9.9999998E-03; -2.3990053E-01;5868; -1.6053763E-01;  0.0000000E+00; -5.0823898E-03;  9.9276532E+02;  1.0007977E-01; -5.9938003E+03;3;  1.2247685E+00;  0.0000000E+00;  4.3208218E+00;0; -1.9518526E-01;  3.9307766E+04;  0.0000000E+00; -8.0869377E-02;  4.0000000E+04;  0.0000000E+00;  4.0052500E+04; -2.1760818E-01;  0.0000000E+00;  2.2422930E-02;  7.2502773E+03;
  5.6675208E-01;  9.9999998E-03; -2.2992544E-01;5869; -1.6070578E-01;  0.0000000E+00; -4.8922827E-03;  9.9283862E+02;  1.0007978E-01; -5.9330615E+03;3;  1.5660938E+00;  0.0000000E+00;  4.3370838E+00;0; -1.9596705E-01;  3.9316965E+04;  0.0000000E+00; -4.3715734E-02;  4.0000000E+04;  0.0000000E+00;  4.0048727E+04; -2.1902338E-01;  0.0000000E+00;  2.3056326E-02;  6.7836343E+03;
  5.6671119E-01;  9.9999998E-03; -2.1994731E-01;5870; -1.6086756E-01;  0.0000000E+00; -4.7392747E-03;  9.9295685E+02;  1.0008001E-01; -5.8350889E+03;3;  1.9170761E+00;  0.0000000E+00;  4.3277082E+00;0; -1.9663416E-01;  3.9327059E+04;  0.0000000E+00; -9.3889628E-03;  4.0000000E+04;  0.0000000E+00;  4.0047910E+04; -2.2039381E-01;  0.0000000E+00;  2.3759644E-02;  6.6626963E+03;
  5.6667238E-01;  9.9999998E-03; -2.0996384E-01;5871; -1.6102092E-01;  0.0000000E+00; -4.5560645E-03;  9.9309546E+02;  1.0007975E-01; -5.7202773E+03;3;  2.2765965E+00;  0.0000000E+00;  4.3071361E+00;0; -1.9733730E-01;  3.9337621E+04;  0.0000000E+00;  2.1702509E-02;  4.0000000E+04;  0.0000000E+00;  4.0047973E+04; -2.2167738E-01;  0.0000000E+00;  2.4340086E-02;  6.6609854E+03;
  5.6663865E-01;  9.9999998E-03; -1.9997516E-01;5872; -1.6116659E-01;  0.0000000E+00; -4.3334546E-03;  9.9323260E+02;  1.0007975E-01; -5.6066514E+03;3;  2.6432099E+00;  0.0000000E+00;  4.2676950E+00;0; -1.9799702E-01;  3.9348719E+04;  0.0000000E+00;  4.7555432E-02;  4.0000000E+04;  0.0000000E+00;  4.0047688E+04; -2.2283022E-01;  0.0000000E+00;  2.4833206E-02;  6.6106421E+03;
  5.6661052E-01;  9.9999998E-03; -1.8998273E-01;5873; -1.6130525E-01;  0.0000000E+00; -4.0777717E-03;  9.9335736E+02;  1.0007992E-01; -5.5032964E+03;3;  3.0157604E+00;  0.0000000E+00;  4.2010155E+00;0; -1.9857000E-01;  3.9359758E+04;  0.0000000E+00;  6.6444315E-02;  4.0000000E+04;  0.0000000E+00;  4.0046422E+04; -2.2381324E-01;  0.0000000E+00;  2.5243238E-02;  6.4472646E+03;
  5.6658727E-01;  9.9999998E-03; -1.7998818E-01;5874; -1.6143791E-01;  0.0000000E+00; -3.8000655E-03;  9.9347064E+02;  1.0007997E-01; -5.4094224E+03;3;  3.3897936E+00;  0.0000000E+00;  4.1148472E+00;0; -1.9906124E-01;  3.9370543E+04;  0.0000000E+00;  7.7655792E-02;  4.0000000E+04;  0.0000000E+00;  4.0044344E+04; -2.2459747E-01;  0.0000000E+00;  2.5536217E-02;  6.1778394E+03;
  5.6656814E-01;  9.9999998E-03; -1.6999222E-01;5875; -1.6156581E-01;  0.0000000E+00; -3.5070777E-03;  9.9356451E+02;  1.0007987E-01; -5.3316963E+03;3;  3.7642801E+00;  0.0000000E+00;  3.9960082E+00;0; -1.9950171E-01;  3.9380406E+04;  0.0000000E+00;  8.1866920E-02;  4.0000000E+04;  0.0000000E+00;  4.0041656E+04; -2.2516569E-01;  0.0000000E+00;  2.5663987E-02;  5.8392427E+03;
  5.6655204E-01;  9.9999998E-03; -1.5999524E-01;5876; -1.6169012E-01;  0.0000000E+00; -3.2066400E-03;  9.9364178E+02;  1.0007964E-01; -5.2676489E+03;3;  4.1327543E+00;  0.0000000E+00;  3.8592298E+00;0; -1.9992726E-01;  3.9389277E+04;  0.0000000E+00;  8.0696411E-02;  4.0000000E+04;  0.0000000E+00;  4.0038820E+04; -2.2551422E-01;  0.0000000E+00;  2.5586965E-02;  5.4733481E+03;
  5.6653816E-01;  9.9999998E-03; -1.4999749E-01;5877; -1.6181149E-01;  0.0000000E+00; -2.9101316E-03;  9.9369861E+02;  1.0007985E-01; -5.2205884E+03;3;  4.4963632E+00;  0.0000000E+00;  3.6970301E+00;0; -2.0036776E-01;  3.9396652E+04;  0.0000000E+00;  7.5959966E-02;  4.0000000E+04;  0.0000000E+00;  4.0036008E+04; -2.2565390E-01;  0.0000000E+00;  2.5286136E-02;  5.1181987E+03;
  5.6652498E-01;  9.9999998E-03; -1.3999926E-01;5878; -1.6193007E-01;  0.0000000E+00; -2.6245916E-03;  9.9374188E+02;  1.0007970E-01; -5.1847378E+03;3;  4.8492761E+00;  0.0000000E+00;  3.5143623E+00;0; -2.0083541E-01;  3.9402133E+04;  0.0000000E+00;  6.8934426E-02;  4.0000000E+04;  0.0000000E+00;  4.0033379E+04; -2.2560386E-01;  0.0000000E+00;  2.4768455E-02;  4.8027646E+03;
  5.6651133E-01;  9.9999998E-03; -1.3000065E-01;5879; -1.6204536E-01;  0.0000000E+00; -2.3538915E-03;  9.9376587E+02;  1.0007964E-01; -5.1648369E+03;3;  5.1928296E+00;  0.0000000E+00;  3.3163395E+00;0; -2.0132639E-01;  3.9406016E+04;  0.0000000E+00;  6.0128659E-02;  4.0000000E+04;  0.0000000E+00;  4.0031520E+04; -2.2538961E-01;  0.0000000E+00;  2.4063233E-02;  4.5430571E+03;
  5.6649703E-01;  9.9999998E-03; -1.2000172E-01;5880; -1.6215706E-01;  0.0000000E+00; -2.0987557E-03;  9.9377429E+02;  1.0007966E-01; -5.1578740E+03;3;  5.5233331E+00;  0.0000000E+00;  3.0935259E+00;0; -2.0182872E-01;  3.9408125E+04;  0.0000000E+00;  4.9728043E-02;  4.0000000E+04;  0.0000000E+00;  4.0029914E+04; -2.2503942E-01;  0.0000000E+00;  2.3210702E-02;  4.3428525E+03;
  5.6648290E-01;  9.9999998E-03; -1.1000237E-01;5881; -1.6226497E-01;  0.0000000E+00; -1.8585231E-03;  9.9376819E+02;  1.0007960E-01; -5.1629111E+03;3;  5.8377633E+00;  0.0000000E+00;  2.8613465E+00;0; -2.0232989E-01;  3.9408949E+04;  0.0000000E+00;  3.8239814E-02;  4.0000000E+04;  0.0000000E+00;  4.0028586E+04; -2.2458233E-01;  0.0000000E+00;  2.2252446E-02;  4.1982007E+03;
  5.7705814E-01;  9.9999998E-03; -2.6986495E-01;5926; -1.6231908E-01;  0.0000000E+00; -5.6734388E-03;  9.9288092E+02;  1.0013127E-01; -5.8979995E+03;3;  1.2037846E-01;  0.0000000E+00;  3.8901391E+00;0; -1.8494153E-01;  3.9271277E+04;  0.0000000E+00; -2.8387249E-01;  4.0000000E+04;  0.0000000E+00;  4.0058047E+04; -2.0920730E-01;  0.0000000E+00;  2.4265772E-02;  7.9973862E+03;
  5.7707429E-01;  9.9999998E-03; -2.5986794E-01;5927; -1.6249730E-01;  0.0000000E+00; -5.5354922E-03;  9.9295654E+02;  1.0013119E-01; -5.8353838E+03;3;  4.5250222E-01;  0.0000000E+00;  3.9846082E+00;0; -1.8648908E-01;  3.9276195E+04;  0.0000000E+00; -2.2026274E-01;  4.0000000E+04;  0.0000000E+00;  4.0059141E+04; -2.1068943E-01;  0.0000000E+00;  2.4200344E-02;  8.1105142E+03;
  5.7705629E-01;  9.9999998E-03; -2.4987711E-01;5928; -1.6267802E-01;  0.0000000E+00; -5.2085086E-03;  9.9299811E+02;  1.0013124E-01; -5.8009160E+03;3;  8.0537611E-01;  0.0000000E+00;  4.0594320E+00;0; -1.8937787E-01;  3.9282137E+04;  0.0000000E+00; -1.4348304E-01;  4.0000000E+04;  0.0000000E+00;  4.0055977E+04; -2.1224009E-01;  0.0000000E+00;  2.2862207E-02;  7.7270029E+03;
  5.7701361E-01;  9.9999998E-03; -2.3989712E-01;5929; -1.6285667E-01;  0.0000000E+00; -4.8922808E-03;  9.9301593E+02;  1.0013139E-01; -5.7861509E+03;3;  1.1676981E+00;  0.0000000E+00;  4.1210818E+00;0; -1.9144486E-01;  3.9288977E+04;  0.0000000E+00; -8.6663939E-02;  4.0000000E+04;  0.0000000E+00;  4.0050316E+04; -2.1382767E-01;  0.0000000E+00;  2.2382809E-02;  7.0079180E+03;
  5.7696104E-01;  9.9999998E-03; -2.2992237E-01;5930; -1.6303089E-01;  0.0000000E+00; -4.6999622E-03;  9.9307037E+02;  1.0013141E-01; -5.7410664E+03;3;  1.5431609E+00;  0.0000000E+00;  4.1416745E+00;0; -1.9259979E-01;  3.9296578E+04;  0.0000000E+00; -4.9705621E-02;  4.0000000E+04;  0.0000000E+00;  4.0046539E+04; -2.1541394E-01;  0.0000000E+00;  2.2814156E-02;  6.5348101E+03;
  5.7690603E-01;  9.9999998E-03; -2.1994531E-01;5931; -1.6319841E-01;  0.0000000E+00; -4.5485334E-03;  9.9316925E+02;  1.0013144E-01; -5.6591431E+03;3;  1.9263107E+00;  0.0000000E+00;  4.1362815E+00;0; -1.9359031E-01;  3.9304895E+04;  0.0000000E+00; -2.2388184E-02;  4.0000000E+04;  0.0000000E+00;  4.0045781E+04; -2.1695912E-01;  0.0000000E+00;  2.3368804E-02;  6.4179961E+03;
  5.7685286E-01;  9.9999998E-03; -2.0996283E-01;5932; -1.6335724E-01;  0.0000000E+00; -4.3701516E-03;  9.9328912E+02;  1.0013153E-01; -5.5598374E+03;3;  2.3176117E+00;  0.0000000E+00;  4.1220474E+00;0; -1.9459213E-01;  3.9314012E+04;  0.0000000E+00;  1.7990387E-03;  4.0000000E+04;  0.0000000E+00;  4.0045953E+04; -2.1842137E-01;  0.0000000E+00;  2.3829242E-02;  6.4430000E+03;
  5.7680535E-01;  9.9999998E-03; -1.9997434E-01;5933; -1.6350742E-01;  0.0000000E+00; -4.1541457E-03;  9.9341016E+02;  1.0013146E-01; -5.4595439E+03;3;  2.7150664E+00;  0.0000000E+00;  4.0889511E+00;0; -1.9554117E-01;  3.9323516E+04;  0.0000000E+00;  2.4433209E-02;  4.0000000E+04;  0.0000000E+00;  4.0046078E+04; -2.1975620E-01;  0.0000000E+00;  2.4215030E-02;  6.4301416E+03;
  5.7676494E-01;  9.9999998E-03; -1.8998152E-01;5934; -1.6364875E-01;  0.0000000E+00; -3.9050386E-03;  9.9352216E+02;  1.0013139E-01; -5.3667563E+03;3;  3.1177473E+00;  0.0000000E+00;  4.0297737E+00;0; -1.9640344E-01;  3.9333090E+04;  0.0000000E+00;  4.5079522E-02;  4.0000000E+04;  0.0000000E+00;  4.0044973E+04; -2.2092550E-01;  0.0000000E+00;  2.4522044E-02;  6.3004360E+03;
  5.7673174E-01;  9.9999998E-03; -1.7998616E-01;5935; -1.6378182E-01;  0.0000000E+00; -3.6351690E-03;  9.9361572E+02;  1.0013138E-01; -5.2892280E+03;3;  3.5218601E+00;  0.0000000E+00;  3.9513543E+00;0; -1.9718733E-01;  3.9342395E+04;  0.0000000E+00;  6.2970422E-02;  4.0000000E+04;  0.0000000E+00;  4.0043121E+04; -2.2189954E-01;  0.0000000E+00;  2.4712203E-02;  6.0575474E+03;
  5.7670534E-01;  9.9999998E-03; -1.6998906E-01;5936; -1.6390760E-01;  0.0000000E+00; -3.3514269E-03;  9.9369824E+02;  1.0013123E-01; -5.2208843E+03;3;  3.9232514E+00;  0.0000000E+00;  3.8471720E+00;0; -1.9792645E-01;  3.9351180E+04;  0.0000000E+00;  7.7954687E-02;  4.0000000E+04;  0.0000000E+00;  4.0040645E+04; -2.2266079E-01;  0.0000000E+00;  2.4734350E-02;  5.7402163E+03;
  5.7668531E-01;  9.9999998E-03; -1.5999071E-01;5937; -1.6402765E-01;  0.0000000E+00; -3.0622573E-03;  9.9376459E+02;  1.0013103E-01; -5.1659229E+03;3;  4.3219805E+00;  0.0000000E+00;  3.7175877E+00;0; -1.9865806E-01;  3.9359066E+04;  0.0000000E+00;  9.0321980E-02;  4.0000000E+04;  0.0000000E+00;  4.0037996E+04; -2.2320652E-01;  0.0000000E+00;  2.4548462E-02;  5.3932803E+03;
  5.7667053E-01;  9.9999998E-03; -1.4999159E-01;5938; -1.6414288E-01;  0.0000000E+00; -2.7773583E-03;  9.9381732E+02;  1.0013118E-01; -5.1222207E+03;3;  4.7112832E+00;  0.0000000E+00;  3.5658207E+00;0; -1.9940928E-01;  3.9365719E+04;  0.0000000E+00;  1.0024780E-01;  4.0000000E+04;  0.0000000E+00;  4.0035230E+04; -2.2354692E-01;  0.0000000E+00;  2.4137639E-02;  5.0578452E+03;
  5.7665980E-01;  9.9999998E-03; -1.3999204E-01;5939; -1.6425407E-01;  0.0000000E+00; -2.5051767E-03;  9.9385742E+02;  1.0013114E-01; -5.0889868E+03;3;  5.0936465E+00;  0.0000000E+00;  3.3835192E+00;0; -2.0018898E-01;  3.9371051E+04;  0.0000000E+00;  1.0742444E-01;  4.0000000E+04;  0.0000000E+00;  4.0032922E+04; -2.2370170E-01;  0.0000000E+00;  2.3512719E-02;  4.7649888E+03;
  5.7665223E-01;  9.9999998E-03; -1.2999217E-01;5940; -1.6436175E-01;  0.0000000E+00; -2.2489338E-03;  9.9388336E+02;  1.0013101E-01; -5.0675059E+03;3;  5.4626889E+00;  0.0000000E+00;  3.1890311E+00;0; -2.0099021E-01;  3.9375105E+04;  0.0000000E+00;  1.1101837E-01;  4.0000000E+04;  0.0000000E+00;  4.0031168E+04; -2.2369775E-01;  0.0000000E+00;  2.2707531E-02;  4.5320845E+03;
  5.7664645E-01;  9.9999998E-03; -1.1999218E-01;5941; -1.6446619E-01;  0.0000000E+00; -2.0083766E-03;  9.9389972E+02;  1.0013115E-01; -5.0539756E+03;3;  5.8099217E+00;  0.0000000E+00;  2.9912608E+00;0; -2.0179614E-01;  3.9377570E+04;  0.0000000E+00;  1.1010218E-01;  4.0000000E+04;  0.0000000E+00;  4.0029715E+04; -2.2356279E-01;  0.0000000E+00;  2.1766651E-02;  4.3636504E+03;
  5.7664192E-01;  9.9999998E-03; -1.0999192E-01;5942; -1.6456717E-01;  0.0000000E+00; -1.7824266E-03;  9.9390564E+02;  1.0013121E-01; -5.0490376E+03;3;  6.1441250E+00;  0.0000000E+00;  2.7799773E+00;0; -2.0259042E-01;  3.9378879E+04;  0.0000000E+00;  1.0435762E-01;  4.0000000E+04;  0.0000000E+00;  4.0028926E+04; -2.2332484E-01;  0.0000000E+00;  2.0734409E-02;  4.2554272E+03;
  5.8728188E-01;  9.9999998E-03; -2.6986563E-01;5987; -1.6451196E-01;  0.0000000E+00; -5.3855143E-03;  9.9332269E+02;  1.0021430E-01; -5.5320342E+03;3; -4.6720624E-02;  0.0000000E+00;  3.6283703E+00;0; -1.8048199E-01;  3.9246363E+04;  0.0000000E+00; -4.4069079E-01;  4.0000000E+04;  0.0000000E+00;  4.0052613E+04; -2.0497233E-01;  0.0000000E+00;  2.4490340E-02;  7.3687363E+03;
  5.8729345E-01;  9.9999998E-03; -2.5986758E-01;5988; -1.6470851E-01;  0.0000000E+00; -5.2761929E-03;  9.9338257E+02;  1.0021447E-01; -5.4824062E+03;3;  3.2085371E-01;  0.0000000E+00;  3.7391431E+00;0; -1.8213268E-01;  3.9249750E+04;  0.0000000E+00; -2.8862676E-01;  4.0000000E+04;  0.0000000E+00;  4.0053812E+04; -2.0662825E-01;  0.0000000E+00;  2.4495572E-02;  7.4873730E+03;
  5.8727229E-01;  9.9999998E-03; -2.4987400E-01;5989; -1.6490710E-01;  0.0000000E+00; -5.0133094E-03;  9.9341565E+02;  1.0021477E-01; -5.4549995E+03;3;  7.0669580E-01;  0.0000000E+00;  3.8138750E+00;0; -1.8500666E-01;  3.9253918E+04;  0.0000000E+00; -1.6247612E-01;  4.0000000E+04;  0.0000000E+00;  4.0051914E+04; -2.0835215E-01;  0.0000000E+00;  2.3345485E-02;  7.2457231E+03;
  5.8722752E-01;  9.9999998E-03; -2.3988964E-01;5990; -1.6510068E-01;  0.0000000E+00; -4.7353548E-03;  9.9343066E+02;  1.0021478E-01; -5.4425557E+03;3;  1.1045510E+00;  0.0000000E+00;  3.8736510E+00;0; -1.8739684E-01;  3.9259113E+04;  0.0000000E+00; -8.6023428E-02;  4.0000000E+04;  0.0000000E+00;  4.0047625E+04; -2.1011305E-01;  0.0000000E+00;  2.2716206E-02;  6.6945522E+03;
  5.8717144E-01;  9.9999998E-03; -2.2991180E-01;5991; -1.6528803E-01;  0.0000000E+00; -4.5329067E-03;  9.9346765E+02;  1.0021497E-01; -5.4119390E+03;3;  1.5124090E+00;  0.0000000E+00;  3.9042780E+00;0; -1.8907830E-01;  3.9264992E+04;  0.0000000E+00; -4.7907248E-02;  4.0000000E+04;  0.0000000E+00;  4.0044074E+04; -2.1187402E-01;  0.0000000E+00;  2.2795720E-02;  6.2674443E+03;
  5.8711100E-01;  9.9999998E-03; -2.1993402E-01;5992; -1.6546735E-01;  0.0000000E+00; -4.3664868E-03;  9.9354163E+02;  1.0021490E-01; -5.3506572E+03;3;  1.9293734E+00;  0.0000000E+00;  3.9087176E+00;0; -1.9051906E-01;  3.9271598E+04;  0.0000000E+00; -2.8371401E-02;  4.0000000E+04;  0.0000000E+00;  4.0043105E+04; -2.1359587E-01;  0.0000000E+00;  2.3076808E-02;  6.1307515E+03;
  5.8705020E-01;  9.9999998E-03; -2.0995176E-01;5993; -1.6563690E-01;  0.0000000E+00; -4.1820062E-03;  9.9363635E+02;  1.0021475E-01; -5.2721406E+03;3;  2.3539259E+00;  0.0000000E+00;  3.9014871E+00;0; -1.9189738E-01;  3.9278898E+04;  0.0000000E+00; -1.3765517E-02;  4.0000000E+04;  0.0000000E+00;  4.0043355E+04; -2.1523824E-01;  0.0000000E+00;  2.3340862E-02;  6.1523672E+03;
  5.8699334E-01;  9.9999998E-03; -1.9996357E-01;5994; -1.6579556E-01;  0.0000000E+00; -3.9649904E-03;  9.9373578E+02;  1.0021470E-01; -5.1897729E+03;3;  2.7835736E+00;  0.0000000E+00;  3.8758481E+00;0; -1.9319385E-01;  3.9286316E+04;  0.0000000E+00;  1.9357833E-03;  4.0000000E+04;  0.0000000E+00;  4.0043520E+04; -2.1675909E-01;  0.0000000E+00;  2.3565240E-02;  6.1626123E+03;
  5.8694333E-01;  9.9999998E-03; -1.8997072E-01;5995; -1.6594307E-01;  0.0000000E+00; -3.7173135E-03;  9.9382672E+02;  1.0021468E-01; -5.1144170E+03;3;  3.2159848E+00;  0.0000000E+00;  3.8289888E+00;0; -1.9439413E-01;  3.9293910E+04;  0.0000000E+00;  2.0455856E-02;  4.0000000E+04;  0.0000000E+00;  4.0042781E+04; -2.1812040E-01;  0.0000000E+00;  2.3726268E-02;  6.0722446E+03;
  5.8690107E-01;  9.9999998E-03; -1.7997496E-01;5996; -1.6607951E-01;  0.0000000E+00; -3.4512049E-03;  9.9390631E+02;  1.0021465E-01; -5.0484932E+03;3;  3.6499324E+00;  0.0000000E+00;  3.7606373E+00;0; -1.9551611E-01;  3.9301578E+04;  0.0000000E+00;  4.1544035E-02;  4.0000000E+04;  0.0000000E+00;  4.0041270E+04; -2.1929297E-01;  0.0000000E+00;  2.3776863E-02;  5.8758018E+03;
  5.8686727E-01;  9.9999998E-03; -1.6997734E-01;5997; -1.6620572E-01;  0.0000000E+00; -3.1731525E-03;  9.9397375E+02;  1.0021455E-01; -4.9926431E+03;3;  4.0814490E+00;  0.0000000E+00;  3.6673977E+00;0; -1.9659741E-01;  3.9308953E+04;  0.0000000E+00;  6.4410061E-02;  4.0000000E+04;  0.0000000E+00;  4.0039223E+04; -2.2025922E-01;  0.0000000E+00;  2.3661805E-02;  5.6072217E+03;
  5.8684182E-01;  9.9999998E-03; -1.5997839E-01;5998; -1.6632357E-01;  0.0000000E+00; -2.8924549E-03;  9.9403247E+02;  1.0021445E-01; -4.9440024E+03;3;  4.5096674E+00;  0.0000000E+00;  3.5422745E+00;0; -1.9767521E-01;  3.9315879E+04;  0.0000000E+00;  8.8077903E-02;  4.0000000E+04;  0.0000000E+00;  4.0036910E+04; -2.2101562E-01;  0.0000000E+00;  2.3340410E-02;  5.3095996E+03;
  5.8682418E-01;  9.9999998E-03; -1.4997856E-01;5999; -1.6643450E-01;  0.0000000E+00; -2.6177436E-03;  9.9408057E+02;  1.0021443E-01; -4.9041519E+03;3;  4.9284682E+00;  0.0000000E+00;  3.3934011E+00;0; -1.9877511E-01;  3.9321957E+04;  0.0000000E+00;  1.1116009E-01;  4.0000000E+04;  0.0000000E+00;  4.0034668E+04; -2.2157286E-01;  0.0000000E+00;  2.2797754E-02;  5.0231841E+03;
  5.8681345E-01;  9.9999998E-03; -1.3997820E-01;6000; -1.6654038E-01;  0.0000000E+00; -2.3572894E-03;  9.9412317E+02;  1.0021447E-01; -4.8688442E+03;3;  5.3326735E+00;  0.0000000E+00;  3.2341673E+00;0; -1.9990249E-01;  3.9327270E+04;  0.0000000E+00;  1.3181387E-01;  4.0000000E+04;  0.0000000E+00;  4.0032637E+04; -2.2195105E-01;  0.0000000E+00;  2.2048561E-02;  4.7787012E+03;
  5.8680916E-01;  9.9999998E-03; -1.2997739E-01;6001; -1.6664252E-01;  0.0000000E+00; -2.1138722E-03;  9.9416052E+02;  1.0021418E-01; -4.8378818E+03;3;  5.7234406E+00;  0.0000000E+00;  3.0610480E+00;0; -2.0104498E-01;  3.9331715E+04;  0.0000000E+00;  1.4791878E-01;  4.0000000E+04;  0.0000000E+00;  4.0031246E+04; -2.2217597E-01;  0.0000000E+00;  2.1130994E-02;  4.5937397E+03;
  5.8681089E-01;  9.9999998E-03; -1.1997619E-01;6002; -1.6674182E-01;  0.0000000E+00; -1.8874555E-03;  9.9419269E+02;  1.0021426E-01; -4.8112656E+03;3;  6.0975614E+00;  0.0000000E+00;  2.8690898E+00;0; -2.0218235E-01;  3.9335141E+04;  0.0000000E+00;  1.5745193E-01;  4.0000000E+04;  0.0000000E+00;  4.0030223E+04; -2.2227508E-01;  0.0000000E+00;  2.0092728E-02;  4.4728604E+03;
  5.8681762E-01;  9.9999998E-03; -1.0997490E-01;6003; -1.6683857E-01;  0.0000000E+00; -1.6765307E-03;  9.9422229E+02;  1.0021417E-01; -4.7867231E+03;3;  6.4525547E+00;  0.0000000E+00;  2.6724577E+00;0; -2.0329455E-01;  3.9338039E+04;  0.0000000E+00;  1.5914108E-01;  4.0000000E+04;  0.0000000E+00;  4.0029738E+04; -2.2227490E-01;  0.0000000E+00;  1.8980352E-02;  4.4112622E+03;
  5.9742147E-01;  9.9999998E-03; -2.6986679E-01;6048; -1.6657443E-01;  0.0000000E+00; -5.0528725E-03;  9.9380798E+02;  1.0034879E-01; -5.1299712E+03;3; -2.1935827E-01;  0.0000000E+00;  3.3343585E+00;0; -1.7637570E-01;  3.9186805E+04;  0.0000000E+00; -4.5079044E-01;  4.0000000E+04;  0.0000000E+00;  4.0045879E+04; -2.0115355E-01;  0.0000000E+00;  2.4777841E-02;  6.6004072E+03;
  5.9743816E-01;  9.9999998E-03; -2.5986773E-01;6049; -1.6679925E-01;  0.0000000E+00; -4.9530440E-03;  9.9384613E+02;  1.0034929E-01; -5.0983672E+03;3;  1.8296741E-01;  0.0000000E+00;  3.4529593E+00;0; -1.7828315E-01;  3.9188625E+04;  0.0000000E+00; -2.7372509E-01;  4.0000000E+04;  0.0000000E+00;  4.0046750E+04; -2.0297267E-01;  0.0000000E+00;  2.4689512E-02;  6.6764600E+03;
  5.9742433E-01;  9.9999998E-03; -2.4987192E-01;6050; -1.6702460E-01;  0.0000000E+00; -4.7465283E-03;  9.9386884E+02;  1.0034923E-01; -5.0795532E+03;3;  6.0262370E-01;  0.0000000E+00;  3.5321124E+00;0; -1.8113331E-01;  3.9191289E+04;  0.0000000E+00; -1.3822210E-01;  4.0000000E+04;  0.0000000E+00;  4.0045457E+04; -2.0485625E-01;  0.0000000E+00;  2.3722928E-02;  6.5172085E+03;
  5.9738690E-01;  9.9999998E-03; -2.3988293E-01;6051; -1.6724217E-01;  0.0000000E+00; -4.5216540E-03;  9.9388196E+02;  1.0034949E-01; -5.0686895E+03;3;  1.0355757E+00;  0.0000000E+00;  3.5880096E+00;0; -1.8372063E-01;  3.9194742E+04;  0.0000000E+00; -6.2889211E-02;  4.0000000E+04;  0.0000000E+00;  4.0042566E+04; -2.0677400E-01;  0.0000000E+00;  2.3053363E-02;  6.1504849E+03;
  5.9733576E-01;  9.9999998E-03; -2.2990181E-01;6052; -1.6745089E-01;  0.0000000E+00; -4.3256292E-03;  9.9390228E+02;  1.0034961E-01; -5.0518501E+03;3;  1.4766771E+00;  0.0000000E+00;  3.6338704E+00;0; -1.8586060E-01;  3.9199082E+04;  0.0000000E+00; -3.3086076E-02;  4.0000000E+04;  0.0000000E+00;  4.0039762E+04; -2.0869128E-01;  0.0000000E+00;  2.2830682E-02;  5.7904453E+03;
  5.9727734E-01;  9.9999998E-03; -2.1992366E-01;6053; -1.6765018E-01;  0.0000000E+00; -4.1528079E-03;  9.9395776E+02;  1.0034963E-01; -5.0058765E+03;3;  1.9268445E+00;  0.0000000E+00;  3.6416769E+00;0; -1.8774930E-01;  3.9204090E+04;  0.0000000E+00; -2.5716804E-02;  4.0000000E+04;  0.0000000E+00;  4.0038680E+04; -2.1057087E-01;  0.0000000E+00;  2.2821574E-02;  5.6506587E+03;
  5.9721571E-01;  9.9999998E-03; -2.0994236E-01;6054; -1.6783738E-01;  0.0000000E+00; -3.9662845E-03;  9.9403534E+02;  1.0034940E-01; -4.9415820E+03;3;  2.3846164E+00;  0.0000000E+00;  3.6432104E+00;0; -1.8952395E-01;  3.9209484E+04;  0.0000000E+00; -2.3652263E-02;  4.0000000E+04;  0.0000000E+00;  4.0038965E+04; -2.1237512E-01;  0.0000000E+00;  2.2851171E-02;  5.6953965E+03;
  5.9715569E-01;  9.9999998E-03; -1.9995496E-01;6055; -1.6801047E-01;  0.0000000E+00; -3.7477568E-03;  9.9411548E+02;  1.0034940E-01; -4.8752134E+03;3;  2.8453951E+00;  0.0000000E+00;  3.6283257E+00;0; -1.9119574E-01;  3.9215324E+04;  0.0000000E+00; -1.8021785E-02;  4.0000000E+04;  0.0000000E+00;  4.0039734E+04; -2.1406543E-01;  0.0000000E+00;  2.2869688E-02;  5.7666611E+03;
  5.9710068E-01;  9.9999998E-03; -1.8996218E-01;6056; -1.6816916E-01;  0.0000000E+00; -3.4991046E-03;  9.9419171E+02;  1.0034945E-01; -4.8120547E+03;3;  3.3103347E+00;  0.0000000E+00;  3.5895743E+00;0; -1.9276352E-01;  3.9221219E+04;  0.0000000E+00; -5.4604122E-03;  4.0000000E+04;  0.0000000E+00;  4.0039691E+04; -2.1560583E-01;  0.0000000E+00;  2.2842305E-02;  5.7567427E+03;
  5.9705269E-01;  9.9999998E-03; -1.7996617E-01;6057; -1.6831312E-01;  0.0000000E+00; -3.2322528E-03;  9.9425690E+02;  1.0034906E-01; -4.7580317E+03;3;  3.7760720E+00;  0.0000000E+00;  3.5289128E+00;0; -1.9425264E-01;  3.9226996E+04;  0.0000000E+00;  1.4278776E-02;  4.0000000E+04;  0.0000000E+00;  4.0038766E+04; -2.1696776E-01;  0.0000000E+00;  2.2715118E-02;  5.6452212E+03;
  5.9701341E-01;  9.9999998E-03; -1.6996793E-01;6058; -1.6844352E-01;  0.0000000E+00; -2.9571210E-03;  9.9431110E+02;  1.0034908E-01; -4.7131440E+03;3;  4.2377090E+00;  0.0000000E+00;  3.4428694E+00;0; -1.9570449E-01;  3.9232891E+04;  0.0000000E+00;  4.0042341E-02;  4.0000000E+04;  0.0000000E+00;  4.0037387E+04; -2.1813412E-01;  0.0000000E+00;  2.2429638E-02;  5.4604766E+03;
  5.9698373E-01;  9.9999998E-03; -1.5996802E-01;6059; -1.6856246E-01;  0.0000000E+00; -2.6813329E-03;  9.9436279E+02;  1.0034893E-01; -4.6703306E+03;3;  4.6918993E+00;  0.0000000E+00;  3.3355765E+00;0; -1.9715643E-01;  3.9238656E+04;  0.0000000E+00;  6.9964848E-02;  4.0000000E+04;  0.0000000E+00;  4.0035738E+04; -2.1910095E-01;  0.0000000E+00;  2.1944527E-02;  5.2430386E+03;
  5.9696370E-01;  9.9999998E-03; -1.4996690E-01;6060; -1.6867225E-01;  0.0000000E+00; -2.4138871E-03;  9.9441199E+02;  1.0034863E-01; -4.6295420E+03;3;  5.1366806E+00;  0.0000000E+00;  3.2130420E+00;0; -1.9863109E-01;  3.9244254E+04;  0.0000000E+00;  1.0155807E-01;  4.0000000E+04;  0.0000000E+00;  4.0033953E+04; -2.1987824E-01;  0.0000000E+00;  2.1247152E-02;  5.0319263E+03;
  5.9695351E-01;  9.9999998E-03; -1.3996476E-01;6061; -1.6877568E-01;  0.0000000E+00; -2.1631781E-03;  9.9446271E+02;  1.0034855E-01; -4.5875186E+03;3;  5.5684948E+00;  0.0000000E+00;  3.0667825E+00;0; -2.0013008E-01;  3.9249695E+04;  0.0000000E+00;  1.3189191E-01;  4.0000000E+04;  0.0000000E+00;  4.0032637E+04; -2.2048590E-01;  0.0000000E+00;  2.0355826E-02;  4.8572764E+03;
  5.9695321E-01;  9.9999998E-03; -1.2996182E-01;6062; -1.6887483E-01;  0.0000000E+00; -1.9316196E-03;  9.9451605E+02;  1.0034847E-01; -4.5433223E+03;3;  5.9840183E+00;  0.0000000E+00;  2.9048836E+00;0; -2.0163698E-01;  3.9254938E+04;  0.0000000E+00;  1.5790592E-01;  4.0000000E+04;  0.0000000E+00;  4.0031605E+04; -2.2094953E-01;  0.0000000E+00;  1.9312542E-02;  4.7365381E+03;
  5.9696275E-01;  9.9999998E-03; -1.1995851E-01;6063; -1.6897134E-01;  0.0000000E+00; -1.7195413E-03;  9.9457129E+02;  1.0034828E-01; -4.4975952E+03;3;  6.3825049E+00;  0.0000000E+00;  2.7234576E+00;0; -2.0312710E-01;  3.9259969E+04;  0.0000000E+00;  1.7669305E-01;  4.0000000E+04;  0.0000000E+00;  4.0031262E+04; -2.2129434E-01;  0.0000000E+00;  1.8167244E-02;  4.6742817E+03;
  5.9698009E-01;  9.9999998E-03; -1.0995573E-01;6064; -1.6906597E-01;  0.0000000E+00; -1.5248669E-03;  9.9463135E+02;  1.0034831E-01; -4.4478188E+03;3;  6.7605705E+00;  0.0000000E+00;  2.5339568E+00;0; -2.0457669E-01;  3.9264711E+04;  0.0000000E+00;  1.8613876E-01;  4.0000000E+04;  0.0000000E+00;  4.0031141E+04; -2.2154464E-01;  0.0000000E+00;  1.6967958E-02;  4.6652104E+03;
  6.0747695E-01;  9.9999998E-03; -2.6986811E-01;6109; -1.6849039E-01;  0.0000000E+00; -4.6882513E-03;  9.9423889E+02;  1.0056274E-01; -4.7729434E+03;3; -3.9580131E-01;  0.0000000E+00;  3.0168250E+00;0; -1.7278844E-01;  3.9061797E+04;  0.0000000E+00; -2.6619121E-01;  4.0000000E+04;  0.0000000E+00;  4.0039004E+04; -1.9816138E-01;  0.0000000E+00;  2.5372945E-02;  5.8563970E+03;
  6.0749781E-01;  9.9999998E-03; -2.5986740E-01;6110; -1.6875488E-01;  0.0000000E+00; -4.5903246E-03;  9.9425397E+02;  1.0056362E-01; -4.7604502E+03;3;  3.8815517E-02;  0.0000000E+00;  3.1155744E+00;0; -1.7504306E-01;  3.9062039E+04;  0.0000000E+00; -1.3339117E-01;  4.0000000E+04;  0.0000000E+00;  4.0039352E+04; -2.0011134E-01;  0.0000000E+00;  2.5068279E-02;  5.8942754E+03;
  6.0749322E-01;  9.9999998E-03; -2.4986950E-01;6111; -1.6901571E-01;  0.0000000E+00; -4.4138855E-03;  9.9426263E+02;  1.0056366E-01; -4.7532896E+03;3;  4.9208573E-01;  0.0000000E+00;  3.2095668E+00;0; -1.7803343E-01;  3.9063191E+04;  0.0000000E+00; -4.2466484E-02;  4.0000000E+04;  0.0000000E+00;  4.0038180E+04; -2.0211728E-01;  0.0000000E+00;  2.4083856E-02;  5.7519434E+03;
  6.0746604E-01;  9.9999998E-03; -2.3987679E-01;6112; -1.6926533E-01;  0.0000000E+00; -4.2289500E-03;  9.9427057E+02;  1.0056426E-01; -4.7467222E+03;3;  9.5990157E-01;  0.0000000E+00;  3.2763326E+00;0; -1.8082322E-01;  3.9065480E+04;  0.0000000E+00; -2.7829332E-03;  4.0000000E+04;  0.0000000E+00;  4.0036152E+04; -2.0415202E-01;  0.0000000E+00;  2.3328792E-02;  5.4899341E+03;
  6.0742503E-01;  9.9999998E-03; -2.2989319E-01;6113; -1.6950421E-01;  0.0000000E+00; -4.0465156E-03;  9.9428088E+02;  1.0056435E-01; -4.7381792E+03;3;  1.4335148E+00;  0.0000000E+00;  3.3215201E+00;0; -1.8334329E-01;  3.9068496E+04;  0.0000000E+00; -4.6522345E-04;  4.0000000E+04;  0.0000000E+00;  4.0033648E+04; -2.0618258E-01;  0.0000000E+00;  2.2839293E-02;  5.1700151E+03;
  6.0737455E-01;  9.9999998E-03; -2.1991506E-01;6114; -1.6973212E-01;  0.0000000E+00; -3.8766591E-03;  9.9431732E+02;  1.0056438E-01; -4.7080073E+03;3;  1.9174738E+00;  0.0000000E+00;  3.3440142E+00;0; -1.8562749E-01;  3.9072285E+04;  0.0000000E+00; -1.4397949E-02;  4.0000000E+04;  0.0000000E+00;  4.0032504E+04; -2.0817514E-01;  0.0000000E+00;  2.2547653E-02;  5.0415249E+03;
  6.0731792E-01;  9.9999998E-03; -2.0993461E-01;6115; -1.6994515E-01;  0.0000000E+00; -3.6939753E-03;  9.9438324E+02;  1.0056417E-01; -4.6533916E+03;3;  2.4071493E+00;  0.0000000E+00;  3.3495896E+00;0; -1.8777914E-01;  3.9076414E+04;  0.0000000E+00; -2.9342158E-02;  4.0000000E+04;  0.0000000E+00;  4.0033367E+04; -2.1009831E-01;  0.0000000E+00;  2.2319162E-02;  5.1407334E+03;
  6.0725993E-01;  9.9999998E-03; -1.9994751E-01;6116; -1.7014019E-01;  0.0000000E+00; -3.4767138E-03;  9.9445544E+02;  1.0056413E-01; -4.5935415E+03;3;  2.9006395E+00;  0.0000000E+00;  3.3403351E+00;0; -1.8982194E-01;  3.9080840E+04;  0.0000000E+00; -3.6914632E-02;  4.0000000E+04;  0.0000000E+00;  4.0034879E+04; -2.1191771E-01;  0.0000000E+00;  2.2095764E-02;  5.3080703E+03;
  6.0720515E-01;  9.9999998E-03; -1.8995440E-01;6117; -1.7031641E-01;  0.0000000E+00; -3.2269540E-03;  9.9452484E+02;  1.0056392E-01; -4.5360615E+03;3;  3.3966565E+00;  0.0000000E+00;  3.3173680E+00;0; -1.9175944E-01;  3.9085230E+04;  0.0000000E+00; -3.3956069E-02;  4.0000000E+04;  0.0000000E+00;  4.0035688E+04; -2.1360055E-01;  0.0000000E+00;  2.1841114E-02;  5.4104878E+03;
  6.0715669E-01;  9.9999998E-03; -1.7995733E-01;6118; -1.7047350E-01;  0.0000000E+00; -2.9570102E-03;  9.9458130E+02;  1.0056404E-01; -4.4892979E+03;3;  3.8917329E+00;  0.0000000E+00;  3.2697973E+00;0; -1.9362195E-01;  3.9089742E+04;  0.0000000E+00; -2.0376582E-02;  4.0000000E+04;  0.0000000E+00;  4.0035852E+04; -2.1512067E-01;  0.0000000E+00;  2.1498725E-02;  5.4135483E+03;
  6.0711724E-01;  9.9999998E-03; -1.6995741E-01;6119; -1.7061296E-01;  0.0000000E+00; -2.6808653E-03;  9.9462994E+02;  1.0056351E-01; -4.4490024E+03;3;  4.3834176E+00;  0.0000000E+00;  3.2060611E+00;0; -1.9545268E-01;  3.9094219E+04;  0.0000000E+00;  2.2829063E-03;  4.0000000E+04;  0.0000000E+00;  4.0035090E+04; -2.1646184E-01;  0.0000000E+00;  2.1009164E-02;  5.3386479E+03;
  6.0708874E-01;  9.9999998E-03; -1.5995516E-01;6120; -1.7073771E-01;  0.0000000E+00; -2.4083371E-03;  9.9467816E+02;  1.0056325E-01; -4.4090532E+03;3;  4.8670135E+00;  0.0000000E+00;  3.1129036E+00;0; -1.9728918E-01;  3.9099121E+04;  0.0000000E+00;  3.1729933E-02;  4.0000000E+04;  0.0000000E+00;  4.0034328E+04; -2.1762067E-01;  0.0000000E+00;  2.0331485E-02;  5.2233496E+03;
  6.0707241E-01;  9.9999998E-03; -1.4995106E-01;6121; -1.7085099E-01;  0.0000000E+00; -2.1476455E-03;  9.9472974E+02;  1.0056295E-01; -4.3662891E+03;3;  5.3398552E+00;  0.0000000E+00;  3.0033224E+00;0; -1.9914946E-01;  3.9104293E+04;  0.0000000E+00;  6.5073133E-02;  4.0000000E+04;  0.0000000E+00;  4.0033320E+04; -2.1860537E-01;  0.0000000E+00;  1.9455902E-02;  5.1049614E+03;
  6.0706812E-01;  9.9999998E-03; -1.3994594E-01;6122; -1.7095581E-01;  0.0000000E+00; -1.9062209E-03;  9.9478912E+02;  1.0056274E-01; -4.3171055E+03;3;  5.7994137E+00;  0.0000000E+00;  2.8674839E+00;0; -2.0103078E-01;  3.9109836E+04;  0.0000000E+00;  9.9044144E-02;  4.0000000E+04;  0.0000000E+00;  4.0032668E+04; -2.1943562E-01;  0.0000000E+00;  1.8404843E-02;  5.0127046E+03;
  6.0707414E-01;  9.9999998E-03; -1.2994112E-01;6123; -1.7105488E-01;  0.0000000E+00; -1.6871995E-03;  9.9486047E+02;  1.0056226E-01; -4.2579961E+03;3;  6.2415009E+00;  0.0000000E+00;  2.7185242E+00;0; -2.0291205E-01;  3.9115941E+04;  0.0000000E+00;  1.3029997E-01;  4.0000000E+04;  0.0000000E+00;  4.0032312E+04; -2.2013573E-01;  0.0000000E+00;  1.7223684E-02;  4.9636641E+03;
  6.0708773E-01;  9.9999998E-03; -1.1993783E-01;6124; -1.7115033E-01;  0.0000000E+00; -1.4906625E-03;  9.9493927E+02;  1.0056242E-01; -4.1927139E+03;3;  6.6634469E+00;  0.0000000E+00;  2.5541458E+00;0; -2.0476449E-01;  3.9122457E+04;  0.0000000E+00;  1.5552939E-01;  4.0000000E+04;  0.0000000E+00;  4.0032305E+04; -2.2072895E-01;  0.0000000E+00;  1.5964456E-02;  4.9627935E+03;
  6.0710633E-01;  9.9999998E-03; -1.0993686E-01;6125; -1.7124316E-01;  0.0000000E+00; -1.3135142E-03;  9.9502948E+02;  1.0056213E-01; -4.1179507E+03;3;  7.0625558E+00;  0.0000000E+00;  2.3849216E+00;0; -2.0656046E-01;  3.9129453E+04;  0.0000000E+00;  1.7202352E-01;  4.0000000E+04;  0.0000000E+00;  4.0032773E+04; -2.2123568E-01;  0.0000000E+00;  1.4675208E-02;  5.0046523E+03;
  6.1748332E-01;  9.9999998E-03; -2.6987010E-01;6170; -1.7026375E-01;  0.0000000E+00; -4.2986204E-03;  9.9457532E+02;  1.0089727E-01; -4.4942344E+03;3; -5.7906216E-01;  0.0000000E+00;  2.6536188E+00;0; -1.6994652E-01;  3.8837160E+04;  0.0000000E+00;  1.0463878E-02;  4.0000000E+04;  0.0000000E+00;  4.0032340E+04; -1.9639479E-01;  0.0000000E+00;  2.6448259E-02;  5.2712085E+03;
  6.1750573E-01;  9.9999998E-03; -2.5986594E-01;6171; -1.7057991E-01;  0.0000000E+00; -4.2423154E-03;  9.9458154E+02;  1.0089819E-01; -4.4890986E+03;3; -1.0841231E-01;  0.0000000E+00;  2.7593656E+00;0; -1.7220095E-01;  3.8836129E+04;  0.0000000E+00;  7.0032343E-02;  4.0000000E+04;  0.0000000E+00;  4.0033238E+04; -1.9841379E-01;  0.0000000E+00;  2.6212841E-02;  5.3717163E+03;
  6.1750621E-01;  9.9999998E-03; -2.4986281E-01;6172; -1.7088465E-01;  0.0000000E+00; -4.1082534E-03;  9.9458911E+02;  1.0089882E-01; -4.4828271E+03;3;  3.7661621E-01;  0.0000000E+00;  2.8384781E+00;0; -1.7539199E-01;  3.8836105E+04;  0.0000000E+00;  9.4207086E-02;  4.0000000E+04;  0.0000000E+00;  4.0032996E+04; -2.0048034E-01;  0.0000000E+00;  2.5088353E-02;  5.3576938E+03;
  6.1749005E-01;  9.9999998E-03; -2.3986319E-01;6173; -1.7117508E-01;  0.0000000E+00; -3.9331052E-03;  9.9459967E+02;  1.0089970E-01; -4.4740376E+03;3;  8.7438434E-01;  0.0000000E+00;  2.9057927E+00;0; -1.7865603E-01;  3.8837480E+04;  0.0000000E+00;  7.9634614E-02;  4.0000000E+04;  0.0000000E+00;  4.0031938E+04; -2.0256534E-01;  0.0000000E+00;  2.3909314E-02;  5.2131016E+03;
  6.1746210E-01;  9.9999998E-03; -2.2987492E-01;6174; -1.7145272E-01;  0.0000000E+00; -3.7254519E-03;  9.9459766E+02;  1.0089993E-01; -4.4757163E+03;3;  1.3845646E+00;  0.0000000E+00;  2.9636378E+00;0; -1.8172373E-01;  3.8839695E+04;  0.0000000E+00;  4.3030638E-02;  4.0000000E+04;  0.0000000E+00;  4.0029055E+04; -2.0463970E-01;  0.0000000E+00;  2.2915980E-02;  4.8566816E+03;
  6.1742371E-01;  9.9999998E-03; -2.1989539E-01;6175; -1.7171811E-01;  0.0000000E+00; -3.5355859E-03;  9.9461493E+02;  1.0089993E-01; -4.4613960E+03;3;  1.8993741E+00;  0.0000000E+00;  3.0046337E+00;0; -1.8443808E-01;  3.8842656E+04;  0.0000000E+00;  1.4447421E-03;  4.0000000E+04;  0.0000000E+00;  4.0027242E+04; -2.0667537E-01;  0.0000000E+00;  2.2237280E-02;  4.6475928E+03;
  6.1737692E-01;  9.9999998E-03; -2.0991464E-01;6176; -1.7196529E-01;  0.0000000E+00; -3.3443742E-03;  9.9466943E+02;  1.0090019E-01; -4.4162617E+03;3;  2.4214673E+00;  0.0000000E+00;  3.0247858E+00;0; -1.8695104E-01;  3.8846109E+04;  0.0000000E+00; -3.4053322E-02;  4.0000000E+04;  0.0000000E+00;  4.0028035E+04; -2.0864744E-01;  0.0000000E+00;  2.1696409E-02;  4.7314839E+03;
  6.1732608E-01;  9.9999998E-03; -1.9992740E-01;6177; -1.7218985E-01;  0.0000000E+00; -3.1222692E-03;  9.9473615E+02;  1.0089987E-01; -4.3610039E+03;3;  2.9480178E+00;  0.0000000E+00;  3.0330205E+00;0; -1.8933827E-01;  3.8849625E+04;  0.0000000E+00; -5.7537563E-02;  4.0000000E+04;  0.0000000E+00;  4.0029875E+04; -2.1052957E-01;  0.0000000E+00;  2.1191305E-02;  4.9468511E+03;
  6.1727637E-01;  9.9999998E-03; -1.8993364E-01;6178; -1.7239040E-01;  0.0000000E+00; -2.8690379E-03;  9.9479761E+02;  1.0089956E-01; -4.3100918E+03;3;  3.4750271E+00;  0.0000000E+00;  3.0254948E+00;0; -1.9162072E-01;  3.8853000E+04;  0.0000000E+00; -6.7389421E-02;  4.0000000E+04;  0.0000000E+00;  4.0031422E+04; -2.1229362E-01;  0.0000000E+00;  2.0672908E-02;  5.1386807E+03;
  6.1723125E-01;  9.9999998E-03; -1.7993556E-01;6179; -1.7256688E-01;  0.0000000E+00; -2.5976419E-03;  9.9485126E+02;  1.0089894E-01; -4.2656489E+03;3;  4.0015268E+00;  0.0000000E+00;  2.9923854E+00;0; -1.9383663E-01;  3.8856488E+04;  0.0000000E+00; -6.4470924E-02;  4.0000000E+04;  0.0000000E+00;  4.0032324E+04; -2.1391769E-01;  0.0000000E+00;  2.0081060E-02;  5.2499438E+03;
  6.1719418E-01;  9.9999998E-03; -1.6993457E-01;6180; -1.7272055E-01;  0.0000000E+00; -2.3218228E-03;  9.9489478E+02;  1.0089874E-01; -4.2295513E+03;3;  4.5220561E+00;  0.0000000E+00;  2.9387629E+00;0; -1.9603185E-01;  3.8859969E+04;  0.0000000E+00; -5.0815433E-02;  4.0000000E+04;  0.0000000E+00;  4.0032738E+04; -2.1538763E-01;  0.0000000E+00;  1.9355772E-02;  5.2883218E+03;
  6.1716735E-01;  9.9999998E-03; -1.5993172E-01;6181; -1.7285515E-01;  0.0000000E+00; -2.0543819E-03;  9.9493945E+02;  1.0089814E-01; -4.1925645E+03;3;  5.0364003E+00;  0.0000000E+00;  2.8601670E+00;0; -1.9824129E-01;  3.8863902E+04;  0.0000000E+00; -2.8791143E-02;  4.0000000E+04;  0.0000000E+00;  4.0032684E+04; -2.1670048E-01;  0.0000000E+00;  1.8459180E-02;  5.2821655E+03;
  6.1715138E-01;  9.9999998E-03; -1.4992826E-01;6182; -1.7297466E-01;  0.0000000E+00; -1.8026371E-03;  9.9499109E+02;  1.0089783E-01; -4.1498003E+03;3;  5.5376453E+00;  0.0000000E+00;  2.7637689E+00;0; -2.0047735E-01;  3.8868441E+04;  0.0000000E+00; -9.3335193E-04;  4.0000000E+04;  0.0000000E+00;  4.0032531E+04; -2.1786359E-01;  0.0000000E+00;  1.7386239E-02;  5.2622715E+03;
  6.1714530E-01;  9.9999998E-03; -1.3992535E-01;6183; -1.7308272E-01;  0.0000000E+00; -1.5735162E-03;  9.9505688E+02;  1.0089713E-01; -4.0952834E+03;3;  6.0239830E+00;  0.0000000E+00;  2.6486752E+00;0; -2.0273115E-01;  3.8873902E+04;  0.0000000E+00;  3.0017566E-02;  4.0000000E+04;  0.0000000E+00;  4.0032617E+04; -2.1889521E-01;  0.0000000E+00;  1.6164068E-02;  5.2537524E+03;
  6.1714709E-01;  9.9999998E-03; -1.2992413E-01;6184; -1.7318261E-01;  0.0000000E+00; -1.3699494E-03;  9.9513483E+02;  1.0089687E-01; -4.0306929E+03;3;  6.4942913E+00;  0.0000000E+00;  2.5079803E+00;0; -2.0497642E-01;  3.8880176E+04;  0.0000000E+00;  6.1191082E-02;  4.0000000E+04;  0.0000000E+00;  4.0032801E+04; -2.1981670E-01;  0.0000000E+00;  1.4840271E-02;  5.2727710E+03;
  6.1715478E-01;  9.9999998E-03; -1.1992521E-01;6185; -1.7327747E-01;  0.0000000E+00; -1.1923016E-03;  9.9522821E+02;  1.0089651E-01; -3.9533125E+03;3;  6.9410157E+00;  0.0000000E+00;  2.3563621E+00;0; -2.0718266E-01;  3.8887441E+04;  0.0000000E+00;  8.9427054E-02;  4.0000000E+04;  0.0000000E+00;  4.0033227E+04; -2.2064888E-01;  0.0000000E+00;  1.3466226E-02;  5.3257090E+03;
  6.1716670E-01;  9.9999998E-03; -1.0992860E-01;6186; -1.7336920E-01;  0.0000000E+00; -1.0363738E-03;  9.9533521E+02;  1.0089607E-01; -3.8646733E+03;3;  7.3626256E+00;  0.0000000E+00;  2.2023666E+00;0; -2.0931958E-01;  3.8895547E+04;  0.0000000E+00;  1.1175275E-01;  4.0000000E+04;  0.0000000E+00;  4.0034000E+04; -2.2140728E-01;  0.0000000E+00;  1.2087702E-02;  5.4085220E+03;
  6.2745053E-01;  9.9999998E-03; -2.6987487E-01;6231; -1.7190975E-01;  0.0000000E+00; -3.8567653E-03;  9.9485089E+02;  1.0140579E-01; -4.2659438E+03;3; -7.6348764E-01;  0.0000000E+00;  2.2666297E+00;0; -1.6843686E-01;  3.8478332E+04;  0.0000000E+00;  2.5481316E-01;  4.0000000E+04;  0.0000000E+00;  4.0025391E+04; -1.9620249E-01;  0.0000000E+00;  2.7765634E-02;  4.8140483E+03;
  6.2747526E-01;  9.9999998E-03; -2.5986624E-01;6232; -1.7229111E-01;  0.0000000E+00; -3.8712157E-03;  9.9486371E+02;  1.0140748E-01; -4.2553267E+03;3; -2.6431334E-01;  0.0000000E+00;  2.3523803E+00;0; -1.7037992E-01;  3.8476141E+04;  0.0000000E+00;  2.5529319E-01;  4.0000000E+04;  0.0000000E+00;  4.0027168E+04; -1.9820002E-01;  0.0000000E+00;  2.7820092E-02;  5.0447085E+03;
  6.2748188E-01;  9.9999998E-03; -2.4985509E-01;6233; -1.7265216E-01;  0.0000000E+00; -3.8076378E-03;  9.9489325E+02;  1.0140868E-01; -4.2308335E+03;3;  2.5387806E-01;  0.0000000E+00;  2.4295948E+00;0; -1.7361274E-01;  3.8475527E+04;  0.0000000E+00;  2.2148491E-01;  4.0000000E+04;  0.0000000E+00;  4.0029285E+04; -2.0023291E-01;  0.0000000E+00;  2.6620165E-02;  5.2944512E+03;
  6.2747657E-01;  9.9999998E-03; -2.3984519E-01;6234; -1.7299227E-01;  0.0000000E+00; -3.6226923E-03;  9.9491699E+02;  1.0140960E-01; -4.2111802E+03;3;  7.8500551E-01;  0.0000000E+00;  2.4995458E+00;0; -1.7752428E-01;  3.8476262E+04;  0.0000000E+00;  1.5934694E-01;  4.0000000E+04;  0.0000000E+00;  4.0029645E+04; -2.0227362E-01;  0.0000000E+00;  2.4749344E-02;  5.3325493E+03;
  6.2746221E-01;  9.9999998E-03; -2.2984879E-01;6235; -1.7331646E-01;  0.0000000E+00; -3.3552009E-03;  9.9490729E+02;  1.0141005E-01; -4.2192290E+03;3;  1.3291099E+00;  0.0000000E+00;  2.5815492E+00;0; -1.8127219E-01;  3.8478176E+04;  0.0000000E+00;  8.6322084E-02;  4.0000000E+04;  0.0000000E+00;  4.0026387E+04; -2.0429593E-01;  0.0000000E+00;  2.3023745E-02;  4.9281567E+03;
  6.2743700E-01;  9.9999998E-03; -2.1986483E-01;6236; -1.7362487E-01;  0.0000000E+00; -3.1137336E-03;  9.9491058E+02;  1.0141039E-01; -4.2164639E+03;3;  1.8761724E+00;  0.0000000E+00;  2.6439700E+00;0; -1.8444954E-01;  3.8480871E+04;  0.0000000E+00;  1.6773742E-02;  4.0000000E+04;  0.0000000E+00;  4.0023617E+04; -2.0627902E-01;  0.0000000E+00;  2.1829482E-02;  4.5791475E+03;
  6.2740189E-01;  9.9999998E-03; -2.0988236E-01;6237; -1.7391188E-01;  0.0000000E+00; -2.8939545E-03;  9.9495135E+02;  1.0141014E-01; -4.1826870E+03;3;  2.4300756E+00;  0.0000000E+00;  2.6763558E+00;0; -1.8729112E-01;  3.8483875E+04;  0.0000000E+00; -4.0407147E-02;  4.0000000E+04;  0.0000000E+00;  4.0023605E+04; -2.0820561E-01;  0.0000000E+00;  2.0914489E-02;  4.5648965E+03;
  6.2736005E-01;  9.9999998E-03; -1.9989538E-01;6238; -1.7417163E-01;  0.0000000E+00; -2.6588924E-03;  9.9500647E+02;  1.0140969E-01; -4.1370586E+03;3;  2.9867876E+00;  0.0000000E+00;  2.6955707E+00;0; -1.8996529E-01;  3.8486902E+04;  0.0000000E+00; -8.1605129E-02;  4.0000000E+04;  0.0000000E+00;  4.0025109E+04; -2.1005780E-01;  0.0000000E+00;  2.0092508E-02;  4.7587231E+03;
  6.2731642E-01;  9.9999998E-03; -1.8990274E-01;6239; -1.7440230E-01;  0.0000000E+00; -2.4015452E-03;  9.9506299E+02;  1.0140939E-01; -4.0901960E+03;3;  3.5449760E+00;  0.0000000E+00;  2.7042587E+00;0; -1.9253641E-01;  3.8489715E+04;  0.0000000E+00; -1.0673293E-01;  4.0000000E+04;  0.0000000E+00;  4.0027082E+04; -2.1181709E-01;  0.0000000E+00;  1.9280674E-02;  4.9979678E+03;
  6.2727422E-01;  9.9999998E-03; -1.7990632E-01;6240; -1.7460290E-01;  0.0000000E+00; -2.1315503E-03;  9.9511035E+02;  1.0140860E-01; -4.0509873E+03;3;  4.1021562E+00;  0.0000000E+00;  2.6809866E+00;0; -1.9505641E-01;  3.8492305E+04;  0.0000000E+00; -1.1795260E-01;  4.0000000E+04;  0.0000000E+00;  4.0028754E+04; -2.1346697E-01;  0.0000000E+00;  1.8410571E-02;  5.1987144E+03;
  6.2723672E-01;  9.9999998E-03; -1.6990773E-01;6241; -1.7477512E-01;  0.0000000E+00; -1.8620108E-03;  9.9514984E+02;  1.0140774E-01; -4.0182476E+03;3;  4.6534863E+00;  0.0000000E+00;  2.6436131E+00;0; -1.9757263E-01;  3.8494816E+04;  0.0000000E+00; -1.1799921E-01;  4.0000000E+04;  0.0000000E+00;  4.0029875E+04; -2.1499673E-01;  0.0000000E+00;  1.7424092E-02;  5.3439810E+03;
  6.2720639E-01;  9.9999998E-03; -1.5990834E-01;6242; -1.7492275E-01;  0.0000000E+00; -1.6039987E-03;  9.9518823E+02;  1.0140680E-01; -3.9864460E+03;3;  5.1993012E+00;  0.0000000E+00;  2.5879786E+00;0; -2.0011567E-01;  3.8497602E+04;  0.0000000E+00; -1.0912818E-01;  4.0000000E+04;  0.0000000E+00;  4.0030773E+04; -2.1640426E-01;  0.0000000E+00;  1.6288599E-02;  5.4437827E+03;
  6.2718445E-01;  9.9999998E-03; -1.4990921E-01;6243; -1.7505090E-01;  0.0000000E+00; -1.3667289E-03;  9.9523346E+02;  1.0140602E-01; -3.9489658E+03;3;  5.7308998E+00;  0.0000000E+00;  2.5017345E+00;0; -2.0269202E-01;  3.8501133E+04;  0.0000000E+00; -9.2925981E-02;  4.0000000E+04;  0.0000000E+00;  4.0031328E+04; -2.1769753E-01;  0.0000000E+00;  1.5005517E-02;  5.5165269E+03;
  6.2717074E-01;  9.9999998E-03; -1.3991098E-01;6244; -1.7516465E-01;  0.0000000E+00; -1.1559790E-03;  9.9529053E+02;  1.0140539E-01; -3.9017080E+03;3;  6.2458115E+00;  0.0000000E+00;  2.3989437E+00;0; -2.0528452E-01;  3.8505738E+04;  0.0000000E+00; -7.0768364E-02;  4.0000000E+04;  0.0000000E+00;  4.0031926E+04; -2.1889088E-01;  0.0000000E+00;  1.3606361E-02;  5.5813062E+03;
  6.2716407E-01;  9.9999998E-03; -1.2991399E-01;6245; -1.7526838E-01;  0.0000000E+00; -9.7384478E-04;  9.9536316E+02;  1.0140461E-01; -3.8415122E+03;3;  6.7392812E+00;  0.0000000E+00;  2.2821794E+00;0; -2.0786433E-01;  3.8511406E+04;  0.0000000E+00; -4.4386849E-02;  4.0000000E+04;  0.0000000E+00;  4.0032512E+04; -2.2000356E-01;  0.0000000E+00;  1.2139237E-02;  5.6543467E+03;
  6.2716275E-01;  9.9999998E-03; -1.1991860E-01;6246; -1.7536567E-01;  0.0000000E+00; -8.2010758E-04;  9.9545331E+02;  1.0140344E-01; -3.7668479E+03;3;  7.2117524E+00;  0.0000000E+00;  2.1434827E+00;0; -2.1039864E-01;  3.8518363E+04;  0.0000000E+00; -1.6326461E-02;  4.0000000E+04;  0.0000000E+00;  4.0033426E+04; -2.2105123E-01;  0.0000000E+00;  1.0652593E-02;  5.7449521E+03;
  6.2716472E-01;  9.9999998E-03; -1.0992505E-01;6247; -1.7545861E-01;  0.0000000E+00; -6.9058116E-04;  9.9556104E+02;  1.0140334E-01; -3.6775667E+03;3;  7.6586785E+00;  0.0000000E+00;  1.9944575E+00;0; -2.1285583E-01;  3.8526535E+04;  0.0000000E+00;  1.0458441E-02;  4.0000000E+04;  0.0000000E+00;  4.0034336E+04; -2.2204435E-01;  0.0000000E+00;  9.1885179E-03;  5.8521162E+03;
  6.3737208E-01;  9.9999998E-03; -2.6988512E-01;6292; -1.7345968E-01;  0.0000000E+00; -3.3442881E-03;  9.9515833E+02;  1.0214782E-01; -4.0112339E+03;3; -9.5432055E-01;  0.0000000E+00;  1.8347383E+00;0; -1.6866554E-01;  3.7953785E+04;  0.0000000E+00;  2.9307079E-01;  4.0000000E+04;  0.0000000E+00;  4.0016734E+04; -1.9780704E-01;  0.0000000E+00;  2.9141504E-02;  4.3271665E+03;
  6.3740104E-01;  9.9999998E-03; -2.5987265E-01;6293; -1.7391843E-01;  0.0000000E+00; -3.4139212E-03;  9.9518628E+02;  1.0215039E-01; -3.9880742E+03;3; -4.2083406E-01;  0.0000000E+00;  1.9236615E+00;0; -1.7032161E-01;  3.7951180E+04;  0.0000000E+00;  3.1409091E-01;  4.0000000E+04;  0.0000000E+00;  4.0019559E+04; -1.9966745E-01;  0.0000000E+00;  2.9345842E-02;  4.6883965E+03;
  6.3741660E-01;  9.9999998E-03; -2.4985403E-01;6294; -1.7434673E-01;  0.0000000E+00; -3.4132574E-03;  9.9524530E+02;  1.0215224E-01; -3.9391868E+03;3;  1.2575784E-01;  0.0000000E+00;  1.9921441E+00;0; -1.7352076E-01;  3.7949988E+04;  0.0000000E+00;  2.8041771E-01;  4.0000000E+04;  0.0000000E+00;  4.0023992E+04; -2.0154743E-01;  0.0000000E+00;  2.8026670E-02;  5.2283569E+03;
  6.3742381E-01;  9.9999998E-03; -2.3983462E-01;6295; -1.7474726E-01;  0.0000000E+00; -3.2124787E-03;  9.9529236E+02;  1.0215345E-01; -3.9001758E+03;3;  6.8574870E-01;  0.0000000E+00;  2.0610511E+00;0; -1.7798629E-01;  3.7950582E+04;  0.0000000E+00;  2.0726159E-01;  4.0000000E+04;  0.0000000E+00;  4.0025883E+04; -2.0342273E-01;  0.0000000E+00;  2.5436426E-02;  5.4666401E+03;
  6.3742137E-01;  9.9999998E-03; -2.2982922E-01;6296; -1.7512435E-01;  0.0000000E+00; -2.8865645E-03;  9.9528900E+02;  1.0215431E-01; -3.9029409E+03;3;  1.2612275E+00;  0.0000000E+00;  2.1618898E+00;0; -1.8229862E-01;  3.7952465E+04;  0.0000000E+00;  1.1735135E-01;  4.0000000E+04;  0.0000000E+00;  4.0022973E+04; -2.0527266E-01;  0.0000000E+00;  2.2974048E-02;  5.0894160E+03;
  6.3740796E-01;  9.9999998E-03; -2.1983862E-01;6297; -1.7547928E-01;  0.0000000E+00; -2.5845403E-03;  9.9528668E+02;  1.0215443E-01; -3.9048669E+03;3;  1.8399700E+00;  0.0000000E+00;  2.2415867E+00;0; -1.8586010E-01;  3.7955285E+04;  0.0000000E+00;  2.8698374E-02;  4.0000000E+04;  0.0000000E+00;  4.0019555E+04; -2.0708342E-01;  0.0000000E+00;  2.1223318E-02;  4.6643521E+03;
  6.3738424E-01;  9.9999998E-03; -2.0985255E-01;6298; -1.7580892E-01;  0.0000000E+00; -2.3254927E-03;  9.9531738E+02;  1.0215411E-01; -3.8794355E+03;3;  2.4266641E+00;  0.0000000E+00;  2.2970707E+00;0; -1.8894720E-01;  3.7958188E+04;  0.0000000E+00; -4.7456842E-02;  4.0000000E+04;  0.0000000E+00;  4.0018836E+04; -2.0884715E-01;  0.0000000E+00;  1.9899942E-02;  4.5704409E+03;
  6.3735199E-01;  9.9999998E-03; -1.9986551E-01;6299; -1.7610677E-01;  0.0000000E+00; -2.0729059E-03;  9.9536389E+02;  1.0215338E-01; -3.8409182E+03;3;  3.0145824E+00;  0.0000000E+00;  2.3265057E+00;0; -1.9182020E-01;  3.7960996E+04;  0.0000000E+00; -1.0666739E-01;  4.0000000E+04;  0.0000000E+00;  4.0020254E+04; -2.1055643E-01;  0.0000000E+00;  1.8736228E-02;  4.7328975E+03;
  6.3731503E-01;  9.9999998E-03; -1.8987492E-01;6300; -1.7637058E-01;  0.0000000E+00; -1.8104773E-03;  9.9541559E+02;  1.0215213E-01; -3.7981047E+03;3;  3.6062422E+00;  0.0000000E+00;  2.3556437E+00;0; -1.9459467E-01;  3.7963336E+04;  0.0000000E+00; -1.4867471E-01;  4.0000000E+04;  0.0000000E+00;  4.0022453E+04; -2.1220262E-01;  0.0000000E+00;  1.7607961E-02;  5.0063022E+03;
  6.3727641E-01;  9.9999998E-03; -1.7988141E-01;6301; -1.7659850E-01;  0.0000000E+00; -1.5440715E-03;  9.9545569E+02;  1.0215112E-01; -3.7648713E+03;3;  4.1952004E+00;  0.0000000E+00;  2.3546977E+00;0; -1.9734010E-01;  3.7965129E+04;  0.0000000E+00; -1.7630580E-01;  4.0000000E+04;  0.0000000E+00;  4.0024664E+04; -2.1377806E-01;  0.0000000E+00;  1.6437957E-02;  5.2867144E+03;
  6.3723904E-01;  9.9999998E-03; -1.6988635E-01;6302; -1.7679262E-01;  0.0000000E+00; -1.2869451E-03;  9.9548737E+02;  1.0214944E-01; -3.7386003E+03;3;  4.7793274E+00;  0.0000000E+00;  2.3265111E+00;0; -2.0010620E-01;  3.7966328E+04;  0.0000000E+00; -1.9285530E-01;  4.0000000E+04;  0.0000000E+00;  4.0026531E+04; -2.1527769E-01;  0.0000000E+00;  1.5171486E-02;  5.5288296E+03;
  6.3720572E-01;  9.9999998E-03; -1.5989077E-01;6303; -1.7695764E-01;  0.0000000E+00; -1.0497487E-03;  9.9551123E+02;  1.0214797E-01; -3.7188479E+03;3;  5.3535905E+00;  0.0000000E+00;  2.2819993E+00;0; -2.0291880E-01;  3.7967793E+04;  0.0000000E+00; -2.0045625E-01;  4.0000000E+04;  0.0000000E+00;  4.0028180E+04; -2.1670210E-01;  0.0000000E+00;  1.3783302E-02;  5.7212090E+03;
  6.3717806E-01;  9.9999998E-03; -1.4989531E-01;6304; -1.7709921E-01;  0.0000000E+00; -8.3522941E-04;  9.9553979E+02;  1.0214671E-01; -3.6951943E+03;3;  5.9148307E+00;  0.0000000E+00;  2.2164452E+00;0; -2.0577516E-01;  3.7969891E+04;  0.0000000E+00; -1.9955081E-01;  4.0000000E+04;  0.0000000E+00;  4.0029414E+04; -2.1805765E-01;  0.0000000E+00;  1.2282495E-02;  5.8691826E+03;
  6.3715631E-01;  9.9999998E-03; -1.3990030E-01;6305; -1.7722306E-01;  0.0000000E+00; -6.5147079E-04;  9.9557452E+02;  1.0214566E-01; -3.6664050E+03;3;  6.4577837E+00;  0.0000000E+00;  2.1240001E+00;0; -2.0865220E-01;  3.7972996E+04;  0.0000000E+00; -1.8974544E-01;  4.0000000E+04;  0.0000000E+00;  4.0030434E+04; -2.1935752E-01;  0.0000000E+00;  1.0705317E-02;  5.9868311E+03;
  6.3713986E-01;  9.9999998E-03; -1.2990601E-01;6306; -1.7733458E-01;  0.0000000E+00; -4.9991981E-04;  9.9562549E+02;  1.0214410E-01; -3.6241843E+03;3;  6.9811683E+00;  0.0000000E+00;  2.0166137E+00;0; -2.1151680E-01;  3.7976980E+04;  0.0000000E+00; -1.7123577E-01;  4.0000000E+04;  0.0000000E+00;  4.0031336E+04; -2.2061588E-01;  0.0000000E+00;  9.0990886E-03;  6.0916963E+03;
  6.3712788E-01;  9.9999998E-03; -1.1991282E-01;6307; -1.7743763E-01;  0.0000000E+00; -3.7759551E-04;  9.9569257E+02;  1.0214268E-01; -3.5686304E+03;3;  7.4791112E+00;  0.0000000E+00;  1.9029013E+00;0; -2.1433613E-01;  3.7982422E+04;  0.0000000E+00; -1.4565589E-01;  4.0000000E+04;  0.0000000E+00;  4.0032223E+04; -2.2184318E-01;  0.0000000E+00;  7.5070504E-03;  6.1976733E+03;
  6.3711935E-01;  9.9999998E-03; -1.0992097E-01;6308; -1.7753567E-01;  0.0000000E+00; -2.8060577E-04;  9.9577979E+02;  1.0214174E-01; -3.4963364E+03;3;  7.9496241E+00;  0.0000000E+00;  1.7686096E+00;0; -2.1707815E-01;  3.7989328E+04;  0.0000000E+00; -1.1576050E-01;  4.0000000E+04;  0.0000000E+00;  4.0033199E+04; -2.2304305E-01;  0.0000000E+00;  5.9648980E-03;  6.3082192E+03;
  6.4726496E-01;  9.9999998E-03; -2.6990312E-01;6353; -1.7496203E-01;  0.0000000E+00; -2.7455597E-03;  9.9558392E+02;  1.0317587E-01; -3.6586016E+03;3; -1.1503667E+00;  0.0000000E+00;  1.3558854E+00;0; -1.7084067E-01;  3.7241938E+04;  0.0000000E+00; -1.4864197E-01;  4.0000000E+04;  0.0000000E+00;  4.0005273E+04; -2.0125663E-01;  0.0000000E+00;  3.0415973E-02;  3.7095503E+03;
  6.4729935E-01;  9.9999998E-03; -2.5988823E-01;6354; -1.7550611E-01;  0.0000000E+00; -2.8405432E-03;  9.9562860E+02;  1.0317916E-01; -3.6216150E+03;3; -5.8675337E-01;  0.0000000E+00;  1.4483173E+00;0; -1.7233458E-01;  3.7238977E+04;  0.0000000E+00;  8.2638718E-02;  4.0000000E+04;  0.0000000E+00;  4.0009039E+04; -2.0284782E-01;  0.0000000E+00;  3.0513246E-02;  4.1735508E+03;
  6.4732450E-01;  9.9999998E-03; -2.4986513E-01;6355; -1.7601140E-01;  0.0000000E+00; -2.8728372E-03;  9.9571790E+02;  1.0318145E-01; -3.5476421E+03;3; -1.1920087E-02;  0.0000000E+00;  1.5178086E+00;0; -1.7549737E-01;  3.7237891E+04;  0.0000000E+00;  1.8191110E-01;  4.0000000E+04;  0.0000000E+00;  4.0015293E+04; -2.0443888E-01;  0.0000000E+00;  2.8941510E-02;  4.9484062E+03;
  6.4734221E-01;  9.9999998E-03; -2.3983958E-01;6356; -1.7648055E-01;  0.0000000E+00; -2.6582698E-03;  9.9579077E+02;  1.0318332E-01; -3.4872488E+03;3;  5.7737166E-01;  0.0000000E+00;  1.5941445E+00;0; -1.8028013E-01;  3.7238492E+04;  0.0000000E+00;  1.7999557E-01;  4.0000000E+04;  0.0000000E+00;  4.0019000E+04; -2.0600957E-01;  0.0000000E+00;  2.5729436E-02;  5.3922075E+03;
  6.4735031E-01;  9.9999998E-03; -2.2982560E-01;6357; -1.7691578E-01;  0.0000000E+00; -2.2909713E-03;  9.9580890E+02;  1.0318423E-01; -3.4722371E+03;3;  1.1815056E+00;  0.0000000E+00;  1.7079376E+00;0; -1.8491963E-01;  3.7240645E+04;  0.0000000E+00;  1.1882390E-01;  4.0000000E+04;  0.0000000E+00;  4.0017211E+04; -2.0754726E-01;  0.0000000E+00;  2.2627641E-02;  5.1842739E+03;
  6.4734715E-01;  9.9999998E-03; -2.1982586E-01;6358; -1.7731981E-01;  0.0000000E+00; -1.9347063E-03;  9.9581799E+02;  1.0318432E-01; -3.4646816E+03;3;  1.7909410E+00;  0.0000000E+00;  1.8069830E+00;0; -1.8871371E-01;  3.7243562E+04;  0.0000000E+00;  3.3990022E-02;  4.0000000E+04;  0.0000000E+00;  4.0014531E+04; -2.0904808E-01;  0.0000000E+00;  2.0334369E-02;  4.8357041E+03;
  6.4733344E-01;  9.9999998E-03; -2.0983338E-01;6359; -1.7769210E-01;  0.0000000E+00; -1.6315612E-03;  9.9584424E+02;  1.0318325E-01; -3.4429539E+03;3;  2.4095914E+00;  0.0000000E+00;  1.8844267E+00;0; -1.9193177E-01;  3.7246355E+04;  0.0000000E+00; -5.1133528E-02;  4.0000000E+04;  0.0000000E+00;  4.0013785E+04; -2.1051463E-01;  0.0000000E+00;  1.8582867E-02;  4.7391787E+03;
  6.4731020E-01;  9.9999998E-03; -1.9984318E-01;6360; -1.7802744E-01;  0.0000000E+00; -1.3535853E-03;  9.9588538E+02;  1.0318198E-01; -3.4088809E+03;3;  3.0321875E+00;  0.0000000E+00;  1.9421647E+00;0; -1.9489294E-01;  3.7249000E+04;  0.0000000E+00; -1.2458745E-01;  4.0000000E+04;  0.0000000E+00;  4.0015074E+04; -2.1195100E-01;  0.0000000E+00;  1.7058063E-02;  4.8974966E+03;
  6.4728057E-01;  9.9999998E-03; -1.8985297E-01;6361; -1.7832406E-01;  0.0000000E+00; -1.0850437E-03;  9.9592725E+02;  1.0318033E-01; -3.3741660E+03;3;  3.6552217E+00;  0.0000000E+00;  1.9782203E+00;0; -1.9776057E-01;  3.7250629E+04;  0.0000000E+00; -1.8296982E-01;  4.0000000E+04;  0.0000000E+00;  4.0017391E+04; -2.1335989E-01;  0.0000000E+00;  1.5599330E-02;  5.1976504E+03;
  6.4724714E-01;  9.9999998E-03; -1.7986138E-01;6362; -1.7858072E-01;  0.0000000E+00; -8.3145662E-04;  9.9595599E+02;  1.0317783E-01; -3.3503643E+03;3;  4.2779064E+00;  0.0000000E+00;  1.9957852E+00;0; -2.0062698E-01;  3.7251625E+04;  0.0000000E+00; -2.2738925E-01;  4.0000000E+04;  0.0000000E+00;  4.0020121E+04; -2.1474500E-01;  0.0000000E+00;  1.4118009E-02;  5.5387085E+03;
  6.4721203E-01;  9.9999998E-03; -1.6986896E-01;6363; -1.7879970E-01;  0.0000000E+00; -5.9922819E-04;  9.9596808E+02;  1.0317589E-01; -3.3403398E+03;3;  4.8947697E+00;  0.0000000E+00;  1.9875246E+00;0; -2.0354699E-01;  3.7251703E+04;  0.0000000E+00; -2.6096198E-01;  4.0000000E+04;  0.0000000E+00;  4.0022684E+04; -2.1610840E-01;  0.0000000E+00;  1.2561413E-02;  5.8540381E+03;
  6.4717770E-01;  9.9999998E-03; -1.5987612E-01;6364; -1.7898579E-01;  0.0000000E+00; -3.8954063E-04;  9.9596979E+02;  1.0317304E-01; -3.3389573E+03;3;  5.5010080E+00;  0.0000000E+00;  1.9581474E+00;0; -2.0654063E-01;  3.7251516E+04;  0.0000000E+00; -2.8561634E-01;  4.0000000E+04;  0.0000000E+00;  4.0024777E+04; -2.1745491E-01;  0.0000000E+00;  1.0914277E-02;  6.1127422E+03;
  6.4714599E-01;  9.9999998E-03; -1.4988312E-01;6365; -1.7914519E-01;  0.0000000E+00; -2.1324665E-04;  9.9596716E+02;  1.0317081E-01; -3.3411299E+03;3;  6.0929165E+00;  0.0000000E+00;  1.8988268E+00;0; -2.0959604E-01;  3.7251566E+04;  0.0000000E+00; -3.0093324E-01;  4.0000000E+04;  0.0000000E+00;  4.0026391E+04; -2.1879135E-01;  0.0000000E+00;  9.1953091E-03;  6.3080654E+03;
  6.4711827E-01;  9.9999998E-03; -1.3989003E-01;6366; -1.7928407E-01;  0.0000000E+00; -6.8493377E-05;  9.9596613E+02;  1.0316832E-01; -3.3419695E+03;3;  6.6671414E+00;  0.0000000E+00;  1.8256360E+00;0; -2.1268293E-01;  3.7252086E+04;  0.0000000E+00; -3.0488417E-01;  4.0000000E+04;  0.0000000E+00;  4.0027527E+04; -2.2012790E-01;  0.0000000E+00;  7.4449559E-03;  6.4503047E+03;
  6.4709491E-01;  9.9999998E-03; -1.2989725E-01;6367; -1.7940843E-01;  0.0000000E+00;  4.4724355E-05;  9.9597357E+02;  1.0316589E-01; -3.3357969E+03;3;  7.2177100E+00;  0.0000000E+00;  1.7313139E+00;0; -2.1576506E-01;  3.7253598E+04;  0.0000000E+00; -2.9600671E-01;  4.0000000E+04;  0.0000000E+00;  4.0028410E+04; -2.2147319E-01;  0.0000000E+00;  5.7081357E-03;  6.5596538E+03;
  6.4707541E-01;  9.9999998E-03; -1.1990504E-01;6368; -1.7952344E-01;  0.0000000E+00;  1.2436966E-04;  9.9599829E+02;  1.0316369E-01; -3.3153530E+03;3;  7.7403765E+00;  0.0000000E+00;  1.6172086E+00;0; -2.1881035E-01;  3.7256176E+04;  0.0000000E+00; -2.7479526E-01;  4.0000000E+04;  0.0000000E+00;  4.0029375E+04; -2.2283114E-01;  0.0000000E+00;  4.0207976E-03;  6.6555112E+03;
  6.4705873E-01;  9.9999998E-03; -1.0991366E-01;6369; -1.7963199E-01;  0.0000000E+00;  1.7841106E-04;  9.9603809E+02;  1.0316182E-01; -3.2823665E+03;3;  8.2357244E+00;  0.0000000E+00;  1.4973326E+00;0; -2.2178744E-01;  3.7260340E+04;  0.0000000E+00; -2.4357894E-01;  4.0000000E+04;  0.0000000E+00;  4.0029973E+04; -2.2419807E-01;  0.0000000E+00;  2.4106295E-03;  6.7472549E+03;
  6.5700543E-01;  9.9999998E-03; -1.0990320E-01;6430; -1.8178050E-01;  0.0000000E+00;  6.7770254E-04;  9.9623712E+02;  1.0448868E-01; -3.1174812E+03;3;  8.5186977E+00;  0.0000000E+00;  1.2346674E+00;0; -2.2666591E-01;  3.6330855E+04;  0.0000000E+00; -3.4700680E-01;  4.0000000E+04;  0.0000000E+00;  4.0024426E+04; -2.2519800E-01;  0.0000000E+00; -1.4679130E-03;  7.1369204E+03;
  6.5702969E-01;  9.9999998E-03; -1.1989488E-01;6429; -1.8165629E-01;  0.0000000E+00;  6.6977879E-04;  9.9626538E+02;  1.0449187E-01; -3.0940747E+03;3;  7.9980159E+00;  0.0000000E+00;  1.3283141E+00;0; -2.2351781E-01;  3.6330855E+04;  0.0000000E+00; -3.7657660E-01;  4.0000000E+04;  0.0000000E+00;  4.0024051E+04; -2.2371593E-01;  0.0000000E+00;  1.9812574E-04;  7.0844907E+03;
  6.5705544E-01;  9.9999998E-03; -1.2988698E-01;6428; -1.8152376E-01;  0.0000000E+00;  6.3898257E-04;  9.9631036E+02;  1.0449565E-01; -3.0567917E+03;3;  7.4461303E+00;  0.0000000E+00;  1.4163536E+00;0; -2.2031981E-01;  3.6332160E+04;  0.0000000E+00; -3.9112240E-01;  4.0000000E+04;  0.0000000E+00;  4.0023566E+04; -2.2228724E-01;  0.0000000E+00;  1.9674331E-03;  7.0236587E+03;
  6.5708315E-01;  9.9999998E-03; -1.3987903E-01;6427; -1.8137993E-01;  0.0000000E+00;  5.7926244E-04;  9.9636688E+02;  1.0449931E-01; -3.0099785E+03;3;  6.8658032E+00;  0.0000000E+00;  1.4922807E+00;0; -2.1710250E-01;  3.6334074E+04;  0.0000000E+00; -3.8903329E-01;  4.0000000E+04;  0.0000000E+00;  4.0022875E+04; -2.2092475E-01;  0.0000000E+00;  3.8222456E-03;  6.9388174E+03;
  6.5711278E-01;  9.9999998E-03; -1.4987066E-01;6426; -1.8122016E-01;  0.0000000E+00;  4.8647056E-04;  9.9642566E+02;  1.0450318E-01; -2.9612393E+03;3;  6.2623754E+00;  0.0000000E+00;  1.5549339E+00;0; -2.1389689E-01;  3.6336512E+04;  0.0000000E+00; -3.7111649E-01;  4.0000000E+04;  0.0000000E+00;  4.0021855E+04; -2.1963277E-01;  0.0000000E+00;  5.7358840E-03;  6.8043687E+03;
  6.5714407E-01;  9.9999998E-03; -1.5986176E-01;6425; -1.8103862E-01;  0.0000000E+00;  3.5732862E-04;  9.9647333E+02;  1.0450777E-01; -2.9217837E+03;3;  5.6388030E+00;  0.0000000E+00;  1.5908694E+00;0; -2.1074189E-01;  3.6339027E+04;  0.0000000E+00; -3.4040615E-01;  4.0000000E+04;  0.0000000E+00;  4.0020086E+04; -2.1840885E-01;  0.0000000E+00;  7.6669632E-03;  6.5971362E+03;
  6.5717566E-01;  9.9999998E-03; -1.6985272E-01;6424; -1.8082841E-01;  0.0000000E+00;  1.9778952E-04;  9.9650781E+02;  1.0451177E-01; -2.8931921E+03;3;  5.0040054E+00;  0.0000000E+00;  1.6214134E+00;0; -2.0767513E-01;  3.6341203E+04;  0.0000000E+00; -3.0004945E-01;  4.0000000E+04;  0.0000000E+00;  4.0017961E+04; -2.1724565E-01;  0.0000000E+00;  9.5705222E-03;  6.3100176E+03;
  6.5720618E-01;  9.9999998E-03; -1.7984369E-01;6423; -1.8058327E-01;  0.0000000E+00;  2.0837849E-06;  9.9652185E+02;  1.0451534E-01; -2.8815874E+03;3;  4.3539333E+00;  0.0000000E+00;  1.6257583E+00;0; -2.0471753E-01;  3.6342531E+04;  0.0000000E+00; -2.5088698E-01;  4.0000000E+04;  0.0000000E+00;  4.0015160E+04; -2.1613513E-01;  0.0000000E+00;  1.1417595E-02;  5.9608159E+03;
  6.5723377E-01;  9.9999998E-03; -1.8983501E-01;6422; -1.8029909E-01;  0.0000000E+00; -2.2609823E-04;  9.9651611E+02;  1.0451924E-01; -2.8863281E+03;3;  3.6997073E+00;  0.0000000E+00;  1.6026515E+00;0; -2.0185685E-01;  3.6342848E+04;  0.0000000E+00; -1.9139795E-01;  4.0000000E+04;  0.0000000E+00;  4.0012293E+04; -2.1506746E-01;  0.0000000E+00;  1.3210610E-02;  5.5972627E+03;
  6.5725577E-01;  9.9999998E-03; -1.9982789E-01;6421; -1.7997229E-01;  0.0000000E+00; -4.8952550E-04;  9.9649292E+02;  1.0452228E-01; -2.9055374E+03;3;  3.0417316E+00;  0.0000000E+00;  1.5471992E+00;0; -1.9903456E-01;  3.6341652E+04;  0.0000000E+00; -1.2059252E-01;  4.0000000E+04;  0.0000000E+00;  4.0009836E+04; -2.1403046E-01;  0.0000000E+00;  1.4995907E-02;  5.2943242E+03;
  6.5726972E-01;  9.9999998E-03; -2.0982426E-01;6420; -1.7960207E-01;  0.0000000E+00; -7.8760920E-04;  9.9646094E+02;  1.0452468E-01; -2.9320549E+03;3;  2.3823221E+00;  0.0000000E+00;  1.4651375E+00;0; -1.9613546E-01;  3.6339621E+04;  0.0000000E+00; -4.1684583E-02;  4.0000000E+04;  0.0000000E+00;  4.0008520E+04; -2.1300852E-01;  0.0000000E+00;  1.6873067E-02;  5.1369644E+03;
  6.5727425E-01;  9.9999998E-03; -2.1982646E-01;6419; -1.7918976E-01;  0.0000000E+00; -1.1364168E-03;  9.9643225E+02;  1.0452636E-01; -2.9558074E+03;3;  1.7317690E+00;  0.0000000E+00;  1.3686101E+00;0; -1.9294187E-01;  3.6336703E+04;  0.0000000E+00;  3.2787986E-02;  4.0000000E+04;  0.0000000E+00;  4.0008848E+04; -2.1198489E-01;  0.0000000E+00;  1.9043006E-02;  5.1754663E+03;
  6.5726894E-01;  9.9999998E-03; -2.2983804E-01;6418; -1.7873566E-01;  0.0000000E+00; -1.5395768E-03;  9.9640289E+02;  1.0452678E-01; -2.9801028E+03;3;  1.0897548E+00;  0.0000000E+00;  1.2461061E+00;0; -1.8910924E-01;  3.6333938E+04;  0.0000000E+00;  7.5702123E-02;  4.0000000E+04;  0.0000000E+00;  4.0009797E+04; -2.1094251E-01;  0.0000000E+00;  2.1833275E-02;  5.3085034E+03;
  6.5725321E-01;  9.9999998E-03; -2.3986001E-01;6417; -1.7823915E-01;  0.0000000E+00; -1.9335453E-03;  9.9635187E+02;  1.0452635E-01; -3.0224226E+03;3;  4.5686549E-01;  0.0000000E+00;  1.1043308E+00;0; -1.8441774E-01;  3.6331641E+04;  0.0000000E+00;  3.8395692E-02;  4.0000000E+04;  0.0000000E+00;  4.0009156E+04; -2.0986743E-01;  0.0000000E+00;  2.5449691E-02;  5.2285435E+03;
  6.5722758E-01;  9.9999998E-03; -2.4988803E-01;6416; -1.7769870E-01;  0.0000000E+00; -2.1798585E-03;  9.9625690E+02;  1.0452498E-01; -3.1010867E+03;3; -1.5999432E-01;  0.0000000E+00;  1.0100857E+00;0; -1.7947513E-01;  3.6330906E+04;  0.0000000E+00; -1.5074679E-01;  4.0000000E+04;  0.0000000E+00;  4.0004320E+04; -2.0875186E-01;  0.0000000E+00;  2.9276721E-02;  4.6323413E+03;
  6.5715688E-01;  9.9999998E-03; -2.6992899E-01;6414; -1.7648035E-01;  0.0000000E+00; -2.0715352E-03;  9.9608051E+02;  1.0451843E-01; -3.2472056E+03;3; -1.3544282E+00;  0.0000000E+00;  8.4283310E-01;0; -1.7469719E-01;  3.6334953E+04;  0.0000000E+00; -1.2857225E+00;  4.0000000E+04;  0.0000000E+00;  3.9992125E+04; -2.0642090E-01;  0.0000000E+00;  3.1723708E-02;  3.7233730E+03;
  6.5719420E-01;  9.9999998E-03; -2.5991279E-01;6415; -1.7711364E-01;  0.0000000E+00; -2.1639734E-03;  9.9614380E+02;  1.0452226E-01; -3.1947627E+03;3; -7.6479346E-01;  0.0000000E+00;  9.2820495E-01;0; -1.7618248E-01;  3.6332047E+04;  0.0000000E+00; -5.7447034E-01;  4.0000000E+04;  0.0000000E+00;  3.9996984E+04; -2.0759782E-01;  0.0000000E+00;  3.1415347E-02;  3.8263040E+03;
  6.6697937E-01;  9.9999998E-03; -1.0989312E-01;6491; -1.8401740E-01;  0.0000000E+00;  1.2198590E-03;  9.9609198E+02;  1.0611306E-01; -3.2377227E+03;3;  8.7975454E+00;  0.0000000E+00;  9.9170041E-01;0; -2.3127520E-01;  3.5210613E+04;  0.0000000E+00; -4.0196395E-01;  4.0000000E+04;  0.0000000E+00;  4.0016156E+04; -2.2562464E-01;  0.0000000E+00; -5.6505604E-03;  7.4432109E+03;
  6.6701049E-01;  9.9999998E-03; -1.1988554E-01;6490; -1.8387020E-01;  0.0000000E+00;  1.2592222E-03;  9.9621539E+02;  1.0611916E-01; -3.1354543E+03;3;  8.2494612E+00;  0.0000000E+00;  1.0509192E+00;0; -2.2802837E-01;  3.5215578E+04;  0.0000000E+00; -4.2533329E-01;  4.0000000E+04;  0.0000000E+00;  4.0016211E+04; -2.2408870E-01;  0.0000000E+00; -3.9396775E-03;  7.4455830E+03;
  6.6704154E-01;  9.9999998E-03; -1.2987845E-01;6489; -1.8371485E-01;  0.0000000E+00;  1.2771420E-03;  9.9635120E+02;  1.0612495E-01; -3.0229641E+03;3;  7.6704826E+00;  0.0000000E+00;  1.1114198E+00;0; -2.2476111E-01;  3.5221215E+04;  0.0000000E+00; -4.2989948E-01;  4.0000000E+04;  0.0000000E+00;  4.0016156E+04; -2.2265920E-01;  0.0000000E+00; -2.1019171E-03;  7.4404351E+03;
  6.6707242E-01;  9.9999998E-03; -1.3987096E-01;6488; -1.8354677E-01;  0.0000000E+00;  1.2729656E-03;  9.9648969E+02;  1.0613119E-01; -2.9082024E+03;3;  7.0603099E+00;  0.0000000E+00;  1.1600004E+00;0; -2.2150330E-01;  3.5227156E+04;  0.0000000E+00; -4.1514489E-01;  4.0000000E+04;  0.0000000E+00;  4.0016008E+04; -2.2135946E-01;  0.0000000E+00; -1.4383708E-04;  7.4065342E+03;
  6.6710287E-01;  9.9999998E-03; -1.4986232E-01;6487; -1.8336199E-01;  0.0000000E+00;  1.2404738E-03;  9.9661957E+02;  1.0613762E-01; -2.8006011E+03;3;  6.4244542E+00;  0.0000000E+00;  1.1983166E+00;0; -2.1828376E-01;  3.5233043E+04;  0.0000000E+00; -3.8335747E-01;  4.0000000E+04;  0.0000000E+00;  4.0015352E+04; -2.2020215E-01;  0.0000000E+00;  1.9183859E-03;  7.3125557E+03;
  6.6713232E-01;  9.9999998E-03; -1.5985252E-01;6486; -1.8315470E-01;  0.0000000E+00;  1.1767403E-03;  9.9672839E+02;  1.0614445E-01; -2.7104309E+03;3;  5.7685599E+00;  0.0000000E+00;  1.2235875E+00;0; -2.1514294E-01;  3.5238383E+04;  0.0000000E+00; -3.3875808E-01;  4.0000000E+04;  0.0000000E+00;  4.0013953E+04; -2.1919124E-01;  0.0000000E+00;  4.0483046E-03;  7.1320127E+03;
  6.6715974E-01;  9.9999998E-03; -1.6984221E-01;6485; -1.8291917E-01;  0.0000000E+00;  1.0760581E-03;  9.9681366E+02;  1.0615025E-01; -2.6398159E+03;3;  5.0999613E+00;  0.0000000E+00;  1.2343912E+00;0; -2.1212555E-01;  3.5242801E+04;  0.0000000E+00; -2.8486025E-01;  4.0000000E+04;  0.0000000E+00;  4.0011828E+04; -2.1832278E-01;  0.0000000E+00;  6.1972351E-03;  6.8601450E+03;
  6.6718400E-01;  9.9999998E-03; -1.7983229E-01;6484; -1.8264948E-01;  0.0000000E+00;  9.3712128E-04;  9.9687030E+02;  1.0615635E-01; -2.5929041E+03;3;  4.4186749E+00;  0.0000000E+00;  1.2244633E+00;0; -2.0926271E-01;  3.5245844E+04;  0.0000000E+00; -2.2268212E-01;  4.0000000E+04;  0.0000000E+00;  4.0009211E+04; -2.1758746E-01;  0.0000000E+00;  8.3247395E-03;  6.5245415E+03;
  6.6720349E-01;  9.9999998E-03; -1.8982480E-01;6483; -1.8234013E-01;  0.0000000E+00;  7.5634831E-04;  9.9689636E+02;  1.0616206E-01; -2.5712749E+03;3;  3.7302947E+00;  0.0000000E+00;  1.1860499E+00;0; -2.0655166E-01;  3.5247293E+04;  0.0000000E+00; -1.5233150E-01;  4.0000000E+04;  0.0000000E+00;  4.0006539E+04; -2.1696852E-01;  0.0000000E+00;  1.0416868E-02;  6.1848198E+03;
  6.6721654E-01;  9.9999998E-03; -1.9982237E-01;6482; -1.8198854E-01;  0.0000000E+00;  5.2427326E-04;  9.9689874E+02;  1.0616702E-01; -2.5692998E+03;3;  3.0353646E+00;  0.0000000E+00;  1.1278645E+00;0; -2.0393777E-01;  3.5247145E+04;  0.0000000E+00; -7.6767802E-02;  4.0000000E+04;  0.0000000E+00;  4.0004422E+04; -2.1644212E-01;  0.0000000E+00;  1.2504362E-02;  5.9149438E+03;
  6.6722196E-01;  9.9999998E-03; -2.0982718E-01;6481; -1.8159063E-01;  0.0000000E+00;  2.2590568E-04;  9.9688257E+02;  1.0617077E-01; -2.5827314E+03;3;  2.3432727E+00;  0.0000000E+00;  1.0290204E+00;0; -2.0128757E-01;  3.5245410E+04;  0.0000000E+00; -7.2630201E-03;  4.0000000E+04;  0.0000000E+00;  4.0003148E+04; -2.1597956E-01;  0.0000000E+00;  1.4691990E-02;  5.7673994E+03;
  6.6721958E-01;  9.9999998E-03; -2.1984124E-01;6480; -1.8114322E-01;  0.0000000E+00; -1.4301711E-04;  9.9685431E+02;  1.0617387E-01; -2.6061382E+03;3;  1.6561148E+00;  0.0000000E+00;  9.1258287E-01;0; -1.9835694E-01;  3.5242766E+04;  0.0000000E+00;  2.9533539E-02;  4.0000000E+04;  0.0000000E+00;  4.0002559E+04; -2.1554807E-01;  0.0000000E+00;  1.7191125E-02;  5.7096895E+03;
  6.6720873E-01;  9.9999998E-03; -2.2986449E-01;6479; -1.8064263E-01;  0.0000000E+00; -5.6993525E-04;  9.9680145E+02;  1.0617598E-01; -2.6499392E+03;3;  9.8248851E-01;  0.0000000E+00;  7.7910447E-01;0; -1.9479132E-01;  3.5239934E+04;  0.0000000E+00; -1.7343434E-02;  4.0000000E+04;  0.0000000E+00;  4.0001637E+04; -2.1511649E-01;  0.0000000E+00;  2.0325175E-02;  5.5823374E+03;
  6.6718835E-01;  9.9999998E-03; -2.3989114E-01;6478; -1.8008849E-01;  0.0000000E+00; -9.9945744E-04;  9.9672595E+02;  1.0617658E-01; -2.7124556E+03;3;  3.2111916E-01;  0.0000000E+00;  6.0252249E-01;0; -1.9031447E-01;  3.5237555E+04;  0.0000000E+00; -2.3363897E-01;  4.0000000E+04;  0.0000000E+00;  3.9999059E+04; -2.1465661E-01;  0.0000000E+00;  2.4342140E-02;  5.2864858E+03;
  6.6715604E-01;  9.9999998E-03; -2.4991809E-01;6477; -1.7948090E-01;  0.0000000E+00; -1.3260602E-03;  9.9662415E+02;  1.0617597E-01; -2.7967986E+03;3; -3.2358307E-01;  0.0000000E+00;  4.7036219E-01;0; -1.8524319E-01;  3.5236648E+04;  0.0000000E+00; -7.4540961E-01;  4.0000000E+04;  0.0000000E+00;  3.9994000E+04; -2.1414754E-01;  0.0000000E+00;  2.8904349E-02;  4.8123501E+03;
  6.6708481E-01;  9.9999998E-03; -2.6996040E-01;6475; -1.7809935E-01;  0.0000000E+00; -1.3233863E-03;  9.9642102E+02;  1.0617049E-01; -2.9650894E+03;3; -1.5761945E+00;  0.0000000E+00;  2.7613798E-01;0; -1.7993093E-01;  3.5240297E+04;  0.0000000E+00; -3.1437590E+00;  4.0000000E+04;  0.0000000E+00;  3.9980137E+04; -2.1297164E-01;  0.0000000E+00;  3.3040710E-02;  5.8690024E+03;
  6.6711831E-01;  9.9999998E-03; -2.5994310E-01;6476; -1.7881967E-01;  0.0000000E+00; -1.3843899E-03;  9.9650494E+02;  1.0617402E-01; -2.8955608E+03;3; -9.5512950E-01;  0.0000000E+00;  3.7618625E-01;0; -1.8158257E-01;  3.5237844E+04;  0.0000000E+00; -1.6906931E+00;  4.0000000E+04;  0.0000000E+00;  3.9986004E+04; -2.1358250E-01;  0.0000000E+00;  3.1999931E-02;  4.5929824E+03;
  6.7711884E-01;  9.9999998E-03; -2.6999450E-01;6536; -1.7993249E-01;  0.0000000E+00; -4.9935770E-04;  9.9632935E+02;  1.0811058E-01; -3.0410356E+03;3; -1.8157628E+00;  0.0000000E+00; -3.4443769E-01;0; -1.8586984E-01;  3.3979148E+04;  0.0000000E+00; -5.4132533E+00;  4.0000000E+04;  0.0000000E+00;  3.9972336E+04; -2.2018009E-01;  0.0000000E+00;  3.4310251E-02;  9.7208330E+03;
  6.7712647E-01;  9.9999998E-03; -2.5997543E-01;6537; -1.8072554E-01;  0.0000000E+00; -4.7402363E-04;  9.9642822E+02;  1.0811067E-01; -2.9591123E+03;3; -1.1700517E+00;  0.0000000E+00; -2.1473816E-01;0; -1.8816912E-01;  3.3978762E+04;  0.0000000E+00; -3.1215007E+00;  4.0000000E+04;  0.0000000E+00;  3.9979297E+04; -2.2010098E-01;  0.0000000E+00;  3.1931866E-02;  6.8762305E+03;
  6.7715442E-01;  9.9999998E-03; -2.4995062E-01;6538; -1.8144667E-01;  0.0000000E+00; -2.6182679E-04;  9.9654352E+02;  1.0811081E-01; -2.8636094E+03;3; -5.0689453E-01;  0.0000000E+00; -5.8485426E-02;0; -1.9255176E-01;  3.3978547E+04;  0.0000000E+00; -1.5429758E+00;  4.0000000E+04;  0.0000000E+00;  3.9987004E+04; -2.1995844E-01;  0.0000000E+00;  2.7406679E-02;  5.9614614E+03;
  6.7718780E-01;  9.9999998E-03; -2.3992649E-01;6539; -1.8210609E-01;  0.0000000E+00;  1.9376428E-04;  9.9662164E+02;  1.0810968E-01; -2.7988706E+03;3;  1.6467224E-01;  0.0000000E+00;  1.2791964E-01;0; -1.9765681E-01;  3.3979180E+04;  0.0000000E+00; -6.1451530E-01;  4.0000000E+04;  0.0000000E+00;  3.9990918E+04; -2.1974425E-01;  0.0000000E+00;  2.2087438E-02;  5.9175312E+03;
  6.7721248E-01;  9.9999998E-03; -2.2989994E-01;6540; -1.8270534E-01;  0.0000000E+00;  6.6623720E-04;  9.9668793E+02;  1.0810670E-01; -2.7439590E+03;3;  8.5634780E-01;  0.0000000E+00;  2.8440037E-01;0; -2.0159753E-01;  3.3981402E+04;  0.0000000E+00; -1.5121229E-01;  4.0000000E+04;  0.0000000E+00;  3.9993695E+04; -2.1947074E-01;  0.0000000E+00;  1.7873209E-02;  6.1621040E+03;
  6.7722678E-01;  9.9999998E-03; -2.1986917E-01;6541; -1.8324207E-01;  0.0000000E+00;  1.0746539E-03;  9.9674817E+02;  1.0810224E-01; -2.6940840E+03;3;  1.5646163E+00;  0.0000000E+00;  4.3763512E-01;0; -2.0450963E-01;  3.3984293E+04;  0.0000000E+00;  2.9860597E-02;  4.0000000E+04;  0.0000000E+00;  3.9996191E+04; -2.1916886E-01;  0.0000000E+00;  1.4659220E-02;  6.4470488E+03;
  6.7723256E-01;  9.9999998E-03; -2.0984489E-01;6542; -1.8371335E-01;  0.0000000E+00;  1.4148062E-03;  9.9676929E+02;  1.0809674E-01; -2.6765537E+03;3;  2.2858377E+00;  0.0000000E+00;  5.7579523E-01;0; -2.0689201E-01;  3.3986875E+04;  0.0000000E+00;  5.9641242E-02;  4.0000000E+04;  0.0000000E+00;  3.9997180E+04; -2.1888071E-01;  0.0000000E+00;  1.1988702E-02;  6.5786021E+03;
  6.7723119E-01;  9.9999998E-03; -1.9983214E-01;6543; -1.8412955E-01;  0.0000000E+00;  1.6608174E-03;  9.9676379E+02;  1.0808983E-01; -2.6811462E+03;3;  3.0136843E+00;  0.0000000E+00;  6.7899716E-01;0; -2.0907772E-01;  3.3988402E+04;  0.0000000E+00;  1.8211864E-02;  4.0000000E+04;  0.0000000E+00;  3.9998207E+04; -2.1865536E-01;  0.0000000E+00;  9.5776487E-03;  6.6938345E+03;
  6.7722332E-01;  9.9999998E-03; -1.8982926E-01;6544; -1.8449716E-01;  0.0000000E+00;  1.8364449E-03;  9.9673053E+02;  1.0808198E-01; -2.7087009E+03;3;  3.7397773E+00;  0.0000000E+00;  7.5107008E-01;0; -2.1131966E-01;  3.3988172E+04;  0.0000000E+00; -5.0626159E-02;  4.0000000E+04;  0.0000000E+00;  3.9999957E+04; -2.1854334E-01;  0.0000000E+00;  7.2236867E-03;  6.8971152E+03;
  6.7720926E-01;  9.9999998E-03; -1.7983378E-01;6545; -1.8482366E-01;  0.0000000E+00;  1.9501831E-03;  9.9666425E+02;  1.0807327E-01; -2.7636125E+03;3;  4.4667311E+00;  0.0000000E+00;  8.0712515E-01;0; -2.1373308E-01;  3.3985844E+04;  0.0000000E+00; -1.2512611E-01;  4.0000000E+04;  0.0000000E+00;  4.0002031E+04; -2.1858971E-01;  0.0000000E+00;  4.8566251E-03;  7.1698564E+03;
  6.7718959E-01;  9.9999998E-03; -1.6984285E-01;6546; -1.8511406E-01;  0.0000000E+00;  2.0132782E-03;  9.9656567E+02;  1.0806536E-01; -2.8452395E+03;3;  5.1856294E+00;  0.0000000E+00;  8.3244437E-01;0; -2.1636277E-01;  3.3981621E+04;  0.0000000E+00; -1.9638073E-01;  4.0000000E+04;  0.0000000E+00;  4.0004172E+04; -2.1883219E-01;  0.0000000E+00;  2.4694249E-03;  7.4444854E+03;
  6.7716569E-01;  9.9999998E-03; -1.5985313E-01;6547; -1.8537281E-01;  0.0000000E+00;  2.0410833E-03;  9.9642389E+02;  1.0805565E-01; -2.9627173E+03;3;  5.8875871E+00;  0.0000000E+00;  8.3189452E-01;0; -2.1920100E-01;  3.3975305E+04;  0.0000000E+00; -2.6137966E-01;  4.0000000E+04;  0.0000000E+00;  4.0005867E+04; -2.1929541E-01;  0.0000000E+00;  9.4411400E-05;  7.6569590E+03;
  6.7713851E-01;  9.9999998E-03; -1.4986244E-01;6548; -1.8560553E-01;  0.0000000E+00;  2.0395606E-03;  9.9624200E+02;  1.0804617E-01; -3.1134282E+03;3;  6.5784879E+00;  0.0000000E+00;  8.3123028E-01;0; -2.2220832E-01;  3.3967340E+04;  0.0000000E+00; -3.1826895E-01;  4.0000000E+04;  0.0000000E+00;  4.0006609E+04; -2.1999210E-01;  0.0000000E+00; -2.2162236E-03;  7.7740156E+03;
  6.7710841E-01;  9.9999998E-03; -1.3986990E-01;6549; -1.8581785E-01;  0.0000000E+00;  2.0120658E-03;  9.9603180E+02;  1.0803656E-01; -3.2875459E+03;3;  7.2453122E+00;  0.0000000E+00;  8.1348252E-01;0; -2.2533366E-01;  3.3958062E+04;  0.0000000E+00; -3.6355752E-01;  4.0000000E+04;  0.0000000E+00;  4.0006582E+04; -2.2092280E-01;  0.0000000E+00; -4.4108573E-03;  7.7992256E+03;
  6.7707545E-01;  9.9999998E-03; -1.2987572E-01;6550; -1.8601386E-01;  0.0000000E+00;  1.9640450E-03;  9.9579663E+02;  1.0802711E-01; -3.4824038E+03;3;  7.8848100E+00;  0.0000000E+00;  7.8490824E-01;0; -2.2853468E-01;  3.3948098E+04;  0.0000000E+00; -3.9237952E-01;  4.0000000E+04;  0.0000000E+00;  4.0006266E+04; -2.2207604E-01;  0.0000000E+00; -6.4586378E-03;  7.7619346E+03;
  6.7704028E-01;  9.9999998E-03; -1.1988097E-01;6551; -1.8619868E-01;  0.0000000E+00;  1.8949709E-03;  9.9556104E+02;  1.0801826E-01; -3.6775579E+03;3;  8.4954443E+00;  0.0000000E+00;  7.5255060E-01;0; -2.3178457E-01;  3.3937887E+04;  0.0000000E+00; -4.0125537E-01;  4.0000000E+04;  0.0000000E+00;  4.0005605E+04; -2.2342980E-01;  0.0000000E+00; -8.3547644E-03;  7.6980112E+03;
  6.7700315E-01;  9.9999998E-03; -1.0988683E-01;6552; -1.8637539E-01;  0.0000000E+00;  1.8073806E-03;  9.9533038E+02;  1.0800922E-01; -3.8686626E+03;3;  9.0691242E+00;  0.0000000E+00;  7.0909148E-01;0; -2.3505472E-01;  3.3927914E+04;  0.0000000E+00; -3.8948026E-01;  4.0000000E+04;  0.0000000E+00;  4.0004969E+04; -2.2495045E-01;  0.0000000E+00; -1.0104268E-02;  7.6328027E+03;
  6.8745780E-01;  9.9999998E-03; -2.7003011E-01;6597; -1.8211859E-01;  0.0000000E+00;  4.4822285E-04;  9.9565424E+02;  1.1034391E-01; -3.6003726E+03;3; -2.0885999E+00;  0.0000000E+00; -9.9755663E-01;0; -1.9127806E-01;  3.2570432E+04;  0.0000000E+00; -7.2318344E+00;  4.0000000E+04;  0.0000000E+00;  3.9970242E+04; -2.2633448E-01;  0.0000000E+00;  3.5056427E-02;  1.3628646E+04;
  6.8740129E-01;  9.9999998E-03; -2.6000807E-01;6598; -1.8295279E-01;  0.0000000E+00;  6.3533394E-04;  9.9575726E+02;  1.1033220E-01; -3.5149927E+03;3; -1.4126706E+00;  0.0000000E+00; -8.1187230E-01;0; -1.9493456E-01;  3.2576162E+04;  0.0000000E+00; -4.3643427E+00;  4.0000000E+04;  0.0000000E+00;  3.9978129E+04; -2.2553106E-01;  0.0000000E+00;  3.0596497E-02;  9.8273496E+03;
  6.8736583E-01;  9.9999998E-03; -2.4998386E-01;6599; -1.8369465E-01;  0.0000000E+00;  1.0863037E-03;  9.9584521E+02;  1.1032121E-01; -3.4421555E+03;3; -7.2383320E-01;  0.0000000E+00; -6.3952166E-01;0; -2.0043597E-01;  3.2581701E+04;  0.0000000E+00; -2.3084109E+00;  4.0000000E+04;  0.0000000E+00;  3.9983980E+04; -2.2465435E-01;  0.0000000E+00;  2.4218375E-02;  7.9495894E+03;
  6.8736905E-01;  9.9999998E-03; -2.3996283E-01;6600; -1.8437177E-01;  0.0000000E+00;  1.6900263E-03;  9.9588177E+02;  1.1031401E-01; -3.4118357E+03;3; -1.2191652E-02;  0.0000000E+00; -4.0048134E-01;0; -2.0532173E-01;  3.2584855E+04;  0.0000000E+00; -1.0047290E+00;  4.0000000E+04;  0.0000000E+00;  3.9985672E+04; -2.2370993E-01;  0.0000000E+00;  1.8388199E-02;  7.2081802E+03;
  6.8737972E-01;  9.9999998E-03; -2.2994024E-01;6601; -1.8499005E-01;  0.0000000E+00;  2.1638852E-03;  9.9591516E+02;  1.1030636E-01; -3.3841821E+03;3;  7.0913732E-01;  0.0000000E+00; -2.0957895E-01;0; -2.0828563E-01;  3.2588008E+04;  0.0000000E+00; -2.9008821E-01;  4.0000000E+04;  0.0000000E+00;  3.9986875E+04; -2.2270316E-01;  0.0000000E+00;  1.4417536E-02;  7.1172178E+03;
  6.8738395E-01;  9.9999998E-03; -2.1990672E-01;6602; -1.8554150E-01;  0.0000000E+00;  2.4938839E-03;  9.9596063E+02;  1.1029725E-01; -3.3465044E+03;3;  1.4547679E+00;  0.0000000E+00; -3.8858246E-02;0; -2.1022364E-01;  3.2592053E+04;  0.0000000E+00;  4.2843692E-02;  4.0000000E+04;  0.0000000E+00;  3.9989496E+04; -2.2165745E-01;  0.0000000E+00;  1.1433803E-02;  7.3875693E+03;
  6.8738407E-01;  9.9999998E-03; -2.0987499E-01;6603; -1.8602170E-01;  0.0000000E+00;  2.7441073E-03;  9.9596875E+02;  1.1028708E-01; -3.3397886E+03;3;  2.2066052E+00;  0.0000000E+00;  8.6183302E-02;0; -2.1185406E-01;  3.2595555E+04;  0.0000000E+00;  1.5852991E-01;  4.0000000E+04;  0.0000000E+00;  3.9990469E+04; -2.2062360E-01;  0.0000000E+00;  8.7695364E-03;  7.5249312E+03;
  6.8738055E-01;  9.9999998E-03; -1.9985606E-01;6604; -1.8644010E-01;  0.0000000E+00;  2.9072354E-03;  9.9593854E+02;  1.1027633E-01; -3.3648250E+03;3;  2.9720099E+00;  0.0000000E+00;  2.1787117E-01;0; -2.1345671E-01;  3.2597834E+04;  0.0000000E+00;  1.6189802E-01;  4.0000000E+04;  0.0000000E+00;  3.9990910E+04; -2.1967061E-01;  0.0000000E+00;  6.2139030E-03;  7.5623892E+03;
  6.8737090E-01;  9.9999998E-03; -1.8984985E-01;6605; -1.8681152E-01;  0.0000000E+00;  2.9879210E-03;  9.9587463E+02;  1.1026464E-01; -3.4177612E+03;3;  3.7373641E+00;  0.0000000E+00;  2.9783908E-01;0; -2.1521999E-01;  3.2598281E+04;  0.0000000E+00;  1.1283773E-01;  4.0000000E+04;  0.0000000E+00;  3.9991598E+04; -2.1886997E-01;  0.0000000E+00;  3.6499805E-03;  7.6516235E+03;
  6.8735534E-01;  9.9999998E-03; -1.7985250E-01;6606; -1.8714374E-01;  0.0000000E+00;  3.0143356E-03;  9.9577649E+02;  1.1025224E-01; -3.4990918E+03;3;  4.5010252E+00;  0.0000000E+00;  3.5492161E-01;0; -2.1723911E-01;  3.2596504E+04;  0.0000000E+00;  4.3087780E-02;  4.0000000E+04;  0.0000000E+00;  3.9993043E+04; -2.1828394E-01;  0.0000000E+00;  1.0448283E-03;  7.8120688E+03;
  6.8733448E-01;  9.9999998E-03; -1.6986035E-01;6607; -1.8744466E-01;  0.0000000E+00;  3.0017723E-03;  9.9563708E+02;  1.1023895E-01; -3.6145942E+03;3;  5.2558899E+00;  0.0000000E+00;  3.9296389E-01;0; -2.1953730E-01;  3.2592191E+04;  0.0000000E+00; -3.1627551E-02;  4.0000000E+04;  0.0000000E+00;  3.9994316E+04; -2.1796516E-01;  0.0000000E+00; -1.5721512E-03;  7.9829888E+03;
  6.8730944E-01;  9.9999998E-03; -1.5986979E-01;6608; -1.8772039E-01;  0.0000000E+00;  2.9592845E-03;  9.9544366E+02;  1.1022558E-01; -3.7748357E+03;3;  5.9961367E+00;  0.0000000E+00;  4.1222483E-01;0; -2.2209692E-01;  3.2585359E+04;  0.0000000E+00; -1.0407776E-01;  4.0000000E+04;  0.0000000E+00;  3.9995078E+04; -2.1795027E-01;  0.0000000E+00; -4.1466439E-03;  8.0985439E+03;
  6.8728077E-01;  9.9999998E-03; -1.4987752E-01;6609; -1.8797523E-01;  0.0000000E+00;  2.8935876E-03;  9.9519861E+02;  1.1021198E-01; -3.9778413E+03;3;  6.7194529E+00;  0.0000000E+00;  4.2050269E-01;0; -2.2487369E-01;  3.2576068E+04;  0.0000000E+00; -1.7064622E-01;  4.0000000E+04;  0.0000000E+00;  3.9995152E+04; -2.1825740E-01;  0.0000000E+00; -6.6163018E-03;  8.1232495E+03;
  6.8724805E-01;  9.9999998E-03; -1.3988271E-01;6610; -1.8821381E-01;  0.0000000E+00;  2.8063385E-03;  9.9490857E+02;  1.1019819E-01; -4.2181294E+03;3;  7.4200530E+00;  0.0000000E+00;  4.2273363E-01;0; -2.2781456E-01;  3.2564793E+04;  0.0000000E+00; -2.2778153E-01;  4.0000000E+04;  0.0000000E+00;  3.9994508E+04; -2.1888699E-01;  0.0000000E+00; -8.9275688E-03;  8.0604795E+03;
  6.8721139E-01;  9.9999998E-03; -1.2988600E-01;6611; -1.8844005E-01;  0.0000000E+00;  2.6997551E-03;  9.9458667E+02;  1.1018492E-01; -4.4848364E+03;3;  8.0937872E+00;  0.0000000E+00;  4.1829070E-01;0; -2.3087804E-01;  3.2551854E+04;  0.0000000E+00; -2.7071208E-01;  4.0000000E+04;  0.0000000E+00;  3.9993402E+04; -2.1982233E-01;  0.0000000E+00; -1.1055704E-02;  7.9415547E+03;
  6.8717098E-01;  9.9999998E-03; -1.1988856E-01;6612; -1.8865776E-01;  0.0000000E+00;  2.5748168E-03;  9.9424780E+02;  1.1017146E-01; -4.7655679E+03;3;  8.7328844E+00;  0.0000000E+00;  4.0341887E-01;0; -2.3403892E-01;  3.2538141E+04;  0.0000000E+00; -2.9536989E-01;  4.0000000E+04;  0.0000000E+00;  3.9992145E+04; -2.2103201E-01;  0.0000000E+00; -1.3006913E-02;  7.8047783E+03;
  6.8712705E-01;  9.9999998E-03; -1.0989162E-01;6613; -1.8886928E-01;  0.0000000E+00;  2.4331457E-03;  9.9390839E+02;  1.1015870E-01; -5.0467437E+03;3;  9.3375254E+00;  0.0000000E+00;  3.8908464E-01;0; -2.3727036E-01;  3.2524240E+04;  0.0000000E+00; -3.0010575E-01;  4.0000000E+04;  0.0000000E+00;  3.9991023E+04; -2.2247292E-01;  0.0000000E+00; -1.4797427E-02;  7.6776274E+03;
  6.9878793E-01;  9.9999998E-03; -2.7007097E-01;6658; -1.8491574E-01;  0.0000000E+00;  1.6404070E-03;  9.9443665E+02;  1.1300338E-01; -4.6091235E+03;3; -2.4134438E+00;  0.0000000E+00; -1.7347435E+00;0; -1.9219923E-01;  3.0978725E+04;  0.0000000E+00; -6.8312912E+00;  4.0000000E+04;  0.0000000E+00;  3.9972512E+04; -2.2672799E-01;  0.0000000E+00;  3.4528770E-02;  1.4850614E+04;
  6.9859958E-01;  9.9999998E-03; -2.6004425E-01;6659; -1.8571927E-01;  0.0000000E+00;  2.0627344E-03;  9.9451593E+02;  1.1296039E-01; -4.5433975E+03;3; -1.7059152E+00;  0.0000000E+00; -1.5262939E+00;0; -1.9808453E-01;  3.0999047E+04;  0.0000000E+00; -4.2923975E+00;  4.0000000E+04;  0.0000000E+00;  3.9981137E+04; -2.2539154E-01;  0.0000000E+00;  2.7307000E-02;  1.1843952E+04;
  6.9846296E-01;  9.9999998E-03; -2.5002113E-01;6660; -1.8642056E-01;  0.0000000E+00;  2.8547586E-03;  9.9452313E+02;  1.1292570E-01; -4.5374722E+03;3; -9.7371930E-01;  0.0000000E+00; -1.2379750E+00;0; -2.0532642E-01;  3.1015365E+04;  0.0000000E+00; -2.3279839E+00;  4.0000000E+04;  0.0000000E+00;  3.9983258E+04; -2.2401254E-01;  0.0000000E+00;  1.8686112E-02;  9.9145088E+03;
  6.9836730E-01;  9.9999998E-03; -2.4000864E-01;6661; -1.8705499E-01;  0.0000000E+00;  3.5855926E-03;  9.9447729E+02;  1.1289778E-01; -4.5754463E+03;3; -2.2357112E-01;  0.0000000E+00; -9.4222778E-01;0; -2.0970058E-01;  3.1028580E+04;  0.0000000E+00; -1.0216671E+00;  4.0000000E+04;  0.0000000E+00;  3.9979621E+04; -2.2259016E-01;  0.0000000E+00;  1.2889572E-02;  8.5666836E+03;
  6.9829154E-01;  9.9999998E-03; -2.3000339E-01;6662; -1.8763787E-01;  0.0000000E+00;  4.0071639E-03;  9.9443597E+02;  1.1287148E-01; -4.6096670E+03;3;  5.3300083E-01;  0.0000000E+00; -7.4345499E-01;0; -2.1145140E-01;  3.1040852E+04;  0.0000000E+00; -2.5645891E-01;  4.0000000E+04;  0.0000000E+00;  3.9975719E+04; -2.2112818E-01;  0.0000000E+00;  9.6767806E-03;  7.8102935E+03;
  6.9822776E-01;  9.9999998E-03; -2.1998319E-01;6663; -1.8816212E-01;  0.0000000E+00;  4.1741212E-03;  9.9445667E+02;  1.1284600E-01; -4.5925322E+03;3;  1.3138955E+00;  0.0000000E+00; -5.6493801E-01;0; -2.1230556E-01;  3.1052303E+04;  0.0000000E+00;  1.3908078E-01;  4.0000000E+04;  0.0000000E+00;  3.9976785E+04; -2.1963167E-01;  0.0000000E+00;  7.3261112E-03;  7.8797900E+03;
  6.9818044E-01;  9.9999998E-03; -2.0995185E-01;6664; -1.8862113E-01;  0.0000000E+00;  4.2535523E-03;  9.9446832E+02;  1.1282314E-01; -4.5828535E+03;3;  2.1054699E+00;  0.0000000E+00; -4.1751826E-01;0; -2.1323505E-01;  3.1061650E+04;  0.0000000E+00;  3.0819574E-01;  4.0000000E+04;  0.0000000E+00;  3.9978668E+04; -2.1813208E-01;  0.0000000E+00;  4.8970249E-03;  8.1095859E+03;
  6.9814795E-01;  9.9999998E-03; -1.9992909E-01;6665; -1.8901980E-01;  0.0000000E+00;  4.2796717E-03;  9.9444067E+02;  1.1280330E-01; -4.6057661E+03;3;  2.9030747E+00;  0.0000000E+00; -3.2784817E-01;0; -2.1439379E-01;  3.1068316E+04;  0.0000000E+00;  3.4989977E-01;  4.0000000E+04;  0.0000000E+00;  3.9979414E+04; -2.1669628E-01;  0.0000000E+00;  2.3024799E-03;  8.1858838E+03;
  6.9812369E-01;  9.9999998E-03; -1.8992029E-01;6666; -1.8937448E-01;  0.0000000E+00;  4.2546527E-03;  9.9436957E+02;  1.1278453E-01; -4.6646777E+03;3;  3.7118182E+00;  0.0000000E+00; -2.4635398E-01;0; -2.1583569E-01;  3.1071934E+04;  0.0000000E+00;  3.2493064E-01;  4.0000000E+04;  0.0000000E+00;  3.9979781E+04; -2.1541540E-01;  0.0000000E+00; -4.2028088E-04;  8.2268184E+03;
  6.9810200E-01;  9.9999998E-03; -1.7992209E-01;6667; -1.8969800E-01;  0.0000000E+00;  4.1908924E-03;  9.9425806E+02;  1.1276640E-01; -4.7570693E+03;3;  4.5153422E+00;  0.0000000E+00; -1.8238185E-01;0; -2.1759506E-01;  3.1072457E+04;  0.0000000E+00;  2.6762867E-01;  4.0000000E+04;  0.0000000E+00;  3.9980281E+04; -2.1437265E-01;  0.0000000E+00; -3.2224078E-03;  8.2946895E+03;
  6.9808018E-01;  9.9999998E-03; -1.6992925E-01;6668; -1.8999948E-01;  0.0000000E+00;  4.0977029E-03;  9.9409106E+02;  1.1274828E-01; -4.8953857E+03;3;  5.3093953E+00;  0.0000000E+00; -1.3561712E-01;0; -2.1967086E-01;  3.1069668E+04;  0.0000000E+00;  1.9697236E-01;  4.0000000E+04;  0.0000000E+00;  3.9980848E+04; -2.1363373E-01;  0.0000000E+00; -6.0371342E-03;  8.3572178E+03;
  6.9805706E-01;  9.9999998E-03; -1.5993792E-01;6669; -1.9028434E-01;  0.0000000E+00;  3.9809281E-03;  9.9386322E+02;  1.1273076E-01; -5.0841694E+03;3;  6.0919013E+00;  0.0000000E+00; -9.3389452E-02;0; -2.2203353E-01;  3.1063611E+04;  0.0000000E+00;  1.2347655E-01;  4.0000000E+04;  0.0000000E+00;  3.9980801E+04; -2.1324392E-01;  0.0000000E+00; -8.7896166E-03;  8.3619746E+03;
  6.9803250E-01;  9.9999998E-03; -1.4994499E-01;6670; -1.9055723E-01;  0.0000000E+00;  3.8434281E-03;  9.9357526E+02;  1.1271375E-01; -5.3227290E+03;3;  6.8539968E+00;  0.0000000E+00; -6.0424820E-02;0; -2.2463462E-01;  3.1054123E+04;  0.0000000E+00;  5.2779507E-02;  4.0000000E+04;  0.0000000E+00;  3.9980102E+04; -2.1322709E-01;  0.0000000E+00; -1.1407519E-02;  8.2824580E+03;
  6.9800484E-01;  9.9999998E-03; -1.3994874E-01;6671; -1.9082120E-01;  0.0000000E+00;  3.6874739E-03;  9.9322705E+02;  1.1269657E-01; -5.6112129E+03;3;  7.5922594E+00;  0.0000000E+00; -3.6416445E-02;0; -2.2742353E-01;  3.1041709E+04;  0.0000000E+00; -1.1551564E-02;  4.0000000E+04;  0.0000000E+00;  3.9978711E+04; -2.1358815E-01;  0.0000000E+00; -1.3835387E-02;  8.1275488E+03;
  6.9797206E-01;  9.9999998E-03; -1.2994938E-01;6672; -1.9107911E-01;  0.0000000E+00;  3.5144645E-03;  9.9283386E+02;  1.1267994E-01; -5.9369790E+03;3;  8.3010044E+00;  0.0000000E+00; -1.6237257E-02;0; -2.3036698E-01;  3.1027119E+04;  0.0000000E+00; -6.5669596E-02;  4.0000000E+04;  0.0000000E+00;  3.9976898E+04; -2.1431376E-01;  0.0000000E+00; -1.6053220E-02;  7.9307959E+03;
  6.9793171E-01;  9.9999998E-03; -1.1994806E-01;6673; -1.9133297E-01;  0.0000000E+00;  3.3253036E-03;  9.9241370E+02;  1.1266258E-01; -6.2850659E+03;3;  8.9762583E+00;  0.0000000E+00;  1.1351574E-03;0; -2.3344955E-01;  3.1011150E+04;  0.0000000E+00; -1.0588357E-01;  4.0000000E+04;  0.0000000E+00;  3.9975066E+04; -2.1537355E-01;  0.0000000E+00; -1.8076001E-02;  7.7305562E+03;
  6.9788277E-01;  9.9999998E-03; -1.0994624E-01;6674; -1.9158395E-01;  0.0000000E+00;  3.1204196E-03;  9.9198700E+02;  1.1264564E-01; -6.6385845E+03;3;  9.6124048E+00;  0.0000000E+00;  1.5884692E-02;0; -2.3665093E-01;  3.0994904E+04;  0.0000000E+00; -1.3014047E-01;  4.0000000E+04;  0.0000000E+00;  3.9973637E+04; -2.1672174E-01;  0.0000000E+00; -1.9929187E-02;  7.5539961E+03;
  7.1134555E-01;  9.9999998E-03; -2.7012655E-01;6719; -1.8847655E-01;  0.0000000E+00;  3.1889225E-03;  9.9312103E+02;  1.1622692E-01; -5.6990537E+03;3; -2.8053670E+00;  0.0000000E+00; -2.5930409E+00;0; -1.7811689E-01;  2.9212572E+04;  0.0000000E+00; -5.0463400E+00;  4.0000000E+04;  0.0000000E+00;  3.9972973E+04; -2.0982748E-01;  0.0000000E+00;  3.1710599E-02;  1.4621556E+04;
  7.1108651E-01;  9.9999998E-03; -2.6009545E-01;6720; -1.8918303E-01;  0.0000000E+00;  3.9008290E-03;  9.9312732E+02;  1.1615573E-01; -5.6938193E+03;3; -2.0609703E+00;  0.0000000E+00; -2.3269532E+00;0; -1.8712398E-01;  2.9241387E+04;  0.0000000E+00; -3.1106277E+00;  4.0000000E+04;  0.0000000E+00;  3.9981410E+04; -2.0865272E-01;  0.0000000E+00;  2.1528736E-02;  1.2989599E+04;
  7.1086395E-01;  9.9999998E-03; -2.5007537E-01;6721; -1.8976787E-01;  0.0000000E+00;  5.0461451E-03;  9.9300549E+02;  1.1609198E-01; -5.7947544E+03;3; -1.2854191E+00;  0.0000000E+00; -1.9246354E+00;0; -1.9657083E-01;  2.9267635E+04;  0.0000000E+00; -1.5968108E+00;  4.0000000E+04;  0.0000000E+00;  3.9978395E+04; -2.0753504E-01;  0.0000000E+00;  1.0964208E-02;  1.1295815E+04;
  7.1070009E-01;  9.9999998E-03; -2.4008128E-01;6722; -1.9030581E-01;  0.0000000E+00;  5.9179785E-03;  9.9278729E+02;  1.1603996E-01; -5.9755381E+03;3; -4.9166423E-01;  0.0000000E+00; -1.5771731E+00;0; -2.0090878E-01;  2.9288844E+04;  0.0000000E+00; -5.6184417E-01;  4.0000000E+04;  0.0000000E+00;  3.9965594E+04; -2.0641841E-01;  0.0000000E+00;  5.5096284E-03;  9.1624580E+03;
  7.1055889E-01;  9.9999998E-03; -2.3011060E-01;6723; -1.9080009E-01;  0.0000000E+00;  6.2113469E-03;  9.9260266E+02;  1.1599202E-01; -6.1285200E+03;3;  3.0329302E-01;  0.0000000E+00; -1.3893929E+00;0; -2.0173666E-01;  2.9308955E+04;  0.0000000E+00;  5.3341124E-02;  4.0000000E+04;  0.0000000E+00;  3.9953676E+04; -2.0534302E-01;  0.0000000E+00;  3.6063688E-03;  7.4894917E+03;
  7.1043700E-01;  9.9999998E-03; -2.2013499E-01;6724; -1.9124682E-01;  0.0000000E+00;  6.1634849E-03;  9.9254285E+02;  1.1594686E-01; -6.1780493E+03;3;  1.1137152E+00;  0.0000000E+00; -1.2530199E+00;0; -2.0210764E-01;  2.9327910E+04;  0.0000000E+00;  3.7934804E-01;  4.0000000E+04;  0.0000000E+00;  3.9950797E+04; -2.0427504E-01;  0.0000000E+00;  2.1673983E-03;  7.0870264E+03;
  7.1032733E-01;  9.9999998E-03; -2.1013205E-01;6725; -1.9163911E-01;  0.0000000E+00;  6.0266908E-03;  9.9257336E+02;  1.1590397E-01; -6.1527661E+03;3;  1.9467922E+00;  0.0000000E+00; -1.1350175E+00;0; -2.0307110E-01;  2.9346104E+04;  0.0000000E+00;  5.2555841E-01;  4.0000000E+04;  0.0000000E+00;  3.9954312E+04; -2.0321409E-01;  0.0000000E+00;  1.4299851E-04;  7.5155107E+03;
  7.1025157E-01;  9.9999998E-03; -2.0011793E-01;6726; -1.9198740E-01;  0.0000000E+00;  5.8830278E-03;  9.9259058E+02;  1.1586834E-01; -6.1385444E+03;3;  2.7920654E+00;  0.0000000E+00; -1.0377122E+00;0; -2.0453307E-01;  2.9360117E+04;  0.0000000E+00;  5.6903744E-01;  4.0000000E+04;  0.0000000E+00;  3.9957770E+04; -2.0214528E-01;  0.0000000E+00; -2.3877944E-03;  7.9471938E+03;
  7.1020395E-01;  9.9999998E-03; -1.9011003E-01;6727; -1.9230257E-01;  0.0000000E+00;  5.7304879E-03;  9.9255713E+02;  1.1583933E-01; -6.1662471E+03;3;  3.6406763E+00;  0.0000000E+00; -9.4973892E-01;0; -2.0636043E-01;  2.9369576E+04;  0.0000000E+00;  5.5537230E-01;  4.0000000E+04;  0.0000000E+00;  3.9959840E+04; -2.0115535E-01;  0.0000000E+00; -5.2050869E-03;  8.1955898E+03;
  7.1016890E-01;  9.9999998E-03; -1.8011200E-01;6728; -1.9259720E-01;  0.0000000E+00;  5.5585313E-03;  9.9247534E+02;  1.1581288E-01; -6.2339985E+03;3;  4.4873185E+00;  0.0000000E+00; -8.6227727E-01;0; -2.0851769E-01;  2.9375314E+04;  0.0000000E+00;  5.1102686E-01;  4.0000000E+04;  0.0000000E+00;  3.9960977E+04; -2.0036091E-01;  0.0000000E+00; -8.1567820E-03;  8.3174668E+03;
  7.1014780E-01;  9.9999998E-03; -1.7012018E-01;6729; -1.9288275E-01;  0.0000000E+00;  5.3687706E-03;  9.9233466E+02;  1.1578979E-01; -6.3505376E+03;3;  5.3320937E+00;  0.0000000E+00; -7.8505021E-01;0; -2.1097337E-01;  2.9376408E+04;  0.0000000E+00;  4.5162767E-01;  4.0000000E+04;  0.0000000E+00;  3.9961332E+04; -1.9983511E-01;  0.0000000E+00; -1.1138264E-02;  8.3411807E+03;
  7.1013767E-01;  9.9999998E-03; -1.6013046E-01;6730; -1.9316553E-01;  0.0000000E+00;  5.1633958E-03;  9.9211548E+02;  1.1576968E-01; -6.5321113E+03;3;  6.1659241E+00;  0.0000000E+00; -7.2334129E-01;0; -2.1368620E-01;  2.9372559E+04;  0.0000000E+00;  3.8696966E-01;  4.0000000E+04;  0.0000000E+00;  3.9960793E+04; -1.9962944E-01;  0.0000000E+00; -1.4056760E-02;  8.2658926E+03;
  7.1013689E-01;  9.9999998E-03; -1.5013912E-01;6731; -1.9345061E-01;  0.0000000E+00;  4.9428223E-03;  9.9182434E+02;  1.1575223E-01; -6.7733369E+03;3;  6.9806819E+00;  0.0000000E+00; -6.6443461E-01;0; -2.1659783E-01;  2.9363738E+04;  0.0000000E+00;  3.2317382E-01;  4.0000000E+04;  0.0000000E+00;  3.9959379E+04; -1.9976602E-01;  0.0000000E+00; -1.6831797E-02;  8.1011543E+03;
  7.1014410E-01;  9.9999998E-03; -1.4014323E-01;6732; -1.9374059E-01;  0.0000000E+00;  4.7074063E-03;  9.9146075E+02;  1.1573748E-01; -7.0745610E+03;3;  7.7639780E+00;  0.0000000E+00; -6.0965127E-01;0; -2.1965034E-01;  2.9350143E+04;  0.0000000E+00;  2.6319209E-01;  4.0000000E+04;  0.0000000E+00;  3.9957480E+04; -2.0024350E-01;  0.0000000E+00; -1.9406846E-02;  7.8767339E+03;
  7.1015376E-01;  9.9999998E-03; -1.3014227E-01;6733; -1.9403611E-01;  0.0000000E+00;  4.4568847E-03;  9.9104199E+02;  1.1572482E-01; -7.4214619E+03;3;  8.5176611E+00;  0.0000000E+00; -5.5342454E-01;0; -2.2281651E-01;  2.9332697E+04;  0.0000000E+00;  2.0858060E-01;  4.0000000E+04;  0.0000000E+00;  3.9955293E+04; -2.0105176E-01;  0.0000000E+00; -2.1764761E-02;  7.6318755E+03;
  7.1016121E-01;  9.9999998E-03; -1.2013669E-01;6734; -1.9433741E-01;  0.0000000E+00;  4.1921665E-03;  9.9058447E+02;  1.1571329E-01; -7.8005103E+03;3;  9.2347622E+00;  0.0000000E+00; -4.9997851E-01;0; -2.2609684E-01;  2.9312553E+04;  0.0000000E+00;  1.6085137E-01;  4.0000000E+04;  0.0000000E+00;  3.9953258E+04; -2.0216943E-01;  0.0000000E+00; -2.3927398E-02;  7.4011655E+03;
  7.1016145E-01;  9.9999998E-03; -1.1012796E-01;6735; -1.9464330E-01;  0.0000000E+00;  3.9136121E-03;  9.9010284E+02;  1.1570226E-01; -8.1995576E+03;3;  9.9112434E+00;  0.0000000E+00; -4.4758564E-01;0; -2.2949055E-01;  2.9291182E+04;  0.0000000E+00;  1.2090429E-01;  4.0000000E+04;  0.0000000E+00;  3.9951414E+04; -2.0356490E-01;  0.0000000E+00; -2.5925653E-02;  7.2077700E+03;
  7.2351128E-01;  9.9999998E-03; -2.7019405E-01;6780; -1.9235449E-01;  0.0000000E+00;  4.9691177E-03;  9.9203851E+02;  1.1966585E-01; -6.5959004E+03;3; -3.2209268E+00;  0.0000000E+00; -3.4440529E+00;0; -1.3790409E-01;  2.7507055E+04;  0.0000000E+00; -4.9645553E+00;  4.0000000E+04;  0.0000000E+00;  3.9968055E+04; -1.6431645E-01;  0.0000000E+00;  2.6412355E-02;  1.6416301E+04;
  7.2347564E-01;  9.9999998E-03; -2.6016313E-01;6781; -1.9297287E-01;  0.0000000E+00;  5.9775854E-03;  9.9198065E+02;  1.1963838E-01; -6.6437998E+03;3; -2.4617445E+00;  0.0000000E+00; -3.0912554E+00;0; -1.4898908E-01;  2.7511521E+04;  0.0000000E+00; -2.8620987E+00;  4.0000000E+04;  0.0000000E+00;  3.9974441E+04; -1.6294293E-01;  0.0000000E+00;  1.3953855E-02;  1.4520743E+04;
  7.2332472E-01;  9.9999998E-03; -2.5014687E-01;6782; -1.9343242E-01;  0.0000000E+00;  7.2839702E-03;  9.9176160E+02;  1.1958120E-01; -6.8252744E+03;3; -1.6513621E+00;  0.0000000E+00; -2.6872220E+00;0; -1.5942004E-01;  2.7530771E+04;  0.0000000E+00; -1.3520105E+00;  4.0000000E+04;  0.0000000E+00;  3.9966906E+04; -1.6258433E-01;  0.0000000E+00;  3.1642965E-03;  1.2372136E+04;
  7.2319567E-01;  9.9999998E-03; -2.4016184E-01;6783; -1.9384605E-01;  0.0000000E+00;  8.1035271E-03;  9.9144244E+02;  1.1952858E-01; -7.0897090E+03;3; -8.1280315E-01;  0.0000000E+00; -2.3610926E+00;0; -1.6364636E-01;  2.7549080E+04;  0.0000000E+00; -3.6048314E-01;  4.0000000E+04;  0.0000000E+00;  3.9948961E+04; -1.6251482E-01;  0.0000000E+00; -1.1315285E-03;  9.6612275E+03;
  7.2310460E-01;  9.9999998E-03; -2.3020591E-01;6784; -1.9422138E-01;  0.0000000E+00;  8.2811005E-03;  9.9117877E+02;  1.1948425E-01; -7.3081699E+03;3;  2.8123813E-02;  0.0000000E+00; -2.1986415E+00;0; -1.6470310E-01;  2.7564721E+04;  0.0000000E+00;  2.2224657E-01;  4.0000000E+04;  0.0000000E+00;  3.9932637E+04; -1.6259542E-01;  0.0000000E+00; -2.1076740E-03;  7.4893784E+03;
  7.2302639E-01;  9.9999998E-03; -2.2025530E-01;6785; -1.9455603E-01;  0.0000000E+00;  8.0906879E-03;  9.9106879E+02;  1.1944310E-01; -7.3992778E+03;3;  8.9209056E-01;  0.0000000E+00; -2.0598152E+00;0; -1.6590355E-01;  2.7580469E+04;  0.0000000E+00;  5.2611250E-01;  4.0000000E+04;  0.0000000E+00;  3.9926293E+04; -1.6288422E-01;  0.0000000E+00; -3.0193285E-03;  6.6695322E+03;
  7.2295773E-01;  9.9999998E-03; -2.1028507E-01;6786; -1.9485524E-01;  0.0000000E+00;  7.8005823E-03;  9.9108282E+02;  1.1940344E-01; -7.3876235E+03;3;  1.7678404E+00;  0.0000000E+00; -1.9487352E+00;0; -1.6816434E-01;  2.7596447E+04;  0.0000000E+00;  6.6293836E-01;  4.0000000E+04;  0.0000000E+00;  3.9927941E+04; -1.6333000E-01;  0.0000000E+00; -4.8343418E-03;  6.8864551E+03;
  7.2289735E-01;  9.9999998E-03; -2.0028955E-01;6787; -1.9512090E-01;  0.0000000E+00;  7.5141494E-03;  9.9113940E+02;  1.1936532E-01; -7.3407617E+03;3;  2.6593747E+00;  0.0000000E+00; -1.8302536E+00;0; -1.7126261E-01;  2.7612338E+04;  0.0000000E+00;  7.0692599E-01;  4.0000000E+04;  0.0000000E+00;  3.9932121E+04; -1.6389632E-01;  0.0000000E+00; -7.3662787E-03;  7.3911533E+03;
  7.2285211E-01;  9.9999998E-03; -1.9028646E-01;6788; -1.9536968E-01;  0.0000000E+00;  7.2364449E-03;  9.9117029E+02;  1.1933077E-01; -7.3151826E+03;3;  3.5421147E+00;  0.0000000E+00; -1.7403656E+00;0; -1.7484990E-01;  2.7626131E+04;  0.0000000E+00;  7.0148897E-01;  4.0000000E+04;  0.0000000E+00;  3.9935012E+04; -1.6455516E-01;  0.0000000E+00; -1.0294743E-02;  7.7296064E+03;
  7.2283065E-01;  9.9999998E-03; -1.8028462E-01;6789; -1.9561502E-01;  0.0000000E+00;  6.9586243E-03;  9.9115436E+02;  1.1930235E-01; -7.3283672E+03;3;  4.4342437E+00;  0.0000000E+00; -1.6577196E+00;0; -1.7872304E-01;  2.7635957E+04;  0.0000000E+00;  6.7068869E-01;  4.0000000E+04;  0.0000000E+00;  3.9936148E+04; -1.6531432E-01;  0.0000000E+00; -1.3408720E-02;  7.8647954E+03;
  7.2283298E-01;  9.9999998E-03; -1.7028637E-01;6790; -1.9586746E-01;  0.0000000E+00;  6.6742385E-03;  9.9108112E+02;  1.1928004E-01; -7.3890562E+03;3;  5.3239622E+00;  0.0000000E+00; -1.5594453E+00;0; -1.8280408E-01;  2.7640492E+04;  0.0000000E+00;  6.2794065E-01;  4.0000000E+04;  0.0000000E+00;  3.9936074E+04; -1.6623659E-01;  0.0000000E+00; -1.6567491E-02;  7.8407158E+03;
  7.2285694E-01;  9.9999998E-03; -1.6029027E-01;6791; -1.9613397E-01;  0.0000000E+00;  6.3804178E-03;  9.9093707E+02;  1.1926365E-01; -7.5084097E+03;3;  6.1938024E+00;  0.0000000E+00; -1.4646776E+00;0; -1.8704155E-01;  2.7639334E+04;  0.0000000E+00;  5.8181316E-01;  4.0000000E+04;  0.0000000E+00;  3.9935004E+04; -1.6737509E-01;  0.0000000E+00; -1.9666459E-02;  7.7014810E+03;
  7.2289908E-01;  9.9999998E-03; -1.5029459E-01;6792; -1.9641811E-01;  0.0000000E+00;  6.0752742E-03;  9.9071875E+02;  1.1925213E-01; -7.6892920E+03;3;  7.0515423E+00;  0.0000000E+00; -1.3740505E+00;0; -1.9137010E-01;  2.7632322E+04;  0.0000000E+00;  5.3780198E-01;  4.0000000E+04;  0.0000000E+00;  3.9933262E+04; -1.6874518E-01;  0.0000000E+00; -2.2624927E-02;  7.4901079E+03;
  7.2295672E-01;  9.9999998E-03; -1.4029567E-01;6793; -1.9672154E-01;  0.0000000E+00;  5.7576634E-03;  9.9042737E+02;  1.1924560E-01; -7.9306650E+03;3;  7.8872294E+00;  0.0000000E+00; -1.2823995E+00;0; -1.9571924E-01;  2.7619643E+04;  0.0000000E+00;  4.9763522E-01;  4.0000000E+04;  0.0000000E+00;  3.9931156E+04; -1.7032750E-01;  0.0000000E+00; -2.5391746E-02;  7.2508037E+03;
  7.2302413E-01;  9.9999998E-03; -1.3029145E-01;6794; -1.9704457E-01;  0.0000000E+00;  5.4271044E-03;  9.9007770E+02;  1.1924303E-01; -8.2203828E+03;3;  8.7029114E+00;  0.0000000E+00; -1.1844696E+00;0; -2.0005073E-01;  2.7601930E+04;  0.0000000E+00;  4.5967358E-01;  4.0000000E+04;  0.0000000E+00;  3.9929207E+04; -1.7209511E-01;  0.0000000E+00; -2.7955623E-02;  7.0203999E+03;
  7.2309345E-01;  9.9999998E-03; -1.2028206E-01;6795; -1.9738664E-01;  0.0000000E+00;  5.0842115E-03;  9.8967987E+02;  1.1924306E-01; -8.5499502E+03;3;  9.4923325E+00;  0.0000000E+00; -1.0861781E+00;0; -2.0436771E-01;  2.7580912E+04;  0.0000000E+00;  4.2129174E-01;  4.0000000E+04;  0.0000000E+00;  3.9927242E+04; -1.7402600E-01;  0.0000000E+00; -3.0341711E-02;  6.8224980E+03;
  7.2315741E-01;  9.9999998E-03; -1.1026825E-01;6796; -1.9774483E-01;  0.0000000E+00;  4.7298078E-03;  9.8925165E+02;  1.1924362E-01; -8.9047021E+03;3;  1.0230624E+01;  0.0000000E+00; -9.9073368E-01;0; -2.0867974E-01;  2.7557838E+04;  0.0000000E+00;  3.8014835E-01;  4.0000000E+04;  0.0000000E+00;  3.9925887E+04; -1.7609639E-01;  0.0000000E+00; -3.2583337E-02;  6.6692949E+03;
  7.3506659E-01;  9.9999998E-03; -2.7026549E-01;6841; -1.9633639E-01;  0.0000000E+00;  6.9192736E-03;  9.9091583E+02;  1.2312488E-01; -7.5259751E+03;3; -3.6538556E+00;  0.0000000E+00; -4.1895981E+00;0; -6.4427689E-02;  2.5933969E+04;  0.0000000E+00; -4.4058995E+00;  4.0000000E+04;  0.0000000E+00;  3.9960648E+04; -8.4249340E-02;  0.0000000E+00;  1.9821651E-02;  1.7145711E+04;
  7.3516667E-01;  9.9999998E-03; -2.6023683E-01;6842; -1.9678468E-01;  0.0000000E+00;  8.0844695E-03;  9.9086096E+02;  1.2313356E-01; -7.5714551E+03;3; -2.8548331E+00;  0.0000000E+00; -3.7894671E+00;0; -7.5934246E-02;  2.5925959E+04;  0.0000000E+00; -2.6471882E+00;  4.0000000E+04;  0.0000000E+00;  3.9963137E+04; -8.2639270E-02;  0.0000000E+00;  6.7050252E-03;  1.5434177E+04;
  7.3524392E-01;  9.9999998E-03; -2.5022537E-01;6843; -1.9712637E-01;  0.0000000E+00;  9.3353204E-03;  9.9062671E+02;  1.2313496E-01; -7.7655215E+03;3; -2.0154369E+00;  0.0000000E+00; -3.4387848E+00;0; -8.4681518E-02;  2.5921551E+04;  0.0000000E+00; -1.2899894E+00;  4.0000000E+04;  0.0000000E+00;  3.9950855E+04; -8.1964985E-02;  0.0000000E+00; -2.7165308E-03;  1.2927478E+04;
  7.3531109E-01;  9.9999998E-03; -2.4024105E-01;6844; -1.9741656E-01;  0.0000000E+00;  9.9867005E-03;  9.9031927E+02;  1.2313367E-01; -8.0202271E+03;3; -1.1587000E+00;  0.0000000E+00; -3.2351756E+00;0; -8.7848939E-02;  2.5919607E+04;  0.0000000E+00; -3.7159398E-01;  4.0000000E+04;  0.0000000E+00;  3.9930625E+04; -8.2148977E-02;  0.0000000E+00; -5.6999633E-03;  1.0011667E+04;
  7.3536599E-01;  9.9999998E-03; -2.3028095E-01;6845; -1.9765784E-01;  0.0000000E+00;  1.0016112E-02;  9.9008099E+02;  1.2312611E-01; -8.2176016E+03;3; -2.7303281E-01;  0.0000000E+00; -3.0733945E+00;0; -8.9347303E-02;  2.5921271E+04;  0.0000000E+00;  1.8200022E-01;  4.0000000E+04;  0.0000000E+00;  3.9913387E+04; -8.3172753E-02;  0.0000000E+00; -6.1745476E-03;  7.7220479E+03;
  7.3538762E-01;  9.9999998E-03; -2.2032906E-01;6846; -1.9785579E-01;  0.0000000E+00;  9.7217923E-03;  9.8998969E+02;  1.2310817E-01; -8.2932529E+03;3;  6.4233536E-01;  0.0000000E+00; -2.9387262E+00;0; -9.2235617E-02;  2.5928770E+04;  0.0000000E+00;  4.8253736E-01;  4.0000000E+04;  0.0000000E+00;  3.9904629E+04; -8.5127324E-02;  0.0000000E+00; -7.1082902E-03;  6.6252642E+03;
  7.3538041E-01;  9.9999998E-03; -2.1036758E-01;6847; -1.9802700E-01;  0.0000000E+00;  9.3337875E-03;  9.9002521E+02;  1.2308230E-01; -8.2638223E+03;3;  1.5671031E+00;  0.0000000E+00; -2.8313930E+00;0; -9.6980639E-02;  2.5941260E+04;  0.0000000E+00;  6.2672496E-01;  4.0000000E+04;  0.0000000E+00;  3.9903438E+04; -8.7858960E-02;  0.0000000E+00; -9.1216788E-03;  6.4719253E+03;
  7.3534030E-01;  9.9999998E-03; -2.0038688E-01;6848; -1.9817945E-01;  0.0000000E+00;  8.9474153E-03;  9.9012238E+02;  1.2304551E-01; -8.1833315E+03;3;  2.5067701E+00;  0.0000000E+00; -2.7181458E+00;0; -1.0319243E-01;  2.5958969E+04;  0.0000000E+00;  6.8158180E-01;  4.0000000E+04;  0.0000000E+00;  3.9905340E+04; -9.1275565E-02;  0.0000000E+00; -1.1916867E-02;  6.7018267E+03;
  7.3526716E-01;  9.9999998E-03; -1.9038753E-01;6849; -1.9832346E-01;  0.0000000E+00;  8.5704271E-03;  9.9022742E+02;  1.2299914E-01; -8.0963232E+03;3;  3.4506154E+00;  0.0000000E+00; -2.6111486E+00;0; -1.1037879E-01;  2.5981072E+04;  0.0000000E+00;  6.8854082E-01;  4.0000000E+04;  0.0000000E+00;  3.9907270E+04; -9.5256887E-02;  0.0000000E+00; -1.5121898E-02;  6.9187358E+03;
  7.3519474E-01;  9.9999998E-03; -1.8038291E-01;6850; -1.9847751E-01;  0.0000000E+00;  8.1989132E-03;  9.9030347E+02;  1.2295335E-01; -8.0333135E+03;3;  4.3927441E+00;  0.0000000E+00; -2.4933226E+00;0; -1.1797835E-01;  2.6002725E+04;  0.0000000E+00;  6.7213637E-01;  4.0000000E+04;  0.0000000E+00;  3.9908039E+04; -9.9476628E-02;  0.0000000E+00; -1.8501718E-02;  6.9702891E+03;
  7.3514414E-01;  9.9999998E-03; -1.7037445E-01;6851; -1.9866109E-01;  0.0000000E+00;  7.8283390E-03;  9.9033496E+02;  1.2291300E-01; -8.0071909E+03;3;  5.3026977E+00;  0.0000000E+00; -2.3749037E+00;0; -1.2568252E-01;  2.6020268E+04;  0.0000000E+00;  6.4693362E-01;  4.0000000E+04;  0.0000000E+00;  3.9907531E+04; -1.0377113E-01;  0.0000000E+00; -2.1911394E-02;  6.8872065E+03;
  7.3512912E-01;  9.9999998E-03; -1.6036384E-01;6852; -1.9888012E-01;  0.0000000E+00;  7.4529639E-03;  9.9030890E+02;  1.2288254E-01; -8.0288198E+03;3;  6.2216210E+00;  0.0000000E+00; -2.2519140E+00;0; -1.3330826E-01;  2.6031162E+04;  0.0000000E+00;  6.2225401E-01;  4.0000000E+04;  0.0000000E+00;  3.9906309E+04; -1.0805781E-01;  0.0000000E+00; -2.5250457E-02;  6.7206396E+03;
  7.3514920E-01;  9.9999998E-03; -1.5035318E-01;6853; -1.9913693E-01;  0.0000000E+00;  7.0703337E-03;  9.9022241E+02;  1.2286253E-01; -8.1004712E+03;3;  7.1179652E+00;  0.0000000E+00; -2.1252246E+00;0; -1.4077140E-01;  2.6034896E+04;  0.0000000E+00;  6.0359836E-01;  4.0000000E+04;  0.0000000E+00;  3.9904688E+04; -1.1232466E-01;  0.0000000E+00; -2.8446741E-02;  6.5254517E+03;
  7.3519707E-01;  9.9999998E-03; -1.4034088E-01;6854; -1.9943064E-01;  0.0000000E+00;  6.6790902E-03;  9.9007220E+02;  1.2285093E-01; -8.2249111E+03;3;  7.9875383E+00;  0.0000000E+00; -1.9958485E+00;0; -1.4801794E-01;  2.6031836E+04;  0.0000000E+00;  5.9167910E-01;  4.0000000E+04;  0.0000000E+00;  3.9903102E+04; -1.1655617E-01;  0.0000000E+00; -3.1461772E-02;  6.3463833E+03;
  7.3526263E-01;  9.9999998E-03; -1.3032588E-01;6855; -1.9975744E-01;  0.0000000E+00;  6.2782499E-03;  9.8986694E+02;  1.2284561E-01; -8.3949287E+03;3;  8.8314104E+00;  0.0000000E+00; -1.8627379E+00;0; -1.5501954E-01;  2.6023279E+04;  0.0000000E+00;  5.8191150E-01;  4.0000000E+04;  0.0000000E+00;  3.9901855E+04; -1.2072418E-01;  0.0000000E+00; -3.4295361E-02;  6.2084956E+03;
  7.3533475E-01;  9.9999998E-03; -1.2030710E-01;6856; -2.0011304E-01;  0.0000000E+00;  5.8685029E-03;  9.8961633E+02;  1.2284368E-01; -8.6025742E+03;3;  9.6403608E+00;  0.0000000E+00; -1.7256970E+00;0; -1.6178136E-01;  2.6010721E+04;  0.0000000E+00;  5.6704664E-01;  4.0000000E+04;  0.0000000E+00;  3.9900918E+04; -1.2480448E-01;  0.0000000E+00; -3.6976878E-02;  6.1172456E+03;
  7.3540395E-01;  9.9999998E-03; -1.1028537E-01;6857; -2.0049231E-01;  0.0000000E+00;  5.4506310E-03;  9.8933142E+02;  1.2284407E-01; -8.8386143E+03;3;  1.0409508E+01;  0.0000000E+00; -1.5855489E+00;0; -1.6830841E-01;  2.5995715E+04;  0.0000000E+00;  5.4042506E-01;  4.0000000E+04;  0.0000000E+00;  3.9900410E+04; -1.2877095E-01;  0.0000000E+00; -3.9537460E-02;  6.0670366E+03;
  7.4725890E-01;  9.9999998E-03; -2.7034855E-01;6902; -2.0055714E-01;  0.0000000E+00;  9.1199465E-03;  9.8993109E+02;  1.2687105E-01; -8.3417764E+03;3; -4.1278448E+00;  0.0000000E+00; -4.8381014E+00;0;  6.1622959E-02;  2.4389705E+04;  0.0000000E+00; -1.7787784E+00;  4.0000000E+04;  0.0000000E+00;  3.9946863E+04;  4.7319584E-02;  0.0000000E+00;  1.4303376E-02;  1.5282613E+04;
  7.4733472E-01;  9.9999998E-03; -2.6032218E-01;6903; -2.0073824E-01;  0.0000000E+00;  1.0163447E-02;  9.8992987E+02;  1.2686984E-01; -8.3428135E+03;3; -3.3058052E+00;  0.0000000E+00; -4.5993204E+00;0;  5.0535239E-02;  2.4391002E+04;  0.0000000E+00; -1.2869334E+00;  4.0000000E+04;  0.0000000E+00;  3.9944820E+04;  4.7607288E-02;  0.0000000E+00;  2.9279527E-03;  1.4723145E+04;
  7.4741298E-01;  9.9999998E-03; -2.5031161E-01;6904; -2.0086591E-01;  0.0000000E+00;  1.1143804E-02;  9.8975482E+02;  1.2687007E-01; -8.4878438E+03;3; -2.4287775E+00;  0.0000000E+00; -4.3563895E+00;0;  4.2472146E-02;  2.4392631E+04;  0.0000000E+00; -7.4096453E-01;  4.0000000E+04;  0.0000000E+00;  3.9929582E+04;  4.6922073E-02;  0.0000000E+00; -4.4499272E-03;  1.2592195E+04;
  7.4748057E-01;  9.9999998E-03; -2.4031857E-01;6905; -2.0094021E-01;  0.0000000E+00;  1.1507194E-02;  9.8954053E+02;  1.2686545E-01; -8.6653672E+03;3; -1.5280744E+00;  0.0000000E+00; -4.1936941E+00;0;  3.8461756E-02;  2.4396514E+04;  0.0000000E+00; -2.6408371E-01;  4.0000000E+04;  0.0000000E+00;  3.9910238E+04;  4.4987824E-02;  0.0000000E+00; -6.5260688E-03;  1.0041412E+04;
  7.4755430E-01;  9.9999998E-03; -2.3033629E-01;6906; -2.0098399E-01;  0.0000000E+00;  1.1362451E-02;  9.8940625E+02;  1.2686196E-01; -8.7766221E+03;3; -5.9217030E-01;  0.0000000E+00; -4.0475707E+00;0;  3.4647826E-02;  2.4401031E+04;  0.0000000E+00;  9.0185843E-02;  4.0000000E+04;  0.0000000E+00;  3.9895352E+04;  4.1982342E-02;  0.0000000E+00; -7.3345145E-03;  8.0728960E+03;
  7.4761260E-01;  9.9999998E-03; -2.2036023E-01;6907; -2.0100640E-01;  0.0000000E+00;  1.0991607E-02;  9.8937970E+02;  1.2685396E-01; -8.7985967E+03;3;  3.7280944E-01;  0.0000000E+00; -3.9162440E+00;0;  2.8591551E-02;  2.4408592E+04;  0.0000000E+00;  3.2064870E-01;  4.0000000E+04;  0.0000000E+00;  3.9885824E+04;  3.7680481E-02;  0.0000000E+00; -9.0889307E-03;  6.8481021E+03;
  7.4763602E-01;  9.9999998E-03; -2.1038483E-01;6908; -2.0101662E-01;  0.0000000E+00;  1.0562112E-02;  9.8944128E+02;  1.2683651E-01; -8.7475859E+03;3;  1.3468232E+00;  0.0000000E+00; -3.8001945E+00;0;  1.9999456E-02;  2.4421068E+04;  0.0000000E+00;  4.5327735E-01;  4.0000000E+04;  0.0000000E+00;  3.9880875E+04;  3.1957891E-02;  0.0000000E+00; -1.1958434E-02;  6.2202822E+03;
  7.4763739E-01;  9.9999998E-03; -2.0040730E-01;6909; -2.0103635E-01;  0.0000000E+00;  1.0124862E-02;  9.8956958E+02;  1.2681316E-01; -8.6412695E+03;3;  2.3360758E+00;  0.0000000E+00; -3.6841578E+00;0;  9.6016498E-03;  2.4437172E+04;  0.0000000E+00;  5.1629943E-01;  4.0000000E+04;  0.0000000E+00;  3.9878664E+04;  2.5126625E-02;  0.0000000E+00; -1.5524975E-02;  5.9251694E+03;
  7.4760520E-01;  9.9999998E-03; -1.9041868E-01;6910; -2.0107365E-01;  0.0000000E+00;  9.6936645E-03;  9.8972552E+02;  1.2677869E-01; -8.5120898E+03;3;  3.3270571E+00;  0.0000000E+00; -3.5568347E+00;0; -2.1930281E-03;  2.4457980E+04;  0.0000000E+00;  5.3436661E-01;  4.0000000E+04;  0.0000000E+00;  3.9877664E+04;  1.7237147E-02;  0.0000000E+00; -1.9430175E-02;  5.7881162E+03;
  7.4754924E-01;  9.9999998E-03; -1.8041733E-01;6911; -2.0113899E-01;  0.0000000E+00;  9.2635369E-03;  9.8988855E+02;  1.2673600E-01; -8.3770342E+03;3;  4.3155046E+00;  0.0000000E+00; -3.4215794E+00;0; -1.4849914E-02;  2.4481871E+04;  0.0000000E+00;  5.2832562E-01;  4.0000000E+04;  0.0000000E+00;  3.9876867E+04;  8.5864682E-03;  0.0000000E+00; -2.3436382E-02;  5.6643457E+03;
  7.4750942E-01;  9.9999998E-03; -1.7041367E-01;6912; -2.0124702E-01;  0.0000000E+00;  8.8335946E-03;  9.9003864E+02;  1.2669697E-01; -8.2526934E+03;3;  5.2926917E+00;  0.0000000E+00; -3.2820907E+00;0; -2.7645376E-02;  2.4503791E+04;  0.0000000E+00;  5.1492566E-01;  4.0000000E+04;  0.0000000E+00;  3.9875871E+04; -2.3796200E-04;  0.0000000E+00; -2.7407413E-02;  5.5066255E+03;
  7.4748677E-01;  9.9999998E-03; -1.6040614E-01;6913; -2.0140710E-01;  0.0000000E+00;  8.4006963E-03;  9.9015356E+02;  1.2666212E-01; -8.1574873E+03;3;  6.2315693E+00;  0.0000000E+00; -3.1236308E+00;0; -4.0384181E-02;  2.4522363E+04;  0.0000000E+00;  5.0700468E-01;  4.0000000E+04;  0.0000000E+00;  3.9874762E+04; -9.1343075E-03;  0.0000000E+00; -3.1249871E-02;  5.3498765E+03;
  7.4748445E-01;  9.9999998E-03; -1.5039383E-01;6914; -2.0162317E-01;  0.0000000E+00;  7.9622744E-03;  9.9022900E+02;  1.2663202E-01; -8.0949717E+03;3;  7.1674428E+00;  0.0000000E+00; -2.9615762E+00;0; -5.2883700E-02;  2.4536682E+04;  0.0000000E+00;  5.1174599E-01;  4.0000000E+04;  0.0000000E+00;  3.9873848E+04; -1.7978111E-02;  0.0000000E+00; -3.4905586E-02;  5.2328384E+03;
  7.4750686E-01;  9.9999998E-03; -1.4037523E-01;6915; -2.0189142E-01;  0.0000000E+00;  7.5159245E-03;  9.9025909E+02;  1.2660933E-01; -8.0700342E+03;3;  8.0744295E+00;  0.0000000E+00; -2.7892406E+00;0; -6.4954758E-02;  2.4545680E+04;  0.0000000E+00;  5.2918798E-01;  4.0000000E+04;  0.0000000E+00;  3.9873387E+04; -2.6596133E-02;  0.0000000E+00; -3.8358625E-02;  5.1846758E+03;
  7.4755222E-01;  9.9999998E-03; -1.3034955E-01;6916; -2.0220804E-01;  0.0000000E+00;  7.0622638E-03;  9.9024561E+02;  1.2659422E-01; -8.0812437E+03;3;  8.9581499E+00;  0.0000000E+00; -2.6133687E+00;0; -7.6484963E-02;  2.4549398E+04;  0.0000000E+00;  5.5224746E-01;  4.0000000E+04;  0.0000000E+00;  3.9873426E+04; -3.4850854E-02;  0.0000000E+00; -4.1634105E-02;  5.2110127E+03;
  7.4761385E-01;  9.9999998E-03; -1.2031989E-01;6917; -2.0256610E-01;  0.0000000E+00;  6.6017411E-03;  9.9019666E+02;  1.2658542E-01; -8.1217852E+03;3;  9.8037062E+00;  0.0000000E+00; -2.4333236E+00;0; -8.7428823E-02;  2.4548658E+04;  0.0000000E+00;  5.6935608E-01;  4.0000000E+04;  0.0000000E+00;  3.9874000E+04; -4.2652197E-02;  0.0000000E+00; -4.4776630E-02;  5.2935835E+03;
  7.4768418E-01;  9.9999998E-03; -1.1028884E-01;6918; -2.0295882E-01;  0.0000000E+00;  6.1345939E-03;  9.9012177E+02;  1.2658198E-01; -8.1838066E+03;3;  1.0602480E+01;  0.0000000E+00; -2.2492008E+00;0; -9.7758457E-02;  2.4544346E+04;  0.0000000E+00;  5.6930304E-01;  4.0000000E+04;  0.0000000E+00;  3.9874664E+04; -4.9938463E-02;  0.0000000E+00; -4.7819994E-02;  5.4029741E+03;
  7.6028782E-01;  9.9999998E-03; -2.7045286E-01;6963; -2.0471914E-01;  0.0000000E+00;  1.1297927E-02;  9.8998773E+02;  1.3090262E-01; -8.2948418E+03;3; -4.6356311E+00;  0.0000000E+00; -5.6276584E+00;0;  2.6194417E-01;  2.2933100E+04;  0.0000000E+00;  1.4391127E+00;  4.0000000E+04;  0.0000000E+00;  3.9916172E+04;  2.4549541E-01;  0.0000000E+00;  1.6448768E-02;  1.3640735E+04;
  7.6052326E-01;  9.9999998E-03; -2.6043344E-01;6964; -2.0466658E-01;  0.0000000E+00;  1.2055268E-02;  9.9009705E+02;  1.3094097E-01; -8.2042764E+03;3; -3.7987444E+00;  0.0000000E+00; -5.5288882E+00;0;  2.5478834E-01;  2.2928615E+04;  0.0000000E+00;  4.2114651E-01;  4.0000000E+04;  0.0000000E+00;  3.9909418E+04;  2.4699649E-01;  0.0000000E+00;  7.7918419E-03;  1.2492324E+04;
  7.6078451E-01;  9.9999998E-03; -2.5042593E-01;6965; -2.0458826E-01;  0.0000000E+00;  1.2643564E-02;  9.9008545E+02;  1.3098848E-01; -8.2139053E+03;3; -2.9057789E+00;  0.0000000E+00; -5.4284239E+00;0;  2.4980146E-01;  2.2921484E+04;  0.0000000E+00; -2.6072118E-02;  4.0000000E+04;  0.0000000E+00;  3.9893539E+04;  2.4774353E-01;  0.0000000E+00;  2.0579176E-03;  1.0536695E+04;
  7.6093715E-01;  9.9999998E-03; -2.4042551E-01;6966; -2.0444486E-01;  0.0000000E+00;  1.2699296E-02;  9.9003333E+02;  1.3100819E-01; -8.2570635E+03;3; -1.9653783E+00;  0.0000000E+00; -5.3225636E+00;0;  2.4450922E-01;  2.2922885E+04;  0.0000000E+00; -9.2759371E-02;  4.0000000E+04;  0.0000000E+00;  3.9877422E+04;  2.4516068E-01;  0.0000000E+00; -6.5146445E-04;  8.5676211E+03;
  7.6097047E-01;  9.9999998E-03; -2.3041947E-01;6967; -2.0425047E-01;  0.0000000E+00;  1.2381782E-02;  9.9002393E+02;  1.3099548E-01; -8.2648652E+03;3; -9.7501820E-01;  0.0000000E+00; -5.2000642E+00;0;  2.3552746E-01;  2.2934012E+04;  0.0000000E+00;  2.5671627E-04;  4.0000000E+04;  0.0000000E+00;  3.9867152E+04;  2.3894347E-01;  0.0000000E+00; -3.4160111E-03;  7.2598794E+03;
  7.6094949E-01;  9.9999998E-03; -2.2041051E-01;6968; -2.0404489E-01;  0.0000000E+00;  1.1959816E-02;  9.9006281E+02;  1.3096745E-01; -8.2326201E+03;3;  3.4433458E-02;  0.0000000E+00; -5.0917187E+00;0;  2.2277242E-01;  2.2950908E+04;  0.0000000E+00;  1.2558274E-01;  4.0000000E+04;  0.0000000E+00;  3.9859824E+04;  2.3020615E-01;  0.0000000E+00; -7.4337199E-03;  6.2935835E+03;
  7.6089054E-01;  9.9999998E-03; -2.1040267E-01;6969; -2.0385736E-01;  0.0000000E+00;  1.1515035E-02;  9.9014154E+02;  1.3092782E-01; -8.1674380E+03;3;  1.0640156E+00;  0.0000000E+00; -4.9654694E+00;0;  2.0697589E-01;  2.2972271E+04;  0.0000000E+00;  2.2643003E-01;  4.0000000E+04;  0.0000000E+00;  3.9854047E+04;  2.1930806E-01;  0.0000000E+00; -1.2332170E-02;  5.5110698E+03;
  7.6080328E-01;  9.9999998E-03; -2.0040093E-01;6970; -2.0370634E-01;  0.0000000E+00;  1.1066046E-02;  9.9025873E+02;  1.3088185E-01; -8.0703062E+03;3;  2.1039884E+00;  0.0000000E+00; -4.8382120E+00;0;  1.8894899E-01;  2.2997293E+04;  0.0000000E+00;  2.8430620E-01;  4.0000000E+04;  0.0000000E+00;  3.9849293E+04;  2.0658652E-01;  0.0000000E+00; -1.7637536E-02;  4.8670552E+03;
  7.6068807E-01;  9.9999998E-03; -1.9040345E-01;6971; -2.0360073E-01;  0.0000000E+00;  1.0619868E-02;  9.9041266E+02;  1.3082686E-01; -7.9428066E+03;3;  3.1425245E+00;  0.0000000E+00; -4.7005844E+00;0;  1.6926152E-01;  2.3025547E+04;  0.0000000E+00;  3.0229613E-01;  4.0000000E+04;  0.0000000E+00;  3.9845848E+04;  1.9229259E-01;  0.0000000E+00; -2.3031078E-02;  4.3870449E+03;
  7.6056051E-01;  9.9999998E-03; -1.8040362E-01;6972; -2.0354936E-01;  0.0000000E+00;  1.0172198E-02;  9.9059229E+02;  1.3076898E-01; -7.7939736E+03;3;  4.1834168E+00;  0.0000000E+00; -4.5282331E+00;0;  1.4862354E-01;  2.3055348E+04;  0.0000000E+00;  2.9499471E-01;  4.0000000E+04;  0.0000000E+00;  3.9843617E+04;  1.7694709E-01;  0.0000000E+00; -2.8323552E-02;  4.0544531E+03;
  7.6044637E-01;  9.9999998E-03; -1.7040358E-01;6973; -2.0356008E-01;  0.0000000E+00;  9.7186612E-03;  9.9078906E+02;  1.3071388E-01; -7.6309683E+03;3;  5.2124667E+00;  0.0000000E+00; -4.3431945E+00;0;  1.2780745E-01;  2.3084018E+04;  0.0000000E+00;  2.8112212E-01;  4.0000000E+04;  0.0000000E+00;  3.9842152E+04;  1.6122013E-01;  0.0000000E+00; -3.3412680E-02;  3.8291243E+03;
  7.6036686E-01;  9.9999998E-03; -1.6040030E-01;6974; -2.0363963E-01;  0.0000000E+00;  9.2567569E-03;  9.9099628E+02;  1.3066652E-01; -7.4592734E+03;3;  6.2159190E+00;  0.0000000E+00; -4.1522708E+00;0;  1.0739768E-01;  2.3109441E+04;  0.0000000E+00;  2.7727920E-01;  4.0000000E+04;  0.0000000E+00;  3.9841520E+04;  1.4564613E-01;  0.0000000E+00; -3.8248442E-02;  3.7068850E+03;
  7.6036507E-01;  9.9999998E-03; -1.5039004E-01;6975; -2.0380324E-01;  0.0000000E+00;  8.7922672E-03;  9.9121594E+02;  1.3063763E-01; -7.2773062E+03;3;  7.1789017E+00;  0.0000000E+00; -3.9327424E+00;0;  8.8168234E-02;  2.3127912E+04;  0.0000000E+00;  2.9284886E-01;  4.0000000E+04;  0.0000000E+00;  3.9841566E+04;  1.3099855E-01;  0.0000000E+00; -4.2830318E-02;  3.6946948E+03;
  7.6042759E-01;  9.9999998E-03; -1.4037459E-01;6976; -2.0404240E-01;  0.0000000E+00;  8.3226087E-03;  9.9144183E+02;  1.3062629E-01; -7.0901528E+03;3;  8.1401873E+00;  0.0000000E+00; -3.7097814E+00;0;  7.0081696E-02;  2.3140045E+04;  0.0000000E+00;  3.2862929E-01;  4.0000000E+04;  0.0000000E+00;  3.9842379E+04;  1.1724419E-01;  0.0000000E+00; -4.7162496E-02;  3.8049529E+03;
  7.6051605E-01;  9.9999998E-03; -1.3035557E-01;6977; -2.0434386E-01;  0.0000000E+00;  7.8447377E-03;  9.9165521E+02;  1.3062081E-01; -6.9133706E+03;3;  9.0655298E+00;  0.0000000E+00; -3.4862263E+00;0;  5.2811041E-02;  2.3148678E+04;  0.0000000E+00;  3.7682226E-01;  4.0000000E+04;  0.0000000E+00;  3.9843938E+04;  1.0408277E-01;  0.0000000E+00; -5.1271729E-02;  4.0256467E+03;
  7.6062143E-01;  9.9999998E-03; -1.2033459E-01;6978; -2.0469776E-01;  0.0000000E+00;  7.3573794E-03;  9.9185168E+02;  1.3062020E-01; -6.7506128E+03;3;  9.9501572E+00;  0.0000000E+00; -3.2565598E+00;0;  3.6411721E-02;  2.3154209E+04;  0.0000000E+00;  4.2304799E-01;  4.0000000E+04;  0.0000000E+00;  3.9846043E+04;  9.1638058E-02;  0.0000000E+00; -5.5226337E-02;  4.3133008E+03;
  7.6073271E-01;  9.9999998E-03; -1.1031100E-01;6979; -2.0509484E-01;  0.0000000E+00;  6.8600955E-03;  9.9202942E+02;  1.3062251E-01; -6.6033599E+03;3;  1.0786854E+01;  0.0000000E+00; -3.0193017E+00;0;  2.0910598E-02;  2.3157561E+04;  0.0000000E+00;  4.5247081E-01;  4.0000000E+04;  0.0000000E+00;  3.9848293E+04;  7.9980254E-02;  0.0000000E+00; -5.9069656E-02;  4.6123096E+03;
  7.7433753E-01;  9.9999998E-03; -2.7059016E-01;7024; -2.0849034E-01;  0.0000000E+00;  1.3167134E-02;  9.9229456E+02;  1.3522814E-01; -6.3836924E+03;3; -5.1830220E+00;  0.0000000E+00; -6.5330644E+00;0;  5.5742610E-01;  2.1617201E+04;  0.0000000E+00;  2.7607973E+00;  4.0000000E+04;  0.0000000E+00;  3.9857289E+04;  5.2234268E-01;  0.0000000E+00;  3.5083443E-02;  1.1373844E+04;
  7.7456790E-01;  9.9999998E-03; -2.6058075E-01;7025; -2.0816466E-01;  0.0000000E+00;  1.3388678E-02;  9.9251117E+02;  1.3526893E-01; -6.2042432E+03;3; -4.3261609E+00;  0.0000000E+00; -6.6106429E+00;0;  5.5202359E-01;  2.1618434E+04;  0.0000000E+00;  1.0264422E+00;  4.0000000E+04;  0.0000000E+00;  3.9849047E+04;  5.2273953E-01;  0.0000000E+00;  2.9284058E-02;  8.0268140E+03;
  7.7487063E-01;  9.9999998E-03; -2.5057676E-01;7026; -2.0785087E-01;  0.0000000E+00;  1.3393851E-02;  9.9270673E+02;  1.3532959E-01; -6.0422261E+03;3; -3.4036665E+00;  0.0000000E+00; -6.6336865E+00;0;  5.4718423E-01;  2.1614242E+04;  0.0000000E+00;  1.2443423E-01;  4.0000000E+04;  0.0000000E+00;  3.9838266E+04;  5.2351123E-01;  0.0000000E+00;  2.3672970E-02;  6.1950542E+03;
  7.7505440E-01;  9.9999998E-03; -2.4056634E-01;7027; -2.0748442E-01;  0.0000000E+00;  1.3111793E-02;  9.9285553E+02;  1.3536000E-01; -5.9189229E+03;3; -2.4238117E+00;  0.0000000E+00; -6.6111135E+00;0;  5.3754467E-01;  2.1615979E+04;  0.0000000E+00; -1.6856925E-01;  4.0000000E+04;  0.0000000E+00;  3.9832023E+04;  5.2010530E-01;  0.0000000E+00;  1.7439382E-02;  5.4546929E+03;
  7.7507943E-01;  9.9999998E-03; -2.3053323E-01;7028; -2.0707403E-01;  0.0000000E+00;  1.2724913E-02;  9.9297394E+02;  1.3534817E-01; -5.8208535E+03;3; -1.4016055E+00;  0.0000000E+00; -6.5541239E+00;0;  5.2098900E-01;  2.1627287E+04;  0.0000000E+00; -1.7376792E-01;  4.0000000E+04;  0.0000000E+00;  3.9831328E+04;  5.1137155E-01;  0.0000000E+00;  9.6174702E-03;  5.3901118E+03;
  7.7501988E-01;  9.9999998E-03; -2.2048472E-01;7029; -2.0666680E-01;  0.0000000E+00;  1.2372717E-02;  9.9304895E+02;  1.3531356E-01; -5.7586836E+03;3; -3.4020063E-01;  0.0000000E+00; -6.4599338E+00;0;  4.9952468E-01;  2.1644539E+04;  0.0000000E+00; -8.6970665E-02;  4.0000000E+04;  0.0000000E+00;  3.9829715E+04;  4.9875614E-01;  0.0000000E+00;  7.6855195E-04;  5.1441133E+03;
  7.7489662E-01;  9.9999998E-03; -2.1043731E-01;7030; -2.0629382E-01;  0.0000000E+00;  1.2035867E-02;  9.9307434E+02;  1.3526244E-01; -5.7376479E+03;3;  7.4794763E-01;  0.0000000E+00; -6.3319035E+00;0;  4.7445917E-01;  2.1666732E+04;  0.0000000E+00; -7.7514013E-04;  4.0000000E+04;  0.0000000E+00;  3.9824965E+04;  4.8269668E-01;  0.0000000E+00; -8.2375221E-03;  4.4894106E+03;
  7.7476364E-01;  9.9999998E-03; -2.0040005E-01;7031; -2.0598975E-01;  0.0000000E+00;  1.1674995E-02;  9.9310455E+02;  1.3520896E-01; -5.7126123E+03;3;  1.8313942E+00;  0.0000000E+00; -6.1893096E+00;0;  4.4750851E-01;  2.1690523E+04;  0.0000000E+00;  4.8597880E-02;  4.0000000E+04;  0.0000000E+00;  3.9818922E+04;  4.6445632E-01;  0.0000000E+00; -1.6947806E-02;  3.6796826E+03;
  7.7462560E-01;  9.9999998E-03; -1.9037622E-01;7032; -2.0575544E-01;  0.0000000E+00;  1.1291274E-02;  9.9317731E+02;  1.3515373E-01; -5.6523687E+03;3;  2.9155807E+00;  0.0000000E+00; -6.0278888E+00;0;  4.1912270E-01;  2.1715721E+04;  0.0000000E+00;  5.6962140E-02;  4.0000000E+04;  0.0000000E+00;  3.9813617E+04;  4.4435292E-01;  0.0000000E+00; -2.5230240E-02;  2.9596582E+03;
  7.7449208E-01;  9.9999998E-03; -1.8035506E-01;7033; -2.0559677E-01;  0.0000000E+00;  1.0888354E-02;  9.9330170E+02;  1.3509877E-01; -5.5493120E+03;3;  3.9903843E+00;  0.0000000E+00; -5.8492379E+00;0;  3.8984609E-01;  2.1741494E+04;  0.0000000E+00;  3.7117638E-02;  4.0000000E+04;  0.0000000E+00;  3.9810016E+04;  4.2288136E-01;  0.0000000E+00; -3.3035286E-02;  2.4603450E+03;
  7.7439117E-01;  9.9999998E-03; -1.7033412E-01;7034; -2.0552015E-01;  0.0000000E+00;  1.0469360E-02;  9.9348419E+02;  1.3505138E-01; -5.3981094E+03;3;  5.0507541E+00;  0.0000000E+00; -5.6386032E+00;0;  3.6061117E-01;  2.1765754E+04;  0.0000000E+00;  9.6976319E-03;  4.0000000E+04;  0.0000000E+00;  3.9808148E+04;  4.0095991E-01;  0.0000000E+00; -4.0348746E-02;  2.1705007E+03;
  7.7435380E-01;  9.9999998E-03; -1.6030642E-01;7035; -2.0552793E-01;  0.0000000E+00;  1.0033287E-02;  9.9373309E+02;  1.3501942E-01; -5.1918979E+03;3;  6.0922356E+00;  0.0000000E+00; -5.4091945E+00;0;  3.3233649E-01;  2.1786201E+04;  0.0000000E+00; -5.7712216E-03;  4.0000000E+04;  0.0000000E+00;  3.9807996E+04;  3.7952867E-01;  0.0000000E+00; -4.7192190E-02;  2.0690886E+03;
  7.7432352E-01;  9.9999998E-03; -1.5027817E-01;7036; -2.0562601E-01;  0.0000000E+00;  9.5850555E-03;  9.9400830E+02;  1.3498765E-01; -4.9639087E+03;3;  7.0851216E+00;  0.0000000E+00; -5.1361651E+00;0;  3.0431807E-01;  2.1806256E+04;  0.0000000E+00;  3.6973353E-03;  4.0000000E+04;  0.0000000E+00;  3.9809008E+04;  3.5784826E-01;  0.0000000E+00; -5.3530201E-02;  2.1544885E+03;
  7.7430075E-01;  9.9999998E-03; -1.4024715E-01;7037; -2.0580904E-01;  0.0000000E+00;  9.1254981E-03;  9.9430304E+02;  1.3495536E-01; -4.7197231E+03;3;  8.0733538E+00;  0.0000000E+00; -4.8440070E+00;0;  2.7690780E-01;  2.1825883E+04;  0.0000000E+00;  4.0484525E-02;  4.0000000E+04;  0.0000000E+00;  3.9811445E+04;  3.3628631E-01;  0.0000000E+00; -5.9378508E-02;  2.4178499E+03;
  7.7430910E-01;  9.9999998E-03; -1.3021398E-01;7038; -2.0606790E-01;  0.0000000E+00;  8.6496752E-03;  9.9462341E+02;  1.3492857E-01; -4.4543037E+03;3;  9.0337868E+00;  0.0000000E+00; -4.5667734E+00;0;  2.5080138E-01;  2.1843426E+04;  0.0000000E+00;  9.6481591E-02;  4.0000000E+04;  0.0000000E+00;  3.9814859E+04;  3.1563464E-01;  0.0000000E+00; -6.4833239E-02;  2.8211274E+03;
  7.7443719E-01;  9.9999998E-03; -1.2017854E-01;7039; -2.0639546E-01;  0.0000000E+00;  8.1619127E-03;  9.9501764E+02;  1.3493431E-01; -4.1277017E+03;3;  9.9614820E+00;  0.0000000E+00; -4.2726407E+00;0;  2.2764376E-01;  2.1852939E+04;  0.0000000E+00;  1.5542004E-01;  4.0000000E+04;  0.0000000E+00;  3.9818594E+04;  2.9776704E-01;  0.0000000E+00; -7.0123285E-02;  3.2941460E+03;
  7.7462828E-01;  9.9999998E-03; -1.1014222E-01;7040; -2.0677735E-01;  0.0000000E+00;  7.6567596E-03;  9.9543634E+02;  1.3495702E-01; -3.7808542E+03;3;  1.0846284E+01;  0.0000000E+00; -3.9675241E+00;0;  2.0660043E-01;  2.1857883E+04;  0.0000000E+00;  2.0222431E-01;  4.0000000E+04;  0.0000000E+00;  3.9822262E+04;  2.8189442E-01;  0.0000000E+00; -7.5293981E-02;  3.7626501E+03;
  7.8941882E-01;  9.9999998E-03; -2.7075374E-01;7085; -2.1144833E-01;  0.0000000E+00;  1.4444184E-02;  9.9701617E+02;  1.3970819E-01; -2.4719670E+03;3; -5.7168679E+00;  0.0000000E+00; -7.5381389E+00;0;  9.5466882E-01;  2.0475072E+04;  0.0000000E+00;  1.8283786E+00;  4.0000000E+04;  0.0000000E+00;  3.9772215E+04;  8.7425464E-01;  0.0000000E+00;  8.0414191E-02;  6.8956904E+03;
  7.8954935E-01;  9.9999998E-03; -2.6075596E-01;7086; -2.1088094E-01;  0.0000000E+00;  1.4075068E-02;  9.9726605E+02;  1.3971727E-01; -2.2649656E+03;3; -4.8406324E+00;  0.0000000E+00; -7.7535410E+00;0;  9.4607449E-01;  2.0486084E+04;  0.0000000E+00;  4.5080033E-01;  4.0000000E+04;  0.0000000E+00;  3.9767293E+04;  8.7135929E-01;  0.0000000E+00;  7.4715190E-02;  2.4479512E+03;
  7.8979874E-01;  9.9999998E-03; -2.5075775E-01;7087; -2.1036680E-01;  0.0000000E+00;  1.3478155E-02;  9.9759772E+02;  1.3975960E-01; -1.9902146E+03;3; -3.8638256E+00;  0.0000000E+00; -7.8920712E+00;0;  9.3602419E-01;  2.0488586E+04;  0.0000000E+00; -2.2580618E-01;  4.0000000E+04;  0.0000000E+00;  3.9766723E+04;  8.7043834E-01;  0.0000000E+00;  6.5585881E-02;  4.0581439E+02;
  7.8997099E-01;  9.9999998E-03; -2.4074115E-01;7088; -2.0982403E-01;  0.0000000E+00;  1.2873179E-02;  9.9791461E+02;  1.3978596E-01; -1.7276606E+03;3; -2.8299456E+00;  0.0000000E+00; -7.9862061E+00;0;  9.1817403E-01;  2.0491721E+04;  0.0000000E+00; -4.0168065E-01;  4.0000000E+04;  0.0000000E+00;  3.9774652E+04;  8.6616832E-01;  0.0000000E+00;  5.2005678E-02;  1.1695798E+03;
  7.8995132E-01;  9.9999998E-03; -2.3068868E-01;7089; -2.0923911E-01;  0.0000000E+00;  1.2465903E-02;  9.9812421E+02;  1.3976589E-01; -1.5540404E+03;3; -1.7843767E+00;  0.0000000E+00; -8.0229750E+00;0;  8.9065826E-01;  2.0502615E+04;  0.0000000E+00; -3.6020482E-01;  4.0000000E+04;  0.0000000E+00;  3.9786988E+04;  8.5527432E-01;  0.0000000E+00;  3.5383940E-02;  2.4512419E+03;
  7.8980744E-01;  9.9999998E-03; -2.2060770E-01;7090; -2.0866033E-01;  0.0000000E+00;  1.2268143E-02;  9.9817670E+02;  1.3971594E-01; -1.5105365E+03;3; -7.0275831E-01;  0.0000000E+00; -7.9882212E+00;0;  8.5738230E-01;  2.0519041E+04;  0.0000000E+00; -2.7187711E-01;  4.0000000E+04;  0.0000000E+00;  3.9794652E+04;  8.3905083E-01;  0.0000000E+00;  1.8331461E-02;  3.2673364E+03;
  7.8959513E-01;  9.9999998E-03; -2.1052565E-01;7091; -2.0813461E-01;  0.0000000E+00;  1.2136428E-02;  9.9808997E+02;  1.3964967E-01; -1.5823846E+03;3;  4.0718117E-01;  0.0000000E+00; -7.8836198E+00;0;  8.2109207E-01;  2.0539023E+04;  0.0000000E+00; -2.0038155E-01;  4.0000000E+04;  0.0000000E+00;  3.9794125E+04;  8.1868756E-01;  0.0000000E+00;  2.4045240E-03;  3.1353484E+03;
  7.8937626E-01;  9.9999998E-03; -2.0045914E-01;7092; -2.0768963E-01;  0.0000000E+00;  1.1962617E-02;  9.9795801E+02;  1.3958323E-01; -1.6917123E+03;3;  1.5456628E+00;  0.0000000E+00; -7.7360601E+00;0;  7.8364849E-01;  2.0559760E+04;  0.0000000E+00; -1.6772102E-01;  4.0000000E+04;  0.0000000E+00;  3.9789066E+04;  7.9568529E-01;  0.0000000E+00; -1.2036785E-02;  2.4936074E+03;
  7.8919214E-01;  9.9999998E-03; -1.9040708E-01;7093; -2.0733593E-01;  0.0000000E+00;  1.1729477E-02;  9.9787073E+02;  1.3952501E-01; -1.7640049E+03;3;  2.6597464E+00;  0.0000000E+00; -7.5583696E+00;0;  7.4604261E-01;  2.0579180E+04;  0.0000000E+00; -1.7322975E-01;  4.0000000E+04;  0.0000000E+00;  3.9783602E+04;  7.7119368E-01;  0.0000000E+00; -2.5151063E-02;  1.8535432E+03;
  7.8905922E-01;  9.9999998E-03; -1.8035488E-01;7094; -2.0706809E-01;  0.0000000E+00;  1.1449235E-02;  9.9786810E+02;  1.3948014E-01; -1.7661775E+03;3;  3.7666962E+00;  0.0000000E+00; -7.3487864E+00;0;  7.0870537E-01;  2.0596592E+04;  0.0000000E+00; -2.0398767E-01;  4.0000000E+04;  0.0000000E+00;  3.9779605E+04;  7.4586725E-01;  0.0000000E+00; -3.7161883E-02;  1.4480020E+03;
  7.8898889E-01;  9.9999998E-03; -1.7030372E-01;7095; -2.0689102E-01;  0.0000000E+00;  1.1130244E-02;  9.9796100E+02;  1.3945043E-01; -1.6892437E+03;3;  4.8555741E+00;  0.0000000E+00; -7.1031547E+00;0;  6.7215866E-01;  2.0611537E+04;  0.0000000E+00; -2.4145398E-01;  4.0000000E+04;  0.0000000E+00;  3.9777594E+04;  7.2037965E-01;  0.0000000E+00; -4.8220992E-02;  1.2532666E+03;
  7.8896052E-01;  9.9999998E-03; -1.6025852E-01;7096; -2.0680815E-01;  0.0000000E+00;  1.0779892E-02;  9.9813892E+02;  1.3942961E-01; -1.5418440E+03;3;  5.9030190E+00;  0.0000000E+00; -6.8070154E+00;0;  6.3630450E-01;  2.0625137E+04;  0.0000000E+00; -2.6761439E-01;  4.0000000E+04;  0.0000000E+00;  3.9777773E+04;  6.9471020E-01;  0.0000000E+00; -5.8405668E-02;  1.1865724E+03;
  7.8895926E-01;  9.9999998E-03; -1.5021762E-01;7097; -2.0684421E-01;  0.0000000E+00;  1.0420237E-02;  9.9838763E+02;  1.3941343E-01; -1.3357809E+03;3;  6.9281478E+00;  0.0000000E+00; -6.4844451E+00;0;  6.0122848E-01;  2.0638174E+04;  0.0000000E+00; -2.7078855E-01;  4.0000000E+04;  0.0000000E+00;  3.9779895E+04;  6.6897994E-01;  0.0000000E+00; -6.7751467E-02;  1.2417169E+03;
  7.8897393E-01;  9.9999998E-03; -1.4017235E-01;7098; -2.0696481E-01;  0.0000000E+00;  1.0032017E-02;  9.9869836E+02;  1.3939866E-01; -1.0783625E+03;3;  7.9892449E+00;  0.0000000E+00; -6.1450667E+00;0;  5.6705767E-01;  2.0651266E+04;  0.0000000E+00; -2.4826653E-01;  4.0000000E+04;  0.0000000E+00;  3.9783480E+04;  6.4335173E-01;  0.0000000E+00; -7.6294065E-02;  1.4891759E+03;
  7.8900146E-01;  9.9999998E-03; -1.3012381E-01;7099; -2.0715797E-01;  0.0000000E+00;  9.6059674E-03;  9.9905676E+02;  1.3938457E-01; -7.8143988E+02;3;  9.0136080E+00;  0.0000000E+00; -5.7818027E+00;0;  5.3406239E-01;  2.0664816E+04;  0.0000000E+00; -2.0553464E-01;  4.0000000E+04;  0.0000000E+00;  3.9788277E+04;  6.1818051E-01;  0.0000000E+00; -8.4118135E-02;  1.9341854E+03;
  7.8903896E-01;  9.9999998E-03; -1.2007711E-01;7100; -2.0741886E-01;  0.0000000E+00;  9.1402503E-03;  9.9945642E+02;  1.3936909E-01; -4.5034637E+02;3;  9.9856710E+00;  0.0000000E+00; -5.4146276E+00;0;  5.0245130E-01;  2.0679002E+04;  0.0000000E+00; -1.5311010E-01;  4.0000000E+04;  0.0000000E+00;  3.9793324E+04;  5.9381741E-01;  0.0000000E+00; -9.1366105E-02;  2.4872991E+03;
  7.8907001E-01;  9.9999998E-03; -1.1003620E-01;7101; -2.0773959E-01;  0.0000000E+00;  8.6276345E-03;  9.9986993E+02;  1.3935025E-01; -1.0774734E+02;3;  1.0904232E+01;  0.0000000E+00; -5.0189662E+00;0;  4.7212219E-01;  2.0694486E+04;  0.0000000E+00; -1.0245895E-01;  4.0000000E+04;  0.0000000E+00;  3.9798008E+04;  5.7026756E-01;  0.0000000E+00; -9.8145373E-02;  3.0310593E+03;
  8.0523545E-01;  9.9999998E-03; -2.7090800E-01;7146; -2.1303622E-01;  0.0000000E+00;  1.5077797E-02;  1.0023246E+03;  1.4390659E-01;  1.9258104E+03;3; -6.2012100E+00;  0.0000000E+00; -8.6025429E+00;0;  1.4166390E+00;  1.9525789E+04;  0.0000000E+00;  6.1076391E-01;  4.0000000E+04;  0.0000000E+00;  3.9687098E+04;  1.2585243E+00;  0.0000000E+00;  1.5811463E-01;  9.4422959E+03;
  8.0520552E-01;  9.9999998E-03; -2.6092729E-01;7147; -2.1227087E-01;  0.0000000E+00;  1.4550143E-02;  1.0024549E+03;  1.4387928E-01;  2.0337546E+03;3; -5.2389345E+00;  0.0000000E+00; -9.0317612E+00;0;  1.3968049E+00;  1.9541428E+04;  0.0000000E+00; -1.2327118E-01;  4.0000000E+04;  0.0000000E+00;  3.9682109E+04;  1.2518337E+00;  0.0000000E+00;  1.4497128E-01;  9.0070547E+03;
  8.0527794E-01;  9.9999998E-03; -2.5094700E-01;7148; -2.1159796E-01;  0.0000000E+00;  1.3584657E-02;  1.0027017E+03;  1.4387591E-01;  2.2381865E+03;3; -4.2451262E+00;  0.0000000E+00; -9.3361797E+00;0;  1.3744791E+00;  1.9550678E+04;  0.0000000E+00; -4.3793640E-01;  4.0000000E+04;  0.0000000E+00;  3.9687535E+04;  1.2471851E+00;  0.0000000E+00;  1.2729391E-01;  8.2143213E+03;
  8.0526781E-01;  9.9999998E-03; -2.4094158E-01;7149; -2.1096265E-01;  0.0000000E+00;  1.2572411E-02;  1.0030035E+03;  1.4385866E-01;  2.4882454E+03;3; -3.2037253E+00;  0.0000000E+00; -9.5399561E+00;0;  1.3430564E+00;  1.9559875E+04;  0.0000000E+00; -4.8534855E-01;  4.0000000E+04;  0.0000000E+00;  3.9707766E+04;  1.2397465E+00;  0.0000000E+00;  1.0330998E-01;  5.7834468E+03;
  8.0517131E-01;  9.9999998E-03; -2.3090591E-01;7150; -2.1029690E-01;  0.0000000E+00;  1.2107184E-02;  1.0032163E+03;  1.4382704E-01;  2.6645315E+03;3; -2.1454406E+00;  0.0000000E+00; -9.6623468E+00;0;  1.3036537E+00;  1.9569160E+04;  0.0000000E+00; -4.5301458E-01;  4.0000000E+04;  0.0000000E+00;  3.9730512E+04;  1.2288294E+00;  0.0000000E+00;  7.4824326E-02;  3.1091118E+03;
  8.0495185E-01;  9.9999998E-03; -2.2084253E-01;7151; -2.0963946E-01;  0.0000000E+00;  1.2035343E-02;  1.0032424E+03;  1.4377224E-01;  2.6861602E+03;3; -1.0513903E+00;  0.0000000E+00; -9.6885004E+00;0;  1.2596087E+00;  1.9580965E+04;  0.0000000E+00; -4.1670641E-01;  4.0000000E+04;  0.0000000E+00;  3.9747871E+04;  1.2130116E+00;  0.0000000E+00;  4.6597131E-02;  1.4788137E+03;
  8.0463040E-01;  9.9999998E-03; -2.1075787E-01;7152; -2.0902908E-01;  0.0000000E+00;  1.2106230E-02;  1.0030880E+03;  1.4369908E-01;  2.5582668E+03;3;  7.1438007E-02;  0.0000000E+00; -9.5947599E+00;0;  1.2132108E+00;  1.9595482E+04;  0.0000000E+00; -3.9964822E-01;  4.0000000E+04;  0.0000000E+00;  3.9756980E+04;  1.1923234E+00;  0.0000000E+00;  2.0887431E-02;  1.3759310E+03;
  8.0426526E-01;  9.9999998E-03; -2.0067157E-01;7153; -2.0848933E-01;  0.0000000E+00;  1.2156797E-02;  1.0028161E+03;  1.4361712E-01;  2.3329968E+03;3;  1.2012856E+00;  0.0000000E+00; -9.4230747E+00;0;  1.1660516E+00;  1.9611398E+04;  0.0000000E+00; -4.0132698E-01;  4.0000000E+04;  0.0000000E+00;  3.9759094E+04;  1.1679323E+00;  0.0000000E+00; -1.8805884E-03;  1.4916737E+03;
  8.0392611E-01;  9.9999998E-03; -1.9059183E-01;7154; -2.0803133E-01;  0.0000000E+00;  1.2136038E-02;  1.0025322E+03;  1.4354105E-01;  2.0978506E+03;3;  2.3491337E+00;  0.0000000E+00; -9.1968193E+00;0;  1.1195060E+00;  1.9626699E+04;  0.0000000E+00; -4.1751772E-01;  4.0000000E+04;  0.0000000E+00;  3.9757594E+04;  1.1415514E+00;  0.0000000E+00; -2.2045417E-02;  1.4616521E+03;
  8.0365133E-01;  9.9999998E-03; -1.8051021E-01;7155; -2.0765468E-01;  0.0000000E+00;  1.2035948E-02;  1.0023044E+03;  1.4347777E-01;  1.9091215E+03;3;  3.4912345E+00;  0.0000000E+00; -8.9293461E+00;0;  1.0742521E+00;  1.9640301E+04;  0.0000000E+00; -4.4301495E-01;  4.0000000E+04;  0.0000000E+00;  3.9755535E+04;  1.1143610E+00;  0.0000000E+00; -4.0108897E-02;  1.4533383E+03;
  8.0346692E-01;  9.9999998E-03; -1.7043456E-01;7156; -2.0737319E-01;  0.0000000E+00;  1.1880148E-02;  1.0021741E+03;  1.4343272E-01;  1.8010785E+03;3;  4.5760908E+00;  0.0000000E+00; -8.5918827E+00;0;  1.0310054E+00;  1.9651051E+04;  0.0000000E+00; -4.6965137E-01;  4.0000000E+04;  0.0000000E+00;  3.9754430E+04;  1.0874602E+00;  0.0000000E+00; -5.6454815E-02;  1.4668134E+03;
  8.0337399E-01;  9.9999998E-03; -1.6036633E-01;7157; -2.0722418E-01;  0.0000000E+00;  1.1727448E-02;  1.0021492E+03;  1.4340679E-01;  1.7805366E+03;3;  5.6616979E+00;  0.0000000E+00; -8.1802673E+00;0;  9.9007243E-01;  1.9658953E+04;  0.0000000E+00; -4.8797885E-01;  4.0000000E+04;  0.0000000E+00;  3.9755008E+04;  1.0614192E+00;  0.0000000E+00; -7.1346834E-02;  1.4401448E+03;
  8.0335504E-01;  9.9999998E-03; -1.5030698E-01;7158; -2.0716316E-01;  0.0000000E+00;  1.1527305E-02;  1.0022350E+03;  1.4339484E-01;  1.8516436E+03;3;  6.7800751E+00;  0.0000000E+00; -7.8174996E+00;0;  9.5140922E-01;  1.9664611E+04;  0.0000000E+00; -4.9147502E-01;  4.0000000E+04;  0.0000000E+00;  3.9757648E+04;  1.0363317E+00;  0.0000000E+00; -8.4922411E-02;  1.3974459E+03;
  8.0338037E-01;  9.9999998E-03; -1.4025693E-01;7159; -2.0717332E-01;  0.0000000E+00;  1.1252244E-02;  1.0024061E+03;  1.4339018E-01;  1.9933636E+03;3;  7.8989511E+00;  0.0000000E+00; -7.4211068E+00;0;  9.1465044E-01;  1.9669787E+04;  0.0000000E+00; -4.7854364E-01;  4.0000000E+04;  0.0000000E+00;  3.9761621E+04;  1.0118940E+00;  0.0000000E+00; -9.7243570E-02;  1.4718198E+03;
  8.0341554E-01;  9.9999998E-03; -1.3020909E-01;7160; -2.0725285E-01;  0.0000000E+00;  1.0894875E-02;  1.0026396E+03;  1.4338449E-01;  2.1868337E+03;3;  8.9832115E+00;  0.0000000E+00; -6.9988461E+00;0;  8.7915868E-01;  1.9675816E+04;  0.0000000E+00; -4.5144933E-01;  4.0000000E+04;  0.0000000E+00;  3.9766441E+04;  9.8754048E-01;  0.0000000E+00; -1.0838182E-01;  1.7581445E+03;
  8.0342925E-01;  9.9999998E-03; -1.2015508E-01;7161; -2.0740429E-01;  0.0000000E+00;  1.0453828E-02;  1.0029152E+03;  1.4337194E-01;  2.4150671E+03;3;  1.0007720E+01;  0.0000000E+00; -6.5459218E+00;0;  8.4425259E-01;  1.9684467E+04;  0.0000000E+00; -4.1438580E-01;  4.0000000E+04;  0.0000000E+00;  3.9771625E+04;  9.6271628E-01;  0.0000000E+00; -1.1846369E-01;  2.1925474E+03;
  8.0341035E-01;  9.9999998E-03; -1.1011217E-01;7162; -2.0762119E-01;  0.0000000E+00;  9.9376487E-03;  1.0032054E+03;  1.4334717E-01;  2.6555466E+03;3;  1.0980399E+01;  0.0000000E+00; -6.0633416E+00;0;  8.0983084E-01;  1.9696270E+04;  0.0000000E+00; -3.7226537E-01;  4.0000000E+04;  0.0000000E+00;  3.9776078E+04;  9.3745697E-01;  0.0000000E+00; -1.2762611E-01;  2.6253953E+03;
  8.1988186E-01;  9.9999998E-03; -2.7099487E-01;7207; -2.1165079E-01;  0.0000000E+00;  1.5436272E-02;  1.0051901E+03;  1.4694385E-01;  4.2996592E+03;3; -6.6910648E+00;  0.0000000E+00; -9.6587992E+00;0;  1.8063285E+00;  1.8841252E+04;  0.0000000E+00;  1.1540557E+00;  4.0000000E+04;  0.0000000E+00;  3.9644164E+04;  1.5544002E+00;  0.0000000E+00;  2.5192827E-01;  1.3132629E+04;
  8.2004762E-01;  9.9999998E-03; -2.6100898E-01;7208; -2.1120323E-01;  0.0000000E+00;  1.3993252E-02;  1.0054023E+03;  1.4696105E-01;  4.4755479E+03;3; -5.7359080E+00;  0.0000000E+00; -1.0376768E+01;0;  1.7942246E+00;  1.8843654E+04;  0.0000000E+00;  4.5852658E-01;  4.0000000E+04;  0.0000000E+00;  3.9647676E+04;  1.5546093E+00;  0.0000000E+00;  2.3961528E-01;  1.1865508E+04;
  8.2021767E-01;  9.9999998E-03; -2.5102949E-01;7209; -2.1065117E-01;  0.0000000E+00;  1.2898549E-02;  1.0056146E+03;  1.4697796E-01;  4.6513379E+03;3; -4.6067410E+00;  0.0000000E+00; -1.0888936E+01;0;  1.7648809E+00;  1.8844191E+04;  0.0000000E+00;  8.0894262E-02;  4.0000000E+04;  0.0000000E+00;  3.9656668E+04;  1.5556473E+00;  0.0000000E+00;  2.0923360E-01;  1.0479492E+04;
  8.2017601E-01;  9.9999998E-03; -2.4103175E-01;7210; -2.1006322E-01;  0.0000000E+00;  1.2008098E-02;  1.0058245E+03;  1.4696553E-01;  4.8252520E+03;3; -3.5273521E+00;  0.0000000E+00; -1.1250788E+01;0;  1.7227052E+00;  1.8847635E+04;  0.0000000E+00; -1.0325207E-01;  4.0000000E+04;  0.0000000E+00;  3.9678305E+04;  1.5535859E+00;  0.0000000E+00;  1.6911937E-01;  7.7415820E+03;
  8.2000977E-01;  9.9999998E-03; -2.3100910E-01;7211; -2.0948130E-01;  0.0000000E+00;  1.1734816E-02;  1.0059436E+03;  1.4693750E-01;  4.9240112E+03;3; -2.4824631E+00;  0.0000000E+00; -1.1495403E+01;0;  1.6743367E+00;  1.8851174E+04;  0.0000000E+00; -2.3752858E-01;  4.0000000E+04;  0.0000000E+00;  3.9702738E+04;  1.5491869E+00;  0.0000000E+00;  1.2514979E-01;  4.6826812E+03;
  8.1974190E-01;  9.9999998E-03; -2.2096871E-01;7212; -2.0890224E-01;  0.0000000E+00;  1.2061731E-02;  1.0058864E+03;  1.4689781E-01;  4.8766079E+03;3; -1.4670116E+00;  0.0000000E+00; -1.1476900E+01;0;  1.6250281E+00;  1.8854740E+04;  0.0000000E+00; -3.5341671E-01;  4.0000000E+04;  0.0000000E+00;  3.9721891E+04;  1.5420703E+00;  0.0000000E+00;  8.2957812E-02;  2.4087075E+03;
  8.1938905E-01;  9.9999998E-03; -2.1092267E-01;7213; -2.0829187E-01;  0.0000000E+00;  1.2695273E-02;  1.0056418E+03;  1.4684796E-01;  4.6739561E+03;3; -4.1644278E-01;  0.0000000E+00; -1.1286906E+01;0;  1.5771167E+00;  1.8858551E+04;  0.0000000E+00; -4.5254573E-01;  4.0000000E+04;  0.0000000E+00;  3.9733000E+04;  1.5317813E+00;  0.0000000E+00;  4.5335438E-02;  1.3723558E+03;
  8.1898040E-01;  9.9999998E-03; -2.0087233E-01;7214; -2.0766333E-01;  0.0000000E+00;  1.3358844E-02;  1.0052791E+03;  1.4679120E-01;  4.3734336E+03;3;  7.5068665E-01;  0.0000000E+00; -1.0955033E+01;0;  1.5308170E+00;  1.8862586E+04;  0.0000000E+00; -5.2939218E-01;  4.0000000E+04;  0.0000000E+00;  3.9738406E+04;  1.5182728E+00;  0.0000000E+00;  1.2544221E-02;  1.2822167E+03;
  8.1855196E-01;  9.9999998E-03; -1.9081348E-01;7215; -2.0706365E-01;  0.0000000E+00;  1.3814361E-02;  1.0048586E+03;  1.4673309E-01;  4.0251128E+03;3;  2.0326831E+00;  0.0000000E+00; -1.0403954E+01;0;  1.4857246E+00;  1.8866576E+04;  0.0000000E+00; -5.8208215E-01;  4.0000000E+04;  0.0000000E+00;  3.9740367E+04;  1.5018823E+00;  0.0000000E+00; -1.6157804E-02;  1.4221820E+03;
  8.1815571E-01;  9.9999998E-03; -1.8073072E-01;7216; -2.0661272E-01;  0.0000000E+00;  1.4174891E-02;  1.0044433E+03;  1.4667925E-01;  3.6810383E+03;3;  3.3341534E+00;  0.0000000E+00; -9.5476847E+00;0;  1.4419456E+00;  1.8869850E+04;  0.0000000E+00; -6.1380899E-01;  4.0000000E+04;  0.0000000E+00;  3.9740781E+04;  1.4836575E+00;  0.0000000E+00; -4.1711885E-02;  1.5258622E+03;
  8.1782180E-01;  9.9999998E-03; -1.7063849E-01;7217; -2.0626254E-01;  0.0000000E+00;  1.4339790E-02;  1.0040793E+03;  1.4663360E-01;  3.3795281E+03;3;  4.6914487E+00;  0.0000000E+00; -9.0789843E+00;0;  1.3998170E+00;  1.8872461E+04;  0.0000000E+00; -6.3056654E-01;  4.0000000E+04;  0.0000000E+00;  3.9740719E+04;  1.4645090E+00;  0.0000000E+00; -6.4692073E-02;  1.5867581E+03;
  8.1759799E-01;  9.9999998E-03; -1.6054456E-01;7218; -2.0599346E-01;  0.0000000E+00;  1.4286259E-02;  1.0038017E+03;  1.4660236E-01;  3.1495188E+03;3;  6.0326123E+00;  0.0000000E+00; -8.6000824E+00;0;  1.3606147E+00;  1.8873180E+04;  0.0000000E+00; -6.3737112E-01;  4.0000000E+04;  0.0000000E+00;  3.9741430E+04;  1.4461309E+00;  0.0000000E+00; -8.5516244E-02;  1.6200583E+03;
  8.1750369E-01;  9.9999998E-03; -1.5045984E-01;7219; -2.0580631E-01;  0.0000000E+00;  1.4083853E-02;  1.0036289E+03;  1.4658774E-01;  3.0063188E+03;3;  7.3288155E+00;  0.0000000E+00; -8.1314039E+00;0;  1.3252954E+00;  1.8871539E+04;  0.0000000E+00; -6.3732165E-01;  4.0000000E+04;  0.0000000E+00;  3.9743438E+04;  1.4297267E+00;  0.0000000E+00; -1.0443129E-01;  1.6647770E+03;
  8.1751978E-01;  9.9999998E-03; -1.4038789E-01;7220; -2.0570423E-01;  0.0000000E+00;  1.3763803E-02;  1.0035583E+03;  1.4658709E-01;  2.9478533E+03;3;  8.5884533E+00;  0.0000000E+00; -7.6308680E+00;0;  1.2938381E+00;  1.8868355E+04;  0.0000000E+00; -6.3186693E-01;  4.0000000E+04;  0.0000000E+00;  3.9746957E+04;  1.4154156E+00;  0.0000000E+00; -1.2157752E-01;  1.7973043E+03;
  8.1758046E-01;  9.9999998E-03; -1.3032910E-01;7221; -2.0568264E-01;  0.0000000E+00;  1.3328884E-02;  1.0035654E+03;  1.4658676E-01;  2.9536799E+03;3;  9.7940722E+00;  0.0000000E+00; -7.1339307E+00;0;  1.2646867E+00;  1.8866260E+04;  0.0000000E+00; -6.2051779E-01;  4.0000000E+04;  0.0000000E+00;  3.9750934E+04;  1.4017049E+00;  0.0000000E+00; -1.3701816E-01;  2.0482239E+03;
  8.1763959E-01;  9.9999998E-03; -1.2028461E-01;7222; -2.0575856E-01;  0.0000000E+00;  1.2783411E-02;  1.0036259E+03;  1.4657995E-01;  3.0038496E+03;3;  1.0884948E+01;  0.0000000E+00; -6.6010752E+00;0;  1.2364870E+00;  1.8867047E+04;  0.0000000E+00; -6.0136968E-01;  4.0000000E+04;  0.0000000E+00;  3.9754828E+04;  1.3873734E+00;  0.0000000E+00; -1.5088637E-01;  2.3480718E+03;
  8.1771070E-01;  9.9999998E-03; -1.1026520E-01;7223; -2.0592108E-01;  0.0000000E+00;  1.2150547E-02;  1.0037252E+03;  1.4656948E-01;  3.0861155E+03;3;  1.1877578E+01;  0.0000000E+00; -6.1766381E+00;0;  1.2095072E+00;  1.8869719E+04;  0.0000000E+00; -5.7279515E-01;  4.0000000E+04;  0.0000000E+00;  3.9757648E+04;  1.3729590E+00;  0.0000000E+00; -1.6345178E-01;  2.5743008E+03;
  8.3231896E-01;  9.9999998E-03; -1.1038424E-01;7284; -1.9825324E-01;  0.0000000E+00;  1.9309510E-02;  1.0011343E+03;  1.4893045E-01;  9.3978052E+02;3;  1.7997902E+01;  0.0000000E+00; -4.6314163E+00;0;  1.6606143E+00;  1.8195840E+04;  0.0000000E+00; -7.0651573E-01;  4.0000000E+04;  0.0000000E+00;  3.9742633E+04;  1.8652920E+00;  0.0000000E+00; -2.0467769E-01;  2.6821990E+03;
  8.3231103E-01;  9.9999998E-03; -1.2039621E-01;7283; -1.9750506E-01;  0.0000000E+00;  2.0244036E-02;  1.0013530E+03;  1.4892977E-01;  1.1209026E+03;3;  1.6694479E+01;  0.0000000E+00; -5.4066362E+00;0;  1.6723349E+00;  1.8203838E+04;  0.0000000E+00; -7.1162540E-01;  4.0000000E+04;  0.0000000E+00;  3.9742188E+04;  1.8605953E+00;  0.0000000E+00; -1.8826042E-01;  2.6098850E+03;
  8.3238924E-01;  9.9999998E-03; -1.3043907E-01;7282; -1.9667752E-01;  0.0000000E+00;  2.0951027E-02;  1.0016113E+03;  1.4893639E-01;  1.3349109E+03;3;  1.5129220E+01;  0.0000000E+00; -6.2697015E+00;0;  1.6860089E+00;  1.8211262E+04;  0.0000000E+00; -7.0154977E-01;  4.0000000E+04;  0.0000000E+00;  3.9740523E+04;  1.8560615E+00;  0.0000000E+00; -1.7005247E-01;  2.3931804E+03;
  8.3253050E-01;  9.9999998E-03; -1.4050496E-01;7281; -1.9595060E-01;  0.0000000E+00;  2.1506913E-02;  1.0019222E+03;  1.4894824E-01;  1.5923727E+03;3;  1.3256937E+01;  0.0000000E+00; -7.1172395E+00;0;  1.7011292E+00;  1.8219088E+04;  0.0000000E+00; -6.8251961E-01;  4.0000000E+04;  0.0000000E+00;  3.9738332E+04;  1.8507601E+00;  0.0000000E+00; -1.4963089E-01;  2.1197815E+03;
  8.3266604E-01;  9.9999998E-03; -1.5058023E-01;7280; -1.9558254E-01;  0.0000000E+00;  2.2126094E-02;  1.0023008E+03;  1.4895599E-01;  1.9061263E+03;3;  1.1078878E+01;  0.0000000E+00; -7.7463007E+00;0;  1.7162400E+00;  1.8229057E+04;  0.0000000E+00; -6.6021341E-01;  4.0000000E+04;  0.0000000E+00;  3.9736562E+04;  1.8428403E+00;  0.0000000E+00; -1.2660027E-01;  1.8664879E+03;
  8.3277524E-01;  9.9999998E-03; -1.6065724E-01;7279; -1.9547640E-01;  0.0000000E+00;  2.2679061E-02;  1.0027443E+03;  1.4895967E-01;  2.2735056E+03;3;  8.7784405E+00;  0.0000000E+00; -8.6318827E+00;0;  1.7312959E+00;  1.8241254E+04;  0.0000000E+00; -6.3618690E-01;  4.0000000E+04;  0.0000000E+00;  3.9735504E+04;  1.8322212E+00;  0.0000000E+00; -1.0092526E-01;  1.6706432E+03;
  8.3291429E-01;  9.9999998E-03; -1.7072605E-01;7278; -1.9550492E-01;  0.0000000E+00;  2.3089921E-02;  1.0032505E+03;  1.4896151E-01;  2.6928313E+03;3;  6.3670487E+00;  0.0000000E+00; -9.5271273E+00;0;  1.7477611E+00;  1.8254527E+04;  0.0000000E+00; -6.0627222E-01;  4.0000000E+04;  0.0000000E+00;  3.9735363E+04;  1.8205953E+00;  0.0000000E+00; -7.2834156E-02;  1.5219542E+03;
  8.3309722E-01;  9.9999998E-03; -1.8078753E-01;7277; -1.9560027E-01;  0.0000000E+00;  2.3331460E-02;  1.0037917E+03;  1.4896549E-01;  3.1411919E+03;3;  3.8718991E+00;  0.0000000E+00; -1.0489540E+01;0;  1.7658627E+00;  1.8268045E+04;  0.0000000E+00; -5.6003696E-01;  4.0000000E+04;  0.0000000E+00;  3.9735496E+04;  1.8082913E+00;  0.0000000E+00; -4.2428661E-02;  1.3704274E+03;
  8.3333415E-01;  9.9999998E-03; -1.9084151E-01;7276; -1.9569401E-01;  0.0000000E+00;  2.3399234E-02;  1.0043402E+03;  1.4897403E-01;  3.5955762E+03;3;  1.2994699E+00;  0.0000000E+00; -1.1367167E+01;0;  1.7858585E+00;  1.8280641E+04;  0.0000000E+00; -4.8342556E-01;  4.0000000E+04;  0.0000000E+00;  3.9735059E+04;  1.7955198E+00;  0.0000000E+00; -9.6612740E-03;  1.1258085E+03;
  8.3363783E-01;  9.9999998E-03; -2.0087065E-01;7275; -1.9548491E-01;  0.0000000E+00;  2.3338372E-02;  1.0048576E+03;  1.4898999E-01;  4.0242832E+03;3; -1.6116835E+00;  0.0000000E+00; -1.2342651E+01;0;  1.8082078E+00;  1.8290646E+04;  0.0000000E+00; -3.6507180E-01;  4.0000000E+04;  0.0000000E+00;  3.9733570E+04;  1.7825611E+00;  0.0000000E+00;  2.5646629E-02;  7.3459454E+02;
  8.3391488E-01;  9.9999998E-03; -2.1089137E-01;7274; -1.9371244E-01;  0.0000000E+00;  2.3377335E-02;  1.0053143E+03;  1.4900587E-01;  4.4025249E+03;3; -6.0452571E+00;  0.0000000E+00; -1.3346883E+01;0;  1.8318092E+00;  1.8299527E+04;  0.0000000E+00; -2.0098719E-01;  4.0000000E+04;  0.0000000E+00;  3.9730746E+04;  1.7682977E+00;  0.0000000E+00;  6.3511491E-02;  1.5817966E+02;
  8.3364701E-01;  9.9999998E-03; -2.7100360E-01;7268; -1.5827903E-01;  0.0000000E+00;  2.5874825E-02;  1.0054703E+03;  1.4898308E-01;  4.5318984E+03;3; -2.1220644E+01;  0.0000000E+00; -1.1085526E+01;0;  1.9226962E+00;  1.8332562E+04;  0.0000000E+00;  2.0495696E+00;  4.0000000E+04;  0.0000000E+00;  3.9658871E+04;  1.6909732E+00;  0.0000000E+00;  2.3172310E-01;  1.1208885E+04;
  8.3377939E-01;  9.9999998E-03; -2.6101530E-01;7269; -1.6400649E-01;  0.0000000E+00;  2.5731115E-02;  1.0055240E+03;  1.4898752E-01;  4.5763394E+03;3; -2.0047197E+01;  0.0000000E+00; -1.2292633E+01;0;  1.9255894E+00;  1.8334186E+04;  0.0000000E+00;  1.3911493E+00;  4.0000000E+04;  0.0000000E+00;  3.9655988E+04;  1.6985495E+00;  0.0000000E+00;  2.2703990E-01;  1.0402139E+04;
  8.3411658E-01;  9.9999998E-03; -2.2092108E-01;7273; -1.8768726E-01;  0.0000000E+00;  2.3713976E-02;  1.0056642E+03;  1.4901504E-01;  4.6924771E+03;3; -1.1933956E+01;  0.0000000E+00; -1.3733266E+01;0;  1.8558941E+00;  1.8308053E+04;  0.0000000E+00;  8.6067962E-03;  4.0000000E+04;  0.0000000E+00;  3.9724504E+04;  1.7527196E+00;  0.0000000E+00;  1.0317440E-01;  8.4678149E+02;
  8.3416545E-01;  9.9999998E-03; -2.3097008E-01;7272; -1.7973058E-01;  0.0000000E+00;  2.3569927E-02;  1.0058210E+03;  1.4901200E-01;  4.8223438E+03;3; -1.5266428E+01;  0.0000000E+00; -1.3528121E+01;0;  1.8812054E+00;  1.8317535E+04;  0.0000000E+00;  2.6068345E-01;  4.0000000E+04;  0.0000000E+00;  3.9709160E+04;  1.7364682E+00;  0.0000000E+00;  1.4473727E-01;  2.8668716E+03;
  8.3398372E-01;  9.9999998E-03; -2.5102055E-01;7270; -1.6741544E-01;  0.0000000E+00;  2.4480779E-02;  1.0056567E+03;  1.4899983E-01;  4.6862559E+03;3; -1.8643686E+01;  0.0000000E+00; -1.2630569E+01;0;  1.9235222E+00;  1.8331043E+04;  0.0000000E+00;  9.0646088E-01;  4.0000000E+04;  0.0000000E+00;  3.9666605E+04;  1.7087414E+00;  0.0000000E+00;  2.1478084E-01;  8.5518936E+03;
  8.3410150E-01;  9.9999998E-03; -2.4100983E-01;7271; -1.7295699E-01;  0.0000000E+00;  2.3668010E-02;  1.0057778E+03;  1.4900538E-01;  4.7865933E+03;3; -1.7174091E+01;  0.0000000E+00; -1.3128395E+01;0;  1.9060056E+00;  1.8325902E+04;  0.0000000E+00;  5.5371690E-01;  4.0000000E+04;  0.0000000E+00;  3.9686270E+04;  1.7214321E+00;  0.0000000E+00;  1.8457347E-01;  5.8560991E+03;
  8.4721899E-01;  9.9999998E-03; -2.7097476E-01;7329; -2.0713465E-02;  0.0000000E+00;  2.6378224E-02;  1.0037863E+03;  1.5030740E-01;  3.1367119E+03;3;  1.1567156E+01;  0.0000000E+00; -1.6924755E+01;0;  2.0125017E+00;  1.7946258E+04;  0.0000000E+00;  2.5042799E+00;  4.0000000E+04;  0.0000000E+00;  3.9698262E+04;  1.6838586E+00;  0.0000000E+00;  3.2864296E-01;  8.0221704E+03;
  8.4719437E-01;  9.9999998E-03; -1.1055532E-01;7345; -1.7294294E-01;  0.0000000E+00;  3.4137610E-02;  9.9661163E+02;  1.5043123E-01; -2.8070125E+03;3;  2.9812504E+01;  0.0000000E+00; -2.7165942E+00;0;  2.1385911E+00;  1.7689533E+04;  0.0000000E+00; -7.3866463E-01;  4.0000000E+04;  0.0000000E+00;  3.9731543E+04;  2.3850737E+00;  0.0000000E+00; -2.4648266E-01;  2.7169587E+03;
  8.4729081E-01;  9.9999998E-03; -2.6096082E-01;7330; -1.6600717E-02;  0.0000000E+00;  4.1788276E-02;  1.0038914E+03;  1.5030183E-01;  3.2238152E+03;3;  8.3261356E+00;  0.0000000E+00; -2.8806118E+01;0;  1.8731632E+00;  1.7948672E+04;  0.0000000E+00;  2.0505426E+00;  4.0000000E+04;  0.0000000E+00;  3.9700195E+04;  1.7009500E+00;  0.0000000E+00;  1.7221321E-01;  6.6904517E+03;
  8.4732211E-01;  9.9999998E-03; -1.2057137E-01;7344; -1.6821723E-01;  0.0000000E+00;  3.7227586E-02;  9.9707867E+02;  1.5043490E-01; -2.4201328E+03;3;  2.8971607E+01;  0.0000000E+00; -3.5426116E+00;0;  2.1212773E+00;  1.7701438E+04;  0.0000000E+00; -7.0800412E-01;  4.0000000E+04;  0.0000000E+00;  3.9733762E+04;  2.3470054E+00;  0.0000000E+00; -2.2572808E-01;  2.7906399E+03;
  8.4741998E-01;  9.9999998E-03; -2.5096291E-01;7331; -1.4691705E-02;  0.0000000E+00;  5.1825140E-02;  1.0038074E+03;  1.5029889E-01;  3.1541914E+03;3;  6.7666698E+00;  0.0000000E+00; -2.0769554E+01;0;  1.8377360E+00;  1.7946406E+04;  0.0000000E+00;  1.6420535E+00;  4.0000000E+04;  0.0000000E+00;  3.9696523E+04;  1.7221577E+00;  0.0000000E+00;  1.1557835E-01;  5.8497622E+03;
  8.4747899E-01;  9.9999998E-03; -2.4094610E-01;7332; -1.5044249E-02;  0.0000000E+00;  5.4212555E-02;  1.0037772E+03;  1.5029378E-01;  3.1291072E+03;3;  5.0839338E+00;  0.0000000E+00; -1.8009010E+01;0;  1.8623585E+00;  1.7941139E+04;  0.0000000E+00;  1.2747236E+00;  4.0000000E+04;  0.0000000E+00;  3.9706152E+04;  1.7488487E+00;  0.0000000E+00;  1.1350980E-01;  4.3286914E+03;
  8.4739977E-01;  9.9999998E-03; -1.3060188E-01;7343; -1.6309258E-01;  0.0000000E+00;  4.0132333E-02;  9.9761322E+02;  1.5043293E-01; -1.9773074E+03;3;  2.7760775E+01;  0.0000000E+00; -4.3694816E+00;0;  2.0991819E+00;  1.7717104E+04;  0.0000000E+00; -6.4693201E-01;  4.0000000E+04;  0.0000000E+00;  3.9734836E+04;  2.3013504E+00;  0.0000000E+00; -2.0216855E-01;  2.7139221E+03;
  8.4743190E-01;  9.9999998E-03; -1.7075333E-01;7339; -1.2833050E-01;  0.0000000E+00;  4.9779609E-02;  1.0002902E+03;  1.5037833E-01;  2.4047266E+02;3;  1.9404877E+01;  0.0000000E+00; -8.4734011E+00;0;  1.9992094E+00;  1.7807805E+04;  0.0000000E+00; -2.8772953E-01;  4.0000000E+04;  0.0000000E+00;  3.9735777E+04;  2.0775874E+00;  0.0000000E+00; -7.8377955E-02;  2.0624287E+03;
  8.4736723E-01;  9.9999998E-03; -1.6072620E-01;7340; -1.4154004E-01;  0.0000000E+00;  4.7518358E-02;  9.9958514E+02;  1.5039185E-01; -3.4367346E+02;3;  2.1720694E+01;  0.0000000E+00; -7.5219822E+00;0;  2.0217950E+00;  1.7784291E+04;  0.0000000E+00; -3.8493741E-01;  4.0000000E+04;  0.0000000E+00;  3.9735617E+04;  2.1349323E+00;  0.0000000E+00; -1.1313722E-01;  2.1859312E+03;
  8.4737158E-01;  9.9999998E-03; -1.5068904E-01;7341; -1.5075107E-01;  0.0000000E+00;  4.5184966E-02;  9.9888788E+02;  1.5040818E-01; -9.2130170E+02;3;  2.4040340E+01;  0.0000000E+00; -6.2746077E+00;0;  2.0468256E+00;  1.7760201E+04;  0.0000000E+00; -4.7670954E-01;  4.0000000E+04;  0.0000000E+00;  3.9735418E+04;  2.1925547E+00;  0.0000000E+00; -1.4572898E-01;  2.3493464E+03;
  8.4740031E-01;  9.9999998E-03; -1.4064163E-01;7342; -1.5752040E-01;  0.0000000E+00;  4.2750865E-02;  9.9822064E+02;  1.5042353E-01; -1.4740924E+03;3;  2.6133913E+01;  0.0000000E+00; -5.3167243E+00;0;  2.0733638E+00;  1.7737229E+04;  0.0000000E+00; -5.6617045E-01;  4.0000000E+04;  0.0000000E+00;  3.9735418E+04;  2.2488785E+00;  0.0000000E+00; -1.7551473E-01;  2.5431309E+03;
  8.4753835E-01;  9.9999998E-03; -2.3090164E-01;7333; -1.6843690E-02;  0.0000000E+00;  5.5942025E-02;  1.0036792E+03;  1.5029593E-01;  3.0479287E+03;3;  4.6605053E+00;  0.0000000E+00; -1.4959493E+01;0;  1.8839431E+00;  1.7930672E+04;  0.0000000E+00;  9.3562782E-01;  4.0000000E+04;  0.0000000E+00;  3.9721371E+04;  1.7813251E+00;  0.0000000E+00;  1.0261796E-01;  2.9247278E+03;
  8.4754133E-01;  9.9999998E-03; -1.8077543E-01;7338; -1.1127818E-01;  0.0000000E+00;  5.1978555E-02;  1.0009873E+03;  1.5036705E-01;  8.1790320E+02;3;  1.7313503E+01;  0.0000000E+00; -9.5127211E+00;0;  1.9784467E+00;  1.7830377E+04;  0.0000000E+00; -1.7503145E-01;  4.0000000E+04;  0.0000000E+00;  3.9735750E+04;  2.0208015E+00;  0.0000000E+00; -4.2354867E-02;  1.9663086E+03;
  8.4761637E-01;  9.9999998E-03; -2.2084868E-01;7334; -2.7208708E-02;  0.0000000E+00;  5.5894904E-02;  1.0033851E+03;  1.5030755E-01;  2.8042957E+03;3;  1.1954904E+01;  0.0000000E+00; -1.2638414E+01;0;  1.9049114E+00;  1.7914895E+04;  0.0000000E+00;  6.2702721E-01;  4.0000000E+04;  0.0000000E+00;  3.9731500E+04;  1.8193930E+00;  0.0000000E+00;  8.5518360E-02;  2.4349504E+03;
  8.4764391E-01;  9.9999998E-03; -1.9079661E-01;7337; -9.1352753E-02;  0.0000000E+00;  5.3722993E-02;  1.0016594E+03;  1.5035571E-01;  1.3746935E+03;3;  1.5925241E+01;  0.0000000E+00; -1.0252213E+01;0;  1.9588529E+00;  1.7852418E+04;  0.0000000E+00; -3.5386626E-02;  4.0000000E+04;  0.0000000E+00;  3.9735367E+04;  1.9651574E+00;  0.0000000E+00; -6.3044955E-03;  1.8908529E+03;
  8.4769809E-01;  9.9999998E-03; -2.0080397E-01;7336; -7.0097446E-02;  0.0000000E+00;  5.4922879E-02;  1.0023018E+03;  1.5034232E-01;  1.9068933E+03;3;  1.5035833E+01;  0.0000000E+00; -1.1023548E+01;0;  1.9403046E+00;  1.7874160E+04;  0.0000000E+00;  1.4066367E-01;  4.0000000E+04;  0.0000000E+00;  3.9734996E+04;  1.9120622E+00;  0.0000000E+00;  2.8242512E-02;  1.9376024E+03;
  8.4768164E-01;  9.9999998E-03; -2.1081446E-01;7335; -4.8201472E-02;  0.0000000E+00;  5.5529140E-02;  1.0028969E+03;  1.5032548E-01;  2.3998870E+03;3;  1.4297979E+01;  0.0000000E+00; -1.1910621E+01;0;  1.9227051E+00;  1.7895430E+04;  0.0000000E+00;  3.6029914E-01;  4.0000000E+04;  0.0000000E+00;  3.9734625E+04;  1.8630428E+00;  0.0000000E+00;  5.9662208E-02;  2.1715273E+03;
  8.6296016E-01;  9.9999998E-03; -1.1056993E-01;7406; -8.7734371E-02;  0.0000000E+00;  5.6363523E-02;  9.9210785E+02;  1.5129639E-01; -6.5379883E+03;3;  1.3491767E+01;  0.0000000E+00; -8.3967981E+00;0;  2.6445401E+00;  1.7343939E+04;  0.0000000E+00; -6.1448163E-01;  4.0000000E+04;  0.0000000E+00;  3.9722680E+04;  2.9284787E+00;  0.0000000E+00; -2.8393862E-01;  2.4028267E+03;
  8.6299896E-01;  9.9999998E-03; -1.2060645E-01;7405; -7.7709638E-02;  0.0000000E+00;  6.0872950E-02;  9.9285205E+02;  1.5128587E-01; -5.9215088E+03;3;  1.4147309E+01;  0.0000000E+00; -9.0020132E+00;0;  2.5723455E+00;  1.7365346E+04;  0.0000000E+00; -5.4214120E-01;  4.0000000E+04;  0.0000000E+00;  3.9727309E+04;  2.8304875E+00;  0.0000000E+00; -2.5814199E-01;  2.6398564E+03;
  8.6296213E-01;  9.9999998E-03; -1.3063063E-01;7404; -6.6837095E-02;  0.0000000E+00;  6.5039769E-02;  9.9365466E+02;  1.5127242E-01; -5.2565903E+03;3;  1.4753961E+01;  0.0000000E+00; -9.4580564E+00;0;  2.4927430E+00;  1.7390092E+04;  0.0000000E+00; -4.2602080E-01;  4.0000000E+04;  0.0000000E+00;  3.9730883E+04;  2.7219620E+00;  0.0000000E+00; -2.2921900E-01;  2.7788557E+03;
  8.6291677E-01;  9.9999998E-03; -1.4064948E-01;7403; -5.4163184E-02;  0.0000000E+00;  6.8979815E-02;  9.9448639E+02;  1.5125807E-01; -4.5675757E+03;3;  1.5122043E+01;  0.0000000E+00; -9.9773684E+00;0;  2.4103887E+00;  1.7416707E+04;  0.0000000E+00; -2.7751613E-01;  4.0000000E+04;  0.0000000E+00;  3.9733422E+04;  2.6074207E+00;  0.0000000E+00; -1.9703203E-01;  2.8563589E+03;
  8.6286992E-01;  9.9999998E-03; -1.5066674E-01;7402; -3.9174519E-02;  0.0000000E+00;  7.2528854E-02;  9.9533514E+02;  1.5124319E-01; -3.8644392E+03;3;  1.5478425E+01;  0.0000000E+00; -1.0604467E+01;0;  2.3280900E+00;  1.7444553E+04;  0.0000000E+00; -1.1166599E-01;  4.0000000E+04;  0.0000000E+00;  3.9735137E+04;  2.4895685E+00;  0.0000000E+00; -1.6147856E-01;  2.9262078E+03;
  8.6282957E-01;  9.9999998E-03; -1.6068138E-01;7401; -2.1802723E-02;  0.0000000E+00;  7.5874202E-02;  9.9618597E+02;  1.5122774E-01; -3.1596233E+03;3;  1.4904697E+01;  0.0000000E+00; -1.0668101E+01;0;  2.2482898E+00;  1.7473016E+04;  0.0000000E+00;  5.8037803E-02;  4.0000000E+04;  0.0000000E+00;  3.9736305E+04;  2.3712738E+00;  0.0000000E+00; -1.2298382E-01;  3.0164497E+03;
  8.6278385E-01;  9.9999998E-03; -1.7069499E-01;7400; -3.4845436E-03;  0.0000000E+00;  7.9253428E-02;  9.9701935E+02;  1.5121166E-01; -2.4692258E+03;3;  1.1128376E+01;  0.0000000E+00; -1.0546236E+01;0;  2.1724489E+00;  1.7501537E+04;  0.0000000E+00;  2.2368440E-01;  4.0000000E+04;  0.0000000E+00;  3.9736773E+04;  2.2551296E+00;  0.0000000E+00; -8.2680739E-02;  3.1227358E+03;
  8.6269462E-01;  9.9999998E-03; -1.8071009E-01;7399;  8.4565179E-03;  0.0000000E+00;  8.3307102E-02;  9.9782513E+02;  1.5119590E-01; -1.8016902E+03;3; -2.9787524E+00;  0.0000000E+00; -1.0849817E+01;0;  2.1008017E+00;  1.7529883E+04;  0.0000000E+00;  3.8411143E-01;  4.0000000E+04;  0.0000000E+00;  3.9736953E+04;  2.1432562E+00;  0.0000000E+00; -4.2454436E-02;  3.2320610E+03;
  8.6252505E-01;  9.9999998E-03; -1.9073214E-01;7398;  9.4114505E-03;  0.0000000E+00;  8.5989982E-02;  9.9859338E+02;  1.5117738E-01; -1.1652625E+03;3; -8.7859173E+00;  0.0000000E+00; -1.3346529E+01;0;  2.0327103E+00;  1.7557785E+04;  0.0000000E+00;  5.4504627E-01;  4.0000000E+04;  0.0000000E+00;  3.9736594E+04;  2.0375245E+00;  0.0000000E+00; -4.8142215E-03;  3.3363457E+03;
  8.6229706E-01;  9.9999998E-03; -2.0075032E-01;7397;  7.0127076E-03;  0.0000000E+00;  8.7335192E-02;  9.9930536E+02;  1.5116011E-01; -5.7544690E+02;3; -6.5904155E+00;  0.0000000E+00; -1.4084097E+01;0;  1.9682571E+00;  1.7584322E+04;  0.0000000E+00;  7.1786541E-01;  4.0000000E+04;  0.0000000E+00;  3.9736246E+04;  1.9406685E+00;  0.0000000E+00;  2.7588608E-02;  3.4852346E+03;
  8.6205500E-01;  9.9999998E-03; -2.1076074E-01;7396;  3.9361254E-03;  0.0000000E+00;  8.7895662E-02;  9.9995551E+02;  1.5114500E-01; -3.6835720E+01;3; -3.4200203E+00;  0.0000000E+00; -1.4592731E+01;0;  1.9059459E+00;  1.7608412E+04;  0.0000000E+00;  9.1271806E-01;  4.0000000E+04;  0.0000000E+00;  3.9736520E+04;  1.8543186E+00;  0.0000000E+00;  5.1627278E-02;  3.7988403E+03;
  8.6181885E-01;  9.9999998E-03; -2.2078538E-01;7395;  5.4745562E-04;  0.0000000E+00;  8.7427825E-02;  1.0005026E+03;  1.5113217E-01;  4.1635242E+02;3;  1.0258651E-01;  0.0000000E+00; -1.5223621E+01;0;  1.8431604E+00;  1.7629016E+04;  0.0000000E+00;  1.1298649E+00;  4.0000000E+04;  0.0000000E+00;  3.9736941E+04;  1.7789024E+00;  0.0000000E+00;  6.4257964E-02;  4.1743208E+03;
  8.6161071E-01;  9.9999998E-03; -2.3082748E-01;7394; -3.0191280E-03;  0.0000000E+00;  8.5110217E-02;  1.0008943E+03;  1.5112618E-01;  7.4086255E+02;3;  3.3188140E+00;  0.0000000E+00; -1.6345522E+01;0;  1.7790395E+00;  1.7645195E+04;  0.0000000E+00;  1.3511404E+00;  4.0000000E+04;  0.0000000E+00;  3.9734355E+04;  1.7143656E+00;  0.0000000E+00;  6.4673938E-02;  4.3893223E+03;
  8.6142451E-01;  9.9999998E-03; -2.4086805E-01;7393; -5.8358447E-03;  0.0000000E+00;  7.8373469E-02;  1.0011301E+03;  1.5112968E-01;  9.3620081E+02;3;  6.5038319E+00;  0.0000000E+00; -1.9423214E+01;0;  1.7261337E+00;  1.7656312E+04;  0.0000000E+00;  1.5597349E+00;  4.0000000E+04;  0.0000000E+00;  3.9730141E+04;  1.6606017E+00;  0.0000000E+00;  6.5531954E-02;  4.5932837E+03;
  8.6130357E-01;  9.9999998E-03; -2.5089914E-01;7392; -8.5282810E-03;  0.0000000E+00;  6.8500936E-02;  1.0012389E+03;  1.5114087E-01;  1.0263645E+03;3;  9.2097311E+00;  0.0000000E+00; -2.2762932E+01;0;  1.6965804E+00;  1.7661537E+04;  0.0000000E+00;  1.7078806E+00;  4.0000000E+04;  0.0000000E+00;  3.9727633E+04;  1.6161591E+00;  0.0000000E+00;  8.0421314E-02;  4.8701543E+03;
  8.6125582E-01;  9.9999998E-03; -2.6091278E-01;7391; -1.2257657E-02;  0.0000000E+00;  4.8548650E-02;  1.0013400E+03;  1.5115789E-01;  1.1101091E+03;3;  1.3033574E+01;  0.0000000E+00; -3.3145782E+01;0;  1.7765085E+00;  1.7660984E+04;  0.0000000E+00;  1.7287682E+00;  4.0000000E+04;  0.0000000E+00;  3.9736523E+04;  1.5792862E+00;  0.0000000E+00;  1.9722222E-01;  5.4740791E+03;
  8.6138833E-01;  9.9999998E-03; -2.7095085E-01;7390; -1.6010366E-02;  0.0000000E+00;  2.8506188E-02;  1.0010657E+03;  1.5117808E-01;  8.8287292E+02;3;  1.8324993E+01;  0.0000000E+00; -1.3395211E+01;0;  1.9490167E+00;  1.7653420E+04;  0.0000000E+00;  1.6939664E+00;  4.0000000E+04;  0.0000000E+00;  3.9728516E+04;  1.5472350E+00;  0.0000000E+00;  4.0178165E-01;  5.1815801E+03;
  8.7868071E-01;  9.9999998E-03; -1.1053532E-01;7467; -1.8215239E-02;  0.0000000E+00;  6.6425152E-02;  9.8950525E+02;  1.5173326E-01; -8.6938867E+03;3; -1.0621209E+01;  0.0000000E+00; -8.2607937E+00;0;  3.1349490E+00;  1.7161303E+04;  0.0000000E+00; -3.3208275E-01;  4.0000000E+04;  0.0000000E+00;  3.9714883E+04;  3.4441071E+00;  0.0000000E+00; -3.0915815E-01;  1.5660785E+03;
  8.7876207E-01;  9.9999998E-03; -1.2056110E-01;7466; -8.8491784E-03;  0.0000000E+00;  7.1296394E-02;  9.9035278E+02;  1.5171887E-01; -7.9917500E+03;3; -8.5686617E+00;  0.0000000E+00; -8.7730722E+00;0;  3.0037832E+00;  1.7185504E+04;  0.0000000E+00; -2.3919001E-01;  4.0000000E+04;  0.0000000E+00;  3.9720738E+04;  3.2837963E+00;  0.0000000E+00; -2.8001314E-01;  2.0255175E+03;
  8.7877154E-01;  9.9999998E-03; -1.3058639E-01;7465;  5.8550236E-04;  0.0000000E+00;  7.5619414E-02;  9.9124329E+02;  1.5170451E-01; -7.2540640E+03;3; -6.6921344E+00;  0.0000000E+00; -9.2766438E+00;0;  2.8623984E+00;  1.7212289E+04;  0.0000000E+00; -1.0247059E-01;  4.0000000E+04;  0.0000000E+00;  3.9725477E+04;  3.1100211E+00;  0.0000000E+00; -2.4762282E-01;  2.4592524E+03;
  8.7871289E-01;  9.9999998E-03; -1.4060953E-01;7464;  1.0172921E-02;  0.0000000E+00;  7.9422466E-02;  9.9216327E+02;  1.5169068E-01; -6.4919858E+03;3; -6.4918284E+00;  0.0000000E+00; -9.6972685E+00;0;  2.7155740E+00;  1.7241023E+04;  0.0000000E+00;  6.5700270E-02;  4.0000000E+04;  0.0000000E+00;  3.9729246E+04;  2.9274051E+00;  0.0000000E+00; -2.1183118E-01;  2.8575598E+03;
  8.7860495E-01;  9.9999998E-03; -1.5062836E-01;7463;  1.8960882E-02;  0.0000000E+00;  8.2962915E-02;  9.9308606E+02;  1.5167686E-01; -5.7275386E+03;3; -1.0573192E+01;  0.0000000E+00; -9.4016314E+00;0;  2.5685840E+00;  1.7270945E+04;  0.0000000E+00;  2.4919730E-01;  4.0000000E+04;  0.0000000E+00;  3.9732043E+04;  2.7411988E+00;  0.0000000E+00; -1.7261472E-01;  3.2288208E+03;
  8.7848073E-01;  9.9999998E-03; -1.6064148E-01;7462;  2.3624856E-02;  0.0000000E+00;  8.6940303E-02;  9.9398547E+02;  1.5166448E-01; -4.9824463E+03;3; -1.9409563E+01;  0.0000000E+00; -1.0422467E+01;0;  2.4261084E+00;  1.7300807E+04;  0.0000000E+00;  4.3190676E-01;  4.0000000E+04;  0.0000000E+00;  3.9733977E+04;  2.5566075E+00;  0.0000000E+00; -1.3049912E-01;  3.5636086E+03;
  8.7838274E-01;  9.9999998E-03; -1.7064996E-01;7461;  2.1960864E-02;  0.0000000E+00;  8.9691833E-02;  9.9483185E+02;  1.5165547E-01; -4.2812988E+03;3; -2.1211712E+01;  0.0000000E+00; -1.2561740E+01;0;  2.2911072E+00;  1.7329529E+04;  0.0000000E+00;  5.9992427E-01;  4.0000000E+04;  0.0000000E+00;  3.9734949E+04;  2.3779955E+00;  0.0000000E+00; -8.6888425E-02;  3.8397761E+03;
  8.7828982E-01;  9.9999998E-03; -1.8065575E-01;7460;  1.8331219E-02;  0.0000000E+00;  9.1554902E-02;  9.9560950E+02;  1.5164812E-01; -3.6370828E+03;3; -1.7746277E+01;  0.0000000E+00; -1.3559586E+01;0;  2.1650953E+00;  1.7356270E+04;  0.0000000E+00;  7.4346536E-01;  4.0000000E+04;  0.0000000E+00;  3.9735438E+04;  2.2086792E+00;  0.0000000E+00; -4.3583851E-02;  4.0481775E+03;
  8.7815589E-01;  9.9999998E-03; -1.9066258E-01;7459;  1.4201012E-02;  0.0000000E+00;  9.2969790E-02;  9.9631647E+02;  1.5164380E-01; -3.0514270E+03;3; -1.3080953E+01;  0.0000000E+00; -1.3948065E+01;0;  2.0488377E+00;  1.7380988E+04;  0.0000000E+00;  8.5887581E-01;  4.0000000E+04;  0.0000000E+00;  3.9735777E+04;  2.0516431E+00;  0.0000000E+00; -2.8054819E-03;  4.2085151E+03;
  8.7796104E-01;  9.9999998E-03; -2.0067140E-01;7458;  1.0388848E-02;  0.0000000E+00;  9.3271419E-02;  9.9695459E+02;  1.5164134E-01; -2.5228508E+03;3; -8.2792501E+00;  0.0000000E+00; -1.4681132E+01;0;  1.9427662E+00;  1.7403338E+04;  0.0000000E+00;  9.4942397E-01;  4.0000000E+04;  0.0000000E+00;  3.9736738E+04;  1.9096164E+00;  0.0000000E+00;  3.3149805E-02;  4.3810659E+03;
  8.7770927E-01;  9.9999998E-03; -2.1067350E-01;7457;  6.1245081E-03;  0.0000000E+00;  9.3062676E-02;  9.9753754E+02;  1.5164000E-01; -2.0398984E+03;3; -4.1360807E+00;  0.0000000E+00; -1.4167977E+01;0;  1.8456668E+00;  1.7422955E+04;  0.0000000E+00;  1.0241362E+00;  4.0000000E+04;  0.0000000E+00;  3.9740422E+04;  1.7843354E+00;  0.0000000E+00;  6.1331365E-02;  4.7623843E+03;
  8.7741673E-01;  9.9999998E-03; -2.2069134E-01;7456;  1.5445852E-03;  0.0000000E+00;  9.1983132E-02;  9.9805798E+02;  1.5164176E-01; -1.6087914E+03;3;  6.7745582E-03;  0.0000000E+00; -1.3505986E+01;0;  1.7550275E+00;  1.7439438E+04;  0.0000000E+00;  1.0938468E+00;  4.0000000E+04;  0.0000000E+00;  3.9746348E+04;  1.6761085E+00;  0.0000000E+00;  7.8919075E-02;  5.3824385E+03;
  8.7707156E-01;  9.9999998E-03; -2.3073408E-01;7455; -3.0594438E-03;  0.0000000E+00;  8.9394540E-02;  9.9847375E+02;  1.5164562E-01; -1.2643402E+03;3;  4.2924118E+00;  0.0000000E+00; -1.3197568E+01;0;  1.6692182E+00;  1.7452650E+04;  0.0000000E+00;  1.1623372E+00;  4.0000000E+04;  0.0000000E+00;  3.9751844E+04;  1.5847571E+00;  0.0000000E+00;  8.4461048E-02;  5.9608340E+03;
  8.7670702E-01;  9.9999998E-03; -2.4079008E-01;7454; -7.4315001E-03;  0.0000000E+00;  8.4870659E-02;  9.9874304E+02;  1.5165575E-01; -1.0412567E+03;3;  8.1251345E+00;  0.0000000E+00; -1.3746627E+01;0;  1.5888960E+00;  1.7462035E+04;  0.0000000E+00;  1.2055513E+00;  4.0000000E+04;  0.0000000E+00;  3.9754254E+04;  1.5092931E+00;  0.0000000E+00;  7.9602994E-02;  6.2107148E+03;
  8.7643099E-01;  9.9999998E-03; -2.5084266E-01;7453; -1.0283983E-02;  0.0000000E+00;  7.6413989E-02;  9.9885559E+02;  1.5167415E-01; -9.4803381E+02;3;  1.1920544E+01;  0.0000000E+00; -1.9300894E+01;0;  1.5303975E+00;  1.7466160E+04;  0.0000000E+00;  1.1312044E+00;  4.0000000E+04;  0.0000000E+00;  3.9755277E+04;  1.4476279E+00;  0.0000000E+00;  8.2769580E-02;  6.2224678E+03;
  8.7652689E-01;  9.9999998E-03; -2.6087889E-01;7452; -1.3554681E-02;  0.0000000E+00;  5.1721219E-02;  9.9883417E+02;  1.5170304E-01; -9.6575989E+02;3;  1.5764675E+01;  0.0000000E+00; -2.9422176E+01;0;  1.6282120E+00;  1.7461268E+04;  0.0000000E+00;  8.6283338E-01;  4.0000000E+04;  0.0000000E+00;  3.9763234E+04;  1.3940469E+00;  0.0000000E+00;  2.3416501E-01;  6.9704038E+03;
  8.7688303E-01;  9.9999998E-03; -2.7093700E-01;7451; -1.6070513E-02;  0.0000000E+00;  3.2103412E-02;  9.9838263E+02;  1.5173186E-01; -1.3398375E+03;3;  2.1401436E+01;  0.0000000E+00; -9.5526009E+00;0;  1.7809308E+00;  1.7449715E+04;  0.0000000E+00;  7.2342771E-01;  4.0000000E+04;  0.0000000E+00;  3.9749684E+04;  1.3472954E+00;  0.0000000E+00;  4.3363532E-01;  5.4169385E+03;
  8.9300585E-01;  9.9999998E-03; -2.7094153E-01;7512; -1.7972460E-02;  0.0000000E+00;  3.5430029E-02;  9.9701349E+02;  1.5200405E-01; -2.4739583E+03;3;  2.3247417E+01;  0.0000000E+00; -5.9288025E+00;0;  1.6610851E+00;  1.7358689E+04;  0.0000000E+00;  4.1321090E-01;  4.0000000E+04;  0.0000000E+00;  3.9760125E+04;  1.2428535E+00;  0.0000000E+00;  4.1823164E-01;  6.8487617E+03;
  8.9267242E-01;  9.9999998E-03; -2.6087281E-01;7513; -1.7300215E-02;  0.0000000E+00;  4.7427114E-02;  9.9745160E+02;  1.5197574E-01; -2.1110498E+03;3;  1.7084957E+01;  0.0000000E+00; -2.0482342E+01;0;  1.5891014E+00;  1.7368246E+04;  0.0000000E+00;  3.8487911E-01;  4.0000000E+04;  0.0000000E+00;  3.9775594E+04;  1.2959396E+00;  0.0000000E+00;  2.9316190E-01;  8.6928936E+03;
  8.9237654E-01;  9.9999998E-03; -2.5081477E-01;7514; -1.4125948E-02;  0.0000000E+00;  7.1920805E-02;  9.9761182E+02;  1.5193953E-01; -1.9783293E+03;3;  1.3613716E+01;  0.0000000E+00; -1.2186747E+01;0;  1.4866635E+00;  1.7375932E+04;  0.0000000E+00;  5.4526240E-01;  4.0000000E+04;  0.0000000E+00;  3.9772438E+04;  1.3609889E+00;  0.0000000E+00;  1.2567464E-01;  8.2652080E+03;
  8.9253348E-01;  9.9999998E-03; -2.4074216E-01;7515; -1.0349429E-02;  0.0000000E+00;  8.1576616E-02;  9.9761981E+02;  1.5190899E-01; -1.9717124E+03;3;  9.6024704E+00;  0.0000000E+00; -8.8112860E+00;0;  1.5418973E+00;  1.7376988E+04;  0.0000000E+00;  6.7573243E-01;  4.0000000E+04;  0.0000000E+00;  3.9770371E+04;  1.4405121E+00;  0.0000000E+00;  1.0138523E-01;  8.0599419E+03;
  8.9286911E-01;  9.9999998E-03; -2.3066266E-01;7516; -5.4989657E-03;  0.0000000E+00;  8.6603515E-02;  9.9745966E+02;  1.5188688E-01; -2.1043833E+03;3;  5.6406407E+00;  0.0000000E+00; -8.2479553E+00;0;  1.6323391E+00;  1.7373182E+04;  0.0000000E+00;  7.0795411E-01;  4.0000000E+04;  0.0000000E+00;  3.9765449E+04;  1.5375196E+00;  0.0000000E+00;  9.4819538E-02;  7.5117534E+03;
  8.9317107E-01;  9.9999998E-03; -2.2061764E-01;7517; -6.0933363E-04;  0.0000000E+00;  8.9146353E-02;  9.9710773E+02;  1.5187192E-01; -2.3958948E+03;3;  1.2393485E+00;  0.0000000E+00; -8.4693594E+00;0;  1.7365724E+00;  1.7365924E+04;  0.0000000E+00;  7.1092111E-01;  4.0000000E+04;  0.0000000E+00;  3.9752809E+04;  1.6535161E+00;  0.0000000E+00;  8.3056323E-02;  6.0449150E+03;
  8.9339411E-01;  9.9999998E-03; -2.1060836E-01;7518;  4.2275516E-03;  0.0000000E+00;  9.0154886E-02;  9.9666473E+02;  1.5185791E-01; -2.7628521E+03;3; -2.9687068E+00;  0.0000000E+00; -8.6317463E+00;0;  1.8514377E+00;  1.7355289E+04;  0.0000000E+00;  7.1059102E-01;  4.0000000E+04;  0.0000000E+00;  3.9740789E+04;  1.7898507E+00;  0.0000000E+00;  6.1586954E-02;  4.7189526E+03;
  8.9357728E-01;  9.9999998E-03; -2.0061615E-01;7519;  8.8101570E-03;  0.0000000E+00;  9.0229020E-02;  9.9617902E+02;  1.5184723E-01; -3.1652114E+03;3; -7.5155482E+00;  0.0000000E+00; -8.5406551E+00;0;  1.9788361E+00;  1.7341102E+04;  0.0000000E+00;  7.0010310E-01;  4.0000000E+04;  0.0000000E+00;  3.9733523E+04;  1.9476730E+00;  0.0000000E+00;  3.1163067E-02;  3.9928687E+03;
  8.9372557E-01;  9.9999998E-03; -1.9061704E-01;7520;  1.3567766E-02;  0.0000000E+00;  8.9665711E-02;  9.9564191E+02;  1.5183771E-01; -3.6101819E+03;3; -1.2854981E+01;  0.0000000E+00; -8.6563959E+00;0;  2.1212778E+00;  1.7323332E+04;  0.0000000E+00;  6.7307246E-01;  4.0000000E+04;  0.0000000E+00;  3.9730395E+04;  2.1272566E+00;  0.0000000E+00; -5.9787128E-03;  3.7079966E+03;
  8.9384824E-01;  9.9999998E-03; -1.8061934E-01;7521;  1.8150996E-02;  0.0000000E+00;  8.8901699E-02;  9.9502307E+02;  1.5183157E-01; -4.1227964E+03;3; -1.7683262E+01;  0.0000000E+00; -8.9820518E+00;0;  2.2795565E+00;  1.7302250E+04;  0.0000000E+00;  6.2491751E-01;  4.0000000E+04;  0.0000000E+00;  3.9728891E+04;  2.3270273E+00;  0.0000000E+00; -4.7470801E-02;  3.5436533E+03;
  8.9395714E-01;  9.9999998E-03; -1.7062041E-01;7522;  2.2129443E-02;  0.0000000E+00;  8.8016622E-02;  9.9432428E+02;  1.5182909E-01; -4.7016729E+03;3; -2.2549526E+01;  0.0000000E+00; -9.2630959E+00;0;  2.4532361E+00;  1.7278412E+04;  0.0000000E+00;  5.5410665E-01;  4.0000000E+04;  0.0000000E+00;  3.9727719E+04;  2.5443194E+00;  0.0000000E+00; -9.1083303E-02;  3.3714568E+03;
  8.9406681E-01;  9.9999998E-03; -1.6061500E-01;7523;  2.6042441E-02;  0.0000000E+00;  8.6671010E-02;  9.9355328E+02;  1.5183064E-01; -5.3403423E+03;3; -2.8239281E+01;  0.0000000E+00; -8.5649481E+00;0;  2.6405456E+00;  1.7252500E+04;  0.0000000E+00;  4.6314207E-01;  4.0000000E+04;  0.0000000E+00;  3.9726293E+04;  2.7754571E+00;  0.0000000E+00; -1.3491158E-01;  3.1281521E+03;
  8.9418918E-01;  9.9999998E-03; -1.5060256E-01;7524;  2.9271122E-02;  0.0000000E+00;  8.4879845E-02;  9.9273029E+02;  1.5183689E-01; -6.0221157E+03;3; -2.9979769E+01;  0.0000000E+00; -7.6468530E+00;0;  2.8384864E+00;  1.7225336E+04;  0.0000000E+00;  3.5974184E-01;  4.0000000E+04;  0.0000000E+00;  3.9724145E+04;  3.0158210E+00;  0.0000000E+00; -1.7733455E-01;  2.7944236E+03;
  8.9430487E-01;  9.9999998E-03; -1.4058214E-01;7525;  2.9803852E-02;  0.0000000E+00;  8.2286716E-02;  9.9187476E+02;  1.5184531E-01; -6.7307993E+03;3; -2.8557735E+01;  0.0000000E+00; -6.5082879E+00;0;  3.0425909E+00;  1.7197822E+04;  0.0000000E+00;  2.5465366E-01;  4.0000000E+04;  0.0000000E+00;  3.9721184E+04;  3.2597485E+00;  0.0000000E+00; -2.1715753E-01;  2.3739480E+03;
  8.9439291E-01;  9.9999998E-03; -1.3055637E-01;7526;  2.8296001E-02;  0.0000000E+00;  7.9173483E-02;  9.9101324E+02;  1.5185665E-01; -7.4444692E+03;3; -3.0153242E+01;  0.0000000E+00; -6.0850697E+00;0;  3.2472539E+00;  1.7170916E+04;  0.0000000E+00;  1.5773389E-01;  4.0000000E+04;  0.0000000E+00;  3.9717332E+04;  3.5010550E+00;  0.0000000E+00; -2.5380102E-01;  1.8642532E+03;
  8.9443940E-01;  9.9999998E-03; -1.2053029E-01;7527;  2.6016595E-02;  0.0000000E+00;  7.5573996E-02;  9.9016620E+02;  1.5187022E-01; -8.1461416E+03;3; -3.3047752E+01;  0.0000000E+00; -5.5310545E+00;0;  3.4463432E+00;  1.7145486E+04;  0.0000000E+00;  7.7544816E-02;  4.0000000E+04;  0.0000000E+00;  3.9712523E+04;  3.7335594E+00;  0.0000000E+00; -2.8721628E-01;  1.2536183E+03;
  8.9443523E-01;  9.9999998E-03; -1.1050953E-01;7528;  2.2918681E-02;  0.0000000E+00;  7.1388416E-02;  9.8936023E+02;  1.5188645E-01; -8.8137959E+03;3; -3.6597355E+01;  0.0000000E+00; -4.7311387E+00;0;  3.6341872E+00;  1.7122174E+04;  0.0000000E+00;  1.9881666E-02;  4.0000000E+04;  0.0000000E+00;  3.9706582E+04;  3.9516730E+00;  0.0000000E+00; -3.1748581E-01;  5.4592914E+02;
  9.0921235E-01;  9.9999998E-03; -2.7096325E-01;7573; -2.0338679E-02;  0.0000000E+00;  3.6469631E-02;  9.9719061E+02;  1.5202092E-01; -2.3271877E+03;3;  2.4514671E+01;  0.0000000E+00; -3.0187578E+00;0;  1.7419240E+00;  1.7368609E+04;  0.0000000E+00;  5.6705087E-01;  4.0000000E+04;  0.0000000E+00;  3.9764988E+04;  1.3762190E+00;  0.0000000E+00;  3.6570498E-01;  7.7695195E+03;
  9.0890682E-01;  9.9999998E-03; -2.6090151E-01;7574; -2.1226728E-02;  0.0000000E+00;  4.5353837E-02;  9.9749091E+02;  1.5199549E-01; -2.0784436E+03;3;  1.9222660E+01;  0.0000000E+00; -1.0467725E+01;0;  1.7031608E+00;  1.7376242E+04;  0.0000000E+00;  3.7188151E-01;  4.0000000E+04;  0.0000000E+00;  3.9772641E+04;  1.4322358E+00;  0.0000000E+00;  2.7092493E-01;  8.5534082E+03;
  9.0867680E-01;  9.9999998E-03; -2.5084218E-01;7575; -1.7603153E-02;  0.0000000E+00;  6.6236377E-02;  9.9762622E+02;  1.5196308E-01; -1.9663165E+03;3;  1.4471267E+01;  0.0000000E+00; -4.8265433E+00;0;  1.6238532E+00;  1.7383051E+04;  0.0000000E+00;  2.9215667E-01;  4.0000000E+04;  0.0000000E+00;  3.9768633E+04;  1.5023260E+00;  0.0000000E+00;  1.2152719E-01;  7.9820498E+03;
  9.0876502E-01;  9.9999998E-03; -2.4077117E-01;7576; -1.3420717E-02;  0.0000000E+00;  7.5469308E-02;  9.9769244E+02;  1.5192856E-01; -1.9114618E+03;3;  1.0738443E+01;  0.0000000E+00; -1.4584495E+00;0;  1.6832995E+00;  1.7387219E+04;  0.0000000E+00;  2.6688725E-01;  4.0000000E+04;  0.0000000E+00;  3.9764242E+04;  1.5936445E+00;  0.0000000E+00;  8.9655027E-02;  7.3931172E+03;
  9.0902072E-01;  9.9999998E-03; -2.3067817E-01;7577; -8.4624002E-03;  0.0000000E+00;  7.9830915E-02;  9.9768066E+02;  1.5189965E-01; -1.9212368E+03;3;  6.5673332E+00;  0.0000000E+00; -1.2215846E+00;0;  1.7862390E+00;  1.7387992E+04;  0.0000000E+00;  2.2895332E-01;  4.0000000E+04;  0.0000000E+00;  3.9761219E+04;  1.7068800E+00;  0.0000000E+00;  7.9359055E-02;  7.0054302E+03;
  9.0921408E-01;  9.9999998E-03; -2.2061947E-01;7578; -3.1658995E-03;  0.0000000E+00;  8.2268476E-02;  9.9745081E+02;  1.5187883E-01; -2.1116216E+03;3;  2.2826209E+00;  0.0000000E+00; -1.1681900E+00;0;  1.9052733E+00;  1.7385439E+04;  0.0000000E+00;  1.8603289E-01;  4.0000000E+04;  0.0000000E+00;  3.9748074E+04;  1.8399665E+00;  0.0000000E+00;  6.5306745E-02;  5.3899839E+03;
  9.0931487E-01;  9.9999998E-03; -2.1060464E-01;7579;  1.9705417E-03;  0.0000000E+00;  8.3453409E-02;  9.9710767E+02;  1.5185964E-01; -2.3958662E+03;3; -2.2095065E+00;  0.0000000E+00; -1.2076560E+00;0;  2.0380313E+00;  1.7379328E+04;  0.0000000E+00;  1.5069123E-01;  4.0000000E+04;  0.0000000E+00;  3.9733754E+04;  1.9941057E+00;  0.0000000E+00;  4.3925706E-02;  3.6224492E+03;
  9.0936726E-01;  9.9999998E-03; -2.0060886E-01;7580;  6.9087497E-03;  0.0000000E+00;  8.3881058E-02;  9.9671869E+02;  1.5184170E-01; -2.7180796E+03;3; -6.6955199E+00;  0.0000000E+00; -1.4876540E+00;0;  2.1870787E+00;  1.7369436E+04;  0.0000000E+00;  1.2464517E-01;  4.0000000E+04;  0.0000000E+00;  3.9724469E+04;  2.1716797E+00;  0.0000000E+00;  1.5399090E-02;  2.4819250E+03;
  9.0938431E-01;  9.9999998E-03; -1.9060810E-01;7581;  1.1639193E-02;  0.0000000E+00;  8.3907887E-02;  9.9627686E+02;  1.5182589E-01; -3.0840879E+03;3; -1.1805940E+01;  0.0000000E+00; -1.8932530E+00;0;  2.3547230E+00;  1.7355740E+04;  0.0000000E+00;  1.0875539E-01;  4.0000000E+04;  0.0000000E+00;  3.9719312E+04;  2.3734462E+00;  0.0000000E+00; -1.8723181E-02;  1.9257731E+03;
  9.0939867E-01;  9.9999998E-03; -1.8060976E-01;7582;  1.5991066E-02;  0.0000000E+00;  8.3605960E-02;  9.9576300E+02;  1.5181431E-01; -3.5097395E+03;3; -1.6722837E+01;  0.0000000E+00; -1.3548858E+00;0;  2.5420103E+00;  1.7338617E+04;  0.0000000E+00;  1.0338478E-01;  4.0000000E+04;  0.0000000E+00;  3.9716500E+04;  2.5985756E+00;  0.0000000E+00; -5.6565341E-02;  1.6566270E+03;
  9.0942985E-01;  9.9999998E-03; -1.7061131E-01;7583;  1.9822625E-02;  0.0000000E+00;  8.2791641E-02;  9.9518225E+02;  1.5180665E-01; -3.9907891E+03;3; -2.1488491E+01;  0.0000000E+00; -1.1376020E+00;0;  2.7480741E+00;  1.7318820E+04;  0.0000000E+00;  1.0840111E-01;  4.0000000E+04;  0.0000000E+00;  3.9714512E+04;  2.8444998E+00;  0.0000000E+00; -9.6425802E-02;  1.5298339E+03;
  9.0949345E-01;  9.9999998E-03; -1.6060701E-01;7584;  2.3336180E-02;  0.0000000E+00;  8.1578813E-02;  9.9454919E+02;  1.5180340E-01; -4.5151880E+03;3; -2.5866302E+01;  0.0000000E+00; -8.9159691E-01;0;  2.9704566E+00;  1.7297293E+04;  0.0000000E+00;  1.2422089E-01;  4.0000000E+04;  0.0000000E+00;  3.9712859E+04;  3.1071985E+00;  0.0000000E+00; -1.3674200E-01;  1.4599778E+03;
  9.0959430E-01;  9.9999998E-03; -1.5059383E-01;7585;  2.6646497E-02;  0.0000000E+00;  8.0110401E-02;  9.9387769E+02;  1.5180333E-01; -5.0714321E+03;3; -3.1913744E+01;  0.0000000E+00; -8.5613704E-01;0;  3.2052248E+00;  1.7274883E+04;  0.0000000E+00;  1.5198278E-01;  4.0000000E+04;  0.0000000E+00;  3.9710945E+04;  3.3812597E+00;  0.0000000E+00; -1.7603484E-01;  1.4142908E+03;
  9.0973139E-01;  9.9999998E-03; -1.4057234E-01;7586;  3.1884424E-02;  0.0000000E+00;  7.8168735E-02;  9.9319879E+02;  1.5180771E-01; -5.6337979E+03;3; -4.2338375E+01;  0.0000000E+00; -1.3995625E-01;0;  3.4472096E+00;  1.7252555E+04;  0.0000000E+00;  1.9072205E-01;  4.0000000E+04;  0.0000000E+00;  3.9708539E+04;  3.6603358E+00;  0.0000000E+00; -2.1312624E-01;  1.3909747E+03;
  9.0988356E-01;  9.9999998E-03; -1.3054509E-01;7587;  3.9698683E-02;  0.0000000E+00;  7.5778350E-02;  9.9253180E+02;  1.5181638E-01; -6.1863384E+03;3; -5.2221539E+01;  0.0000000E+00; -1.8498260E-01;0;  3.6899962E+00;  1.7231256E+04;  0.0000000E+00;  2.3524086E-01;  4.0000000E+04;  0.0000000E+00;  3.9705434E+04;  3.9373763E+00;  0.0000000E+00; -2.4737999E-01;  1.4017673E+03;
  9.1002536E-01;  9.9999998E-03; -1.2051995E-01;7588;  4.9017701E-02;  0.0000000E+00;  7.2928749E-02;  9.9189758E+02;  1.5182793E-01; -6.7116729E+03;3; -6.0846088E+01;  0.0000000E+00; -9.8887265E-02;0;  3.9267852E+00;  1.7211766E+04;  0.0000000E+00;  2.7721635E-01;  4.0000000E+04;  0.0000000E+00;  3.9701418E+04;  4.2054019E+00;  0.0000000E+00; -2.7861661E-01;  1.4788257E+03;
  9.1013277E-01;  9.9999998E-03; -1.1050228E-01;7589;  5.8043942E-02;  0.0000000E+00;  6.9448926E-02;  9.9131049E+02;  1.5184233E-01; -7.1980034E+03;3; -6.7756203E+01;  0.0000000E+00;  2.2537927E-01;0;  4.1515398E+00;  1.7194658E+04;  0.0000000E+00;  3.0772159E-01;  4.0000000E+04;  0.0000000E+00;  3.9696473E+04;  4.4583440E+00;  0.0000000E+00; -3.0680442E-01;  1.6828049E+03;
  9.2569911E-01;  9.9999998E-03; -2.7100819E-01;7634; -2.3017740E-02;  0.0000000E+00;  3.9801233E-02;  9.9827484E+02;  1.5179875E-01; -1.4289673E+03;3;  2.5761715E+01;  0.0000000E+00; -1.0610962E+00;0;  2.0603609E+00;  1.7452982E+04;  0.0000000E+00;  9.0058672E-01;  4.0000000E+04;  0.0000000E+00;  3.9759309E+04;  1.8423108E+00;  0.0000000E+00;  2.1805020E-01;  7.6913779E+03;
  9.2538643E-01;  9.9999998E-03; -2.6096368E-01;7635; -2.3593256E-02;  0.0000000E+00;  5.0691426E-02;  9.9840125E+02;  1.5177999E-01; -1.3243003E+03;3;  2.0531946E+01;  0.0000000E+00; -1.2057756E+00;0;  2.0143123E+00;  1.7459135E+04;  0.0000000E+00;  6.2582064E-01;  4.0000000E+04;  0.0000000E+00;  3.9755668E+04;  1.8973248E+00;  0.0000000E+00;  1.1698742E-01;  6.8127773E+03;
  9.2517775E-01;  9.9999998E-03; -2.5092936E-01;7636; -2.0579094E-02;  0.0000000E+00;  6.2915094E-02;  9.9839966E+02;  1.5175554E-01; -1.3255848E+03;3;  1.5843156E+01;  0.0000000E+00;  4.1415648E+00;0;  2.0130534E+00;  1.7465152E+04;  0.0000000E+00;  3.8022596E-01;  4.0000000E+04;  0.0000000E+00;  3.9742227E+04;  1.9685045E+00;  0.0000000E+00;  4.4548962E-02;  4.8971577E+03;
  9.2526394E-01;  9.9999998E-03; -2.4087675E-01;7637; -1.6312368E-02;  0.0000000E+00;  6.8077385E-02;  9.9848541E+02;  1.5172413E-01; -1.2545878E+03;3;  1.1711003E+01;  0.0000000E+00;  6.1991539E+00;0;  2.1013048E+00;  1.7470453E+04;  0.0000000E+00;  1.9370092E-01;  4.0000000E+04;  0.0000000E+00;  3.9736863E+04;  2.0665929E+00;  0.0000000E+00;  3.4711849E-02;  4.0839827E+03;
  9.2532766E-01;  9.9999998E-03; -2.3078196E-01;7638; -1.1207382E-02;  0.0000000E+00;  7.0518136E-02;  9.9860449E+02;  1.5169656E-01; -1.1559426E+03;3;  7.5695667E+00;  0.0000000E+00;  6.7082262E+00;0;  2.2147186E+00;  1.7473100E+04;  0.0000000E+00;  6.4014499E-03;  4.0000000E+04;  0.0000000E+00;  3.9739723E+04;  2.1824381E+00;  0.0000000E+00;  3.2280385E-02;  4.3922246E+03;
  9.2531359E-01;  9.9999998E-03; -2.2069718E-01;7639; -5.8798189E-03;  0.0000000E+00;  7.2735921E-02;  9.9851727E+02;  1.5167573E-01; -1.2281737E+03;3;  2.8755550E+00;  0.0000000E+00;  6.6478167E+00;0;  2.3382518E+00;  1.7472451E+04;  0.0000000E+00; -1.7493889E-01;  4.0000000E+04;  0.0000000E+00;  3.9733734E+04;  2.3161647E+00;  0.0000000E+00;  2.2087054E-02;  3.6778477E+03;
  9.2523021E-01;  9.9999998E-03; -2.1065679E-01;7640; -5.5647653E-04;  0.0000000E+00;  7.4424259E-02;  9.9825378E+02;  1.5165941E-01; -1.4464469E+03;3; -1.7569325E+00;  0.0000000E+00;  6.8150158E+00;0;  2.4755967E+00;  1.7468234E+04;  0.0000000E+00; -3.3289105E-01;  4.0000000E+04;  0.0000000E+00;  3.9721578E+04;  2.4697909E+00;  0.0000000E+00;  5.8057499E-03;  2.3109929E+03;
  9.2511213E-01;  9.9999998E-03; -2.0064299E-01;7641;  4.4318945E-03;  0.0000000E+00;  7.5065821E-02;  9.9791754E+02;  1.5164334E-01; -1.7249540E+03;3; -5.9248157E+00;  0.0000000E+00;  7.1911650E+00;0;  2.6305559E+00;  1.7460393E+04;  0.0000000E+00; -4.5154321E-01;  4.0000000E+04;  0.0000000E+00;  3.9711352E+04;  2.6461663E+00;  0.0000000E+00; -1.5610397E-02;  1.4149749E+03;
  9.2498940E-01;  9.9999998E-03; -1.9062585E-01;7642;  9.0119261E-03;  0.0000000E+00;  7.5054556E-02;  9.9753662E+02;  1.5162908E-01; -2.0404902E+03;3; -1.1208174E+01;  0.0000000E+00;  6.9177747E+00;0;  2.8050749E+00;  1.7449225E+04;  0.0000000E+00; -5.2147591E-01;  4.0000000E+04;  0.0000000E+00;  3.9704836E+04;  2.8470323E+00;  0.0000000E+00; -4.1957326E-02;  1.1694867E+03;
  9.2489946E-01;  9.9999998E-03; -1.8060887E-01;7643;  1.3477928E-02;  0.0000000E+00;  7.4612856E-02;  9.9710559E+02;  1.5161797E-01; -2.3974990E+03;3; -1.6062386E+01;  0.0000000E+00;  6.9284959E+00;0;  3.0001936E+00;  1.7435264E+04;  0.0000000E+00; -5.3724378E-01;  4.0000000E+04;  0.0000000E+00;  3.9700496E+04;  3.0722034E+00;  0.0000000E+00; -7.2009772E-02;  1.1265043E+03;
  9.2485911E-01;  9.9999998E-03; -1.7058945E-01;7644;  1.7441869E-02;  0.0000000E+00;  7.3826216E-02;  9.9663922E+02;  1.5161034E-01; -2.7838342E+03;3; -2.1192776E+01;  0.0000000E+00;  6.7108579E+00;0;  3.2147141E+00;  1.7419459E+04;  0.0000000E+00; -4.9699083E-01;  4.0000000E+04;  0.0000000E+00;  3.9697621E+04;  3.3190460E+00;  0.0000000E+00; -1.0433190E-01;  1.0757904E+03;
  9.2487693E-01;  9.9999998E-03; -1.6056737E-01;7645;  2.2941431E-02;  0.0000000E+00;  7.2486244E-02;  9.9616437E+02;  1.5160578E-01; -3.1771309E+03;3; -3.6145927E+01;  0.0000000E+00;  8.4819355E+00;0;  3.4452512E+00;  1.7402871E+04;  0.0000000E+00; -4.0108031E-01;  4.0000000E+04;  0.0000000E+00;  3.9695285E+04;  3.5827146E+00;  0.0000000E+00; -1.3746326E-01;  1.0669861E+03;
  9.2495996E-01;  9.9999998E-03; -1.5054241E-01;7646;  4.0741723E-02;  0.0000000E+00;  7.0590287E-02;  9.9570020E+02;  1.5160497E-01; -3.5616379E+03;3; -6.1884293E+01;  0.0000000E+00;  4.3901348E+00;0;  3.6864541E+00;  1.7386691E+04;  0.0000000E+00; -2.5528139E-01;  4.0000000E+04;  0.0000000E+00;  3.9693629E+04;  3.8564932E+00;  0.0000000E+00; -1.7003919E-01;  1.2536864E+03;
  9.2511737E-01;  9.9999998E-03; -1.4051530E-01;7647;  6.4504012E-02;  0.0000000E+00;  6.9867492E-02;  9.9527191E+02;  1.5160687E-01; -3.9163733E+03;3; -7.3271240E+01;  0.0000000E+00;  3.2768393E+00;0;  3.9336138E+00;  1.7371777E+04;  0.0000000E+00; -7.3838115E-02;  4.0000000E+04;  0.0000000E+00;  3.9692012E+04;  4.1344795E+00;  0.0000000E+00; -2.0086569E-01;  1.6770443E+03;
  9.2534614E-01;  9.9999998E-03; -1.3048877E-01;7648;  9.0053529E-02;  0.0000000E+00;  6.8480529E-02;  9.9490173E+02;  1.5161160E-01; -4.2230190E+03;3; -8.3628487E+01;  0.0000000E+00;  3.3750813E+00;0;  4.1810884E+00;  1.7359211E+04;  0.0000000E+00;  1.2021860E-01;  4.0000000E+04;  0.0000000E+00;  3.9690203E+04;  4.4102235E+00;  0.0000000E+00; -2.2913480E-01;  2.2361687E+03;
  9.2560875E-01;  9.9999998E-03; -1.2046893E-01;7649;  1.1670285E-01;  0.0000000E+00;  6.6090904E-02;  9.9460358E+02;  1.5161936E-01; -4.4699736E+03;3; -9.2694252E+01;  0.0000000E+00;  3.5021596E+00;0;  4.4220223E+00;  1.7349580E+04;  0.0000000E+00;  2.9839000E-01;  4.0000000E+04;  0.0000000E+00;  3.9687539E+04;  4.6765113E+00;  0.0000000E+00; -2.5448889E-01;  2.8210986E+03;
  9.2586225E-01;  9.9999998E-03; -1.1046007E-01;7650;  1.4223276E-01;  0.0000000E+00;  6.2805362E-02;  9.9438129E+02;  1.5162858E-01; -4.6540771E+03;3; -1.0060859E+02;  0.0000000E+00;  3.7102244E+00;0;  4.6505890E+00;  1.7343186E+04;  0.0000000E+00;  4.3356508E-01;  4.0000000E+04;  0.0000000E+00;  3.9683949E+04;  4.9273438E+00;  0.0000000E+00; -2.7675480E-01;  3.3680757E+03;
  9.4222796E-01;  9.9999998E-03; -2.7107620E-01;7695; -2.5560664E-02;  0.0000000E+00;  4.7946323E-02;  9.9935480E+02;  1.5133224E-01; -5.3442041E+02;3;  2.6484484E+01;  0.0000000E+00;  5.0178556E+00;0;  2.6265130E+00;  1.7588096E+04;  0.0000000E+00;  8.6700356E-01;  4.0000000E+04;  0.0000000E+00;  3.9737051E+04;  2.6732678E+00;  0.0000000E+00; -4.6754900E-02;  5.7741650E+03;
  9.4191790E-01;  9.9999998E-03; -2.6105464E-01;7696; -2.5837760E-02;  0.0000000E+00;  5.3450685E-02;  9.9935962E+02;  1.5132432E-01; -5.3042212E+02;3;  2.1424641E+01;  0.0000000E+00;  9.5890903E+00;0;  2.6526361E+00;  1.7593561E+04;  0.0000000E+00;  8.5729438E-01;  4.0000000E+04;  0.0000000E+00;  3.9723523E+04;  2.7219532E+00;  0.0000000E+00; -6.9317117E-02;  4.3323228E+03;
  9.4169575E-01;  9.9999998E-03; -2.5104117E-01;7697; -2.3483196E-02;  0.0000000E+00;  5.7003412E-02;  9.9933099E+02;  1.5131274E-01; -5.5411981E+02;3;  1.6691751E+01;  0.0000000E+00;  1.1988082E+01;0;  2.7221799E+00;  1.7598752E+04;  0.0000000E+00;  6.7242396E-01;  4.0000000E+04;  0.0000000E+00;  3.9708230E+04;  2.7866774E+00;  0.0000000E+00; -6.4497463E-02;  2.7917344E+03;
  9.4168061E-01;  9.9999998E-03; -2.4101342E-01;7698; -1.8913297E-02;  0.0000000E+00;  5.8647435E-02;  9.9940710E+02;  1.5129124E-01; -4.9107538E+02;3;  1.2717686E+01;  0.0000000E+00;  1.3434613E+01;0;  2.8251035E+00;  1.7603516E+04;  0.0000000E+00;  3.9388427E-01;  4.0000000E+04;  0.0000000E+00;  3.9703316E+04;  2.8766112E+00;  0.0000000E+00; -5.1507674E-02;  1.7471155E+03;
  9.4157708E-01;  9.9999998E-03; -2.3093590E-01;7699; -1.3901597E-02;  0.0000000E+00;  5.9093043E-02;  9.9956641E+02;  1.5127265E-01; -3.5911166E+02;3;  8.6648922E+00;  0.0000000E+00;  1.3674165E+01;0;  2.9359217E+00;  1.7605590E+04;  0.0000000E+00;  2.8900491E-02;  4.0000000E+04;  0.0000000E+00;  3.9710934E+04;  2.9773483E+00;  0.0000000E+00; -4.1426774E-02;  9.8959155E+02;
  9.4134688E-01;  9.9999998E-03; -2.2084013E-01;7700; -8.3661983E-03;  0.0000000E+00;  6.0287163E-02;  9.9957025E+02;  1.5126082E-01; -3.5595230E+02;3;  3.6788378E+00;  0.0000000E+00;  1.3987275E+01;0;  3.0473163E+00;  1.7604328E+04;  0.0000000E+00; -3.4796137E-01;  4.0000000E+04;  0.0000000E+00;  3.9713156E+04;  3.0887995E+00;  0.0000000E+00; -4.1483261E-02;  1.2012727E+03;
  9.4107956E-01;  9.9999998E-03; -2.1078229E-01;7701; -2.8082493E-03;  0.0000000E+00;  6.1407972E-02;  9.9935901E+02;  1.5125242E-01; -5.3091748E+02;3; -1.3828275E+00;  0.0000000E+00;  1.4340570E+01;0;  3.1697240E+00;  1.7599945E+04;  0.0000000E+00; -6.6707426E-01;  4.0000000E+04;  0.0000000E+00;  3.9705422E+04;  3.2174444E+00;  0.0000000E+00; -4.7720440E-02;  1.4344028E+03;
  9.4079417E-01;  9.9999998E-03; -2.0074210E-01;7702;  2.6919032E-03;  0.0000000E+00;  6.1705612E-02;  9.9906390E+02;  1.5124589E-01; -7.7534564E+02;3; -6.0993919E+00;  0.0000000E+00;  1.5298056E+01;0;  3.3068421E+00;  1.7592623E+04;  0.0000000E+00; -9.0120983E-01;  4.0000000E+04;  0.0000000E+00;  3.9696730E+04;  3.3654931E+00;  0.0000000E+00; -5.8650885E-02;  2.2288018E+03;
  9.4051856E-01;  9.9999998E-03; -1.9069599E-01;7703;  7.9168128E-03;  0.0000000E+00;  6.1270416E-02;  9.9872510E+02;  1.5124023E-01; -1.0559622E+03;3; -1.1547482E+01;  0.0000000E+00;  1.5446070E+01;0;  3.4605041E+00;  1.7582725E+04;  0.0000000E+00; -1.0414392E+00;  4.0000000E+04;  0.0000000E+00;  3.9689629E+04;  3.5346353E+00;  0.0000000E+00; -7.4131250E-02;  2.9015312E+03;
  9.4029737E-01;  9.9999998E-03; -1.8064976E-01;7704;  1.3834995E-02;  0.0000000E+00;  6.0174290E-02;  9.9836121E+02;  1.5123676E-01; -1.3573634E+03;3; -2.0407263E+01;  0.0000000E+00;  1.7020998E+01;0;  3.6318207E+00;  1.7571064E+04;  0.0000000E+00; -1.0867003E+00;  4.0000000E+04;  0.0000000E+00;  3.9684074E+04;  3.7251046E+00;  0.0000000E+00; -9.3283951E-02;  3.3311172E+03;
  9.4016725E-01;  9.9999998E-03; -1.7059864E-01;7705;  3.8457558E-02;  0.0000000E+00;  5.8578286E-02;  9.9800415E+02;  1.5123484E-01; -1.6531365E+03;3; -6.0231033E+01;  0.0000000E+00;  1.0014007E+01;0;  3.8186519E+00;  1.7558908E+04;  0.0000000E+00; -1.0388463E+00;  4.0000000E+04;  0.0000000E+00;  3.9679891E+04;  3.9336112E+00;  0.0000000E+00; -1.1495914E-01;  3.5300339E+03;
  9.4013083E-01;  9.9999998E-03; -1.6054945E-01;7706;  7.8197144E-02;  0.0000000E+00;  6.0935449E-02;  9.9767987E+02;  1.5123320E-01; -1.9217068E+03;3; -7.2539795E+01;  0.0000000E+00;  8.8549566E+00;0;  4.0184522E+00;  1.7547326E+04;  0.0000000E+00; -9.0023613E-01;  4.0000000E+04;  0.0000000E+00;  3.9676957E+04;  4.1563139E+00;  0.0000000E+00; -1.3786161E-01;  3.5698037E+03;
  9.4018286E-01;  9.9999998E-03; -1.5050523E-01;7707;  1.1841087E-01;  0.0000000E+00;  6.1373517E-02;  9.9742407E+02;  1.5123326E-01; -2.1336001E+03;3; -8.2952095E+01;  0.0000000E+00;  8.9509430E+00;0;  4.2274723E+00;  1.7537475E+04;  0.0000000E+00; -6.8109041E-01;  4.0000000E+04;  0.0000000E+00;  3.9675285E+04;  4.3879538E+00;  0.0000000E+00; -1.6048141E-01;  3.5696570E+03;
  9.4031447E-01;  9.9999998E-03; -1.4047393E-01;7708;  1.5760961E-01;  0.0000000E+00;  6.0361687E-02;  9.9725635E+02;  1.5123482E-01; -2.2725247E+03;3; -9.2120461E+01;  0.0000000E+00;  9.1078501E+00;0;  4.4399834E+00;  1.7530514E+04;  0.0000000E+00; -4.0548742E-01;  4.0000000E+04;  0.0000000E+00;  3.9674359E+04;  4.6217299E+00;  0.0000000E+00; -1.8174633E-01;  3.6781360E+03;
  9.4051468E-01;  9.9999998E-03; -1.3045546E-01;7709;  1.9414899E-01;  0.0000000E+00;  5.8354884E-02;  9.9719171E+02;  1.5123713E-01; -2.3260393E+03;3; -1.0023828E+02;  0.0000000E+00;  9.2553797E+00;0;  4.6508508E+00;  1.7527252E+04;  0.0000000E+00; -1.1017986E-01;  4.0000000E+04;  0.0000000E+00;  3.9673742E+04;  4.8516455E+00;  0.0000000E+00; -2.0079449E-01;  3.9747417E+03;
  9.4075173E-01;  9.9999998E-03; -1.2044690E-01;7710;  2.2682206E-01;  0.0000000E+00;  5.5486497E-02;  9.9723328E+02;  1.5124001E-01; -2.2916270E+03;3; -1.0707497E+02;  0.0000000E+00;  9.2528820E+00;0;  4.8550892E+00;  1.7528012E+04;  0.0000000E+00;  1.6144861E-01;  4.0000000E+04;  0.0000000E+00;  3.9672605E+04;  5.0722046E+00;  0.0000000E+00; -2.1711542E-01;  4.4138340E+03;
  9.4099689E-01;  9.9999998E-03; -1.1044425E-01;7711;  2.5459534E-01;  0.0000000E+00;  5.2099053E-02;  9.9736707E+02;  1.5124340E-01; -2.1807908E+03;3; -1.1312170E+02;  0.0000000E+00;  9.0784273E+00;0;  5.0490646E+00;  1.7532723E+04;  0.0000000E+00;  3.6981872E-01;  4.0000000E+04;  0.0000000E+00;  3.9670523E+04;  5.2794471E+00;  0.0000000E+00; -2.3038240E-01;  4.8953804E+03;
  9.5748574E-01;  9.9999998E-03; -2.7117029E-01;7756; -2.7861180E-02;  0.0000000E+00;  5.3459048E-02;  9.9878949E+02;  1.5061091E-01; -1.0025731E+03;3;  2.6452692E+01;  0.0000000E+00;  1.6537582E+01;0;  3.3992667E+00;  1.7737561E+04;  0.0000000E+00;  1.1187854E+00;  4.0000000E+04;  0.0000000E+00;  3.9683684E+04;  3.7075601E+00;  0.0000000E+00; -3.0829340E-01;  5.7738564E+03;
  9.5718306E-01;  9.9999998E-03; -2.6116103E-01;7757; -2.7781056E-02;  0.0000000E+00;  5.1791001E-02;  9.9895996E+02;  1.5061615E-01; -8.6138770E+02;3;  2.1607763E+01;  0.0000000E+00;  1.7325825E+01;0;  3.5039213E+00;  1.7744701E+04;  0.0000000E+00;  8.5598344E-01;  4.0000000E+04;  0.0000000E+00;  3.9676105E+04;  3.7443168E+00;  0.0000000E+00; -2.4039546E-01;  5.3229761E+03;
  9.5695031E-01;  9.9999998E-03; -2.5115606E-01;7758; -2.5525231E-02;  0.0000000E+00;  5.0429191E-02;  9.9912848E+02;  1.5061848E-01; -7.2183075E+02;3;  1.6928858E+01;  0.0000000E+00;  1.7768921E+01;0;  3.6053629E+00;  1.7751230E+04;  0.0000000E+00;  5.2396709E-01;  4.0000000E+04;  0.0000000E+00;  3.9671047E+04;  3.7939787E+00;  0.0000000E+00; -1.8861589E-01;  5.0362842E+03;
  9.5681918E-01;  9.9999998E-03; -2.4114953E-01;7759; -2.1203183E-02;  0.0000000E+00;  4.9205843E-02;  9.9931030E+02;  1.5061474E-01; -5.7121515E+02;3;  1.2467465E+01;  0.0000000E+00;  1.8837210E+01;0;  3.7073545E+00;  1.7756887E+04;  0.0000000E+00;  1.3101940E-01;  4.0000000E+04;  0.0000000E+00;  3.9670473E+04;  3.8596592E+00;  0.0000000E+00; -1.5230474E-01;  4.5472539E+03;
  9.5663649E-01;  9.9999998E-03; -2.3111004E-01;7760; -1.5555967E-02;  0.0000000E+00;  4.7580283E-02;  9.9954486E+02;  1.5061188E-01; -3.7695987E+02;3;  8.5546179E+00;  0.0000000E+00;  2.0460548E+01;0;  3.8055961E+00;  1.7760211E+04;  0.0000000E+00; -2.9985765E-01;  4.0000000E+04;  0.0000000E+00;  3.9679531E+04;  3.9322388E+00;  0.0000000E+00; -1.2664264E-01;  3.1424111E+03;
  9.5636600E-01;  9.9999998E-03; -2.2104616E-01;7761; -9.5033497E-03;  0.0000000E+00;  4.6135787E-02;  9.9967639E+02;  1.5061374E-01; -2.6800912E+02;3;  3.5554051E+00;  0.0000000E+00;  2.1229313E+01;0;  3.8987882E+00;  1.7760553E+04;  0.0000000E+00; -7.0309597E-01;  4.0000000E+04;  0.0000000E+00;  3.9686598E+04;  4.0109539E+00;  0.0000000E+00; -1.1216562E-01;  2.3296589E+03;
  9.5602947E-01;  9.9999998E-03; -2.1100931E-01;7762; -2.8300618E-03;  0.0000000E+00;  4.4783629E-02;  9.9961218E+02;  1.5062074E-01; -3.2117703E+02;3; -1.9478098E+00;  0.0000000E+00;  2.2031008E+01;0;  3.9920552E+00;  1.7757732E+04;  0.0000000E+00; -1.0310041E+00;  4.0000000E+04;  0.0000000E+00;  3.9684289E+04;  4.0979748E+00;  0.0000000E+00; -1.0591967E-01;  2.9350544E+03;
  9.5568442E-01;  9.9999998E-03; -2.0098385E-01;7763;  4.5735231E-03;  0.0000000E+00;  4.3111112E-02;  9.9944708E+02;  1.5062857E-01; -4.5792233E+02;3; -8.3923597E+00;  0.0000000E+00;  2.3009043E+01;0;  4.0918179E+00;  1.7752254E+04;  0.0000000E+00; -1.2625899E+00;  4.0000000E+04;  0.0000000E+00;  3.9679441E+04;  4.1974635E+00;  0.0000000E+00; -1.0564579E-01;  3.7300105E+03;
  9.5534801E-01;  9.9999998E-03; -1.9093539E-01;7764;  1.8108239E-02;  0.0000000E+00;  4.0328167E-02;  9.9922925E+02;  1.5063718E-01; -6.3835736E+02;3; -3.3726936E+01;  0.0000000E+00;  2.4575098E+01;0;  4.1999307E+00;  1.7744568E+04;  0.0000000E+00; -1.3960699E+00;  4.0000000E+04;  0.0000000E+00;  3.9674816E+04;  4.3096366E+00;  0.0000000E+00; -1.0970598E-01;  4.3556948E+03;
  9.5503598E-01;  9.9999998E-03; -1.8086830E-01;7765;  6.0290560E-02;  0.0000000E+00;  4.0052269E-02;  9.9897644E+02;  1.5064508E-01; -8.4772156E+02;3; -5.7713062E+01;  0.0000000E+00;  1.9279016E+01;0;  4.3150578E+00;  1.7735637E+04;  0.0000000E+00; -1.4320343E+00;  4.0000000E+04;  0.0000000E+00;  3.9669594E+04;  4.4326663E+00;  0.0000000E+00; -1.1760858E-01;  4.8834072E+03;
  9.5476741E-01;  9.9999998E-03; -1.7078958E-01;7766;  1.0636717E-01;  0.0000000E+00;  4.1285876E-02;  9.9873022E+02;  1.5065333E-01; -1.0516559E+03;3; -6.7371048E+01;  0.0000000E+00;  1.8698315E+01;0;  4.4416089E+00;  1.7726734E+04;  0.0000000E+00; -1.3694601E+00;  4.0000000E+04;  0.0000000E+00;  3.9664832E+04;  4.5688553E+00;  0.0000000E+00; -1.2724657E-01;  5.2872822E+03;
  9.5458859E-01;  9.9999998E-03; -1.6070829E-01;7767;  1.5142316E-01;  0.0000000E+00;  4.1819431E-02;  9.9854193E+02;  1.5065882E-01; -1.2076058E+03;3; -7.6487251E+01;  0.0000000E+00;  1.8240416E+01;0;  4.5788970E+00;  1.7719424E+04;  0.0000000E+00; -1.2099707E+00;  4.0000000E+04;  0.0000000E+00;  3.9661199E+04;  4.7167158E+00;  0.0000000E+00; -1.3781904E-01;  5.5321577E+03;
  9.5453250E-01;  9.9999998E-03; -1.5063305E-01;7768;  1.9459851E-01;  0.0000000E+00;  4.1513793E-02;  9.9845544E+02;  1.5066306E-01; -1.2792371E+03;3; -8.5008278E+01;  0.0000000E+00;  1.7768843E+01;0;  4.7240725E+00;  1.7714930E+04;  0.0000000E+00; -9.6575612E-01;  4.0000000E+04;  0.0000000E+00;  3.9659062E+04;  4.8725300E+00;  0.0000000E+00; -1.4845730E-01;  5.6365532E+03;
  9.5461500E-01;  9.9999998E-03; -1.4056584E-01;7769;  2.3631538E-01;  0.0000000E+00;  4.0334597E-02;  9.9849646E+02;  1.5066558E-01; -1.2452723E+03;3; -9.2728813E+01;  0.0000000E+00;  1.7332550E+01;0;  4.8733659E+00;  1.7714605E+04;  0.0000000E+00; -6.6441315E-01;  4.0000000E+04;  0.0000000E+00;  3.9658516E+04;  5.0313931E+00;  0.0000000E+00; -1.5802701E-01;  5.6853633E+03;
  9.5482367E-01;  9.9999998E-03; -1.3049972E-01;7770;  2.7633095E-01;  0.0000000E+00;  3.8433630E-02;  9.9868268E+02;  1.5066521E-01; -1.0910502E+03;3; -9.9738838E+01;  0.0000000E+00;  1.6925386E+01;0;  5.0224137E+00;  1.7719205E+04;  0.0000000E+00; -3.4658593E-01;  4.0000000E+04;  0.0000000E+00;  3.9658684E+04;  5.1879268E+00;  0.0000000E+00; -1.6551304E-01;  5.7755381E+03;
  9.5509267E-01;  9.9999998E-03; -1.2044433E-01;7771;  3.1360018E-01;  0.0000000E+00;  3.5966989E-02;  9.9899945E+02;  1.5066311E-01; -8.2866595E+02;3; -1.0576291E+02;  0.0000000E+00;  1.6540329E+01;0;  5.1663146E+00;  1.7728762E+04;  0.0000000E+00; -5.8406711E-02;  4.0000000E+04;  0.0000000E+00;  3.9658848E+04;  5.3365932E+00;  0.0000000E+00; -1.7027846E-01;  5.9531294E+03;
  9.5539105E-01;  9.9999998E-03; -1.1041021E-01;7772;  3.4754598E-01;  0.0000000E+00;  3.3100694E-02;  9.9942572E+02;  1.5065849E-01; -4.7564548E+02;3; -1.1081579E+02;  0.0000000E+00;  1.6138426E+01;0;  5.3024631E+00;  1.7742787E+04;  0.0000000E+00;  1.6042332E-01;  4.0000000E+04;  0.0000000E+00;  3.9657895E+04;  5.4743552E+00;  0.0000000E+00; -1.7189202E-01;  6.2204941E+03;
  9.7189218E-01;  9.9999998E-03; -2.7122527E-01;7817; -2.7537994E-02;  0.0000000E+00;  5.1414702E-02;  9.9710614E+02;  1.4963830E-01; -2.3965864E+03;3;  2.4729830E+01;  0.0000000E+00;  2.1978504E+01;0;  4.2699518E+00;  1.7902305E+04;  0.0000000E+00;  1.3515469E+00;  4.0000000E+04;  0.0000000E+00;  3.9658672E+04;  4.7661080E+00;  0.0000000E+00; -4.9615642E-01;  7.9384785E+03;
  9.7168684E-01;  9.9999998E-03; -2.6123658E-01;7818; -2.6739329E-02;  0.0000000E+00;  4.7208581E-02;  9.9735303E+02;  1.4965342E-01; -2.1921306E+03;3;  2.0402418E+01;  0.0000000E+00;  2.4557947E+01;0;  4.3992310E+00;  1.7913533E+04;  0.0000000E+00;  8.1722760E-01;  4.0000000E+04;  0.0000000E+00;  3.9644852E+04;  4.7933640E+00;  0.0000000E+00; -3.9413306E-01;  8.3474189E+03;
  9.7151971E-01;  9.9999998E-03; -2.5122863E-01;7819; -2.4015814E-02;  0.0000000E+00;  4.0911861E-02;  9.9783215E+02;  1.4966671E-01; -1.7953087E+03;3;  1.5203033E+01;  0.0000000E+00;  2.6332346E+01;0;  4.5284772E+00;  1.7924008E+04;  0.0000000E+00;  3.6304551E-01;  4.0000000E+04;  0.0000000E+00;  3.9652234E+04;  4.8265686E+00;  0.0000000E+00; -2.9809129E-01;  6.9974160E+03;
  9.7139037E-01;  9.9999998E-03; -2.4121612E-01;7820; -1.9007796E-02;  0.0000000E+00;  3.5284329E-02;  9.9828650E+02;  1.4967763E-01; -1.4190699E+03;3;  9.6044207E+00;  0.0000000E+00;  2.7593107E+01;0;  4.6299405E+00;  1.7933695E+04;  0.0000000E+00; -4.6042949E-02;  4.0000000E+04;  0.0000000E+00;  3.9661461E+04;  4.8654037E+00;  0.0000000E+00; -2.3546302E-01;  5.5923027E+03;
  9.7126257E-01;  9.9999998E-03; -2.3118706E-01;7821; -1.1611419E-02;  0.0000000E+00;  3.0207591E-02;  9.9869849E+02;  1.4968960E-01; -1.0778779E+03;3;  3.0530095E+00;  0.0000000E+00;  2.9084803E+01;0;  4.7106752E+00;  1.7941580E+04;  0.0000000E+00; -4.1611412E-01;  4.0000000E+04;  0.0000000E+00;  3.9672121E+04;  4.9072757E+00;  0.0000000E+00; -1.9660029E-01;  4.1107256E+03;
  9.7109222E-01;  9.9999998E-03; -2.2114073E-01;7822;  3.7914074E-03;  0.0000000E+00;  2.5008827E-02;  9.9900281E+02;  1.4970544E-01; -8.2583417E+02;3; -1.8679401E+01;  0.0000000E+00;  3.0293064E+01;0;  4.7762737E+00;  1.7946754E+04;  0.0000000E+00; -7.3583364E-01;  4.0000000E+04;  0.0000000E+00;  3.9679523E+04;  4.9484701E+00;  0.0000000E+00; -1.7219619E-01;  3.1427356E+03;
  9.7091645E-01;  9.9999998E-03; -2.1109791E-01;7823;  3.5750449E-02;  0.0000000E+00;  2.1235546E-02;  9.9914758E+02;  1.4972515E-01; -7.0593341E+02;3; -3.2875427E+01;  0.0000000E+00;  2.9326891E+01;0;  4.8308244E+00;  1.7949234E+04;  0.0000000E+00; -9.8985273E-01;  4.0000000E+04;  0.0000000E+00;  3.9679719E+04;  4.9905329E+00;  0.0000000E+00; -1.5970850E-01;  3.1507224E+03;
  9.7069150E-01;  9.9999998E-03; -2.0105724E-01;7824;  7.4960671E-02;  0.0000000E+00;  1.9248225E-02;  9.9916516E+02;  1.4974706E-01; -6.9137238E+02;3; -4.2692390E+01;  0.0000000E+00;  2.8745533E+01;0;  4.8795843E+00;  1.7948803E+04;  0.0000000E+00; -1.1770155E+00;  4.0000000E+04;  0.0000000E+00;  3.9675734E+04;  5.0324254E+00;  0.0000000E+00; -1.5284103E-01;  3.7011636E+03;
  9.7042173E-01;  9.9999998E-03; -1.9100223E-01;7825;  1.1713861E-01;  0.0000000E+00;  1.8032445E-02;  9.9910327E+02;  1.4977068E-01; -7.4266125E+02;3; -5.1429058E+01;  0.0000000E+00;  2.8114473E+01;0;  4.9272780E+00;  1.7945822E+04;  0.0000000E+00; -1.2918180E+00;  4.0000000E+04;  0.0000000E+00;  3.9669957E+04;  5.0751009E+00;  0.0000000E+00; -1.4782307E-01;  4.4483145E+03;
  9.7013575E-01;  9.9999998E-03; -1.8094000E-01;7826;  1.6098003E-01;  0.0000000E+00;  1.7373757E-02;  9.9899219E+02;  1.4979331E-01; -8.3462524E+02;3; -5.9527664E+01;  0.0000000E+00;  2.7465580E+01;0;  4.9762726E+00;  1.7941516E+04;  0.0000000E+00; -1.3293866E+00;  4.0000000E+04;  0.0000000E+00;  3.9663098E+04;  5.1199837E+00;  0.0000000E+00; -1.4371119E-01;  5.2896787E+03;
  9.6987718E-01;  9.9999998E-03; -1.7086512E-01;7827;  2.0598567E-01;  0.0000000E+00;  1.6976081E-02;  9.9889050E+02;  1.4981434E-01; -9.1883942E+02;3; -6.7334213E+01;  0.0000000E+00;  2.6827801E+01;0;  5.0284967E+00;  1.7937199E+04;  0.0000000E+00; -1.2873839E+00;  4.0000000E+04;  0.0000000E+00;  3.9656465E+04;  5.1686091E+00;  0.0000000E+00; -1.4011244E-01;  6.0710454E+03;
  9.6974373E-01;  9.9999998E-03; -1.6078539E-01;7828;  2.5172988E-01;  0.0000000E+00;  1.6331753E-02;  9.9885541E+02;  1.4983219E-01; -9.4791479E+02;3; -7.4658684E+01;  0.0000000E+00;  2.6212238E+01;0;  5.0863032E+00;  1.7934717E+04;  0.0000000E+00; -1.1660731E+00;  4.0000000E+04;  0.0000000E+00;  3.9651094E+04;  5.2229748E+00;  0.0000000E+00; -1.3667153E-01;  6.6788477E+03;
  9.6969992E-01;  9.9999998E-03; -1.5068544E-01;7829;  2.9697287E-01;  0.0000000E+00;  1.5422001E-02;  9.9893103E+02;  1.4984491E-01; -8.8527362E+02;3; -8.1421623E+01;  0.0000000E+00;  2.5643003E+01;0;  5.1468616E+00;  1.7935375E+04;  0.0000000E+00; -9.7649163E-01;  4.0000000E+04;  0.0000000E+00;  3.9647957E+04;  5.2795963E+00;  0.0000000E+00; -1.3273482E-01;  7.0560728E+03;
  9.6970522E-01;  9.9999998E-03; -1.4057833E-01;7830;  3.4077489E-01;  0.0000000E+00;  1.4221460E-02;  9.9914117E+02;  1.4985274E-01; -7.1126953E+02;3; -8.7342453E+01;  0.0000000E+00;  2.5089003E+01;0;  5.2079043E+00;  1.7940240E+04;  0.0000000E+00; -7.4315506E-01;  4.0000000E+04;  0.0000000E+00;  3.9646902E+04;  5.3356113E+00;  0.0000000E+00; -1.2770696E-01;  7.2183892E+03;
  9.6975827E-01;  9.9999998E-03; -1.3048191E-01;7831;  3.8212776E-01;  0.0000000E+00;  1.2819479E-02;  9.9949261E+02;  1.4985372E-01; -4.2022589E+02;3; -9.2556290E+01;  0.0000000E+00;  2.4605377E+01;0;  5.2685671E+00;  1.7949992E+04;  0.0000000E+00; -5.0011182E-01;  4.0000000E+04;  0.0000000E+00;  3.9647125E+04;  5.3895736E+00;  0.0000000E+00; -1.2100636E-01;  7.2518779E+03;
  9.6991915E-01;  9.9999998E-03; -1.2040978E-01;7832;  4.2083892E-01;  0.0000000E+00;  1.0939109E-02;  9.9998529E+02;  1.4984757E-01; -1.2192612E+01;3; -9.6785172E+01;  0.0000000E+00;  2.4238447E+01;0;  5.3284593E+00;  1.7965143E+04;  0.0000000E+00; -2.8334701E-01;  4.0000000E+04;  0.0000000E+00;  3.9647543E+04;  5.4402590E+00;  0.0000000E+00; -1.1179959E-01;  7.2765547E+03;
  9.7022629E-01;  9.9999998E-03; -1.1037148E-01;7833;  4.5685944E-01;  0.0000000E+00;  8.5340133E-03;  1.0005865E+03;  1.4983621E-01;  4.8572913E+02;3; -9.9949287E+01;  0.0000000E+00;  2.4034330E+01;0;  5.3859601E+00;  1.7985703E+04;  0.0000000E+00; -1.2200889E-01;  4.0000000E+04;  0.0000000E+00;  3.9647207E+04;  5.4851956E+00;  0.0000000E+00; -9.9235624E-02;  7.4017563E+03;
  9.8567367E-01;  9.9999998E-03; -2.7121878E-01;7878;  4.9181521E-02;  0.0000000E+00;  3.3601999E-02;  9.9513391E+02;  1.4843431E-01; -4.0295273E+03;3; -2.1387323E+01;  0.0000000E+00;  2.4280462E+01;0;  5.1443248E+00;  1.8105938E+04;  0.0000000E+00;  1.4749423E+00;  4.0000000E+04;  0.0000000E+00;  3.9679215E+04;  5.6440196E+00;  0.0000000E+00; -4.9969471E-01;  5.9181284E+03;
  9.8557514E-01;  9.9999998E-03; -2.6124093E-01;7879;  6.1429109E-02;  0.0000000E+00;  2.7305910E-02;  9.9540100E+02;  1.4845082E-01; -3.8083574E+03;3; -2.4093197E+01;  0.0000000E+00;  2.7521517E+01;0;  5.2549753E+00;  1.8122824E+04;  0.0000000E+00;  1.0489063E+00;  4.0000000E+04;  0.0000000E+00;  3.9654859E+04;  5.6598825E+00;  0.0000000E+00; -4.0490699E-01;  7.3846689E+03;
  9.8547262E-01;  9.9999998E-03; -2.5123596E-01;7880;  7.5015105E-02;  0.0000000E+00;  1.7681340E-02;  9.9601880E+02;  1.4846687E-01; -3.2967651E+03;3; -2.7596519E+01;  0.0000000E+00;  2.9904160E+01;0;  5.3643494E+00;  1.8139195E+04;  0.0000000E+00;  6.8305308E-01;  4.0000000E+04;  0.0000000E+00;  3.9659844E+04;  5.6736846E+00;  0.0000000E+00; -3.0933541E-01;  6.5001221E+03;
  9.8537207E-01;  9.9999998E-03; -2.4120827E-01;7881;  9.3597300E-02;  0.0000000E+00;  1.0082389E-02;  9.9672186E+02;  1.4848423E-01; -2.7145898E+03;3; -3.0730787E+01;  0.0000000E+00;  3.1002119E+01;0;  5.4272046E+00;  1.8155131E+04;  0.0000000E+00;  3.6691934E-01;  4.0000000E+04;  0.0000000E+00;  3.9673863E+04;  5.6846743E+00;  0.0000000E+00; -2.5746965E-01;  4.7609771E+03;
  9.8528659E-01;  9.9999998E-03; -2.3118314E-01;7882;  1.1689298E-01;  0.0000000E+00;  4.6335412E-03;  9.9729071E+02;  1.4850432E-01; -2.2435188E+03;3; -3.4384594E+01;  0.0000000E+00;  3.1282480E+01;0;  5.4607954E+00;  1.8169930E+04;  0.0000000E+00;  9.9685691E-02;  4.0000000E+04;  0.0000000E+00;  3.9680664E+04;  5.6919961E+00;  0.0000000E+00; -2.3120056E-01;  3.8311780E+03;
  9.8523271E-01;  9.9999998E-03; -2.2116202E-01;7883;  1.4408657E-01;  0.0000000E+00;  3.0903774E-04;  9.9773193E+02;  1.4852615E-01; -1.8781716E+03;3; -3.8358116E+01;  0.0000000E+00;  3.1369890E+01;0;  5.4798460E+00;  1.8182939E+04;  0.0000000E+00; -1.1354928E-01;  4.0000000E+04;  0.0000000E+00;  3.9681961E+04;  5.6947246E+00;  0.0000000E+00; -2.1487862E-01;  3.5195620E+03;
  9.8523587E-01;  9.9999998E-03; -2.1113230E-01;7884;  1.7540167E-01;  0.0000000E+00; -3.2701441E-03;  9.9808319E+02;  1.4854977E-01; -1.5873047E+03;3; -4.3136623E+01;  0.0000000E+00;  3.0903887E+01;0;  5.4898186E+00;  1.8193869E+04;  0.0000000E+00; -2.7652845E-01;  4.0000000E+04;  0.0000000E+00;  3.9680512E+04;  5.6921573E+00;  0.0000000E+00; -2.0233865E-01;  3.5595938E+03;
  9.8530853E-01;  9.9999998E-03; -2.0108069E-01;7885;  2.1086395E-01;  0.0000000E+00; -6.4100567E-03;  9.9834430E+02;  1.4857508E-01; -1.3710664E+03;3; -4.8430386E+01;  0.0000000E+00;  3.0576712E+01;0;  5.4923873E+00;  1.8202674E+04;  0.0000000E+00; -3.9981589E-01;  4.0000000E+04;  0.0000000E+00;  3.9676695E+04;  5.6828823E+00;  0.0000000E+00; -1.9049492E-01;  3.9243857E+03;
  9.8539102E-01;  9.9999998E-03; -1.9099972E-01;7886;  2.4969949E-01;  0.0000000E+00; -9.1411611E-03;  9.9852710E+02;  1.4860304E-01; -1.2196848E+03;3; -5.3811131E+01;  0.0000000E+00;  3.0381475E+01;0;  5.4855571E+00;  1.8209246E+04;  0.0000000E+00; -4.9411902E-01;  4.0000000E+04;  0.0000000E+00;  3.9670270E+04;  5.6633501E+00;  0.0000000E+00; -1.7779288E-01;  4.6218438E+03;
  9.8549950E-01;  9.9999998E-03; -1.8090715E-01;7887;  2.9092965E-01;  0.0000000E+00; -1.1656271E-02;  9.9865070E+02;  1.4863105E-01; -1.1173649E+03;3; -5.9143364E+01;  0.0000000E+00;  2.9993977E+01;0;  5.4702692E+00;  1.8214432E+04;  0.0000000E+00; -5.6064588E-01;  4.0000000E+04;  0.0000000E+00;  3.9662035E+04;  5.6338468E+00;  0.0000000E+00; -1.6357768E-01;  5.5801040E+03;
  9.8554277E-01;  9.9999998E-03; -1.7081529E-01;7888;  3.3268601E-01;  0.0000000E+00; -1.3696759E-02;  9.9875995E+02;  1.4865895E-01; -1.0268915E+03;3; -6.4271248E+01;  0.0000000E+00;  2.9530924E+01;0;  5.4456630E+00;  1.8218492E+04;  0.0000000E+00; -6.0350019E-01;  4.0000000E+04;  0.0000000E+00;  3.9654051E+04;  5.5931845E+00;  0.0000000E+00; -1.4752150E-01;  6.5504756E+03;
  9.8555201E-01;  9.9999998E-03; -1.6072932E-01;7889;  3.7452367E-01;  0.0000000E+00; -1.5329426E-02;  9.9890680E+02;  1.4868355E-01; -9.0527350E+02;3; -6.9058594E+01;  0.0000000E+00;  2.8947313E+01;0;  5.4150267E+00;  1.8222941E+04;  0.0000000E+00; -6.1645919E-01;  4.0000000E+04;  0.0000000E+00;  3.9647504E+04;  5.5447216E+00;  0.0000000E+00; -1.2969516E-01;  7.3333237E+03;
  9.8562771E-01;  9.9999998E-03; -1.5066276E-01;7890;  4.1613334E-01;  0.0000000E+00; -1.6793201E-02;  9.9913892E+02;  1.4869973E-01; -7.1307343E+02;3; -7.3453781E+01;  0.0000000E+00;  2.8166100E+01;0;  5.3817806E+00;  1.8229949E+04;  0.0000000E+00; -5.9590697E-01;  4.0000000E+04;  0.0000000E+00;  3.9643414E+04;  5.4918928E+00;  0.0000000E+00; -1.1011196E-01;  7.8384565E+03;
  9.8576891E-01;  9.9999998E-03; -1.4059985E-01;7891;  4.5712054E-01;  0.0000000E+00; -1.8251166E-02;  9.9948199E+02;  1.4870858E-01; -4.2896893E+02;3; -7.7180031E+01;  0.0000000E+00;  2.7608604E+01;0;  5.3469348E+00;  1.8240574E+04;  0.0000000E+00; -5.5197001E-01;  4.0000000E+04;  0.0000000E+00;  3.9641480E+04;  5.4355440E+00;  0.0000000E+00; -8.8609412E-02;  8.0876855E+03;
  9.8586166E-01;  9.9999998E-03; -1.3053362E-01;7892;  4.9634841E-01;  0.0000000E+00; -1.9597340E-02;  9.9993597E+02;  1.4871050E-01; -5.3010281E+01;3; -7.9941574E+01;  0.0000000E+00;  2.7178743E+01;0;  5.3121710E+00;  1.8254381E+04;  0.0000000E+00; -4.9901870E-01;  4.0000000E+04;  0.0000000E+00;  3.9641012E+04;  5.3774676E+00;  0.0000000E+00; -6.5296747E-02;  8.1704565E+03;
  9.8582631E-01;  9.9999998E-03; -1.2046684E-01;7893;  5.3208256E-01;  0.0000000E+00; -2.0664658E-02;  1.0004746E+03;  1.4871006E-01;  3.9298694E+02;3; -8.1844116E+01;  0.0000000E+00;  2.6749336E+01;0;  5.2813344E+00;  1.8270271E+04;  0.0000000E+00; -4.4448942E-01;  4.0000000E+04;  0.0000000E+00;  3.9640914E+04;  5.3218179E+00;  0.0000000E+00; -4.0483590E-02;  8.2057197E+03;
  9.8566610E-01;  9.9999998E-03; -1.1040398E-01;7894;  5.6363314E-01;  0.0000000E+00; -2.1363659E-02;  1.0010649E+03;  1.4870813E-01;  8.8182776E+02;3; -8.3135925E+01;  0.0000000E+00;  2.6364241E+01;0;  5.2581038E+00;  1.8287811E+04;  0.0000000E+00; -3.9183038E-01;  4.0000000E+04;  0.0000000E+00;  3.9640289E+04;  5.2725639E+00;  0.0000000E+00; -1.4460025E-02;  8.3152803E+03;
  9.9884868E-01;  9.9999998E-03; -2.5120297E-01;7941;  2.7461869E-01;  0.0000000E+00; -3.3830877E-03;  9.9436279E+02;  1.4707519E-01; -4.6676353E+03;3; -4.5259579E+01;  0.0000000E+00;  2.7077768E+01;0;  5.9188423E+00;  1.8416916E+04;  0.0000000E+00;  1.0981871E+00;  4.0000000E+04;  0.0000000E+00;  3.9678691E+04;  6.2360983E+00;  0.0000000E+00; -3.1725574E-01;  5.1963882E+03;
  9.9887133E-01;  9.9999998E-03; -2.4117151E-01;7942;  2.8238374E-01;  0.0000000E+00; -1.2283422E-02;  9.9523322E+02;  1.4709091E-01; -3.9468870E+03;3; -4.6816902E+01;  0.0000000E+00;  2.7682505E+01;0;  5.9480643E+00;  1.8441971E+04;  0.0000000E+00;  9.9033993E-01;  4.0000000E+04;  0.0000000E+00;  3.9688453E+04;  6.2213593E+00;  0.0000000E+00; -2.7329493E-01;  4.5278335E+03;
  9.9895591E-01;  9.9999998E-03; -2.3115669E-01;7943;  2.9509184E-01;  0.0000000E+00; -1.8576615E-02;  9.9594714E+02;  1.4710924E-01; -3.3557866E+03;3; -4.8108974E+01;  0.0000000E+00;  2.7673485E+01;0;  5.9439292E+00;  1.8466656E+04;  0.0000000E+00;  8.9994007E-01;  4.0000000E+04;  0.0000000E+00;  3.9688336E+04;  6.1975203E+00;  0.0000000E+00; -2.5359085E-01;  4.5394292E+03;
  9.9894911E-01;  9.9999998E-03; -2.6121143E-01;7940;  2.7017581E-01;  0.0000000E+00;  6.4054625E-03;  9.9359204E+02;  1.4705920E-01; -5.3058110E+03;3; -4.4216827E+01;  0.0000000E+00;  2.5403345E+01;0;  5.8524208E+00;  1.8392766E+04;  0.0000000E+00;  1.2031032E+00;  4.0000000E+04;  0.0000000E+00;  3.9677945E+04;  6.2462583E+00;  0.0000000E+00; -3.9383739E-01;  5.1798330E+03;
  9.9909186E-01;  9.9999998E-03; -2.2116046E-01;7944;  3.1213981E-01;  0.0000000E+00; -2.3396604E-02;  9.9656531E+02;  1.4712717E-01; -2.8439465E+03;3; -4.9291050E+01;  0.0000000E+00;  2.7533869E+01;0;  5.9207811E+00;  1.8490367E+04;  0.0000000E+00;  8.3568507E-01;  4.0000000E+04;  0.0000000E+00;  3.9683973E+04;  6.1611586E+00;  0.0000000E+00; -2.4037737E-01;  4.8726890E+03;
  9.9930131E-01;  9.9999998E-03; -2.1116093E-01;7945;  3.3355045E-01;  0.0000000E+00; -2.7410725E-02;  9.9714459E+02;  1.4714606E-01; -2.3642837E+03;3; -5.0891159E+01;  0.0000000E+00;  2.7477079E+01;0;  5.8828416E+00;  1.8512607E+04;  0.0000000E+00;  7.9084754E-01;  4.0000000E+04;  0.0000000E+00;  3.9679848E+04;  6.1098146E+00;  0.0000000E+00; -2.2697328E-01;  5.2213364E+03;
  9.9912667E-01;  9.9999998E-03; -2.7119380E-01;7939;  2.6498756E-01;  0.0000000E+00;  1.2606289E-02;  9.9316095E+02;  1.4704084E-01; -5.6627207E+03;3; -4.4178444E+01;  0.0000000E+00;  2.3136187E+01;0;  5.7907529E+00;  1.8369021E+04;  0.0000000E+00;  1.2954215E+00;  4.0000000E+04;  0.0000000E+00;  3.9704691E+04;  6.2523007E+00;  0.0000000E+00; -4.6154797E-01;  3.8632961E+03;
  9.9956644E-01;  9.9999998E-03; -2.0113951E-01;7946;  3.5890552E-01;  0.0000000E+00; -3.1049492E-02;  9.9767389E+02;  1.4716424E-01; -1.9260286E+03;3; -5.2828888E+01;  0.0000000E+00;  2.7523893E+01;0;  5.8296995E+00;  1.8533342E+04;  0.0000000E+00;  7.4883741E-01;  4.0000000E+04;  0.0000000E+00;  3.9675898E+04;  6.0406237E+00;  0.0000000E+00; -2.1092391E-01;  5.5784014E+03;
  9.9983287E-01;  9.9999998E-03; -1.9109532E-01;7947;  3.8758782E-01;  0.0000000E+00; -3.4347642E-02;  9.9813422E+02;  1.4718530E-01; -1.5448760E+03;3; -5.4957783E+01;  0.0000000E+00;  2.7301729E+01;0;  5.7602043E+00;  1.8552059E+04;  0.0000000E+00;  6.8546176E-01;  4.0000000E+04;  0.0000000E+00;  3.9670188E+04;  5.9517288E+00;  0.0000000E+00; -1.9152467E-01;  6.0538052E+03;
  1.0000803E+00;  9.9999998E-03; -1.8103841E-01;7948;  4.1903970E-01;  0.0000000E+00; -3.7355185E-02;  9.9853149E+02;  1.4720660E-01; -1.2158906E+03;3; -5.7170925E+01;  0.0000000E+00;  2.6996994E+01;0;  5.6752119E+00;  1.8568928E+04;  0.0000000E+00;  5.8184010E-01;  4.0000000E+04;  0.0000000E+00;  3.9662980E+04;  5.8437781E+00;  0.0000000E+00; -1.6856606E-01;  6.6537568E+03;
  1.0003872E+00;  9.9999998E-03; -1.7097443E-01;7949;  4.5340338E-01;  0.0000000E+00; -4.0172227E-02;  9.9889606E+02;  1.4722385E-01; -9.1404999E+02;3; -5.9299797E+01;  0.0000000E+00;  2.6687300E+01;0;  5.5769668E+00;  1.8585217E+04;  0.0000000E+00;  4.3670231E-01;  4.0000000E+04;  0.0000000E+00;  3.9655500E+04;  5.7189832E+00;  0.0000000E+00; -1.4201663E-01;  7.2765107E+03;
  1.0007662E+00;  9.9999998E-03; -1.6089851E-01;7950;  4.8927554E-01;  0.0000000E+00; -4.2682856E-02;  9.9926868E+02;  1.4723359E-01; -6.0554803E+02;3; -6.1492233E+01;  0.0000000E+00;  2.6253458E+01;0;  5.4674678E+00;  1.8602174E+04;  0.0000000E+00;  2.5499684E-01;  4.0000000E+04;  0.0000000E+00;  3.9649289E+04;  5.5793419E+00;  0.0000000E+00; -1.1187407E-01;  7.8055508E+03;
  1.0012680E+00;  9.9999998E-03; -1.1051656E-01;7955;  6.5251476E-01;  0.0000000E+00; -4.8307881E-02;  1.0015317E+03;  1.4725730E-01;  1.2682399E+03;3; -6.3927837E+01;  0.0000000E+00;  2.4471437E+01;0;  4.9177437E+00;  1.8678492E+04;  0.0000000E+00; -5.8886904E-01;  4.0000000E+04;  0.0000000E+00;  3.9638531E+04;  4.8432622E+00;  0.0000000E+00;  7.4481711E-02;  8.8357559E+03;
  1.0010866E+00;  9.9999998E-03; -1.5080427E-01;7951;  5.2464497E-01;  0.0000000E+00; -4.4608522E-02;  9.9966681E+02;  1.4724144E-01; -2.7587640E+02;3; -6.3393711E+01;  0.0000000E+00;  2.5562605E+01;0;  5.3505130E+00;  1.8618627E+04;  0.0000000E+00;  4.5316163E-02;  4.0000000E+04;  0.0000000E+00;  3.9644797E+04;  5.4291019E+00;  0.0000000E+00; -7.8589164E-02;  8.1738779E+03;
  1.0013113E+00;  9.9999998E-03; -1.4071147E-01;7952;  5.5952513E-01;  0.0000000E+00; -4.5995984E-02;  1.0000997E+03;  1.4724621E-01;  8.2614708E+01;3; -6.4768959E+01;  0.0000000E+00;  2.5108208E+01;0;  5.2315636E+00;  1.8634561E+04;  0.0000000E+00; -1.6721152E-01;  4.0000000E+04;  0.0000000E+00;  3.9642184E+04;  5.2744079E+00;  0.0000000E+00; -4.2844210E-02;  8.3796963E+03;
  1.0014063E+00;  9.9999998E-03; -1.2056877E-01;7954;  6.2467039E-01;  0.0000000E+00; -4.7894258E-02;  1.0010505E+03;  1.4725357E-01;  8.6987195E+02;3; -6.4832123E+01;  0.0000000E+00;  2.4621876E+01;0;  5.0102692E+00;  1.8664701E+04;  0.0000000E+00; -5.0157797E-01;  4.0000000E+04;  0.0000000E+00;  3.9639996E+04;  4.9761634E+00;  0.0000000E+00;  3.4105804E-02;  8.6163008E+03;
  1.0014163E+00;  9.9999998E-03; -1.3063262E-01;7953;  5.9334463E-01;  0.0000000E+00; -4.7141206E-02;  1.0005644E+03;  1.4725077E-01;  4.6726126E+02;3; -6.5145554E+01;  0.0000000E+00;  2.4817593E+01;0;  5.1164241E+00;  1.8649898E+04;  0.0000000E+00; -3.5663494E-01;  4.0000000E+04;  0.0000000E+00;  3.9640824E+04;  5.1216078E+00;  0.0000000E+00; -5.1837354E-03;  8.4933564E+03;
  1.0130566E+00;  9.9999998E-03; -2.5115544E-01;8002;  4.5989302E-01;  0.0000000E+00; -2.3932660E-02;  9.9339667E+02;  1.4547499E-01; -5.4668433E+03;3; -6.5913757E+01;  0.0000000E+00;  2.2902393E+01;0;  6.1486063E+00;  1.8790260E+04;  0.0000000E+00;  8.9389300E-01;  4.0000000E+04;  0.0000000E+00;  3.9694973E+04;  6.4642687E+00;  0.0000000E+00; -3.1566244E-01;  3.1160635E+03;
  1.0130979E+00;  9.9999998E-03; -2.6117495E-01;8001;  4.5443472E-01;  0.0000000E+00; -1.4199454E-02;  9.9241321E+02;  1.4546378E-01; -6.2810000E+03;3; -6.8312553E+01;  0.0000000E+00;  2.1945400E+01;0;  6.1155663E+00;  1.8756764E+04;  0.0000000E+00;  6.8525189E-01;  4.0000000E+04;  0.0000000E+00;  3.9694359E+04;  6.4946890E+00;  0.0000000E+00; -3.7912285E-01;  2.5258032E+03;
  1.0131431E+00;  9.9999998E-03; -2.4111527E-01;8003;  4.6184102E-01;  0.0000000E+00; -3.2272127E-02;  9.9447406E+02;  1.4548285E-01; -4.5748613E+03;3; -6.3727135E+01;  0.0000000E+00;  2.3127052E+01;0;  6.1387153E+00;  1.8826307E+04;  0.0000000E+00;  1.0873084E+00;  4.0000000E+04;  0.0000000E+00;  3.9701883E+04;  6.4200411E+00;  0.0000000E+00; -2.8132600E-01;  3.4371045E+03;
  1.0132143E+00;  9.9999998E-03; -2.7116472E-01;8000;  4.4790611E-01;  0.0000000E+00; -7.5096902E-03;  9.9180646E+02;  1.4544857E-01; -6.7833335E+03;3; -7.0974037E+01;  0.0000000E+00;  2.0482817E+01;0;  6.0803308E+00;  1.8725336E+04;  0.0000000E+00;  5.0939161E-01;  4.0000000E+04;  0.0000000E+00;  3.9721566E+04;  6.5149102E+00;  0.0000000E+00; -4.3457952E-01;  2.4317124E+03;
  1.0132998E+00;  9.9999998E-03; -2.3109667E-01;8004;  4.6617785E-01;  0.0000000E+00; -3.7873331E-02;  9.9540149E+02;  1.4549048E-01; -3.8070322E+03;3; -6.1460995E+01;  0.0000000E+00;  2.3168972E+01;0;  6.0948234E+00;  1.8863420E+04;  0.0000000E+00;  1.2818173E+00;  4.0000000E+04;  0.0000000E+00;  3.9697723E+04;  6.3601747E+00;  0.0000000E+00; -2.6535133E-01;  4.1908555E+03;
  1.0135098E+00;  9.9999998E-03; -2.2110103E-01;8005;  4.7371107E-01;  0.0000000E+00; -4.2269018E-02;  9.9624744E+02;  1.4549592E-01; -3.1067090E+03;3; -5.9416691E+01;  0.0000000E+00;  2.3192657E+01;0;  6.0308771E+00;  1.8900445E+04;  0.0000000E+00;  1.4662355E+00;  4.0000000E+04;  0.0000000E+00;  3.9689898E+04;  6.2815127E+00;  0.0000000E+00; -2.5063556E-01;  5.1300903E+03;
  1.0137643E+00;  9.9999998E-03; -2.1111406E-01;8006;  4.8433465E-01;  0.0000000E+00; -4.6076175E-02;  9.9706598E+02;  1.4550045E-01; -2.4290371E+03;3; -5.7855709E+01;  0.0000000E+00;  2.3155285E+01;0;  5.9484329E+00;  1.8936373E+04;  0.0000000E+00;  1.6169847E+00;  4.0000000E+04;  0.0000000E+00;  3.9683062E+04;  6.1811748E+00;  0.0000000E+00; -2.3274206E-01;  5.9914058E+03;
  1.0140727E+00;  9.9999998E-03; -2.0111541E-01;8007;  4.9854550E-01;  0.0000000E+00; -4.9705304E-02;  9.9785815E+02;  1.4550532E-01; -1.7731790E+03;3; -5.6619755E+01;  0.0000000E+00;  2.3151482E+01;0;  5.8463812E+00;  1.8970828E+04;  0.0000000E+00;  1.7083894E+00;  4.0000000E+04;  0.0000000E+00;  3.9677754E+04;  6.0569549E+00;  0.0000000E+00; -2.1057349E-01;  6.6421362E+03;
  1.0144771E+00;  9.9999998E-03; -1.9109900E-01;8008;  5.1693636E-01;  0.0000000E+00; -5.3211551E-02;  9.9859760E+02;  1.4550696E-01; -1.1609943E+03;3; -5.5365383E+01;  0.0000000E+00;  2.3051647E+01;0;  5.7233229E+00;  1.9004316E+04;  0.0000000E+00;  1.7136445E+00;  4.0000000E+04;  0.0000000E+00;  3.9672262E+04;  5.9073477E+00;  0.0000000E+00; -1.8402486E-01;  7.1504766E+03;
  1.0148950E+00;  9.9999998E-03; -1.8106952E-01;8009;  5.3873771E-01;  0.0000000E+00; -5.6552567E-02;  9.9927216E+02;  1.4550854E-01; -6.0255170E+02;3; -5.4290741E+01;  0.0000000E+00;  2.2756208E+01;0;  5.5809531E+00;  1.9035635E+04;  0.0000000E+00;  1.6067108E+00;  4.0000000E+04;  0.0000000E+00;  3.9666016E+04;  5.7340517E+00;  0.0000000E+00; -1.5309857E-01;  7.5607529E+03;
  1.0153157E+00;  9.9999998E-03; -1.7102368E-01;8010;  5.6387830E-01;  0.0000000E+00; -5.9578557E-02;  9.9988245E+02;  1.4550908E-01; -9.7307877E+01;3; -5.3445927E+01;  0.0000000E+00;  2.2487669E+01;0;  5.4219308E+00;  1.9064689E+04;  0.0000000E+00;  1.3770546E+00;  4.0000000E+04;  0.0000000E+00;  3.9659684E+04;  5.5397706E+00;  0.0000000E+00; -1.1783980E-01;  7.8650479E+03;
  1.0157220E+00;  9.9999998E-03; -1.6096020E-01;8011;  5.9144723E-01;  0.0000000E+00; -6.2127858E-02;  1.0004424E+03;  1.4550643E-01;  3.6623517E+02;3; -5.2754372E+01;  0.0000000E+00;  2.2305626E+01;0;  5.2504625E+00;  1.9091598E+04;  0.0000000E+00;  1.0377722E+00;  4.0000000E+04;  0.0000000E+00;  3.9654105E+04;  5.3289313E+00;  0.0000000E+00; -7.8468911E-02;  8.0680737E+03;
  1.0160400E+00;  9.9999998E-03; -1.5088448E-01;8012;  6.1932856E-01;  0.0000000E+00; -6.3968360E-02;  1.0009505E+03;  1.4550506E-01;  7.8684521E+02;3; -5.2087257E+01;  0.0000000E+00;  2.2078773E+01;0;  5.0733604E+00;  1.9114510E+04;  0.0000000E+00;  6.2547624E-01;  4.0000000E+04;  0.0000000E+00;  3.9649828E+04;  5.1090202E+00;  0.0000000E+00; -3.5659749E-02;  8.1926650E+03;
  1.0159971E+00;  9.9999998E-03; -1.1064220E-01;8016;  7.1967328E-01;  0.0000000E+00; -6.6963725E-02;  1.0024651E+03;  1.4555110E-01;  2.0407852E+03;3; -4.4645496E+01;  0.0000000E+00;  2.1549252E+01;0;  4.4398866E+00;  1.9160457E+04;  0.0000000E+00; -6.9952476E-01;  4.0000000E+04;  0.0000000E+00;  3.9641395E+04;  4.2831388E+00;  0.0000000E+00;  1.5674762E-01;  8.9486094E+03;
  1.0162205E+00;  9.9999998E-03; -1.4080828E-01;8013;  6.4661860E-01;  0.0000000E+00; -6.5173522E-02;  1.0014117E+03;  1.4551076E-01;  1.1686694E+03;3; -5.1114170E+01;  0.0000000E+00;  2.1697693E+01;0;  4.8980184E+00;  1.9132256E+04;  0.0000000E+00;  1.9600524E-01;  4.0000000E+04;  0.0000000E+00;  3.9647043E+04;  4.8882713E+00;  0.0000000E+00;  9.7469520E-03;  8.2841836E+03;
  1.0161811E+00;  9.9999998E-03; -1.2068111E-01;8015;  6.9778669E-01;  0.0000000E+00; -6.6625230E-02;  1.0021713E+03;  1.4553501E-01;  1.7975135E+03;3; -4.7245522E+01;  0.0000000E+00;  2.1481895E+01;0;  4.5766230E+00;  1.9154287E+04;  0.0000000E+00; -5.0008887E-01;  4.0000000E+04;  0.0000000E+00;  3.9643734E+04;  4.4702182E+00;  0.0000000E+00;  1.0640500E-01;  8.6200205E+03;
  1.0162568E+00;  9.9999998E-03; -1.3073739E-01;8014;  6.7309278E-01;  0.0000000E+00; -6.6091865E-02;  1.0018182E+03;  1.4552134E-01;  1.5051968E+03;3; -4.9403923E+01;  0.0000000E+00;  2.1540319E+01;0;  4.7308116E+00;  1.9145113E+04;  0.0000000E+00; -1.9364111E-01;  4.0000000E+04;  0.0000000E+00;  3.9645238E+04;  4.6736145E+00;  0.0000000E+00;  5.7196911E-02;  8.4078662E+03;
  1.0284042E+00;  9.9999998E-03; -2.4105534E-01;8064;  6.0997540E-01;  0.0000000E+00; -4.9714491E-02;  9.9516553E+02;  1.4362703E-01; -4.0016624E+03;3; -8.1343513E+01;  0.0000000E+00;  1.9363716E+01;0;  5.9256210E+00;  1.9352953E+04;  0.0000000E+00;  3.3635235E-01;  4.0000000E+04;  0.0000000E+00;  3.9707895E+04;  6.1983242E+00;  0.0000000E+00; -2.7270305E-01;  8.2533014E+02;
  1.0283701E+00;  9.9999998E-03; -2.5110945E-01;8063;  6.0530865E-01;  0.0000000E+00; -4.2482447E-02;  9.9389001E+02;  1.4362790E-01; -5.0574731E+03;3; -8.6386230E+01;  0.0000000E+00;  1.9263636E+01;0;  5.9588909E+00;  1.9307879E+04;  0.0000000E+00; -1.6119181E-01;  4.0000000E+04;  0.0000000E+00;  3.9699574E+04;  6.2632728E+00;  0.0000000E+00; -3.0438206E-01;  1.5453967E+03;
  1.0285211E+00;  9.9999998E-03; -2.3103638E-01;8065;  6.1167860E-01;  0.0000000E+00; -5.4213807E-02;  9.9624365E+02;  1.4361908E-01; -3.1092522E+03;3; -7.5633423E+01;  0.0000000E+00;  1.9221172E+01;0;  5.8574800E+00;  1.9401088E+04;  0.0000000E+00;  8.5846949E-01;  4.0000000E+04;  0.0000000E+00;  3.9700441E+04;  6.1126456E+00;  0.0000000E+00; -2.5516546E-01;  2.4965249E+03;
  1.0286922E+00;  9.9999998E-03; -2.2104816E-01;8066;  6.1454773E-01;  0.0000000E+00; -5.7941329E-02;  9.9725421E+02;  1.4360958E-01; -2.2727915E+03;3; -6.9912407E+01;  0.0000000E+00;  1.8746624E+01;0;  5.7689199E+00;  1.9449391E+04;  0.0000000E+00;  1.3286259E+00;  4.0000000E+04;  0.0000000E+00;  3.9689945E+04;  6.0044236E+00;  0.0000000E+00; -2.3550367E-01;  4.3192207E+03;
  1.0284238E+00;  9.9999998E-03; -2.6114184E-01;8062;  5.9055364E-01;  0.0000000E+00; -3.2524083E-02;  9.9271552E+02;  1.4361997E-01; -6.0296021E+03;3; -9.1142662E+01;  0.0000000E+00;  1.8324797E+01;0;  5.9383631E+00;  1.9268135E+04;  0.0000000E+00; -5.3128296E-01;  4.0000000E+04;  0.0000000E+00;  3.9696070E+04;  6.3090653E+00;  0.0000000E+00; -3.7070227E-01;  2.2595796E+03;
  1.0288815E+00;  9.9999998E-03; -2.1106832E-01;8067;  6.1852199E-01;  0.0000000E+00; -6.1364349E-02;  9.9826019E+02;  1.4359894E-01; -1.4400839E+03;3; -6.4609596E+01;  0.0000000E+00;  1.8580040E+01;0;  5.6604962E+00;  1.9495777E+04;  0.0000000E+00;  1.7042209E+00;  4.0000000E+04;  0.0000000E+00;  3.9682781E+04;  5.8721414E+00;  0.0000000E+00; -2.1164517E-01;  5.6918848E+03;
  1.0284792E+00;  9.9999998E-03; -2.7114019E-01;8061;  5.7672864E-01;  0.0000000E+00; -2.5239861E-02;  9.9195905E+02;  1.4360788E-01; -6.6557803E+03;3; -9.6280975E+01;  0.0000000E+00;  1.7151642E+01;0;  5.9111199E+00;  1.9231168E+04;  0.0000000E+00; -6.8485355E-01;  4.0000000E+04;  0.0000000E+00;  3.9720473E+04;  6.3428798E+00;  0.0000000E+00; -4.3175992E-01;  2.0483596E+03;
  1.0291004E+00;  9.9999998E-03; -2.0107177E-01;8068;  6.2385821E-01;  0.0000000E+00; -6.4623341E-02;  9.9924719E+02;  1.4358944E-01; -6.2311847E+02;3; -5.9563156E+01;  0.0000000E+00;  1.8243818E+01;0;  5.5301843E+00;  1.9539996E+04;  0.0000000E+00;  1.9546762E+00;  4.0000000E+04;  0.0000000E+00;  3.9678645E+04;  5.7137656E+00;  0.0000000E+00; -1.8358120E-01;  6.5741592E+03;
  1.0304341E+00;  9.9999998E-03; -1.1067313E-01;8077;  7.7507424E-01;  0.0000000E+00; -8.1746906E-02;  1.0039728E+03;  1.4360143E-01;  3.2884065E+03;3; -2.4032024E+01;  0.0000000E+00;  1.7613577E+01;0;  3.8696582E+00;  1.9741896E+04;  0.0000000E+00; -7.4950689E-01;  4.0000000E+04;  0.0000000E+00;  3.9648801E+04;  3.6367936E+00;  0.0000000E+00;  2.3286459E-01;  8.6585605E+03;
  1.0294074E+00;  9.9999998E-03; -1.9105278E-01;8069;  6.3261002E-01;  0.0000000E+00; -6.7746200E-02;  1.0001757E+03;  1.4357398E-01;  1.4544304E+02;3; -5.4961384E+01;  0.0000000E+00;  1.8166552E+01;0;  5.3758049E+00;  1.9583721E+04;  0.0000000E+00;  2.0527885E+00;  4.0000000E+04;  0.0000000E+00;  3.9674676E+04;  5.5270104E+00;  0.0000000E+00; -1.5120536E-01;  7.1575854E+03;
  1.0297394E+00;  9.9999998E-03; -1.8101874E-01;8070;  6.4471972E-01;  0.0000000E+00; -7.0719853E-02;  1.0010084E+03;  1.4355855E-01;  8.3466553E+02;3; -5.0495274E+01;  0.0000000E+00;  1.7863249E+01;0;  5.2008271E+00;  1.9624236E+04;  0.0000000E+00;  1.9818207E+00;  4.0000000E+04;  0.0000000E+00;  3.9670086E+04;  5.3154564E+00;  0.0000000E+00; -1.1462928E-01;  7.5423335E+03;
  1.0307143E+00;  9.9999998E-03; -1.2070582E-01;8076;  7.6063639E-01;  0.0000000E+00; -8.1397109E-02;  1.0038801E+03;  1.4356674E-01;  3.2115295E+03;3; -2.7716843E+01;  0.0000000E+00;  1.8073162E+01;0;  4.0243855E+00;  1.9746896E+04;  0.0000000E+00; -5.0026244E-01;  4.0000000E+04;  0.0000000E+00;  3.9651383E+04;  3.8472784E+00;  0.0000000E+00;  1.7710699E-01;  8.2729922E+03;
  1.0300699E+00;  9.9999998E-03; -1.7096801E-01;8071;  6.6055995E-01;  0.0000000E+00; -7.3382623E-02;  1.0017442E+03;  1.4354493E-01;  1.4436619E+03;3; -4.6448833E+01;  0.0000000E+00;  1.7675816E+01;0;  5.0091996E+00;  1.9660641E+04;  0.0000000E+00;  1.7395720E+00;  4.0000000E+04;  0.0000000E+00;  3.9665074E+04;  5.0831285E+00;  0.0000000E+00; -7.3928818E-02;  7.7509858E+03;
  1.0303783E+00;  9.9999998E-03; -1.6090618E-01;8072;  6.7979670E-01;  0.0000000E+00; -7.5711116E-02;  1.0023828E+03;  1.4353445E-01;  1.9722363E+03;3; -4.2745602E+01;  0.0000000E+00;  1.7530079E+01;0;  4.8062825E+00;  1.9691850E+04;  0.0000000E+00;  1.3492607E+00;  4.0000000E+04;  0.0000000E+00;  3.9660602E+04;  4.8356152E+00;  0.0000000E+00; -2.9332412E-02;  7.8257183E+03;
  1.0308428E+00;  9.9999998E-03; -1.3074076E-01;8075;  7.4294192E-01;  0.0000000E+00; -8.0693319E-02;  1.0036751E+03;  1.4354278E-01;  3.0419094E+03;3; -3.1422380E+01;  0.0000000E+00;  1.7881989E+01;0;  4.2004614E+00;  1.9744857E+04;  0.0000000E+00; -1.2434950E-01;  4.0000000E+04;  0.0000000E+00;  3.9653367E+04;  4.0780516E+00;  0.0000000E+00;  1.2240985E-01;  8.0057095E+03;
  1.0306407E+00;  9.9999998E-03; -1.5084054E-01;8073;  7.0094788E-01;  0.0000000E+00; -7.7658355E-02;  1.0029198E+03;  1.4352782E-01;  2.4167405E+03;3; -3.9196163E+01;  0.0000000E+00;  1.7623903E+01;0;  4.5985842E+00;  1.9717062E+04;  0.0000000E+00;  8.6201346E-01;  4.0000000E+04;  0.0000000E+00;  3.9657359E+04;  4.5798917E+00;  0.0000000E+00;  1.8692696E-02;  7.8358838E+03;
  1.0307950E+00;  9.9999998E-03; -1.4078456E-01;8074;  7.2258210E-01;  0.0000000E+00; -7.9408854E-02;  1.0033495E+03;  1.4353110E-01;  2.7724424E+03;3; -3.5319828E+01;  0.0000000E+00;  1.7691801E+01;0;  4.3946252E+00;  1.9734576E+04;  0.0000000E+00;  3.4771103E-01;  4.0000000E+04;  0.0000000E+00;  3.9654902E+04;  4.3252339E+00;  0.0000000E+00;  6.9391295E-02;  7.8710811E+03;
  1.0442675E+00;  9.9999998E-03; -2.4101104E-01;8125;  7.0846725E-01;  0.0000000E+00; -6.8121657E-02;  9.9776416E+02;  1.4147139E-01; -1.8502273E+03;3; -9.2337151E+01;  0.0000000E+00;  1.5378762E+01;0;  5.3746066E+00;  2.0065195E+04;  0.0000000E+00; -5.0693160E-01;  4.0000000E+04;  0.0000000E+00;  3.9700559E+04;  5.5968742E+00;  0.0000000E+00; -2.2226772E-01;  2.6577131E+03;
  1.0441852E+00;  9.9999998E-03; -2.3096792E-01;8126;  7.2124118E-01;  0.0000000E+00; -7.1857050E-02;  9.9885956E+02;  1.4146613E-01; -9.4373517E+02;3; -8.4206200E+01;  0.0000000E+00;  1.5101897E+01;0;  5.2962117E+00;  2.0109863E+04;  0.0000000E+00;  1.0001163E-01;  4.0000000E+04;  0.0000000E+00;  3.9699633E+04;  5.5005655E+00;  0.0000000E+00; -2.0435388E-01;  2.3963469E+03;
  1.0445482E+00;  9.9999998E-03; -2.5107750E-01;8124;  6.9144416E-01;  0.0000000E+00; -6.2268462E-02;  9.9651605E+02;  1.4145803E-01; -2.8830771E+03;3; -9.9028732E+01;  0.0000000E+00;  1.5250741E+01;0;  5.4172125E+00;  2.0028436E+04;  0.0000000E+00; -1.0811751E+00;  4.0000000E+04;  0.0000000E+00;  3.9686676E+04;  5.6664762E+00;  0.0000000E+00; -2.4926387E-01;  4.7208174E+03;
  1.0441771E+00;  9.9999998E-03; -2.2094923E-01;8127;  7.3018187E-01;  0.0000000E+00; -7.4762322E-02;  9.9986975E+02;  1.4145485E-01; -1.0777512E+02;3; -7.5671242E+01;  0.0000000E+00;  1.4713426E+01;0;  5.1968508E+00;  2.0156072E+04;  0.0000000E+00;  6.5771186E-01;  4.0000000E+04;  0.0000000E+00;  3.9692855E+04;  5.3803616E+00;  0.0000000E+00; -1.8351081E-01;  3.5049133E+03;
  1.0442095E+00;  9.9999998E-03; -2.1094204E-01;8128;  7.3570865E-01;  0.0000000E+00; -7.7381670E-02;  1.0008433E+03;  1.4143950E-01;  6.9784967E+02;3; -6.6851265E+01;  0.0000000E+00;  1.4246603E+01;0;  5.0779290E+00;  2.0201846E+04;  0.0000000E+00;  1.1134534E+00;  4.0000000E+04;  0.0000000E+00;  3.9686754E+04;  5.2357731E+00;  0.0000000E+00; -1.5784402E-01;  4.7063350E+03;
  1.0449723E+00;  9.9999998E-03; -2.6112095E-01;8123;  6.7031908E-01;  0.0000000E+00; -5.3710770E-02;  9.9537439E+02;  1.4142820E-01; -3.8278145E+03;3; -1.0571392E+02;  0.0000000E+00;  1.4623674E+01;0;  5.4084105E+00;  1.9999668E+04;  0.0000000E+00; -1.4614409E+00;  4.0000000E+04;  0.0000000E+00;  3.9675879E+04;  5.7151017E+00;  0.0000000E+00; -3.0669096E-01;  6.1715625E+03;
  1.0442648E+00;  9.9999998E-03; -2.0092537E-01;8129;  7.3837459E-01;  0.0000000E+00; -7.9714529E-02;  1.0017783E+03;  1.4142230E-01;  1.4715598E+03;3; -5.8170757E+01;  0.0000000E+00;  1.3782743E+01;0;  4.9386773E+00;  2.0245588E+04;  0.0000000E+00;  1.4323143E+00;  4.0000000E+04;  0.0000000E+00;  3.9682828E+04;  5.0665212E+00;  0.0000000E+00; -1.2784392E-01;  5.5958071E+03;
  1.0448595E+00;  9.9999998E-03; -1.1060507E-01;8138;  8.2309753E-01;  0.0000000E+00; -9.3281642E-02;  1.0057695E+03;  1.4143464E-01;  4.7744067E+03;3; -1.6777526E+00;  0.0000000E+00;  1.1155111E+01;0;  3.2462003E+00;  2.0416367E+04;  0.0000000E+00; -7.3205942E-01;  4.0000000E+04;  0.0000000E+00;  3.9659973E+04;  2.9452744E+00;  0.0000000E+00;  3.0092600E-01;  7.9710908E+03;
  1.0452133E+00;  9.9999998E-03; -2.7112952E-01;8122;  6.5083075E-01;  0.0000000E+00; -4.6437755E-02;  9.9458734E+02;  1.4140548E-01; -4.4790737E+03;3; -1.1239920E+02;  0.0000000E+00;  1.3644957E+01;0;  5.3909826E+00;  1.9968822E+04;  0.0000000E+00; -1.4754736E+00;  4.0000000E+04;  0.0000000E+00;  3.9691289E+04;  5.7599931E+00;  0.0000000E+00; -3.6901036E-01;  4.5266309E+03;
  1.0443379E+00;  9.9999998E-03; -1.9089633E-01;8130;  7.4068010E-01;  0.0000000E+00; -8.1874698E-02;  1.0026388E+03;  1.4140677E-01;  2.1837104E+03;3; -5.0220299E+01;  0.0000000E+00;  1.3383912E+01;0;  4.7792630E+00;  2.0286211E+04;  0.0000000E+00;  1.5926300E+00;  4.0000000E+04;  0.0000000E+00;  3.9679035E+04;  4.8729916E+00;  0.0000000E+00; -9.3728602E-02;  6.2540459E+03;
  1.0444279E+00;  9.9999998E-03; -1.8085724E-01;8131;  7.4450344E-01;  0.0000000E+00; -8.3977647E-02;  1.0034045E+03;  1.4139266E-01;  2.8173330E+03;3; -4.2837536E+01;  0.0000000E+00;  1.3227568E+01;0;  4.6013498E+00;  2.0322916E+04;  0.0000000E+00;  1.5832682E+00;  4.0000000E+04;  0.0000000E+00;  3.9675117E+04;  4.6570168E+00;  0.0000000E+00; -5.5666950E-02;  6.7172549E+03;
  1.0450335E+00;  9.9999998E-03; -1.2062785E-01;8137;  8.1610370E-01;  0.0000000E+00; -9.3190067E-02;  1.0057883E+03;  1.4140038E-01;  4.7899790E+03;3; -6.3468690E+00;  0.0000000E+00;  1.3402698E+01;0;  3.4052293E+00;  2.0424729E+04;  0.0000000E+00; -5.1752144E-01;  4.0000000E+04;  0.0000000E+00;  3.9662492E+04;  3.1618946E+00;  0.0000000E+00;  2.4333473E-01;  7.6129731E+03;
  1.0445621E+00;  9.9999998E-03; -1.7080979E-01;8132;  7.5177711E-01;  0.0000000E+00; -8.5881799E-02;  1.0040751E+03;  1.4137970E-01;  3.3723281E+03;3; -3.5865425E+01;  0.0000000E+00;  1.2984462E+01;0;  4.4067516E+00;  2.0355543E+04;  0.0000000E+00;  1.4059560E+00;  4.0000000E+04;  0.0000000E+00;  3.9671566E+04;  4.4204388E+00;  0.0000000E+00; -1.3686912E-02;  6.9929468E+03;
  1.0451274E+00;  9.9999998E-03; -1.3064778E-01;8136;  8.0582452E-01;  0.0000000E+00; -9.2320047E-02;  1.0056924E+03;  1.4137453E-01;  4.7106577E+03;3; -1.1375795E+01;  0.0000000E+00;  1.3435301E+01;0;  3.5833130E+00;  2.0426779E+04;  0.0000000E+00; -1.9005381E-01;  4.0000000E+04;  0.0000000E+00;  3.9664070E+04;  3.3960800E+00;  0.0000000E+00;  1.8723309E-01;  7.3522485E+03;
  1.0447450E+00;  9.9999998E-03; -1.6075958E-01;8133;  7.6331806E-01;  0.0000000E+00; -8.7753773E-02;  1.0046497E+03;  1.4136793E-01;  3.8477070E+03;3; -2.9305466E+01;  0.0000000E+00;  1.3006701E+01;0;  4.1998038E+00;  2.0383479E+04;  0.0000000E+00;  1.0849361E+00;  4.0000000E+04;  0.0000000E+00;  3.9668590E+04;  4.1677155E+00;  0.0000000E+00;  3.2088190E-02;  7.1151426E+03;
  1.0449289E+00;  9.9999998E-03; -1.5071656E-01;8134;  7.7763510E-01;  0.0000000E+00; -8.9529343E-02;  1.0051147E+03;  1.4136134E-01;  4.2326221E+03;3; -2.2914200E+01;  0.0000000E+00;  1.2986374E+01;0;  3.9884088E+00;  2.0405297E+04;  0.0000000E+00;  6.6914433E-01;  4.0000000E+04;  0.0000000E+00;  3.9666465E+04;  3.9072764E+00;  0.0000000E+00;  8.1132427E-02;  7.1556958E+03;
  1.0450666E+00;  9.9999998E-03; -1.4067894E-01;8135;  7.9235351E-01;  0.0000000E+00; -9.1065854E-02;  1.0054659E+03;  1.4136362E-01;  4.5231318E+03;3; -1.6930796E+01;  0.0000000E+00;  1.3267973E+01;0;  3.7805800E+00;  2.0419830E+04;  0.0000000E+00;  2.2265227E-01;  4.0000000E+04;  0.0000000E+00;  3.9665258E+04;  3.6476231E+00;  0.0000000E+00;  1.3295710E-01;  7.2095708E+03;
  1.0588174E+00;  9.9999998E-03; -1.1048990E-01;8199;  8.5729069E-01;  0.0000000E+00; -1.0166381E-01;  1.0072323E+03;  1.3914092E-01;  5.9833232E+03;3;  2.1612633E+01;  0.0000000E+00;  1.1998121E+00;0;  2.6379874E+00;  2.1143904E+04;  0.0000000E+00; -6.2319398E-01;  4.0000000E+04;  0.0000000E+00;  3.9673539E+04;  2.2826264E+00;  0.0000000E+00;  3.5536101E-01;  6.9720840E+03;
  1.0588948E+00;  9.9999998E-03; -1.2051255E-01;8198;  8.5832089E-01;  0.0000000E+00; -1.0415780E-01;  1.0072866E+03;  1.3911282E-01;  6.0281865E+03;3;  1.7069073E+01;  0.0000000E+00;  5.6696343E+00;0;  2.7845578E+00;  2.1151758E+04;  0.0000000E+00; -5.2128828E-01;  4.0000000E+04;  0.0000000E+00;  3.9675438E+04;  2.4844632E+00;  0.0000000E+00;  3.0009466E-01;  6.7219502E+03;
  1.0589713E+00;  9.9999998E-03; -1.3052338E-01;8197;  8.5866112E-01;  0.0000000E+00; -1.0411656E-01;  1.0072565E+03;  1.3908896E-01;  6.0033237E+03;3;  1.1557867E+01;  0.0000000E+00;  7.0578470E+00;0;  2.9459164E+00;  2.1155826E+04;  0.0000000E+00; -3.4216005E-01;  4.0000000E+04;  0.0000000E+00;  3.9676488E+04;  2.6992707E+00;  0.0000000E+00;  2.4664575E-01;  6.5458950E+03;
  1.0592796E+00;  9.9999998E-03; -2.3087364E-01;8187;  7.8389531E-01;  0.0000000E+00; -9.2758186E-02;  1.0025450E+03;  1.3912116E-01;  2.1054692E+03;3; -8.0014389E+01;  0.0000000E+00;  8.6855650E+00;0;  4.5877299E+00;  2.0946555E+04;  0.0000000E+00; -3.8918665E-01;  4.0000000E+04;  0.0000000E+00;  3.9703250E+04;  4.6996450E+00;  0.0000000E+00; -1.1191495E-01;  2.9818967E+03;
  1.0590745E+00;  9.9999998E-03; -2.2082256E-01;8188;  7.9701507E-01;  0.0000000E+00; -9.4099477E-02;  1.0032709E+03;  1.3912535E-01;  2.7059871E+03;3; -6.9604286E+01;  0.0000000E+00;  8.7735119E+00;0;  4.4761839E+00;  2.0975695E+04;  0.0000000E+00; -2.6335778E-02;  4.0000000E+04;  0.0000000E+00;  3.9699266E+04;  4.5758667E+00;  0.0000000E+00; -9.9682599E-02;  3.3870308E+03;
  1.0596339E+00;  9.9999998E-03; -2.4095981E-01;8186;  7.6935649E-01;  0.0000000E+00; -9.0569191E-02;  1.0016599E+03;  1.3910364E-01;  1.3731946E+03;3; -8.9993126E+01;  0.0000000E+00;  8.9713488E+00;0;  4.6818357E+00;  2.0922568E+04;  0.0000000E+00; -7.7974969E-01;  4.0000000E+04;  0.0000000E+00;  3.9693488E+04;  4.7980509E+00;  0.0000000E+00; -1.1621512E-01;  4.3293091E+03;
  1.0589308E+00;  9.9999998E-03; -2.1079515E-01;8189;  8.0928171E-01;  0.0000000E+00; -9.5426232E-02;  1.0039387E+03;  1.3912249E-01;  3.2584768E+03;3; -5.9150303E+01;  0.0000000E+00;  8.4418135E+00;0;  4.3508220E+00;  2.1005998E+04;  0.0000000E+00;  2.8711700E-01;  4.0000000E+04;  0.0000000E+00;  3.9692734E+04;  4.4298100E+00;  0.0000000E+00; -7.8988075E-02;  4.2700806E+03;
  1.0588084E+00;  9.9999998E-03; -2.0076078E-01;8190;  8.2014751E-01;  0.0000000E+00; -9.6803747E-02;  1.0045801E+03;  1.3911700E-01;  3.7890740E+03;3; -4.8771255E+01;  0.0000000E+00;  8.4064541E+00;0;  4.2108889E+00;  2.1034961E+04;  0.0000000E+00;  5.2322948E-01;  4.0000000E+04;  0.0000000E+00;  3.9688344E+04;  4.2629080E+00;  0.0000000E+00; -5.2019268E-02;  4.9388379E+03;
  1.0589678E+00;  9.9999998E-03; -1.4053594E-01;8196;  8.5685551E-01;  0.0000000E+00; -1.0349287E-01;  1.0071266E+03;  1.3907628E-01;  5.8959248E+03;3;  5.0934086E+00;  0.0000000E+00;  7.0878568E+00;0;  3.1232653E+00;  2.1153691E+04;  0.0000000E+00; -1.0367832E-01;  4.0000000E+04;  0.0000000E+00;  3.9676973E+04;  2.9279673E+00;  0.0000000E+00;  1.9529791E-01;  6.4471958E+03;
  1.0601977E+00;  9.9999998E-03; -2.5104374E-01;8185;  7.5312167E-01;  0.0000000E+00; -8.6408503E-02;  1.0006802E+03;  1.3906468E-01;  5.6272284E+02;3; -9.8948402E+01;  0.0000000E+00;  9.1218004E+00;0;  4.7479820E+00;  2.0908594E+04;  0.0000000E+00; -1.1844538E+00;  4.0000000E+04;  0.0000000E+00;  3.9671348E+04;  4.8700480E+00;  0.0000000E+00; -1.2206601E-01;  7.0949741E+03;
  1.0587118E+00;  9.9999998E-03; -1.9071949E-01;8191;  8.2881939E-01;  0.0000000E+00; -9.8068886E-02;  1.0051721E+03;  1.3910939E-01;  4.2788418E+03;3; -3.8543072E+01;  0.0000000E+00;  7.9607258E+00;0;  4.0555754E+00;  2.1062080E+04;  0.0000000E+00;  6.5834028E-01;  4.0000000E+04;  0.0000000E+00;  3.9684645E+04;  4.0757928E+00;  0.0000000E+00; -2.0217592E-02;  5.4735444E+03;
  1.0586464E+00;  9.9999998E-03; -1.8067430E-01;8192;  8.3580250E-01;  0.0000000E+00; -9.9344216E-02;  1.0057021E+03;  1.3910113E-01;  4.7174233E+03;3; -2.8745834E+01;  0.0000000E+00;  7.4744706E+00;0;  3.8859384E+00;  2.1086723E+04;  0.0000000E+00;  6.8124717E-01;  4.0000000E+04;  0.0000000E+00;  3.9681590E+04;  3.8701258E+00;  0.0000000E+00;  1.5812721E-02;  5.8892910E+03;
  1.0588586E+00;  9.9999998E-03; -1.5055986E-01;8195;  8.5147643E-01;  0.0000000E+00; -1.0263024E-01;  1.0068909E+03;  1.3907456E-01;  5.7008638E+03;3; -2.2913761E+00;  0.0000000E+00;  7.0812950E+00;0;  3.3145747E+00;  2.1144102E+04;  0.0000000E+00;  1.6133511E-01;  4.0000000E+04;  0.0000000E+00;  3.9677062E+04;  3.1685379E+00;  0.0000000E+00;  1.4603688E-01;  6.3946577E+03;
  1.0586290E+00;  9.9999998E-03; -1.7062724E-01;8193;  8.4029412E-01;  0.0000000E+00; -1.0051333E-01;  1.0061620E+03;  1.3909237E-01;  5.0978135E+03;3; -1.9357092E+01;  0.0000000E+00;  7.1770382E+00;0;  3.7042522E+00;  2.1108697E+04;  0.0000000E+00;  5.9327728E-01;  4.0000000E+04;  0.0000000E+00;  3.9679141E+04;  3.6485751E+00;  0.0000000E+00;  5.5677246E-02;  6.1708003E+03;
  1.0587248E+00;  9.9999998E-03; -1.6058753E-01;8194;  8.4495109E-01;  0.0000000E+00; -1.0160759E-01;  1.0065666E+03;  1.3908091E-01;  5.4326265E+03;3; -1.0469740E+01;  0.0000000E+00;  7.1309857E+00;0;  3.5110178E+00;  2.1128768E+04;  0.0000000E+00;  4.0795437E-01;  4.0000000E+04;  0.0000000E+00;  3.9677727E+04;  3.4116890E+00;  0.0000000E+00;  9.9328727E-02;  6.3250854E+03;
  1.0608827E+00;  9.9999998E-03; -2.6109493E-01;8184;  7.3442274E-01;  0.0000000E+00; -7.9944640E-02;  9.9982349E+02;  1.3900506E-01; -1.4600397E+02;3; -1.0703648E+02;  0.0000000E+00;  8.9049768E+00;0;  4.7769346E+00;  2.0903178E+04;  0.0000000E+00; -1.5718926E+00;  4.0000000E+04;  0.0000000E+00;  3.9654133E+04;  4.9235277E+00;  0.0000000E+00; -1.4659308E-01;  9.2888135E+03;
  1.0612799E+00;  9.9999998E-03; -2.7111655E-01;8183;  7.1515143E-01;  0.0000000E+00; -7.3527977E-02;  9.9917389E+02;  1.3896428E-01; -6.8341693E+02;3; -1.1405578E+02;  0.0000000E+00;  9.0179901E+00;0;  4.8008204E+00;  2.0889266E+04;  0.0000000E+00; -1.8804140E+00;  4.0000000E+04;  0.0000000E+00;  3.9657305E+04;  4.9820175E+00;  0.0000000E+00; -1.8119740E-01;  9.1628545E+03;
  1.0723732E+00;  9.9999998E-03; -1.1041176E-01;8260;  8.6586761E-01;  0.0000000E+00; -9.6934110E-02;  1.0078748E+03;  1.3678287E-01;  6.5127188E+03;3;  3.3102409E+01;  0.0000000E+00;  6.5599686E-01;0;  2.0854969E+00;  2.1892094E+04;  0.0000000E+00; -4.2873847E-01;  4.0000000E+04;  0.0000000E+00;  3.9688359E+04;  1.6910871E+00;  0.0000000E+00;  3.9440989E-01;  5.6836587E+03;
  1.0733351E+00;  9.9999998E-03; -2.3079671E-01;8248;  8.3530098E-01;  0.0000000E+00; -1.1033525E-01;  1.0058564E+03;  1.3670489E-01;  4.8433535E+03;3; -6.4986992E+01;  0.0000000E+00;  1.1591451E+00;0;  3.8524363E+00;  2.1831855E+04;  0.0000000E+00; -7.5467861E-01;  4.0000000E+04;  0.0000000E+00;  3.9704906E+04;  3.8635914E+00;  0.0000000E+00; -1.1155196E-02;  3.6923291E+03;
  1.0729356E+00;  9.9999998E-03; -2.2070801E-01;8249;  8.4598958E-01;  0.0000000E+00; -1.1044250E-01;  1.0061967E+03;  1.3673043E-01;  5.1247788E+03;3; -5.3764908E+01;  0.0000000E+00;  9.6727788E-01;0;  3.7350850E+00;  2.1836205E+04;  0.0000000E+00; -6.4920866E-01;  4.0000000E+04;  0.0000000E+00;  3.9705922E+04;  3.7436209E+00;  0.0000000E+00; -8.5358843E-03;  3.5564600E+03;
  1.0726346E+00;  9.9999998E-03; -2.1066868E-01;8250;  8.5535985E-01;  0.0000000E+00; -1.1046874E-01;  1.0064263E+03;  1.3674502E-01;  5.3147041E+03;3; -4.2396679E+01;  0.0000000E+00;  6.3204104E-01;0;  3.6097312E+00;  2.1843596E+04;  0.0000000E+00; -5.5553812E-01;  4.0000000E+04;  0.0000000E+00;  3.9698648E+04;  3.6043191E+00;  0.0000000E+00;  5.4119923E-03;  4.4015601E+03;
  1.0723091E+00;  9.9999998E-03; -1.2043522E-01;8259;  8.6796522E-01;  0.0000000E+00; -1.0340062E-01;  1.0078865E+03;  1.3676637E-01;  6.5224897E+03;3;  2.9885582E+01;  0.0000000E+00; -1.0459336E+00;0;  2.2131698E+00;  2.1895420E+04;  0.0000000E+00; -4.7673041E-01;  4.0000000E+04;  0.0000000E+00;  3.9689418E+04;  1.8687376E+00;  0.0000000E+00;  3.4443232E-01;  5.6006333E+03;
  1.0723888E+00;  9.9999998E-03; -2.0064129E-01;8251;  8.6364979E-01;  0.0000000E+00; -1.1079218E-01;  1.0066572E+03;  1.3675429E-01;  5.5057085E+03;3; -3.0964085E+01;  0.0000000E+00;  3.8482481E-01;0;  3.4753652E+00;  2.1851564E+04;  0.0000000E+00; -4.7259280E-01;  4.0000000E+04;  0.0000000E+00;  3.9693148E+04;  3.4477270E+00;  0.0000000E+00;  2.7638156E-02;  5.0615938E+03;
  1.0738457E+00;  9.9999998E-03; -2.4092007E-01;8247;  8.2288688E-01;  0.0000000E+00; -1.0915017E-01;  1.0052773E+03;  1.3666815E-01;  4.3644502E+03;3; -7.5534645E+01;  0.0000000E+00;  1.4050810E+00;0;  3.9614406E+00;  2.1832443E+04;  0.0000000E+00; -9.0298164E-01;  4.0000000E+04;  0.0000000E+00;  3.9684203E+04;  3.9641917E+00;  0.0000000E+00; -2.7510328E-03;  6.1611436E+03;
  1.0721970E+00;  9.9999998E-03; -1.9061343E-01;8252;  8.7049073E-01;  0.0000000E+00; -1.1123884E-01;  1.0068828E+03;  1.3675678E-01;  5.6923691E+03;3; -1.9626257E+01;  0.0000000E+00;  5.7231087E-02;0;  3.3304129E+00;  2.1860100E+04;  0.0000000E+00; -4.1307846E-01;  4.0000000E+04;  0.0000000E+00;  3.9689766E+04;  3.2747993E+00;  0.0000000E+00;  5.5613529E-02;  5.4690884E+03;
  1.0722322E+00;  9.9999998E-03; -1.3045390E-01;8258;  8.7094790E-01;  0.0000000E+00; -1.0729454E-01;  1.0078492E+03;  1.3675259E-01;  6.4916440E+03;3;  2.6718168E+01;  0.0000000E+00; -2.6758401E+00;0;  2.3555708E+00;  2.1897193E+04;  0.0000000E+00; -4.9493098E-01;  4.0000000E+04;  0.0000000E+00;  3.9689762E+04;  2.0596404E+00;  0.0000000E+00;  2.9593039E-01;  5.6098193E+03;
  1.0720630E+00;  9.9999998E-03; -1.8058082E-01;8253;  8.7537366E-01;  0.0000000E+00; -1.1176917E-01;  1.0070993E+03;  1.3675480E-01;  5.8714316E+03;3; -8.5823851E+00;  0.0000000E+00; -2.1992007E-01;0;  3.1754291E+00;  2.1868969E+04;  0.0000000E+00; -3.8683161E-01;  4.0000000E+04;  0.0000000E+00;  3.9687883E+04;  3.0873904E+00;  0.0000000E+00;  8.8038780E-02;  5.7047754E+03;
  1.0721492E+00;  9.9999998E-03; -1.4046131E-01;8257;  8.7414116E-01;  0.0000000E+00; -1.0985876E-01;  1.0077631E+03;  1.3674267E-01;  6.4203765E+03;3;  2.2875017E+01;  0.0000000E+00; -3.8703966E+00;0;  2.5103745E+00;  2.1896473E+04;  0.0000000E+00; -4.8474216E-01;  4.0000000E+04;  0.0000000E+00;  3.9688906E+04;  2.2608109E+00;  0.0000000E+00;  2.4956371E-01;  5.6862476E+03;
  1.0719969E+00;  9.9999998E-03; -1.7054467E-01;8254;  8.7798679E-01;  0.0000000E+00; -1.1222181E-01;  1.0072973E+03;  1.3674876E-01;  6.0352026E+03;3;  1.8925153E+00;  0.0000000E+00; -8.4366000E-01;0;  3.0121837E+00;  2.1878074E+04;  0.0000000E+00; -3.9288351E-01;  4.0000000E+04;  0.0000000E+00;  3.9687117E+04;  2.8880363E+00;  0.0000000E+00;  1.2414753E-01;  5.8218301E+03;
  1.0720254E+00;  9.9999998E-03; -1.5048100E-01;8256;  8.7679166E-01;  0.0000000E+00; -1.1161062E-01;  1.0076338E+03;  1.3674277E-01;  6.3135234E+03;3;  1.7822006E+01;  0.0000000E+00; -3.5742707E+00;0;  2.6765344E+00;  2.1891742E+04;  0.0000000E+00; -4.5426133E-01;  4.0000000E+04;  0.0000000E+00;  3.9687867E+04;  2.4713557E+00;  0.0000000E+00;  2.0517874E-01;  5.7829297E+03;
  1.0719734E+00;  9.9999998E-03; -1.6050757E-01;8255;  8.7829942E-01;  0.0000000E+00; -1.1229549E-01;  1.0074775E+03;  1.3674420E-01;  6.1842773E+03;3;  1.0915479E+01;  0.0000000E+00; -2.0473287E+00;0;  2.8451626E+00;  2.1885592E+04;  0.0000000E+00; -4.1892818E-01;  4.0000000E+04;  0.0000000E+00;  3.9687273E+04;  2.6818786E+00;  0.0000000E+00;  1.6328400E-01;  5.8400806E+03;
  1.0744373E+00;  9.9999998E-03; -2.5100893E-01;8246;  8.0958611E-01;  0.0000000E+00; -1.0613215E-01;  1.0046366E+03;  1.3661750E-01;  3.8344841E+03;3; -8.5128960E+01;  0.0000000E+00;  1.8077686E+00;0;  4.0572639E+00;  2.1838637E+04;  0.0000000E+00; -1.1865252E+00;  4.0000000E+04;  0.0000000E+00;  3.9658395E+04;  4.0475211E+00;  0.0000000E+00;  9.7428430E-03;  9.3107627E+03;
  1.0751081E+00;  9.9999998E-03; -2.6106095E-01;8245;  7.9574734E-01;  0.0000000E+00; -1.0167699E-01;  1.0041039E+03;  1.3654926E-01;  3.3938442E+03;3; -9.3648964E+01;  0.0000000E+00;  2.5754237E+00;0;  4.1332879E+00;  2.1850596E+04;  0.0000000E+00; -1.7363600E+00;  4.0000000E+04;  0.0000000E+00;  3.9639883E+04;  4.1151981E+00;  0.0000000E+00;  1.8089850E-02;  1.1764611E+04;
  1.0755720E+00;  9.9999998E-03; -2.7109620E-01;8244;  7.7990013E-01;  0.0000000E+00; -9.5700257E-02;  1.0036146E+03;  1.3649692E-01;  2.9892185E+03;3; -1.0178654E+02;  0.0000000E+00;  3.9211252E+00;0;  4.1924787E+00;  2.1853672E+04;  0.0000000E+00; -2.5305707E+00;  4.0000000E+04;  0.0000000E+00;  3.9630664E+04;  4.1855073E+00;  0.0000000E+00;  6.9713201E-03;  1.3412547E+04;
  1.0854499E+00;  9.9999998E-03; -1.1038327E-01;8321;  8.6960626E-01;  0.0000000E+00; -8.5229255E-02;  1.0074832E+03;  1.3442953E-01;  6.1866201E+03;3;  3.8201462E+01;  0.0000000E+00;  4.3399229E+00;0;  1.6109873E+00;  2.2632363E+04;  0.0000000E+00; -2.0420226E-01;  4.0000000E+04;  0.0000000E+00;  3.9704035E+04;  1.1939832E+00;  0.0000000E+00;  4.1700408E-01;  4.1487529E+03;
  1.0853634E+00;  9.9999998E-03; -1.2037729E-01;8320;  8.7229556E-01;  0.0000000E+00; -9.0722598E-02;  1.0074215E+03;  1.3442037E-01;  6.1355859E+03;3;  3.5528297E+01;  0.0000000E+00;  2.5755649E+00;0;  1.7117060E+00;  2.2631020E+04;  0.0000000E+00; -3.8289416E-01;  4.0000000E+04;  0.0000000E+00;  3.9704152E+04;  1.3368469E+00;  0.0000000E+00;  3.7485906E-01;  4.2271177E+03;
  1.0852432E+00;  9.9999998E-03; -1.3038060E-01;8319;  8.7516129E-01;  0.0000000E+00; -9.5973715E-02;  1.0073511E+03;  1.3441308E-01;  6.0774619E+03;3;  3.2672619E+01;  0.0000000E+00;  1.9661415E-01;0;  1.8265080E+00;  2.2629975E+04;  0.0000000E+00; -5.8217108E-01;  4.0000000E+04;  0.0000000E+00;  3.9703312E+04;  1.4926922E+00;  0.0000000E+00;  3.3381581E-01;  4.4541733E+03;
  1.0851063E+00;  9.9999998E-03; -1.4039080E-01;8318;  8.7824881E-01;  0.0000000E+00; -1.0085126E-01;  1.0072869E+03;  1.3440728E-01;  6.0243667E+03;3;  2.9453161E+01;  0.0000000E+00; -2.8298926E+00;0;  1.9537698E+00;  2.2629684E+04;  0.0000000E+00; -7.8768283E-01;  4.0000000E+04;  0.0000000E+00;  3.9701637E+04;  1.6593984E+00;  0.0000000E+00;  2.9437137E-01;  4.7958218E+03;
  1.0849806E+00;  9.9999998E-03; -1.5042906E-01;8317;  8.8144058E-01;  0.0000000E+00; -1.0552181E-01;  1.0072419E+03;  1.3440463E-01;  5.9872354E+03;3;  2.5984823E+01;  0.0000000E+00; -6.1263266E+00;0;  2.0906560E+00;  2.2630291E+04;  0.0000000E+00; -9.8496807E-01;  4.0000000E+04;  0.0000000E+00;  3.9699543E+04;  1.8341494E+00;  0.0000000E+00;  2.5650659E-01;  5.1834028E+03;
  1.0849441E+00;  9.9999998E-03; -1.6048211E-01;8316;  8.8467342E-01;  0.0000000E+00; -1.1001857E-01;  1.0072252E+03;  1.3440122E-01;  5.9733457E+03;3;  2.2479580E+01;  0.0000000E+00; -9.4316006E+00;0;  2.2309225E+00;  2.2633215E+04;  0.0000000E+00; -1.1579336E+00;  4.0000000E+04;  0.0000000E+00;  3.9697562E+04;  2.0104344E+00;  0.0000000E+00;  2.2048798E-01;  5.5380503E+03;
  1.0849973E+00;  9.9999998E-03; -1.7052451E-01;8315;  8.8768196E-01;  0.0000000E+00; -1.1402981E-01;  1.0072508E+03;  1.3439758E-01;  5.9945249E+03;3;  1.8038885E+01;  0.0000000E+00; -1.1413326E+01;0;  2.3711219E+00;  2.2638389E+04;  0.0000000E+00; -1.2904150E+00;  4.0000000E+04;  0.0000000E+00;  3.9695836E+04;  2.1844721E+00;  0.0000000E+00;  1.8664977E-01;  5.8015879E+03;
  1.0850719E+00;  9.9999998E-03; -1.8055499E-01;8314;  8.8992703E-01;  0.0000000E+00; -1.1724456E-01;  1.0073134E+03;  1.3439637E-01;  6.0462524E+03;3;  1.1940441E+01;  0.0000000E+00; -1.1563842E+01;0;  2.5118656E+00;  2.2644109E+04;  0.0000000E+00; -1.3756584E+00;  4.0000000E+04;  0.0000000E+00;  3.9695008E+04;  2.3566315E+00;  0.0000000E+00;  1.5523407E-01;  5.9486172E+03;
  1.0851953E+00;  9.9999998E-03; -1.9057858E-01;8313;  8.9069450E-01;  0.0000000E+00; -1.1944030E-01;  1.0074058E+03;  1.3439336E-01;  6.1226089E+03;3;  3.2116568E+00;  0.0000000E+00; -1.0303379E+01;0;  2.6500201E+00;  2.2651564E+04;  0.0000000E+00; -1.4197365E+00;  4.0000000E+04;  0.0000000E+00;  3.9694816E+04;  2.5228589E+00;  0.0000000E+00;  1.2716115E-01;  5.9542148E+03;
  1.0853999E+00;  9.9999998E-03; -2.0059969E-01;8312;  8.8952404E-01;  0.0000000E+00; -1.2084406E-01;  1.0075239E+03;  1.3438185E-01;  6.2202363E+03;3; -7.5698738E+00;  0.0000000E+00; -8.3455524E+00;0;  2.7826736E+00;  2.2662029E+04;  0.0000000E+00; -1.4292793E+00;  4.0000000E+04;  0.0000000E+00;  3.9696293E+04;  2.6789088E+00;  0.0000000E+00;  1.0376482E-01;  5.7666948E+03;
  1.0856907E+00;  9.9999998E-03; -2.1062900E-01;8311;  8.8654935E-01;  0.0000000E+00; -1.2195295E-01;  1.0076664E+03;  1.3436110E-01;  6.3379497E+03;3; -1.8953999E+01;  0.0000000E+00; -6.7208381E+00;0;  2.9095371E+00;  2.2675424E+04;  0.0000000E+00; -1.4121555E+00;  4.0000000E+04;  0.0000000E+00;  3.9699598E+04;  2.8225574E+00;  0.0000000E+00;  8.6979665E-02;  5.3655830E+03;
  1.0860555E+00;  9.9999998E-03; -2.2067690E-01;8310;  8.8224536E-01;  0.0000000E+00; -1.2306388E-01;  1.0078106E+03;  1.3433202E-01;  6.4571245E+03;3; -3.0090002E+01;  0.0000000E+00; -5.0392532E+00;0;  3.0330932E+00;  2.2690916E+04;  0.0000000E+00; -1.3821080E+00;  4.0000000E+04;  0.0000000E+00;  3.9703301E+04;  2.9531701E+00;  0.0000000E+00;  7.9923138E-02;  4.8970859E+03;
  1.0864877E+00;  9.9999998E-03; -2.3076847E-01;8309;  8.7669450E-01;  0.0000000E+00; -1.2367402E-01;  1.0078433E+03;  1.3429649E-01;  6.4841362E+03;3; -4.0959404E+01;  0.0000000E+00; -3.9041057E+00;0;  3.1562908E+00;  2.2708250E+04;  0.0000000E+00; -1.3750715E+00;  4.0000000E+04;  0.0000000E+00;  3.9698832E+04;  3.0707469E+00;  0.0000000E+00;  8.5543767E-02;  5.3594688E+03;
  1.0869635E+00;  9.9999998E-03; -2.4088106E-01;8308;  8.6975831E-01;  0.0000000E+00; -1.2286359E-01;  1.0076521E+03;  1.3425457E-01;  6.3258657E+03;3; -5.1115067E+01;  0.0000000E+00; -3.1164415E+00;0;  3.2794824E+00;  2.2727127E+04;  0.0000000E+00; -1.4727622E+00;  4.0000000E+04;  0.0000000E+00;  3.9678906E+04;  3.1762071E+00;  0.0000000E+00;  1.0327535E-01;  7.6876782E+03;
  1.0874764E+00;  9.9999998E-03; -2.5096336E-01;8307;  8.6238718E-01;  0.0000000E+00; -1.2062483E-01;  1.0073689E+03;  1.3420521E-01;  6.0917100E+03;3; -6.0257858E+01;  0.0000000E+00; -2.7011302E+00;0;  3.3992167E+00;  2.2747721E+04;  0.0000000E+00; -1.8181094E+00;  4.0000000E+04;  0.0000000E+00;  3.9655172E+04;  3.2692060E+00;  0.0000000E+00;  1.3001056E-01;  1.0626150E+04;
  1.0880638E+00;  9.9999998E-03; -2.6102024E-01;8306;  8.5533899E-01;  0.0000000E+00; -1.1651261E-01;  1.0070711E+03;  1.3413988E-01;  5.8454258E+03;3; -6.8061172E+01;  0.0000000E+00; -1.7012800E+00;0;  3.5008171E+00;  2.2771426E+04;  0.0000000E+00; -2.5723567E+00;  4.0000000E+04;  0.0000000E+00;  3.9633996E+04;  3.3477528E+00;  0.0000000E+00;  1.5306433E-01;  1.3546118E+04;
  1.0885361E+00;  9.9999998E-03; -2.7106476E-01;8305;  8.4569174E-01;  0.0000000E+00; -1.1000197E-01;  1.0067387E+03;  1.3408245E-01;  5.5704951E+03;3; -7.5449448E+01;  0.0000000E+00; -5.6513697E-01;0;  3.5707848E+00;  2.2787684E+04;  0.0000000E+00; -3.5605807E+00;  4.0000000E+04;  0.0000000E+00;  3.9616852E+04;  3.4242082E+00;  0.0000000E+00;  1.4657663E-01;  1.6252136E+04;
  1.0983155E+00;  9.9999998E-03; -1.1037274E-01;8382;  8.7147433E-01;  0.0000000E+00; -7.3311299E-02;  1.0061672E+03;  1.3211645E-01;  5.0962979E+03;3;  4.0775578E+01;  0.0000000E+00;  5.2223134E+00;0;  1.2137702E+00;  2.3356086E+04;  0.0000000E+00; -1.0349293E-02;  4.0000000E+04;  0.0000000E+00;  3.9720320E+04;  7.8946906E-01;  0.0000000E+00;  4.2430109E-01;  2.4241101E+03;
  1.0981826E+00;  9.9999998E-03; -1.2037259E-01;8381;  8.7457860E-01;  0.0000000E+00; -7.8031443E-02;  1.0060151E+03;  1.3211469E-01;  4.9707236E+03;3;  3.8108280E+01;  0.0000000E+00;  3.4390638E+00;0;  1.2902837E+00;  2.3349354E+04;  0.0000000E+00; -2.6257026E-01;  4.0000000E+04;  0.0000000E+00;  3.9719367E+04;  8.9955223E-01;  0.0000000E+00;  3.9073148E-01;  2.6343411E+03;
  1.0980203E+00;  9.9999998E-03; -1.3036495E-01;8380;  8.7786621E-01;  0.0000000E+00; -8.2604088E-02;  1.0058961E+03;  1.3211446E-01;  4.8723423E+03;3;  3.5358292E+01;  0.0000000E+00;  1.1914898E+00;0;  1.3786237E+00;  2.3344814E+04;  0.0000000E+00; -5.7735842E-01;  4.0000000E+04;  0.0000000E+00;  3.9717344E+04;  1.0203806E+00;  0.0000000E+00;  3.5824308E-01;  3.0788955E+03;
  1.0978756E+00;  9.9999998E-03; -1.4037061E-01;8379;  8.8129318E-01;  0.0000000E+00; -8.7123647E-02;  1.0058248E+03;  1.3211115E-01;  4.8134590E+03;3;  3.2450024E+01;  0.0000000E+00; -1.3724816E+00;0;  1.4770098E+00;  2.3344549E+04;  0.0000000E+00; -9.3179083E-01;  4.0000000E+04;  0.0000000E+00;  3.9714758E+04;  1.1499517E+00;  0.0000000E+00;  3.2705805E-01;  3.7013906E+03;
  1.0977749E+00;  9.9999998E-03; -1.5041405E-01;8378;  8.8484246E-01;  0.0000000E+00; -9.1579646E-02;  1.0058331E+03;  1.3210596E-01;  4.8202749E+03;3;  2.9460396E+01;  0.0000000E+00; -4.2565651E+00;0;  1.5834204E+00;  2.3349367E+04;  0.0000000E+00; -1.2952366E+00;  4.0000000E+04;  0.0000000E+00;  3.9711609E+04;  1.2864256E+00;  0.0000000E+00;  2.9699481E-01;  4.4031968E+03;
  1.0977355E+00;  9.9999998E-03; -1.6047415E-01;8377;  8.8843721E-01;  0.0000000E+00; -9.6168265E-02;  1.0059227E+03;  1.3209662E-01;  4.8943628E+03;3;  2.6402117E+01;  0.0000000E+00; -7.6533947E+00;0;  1.6950787E+00;  2.3359893E+04;  0.0000000E+00; -1.6289870E+00;  4.0000000E+04;  0.0000000E+00;  3.9708656E+04;  1.4272159E+00;  0.0000000E+00;  2.6786280E-01;  5.0771519E+03;
  1.0977484E+00;  9.9999998E-03; -1.7053296E-01;8376;  8.9200598E-01;  0.0000000E+00; -1.0121597E-01;  1.0061120E+03;  1.3208501E-01;  5.0507974E+03;3;  2.3486771E+01;  0.0000000E+00; -1.1406098E+01;0;  1.8100241E+00;  2.3376117E+04;  0.0000000E+00; -1.8972762E+00;  4.0000000E+04;  0.0000000E+00;  3.9705723E+04;  1.5704784E+00;  0.0000000E+00;  2.3954570E-01;  5.6491758E+03;
  1.0977919E+00;  9.9999998E-03; -1.8057995E-01;8375;  8.9550096E-01;  0.0000000E+00; -1.0697571E-01;  1.0063838E+03;  1.3207251E-01;  5.2753950E+03;3;  2.0292953E+01;  0.0000000E+00; -1.5238884E+01;0;  1.9272611E+00;  2.3396604E+04;  0.0000000E+00; -2.0803826E+00;  4.0000000E+04;  0.0000000E+00;  3.9702910E+04;  1.7149435E+00;  0.0000000E+00;  2.1231760E-01;  6.0953174E+03;
  1.0978764E+00;  9.9999998E-03; -1.9061026E-01;8374;  8.9884603E-01;  0.0000000E+00; -1.1332761E-01;  1.0067256E+03;  1.3205962E-01;  5.5579087E+03;3;  1.6906961E+01;  0.0000000E+00; -1.8140343E+01;0;  2.0454359E+00;  2.3420289E+04;  0.0000000E+00; -2.1756241E+00;  4.0000000E+04;  0.0000000E+00;  3.9700371E+04;  1.8579755E+00;  0.0000000E+00;  1.8746039E-01;  6.4080195E+03;
  1.0980335E+00;  9.9999998E-03; -2.0062923E-01;8373;  9.0185964E-01;  0.0000000E+00; -1.1941602E-01;  1.0071218E+03;  1.3204192E-01;  5.8852266E+03;3;  1.2352325E+01;  0.0000000E+00; -1.8339901E+01;0;  2.1633048E+00;  2.3447477E+04;  0.0000000E+00; -2.2029173E+00;  4.0000000E+04;  0.0000000E+00;  3.9698492E+04;  1.9959649E+00;  0.0000000E+00;  1.6733991E-01;  6.5703345E+03;
  1.0982696E+00;  9.9999998E-03; -2.1064793E-01;8372;  9.0424359E-01;  0.0000000E+00; -1.2410711E-01;  1.0075575E+03;  1.3201661E-01;  6.2452271E+03;3;  5.9520192E+00;  0.0000000E+00; -1.5663461E+01;0;  2.2811649E+00;  2.3478059E+04;  0.0000000E+00; -2.1993439E+00;  4.0000000E+04;  0.0000000E+00;  3.9698246E+04;  2.1266935E+00;  0.0000000E+00;  1.5447146E-01;  6.5586719E+03;
  1.0985625E+00;  9.9999998E-03; -2.2068530E-01;8371;  9.0575117E-01;  0.0000000E+00; -1.2718119E-01;  1.0079942E+03;  1.3198596E-01;  6.6059937E+03;3; -2.2533379E+00;  0.0000000E+00; -1.2286125E+01;0;  2.4011903E+00;  2.3510045E+04;  0.0000000E+00; -2.2133453E+00;  4.0000000E+04;  0.0000000E+00;  3.9698457E+04;  2.2498891E+00;  0.0000000E+00;  1.5130119E-01;  6.5396323E+03;
  1.0989245E+00;  9.9999998E-03; -2.3075946E-01;8370;  9.0647560E-01;  0.0000000E+00; -1.2862289E-01;  1.0083301E+03;  1.3194863E-01;  6.8834956E+03;3; -1.1236026E+01;  0.0000000E+00; -9.8340645E+00;0;  2.5238509E+00;  2.3543205E+04;  0.0000000E+00; -2.3069103E+00;  4.0000000E+04;  0.0000000E+00;  3.9692164E+04;  2.3638470E+00;  0.0000000E+00;  1.6000386E-01;  7.2578169E+03;
  1.0993050E+00;  9.9999998E-03; -2.4084467E-01;8369;  9.0638489E-01;  0.0000000E+00; -1.2856574E-01;  1.0084995E+03;  1.3190995E-01;  7.0233711E+03;3; -1.9906170E+01;  0.0000000E+00; -8.0105467E+00;0;  2.6514165E+00;  2.3575305E+04;  0.0000000E+00; -2.5683908E+00;  4.0000000E+04;  0.0000000E+00;  3.9676770E+04;  2.4700363E+00;  0.0000000E+00;  1.8138027E-01;  9.1201289E+03;
  1.0996931E+00;  9.9999998E-03; -2.5091127E-01;8368;  9.0587896E-01;  0.0000000E+00; -1.2750116E-01;  1.0085580E+03;  1.3186909E-01;  7.0716304E+03;3; -2.7492399E+01;  0.0000000E+00; -7.0175362E+00;0;  2.7838120E+00;  2.3604838E+04;  0.0000000E+00; -3.0857477E+00;  4.0000000E+04;  0.0000000E+00;  3.9659379E+04;  2.5680146E+00;  0.0000000E+00;  2.1579731E-01;  1.1427880E+04;
  1.1000661E+00;  9.9999998E-03; -2.6096994E-01;8367;  9.0535384E-01;  0.0000000E+00; -1.2434045E-01;  1.0084792E+03;  1.3183087E-01;  7.0064160E+03;3; -3.4137856E+01;  0.0000000E+00; -5.1893020E+00;0;  2.9071753E+00;  2.3629104E+04;  0.0000000E+00; -3.8337126E+00;  4.0000000E+04;  0.0000000E+00;  3.9638695E+04;  2.6586096E+00;  0.0000000E+00;  2.4856566E-01;  1.4298987E+04;
  1.1003861E+00;  9.9999998E-03; -2.7102399E-01;8366;  9.0371072E-01;  0.0000000E+00; -1.1692079E-01;  1.0082474E+03;  1.3179564E-01;  6.8147412E+03;3; -4.0395649E+01;  0.0000000E+00; -2.4214182E+00;0;  2.9770951E+00;  2.3646564E+04;  0.0000000E+00; -4.4789648E+00;  4.0000000E+04;  0.0000000E+00;  3.9615676E+04;  2.7437246E+00;  0.0000000E+00;  2.3337050E-01;  1.7363820E+04;
  1.1110301E+00;  9.9999998E-03; -1.1034451E-01;8443;  8.7149656E-01;  0.0000000E+00; -6.2958576E-02;  1.0042649E+03;  1.2988596E-01;  3.5224895E+03;3;  4.1606945E+01;  0.0000000E+00;  4.0721955E+00;0;  8.9306891E-01;  2.4061613E+04;  0.0000000E+00;  1.0710131E-01;  4.0000000E+04;  0.0000000E+00;  3.9736402E+04;  4.7498193E-01;  0.0000000E+00;  4.1808701E-01;  6.5075922E+02;
  1.1109182E+00;  9.9999998E-03; -1.2035231E-01;8442;  8.7475383E-01;  0.0000000E+00; -6.7271560E-02;  1.0040408E+03;  1.2988706E-01;  3.3373093E+03;3;  3.8985336E+01;  0.0000000E+00;  2.2146437E+00;0;  9.4760203E-01;  2.4051535E+04;  0.0000000E+00; -1.4809388E-01;  4.0000000E+04;  0.0000000E+00;  3.9734641E+04;  5.5435848E-01;  0.0000000E+00;  3.9324352E-01;  9.3166913E+02;
  1.1108317E+00;  9.9999998E-03; -1.3035162E-01;8441;  8.7822431E-01;  0.0000000E+00; -7.1408890E-02;  1.0038629E+03;  1.2988415E-01;  3.1904241E+03;3;  3.6293377E+01;  0.0000000E+00; -9.4303899E-03;0;  1.0103991E+00;  2.4046234E+04;  0.0000000E+00; -4.8946983E-01;  4.0000000E+04;  0.0000000E+00;  3.9731906E+04;  6.4078182E-01;  0.0000000E+00;  3.6961731E-01;  1.5598506E+03;
  1.1107918E+00;  9.9999998E-03; -1.4037125E-01;8440;  8.8187689E-01;  0.0000000E+00; -7.5498976E-02;  1.0037662E+03;  1.2987612E-01;  3.1105803E+03;3;  3.3433533E+01;  0.0000000E+00; -2.3672180E+00;0;  1.0807185E+00;  2.4047447E+04;  0.0000000E+00; -8.9500636E-01;  4.0000000E+04;  0.0000000E+00;  3.9728508E+04;  7.3349500E-01;  0.0000000E+00;  3.4722355E-01;  2.3875093E+03;
  1.1107429E+00;  9.9999998E-03; -1.5041810E-01;8439;  8.8569075E-01;  0.0000000E+00; -7.9559185E-02;  1.0037816E+03;  1.2986501E-01;  3.1232883E+03;3;  3.0675076E+01;  0.0000000E+00; -4.9573712E+00;0;  1.1592542E+00;  2.4055562E+04;  0.0000000E+00; -1.3287523E+00;  4.0000000E+04;  0.0000000E+00;  3.9724949E+04;  8.3365011E-01;  0.0000000E+00;  3.2560405E-01;  3.3009507E+03;
  1.1106339E+00;  9.9999998E-03; -1.6047600E-01;8438;  8.8966149E-01;  0.0000000E+00; -8.3733797E-02;  1.0039431E+03;  1.2985553E-01;  3.2567158E+03;3;  2.8105659E+01;  0.0000000E+00; -7.8835068E+00;0;  1.2464604E+00;  2.4070531E+04;  0.0000000E+00; -1.7446270E+00;  4.0000000E+04;  0.0000000E+00;  3.9721059E+04;  9.4247150E-01;  0.0000000E+00;  3.0398890E-01;  4.1991968E+03;
  1.1105388E+00;  9.9999998E-03; -1.7052737E-01;8437;  8.9376789E-01;  0.0000000E+00; -8.8146619E-02;  1.0042426E+03;  1.2984069E-01;  3.5041575E+03;3;  2.5663755E+01;  0.0000000E+00; -1.1095218E+01;0;  1.3388569E+00;  2.4093746E+04;  0.0000000E+00; -2.0961750E+00;  4.0000000E+04;  0.0000000E+00;  3.9717059E+04;  1.0569212E+00;  0.0000000E+00;  2.8193572E-01;  4.9900483E+03;
  1.1105011E+00;  9.9999998E-03; -1.8056902E-01;8436;  8.9798367E-01;  0.0000000E+00; -9.2989810E-02;  1.0046649E+03;  1.2981966E-01;  3.8529062E+03;3;  2.3168566E+01;  0.0000000E+00; -1.4376534E+01;0;  1.4336523E+00;  2.4124926E+04;  0.0000000E+00; -2.3483717E+00;  4.0000000E+04;  0.0000000E+00;  3.9713191E+04;  1.1742523E+00;  0.0000000E+00;  2.5940004E-01;  5.6277402E+03;
  1.1105416E+00;  9.9999998E-03; -1.9060487E-01;8435;  9.0231669E-01;  0.0000000E+00; -9.8510675E-02;  1.0051815E+03;  1.2979312E-01;  4.2796206E+03;3;  2.0939064E+01;  0.0000000E+00; -1.8043062E+01;0;  1.5290889E+00;  2.4163006E+04;  0.0000000E+00; -2.4990988E+00;  4.0000000E+04;  0.0000000E+00;  3.9708922E+04;  1.2920576E+00;  0.0000000E+00;  2.3703127E-01;  6.1383008E+03;
  1.1106337E+00;  9.9999998E-03; -2.0063451E-01;8434;  9.0680379E-01;  0.0000000E+00; -1.0517441E-01;  1.0057695E+03;  1.2976426E-01;  4.7652002E+03;3;  1.8942896E+01;  0.0000000E+00; -2.2036945E+01;0;  1.6263323E+00;  2.4205201E+04;  0.0000000E+00; -2.5846848E+00;  4.0000000E+04;  0.0000000E+00;  3.9704562E+04;  1.4095980E+00;  0.0000000E+00;  2.1673423E-01;  6.5904165E+03;
  1.1107591E+00;  9.9999998E-03; -2.1066275E-01;8433;  9.1131741E-01;  0.0000000E+00; -1.1308093E-01;  1.0063985E+03;  1.2973534E-01;  5.2846377E+03;3;  1.7080603E+01;  0.0000000E+00; -2.4419743E+01;0;  1.7288210E+00;  2.4249182E+04;  0.0000000E+00; -2.6701653E+00;  4.0000000E+04;  0.0000000E+00;  3.9700422E+04;  1.5259982E+00;  0.0000000E+00;  2.0282276E-01;  7.0527207E+03;
  1.1109262E+00;  9.9999998E-03; -2.2069634E-01;8432;  9.1584527E-01;  0.0000000E+00; -1.2048508E-01;  1.0070347E+03;  1.2970701E-01;  5.8101611E+03;3;  1.5206474E+01;  0.0000000E+00; -2.1246769E+01;0;  1.8398644E+00;  2.4292896E+04;  0.0000000E+00; -2.8320818E+00;  4.0000000E+04;  0.0000000E+00;  3.9696289E+04;  1.6393682E+00;  0.0000000E+00;  2.0049624E-01;  7.6046436E+03;
  1.1110903E+00;  9.9999998E-03; -2.3074624E-01;8431;  9.2061627E-01;  0.0000000E+00; -1.2451393E-01;  1.0076069E+03;  1.2968275E-01;  6.2826104E+03;3;  1.2970582E+01;  0.0000000E+00; -1.5884541E+01;0;  1.9592620E+00;  2.4333367E+04;  0.0000000E+00; -3.1371276E+00;  4.0000000E+04;  0.0000000E+00;  3.9689910E+04;  1.7503735E+00;  0.0000000E+00;  2.0888850E-01;  8.5455674E+03;
  1.1112224E+00;  9.9999998E-03; -2.4080597E-01;8430;  9.2572480E-01;  0.0000000E+00; -1.2576941E-01;  1.0080616E+03;  1.2966628E-01;  6.6581812E+03;3;  9.8450146E+00;  0.0000000E+00; -1.2740219E+01;0;  2.0859184E+00;  2.4368572E+04;  0.0000000E+00; -3.5919979E+00;  4.0000000E+04;  0.0000000E+00;  3.9679039E+04;  1.8591262E+00;  0.0000000E+00;  2.2679214E-01;  1.0074906E+04;
  1.1113564E+00;  9.9999998E-03; -2.5085849E-01;8429;  9.3086350E-01;  0.0000000E+00; -1.2591042E-01;  1.0084126E+03;  1.2965195E-01;  6.9479922E+03;3;  5.8952489E+00;  0.0000000E+00; -1.0002441E+01;0;  2.2204778E+00;  2.4398760E+04;  0.0000000E+00; -4.1272869E+00;  4.0000000E+04;  0.0000000E+00;  3.9667676E+04;  1.9628642E+00;  0.0000000E+00;  2.5761357E-01;  1.1717568E+04;
  1.1116364E+00;  9.9999998E-03; -2.6091206E-01;8428;  9.3625396E-01;  0.0000000E+00; -1.2439450E-01;  1.0085716E+03;  1.2962084E-01;  7.0792397E+03;3;  2.0197361E+00;  0.0000000E+00; -7.6501603E+00;0;  2.3463740E+00;  2.4428521E+04;  0.0000000E+00; -4.7711844E+00;  4.0000000E+04;  0.0000000E+00;  3.9652590E+04;  2.0537014E+00;  0.0000000E+00;  2.9267272E-01;  1.3830451E+04;
  1.1119516E+00;  9.9999998E-03; -2.7097121E-01;8427;  9.4160694E-01;  0.0000000E+00; -1.1844820E-01;  1.0084616E+03;  1.2958612E-01;  6.9882632E+03;3; -1.6879214E+00;  0.0000000E+00; -5.3277392E+00;0;  2.4189465E+00;  2.4452549E+04;  0.0000000E+00; -5.1025620E+00;  4.0000000E+04;  0.0000000E+00;  3.9628355E+04;  2.1361477E+00;  0.0000000E+00;  2.8279880E-01;  1.6532252E+04;
  1.1238806E+00;  9.9999998E-03; -1.1030586E-01;8504;  8.7031484E-01;  0.0000000E+00; -5.4047760E-02;  1.0021678E+03;  1.2771966E-01;  1.7892638E+03;3;  4.1792072E+01;  0.0000000E+00;  1.9596322E+00;0;  6.3762009E-01;  2.4771346E+04;  0.0000000E+00;  1.3493398E-01;  4.0000000E+04;  0.0000000E+00;  3.9752082E+04;  2.3743312E-01;  0.0000000E+00;  4.0018699E-01;  1.1921765E+03;
  1.1238772E+00;  9.9999998E-03; -1.2033552E-01;8503;  8.7361407E-01;  0.0000000E+00; -5.8018286E-02;  1.0019081E+03;  1.2772003E-01;  1.5749657E+03;3;  3.9171852E+01;  0.0000000E+00;  6.4589404E-02;0;  6.7379332E-01;  2.4761102E+04;  0.0000000E+00; -6.7850590E-02;  4.0000000E+04;  0.0000000E+00;  3.9749602E+04;  2.9022080E-01;  0.0000000E+00;  3.8357252E-01;  9.0480957E+02;
  1.1238980E+00;  9.9999998E-03; -1.3036776E-01;8502;  8.7715971E-01;  0.0000000E+00; -6.1856020E-02;  1.0017047E+03;  1.2771781E-01;  1.4070084E+03;3;  3.6620564E+01;  0.0000000E+00; -2.2176979E+00;0;  7.1654725E-01;  2.4755328E+04;  0.0000000E+00; -3.5586262E-01;  4.0000000E+04;  0.0000000E+00;  3.9746422E+04;  3.4814319E-01;  0.0000000E+00;  3.6840406E-01;  8.4191766E+02;
  1.1239051E+00;  9.9999998E-03; -1.4042445E-01;8501;  8.8092905E-01;  0.0000000E+00; -6.5726779E-02;  1.0015941E+03;  1.2771395E-01;  1.3157000E+03;3;  3.3844925E+01;  0.0000000E+00; -4.5093212E+00;0;  7.6656544E-01;  2.4755365E+04;  0.0000000E+00; -7.1445203E-01;  4.0000000E+04;  0.0000000E+00;  3.9742703E+04;  4.1208366E-01;  0.0000000E+00;  3.5448179E-01;  1.3267850E+03;
  1.1238686E+00;  9.9999998E-03; -1.5047595E-01;8500;  8.8490570E-01;  0.0000000E+00; -6.9576226E-02;  1.0016173E+03;  1.2770778E-01;  1.3348892E+03;3;  3.1208237E+01;  0.0000000E+00; -7.0079932E+00;0;  8.2386243E-01;  2.4762771E+04;  0.0000000E+00; -1.1124487E+00;  4.0000000E+04;  0.0000000E+00;  3.9738613E+04;  4.8272604E-01;  0.0000000E+00;  3.4113643E-01;  2.1080376E+03;
  1.1237442E+00;  9.9999998E-03; -1.6051465E-01;8499;  8.8908505E-01;  0.0000000E+00; -7.3536344E-02;  1.0017996E+03;  1.2769921E-01;  1.4853413E+03;3;  2.8819185E+01;  0.0000000E+00; -9.6438837E+00;0;  8.8879770E-01;  2.4778307E+04;  0.0000000E+00; -1.5104032E+00;  4.0000000E+04;  0.0000000E+00;  3.9734305E+04;  5.6145531E-01;  0.0000000E+00;  3.2734239E-01;  2.9617234E+03;
  1.1235027E+00;  9.9999998E-03; -1.7055061E-01;8498;  8.9346051E-01;  0.0000000E+00; -7.7721320E-02;  1.0021484E+03;  1.2769170E-01;  1.7732633E+03;3;  2.6467754E+01;  0.0000000E+00; -1.2309430E+01;0;  9.6168238E-01;  2.4801965E+04;  0.0000000E+00; -1.8644979E+00;  4.0000000E+04;  0.0000000E+00;  3.9729629E+04;  6.4961529E-01;  0.0000000E+00;  3.1206709E-01;  3.7790984E+03;
  1.1232680E+00;  9.9999998E-03; -1.8058646E-01;8497;  8.9804453E-01;  0.0000000E+00; -8.2128927E-02;  1.0026442E+03;  1.2767845E-01;  2.1825139E+03;3;  2.4359371E+01;  0.0000000E+00; -1.5106983E+01;0;  1.0388980E+00;  2.4834936E+04;  0.0000000E+00; -2.1361656E+00;  4.0000000E+04;  0.0000000E+00;  3.9724406E+04;  7.4398643E-01;  0.0000000E+00;  2.9491156E-01;  4.5002847E+03;
  1.1231327E+00;  9.9999998E-03; -1.9061978E-01;8496;  9.0285528E-01;  0.0000000E+00; -8.6870901E-02;  1.0032518E+03;  1.2765647E-01;  2.6840566E+03;3;  2.2494696E+01;  0.0000000E+00; -1.7985317E+01;0;  1.1170774E+00;  2.4876947E+04;  0.0000000E+00; -2.3149822E+00;  4.0000000E+04;  0.0000000E+00;  3.9718500E+04;  8.4090763E-01;  0.0000000E+00;  2.7616966E-01;  5.1440420E+03;
  1.1230748E+00;  9.9999998E-03; -2.0064890E-01;8495;  9.0802789E-01;  0.0000000E+00; -9.2277288E-02;  1.0039380E+03;  1.2762803E-01;  3.2504370E+03;3;  2.1340761E+01;  0.0000000E+00; -2.1431463E+01;0;  1.1963876E+00;  2.4925320E+04;  0.0000000E+00; -2.4350581E+00;  4.0000000E+04;  0.0000000E+00;  3.9711750E+04;  9.3951917E-01;  0.0000000E+00;  2.5686845E-01;  5.8067114E+03;
  1.1230762E+00;  9.9999998E-03; -2.1067236E-01;8494;  9.1358936E-01;  0.0000000E+00; -9.8626234E-02;  1.0046658E+03;  1.2759663E-01;  3.8511487E+03;3;  2.0342482E+01;  0.0000000E+00; -2.4911669E+01;0;  1.2786062E+00;  2.4977232E+04;  0.0000000E+00; -2.5712132E+00;  4.0000000E+04;  0.0000000E+00;  3.9704746E+04;  1.0388418E+00;  0.0000000E+00;  2.3976429E-01;  6.5656719E+03;
  1.1231169E+00;  9.9999998E-03; -2.2069679E-01;8493;  9.1936117E-01;  0.0000000E+00; -1.0592733E-01;  1.0054044E+03;  1.2756535E-01;  4.4609028E+03;3;  1.9302715E+01;  0.0000000E+00; -2.6998142E+01;0;  1.3684115E+00;  2.5029494E+04;  0.0000000E+00; -2.8201597E+00;  4.0000000E+04;  0.0000000E+00;  3.9697805E+04;  1.1381158E+00;  0.0000000E+00;  2.3029578E-01;  7.4642734E+03;
  1.1232097E+00;  9.9999998E-03; -2.3072593E-01;8492;  9.2519683E-01;  0.0000000E+00; -1.1288948E-01;  1.0061071E+03;  1.2753467E-01;  5.0408257E+03;3;  1.9025488E+01;  0.0000000E+00; -2.3060091E+01;0;  1.4701245E+00;  2.5079516E+04;  0.0000000E+00; -3.2650676E+00;  4.0000000E+04;  0.0000000E+00;  3.9691609E+04;  1.2354038E+00;  0.0000000E+00;  2.3472072E-01;  8.5184150E+03;
  1.1233239E+00;  9.9999998E-03; -2.4076058E-01;8491;  9.3146789E-01;  0.0000000E+00; -1.1690509E-01;  1.0067491E+03;  1.2750900E-01;  5.5707510E+03;3;  1.9631197E+01;  0.0000000E+00; -1.5936343E+01;0;  1.5806729E+00;  2.5124168E+04;  0.0000000E+00; -3.9263704E+00;  4.0000000E+04;  0.0000000E+00;  3.9686191E+04;  1.3305159E+00;  0.0000000E+00;  2.5015703E-01;  9.7211631E+03;
  1.1234429E+00;  9.9999998E-03; -2.5079948E-01;8490;  9.3858230E-01;  0.0000000E+00; -1.1843520E-01;  1.0072936E+03;  1.2748870E-01;  6.0200830E+03;3;  1.9889421E+01;  0.0000000E+00; -1.3438596E+01;0;  1.6957333E+00;  2.5161979E+04;  0.0000000E+00; -4.7097397E+00;  4.0000000E+04;  0.0000000E+00;  3.9681645E+04;  1.4229982E+00;  0.0000000E+00;  2.7273506E-01;  1.0954514E+04;
  1.1236589E+00;  9.9999998E-03; -2.6084721E-01;8489;  9.4635338E-01;  0.0000000E+00; -1.1894349E-01;  1.0076374E+03;  1.2746240E-01;  6.3037769E+03;3;  1.9840317E+01;  0.0000000E+00; -1.0771160E+01;0;  1.8134770E+00;  2.5195057E+04;  0.0000000E+00; -5.5650706E+00;  4.0000000E+04;  0.0000000E+00;  3.9673898E+04;  1.5081158E+00;  0.0000000E+00;  3.0536130E-01;  1.2558562E+04;
  1.1239225E+00;  9.9999998E-03; -2.7091146E-01;8488;  9.5456332E-01;  0.0000000E+00; -1.1488105E-01;  1.0076085E+03;  1.2743412E-01;  6.2798735E+03;3;  1.8208628E+01;  0.0000000E+00; -7.8424954E+00;0;  1.8843968E+00;  2.5220938E+04;  0.0000000E+00; -6.0525703E+00;  4.0000000E+04;  0.0000000E+00;  3.9650320E+04;  1.5870295E+00;  0.0000000E+00;  2.9736736E-01;  1.5118276E+04;
  1.1361437E+00;  9.9999998E-03; -2.7085409E-01;8549;  9.5716012E-01;  0.0000000E+00; -1.0718840E-01;  1.0060827E+03;  1.2542494E-01;  5.0166851E+03;3;  2.2215769E+01;  0.0000000E+00; -1.1537976E+01;0;  1.4019189E+00;  2.5938492E+04;  0.0000000E+00; -5.6864982E+00;  4.0000000E+04;  0.0000000E+00;  3.9671918E+04;  1.1183555E+00;  0.0000000E+00;  2.8356332E-01;  1.2602478E+04;
  1.1358422E+00;  9.9999998E-03; -2.6080120E-01;8550;  9.4860005E-01;  0.0000000E+00; -1.0813518E-01;  1.0059644E+03;  1.2545291E-01;  4.9192529E+03;3;  2.2687880E+01;  0.0000000E+00; -1.3175937E+01;0;  1.3329430E+00;  2.5912811E+04;  0.0000000E+00; -4.7991128E+00;  4.0000000E+04;  0.0000000E+00;  3.9683242E+04;  1.0502096E+00;  0.0000000E+00;  2.8273335E-01;  1.0609297E+04;
  1.1356595E+00;  9.9999998E-03; -2.5076205E-01;8551;  9.4054288E-01;  0.0000000E+00; -1.0696299E-01;  1.0055228E+03;  1.2547560E-01;  4.5550322E+03;3;  2.2494810E+01;  0.0000000E+00; -1.5213381E+01;0;  1.2443396E+00;  2.5879748E+04;  0.0000000E+00; -3.9154284E+00;  4.0000000E+04;  0.0000000E+00;  3.9685504E+04;  9.7587258E-01;  0.0000000E+00;  2.6846704E-01;  9.4924346E+03;
  1.1355515E+00;  9.9999998E-03; -2.4074133E-01;8552;  9.3330169E-01;  0.0000000E+00; -1.0307457E-01;  1.0048841E+03;  1.2549679E-01;  4.0283535E+03;3;  2.1625299E+01;  0.0000000E+00; -2.2791054E+01;0;  1.1492870E+00;  2.5839666E+04;  0.0000000E+00; -3.1553092E+00;  4.0000000E+04;  0.0000000E+00;  3.9684461E+04;  8.9770508E-01;  0.0000000E+00;  2.5158194E-01;  8.9035723E+03;
  1.1354904E+00;  9.9999998E-03; -2.3072717E-01;8553;  9.2648894E-01;  0.0000000E+00; -9.7544014E-02;  1.0041943E+03;  1.2552123E-01;  3.4593782E+03;3;  2.1191965E+01;  0.0000000E+00; -2.6996269E+01;0;  1.0639362E+00;  2.5793098E+04;  0.0000000E+00; -2.5658112E+00;  4.0000000E+04;  0.0000000E+00;  3.9688648E+04;  8.1737328E-01;  0.0000000E+00;  2.4656302E-01;  7.9940356E+03;
  1.1354887E+00;  9.9999998E-03; -2.2071353E-01;8554;  9.1984028E-01;  0.0000000E+00; -9.2304066E-02;  1.0034828E+03;  1.2554720E-01;  2.8725898E+03;3;  2.1377131E+01;  0.0000000E+00; -2.6501787E+01;0;  9.9135208E-01;  2.5742207E+04;  0.0000000E+00; -2.1707058E+00;  4.0000000E+04;  0.0000000E+00;  3.9697461E+04;  7.3559153E-01;  0.0000000E+00;  2.5576058E-01;  6.7664424E+03;
  1.1355578E+00;  9.9999998E-03; -2.1069746E-01;8555;  9.1342771E-01;  0.0000000E+00; -8.7040737E-02;  1.0027648E+03;  1.2557121E-01;  2.2803828E+03;3;  2.1808914E+01;  0.0000000E+00; -2.4576326E+01;0;  9.2428541E-01;  2.5690371E+04;  0.0000000E+00; -1.9311836E+00;  4.0000000E+04;  0.0000000E+00;  3.9708117E+04;  6.5334624E-01;  0.0000000E+00;  2.7093920E-01;  5.4710942E+03;
  1.1357265E+00;  9.9999998E-03; -2.0067509E-01;8556;  9.0739888E-01;  0.0000000E+00; -8.1929006E-02;  1.0020536E+03;  1.2559018E-01;  1.6937747E+03;3;  2.2222570E+01;  0.0000000E+00; -2.1743570E+01;0;  8.5934353E-01;  2.5641154E+04;  0.0000000E+00; -1.7829561E+00;  4.0000000E+04;  0.0000000E+00;  3.9718992E+04;  5.7132381E-01;  0.0000000E+00;  2.8801972E-01;  4.3262983E+03;
  1.1359617E+00;  9.9999998E-03; -1.9064592E-01;8557;  9.0192932E-01;  0.0000000E+00; -7.7231444E-02;  1.0013896E+03;  1.2560476E-01;  1.1461090E+03;3;  2.3279072E+01;  0.0000000E+00; -1.9227032E+01;0;  7.9605615E-01;  2.5596625E+04;  0.0000000E+00; -1.6598167E+00;  4.0000000E+04;  0.0000000E+00;  3.9728430E+04;  4.9180570E-01;  0.0000000E+00;  3.0425045E-01;  3.4570259E+03;
  1.1362211E+00;  9.9999998E-03; -1.8061194E-01;8558;  8.9684117E-01;  0.0000000E+00; -7.2848491E-02;  1.0008105E+03;  1.2561597E-01;  6.6846185E+02;3;  2.4914715E+01;  0.0000000E+00; -1.6933746E+01;0;  7.3498833E-01;  2.5558803E+04;  0.0000000E+00; -1.5067221E+00;  4.0000000E+04;  0.0000000E+00;  3.9736195E+04;  4.1691279E-01;  0.0000000E+00;  3.1807551E-01;  2.8275652E+03;
  1.1364795E+00;  9.9999998E-03; -1.7058006E-01;8559;  8.9205343E-01;  0.0000000E+00; -6.8650849E-02;  1.0003535E+03;  1.2562194E-01;  2.9160513E+02;3;  2.6797394E+01;  0.0000000E+00; -1.4634719E+01;0;  6.7697477E-01;  2.5529553E+04;  0.0000000E+00; -1.2940685E+00;  4.0000000E+04;  0.0000000E+00;  3.9742516E+04;  3.4791017E-01;  0.0000000E+00;  3.2906464E-01;  2.3312205E+03;
  1.1367188E+00;  9.9999998E-03; -1.6055132E-01;8560;  8.8751769E-01;  0.0000000E+00; -6.4619042E-02;  1.0000383E+03;  1.2562257E-01;  3.1657227E+01;3;  2.9014545E+01;  0.0000000E+00; -1.2119799E+01;0;  6.2288451E-01;  2.5509920E+04;  0.0000000E+00; -1.0287608E+00;  4.0000000E+04;  0.0000000E+00;  3.9747773E+04;  2.8541493E-01;  0.0000000E+00;  3.3746961E-01;  1.9492281E+03;
  1.1369290E+00;  9.9999998E-03; -1.5050980E-01;8561;  8.8318890E-01;  0.0000000E+00; -6.0759425E-02;  9.9987299E+02;  1.2561962E-01; -1.0475246E+02;3;  3.1423782E+01;  0.0000000E+00; -9.5494471E+00;0;  5.7339048E-01;  2.5499020E+04;  0.0000000E+00; -7.4241072E-01;  4.0000000E+04;  0.0000000E+00;  3.9752438E+04;  2.2938818E-01;  0.0000000E+00;  3.4400228E-01;  1.7868206E+03;
  1.1370589E+00;  9.9999998E-03; -1.4045246E-01;8562;  8.7908930E-01;  0.0000000E+00; -5.7025176E-02;  9.9984271E+02;  1.2561621E-01; -1.2972281E+02;3;  3.3908768E+01;  0.0000000E+00; -7.0326948E+00;0;  5.2987903E-01;  2.5494660E+04;  0.0000000E+00; -4.6788350E-01;  4.0000000E+04;  0.0000000E+00;  3.9756738E+04;  1.8017079E-01;  0.0000000E+00;  3.4970823E-01;  1.9133345E+03;
  1.1370505E+00;  9.9999998E-03; -1.3038795E-01;8563;  8.7524307E-01;  0.0000000E+00; -5.3372618E-02;  9.9993176E+02;  1.2561800E-01; -5.6283707E+01;3;  3.6572086E+01;  0.0000000E+00; -4.5889320E+00;0;  4.9366260E-01;  2.5494051E+04;  0.0000000E+00; -2.2971825E-01;  4.0000000E+04;  0.0000000E+00;  3.9760695E+04;  1.3780983E-01;  0.0000000E+00;  3.5585278E-01;  2.2306646E+03;
  1.1369485E+00;  9.9999998E-03; -1.2031385E-01;8564;  8.7165374E-01;  0.0000000E+00; -4.9815506E-02;  1.0000985E+03;  1.2562220E-01;  8.1206398E+01;3;  3.9211258E+01;  0.0000000E+00; -2.2110782E+00;0;  4.6428126E-01;  2.5496701E+04;  0.0000000E+00; -4.4367194E-02;  4.0000000E+04;  0.0000000E+00;  3.9764039E+04;  1.0085161E-01;  0.0000000E+00;  3.6342964E-01;  2.5942402E+03;
  1.1368102E+00;  9.9999998E-03; -1.1026435E-01;8565;  8.6832583E-01;  0.0000000E+00; -4.6254765E-02;  1.0003124E+03;  1.2562677E-01;  2.5758203E+02;3;  4.1806656E+01;  0.0000000E+00; -2.6860401E-01;0;  4.4102457E-01;  2.5501703E+04;  0.0000000E+00;  8.0582574E-02;  4.0000000E+04;  0.0000000E+00;  3.9766801E+04;  6.8193488E-02;  0.0000000E+00;  3.7283108E-01;  2.9018396E+03;
  1.1486459E+00;  9.9999998E-03; -2.7080283E-01;8610;  9.5714444E-01;  0.0000000E+00; -9.7021826E-02;  1.0041705E+03;  1.2350592E-01;  3.4364895E+03;3;  2.3854635E+01;  0.0000000E+00; -1.3726867E+01;0;  9.9182510E-01;  2.6634855E+04;  0.0000000E+00; -6.4880242E+00;  4.0000000E+04;  0.0000000E+00;  3.9691375E+04;  7.3498273E-01;  0.0000000E+00;  2.5684240E-01;  1.2396886E+04;
  1.1483138E+00;  9.9999998E-03; -2.6074904E-01;8611;  9.4845992E-01;  0.0000000E+00; -9.7572044E-02;  1.0041140E+03;  1.2353526E-01;  3.3899221E+03;3;  2.4255632E+01;  0.0000000E+00; -1.4693361E+01;0;  9.5052385E-01;  2.6613666E+04;  0.0000000E+00; -4.6408224E+00;  4.0000000E+04;  0.0000000E+00;  3.9699691E+04;  6.7851692E-01;  0.0000000E+00;  2.7200696E-01;  9.1643789E+03;
  1.1481425E+00;  9.9999998E-03; -2.5070393E-01;8612;  9.4017267E-01;  0.0000000E+00; -9.6676461E-02;  1.0037379E+03;  1.2355620E-01;  3.0800483E+03;3;  2.4224899E+01;  0.0000000E+00; -1.6027552E+01;0;  8.9295948E-01;  2.6584406E+04;  0.0000000E+00; -3.2619195E+00;  4.0000000E+04;  0.0000000E+00;  3.9701980E+04;  6.1723799E-01;  0.0000000E+00;  2.7572146E-01;  7.2219585E+03;
  1.1480753E+00;  9.9999998E-03; -2.4067706E-01;8613;  9.3259889E-01;  0.0000000E+00; -9.2874914E-02;  1.0031456E+03;  1.2357359E-01;  2.5920481E+03;3;  2.3205452E+01;  0.0000000E+00; -2.4243176E+01;0;  8.2245994E-01;  2.6548721E+04;  0.0000000E+00; -2.2939718E+00;  4.0000000E+04;  0.0000000E+00;  3.9699906E+04;  5.5341530E-01;  0.0000000E+00;  2.6904464E-01;  6.4245386E+03;
  1.1480712E+00;  9.9999998E-03; -2.3066413E-01;8614;  9.2552960E-01;  0.0000000E+00; -8.7205060E-02;  1.0024868E+03;  1.2359118E-01;  2.0491204E+03;3;  2.2499924E+01;  0.0000000E+00; -2.7304153E+01;0;  7.5755876E-01;  2.6507795E+04;  0.0000000E+00; -1.6064122E+00;  4.0000000E+04;  0.0000000E+00;  3.9701020E+04;  4.8873577E-01;  0.0000000E+00;  2.6882300E-01;  5.7737075E+03;
  1.1481292E+00;  9.9999998E-03; -2.2065337E-01;8615;  9.1860312E-01;  0.0000000E+00; -8.2380459E-02;  1.0018349E+03;  1.2360821E-01;  1.5119807E+03;3;  2.2554430E+01;  0.0000000E+00; -2.6974079E+01;0;  7.0458484E-01;  2.6463816E+04;  0.0000000E+00; -1.1612306E+00;  4.0000000E+04;  0.0000000E+00;  3.9708000E+04;  4.2404026E-01;  0.0000000E+00;  2.8054458E-01;  4.7104707E+03;
  1.1482465E+00;  9.9999998E-03; -2.1064669E-01;8616;  9.1192514E-01;  0.0000000E+00; -7.7648878E-02;  1.0011964E+03;  1.2362313E-01;  9.8584296E+02;3;  2.2565973E+01;  0.0000000E+00; -2.5325274E+01;0;  6.5551019E-01;  2.6419674E+04;  0.0000000E+00; -9.0280122E-01;  4.0000000E+04;  0.0000000E+00;  3.9717660E+04;  3.6051223E-01;  0.0000000E+00;  2.9499799E-01;  3.4630984E+03;
  1.1484162E+00;  9.9999998E-03; -2.0064099E-01;8617;  9.0579039E-01;  0.0000000E+00; -7.3085584E-02;  1.0005970E+03;  1.2363492E-01;  4.9193243E+02;3;  2.2857721E+01;  0.0000000E+00; -2.3289053E+01;0;  6.0826153E-01;  2.6378188E+04;  0.0000000E+00; -7.7091199E-01;  4.0000000E+04;  0.0000000E+00;  3.9728246E+04;  2.9934371E-01;  0.0000000E+00;  3.0891782E-01;  2.2292971E+03;
  1.1486394E+00;  9.9999998E-03; -1.9063002E-01;8618;  9.0016562E-01;  0.0000000E+00; -6.8711065E-02;  1.0000609E+03;  1.2364139E-01;  5.0194279E+01;3;  2.3766151E+01;  0.0000000E+00; -2.1322863E+01;0;  5.6188571E-01;  2.6342191E+04;  0.0000000E+00; -7.0396084E-01;  4.0000000E+04;  0.0000000E+00;  3.9738531E+04;  2.4140608E-01;  0.0000000E+00;  3.2047963E-01;  1.3218873E+03;
  1.1489334E+00;  9.9999998E-03; -1.8060823E-01;8619;  8.9493728E-01;  0.0000000E+00; -6.4433917E-02;  9.9959851E+02;  1.2363974E-01; -3.3082251E+02;3;  2.5232557E+01;  0.0000000E+00; -1.9423101E+01;0;  5.1607645E-01;  2.6314322E+04;  0.0000000E+00; -6.4698476E-01;  4.0000000E+04;  0.0000000E+00;  3.9747457E+04;  1.8721417E-01;  0.0000000E+00;  3.2886228E-01;  1.2444060E+03;
  1.1492541E+00;  9.9999998E-03; -1.7057399E-01;8620;  8.9000112E-01;  0.0000000E+00; -6.0281452E-02;  9.9924628E+02;  1.2363321E-01; -6.2101276E+02;3;  2.7080427E+01;  0.0000000E+00; -1.7169956E+01;0;  4.7191733E-01;  2.6294680E+04;  0.0000000E+00; -5.7108414E-01;  4.0000000E+04;  0.0000000E+00;  3.9754750E+04;  1.3800669E-01;  0.0000000E+00;  3.3391064E-01;  1.7500829E+03;
  1.1495570E+00;  9.9999998E-03; -1.6053478E-01;8621;  8.8533169E-01;  0.0000000E+00; -5.6305997E-02;  9.9900610E+02;  1.2362385E-01; -8.1891107E+02;3;  2.9152546E+01;  0.0000000E+00; -1.4735705E+01;0;  4.3053702E-01;  2.6282018E+04;  0.0000000E+00; -4.7051996E-01;  4.0000000E+04;  0.0000000E+00;  3.9760582E+04;  9.4532512E-02;  0.0000000E+00;  3.3600450E-01;  2.3090481E+03;
  1.1498049E+00;  9.9999998E-03; -1.5048321E-01;8622;  8.8091397E-01;  0.0000000E+00; -5.2548774E-02;  9.9887915E+02;  1.2361501E-01; -9.2349689E+02;3;  3.1368624E+01;  0.0000000E+00; -1.2103473E+01;0;  3.9285669E-01;  2.6275350E+04;  0.0000000E+00; -3.5850653E-01;  4.0000000E+04;  0.0000000E+00;  3.9765527E+04;  5.6873836E-02;  0.0000000E+00;  3.3598286E-01;  2.8275906E+03;
  1.1499126E+00;  9.9999998E-03; -1.4041507E-01;8623;  8.7675971E-01;  0.0000000E+00; -4.9016591E-02;  9.9884174E+02;  1.2361047E-01; -9.5427979E+02;3;  3.3728092E+01;  0.0000000E+00; -9.6019983E+00;0;  3.6032027E-01;  2.6271004E+04;  0.0000000E+00; -2.5235096E-01;  4.0000000E+04;  0.0000000E+00;  3.9769879E+04;  2.5216041E-02;  0.0000000E+00;  3.3510423E-01;  3.3022246E+03;
  1.1498722E+00;  9.9999998E-03; -1.3034163E-01;8624;  8.7287283E-01;  0.0000000E+00; -4.5624513E-02;  9.9886993E+02;  1.2361288E-01; -9.3105450E+02;3;  3.6286469E+01;  0.0000000E+00; -7.0691190E+00;0;  3.3343184E-01;  2.6266928E+04;  0.0000000E+00; -1.5964518E-01;  4.0000000E+04;  0.0000000E+00;  3.9773562E+04; -1.3086642E-03;  0.0000000E+00;  3.3474049E-01;  3.7327229E+03;
  1.1497164E+00;  9.9999998E-03; -1.2028653E-01;8625;  8.6926436E-01;  0.0000000E+00; -4.2367179E-02;  9.9893585E+02;  1.2362130E-01; -8.7675134E+02;3;  3.8816887E+01;  0.0000000E+00; -4.6597409E+00;0;  3.1219217E-01;  2.6262420E+04;  0.0000000E+00; -8.5362457E-02;  4.0000000E+04;  0.0000000E+00;  3.9776887E+04; -2.3792190E-02;  0.0000000E+00;  3.3598435E-01;  4.1093662E+03;
  1.1495050E+00;  9.9999998E-03; -1.1026049E-01;8626;  8.6592668E-01;  0.0000000E+00; -3.9184168E-02;  9.9901453E+02;  1.2363148E-01; -8.1199011E+02;3;  4.1368412E+01;  0.0000000E+00; -2.5890508E+00;0;  2.9605618E-01;  2.6257762E+04;  0.0000000E+00; -3.3345271E-02;  4.0000000E+04;  0.0000000E+00;  3.9779703E+04; -4.3289125E-02;  0.0000000E+00;  3.3934531E-01;  4.4149390E+03;
  1.1611973E+00;  9.9999998E-03; -2.7076083E-01;8671;  9.5579064E-01;  0.0000000E+00; -8.6218804E-02;  1.0023115E+03;  1.2166130E-01;  1.9025100E+03;3;  2.4748526E+01;  0.0000000E+00; -1.5295531E+01;0;  6.6739351E-01;  2.7339111E+04;  0.0000000E+00; -1.0034131E+01;  4.0000000E+04;  0.0000000E+00;  3.9706785E+04;  4.3594673E-01;  0.0000000E+00;  2.3144677E-01;  1.7381396E+04;
  1.1608394E+00;  9.9999998E-03; -2.6070476E-01;8672;  9.4724149E-01;  0.0000000E+00; -8.6866729E-02;  1.0024212E+03;  1.2169302E-01;  1.9929459E+03;3;  2.5030279E+01;  0.0000000E+00; -1.5799134E+01;0;  6.5475482E-01;  2.7325711E+04;  0.0000000E+00; -6.3320837E+00;  4.0000000E+04;  0.0000000E+00;  3.9713945E+04;  3.9108598E-01;  0.0000000E+00;  2.6366884E-01;  1.0989934E+04;
  1.1606336E+00;  9.9999998E-03; -2.5065282E-01;8673;  9.3886536E-01;  0.0000000E+00; -8.6549357E-02;  1.0022182E+03;  1.2171524E-01;  1.8258815E+03;3;  2.5225100E+01;  0.0000000E+00; -1.6571327E+01;0;  6.2686473E-01;  2.7303961E+04;  0.0000000E+00; -3.4407825E+00;  4.0000000E+04;  0.0000000E+00;  3.9716965E+04;  3.4368056E-01;  0.0000000E+00;  2.8318417E-01;  6.2340947E+03;
  1.1605614E+00;  9.9999998E-03; -2.4061155E-01;8674;  9.3093312E-01;  0.0000000E+00; -8.4859610E-02;  1.0017990E+03;  1.2173077E-01;  1.4807915E+03;3;  2.4727697E+01;  0.0000000E+00; -2.1517435E+01;0;  5.8771014E-01;  2.7276281E+04;  0.0000000E+00; -1.6250985E+00;  4.0000000E+04;  0.0000000E+00;  3.9717109E+04;  2.9469895E-01;  0.0000000E+00;  2.9301116E-01;  3.9108752E+03;
  1.1605655E+00;  9.9999998E-03; -2.3058864E-01;8675;  9.2361110E-01;  0.0000000E+00; -7.9648994E-02;  1.0012766E+03;  1.2174407E-01;  1.0508110E+03;3;  2.3601635E+01;  0.0000000E+00; -2.7826841E+01;0;  5.3848141E-01;  2.7244549E+04;  0.0000000E+00; -5.1402289E-01;  4.0000000E+04;  0.0000000E+00;  3.9716543E+04;  2.4585657E-01;  0.0000000E+00;  2.9262483E-01;  3.3007148E+03;
  1.1606272E+00;  9.9999998E-03; -2.2058712E-01;8676;  9.1654992E-01;  0.0000000E+00; -7.4101552E-02;  1.0007333E+03;  1.2175503E-01;  6.0355780E+02;3;  2.3228056E+01;  0.0000000E+00; -2.8053577E+01;0;  4.9757558E-01;  2.7211180E+04;  0.0000000E+00;  9.8581724E-02;  4.0000000E+04;  0.0000000E+00;  3.9718656E+04;  1.9804969E-01;  0.0000000E+00;  2.9952589E-01;  3.0449250E+03;
  1.1607581E+00;  9.9999998E-03; -2.1059842E-01;8677;  9.0982652E-01;  0.0000000E+00; -6.9306701E-02;  1.0002375E+03;  1.2176194E-01;  1.9555771E+02;3;  2.2961241E+01;  0.0000000E+00; -2.6856890E+01;0;  4.6207219E-01;  2.7178830E+04;  0.0000000E+00;  3.6146328E-01;  4.0000000E+04;  0.0000000E+00;  3.9725605E+04;  1.5186103E-01;  0.0000000E+00;  3.1021118E-01;  2.3223147E+03;
  1.1609592E+00;  9.9999998E-03; -2.0060880E-01;8678;  9.0365005E-01;  0.0000000E+00; -6.4845897E-02;  9.9980585E+02;  1.2176423E-01; -1.5978902E+02;3;  2.3222969E+01;  0.0000000E+00; -2.5384020E+01;0;  4.2776355E-01;  2.7149732E+04;  0.0000000E+00;  4.0499330E-01;  4.0000000E+04;  0.0000000E+00;  3.9735930E+04;  1.0800757E-01;  0.0000000E+00;  3.1975597E-01;  1.2357853E+03;
  1.1612310E+00;  9.9999998E-03; -1.9060700E-01;8679;  8.9795625E-01;  0.0000000E+00; -6.0473461E-02;  9.9944464E+02;  1.2176007E-01; -4.5708170E+02;3;  2.4022459E+01;  0.0000000E+00; -2.3868319E+01;0;  3.9343500E-01;  2.7125936E+04;  0.0000000E+00;  3.2545984E-01;  4.0000000E+04;  0.0000000E+00;  3.9747277E+04;  6.7137763E-02;  0.0000000E+00;  3.2629722E-01;  8.2975598E+02;
  1.1615410E+00;  9.9999998E-03; -1.8059070E-01;8680;  8.9265269E-01;  0.0000000E+00; -5.6201987E-02;  9.9915302E+02;  1.2175218E-01; -6.9710577E+02;3;  2.5541550E+01;  0.0000000E+00; -2.1889416E+01;0;  3.5942212E-01;  2.7108062E+04;  0.0000000E+00;  1.9747557E-01;  4.0000000E+04;  0.0000000E+00;  3.9757449E+04;  3.0146642E-02;  0.0000000E+00;  3.2927549E-01;  1.7670354E+03;
  1.1618512E+00;  9.9999998E-03; -1.7055373E-01;8681;  8.8763350E-01;  0.0000000E+00; -5.2123822E-02;  9.9893152E+02;  1.2174150E-01; -8.7937640E+02;3;  2.7209955E+01;  0.0000000E+00; -1.9537905E+01;0;  3.2635698E-01;  2.7095660E+04;  0.0000000E+00;  7.3701940E-02;  4.0000000E+04;  0.0000000E+00;  3.9765672E+04; -2.3847606E-03;  0.0000000E+00;  3.2874173E-01;  2.7180740E+03;
  1.1621138E+00;  9.9999998E-03; -1.6049300E-01;8682;  8.8290060E-01;  0.0000000E+00; -4.8292071E-02;  9.9877374E+02;  1.2173096E-01; -1.0092014E+03;3;  2.9125883E+01;  0.0000000E+00; -1.7015463E+01;0;  2.9505679E-01;  2.7087291E+04;  0.0000000E+00; -2.1251328E-02;  4.0000000E+04;  0.0000000E+00;  3.9771969E+04; -3.0183049E-02;  0.0000000E+00;  3.2523984E-01;  3.4822483E+03;
  1.1622699E+00;  9.9999998E-03; -1.5042338E-01;8683;  8.7844205E-01;  0.0000000E+00; -4.4762805E-02;  9.9866418E+02;  1.2172431E-01; -1.0993469E+03;3;  3.1225697E+01;  0.0000000E+00; -1.4290591E+01;0;  2.6653221E-01;  2.7080094E+04;  0.0000000E+00; -8.7370448E-02;  4.0000000E+04;  0.0000000E+00;  3.9776996E+04; -5.3249024E-02;  0.0000000E+00;  3.1978124E-01;  4.0889460E+03;
  1.1622955E+00;  9.9999998E-03; -1.4035639E-01;8684;  8.7426853E-01;  0.0000000E+00; -4.1519169E-02;  9.9858820E+02;  1.2172394E-01; -1.1618877E+03;3;  3.3492752E+01;  0.0000000E+00; -1.1698502E+01;0;  2.4152580E-01;  2.7071914E+04;  0.0000000E+00; -1.3430344E-01;  4.0000000E+04;  0.0000000E+00;  3.9781164E+04; -7.2136216E-02;  0.0000000E+00;  3.1366202E-01;  4.5861816E+03;
  1.1622002E+00;  9.9999998E-03; -1.3030942E-01;8685;  8.7036818E-01;  0.0000000E+00; -3.8467418E-02;  9.9851935E+02;  1.2173071E-01; -1.2185562E+03;3;  3.5946224E+01;  0.0000000E+00; -9.0324965E+00;0;  2.2054046E-01;  2.7061000E+04;  0.0000000E+00; -1.6477098E-01;  4.0000000E+04;  0.0000000E+00;  3.9784648E+04; -8.7663896E-02;  0.0000000E+00;  3.0820435E-01;  5.0041377E+03;
  1.1620274E+00;  9.9999998E-03; -1.2028349E-01;8686;  8.6674929E-01;  0.0000000E+00; -3.5569087E-02;  9.9843695E+02;  1.2174108E-01; -1.2864200E+03;3;  3.8449387E+01;  0.0000000E+00; -6.5980043E+00;0;  2.0367996E-01;  2.7047551E+04;  0.0000000E+00; -1.7829500E-01;  4.0000000E+04;  0.0000000E+00;  3.9787516E+04; -1.0075305E-01;  0.0000000E+00;  3.0443302E-01;  5.3573740E+03;
  1.1618208E+00;  9.9999998E-03; -1.1027004E-01;8687;  8.6338258E-01;  0.0000000E+00; -3.2756716E-02;  9.9834052E+02;  1.2175408E-01; -1.3658190E+03;3;  4.0987991E+01;  0.0000000E+00; -4.3957796E+00;0;  1.9078729E-01;  2.7032459E+04;  0.0000000E+00; -1.7900813E-01;  4.0000000E+04;  0.0000000E+00;  3.9789926E+04; -1.1210275E-01;  0.0000000E+00;  3.0289003E-01;  5.6465234E+03;
  1.1730595E+00;  9.9999998E-03; -2.5060743E-01;8734;  9.3727624E-01;  0.0000000E+00; -7.6950714E-02;  1.0011573E+03;  1.1996123E-01;  9.5133118E+02;3;  2.5965839E+01;  0.0000000E+00; -1.6994415E+01;0;  4.3016809E-01;  2.8041578E+04;  0.0000000E+00; -5.0614986E+00;  4.0000000E+04;  0.0000000E+00;  3.9732793E+04;  1.3892664E-01;  0.0000000E+00;  2.9124144E-01;  7.6542651E+03;
  1.1730859E+00;  9.9999998E-03; -2.4054764E-01;8735;  9.2914307E-01;  0.0000000E+00; -7.6370567E-02;  1.0009368E+03;  1.1996926E-01;  7.7013690E+02;3;  2.5834105E+01;  0.0000000E+00; -1.8159060E+01;0;  4.1248816E-01;  2.8025393E+04;  0.0000000E+00; -1.9991068E+00;  4.0000000E+04;  0.0000000E+00;  3.9736020E+04;  1.0193030E-01;  0.0000000E+00;  3.1055787E-01;  2.5277046E+03;
  1.1731880E+00;  9.9999998E-03; -2.6067039E-01;8733;  9.4557381E-01;  0.0000000E+00; -7.7011414E-02;  1.0011785E+03;  1.1994504E-01;  9.6875977E+02;3;  2.5773319E+01;  0.0000000E+00; -1.6512131E+01;0;  4.3777123E-01;  2.8053689E+04;  0.0000000E+00; -9.7380915E+00;  4.0000000E+04;  0.0000000E+00;  3.9726406E+04;  1.7554662E-01;  0.0000000E+00;  2.6222461E-01;  1.5614420E+04;
  1.1731473E+00;  9.9999998E-03; -2.3050858E-01;8736;  9.2132270E-01;  0.0000000E+00; -7.3214166E-02;  1.0006066E+03;  1.1997667E-01;  4.9859125E+02;3;  2.5176645E+01;  0.0000000E+00; -2.7090584E+01;0;  3.8128245E-01;  2.8007049E+04;  0.0000000E+00;  3.6553204E-02;  4.0000000E+04;  0.0000000E+00;  3.9734402E+04;  6.6663787E-02;  0.0000000E+00;  3.1461868E-01;  1.3816956E+03;
  1.1731907E+00;  9.9999998E-03; -2.2050379E-01;8737;  9.1409206E-01;  0.0000000E+00; -6.6735081E-02;  1.0002521E+03;  1.1998532E-01;  2.0725534E+02;3;  2.4004436E+01;  0.0000000E+00; -2.9654665E+01;0;  3.4723967E-01;  2.7986861E+04;  0.0000000E+00;  1.1769075E+00;  4.0000000E+04;  0.0000000E+00;  3.9731895E+04;  3.4092862E-02;  0.0000000E+00;  3.1314680E-01;  2.9680044E+03;
  1.1732655E+00;  9.9999998E-03; -2.1051450E-01;8738;  9.0737349E-01;  0.0000000E+00; -6.1465405E-02;  9.9994940E+02;  1.1999170E-01; -4.1597698E+01;3;  2.3716295E+01;  0.0000000E+00; -2.8879622E+01;0;  3.2169941E-01;  2.7966125E+04;  0.0000000E+00;  1.5541641E+00;  4.0000000E+04;  0.0000000E+00;  3.9735641E+04;  3.7611309E-03;  0.0000000E+00;  3.1793827E-01;  3.2265337E+03;
  1.1735123E+00;  9.9999998E-03; -2.7073032E-01;8732;  9.5391107E-01;  0.0000000E+00; -7.6250918E-02;  1.0008804E+03;  1.1991560E-01;  7.2365173E+02;3;  2.5439426E+01;  0.0000000E+00; -1.6249653E+01;0;  4.2854196E-01;  2.8056402E+04;  0.0000000E+00; -1.5615749E+01;  4.0000000E+04;  0.0000000E+00;  3.9719230E+04;  2.1074130E-01;  0.0000000E+00;  2.1780066E-01;  2.5473791E+04;
  1.1733955E+00;  9.9999998E-03; -2.0052400E-01;8739;  9.0117097E-01;  0.0000000E+00; -5.6851812E-02;  9.9971753E+02;  1.1999429E-01; -2.3218906E+02;3;  2.3790518E+01;  0.0000000E+00; -2.7671797E+01;0;  2.9800513E-01;  2.7947098E+04;  0.0000000E+00;  1.4716667E+00;  4.0000000E+04;  0.0000000E+00;  3.9744504E+04; -2.4281677E-02;  0.0000000E+00;  3.2228681E-01;  2.8112300E+03;
  1.1735824E+00;  9.9999998E-03; -1.9052766E-01;8740;  8.9544505E-01;  0.0000000E+00; -5.2457392E-02;  9.9952808E+02;  1.1999200E-01; -3.8793686E+02;3;  2.4575247E+01;  0.0000000E+00; -2.6151695E+01;0;  2.7400073E-01;  2.7931424E+04;  0.0000000E+00;  1.1725478E+00;  4.0000000E+04;  0.0000000E+00;  3.9755164E+04; -4.9715750E-02;  0.0000000E+00;  3.2371649E-01;  2.6176924E+03;
  1.1738094E+00;  9.9999998E-03; -1.8051848E-01;8741;  8.9009154E-01;  0.0000000E+00; -4.8244908E-02;  9.9937866E+02;  1.1998489E-01; -5.1070306E+02;3;  2.5683649E+01;  0.0000000E+00; -2.4176645E+01;0;  2.4945433E-01;  2.7919893E+04;  0.0000000E+00;  8.1333655E-01;  4.0000000E+04;  0.0000000E+00;  3.9765531E+04; -7.2202012E-02;  0.0000000E+00;  3.2165635E-01;  3.0580945E+03;
  1.1738203E+00;  9.9999998E-03; -1.1026903E-01;8748;  8.6074299E-01;  0.0000000E+00; -2.6877347E-02;  9.9814197E+02;  1.1999939E-01; -1.5272568E+03;3;  4.0428726E+01;  0.0000000E+00; -6.0096974E+00;0;  1.1350633E-01;  2.7813795E+04;  0.0000000E+00; -3.2995573E-01;  4.0000000E+04;  0.0000000E+00;  3.9797207E+04; -1.5192984E-01;  0.0000000E+00;  2.6543617E-01;  6.5721069E+03;
  1.1740412E+00;  9.9999998E-03; -1.7048770E-01;8742;  8.8506287E-01;  0.0000000E+00; -4.4288058E-02;  9.9925262E+02;  1.1997525E-01; -6.1430658E+02;3;  2.7156069E+01;  0.0000000E+00; -2.1747715E+01;0;  2.2473848E-01;  2.7911365E+04;  0.0000000E+00;  4.8285276E-01;  4.0000000E+04;  0.0000000E+00;  3.9774102E+04; -9.1491163E-02;  0.0000000E+00;  3.1622964E-01;  3.8042974E+03;
  1.1739591E+00;  9.9999998E-03; -1.2027725E-01;8747;  8.6415446E-01;  0.0000000E+00; -2.9286541E-02;  9.9842340E+02;  1.1998810E-01; -1.2958911E+03;3;  3.7912689E+01;  0.0000000E+00; -8.2205248E+00;0;  1.2519029E-01;  2.7837891E+04;  0.0000000E+00; -3.0240023E-01;  4.0000000E+04;  0.0000000E+00;  3.9795477E+04; -1.4576384E-01;  0.0000000E+00;  2.7095413E-01;  6.3186196E+03;
  1.1740847E+00;  9.9999998E-03; -1.3029248E-01;8746;  8.6780852E-01;  0.0000000E+00; -3.1811744E-02;  9.9865704E+02;  1.1997855E-01; -1.1038258E+03;3;  3.5490318E+01;  0.0000000E+00; -1.0667534E+01;0;  1.4005445E-01;  2.7858955E+04;  0.0000000E+00; -2.3622762E-01;  4.0000000E+04;  0.0000000E+00;  3.9793059E+04; -1.3869198E-01;  0.0000000E+00;  2.7874643E-01;  6.0010791E+03;
  1.1742073E+00;  9.9999998E-03; -1.6043091E-01;8743;  8.8031882E-01;  0.0000000E+00; -4.0665355E-02;  9.9913306E+02;  1.1996713E-01; -7.1256995E+02;3;  2.8983332E+01;  0.0000000E+00; -1.9004461E+01;0;  2.0067564E-01;  2.7903086E+04;  0.0000000E+00;  2.1898696E-01;  4.0000000E+04;  0.0000000E+00;  3.9780848E+04; -1.0741901E-01;  0.0000000E+00;  3.0809465E-01;  4.5250776E+03;
  1.1741897E+00;  9.9999998E-03; -1.4031918E-01;8745;  8.7171525E-01;  0.0000000E+00; -3.4506034E-02;  9.9885065E+02;  1.1997091E-01; -9.4468988E+02;3;  3.3157673E+01;  0.0000000E+00; -1.3454520E+01;0;  1.5785940E-01;  2.7876996E+04;  0.0000000E+00; -1.2797014E-01;  4.0000000E+04;  0.0000000E+00;  3.9789973E+04; -1.3033523E-01;  0.0000000E+00;  2.8819463E-01;  5.6084556E+03;
  1.1742468E+00;  9.9999998E-03; -1.5036350E-01;8744;  8.7586850E-01;  0.0000000E+00; -3.7425466E-02;  9.9900403E+02;  1.1996637E-01; -8.1863098E+02;3;  3.0906803E+01;  0.0000000E+00; -1.6125526E+01;0;  1.7820489E-01;  2.7891840E+04;  0.0000000E+00;  2.0918692E-02;  4.0000000E+04;  0.0000000E+00;  3.9785980E+04; -1.2014354E-01;  0.0000000E+00;  2.9834843E-01;  5.1232012E+03;
  1.1853287E+00;  9.9999998E-03; -2.5057542E-01;8795;  9.3547678E-01;  0.0000000E+00; -6.8074577E-02;  1.0004434E+03;  1.1831885E-01;  3.6397324E+02;3;  2.6629114E+01;  0.0000000E+00; -1.7333969E+01;0;  2.8801107E-01;  2.8778775E+04;  0.0000000E+00; -8.3904324E+00;  4.0000000E+04;  0.0000000E+00;  3.9746711E+04; -1.2118757E-02;  0.0000000E+00;  3.0012983E-01;  1.1812393E+04;
  1.1853858E+00;  9.9999998E-03; -2.6064873E-01;8794;  9.4359708E-01;  0.0000000E+00; -6.7792282E-02;  1.0002387E+03;  1.1830701E-01;  1.9587869E+02;3;  2.6542263E+01;  0.0000000E+00; -1.6941132E+01;0;  2.7843475E-01;  2.8779961E+04;  0.0000000E+00; -1.5239875E+01;  4.0000000E+04;  0.0000000E+00;  3.9736566E+04;  1.4736852E-02;  0.0000000E+00;  2.6369789E-01;  2.2825666E+04;
  1.1853448E+00;  9.9999998E-03; -2.4049780E-01;8796;  9.2735028E-01;  0.0000000E+00; -6.7738354E-02;  1.0005156E+03;  1.1832487E-01;  4.2316687E+02;3;  2.6633272E+01;  0.0000000E+00; -1.7988884E+01;0;  2.8416246E-01;  2.8775703E+04;  0.0000000E+00; -3.1158848E+00;  4.0000000E+04;  0.0000000E+00;  3.9753934E+04; -3.7258249E-02;  0.0000000E+00;  3.2142070E-01;  3.6579478E+03;
  1.1853652E+00;  9.9999998E-03; -2.3043373E-01;8797;  9.1930348E-01;  0.0000000E+00; -6.6259116E-02;  1.0004734E+03;  1.1833257E-01;  3.8852969E+02;3;  2.6776438E+01;  0.0000000E+00; -2.2965797E+01;0;  2.6950881E-01;  2.8770938E+04;  0.0000000E+00;  3.5911027E-01;  4.0000000E+04;  0.0000000E+00;  3.9753883E+04; -5.9894968E-02;  0.0000000E+00;  3.2940379E-01;  2.4787952E+03;
  1.1853528E+00;  9.9999998E-03; -2.2040284E-01;8798;  9.1146094E-01;  0.0000000E+00; -6.0254157E-02;  1.0003532E+03;  1.1834202E-01;  2.8990567E+02;3;  2.5107450E+01;  0.0000000E+00; -3.1052549E+01;0;  2.4256009E-01;  2.8763701E+04;  0.0000000E+00;  2.1470840E+00;  4.0000000E+04;  0.0000000E+00;  3.9749699E+04; -7.9669394E-02;  0.0000000E+00;  3.2222947E-01;  4.7291992E+03;
  1.1853614E+00;  9.9999998E-03; -2.1040021E-01;8799;  9.0471655E-01;  0.0000000E+00; -5.4057501E-02;  1.0002249E+03;  1.1835001E-01;  1.8452969E+02;3;  2.4410475E+01;  0.0000000E+00; -3.0902990E+01;0;  2.2248253E-01;  2.8754268E+04;  0.0000000E+00;  2.6010475E+00;  4.0000000E+04;  0.0000000E+00;  3.9748590E+04; -9.7014628E-02;  0.0000000E+00;  3.1949717E-01;  5.1304551E+03;
  1.1856025E+00;  9.9999998E-03; -2.7071241E-01;8793;  9.5169497E-01;  0.0000000E+00; -6.6963904E-02;  9.9979901E+02;  1.1828454E-01; -1.6495580E+02;3;  2.6358397E+01;  0.0000000E+00; -1.6796070E+01;0;  2.5261134E-01;  2.8773176E+04;  0.0000000E+00; -2.2489967E+01;  4.0000000E+04;  0.0000000E+00;  3.9728242E+04;  4.2334244E-02;  0.0000000E+00;  2.1027708E-01;  3.4413477E+04;
  1.1854166E+00;  9.9999998E-03; -2.0041144E-01;8800;  8.9852196E-01;  0.0000000E+00; -4.9056210E-02;  1.0001232E+03;  1.1835396E-01;  1.0106984E+02;3;  2.4413656E+01;  0.0000000E+00; -2.9678949E+01;0;  2.0606413E-01;  2.8744301E+04;  0.0000000E+00;  2.3213849E+00;  4.0000000E+04;  0.0000000E+00;  3.9753008E+04; -1.1235088E-01;  0.0000000E+00;  3.1841502E-01;  4.5297490E+03;
  1.1855217E+00;  9.9999998E-03; -1.9042122E-01;8801;  8.9279163E-01;  0.0000000E+00; -4.4611320E-02;  1.0000538E+03;  1.1835320E-01;  4.4125687E+01;3;  2.4882669E+01;  0.0000000E+00; -2.8104532E+01;0;  1.8938966E-01;  2.8735014E+04;  0.0000000E+00;  1.7537512E+00;  4.0000000E+04;  0.0000000E+00;  3.9761324E+04; -1.2570851E-01;  0.0000000E+00;  3.1509817E-01;  3.9208672E+03;
  1.1856629E+00;  9.9999998E-03; -1.8041946E-01;8802;  8.8745642E-01;  0.0000000E+00; -4.0501926E-02;  9.9998846E+02;  1.1834861E-01; -9.4902601E+00;3;  2.5885292E+01;  0.0000000E+00; -2.5978424E+01;0;  1.7153911E-01;  2.8726826E+04;  0.0000000E+00;  1.1532654E+00;  4.0000000E+04;  0.0000000E+00;  3.9770910E+04; -1.3705374E-01;  0.0000000E+00;  3.0859286E-01;  3.9540393E+03;
  1.1855398E+00;  9.9999998E-03; -1.1024414E-01;8809;  8.5809273E-01;  0.0000000E+00; -2.1496506E-02;  9.9820068E+02;  1.1837187E-01; -1.4767881E+03;3;  3.9639847E+01;  0.0000000E+00; -7.4513030E+00;0;  5.5997148E-02;  2.8583939E+04;  0.0000000E+00; -4.5895144E-01;  4.0000000E+04;  0.0000000E+00;  3.9801539E+04; -1.7236544E-01;  0.0000000E+00;  2.2836259E-01;  7.2048911E+03;
  1.1857861E+00;  9.9999998E-03; -1.7039956E-01;8803;  8.8243800E-01;  0.0000000E+00; -3.6756177E-02;  9.9990289E+02;  1.1834276E-01; -7.9687469E+01;3;  2.7205667E+01;  0.0000000E+00; -2.3405943E+01;0;  1.5274484E-01;  2.8718156E+04;  0.0000000E+00;  6.4166892E-01;  4.0000000E+04;  0.0000000E+00;  3.9779594E+04; -1.4630802E-01;  0.0000000E+00;  2.9905286E-01;  4.5298721E+03;
  1.1856180E+00;  9.9999998E-03; -1.2025940E-01;8808;  8.6154252E-01;  0.0000000E+00; -2.3477046E-02;  9.9863898E+02;  1.1836175E-01; -1.1170204E+03;3;  3.7239029E+01;  0.0000000E+00; -9.5915327E+00;0;  6.7112401E-02;  2.8616270E+04;  0.0000000E+00; -4.3318638E-01;  4.0000000E+04;  0.0000000E+00;  3.9800332E+04; -1.6983628E-01;  0.0000000E+00;  2.3694868E-01;  6.9972822E+03;
  1.1856884E+00;  9.9999998E-03; -1.3027240E-01;8807;  8.6522114E-01;  0.0000000E+00; -2.5603442E-02;  9.9902362E+02;  1.1835372E-01; -8.0133716E+02;3;  3.4871445E+01;  0.0000000E+00; -1.2043473E+01;0;  8.0892444E-02;  2.8644689E+04;  0.0000000E+00; -3.5233307E-01;  4.0000000E+04;  0.0000000E+00;  3.9798719E+04; -1.6699778E-01;  0.0000000E+00;  2.4789022E-01;  6.7235674E+03;
  1.1858355E+00;  9.9999998E-03; -1.6036254E-01;8804;  8.7772101E-01;  0.0000000E+00; -3.3433102E-02;  9.9977191E+02;  1.1834035E-01; -1.8720801E+02;3;  2.8762918E+01;  0.0000000E+00; -2.0436670E+01;0;  1.3362564E-01;  2.8706217E+04;  0.0000000E+00;  2.5627133E-01;  4.0000000E+04;  0.0000000E+00;  3.9786617E+04; -1.5356897E-01;  0.0000000E+00;  2.8719461E-01;  5.2358325E+03;
  1.1857513E+00;  9.9999998E-03; -1.4029141E-01;8806;  8.6914235E-01;  0.0000000E+00; -2.7934764E-02;  9.9933618E+02;  1.1834784E-01; -5.4480267E+02;3;  3.2665924E+01;  0.0000000E+00; -1.4762907E+01;0;  9.7012356E-02;  2.8668961E+04;  0.0000000E+00; -2.1354660E-01;  4.0000000E+04;  0.0000000E+00;  3.9795957E+04; -1.6355075E-01;  0.0000000E+00;  2.6056311E-01;  6.3531152E+03;
  1.1858088E+00;  9.9999998E-03; -1.5032288E-01;8805;  8.7329817E-01;  0.0000000E+00; -3.0529542E-02;  9.9958661E+02;  1.1834285E-01; -3.3929437E+02;3;  3.0537132E+01;  0.0000000E+00; -1.7484615E+01;0;  1.1483659E-01;  2.8689467E+04;  0.0000000E+00; -1.7346570E-02;  4.0000000E+04;  0.0000000E+00;  3.9791988E+04; -1.5917958E-01;  0.0000000E+00;  2.7401617E-01;  5.8594902E+03;
  1.1970701E+00;  9.9999998E-03; -1.1021453E-01;8870;  8.5551846E-01;  0.0000000E+00; -1.6550250E-02;  9.9830878E+02;  1.1687136E-01; -1.3856300E+03;3;  3.8664577E+01;  0.0000000E+00; -8.7409401E+00;0;  1.2664407E-02;  2.9326918E+04;  0.0000000E+00; -5.3921765E-01;  4.0000000E+04;  0.0000000E+00;  3.9802793E+04; -1.7971745E-01;  0.0000000E+00;  1.9238186E-01;  7.5813008E+03;
  1.1970968E+00;  9.9999998E-03; -1.2023723E-01;8869;  8.5898739E-01;  0.0000000E+00; -1.8093409E-02;  9.9886292E+02;  1.1686246E-01; -9.3161157E+02;3;  3.6319355E+01;  0.0000000E+00; -1.0791463E+01;0;  2.3253858E-02;  2.9365676E+04;  0.0000000E+00; -5.4020357E-01;  4.0000000E+04;  0.0000000E+00;  3.9802164E+04; -1.8007809E-01;  0.0000000E+00;  2.0333195E-01;  7.4119150E+03;
  1.1971233E+00;  9.9999998E-03; -1.3025166E-01;8868;  8.6268073E-01;  0.0000000E+00; -1.9807257E-02;  9.9936115E+02;  1.1685440E-01; -5.2340350E+02;3;  3.4113625E+01;  0.0000000E+00; -1.3133685E+01;0;  3.6147192E-02;  2.9400775E+04;  0.0000000E+00; -4.7879300E-01;  4.0000000E+04;  0.0000000E+00;  3.9800871E+04; -1.8056478E-01;  0.0000000E+00;  2.1671197E-01;  7.1738677E+03;
  1.1969557E+00;  9.9999998E-03; -2.5057486E-01;8856;  9.3363982E-01;  0.0000000E+00; -5.9756707E-02;  1.0001300E+03;  1.1681973E-01;  1.0655887E+02;3;  2.7386570E+01;  0.0000000E+00; -1.7319881E+01;0;  1.8687378E-01;  2.9505490E+04;  0.0000000E+00; -8.7453756E+00;  4.0000000E+04;  0.0000000E+00;  3.9748207E+04; -1.1877607E-01;  0.0000000E+00;  3.0564985E-01;  1.0636951E+04;
  1.1970410E+00;  9.9999998E-03; -2.4048953E-01;8857;  9.2549562E-01;  0.0000000E+00; -5.9523791E-02;  1.0003419E+03;  1.1682015E-01;  2.8011600E+02;3;  2.7436806E+01;  0.0000000E+00; -1.8146233E+01;0;  1.9271100E-01;  2.9510342E+04;  0.0000000E+00; -2.8569407E+00;  4.0000000E+04;  0.0000000E+00;  3.9758938E+04; -1.3539329E-01;  0.0000000E+00;  3.2810429E-01;  2.8585300E+03;
  1.1971494E+00;  9.9999998E-03; -1.4026545E-01;8867;  8.6660278E-01;  0.0000000E+00; -2.1750476E-02;  9.9978333E+02;  1.1684833E-01; -1.7751108E+02;3;  3.2064217E+01;  0.0000000E+00; -1.5723825E+01;0;  5.0997347E-02;  2.9431607E+04;  0.0000000E+00; -3.5201374E-01;  4.0000000E+04;  0.0000000E+00;  3.9798375E+04; -1.8093266E-01;  0.0000000E+00;  2.3193000E-01;  6.8159458E+03;
  1.1969514E+00;  9.9999998E-03; -2.6065019E-01;8855;  9.4163549E-01;  0.0000000E+00; -5.9324902E-02;  9.9985388E+02;  1.1681245E-01; -1.1969568E+02;3;  2.7246979E+01;  0.0000000E+00; -1.7083078E+01;0;  1.6476941E-01;  2.9502457E+04;  0.0000000E+00; -1.6357250E+01;  4.0000000E+04;  0.0000000E+00;  3.9736277E+04; -9.9546485E-02;  0.0000000E+00;  2.6431590E-01;  2.2143953E+04;
  1.1971079E+00;  9.9999998E-03; -2.3040752E-01;8858;  9.1715795E-01;  0.0000000E+00; -5.7862844E-02;  1.0005175E+03;  1.1682216E-01;  4.2397845E+02;3;  2.7937977E+01;  0.0000000E+00; -2.2681007E+01;0;  1.8449374E-01;  2.9517119E+04;  0.0000000E+00;  1.1719123E+00;  4.0000000E+04;  0.0000000E+00;  3.9763008E+04; -1.4881600E-01;  0.0000000E+00;  3.3330974E-01;  4.9016113E+03;
  1.1971263E+00;  9.9999998E-03; -2.2035174E-01;8859;  9.0894854E-01;  0.0000000E+00; -5.3139351E-02;  1.0006057E+03;  1.1682620E-01;  4.9625156E+02;3;  2.6942957E+01;  0.0000000E+00; -2.9894398E+01;0;  1.6642350E-01;  2.9522654E+04;  0.0000000E+00;  3.1950555E+00;  4.0000000E+04;  0.0000000E+00;  3.9759844E+04; -1.5893391E-01;  0.0000000E+00;  3.2535741E-01;  7.1443101E+03;
  1.1971172E+00;  9.9999998E-03; -2.1032506E-01;8860;  9.0194875E-01;  0.0000000E+00; -4.6797436E-02;  1.0006473E+03;  1.1683203E-01;  5.3033850E+02;3;  2.5344198E+01;  0.0000000E+00; -3.2536095E+01;0;  1.5044580E-01;  2.9524359E+04;  0.0000000E+00;  3.5856183E+00;  4.0000000E+04;  0.0000000E+00;  3.9757191E+04; -1.6615008E-01;  0.0000000E+00;  3.1659588E-01;  7.1773213E+03;
  1.1971213E+00;  9.9999998E-03; -2.0032062E-01;8861;  8.9575720E-01;  0.0000000E+00; -4.1445602E-02;  1.0006724E+03;  1.1683694E-01;  5.5084851E+02;3;  2.4940968E+01;  0.0000000E+00; -3.1327614E+01;0;  1.3881816E-01;  2.9522223E+04;  0.0000000E+00;  3.0323269E+00;  4.0000000E+04;  0.0000000E+00;  3.9758801E+04; -1.7145474E-01;  0.0000000E+00;  3.1027290E-01;  6.0245244E+03;
  1.1971451E+00;  9.9999998E-03; -1.9032487E-01;8862;  8.9006168E-01;  0.0000000E+00; -3.6983650E-02;  1.0006796E+03;  1.1683895E-01;  5.5680402E+02;3;  2.5190884E+01;  0.0000000E+00; -2.9595722E+01;0;  1.2732594E-01;  2.9517115E+04;  0.0000000E+00;  2.1502500E+00;  4.0000000E+04;  0.0000000E+00;  3.9764805E+04; -1.7529847E-01;  0.0000000E+00;  3.0262440E-01;  4.8422412E+03;
  1.1971765E+00;  9.9999998E-03; -1.5028282E-01;8866;  8.7074947E-01;  0.0000000E+00; -2.3987126E-02;  1.0001294E+03;  1.1684355E-01;  1.0596899E+02;3;  3.0085936E+01;  0.0000000E+00; -1.8473383E+01;0;  6.7124292E-02;  2.9457855E+04;  0.0000000E+00; -1.5468462E-01;  4.0000000E+04;  0.0000000E+00;  3.9794590E+04; -1.8097720E-01;  0.0000000E+00;  2.4810149E-01;  6.2991338E+03;
  1.1971781E+00;  9.9999998E-03; -1.8032634E-01;8863;  8.8476533E-01;  0.0000000E+00; -3.3043843E-02;  1.0006507E+03;  1.1683930E-01;  5.3306781E+02;3;  2.5976339E+01;  0.0000000E+00; -2.7359459E+01;0;  1.1430725E-01;  2.9508863E+04;  0.0000000E+00;  1.2939471E+00;  4.0000000E+04;  0.0000000E+00;  3.9773055E+04; -1.7794868E-01;  0.0000000E+00;  2.9225594E-01;  4.4564253E+03;
  1.1971992E+00;  9.9999998E-03; -1.6030054E-01;8865;  8.7513745E-01;  0.0000000E+00; -2.6544763E-02;  1.0003879E+03;  1.1684050E-01;  3.1780814E+02;3;  2.8473272E+01;  0.0000000E+00; -2.1387339E+01;0;  8.3621100E-02;  2.9479758E+04;  0.0000000E+00;  1.4820853E-01;  4.0000000E+04;  0.0000000E+00;  3.9788832E+04; -1.8058695E-01;  0.0000000E+00;  2.6420805E-01;  5.6242900E+03;
  1.1972040E+00;  9.9999998E-03; -1.7031726E-01;8864;  8.7980306E-01;  0.0000000E+00; -2.9545370E-02;  1.0005591E+03;  1.1683872E-01;  4.5805746E+02;3;  2.7085953E+01;  0.0000000E+00; -2.4541693E+01;0;  9.9582359E-02;  2.9496836E+04;  0.0000000E+00;  6.1711848E-01;  4.0000000E+04;  0.0000000E+00;  3.9781555E+04; -1.7964552E-01;  0.0000000E+00;  2.7922788E-01;  4.8951064E+03;
  1.1970879E+00;  9.9999998E-03; -2.7071431E-01;8854;  9.4954526E-01;  0.0000000E+00; -5.8470279E-02;  9.9938867E+02;  1.1679354E-01; -5.0084512E+02;3;  2.7163565E+01;  0.0000000E+00; -1.6997482E+01;0;  1.2624592E-01;  2.9494174E+04;  0.0000000E+00; -2.3811701E+01;  4.0000000E+04;  0.0000000E+00;  3.9727254E+04; -7.7973135E-02;  0.0000000E+00;  2.0421904E-01;  3.3452793E+04;
  1.2084786E+00;  9.9999998E-03; -1.1019929E-01;8930;  8.5309899E-01;  0.0000000E+00; -1.1987655E-02;  9.9831134E+02;  1.1549747E-01; -1.3807150E+03;3;  3.7511322E+01;  0.0000000E+00; -9.8431721E+00;0; -1.9493878E-02;  3.0028799E+04;  0.0000000E+00; -5.4997176E-01;  4.0000000E+04;  0.0000000E+00;  3.9801164E+04; -1.7742856E-01;  0.0000000E+00;  1.5793468E-01;  7.7458657E+03;
  1.2079858E+00;  9.9999998E-03; -2.6067373E-01;8915;  9.3987268E-01;  0.0000000E+00; -5.1555075E-02;  9.9997290E+02;  1.1545505E-01; -2.2176592E+01;3;  2.8010639E+01;  0.0000000E+00; -1.6867308E+01;0;  8.3319217E-02;  3.0218967E+04;  0.0000000E+00; -1.0232329E+01;  4.0000000E+04;  0.0000000E+00;  3.9724688E+04; -1.8036079E-01;  0.0000000E+00;  2.6368001E-01;  1.0516898E+04;
  1.2080626E+00;  9.9999998E-03; -2.5060263E-01;8916;  9.3186140E-01;  0.0000000E+00; -5.1869944E-02;  1.0001037E+03;  1.1545762E-01;  8.4805923E+01;3;  2.8202322E+01;  0.0000000E+00; -1.7387156E+01;0;  1.1284266E-01;  3.0215508E+04;  0.0000000E+00; -3.9012303E+00;  4.0000000E+04;  0.0000000E+00;  3.9737023E+04; -1.9459267E-01;  0.0000000E+00;  3.0743533E-01;  1.4451847E+03;
  1.2084553E+00;  9.9999998E-03; -1.2023190E-01;8929;  8.5657585E-01;  0.0000000E+00; -1.3120781E-02;  9.9892480E+02;  1.1548851E-01; -8.7913690E+02;3;  3.5266903E+01;  0.0000000E+00; -1.1800053E+01;0; -9.8721236E-03;  3.0071158E+04;  0.0000000E+00; -5.9329969E-01;  4.0000000E+04;  0.0000000E+00;  3.9800770E+04; -1.8062924E-01;  0.0000000E+00;  1.7075711E-01;  7.5924199E+03;
  1.2082490E+00;  9.9999998E-03; -2.4052212E-01;8917;  9.2345935E-01;  0.0000000E+00; -5.1146507E-02;  1.0002373E+03;  1.1545049E-01;  1.9407190E+02;3;  2.8574291E+01;  0.0000000E+00; -1.9920086E+01;0;  1.2237285E-01;  3.0218068E+04;  0.0000000E+00;  4.0759292E-01;  4.0000000E+04;  0.0000000E+00;  3.9748977E+04; -2.0541628E-01;  0.0000000E+00;  3.2778913E-01;  4.8655479E+03;
  1.2081110E+00;  9.9999998E-03; -2.7073541E-01;8914;  9.4763190E-01;  0.0000000E+00; -5.0686460E-02;  9.9956079E+02;  1.1543746E-01; -3.5915466E+02;3;  2.8026598E+01;  0.0000000E+00; -1.6929331E+01;0;  3.5419345E-02;  3.0214459E+04;  0.0000000E+00; -1.7868149E+01;  4.0000000E+04;  0.0000000E+00;  3.9715195E+04; -1.6294007E-01;  0.0000000E+00;  1.9835941E-01;  2.1626408E+04;
  1.2084380E+00;  9.9999998E-03; -1.3024977E-01;8928;  8.6025798E-01;  0.0000000E+00; -1.4432616E-02;  9.9949304E+02;  1.1548044E-01; -4.1449551E+02;3;  3.3128384E+01;  0.0000000E+00; -1.4073325E+01;0;  1.8677562E-03;  3.0111004E+04;  0.0000000E+00; -5.7598841E-01;  4.0000000E+04;  0.0000000E+00;  3.9799488E+04; -1.8420869E-01;  0.0000000E+00;  1.8607645E-01;  7.3659702E+03;
  1.2083952E+00;  9.9999998E-03; -2.3043589E-01;8918;  9.1478503E-01;  0.0000000E+00; -4.8961814E-02;  1.0004861E+03;  1.1544456E-01;  3.9749011E+02;3;  2.8964157E+01;  0.0000000E+00; -2.3616039E+01;0;  1.1803447E-01;  3.0229201E+04;  0.0000000E+00;  3.5382922E+00;  4.0000000E+04;  0.0000000E+00;  3.9757539E+04; -2.1214040E-01;  0.0000000E+00;  3.3017486E-01;  8.9137646E+03;
  1.2084078E+00;  9.9999998E-03; -1.5026404E-01;8926;  8.6825931E-01;  0.0000000E+00; -1.7834218E-02;  1.0004277E+03;  1.1547127E-01;  3.4972809E+02;3;  2.9486536E+01;  0.0000000E+00; -1.9302229E+01;0;  2.9961839E-02;  3.0178541E+04;  0.0000000E+00; -3.3040059E-01;  4.0000000E+04;  0.0000000E+00;  3.9793121E+04; -1.9182524E-01;  0.0000000E+00;  2.2178708E-01;  6.4507090E+03;
  1.2084236E+00;  9.9999998E-03; -1.4025930E-01;8927;  8.6414737E-01;  0.0000000E+00; -1.5975762E-02;  1.0000043E+03;  1.1547523E-01;  3.5089667E+00;3;  3.1193443E+01;  0.0000000E+00; -1.6557816E+01;0;  1.5379116E-02;  3.0147047E+04;  0.0000000E+00; -4.9412218E-01;  4.0000000E+04;  0.0000000E+00;  3.9797305E+04; -1.8797286E-01;  0.0000000E+00;  2.0335197E-01;  7.0006606E+03;
  1.2084483E+00;  9.9999998E-03; -2.2036108E-01;8919;  9.0648550E-01;  0.0000000E+00; -4.5033712E-02;  1.0007519E+03;  1.1544526E-01;  6.1474847E+02;3;  2.8175846E+01;  0.0000000E+00; -2.8848400E+01;0;  1.0748371E-01;  3.0242381E+04;  0.0000000E+00;  5.0735869E+00;  4.0000000E+04;  0.0000000E+00;  3.9759609E+04; -2.1470028E-01;  0.0000000E+00;  3.2218400E-01;  1.0434832E+04;
  1.2084460E+00;  9.9999998E-03; -2.1030949E-01;8920;  8.9919871E-01;  0.0000000E+00; -3.9590124E-02;  1.0009486E+03;  1.1544931E-01;  7.7567316E+02;3;  2.6504923E+01;  0.0000000E+00; -3.2905186E+01;0;  9.6594125E-02;  3.0251666E+04;  0.0000000E+00;  4.9625754E+00;  4.0000000E+04;  0.0000000E+00;  3.9759082E+04; -2.1409217E-01;  0.0000000E+00;  3.1068629E-01;  9.5911104E+03;
  1.2084190E+00;  9.9999998E-03; -2.0028296E-01;8921;  8.9297664E-01;  0.0000000E+00; -3.4145381E-02;  1.0010721E+03;  1.1545547E-01;  8.7665759E+02;3;  2.5560799E+01;  0.0000000E+00; -3.2386681E+01;0;  8.8174582E-02;  3.0254389E+04;  0.0000000E+00;  3.8952587E+00;  4.0000000E+04;  0.0000000E+00;  3.9760113E+04; -2.1154925E-01;  0.0000000E+00;  2.9972383E-01;  7.5657314E+03;
  1.2083969E+00;  9.9999998E-03; -1.9027399E-01;8922;  8.8733321E-01;  0.0000000E+00; -2.9697847E-02;  1.0011279E+03;  1.1546057E-01;  9.2218060E+02;3;  2.5473938E+01;  0.0000000E+00; -3.0570267E+01;0;  8.0147773E-02;  3.0250967E+04;  0.0000000E+00;  2.5613685E+00;  4.0000000E+04;  0.0000000E+00;  3.9764562E+04; -2.0802391E-01;  0.0000000E+00;  2.8817168E-01;  5.6137075E+03;
  1.2083873E+00;  9.9999998E-03; -1.8027084E-01;8923;  8.8209748E-01;  0.0000000E+00; -2.5929913E-02;  1.0010991E+03;  1.1546414E-01;  8.9869165E+02;3;  2.5986540E+01;  0.0000000E+00; -2.8187519E+01;0;  7.0344850E-02;  3.0241326E+04;  0.0000000E+00;  1.3851491E+00;  4.0000000E+04;  0.0000000E+00;  3.9771664E+04; -2.0402206E-01;  0.0000000E+00;  2.7436692E-01;  4.7112261E+03;
  1.2083884E+00;  9.9999998E-03; -1.7026821E-01;8924;  8.7719512E-01;  0.0000000E+00; -2.2712147E-02;  1.0009809E+03;  1.1546648E-01;  8.0199921E+02;3;  2.6882397E+01;  0.0000000E+00; -2.5217987E+01;0;  5.8369532E-02;  3.0226014E+04;  0.0000000E+00;  5.2546275E-01;  4.0000000E+04;  0.0000000E+00;  3.9779652E+04; -1.9987629E-01;  0.0000000E+00;  2.5824583E-01;  4.9786289E+03;
  1.2083951E+00;  9.9999998E-03; -1.6026612E-01;8925;  8.7259227E-01;  0.0000000E+00; -2.0042432E-02;  1.0007590E+03;  1.1546928E-01;  6.2060309E+02;3;  2.7994589E+01;  0.0000000E+00; -2.2091143E+01;0;  4.4635236E-02;  3.0204936E+04;  0.0000000E+00; -2.0735255E-02;  4.0000000E+04;  0.0000000E+00;  3.9787180E+04; -1.9578560E-01;  0.0000000E+00;  2.4042083E-01;  5.7247148E+03;
  1.2197975E+00;  9.9999998E-03; -1.1021575E-01;8989;  8.5089082E-01;  0.0000000E+00; -7.8005153E-03;  9.9812494E+02;  1.1424803E-01; -1.5294650E+03;3;  3.6281921E+01;  0.0000000E+00; -1.0836555E+01;0; -4.1500479E-02;  3.0679656E+04;  0.0000000E+00; -4.8840609E-01;  4.0000000E+04;  0.0000000E+00;  3.9796547E+04; -1.6683634E-01;  0.0000000E+00;  1.2533586E-01;  7.7469600E+03;
  1.2197299E+00;  9.9999998E-03; -1.2025074E-01;8988;  8.5435545E-01;  0.0000000E+00; -8.5523976E-03;  9.9874622E+02;  1.1423984E-01; -1.0227221E+03;3;  3.3984356E+01;  0.0000000E+00; -1.2688694E+01;0; -3.3771724E-02;  3.0722578E+04;  0.0000000E+00; -5.7675618E-01;  4.0000000E+04;  0.0000000E+00;  3.9796039E+04; -1.7343396E-01;  0.0000000E+00;  1.3966224E-01;  7.5751978E+03;
  1.2196540E+00;  9.9999998E-03; -1.3028075E-01;8987;  8.5800242E-01;  0.0000000E+00; -9.4761001E-03;  9.9934436E+02;  1.1423357E-01; -5.3482947E+02;3;  3.1908909E+01;  0.0000000E+00; -1.4820438E+01;0; -2.3893356E-02;  3.0764189E+04;  0.0000000E+00; -6.1658311E-01;  4.0000000E+04;  0.0000000E+00;  3.9794742E+04; -1.8051048E-01;  0.0000000E+00;  1.5661712E-01;  7.3273320E+03;
  1.2195799E+00;  9.9999998E-03; -1.4029337E-01;8986;  8.6183894E-01;  0.0000000E+00; -1.0634483E-02;  9.9989905E+02;  1.1422948E-01; -8.2365128E+01;3;  3.0136311E+01;  0.0000000E+00; -1.7129864E+01;0; -1.2239650E-02;  3.0802973E+04;  0.0000000E+00; -5.9739208E-01;  4.0000000E+04;  0.0000000E+00;  3.9792137E+04; -1.8789297E-01;  0.0000000E+00;  1.7565332E-01;  6.9312651E+03;
  1.2194563E+00;  9.9999998E-03; -1.6028711E-01;8984;  8.7013489E-01;  0.0000000E+00; -1.3956853E-02;  1.0007577E+03;  1.1422458E-01;  6.1809607E+02;3;  2.7396790E+01;  0.0000000E+00; -2.2506893E+01;0;  1.3167292E-02;  3.0868191E+04;  0.0000000E+00; -1.4545217E-01;  4.0000000E+04;  0.0000000E+00;  3.9781184E+04; -2.0368885E-01;  0.0000000E+00;  2.1685614E-01;  5.5713276E+03;
  1.2195120E+00;  9.9999998E-03; -1.5029281E-01;8985;  8.6588043E-01;  0.0000000E+00; -1.2103442E-02;  1.0003751E+03;  1.1422630E-01;  3.0602954E+02;3;  2.8670240E+01;  0.0000000E+00; -1.9738438E+01;0;  4.4928491E-04;  3.0837934E+04;  0.0000000E+00; -4.7178510E-01;  4.0000000E+04;  0.0000000E+00;  3.9787523E+04; -1.9558269E-01;  0.0000000E+00;  1.9603197E-01;  6.3404238E+03;
  1.2194258E+00;  9.9999998E-03; -1.7028219E-01;8983;  8.7464255E-01;  0.0000000E+00; -1.6265802E-02;  1.0010259E+03;  1.1422184E-01;  8.3690558E+02;3;  2.6519796E+01;  0.0000000E+00; -2.5523113E+01;0;  2.4818838E-02;  3.0892934E+04;  0.0000000E+00;  5.0884718E-01;  4.0000000E+04;  0.0000000E+00;  3.9773562E+04; -2.1231219E-01;  0.0000000E+00;  2.3713103E-01;  4.8441016E+03;
  1.2189420E+00;  9.9999998E-03; -2.5064683E-01;8975;  9.2993164E-01;  0.0000000E+00; -4.4084195E-02;  1.0001334E+03;  1.1422207E-01;  1.0883101E+02;3;  2.9359549E+01;  0.0000000E+00; -1.8663876E+01;0;  5.4294273E-02;  3.0888410E+04;  0.0000000E+00;  4.9088850E+00;  4.0000000E+04;  0.0000000E+00;  3.9720121E+04; -2.4956296E-01;  0.0000000E+00;  3.0385724E-01;  1.2539134E+04;
  1.2194265E+00;  9.9999998E-03; -1.8028104E-01;8982;  8.7945032E-01;  0.0000000E+00; -1.9158561E-02;  1.0011804E+03;  1.1421763E-01;  9.6293719E+02;3;  2.5943933E+01;  0.0000000E+00; -2.8502245E+01;0;  3.4509629E-02;  3.0911459E+04;  0.0000000E+00;  1.6158937E+00;  4.0000000E+04;  0.0000000E+00;  3.9765922E+04; -2.2145283E-01;  0.0000000E+00;  2.5596246E-01;  4.8818350E+03;
  1.2194535E+00;  9.9999998E-03; -1.9028753E-01;8981;  8.8459933E-01;  0.0000000E+00; -2.2712965E-02;  1.0012125E+03;  1.1421161E-01;  9.8909058E+02;3;  2.5731783E+01;  0.0000000E+00; -3.1028391E+01;0;  4.1855216E-02;  3.0922822E+04;  0.0000000E+00;  3.2247610E+00;  4.0000000E+04;  0.0000000E+00;  3.9759367E+04; -2.3094183E-01;  0.0000000E+00;  2.7279705E-01;  6.5261689E+03;
  1.2188419E+00;  9.9999998E-03; -2.6071098E-01;8974;  9.3818164E-01;  0.0000000E+00; -4.4577915E-02;  1.0002029E+03;  1.1422011E-01;  1.6553580E+02;3;  2.8890099E+01;  0.0000000E+00; -1.6572903E+01;0;  2.7451456E-02;  3.0904328E+04;  0.0000000E+00; -2.2323783E-01;  4.0000000E+04;  0.0000000E+00;  3.9708402E+04; -2.3786399E-01;  0.0000000E+00;  2.6531544E-01;  5.9310977E+03;
  1.2191596E+00;  9.9999998E-03; -2.4057829E-01;8976;  9.2106521E-01;  0.0000000E+00; -4.2198949E-02;  1.0000953E+03;  1.1421424E-01;  7.7802094E+01;3;  2.9938618E+01;  0.0000000E+00; -2.1785305E+01;0;  6.1450750E-02;  3.0882262E+04;  0.0000000E+00;  7.1266589E+00;  4.0000000E+04;  0.0000000E+00;  3.9730645E+04; -2.5679237E-01;  0.0000000E+00;  3.1824312E-01;  1.5196289E+04;
  1.2194885E+00;  9.9999998E-03; -2.0030807E-01;8980;  8.9017022E-01;  0.0000000E+00; -2.7056770E-02;  1.0011281E+03;  1.1420525E-01;  9.2023303E+02;3;  2.6184504E+01;  0.0000000E+00; -3.2762733E+01;0;  4.7434792E-02;  3.0925488E+04;  0.0000000E+00;  5.1938019E+00;  4.0000000E+04;  0.0000000E+00;  3.9755281E+04; -2.4038829E-01;  0.0000000E+00;  2.8782308E-01;  9.4884160E+03;
  1.2193733E+00;  9.9999998E-03; -2.3049942E-01;8977;  9.1224092E-01;  0.0000000E+00; -3.9704531E-02;  1.0002825E+03;  1.1420293E-01;  2.3047755E+02;3;  2.9805799E+01;  0.0000000E+00; -2.4782671E+01;0;  6.2066734E-02;  3.0889928E+04;  0.0000000E+00;  8.1054935E+00;  4.0000000E+04;  0.0000000E+00;  3.9741805E+04; -2.5867328E-01;  0.0000000E+00;  3.2074001E-01;  1.5859718E+04;
  1.2194804E+00;  9.9999998E-03; -2.2041734E-01;8978;  9.0392882E-01;  0.0000000E+00; -3.6457654E-02;  1.0006226E+03;  1.1419860E-01;  5.0781628E+02;3;  2.9201258E+01;  0.0000000E+00; -2.8577082E+01;0;  5.8742881E-02;  3.0905496E+04;  0.0000000E+00;  8.2260990E+00;  4.0000000E+04;  0.0000000E+00;  3.9749789E+04; -2.5563499E-01;  0.0000000E+00;  3.1437787E-01;  1.5168525E+04;
  1.2195073E+00;  9.9999998E-03; -2.1035057E-01;8979;  8.9651203E-01;  0.0000000E+00; -3.2002460E-02;  1.0009279E+03;  1.1420032E-01;  7.5695477E+02;3;  2.7637701E+01;  0.0000000E+00; -3.2053818E+01;0;  5.2963123E-02;  3.0919191E+04;  0.0000000E+00;  7.0876870E+00;  4.0000000E+04;  0.0000000E+00;  3.9753145E+04; -2.4903904E-01;  0.0000000E+00;  3.0200216E-01;  1.2759719E+04;
  1.2189578E+00;  9.9999998E-03; -2.7076942E-01;8973;  9.4581777E-01;  0.0000000E+00; -4.3850601E-02;  9.9990942E+02;  1.1420330E-01; -7.3915344E+01;3;  2.8903948E+01;  0.0000000E+00; -1.6138947E+01;0; -2.3944393E-02;  3.0908553E+04;  0.0000000E+00; -8.2405214E+00;  4.0000000E+04;  0.0000000E+00;  3.9698312E+04; -2.2212453E-01;  0.0000000E+00;  1.9818014E-01;  6.4437090E+03;
  1.2310264E+00;  9.9999998E-03; -1.1025679E-01;9048;  8.4892011E-01;  0.0000000E+00; -3.9636125E-03;  9.9774109E+02;  1.1311871E-01; -1.8374692E+03;3;  3.4880817E+01;  0.0000000E+00; -1.1829679E+01;0; -5.3108856E-02;  3.1275623E+04;  0.0000000E+00; -3.7453204E-01;  4.0000000E+04;  0.0000000E+00;  3.9788938E+04; -1.4793834E-01;  0.0000000E+00;  9.4829485E-02;  7.6252183E+03;
  1.2309294E+00;  9.9999998E-03; -1.2029573E-01;9047;  8.5234970E-01;  0.0000000E+00; -4.3531018E-03;  9.9832251E+02;  1.1311279E-01; -1.3645858E+03;3;  3.2569599E+01;  0.0000000E+00; -1.3426619E+01;0; -4.8568636E-02;  3.1316014E+04;  0.0000000E+00; -4.9920589E-01;  4.0000000E+04;  0.0000000E+00;  3.9787930E+04; -1.5894893E-01;  0.0000000E+00;  1.1038029E-01;  7.3974946E+03;
  1.2308108E+00;  9.9999998E-03; -1.3032781E-01;9046;  8.5593790E-01;  0.0000000E+00; -4.9094032E-03;  9.9890887E+02;  1.1310846E-01; -8.8761011E+02;3;  3.0535696E+01;  0.0000000E+00; -1.5360070E+01;0; -4.1761637E-02;  3.1356572E+04;  0.0000000E+00; -5.9489912E-01;  4.0000000E+04;  0.0000000E+00;  3.9785980E+04; -1.7041694E-01;  0.0000000E+00;  1.2865530E-01;  7.0915337E+03;
  1.2306803E+00;  9.9999998E-03; -1.4034973E-01;9045;  8.5969079E-01;  0.0000000E+00; -5.7028444E-03;  9.9947162E+02;  1.1310582E-01; -4.2985562E+02;3;  2.8877703E+01;  0.0000000E+00; -1.7588545E+01;0; -3.2993034E-02;  3.1396023E+04;  0.0000000E+00; -6.2685561E-01;  4.0000000E+04;  0.0000000E+00;  3.9782754E+04; -1.8219621E-01;  0.0000000E+00;  1.4920318E-01;  6.6422861E+03;
  1.2298346E+00;  9.9999998E-03; -2.5068995E-01;9034;  9.2784810E-01;  0.0000000E+00; -3.7457690E-02;  9.9998975E+02;  1.1310426E-01; -8.3419857E+00;3;  3.0618708E+01;  0.0000000E+00; -1.9374483E+01;0;  1.6089916E-02;  3.1500051E+04;  0.0000000E+00;  1.4059685E+01;  4.0000000E+04;  0.0000000E+00;  3.9709855E+04; -2.8983396E-01;  0.0000000E+00;  3.0592388E-01;  2.5152824E+04;
  1.2304568E+00;  9.9999998E-03; -1.6035101E-01;9043;  8.6775702E-01;  0.0000000E+00; -8.2772328E-03;  1.0003752E+03;  1.1310210E-01;  3.0530530E+02;3;  2.6623093E+01;  0.0000000E+00; -2.2704794E+01;0; -1.2846783E-02;  3.1465191E+04;  0.0000000E+00; -1.2330477E-01;  4.0000000E+04;  0.0000000E+00;  3.9770945E+04; -2.0687066E-01;  0.0000000E+00;  1.9402388E-01;  5.2091909E+03;
  1.2305560E+00;  9.9999998E-03; -1.5035631E-01;9044;  8.6362207E-01;  0.0000000E+00; -6.7915539E-03;  9.9996637E+02;  1.1310384E-01; -2.7348740E+01;3;  2.7648813E+01;  0.0000000E+00; -1.9982798E+01;0; -2.3009211E-02;  3.1432631E+04;  0.0000000E+00; -5.1376975E-01;  4.0000000E+04;  0.0000000E+00;  3.9777688E+04; -1.9430134E-01;  0.0000000E+00;  1.7129213E-01;  6.0027588E+03;
  1.2303967E+00;  9.9999998E-03; -1.7034484E-01;9042;  8.7212723E-01;  0.0000000E+00; -1.0205107E-02;  1.0006755E+03;  1.1309902E-01;  5.4961646E+02;3;  2.6029530E+01;  0.0000000E+00; -2.5475836E+01;0; -3.6248118E-03;  3.1492607E+04;  0.0000000E+00;  7.2038269E-01;  4.0000000E+04;  0.0000000E+00;  3.9763289E+04; -2.2005472E-01;  0.0000000E+00;  2.1642990E-01;  4.6172158E+03;
  1.2297175E+00;  9.9999998E-03; -2.6075199E-01;9033;  9.3639702E-01;  0.0000000E+00; -3.9029043E-02;  1.0002409E+03;  1.1310107E-01;  1.9604266E+02;3;  2.9883778E+01;  0.0000000E+00; -1.6029884E+01;0;  4.1744113E-04;  3.1530133E+04;  0.0000000E+00;  9.1989756E+00;  4.0000000E+04;  0.0000000E+00;  3.9696754E+04; -2.7813318E-01;  0.0000000E+00;  2.7855062E-01;  1.8945496E+04;
  1.2300478E+00;  9.9999998E-03; -2.4063218E-01;9035;  9.1855133E-01;  0.0000000E+00; -3.4027237E-02;  9.9976581E+02;  1.1309704E-01; -1.9054547E+02;3;  3.1188217E+01;  0.0000000E+00; -2.3104149E+01;0;  1.2874007E-02;  3.1484389E+04;  0.0000000E+00;  1.5068757E+01;  4.0000000E+04;  0.0000000E+00;  3.9716996E+04; -2.9572654E-01;  0.0000000E+00;  3.0860054E-01;  2.6181135E+04;
  1.2303817E+00;  9.9999998E-03; -1.8034294E-01;9041;  8.7679827E-01;  0.0000000E+00; -1.2748354E-02;  1.0008456E+03;  1.1309395E-01;  6.8792047E+02;3;  2.5784176E+01;  0.0000000E+00; -2.8419683E+01;0;  3.7288964E-03;  3.1513564E+04;  0.0000000E+00;  2.2028582E+00;  4.0000000E+04;  0.0000000E+00;  3.9755688E+04; -2.3389496E-01;  0.0000000E+00;  2.3762386E-01;  5.2904780E+03;
  1.2304049E+00;  9.9999998E-03; -1.9035085E-01;9040;  8.8181704E-01;  0.0000000E+00; -1.6029095E-02;  1.0008855E+03;  1.1308681E-01;  7.2040625E+02;3;  2.5956755E+01;  0.0000000E+00; -3.0986450E+01;0;  8.8340938E-03;  3.1526012E+04;  0.0000000E+00;  4.4249444E+00;  4.0000000E+04;  0.0000000E+00;  3.9749508E+04; -2.4825507E-01;  0.0000000E+00;  2.5708917E-01;  8.0159741E+03;
  1.2302842E+00;  9.9999998E-03; -2.3056802E-01;9036;  9.0953708E-01;  0.0000000E+00; -3.0844314E-02;  9.9980719E+02;  1.1308448E-01; -1.5687862E+02;3;  3.0978685E+01;  0.0000000E+00; -2.5699181E+01;0;  1.3875216E-02;  3.1486510E+04;  0.0000000E+00;  1.4069333E+01;  4.0000000E+04;  0.0000000E+00;  3.9725559E+04; -2.9462862E-01;  0.0000000E+00;  3.0850384E-01;  2.4138537E+04;
  1.2304424E+00;  9.9999998E-03; -2.0037669E-01;9039;  8.8735086E-01;  0.0000000E+00; -2.0022053E-02;  1.0007731E+03;  1.1308008E-01;  6.2894299E+02;3;  2.6933342E+01;  0.0000000E+00; -3.2049622E+01;0;  1.2209237E-02;  3.1527900E+04;  0.0000000E+00;  7.2508821E+00;  4.0000000E+04;  0.0000000E+00;  3.9745047E+04; -2.6270804E-01;  0.0000000E+00;  2.7491727E-01;  1.2242073E+04;
  1.2304181E+00;  9.9999998E-03; -2.2049353E-01;9037;  9.0121061E-01;  0.0000000E+00; -2.7822100E-02;  1.0001454E+03;  1.1307695E-01;  1.1832157E+02;3;  3.0135498E+01;  0.0000000E+00; -2.8387312E+01;0;  1.5574992E-02;  3.1502318E+04;  0.0000000E+00;  1.2593763E+01;  4.0000000E+04;  0.0000000E+00;  3.9735246E+04; -2.8753147E-01;  0.0000000E+00;  3.0310646E-01;  2.1160203E+04;
  1.2304584E+00;  9.9999998E-03; -2.1042505E-01;9038;  8.9375603E-01;  0.0000000E+00; -2.4163742E-02;  1.0005136E+03;  1.1307580E-01;  4.1780646E+02;3;  2.8541590E+01;  0.0000000E+00; -3.1074007E+01;0;  1.4561862E-02;  3.1519000E+04;  0.0000000E+00;  1.0205724E+01;  4.0000000E+04;  0.0000000E+00;  3.9741449E+04; -2.7630058E-01;  0.0000000E+00;  2.9086244E-01;  1.6985785E+04;
  1.2297782E+00;  9.9999998E-03; -2.7081195E-01;9032;  9.4393694E-01;  0.0000000E+00; -3.8257848E-02;  1.0001421E+03;  1.1308637E-01;  1.1562550E+02;3;  2.9773230E+01;  0.0000000E+00; -1.4995619E+01;0; -5.2498862E-02;  3.1551191E+04;  0.0000000E+00;  9.8965472E-01;  4.0000000E+04;  0.0000000E+00;  3.9681645E+04; -2.6175892E-01;  0.0000000E+00;  2.0926006E-01;  8.4568779E+03;
  1.2408873E+00;  9.9999998E-03; -2.5073132E-01;9093;  9.2528063E-01;  0.0000000E+00; -3.1711653E-02;  9.9928394E+02;  1.1209511E-01; -5.8084912E+02;3;  3.1977407E+01;  0.0000000E+00; -1.9648537E+01;0; -7.7404678E-03;  3.2023703E+04;  0.0000000E+00;  1.8656645E+01;  4.0000000E+04;  0.0000000E+00;  3.9708039E+04; -3.2007694E-01;  0.0000000E+00;  3.1233647E-01;  2.9964492E+04;
  1.2420743E+00;  9.9999998E-03; -1.2034188E-01;9106;  8.5057622E-01;  0.0000000E+00; -4.8335866E-04;  9.9772723E+02;  1.1209915E-01; -1.8428679E+03;3;  3.0944540E+01;  0.0000000E+00; -1.4309768E+01;0; -5.3727843E-02;  3.1855070E+04;  0.0000000E+00; -3.8863015E-01;  4.0000000E+04;  0.0000000E+00;  3.9776266E+04; -1.3681063E-01;  0.0000000E+00;  8.3082788E-02;  7.0799922E+03;
  1.2421896E+00;  9.9999998E-03; -1.1029260E-01;9107;  8.4720200E-01;  0.0000000E+00; -3.8256519E-04;  9.9721393E+02;  1.1210319E-01; -2.2590037E+03;3;  3.3372272E+01;  0.0000000E+00; -1.2911901E+01;0; -5.3510949E-02;  3.1818977E+04;  0.0000000E+00; -2.4283266E-01;  4.0000000E+04;  0.0000000E+00;  3.9778266E+04; -1.2001646E-01;  0.0000000E+00;  6.6505507E-02;  7.3933223E+03;
  1.2415092E+00;  9.9999998E-03; -1.6041723E-01;9102;  8.6541659E-01;  0.0000000E+00; -2.9666917E-03;  9.9967487E+02;  1.1209210E-01; -2.6368604E+02;3;  2.5731207E+01;  0.0000000E+00; -2.2612974E+01;0; -3.4409940E-02;  3.1999697E+04;  0.0000000E+00;  1.5209019E-01;  4.0000000E+04;  0.0000000E+00;  3.9756805E+04; -2.0641200E-01;  0.0000000E+00;  1.7200206E-01;  4.7525752E+03;
  1.2416341E+00;  9.9999998E-03; -1.5041584E-01;9103;  8.6146224E-01;  0.0000000E+00; -1.8713103E-03;  9.9927515E+02;  1.1209434E-01; -5.8782062E+02;3;  2.6401680E+01;  0.0000000E+00; -1.9944273E+01;0; -4.0992662E-02;  3.1966861E+04;  0.0000000E+00; -4.0054628E-01;  4.0000000E+04;  0.0000000E+00;  3.9763789E+04; -1.8866502E-01;  0.0000000E+00;  1.4767236E-01;  5.4874531E+03;
  1.2417831E+00;  9.9999998E-03; -1.4040340E-01;9104;  8.5769385E-01;  0.0000000E+00; -1.1592958E-03;  9.9879492E+02;  1.1209492E-01; -9.7722290E+02;3;  2.7469692E+01;  0.0000000E+00; -1.7949011E+01;0; -4.7020033E-02;  3.1930807E+04;  0.0000000E+00; -5.6426889E-01;  4.0000000E+04;  0.0000000E+00;  3.9769359E+04; -1.7121024E-01;  0.0000000E+00;  1.2419021E-01;  6.1682852E+03;
  1.2419366E+00;  9.9999998E-03; -1.3037698E-01;9105;  8.5406977E-01;  0.0000000E+00; -7.1664870E-04;  9.9826715E+02;  1.1209650E-01; -1.4051075E+03;3;  2.8957481E+01;  0.0000000E+00; -1.5899111E+01;0; -5.1491216E-02;  3.1892943E+04;  0.0000000E+00; -5.1916361E-01;  4.0000000E+04;  0.0000000E+00;  3.9773441E+04; -1.5392138E-01;  0.0000000E+00;  1.0243016E-01;  6.6877949E+03;
  1.2407434E+00;  9.9999998E-03; -2.6079261E-01;9092;  9.3410712E-01;  0.0000000E+00; -3.4615904E-02;  9.9968243E+02;  1.1209047E-01; -2.5760785E+02;3;  3.0900219E+01;  0.0000000E+00; -1.4953863E+01;0; -4.3094158E-03;  3.2065893E+04;  0.0000000E+00;  1.2910137E+01;  4.0000000E+04;  0.0000000E+00;  3.9693730E+04; -3.0616614E-01;  0.0000000E+00;  3.0185673E-01;  2.2693199E+04;
  1.2410635E+00;  9.9999998E-03; -2.4068063E-01;9094;  9.1575032E-01;  0.0000000E+00; -2.6808010E-02;  9.9899829E+02;  1.1209067E-01; -8.1248712E+02;3;  3.2371578E+01;  0.0000000E+00; -2.3834740E+01;0; -2.5725722E-02;  3.2005557E+04;  0.0000000E+00;  2.0943081E+01;  4.0000000E+04;  0.0000000E+00;  3.9710922E+04; -3.2641929E-01;  0.0000000E+00;  3.0069357E-01;  3.2849715E+04;
  1.2414258E+00;  9.9999998E-03; -1.7041504E-01;9101;  8.6959332E-01;  0.0000000E+00; -4.5155971E-03;  9.9997498E+02;  1.1208867E-01; -2.0302658E+01;3;  2.5400848E+01;  0.0000000E+00; -2.5214396E+01;0; -2.8400362E-02;  3.2027623E+04;  0.0000000E+00;  1.3273252E+00;  4.0000000E+04;  0.0000000E+00;  3.9749234E+04; -2.2460790E-01;  0.0000000E+00;  1.9620754E-01;  4.6278740E+03;
  1.2413899E+00;  9.9999998E-03; -1.8041518E-01;9100;  8.7406796E-01;  0.0000000E+00; -6.6805282E-03;  1.0001439E+03;  1.1208289E-01;  1.1669324E+02;3;  2.5526489E+01;  0.0000000E+00; -2.7995468E+01;0; -2.3924693E-02;  3.2048635E+04;  0.0000000E+00;  3.3677819E+00;  4.0000000E+04;  0.0000000E+00;  3.9742027E+04; -2.4332039E-01;  0.0000000E+00;  2.1939570E-01;  6.4295688E+03;
  1.2412519E+00;  9.9999998E-03; -2.3062730E-01;9095;  9.0662247E-01;  0.0000000E+00; -2.2791632E-02;  9.9900763E+02;  1.1208068E-01; -8.0485016E+02;3;  3.2002663E+01;  0.0000000E+00; -2.6229815E+01;0; -2.8461009E-02;  3.2008396E+04;  0.0000000E+00;  2.0084864E+01;  4.0000000E+04;  0.0000000E+00;  3.9715250E+04; -3.2387701E-01;  0.0000000E+00;  2.9541600E-01;  3.1341848E+04;
  1.2413931E+00;  9.9999998E-03; -1.9042510E-01;9099;  8.7893409E-01;  0.0000000E+00; -9.6073439E-03;  1.0001691E+03;  1.1207663E-01;  1.3709265E+02;3;  2.6171679E+01;  0.0000000E+00; -3.0254227E+01;0; -2.1364003E-02;  3.2059760E+04;  0.0000000E+00;  6.4005466E+00;  4.0000000E+04;  0.0000000E+00;  3.9736473E+04; -2.6242429E-01;  0.0000000E+00;  2.4106029E-01;  1.0448356E+04;
  1.2413738E+00;  9.9999998E-03; -2.2056249E-01;9096;  8.9828718E-01;  0.0000000E+00; -1.9697050E-02;  9.9933319E+02;  1.1207192E-01; -5.4078448E+02;3;  3.0958525E+01;  0.0000000E+00; -2.7915579E+01;0; -2.4143845E-02;  3.2026240E+04;  0.0000000E+00;  1.7792671E+01;  4.0000000E+04;  0.0000000E+00;  3.9723168E+04; -3.1402060E-01;  0.0000000E+00;  2.8987676E-01;  2.7520016E+04;
  1.2414113E+00;  9.9999998E-03; -2.0045201E-01;9098;  8.8443279E-01;  0.0000000E+00; -1.3048911E-02;  1.0000339E+03;  1.1207131E-01;  2.7457048E+01;3;  2.7525167E+01;  0.0000000E+00; -3.0893257E+01;0; -2.0533502E-02;  3.2059156E+04;  0.0000000E+00;  1.0255974E+01;  4.0000000E+04;  0.0000000E+00;  3.9732688E+04; -2.8140843E-01;  0.0000000E+00;  2.6087493E-01;  1.6000774E+04;
  1.2406932E+00;  9.9999998E-03; -2.7085689E-01;9091;  9.4170368E-01;  0.0000000E+00; -3.3885900E-02;  9.9988220E+02;  1.1207911E-01; -9.5540710E+01;3;  3.0635445E+01;  0.0000000E+00; -1.3310707E+01;0; -5.4033861E-02;  3.2112029E+04;  0.0000000E+00;  5.5827708E+00;  4.0000000E+04;  0.0000000E+00;  3.9671102E+04; -2.8694996E-01;  0.0000000E+00;  2.3291610E-01;  1.3072675E+04;
  1.2414162E+00;  9.9999998E-03; -2.1049933E-01;9097;  8.9084119E-01;  0.0000000E+00; -1.6542813E-02;  9.9973883E+02;  1.1206906E-01; -2.1182501E+02;3;  2.9392347E+01;  0.0000000E+00; -2.9759918E+01;0; -2.1251857E-02;  3.2046566E+04;  0.0000000E+00;  1.4339355E+01;  4.0000000E+04;  0.0000000E+00;  3.9729129E+04; -2.9918441E-01;  0.0000000E+00;  2.7793255E-01;  2.2100529E+04;
  1.2531691E+00;  9.9999998E-03; -1.2038168E-01;9164;  8.4905595E-01;  0.0000000E+00;  3.1113850E-03;  9.9708038E+02;  1.1119040E-01; -2.3584880E+03;3;  2.9244890E+01;  0.0000000E+00; -1.5663527E+01;0; -4.8524853E-02;  3.2348031E+04;  0.0000000E+00; -2.8077629E-01;  4.0000000E+04;  0.0000000E+00;  3.9760777E+04; -1.0651834E-01;  0.0000000E+00;  5.7993483E-02;  6.6218633E+03;
  1.2532809E+00;  9.9999998E-03; -1.1033319E-01;9165;  8.4574884E-01;  0.0000000E+00;  2.9701646E-03;  9.9664819E+02;  1.1119287E-01; -2.7075073E+03;3;  3.1579214E+01;  0.0000000E+00; -1.4498940E+01;0; -4.1805398E-02;  3.2316594E+04;  0.0000000E+00; -1.3090754E-01;  4.0000000E+04;  0.0000000E+00;  3.9764172E+04; -8.2410194E-02;  0.0000000E+00;  4.0604796E-02;  7.0387456E+03;
  1.2529088E+00;  9.9999998E-03; -1.4044291E-01;9162;  8.5585099E-01;  0.0000000E+00;  2.9960829E-03;  9.9800903E+02;  1.1118828E-01; -1.6084773E+03;3;  2.5805573E+01;  0.0000000E+00; -1.8383606E+01;0; -5.3942762E-02;  3.2416422E+04;  0.0000000E+00; -3.8960785E-01;  4.0000000E+04;  0.0000000E+00;  3.9751934E+04; -1.5475096E-01;  0.0000000E+00;  1.0080820E-01;  5.5502324E+03;
  1.2530470E+00;  9.9999998E-03; -1.3041830E-01;9163;  8.5241038E-01;  0.0000000E+00;  3.1354225E-03;  9.9754816E+02;  1.1118906E-01; -1.9807020E+03;3;  2.7196091E+01;  0.0000000E+00; -1.7027504E+01;0; -5.2530251E-02;  3.2381969E+04;  0.0000000E+00; -4.0474236E-01;  4.0000000E+04;  0.0000000E+00;  3.9756836E+04; -1.3068770E-01;  0.0000000E+00;  7.8157447E-02;  6.1350718E+03;
  1.2527726E+00;  9.9999998E-03; -1.5045476E-01;9161;  8.5939664E-01;  0.0000000E+00;  2.6293718E-03;  9.9843494E+02;  1.1118742E-01; -1.2644336E+03;3;  2.4963381E+01;  0.0000000E+00; -1.9889645E+01;0; -5.3336352E-02;  3.2449734E+04;  0.0000000E+00; -6.3827112E-02;  4.0000000E+04;  0.0000000E+00;  3.9746094E+04; -1.7864895E-01;  0.0000000E+00;  1.2531260E-01;  4.8882817E+03;
  1.2526548E+00;  9.9999998E-03; -1.6045761E-01;9160;  8.6309600E-01;  0.0000000E+00;  1.9349405E-03;  9.9878796E+02;  1.1118475E-01; -9.7929517E+02;3;  2.4590088E+01;  0.0000000E+00; -2.2031437E+01;0; -5.1652938E-02;  3.2479805E+04;  0.0000000E+00;  8.0536306E-01;  4.0000000E+04;  0.0000000E+00;  3.9739398E+04; -2.0247501E-01;  0.0000000E+00;  1.5082207E-01;  4.4817075E+03;
  1.2525673E+00;  9.9999998E-03; -1.7045783E-01;9159;  8.6700940E-01;  0.0000000E+00;  7.7784905E-04;  9.9904364E+02;  1.1118062E-01; -7.7272137E+02;3;  2.4643137E+01;  0.0000000E+00; -2.4504696E+01;0; -4.9995467E-02;  3.2504656E+04;  0.0000000E+00;  2.5022466E+00;  4.0000000E+04;  0.0000000E+00;  3.9732910E+04; -2.2638194E-01;  0.0000000E+00;  1.7638648E-01;  5.4100732E+03;
  1.2525145E+00;  9.9999998E-03; -1.8046220E-01;9158;  8.7122560E-01;  0.0000000E+00; -9.9831773E-04;  9.9918280E+02;  1.1117689E-01; -6.6028125E+02;3;  2.5173119E+01;  0.0000000E+00; -2.7064688E+01;0; -4.9331784E-02;  3.2521580E+04;  0.0000000E+00;  5.2912140E+00;  4.0000000E+04;  0.0000000E+00;  3.9727270E+04; -2.5044882E-01;  0.0000000E+00;  2.0111704E-01;  8.5987998E+03;
  1.2524940E+00;  9.9999998E-03; -1.9047607E-01;9157;  8.7592125E-01;  0.0000000E+00; -3.4451939E-03;  9.9916162E+02;  1.1117125E-01; -6.7743140E+02;3;  2.6316092E+01;  0.0000000E+00; -2.8962904E+01;0; -5.0162703E-02;  3.2527641E+04;  0.0000000E+00;  9.2531080E+00;  4.0000000E+04;  0.0000000E+00;  3.9724031E+04; -2.7451754E-01;  0.0000000E+00;  2.2435483E-01;  1.3822367E+04;
  1.2521695E+00;  9.9999998E-03; -2.4072266E-01;9152;  9.1254282E-01;  0.0000000E+00; -2.0974910E-02;  9.9781909E+02;  1.1118679E-01; -1.7624138E+03;3;  3.3593319E+01;  0.0000000E+00; -2.3910191E+01;0; -5.3282529E-02;  3.2445016E+04;  0.0000000E+00;  2.3062735E+01;  4.0000000E+04;  0.0000000E+00;  3.9715340E+04; -3.5140955E-01;  0.0000000E+00;  2.9812703E-01;  3.3689008E+04;
  1.2524856E+00;  9.9999998E-03; -2.0050497E-01;9156;  8.8134658E-01;  0.0000000E+00; -6.3622999E-03;  9.9898462E+02;  1.1116853E-01; -8.2042358E+02;3;  2.8093445E+01;  0.0000000E+00; -2.9282682E+01;0; -5.2483574E-02;  3.2520838E+04;  0.0000000E+00;  1.4083371E+01;  4.0000000E+04;  0.0000000E+00;  3.9722914E+04; -2.9796621E-01;  0.0000000E+00;  2.4548264E-01;  2.0396408E+04;
  1.2520134E+00;  9.9999998E-03; -2.5077310E-01;9151;  9.2204094E-01;  0.0000000E+00; -2.6756870E-02;  9.9808099E+02;  1.1118715E-01; -1.5508568E+03;3;  3.3311707E+01;  0.0000000E+00; -1.9375937E+01;0; -2.1616727E-02;  3.2463240E+04;  0.0000000E+00;  1.8062784E+01;  4.0000000E+04;  0.0000000E+00;  3.9714000E+04; -3.4337309E-01;  0.0000000E+00;  3.2175636E-01;  2.7473498E+04;
  1.2523061E+00;  9.9999998E-03; -2.3067199E-01;9153;  9.0344208E-01;  0.0000000E+00; -1.6153479E-02;  9.9788135E+02;  1.1117981E-01; -1.7119956E+03;3;  3.3001926E+01;  0.0000000E+00; -2.6168177E+01;0; -6.3724399E-02;  3.2453092E+04;  0.0000000E+00;  2.4501493E+01;  4.0000000E+04;  0.0000000E+00;  3.9715812E+04; -3.4874067E-01;  0.0000000E+00;  2.8501627E-01;  3.5346656E+04;
  1.2524115E+00;  9.9999998E-03; -2.2061081E-01;9154;  8.9512718E-01;  0.0000000E+00; -1.2534965E-02;  9.9823242E+02;  1.1117272E-01; -1.4282544E+03;3;  3.1692604E+01;  0.0000000E+00; -2.7398180E+01;0; -6.1223149E-02;  3.2475732E+04;  0.0000000E+00;  2.2789579E+01;  4.0000000E+04;  0.0000000E+00;  3.9720047E+04; -3.3722124E-01;  0.0000000E+00;  2.7599809E-01;  3.2694559E+04;
  1.2524675E+00;  9.9999998E-03; -2.1055090E-01;9155;  8.8772571E-01;  0.0000000E+00; -9.3441894E-03;  9.9864929E+02;  1.1116801E-01; -1.0913848E+03;3;  2.9982954E+01;  0.0000000E+00; -2.8423969E+01;0; -5.6516677E-02;  3.2501600E+04;  0.0000000E+00;  1.8967308E+01;  4.0000000E+04;  0.0000000E+00;  3.9722535E+04; -3.1951210E-01;  0.0000000E+00;  2.6299542E-01;  2.7191984E+04;
  1.2518350E+00;  9.9999998E-03; -2.6083633E-01;9150;  9.3105602E-01;  0.0000000E+00; -3.0659948E-02;  9.9857690E+02;  1.1118239E-01; -1.1501624E+03;3;  3.2156502E+01;  0.0000000E+00; -1.4170425E+01;0;  2.1487474E-04;  3.2515521E+04;  0.0000000E+00;  1.1226895E+01;  4.0000000E+04;  0.0000000E+00;  3.9696711E+04; -3.2565519E-01;  0.0000000E+00;  3.2587007E-01;  1.8900932E+04;
  1.2517098E+00;  9.9999998E-03; -2.7090296E-01;9149;  9.3875778E-01;  0.0000000E+00; -3.0082788E-02;  9.9896588E+02;  1.1117466E-01; -8.3582721E+02;3;  3.1537336E+01;  0.0000000E+00; -1.1709273E+01;0; -4.2770177E-02;  3.2577771E+04;  0.0000000E+00;  5.1351485E+00;  4.0000000E+04;  0.0000000E+00;  3.9668531E+04; -3.0212602E-01;  0.0000000E+00;  2.5935584E-01;  1.0415505E+04;
  1.2640271E+00;  9.9999998E-03; -1.4046106E-01;9219;  8.5416353E-01;  0.0000000E+00;  6.8795439E-03;  9.9725574E+02;  1.1037547E-01; -2.2073875E+03;3;  2.4116081E+01;  0.0000000E+00; -1.9690332E+01;0; -5.3320244E-02;  3.2864035E+04;  0.0000000E+00; -5.0620690E-02;  4.0000000E+04;  0.0000000E+00;  3.9730809E+04; -1.3256122E-01;  0.0000000E+00;  7.9240978E-02;  4.8587046E+03;
  1.2641370E+00;  9.9999998E-03; -1.3044158E-01;9220;  8.5095483E-01;  0.0000000E+00;  6.8101455E-03;  9.9688257E+02;  1.1037683E-01; -2.5074480E+03;3;  2.5417301E+01;  0.0000000E+00; -1.8445345E+01;0; -4.4397350E-02;  3.2834160E+04;  0.0000000E+00; -2.3875505E-01;  4.0000000E+04;  0.0000000E+00;  3.9736230E+04; -1.0043116E-01;  0.0000000E+00;  5.6033809E-02;  5.4526826E+03;
  1.2638259E+00;  9.9999998E-03; -1.6046700E-01;9217;  8.6081600E-01;  0.0000000E+00;  6.3272910E-03;  9.9787140E+02;  1.1037106E-01; -1.7123202E+03;3;  2.3387314E+01;  0.0000000E+00; -2.1998749E+01;0; -6.4259097E-02;  3.2916602E+04;  0.0000000E+00;  1.9857380E+00;  4.0000000E+04;  0.0000000E+00;  3.9719707E+04; -1.9481906E-01;  0.0000000E+00;  1.3055997E-01;  4.8995854E+03;
  1.2639203E+00;  9.9999998E-03; -1.5046723E-01;9218;  8.5743433E-01;  0.0000000E+00;  6.7360550E-03;  9.9759930E+02;  1.1037380E-01; -1.9311260E+03;3;  2.3558554E+01;  0.0000000E+00; -2.0813755E+01;0; -5.9648648E-02;  3.2892250E+04;  0.0000000E+00;  5.9718221E-01;  4.0000000E+04;  0.0000000E+00;  3.9725070E+04; -1.6399595E-01;  0.0000000E+00;  1.0434730E-01;  4.4266094E+03;
  1.2642455E+00;  9.9999998E-03; -1.2040692E-01;9221;  8.4776443E-01;  0.0000000E+00;  6.5817139E-03;  9.9649915E+02;  1.1037750E-01; -2.8157275E+03;3;  2.7407764E+01;  0.0000000E+00; -1.7180756E+01;0; -3.2395091E-02;  3.2804617E+04;  0.0000000E+00; -1.9252129E-01;  4.0000000E+04;  0.0000000E+00;  3.9741461E+04; -6.7669816E-02;  0.0000000E+00;  3.5274725E-02;  6.0162861E+03;
  1.2643440E+00;  9.9999998E-03; -1.1036191E-01;9222;  8.4455997E-01;  0.0000000E+00;  6.2358105E-03;  9.9615723E+02;  1.1037938E-01; -3.0905793E+03;3;  2.9840487E+01;  0.0000000E+00; -1.5961901E+01;0; -1.7337227E-02;  3.2777684E+04;  0.0000000E+00; -7.0746161E-02;  4.0000000E+04;  0.0000000E+00;  3.9746125E+04; -3.4590453E-02;  0.0000000E+00;  1.7253226E-02;  6.5313726E+03;
  1.2632102E+00;  9.9999998E-03; -2.4077533E-01;9209;  9.0881461E-01;  0.0000000E+00; -1.5689926E-02;  9.9648401E+02;  1.1037483E-01; -2.8291389E+03;3;  3.4783245E+01;  0.0000000E+00; -2.3530687E+01;0; -7.8929335E-02;  3.2830422E+04;  0.0000000E+00;  2.2964417E+01;  4.0000000E+04;  0.0000000E+00;  3.9719746E+04; -3.7226310E-01;  0.0000000E+00;  2.9333377E-01;  3.1709250E+04;
  1.2637497E+00;  9.9999998E-03; -1.7046787E-01;9216;  8.6439109E-01;  0.0000000E+00;  5.5556665E-03;  9.9804706E+02;  1.1036753E-01; -1.5710679E+03;3;  2.3712305E+01;  0.0000000E+00; -2.3497011E+01;0; -6.8263054E-02;  3.2934285E+04;  0.0000000E+00;  4.4181700E+00;  4.0000000E+04;  0.0000000E+00;  3.9715566E+04; -2.2519895E-01;  0.0000000E+00;  1.5693590E-01;  7.2841558E+03;
  1.2630482E+00;  9.9999998E-03; -2.5082609E-01;9208;  9.1817570E-01;  0.0000000E+00; -2.2100372E-02;  9.9679620E+02;  1.1037341E-01; -2.5780967E+03;3;  3.4732437E+01;  0.0000000E+00; -1.9473057E+01;0; -3.4458667E-02;  3.2853570E+04;  0.0000000E+00;  1.5496903E+01;  4.0000000E+04;  0.0000000E+00;  3.9718309E+04; -3.6151138E-01;  0.0000000E+00;  3.2705271E-01;  2.2945672E+04;
  1.2633231E+00;  9.9999998E-03; -2.3072563E-01;9210;  8.9996213E-01;  0.0000000E+00; -1.0561120E-02;  9.9658673E+02;  1.1037172E-01; -2.7463250E+03;3;  3.3901886E+01;  0.0000000E+00; -2.5697960E+01;0; -9.5234513E-02;  3.2841395E+04;  0.0000000E+00;  2.7516254E+01;  4.0000000E+04;  0.0000000E+00;  3.9717508E+04; -3.7019002E-01;  0.0000000E+00;  2.7495551E-01;  3.7005719E+04;
  1.2636919E+00;  9.9999998E-03; -1.8047586E-01;9215;  8.6831266E-01;  0.0000000E+00;  4.2414446E-03;  9.9810126E+02;  1.1036389E-01; -1.5275190E+03;3;  2.4773783E+01;  0.0000000E+00; -2.5622246E+01;0; -7.2680742E-02;  3.2942695E+04;  0.0000000E+00;  8.1102762E+00;  4.0000000E+04;  0.0000000E+00;  3.9714078E+04; -2.5521547E-01;  0.0000000E+00;  1.8253472E-01;  1.1754720E+04;
  1.2634192E+00;  9.9999998E-03; -2.2066022E-01;9211;  8.9173770E-01;  0.0000000E+00; -6.5216562E-03;  9.9698950E+02;  1.1036588E-01; -2.4221738E+03;3;  3.2379639E+01;  0.0000000E+00; -2.6669334E+01;0; -9.5994294E-02;  3.2868375E+04;  0.0000000E+00;  2.7589434E+01;  4.0000000E+04;  0.0000000E+00;  3.9720688E+04; -3.5785887E-01;  0.0000000E+00;  2.6186457E-01;  3.6823613E+04;
  1.2636437E+00;  9.9999998E-03; -1.9049603E-01;9214;  8.7280869E-01;  0.0000000E+00;  2.3184044E-03;  9.9801666E+02;  1.1036032E-01; -1.5955934E+03;3;  2.6371973E+01;  0.0000000E+00; -2.7054752E+01;0; -7.8071311E-02;  3.2939227E+04;  0.0000000E+00;  1.3010769E+01;  4.0000000E+04;  0.0000000E+00;  3.9715445E+04; -2.8463027E-01;  0.0000000E+00;  2.0655896E-01;  1.7942830E+04;
  1.2635118E+00;  9.9999998E-03; -2.1058905E-01;9212;  8.8439852E-01;  0.0000000E+00; -3.0509550E-03;  9.9743518E+02;  1.1036080E-01; -2.0635249E+03;3;  3.0445869E+01;  0.0000000E+00; -2.7303205E+01;0; -9.1214299E-02;  3.2898160E+04;  0.0000000E+00;  2.4015808E+01;  4.0000000E+04;  0.0000000E+00;  3.9722582E+04; -3.3782178E-01;  0.0000000E+00;  2.4660748E-01;  3.2090744E+04;
  1.2635870E+00;  9.9999998E-03; -2.0053282E-01;9213;  8.7811249E-01;  0.0000000E+00; -9.7294862E-05;  9.9778967E+02;  1.1035925E-01; -1.7782360E+03;3;  2.8369623E+01;  0.0000000E+00; -2.7537563E+01;0; -8.4568635E-02;  3.2923523E+04;  0.0000000E+00;  1.8646362E+01;  4.0000000E+04;  0.0000000E+00;  3.9719312E+04; -3.1266356E-01;  0.0000000E+00;  2.2809492E-01;  2.5145014E+04;
  1.2628580E+00;  9.9999998E-03; -2.6088816E-01;9207;  9.2723364E-01;  0.0000000E+00; -2.6802367E-02;  9.9735040E+02;  1.1036929E-01; -2.1322993E+03;3;  3.3670483E+01;  0.0000000E+00; -1.4148368E+01;0;  4.5768321E-03;  3.2912105E+04;  0.0000000E+00;  7.6769056E+00;  4.0000000E+04;  0.0000000E+00;  3.9699973E+04; -3.3919102E-01;  0.0000000E+00;  3.4376785E-01;  1.3305125E+04;
  1.2627013E+00;  9.9999998E-03; -2.7095342E-01;9206;  9.3508357E-01;  0.0000000E+00; -2.6628830E-02;  9.9778674E+02;  1.1036552E-01; -1.7812455E+03;3;  3.2743484E+01;  0.0000000E+00; -1.0788296E+01;0; -2.6661307E-02;  3.2977977E+04;  0.0000000E+00;  3.6312008E+00;  4.0000000E+04;  0.0000000E+00;  3.9669496E+04; -3.1020218E-01;  0.0000000E+00;  2.8354087E-01;  6.1881216E+03;
  1.2753739E+00;  9.9999998E-03; -1.1037198E-01;9279;  8.4360641E-01;  0.0000000E+00;  9.4372090E-03;  9.9581976E+02;  1.0965287E-01; -3.3450374E+03;3;  2.8174047E+01;  0.0000000E+00; -1.7254332E+01;0;  1.9910671E-02;  3.3210402E+04;  0.0000000E+00; -6.2257569E-02;  4.0000000E+04;  0.0000000E+00;  3.9723574E+04;  2.3211023E-02;  0.0000000E+00; -3.3003513E-03;  5.8485508E+03;
  1.2753024E+00;  9.9999998E-03; -1.2040853E-01;9278;  8.4667772E-01;  0.0000000E+00;  9.9657560E-03;  9.9609082E+02;  1.0965153E-01; -3.1282280E+03;3;  2.5428862E+01;  0.0000000E+00; -1.8503414E+01;0; -5.2317539E-03;  3.3233738E+04;  0.0000000E+00; -1.0097554E-01;  4.0000000E+04;  0.0000000E+00;  3.9717867E+04; -2.0311764E-02;  0.0000000E+00;  1.5080010E-02;  5.2681021E+03;
  1.2752178E+00;  9.9999998E-03; -1.3043782E-01;9277;  8.4966731E-01;  0.0000000E+00;  1.0368364E-02;  9.9638074E+02;  1.0965064E-01; -2.8963489E+03;3;  2.3634140E+01;  0.0000000E+00; -1.9642733E+01;0; -2.6942719E-02;  3.3258562E+04;  0.0000000E+00;  3.3101853E-02;  4.0000000E+04;  0.0000000E+00;  3.9712043E+04; -6.3013315E-02;  0.0000000E+00;  3.6070596E-02;  4.6923774E+03;
  1.2751287E+00;  9.9999998E-03; -1.4045221E-01;9276;  8.5259736E-01;  0.0000000E+00;  1.0603569E-02;  9.9666730E+02;  1.0964991E-01; -2.6671279E+03;3;  2.2482990E+01;  0.0000000E+00; -2.0697260E+01;0; -4.5012090E-02;  3.3282797E+04;  0.0000000E+00;  5.4829949E-01;  4.0000000E+04;  0.0000000E+00;  3.9706453E+04; -1.0442367E-01;  0.0000000E+00;  5.9411582E-02;  4.2713887E+03;
  1.2750413E+00;  9.9999998E-03; -1.5045571E-01;9275;  8.5553670E-01;  0.0000000E+00;  1.0614862E-02;  9.9690302E+02;  1.0964715E-01; -2.4786230E+03;3;  2.2152988E+01;  0.0000000E+00; -2.1667677E+01;0; -5.9812121E-02;  3.3303965E+04;  0.0000000E+00;  1.7220857E+00;  4.0000000E+04;  0.0000000E+00;  3.9702016E+04; -1.4443175E-01;  0.0000000E+00;  8.4619634E-02;  4.5470688E+03;
  1.2749612E+00;  9.9999998E-03; -1.6045628E-01;9274;  8.5856265E-01;  0.0000000E+00;  1.0365906E-02;  9.9707166E+02;  1.0964482E-01; -2.3437144E+03;3;  2.2340698E+01;  0.0000000E+00; -2.2505171E+01;0; -7.2156824E-02;  3.3319309E+04;  0.0000000E+00;  3.8623166E+00;  4.0000000E+04;  0.0000000E+00;  3.9699238E+04; -1.8312979E-01;  0.0000000E+00;  1.1097296E-01;  6.3971387E+03;
  1.2748859E+00;  9.9999998E-03; -1.7046155E-01;9273;  8.6179394E-01;  0.0000000E+00;  9.8077469E-03;  9.9713269E+02;  1.0964063E-01; -2.2949490E+03;3;  2.3027100E+01;  0.0000000E+00; -2.3229769E+01;0; -8.3133385E-02;  3.3326324E+04;  0.0000000E+00;  7.2370453E+00;  4.0000000E+04;  0.0000000E+00;  3.9699527E+04; -2.2070780E-01;  0.0000000E+00;  1.3757442E-01;  1.0173859E+04;
  1.2748088E+00;  9.9999998E-03; -1.8047838E-01;9272;  8.6541104E-01;  0.0000000E+00;  8.8997222E-03;  9.9708301E+02;  1.0963766E-01; -2.3348250E+03;3;  2.4374332E+01;  0.0000000E+00; -2.3943359E+01;0; -9.3896598E-02;  3.3322652E+04;  0.0000000E+00;  1.1943686E+01;  4.0000000E+04;  0.0000000E+00;  3.9703324E+04; -2.5724524E-01;  0.0000000E+00;  1.6334864E-01;  1.5727931E+04;
  1.2741786E+00;  9.9999998E-03; -2.4084067E-01;9266;  9.0446436E-01;  0.0000000E+00; -1.0745880E-02;  9.9514563E+02;  1.0964956E-01; -3.8867495E+03;3;  3.5949841E+01;  0.0000000E+00; -2.3263866E+01;0; -1.0673186E-01;  3.3174613E+04;  0.0000000E+00;  2.0237156E+01;  4.0000000E+04;  0.0000000E+00;  3.9721398E+04; -3.8994658E-01;  0.0000000E+00;  2.8321472E-01;  2.7188955E+04;
  1.2743071E+00;  9.9999998E-03; -2.3079255E-01;9267;  8.9597750E-01;  0.0000000E+00; -5.4875044E-03;  9.9518463E+02;  1.0964878E-01; -3.8552495E+03;3;  3.4766361E+01;  0.0000000E+00; -2.4973230E+01;0; -1.2780467E-01;  3.3181215E+04;  0.0000000E+00;  2.7736496E+01;  4.0000000E+04;  0.0000000E+00;  3.9717383E+04; -3.8893971E-01;  0.0000000E+00;  2.6113504E-01;  3.5293027E+04;
  1.2743971E+00;  9.9999998E-03; -2.2072752E-01;9268;  8.8804102E-01;  0.0000000E+00; -1.3711961E-03;  9.9563904E+02;  1.0964557E-01; -3.4913225E+03;3;  3.3042740E+01;  0.0000000E+00; -2.5674629E+01;0; -1.3035634E-01;  3.3212766E+04;  0.0000000E+00;  3.0957165E+01;  4.0000000E+04;  0.0000000E+00;  3.9718914E+04; -3.7614119E-01;  0.0000000E+00;  2.4578485E-01;  3.8679043E+04;
  1.2747190E+00;  9.9999998E-03; -1.9051182E-01;9271;  8.6964780E-01;  0.0000000E+00;  7.4633616E-03;  9.9691223E+02;  1.0963651E-01; -2.4716196E+03;3;  2.6293789E+01;  0.0000000E+00; -2.4989326E+01;0; -1.0514759E-01;  3.3307148E+04;  0.0000000E+00;  1.7751017E+01;  4.0000000E+04;  0.0000000E+00;  3.9710562E+04; -2.9243419E-01;  0.0000000E+00;  1.8728660E-01;  2.2650561E+04;
  1.2744999E+00;  9.9999998E-03; -2.1064378E-01;9269;  8.8085788E-01;  0.0000000E+00;  2.2028929E-03;  9.9618811E+02;  1.0964110E-01; -3.0515869E+03;3;  3.0858528E+01;  0.0000000E+00; -2.6014606E+01;0; -1.2534626E-01;  3.3248641E+04;  0.0000000E+00;  2.9047150E+01;  4.0000000E+04;  0.0000000E+00;  3.9722395E+04; -3.5409385E-01;  0.0000000E+00;  2.2874759E-01;  3.6225836E+04;
  1.2746142E+00;  9.9999998E-03; -2.0056678E-01;9270;  8.7473363E-01;  0.0000000E+00;  5.2450905E-03;  9.9661725E+02;  1.0963745E-01; -2.7078801E+03;3;  2.8534986E+01;  0.0000000E+00; -2.5839542E+01;0; -1.1628789E-01;  3.3281426E+04;  0.0000000E+00;  2.3920498E+01;  4.0000000E+04;  0.0000000E+00;  3.9718801E+04; -3.2532439E-01;  0.0000000E+00;  2.0903650E-01;  3.0039477E+04;
  1.2739877E+00;  9.9999998E-03; -2.5089175E-01;9265;  9.1356790E-01;  0.0000000E+00; -1.7274991E-02;  9.9560059E+02;  1.0964776E-01; -3.5228015E+03;3;  3.6162830E+01;  0.0000000E+00; -1.9605267E+01;0; -5.4754794E-02;  3.3210105E+04;  0.0000000E+00;  1.1387998E+01;  4.0000000E+04;  0.0000000E+00;  3.9718227E+04; -3.7611857E-01;  0.0000000E+00;  3.2136378E-01;  1.7513969E+04;
  1.2737871E+00;  9.9999998E-03; -2.6095045E-01;9264;  9.2255241E-01;  0.0000000E+00; -2.2215212E-02;  9.9622668E+02;  1.0964546E-01; -3.0217603E+03;3;  3.5268459E+01;  0.0000000E+00; -1.4687616E+01;0; -6.7353249E-03;  3.3274465E+04;  0.0000000E+00;  3.9558146E+00;  4.0000000E+04;  0.0000000E+00;  3.9699535E+04; -3.4900978E-01;  0.0000000E+00;  3.4227446E-01;  8.4502490E+03;
  1.2735842E+00;  9.9999998E-03; -2.7101082E-01;9263;  9.3060970E-01;  0.0000000E+00; -2.2909703E-02;  9.9684473E+02;  1.0964541E-01; -2.5270681E+03;3;  3.4323826E+01;  0.0000000E+00; -1.1075828E+01;0; -1.9292325E-02;  3.3348742E+04;  0.0000000E+00;  3.8516917E+00;  4.0000000E+04;  0.0000000E+00;  3.9669660E+04; -3.1387153E-01;  0.0000000E+00;  2.9457921E-01;  4.0099500E+03;
  1.2863535E+00;  9.9999998E-03; -1.1036921E-01;9335;  8.4284562E-01;  0.0000000E+00;  1.2532918E-02;  9.9570605E+02;  1.0900835E-01; -3.4159954E+03;3;  2.6893627E+01;  0.0000000E+00; -1.8171986E+01;0;  6.8940803E-02;  3.3620449E+04;  0.0000000E+00; -7.0269398E-02;  4.0000000E+04;  0.0000000E+00;  3.9696840E+04;  8.9842319E-02;  0.0000000E+00; -2.0901518E-02;  5.0071416E+03;
  1.2863071E+00;  9.9999998E-03; -1.2039369E-01;9334;  8.4577358E-01;  0.0000000E+00;  1.3204547E-02;  9.9590601E+02;  1.0900691E-01; -3.2570417E+03;3;  2.3591936E+01;  0.0000000E+00; -1.9443548E+01;0;  3.2186333E-02;  3.3640234E+04;  0.0000000E+00;  5.7514664E-02;  4.0000000E+04;  0.0000000E+00;  3.9690289E+04;  3.4747042E-02;  0.0000000E+00; -2.5607077E-03;  4.4306899E+03;
  1.2862482E+00;  9.9999998E-03; -1.3041511E-01;9333;  8.4852839E-01;  0.0000000E+00;  1.3749843E-02;  9.9610858E+02;  1.0900551E-01; -3.0959675E+03;3;  2.1945755E+01;  0.0000000E+00; -2.0239590E+01;0; -7.3685683E-04;  3.3659867E+04;  0.0000000E+00;  5.0998276E-01;  4.0000000E+04;  0.0000000E+00;  3.9684629E+04; -1.8886812E-02;  0.0000000E+00;  1.8149955E-02;  4.0047683E+03;
  1.2861834E+00;  9.9999998E-03; -1.4042649E-01;9332;  8.5113394E-01;  0.0000000E+00;  1.4107743E-02;  9.9628467E+02;  1.0900311E-01; -2.9559954E+03;3;  2.0886101E+01;  0.0000000E+00; -2.1189337E+01;0; -2.9439099E-02;  3.3676680E+04;  0.0000000E+00;  1.5445105E+00;  4.0000000E+04;  0.0000000E+00;  3.9680312E+04; -7.0463799E-02;  0.0000000E+00;  4.1024700E-02;  4.1667441E+03;
  1.2861160E+00;  9.9999998E-03; -1.5043133E-01;9331;  8.5369718E-01;  0.0000000E+00;  1.4241139E-02;  9.9640076E+02;  1.0900068E-01; -2.8637258E+03;3;  2.0813993E+01;  0.0000000E+00; -2.1964643E+01;0; -5.4182380E-02;  3.3688227E+04;  0.0000000E+00;  3.4698930E+00;  4.0000000E+04;  0.0000000E+00;  3.9678438E+04; -1.1984161E-01;  0.0000000E+00;  6.5659232E-02;  5.6662910E+03;
  1.2860466E+00;  9.9999998E-03; -1.6043678E-01;9330;  8.5633063E-01;  0.0000000E+00;  1.4104933E-02;  9.9643225E+02;  1.0899755E-01; -2.8387979E+03;3;  2.1394175E+01;  0.0000000E+00; -2.2505117E+01;0; -7.5712636E-02;  3.3691281E+04;  0.0000000E+00;  6.5727444E+00;  4.0000000E+04;  0.0000000E+00;  3.9680129E+04; -1.6714033E-01;  0.0000000E+00;  9.1427699E-02;  8.8962119E+03;
  1.2859633E+00;  9.9999998E-03; -1.7045254E-01;9329;  8.5920185E-01;  0.0000000E+00;  1.3699709E-02;  9.9636273E+02;  1.0899561E-01; -2.8942339E+03;3;  2.2466063E+01;  0.0000000E+00; -2.2854517E+01;0; -9.5095180E-02;  3.3683895E+04;  0.0000000E+00;  1.1009023E+01;  4.0000000E+04;  0.0000000E+00;  3.9686121E+04; -2.1256864E-01;  0.0000000E+00;  1.1747346E-01;  1.3806455E+04;
  1.2858518E+00;  9.9999998E-03; -1.8048565E-01;9328;  8.6249453E-01;  0.0000000E+00;  1.2961296E-02;  9.9619049E+02;  1.0899386E-01; -3.0314949E+03;3;  2.4078640E+01;  0.0000000E+00; -2.3017220E+01;0; -1.1342148E-01;  3.3665238E+04;  0.0000000E+00;  1.6703400E+01;  4.0000000E+04;  0.0000000E+00;  3.9696438E+04; -2.5617841E-01;  0.0000000E+00;  1.4275692E-01;  2.0172623E+04;
  1.2857152E+00;  9.9999998E-03; -1.9054027E-01;9327;  8.6640882E-01;  0.0000000E+00;  1.1683002E-02;  9.9592377E+02;  1.0899525E-01; -3.2440024E+03;3;  2.6137205E+01;  0.0000000E+00; -2.3341627E+01;0; -1.3124168E-01;  3.3636840E+04;  0.0000000E+00;  2.3179523E+01;  4.0000000E+04;  0.0000000E+00;  3.9709234E+04; -2.9758033E-01;  0.0000000E+00;  1.6633865E-01;  2.7425744E+04;
  1.2855650E+00;  9.9999998E-03; -2.0062236E-01;9326;  8.7120205E-01;  0.0000000E+00;  9.5332321E-03;  9.9552209E+02;  1.0899764E-01; -3.5639714E+03;3;  2.8659681E+01;  0.0000000E+00; -2.3973206E+01;0; -1.4737831E-01;  3.3601422E+04;  0.0000000E+00;  2.9313019E+01;  4.0000000E+04;  0.0000000E+00;  3.9718590E+04; -3.3560014E-01;  0.0000000E+00;  1.8822183E-01;  3.4301355E+04;
  1.2854241E+00;  9.9999998E-03; -2.1072109E-01;9325;  8.7710917E-01;  0.0000000E+00;  6.4541269E-03;  9.9497186E+02;  1.0900138E-01; -4.0022019E+03;3;  3.1237804E+01;  0.0000000E+00; -2.4517292E+01;0; -1.5884911E-01;  3.3561766E+04;  0.0000000E+00;  3.3142281E+01;  4.0000000E+04;  0.0000000E+00;  3.9719141E+04; -3.6786371E-01;  0.0000000E+00;  2.0901461E-01;  3.8658457E+04;
  1.2853129E+00;  9.9999998E-03; -2.2080922E-01;9324;  8.8399088E-01;  0.0000000E+00;  2.9299622E-03;  9.9434961E+02;  1.0900529E-01; -4.4977900E+03;3;  3.3641586E+01;  0.0000000E+00; -2.4315823E+01;0; -1.6434331E-01;  3.3520930E+04;  0.0000000E+00;  3.2196651E+01;  4.0000000E+04;  0.0000000E+00;  3.9714637E+04; -3.9166543E-01;  0.0000000E+00;  2.2732212E-01;  3.7933328E+04;
  1.2851973E+00;  9.9999998E-03; -2.3086947E-01;9323;  8.9152431E-01;  0.0000000E+00; -1.2838652E-03;  9.9398474E+02;  1.0900699E-01; -4.7885186E+03;3;  3.5616539E+01;  0.0000000E+00; -2.3946215E+01;0; -1.5891676E-01;  3.3493473E+04;  0.0000000E+00;  2.5879198E+01;  4.0000000E+04;  0.0000000E+00;  3.9716160E+04; -4.0459687E-01;  0.0000000E+00;  2.4568011E-01;  3.1662488E+04;
  1.2850230E+00;  9.9999998E-03; -2.4091789E-01;9322;  8.9970893E-01;  0.0000000E+00; -6.6482350E-03;  9.9417181E+02;  1.0900663E-01; -4.6400776E+03;3;  3.7040993E+01;  0.0000000E+00; -2.2490116E+01;0; -1.3129133E-01;  3.3504035E+04;  0.0000000E+00;  1.6689924E+01;  4.0000000E+04;  0.0000000E+00;  3.9719352E+04; -4.0365723E-01;  0.0000000E+00;  2.7236590E-01;  2.2532834E+04;
  1.2848023E+00;  9.9999998E-03; -2.5096914E-01;9321;  9.0843260E-01;  0.0000000E+00; -1.2530533E-02;  9.9483374E+02;  1.0900534E-01; -4.1135649E+03;3;  3.7545837E+01;  0.0000000E+00; -1.9702627E+01;0; -8.0753595E-02;  3.3557793E+04;  0.0000000E+00;  7.5626783E+00;  4.0000000E+04;  0.0000000E+00;  3.9712625E+04; -3.8682750E-01;  0.0000000E+00;  3.0607390E-01;  1.3260329E+04;
  1.2845933E+00;  9.9999998E-03; -2.6102388E-01;9320;  9.1717541E-01;  0.0000000E+00; -1.6846171E-02;  9.9551978E+02;  1.0900508E-01; -3.5677686E+03;3;  3.6998249E+01;  0.0000000E+00; -1.6072062E+01;0; -3.7218988E-02;  3.3627523E+04;  0.0000000E+00;  2.0025141E+00;  4.0000000E+04;  0.0000000E+00;  3.9692777E+04; -3.5562408E-01;  0.0000000E+00;  3.1840509E-01;  6.2010405E+03;
  1.2843260E+00;  9.9999998E-03; -2.7107826E-01;9319;  9.2544872E-01;  0.0000000E+00; -1.8008685E-02;  9.9651154E+02;  1.0900756E-01; -2.7784089E+03;3;  3.6274109E+01;  0.0000000E+00; -1.3089763E+01;0; -3.7367493E-02;  3.3721305E+04;  0.0000000E+00;  5.8222089E+00;  4.0000000E+04;  0.0000000E+00;  3.9662617E+04; -3.1423563E-01;  0.0000000E+00;  2.7686813E-01;  3.7771179E+03;
  1.2972765E+00;  9.9999998E-03; -1.1035915E-01;9390;  8.4222722E-01;  0.0000000E+00;  1.5419411E-02;  9.9580396E+02;  1.0843867E-01; -3.3158208E+03;3;  2.5745972E+01;  0.0000000E+00; -1.8556833E+01;0;  1.2762447E-01;  3.4008617E+04;  0.0000000E+00; -3.0225493E-02;  4.0000000E+04;  0.0000000E+00;  3.9666027E+04;  1.6329189E-01;  0.0000000E+00; -3.5667419E-02;  4.0790244E+03;
  1.2972325E+00;  9.9999998E-03; -1.2037847E-01;9389;  8.4502465E-01;  0.0000000E+00;  1.6200205E-02;  9.9593707E+02;  1.0843756E-01; -3.2107371E+03;3;  2.2288925E+01;  0.0000000E+00; -1.9353821E+01;0;  7.8006901E-02;  3.4024148E+04;  0.0000000E+00;  3.8844544E-01;  4.0000000E+04;  0.0000000E+00;  3.9659820E+04;  9.5917515E-02;  0.0000000E+00; -1.7910615E-02;  3.6432141E+03;
  1.2971795E+00;  9.9999998E-03; -1.3039909E-01;9388;  8.4752232E-01;  0.0000000E+00;  1.6847588E-02;  9.9604608E+02;  1.0843542E-01; -3.1246960E+03;3;  2.0432167E+01;  0.0000000E+00; -2.0035891E+01;0;  3.2638092E-02;  3.4037238E+04;  0.0000000E+00;  1.3418354E+00;  4.0000000E+04;  0.0000000E+00;  3.9655371E+04;  3.0755362E-02;  0.0000000E+00;  1.8827311E-03;  3.7081130E+03;
  1.2971219E+00;  9.9999998E-03; -1.4041510E-01;9387;  8.4977704E-01;  0.0000000E+00;  1.7296817E-02;  9.9611053E+02;  1.0843293E-01; -3.0738455E+03;3;  1.9410067E+01;  0.0000000E+00; -2.0911337E+01;0; -7.9349987E-03;  3.4045152E+04;  0.0000000E+00;  3.1241524E+00;  4.0000000E+04;  0.0000000E+00;  3.9653496E+04; -3.1520002E-02;  0.0000000E+00;  2.3585003E-02;  4.9451973E+03;
  1.2970587E+00;  9.9999998E-03; -1.5042751E-01;9386;  8.5192990E-01;  0.0000000E+00;  1.7511979E-02;  9.9609857E+02;  1.0843015E-01; -3.0834419E+03;3;  1.9554808E+01;  0.0000000E+00; -2.1495234E+01;0; -4.3876987E-02;  3.4044805E+04;  0.0000000E+00;  6.0327144E+00;  4.0000000E+04;  0.0000000E+00;  3.9655434E+04; -9.0756975E-02;  0.0000000E+00;  4.6879988E-02;  7.7490796E+03;
  1.2969826E+00;  9.9999998E-03; -1.6044408E-01;9385;  8.5415393E-01;  0.0000000E+00;  1.7459344E-02;  9.9599896E+02;  1.0842881E-01; -3.1623171E+03;3;  2.0497110E+01;  0.0000000E+00; -2.1832462E+01;0; -7.5875446E-02;  3.4033816E+04;  0.0000000E+00;  1.0274771E+01;  4.0000000E+04;  0.0000000E+00;  3.9662504E+04; -1.4712891E-01;  0.0000000E+00;  7.1253464E-02;  1.2132326E+04;
  1.2968805E+00;  9.9999998E-03; -1.7047320E-01;9384;  8.5661042E-01;  0.0000000E+00;  1.7111737E-02;  9.9579108E+02;  1.0842723E-01; -3.3268599E+03;3;  2.1925249E+01;  0.0000000E+00; -2.1999519E+01;0; -1.0491479E-01;  3.4010801E+04;  0.0000000E+00;  1.5841126E+01;  4.0000000E+04;  0.0000000E+00;  3.9674879E+04; -2.0086680E-01;  0.0000000E+00;  9.5952012E-02;  1.7955295E+04;
  1.2967384E+00;  9.9999998E-03; -1.8052684E-01;9383;  8.5951006E-01;  0.0000000E+00;  1.6325122E-02;  9.9549200E+02;  1.0842710E-01; -3.5636062E+03;3;  2.3837305E+01;  0.0000000E+00; -2.1961426E+01;0; -1.3175640E-01;  3.3978277E+04;  0.0000000E+00;  2.2414379E+01;  4.0000000E+04;  0.0000000E+00;  3.9690777E+04; -2.5198635E-01;  0.0000000E+00;  1.2022996E-01;  2.4835709E+04;
  1.2965628E+00;  9.9999998E-03; -1.9061309E-01;9382;  8.6308074E-01;  0.0000000E+00;  1.4960969E-02;  9.9511005E+02;  1.0843013E-01; -3.8659795E+03;3;  2.6058983E+01;  0.0000000E+00; -2.1995899E+01;0; -1.5652350E-01;  3.3939352E+04;  0.0000000E+00;  2.9183180E+01;  4.0000000E+04;  0.0000000E+00;  3.9704566E+04; -2.9990926E-01;  0.0000000E+00;  1.4338577E-01;  3.1901959E+04;
  1.2960985E+00;  9.9999998E-03; -2.2091292E-01;9379;  8.7964159E-01;  0.0000000E+00;  6.6816690E-03;  9.9337134E+02;  1.0844035E-01; -5.2421440E+03;3;  3.4208736E+01;  0.0000000E+00; -2.2748011E+01;0; -1.9956268E-01;  3.3817598E+04;  0.0000000E+00;  3.2119667E+01;  4.0000000E+04;  0.0000000E+00;  3.9701391E+04; -4.0375492E-01;  0.0000000E+00;  2.0419224E-01;  3.5718270E+04;
  1.2962321E+00;  9.9999998E-03; -2.1083361E-01;9380;  8.7317699E-01;  0.0000000E+00;  1.0013150E-02;  9.9391962E+02;  1.0843798E-01; -4.8081577E+03;3;  3.1511343E+01;  0.0000000E+00; -2.2780411E+01;0; -1.9278584E-01;  3.3854145E+04;  0.0000000E+00;  3.6020020E+01;  4.0000000E+04;  0.0000000E+00;  3.9704363E+04; -3.7852183E-01;  0.0000000E+00;  1.8573599E-01;  3.9224855E+04;
  1.2963841E+00;  9.9999998E-03; -2.0072460E-01;9381;  8.6759138E-01;  0.0000000E+00;  1.2833462E-02;  9.9457819E+02;  1.0843388E-01; -4.2869585E+03;3;  2.8748438E+01;  0.0000000E+00; -2.2335970E+01;0; -1.7769949E-01;  3.3897441E+04;  0.0000000E+00;  3.4507355E+01;  4.0000000E+04;  0.0000000E+00;  3.9709047E+04; -3.4300244E-01;  0.0000000E+00;  1.6530295E-01;  3.7468945E+04;
  1.2959341E+00;  9.9999998E-03; -2.3096599E-01;9378;  8.8680226E-01;  0.0000000E+00;  2.4321182E-03;  9.9331390E+02;  1.0844091E-01; -5.2881479E+03;3;  3.6396229E+01;  0.0000000E+00; -2.2542950E+01;0; -1.9072245E-01;  3.3809621E+04;  0.0000000E+00;  2.3886944E+01;  4.0000000E+04;  0.0000000E+00;  3.9705195E+04; -4.1607022E-01;  0.0000000E+00;  2.2534777E-01;  2.8123986E+04;
  1.2957230E+00;  9.9999998E-03; -2.4101245E-01;9377;  8.9461249E-01;  0.0000000E+00; -2.4978800E-03;  9.9382806E+02;  1.0843998E-01; -4.8821636E+03;3;  3.8067692E+01;  0.0000000E+00; -2.1483063E+01;0; -1.6213402E-01;  3.3845273E+04;  0.0000000E+00;  1.3767139E+01;  4.0000000E+04;  0.0000000E+00;  3.9706238E+04; -4.1292751E-01;  0.0000000E+00;  2.5079349E-01;  1.8822725E+04;
  1.2954972E+00;  9.9999998E-03; -2.5106093E-01;9376;  9.0293700E-01;  0.0000000E+00; -7.3004938E-03;  9.9464575E+02;  1.0844042E-01; -4.2359458E+03;3;  3.8850674E+01;  0.0000000E+00; -1.9806046E+01;0; -1.2023118E-01;  3.3913328E+04;  0.0000000E+00;  4.7265611E+00;  4.0000000E+04;  0.0000000E+00;  3.9696207E+04; -3.9306244E-01;  0.0000000E+00;  2.7283126E-01;  1.0168953E+04;
  1.2949162E+00;  9.9999998E-03; -2.7116069E-01;9374;  9.2009866E-01;  0.0000000E+00; -1.2037144E-02;  9.9708020E+02;  1.0844323E-01; -2.3108279E+03;3;  3.8099907E+01;  0.0000000E+00; -1.4910321E+01;0; -7.6150790E-02;  3.4126875E+04;  0.0000000E+00;  6.8120270E+00;  4.0000000E+04;  0.0000000E+00;  3.9640547E+04; -3.0897799E-01;  0.0000000E+00;  2.3282720E-01;  2.2934646E+03;
  1.2952586E+00;  9.9999998E-03; -2.6111048E-01;9375;  9.1141826E-01;  0.0000000E+00; -1.0770432E-02;  9.9555701E+02;  1.0844256E-01; -3.5155691E+03;3;  3.8759609E+01;  0.0000000E+00; -1.7520931E+01;0; -8.5610956E-02;  3.3997859E+04;  0.0000000E+00;  2.3267937E+00;  4.0000000E+04;  0.0000000E+00;  3.9674641E+04; -3.5821980E-01;  0.0000000E+00;  2.7260885E-01;  5.2856470E+03;
  1.3081162E+00;  9.9999998E-03; -1.1035565E-01;9444;  8.4168380E-01;  0.0000000E+00;  1.7951557E-02;  9.9605670E+02;  1.0793879E-01; -3.0923486E+03;3;  2.4382963E+01;  0.0000000E+00; -1.7877550E+01;0;  1.9238687E-01;  3.4371871E+04;  0.0000000E+00;  1.6162464E-01;  4.0000000E+04;  0.0000000E+00;  3.9632293E+04;  2.4034159E-01;  0.0000000E+00; -4.7954716E-02;  3.2030510E+03;
  1.3080666E+00;  9.9999998E-03; -1.2037691E-01;9443;  8.4436595E-01;  0.0000000E+00;  1.8809928E-02;  9.9611682E+02;  1.0793696E-01; -3.0453003E+03;3;  2.1648245E+01;  0.0000000E+00; -1.7950777E+01;0;  1.2931594E-01;  3.4381914E+04;  0.0000000E+00;  1.0566566E+00;  4.0000000E+04;  0.0000000E+00;  3.9627621E+04;  1.6084628E-01;  0.0000000E+00; -3.1530343E-02;  3.1926902E+03;
  1.3080091E+00;  9.9999998E-03; -1.3040265E-01;9442;  8.4662467E-01;  0.0000000E+00;  1.9543607E-02;  9.9613879E+02;  1.0793530E-01; -3.0281833E+03;3;  1.9211470E+01;  0.0000000E+00; -1.8759098E+01;0;  7.0776314E-02;  3.4386965E+04;  0.0000000E+00;  2.7473717E+00;  4.0000000E+04;  0.0000000E+00;  3.9625414E+04;  8.4244132E-02;  0.0000000E+00; -1.3467821E-02;  4.2218286E+03;
  1.3079438E+00;  9.9999998E-03; -1.4042856E-01;9441;  8.4850407E-01;  0.0000000E+00;  2.0043297E-02;  9.9608777E+02;  1.0793343E-01; -3.0683489E+03;3;  1.8066353E+01;  0.0000000E+00; -1.9702002E+01;0;  1.7468788E-02;  3.4384215E+04;  0.0000000E+00;  5.5308638E+00;  4.0000000E+04;  0.0000000E+00;  3.9627039E+04;  1.1236864E-02;  0.0000000E+00;  6.2319245E-03;  6.6801104E+03;
  1.3078630E+00;  9.9999998E-03; -1.5045489E-01;9440;  8.5022706E-01;  0.0000000E+00;  2.0307904E-02;  9.9594946E+02;  1.0793113E-01; -3.1770442E+03;3;  1.8446760E+01;  0.0000000E+00; -2.0089884E+01;0; -3.0651130E-02;  3.4371191E+04;  0.0000000E+00;  9.6409321E+00;  4.0000000E+04;  0.0000000E+00;  3.9633793E+04; -5.8016412E-02;  0.0000000E+00;  2.7365282E-02;  1.0601220E+04;
  1.3077581E+00;  9.9999998E-03; -1.6048808E-01;9439;  8.5197735E-01;  0.0000000E+00;  2.0250909E-02;  9.9572748E+02;  1.0793006E-01; -3.3514092E+03;3;  1.9586668E+01;  0.0000000E+00; -2.0380991E+01;0; -7.4123099E-02;  3.4346590E+04;  0.0000000E+00;  1.5157688E+01;  4.0000000E+04;  0.0000000E+00;  3.9646137E+04; -1.2371013E-01;  0.0000000E+00;  4.9587030E-02;  1.5933112E+04;
  1.3076187E+00;  9.9999998E-03; -1.7053929E-01;9438;  8.5397959E-01;  0.0000000E+00;  1.9809384E-02;  9.9542084E+02;  1.0793091E-01; -3.5923372E+03;3;  2.1375135E+01;  0.0000000E+00; -2.0457249E+01;0; -1.1363836E-01;  3.4311578E+04;  0.0000000E+00;  2.1878782E+01;  4.0000000E+04;  0.0000000E+00;  3.9663344E+04; -1.8606767E-01;  0.0000000E+00;  7.2429307E-02;  2.2438137E+04;
  1.3074436E+00;  9.9999998E-03; -1.8061990E-01;9437;  8.5646737E-01;  0.0000000E+00;  1.8871326E-02;  9.9503583E+02;  1.0793222E-01; -3.8948677E+03;3;  2.3574053E+01;  0.0000000E+00; -2.0447523E+01;0; -1.4951733E-01;  3.4270012E+04;  0.0000000E+00;  2.9156324E+01;  4.0000000E+04;  0.0000000E+00;  3.9681020E+04; -2.4493922E-01;  0.0000000E+00;  9.5421903E-02;  2.9476354E+04;
  1.3072544E+00;  9.9999998E-03; -1.9073591E-01;9436;  8.5970360E-01;  0.0000000E+00;  1.7360711E-02;  9.9451868E+02;  1.0793541E-01; -4.3012144E+03;3;  2.6065969E+01;  0.0000000E+00; -2.0436068E+01;0; -1.8124729E-01;  3.4225246E+04;  0.0000000E+00;  3.5541828E+01;  4.0000000E+04;  0.0000000E+00;  3.9690320E+04; -2.9935214E-01;  0.0000000E+00;  1.1810484E-01;  3.5654316E+04;
  1.3070799E+00;  9.9999998E-03; -2.0086427E-01;9435;  8.6391830E-01;  0.0000000E+00;  1.5325829E-02;  9.9384479E+02;  1.0793980E-01; -4.8306499E+03;3;  2.8865599E+01;  0.0000000E+00; -2.0580288E+01;0; -2.0745026E-01;  3.4179602E+04;  0.0000000E+00;  3.8855389E+01;  4.0000000E+04;  0.0000000E+00;  3.9686516E+04; -3.4711218E-01;  0.0000000E+00;  1.3966192E-01;  3.8966496E+04;
  1.3069228E+00;  9.9999998E-03; -2.1096571E-01;9434;  8.6909366E-01;  0.0000000E+00;  1.2888084E-02;  9.9320435E+02;  1.0794313E-01; -5.3339067E+03;3;  3.1839748E+01;  0.0000000E+00; -2.0890205E+01;0; -2.2667615E-01;  3.4139160E+04;  0.0000000E+00;  3.7398132E+01;  4.0000000E+04;  0.0000000E+00;  3.9679656E+04; -3.8544989E-01;  0.0000000E+00;  1.5877374E-01;  3.7924289E+04;
  1.3067503E+00;  9.9999998E-03; -2.2103107E-01;9433;  8.7513107E-01;  0.0000000E+00;  9.7799692E-03;  9.9297705E+02;  1.0794437E-01; -5.5130464E+03;3;  3.4692787E+01;  0.0000000E+00; -2.0937027E+01;0; -2.3417668E-01;  3.4121789E+04;  0.0000000E+00;  3.1261736E+01;  4.0000000E+04;  0.0000000E+00;  3.9679836E+04; -4.1144386E-01;  0.0000000E+00;  1.7726718E-01;  3.2661779E+04;
  1.3065391E+00;  9.9999998E-03; -2.3107781E-01;9432;  8.8190031E-01;  0.0000000E+00;  5.8998233E-03;  9.9337085E+02;  1.0794394E-01; -5.2047231E+03;3;  3.7137917E+01;  0.0000000E+00; -2.0963326E+01;0; -2.2480115E-01;  3.4145961E+04;  0.0000000E+00;  2.1910591E+01;  4.0000000E+04;  0.0000000E+00;  3.9683480E+04; -4.2260799E-01;  0.0000000E+00;  1.9780684E-01;  2.4605352E+04;
  1.3063027E+00;  9.9999998E-03; -2.4112254E-01;9431;  8.8940036E-01;  0.0000000E+00;  1.7818543E-03;  9.9424323E+02;  1.0794389E-01; -4.5205918E+03;3;  3.9041733E+01;  0.0000000E+00; -2.0683756E+01;0; -1.9974187E-01;  3.4211547E+04;  0.0000000E+00;  1.1281589E+01;  4.0000000E+04;  0.0000000E+00;  3.9679746E+04; -4.1650206E-01;  0.0000000E+00;  2.1676019E-01;  1.5282265E+04;
  1.3060670E+00;  9.9999998E-03; -2.5116789E-01;9430;  8.9742386E-01;  0.0000000E+00; -1.7237661E-03;  9.9525708E+02;  1.0794636E-01; -3.7250813E+03;3;  4.0079296E+01;  0.0000000E+00; -1.9666235E+01;0; -1.6994882E-01;  3.4297375E+04;  0.0000000E+00;  3.2542858E+00;  4.0000000E+04;  0.0000000E+00;  3.9664836E+04; -3.9305228E-01;  0.0000000E+00;  2.2310346E-01;  7.3778838E+03;
  1.3057808E+00;  9.9999998E-03; -2.6121283E-01;9429;  9.0608233E-01;  0.0000000E+00; -4.4396454E-03;  9.9655743E+02;  1.0794790E-01; -2.7043696E+03;3;  4.0254406E+01;  0.0000000E+00; -1.8046978E+01;0; -1.3872962E-01;  3.4409582E+04;  0.0000000E+00;  2.8147218E+00;  4.0000000E+04;  0.0000000E+00;  3.9638922E+04; -3.5133669E-01;  0.0000000E+00;  2.1260707E-01;  3.4806875E+03;
  1.3188709E+00;  9.9999998E-03; -1.1036891E-01;9497;  8.4135246E-01;  0.0000000E+00;  1.9917998E-02;  9.9636493E+02;  1.0750175E-01; -2.8259243E+03;3;  1.8156343E+01;  0.0000000E+00; -1.4445507E+01;0;  2.5862819E-01;  3.4705594E+04;  0.0000000E+00;  6.7856485E-01;  4.0000000E+04;  0.0000000E+00;  3.9596512E+04;  3.1696877E-01;  0.0000000E+00; -5.8340568E-02;  2.6346323E+03;
  1.3188138E+00;  9.9999998E-03; -1.2039714E-01;9496;  8.4372026E-01;  0.0000000E+00;  2.0822665E-02;  9.9635071E+02;  1.0749974E-01; -2.8371384E+03;3;  2.0835617E+01;  0.0000000E+00; -1.5431553E+01;0;  1.8225519E-01;  3.4708543E+04;  0.0000000E+00;  2.3091462E+00;  4.0000000E+04;  0.0000000E+00;  3.9594508E+04;  2.2639251E-01;  0.0000000E+00; -4.4137318E-02;  3.5047690E+03;
  1.3187411E+00;  9.9999998E-03; -1.3043085E-01;9495;  8.4574533E-01;  0.0000000E+00;  2.1599617E-02;  9.9628314E+02;  1.0749894E-01; -2.8898687E+03;3;  1.8222191E+01;  0.0000000E+00; -1.6089363E+01;0;  1.1051880E-01;  3.4704125E+04;  0.0000000E+00;  5.0220032E+00;  4.0000000E+04;  0.0000000E+00;  3.9595934E+04;  1.3921723E-01;  0.0000000E+00; -2.8698431E-02;  5.6894717E+03;
  1.3186492E+00;  9.9999998E-03; -1.4046907E-01;9494;  8.4728175E-01;  0.0000000E+00;  2.2170879E-02;  9.9613513E+02;  1.0749760E-01; -3.0051746E+03;3;  1.7016310E+01;  0.0000000E+00; -1.6938168E+01;0;  4.4148453E-02;  3.4690242E+04;  0.0000000E+00;  9.0708017E+00;  4.0000000E+04;  0.0000000E+00;  3.9602051E+04;  5.6043539E-02;  0.0000000E+00; -1.1895085E-02;  9.2225811E+03;
  1.3185304E+00;  9.9999998E-03; -1.5051341E-01;9493;  8.4854317E-01;  0.0000000E+00;  2.2430595E-02;  9.9590643E+02;  1.0749697E-01; -3.1833301E+03;3;  1.7342392E+01;  0.0000000E+00; -1.7560329E+01;0; -1.6678758E-02;  3.4665949E+04;  0.0000000E+00;  1.4582278E+01;  4.0000000E+04;  0.0000000E+00;  3.9613391E+04; -2.2972530E-02;  0.0000000E+00;  6.2937727E-03;  1.4090830E+04;
  1.3183765E+00;  9.9999998E-03; -1.6057159E-01;9492;  8.4978431E-01;  0.0000000E+00;  2.2288945E-02;  9.9561804E+02;  1.0749756E-01; -3.4080256E+03;3;  1.8608931E+01;  0.0000000E+00; -1.8122444E+01;0; -7.2204873E-02;  3.4632629E+04;  0.0000000E+00;  2.1476562E+01;  4.0000000E+04;  0.0000000E+00;  3.9629707E+04; -9.8005444E-02;  0.0000000E+00;  2.5800575E-02;  2.0178814E+04;
  1.3181902E+00;  9.9999998E-03; -1.7065300E-01;9491;  8.5132152E-01;  0.0000000E+00;  2.1667819E-02;  9.9528351E+02;  1.0749955E-01; -3.6688127E+03;3;  2.0732985E+01;  0.0000000E+00; -1.8313480E+01;0; -1.2249853E-01;  3.4593191E+04;  0.0000000E+00;  2.9294086E+01;  4.0000000E+04;  0.0000000E+00;  3.9648113E+04; -1.6903615E-01;  0.0000000E+00;  4.6537615E-02;  2.7070240E+04;
  1.3179938E+00;  9.9999998E-03; -1.8076700E-01;9490;  8.5343212E-01;  0.0000000E+00;  2.0551821E-02;  9.9483392E+02;  1.0750203E-01; -4.0191680E+03;3;  2.3240168E+01;  0.0000000E+00; -1.8445671E+01;0; -1.6729467E-01;  3.4550422E+04;  0.0000000E+00;  3.6767269E+01;  4.0000000E+04;  0.0000000E+00;  3.9660695E+04; -2.3550525E-01;  0.0000000E+00;  6.8210587E-02;  3.3663066E+04;
  1.3178164E+00;  9.9999998E-03; -1.9090472E-01;9489;  8.5636276E-01;  0.0000000E+00;  1.9036394E-02;  9.9417749E+02;  1.0750505E-01; -4.5305962E+03;3;  2.6016577E+01;  0.0000000E+00; -1.8566973E+01;0; -2.0587520E-01;  3.4504629E+04;  0.0000000E+00;  4.1618973E+01;  4.0000000E+04;  0.0000000E+00;  3.9659742E+04; -2.9584804E-01;  0.0000000E+00;  8.9972839E-02;  3.8036621E+04;
  1.3176557E+00;  9.9999998E-03; -2.0102774E-01;9488;  8.6024791E-01;  0.0000000E+00;  1.7307544E-02;  9.9347180E+02;  1.0750820E-01; -5.0803740E+03;3;  2.9033957E+01;  0.0000000E+00; -1.8491081E+01;0; -2.3751709E-01;  3.4461945E+04;  0.0000000E+00;  4.2018223E+01;  4.0000000E+04;  0.0000000E+00;  3.9650031E+04; -3.4747130E-01;  0.0000000E+00;  1.0995420E-01;  3.8661547E+04;
  1.3174827E+00;  9.9999998E-03; -2.1110970E-01;9487;  8.6501628E-01;  0.0000000E+00;  1.5217379E-02;  9.9309662E+02;  1.0750955E-01; -5.3731606E+03;3;  3.2156742E+01;  0.0000000E+00; -1.8800940E+01;0; -2.6010400E-01;  3.4438824E+04;  0.0000000E+00;  3.7862843E+01;  4.0000000E+04;  0.0000000E+00;  3.9645141E+04; -3.8768554E-01;  0.0000000E+00;  1.2758152E-01;  3.5425891E+04;
  1.3172742E+00;  9.9999998E-03; -2.2116129E-01;9486;  8.7062138E-01;  0.0000000E+00;  1.2506179E-02;  9.9337463E+02;  1.0750996E-01; -5.1576514E+03;3;  3.5206619E+01;  0.0000000E+00; -1.9095289E+01;0; -2.6896191E-01;  3.4454656E+04;  0.0000000E+00;  3.0031736E+01;  4.0000000E+04;  0.0000000E+00;  3.9647828E+04; -4.1367081E-01;  0.0000000E+00;  1.4470889E-01;  2.9101934E+04;
  1.3170342E+00;  9.9999998E-03; -2.3120381E-01;9485;  8.7713021E-01;  0.0000000E+00;  9.2144553E-03;  9.9426385E+02;  1.0751055E-01; -4.4663535E+03;3;  3.7846905E+01;  0.0000000E+00; -1.9228346E+01;0; -2.5999784E-01;  3.4516750E+04;  0.0000000E+00;  1.9502972E+01;  4.0000000E+04;  0.0000000E+00;  3.9648191E+04; -4.2219865E-01;  0.0000000E+00;  1.6220081E-01;  2.0499996E+04;
  1.3167893E+00;  9.9999998E-03; -2.4124628E-01;9484;  8.8433909E-01;  0.0000000E+00;  6.2867743E-03;  9.9543347E+02;  1.0751218E-01; -3.5563850E+03;3;  3.9921432E+01;  0.0000000E+00; -1.9219336E+01;0; -2.4328876E-01;  3.4609055E+04;  0.0000000E+00;  8.3603172E+00;  4.0000000E+04;  0.0000000E+00;  3.9638262E+04; -4.1261730E-01;  0.0000000E+00;  1.6932854E-01;  1.0803525E+04;
  1.3165361E+00;  9.9999998E-03; -2.5128755E-01;9483;  8.9246160E-01;  0.0000000E+00;  3.6236991E-03;  9.9668146E+02;  1.0751501E-01; -2.5850029E+03;3;  4.1205135E+01;  0.0000000E+00; -1.8734814E+01;0; -2.1603449E-01;  3.4715000E+04;  0.0000000E+00;  1.6587605E+00;  4.0000000E+04;  0.0000000E+00;  3.9618156E+04; -3.8238633E-01;  0.0000000E+00;  1.6635184E-01;  3.8741960E+03;
  1.3162112E+00;  9.9999998E-03; -2.6132667E-01;9482;  9.0192610E-01;  0.0000000E+00;  8.0852071E-04;  9.9836005E+02;  1.0751298E-01; -1.2778058E+03;3;  4.1664043E+01;  0.0000000E+00; -1.7107302E+01;0; -1.6566800E-01;  3.4854160E+04;  0.0000000E+00;  2.4297726E-01;  4.0000000E+04;  0.0000000E+00;  3.9588723E+04; -3.2693058E-01;  0.0000000E+00;  1.6126259E-01;  4.5950542E+03;
  1.3269424E+00;  9.9999998E-03; -2.5141272E-01;9535;  8.8887411E-01;  0.0000000E+00;  7.2423560E-03;  9.9875543E+02;  1.0713689E-01; -9.6047144E+02;3;  4.2257755E+01;  0.0000000E+00; -1.6576679E+01;0; -2.2460407E-01;  3.5154047E+04;  0.0000000E+00; -1.9457929E+00;  4.0000000E+04;  0.0000000E+00;  3.9561543E+04; -3.5201010E-01;  0.0000000E+00;  1.2740603E-01;  4.4898271E+03;
  1.3272177E+00;  9.9999998E-03; -2.4137692E-01;9536;  8.8001525E-01;  0.0000000E+00;  1.0041103E-02;  9.9726782E+02;  1.0713786E-01; -2.1079771E+03;3;  4.0723110E+01;  0.0000000E+00; -1.7181057E+01;0; -2.7338377E-01;  3.5029133E+04;  0.0000000E+00;  3.8805165E+00;  4.0000000E+04;  0.0000000E+00;  3.9585695E+04; -3.9612925E-01;  0.0000000E+00;  1.2274548E-01;  4.8387773E+03;
  1.3274609E+00;  9.9999998E-03; -2.3133807E-01;9537;  8.7269533E-01;  0.0000000E+00;  1.2401813E-02;  9.9592059E+02;  1.0713451E-01; -3.1467024E+03;3;  3.8477131E+01;  0.0000000E+00; -1.7236555E+01;0; -2.9401952E-01;  3.4919445E+04;  0.0000000E+00;  1.5074571E+01;  4.0000000E+04;  0.0000000E+00;  3.9600977E+04; -4.1294798E-01;  0.0000000E+00;  1.1892846E-01;  1.4654832E+04;
  1.3277099E+00;  9.9999998E-03; -2.2129899E-01;9538;  8.6643726E-01;  0.0000000E+00;  1.4855620E-02;  9.9462628E+02;  1.0713292E-01; -4.1441021E+03;3;  3.5684498E+01;  0.0000000E+00; -1.6933577E+01;0; -3.0063683E-01;  3.4823297E+04;  0.0000000E+00;  2.7173588E+01;  4.0000000E+04;  0.0000000E+00;  3.9605156E+04; -4.0803644E-01;  0.0000000E+00;  1.0739960E-01;  2.4188104E+04;
  1.3279394E+00;  9.9999998E-03; -2.1125869E-01;9539;  8.6109209E-01;  0.0000000E+00;  1.7140437E-02;  9.9378247E+02;  1.0713261E-01; -4.7937842E+03;3;  3.2527225E+01;  0.0000000E+00; -1.6493692E+01;0; -2.9241058E-01;  3.4767676E+04;  0.0000000E+00;  3.6967377E+01;  4.0000000E+04;  0.0000000E+00;  3.9601273E+04; -3.8417768E-01;  0.0000000E+00;  9.1767102E-02;  3.1567117E+04;
  1.3281318E+00;  9.9999998E-03; -2.0119943E-01;9540;  8.5666728E-01;  0.0000000E+00;  1.8887365E-02;  9.9364642E+02;  1.0713225E-01; -4.8977476E+03;3;  2.9231527E+01;  0.0000000E+00; -1.6323048E+01;0; -2.6799256E-01;  3.4759246E+04;  0.0000000E+00;  4.3525661E+01;  4.0000000E+04;  0.0000000E+00;  3.9601512E+04; -3.4362715E-01;  0.0000000E+00;  7.5634584E-02;  3.6454863E+04;
  1.3282899E+00;  9.9999998E-03; -1.9109856E-01;9541;  8.5314703E-01;  0.0000000E+00;  2.0207213E-02;  9.9414465E+02;  1.0713023E-01; -4.5129868E+03;3;  2.5924252E+01;  0.0000000E+00; -1.6217606E+01;0; -2.3111252E-01;  3.4786383E+04;  0.0000000E+00;  4.6295135E+01;  4.0000000E+04;  0.0000000E+00;  3.9612086E+04; -2.8929082E-01;  0.0000000E+00;  5.8178294E-02;  3.8339004E+04;
  1.3284439E+00;  9.9999998E-03; -1.8095751E-01;9542;  8.5050452E-01;  0.0000000E+00;  2.1471191E-02;  9.9486334E+02;  1.0712819E-01; -3.9584956E+03;3;  2.2849766E+01;  0.0000000E+00; -1.5918297E+01;0; -1.8577646E-01;  3.4827539E+04;  0.0000000E+00;  4.4355572E+01;  4.0000000E+04;  0.0000000E+00;  3.9623930E+04; -2.2419569E-01;  0.0000000E+00;  3.8419232E-02;  3.6577688E+04;
  1.3286271E+00;  9.9999998E-03; -1.7081350E-01;9543;  8.4871745E-01;  0.0000000E+00;  2.2612736E-02;  9.9540479E+02;  1.0712521E-01; -3.5406084E+03;3;  1.9972589E+01;  0.0000000E+00; -1.5502916E+01;0; -1.3254465E-01;  3.4867062E+04;  0.0000000E+00;  3.8037163E+01;  4.0000000E+04;  0.0000000E+00;  3.9623125E+04; -1.5093976E-01;  0.0000000E+00;  1.8395105E-02;  3.1486584E+04;
  1.3288438E+00;  9.9999998E-03; -1.6069578E-01;9544;  8.4760189E-01;  0.0000000E+00;  2.3380350E-02;  9.9572028E+02;  1.0712236E-01; -3.2968325E+03;3;  1.7532173E+01;  0.0000000E+00; -1.5014049E+01;0; -7.1842015E-02;  3.4901492E+04;  0.0000000E+00;  2.9549776E+01;  4.0000000E+04;  0.0000000E+00;  3.9610039E+04; -7.1700603E-02;  0.0000000E+00; -1.4141163E-04;  2.4748666E+04;
  1.3290526E+00;  9.9999998E-03; -1.5060581E-01;9545;  8.4685069E-01;  0.0000000E+00;  2.3658581E-02;  9.9597919E+02;  1.0712119E-01; -3.0967458E+03;3;  1.6180128E+01;  0.0000000E+00; -1.4104626E+01;0; -4.4549312E-03;  3.4933977E+04;  0.0000000E+00;  2.1226099E+01;  4.0000000E+04;  0.0000000E+00;  3.9593184E+04;  1.2217915E-02;  0.0000000E+00; -1.6672846E-02;  1.8129559E+04;
  1.3292302E+00;  9.9999998E-03; -1.4053726E-01;9546;  8.4605998E-01;  0.0000000E+00;  2.3451941E-02;  9.9621094E+02;  1.0712009E-01; -2.9177566E+03;3;  1.6044237E+01;  0.0000000E+00; -1.2974411E+01;0;  6.8953961E-02;  3.4962930E+04;  0.0000000E+00;  1.4104062E+01;  4.0000000E+04;  0.0000000E+00;  3.9578098E+04;  1.0029078E-01;  0.0000000E+00; -3.1336822E-02;  1.2442976E+04;
  1.3293715E+00;  9.9999998E-03; -1.3048439E-01;9547;  8.4485471E-01;  0.0000000E+00;  2.2832118E-02;  9.9641144E+02;  1.0712049E-01; -2.7629731E+03;3;  1.7607565E+01;  0.0000000E+00; -1.1630600E+01;0;  1.4800359E-01;  3.4985195E+04;  0.0000000E+00;  8.5196590E+00;  4.0000000E+04;  0.0000000E+00;  3.9567387E+04;  1.9242312E-01;  0.0000000E+00; -4.4419531E-02;  7.9707046E+03;
  1.3294791E+00;  9.9999998E-03; -1.2044138E-01;9548;  8.4310764E-01;  0.0000000E+00;  2.1943972E-02;  9.9656494E+02;  1.0712197E-01; -2.6445227E+03;3;  1.6101149E+01;  0.0000000E+00; -1.0217274E+01;0;  2.3236446E-01;  3.4998918E+04;  0.0000000E+00;  4.4801831E+00;  4.0000000E+04;  0.0000000E+00;  3.9561543E+04;  2.8867286E-01;  0.0000000E+00; -5.6308404E-02;  4.7635928E+03;
  1.3295600E+00;  9.9999998E-03; -1.1040542E-01;9549;  8.4202564E-01;  0.0000000E+00;  2.0872898E-02;  9.9663733E+02;  1.0712209E-01; -2.5885645E+03;3; -5.1704451E-02;  0.0000000E+00; -7.0861392E+00;0;  3.2182899E-01;  3.5004340E+04;  0.0000000E+00;  1.8064677E+00;  4.0000000E+04;  0.0000000E+00;  3.9559887E+04;  3.8914427E-01;  0.0000000E+00; -6.7315273E-02;  2.7988528E+03;
  1.3376272E+00;  9.9999998E-03; -2.4150611E-01;9586;  8.7695199E-01;  0.0000000E+00;  1.2031670E-02;  9.9940588E+02;  1.0681055E-01; -4.5359219E+02;3;  4.1576805E+01;  0.0000000E+00; -1.4329069E+01;0; -2.6601943E-01;  3.5445434E+04;  0.0000000E+00; -2.1143243E+00;  4.0000000E+04;  0.0000000E+00;  3.9528520E+04; -3.6036941E-01;  0.0000000E+00;  9.4349988E-02;  3.1392180E+03;
  1.3378712E+00;  9.9999998E-03; -2.3147246E-01;9587;  8.6900312E-01;  0.0000000E+00;  1.4721932E-02;  9.9799042E+02;  1.0680997E-01; -1.5337925E+03;3;  3.9049007E+01;  0.0000000E+00; -1.4364002E+01;0; -3.1162781E-01;  3.5328367E+04;  0.0000000E+00;  7.4292469E+00;  4.0000000E+04;  0.0000000E+00;  3.9547219E+04; -3.9074805E-01;  0.0000000E+00;  7.9120234E-02;  6.7203325E+03;
  1.3381125E+00;  9.9999998E-03; -2.2143769E-01;9588;  8.6263782E-01;  0.0000000E+00;  1.6800908E-02;  9.9648547E+02;  1.0680690E-01; -2.6817429E+03;3;  3.6150784E+01;  0.0000000E+00; -1.4294366E+01;0; -3.2638469E-01;  3.5213609E+04;  0.0000000E+00;  2.0528929E+01;  4.0000000E+04;  0.0000000E+00;  3.9555211E+04; -3.9344174E-01;  0.0000000E+00;  6.7057043E-02;  1.6834979E+04;
  1.3383539E+00;  9.9999998E-03; -2.1140464E-01;9589;  8.5734254E-01;  0.0000000E+00;  1.8787123E-02;  9.9512488E+02;  1.0680572E-01; -3.7189663E+03;3;  3.2832294E+01;  0.0000000E+00; -1.3914158E+01;0; -3.2356367E-01;  3.5119172E+04;  0.0000000E+00;  3.2454441E+01;  4.0000000E+04;  0.0000000E+00;  3.9552094E+04; -3.7457997E-01;  0.0000000E+00;  5.1016297E-02;  2.5308270E+04;
  1.3385617E+00;  9.9999998E-03; -2.0136443E-01;9590;  8.5321194E-01;  0.0000000E+00;  2.0189736E-02;  9.9438843E+02;  1.0680500E-01; -4.2798169E+03;3;  2.9318521E+01;  0.0000000E+00; -1.3502414E+01;0; -2.9911503E-01;  3.5072293E+04;  0.0000000E+00;  4.1651909E+01;  4.0000000E+04;  0.0000000E+00;  3.9546949E+04; -3.3543944E-01;  0.0000000E+00;  3.6324404E-02;  3.1656266E+04;
  1.3387297E+00;  9.9999998E-03; -1.9129379E-01;9591;  8.5005248E-01;  0.0000000E+00;  2.1084905E-02;  9.9442133E+02;  1.0680518E-01; -4.2539458E+03;3;  2.5790012E+01;  0.0000000E+00; -1.3243961E+01;0; -2.5821829E-01;  3.5070844E+04;  0.0000000E+00;  4.7566261E+01;  4.0000000E+04;  0.0000000E+00;  3.9551902E+04; -2.7999759E-01;  0.0000000E+00;  2.1779304E-02;  3.5640801E+04;
  1.3388689E+00;  9.9999998E-03; -1.8117297E-01;9592;  8.4775490E-01;  0.0000000E+00;  2.1845620E-02;  9.9501544E+02;  1.0680357E-01; -3.8003186E+03;3;  2.2314434E+01;  0.0000000E+00; -1.2854514E+01;0; -2.0603848E-01;  3.5099422E+04;  0.0000000E+00;  4.9543472E+01;  4.0000000E+04;  0.0000000E+00;  3.9568184E+04; -2.1158372E-01;  0.0000000E+00;  5.5452390E-03;  3.6774035E+04;
  1.3390162E+00;  9.9999998E-03; -1.7101774E-01;9593;  8.4628069E-01;  0.0000000E+00;  2.2716127E-02;  9.9567871E+02;  1.0680184E-01; -3.2940916E+03;3;  1.9033127E+01;  0.0000000E+00; -1.2248267E+01;0; -1.4485075E-01;  3.5135270E+04;  0.0000000E+00;  4.6490601E+01;  4.0000000E+04;  0.0000000E+00;  3.9581379E+04; -1.3302130E-01;  0.0000000E+00; -1.1829445E-02;  3.4410438E+04;
  1.3392094E+00;  9.9999998E-03; -1.6086736E-01;9594;  8.4553486E-01;  0.0000000E+00;  2.3494503E-02;  9.9606396E+02;  1.0679886E-01; -2.9998020E+03;3;  1.6239416E+01;  0.0000000E+00; -1.1147902E+01;0; -7.4764013E-02;  3.5164297E+04;  0.0000000E+00;  3.9040359E+01;  4.0000000E+04;  0.0000000E+00;  3.9580488E+04; -4.6866417E-02;  0.0000000E+00; -2.7897596E-02;  2.9052486E+04;
  1.3394454E+00;  9.9999998E-03; -1.5074132E-01;9595;  8.4521592E-01;  0.0000000E+00;  2.3841567E-02;  9.9623718E+02;  1.0679721E-01; -2.8670503E+03;3;  1.4895721E+01;  0.0000000E+00; -9.4119987E+00;0;  3.5304539E-03;  3.5187402E+04;  0.0000000E+00;  2.9785246E+01;  4.0000000E+04;  0.0000000E+00;  3.9568832E+04;  4.4758476E-02;  0.0000000E+00; -4.1228022E-02;  2.2469727E+04;
  1.3396810E+00;  9.9999998E-03; -1.4064275E-01;9596;  8.4480989E-01;  0.0000000E+00;  2.3601472E-02;  9.9637262E+02;  1.0679566E-01; -2.7631057E+03;3;  1.5077379E+01;  0.0000000E+00; -7.7227364E+00;0;  8.8523731E-02;  3.5210113E+04;  0.0000000E+00;  2.0980818E+01;  4.0000000E+04;  0.0000000E+00;  3.9553449E+04;  1.4040920E-01;  0.0000000E+00; -5.1885467E-02;  1.6189991E+04;
  1.3398879E+00;  9.9999998E-03; -1.3056807E-01;9597;  8.4388542E-01;  0.0000000E+00;  2.2924613E-02;  9.9651825E+02;  1.0679497E-01; -2.6515813E+03;3;  1.5044953E+01;  0.0000000E+00; -5.8143115E+00;0;  1.7899720E-01;  3.5232344E+04;  0.0000000E+00;  1.3616681E+01;  4.0000000E+04;  0.0000000E+00;  3.9539238E+04;  2.3966356E-01;  0.0000000E+00; -6.0666356E-02;  1.0903675E+04;
  1.3400569E+00;  9.9999998E-03; -1.2051030E-01;9598;  8.4305501E-01;  0.0000000E+00;  2.1879658E-02;  9.9666333E+02;  1.0679468E-01; -2.5406208E+03;3;  4.5762329E+00;  0.0000000E+00; -2.8798296E+00;0;  2.7568823E-01;  3.5250746E+04;  0.0000000E+00;  7.9486012E+00;  4.0000000E+04;  0.0000000E+00;  3.9528973E+04;  3.4384748E-01;  0.0000000E+00; -6.8159252E-02;  6.8114312E+03;
  1.3401823E+00;  9.9999998E-03; -1.1046402E-01;9599;  8.4518892E-01;  0.0000000E+00;  2.0557966E-02;  9.9678223E+02;  1.0679391E-01; -2.4497393E+03;3; -2.2692919E+01;  0.0000000E+00; -2.6221807E+00;0;  3.7898785E-01;  3.5263590E+04;  0.0000000E+00;  3.9133902E+00;  4.0000000E+04;  0.0000000E+00;  3.9523035E+04;  4.5412382E-01;  0.0000000E+00; -7.5135961E-02;  3.9068418E+03;
  1.3483211E+00;  9.9999998E-03; -2.3159748E-01;9635;  8.6599606E-01;  0.0000000E+00;  1.5480920E-02;  9.9980548E+02;  1.0652916E-01; -1.4667963E+02;3;  3.9736038E+01;  0.0000000E+00; -1.0984303E+01;0; -3.0026609E-01;  3.5690832E+04;  0.0000000E+00; -1.1824132E+00;  4.0000000E+04;  0.0000000E+00;  3.9495625E+04; -3.5519028E-01;  0.0000000E+00;  5.4924183E-02;  1.7873439E+03;
  1.3485435E+00;  9.9999998E-03; -2.2156860E-01;9636;  8.5924327E-01;  0.0000000E+00;  1.7918475E-02;  9.9840625E+02;  1.0652699E-01; -1.2016577E+03;3;  3.6526405E+01;  0.0000000E+00; -1.0709762E+01;0; -3.3876184E-01;  3.5582738E+04;  0.0000000E+00;  9.5832014E+00;  4.0000000E+04;  0.0000000E+00;  3.9504750E+04; -3.6957902E-01;  0.0000000E+00;  3.0817173E-02;  7.4352236E+03;
  1.3487759E+00;  9.9999998E-03; -2.1154068E-01;9637;  8.5384363E-01;  0.0000000E+00;  1.9827694E-02;  9.9682599E+02;  1.0652414E-01; -2.3924387E+03;3;  3.3107101E+01;  0.0000000E+00; -1.0484772E+01;0; -3.4844619E-01;  3.5470660E+04;  0.0000000E+00;  2.2728687E+01;  4.0000000E+04;  0.0000000E+00;  3.9502871E+04; -3.5874075E-01;  0.0000000E+00;  1.0294553E-02;  1.6415414E+04;
  1.3489980E+00;  9.9999998E-03; -2.0151252E-01;9638;  8.4979910E-01;  0.0000000E+00;  2.1097889E-02;  9.9552344E+02;  1.0652293E-01; -3.3733289E+03;3;  2.9387560E+01;  0.0000000E+00; -1.0206059E+01;0; -3.3031043E-01;  3.5385543E+04;  0.0000000E+00;  3.4266853E+01;  4.0000000E+04;  0.0000000E+00;  3.9493738E+04; -3.2416660E-01;  0.0000000E+00; -6.1438335E-03;  2.3809906E+04;
  1.3491844E+00;  9.9999998E-03; -1.9146873E-01;9639;  8.4696424E-01;  0.0000000E+00;  2.1721028E-02;  9.9492523E+02;  1.0652246E-01; -3.8232297E+03;3;  2.5554646E+01;  0.0000000E+00; -9.8934736E+00;0; -2.8877896E-01;  3.5347285E+04;  0.0000000E+00;  4.3126686E+01;  4.0000000E+04;  0.0000000E+00;  3.9489551E+04; -2.6949298E-01;  0.0000000E+00; -1.9285962E-02;  2.9368910E+04;
  1.3493279E+00;  9.9999998E-03; -1.8138613E-01;9640;  8.4508806E-01;  0.0000000E+00;  2.2033231E-02;  9.9511377E+02;  1.0652205E-01; -3.6805491E+03;3;  2.1613390E+01;  0.0000000E+00; -9.4557333E+00;0; -2.3121315E-01;  3.5353105E+04;  0.0000000E+00;  4.9000500E+01;  4.0000000E+04;  0.0000000E+00;  3.9498641E+04; -1.9925691E-01;  0.0000000E+00; -3.1956233E-02;  3.2892152E+04;
  1.3494488E+00;  9.9999998E-03; -1.7125274E-01;9641;  8.4403652E-01;  0.0000000E+00;  2.2358924E-02;  9.9577026E+02;  1.0652135E-01; -3.1855779E+03;3;  1.7949551E+01;  0.0000000E+00; -8.3820305E+00;0; -1.6197512E-01;  3.5383168E+04;  0.0000000E+00;  5.0703228E+01;  4.0000000E+04;  0.0000000E+00;  3.9517547E+04; -1.1700957E-01;  0.0000000E+00; -4.4965535E-02;  3.3701871E+04;
  1.3495847E+00;  9.9999998E-03; -1.6109118E-01;9642;  8.4368360E-01;  0.0000000E+00;  2.2759119E-02;  9.9637946E+02;  1.0651986E-01; -2.7263406E+03;3;  1.4689329E+01;  0.0000000E+00; -6.9900331E+00;0; -8.2962543E-02;  3.5415422E+04;  0.0000000E+00;  4.7159706E+01;  4.0000000E+04;  0.0000000E+00;  3.9530945E+04; -2.5784722E-02;  0.0000000E+00; -5.7177823E-02;  3.1256100E+04;
  1.3497761E+00;  9.9999998E-03; -1.5093659E-01;9643;  8.4377420E-01;  0.0000000E+00;  2.2941031E-02;  9.9665448E+02;  1.0651768E-01; -2.5186572E+03;3;  1.2878005E+01;  0.0000000E+00; -4.4635854E+00;0;  4.9414188E-03;  3.5435953E+04;  0.0000000E+00;  3.9214466E+01;  4.0000000E+04;  0.0000000E+00;  3.9530895E+04;  7.1590789E-02;  0.0000000E+00; -6.6649370E-02;  2.6138414E+04;
  1.3500218E+00;  9.9999998E-03; -1.4080314E-01;9644;  8.4365726E-01;  0.0000000E+00;  2.2592572E-02;  9.9669189E+02;  1.0651577E-01; -2.4897239E+03;3;  1.3124208E+01;  0.0000000E+00; -1.8611975E+00;0;  9.9454738E-02;  3.5447445E+04;  0.0000000E+00;  2.9593214E+01;  4.0000000E+04;  0.0000000E+00;  3.9521461E+04;  1.7231454E-01;  0.0000000E+00; -7.2859801E-02;  2.0014195E+04;
  1.3502791E+00;  9.9999998E-03; -1.3069515E-01;9645;  8.4321278E-01;  0.0000000E+00;  2.1806628E-02;  9.9668573E+02;  1.0651393E-01; -2.4935527E+03;3;  8.5504169E+00;  0.0000000E+00;  4.2265531E-01;0;  2.0000397E-01;  3.5458750E+04;  0.0000000E+00;  2.0543451E+01;  4.0000000E+04;  0.0000000E+00;  3.9508465E+04;  2.7687198E-01;  0.0000000E+00; -7.6868013E-02;  1.4242789E+04;
  1.3505114E+00;  9.9999998E-03; -1.2061429E-01;9646;  8.4412223E-01;  0.0000000E+00;  2.0503672E-02;  9.9672296E+02;  1.0651343E-01; -2.4648601E+03;3; -7.5730553E+00;  0.0000000E+00;  3.3431163E+00;0;  3.0901897E-01;  3.5472262E+04;  0.0000000E+00;  1.3042772E+01;  4.0000000E+04;  0.0000000E+00;  3.9495551E+04;  3.8831070E-01;  0.0000000E+00; -7.9291716E-02;  9.4231875E+03;
  1.3507011E+00;  9.9999998E-03; -1.1055109E-01;9647;  8.5104549E-01;  0.0000000E+00;  1.9323410E-02;  9.9680341E+02;  1.0651310E-01; -2.4037717E+03;3; -3.8849529E+01;  0.0000000E+00; -1.3802419E+00;0;  4.2861128E-01;  3.5485812E+04;  0.0000000E+00;  7.3572073E+00;  4.0000000E+04;  0.0000000E+00;  3.9485668E+04;  5.1059920E-01;  0.0000000E+00; -8.1987910E-02;  5.7366953E+03;
  1.3588501E+00;  9.9999998E-03; -2.3170820E-01;9682;  8.6164910E-01;  0.0000000E+00;  1.6421696E-02;  1.0005128E+03;  1.0628422E-01;  3.8159045E+02;3;  4.0251392E+01;  0.0000000E+00; -6.2823782E+00;0; -3.0599567E-01;  3.5943535E+04;  0.0000000E+00; -1.6492012E+00;  4.0000000E+04;  0.0000000E+00;  3.9450152E+04; -3.3066747E-01;  0.0000000E+00;  2.4671782E-02;  3.7156628E+03;
  1.3590572E+00;  9.9999998E-03; -2.2168608E-01;9683;  8.5564244E-01;  0.0000000E+00;  1.8049208E-02;  9.9948798E+02;  1.0628690E-01; -3.8086285E+02;3;  3.6917194E+01;  0.0000000E+00; -6.4472842E+00;0; -3.4093359E-01;  3.5863051E+04;  0.0000000E+00; -4.4574443E-01;  4.0000000E+04;  0.0000000E+00;  3.9459094E+04; -3.4415776E-01;  0.0000000E+00;  3.2241617E-03;  1.4263881E+03;
  1.3592618E+00;  9.9999998E-03; -2.1166453E-01;9684;  8.5032576E-01;  0.0000000E+00;  2.0074375E-02;  9.9813892E+02;  1.0628482E-01; -1.3840237E+03;3;  3.3295902E+01;  0.0000000E+00; -6.2840838E+00;0; -3.6649522E-01;  3.5768395E+04;  0.0000000E+00;  8.9449568E+00;  4.0000000E+04;  0.0000000E+00;  3.9456559E+04; -3.4052706E-01;  0.0000000E+00; -2.5968155E-02;  6.3698730E+03;
  1.3594692E+00;  9.9999998E-03; -2.0164424E-01;9685;  8.4638608E-01;  0.0000000E+00;  2.1322349E-02;  9.9668713E+02;  1.0628159E-01; -2.4629688E+03;3;  2.9359266E+01;  0.0000000E+00; -5.9303885E+00;0; -3.5905200E-01;  3.5674590E+04;  0.0000000E+00;  2.1118643E+01;  4.0000000E+04;  0.0000000E+00;  3.9444461E+04; -3.1208885E-01;  0.0000000E+00; -4.6963152E-02;  1.3772106E+04;
  1.3596643E+00;  9.9999998E-03; -1.9161779E-01;9686;  8.4377271E-01;  0.0000000E+00;  2.1804255E-02;  9.9557867E+02;  1.0627959E-01; -3.2861865E+03;3;  2.5213808E+01;  0.0000000E+00; -5.5578713E+00;0; -3.2198921E-01;  3.5606391E+04;  0.0000000E+00;  3.2287971E+01;  4.0000000E+04;  0.0000000E+00;  3.9431832E+04; -2.6084599E-01;  0.0000000E+00; -6.1143216E-02;  2.0218490E+04;
  1.3598294E+00;  9.9999998E-03; -1.8156885E-01;9687;  8.4228152E-01;  0.0000000E+00;  2.1866800E-02;  9.9515900E+02;  1.0627925E-01; -3.5973025E+03;3;  2.0893347E+01;  0.0000000E+00; -5.1106315E+00;0; -2.6324001E-01;  3.5579449E+04;  0.0000000E+00;  4.1083256E+01;  4.0000000E+04;  0.0000000E+00;  3.9428941E+04; -1.9098487E-01;  0.0000000E+00; -7.2255127E-02;  2.5171035E+04;
  1.3599581E+00;  9.9999998E-03; -1.7147635E-01;9688;  8.4173393E-01;  0.0000000E+00;  2.1766905E-02;  9.9546710E+02;  1.0627861E-01; -3.3677239E+03;3;  1.6565002E+01;  0.0000000E+00; -4.3432136E+00;0; -1.8822721E-01;  3.5591320E+04;  0.0000000E+00;  4.7016033E+01;  4.0000000E+04;  0.0000000E+00;  3.9440680E+04; -1.0663456E-01;  0.0000000E+00; -8.1592634E-02;  2.8331775E+04;
  1.3600678E+00;  9.9999998E-03; -1.6133747E-01;9689;  8.4197265E-01;  0.0000000E+00;  2.1644108E-02;  9.9615070E+02;  1.0627732E-01; -2.8594504E+03;3;  1.2581630E+01;  0.0000000E+00; -2.3569722E+00;0; -1.0053068E-01;  3.5623742E+04;  0.0000000E+00;  4.8763359E+01;  4.0000000E+04;  0.0000000E+00;  3.9459715E+04; -1.1634474E-02;  0.0000000E+00; -8.8896200E-02;  2.9055936E+04;
  1.3601930E+00;  9.9999998E-03; -1.5117711E-01;9690;  8.4263867E-01;  0.0000000E+00;  2.1351803E-02;  9.9674384E+02;  1.0627642E-01; -2.4183914E+03;3;  1.0034340E+01;  0.0000000E+00;  6.2823266E-01;0; -3.3451915E-03;  3.5655289E+04;  0.0000000E+00;  4.5348846E+01;  4.0000000E+04;  0.0000000E+00;  3.9472277E+04;  8.9727670E-02;  0.0000000E+00; -9.3072861E-02;  2.6920789E+04;
  1.3603677E+00;  9.9999998E-03; -1.4102089E-01;9691;  8.4296846E-01;  0.0000000E+00;  2.0662144E-02;  9.9701849E+02;  1.0627653E-01; -2.2138677E+03;3;  9.0580492E+00;  0.0000000E+00;  3.4814055E+00;0;  9.9106044E-02;  3.5673391E+04;  0.0000000E+00;  3.7814884E+01;  4.0000000E+04;  0.0000000E+00;  3.9473863E+04;  1.9294873E-01;  0.0000000E+00; -9.3842685E-02;  2.2550299E+04;
  1.3605975E+00;  9.9999998E-03; -1.3088119E-01;9692;  8.4347194E-01;  0.0000000E+00;  1.9528463E-02;  9.9701306E+02;  1.0627539E-01; -2.2172390E+03;3;  2.6686087E-01;  0.0000000E+00;  6.4475904E+00;0;  2.0910957E-01;  3.5678762E+04;  0.0000000E+00;  2.8562771E+01;  4.0000000E+04;  0.0000000E+00;  3.9467508E+04;  3.0121067E-01;  0.0000000E+00; -9.2101090E-02;  1.7268215E+04;
  1.3608544E+00;  9.9999998E-03; -1.2076066E-01;9693;  8.4676105E-01;  0.0000000E+00;  1.7840998E-02;  9.9690826E+02;  1.0627374E-01; -2.2942092E+03;3; -2.0450148E+01;  0.0000000E+00;  7.6096020E+00;0;  3.3170992E-01;  3.5680328E+04;  0.0000000E+00;  1.9728449E+01;  4.0000000E+04;  0.0000000E+00;  3.9457410E+04;  4.2053324E-01;  0.0000000E+00; -8.8823326E-02;  1.2234227E+04;
  1.3610934E+00;  9.9999998E-03; -1.1066639E-01;9694;  8.5839772E-01;  0.0000000E+00;  1.7349079E-02;  9.9683429E+02;  1.0627245E-01; -2.3483223E+03;3; -4.7664032E+01;  0.0000000E+00;  3.9069477E-01;0;  4.7007924E-01;  3.5684898E+04;  0.0000000E+00;  1.2369121E+01;  4.0000000E+04;  0.0000000E+00;  3.9446684E+04;  5.5778855E-01;  0.0000000E+00; -8.7709315E-02;  8.0121040E+03;
  1.3695977E+00;  9.9999998E-03; -2.2179462E-01;9729;  8.5099763E-01;  0.0000000E+00;  1.8420316E-02;  9.9972540E+02;  1.0607775E-01; -2.0121255E+02;3;  3.7233757E+01;  0.0000000E+00; -1.1696913E+00;0; -3.6296484E-01;  3.6061414E+04;  0.0000000E+00;  1.7606757E+00;  4.0000000E+04;  0.0000000E+00;  3.9411969E+04; -3.3264342E-01;  0.0000000E+00; -3.0321419E-02;  1.7100660E+03;
  1.3698055E+00;  9.9999998E-03; -2.1177584E-01;9730;  8.4643131E-01;  0.0000000E+00;  1.9436397E-02;  9.9860474E+02;  1.0608003E-01; -1.0220778E+03;3;  3.3423843E+01;  0.0000000E+00; -1.1461692E+00;0; -3.8160467E-01;  3.5980812E+04;  0.0000000E+00; -2.6299244E-01;  4.0000000E+04;  0.0000000E+00;  3.9412574E+04; -3.2763508E-01;  0.0000000E+00; -5.3969581E-02;  1.5918029E+03;
  1.3699933E+00;  9.9999998E-03; -2.0175919E-01;9731;  8.4277314E-01;  0.0000000E+00;  2.0484479E-02;  9.9738361E+02;  1.0607862E-01; -1.9160334E+03;3;  2.9283089E+01;  0.0000000E+00; -8.8330173E-01;0; -3.8362461E-01;  3.5902930E+04;  0.0000000E+00;  6.3415055E+00;  4.0000000E+04;  0.0000000E+00;  3.9400863E+04; -3.0435315E-01;  0.0000000E+00; -7.9271480E-02;  4.4435254E+03;
  1.3701761E+00;  9.9999998E-03; -1.9174065E-01;9732;  8.4040892E-01;  0.0000000E+00;  2.0850739E-02;  9.9618262E+02;  1.0607556E-01; -2.7947539E+03;3;  2.4791080E+01;  0.0000000E+00; -5.4855406E-01;0; -3.5493433E-01;  3.5831195E+04;  0.0000000E+00;  1.6852579E+01;  4.0000000E+04;  0.0000000E+00;  3.9383934E+04; -2.5818086E-01;  0.0000000E+00; -9.6753463E-02;  1.0144543E+04;
  1.3703465E+00;  9.9999998E-03; -1.8170969E-01;9733;  8.3923590E-01;  0.0000000E+00;  2.0776317E-02;  9.9534253E+02;  1.0607306E-01; -3.4088992E+03;3;  2.0100796E+01;  0.0000000E+00; -2.3103392E-01;0; -3.0056569E-01;  3.5782652E+04;  0.0000000E+00;  2.7399075E+01;  4.0000000E+04;  0.0000000E+00;  3.9371305E+04; -1.9157948E-01;  0.0000000E+00; -1.0898622E-01;  1.5604191E+04;
  1.3704963E+00;  9.9999998E-03; -1.7165327E-01;9734;  8.3917147E-01;  0.0000000E+00;  2.0494038E-02;  9.9509723E+02;  1.0607199E-01; -3.5876509E+03;3;  1.5199966E+01;  0.0000000E+00;  5.0321883E-01;0; -2.2497544E-01;  3.5766969E+04;  0.0000000E+00;  3.5921871E+01;  4.0000000E+04;  0.0000000E+00;  3.9369238E+04; -1.0766201E-01;  0.0000000E+00; -1.1731344E-01;  1.9887408E+04;
  1.3706229E+00;  9.9999998E-03; -1.6155453E-01;9735;  8.4006983E-01;  0.0000000E+00;  1.9990733E-02;  9.9544562E+02;  1.0607130E-01; -3.3320740E+03;3;  1.0163493E+01;  0.0000000E+00;  2.3967059E+00;0; -1.3163674E-01;  3.5781531E+04;  0.0000000E+00;  4.1640629E+01;  4.0000000E+04;  0.0000000E+00;  3.9381008E+04; -1.0697528E-02;  0.0000000E+00; -1.2093921E-01;  2.2598098E+04;
  1.3707397E+00;  9.9999998E-03; -1.5141897E-01;9736;  8.4155047E-01;  0.0000000E+00;  1.9176038E-02;  9.9606531E+02;  1.0607160E-01; -2.8781733E+03;3;  6.6748676E+00;  0.0000000E+00;  6.2670007E+00;0; -2.5849335E-02;  3.5811758E+04;  0.0000000E+00;  4.3286835E+01;  4.0000000E+04;  0.0000000E+00;  3.9397012E+04;  9.3620703E-02;  0.0000000E+00; -1.1947004E-01;  2.3197502E+04;
  1.3708603E+00;  9.9999998E-03; -1.4126614E-01;9737;  8.4283257E-01;  0.0000000E+00;  1.7809771E-02;  9.9664648E+02;  1.0607053E-01; -2.4526223E+03;3;  2.0781350E+00;  0.0000000E+00;  9.6699924E+00;0;  8.5597381E-02;  3.5844316E+04;  0.0000000E+00;  4.0506016E+01;  4.0000000E+04;  0.0000000E+00;  3.9407547E+04;  1.9892693E-01;  0.0000000E+00; -1.1332954E-01;  2.1593154E+04;
  1.3710086E+00;  9.9999998E-03; -1.3110888E-01;9738;  8.4563917E-01;  0.0000000E+00;  1.6021553E-02;  9.9700812E+02;  1.0606994E-01; -2.1876116E+03;3; -1.4907869E+01;  0.0000000E+00;  1.1914921E+01;0;  2.1049681E-01;  3.5866922E+04;  0.0000000E+00;  3.4279751E+01;  4.0000000E+04;  0.0000000E+00;  3.9411254E+04;  3.1513447E-01;  0.0000000E+00; -1.0463766E-01;  1.8315248E+04;
  1.3712013E+00;  9.9999998E-03; -1.2095570E-01;9739;  8.5373759E-01;  0.0000000E+00;  1.4436644E-02;  9.9708716E+02;  1.0606931E-01; -2.1291960E+03;3; -4.3539074E+01;  0.0000000E+00;  7.3244610E+00;0;  3.5629731E-01;  3.5874820E+04;  0.0000000E+00;  2.6356764E+01;  4.0000000E+04;  0.0000000E+00;  3.9409172E+04;  4.5284984E-01;  0.0000000E+00; -9.6552506E-02;  1.4242530E+04;
  1.3714212E+00;  9.9999998E-03; -1.1081918E-01;9740;  8.6904395E-01;  0.0000000E+00;  1.5414314E-02;  9.9699554E+02;  1.0606819E-01; -2.1954250E+03;3; -5.6322079E+01;  0.0000000E+00;  2.6499484E+00;0;  5.1191360E-01;  3.5874324E+04;  0.0000000E+00;  1.8430950E+01;  4.0000000E+04;  0.0000000E+00;  3.9402668E+04;  6.0495698E-01;  0.0000000E+00; -9.3043372E-02;  1.0195422E+04;
  1.3803083E+00;  9.9999998E-03; -2.1187583E-01;9774;  8.4236455E-01;  0.0000000E+00;  1.7773556E-02;  9.9896313E+02;  1.0590188E-01; -7.4702789E+02;3;  3.3496761E+01;  0.0000000E+00;  4.8472390E+00;0; -3.9285436E-01;  3.6166215E+04;  0.0000000E+00;  4.9477606E+00;  4.0000000E+04;  0.0000000E+00;  3.9367691E+04; -3.2336456E-01;  0.0000000E+00; -6.9489799E-02;  1.5071594E+03;
  1.3805137E+00;  9.9999998E-03; -2.0185855E-01;9775;  8.3925503E-01;  0.0000000E+00;  1.8081905E-02;  9.9780530E+02;  1.0590383E-01; -1.5806472E+03;3;  2.9126051E+01;  0.0000000E+00;  4.9395232E+00;0; -3.9550799E-01;  3.6088723E+04;  0.0000000E+00; -2.6238772E-01;  4.0000000E+04;  0.0000000E+00;  3.9361410E+04; -3.0194634E-01;  0.0000000E+00; -9.3561649E-02;  1.8371307E+03;
  1.3806887E+00;  9.9999998E-03; -1.9184092E-01;9776;  8.3707041E-01;  0.0000000E+00;  1.8368213E-02;  9.9674158E+02;  1.0590227E-01; -2.3460557E+03;3;  2.4411108E+01;  0.0000000E+00;  5.2176600E+00;0; -3.8032341E-01;  3.6026082E+04;  0.0000000E+00;  3.4344039E+00;  4.0000000E+04;  0.0000000E+00;  3.9345512E+04; -2.6345932E-01;  0.0000000E+00; -1.1686408E-01;  2.8050476E+03;
  1.3808541E+00;  9.9999998E-03; -1.8181708E-01;9777;  8.3612514E-01;  0.0000000E+00;  1.8304147E-02;  9.9577771E+02;  1.0589974E-01; -3.0392034E+03;3;  1.9309752E+01;  0.0000000E+00;  5.4750171E+00;0; -3.3780164E-01;  3.5972355E+04;  0.0000000E+00;  1.1926587E+01;  4.0000000E+04;  0.0000000E+00;  3.9327457E+04; -2.0386341E-01;  0.0000000E+00; -1.3393822E-01;  6.7895449E+03;
  1.3810130E+00;  9.9999998E-03; -1.7177829E-01;9778;  8.3643758E-01;  0.0000000E+00;  1.7945854E-02;  9.9511487E+02;  1.0589749E-01; -3.5154031E+03;3;  1.3939479E+01;  0.0000000E+00;  6.0898695E+00;0; -2.6879352E-01;  3.5935602E+04;  0.0000000E+00;  2.1108807E+01;  4.0000000E+04;  0.0000000E+00;  3.9314949E+04; -1.2460279E-01;  0.0000000E+00; -1.4419074E-01;  1.1039102E+04;
  1.3811582E+00;  9.9999998E-03; -1.6171354E-01;9779;  8.3791596E-01;  0.0000000E+00;  1.7277282E-02;  9.9494348E+02;  1.0589670E-01; -3.6378364E+03;3;  8.1139059E+00;  0.0000000E+00;  7.8640118E+00;0; -1.7633611E-01;  3.5925074E+04;  0.0000000E+00;  2.8797970E+01;  4.0000000E+04;  0.0000000E+00;  3.9312941E+04; -2.9323298E-02;  0.0000000E+00; -1.4701281E-01;  1.4480020E+04;
  1.3812881E+00;  9.9999998E-03; -1.5161233E-01;9780;  8.4026730E-01;  0.0000000E+00;  1.6036065E-02;  9.9524762E+02;  1.0589602E-01; -3.4183123E+03;3;  2.9079568E+00;  0.0000000E+00;  1.1848125E+01;0; -6.5325685E-02;  3.5938832E+04;  0.0000000E+00;  3.4038494E+01;  4.0000000E+04;  0.0000000E+00;  3.9322043E+04;  7.5940065E-02;  0.0000000E+00; -1.4126575E-01;  1.6696857E+04;
  1.3814129E+00;  9.9999998E-03; -1.4148201E-01;9781;  8.4298289E-01;  0.0000000E+00;  1.3905393E-02;  9.9574725E+02;  1.0589543E-01; -3.0582732E+03;3; -6.0075440E+00;  0.0000000E+00;  1.6569695E+01;0;  5.7041198E-02;  3.5964625E+04;  0.0000000E+00;  3.5690243E+01;  4.0000000E+04;  0.0000000E+00;  3.9333930E+04;  1.8481560E-01;  0.0000000E+00; -1.2777440E-01;  1.7250346E+04;
  1.3815359E+00;  9.9999998E-03; -1.3133387E-01;9782;  8.4879023E-01;  0.0000000E+00;  1.1373830E-02;  9.9627783E+02;  1.0589477E-01; -2.6761929E+03;3; -3.0195307E+01;  0.0000000E+00;  1.6511999E+01;0;  2.0361364E-01;  3.5994793E+04;  0.0000000E+00;  3.3774075E+01;  4.0000000E+04;  0.0000000E+00;  3.9342742E+04;  3.1557712E-01;  0.0000000E+00; -1.1196348E-01;  1.6208089E+04;
  1.3816686E+00;  9.9999998E-03; -1.2117140E-01;9783;  8.6217946E-01;  0.0000000E+00;  1.0578307E-02;  9.9669598E+02;  1.0589404E-01; -2.3749958E+03;3; -5.9451607E+01;  0.0000000E+00;  6.4525166E+00;0;  3.8152295E-01;  3.6020141E+04;  0.0000000E+00;  2.9212854E+01;  4.0000000E+04;  0.0000000E+00;  3.9348273E+04;  4.8342380E-01;  0.0000000E+00; -1.0190083E-01;  1.4014468E+04;
  1.3818207E+00;  9.9999998E-03; -1.1100695E-01;9784;  8.8047194E-01;  0.0000000E+00;  1.2834673E-02;  9.9689618E+02;  1.0589293E-01; -2.2305093E+03;3; -6.8321732E+01;  0.0000000E+00;  4.0693221E+00;0;  5.5748624E-01;  3.6034441E+04;  0.0000000E+00;  2.3093542E+01;  4.0000000E+04;  0.0000000E+00;  3.9349141E+04;  6.5439159E-01;  0.0000000E+00; -9.6905358E-02;  1.1167231E+04;
  1.3916372E+00;  9.9999998E-03; -1.6182029E-01;9821;  8.3596766E-01;  0.0000000E+00;  1.2562993E-02;  9.9518213E+02;  1.0574905E-01; -3.4032971E+03;3;  5.7459621E+00;  0.0000000E+00;  1.4784216E+01;0; -2.2215748E-01;  3.6089312E+04;  0.0000000E+00;  1.4541666E+01;  4.0000000E+04;  0.0000000E+00;  3.9263039E+04; -6.7007512E-02;  0.0000000E+00; -1.5514997E-01;  7.1069517E+03;
  1.3917706E+00;  9.9999998E-03; -1.5174615E-01;9822;  8.3921838E-01;  0.0000000E+00;  1.1032716E-02;  9.9510266E+02;  1.0574744E-01; -3.4586233E+03;3; -1.9968215E+00;  0.0000000E+00;  1.8641018E+01;0; -1.1184357E-01;  3.6086094E+04;  0.0000000E+00;  2.1393101E+01;  4.0000000E+04;  0.0000000E+00;  3.9260293E+04;  3.6291376E-02;  0.0000000E+00; -1.4813495E-01;  9.8156807E+03;
  1.3919039E+00;  9.9999998E-03; -1.4163850E-01;9823;  8.4347576E-01;  0.0000000E+00;  8.3831716E-03;  9.9529901E+02;  1.0574725E-01; -3.3191582E+03;3; -1.2404886E+01;  0.0000000E+00;  2.3071806E+01;0;  1.8058613E-02;  3.6093797E+04;  0.0000000E+00;  2.6116972E+01;  4.0000000E+04;  0.0000000E+00;  3.9267359E+04;  1.4806299E-01;  0.0000000E+00; -1.3000438E-01;  1.1605440E+04;
  1.3914948E+00;  9.9999998E-03; -1.7186756E-01;9820;  8.3396894E-01;  0.0000000E+00;  1.3375531E-02;  9.9565094E+02;  1.0575154E-01; -3.0729431E+03;3;  1.2443551E+01;  0.0000000E+00;  1.3010365E+01;0; -3.0623087E-01;  3.6111082E+04;  0.0000000E+00;  6.9496403E+00;  4.0000000E+04;  0.0000000E+00;  3.9276535E+04; -1.5588930E-01;  0.0000000E+00; -1.5034157E-01;  4.0658301E+03;
  1.3920412E+00;  9.9999998E-03; -1.3150623E-01;9824;  8.5059679E-01;  0.0000000E+00;  5.2049845E-03;  9.9558441E+02;  1.0574644E-01; -3.1168364E+03;3; -3.3887817E+01;  0.0000000E+00;  2.2826277E+01;0;  1.7436713E-01;  3.6106273E+04;  0.0000000E+00;  2.7785738E+01;  4.0000000E+04;  0.0000000E+00;  3.9276543E+04;  2.8252697E-01;  0.0000000E+00; -1.0815984E-01;  1.2139240E+04;
  1.3909663E+00;  9.9999998E-03; -2.0194183E-01;9817;  8.3595067E-01;  0.0000000E+00;  1.3789808E-02;  9.9858478E+02;  1.0575271E-01; -1.0009039E+03;3;  2.8913540E+01;  0.0000000E+00;  1.1571068E+01;0; -3.8810909E-01;  3.6279730E+04;  0.0000000E+00;  7.8273916E+00;  4.0000000E+04;  0.0000000E+00;  3.9324711E+04; -3.0645904E-01;  0.0000000E+00; -8.1650034E-02;  2.4032498E+03;
  1.3913391E+00;  9.9999998E-03; -1.8189900E-01;9819;  8.3336419E-01;  0.0000000E+00;  1.3708176E-02;  9.9645709E+02;  1.0575438E-01; -2.5040422E+03;3;  1.8400095E+01;  0.0000000E+00;  1.2301539E+01;0; -3.6003917E-01;  3.6152332E+04;  0.0000000E+00;  9.2484742E-01;  4.0000000E+04;  0.0000000E+00;  3.9295609E+04; -2.2563973E-01;  0.0000000E+00; -1.3439943E-01;  2.0842192E+03;
  1.3921732E+00;  9.9999998E-03; -1.2135693E-01;9825;  8.6447549E-01;  0.0000000E+00;  3.6258185E-03;  9.9594171E+02;  1.0574604E-01; -2.8639570E+03;3; -6.1036999E+01;  0.0000000E+00;  1.4675190E+01;0;  3.6757764E-01;  3.6125805E+04;  0.0000000E+00;  2.6677179E+01;  4.0000000E+04;  0.0000000E+00;  3.9283758E+04;  4.6038556E-01;  0.0000000E+00; -9.2807926E-02;  1.1555026E+04;
  1.3922999E+00;  9.9999998E-03; -1.1119264E-01;9826;  8.8422412E-01;  0.0000000E+00;  5.3726416E-03;  9.9629370E+02;  1.0574595E-01; -2.6149255E+03;3; -7.3925629E+01;  0.0000000E+00;  8.7757101E+00;0;  5.6953096E-01;  3.6146844E+04;  0.0000000E+00;  2.3570112E+01;  4.0000000E+04;  0.0000000E+00;  3.9288469E+04;  6.5519267E-01;  0.0000000E+00; -8.5661702E-02;  1.0185415E+04;
  1.3911673E+00;  9.9999998E-03; -1.9192290E-01;9818;  8.3419764E-01;  0.0000000E+00;  1.3678733E-02;  9.9744183E+02;  1.0575530E-01; -1.8086228E+03;3;  2.3916149E+01;  0.0000000E+00;  1.1798407E+01;0; -3.8267630E-01;  3.6207828E+04;  0.0000000E+00;  5.3863652E-02;  4.0000000E+04;  0.0000000E+00;  3.9313086E+04; -2.7371272E-01;  0.0000000E+00; -1.0896359E-01;  2.1779973E+03;
  1.4017770E+00;  9.9999998E-03; -1.8196467E-01;9858;  8.3158094E-01;  0.0000000E+00;  6.4272159E-03;  9.9747101E+02;  1.0563132E-01; -1.7524629E+03;3;  1.7116426E+01;  0.0000000E+00;  2.0022015E+01;0; -3.4547865E-01;  3.6336809E+04;  0.0000000E+00;  1.3649246E+00;  4.0000000E+04;  0.0000000E+00;  3.9267520E+04; -2.4772274E-01;  0.0000000E+00; -9.7755916E-02;  2.5243748E+03;
  1.4019437E+00;  9.9999998E-03; -1.7193322E-01;9859;  8.3236253E-01;  0.0000000E+00;  6.0947817E-03;  9.9658649E+02;  1.0563096E-01; -2.3646306E+03;3;  1.0395975E+01;  0.0000000E+00;  2.1182241E+01;0; -3.1470573E-01;  3.6290027E+04;  0.0000000E+00; -6.9362521E-01;  4.0000000E+04;  0.0000000E+00;  3.9248461E+04; -1.9266494E-01;  0.0000000E+00; -1.2204081E-01;  2.2210491E+03;
  1.4020909E+00;  9.9999998E-03; -1.6189148E-01;9860;  8.3471316E-01;  0.0000000E+00;  5.1849918E-03;  9.9592291E+02;  1.0562828E-01; -2.8234922E+03;3;  2.6901665E+00;  0.0000000E+00;  2.3034388E+01;0; -2.4923828E-01;  3.6259121E+04;  0.0000000E+00;  2.5940058E+00;  4.0000000E+04;  0.0000000E+00;  3.9229477E+04; -1.1676765E-01;  0.0000000E+00; -1.3247062E-01;  2.3984939E+03;
  1.4022269E+00;  9.9999998E-03; -1.5183088E-01;9861;  8.3871144E-01;  0.0000000E+00;  3.4572284E-03;  9.9554608E+02;  1.0562583E-01; -3.0836248E+03;3; -6.4023123E+00;  0.0000000E+00;  2.6070929E+01;0; -1.4948839E-01;  3.6242676E+04;  0.0000000E+00;  8.1734791E+00;  4.0000000E+04;  0.0000000E+00;  3.9217316E+04; -2.1357819E-02;  0.0000000E+00; -1.2813057E-01;  4.0555889E+03;
  1.4023570E+00;  9.9999998E-03; -1.4174508E-01;9862;  8.4444040E-01;  0.0000000E+00;  6.9636916E-04;  9.9544208E+02;  1.0562383E-01; -3.1548264E+03;3; -1.7579544E+01;  0.0000000E+00;  2.9958366E+01;0; -1.9647136E-02;  3.6238242E+04;  0.0000000E+00;  1.3785452E+01;  4.0000000E+04;  0.0000000E+00;  3.9213996E+04;  9.0862066E-02;  0.0000000E+00; -1.1050920E-01;  5.9621572E+03;
  1.4024869E+00;  9.9999998E-03; -1.3163069E-01;9863;  8.5270488E-01;  0.0000000E+00; -2.7638755E-03;  9.9552179E+02;  1.0562247E-01; -3.0988708E+03;3; -3.5404766E+01;  0.0000000E+00;  2.9979588E+01;0;  1.3884029E-01;  3.6240668E+04;  0.0000000E+00;  1.8012178E+01;  4.0000000E+04;  0.0000000E+00;  3.9218129E+04;  2.2515525E-01;  0.0000000E+00; -8.6314954E-02;  7.3821108E+03;
  1.4026239E+00;  9.9999998E-03; -1.2149701E-01;9864;  8.6527085E-01;  0.0000000E+00; -5.3148405E-03;  9.9560870E+02;  1.0562214E-01; -3.0379119E+03;3; -5.6535458E+01;  0.0000000E+00;  2.4784817E+01;0;  3.2532501E-01;  3.6242535E+04;  0.0000000E+00;  1.9811441E+01;  4.0000000E+04;  0.0000000E+00;  3.9223105E+04;  3.9116684E-01;  0.0000000E+00; -6.5841839E-02;  7.9320386E+03;
  1.4027537E+00;  9.9999998E-03; -1.1135153E-01;9865;  8.8370210E-01;  0.0000000E+00; -5.2790418E-03;  9.9576208E+02;  1.0562161E-01; -2.9310222E+03;3; -7.3306427E+01;  0.0000000E+00;  1.7470444E+01;0;  5.3715855E-01;  3.6251129E+04;  0.0000000E+00;  1.9382757E+01;  4.0000000E+04;  0.0000000E+00;  3.9226105E+04;  5.9128559E-01;  0.0000000E+00; -5.4127030E-02;  7.6762930E+03;
  1.4129136E+00;  9.9999998E-03; -1.3173400E-01;9899;  8.5484850E-01;  0.0000000E+00; -1.2633715E-02;  9.9579712E+02;  1.0551947E-01; -2.8469680E+03;3; -3.5946465E+01;  0.0000000E+00;  3.6935787E+01;0;  1.0491464E-01;  3.6384410E+04;  0.0000000E+00;  6.1878719E+00;  4.0000000E+04;  0.0000000E+00;  3.9162859E+04;  1.4461122E-01;  0.0000000E+00; -3.9696582E-02;  3.0477141E+03;
  1.4130348E+00;  9.9999998E-03; -1.2161749E-01;9900;  8.6726093E-01;  0.0000000E+00; -1.5567583E-02;  9.9578430E+02;  1.0551852E-01; -2.8549170E+03;3; -5.2756565E+01;  0.0000000E+00;  3.3684429E+01;0;  2.8227270E-01;  3.6383281E+04;  0.0000000E+00;  9.5213614E+00;  4.0000000E+04;  0.0000000E+00;  3.9163098E+04;  3.0069017E-01;  0.0000000E+00; -1.8417479E-02;  3.9595737E+03;
  1.4131557E+00;  9.9999998E-03; -1.1148401E-01;9901;  8.8352370E-01;  0.0000000E+00; -1.6985025E-02;  9.9578851E+02;  1.0551809E-01; -2.8513203E+03;3; -6.8849770E+01;  0.0000000E+00;  2.8223181E+01;0;  4.8163259E-01;  3.6382426E+04;  0.0000000E+00;  1.1437549E+01;  4.0000000E+04;  0.0000000E+00;  3.9164535E+04;  4.8437607E-01;  0.0000000E+00; -2.7434817E-03;  4.4683296E+03;
  1.4123477E+00;  9.9999998E-03; -1.7198512E-01;9895;  8.3193326E-01;  0.0000000E+00; -3.9940765E-03;  9.9780737E+02;  1.0552540E-01; -1.4870133E+03;3;  8.3857040E+00;  0.0000000E+00;  2.9584776E+01;0; -2.7605814E-01;  3.6476234E+04;  0.0000000E+00;  4.5834336E+00;  4.0000000E+04;  0.0000000E+00;  3.9221219E+04; -2.2571921E-01;  0.0000000E+00; -5.0338928E-02;  2.8194910E+03;
  1.4126576E+00;  9.9999998E-03; -1.5189676E-01;9897;  8.3924752E-01;  0.0000000E+00; -6.6905832E-03;  9.9631897E+02;  1.0552386E-01; -2.4947930E+03;3; -1.0093604E+01;  0.0000000E+00;  3.3822025E+01;0; -1.5690589E-01;  3.6405770E+04;  0.0000000E+00; -5.6751376E-01;  4.0000000E+04;  0.0000000E+00;  3.9180703E+04; -8.4206268E-02;  0.0000000E+00; -7.2699621E-02;  2.0437959E+03;
  1.4127893E+00;  9.9999998E-03; -1.4182730E-01;9898;  8.4587115E-01;  0.0000000E+00; -9.3398625E-03;  9.9594427E+02;  1.0552137E-01; -2.7480037E+03;3; -2.0827976E+01;  0.0000000E+00;  3.6510948E+01;0; -4.2060986E-02;  3.6390523E+04;  0.0000000E+00;  2.3484566E+00;  4.0000000E+04;  0.0000000E+00;  3.9167906E+04;  1.8694291E-02;  0.0000000E+00; -6.0755279E-02;  2.1734192E+03;
  1.4125131E+00;  9.9999998E-03; -1.6194728E-01;9896;  8.3471674E-01;  0.0000000E+00; -4.9994495E-03;  9.9694440E+02;  1.0552569E-01; -2.0715803E+03;3; -1.3426030E-01;  0.0000000E+00;  3.1453094E+01;0; -2.3426136E-01;  3.6433273E+04;  0.0000000E+00; -6.0878366E-01;  4.0000000E+04;  0.0000000E+00;  3.9199914E+04; -1.6503026E-01;  0.0000000E+00; -6.9231108E-02;  2.4476335E+03;
  1.4235442E+00;  9.9999998E-03; -1.1160775E-01;9935;  8.8609183E-01;  0.0000000E+00; -2.8962726E-02;  9.9609888E+02;  1.0543326E-01; -2.5819873E+03;3; -6.7822243E+01;  0.0000000E+00;  3.3747692E+01;0;  4.4386309E-01;  3.6525852E+04;  0.0000000E+00;  1.9154007E+00;  4.0000000E+04;  0.0000000E+00;  3.9099129E+04;  3.7602538E-01;  0.0000000E+00;  6.7837700E-02;  1.7655750E+03;
  1.4234375E+00;  9.9999998E-03; -1.2172551E-01;9934;  8.7034959E-01;  0.0000000E+00; -2.7201440E-02;  9.9614325E+02;  1.0543445E-01; -2.5532473E+03;3; -5.3618244E+01;  0.0000000E+00;  3.9740829E+01;0;  2.5862220E-01;  3.6526957E+04;  0.0000000E+00; -3.4456942E-02;  4.0000000E+04;  0.0000000E+00;  3.9101289E+04;  2.0415311E-01;  0.0000000E+00;  5.4469097E-02;  1.5910868E+03;
  1.4233226E+00;  9.9999998E-03; -1.3182063E-01;9933;  8.5758817E-01;  0.0000000E+00; -2.4369273E-02;  9.9632922E+02;  1.0543602E-01; -2.4307217E+03;3; -3.7030487E+01;  0.0000000E+00;  4.3234840E+01;0;  9.5464230E-02;  3.6533348E+04;  0.0000000E+00; -1.4033417E+00;  4.0000000E+04;  0.0000000E+00;  3.9109004E+04;  5.7562806E-02;  0.0000000E+00;  3.7901428E-02;  1.7249985E+03;
  1.4230522E+00;  9.9999998E-03; -1.5194663E-01;9931;  8.4080535E-01;  0.0000000E+00; -1.9043228E-02;  9.9740332E+02;  1.0543797E-01; -1.7205256E+03;3; -1.2113764E+01;  0.0000000E+00;  4.1716801E+01;0; -1.1936042E-01;  3.6577016E+04;  0.0000000E+00;  2.5048909E+00;  4.0000000E+04;  0.0000000E+00;  3.9146133E+04; -1.4228712E-01;  0.0000000E+00;  2.2926707E-02;  2.4463142E+03;
  1.4231955E+00;  9.9999998E-03; -1.4189212E-01;9932;  8.4792870E-01;  0.0000000E+00; -2.1394970E-02;  9.9674695E+02;  1.0543765E-01; -2.1547339E+03;3; -2.3554007E+01;  0.0000000E+00;  4.3100334E+01;0; -3.1585138E-02;  3.6549188E+04;  0.0000000E+00; -1.0450413E+00;  4.0000000E+04;  0.0000000E+00;  3.9124824E+04; -5.6000344E-02;  0.0000000E+00;  2.4415206E-02;  2.0677705E+03;
  1.4228858E+00;  9.9999998E-03; -1.6198792E-01;9930;  8.3555973E-01;  0.0000000E+00; -1.7256420E-02;  9.9831378E+02;  1.0543663E-01; -1.1176814E+03;3; -1.9617826E+00;  0.0000000E+00;  3.9506813E+01;0; -1.7459004E-01;  3.6620211E+04;  0.0000000E+00;  1.0903381E+01;  4.0000000E+04;  0.0000000E+00;  3.9170855E+04; -2.0982888E-01;  0.0000000E+00;  3.5238843E-02;  3.4084648E+03;
  1.4335574E+00;  9.9999998E-03; -1.4192295E-01;9963;  8.5053551E-01;  0.0000000E+00; -3.5404108E-02;  9.9803485E+02;  1.0536355E-01; -1.2710664E+03;3; -2.5107296E+01;  0.0000000E+00;  4.9428936E+01;0;  2.7374230E-02;  3.6723270E+04;  0.0000000E+00;  9.6490993E+00;  4.0000000E+04;  0.0000000E+00;  3.9093363E+04; -1.2440338E-01;  0.0000000E+00;  1.5177761E-01;  2.9190679E+03;
  1.4336985E+00;  9.9999998E-03; -1.3186467E-01;9964;  8.6088896E-01;  0.0000000E+00; -3.7861072E-02;  9.9732849E+02;  1.0536385E-01; -1.7273368E+03;3; -4.0331749E+01;  0.0000000E+00;  4.7235420E+01;0;  1.2929983E-01;  3.6693559E+04;  0.0000000E+00;  2.8173964E+00;  4.0000000E+04;  0.0000000E+00;  3.9069992E+04; -2.2629946E-02;  0.0000000E+00;  1.5192978E-01;  2.0653564E+03;
  1.4338206E+00;  9.9999998E-03; -1.2178869E-01;9965;  8.7449187E-01;  0.0000000E+00; -3.9650090E-02;  9.9685883E+02;  1.0536390E-01; -2.0304445E+03;3; -5.9095112E+01;  0.0000000E+00;  3.8593922E+01;0;  2.7204412E-01;  3.6675699E+04;  0.0000000E+00; -7.2632110E-01;  4.0000000E+04;  0.0000000E+00;  3.9052742E+04;  1.1895828E-01;  0.0000000E+00;  1.5308586E-01;  1.7316578E+03;
  1.4339267E+00;  9.9999998E-03; -1.1169297E-01;9966;  8.9187396E-01;  0.0000000E+00; -3.9259359E-02;  9.9660291E+02;  1.0536274E-01; -2.1953369E+03;3; -7.6849205E+01;  0.0000000E+00;  2.3332594E+01;0;  4.5135361E-01;  3.6667406E+04;  0.0000000E+00; -2.0645657E+00;  4.0000000E+04;  0.0000000E+00;  3.9041711E+04;  3.0563515E-01;  0.0000000E+00;  1.4571847E-01;  1.5364764E+03;
  1.4441661E+00;  9.9999998E-03; -1.2180108E-01;9992;  8.8138545E-01;  0.0000000E+00; -5.0099075E-02;  9.9814288E+02;  1.0530274E-01; -1.1710179E+03;3; -7.0557526E+01;  0.0000000E+00;  2.5153292E+01;0;  3.4530002E-01;  3.6838668E+04;  0.0000000E+00;  1.1027484E+01;  4.0000000E+04;  0.0000000E+00;  3.9023684E+04;  8.9300767E-02;  0.0000000E+00;  2.5599927E-01;  2.8138391E+03;
  1.4442804E+00;  9.9999998E-03; -1.1172083E-01;9993;  9.0060180E-01;  0.0000000E+00; -4.5539845E-02;  9.9764001E+02;  1.0530308E-01; -1.4877026E+03;3; -8.1879372E+01;  0.0000000E+00;  1.1723539E+01;0;  5.0087762E-01;  3.6820488E+04;  0.0000000E+00;  4.8242154E+00;  4.0000000E+04;  0.0000000E+00;  3.9003883E+04;  2.8900939E-01;  0.0000000E+00;  2.1186820E-01;  1.9541396E+03;
  3.6094484E-03;  9.9999998E-03; -9.9996984E-02;2467; -8.3208587E-03;  0.0000000E+00; -1.3206481E-03;  9.7052960E+02;  1.0000000E-01; -2.4415654E+04;3;  1.5514708E+02;  0.0000000E+00; -1.2640884E+01;0; -2.5712839E-01;  3.7696840E+04;  0.0000000E+00; -8.1258826E-03;  4.0000000E+04;  0.0000000E+00;  4.0018438E+04; -2.6672420E-01;  0.0000000E+00;  9.5958114E-03;  4.8062734E+03;
  3.5865447E-03;  9.9999998E-03; -8.9991346E-02;2468; -8.3532957E-03;  0.0000000E+00; -1.2141872E-03;  9.7067438E+02;  1.0000000E-01; -2.4295707E+04;3;  1.5302185E+02;  0.0000000E+00; -1.1577686E+01;0; -2.5861660E-01;  3.7707875E+04;  0.0000000E+00; -2.9726326E-03;  4.0000000E+04;  0.0000000E+00;  4.0018312E+04; -2.6847130E-01;  0.0000000E+00;  9.8547004E-03;  4.7737212E+03;
  3.5641189E-03;  9.9999998E-03; -7.9986192E-02;2469; -8.3696833E-03;  0.0000000E+00; -1.0975191E-03;  9.7082306E+02;  1.0000000E-01; -2.4172551E+04;3;  1.5113663E+02;  0.0000000E+00; -1.0389009E+01;0; -2.5953388E-01;  3.7719285E+04;  0.0000000E+00; -5.8032316E-04;  4.0000000E+04;  0.0000000E+00;  4.0018301E+04; -2.6974985E-01;  0.0000000E+00;  1.0215958E-02;  4.7437881E+03;
  3.5432589E-03;  9.9999998E-03; -6.9982558E-02;2470; -8.3806040E-03;  0.0000000E+00; -9.7178668E-04;  9.7096802E+02;  1.0000000E-01; -2.4052455E+04;3;  1.4939832E+02;  0.0000000E+00; -9.1146669E+00;0; -2.6004341E-01;  3.7730250E+04;  0.0000000E+00;  1.4000948E-04;  4.0000000E+04;  0.0000000E+00;  4.0018105E+04; -2.7066264E-01;  0.0000000E+00;  1.0619218E-02;  4.7096704E+03;
  3.5244753E-03;  9.9999998E-03; -5.9980866E-02;2471; -8.3927885E-03;  0.0000000E+00; -8.3857746E-04;  9.7110083E+02;  1.0000000E-01; -2.3942434E+04;3;  1.4778580E+02;  0.0000000E+00; -7.7887163E+00;0; -2.6028553E-01;  3.7740352E+04;  0.0000000E+00;  6.5078486E-05;  4.0000000E+04;  0.0000000E+00;  4.0017891E+04; -2.7129814E-01;  0.0000000E+00;  1.1012625E-02;  4.6700986E+03;
  3.5084123E-03;  9.9999998E-03; -4.9981233E-02;2472; -8.4091648E-03;  0.0000000E+00; -7.0066354E-04;  9.7121344E+02;  1.0000000E-01; -2.3849104E+04;3;  1.4632884E+02;  0.0000000E+00; -6.4465671E+00;0; -2.6037091E-01;  3.7749262E+04;  0.0000000E+00; -2.1389690E-04;  4.0000000E+04;  0.0000000E+00;  4.0017539E+04; -2.7173004E-01;  0.0000000E+00;  1.1359119E-02;  4.6272354E+03;
  3.4950436E-03;  9.9999998E-03; -3.9983224E-02;2473; -8.4294658E-03;  0.0000000E+00; -5.6022411E-04;  9.7130548E+02;  1.0000000E-01; -2.3772859E+04;3;  1.4504309E+02;  0.0000000E+00; -5.1114755E+00;0; -2.6037729E-01;  3.7756559E+04;  0.0000000E+00; -3.8652823E-04;  4.0000000E+04;  0.0000000E+00;  4.0017359E+04; -2.7201539E-01;  0.0000000E+00;  1.1638095E-02;  4.5848667E+03;
  3.4845565E-03;  9.9999998E-03; -2.9986512E-02;2474; -8.4511964E-03;  0.0000000E+00; -4.1930762E-04;  9.7138013E+02;  1.0000000E-01; -2.3711033E+04;3;  1.4394292E+02;  0.0000000E+00; -3.7995834E+00;0; -2.6035392E-01;  3.7762270E+04;  0.0000000E+00; -3.6954603E-04;  4.0000000E+04;  0.0000000E+00;  4.0017094E+04; -2.7219769E-01;  0.0000000E+00;  1.1843758E-02;  4.5471099E+03;
  3.4770200E-03;  9.9999998E-03; -1.9990642E-02;2475; -8.4706405E-03;  0.0000000E+00; -2.7890812E-04;  9.7143170E+02;  1.0000000E-01; -2.3668318E+04;3;  1.4312096E+02;  0.0000000E+00; -2.5144417E+00;0; -2.6032773E-01;  3.7766328E+04;  0.0000000E+00; -2.2332386E-04;  4.0000000E+04;  0.0000000E+00;  4.0017027E+04; -2.7230826E-01;  0.0000000E+00;  1.1980535E-02;  4.5175049E+03;
  3.4725079E-03;  9.9999998E-03; -9.9952444E-03;2476; -8.4840572E-03;  0.0000000E+00; -1.3920155E-04;  9.7146027E+02;  1.0000000E-01; -2.3644615E+04;3;  1.4262360E+02;  0.0000000E+00; -1.2509730E+00;0; -2.6030976E-01;  3.7768809E+04;  0.0000000E+00; -6.5784247E-05;  4.0000000E+04;  0.0000000E+00;  4.0016777E+04; -2.7236703E-01;  0.0000000E+00;  1.2057272E-02;  4.4986797E+03;
  3.4710180E-03;  9.9999998E-03;  8.6269492E-11;2477; -8.4888609E-03;  0.0000000E+00; -9.5623853E-10;  9.7147021E+02;  1.0000000E-01; -2.3636369E+04;3;  1.4245068E+02;  0.0000000E+00;  2.7944843E-05;0; -2.6030385E-01;  3.7769625E+04;  0.0000000E+00; -6.0638517E-13;  4.0000000E+04;  0.0000000E+00;  4.0016719E+04; -2.7238566E-01;  0.0000000E+00;  1.2081799E-02;  4.4922227E+03;
  3.4725079E-03;  9.9999998E-03;  9.9952444E-03;2478; -8.4840572E-03;  0.0000000E+00;  1.3919955E-04;  9.7146027E+02;  1.0000000E-01; -2.3644615E+04;3;  1.4262375E+02;  0.0000000E+00;  1.2510065E+00;0; -2.6030985E-01;  3.7768809E+04;  0.0000000E+00; -6.5782464E-05;  4.0000000E+04;  0.0000000E+00;  4.0016777E+04; -2.7236712E-01;  0.0000000E+00;  1.2057264E-02;  4.4986870E+03;
  3.4770202E-03;  9.9999998E-03;  1.9990642E-02;2479; -8.4706340E-03;  0.0000000E+00;  2.7889988E-04;  9.7143170E+02;  1.0000000E-01; -2.3668318E+04;3;  1.4312106E+02;  0.0000000E+00;  2.5143976E+00;0; -2.6032779E-01;  3.7766336E+04;  0.0000000E+00; -2.2325512E-04;  4.0000000E+04;  0.0000000E+00;  4.0017027E+04; -2.7230832E-01;  0.0000000E+00;  1.1980529E-02;  4.5175122E+03;
  3.4845562E-03;  9.9999998E-03;  2.9986514E-02;2480; -8.4511982E-03;  0.0000000E+00;  4.1930540E-04;  9.7138019E+02;  1.0000000E-01; -2.3710984E+04;3;  1.4394225E+02;  0.0000000E+00;  3.7995701E+00;0; -2.6035371E-01;  3.7762273E+04;  0.0000000E+00; -3.6948096E-04;  4.0000000E+04;  0.0000000E+00;  4.0017094E+04; -2.7219748E-01;  0.0000000E+00;  1.1843766E-02;  4.5471143E+03;
  3.4950436E-03;  9.9999998E-03;  3.9983224E-02;2481; -8.4294425E-03;  0.0000000E+00;  5.6022720E-04;  9.7130542E+02;  1.0000000E-01; -2.3772908E+04;3;  1.4504358E+02;  0.0000000E+00;  5.1115522E+00;0; -2.6037690E-01;  3.7756562E+04;  0.0000000E+00; -3.8608984E-04;  4.0000000E+04;  0.0000000E+00;  4.0017359E+04; -2.7201501E-01;  0.0000000E+00;  1.1638097E-02;  4.5848823E+03;
  3.5084120E-03;  9.9999998E-03;  4.9981233E-02;2482; -8.4091788E-03;  0.0000000E+00;  7.0066802E-04;  9.7121344E+02;  1.0000000E-01; -2.3849104E+04;3;  1.4632887E+02;  0.0000000E+00;  6.4466248E+00;0; -2.6037094E-01;  3.7749262E+04;  0.0000000E+00; -2.1368857E-04;  4.0000000E+04;  0.0000000E+00;  4.0017539E+04; -2.7173007E-01;  0.0000000E+00;  1.1359120E-02;  4.6272534E+03;
  3.5244753E-03;  9.9999998E-03;  5.9980866E-02;2483; -8.3927922E-03;  0.0000000E+00;  8.3857629E-04;  9.7110077E+02;  1.0000000E-01; -2.3942482E+04;3;  1.4778642E+02;  0.0000000E+00;  7.7887192E+00;0; -2.6028556E-01;  3.7740344E+04;  0.0000000E+00;  6.5252781E-05;  4.0000000E+04;  0.0000000E+00;  4.0017891E+04; -2.7129820E-01;  0.0000000E+00;  1.1012646E-02;  4.6701133E+03;
  1.3543082E-02;  9.9999998E-03; -9.9987201E-02;2527; -1.1953459E-02;  0.0000000E+00; -1.7010533E-03;  9.7231030E+02;  1.0000000E-01; -2.2940389E+04;3;  1.0246481E+02;  0.0000000E+00; -1.1113045E+01;0; -2.8211612E-01;  3.7826637E+04;  0.0000000E+00; -1.2696481E-02;  4.0000000E+04;  0.0000000E+00;  4.0022383E+04; -2.9305741E-01;  0.0000000E+00;  1.0941312E-02;  5.1307085E+03;
  1.3519851E-02;  9.9999998E-03; -8.9983873E-02;2528; -1.1975621E-02;  0.0000000E+00; -1.5668692E-03;  9.7247339E+02;  1.0000000E-01; -2.2805281E+04;3;  1.0061743E+02;  0.0000000E+00; -1.0185778E+01;0; -2.8354716E-01;  3.7838738E+04;  0.0000000E+00; -5.5631343E-03;  4.0000000E+04;  0.0000000E+00;  4.0022574E+04; -2.9486534E-01;  0.0000000E+00;  1.1318169E-02;  5.1456064E+03;
  1.3498212E-02;  9.9999998E-03; -7.9981111E-02;2529; -1.1981607E-02;  0.0000000E+00; -1.4164577E-03;  9.7263843E+02;  1.0000000E-01; -2.2668545E+04;3;  9.8908234E+01;  0.0000000E+00; -9.1359797E+00;0; -2.8439492E-01;  3.7851066E+04;  0.0000000E+00; -2.1342023E-03;  4.0000000E+04;  0.0000000E+00;  4.0022656E+04; -2.9620051E-01;  0.0000000E+00;  1.1805606E-02;  5.1413208E+03;
  1.3479039E-02;  9.9999998E-03; -6.9979660E-02;2530; -1.1983590E-02;  0.0000000E+00; -1.2522899E-03;  9.7278882E+02;  1.0000000E-01; -2.2543955E+04;3;  9.7309135E+01;  0.0000000E+00; -8.0029984E+00;0; -2.8483602E-01;  3.7862629E+04;  0.0000000E+00; -9.4228669E-04;  4.0000000E+04;  0.0000000E+00;  4.0022375E+04; -2.9716587E-01;  0.0000000E+00;  1.2329845E-02;  5.1125083E+03;
  1.3462471E-02;  9.9999998E-03; -5.9979510E-02;2531; -1.1989294E-02;  0.0000000E+00; -1.0783384E-03;  9.7292236E+02;  1.0000000E-01; -2.2433291E+04;3;  9.5766418E+01;  0.0000000E+00; -6.8265209E+00;0; -2.8501880E-01;  3.7873098E+04;  0.0000000E+00; -8.0970104E-04;  4.0000000E+04;  0.0000000E+00;  4.0022148E+04; -2.9784787E-01;  0.0000000E+00;  1.2829075E-02;  5.0618345E+03;
  1.3448819E-02;  9.9999998E-03; -4.9980883E-02;2532; -1.2001984E-02;  0.0000000E+00; -8.9784770E-04;  9.7303687E+02;  1.0000000E-01; -2.2338430E+04;3;  9.4290794E+01;  0.0000000E+00; -5.6336684E+00;0; -2.8505924E-01;  3.7882172E+04;  0.0000000E+00; -9.5011934E-04;  4.0000000E+04;  0.0000000E+00;  4.0021691E+04; -2.9831976E-01;  0.0000000E+00;  1.3260525E-02;  4.9967637E+03;
  1.3437758E-02;  9.9999998E-03; -3.9983399E-02;2533; -1.2020859E-02;  0.0000000E+00; -7.1511505E-04;  9.7312677E+02;  1.0000000E-01; -2.2263963E+04;3;  9.2964409E+01;  0.0000000E+00; -4.4523668E+00;0; -2.8503564E-01;  3.7889672E+04;  0.0000000E+00; -9.6323492E-04;  4.0000000E+04;  0.0000000E+00;  4.0021277E+04; -2.9863784E-01;  0.0000000E+00;  1.3602192E-02;  4.9268491E+03;
  1.3429240E-02;  9.9999998E-03; -2.9986864E-02;2534; -1.2042751E-02;  0.0000000E+00; -5.3270871E-04;  9.7319916E+02;  1.0000000E-01; -2.2204014E+04;3;  9.1804749E+01;  0.0000000E+00; -3.2958095E+00;0; -2.8499553E-01;  3.7895324E+04;  0.0000000E+00; -7.5350003E-04;  4.0000000E+04;  0.0000000E+00;  4.0020777E+04; -2.9884571E-01;  0.0000000E+00;  1.3850174E-02;  4.8615103E+03;
  1.3423162E-02;  9.9999998E-03; -1.9990956E-02;2535; -1.2063054E-02;  0.0000000E+00; -3.5276206E-04;  9.7324744E+02;  1.0000000E-01; -2.2164016E+04;3;  9.0932587E+01;  0.0000000E+00; -2.1724644E+00;0; -2.8496122E-01;  3.7899383E+04;  0.0000000E+00; -4.1608317E-04;  4.0000000E+04;  0.0000000E+00;  4.0020383E+04; -2.9897386E-01;  0.0000000E+00;  1.4012650E-02;  4.8088223E+03;
  1.3419525E-02;  9.9999998E-03; -9.9954251E-03;2536; -1.2077349E-02;  0.0000000E+00; -1.7542356E-04;  9.7327435E+02;  1.0000000E-01; -2.2141695E+04;3;  9.0394051E+01;  0.0000000E+00; -1.0773163E+00;0; -2.8494048E-01;  3.7901941E+04;  0.0000000E+00; -1.1763257E-04;  4.0000000E+04;  0.0000000E+00;  4.0020258E+04; -2.9904318E-01;  0.0000000E+00;  1.4102700E-02;  4.7747974E+03;
  1.3418314E-02;  9.9999998E-03;  1.3078351E-10;2537; -1.2082545E-02;  0.0000000E+00;  2.0134221E-09;  9.7328583E+02;  1.0000000E-01; -2.2132164E+04;3;  9.0191322E+01;  0.0000000E+00;  1.0815173E-05;0; -2.8493363E-01;  3.7902742E+04;  0.0000000E+00; -1.0180630E-13;  4.0000000E+04;  0.0000000E+00;  4.0020215E+04; -2.9906490E-01;  0.0000000E+00;  1.4131283E-02;  4.7630425E+03;
  1.3419525E-02;  9.9999998E-03;  9.9954251E-03;2538; -1.2077352E-02;  0.0000000E+00;  1.7542254E-04;  9.7327435E+02;  1.0000000E-01; -2.2141695E+04;3;  9.0393944E+01;  0.0000000E+00;  1.0772574E+00;0; -2.8494039E-01;  3.7901941E+04;  0.0000000E+00; -1.1759072E-04;  4.0000000E+04;  0.0000000E+00;  4.0020262E+04; -2.9904309E-01;  0.0000000E+00;  1.4102704E-02;  4.7748032E+03;
  1.3423162E-02;  9.9999998E-03;  1.9990956E-02;2539; -1.2063043E-02;  0.0000000E+00;  3.5276727E-04;  9.7324744E+02;  1.0000000E-01; -2.2164016E+04;3;  9.0932678E+01;  0.0000000E+00;  2.1725678E+00;0; -2.8496119E-01;  3.7899387E+04;  0.0000000E+00; -4.1592115E-04;  4.0000000E+04;  0.0000000E+00;  4.0020383E+04; -2.9897386E-01;  0.0000000E+00;  1.4012667E-02;  4.8088296E+03;
  1.3429240E-02;  9.9999998E-03;  2.9986864E-02;2540; -1.2042757E-02;  0.0000000E+00;  5.3270720E-04;  9.7319916E+02;  1.0000000E-01; -2.2204014E+04;3;  9.1804955E+01;  0.0000000E+00;  3.2957749E+00;0; -2.8499559E-01;  3.7895324E+04;  0.0000000E+00; -7.5332454E-04;  4.0000000E+04;  0.0000000E+00;  4.0020777E+04; -2.9884577E-01;  0.0000000E+00;  1.3850175E-02;  4.8615200E+03;
  1.3437759E-02;  9.9999998E-03;  3.9983399E-02;2541; -1.2020852E-02;  0.0000000E+00;  7.1510853E-04;  9.7312677E+02;  1.0000000E-01; -2.2263963E+04;3;  9.2964470E+01;  0.0000000E+00;  4.4523125E+00;0; -2.8503573E-01;  3.7889672E+04;  0.0000000E+00; -9.6285052E-04;  4.0000000E+04;  0.0000000E+00;  4.0021277E+04; -2.9863793E-01;  0.0000000E+00;  1.3602193E-02;  4.9268525E+03;
  1.3448819E-02;  9.9999998E-03;  4.9980883E-02;2542; -1.2001980E-02;  0.0000000E+00;  8.9784723E-04;  9.7303687E+02;  1.0000000E-01; -2.2338430E+04;3;  9.4291130E+01;  0.0000000E+00;  5.6336036E+00;0; -2.8505936E-01;  3.7882176E+04;  0.0000000E+00; -9.5002895E-04;  4.0000000E+04;  0.0000000E+00;  4.0021691E+04; -2.9831991E-01;  0.0000000E+00;  1.3260536E-02;  4.9967759E+03;
  1.3462471E-02;  9.9999998E-03;  5.9979510E-02;2543; -1.1989297E-02;  0.0000000E+00;  1.0783393E-03;  9.7292236E+02;  1.0000000E-01; -2.2433291E+04;3;  9.5766609E+01;  0.0000000E+00;  6.8263683E+00;0; -2.8501877E-01;  3.7873102E+04;  0.0000000E+00; -8.1029133E-04;  4.0000000E+04;  0.0000000E+00;  4.0022148E+04; -2.9784787E-01;  0.0000000E+00;  1.2829083E-02;  5.0618433E+03;
  2.3480209E-02;  9.9999998E-03; -9.9968448E-02;2588; -1.6185585E-02;  0.0000000E+00; -2.0300238E-03;  9.7513922E+02;  1.0000000E-01; -2.0596701E+04;3;  4.6128872E+01;  0.0000000E+00; -8.8625689E+00;0; -3.0129257E-01;  3.8037668E+04;  0.0000000E+00; -1.6758544E-02;  4.0000000E+04;  0.0000000E+00;  4.0026086E+04; -3.1335920E-01;  0.0000000E+00;  1.2066641E-02;  5.3728789E+03;
  2.3456801E-02;  9.9999998E-03; -8.9970544E-02;2589; -1.6198937E-02;  0.0000000E+00; -1.8716891E-03;  9.7532330E+02;  1.0000000E-01; -2.0444162E+04;3;  4.4632465E+01;  0.0000000E+00; -8.1247683E+00;0; -3.0259404E-01;  3.8050836E+04;  0.0000000E+00; -8.1415344E-03;  4.0000000E+04;  0.0000000E+00;  4.0026926E+04; -3.1517571E-01;  0.0000000E+00;  1.2581673E-02;  5.4491104E+03;
  2.3435868E-02;  9.9999998E-03; -7.9972647E-02;2590; -1.6195400E-02;  0.0000000E+00; -1.6906603E-03;  9.7549573E+02;  1.0000000E-01; -2.0301303E+04;3;  4.3226460E+01;  0.0000000E+00; -7.2778029E+00;0; -3.0332217E-01;  3.8063688E+04;  0.0000000E+00; -3.9152675E-03;  4.0000000E+04;  0.0000000E+00;  4.0027289E+04; -3.1653425E-01;  0.0000000E+00;  1.3212077E-02;  5.4772251E+03;
  2.3418099E-02;  9.9999998E-03; -6.9974810E-02;2591; -1.6189171E-02;  0.0000000E+00; -1.4909396E-03;  9.7565344E+02;  1.0000000E-01; -2.0170639E+04;3;  4.1800724E+01;  0.0000000E+00; -6.3574142E+00;0; -3.0366108E-01;  3.8075660E+04;  0.0000000E+00; -2.3142924E-03;  4.0000000E+04;  0.0000000E+00;  4.0027160E+04; -3.1753090E-01;  0.0000000E+00;  1.3869816E-02;  5.4545444E+03;
  2.3403419E-02;  9.9999998E-03; -5.9977155E-02;2592; -1.6188752E-02;  0.0000000E+00; -1.2779662E-03;  9.7578723E+02;  1.0000000E-01; -2.0059828E+04;3;  4.0373119E+01;  0.0000000E+00; -5.3976817E+00;0; -3.0376634E-01;  3.8086387E+04;  0.0000000E+00; -1.9345734E-03;  4.0000000E+04;  0.0000000E+00;  4.0026734E+04; -3.1824932E-01;  0.0000000E+00;  1.4482982E-02;  5.3892080E+03;
  2.3391798E-02;  9.9999998E-03; -4.9980037E-02;2593; -1.6197700E-02;  0.0000000E+00; -1.0587304E-03;  9.7589825E+02;  1.0000000E-01; -1.9967830E+04;3;  3.8961010E+01;  0.0000000E+00; -4.4322557E+00;0; -3.0375358E-01;  3.8095516E+04;  0.0000000E+00; -1.8579687E-03;  4.0000000E+04;  0.0000000E+00;  4.0026051E+04; -3.1875715E-01;  0.0000000E+00;  1.5003562E-02;  5.2956768E+03;
  2.3382755E-02;  9.9999998E-03; -3.9983366E-02;2594; -1.6215086E-02;  0.0000000E+00; -8.3845924E-04;  9.7598706E+02;  1.0000000E-01; -1.9894252E+04;3;  3.7630219E+01;  0.0000000E+00; -3.4832907E+00;0; -3.0369905E-01;  3.8103008E+04;  0.0000000E+00; -1.6356490E-03;  4.0000000E+04;  0.0000000E+00;  4.0025203E+04; -3.1910804E-01;  0.0000000E+00;  1.5408992E-02;  5.1907485E+03;
  2.3376046E-02;  9.9999998E-03; -2.9987140E-02;2595; -1.6237004E-02;  0.0000000E+00; -6.2169705E-04;  9.7605145E+02;  1.0000000E-01; -1.9840920E+04;3;  3.6486481E+01;  0.0000000E+00; -2.5666864E+00;0; -3.0364430E-01;  3.8108777E+04;  0.0000000E+00; -1.1802900E-03;  4.0000000E+04;  0.0000000E+00;  4.0024430E+04; -3.1934267E-01;  0.0000000E+00;  1.5698366E-02;  5.0905962E+03;
  2.3371380E-02;  9.9999998E-03; -1.9991251E-02;2596; -1.6258111E-02;  0.0000000E+00; -4.1036279E-04;  9.7609723E+02;  1.0000000E-01; -1.9802996E+04;3;  3.5589069E+01;  0.0000000E+00; -1.6864622E+00;0; -3.0360639E-01;  3.8112719E+04;  0.0000000E+00; -6.2311441E-04;  4.0000000E+04;  0.0000000E+00;  4.0023988E+04; -3.1949127E-01;  0.0000000E+00;  1.5884871E-02;  5.0089268E+03;
  2.3368634E-02;  9.9999998E-03; -9.9955732E-03;2597; -1.6273215E-02;  0.0000000E+00; -2.0372320E-04;  9.7612463E+02;  1.0000000E-01; -1.9780279E+04;3;  3.5016117E+01;  0.0000000E+00; -8.3489436E-01;0; -3.0358610E-01;  3.8115250E+04;  0.0000000E+00; -1.7221860E-04;  4.0000000E+04;  0.0000000E+00;  4.0023477E+04; -3.1957287E-01;  0.0000000E+00;  1.5986770E-02;  4.9558018E+03;
  2.3367725E-02;  9.9999998E-03;  1.3161378E-10;2598; -1.6278688E-02;  0.0000000E+00; -1.1921168E-09;  9.7613324E+02;  1.0000000E-01; -1.9773170E+04;3;  3.4821995E+01;  0.0000000E+00;  3.5739060E-05;0; -3.0357999E-01;  3.8116027E+04;  0.0000000E+00; -3.4950542E-13;  4.0000000E+04;  0.0000000E+00;  4.0023348E+04; -3.1959882E-01;  0.0000000E+00;  1.6018853E-02;  4.9373887E+03;
  2.3368634E-02;  9.9999998E-03;  9.9955741E-03;2599; -1.6273215E-02;  0.0000000E+00;  2.0372130E-04;  9.7612463E+02;  1.0000000E-01; -1.9780279E+04;3;  3.5016132E+01;  0.0000000E+00;  8.3484656E-01;0; -3.0358601E-01;  3.8115250E+04;  0.0000000E+00; -1.7215562E-04;  4.0000000E+04;  0.0000000E+00;  4.0023477E+04; -3.1957278E-01;  0.0000000E+00;  1.5986765E-02;  4.9558047E+03;
  2.3371380E-02;  9.9999998E-03;  1.9991251E-02;2600; -1.6258109E-02;  0.0000000E+00;  4.1035825E-04;  9.7609723E+02;  1.0000000E-01; -1.9802996E+04;3;  3.5589142E+01;  0.0000000E+00;  1.6864487E+00;0; -3.0360639E-01;  3.8112723E+04;  0.0000000E+00; -6.2313728E-04;  4.0000000E+04;  0.0000000E+00;  4.0023988E+04; -3.1949127E-01;  0.0000000E+00;  1.5884891E-02;  5.0089341E+03;
  2.3376044E-02;  9.9999998E-03;  2.9987140E-02;2601; -1.6236998E-02;  0.0000000E+00;  6.2169798E-04;  9.7605139E+02;  1.0000000E-01; -1.9840969E+04;3;  3.6487061E+01;  0.0000000E+00;  2.5668266E+00;0; -3.0364436E-01;  3.8108777E+04;  0.0000000E+00; -1.1802298E-03;  4.0000000E+04;  0.0000000E+00;  4.0024430E+04; -3.1934273E-01;  0.0000000E+00;  1.5698373E-02;  5.0906157E+03;
  2.3382755E-02;  9.9999998E-03;  3.9983366E-02;2602; -1.6215082E-02;  0.0000000E+00;  8.3845778E-04;  9.7598706E+02;  1.0000000E-01; -1.9894252E+04;3;  3.7630272E+01;  0.0000000E+00;  3.4833763E+00;0; -3.0369911E-01;  3.8103008E+04;  0.0000000E+00; -1.6354386E-03;  4.0000000E+04;  0.0000000E+00;  4.0025203E+04; -3.1910810E-01;  0.0000000E+00;  1.5408993E-02;  5.1907568E+03;
  2.3391798E-02;  9.9999998E-03;  4.9980037E-02;2603; -1.6197693E-02;  0.0000000E+00;  1.0587266E-03;  9.7589825E+02;  1.0000000E-01; -1.9967830E+04;3;  3.8961109E+01;  0.0000000E+00;  4.4323196E+00;0; -3.0375355E-01;  3.8095520E+04;  0.0000000E+00; -1.8575967E-03;  4.0000000E+04;  0.0000000E+00;  4.0026051E+04; -3.1875712E-01;  0.0000000E+00;  1.5003574E-02;  5.2956909E+03;
  2.3403421E-02;  9.9999998E-03;  5.9977155E-02;2604; -1.6188750E-02;  0.0000000E+00;  1.2779617E-03;  9.7578729E+02;  1.0000000E-01; -2.0059779E+04;3;  4.0372929E+01;  0.0000000E+00;  5.3976827E+00;0; -3.0376649E-01;  3.8086391E+04;  0.0000000E+00; -1.9344863E-03;  4.0000000E+04;  0.0000000E+00;  4.0026734E+04; -3.1824946E-01;  0.0000000E+00;  1.4482986E-02;  5.3892178E+03;
  3.3428468E-02;  9.9999998E-03; -9.9951528E-02;2649; -2.0701287E-02;  0.0000000E+00; -2.3085054E-03;  9.7861200E+02;  1.0000000E-01; -1.7719549E+04;3; -1.3859921E+00;  0.0000000E+00; -6.5749211E+00;0; -3.1413451E-01;  3.8300270E+04;  0.0000000E+00; -1.9033819E-02;  4.0000000E+04;  0.0000000E+00;  4.0029871E+04; -3.2702768E-01;  0.0000000E+00;  1.2893173E-02;  5.5415669E+03;
  3.3404339E-02;  9.9999998E-03; -8.9958400E-02;2650; -2.0707924E-02;  0.0000000E+00; -2.1310369E-03;  9.7880975E+02;  1.0000000E-01; -1.7555701E+04;3; -2.4776430E+00;  0.0000000E+00; -6.0280423E+00;0; -3.1524324E-01;  3.8314316E+04;  0.0000000E+00; -9.8364865E-03;  4.0000000E+04;  0.0000000E+00;  4.0031223E+04; -3.2880551E-01;  0.0000000E+00;  1.3562259E-02;  5.6896304E+03;
  3.3383626E-02;  9.9999998E-03; -7.9964876E-02;2651; -2.0696729E-02;  0.0000000E+00; -1.9228349E-03;  9.7899475E+02;  1.0000000E-01; -1.7402471E+04;3; -3.6047521E+00;  0.0000000E+00; -5.3883681E+00;0; -3.1580952E-01;  3.8327523E+04;  0.0000000E+00; -5.2954815E-03;  4.0000000E+04;  0.0000000E+00;  4.0031867E+04; -3.3015707E-01;  0.0000000E+00;  1.4347548E-02;  5.7553818E+03;
  3.3366781E-02;  9.9999998E-03; -6.9970623E-02;2652; -2.0683413E-02;  0.0000000E+00; -1.6904344E-03;  9.7915320E+02;  1.0000000E-01; -1.7271166E+04;3; -4.7942686E+00;  0.0000000E+00; -4.6889191E+00;0; -3.1602395E-01;  3.8339703E+04;  0.0000000E+00; -3.4952192E-03;  4.0000000E+04;  0.0000000E+00;  4.0031887E+04; -3.3117044E-01;  0.0000000E+00;  1.5146504E-02;  5.7395757E+03;
  3.3353675E-02;  9.9999998E-03; -5.9975520E-02;2653; -2.0677583E-02;  0.0000000E+00; -1.4424246E-03;  9.7928369E+02;  1.0000000E-01; -1.7163070E+04;3; -6.0542965E+00;  0.0000000E+00; -3.9608965E+00;0; -3.1604213E-01;  3.8350414E+04;  0.0000000E+00; -2.9354382E-03;  4.0000000E+04;  0.0000000E+00;  4.0031301E+04; -3.3191937E-01;  0.0000000E+00;  1.5877234E-02;  5.6568726E+03;
  3.3343773E-02;  9.9999998E-03; -4.9979869E-02;2654; -2.0683104E-02;  0.0000000E+00; -1.1882705E-03;  9.7939056E+02;  1.0000000E-01; -1.7074529E+04;3; -7.3585200E+00;  0.0000000E+00; -3.2331474E+00;0; -3.1597668E-01;  3.8359488E+04;  0.0000000E+00; -2.6560116E-03;  4.0000000E+04;  0.0000000E+00;  4.0030270E+04; -3.3246383E-01;  0.0000000E+00;  1.6487155E-02;  5.5298970E+03;
  3.3336435E-02;  9.9999998E-03; -3.9983936E-02;2655; -2.0698929E-02;  0.0000000E+00; -9.3521515E-04;  9.7947394E+02;  1.0000000E-01; -1.7005445E+04;3; -8.6170998E+00;  0.0000000E+00; -2.5245423E+00;0; -3.1589764E-01;  3.8366895E+04;  0.0000000E+00; -2.2095391E-03;  4.0000000E+04;  0.0000000E+00;  4.0029141E+04; -3.3285174E-01;  0.0000000E+00;  1.6954103E-02;  5.3839805E+03;
  3.3331253E-02;  9.9999998E-03; -2.9987920E-02;2656; -2.0720460E-02;  0.0000000E+00; -6.8941066E-04;  9.7953290E+02;  1.0000000E-01; -1.6956607E+04;3; -9.7154703E+00;  0.0000000E+00; -1.8491503E+00;0; -3.1583840E-01;  3.8372621E+04;  0.0000000E+00; -1.5333166E-03;  4.0000000E+04;  0.0000000E+00;  4.0028137E+04; -3.3311978E-01;  0.0000000E+00;  1.7281393E-02;  5.2431416E+03;
  3.3327796E-02;  9.9999998E-03; -1.9991912E-02;2657; -2.0741869E-02;  0.0000000E+00; -4.5298404E-04;  9.7957458E+02;  1.0000000E-01; -1.6922090E+04;3; -1.0586861E+01;  0.0000000E+00; -1.2094512E+00;0; -3.1580511E-01;  3.8376559E+04;  0.0000000E+00; -7.9005928E-04;  4.0000000E+04;  0.0000000E+00;  4.0027086E+04; -3.3329356E-01;  0.0000000E+00;  1.7488450E-02;  5.1275522E+03;
  3.3325814E-02;  9.9999998E-03; -9.9959411E-03;2658; -2.0757500E-02;  0.0000000E+00; -2.2401722E-04;  9.7959857E+02;  1.0000000E-01; -1.6902189E+04;3; -1.1142369E+01;  0.0000000E+00; -5.9638160E-01;0; -3.1579095E-01;  3.8378949E+04;  0.0000000E+00; -2.1542286E-04;  4.0000000E+04;  0.0000000E+00;  4.0026500E+04; -3.3339059E-01;  0.0000000E+00;  1.7599642E-02;  5.0521382E+03;
  3.3325166E-02;  9.9999998E-03;  1.2602004E-10;2659; -2.0763211E-02;  0.0000000E+00;  6.7458344E-11;  9.7960602E+02;  1.0000000E-01; -1.6896016E+04;3; -1.1330958E+01;  0.0000000E+00; -9.8076634E-06;0; -3.1578827E-01;  3.8379664E+04;  0.0000000E+00; -2.2268908E-13;  4.0000000E+04;  0.0000000E+00;  4.0026289E+04; -3.3342257E-01;  0.0000000E+00;  1.7634302E-02;  5.0259937E+03;
  3.3325814E-02;  9.9999998E-03;  9.9959420E-03;2660; -2.0757496E-02;  0.0000000E+00;  2.2402004E-04;  9.7959845E+02;  1.0000000E-01; -1.6902287E+04;3; -1.1141621E+01;  0.0000000E+00;  5.9636992E-01;0; -3.1579116E-01;  3.8378949E+04;  0.0000000E+00; -2.1539560E-04;  4.0000000E+04;  0.0000000E+00;  4.0026500E+04; -3.3339080E-01;  0.0000000E+00;  1.7599650E-02;  5.0521426E+03;
  3.3327796E-02;  9.9999998E-03;  1.9991912E-02;2661; -2.0741869E-02;  0.0000000E+00;  4.5298319E-04;  9.7957471E+02;  1.0000000E-01; -1.6921990E+04;3; -1.0587494E+01;  0.0000000E+00;  1.2094793E+00;0; -3.1580520E-01;  3.8376555E+04;  0.0000000E+00; -7.8991550E-04;  4.0000000E+04;  0.0000000E+00;  4.0027086E+04; -3.3329365E-01;  0.0000000E+00;  1.7488457E-02;  5.1275571E+03;
  3.3331256E-02;  9.9999998E-03;  2.9987920E-02;2662; -2.0720458E-02;  0.0000000E+00;  6.8940851E-04;  9.7953284E+02;  1.0000000E-01; -1.6956656E+04;3; -9.7151003E+00;  0.0000000E+00;  1.8491129E+00;0; -3.1583825E-01;  3.8372617E+04;  0.0000000E+00; -1.5330015E-03;  4.0000000E+04;  0.0000000E+00;  4.0028137E+04; -3.3311963E-01;  0.0000000E+00;  1.7281396E-02;  5.2431504E+03;
  3.3336438E-02;  9.9999998E-03;  3.9983939E-02;2663; -2.0698924E-02;  0.0000000E+00;  9.3521329E-04;  9.7947382E+02;  1.0000000E-01; -1.7005543E+04;3; -8.6163359E+00;  0.0000000E+00;  2.5245059E+00;0; -3.1589752E-01;  3.8366895E+04;  0.0000000E+00; -2.2097318E-03;  4.0000000E+04;  0.0000000E+00;  4.0029137E+04; -3.3285162E-01;  0.0000000E+00;  1.6954109E-02;  5.3839917E+03;
  3.3343773E-02;  9.9999998E-03;  4.9979869E-02;2664; -2.0683097E-02;  0.0000000E+00;  1.1882635E-03;  9.7939056E+02;  1.0000000E-01; -1.7074529E+04;3; -7.3584294E+00;  0.0000000E+00;  3.2330799E+00;0; -3.1597659E-01;  3.8359488E+04;  0.0000000E+00; -2.6557313E-03;  4.0000000E+04;  0.0000000E+00;  4.0030270E+04; -3.3246374E-01;  0.0000000E+00;  1.6487163E-02;  5.5299087E+03;
  3.3353675E-02;  9.9999998E-03;  5.9975520E-02;2665; -2.0677580E-02;  0.0000000E+00;  1.4424248E-03;  9.7928369E+02;  1.0000000E-01; -1.7163070E+04;3; -6.0541310E+00;  0.0000000E+00;  3.9608657E+00;0; -3.1604204E-01;  3.8350414E+04;  0.0000000E+00; -2.9352668E-03;  4.0000000E+04;  0.0000000E+00;  4.0031301E+04; -3.3191928E-01;  0.0000000E+00;  1.5877247E-02;  5.6568882E+03;
  4.3388877E-02;  9.9999998E-03; -9.9938758E-02;2710; -2.5226155E-02;  0.0000000E+00; -2.5274877E-03;  9.8232983E+02;  1.0000000E-01; -1.4639389E+04;3; -3.3341129E+01;  0.0000000E+00; -4.5605516E+00;0; -3.2063618E-01;  3.8584547E+04;  0.0000000E+00; -1.8339029E-02;  4.0000000E+04;  0.0000000E+00;  4.0033258E+04; -3.3400100E-01;  0.0000000E+00;  1.3364834E-02;  5.6436089E+03;
  4.3363389E-02;  9.9999998E-03; -8.9948893E-02;2711; -2.5228500E-02;  0.0000000E+00; -2.3361845E-03;  9.8254065E+02;  1.0000000E-01; -1.4464727E+04;3; -3.4079971E+01;  0.0000000E+00; -4.1784687E+00;0; -3.2150742E-01;  3.8598895E+04;  0.0000000E+00; -9.7135575E-03;  4.0000000E+04;  0.0000000E+00;  4.0035156E+04; -3.3570546E-01;  0.0000000E+00;  1.4198029E-02;  5.8692700E+03;
  4.3342572E-02;  9.9999998E-03; -7.9958238E-02;2712; -2.5211982E-02;  0.0000000E+00; -2.1059797E-03;  9.8272412E+02;  1.0000000E-01; -1.4312731E+04;3; -3.4886719E+01;  0.0000000E+00; -3.7255375E+00;0; -3.2188746E-01;  3.8612348E+04;  0.0000000E+00; -5.5246600E-03;  4.0000000E+04;  0.0000000E+00;  4.0036156E+04; -3.3703172E-01;  0.0000000E+00;  1.5144255E-02;  5.9755742E+03;
  4.3326046E-02;  9.9999998E-03; -6.9966458E-02;2713; -2.5193596E-02;  0.0000000E+00; -1.8454827E-03;  9.8288171E+02;  1.0000000E-01; -1.4182167E+04;3; -3.5841892E+01;  0.0000000E+00; -3.2272320E+00;0; -3.2196820E-01;  3.8624375E+04;  0.0000000E+00; -3.8928085E-03;  4.0000000E+04;  0.0000000E+00;  4.0036129E+04; -3.3805460E-01;  0.0000000E+00;  1.6086392E-02;  5.9670376E+03;
  4.3313589E-02;  9.9999998E-03; -5.9973452E-02;2714; -2.5183629E-02;  0.0000000E+00; -1.5660829E-03;  9.8300952E+02;  1.0000000E-01; -1.4076293E+04;3; -3.6920708E+01;  0.0000000E+00; -2.7085006E+00;0; -3.2190198E-01;  3.8634867E+04;  0.0000000E+00; -3.3635739E-03;  4.0000000E+04;  0.0000000E+00;  4.0035352E+04; -3.3883512E-01;  0.0000000E+00;  1.6933138E-02;  5.8652534E+03;
  4.3304484E-02;  9.9999998E-03; -4.9979281E-02;2715; -2.5186272E-02;  0.0000000E+00; -1.2806460E-03;  9.8310944E+02;  1.0000000E-01; -1.3993530E+04;3; -3.8066719E+01;  0.0000000E+00; -2.1929929E+00;0; -3.2179475E-01;  3.8643746E+04;  0.0000000E+00; -3.0267446E-03;  4.0000000E+04;  0.0000000E+00;  4.0034145E+04; -3.3942291E-01;  0.0000000E+00;  1.7628178E-02;  5.7016470E+03;
  4.3298140E-02;  9.9999998E-03; -3.9984193E-02;2716; -2.5200499E-02;  0.0000000E+00; -1.0008096E-03;  9.8318396E+02;  1.0000000E-01; -1.3931754E+04;3; -3.9189926E+01;  0.0000000E+00; -1.6991625E+00;0; -3.2170624E-01;  3.8650902E+04;  0.0000000E+00; -2.4799681E-03;  4.0000000E+04;  0.0000000E+00;  4.0032727E+04; -3.3985722E-01;  0.0000000E+00;  1.8150970E-02;  5.5108179E+03;
  4.3293990E-02;  9.9999998E-03; -2.9988494E-02;2717; -2.5221588E-02;  0.0000000E+00; -7.3274260E-04;  9.8323724E+02;  1.0000000E-01; -1.3887607E+04;3; -4.0195499E+01;  0.0000000E+00; -1.2353430E+00;0; -3.2165712E-01;  3.8656418E+04;  0.0000000E+00; -1.6971475E-03;  4.0000000E+04;  0.0000000E+00;  4.0031336E+04; -3.4016734E-01;  0.0000000E+00;  1.8510219E-02;  5.3253193E+03;
  4.3291435E-02;  9.9999998E-03; -1.9992428E-02;2718; -2.5243089E-02;  0.0000000E+00; -4.7857768E-04;  9.8327136E+02;  1.0000000E-01; -1.3859361E+04;3; -4.0984501E+01;  0.0000000E+00; -8.0286890E-01;0; -3.2164210E-01;  3.8660258E+04;  0.0000000E+00; -8.6566334E-04;  4.0000000E+04;  0.0000000E+00;  4.0030195E+04; -3.4037471E-01;  0.0000000E+00;  1.8732620E-02;  5.1725073E+03;
  4.3290079E-02;  9.9999998E-03; -9.9962167E-03;2719; -2.5258807E-02;  0.0000000E+00; -2.3614346E-04;  9.8329126E+02;  1.0000000E-01; -1.3842868E+04;3; -4.1492214E+01;  0.0000000E+00; -3.9504561E-01;0; -3.2164365E-01;  3.8662410E+04;  0.0000000E+00; -2.3463249E-04;  4.0000000E+04;  0.0000000E+00;  4.0029438E+04; -3.4049329E-01;  0.0000000E+00;  1.8849628E-02;  5.0726147E+03;
  4.3289650E-02;  9.9999998E-03;  9.6982380E-11;2720; -2.5264522E-02;  0.0000000E+00; -2.2529781E-10;  9.8329803E+02;  1.0000000E-01; -1.3837238E+04;3; -4.1668266E+01;  0.0000000E+00; -3.5348676E-06;0; -3.2164681E-01;  3.8663254E+04;  0.0000000E+00; -6.1702656E-13;  4.0000000E+04;  0.0000000E+00;  4.0029141E+04; -3.4053242E-01;  0.0000000E+00;  1.8885601E-02;  5.0379233E+03;
  4.3290079E-02;  9.9999998E-03;  9.9962167E-03;2721; -2.5258802E-02;  0.0000000E+00;  2.3613972E-04;  9.8329120E+02;  1.0000000E-01; -1.3842917E+04;3; -4.1491905E+01;  0.0000000E+00;  3.9502245E-01;0; -3.2164365E-01;  3.8662406E+04;  0.0000000E+00; -2.3458057E-04;  4.0000000E+04;  0.0000000E+00;  4.0029438E+04; -3.4049329E-01;  0.0000000E+00;  1.8849626E-02;  5.0726187E+03;
  4.3291435E-02;  9.9999998E-03;  1.9992428E-02;2722; -2.5243081E-02;  0.0000000E+00;  4.7856758E-04;  9.8327136E+02;  1.0000000E-01; -1.3859361E+04;3; -4.0984489E+01;  0.0000000E+00;  8.0283558E-01;0; -3.2164189E-01;  3.8660262E+04;  0.0000000E+00; -8.6555519E-04;  4.0000000E+04;  0.0000000E+00;  4.0030195E+04; -3.4037453E-01;  0.0000000E+00;  1.8732641E-02;  5.1725098E+03;
  4.3293990E-02;  9.9999998E-03;  2.9988494E-02;2723; -2.5221594E-02;  0.0000000E+00;  7.3273835E-04;  9.8323724E+02;  1.0000000E-01; -1.3887607E+04;3; -4.0195396E+01;  0.0000000E+00;  1.2352667E+00;0; -3.2165709E-01;  3.8656418E+04;  0.0000000E+00; -1.6969952E-03;  4.0000000E+04;  0.0000000E+00;  4.0031336E+04; -3.4016734E-01;  0.0000000E+00;  1.8510239E-02;  5.3253340E+03;
  4.3298140E-02;  9.9999998E-03;  3.9984193E-02;2724; -2.5200497E-02;  0.0000000E+00;  1.0008152E-03;  9.8318390E+02;  1.0000000E-01; -1.3931804E+04;3; -3.9189678E+01;  0.0000000E+00;  1.6992633E+00;0; -3.2170600E-01;  3.8650902E+04;  0.0000000E+00; -2.4799216E-03;  4.0000000E+04;  0.0000000E+00;  4.0032727E+04; -3.3985698E-01;  0.0000000E+00;  1.8150970E-02;  5.5108271E+03;
  4.3304484E-02;  9.9999998E-03;  4.9979281E-02;2725; -2.5186269E-02;  0.0000000E+00;  1.2806484E-03;  9.8310944E+02;  1.0000000E-01; -1.3993530E+04;3; -3.8066582E+01;  0.0000000E+00;  2.1930170E+00;0; -3.2179481E-01;  3.8643742E+04;  0.0000000E+00; -3.0266177E-03;  4.0000000E+04;  0.0000000E+00;  4.0034148E+04; -3.3942300E-01;  0.0000000E+00;  1.7628180E-02;  5.7016636E+03;
  4.3313589E-02;  9.9999998E-03;  5.9973452E-02;2726; -2.5183622E-02;  0.0000000E+00;  1.5660835E-03;  9.8300952E+02;  1.0000000E-01; -1.4076293E+04;3; -3.6920677E+01;  0.0000000E+00;  2.7084997E+00;0; -3.2190183E-01;  3.8634875E+04;  0.0000000E+00; -3.3635634E-03;  4.0000000E+04;  0.0000000E+00;  4.0035352E+04; -3.3883500E-01;  0.0000000E+00;  1.6933164E-02;  5.8652695E+03;
  5.3362738E-02;  9.9999998E-03; -9.9930324E-02;2771; -2.9547766E-02;  0.0000000E+00; -2.6800525E-03;  9.8594092E+02;  1.0000000E-01; -1.1647671E+04;3; -4.8680992E+01;  0.0000000E+00; -2.9510050E+00;0; -3.2128483E-01;  3.8863543E+04;  0.0000000E+00; -1.4062818E-02;  4.0000000E+04;  0.0000000E+00;  4.0036113E+04; -3.3473617E-01;  0.0000000E+00;  1.3451329E-02;  5.6842812E+03;
  5.3335633E-02;  9.9999998E-03; -8.9942351E-02;2772; -2.9549373E-02;  0.0000000E+00; -2.4819402E-03;  9.8615747E+02;  1.0000000E-01; -1.1468269E+04;3; -4.9131741E+01;  0.0000000E+00; -2.7010083E+00;0; -3.2189584E-01;  3.8877777E+04;  0.0000000E+00; -7.1900613E-03;  4.0000000E+04;  0.0000000E+00;  4.0038461E+04; -3.3634788E-01;  0.0000000E+00;  1.4452052E-02;  5.9878848E+03;
  5.3313412E-02;  9.9999998E-03; -7.9953454E-02;2773; -2.9530684E-02;  0.0000000E+00; -2.2360878E-03;  9.8633850E+02;  1.0000000E-01; -1.1318297E+04;3; -4.9686424E+01;  0.0000000E+00; -2.4006586E+00;0; -3.2208481E-01;  3.8890758E+04;  0.0000000E+00; -4.0978133E-03;  4.0000000E+04;  0.0000000E+00;  4.0039852E+04; -3.3764324E-01;  0.0000000E+00;  1.5558421E-02;  6.1346035E+03;
  5.3295981E-02;  9.9999998E-03; -6.9963261E-02;2774; -2.9509660E-02;  0.0000000E+00; -1.9513038E-03;  9.8648987E+02;  1.0000000E-01; -1.1192868E+04;3; -5.0415169E+01;  0.0000000E+00; -2.0662982E+00;0; -3.2203940E-01;  3.8902348E+04;  0.0000000E+00; -3.1150430E-03;  4.0000000E+04;  0.0000000E+00;  4.0040125E+04; -3.3867890E-01;  0.0000000E+00;  1.6639493E-02;  6.1326367E+03;
  5.3282976E-02;  9.9999998E-03; -5.9971597E-02;2775; -2.9497150E-02;  0.0000000E+00; -1.6445260E-03;  9.8660852E+02;  1.0000000E-01; -1.1094600E+04;3; -5.1284931E+01;  0.0000000E+00; -1.7189426E+00;0; -3.2190639E-01;  3.8912305E+04;  0.0000000E+00; -2.9480571E-03;  4.0000000E+04;  0.0000000E+00;  4.0039074E+04; -3.3950177E-01;  0.0000000E+00;  1.7595395E-02;  6.0105630E+03;
  5.3273767E-02;  9.9999998E-03; -4.9978409E-02;2776; -2.9497955E-02;  0.0000000E+00; -1.3346885E-03;  9.8669672E+02;  1.0000000E-01; -1.1021516E+04;3; -5.2234421E+01;  0.0000000E+00; -1.3786451E+00;0; -3.2177949E-01;  3.8920691E+04;  0.0000000E+00; -2.8038013E-03;  4.0000000E+04;  0.0000000E+00;  4.0037461E+04; -3.4014666E-01;  0.0000000E+00;  1.8367181E-02;  5.8087178E+03;
  5.3267688E-02;  9.9999998E-03; -3.9983992E-02;2777; -2.9510988E-02;  0.0000000E+00; -1.0344062E-03;  9.8676031E+02;  1.0000000E-01; -1.0968825E+04;3; -5.3184509E+01;  0.0000000E+00; -1.0580765E+00;0; -3.2170454E-01;  3.8927367E+04;  0.0000000E+00; -2.3577681E-03;  4.0000000E+04;  0.0000000E+00;  4.0035590E+04; -3.4064156E-01;  0.0000000E+00;  1.8937008E-02;  5.5710342E+03;
  5.3263925E-02;  9.9999998E-03; -2.9988658E-02;2778; -2.9531430E-02;  0.0000000E+00; -7.5111276E-04;  9.8680621E+02;  1.0000000E-01; -1.0930802E+04;3; -5.4051277E+01;  0.0000000E+00; -7.6253480E-01;0; -3.2168689E-01;  3.8932586E+04;  0.0000000E+00; -1.6314632E-03;  4.0000000E+04;  0.0000000E+00;  4.0033848E+04; -3.4100693E-01;  0.0000000E+00;  1.9320054E-02;  5.3389844E+03;
  5.3261794E-02;  9.9999998E-03; -1.9992720E-02;2779; -2.9552652E-02;  0.0000000E+00; -4.8740700E-04;  9.8683417E+02;  1.0000000E-01; -1.0907643E+04;3; -5.4734238E+01;  0.0000000E+00; -4.9171597E-01;0; -3.2170677E-01;  3.8936266E+04;  0.0000000E+00; -8.3581492E-04;  4.0000000E+04;  0.0000000E+00;  4.0032332E+04; -3.4125802E-01;  0.0000000E+00;  1.9551257E-02;  5.1472896E+03;
  5.3260781E-02;  9.9999998E-03; -9.9964393E-03;2780; -2.9568240E-02;  0.0000000E+00; -2.3896842E-04;  9.8684723E+02;  1.0000000E-01; -1.0896827E+04;3; -5.5164593E+01;  0.0000000E+00; -2.4038950E-01;0; -3.2173529E-01;  3.8938402E+04;  0.0000000E+00; -2.2690461E-04;  4.0000000E+04;  0.0000000E+00;  4.0031273E+04; -3.4140515E-01;  0.0000000E+00;  1.9669866E-02;  5.0217764E+03;
  5.3260505E-02;  9.9999998E-03;  8.3286079E-11;2781; -2.9574029E-02;  0.0000000E+00; -4.3878931E-10;  9.8685364E+02;  1.0000000E-01; -1.0891494E+04;3; -5.5320797E+01;  0.0000000E+00;  2.4845882E-05;0; -3.2174772E-01;  3.8939090E+04;  0.0000000E+00; -5.7254060E-13;  4.0000000E+04;  0.0000000E+00;  4.0030895E+04; -3.4145340E-01;  0.0000000E+00;  1.9705694E-02;  4.9781904E+03;
  5.3260777E-02;  9.9999998E-03;  9.9964403E-03;2782; -2.9568244E-02;  0.0000000E+00;  2.3897282E-04;  9.8684729E+02;  1.0000000E-01; -1.0896778E+04;3; -5.5164841E+01;  0.0000000E+00;  2.4040969E-01;0; -3.2173523E-01;  3.8938402E+04;  0.0000000E+00; -2.2686704E-04;  4.0000000E+04;  0.0000000E+00;  4.0031273E+04; -3.4140506E-01;  0.0000000E+00;  1.9669844E-02;  5.0217778E+03;
  5.3261794E-02;  9.9999998E-03;  1.9992720E-02;2783; -2.9552648E-02;  0.0000000E+00;  4.8740709E-04;  9.8683417E+02;  1.0000000E-01; -1.0907643E+04;3; -5.4734219E+01;  0.0000000E+00;  4.9172211E-01;0; -3.2170653E-01;  3.8936262E+04;  0.0000000E+00; -8.3582266E-04;  4.0000000E+04;  0.0000000E+00;  4.0032332E+04; -3.4125781E-01;  0.0000000E+00;  1.9551285E-02;  5.1472983E+03;
  5.3263925E-02;  9.9999998E-03;  2.9988658E-02;2784; -2.9531421E-02;  0.0000000E+00;  7.5111340E-04;  9.8680615E+02;  1.0000000E-01; -1.0930852E+04;3; -5.4051094E+01;  0.0000000E+00;  7.6255989E-01;0; -3.2168692E-01;  3.8932590E+04;  0.0000000E+00; -1.6313886E-03;  4.0000000E+04;  0.0000000E+00;  4.0033848E+04; -3.4100699E-01;  0.0000000E+00;  1.9320073E-02;  5.3389902E+03;
  5.3267688E-02;  9.9999998E-03;  3.9983992E-02;2785; -2.9510980E-02;  0.0000000E+00;  1.0344026E-03;  9.8676031E+02;  1.0000000E-01; -1.0968825E+04;3; -5.3184452E+01;  0.0000000E+00;  1.0580454E+00;0; -3.2170427E-01;  3.8927371E+04;  0.0000000E+00; -2.3574186E-03;  4.0000000E+04;  0.0000000E+00;  4.0035594E+04; -3.4064129E-01;  0.0000000E+00;  1.8937016E-02;  5.5710522E+03;
  5.3273767E-02;  9.9999998E-03;  4.9978409E-02;2786; -2.9497953E-02;  0.0000000E+00;  1.3346928E-03;  9.8669672E+02;  1.0000000E-01; -1.1021516E+04;3; -5.2234371E+01;  0.0000000E+00;  1.3787019E+00;0; -3.2177940E-01;  3.8920691E+04;  0.0000000E+00; -2.8037981E-03;  4.0000000E+04;  0.0000000E+00;  4.0037461E+04; -3.4014657E-01;  0.0000000E+00;  1.8367177E-02;  5.8087275E+03;
  5.3282976E-02;  9.9999998E-03;  5.9971597E-02;2787; -2.9497143E-02;  0.0000000E+00;  1.6445207E-03;  9.8660852E+02;  1.0000000E-01; -1.1094600E+04;3; -5.1284874E+01;  0.0000000E+00;  1.7189562E+00;0; -3.2190609E-01;  3.8912309E+04;  0.0000000E+00; -2.9481130E-03;  4.0000000E+04;  0.0000000E+00;  4.0039074E+04; -3.3950150E-01;  0.0000000E+00;  1.7595397E-02;  6.0105767E+03;
  6.3353591E-02;  9.9999998E-03; -9.9925667E-02;2832; -3.3528108E-02;  0.0000000E+00; -2.7591784E-03;  9.8917175E+02;  1.0000000E-01; -8.9710059E+03;3; -5.0404274E+01;  0.0000000E+00; -1.7627063E+00;0; -3.1698582E-01;  3.9115105E+04;  0.0000000E+00; -6.5381993E-03;  4.0000000E+04;  0.0000000E+00;  4.0038016E+04; -3.3013391E-01;  0.0000000E+00;  1.3148109E-02;  5.6676108E+03;
  6.3323066E-02;  9.9999998E-03; -8.9939006E-02;2833; -3.3532098E-02;  0.0000000E+00; -2.5578975E-03;  9.8938330E+02;  1.0000000E-01; -8.7957510E+03;3; -5.0643497E+01;  0.0000000E+00; -1.6079613E+00;0; -3.1733936E-01;  3.9128699E+04;  0.0000000E+00; -2.4124344E-03;  4.0000000E+04;  0.0000000E+00;  4.0041164E+04; -3.3165205E-01;  0.0000000E+00;  1.4312681E-02;  6.0441030E+03;
  6.3297883E-02;  9.9999998E-03; -7.9951130E-02;2834; -3.3514611E-02;  0.0000000E+00; -2.3023358E-03;  9.8955798E+02;  1.0000000E-01; -8.6510146E+03;3; -5.1012058E+01;  0.0000000E+00; -1.4218460E+00;0; -3.1735322E-01;  3.9140695E+04;  0.0000000E+00; -1.0931551E-03;  4.0000000E+04;  0.0000000E+00;  4.0042816E+04; -3.3292487E-01;  0.0000000E+00;  1.5571665E-02;  6.2275884E+03;
  6.3278273E-02;  9.9999998E-03; -6.9961682E-02;2835; -3.3493791E-02;  0.0000000E+00; -1.9988809E-03;  9.8969440E+02;  1.0000000E-01; -8.5379805E+03;3; -5.1534893E+01;  0.0000000E+00; -1.2125616E+00;0; -3.1720763E-01;  3.9151242E+04;  0.0000000E+00; -1.2341565E-03;  4.0000000E+04;  0.0000000E+00;  4.0042805E+04; -3.3398893E-01;  0.0000000E+00;  1.6781308E-02;  6.2298730E+03;
  6.3263811E-02;  9.9999998E-03; -5.9970509E-02;2836; -3.3481516E-02;  0.0000000E+00; -1.6721587E-03;  9.8979901E+02;  1.0000000E-01; -8.4513164E+03;3; -5.2202225E+01;  0.0000000E+00; -9.9768335E-01;0; -3.1703645E-01;  3.9160215E+04;  0.0000000E+00; -1.7742482E-03;  4.0000000E+04;  0.0000000E+00;  4.0041742E+04; -3.3487087E-01;  0.0000000E+00;  1.7834410E-02;  6.0863101E+03;
  6.3253798E-02;  9.9999998E-03; -4.9977709E-02;2837; -3.3482056E-02;  0.0000000E+00; -1.3451206E-03;  9.8987317E+02;  1.0000000E-01; -8.3898857E+03;3; -5.2950348E+01;  0.0000000E+00; -7.8999412E-01;0; -3.1692123E-01;  3.9167777E+04;  0.0000000E+00; -2.0770633E-03;  4.0000000E+04;  0.0000000E+00;  4.0039910E+04; -3.3559194E-01;  0.0000000E+00;  1.8670700E-02;  5.8455962E+03;
  6.3247271E-02;  9.9999998E-03; -3.9983571E-02;2838; -3.3494852E-02;  0.0000000E+00; -1.0317384E-03;  9.8992383E+02;  1.0000000E-01; -8.3479121E+03;3; -5.3710335E+01;  0.0000000E+00; -5.9785473E-01;0; -3.1688902E-01;  3.9173902E+04;  0.0000000E+00; -1.9223019E-03;  4.0000000E+04;  0.0000000E+00;  4.0037785E+04; -3.3616507E-01;  0.0000000E+00;  1.9276056E-02;  5.5607905E+03;
  6.3243300E-02;  9.9999998E-03; -2.9988505E-02;2839; -3.3514909E-02;  0.0000000E+00; -7.4071164E-04;  9.8995477E+02;  1.0000000E-01; -8.3222832E+03;3; -5.4398209E+01;  0.0000000E+00; -4.2458558E-01;0; -3.1692830E-01;  3.9178559E+04;  0.0000000E+00; -1.3928262E-03;  4.0000000E+04;  0.0000000E+00;  4.0035629E+04; -3.3660141E-01;  0.0000000E+00;  1.9673107E-02;  5.2819404E+03;
  6.3241117E-02;  9.9999998E-03; -1.9992709E-02;2840; -3.3535887E-02;  0.0000000E+00; -4.7561369E-04;  9.8997711E+02;  1.0000000E-01; -8.3037656E+03;3; -5.4957836E+01;  0.0000000E+00; -2.7073854E-01;0; -3.1700251E-01;  3.9181766E+04;  0.0000000E+00; -7.2981732E-04;  4.0000000E+04;  0.0000000E+00;  4.0033730E+04; -3.3690810E-01;  0.0000000E+00;  1.9905604E-02;  5.0512139E+03;
  6.3240081E-02;  9.9999998E-03; -9.9964757E-03;2841; -3.3551443E-02;  0.0000000E+00; -2.3163982E-04;  9.8998724E+02;  1.0000000E-01; -8.2953701E+03;3; -5.5313690E+01;  0.0000000E+00; -1.3160609E-01;0; -3.1706932E-01;  3.9183832E+04;  0.0000000E+00; -2.0021628E-04;  4.0000000E+04;  0.0000000E+00;  4.0032609E+04; -3.3709037E-01;  0.0000000E+00;  2.0021053E-02;  4.8999556E+03;
  6.3239768E-02;  9.9999998E-03;  7.5486242E-11;2842; -3.3557117E-02;  0.0000000E+00;  7.9804230E-10;  9.8999030E+02;  1.0000000E-01; -8.2928516E+03;3; -5.5436298E+01;  0.0000000E+00;  2.5473109E-05;0; -3.1709534E-01;  3.9184379E+04;  0.0000000E+00; -4.4433348E-13;  4.0000000E+04;  0.0000000E+00;  4.0032152E+04; -3.3715045E-01;  0.0000000E+00;  2.0055125E-02;  4.8474146E+03;
  6.3240081E-02;  9.9999998E-03;  9.9964757E-03;2843; -3.3551447E-02;  0.0000000E+00;  2.3163762E-04;  9.8998724E+02;  1.0000000E-01; -8.2953701E+03;3; -5.5313702E+01;  0.0000000E+00;  1.3162453E-01;0; -3.1706923E-01;  3.9183832E+04;  0.0000000E+00; -2.0019575E-04;  4.0000000E+04;  0.0000000E+00;  4.0032609E+04; -3.3709028E-01;  0.0000000E+00;  2.0021036E-02;  4.8999570E+03;
  6.3241117E-02;  9.9999998E-03;  1.9992709E-02;2844; -3.3535883E-02;  0.0000000E+00;  4.7560970E-04;  9.8997711E+02;  1.0000000E-01; -8.3037656E+03;3; -5.4957878E+01;  0.0000000E+00;  2.7073827E-01;0; -3.1700230E-01;  3.9181766E+04;  0.0000000E+00; -7.2966173E-04;  4.0000000E+04;  0.0000000E+00;  4.0033730E+04; -3.3690789E-01;  0.0000000E+00;  1.9905582E-02;  5.0512271E+03;
  6.3243300E-02;  9.9999998E-03;  2.9988505E-02;2845; -3.3514909E-02;  0.0000000E+00;  7.4070814E-04;  9.8995477E+02;  1.0000000E-01; -8.3222832E+03;3; -5.4398193E+01;  0.0000000E+00;  4.2448750E-01;0; -3.1692836E-01;  3.9178559E+04;  0.0000000E+00; -1.3927898E-03;  4.0000000E+04;  0.0000000E+00;  4.0035629E+04; -3.3660147E-01;  0.0000000E+00;  1.9673105E-02;  5.2819512E+03;
  6.3247271E-02;  9.9999998E-03;  3.9983571E-02;2846; -3.3494845E-02;  0.0000000E+00;  1.0317382E-03;  9.8992383E+02;  1.0000000E-01; -8.3479121E+03;3; -5.3710297E+01;  0.0000000E+00;  5.9786510E-01;0; -3.1688905E-01;  3.9173902E+04;  0.0000000E+00; -1.9219738E-03;  4.0000000E+04;  0.0000000E+00;  4.0037785E+04; -3.3616510E-01;  0.0000000E+00;  1.9276060E-02;  5.5608018E+03;
  6.3253798E-02;  9.9999998E-03;  4.9977709E-02;2847; -3.3482056E-02;  0.0000000E+00;  1.3451222E-03;  9.8987317E+02;  1.0000000E-01; -8.3898857E+03;3; -5.2950333E+01;  0.0000000E+00;  7.9003012E-01;0; -3.1692129E-01;  3.9167777E+04;  0.0000000E+00; -2.0773334E-03;  4.0000000E+04;  0.0000000E+00;  4.0039910E+04; -3.3559200E-01;  0.0000000E+00;  1.8670708E-02;  5.8456064E+03;
  6.3263811E-02;  9.9999998E-03;  5.9970509E-02;2848; -3.3481508E-02;  0.0000000E+00;  1.6721555E-03;  9.8979895E+02;  1.0000000E-01; -8.4513662E+03;3; -5.2202068E+01;  0.0000000E+00;  9.9762857E-01;0; -3.1703678E-01;  3.9160219E+04;  0.0000000E+00; -1.7738797E-03;  4.0000000E+04;  0.0000000E+00;  4.0041742E+04; -3.3487120E-01;  0.0000000E+00;  1.7834429E-02;  6.0863301E+03;
  7.3364332E-02;  9.9999998E-03; -9.9924758E-02;2893; -3.7099525E-02;  0.0000000E+00; -2.7549115E-03;  9.9183771E+02;  1.0000000E-01; -6.7623271E+03;3; -4.3376789E+01;  0.0000000E+00; -9.4736928E-01;0; -3.0895773E-01;  3.9324105E+04;  0.0000000E+00;  2.8083650E-03;  4.0000000E+04;  0.0000000E+00;  4.0039293E+04; -3.2143259E-01;  0.0000000E+00;  1.2474868E-02;  5.5962358E+03;
  7.3329374E-02;  9.9999998E-03; -8.9938842E-02;2894; -3.7110090E-02;  0.0000000E+00; -2.5552276E-03;  9.9203540E+02;  1.0000000E-01; -6.5985293E+03;3; -4.3489212E+01;  0.0000000E+00; -8.5797459E-01;0; -3.0907834E-01;  3.9335879E+04;  0.0000000E+00;  3.6135423E-03;  4.0000000E+04;  0.0000000E+00;  4.0042973E+04; -3.2287133E-01;  0.0000000E+00;  1.3792985E-02;  6.0357500E+03;
  7.3300511E-02;  9.9999998E-03; -7.9951294E-02;2895; -3.7098225E-02;  0.0000000E+00; -2.2983192E-03;  9.9218903E+02;  1.0000000E-01; -6.4712246E+03;3; -4.3713970E+01;  0.0000000E+00; -7.5174934E-01;0; -3.0895004E-01;  3.9346137E+04;  0.0000000E+00;  2.7488295E-03;  4.0000000E+04;  0.0000000E+00;  4.0044750E+04; -3.2414058E-01;  0.0000000E+00;  1.5190529E-02;  6.2490962E+03;
  7.3278002E-02;  9.9999998E-03; -6.9961846E-02;2896; -3.7081778E-02;  0.0000000E+00; -1.9844915E-03;  9.9230463E+02;  1.0000000E-01; -6.3754741E+03;3; -4.4075005E+01;  0.0000000E+00; -6.3228458E-01;0; -3.0874160E-01;  3.9355020E+04;  0.0000000E+00;  1.1950774E-03;  4.0000000E+04;  0.0000000E+00;  4.0044797E+04; -3.2525426E-01;  0.0000000E+00;  1.6512660E-02;  6.2517144E+03;
  7.3261492E-02;  9.9999998E-03; -5.9970666E-02;2897; -3.7072629E-02;  0.0000000E+00; -1.6446641E-03;  9.9238745E+02;  1.0000000E-01; -6.3068340E+03;3; -4.4555679E+01;  0.0000000E+00; -5.1033580E-01;0; -3.0857211E-01;  3.9362691E+04;  0.0000000E+00; -2.5171685E-04;  4.0000000E+04;  0.0000000E+00;  4.0043586E+04; -3.2621861E-01;  0.0000000E+00;  1.7646480E-02;  6.0849897E+03;
  7.3250040E-02;  9.9999998E-03; -4.9978022E-02;2898; -3.7075557E-02;  0.0000000E+00; -1.3106165E-03;  9.9244226E+02;  1.0000000E-01; -6.2614526E+03;3; -4.5109646E+01;  0.0000000E+00; -3.9657375E-01;0; -3.0850381E-01;  3.9369051E+04;  0.0000000E+00; -1.1401920E-03;  4.0000000E+04;  0.0000000E+00;  4.0041438E+04; -3.2703549E-01;  0.0000000E+00;  1.8531665E-02;  5.8054561E+03;
  7.3242575E-02;  9.9999998E-03; -3.9984107E-02;2899; -3.7089609E-02;  0.0000000E+00; -9.9313178E-04;  9.9247528E+02;  1.0000000E-01; -6.2340952E+03;3; -4.5676971E+01;  0.0000000E+00; -2.9332238E-01;0; -3.0854648E-01;  3.9374195E+04;  0.0000000E+00; -1.3690705E-03;  4.0000000E+04;  0.0000000E+00;  4.0038793E+04; -3.2770541E-01;  0.0000000E+00;  1.9158917E-02;  5.4744419E+03;
  7.3238015E-02;  9.9999998E-03; -2.9989036E-02;2900; -3.7110191E-02;  0.0000000E+00; -7.0329930E-04;  9.9249609E+02;  1.0000000E-01; -6.2168613E+03;3; -4.6201424E+01;  0.0000000E+00; -2.0325091E-01;0; -3.0866864E-01;  3.9378113E+04;  0.0000000E+00; -1.0950223E-03;  4.0000000E+04;  0.0000000E+00;  4.0036227E+04; -3.2822758E-01;  0.0000000E+00;  1.9558931E-02;  5.1499907E+03;
  7.3235504E-02;  9.9999998E-03; -1.9993104E-02;2901; -3.7131201E-02;  0.0000000E+00; -4.4593264E-04;  9.9250452E+02;  1.0000000E-01; -6.2098491E+03;3; -4.6617161E+01;  0.0000000E+00; -1.2649760E-01;0; -3.0881608E-01;  3.9380902E+04;  0.0000000E+00; -5.9987884E-04;  4.0000000E+04;  0.0000000E+00;  4.0034094E+04; -3.2860079E-01;  0.0000000E+00;  1.9784719E-02;  4.8812007E+03;
  7.3234290E-02;  9.9999998E-03; -9.9966610E-03;2902; -3.7146572E-02;  0.0000000E+00; -2.1542859E-04;  9.9250946E+02;  1.0000000E-01; -6.2057505E+03;3; -4.6888145E+01;  0.0000000E+00; -6.0524672E-02;0; -3.0893293E-01;  3.9382664E+04;  0.0000000E+00; -1.6789936E-04;  4.0000000E+04;  0.0000000E+00;  4.0032578E+04; -3.2882518E-01;  0.0000000E+00;  1.9892246E-02;  4.7048379E+03;
  7.3233932E-02;  9.9999998E-03;  3.0994835E-11;2903; -3.7152171E-02;  0.0000000E+00; -1.2246824E-09;  9.9251038E+02;  1.0000000E-01; -6.2050098E+03;3; -4.6980694E+01;  0.0000000E+00; -6.9676207E-06;0; -3.0897737E-01;  3.9383184E+04;  0.0000000E+00; -4.8617490E-13;  4.0000000E+04;  0.0000000E+00;  4.0032133E+04; -3.2890040E-01;  0.0000000E+00;  1.9923028E-02;  4.6435337E+03;
  7.3234290E-02;  9.9999998E-03;  9.9966610E-03;2904; -3.7146576E-02;  0.0000000E+00;  2.1542715E-04;  9.9250946E+02;  1.0000000E-01; -6.2057505E+03;3; -4.6888184E+01;  0.0000000E+00;  6.0525596E-02;0; -3.0893284E-01;  3.9382664E+04;  0.0000000E+00; -1.6787915E-04;  4.0000000E+04;  0.0000000E+00;  4.0032578E+04; -3.2882509E-01;  0.0000000E+00;  1.9892247E-02;  4.7048442E+03;
  7.3235504E-02;  9.9999998E-03;  1.9993104E-02;2905; -3.7131209E-02;  0.0000000E+00;  4.4593227E-04;  9.9250452E+02;  1.0000000E-01; -6.2098491E+03;3; -4.6617222E+01;  0.0000000E+00;  1.2653133E-01;0; -3.0881634E-01;  3.9380906E+04;  0.0000000E+00; -5.9985078E-04;  4.0000000E+04;  0.0000000E+00;  4.0034094E+04; -3.2860106E-01;  0.0000000E+00;  1.9784722E-02;  4.8812134E+03;
  7.3238015E-02;  9.9999998E-03;  2.9989036E-02;2906; -3.7110191E-02;  0.0000000E+00;  7.0329726E-04;  9.9249615E+02;  1.0000000E-01; -6.2168120E+03;3; -4.6201523E+01;  0.0000000E+00;  2.0326458E-01;0; -3.0866852E-01;  3.9378113E+04;  0.0000000E+00; -1.0949280E-03;  4.0000000E+04;  0.0000000E+00;  4.0036227E+04; -3.2822746E-01;  0.0000000E+00;  1.9558925E-02;  5.1500000E+03;
  7.3242575E-02;  9.9999998E-03;  3.9984107E-02;2907; -3.7089597E-02;  0.0000000E+00;  9.9313341E-04;  9.9247522E+02;  1.0000000E-01; -6.2341445E+03;3; -4.5676758E+01;  0.0000000E+00;  2.9331788E-01;0; -3.0854663E-01;  3.9374195E+04;  0.0000000E+00; -1.3689286E-03;  4.0000000E+04;  0.0000000E+00;  4.0038793E+04; -3.2770556E-01;  0.0000000E+00;  1.9158917E-02;  5.4744600E+03;
  7.3250033E-02;  9.9999998E-03;  4.9978022E-02;2908; -3.7075557E-02;  0.0000000E+00;  1.3106160E-03;  9.9244226E+02;  1.0000000E-01; -6.2614526E+03;3; -4.5109695E+01;  0.0000000E+00;  3.9657420E-01;0; -3.0850407E-01;  3.9369055E+04;  0.0000000E+00; -1.1404301E-03;  4.0000000E+04;  0.0000000E+00;  4.0041438E+04; -3.2703575E-01;  0.0000000E+00;  1.8531673E-02;  5.8054644E+03;
  7.3261492E-02;  9.9999998E-03;  5.9970666E-02;2909; -3.7072625E-02;  0.0000000E+00;  1.6446630E-03;  9.9238751E+02;  1.0000000E-01; -6.3067847E+03;3; -4.4555752E+01;  0.0000000E+00;  5.1032197E-01;0; -3.0857199E-01;  3.9362691E+04;  0.0000000E+00; -2.5202462E-04;  4.0000000E+04;  0.0000000E+00;  4.0043586E+04; -3.2621852E-01;  0.0000000E+00;  1.7646529E-02;  6.0850093E+03;
  8.3400644E-02;  9.9999998E-03; -9.9927485E-02;2954; -4.0257074E-02;  0.0000000E+00; -2.6600349E-03;  9.9383148E+02;  1.0000000E-01; -5.1105220E+03;3; -3.2460854E+01;  0.0000000E+00; -4.2822531E-01;0; -2.9858878E-01;  3.9481141E+04;  0.0000000E+00;  1.1854573E-02;  4.0000000E+04;  0.0000000E+00;  4.0039789E+04; -3.1006199E-01;  0.0000000E+00;  1.1473221E-02;  5.4715303E+03;
  8.3362237E-02;  9.9999998E-03; -8.9941636E-02;2955; -4.0279582E-02;  0.0000000E+00; -2.4746840E-03;  9.9399799E+02;  1.0000000E-01; -4.9725508E+03;3; -3.2498642E+01;  0.0000000E+00; -3.8155371E-01;0; -2.9851565E-01;  3.9490141E+04;  0.0000000E+00;  9.3470076E-03;  4.0000000E+04;  0.0000000E+00;  4.0043625E+04; -3.1144422E-01;  0.0000000E+00;  1.2928571E-02;  5.9606904E+03;
  8.3330087E-02;  9.9999998E-03; -7.9953864E-02;2956; -4.0278975E-02;  0.0000000E+00; -2.2215520E-03;  9.9412323E+02;  1.0000000E-01; -4.8688008E+03;3; -3.2632492E+01;  0.0000000E+00; -3.2646212E-01;0; -2.9828978E-01;  3.9497969E+04;  0.0000000E+00;  6.3194833E-03;  4.0000000E+04;  0.0000000E+00;  4.0045594E+04; -3.1273451E-01;  0.0000000E+00;  1.4444741E-02;  6.1946499E+03;
  8.3304912E-02;  9.9999998E-03; -6.9964200E-02;2957; -4.0271271E-02;  0.0000000E+00; -1.9071830E-03;  9.9421173E+02;  1.0000000E-01; -4.7954692E+03;3; -3.2870800E+01;  0.0000000E+00; -2.6696306E-01;0; -2.9806298E-01;  3.9504598E+04;  0.0000000E+00;  3.3918533E-03;  4.0000000E+04;  0.0000000E+00;  4.0045527E+04; -3.1392124E-01;  0.0000000E+00;  1.5858257E-02;  6.1921636E+03;
  8.3286256E-02;  9.9999998E-03; -5.9972767E-02;2958; -4.0269531E-02;  0.0000000E+00; -1.5644296E-03;  9.9426385E+02;  1.0000000E-01; -4.7523101E+03;3; -3.3193401E+01;  0.0000000E+00; -2.0654467E-01;0; -2.9793611E-01;  3.9510184E+04;  0.0000000E+00;  1.0881332E-03;  4.0000000E+04;  0.0000000E+00;  4.0044137E+04; -3.1498855E-01;  0.0000000E+00;  1.7052434E-02;  6.0003135E+03;
  8.3273321E-02;  9.9999998E-03; -4.9979914E-02;2959; -4.0277831E-02;  0.0000000E+00; -1.2307237E-03;  9.9429474E+02;  1.0000000E-01; -4.7266812E+03;3; -3.3576317E+01;  0.0000000E+00; -1.5355468E-01;0; -2.9795209E-01;  3.9514941E+04;  0.0000000E+00; -3.3463290E-04;  4.0000000E+04;  0.0000000E+00;  4.0041613E+04; -3.1592032E-01;  0.0000000E+00;  1.7968247E-02;  5.6823442E+03;
  8.3264947E-02;  9.9999998E-03; -3.9985862E-02;2960; -4.0295143E-02;  0.0000000E+00; -9.1810455E-04;  9.9430896E+02;  1.0000000E-01; -4.7149282E+03;3; -3.3972481E+01;  0.0000000E+00; -1.0716475E-01;0; -2.9809988E-01;  3.9518844E+04;  0.0000000E+00; -9.0145826E-04;  4.0000000E+04;  0.0000000E+00;  4.0038598E+04; -3.1670216E-01;  0.0000000E+00;  1.8602289E-02;  5.3068843E+03;
  8.3259933E-02;  9.9999998E-03; -2.9990848E-02;2961; -4.0317662E-02;  0.0000000E+00; -6.3899736E-04;  9.9431073E+02;  1.0000000E-01; -4.7134468E+03;3; -3.4335125E+01;  0.0000000E+00; -6.9655560E-02;0; -2.9832786E-01;  3.9521852E+04;  0.0000000E+00; -8.4669841E-04;  4.0000000E+04;  0.0000000E+00;  4.0035738E+04; -3.1732148E-01;  0.0000000E+00;  1.8993622E-02;  4.9390308E+03;
  8.3257154E-02;  9.9999998E-03; -1.9994812E-02;2962; -4.0339515E-02;  0.0000000E+00; -3.9886485E-04;  9.9430725E+02;  1.0000000E-01; -4.7163110E+03;3; -3.4625862E+01;  0.0000000E+00; -4.0817726E-02;0; -2.9856542E-01;  3.9524055E+04;  0.0000000E+00; -4.9240165E-04;  4.0000000E+04;  0.0000000E+00;  4.0033266E+04; -3.1777009E-01;  0.0000000E+00;  1.9204685E-02;  4.6341670E+03;
  8.3255924E-02;  9.9999998E-03; -9.9977572E-03;2963; -4.0355172E-02;  0.0000000E+00; -1.9043325E-04;  9.9430499E+02;  1.0000000E-01; -4.7181875E+03;3; -3.4815315E+01;  0.0000000E+00; -1.8902743E-02;0; -2.9874215E-01;  3.9525297E+04;  0.0000000E+00; -1.4128404E-04;  4.0000000E+04;  0.0000000E+00;  4.0031723E+04; -3.1804174E-01;  0.0000000E+00;  1.9299585E-02;  4.4339941E+03;
  8.3255574E-02;  9.9999998E-03;  2.7309422E-11;2964; -4.0360849E-02;  0.0000000E+00;  3.5003164E-11;  9.9430432E+02;  1.0000000E-01; -4.7187803E+03;3; -3.4881245E+01;  0.0000000E+00; -2.1312044E-06;0; -2.9880697E-01;  3.9525758E+04;  0.0000000E+00;  3.0230831E-13;  4.0000000E+04;  0.0000000E+00;  4.0031113E+04; -3.1813243E-01;  0.0000000E+00;  1.9325478E-02;  4.3643262E+03;
  8.3255924E-02;  9.9999998E-03;  9.9977572E-03;2965; -4.0355168E-02;  0.0000000E+00;  1.9043380E-04;  9.9430499E+02;  1.0000000E-01; -4.7181875E+03;3; -3.4815277E+01;  0.0000000E+00;  1.8923489E-02;0; -2.9874218E-01;  3.9525297E+04;  0.0000000E+00; -1.4123788E-04;  4.0000000E+04;  0.0000000E+00;  4.0031723E+04; -3.1804174E-01;  0.0000000E+00;  1.9299574E-02;  4.4340000E+03;
  8.3257154E-02;  9.9999998E-03;  1.9994812E-02;2966; -4.0339518E-02;  0.0000000E+00;  3.9886532E-04;  9.9430725E+02;  1.0000000E-01; -4.7163110E+03;3; -3.4625992E+01;  0.0000000E+00;  4.0813997E-02;0; -2.9856572E-01;  3.9524055E+04;  0.0000000E+00; -4.9239141E-04;  4.0000000E+04;  0.0000000E+00;  4.0033266E+04; -3.1777039E-01;  0.0000000E+00;  1.9204678E-02;  4.6341768E+03;
  8.3259925E-02;  9.9999998E-03;  2.9990848E-02;2967; -4.0317655E-02;  0.0000000E+00;  6.3899695E-04;  9.9431073E+02;  1.0000000E-01; -4.7134468E+03;3; -3.4335159E+01;  0.0000000E+00;  6.9659829E-02;0; -2.9832789E-01;  3.9521852E+04;  0.0000000E+00; -8.4670662E-04;  4.0000000E+04;  0.0000000E+00;  4.0035738E+04; -3.1732154E-01;  0.0000000E+00;  1.8993648E-02;  4.9390405E+03;
  8.3264947E-02;  9.9999998E-03;  3.9985862E-02;2968; -4.0295139E-02;  0.0000000E+00;  9.1810542E-04;  9.9430896E+02;  1.0000000E-01; -4.7149282E+03;3; -3.3972427E+01;  0.0000000E+00;  1.0714618E-01;0; -2.9810002E-01;  3.9518848E+04;  0.0000000E+00; -9.0154377E-04;  4.0000000E+04;  0.0000000E+00;  4.0038598E+04; -3.1670231E-01;  0.0000000E+00;  1.8602282E-02;  5.3068975E+03;
  8.3273321E-02;  9.9999998E-03;  4.9979914E-02;2969; -4.0277824E-02;  0.0000000E+00;  1.2307254E-03;  9.9429468E+02;  1.0000000E-01; -4.7267305E+03;3; -3.3576252E+01;  0.0000000E+00;  1.5356958E-01;0; -2.9795209E-01;  3.9514934E+04;  0.0000000E+00; -3.3416800E-04;  4.0000000E+04;  0.0000000E+00;  4.0041613E+04; -3.1592035E-01;  0.0000000E+00;  1.7968271E-02;  5.6823662E+03;
  8.3286256E-02;  9.9999998E-03;  5.9972767E-02;2970; -4.0269528E-02;  0.0000000E+00;  1.5644295E-03;  9.9426385E+02;  1.0000000E-01; -4.7523101E+03;3; -3.3193459E+01;  0.0000000E+00;  2.0654888E-01;0; -2.9793602E-01;  3.9510188E+04;  0.0000000E+00;  1.0882692E-03;  4.0000000E+04;  0.0000000E+00;  4.0044137E+04; -3.1498846E-01;  0.0000000E+00;  1.7052457E-02;  6.0003232E+03;
  9.3465209E-02;  9.9999998E-03; -9.9934146E-02;3015; -4.3040894E-02;  0.0000000E+00; -2.4817188E-03;  9.9512061E+02;  1.0000000E-01; -4.0425029E+03;3; -2.1396839E+01;  0.0000000E+00; -1.2461027E-01;0; -2.8728676E-01;  3.9582613E+04;  0.0000000E+00;  1.8485628E-02;  4.0000000E+04;  0.0000000E+00;  4.0039168E+04; -2.9749131E-01;  0.0000000E+00;  1.0204545E-02;  5.2951401E+03;
  9.3427703E-02;  9.9999998E-03; -8.9947976E-02;3016; -4.3081392E-02;  0.0000000E+00; -2.3130390E-03;  9.9524457E+02;  1.0000000E-01; -3.9397898E+03;3; -2.1399656E+01;  0.0000000E+00; -1.0302357E-01;0; -2.8706649E-01;  3.9588090E+04;  0.0000000E+00;  1.3283375E-02;  4.0000000E+04;  0.0000000E+00;  4.0043336E+04; -2.9884166E-01;  0.0000000E+00;  1.1775171E-02;  5.8183770E+03;
  9.3395516E-02;  9.9999998E-03; -7.9959802E-02;3017; -4.3098375E-02;  0.0000000E+00; -2.0727583E-03;  9.9532831E+02;  1.0000000E-01; -3.8704089E+03;3; -2.1471952E+01;  0.0000000E+00; -7.8864880E-02;0; -2.8679019E-01;  3.9592512E+04;  0.0000000E+00;  8.5853236E-03;  4.0000000E+04;  0.0000000E+00;  4.0045512E+04; -3.0017510E-01;  0.0000000E+00;  1.3384908E-02;  6.0621592E+03;
  9.3369797E-02;  9.9999998E-03; -6.9969691E-02;3018; -4.3105766E-02;  0.0000000E+00; -1.7697870E-03;  9.9537421E+02;  1.0000000E-01; -3.8323855E+03;3; -2.1613420E+01;  0.0000000E+00; -5.4480024E-02;0; -2.8658965E-01;  3.9596234E+04;  0.0000000E+00;  4.6777814E-03;  4.0000000E+04;  0.0000000E+00;  4.0045344E+04; -3.0145407E-01;  0.0000000E+00;  1.4864414E-02;  6.0484043E+03;
  9.3350738E-02;  9.9999998E-03; -5.9977826E-02;3019; -4.3116584E-02;  0.0000000E+00; -1.4329385E-03;  9.9539386E+02;  1.0000000E-01; -3.8160896E+03;3; -2.1816540E+01;  0.0000000E+00; -3.1938411E-02;0; -2.8654513E-01;  3.9599344E+04;  0.0000000E+00;  1.8258371E-03;  4.0000000E+04;  0.0000000E+00;  4.0043535E+04; -3.0264062E-01;  0.0000000E+00;  1.6095499E-02;  5.8290952E+03;
  9.3337670E-02;  9.9999998E-03; -4.9984492E-02;3020; -4.3134000E-02;  0.0000000E+00; -1.1059681E-03;  9.9539600E+02;  1.0000000E-01; -3.8143118E+03;3; -2.2058975E+01;  0.0000000E+00; -1.4751676E-02;0; -2.8667790E-01;  3.9601992E+04;  0.0000000E+00;  9.8906865E-05;  4.0000000E+04;  0.0000000E+00;  4.0040820E+04; -3.0369982E-01;  0.0000000E+00;  1.7021917E-02;  5.4732837E+03;
  9.3329430E-02;  9.9999998E-03; -3.9990000E-02;3021; -4.3157607E-02;  0.0000000E+00; -8.0830685E-04;  9.9538330E+02;  1.0000000E-01; -3.8248301E+03;3; -2.2308464E+01;  0.0000000E+00; -2.3941400E-03;0; -2.8695595E-01;  3.9604184E+04;  0.0000000E+00; -6.4648088E-04;  4.0000000E+04;  0.0000000E+00;  4.0037406E+04; -3.0460268E-01;  0.0000000E+00;  1.7646730E-02;  5.0557676E+03;
  9.3324624E-02;  9.9999998E-03; -2.9994449E-02;3022; -4.3184530E-02;  0.0000000E+00; -5.5106188E-04;  9.9536749E+02;  1.0000000E-01; -3.8379656E+03;3; -2.2540405E+01;  0.0000000E+00;  4.2546941E-03;0; -2.8730938E-01;  3.9606078E+04;  0.0000000E+00; -7.0612709E-04;  4.0000000E+04;  0.0000000E+00;  4.0034160E+04; -3.0532709E-01;  0.0000000E+00;  1.8017713E-02;  4.6475835E+03;
  9.3322083E-02;  9.9999998E-03; -1.9997694E-02;3023; -4.3208752E-02;  0.0000000E+00; -3.3758045E-04;  9.9535010E+02;  1.0000000E-01; -3.8523354E+03;3; -2.2725506E+01;  0.0000000E+00;  5.2984720E-03;0; -2.8764898E-01;  3.9607438E+04;  0.0000000E+00; -4.2929026E-04;  4.0000000E+04;  0.0000000E+00;  4.0031391E+04; -3.0585524E-01;  0.0000000E+00;  1.8206261E-02;  4.3094355E+03;
  9.3321018E-02;  9.9999998E-03; -9.9995108E-03;3024; -4.3225165E-02;  0.0000000E+00; -1.5846008E-04;  9.9533954E+02;  1.0000000E-01; -3.8611255E+03;3; -2.2846052E+01;  0.0000000E+00;  3.2292737E-03;0; -2.8789166E-01;  3.9608160E+04;  0.0000000E+00; -1.2524896E-04;  4.0000000E+04;  0.0000000E+00;  4.0029578E+04; -3.0617586E-01;  0.0000000E+00;  1.8284200E-02;  4.0873516E+03;
  9.3320802E-02;  9.9999998E-03;  1.0541328E-12;3025; -4.3230791E-02;  0.0000000E+00;  4.1455281E-10;  9.9533667E+02;  1.0000000E-01; -3.8634956E+03;3; -2.2888113E+01;  0.0000000E+00; -5.7490979E-08;0; -2.8797981E-01;  3.9608523E+04;  0.0000000E+00; -1.1791190E-12;  4.0000000E+04;  0.0000000E+00;  4.0028902E+04; -3.0628365E-01;  0.0000000E+00;  1.8303841E-02;  4.0100293E+03;
  9.3321018E-02;  9.9999998E-03;  9.9995108E-03;3026; -4.3225165E-02;  0.0000000E+00;  1.5846216E-04;  9.9533954E+02;  1.0000000E-01; -3.8611255E+03;3; -2.2846087E+01;  0.0000000E+00; -3.2113525E-03;0; -2.8789225E-01;  3.9608160E+04;  0.0000000E+00; -1.2522601E-04;  4.0000000E+04;  0.0000000E+00;  4.0029578E+04; -3.0617645E-01;  0.0000000E+00;  1.8284198E-02;  4.0873552E+03;
  9.3322083E-02;  9.9999998E-03;  1.9997694E-02;3027; -4.3208756E-02;  0.0000000E+00;  3.3758028E-04;  9.9535004E+02;  1.0000000E-01; -3.8523848E+03;3; -2.2725365E+01;  0.0000000E+00; -5.2950927E-03;0; -2.8764904E-01;  3.9607441E+04;  0.0000000E+00; -4.2915120E-04;  4.0000000E+04;  0.0000000E+00;  4.0031391E+04; -3.0585530E-01;  0.0000000E+00;  1.8206270E-02;  4.3094468E+03;
  9.3324624E-02;  9.9999998E-03;  2.9994449E-02;3028; -4.3184526E-02;  0.0000000E+00;  5.5106275E-04;  9.9536749E+02;  1.0000000E-01; -3.8379656E+03;3; -2.2540440E+01;  0.0000000E+00; -4.2700288E-03;0; -2.8730941E-01;  3.9606074E+04;  0.0000000E+00; -7.0592121E-04;  4.0000000E+04;  0.0000000E+00;  4.0034160E+04; -3.0532712E-01;  0.0000000E+00;  1.8017717E-02;  4.6475947E+03;
  9.3329430E-02;  9.9999998E-03;  3.9990000E-02;3029; -4.3157611E-02;  0.0000000E+00;  8.0830749E-04;  9.9538324E+02;  1.0000000E-01; -3.8248794E+03;3; -2.2308453E+01;  0.0000000E+00;  2.3906636E-03;0; -2.8695613E-01;  3.9604180E+04;  0.0000000E+00; -6.4622925E-04;  4.0000000E+04;  0.0000000E+00;  4.0037406E+04; -3.0460286E-01;  0.0000000E+00;  1.7646715E-02;  5.0557822E+03;
  9.3337670E-02;  9.9999998E-03;  4.9984492E-02;3030; -4.3133996E-02;  0.0000000E+00;  1.1059685E-03;  9.9539600E+02;  1.0000000E-01; -3.8143118E+03;3; -2.2059002E+01;  0.0000000E+00;  1.4748594E-02;0; -2.8667781E-01;  3.9601992E+04;  0.0000000E+00;  9.8955970E-05;  4.0000000E+04;  0.0000000E+00;  4.0040820E+04; -3.0369973E-01;  0.0000000E+00;  1.7021926E-02;  5.4732930E+03;
  9.3350738E-02;  9.9999998E-03;  5.9977826E-02;3031; -4.3116581E-02;  0.0000000E+00;  1.4329397E-03;  9.9539386E+02;  1.0000000E-01; -3.8160896E+03;3; -2.1816484E+01;  0.0000000E+00;  3.1944808E-02;0; -2.8654513E-01;  3.9599344E+04;  0.0000000E+00;  1.8257268E-03;  4.0000000E+04;  0.0000000E+00;  4.0043535E+04; -3.0264065E-01;  0.0000000E+00;  1.6095506E-02;  5.8291001E+03;
  1.0351470E-01;  9.9999998E-03; -9.9942997E-02;3076; -4.5512673E-02;  0.0000000E+00; -2.2319397E-03;  9.9571948E+02;  1.0000000E-01; -3.5463193E+03;3; -1.2412976E+01;  0.0000000E+00;  3.8730491E-02;0; -2.7637941E-01;  3.9629910E+04;  0.0000000E+00;  2.1195909E-02;  4.0000000E+04;  0.0000000E+00;  4.0037785E+04; -2.8513253E-01;  0.0000000E+00;  8.7531116E-03;  5.0735107E+03;
  1.0347720E-01;  9.9999998E-03; -8.9956224E-02;3077; -4.5575973E-02;  0.0000000E+00; -2.0833088E-03;  9.9578845E+02;  1.0000000E-01; -3.4891853E+03;3; -1.2407837E+01;  0.0000000E+00;  4.6488348E-02;0; -2.7607018E-01;  3.9630852E+04;  0.0000000E+00;  1.4398977E-02;  4.0000000E+04;  0.0000000E+00;  4.0042047E+04; -2.8648397E-01;  0.0000000E+00;  1.0413791E-02;  5.6148599E+03;
  1.0344475E-01;  9.9999998E-03; -7.9967394E-02;3078; -4.5616321E-02;  0.0000000E+00; -1.8606016E-03;  9.9581830E+02;  1.0000000E-01; -3.4644453E+03;3; -1.2445325E+01;  0.0000000E+00;  5.4155193E-02;0; -2.7579635E-01;  3.9630973E+04;  0.0000000E+00;  8.9033144E-03;  4.0000000E+04;  0.0000000E+00;  4.0044113E+04; -2.8788507E-01;  0.0000000E+00;  1.2088718E-02;  5.8573232E+03;
  1.0341883E-01;  9.9999998E-03; -6.9976650E-02;3079; -4.5645162E-02;  0.0000000E+00; -1.5766267E-03;  9.9581769E+02;  1.0000000E-01; -3.4649885E+03;3; -1.2525648E+01;  0.0000000E+00;  5.9206508E-02;0; -2.7566692E-01;  3.9630980E+04;  0.0000000E+00;  4.6848217E-03;  4.0000000E+04;  0.0000000E+00;  4.0043926E+04; -2.8927299E-01;  0.0000000E+00;  1.3606066E-02;  5.8259570E+03;
  1.0339963E-01;  9.9999998E-03; -5.9984166E-02;3080; -4.5673672E-02;  0.0000000E+00; -1.2590558E-03;  9.9579602E+02;  1.0000000E-01; -3.4829138E+03;3; -1.2641617E+01;  0.0000000E+00;  5.9789568E-02;0; -2.7574065E-01;  3.9631023E+04;  0.0000000E+00;  1.7718087E-03;  4.0000000E+04;  0.0000000E+00;  4.0041879E+04; -2.9058945E-01;  0.0000000E+00;  1.4848812E-02;  5.5770620E+03;
  1.0338666E-01;  9.9999998E-03; -4.9990177E-02;3081; -4.5704916E-02;  0.0000000E+00; -9.4909873E-04;  9.9576093E+02;  1.0000000E-01; -3.5119995E+03;3; -1.2779695E+01;  0.0000000E+00;  5.7532988E-02;0; -2.7601761E-01;  3.9631367E+04;  0.0000000E+00;  7.5944961E-05;  4.0000000E+04;  0.0000000E+00;  4.0038711E+04; -2.9178277E-01;  0.0000000E+00;  1.5765162E-02;  5.1846021E+03;
  1.0337860E-01;  9.9999998E-03; -3.9995082E-02;3082; -4.5738075E-02;  0.0000000E+00; -6.7379524E-04;  9.9572144E+02;  1.0000000E-01; -3.5446899E+03;3; -1.2923057E+01;  0.0000000E+00;  5.2089471E-02;0; -2.7644494E-01;  3.9631543E+04;  0.0000000E+00; -6.3354825E-04;  4.0000000E+04;  0.0000000E+00;  4.0034918E+04; -2.9281002E-01;  0.0000000E+00;  1.6365079E-02;  4.7282715E+03;
  1.0337391E-01;  9.9999998E-03; -2.9998630E-02;3083; -4.5771156E-02;  0.0000000E+00; -4.4640517E-04;  9.9568304E+02;  1.0000000E-01; -3.5764915E+03;3; -1.3055259E+01;  0.0000000E+00;  3.9661076E-02;0; -2.7693519E-01;  3.9631977E+04;  0.0000000E+00; -6.8026647E-04;  4.0000000E+04;  0.0000000E+00;  4.0031273E+04; -2.9364008E-01;  0.0000000E+00;  1.6704885E-02;  4.2838794E+03;
  1.0337144E-01;  9.9999998E-03; -2.0000681E-02;3084; -4.5799147E-02;  0.0000000E+00; -2.6609068E-04;  9.9565045E+02;  1.0000000E-01; -3.6035029E+03;3; -1.3160974E+01;  0.0000000E+00;  2.6995920E-02;0; -2.7738404E-01;  3.9632320E+04;  0.0000000E+00; -4.1059489E-04;  4.0000000E+04;  0.0000000E+00;  4.0028480E+04; -2.9424816E-01;  0.0000000E+00;  1.6864110E-02;  3.9163213E+03;
  1.0337044E-01;  9.9999998E-03; -1.0001279E-02;3085; -4.5817435E-02;  0.0000000E+00; -1.2264408E-04;  9.9563098E+02;  1.0000000E-01; -3.6196506E+03;3; -1.3230258E+01;  0.0000000E+00;  1.5445760E-02;0; -2.7769718E-01;  3.9632633E+04;  0.0000000E+00; -1.1936518E-04;  4.0000000E+04;  0.0000000E+00;  4.0026512E+04; -2.9461867E-01;  0.0000000E+00;  1.6921498E-02;  3.6750063E+03;
  1.0337017E-01;  9.9999998E-03; -1.1821928E-11;3086; -4.5823634E-02;  0.0000000E+00;  8.9098051E-10;  9.9562231E+02;  1.0000000E-01; -3.6268110E+03;3; -1.3253490E+01;  0.0000000E+00; -2.6924554E-06;0; -2.7780953E-01;  3.9632777E+04;  0.0000000E+00; -7.3753524E-14;  4.0000000E+04;  0.0000000E+00;  4.0025828E+04; -2.9474327E-01;  0.0000000E+00;  1.6933735E-02;  3.5909736E+03;
  1.0337044E-01;  9.9999998E-03;  1.0001279E-02;3087; -4.5817439E-02;  0.0000000E+00;  1.2264636E-04;  9.9563098E+02;  1.0000000E-01; -3.6196506E+03;3; -1.3230245E+01;  0.0000000E+00; -1.5432668E-02;0; -2.7769709E-01;  3.9632633E+04;  0.0000000E+00; -1.1930567E-04;  4.0000000E+04;  0.0000000E+00;  4.0026512E+04; -2.9461855E-01;  0.0000000E+00;  1.6921462E-02;  3.6750076E+03;
  1.0337144E-01;  9.9999998E-03;  2.0000681E-02;3088; -4.5799144E-02;  0.0000000E+00;  2.6609210E-04;  9.9565045E+02;  1.0000000E-01; -3.6035029E+03;3; -1.3160939E+01;  0.0000000E+00; -2.7004348E-02;0; -2.7738422E-01;  3.9632324E+04;  0.0000000E+00; -4.1025539E-04;  4.0000000E+04;  0.0000000E+00;  4.0028480E+04; -2.9424834E-01;  0.0000000E+00;  1.6864119E-02;  3.9163291E+03;
  1.0337391E-01;  9.9999998E-03;  2.9998630E-02;3089; -4.5771159E-02;  0.0000000E+00;  4.4640663E-04;  9.9568304E+02;  1.0000000E-01; -3.5764915E+03;3; -1.3055244E+01;  0.0000000E+00; -3.9665926E-02;0; -2.7693501E-01;  3.9631977E+04;  0.0000000E+00; -6.8005366E-04;  4.0000000E+04;  0.0000000E+00;  4.0031273E+04; -2.9363990E-01;  0.0000000E+00;  1.6704887E-02;  4.2838901E+03;
  1.0337860E-01;  9.9999998E-03;  3.9995078E-02;3090; -4.5738075E-02;  0.0000000E+00;  6.7379628E-04;  9.9572144E+02;  1.0000000E-01; -3.5446899E+03;3; -1.2923006E+01;  0.0000000E+00; -5.2085310E-02;0; -2.7644503E-01;  3.9631539E+04;  0.0000000E+00; -6.3372642E-04;  4.0000000E+04;  0.0000000E+00;  4.0034922E+04; -2.9281011E-01;  0.0000000E+00;  1.6365094E-02;  4.7282905E+03;
  1.0338666E-01;  9.9999998E-03;  4.9990177E-02;3091; -4.5704912E-02;  0.0000000E+00;  9.4909995E-04;  9.9576093E+02;  1.0000000E-01; -3.5119995E+03;3; -1.2779639E+01;  0.0000000E+00; -5.7516381E-02;0; -2.7601752E-01;  3.9631371E+04;  0.0000000E+00;  7.5595781E-05;  4.0000000E+04;  0.0000000E+00;  4.0038711E+04; -2.9178265E-01;  0.0000000E+00;  1.5765140E-02;  5.1846147E+03;
  1.0339963E-01;  9.9999998E-03;  5.9984166E-02;3092; -4.5673672E-02;  0.0000000E+00;  1.2590559E-03;  9.9579590E+02;  1.0000000E-01; -3.4830127E+03;3; -1.2641660E+01;  0.0000000E+00; -5.9783708E-02;0; -2.7574095E-01;  3.9631023E+04;  0.0000000E+00;  1.7727677E-03;  4.0000000E+04;  0.0000000E+00;  4.0041879E+04; -2.9058975E-01;  0.0000000E+00;  1.4848812E-02;  5.5770747E+03;
  1.1352835E-01;  9.9999998E-03; -9.9951133E-02;3137; -4.7758553E-02;  0.0000000E+00; -1.9301937E-03;  9.9570825E+02;  1.0000000E-01; -3.5556526E+03;3; -6.2743416E+00;  0.0000000E+00;  1.2169442E-01;0; -2.6689535E-01;  3.9628734E+04;  0.0000000E+00;  1.9222889E-02;  4.0000000E+04;  0.0000000E+00;  4.0035547E+04; -2.7410755E-01;  0.0000000E+00;  7.2122030E-03;  4.8165542E+03;
  1.1348793E-01;  9.9999998E-03; -8.9963235E-02;3138; -4.7849741E-02;  0.0000000E+00; -1.8033320E-03;  9.9570941E+02;  1.0000000E-01; -3.5546648E+03;3; -6.2741032E+00;  0.0000000E+00;  1.2273224E-01;0; -2.6655564E-01;  3.9624023E+04;  0.0000000E+00;  1.2242627E-02;  4.0000000E+04;  0.0000000E+00;  4.0040094E+04; -2.7549222E-01;  0.0000000E+00;  8.9365980E-03;  5.3608496E+03;
  1.1345291E-01;  9.9999998E-03; -7.9973347E-02;3139; -4.7919095E-02;  0.0000000E+00; -1.6025403E-03;  9.9567340E+02;  1.0000000E-01; -3.5844912E+03;3; -6.2955842E+00;  0.0000000E+00;  1.2098406E-01;0; -2.6633388E-01;  3.9619336E+04;  0.0000000E+00;  7.0416965E-03;  4.0000000E+04;  0.0000000E+00;  4.0041832E+04; -2.7698135E-01;  0.0000000E+00;  1.0647478E-02;  5.5913799E+03;
  1.1342473E-01;  9.9999998E-03; -6.9981657E-02;3140; -4.7975242E-02;  0.0000000E+00; -1.3425755E-03;  9.9561987E+02;  1.0000000E-01; -3.6288357E+03;3; -6.3396997E+00;  0.0000000E+00;  1.1577424E-01;0; -2.6631534E-01;  3.9615219E+04;  0.0000000E+00;  3.3179955E-03;  4.0000000E+04;  0.0000000E+00;  4.0041305E+04; -2.7848956E-01;  0.0000000E+00;  1.2174205E-02;  5.5364810E+03;
  1.1340381E-01;  9.9999998E-03; -5.9988432E-02;3141; -4.8026733E-02;  0.0000000E+00; -1.0555577E-03;  9.9554773E+02;  1.0000000E-01; -3.6886365E+03;3; -6.3999219E+00;  0.0000000E+00;  1.0635991E-01;0; -2.6653603E-01;  3.9611770E+04;  0.0000000E+00;  9.0048474E-04;  4.0000000E+04;  0.0000000E+00;  4.0039164E+04; -2.7993965E-01;  0.0000000E+00;  1.3403634E-02;  5.2563110E+03;
  1.1338937E-01;  9.9999998E-03; -4.9993791E-02;3142; -4.8076268E-02;  0.0000000E+00; -7.7249715E-04;  9.9547485E+02;  1.0000000E-01; -3.7489805E+03;3; -6.4715009E+00;  0.0000000E+00;  9.3784615E-02;0; -2.6697513E-01;  3.9609133E+04;  0.0000000E+00; -4.0771737E-04;  4.0000000E+04;  0.0000000E+00;  4.0035602E+04; -2.8126520E-01;  0.0000000E+00;  1.4290076E-02;  4.8288047E+03;
  1.1338012E-01;  9.9999998E-03; -3.9997976E-02;3143; -4.8122630E-02;  0.0000000E+00; -5.2711525E-04;  9.9540125E+02;  1.0000000E-01; -3.8099663E+03;3; -6.5441666E+00;  0.0000000E+00;  7.6560155E-02;0; -2.6756281E-01;  3.9607230E+04;  0.0000000E+00; -8.6479308E-04;  4.0000000E+04;  0.0000000E+00;  4.0031633E+04; -2.8241372E-01;  0.0000000E+00;  1.4850911E-02;  4.3374712E+03;
  1.1337426E-01;  9.9999998E-03; -3.0000605E-02;3144; -4.8164092E-02;  0.0000000E+00; -3.3539659E-04;  9.9533948E+02;  1.0000000E-01; -3.8611748E+03;3; -6.6111341E+00;  0.0000000E+00;  5.7800431E-02;0; -2.6819405E-01;  3.9606055E+04;  0.0000000E+00; -7.7355478E-04;  4.0000000E+04;  0.0000000E+00;  4.0027672E+04; -2.8334427E-01;  0.0000000E+00;  1.5150221E-02;  3.8615725E+03;
  1.1337070E-01;  9.9999998E-03; -2.0001743E-02;3145; -4.8197038E-02;  0.0000000E+00; -1.9112797E-04;  9.9529248E+02;  1.0000000E-01; -3.9000872E+03;3; -6.6649723E+00;  0.0000000E+00;  3.8262080E-02;0; -2.6875356E-01;  3.9605320E+04;  0.0000000E+00; -4.4020970E-04;  4.0000000E+04;  0.0000000E+00;  4.0024719E+04; -2.8402835E-01;  0.0000000E+00;  1.5274798E-02;  3.4689756E+03;
  1.1336892E-01;  9.9999998E-03; -1.0001788E-02;3146; -4.8218045E-02;  0.0000000E+00; -8.5161540E-05;  9.9526184E+02;  1.0000000E-01; -3.9254692E+03;3; -6.6995387E+00;  0.0000000E+00;  2.0482158E-02;0; -2.6913658E-01;  3.9605012E+04;  0.0000000E+00; -1.2488177E-04;  4.0000000E+04;  0.0000000E+00;  4.0022664E+04; -2.8444555E-01;  0.0000000E+00;  1.5308986E-02;  3.2115222E+03;
  1.1336839E-01;  9.9999998E-03; -1.7800343E-11;3147; -4.8225321E-02;  0.0000000E+00;  1.5723250E-09;  9.9525098E+02;  1.0000000E-01; -3.9344565E+03;3; -6.7114134E+00;  0.0000000E+00;  1.0574742E-05;0; -2.6927286E-01;  3.9604934E+04;  0.0000000E+00;  4.3525235E-14;  4.0000000E+04;  0.0000000E+00;  4.0021895E+04; -2.8458595E-01;  0.0000000E+00;  1.5313096E-02;  3.1218918E+03;
  1.1336892E-01;  9.9999998E-03;  1.0001788E-02;3148; -4.8218049E-02;  0.0000000E+00;  8.5162828E-05;  9.9526184E+02;  1.0000000E-01; -3.9254692E+03;3; -6.6996083E+00;  0.0000000E+00; -2.0486278E-02;0; -2.6913631E-01;  3.9605008E+04;  0.0000000E+00; -1.2468982E-04;  4.0000000E+04;  0.0000000E+00;  4.0022664E+04; -2.8444529E-01;  0.0000000E+00;  1.5308972E-02;  3.2115225E+03;
  1.1337070E-01;  9.9999998E-03;  2.0001743E-02;3149; -4.8197035E-02;  0.0000000E+00;  1.9112909E-04;  9.9529248E+02;  1.0000000E-01; -3.9000872E+03;3; -6.6649628E+00;  0.0000000E+00; -3.8259272E-02;0; -2.6875338E-01;  3.9605316E+04;  0.0000000E+00; -4.4009919E-04;  4.0000000E+04;  0.0000000E+00;  4.0024719E+04; -2.8402817E-01;  0.0000000E+00;  1.5274805E-02;  3.4689858E+03;
  1.1337426E-01;  9.9999998E-03;  3.0000605E-02;3150; -4.8164092E-02;  0.0000000E+00;  3.3539860E-04;  9.9533948E+02;  1.0000000E-01; -3.8611748E+03;3; -6.6111326E+00;  0.0000000E+00; -5.7802036E-02;0; -2.6819420E-01;  3.9606055E+04;  0.0000000E+00; -7.7346823E-04;  4.0000000E+04;  0.0000000E+00;  4.0027672E+04; -2.8334442E-01;  0.0000000E+00;  1.5150219E-02;  3.8615796E+03;
  1.1338012E-01;  9.9999998E-03;  3.9997976E-02;3151; -4.8122630E-02;  0.0000000E+00;  5.2711600E-04;  9.9540125E+02;  1.0000000E-01; -3.8099663E+03;3; -6.5441532E+00;  0.0000000E+00; -7.6569557E-02;0; -2.6756287E-01;  3.9607234E+04;  0.0000000E+00; -8.6406519E-04;  4.0000000E+04;  0.0000000E+00;  4.0031633E+04; -2.8241378E-01;  0.0000000E+00;  1.4850922E-02;  4.3374897E+03;
  1.1338937E-01;  9.9999998E-03;  4.9993791E-02;3152; -4.8076276E-02;  0.0000000E+00;  7.7249762E-04;  9.9547485E+02;  1.0000000E-01; -3.7489805E+03;3; -6.4715948E+00;  0.0000000E+00; -9.3792833E-02;0; -2.6697543E-01;  3.9609129E+04;  0.0000000E+00; -4.0708567E-04;  4.0000000E+04;  0.0000000E+00;  4.0035602E+04; -2.8126553E-01;  0.0000000E+00;  1.4290093E-02;  4.8288203E+03;
  1.1340381E-01;  9.9999998E-03;  5.9988428E-02;3153; -4.8026733E-02;  0.0000000E+00;  1.0555588E-03;  9.9554773E+02;  1.0000000E-01; -3.6886365E+03;3; -6.3998694E+00;  0.0000000E+00; -1.0634583E-01;0; -2.6653585E-01;  3.9611770E+04;  0.0000000E+00;  9.0132700E-04;  4.0000000E+04;  0.0000000E+00;  4.0039164E+04; -2.7993947E-01;  0.0000000E+00;  1.3403620E-02;  5.2563198E+03;
  1.2351966E-01;  9.9999998E-03; -9.9956803E-02;3198; -4.9875483E-02;  0.0000000E+00; -1.6003548E-03;  9.9519092E+02;  1.0000000E-01; -3.9842329E+03;3; -2.7320621E+00;  0.0000000E+00;  1.6398956E-01;0; -2.5948563E-01;  3.9587484E+04;  0.0000000E+00;  1.2288206E-02;  4.0000000E+04;  0.0000000E+00;  4.0033234E+04; -2.6515868E-01;  0.0000000E+00;  5.6730532E-03;  4.5361577E+03;
  1.2347505E-01;  9.9999998E-03; -8.9967005E-02;3199; -5.0000075E-02;  0.0000000E+00; -1.4950620E-03;  9.9511145E+02;  1.0000000E-01; -4.0500583E+03;3; -2.7383325E+00;  0.0000000E+00;  1.6226499E-01;0; -2.5916344E-01;  3.9576613E+04;  0.0000000E+00;  6.6808760E-03;  4.0000000E+04;  0.0000000E+00;  4.0037254E+04; -2.6659831E-01;  0.0000000E+00;  7.4348659E-03;  5.0696084E+03;
  1.2343595E-01;  9.9999998E-03; -7.9975255E-02;3200; -5.0104134E-02;  0.0000000E+00; -1.3190905E-03;  9.9500977E+02;  1.0000000E-01; -4.1343027E+03;3; -2.7536087E+00;  0.0000000E+00;  1.5575394E-01;0; -2.5903028E-01;  3.9566742E+04;  0.0000000E+00;  2.9454287E-03;  4.0000000E+04;  0.0000000E+00;  4.0038945E+04; -2.6818338E-01;  0.0000000E+00;  9.1530979E-03;  5.2783477E+03;
  1.2340459E-01;  9.9999998E-03; -6.9982156E-02;3201; -5.0193682E-02;  0.0000000E+00; -1.0901327E-03;  9.9489075E+02;  1.0000000E-01; -4.2329175E+03;3; -2.7769971E+00;  0.0000000E+00;  1.4584924E-01;0; -2.5914830E-01;  3.9557969E+04;  0.0000000E+00;  5.3309137E-04;  4.0000000E+04;  0.0000000E+00;  4.0038148E+04; -2.6980999E-01;  0.0000000E+00;  1.0661677E-02;  5.1943276E+03;
  1.2338108E-01;  9.9999998E-03; -5.9987884E-02;3202; -5.0273713E-02;  0.0000000E+00; -8.3816249E-04;  9.9477197E+02;  1.0000000E-01; -4.3313345E+03;3; -2.8064501E+00;  0.0000000E+00;  1.3022913E-01;0; -2.5953072E-01;  3.9550840E+04;  0.0000000E+00; -8.5761736E-04;  4.0000000E+04;  0.0000000E+00;  4.0035559E+04; -2.7138481E-01;  0.0000000E+00;  1.1854080E-02;  4.8812339E+03;
  1.2336419E-01;  9.9999998E-03; -4.9992263E-02;3203; -5.0346188E-02;  0.0000000E+00; -5.9011491E-04;  9.9465399E+02;  1.0000000E-01; -4.4290601E+03;3; -2.8387833E+00;  0.0000000E+00;  1.0971218E-01;0; -2.6013830E-01;  3.9545305E+04;  0.0000000E+00; -1.4464958E-03;  4.0000000E+04;  0.0000000E+00;  4.0031816E+04; -2.7283067E-01;  0.0000000E+00;  1.2692357E-02;  4.4202534E+03;
  1.2335256E-01;  9.9999998E-03; -3.9995249E-02;3204; -5.0409373E-02;  0.0000000E+00; -3.8147351E-04;  9.9455005E+02;  1.0000000E-01; -4.5151812E+03;3; -2.8710642E+00;  0.0000000E+00;  8.9114353E-02;0; -2.6088446E-01;  3.9541164E+04;  0.0000000E+00; -1.4400183E-03;  4.0000000E+04;  0.0000000E+00;  4.0027551E+04; -2.7408588E-01;  0.0000000E+00;  1.3201409E-02;  3.8976042E+03;
  1.2334464E-01;  9.9999998E-03; -2.9997148E-02;3205; -5.0462212E-02;  0.0000000E+00; -2.2636670E-04;  9.9446338E+02;  1.0000000E-01; -4.5869814E+03;3; -2.8998797E+00;  0.0000000E+00;  6.6068649E-02;0; -2.6165161E-01;  3.9538367E+04;  0.0000000E+00; -1.0654480E-03;  4.0000000E+04;  0.0000000E+00;  4.0023492E+04; -2.7510399E-01;  0.0000000E+00;  1.3452388E-02;  3.3947463E+03;
  1.2333902E-01;  9.9999998E-03; -1.9998655E-02;3206; -5.0501630E-02;  0.0000000E+00; -1.1898999E-04;  9.9439966E+02;  1.0000000E-01; -4.6397700E+03;3; -2.9226029E+00;  0.0000000E+00;  4.3911047E-02;0; -2.6231438E-01;  3.9536430E+04;  0.0000000E+00; -5.6246039E-04;  4.0000000E+04;  0.0000000E+00;  4.0020168E+04; -2.7585247E-01;  0.0000000E+00;  1.3538087E-02;  2.9813730E+03;
  1.2333572E-01;  9.9999998E-03; -1.0000023E-02;3207; -5.0526410E-02;  0.0000000E+00; -4.8932623E-05;  9.9435980E+02;  1.0000000E-01; -4.6728062E+03;3; -2.9375904E+00;  0.0000000E+00;  2.1941330E-02;0; -2.6276231E-01;  3.9535508E+04;  0.0000000E+00; -1.5455179E-04;  4.0000000E+04;  0.0000000E+00;  4.0017996E+04; -2.7630949E-01;  0.0000000E+00;  1.3547179E-02;  2.7106599E+03;
  1.2333463E-01;  9.9999998E-03;  1.2634072E-11;3208; -5.0534662E-02;  0.0000000E+00;  9.6302888E-10;  9.9434619E+02;  1.0000000E-01; -4.6840649E+03;3; -2.9422820E+00;  0.0000000E+00;  1.2684159E-05;0; -2.6292065E-01;  3.9535203E+04;  0.0000000E+00; -6.6274411E-13;  4.0000000E+04;  0.0000000E+00;  4.0017141E+04; -2.7646330E-01;  0.0000000E+00;  1.3542646E-02;  2.6164504E+03;
  1.2333572E-01;  9.9999998E-03;  1.0000023E-02;3209; -5.0526414E-02;  0.0000000E+00;  4.8932896E-05;  9.9435980E+02;  1.0000000E-01; -4.6728062E+03;3; -2.9375856E+00;  0.0000000E+00; -2.1958437E-02;0; -2.6276237E-01;  3.9535508E+04;  0.0000000E+00; -1.5436482E-04;  4.0000000E+04;  0.0000000E+00;  4.0017996E+04; -2.7630955E-01;  0.0000000E+00;  1.3547196E-02;  2.7106602E+03;
  1.2333902E-01;  9.9999998E-03;  1.9998655E-02;3210; -5.0501630E-02;  0.0000000E+00;  1.1899149E-04;  9.9439966E+02;  1.0000000E-01; -4.6397700E+03;3; -2.9226184E+00;  0.0000000E+00; -4.3899603E-02;0; -2.6231456E-01;  3.9536426E+04;  0.0000000E+00; -5.6202122E-04;  4.0000000E+04;  0.0000000E+00;  4.0020168E+04; -2.7585265E-01;  0.0000000E+00;  1.3538086E-02;  2.9813821E+03;
  1.2334464E-01;  9.9999998E-03;  2.9997148E-02;3211; -5.0462212E-02;  0.0000000E+00;  2.2636924E-04;  9.9446338E+02;  1.0000000E-01; -4.5869814E+03;3; -2.8998148E+00;  0.0000000E+00; -6.6050686E-02;0; -2.6165193E-01;  3.9538367E+04;  0.0000000E+00; -1.0650406E-03;  4.0000000E+04;  0.0000000E+00;  4.0023492E+04; -2.7510431E-01;  0.0000000E+00;  1.3452384E-02;  3.3947612E+03;
  1.2335256E-01;  9.9999998E-03;  3.9995249E-02;3212; -5.0409369E-02;  0.0000000E+00;  3.8147531E-04;  9.9455005E+02;  1.0000000E-01; -4.5151812E+03;3; -2.8710549E+00;  0.0000000E+00; -8.9117490E-02;0; -2.6088440E-01;  3.9541164E+04;  0.0000000E+00; -1.4393458E-03;  4.0000000E+04;  0.0000000E+00;  4.0027551E+04; -2.7408582E-01;  0.0000000E+00;  1.3201402E-02;  3.8976143E+03;
  1.2336419E-01;  9.9999998E-03;  4.9992263E-02;3213; -5.0346188E-02;  0.0000000E+00;  5.9011747E-04;  9.9465387E+02;  1.0000000E-01; -4.4291587E+03;3; -2.8387461E+00;  0.0000000E+00; -1.0967950E-01;0; -2.6013821E-01;  3.9545301E+04;  0.0000000E+00; -1.4457671E-03;  4.0000000E+04;  0.0000000E+00;  4.0031816E+04; -2.7283058E-01;  0.0000000E+00;  1.2692358E-02;  4.4202603E+03;
  1.2338108E-01;  9.9999998E-03;  5.9987884E-02;3214; -5.0273709E-02;  0.0000000E+00;  8.3816354E-04;  9.9477197E+02;  1.0000000E-01; -4.3313345E+03;3; -2.8063352E+00;  0.0000000E+00; -1.3021891E-01;0; -2.5953066E-01;  3.9550840E+04;  0.0000000E+00; -8.5804512E-04;  4.0000000E+04;  0.0000000E+00;  4.0035559E+04; -2.7138475E-01;  0.0000000E+00;  1.1854092E-02;  4.8812461E+03;
  1.3350561E-01;  9.9999998E-03; -9.9958807E-02;3259; -5.1953241E-02;  0.0000000E+00; -1.2688480E-03;  9.9429462E+02;  1.0000000E-01; -4.7267798E+03;3; -1.0719042E+00;  0.0000000E+00;  1.9088945E-01;0; -2.5446206E-01;  3.9516570E+04;  0.0000000E+00;  5.1764835E-04;  4.0000000E+04;  0.0000000E+00;  4.0030141E+04; -2.5868613E-01;  0.0000000E+00;  4.2240494E-03;  4.2474858E+03;
  1.3345699E-01;  9.9999998E-03; -8.9966379E-02;3260; -5.2117433E-02;  0.0000000E+00; -1.1854140E-03;  9.9412994E+02;  1.0000000E-01; -4.8632207E+03;3; -1.0824465E+00;  0.0000000E+00;  1.8540274E-01;0; -2.5418979E-01;  3.9499523E+04;  0.0000000E+00; -2.1518236E-03;  4.0000000E+04;  0.0000000E+00;  4.0034262E+04; -2.6018786E-01;  0.0000000E+00;  5.9980880E-03;  4.7575693E+03;
  1.3341369E-01;  9.9999998E-03; -7.9972357E-02;3261; -5.2261807E-02;  0.0000000E+00; -1.0346767E-03;  9.9395435E+02;  1.0000000E-01; -5.0086978E+03;3; -1.0944047E+00;  0.0000000E+00;  1.7685853E-01;0; -2.5416631E-01;  3.9484082E+04;  0.0000000E+00; -3.3516854E-03;  4.0000000E+04;  0.0000000E+00;  4.0035398E+04; -2.6186299E-01;  0.0000000E+00;  7.6966775E-03;  4.9354507E+03;
  1.3337915E-01;  9.9999998E-03; -6.9977097E-02;3262; -5.2390296E-02;  0.0000000E+00; -8.3899108E-04;  9.9377472E+02;  1.0000000E-01; -5.1575332E+03;3; -1.1071804E+00;  0.0000000E+00;  1.6399582E-01;0; -2.5442952E-01;  3.9470863E+04;  0.0000000E+00; -3.7764180E-03;  4.0000000E+04;  0.0000000E+00;  4.0034332E+04; -2.6359114E-01;  0.0000000E+00;  9.1616167E-03;  4.8169932E+03;
  1.3335294E-01;  9.9999998E-03; -5.9980679E-02;3263; -5.2503727E-02;  0.0000000E+00; -6.2192162E-04;  9.9360333E+02;  1.0000000E-01; -5.2995044E+03;3; -1.1205056E+00;  0.0000000E+00;  1.4622870E-01;0; -2.5497252E-01;  3.9460023E+04;  0.0000000E+00; -3.7291900E-03;  4.0000000E+04;  0.0000000E+00;  4.0031434E+04; -2.6526800E-01;  0.0000000E+00;  1.0295478E-02;  4.4693604E+03;
  1.3333307E-01;  9.9999998E-03; -4.9983431E-02;3264; -5.2603517E-02;  0.0000000E+00; -4.1624921E-04;  9.9344714E+02;  1.0000000E-01; -5.4289331E+03;3; -1.1331416E+00;  0.0000000E+00;  1.2070841E-01;0; -2.5573993E-01;  3.9451477E+04;  0.0000000E+00; -3.3224784E-03;  4.0000000E+04;  0.0000000E+00;  4.0027477E+04; -2.6680902E-01;  0.0000000E+00;  1.1069104E-02;  3.9764089E+03;
  1.3331808E-01;  9.9999998E-03; -3.9985623E-02;3265; -5.2687127E-02;  0.0000000E+00; -2.4732089E-04;  9.9331238E+02;  1.0000000E-01; -5.5405840E+03;3; -1.1448920E+00;  0.0000000E+00;  9.5408507E-02;0; -2.5663081E-01;  3.9445270E+04;  0.0000000E+00; -2.6254174E-03;  4.0000000E+04;  0.0000000E+00;  4.0023016E+04; -2.6814613E-01;  0.0000000E+00;  1.1515331E-02;  3.4259871E+03;
  1.3330673E-01;  9.9999998E-03; -2.9988708E-02;3266; -5.2753404E-02;  0.0000000E+00; -1.2689074E-04;  9.9320447E+02;  1.0000000E-01; -5.6299644E+03;3; -1.1543818E+00;  0.0000000E+00;  7.0949219E-02;0; -2.5751835E-01;  3.9440797E+04;  0.0000000E+00; -1.7489634E-03;  4.0000000E+04;  0.0000000E+00;  4.0018602E+04; -2.6922986E-01;  0.0000000E+00;  1.1711517E-02;  2.9004849E+03;
  1.3329819E-01;  9.9999998E-03; -1.9992957E-02;3267; -5.2801777E-02;  0.0000000E+00; -5.3195370E-05;  9.9312524E+02;  1.0000000E-01; -5.6955918E+03;3; -1.1619712E+00;  0.0000000E+00;  4.9381897E-02;0; -2.5827023E-01;  3.9437883E+04;  0.0000000E+00; -8.7872666E-04;  4.0000000E+04;  0.0000000E+00;  4.0015129E+04; -2.7002534E-01;  0.0000000E+00;  1.1755122E-02;  2.4700474E+03;
  1.3329265E-01;  9.9999998E-03; -9.9971928E-03;3268; -5.2830990E-02;  0.0000000E+00; -1.7067287E-05;  9.9307574E+02;  1.0000000E-01; -5.7366279E+03;3; -1.1665272E+00;  0.0000000E+00;  2.2932220E-02;0; -2.5877303E-01;  3.9436266E+04;  0.0000000E+00; -2.3630015E-04;  4.0000000E+04;  0.0000000E+00;  4.0012879E+04; -2.7051091E-01;  0.0000000E+00;  1.1737898E-02;  2.1885015E+03;
  1.3329063E-01;  9.9999998E-03;  1.8704824E-11;3269; -5.2840840E-02;  0.0000000E+00;  3.1011252E-10;  9.9305927E+02;  1.0000000E-01; -5.7502573E+03;3; -1.1681972E+00;  0.0000000E+00; -1.7875855E-05;0; -2.5895014E-01;  3.9435887E+04;  0.0000000E+00;  7.2542683E-13;  4.0000000E+04;  0.0000000E+00;  4.0012035E+04; -2.7067459E-01;  0.0000000E+00;  1.1724430E-02;  2.0905474E+03;
  1.3329265E-01;  9.9999998E-03;  9.9971928E-03;3270; -5.2830994E-02;  0.0000000E+00;  1.7070925E-05;  9.9307574E+02;  1.0000000E-01; -5.7366279E+03;3; -1.1665298E+00;  0.0000000E+00; -2.2929555E-02;0; -2.5877315E-01;  3.9436266E+04;  0.0000000E+00; -2.3612622E-04;  4.0000000E+04;  0.0000000E+00;  4.0012879E+04; -2.7051103E-01;  0.0000000E+00;  1.1737883E-02;  2.1885049E+03;
  1.3329819E-01;  9.9999998E-03;  1.9992957E-02;3271; -5.2801780E-02;  0.0000000E+00;  5.3198743E-05;  9.9312531E+02;  1.0000000E-01; -5.6955425E+03;3; -1.1619731E+00;  0.0000000E+00; -4.9363069E-02;0; -2.5827059E-01;  3.9437879E+04;  0.0000000E+00; -8.7851670E-04;  4.0000000E+04;  0.0000000E+00;  4.0015129E+04; -2.7002570E-01;  0.0000000E+00;  1.1755117E-02;  2.4700540E+03;
  1.3330673E-01;  9.9999998E-03;  2.9988708E-02;3272; -5.2753404E-02;  0.0000000E+00;  1.2689354E-04;  9.9320447E+02;  1.0000000E-01; -5.6299644E+03;3; -1.1543943E+00;  0.0000000E+00; -7.0967108E-02;0; -2.5751817E-01;  3.9440801E+04;  0.0000000E+00; -1.7484329E-03;  4.0000000E+04;  0.0000000E+00;  4.0018602E+04; -2.6922968E-01;  0.0000000E+00;  1.1711519E-02;  2.9004978E+03;
  1.3331808E-01;  9.9999998E-03;  3.9985623E-02;3273; -5.2687131E-02;  0.0000000E+00;  2.4732191E-04;  9.9331238E+02;  1.0000000E-01; -5.5405840E+03;3; -1.1449134E+00;  0.0000000E+00; -9.5390014E-02;0; -2.5663096E-01;  3.9445270E+04;  0.0000000E+00; -2.6252412E-03;  4.0000000E+04;  0.0000000E+00;  4.0023016E+04; -2.6814628E-01;  0.0000000E+00;  1.1515331E-02;  3.4260010E+03;
  1.3333307E-01;  9.9999998E-03;  4.9983431E-02;3274; -5.2603517E-02;  0.0000000E+00;  4.1625291E-04;  9.9344714E+02;  1.0000000E-01; -5.4289331E+03;3; -1.1330450E+00;  0.0000000E+00; -1.2069669E-01;0; -2.5573948E-01;  3.9451477E+04;  0.0000000E+00; -3.3221978E-03;  4.0000000E+04;  0.0000000E+00;  4.0027477E+04; -2.6680860E-01;  0.0000000E+00;  1.1069109E-02;  3.9764233E+03;
  1.3335294E-01;  9.9999998E-03;  5.9980679E-02;3275; -5.2503731E-02;  0.0000000E+00;  6.2192359E-04;  9.9360327E+02;  1.0000000E-01; -5.2995537E+03;3; -1.1205641E+00;  0.0000000E+00; -1.4623529E-01;0; -2.5497261E-01;  3.9460023E+04;  0.0000000E+00; -3.7284726E-03;  4.0000000E+04;  0.0000000E+00;  4.0031434E+04; -2.6526809E-01;  0.0000000E+00;  1.0295491E-02;  4.4693716E+03;
  1.4350078E-01;  9.9999998E-03; -9.9954568E-02;3320; -5.4067761E-02;  0.0000000E+00; -9.6046727E-04;  9.9315997E+02;  1.0000000E-01; -5.6668521E+03;3; -5.0417870E-01;  0.0000000E+00;  2.1147357E-01;0; -2.5183544E-01;  3.9427523E+04;  0.0000000E+00; -1.5031383E-02;  4.0000000E+04;  0.0000000E+00;  4.0026969E+04; -2.5478387E-01;  0.0000000E+00;  2.9484220E-03;  3.9682771E+03;
  1.4345133E-01;  9.9999998E-03; -8.9959055E-02;3321; -5.4277811E-02;  0.0000000E+00; -8.9569972E-04;  9.9291431E+02;  1.0000000E-01; -5.8703525E+03;3; -5.1542795E-01;  0.0000000E+00;  2.0610470E-01;0; -2.5162840E-01;  3.9404398E+04;  0.0000000E+00; -1.3473474E-02;  4.0000000E+04;  0.0000000E+00;  4.0030684E+04; -2.5633964E-01;  0.0000000E+00;  4.7112475E-03;  4.4434834E+03;
  1.4340708E-01;  9.9999998E-03; -7.9961896E-02;3322; -5.4467954E-02;  0.0000000E+00; -7.6843670E-04;  9.9266840E+02;  1.0000000E-01; -6.0740996E+03;3; -5.2491277E-01;  0.0000000E+00;  1.9533093E-01;0; -2.5171569E-01;  3.9383781E+04;  0.0000000E+00; -1.1448476E-02;  4.0000000E+04;  0.0000000E+00;  4.0031609E+04; -2.5808117E-01;  0.0000000E+00;  6.3654855E-03;  4.5820659E+03;
  1.4337032E-01;  9.9999998E-03; -6.9964252E-02;3323; -5.4639582E-02;  0.0000000E+00; -6.0335652E-04;  9.9243188E+02;  1.0000000E-01; -6.2700449E+03;3; -5.3274059E-01;  0.0000000E+00;  1.8066917E-01;0; -2.5211555E-01;  3.9366402E+04;  0.0000000E+00; -9.5731514E-03;  4.0000000E+04;  0.0000000E+00;  4.0030156E+04; -2.5987947E-01;  0.0000000E+00;  7.7639101E-03;  4.4245562E+03;
  1.4333978E-01;  9.9999998E-03; -5.9967536E-02;3324; -5.4790229E-02;  0.0000000E+00; -4.2449901E-04;  9.9221375E+02;  1.0000000E-01; -6.4507808E+03;3; -5.3891969E-01;  0.0000000E+00;  1.5614244E-01;0; -2.5280249E-01;  3.9352332E+04;  0.0000000E+00; -7.9315454E-03;  4.0000000E+04;  0.0000000E+00;  4.0027047E+04; -2.6162270E-01;  0.0000000E+00;  8.8201910E-03;  4.0417559E+03;
  1.4331368E-01;  9.9999998E-03; -4.9972374E-02;3325; -5.4919574E-02;  0.0000000E+00; -2.5918250E-04;  9.9202380E+02;  1.0000000E-01; -6.6081094E+03;3; -5.4293621E-01;  0.0000000E+00;  1.2972096E-01;0; -2.5370559E-01;  3.9341375E+04;  0.0000000E+00; -6.3765505E-03;  4.0000000E+04;  0.0000000E+00;  4.0022555E+04; -2.6322082E-01;  0.0000000E+00;  9.5152194E-03;  3.5193730E+03;
  1.4329222E-01;  9.9999998E-03; -3.9978061E-02;3326; -5.5025898E-02;  0.0000000E+00; -1.2835267E-04;  9.9186084E+02;  1.0000000E-01; -6.7431182E+03;3; -5.4608262E-01;  0.0000000E+00;  1.0348877E-01;0; -2.5471458E-01;  3.9333277E+04;  0.0000000E+00; -4.7568670E-03;  4.0000000E+04;  0.0000000E+00;  4.0018051E+04; -2.6460418E-01;  0.0000000E+00;  9.8895943E-03;  2.9454417E+03;
  1.4327584E-01;  9.9999998E-03; -2.9984228E-02;3327; -5.5108320E-02;  0.0000000E+00; -4.0013125E-05;  9.9173364E+02;  1.0000000E-01; -6.8484976E+03;3; -5.4801726E-01;  0.0000000E+00;  7.6671183E-02;0; -2.5569704E-01;  3.9327422E+04;  0.0000000E+00; -3.0747293E-03;  4.0000000E+04;  0.0000000E+00;  4.0013668E+04; -2.6572296E-01;  0.0000000E+00;  1.0025908E-02;  2.4016672E+03;
  1.4326417E-01;  9.9999998E-03; -1.9990815E-02;3328; -5.5167112E-02;  0.0000000E+00;  2.7058911E-06;  9.9164062E+02;  1.0000000E-01; -6.9255820E+03;3; -5.4901147E-01;  0.0000000E+00;  4.9542155E-02;0; -2.5651735E-01;  3.9323762E+04;  0.0000000E+00; -1.5226752E-03;  4.0000000E+04;  0.0000000E+00;  4.0010000E+04; -2.6654223E-01;  0.0000000E+00;  1.0024861E-02;  1.9576473E+03;
  1.4325659E-01;  9.9999998E-03; -9.9964822E-03;3329; -5.5202004E-02;  0.0000000E+00;  1.0842725E-05;  9.9158673E+02;  1.0000000E-01; -6.9702227E+03;3; -5.4957062E-01;  0.0000000E+00;  2.2593312E-02;0; -2.5706142E-01;  3.9321742E+04;  0.0000000E+00; -4.0711073E-04;  4.0000000E+04;  0.0000000E+00;  4.0007570E+04; -2.6704168E-01;  0.0000000E+00;  9.9802474E-03;  1.6674520E+03;
  1.4325385E-01;  9.9999998E-03;  1.9551756E-11;3330; -5.5213589E-02;  0.0000000E+00;  1.7742032E-09;  9.9156622E+02;  1.0000000E-01; -6.9872100E+03;3; -5.4983902E-01;  0.0000000E+00;  1.7550310E-05;0; -2.5725147E-01;  3.9320996E+04;  0.0000000E+00;  2.3950191E-13;  4.0000000E+04;  0.0000000E+00;  4.0006824E+04; -2.6720902E-01;  0.0000000E+00;  9.9575613E-03;  1.5664724E+03;
  1.4325659E-01;  9.9999998E-03;  9.9964822E-03;3331; -5.5202000E-02;  0.0000000E+00; -1.0838625E-05;  9.9158673E+02;  1.0000000E-01; -6.9702227E+03;3; -5.4958189E-01;  0.0000000E+00; -2.2566076E-02;0; -2.5706124E-01;  3.9321746E+04;  0.0000000E+00; -4.0693724E-04;  4.0000000E+04;  0.0000000E+00;  4.0007570E+04; -2.6704147E-01;  0.0000000E+00;  9.9802436E-03;  1.6674546E+03;
  1.4326417E-01;  9.9999998E-03;  1.9990815E-02;3332; -5.5167109E-02;  0.0000000E+00; -2.7053356E-06;  9.9164062E+02;  1.0000000E-01; -6.9255820E+03;3; -5.4892230E-01;  0.0000000E+00; -4.9611483E-02;0; -2.5651753E-01;  3.9323762E+04;  0.0000000E+00; -1.5224640E-03;  4.0000000E+04;  0.0000000E+00;  4.0010000E+04; -2.6654240E-01;  0.0000000E+00;  1.0024861E-02;  1.9576527E+03;
  1.4327586E-01;  9.9999998E-03;  2.9984228E-02;3333; -5.5108320E-02;  0.0000000E+00;  4.0010418E-05;  9.9173364E+02;  1.0000000E-01; -6.8484976E+03;3; -5.4803175E-01;  0.0000000E+00; -7.6722831E-02;0; -2.5569680E-01;  3.9327418E+04;  0.0000000E+00; -3.0743612E-03;  4.0000000E+04;  0.0000000E+00;  4.0013668E+04; -2.6572272E-01;  0.0000000E+00;  1.0025916E-02;  2.4016772E+03;
  1.4329222E-01;  9.9999998E-03;  3.9978061E-02;3334; -5.5025898E-02;  0.0000000E+00;  1.2835430E-04;  9.9186084E+02;  1.0000000E-01; -6.7431182E+03;3; -5.4609591E-01;  0.0000000E+00; -1.0347546E-01;0; -2.5471467E-01;  3.9333281E+04;  0.0000000E+00; -4.7564874E-03;  4.0000000E+04;  0.0000000E+00;  4.0018051E+04; -2.6460424E-01;  0.0000000E+00;  9.8895822E-03;  2.9454519E+03;
  1.4331368E-01;  9.9999998E-03;  4.9972374E-02;3335; -5.4919574E-02;  0.0000000E+00;  2.5918343E-04;  9.9202380E+02;  1.0000000E-01; -6.6081094E+03;3; -5.4291683E-01;  0.0000000E+00; -1.2970978E-01;0; -2.5370574E-01;  3.9341371E+04;  0.0000000E+00; -6.3756611E-03;  4.0000000E+04;  0.0000000E+00;  4.0022559E+04; -2.6322097E-01;  0.0000000E+00;  9.5152222E-03;  3.5193806E+03;
  1.4333978E-01;  9.9999998E-03;  5.9967536E-02;3336; -5.4790232E-02;  0.0000000E+00;  4.2450169E-04;  9.9221375E+02;  1.0000000E-01; -6.4507808E+03;3; -5.3897488E-01;  0.0000000E+00; -1.5608630E-01;0; -2.5280264E-01;  3.9352332E+04;  0.0000000E+00; -7.9319654E-03;  4.0000000E+04;  0.0000000E+00;  4.0027047E+04; -2.6162285E-01;  0.0000000E+00;  8.8201966E-03;  4.0417668E+03;
  1.5325515E-01;  9.9999998E-03; -9.9979043E-03;3390; -5.7688873E-02;  0.0000000E+00;  3.0741674E-05;  9.9008392E+02;  1.0000000E-01; -8.2152734E+03;3; -4.2902231E-01;  0.0000000E+00;  2.4201743E-02;0; -2.5727576E-01;  3.9206625E+04;  0.0000000E+00; -6.9369108E-04;  4.0000000E+04;  0.0000000E+00;  4.0002840E+04; -2.6563954E-01;  0.0000000E+00;  8.3637862E-03;  1.1816847E+03;
  1.5325174E-01;  9.9999998E-03; -1.8429968E-11;3391; -5.7702430E-02;  0.0000000E+00;  2.3902338E-09;  9.9006396E+02;  1.0000000E-01; -8.2318164E+03;3; -4.2868042E-01;  0.0000000E+00;  3.0123918E-05;0; -2.5747430E-01;  3.9205977E+04;  0.0000000E+00;  1.6205677E-12;  4.0000000E+04;  0.0000000E+00;  4.0002020E+04; -2.6580596E-01;  0.0000000E+00;  8.3316630E-03;  1.0786627E+03;
  1.5325515E-01;  9.9999998E-03;  9.9979043E-03;3392; -5.7688877E-02;  0.0000000E+00; -3.0742918E-05;  9.9008392E+02;  1.0000000E-01; -8.2152734E+03;3; -4.2903203E-01;  0.0000000E+00; -2.4220966E-02;0; -2.5727603E-01;  3.9206625E+04;  0.0000000E+00; -6.9359498E-04;  4.0000000E+04;  0.0000000E+00;  4.0002840E+04; -2.6563981E-01;  0.0000000E+00;  8.3637787E-03;  1.1816886E+03;
  1.5326478E-01;  9.9999998E-03; -1.9993063E-02;3389; -5.7647664E-02;  0.0000000E+00;  4.5443372E-05;  9.9014392E+02;  1.0000000E-01; -8.1655962E+03;3; -4.2975667E-01;  0.0000000E+00;  4.9551483E-02;0; -2.5670770E-01;  3.9209008E+04;  0.0000000E+00; -2.5876251E-03;  4.0000000E+04;  0.0000000E+00;  4.0005168E+04; -2.6514435E-01;  0.0000000E+00;  8.4366547E-03;  1.4775404E+03;
  1.5326478E-01;  9.9999998E-03;  1.9993063E-02;3393; -5.7647664E-02;  0.0000000E+00; -4.5442579E-05;  9.9014392E+02;  1.0000000E-01; -8.1655962E+03;3; -4.2977959E-01;  0.0000000E+00; -4.9574576E-02;0; -2.5670767E-01;  3.9209008E+04;  0.0000000E+00; -2.5870830E-03;  4.0000000E+04;  0.0000000E+00;  4.0005168E+04; -2.6514432E-01;  0.0000000E+00;  8.4366547E-03;  1.4775491E+03;
  1.5328030E-01;  9.9999998E-03; -2.9987043E-02;3388; -5.7577576E-02;  0.0000000E+00;  3.0173966E-05;  9.9023993E+02;  1.0000000E-01; -8.0860430E+03;3; -4.3035886E-01;  0.0000000E+00;  7.8714304E-02;0; -2.5584486E-01;  3.9213141E+04;  0.0000000E+00; -5.2045262E-03;  4.0000000E+04;  0.0000000E+00;  4.0008723E+04; -2.6432928E-01;  0.0000000E+00;  8.4844287E-03;  1.9303730E+03;
  1.5328030E-01;  9.9999998E-03;  2.9987043E-02;3394; -5.7577573E-02;  0.0000000E+00; -3.0168512E-05;  9.9023993E+02;  1.0000000E-01; -8.0860430E+03;3; -4.3030614E-01;  0.0000000E+00; -7.8670390E-02;0; -2.5584483E-01;  3.9213137E+04;  0.0000000E+00; -5.2042096E-03;  4.0000000E+04;  0.0000000E+00;  4.0008723E+04; -2.6432925E-01;  0.0000000E+00;  8.4844232E-03;  1.9303838E+03;
  1.5330184E-01;  9.9999998E-03; -3.9981157E-02;3387; -5.7477612E-02;  0.0000000E+00; -2.6594344E-05;  9.9038202E+02;  1.0000000E-01; -7.9683179E+03;3; -4.3129843E-01;  0.0000000E+00;  1.1024199E-01;0; -2.5480121E-01;  3.9219707E+04;  0.0000000E+00; -8.0028996E-03;  4.0000000E+04;  0.0000000E+00;  4.0013395E+04; -2.6321360E-01;  0.0000000E+00;  8.4123779E-03;  2.4868286E+03;
  1.5330184E-01;  9.9999998E-03;  3.9981157E-02;3395; -5.7477612E-02;  0.0000000E+00;  2.6592154E-05;  9.9038196E+02;  1.0000000E-01; -7.9683672E+03;3; -4.3131903E-01;  0.0000000E+00; -1.1023993E-01;0; -2.5480157E-01;  3.9219707E+04;  0.0000000E+00; -8.0017857E-03;  4.0000000E+04;  0.0000000E+00;  4.0013395E+04; -2.6321393E-01;  0.0000000E+00;  8.4123677E-03;  2.4868350E+03;
  1.5332927E-01;  9.9999998E-03; -4.9975485E-02;3386; -5.7347100E-02;  0.0000000E+00; -1.2742190E-04;  9.9056067E+02;  1.0000000E-01; -7.8203223E+03;3; -4.3130898E-01;  0.0000000E+00;  1.3826884E-01;0; -2.5371200E-01;  3.9228902E+04;  0.0000000E+00; -1.0645604E-02;  4.0000000E+04;  0.0000000E+00;  4.0018152E+04; -2.6182935E-01;  0.0000000E+00;  8.1173517E-03;  3.0791736E+03;
  1.5332927E-01;  9.9999998E-03;  4.9975485E-02;3396; -5.7347100E-02;  0.0000000E+00;  1.2742446E-04;  9.9056067E+02;  1.0000000E-01; -7.8203223E+03;3; -4.3131024E-01;  0.0000000E+00; -1.3828406E-01;0; -2.5371170E-01;  3.9228898E+04;  0.0000000E+00; -1.0644211E-02;  4.0000000E+04;  0.0000000E+00;  4.0018152E+04; -2.6182905E-01;  0.0000000E+00;  8.1173526E-03;  3.0791821E+03;
  1.5336213E-01;  9.9999998E-03; -5.9969384E-02;3385; -5.7186529E-02;  0.0000000E+00; -2.5908425E-04;  9.9077716E+02;  1.0000000E-01; -7.6409692E+03;3; -4.3020901E-01;  0.0000000E+00;  1.6695863E-01;0; -2.5271142E-01;  3.9241531E+04;  0.0000000E+00; -1.3182127E-02;  4.0000000E+04;  0.0000000E+00;  4.0022816E+04; -2.6022360E-01;  0.0000000E+00;  7.5121745E-03;  3.6274866E+03;
  1.5336213E-01;  9.9999998E-03;  5.9969384E-02;3397; -5.7186533E-02;  0.0000000E+00;  2.5908017E-04;  9.9077716E+02;  1.0000000E-01; -7.6409692E+03;3; -4.3026415E-01;  0.0000000E+00; -1.6700034E-01;0; -2.5271165E-01;  3.9241527E+04;  0.0000000E+00; -1.3181184E-02;  4.0000000E+04;  0.0000000E+00;  4.0022816E+04; -2.6022384E-01;  0.0000000E+00;  7.5121708E-03;  3.6274954E+03;
  1.5339953E-01;  9.9999998E-03; -6.9962583E-02;3384; -5.6996614E-02;  0.0000000E+00; -4.0120195E-04;  9.9102814E+02;  1.0000000E-01; -7.4330244E+03;3; -4.2750013E-01;  0.0000000E+00;  1.9147146E-01;0; -2.5191614E-01;  3.9257953E+04;  0.0000000E+00; -1.6049327E-02;  4.0000000E+04;  0.0000000E+00;  4.0026254E+04; -2.5846520E-01;  0.0000000E+00;  6.5490510E-03;  4.0441260E+03;
  1.5344107E-01;  9.9999998E-03; -7.9955503E-02;3383; -5.6780219E-02;  0.0000000E+00; -5.3934002E-04;  9.9131116E+02;  1.0000000E-01; -7.1985620E+03;3; -4.2179656E-01;  0.0000000E+00;  2.1165320E-01;0; -2.5140741E-01;  3.9278668E+04;  0.0000000E+00; -1.9859169E-02;  4.0000000E+04;  0.0000000E+00;  4.0028016E+04; -2.5664428E-01;  0.0000000E+00;  5.2368576E-03;  4.2421895E+03;
  1.5348597E-01;  9.9999998E-03; -8.9948207E-02;3382; -5.6540515E-02;  0.0000000E+00; -6.4543507E-04;  9.9161737E+02;  1.0000000E-01; -6.9448408E+03;3; -4.1391289E-01;  0.0000000E+00;  2.2511911E-01;0; -2.5122488E-01;  3.9303312E+04;  0.0000000E+00; -2.5045158E-02;  4.0000000E+04;  0.0000000E+00;  4.0027398E+04; -2.5487417E-01;  0.0000000E+00;  3.6493093E-03;  4.1479756E+03;
  1.5353377E-01;  9.9999998E-03; -9.9942043E-02;3381; -5.6279577E-02;  0.0000000E+00; -6.9444062E-04;  9.9193475E+02;  1.0000000E-01; -6.6818853E+03;3; -4.0357777E-01;  0.0000000E+00;  2.3453254E-01;0; -2.5137016E-01;  3.9331848E+04;  0.0000000E+00; -3.1443980E-02;  4.0000000E+04;  0.0000000E+00;  4.0024316E+04; -2.5328946E-01;  0.0000000E+00;  1.9193107E-03;  3.7167883E+03;
  1.6366079E-01;  9.9999998E-03; -9.9967860E-02;3442; -5.8633834E-02;  0.0000000E+00; -4.8674070E-04;  9.9075366E+02;  1.0000000E-01; -7.6604248E+03;3; -4.1259557E-01;  0.0000000E+00;  2.5878519E-01;0; -2.5266877E-01;  3.9239863E+04;  0.0000000E+00; -4.2834364E-02;  4.0000000E+04;  0.0000000E+00;  4.0021805E+04; -2.5385976E-01;  0.0000000E+00;  1.1910048E-03;  3.5248982E+03;
  1.6362004E-01;  9.9999998E-03; -8.9977987E-02;3443; -5.8950372E-02;  0.0000000E+00; -4.5003524E-04;  9.9038116E+02;  1.0000000E-01; -7.9690088E+03;3; -4.2225757E-01;  0.0000000E+00;  2.4510847E-01;0; -2.5256222E-01;  3.9207727E+04;  0.0000000E+00; -3.2387998E-02;  4.0000000E+04;  0.0000000E+00;  4.0024688E+04; -2.5543186E-01;  0.0000000E+00;  2.8696381E-03;  3.9050876E+03;
  1.6357711E-01;  9.9999998E-03; -7.9987019E-02;3444; -5.9242710E-02;  0.0000000E+00; -3.6195046E-04;  9.9003491E+02;  1.0000000E-01; -8.2558643E+03;3; -4.2894709E-01;  0.0000000E+00;  2.2864403E-01;0; -2.5280321E-01;  3.9180316E+04;  0.0000000E+00; -2.5451211E-02;  4.0000000E+04;  0.0000000E+00;  4.0024836E+04; -2.5717658E-01;  0.0000000E+00;  4.3733725E-03;  3.9502517E+03;
  1.6353539E-01;  9.9999998E-03; -6.9994532E-02;3445; -5.9506077E-02;  0.0000000E+00; -2.4491257E-04;  9.8972314E+02;  1.0000000E-01; -8.5141787E+03;3; -4.3214521E-01;  0.0000000E+00;  2.0519333E-01;0; -2.5337613E-01;  3.9157852E+04;  0.0000000E+00; -2.1188712E-02;  4.0000000E+04;  0.0000000E+00;  4.0022602E+04; -2.5896019E-01;  0.0000000E+00;  5.5840551E-03;  3.7103506E+03;
  1.6349694E-01;  9.9999998E-03; -6.0000010E-02;3446; -5.9735790E-02;  0.0000000E+00; -1.2689970E-04;  9.8945416E+02;  1.0000000E-01; -8.7370361E+03;3; -4.3352166E-01;  0.0000000E+00;  1.8070218E-01;0; -2.5423127E-01;  3.9140426E+04;  0.0000000E+00; -1.8270891E-02;  4.0000000E+04;  0.0000000E+00;  4.0018957E+04; -2.6067251E-01;  0.0000000E+00;  6.4412435E-03;  3.2625071E+03;
  1.6346331E-01;  9.9999998E-03; -5.0003354E-02;3447; -5.9929781E-02;  0.0000000E+00; -2.2730175E-05;  9.8922998E+02;  1.0000000E-01; -8.9227598E+03;3; -4.3300581E-01;  0.0000000E+00;  1.4789803E-01;0; -2.5528106E-01;  3.9127254E+04;  0.0000000E+00; -1.5444443E-02;  4.0000000E+04;  0.0000000E+00;  4.0014277E+04; -2.6222757E-01;  0.0000000E+00;  6.9465041E-03;  2.6947122E+03;
  1.6343459E-01;  9.9999998E-03; -4.0005241E-02;3448; -6.0085617E-02;  0.0000000E+00;  5.0501036E-05;  9.8904791E+02;  1.0000000E-01; -9.0736191E+03;3; -4.3176788E-01;  0.0000000E+00;  1.1413381E-01;0; -2.5640631E-01;  3.9117848E+04;  0.0000000E+00; -1.1997431E-02;  4.0000000E+04;  0.0000000E+00;  4.0009352E+04; -2.6356134E-01;  0.0000000E+00;  7.1550459E-03;  2.0927402E+03;
  1.6341150E-01;  9.9999998E-03; -3.0006574E-02;3449; -6.0203597E-02;  0.0000000E+00;  8.3276696E-05;  9.8890863E+02;  1.0000000E-01; -9.1889736E+03;3; -4.3031967E-01;  0.0000000E+00;  8.2701124E-02;0; -2.5747299E-01;  3.9111496E+04;  0.0000000E+00; -7.9600355E-03;  4.0000000E+04;  0.0000000E+00;  4.0004707E+04; -2.6463130E-01;  0.0000000E+00;  7.1583223E-03;  1.5326415E+03;
  1.6339393E-01;  9.9999998E-03; -2.0007215E-02;3450; -6.0285330E-02;  0.0000000E+00;  7.8818674E-05;  9.8881335E+02;  1.0000000E-01; -9.2679346E+03;3; -4.2866540E-01;  0.0000000E+00;  5.2380361E-02;0; -2.5834903E-01;  3.9107422E+04;  0.0000000E+00; -4.0017399E-03;  4.0000000E+04;  0.0000000E+00;  4.0001020E+04; -2.6541033E-01;  0.0000000E+00;  7.0613064E-03;  1.0783762E+03;
  1.6338256E-01;  9.9999998E-03; -1.0005763E-02;3451; -6.0332935E-02;  0.0000000E+00;  4.6565936E-05;  9.8875415E+02;  1.0000000E-01; -9.3169707E+03;3; -4.2760134E-01;  0.0000000E+00;  2.5277711E-02;0; -2.5892359E-01;  3.9105371E+04;  0.0000000E+00; -1.0789542E-03;  4.0000000E+04;  0.0000000E+00;  3.9998684E+04; -2.6588264E-01;  0.0000000E+00;  6.9590611E-03;  7.8137482E+02;
  1.6337834E-01;  9.9999998E-03; -8.1106042E-12;3452; -6.0348455E-02;  0.0000000E+00;  5.5768362E-10;  9.8873419E+02;  1.0000000E-01; -9.3335127E+03;3; -4.2726845E-01;  0.0000000E+00; -1.4352851E-05;0; -2.5912347E-01;  3.9104691E+04;  0.0000000E+00;  5.0767326E-14;  4.0000000E+04;  0.0000000E+00;  3.9997875E+04; -2.6604068E-01;  0.0000000E+00;  6.9171973E-03;  6.7776196E+02;
  1.6338256E-01;  9.9999998E-03;  1.0005763E-02;3453; -6.0332939E-02;  0.0000000E+00; -4.6562785E-05;  9.8875415E+02;  1.0000000E-01; -9.3169707E+03;3; -4.2761919E-01;  0.0000000E+00; -2.5353134E-02;0; -2.5892350E-01;  3.9105371E+04;  0.0000000E+00; -1.0789636E-03;  4.0000000E+04;  0.0000000E+00;  3.9998684E+04; -2.6588255E-01;  0.0000000E+00;  6.9590630E-03;  7.8137958E+02;
  1.6339393E-01;  9.9999998E-03;  2.0007215E-02;3454; -6.0285334E-02;  0.0000000E+00; -7.8815472E-05;  9.8881335E+02;  1.0000000E-01; -9.2679346E+03;3; -4.2877477E-01;  0.0000000E+00; -5.2393001E-02;0; -2.5834924E-01;  3.9107422E+04;  0.0000000E+00; -4.0015811E-03;  4.0000000E+04;  0.0000000E+00;  4.0001020E+04; -2.6541054E-01;  0.0000000E+00;  7.0613120E-03;  1.0783843E+03;
  1.6341150E-01;  9.9999998E-03;  3.0006574E-02;3455; -6.0203597E-02;  0.0000000E+00; -8.3276325E-05;  9.8890863E+02;  1.0000000E-01; -9.1889736E+03;3; -4.3026906E-01;  0.0000000E+00; -8.2675859E-02;0; -2.5747299E-01;  3.9111492E+04;  0.0000000E+00; -7.9600895E-03;  4.0000000E+04;  0.0000000E+00;  4.0004707E+04; -2.6463130E-01;  0.0000000E+00;  7.1583232E-03;  1.5326514E+03;
  1.6343459E-01;  9.9999998E-03;  4.0005241E-02;3456; -6.0085628E-02;  0.0000000E+00; -5.0498424E-05;  9.8904785E+02;  1.0000000E-01; -9.0736689E+03;3; -4.3180490E-01;  0.0000000E+00; -1.1413822E-01;0; -2.5640631E-01;  3.9117848E+04;  0.0000000E+00; -1.1996184E-02;  4.0000000E+04;  0.0000000E+00;  4.0009352E+04; -2.6356134E-01;  0.0000000E+00;  7.1550431E-03;  2.0927444E+03;
  1.6346331E-01;  9.9999998E-03;  5.0003354E-02;3457; -5.9929784E-02;  0.0000000E+00;  2.2724238E-05;  9.8922998E+02;  1.0000000E-01; -8.9227598E+03;3; -4.3293253E-01;  0.0000000E+00; -1.4795032E-01;0; -2.5528097E-01;  3.9127254E+04;  0.0000000E+00; -1.5444493E-02;  4.0000000E+04;  0.0000000E+00;  4.0014277E+04; -2.6222748E-01;  0.0000000E+00;  6.9465037E-03;  2.6947212E+03;
  1.6349694E-01;  9.9999998E-03;  6.0000010E-02;3458; -5.9735790E-02;  0.0000000E+00;  1.2689079E-04;  9.8945416E+02;  1.0000000E-01; -8.7370361E+03;3; -4.3350878E-01;  0.0000000E+00; -1.8082447E-01;0; -2.5423151E-01;  3.9140422E+04;  0.0000000E+00; -1.8268896E-02;  4.0000000E+04;  0.0000000E+00;  4.0018961E+04; -2.6067275E-01;  0.0000000E+00;  6.4412383E-03;  3.2625186E+03;
  1.7381573E-01;  9.9999998E-03; -1.0002974E-01;3503; -6.1128572E-02;  0.0000000E+00; -3.5047694E-04;  9.8973737E+02;  1.0000000E-01; -8.5023760E+03;3; -4.2372522E-01;  0.0000000E+00;  2.8550574E-01;0; -2.5520149E-01;  3.9160996E+04;  0.0000000E+00; -4.1069362E-02;  4.0000000E+04;  0.0000000E+00;  4.0020289E+04; -2.5602463E-01;  0.0000000E+00;  8.2313002E-04;  3.4120754E+03;
  1.7377296E-01;  9.9999998E-03; -9.0041213E-02;3504; -6.1499566E-02;  0.0000000E+00; -3.1975581E-04;  9.8934161E+02;  1.0000000E-01; -8.8302686E+03;3; -4.3208843E-01;  0.0000000E+00;  2.7116409E-01;0; -2.5508896E-01;  3.9127617E+04;  0.0000000E+00; -2.9466381E-02;  4.0000000E+04;  0.0000000E+00;  4.0022531E+04; -2.5752530E-01;  0.0000000E+00;  2.4363257E-03;  3.7349629E+03;
  1.7373095E-01;  9.9999998E-03; -8.0049522E-02;3505; -6.1843533E-02;  0.0000000E+00; -2.4067998E-04;  9.8898547E+02;  1.0000000E-01; -9.1253213E+03;3; -4.3728152E-01;  0.0000000E+00;  2.5188640E-01;0; -2.5533533E-01;  3.9099672E+04;  0.0000000E+00; -2.3867987E-02;  4.0000000E+04;  0.0000000E+00;  4.0022293E+04; -2.5917831E-01;  0.0000000E+00;  3.8429706E-03;  3.7290591E+03;
  1.7369272E-01;  9.9999998E-03; -7.0053346E-02;3506; -6.2152851E-02;  0.0000000E+00; -1.3853122E-04;  9.8867230E+02;  1.0000000E-01; -9.3847705E+03;3; -4.3907934E-01;  0.0000000E+00;  2.2354463E-01;0; -2.5591603E-01;  3.9077543E+04;  0.0000000E+00; -2.1876086E-02;  4.0000000E+04;  0.0000000E+00;  4.0019809E+04; -2.6085672E-01;  0.0000000E+00;  4.9406742E-03;  3.4493159E+03;
  1.7366235E-01;  9.9999998E-03; -6.0052536E-02;3507; -6.2422816E-02;  0.0000000E+00; -3.4544693E-05;  9.8841125E+02;  1.0000000E-01; -9.6010615E+03;3; -4.3889233E-01;  0.0000000E+00;  1.9169098E-01;0; -2.5677449E-01;  3.9060852E+04;  0.0000000E+00; -2.0966964E-02;  4.0000000E+04;  0.0000000E+00;  4.0015836E+04; -2.6245698E-01;  0.0000000E+00;  5.6825099E-03;  2.9766528E+03;
  1.7364725E-01;  9.9999998E-03; -5.0048478E-02;3508; -6.2651947E-02;  0.0000000E+00;  5.2881194E-05;  9.8819830E+02;  1.0000000E-01; -9.7775010E+03;3; -4.3722644E-01;  0.0000000E+00;  1.5842158E-01;0; -2.5782281E-01;  3.9048910E+04;  0.0000000E+00; -1.9197779E-02;  4.0000000E+04;  0.0000000E+00;  4.0011148E+04; -2.6390269E-01;  0.0000000E+00;  6.0798768E-03;  2.4000884E+03;
  1.7365219E-01;  9.9999998E-03; -4.0043924E-02;3509; -6.2839679E-02;  0.0000000E+00;  1.0653185E-04;  9.8803363E+02;  1.0000000E-01; -9.9138916E+03;3; -4.3486059E-01;  0.0000000E+00;  1.2304000E-01;0; -2.5894302E-01;  3.9040699E+04;  0.0000000E+00; -1.5690999E-02;  4.0000000E+04;  0.0000000E+00;  4.0006266E+04; -2.6513755E-01;  0.0000000E+00;  6.1945417E-03;  1.8026689E+03;
  1.7366947E-01;  9.9999998E-03; -3.0039463E-02;3510; -6.2984787E-02;  0.0000000E+00;  1.2152953E-04;  9.8791010E+02;  1.0000000E-01; -1.0016259E+04;3; -4.3258151E-01;  0.0000000E+00;  9.0603754E-02;0; -2.6000133E-01;  3.9035512E+04;  0.0000000E+00; -1.0724275E-02;  4.0000000E+04;  0.0000000E+00;  4.0001953E+04; -2.6612377E-01;  0.0000000E+00;  6.1224401E-03;  1.2541008E+03;
  1.7368335E-01;  9.9999998E-03; -2.0032998E-02;3511; -6.3085526E-02;  0.0000000E+00;  1.0240802E-04;  9.8782355E+02;  1.0000000E-01; -1.0087961E+04;3; -4.3052712E-01;  0.0000000E+00;  5.7690512E-02;0; -2.6086724E-01;  3.9032250E+04;  0.0000000E+00; -5.4785456E-03;  4.0000000E+04;  0.0000000E+00;  3.9998141E+04; -2.6683858E-01;  0.0000000E+00;  5.9713311E-03;  8.1134729E+02;
  1.7368333E-01;  9.9999998E-03; -1.0021587E-02;3512; -6.3142039E-02;  0.0000000E+00;  5.7863715E-05;  9.8777423E+02;  1.0000000E-01; -1.0128799E+04;3; -4.2922696E-01;  0.0000000E+00;  2.7531875E-02;0; -2.6143172E-01;  3.9030688E+04;  0.0000000E+00; -1.4885024E-03;  4.0000000E+04;  0.0000000E+00;  3.9995754E+04; -2.6726913E-01;  0.0000000E+00;  5.8374223E-03;  5.2146582E+02;
  1.7368194E-01;  9.9999998E-03;  1.6155684E-10;3513; -6.3160174E-02;  0.0000000E+00;  5.1075473E-09;  9.8775806E+02;  1.0000000E-01; -1.0142230E+04;3; -4.2878601E-01;  0.0000000E+00; -2.5483168E-06;0; -2.6162761E-01;  3.9030215E+04;  0.0000000E+00;  1.7043120E-12;  4.0000000E+04;  0.0000000E+00;  3.9994883E+04; -2.6741272E-01;  0.0000000E+00;  5.7850932E-03;  4.1994507E+02;
  1.7368333E-01;  9.9999998E-03;  1.0021587E-02;3514; -6.3142039E-02;  0.0000000E+00; -5.7859095E-05;  9.8777429E+02;  1.0000000E-01; -1.0128750E+04;3; -4.2925513E-01;  0.0000000E+00; -2.7527001E-02;0; -2.6143149E-01;  3.9030691E+04;  0.0000000E+00; -1.4885478E-03;  4.0000000E+04;  0.0000000E+00;  3.9995754E+04; -2.6726890E-01;  0.0000000E+00;  5.8374186E-03;  5.2146527E+02;
  1.7368335E-01;  9.9999998E-03;  2.0032998E-02;3515; -6.3085534E-02;  0.0000000E+00; -1.0239852E-04;  9.8782361E+02;  1.0000000E-01; -1.0087911E+04;3; -4.3051907E-01;  0.0000000E+00; -5.7607379E-02;0; -2.6086754E-01;  3.9032250E+04;  0.0000000E+00; -5.4785563E-03;  4.0000000E+04;  0.0000000E+00;  3.9998141E+04; -2.6683888E-01;  0.0000000E+00;  5.9713279E-03;  8.1135144E+02;
  1.7366947E-01;  9.9999998E-03;  3.0039463E-02;3516; -6.2984779E-02;  0.0000000E+00; -1.2152707E-04;  9.8791010E+02;  1.0000000E-01; -1.0016259E+04;3; -4.3259820E-01;  0.0000000E+00; -9.0554230E-02;0; -2.6000154E-01;  3.9035512E+04;  0.0000000E+00; -1.0724905E-02;  4.0000000E+04;  0.0000000E+00;  4.0001953E+04; -2.6612398E-01;  0.0000000E+00;  6.1224326E-03;  1.2541047E+03;
  1.7365219E-01;  9.9999998E-03;  4.0043924E-02;3517; -6.2839672E-02;  0.0000000E+00; -1.0653403E-04;  9.8803345E+02;  1.0000000E-01; -9.9140400E+03;3; -4.3470985E-01;  0.0000000E+00; -1.2308267E-01;0; -2.5894290E-01;  3.9040691E+04;  0.0000000E+00; -1.5690891E-02;  4.0000000E+04;  0.0000000E+00;  4.0006266E+04; -2.6513743E-01;  0.0000000E+00;  6.1945324E-03;  1.8026770E+03;
  1.7364725E-01;  9.9999998E-03;  5.0048478E-02;3518; -6.2651947E-02;  0.0000000E+00; -5.2881314E-05;  9.8819830E+02;  1.0000000E-01; -9.7775010E+03;3; -4.3709007E-01;  0.0000000E+00; -1.5838650E-01;0; -2.5782302E-01;  3.9048906E+04;  0.0000000E+00; -1.9199824E-02;  4.0000000E+04;  0.0000000E+00;  4.0011148E+04; -2.6390290E-01;  0.0000000E+00;  6.0798773E-03;  2.4000967E+03;
  1.7366235E-01;  9.9999998E-03;  6.0052536E-02;3519; -6.2422812E-02;  0.0000000E+00;  3.4536519E-05;  9.8841125E+02;  1.0000000E-01; -9.6010615E+03;3; -4.3883309E-01;  0.0000000E+00; -1.9168414E-01;0; -2.5677457E-01;  3.9060844E+04;  0.0000000E+00; -2.0963863E-02;  4.0000000E+04;  0.0000000E+00;  4.0015836E+04; -2.6245707E-01;  0.0000000E+00;  5.6825029E-03;  2.9766633E+03;
  1.8395311E-01;  9.9999998E-03; -1.0007507E-01;3564; -6.3748583E-02;  0.0000000E+00; -2.8485758E-04;  9.8897717E+02;  1.0000000E-01; -9.1321855E+03;3; -4.3161437E-01;  0.0000000E+00;  3.1860515E-01;0; -2.5834900E-01;  3.9101727E+04;  0.0000000E+00; -1.7438816E-02;  4.0000000E+04;  0.0000000E+00;  4.0019387E+04; -2.5920805E-01;  0.0000000E+00;  8.5903797E-04;  3.3762317E+03;
  1.8393479E-01;  9.9999998E-03; -9.0086639E-02;3565; -6.4178258E-02;  0.0000000E+00; -2.5150354E-04;  9.8859479E+02;  1.0000000E-01; -9.4490156E+03;3; -4.3858683E-01;  0.0000000E+00;  3.0138159E-01;0; -2.5818431E-01;  3.9069809E+04;  0.0000000E+00; -9.8564075E-03;  4.0000000E+04;  0.0000000E+00;  4.0021371E+04; -2.6057729E-01;  0.0000000E+00;  2.3929740E-03;  3.6398748E+03;
  1.8392952E-01;  9.9999998E-03; -8.0093645E-02;3566; -6.4579442E-02;  0.0000000E+00; -1.7410297E-04;  9.8825720E+02;  1.0000000E-01; -9.7286621E+03;3; -4.4211790E-01;  0.0000000E+00;  2.7611205E-01;0; -2.5838709E-01;  3.9044145E+04;  0.0000000E+00; -1.0277173E-02;  4.0000000E+04;  0.0000000E+00;  4.0020688E+04; -2.6207685E-01;  0.0000000E+00;  3.6897748E-03;  3.5866079E+03;
  1.8393818E-01;  9.9999998E-03; -7.0094340E-02;3567; -6.4942062E-02;  0.0000000E+00; -7.7697056E-05;  9.8797931E+02;  1.0000000E-01; -9.9589277E+03;3; -4.4230577E-01;  0.0000000E+00;  2.4289061E-01;0; -2.5892496E-01;  3.9024770E+04;  0.0000000E+00; -1.4332433E-02;  4.0000000E+04;  0.0000000E+00;  4.0018070E+04; -2.6358789E-01;  0.0000000E+00;  4.6629380E-03;  3.2762188E+03;
  1.8395616E-01;  9.9999998E-03; -6.0088642E-02;3568; -6.5258704E-02;  0.0000000E+00;  2.0446254E-05;  9.8775378E+02;  1.0000000E-01; -1.0145737E+04;3; -4.4063243E-01;  0.0000000E+00;  2.0568465E-01;0; -2.5973636E-01;  3.9011109E+04;  0.0000000E+00; -1.8209046E-02;  4.0000000E+04;  0.0000000E+00;  4.0013926E+04; -2.6501596E-01;  0.0000000E+00;  5.2796011E-03;  2.7931128E+03;
  1.8398155E-01;  9.9999998E-03; -5.0079145E-02;3569; -6.5524444E-02;  0.0000000E+00;  9.8183889E-05;  9.8758417E+02;  1.0000000E-01; -1.0286276E+04;3; -4.3791541E-01;  0.0000000E+00;  1.6995010E-01;0; -2.6072964E-01;  3.9002359E+04;  0.0000000E+00; -1.9409990E-02;  4.0000000E+04;  0.0000000E+00;  4.0009387E+04; -2.6629207E-01;  0.0000000E+00;  5.5624256E-03;  2.2266104E+03;
  1.8401153E-01;  9.9999998E-03; -4.0069990E-02;3570; -6.5737613E-02;  0.0000000E+00;  1.4116229E-04;  9.8746112E+02;  1.0000000E-01; -1.0388199E+04;3; -4.3456021E-01;  0.0000000E+00;  1.3265756E-01;0; -2.6178932E-01;  3.8997285E+04;  0.0000000E+00; -1.7132694E-02;  4.0000000E+04;  0.0000000E+00;  4.0004754E+04; -2.6737049E-01;  0.0000000E+00;  5.5811852E-03;  1.6553486E+03;
  1.8404424E-01;  9.9999998E-03; -3.0064072E-02;3571; -6.5899663E-02;  0.0000000E+00;  1.4576704E-04;  9.8737518E+02;  1.0000000E-01; -1.0459407E+04;3; -4.3131971E-01;  0.0000000E+00;  9.6203007E-02;0; -2.6278901E-01;  3.8994742E+04;  0.0000000E+00; -1.2168692E-02;  4.0000000E+04;  0.0000000E+00;  4.0000625E+04; -2.6822430E-01;  0.0000000E+00;  5.4352819E-03;  1.1404720E+03;
  1.8407029E-01;  9.9999998E-03; -2.0056725E-02;3572; -6.6011958E-02;  0.0000000E+00;  1.1747095E-04;  9.8732043E+02;  1.0000000E-01; -1.0504788E+04;3; -4.2899784E-01;  0.0000000E+00;  6.2418599E-02;0; -2.6360613E-01;  3.8993699E+04;  0.0000000E+00; -6.3405121E-03;  4.0000000E+04;  0.0000000E+00;  3.9997215E+04; -2.6883852E-01;  0.0000000E+00;  5.2323882E-03;  7.2852222E+02;
  1.8408643E-01;  9.9999998E-03; -1.0038092E-02;3573; -6.6077486E-02;  0.0000000E+00;  6.5029562E-05;  9.8728821E+02;  1.0000000E-01; -1.0531454E+04;3; -4.2775148E-01;  0.0000000E+00;  3.1059293E-02;0; -2.6414162E-01;  3.8993430E+04;  0.0000000E+00; -1.7411332E-03;  4.0000000E+04;  0.0000000E+00;  3.9995082E+04; -2.6920870E-01;  0.0000000E+00;  5.0670723E-03;  4.5869897E+02;
  1.8409419E-01;  9.9999998E-03;  2.8812916E-10;3574; -6.6099666E-02;  0.0000000E+00;  4.2564863E-09;  9.8727966E+02;  1.0000000E-01; -1.0538565E+04;3; -4.2715195E-01;  0.0000000E+00;  4.3239674E-05;0; -2.6432854E-01;  3.8993367E+04;  0.0000000E+00;  7.6783263E-13;  4.0000000E+04;  0.0000000E+00;  3.9994395E+04; -2.6933256E-01;  0.0000000E+00;  5.0040316E-03;  3.6382285E+02;
  1.8408643E-01;  9.9999998E-03;  1.0038092E-02;3575; -6.6077493E-02;  0.0000000E+00; -6.5026761E-05;  9.8728821E+02;  1.0000000E-01; -1.0531454E+04;3; -4.2760000E-01;  0.0000000E+00; -3.1096186E-02;0; -2.6414159E-01;  3.8993430E+04;  0.0000000E+00; -1.7413858E-03;  4.0000000E+04;  0.0000000E+00;  3.9995082E+04; -2.6920867E-01;  0.0000000E+00;  5.0670700E-03;  4.5870078E+02;
  1.8407027E-01;  9.9999998E-03;  2.0056725E-02;3576; -6.6011958E-02;  0.0000000E+00; -1.1746910E-04;  9.8732043E+02;  1.0000000E-01; -1.0504788E+04;3; -4.2900884E-01;  0.0000000E+00; -6.2440738E-02;0; -2.6360619E-01;  3.8993699E+04;  0.0000000E+00; -6.3408385E-03;  4.0000000E+04;  0.0000000E+00;  3.9997215E+04; -2.6883858E-01;  0.0000000E+00;  5.2323858E-03;  7.2852429E+02;
  1.8404424E-01;  9.9999998E-03;  3.0064074E-02;3577; -6.5899663E-02;  0.0000000E+00; -1.4576534E-04;  9.8737512E+02;  1.0000000E-01; -1.0459456E+04;3; -4.3134043E-01;  0.0000000E+00; -9.6297309E-02;0; -2.6278877E-01;  3.8994746E+04;  0.0000000E+00; -1.2169430E-02;  4.0000000E+04;  0.0000000E+00;  4.0000625E+04; -2.6822403E-01;  0.0000000E+00;  5.4352712E-03;  1.1404823E+03;
  1.8401153E-01;  9.9999998E-03;  4.0069990E-02;3578; -6.5737620E-02;  0.0000000E+00; -1.4116337E-04;  9.8746112E+02;  1.0000000E-01; -1.0388199E+04;3; -4.3459100E-01;  0.0000000E+00; -1.3270272E-01;0; -2.6178980E-01;  3.8997285E+04;  0.0000000E+00; -1.7132776E-02;  4.0000000E+04;  0.0000000E+00;  4.0004754E+04; -2.6737097E-01;  0.0000000E+00;  5.5811796E-03;  1.6553582E+03;
  1.8398155E-01;  9.9999998E-03;  5.0079145E-02;3579; -6.5524451E-02;  0.0000000E+00; -9.8188189E-05;  9.8758417E+02;  1.0000000E-01; -1.0286276E+04;3; -4.3789586E-01;  0.0000000E+00; -1.7002253E-01;0; -2.6072979E-01;  3.9002355E+04;  0.0000000E+00; -1.9410858E-02;  4.0000000E+04;  0.0000000E+00;  4.0009387E+04; -2.6629221E-01;  0.0000000E+00;  5.5624242E-03;  2.2266221E+03;
  1.8395616E-01;  9.9999998E-03;  6.0088642E-02;3580; -6.5258712E-02;  0.0000000E+00; -2.0450603E-05;  9.8775378E+02;  1.0000000E-01; -1.0145737E+04;3; -4.4067514E-01;  0.0000000E+00; -2.0581047E-01;0; -2.5973630E-01;  3.9011109E+04;  0.0000000E+00; -1.8210579E-02;  4.0000000E+04;  0.0000000E+00;  4.0013926E+04; -2.6501590E-01;  0.0000000E+00;  5.2795908E-03;  2.7931204E+03;
  1.9413152E-01;  9.9999998E-03; -1.0009081E-01;3625; -6.6492558E-02;  0.0000000E+00; -2.8476550E-04;  9.8853271E+02;  1.0000000E-01; -9.5004219E+03;3; -4.3524137E-01;  0.0000000E+00;  3.5680184E-01;0; -2.6154825E-01;  3.9066828E+04;  0.0000000E+00;  3.2619514E-02;  4.0000000E+04;  0.0000000E+00;  4.0019598E+04; -2.6286542E-01;  0.0000000E+00;  1.3171729E-03;  3.4331191E+03;
  1.9416340E-01;  9.9999998E-03; -9.0100259E-02;3626; -6.6983223E-02;  0.0000000E+00; -2.4116266E-04;  9.8820483E+02;  1.0000000E-01; -9.7720684E+03;3; -4.4072685E-01;  0.0000000E+00;  3.3540577E-01;0; -2.6127964E-01;  3.9039500E+04;  0.0000000E+00;  2.9221004E-02;  4.0000000E+04;  0.0000000E+00;  4.0020992E+04; -2.6403987E-01;  0.0000000E+00;  2.7602436E-03;  3.6379919E+03;
  1.9420235E-01;  9.9999998E-03; -8.0105349E-02;3627; -6.7438267E-02;  0.0000000E+00; -1.5779343E-04;  9.8793268E+02;  1.0000000E-01; -9.9975439E+03;3; -4.4257224E-01;  0.0000000E+00;  3.0581278E-01;0; -2.6137593E-01;  3.9019258E+04;  0.0000000E+00;  1.7463611E-02;  4.0000000E+04;  0.0000000E+00;  4.0020141E+04; -2.6531309E-01;  0.0000000E+00;  3.9371625E-03;  3.5441372E+03;
  1.9424096E-01;  9.9999998E-03; -7.0104815E-02;3628; -6.7844361E-02;  0.0000000E+00; -5.6629771E-05;  9.8772125E+02;  1.0000000E-01; -1.0172699E+04;3; -4.4033259E-01;  0.0000000E+00;  2.6262459E-01;0; -2.6179990E-01;  3.9005469E+04;  0.0000000E+00;  3.6160764E-03;  4.0000000E+04;  0.0000000E+00;  4.0017328E+04; -2.6657778E-01;  0.0000000E+00;  4.7778860E-03;  3.2167654E+03;
  1.9427338E-01;  9.9999998E-03; -6.0097847E-02;3629; -6.8192042E-02;  0.0000000E+00;  4.0987146E-05;  9.8756989E+02;  1.0000000E-01; -1.0298128E+04;3; -4.3754482E-01;  0.0000000E+00;  2.2352128E-01;0; -2.6249015E-01;  3.8997254E+04;  0.0000000E+00; -7.6235202E-03;  4.0000000E+04;  0.0000000E+00;  4.0013348E+04; -2.6775458E-01;  0.0000000E+00;  5.2644429E-03;  2.7426509E+03;
  1.9429842E-01;  9.9999998E-03; -5.0086986E-02;3630; -6.8476990E-02;  0.0000000E+00;  1.1459375E-04;  9.8747028E+02;  1.0000000E-01; -1.0380644E+04;3; -4.3302542E-01;  0.0000000E+00;  1.7981336E-01;0; -2.6336029E-01;  3.8993625E+04;  0.0000000E+00; -1.3728549E-02;  4.0000000E+04;  0.0000000E+00;  4.0009172E+04; -2.6879126E-01;  0.0000000E+00;  5.4309703E-03;  2.2092292E+03;
  1.9431892E-01;  9.9999998E-03; -4.0075347E-02;3631; -6.8700396E-02;  0.0000000E+00;  1.5304716E-04;  9.8741046E+02;  1.0000000E-01; -1.0430174E+04;3; -4.2920864E-01;  0.0000000E+00;  1.3972296E-01;0; -2.6430058E-01;  3.8993031E+04;  0.0000000E+00; -1.4367320E-02;  4.0000000E+04;  0.0000000E+00;  4.0005023E+04; -2.6965472E-01;  0.0000000E+00;  5.3541386E-03;  1.6882504E+03;
  1.9434403E-01;  9.9999998E-03; -3.0069111E-02;3632; -6.8868279E-02;  0.0000000E+00;  1.5345590E-04;  9.8737744E+02;  1.0000000E-01; -1.0457530E+04;3; -4.2575613E-01;  0.0000000E+00;  1.0105172E-01;0; -2.6519457E-01;  3.8994223E+04;  0.0000000E+00; -1.0969694E-02;  4.0000000E+04;  0.0000000E+00;  4.0001234E+04; -2.7033052E-01;  0.0000000E+00;  5.1359488E-03;  1.2304613E+03;
  1.9437234E-01;  9.9999998E-03; -2.0063322E-02;3633; -6.8985768E-02;  0.0000000E+00;  1.2161765E-04;  9.8736462E+02;  1.0000000E-01; -1.0468147E+04;3; -4.2298552E-01;  0.0000000E+00;  6.5322138E-02;0; -2.6593009E-01;  3.8996035E+04;  0.0000000E+00; -5.9116175E-03;  4.0000000E+04;  0.0000000E+00;  3.9998316E+04; -2.7081341E-01;  0.0000000E+00;  4.8833266E-03;  8.7026721E+02;
  1.9439444E-01;  9.9999998E-03; -1.0044024E-02;3634; -6.9055401E-02;  0.0000000E+00;  6.6900706E-05;  9.8735889E+02;  1.0000000E-01; -1.0472938E+04;3; -4.2147249E-01;  0.0000000E+00;  3.2519955E-02;0; -2.6641455E-01;  3.8997465E+04;  0.0000000E+00; -1.6489489E-03;  4.0000000E+04;  0.0000000E+00;  3.9996578E+04; -2.7110356E-01;  0.0000000E+00;  4.6889940E-03;  6.3613220E+02;
  1.9440410E-01;  9.9999998E-03;  3.7555684E-10;3635; -6.9078907E-02;  0.0000000E+00;  6.0768826E-09;  9.8735828E+02;  1.0000000E-01; -1.0473432E+04;3; -4.2091036E-01;  0.0000000E+00;  4.3092601E-05;0; -2.6658416E-01;  3.8998145E+04;  0.0000000E+00; -4.5933803E-13;  4.0000000E+04;  0.0000000E+00;  3.9995953E+04; -2.7120066E-01;  0.0000000E+00;  4.6165078E-03;  5.5391034E+02;
  1.9439444E-01;  9.9999998E-03;  1.0044025E-02;3636; -6.9055401E-02;  0.0000000E+00; -6.6892062E-05;  9.8735883E+02;  1.0000000E-01; -1.0472987E+04;3; -4.2147520E-01;  0.0000000E+00; -3.2550931E-02;0; -2.6641479E-01;  3.8997465E+04;  0.0000000E+00; -1.6492237E-03;  4.0000000E+04;  0.0000000E+00;  3.9996578E+04; -2.7110380E-01;  0.0000000E+00;  4.6889973E-03;  6.3613580E+02;
  1.9437234E-01;  9.9999998E-03;  2.0063324E-02;3637; -6.8985768E-02;  0.0000000E+00; -1.2161543E-04;  9.8736462E+02;  1.0000000E-01; -1.0468147E+04;3; -4.2296273E-01;  0.0000000E+00; -6.5350980E-02;0; -2.6593065E-01;  3.8996035E+04;  0.0000000E+00; -5.9120483E-03;  4.0000000E+04;  0.0000000E+00;  3.9998316E+04; -2.7081397E-01;  0.0000000E+00;  4.8833173E-03;  8.7027002E+02;
  1.9434403E-01;  9.9999998E-03;  3.0069111E-02;3638; -6.8868279E-02;  0.0000000E+00; -1.5344916E-04;  9.8737744E+02;  1.0000000E-01; -1.0457530E+04;3; -4.2575163E-01;  0.0000000E+00; -1.0102344E-01;0; -2.6519477E-01;  3.8994227E+04;  0.0000000E+00; -1.0970244E-02;  4.0000000E+04;  0.0000000E+00;  4.0001234E+04; -2.7033073E-01;  0.0000000E+00;  5.1359446E-03;  1.2304695E+03;
  1.9431892E-01;  9.9999998E-03;  4.0075351E-02;3639; -6.8700396E-02;  0.0000000E+00; -1.5304635E-04;  9.8741034E+02;  1.0000000E-01; -1.0430272E+04;3; -4.2922512E-01;  0.0000000E+00; -1.3973123E-01;0; -2.6430061E-01;  3.8993027E+04;  0.0000000E+00; -1.4369346E-02;  4.0000000E+04;  0.0000000E+00;  4.0005023E+04; -2.6965475E-01;  0.0000000E+00;  5.3541325E-03;  1.6882617E+03;
  1.9429843E-01;  9.9999998E-03;  5.0086986E-02;3640; -6.8476990E-02;  0.0000000E+00; -1.1459579E-04;  9.8747028E+02;  1.0000000E-01; -1.0380644E+04;3; -4.3307978E-01;  0.0000000E+00; -1.7978835E-01;0; -2.6336014E-01;  3.8993625E+04;  0.0000000E+00; -1.3729971E-02;  4.0000000E+04;  0.0000000E+00;  4.0009172E+04; -2.6879111E-01;  0.0000000E+00;  5.4309703E-03;  2.2092441E+03;
  1.9427338E-01;  9.9999998E-03;  6.0097847E-02;3641; -6.8192035E-02;  0.0000000E+00; -4.0987357E-05;  9.8756995E+02;  1.0000000E-01; -1.0298078E+04;3; -4.3740666E-01;  0.0000000E+00; -2.2352591E-01;0; -2.6249015E-01;  3.8997250E+04;  0.0000000E+00; -7.6244986E-03;  4.0000000E+04;  0.0000000E+00;  4.0013348E+04; -2.6775458E-01;  0.0000000E+00;  5.2644415E-03;  2.7426653E+03;
  2.0436147E-01;  9.9999998E-03; -1.0008322E-01;3686; -6.9340080E-02;  0.0000000E+00; -3.4344321E-04;  9.8845251E+02;  1.0000000E-01; -9.5668896E+03;3; -4.3369430E-01;  0.0000000E+00;  3.9983916E-01;0; -2.6431143E-01;  3.9059426E+04;  0.0000000E+00;  1.0378282E-01;  4.0000000E+04;  0.0000000E+00;  4.0020879E+04; -2.6651120E-01;  0.0000000E+00;  2.1997604E-03;  3.6072827E+03;
  2.0443100E-01;  9.9999998E-03; -9.0088338E-02;3687; -6.9881469E-02;  0.0000000E+00; -2.8318673E-04;  9.8821826E+02;  1.0000000E-01; -9.7609580E+03;3; -4.3743569E-01;  0.0000000E+00;  3.7436658E-01;0; -2.6387319E-01;  3.9040023E+04;  0.0000000E+00;  8.2520202E-02;  4.0000000E+04;  0.0000000E+00;  4.0021953E+04; -2.6741144E-01;  0.0000000E+00;  3.5382474E-03;  3.7546721E+03;
  2.0449801E-01;  9.9999998E-03; -8.0088019E-02;3688; -7.0379056E-02;  0.0000000E+00; -1.8309896E-04;  9.8804706E+02;  1.0000000E-01; -9.9027812E+03;3; -4.3637782E-01;  0.0000000E+00;  3.3501816E-01;0; -2.6379523E-01;  3.9027652E+04;  0.0000000E+00;  5.5265993E-02;  4.0000000E+04;  0.0000000E+00;  4.0020941E+04; -2.6838002E-01;  0.0000000E+00;  4.5847897E-03;  3.6275583E+03;
  2.0455654E-01;  9.9999998E-03; -7.0080601E-02;3689; -7.0817508E-02;  0.0000000E+00; -7.2265786E-05;  9.8793365E+02;  1.0000000E-01; -9.9967539E+03;3; -4.3215284E-01;  0.0000000E+00;  2.8579572E-01;0; -2.6404291E-01;  3.9021430E+04;  0.0000000E+00;  2.9407218E-02;  4.0000000E+04;  0.0000000E+00;  4.0018051E+04; -2.6932859E-01;  0.0000000E+00;  5.2856933E-03;  3.2954199E+03;
  2.0459734E-01;  9.9999998E-03; -6.0065832E-02;3690; -7.1186624E-02;  0.0000000E+00;  3.0087922E-05;  9.8787231E+02;  1.0000000E-01; -1.0047567E+04;3; -4.2741808E-01;  0.0000000E+00;  2.3842736E-01;0; -2.6455817E-01;  3.9020246E+04;  0.0000000E+00;  9.5451223E-03;  4.0000000E+04;  0.0000000E+00;  4.0014465E+04; -2.7019539E-01;  0.0000000E+00;  5.6372299E-03;  2.8463813E+03;
  2.0461749E-01;  9.9999998E-03; -5.0046399E-02;3691; -7.1482107E-02;  0.0000000E+00;  1.0500618E-04;  9.8785376E+02;  1.0000000E-01; -1.0062925E+04;3; -4.2246211E-01;  0.0000000E+00;  1.9188227E-01;0; -2.6525807E-01;  3.9022465E+04;  0.0000000E+00; -2.5229913E-03;  4.0000000E+04;  0.0000000E+00;  4.0010551E+04; -2.7094242E-01;  0.0000000E+00;  5.6843464E-03;  2.3647458E+03;
  2.0462519E-01;  9.9999998E-03; -4.0027816E-02;3692; -7.1707882E-02;  0.0000000E+00;  1.4234342E-04;  9.8786505E+02;  1.0000000E-01; -1.0053592E+04;3; -4.1855952E-01;  0.0000000E+00;  1.4981741E-01;0; -2.6604164E-01;  3.9026969E+04;  0.0000000E+00; -7.3272269E-03;  4.0000000E+04;  0.0000000E+00;  4.0006973E+04; -2.7155203E-01;  0.0000000E+00;  5.5103847E-03;  1.9144744E+03;
  2.0463644E-01;  9.9999998E-03; -3.0018834E-02;3693; -7.1874321E-02;  0.0000000E+00;  1.4361728E-04;  9.8788983E+02;  1.0000000E-01; -1.0033049E+04;3; -4.1429260E-01;  0.0000000E+00;  1.0697512E-01;0; -2.6680025E-01;  3.9031910E+04;  0.0000000E+00; -6.9373734E-03;  4.0000000E+04;  0.0000000E+00;  4.0004137E+04; -2.7202037E-01;  0.0000000E+00;  5.2201152E-03;  1.5341410E+03;
  2.0465136E-01;  9.9999998E-03; -2.0016542E-02;3694; -7.1988374E-02;  0.0000000E+00;  1.1377802E-04;  9.8791864E+02;  1.0000000E-01; -1.0009197E+04;3; -4.1174349E-01;  0.0000000E+00;  7.0689470E-02;0; -2.6742953E-01;  3.9036605E+04;  0.0000000E+00; -4.0502399E-03;  4.0000000E+04;  0.0000000E+00;  4.0001844E+04; -2.7234897E-01;  0.0000000E+00;  4.9194340E-03;  1.2449744E+03;
  2.0466426E-01;  9.9999998E-03; -1.0012948E-02;3695; -7.2055094E-02;  0.0000000E+00;  6.2447943E-05;  9.8794281E+02;  1.0000000E-01; -9.9891484E+03;3; -4.1012022E-01;  0.0000000E+00;  3.5791777E-02;0; -2.6784506E-01;  3.9039676E+04;  0.0000000E+00; -1.1652313E-03;  4.0000000E+04;  0.0000000E+00;  4.0000258E+04; -2.7254343E-01;  0.0000000E+00;  4.6983752E-03;  1.0620879E+03;
  2.0467150E-01;  9.9999998E-03;  5.1496168E-10;3696; -7.2077744E-02;  0.0000000E+00;  3.0285878E-09;  9.8795074E+02;  1.0000000E-01; -9.9825811E+03;3; -4.0968460E-01;  0.0000000E+00;  3.1518182E-05;0; -2.6799047E-01;  3.9040707E+04;  0.0000000E+00; -7.5018762E-13;  4.0000000E+04;  0.0000000E+00;  3.9999797E+04; -2.7260801E-01;  0.0000000E+00;  4.6175332E-03;  9.9896527E+02;
  2.0466426E-01;  9.9999998E-03;  1.0012949E-02;3697; -7.2055094E-02;  0.0000000E+00; -6.2443673E-05;  9.8794281E+02;  1.0000000E-01; -9.9891484E+03;3; -4.1012323E-01;  0.0000000E+00; -3.5823762E-02;0; -2.6784503E-01;  3.9039676E+04;  0.0000000E+00; -1.1656273E-03;  4.0000000E+04;  0.0000000E+00;  4.0000258E+04; -2.7254340E-01;  0.0000000E+00;  4.6983724E-03;  1.0620925E+03;
  2.0465136E-01;  9.9999998E-03;  2.0016544E-02;3698; -7.1988374E-02;  0.0000000E+00; -1.1376773E-04;  9.8791864E+02;  1.0000000E-01; -1.0009197E+04;3; -4.1175792E-01;  0.0000000E+00; -7.0658132E-02;0; -2.6742923E-01;  3.9036605E+04;  0.0000000E+00; -4.0506558E-03;  4.0000000E+04;  0.0000000E+00;  4.0001844E+04; -2.7234867E-01;  0.0000000E+00;  4.9194270E-03;  1.2449807E+03;
  2.0463644E-01;  9.9999998E-03;  3.0018836E-02;3699; -7.1874313E-02;  0.0000000E+00; -1.4361170E-04;  9.8788983E+02;  1.0000000E-01; -1.0033049E+04;3; -4.1429201E-01;  0.0000000E+00; -1.0699531E-01;0; -2.6680028E-01;  3.9031910E+04;  0.0000000E+00; -6.9381008E-03;  4.0000000E+04;  0.0000000E+00;  4.0004137E+04; -2.7202040E-01;  0.0000000E+00;  5.2201091E-03;  1.5341556E+03;
  2.0462519E-01;  9.9999998E-03;  4.0027816E-02;3700; -7.1707867E-02;  0.0000000E+00; -1.4233972E-04;  9.8786511E+02;  1.0000000E-01; -1.0053542E+04;3; -4.1839054E-01;  0.0000000E+00; -1.4973731E-01;0; -2.6604176E-01;  3.9026973E+04;  0.0000000E+00; -7.3274132E-03;  4.0000000E+04;  0.0000000E+00;  4.0006973E+04; -2.7155215E-01;  0.0000000E+00;  5.5103870E-03;  1.9144805E+03;
  2.0461749E-01;  9.9999998E-03;  5.0046399E-02;3701; -7.1482107E-02;  0.0000000E+00; -1.0500669E-04;  9.8785376E+02;  1.0000000E-01; -1.0062925E+04;3; -4.2245832E-01;  0.0000000E+00; -1.9192092E-01;0; -2.6525810E-01;  3.9022465E+04;  0.0000000E+00; -2.5242483E-03;  4.0000000E+04;  0.0000000E+00;  4.0010551E+04; -2.7094245E-01;  0.0000000E+00;  5.6843441E-03;  2.3647568E+03;
  2.0459734E-01;  9.9999998E-03;  6.0065836E-02;3702; -7.1186632E-02;  0.0000000E+00; -3.0082538E-05;  9.8787231E+02;  1.0000000E-01; -1.0047567E+04;3; -4.2742369E-01;  0.0000000E+00; -2.3846395E-01;0; -2.6455805E-01;  3.9020242E+04;  0.0000000E+00;  9.5470091E-03;  4.0000000E+04;  0.0000000E+00;  4.0014469E+04; -2.7019528E-01;  0.0000000E+00;  5.6372313E-03;  2.8463928E+03;
  2.1470995E-01;  9.9999998E-03; -1.0002054E-01;3747; -7.2285153E-02;  0.0000000E+00; -4.5228162E-04;  9.8875494E+02;  1.0000000E-01; -9.3163281E+03;3; -4.2464489E-01;  0.0000000E+00;  4.4533998E-01;0; -2.6627284E-01;  3.9080926E+04;  0.0000000E+00;  1.7967068E-01;  4.0000000E+04;  0.0000000E+00;  4.0023434E+04; -2.6977947E-01;  0.0000000E+00;  3.5066300E-03;  3.9113694E+03;
  2.1480799E-01;  9.9999998E-03; -9.0016440E-02;3748; -7.2866552E-02;  0.0000000E+00; -3.6601955E-04;  9.8864716E+02;  1.0000000E-01; -9.4056094E+03;3; -4.2575282E-01;  0.0000000E+00;  4.1193768E-01;0; -2.6561126E-01;  3.9071707E+04;  0.0000000E+00;  1.3660733E-01;  4.0000000E+04;  0.0000000E+00;  4.0024180E+04; -2.7033335E-01;  0.0000000E+00;  4.7220956E-03;  3.9991895E+03;
  2.1486567E-01;  9.9999998E-03; -8.0014065E-02;3749; -7.3386319E-02;  0.0000000E+00; -2.4445736E-04;  9.8859161E+02;  1.0000000E-01; -9.4516328E+03;3; -4.2182758E-01;  0.0000000E+00;  3.6393327E-01;0; -2.6530537E-01;  3.9068637E+04;  0.0000000E+00;  9.3183018E-02;  4.0000000E+04;  0.0000000E+00;  4.0022891E+04; -2.7092528E-01;  0.0000000E+00;  5.6199068E-03;  3.8443066E+03;
  2.1488577E-01;  9.9999998E-03; -7.0009515E-02;3750; -7.3830746E-02;  0.0000000E+00; -1.1895628E-04;  9.8858063E+02;  1.0000000E-01; -9.4607197E+03;3; -4.1512793E-01;  0.0000000E+00;  3.0650094E-01;0; -2.6532862E-01;  3.9070336E+04;  0.0000000E+00;  5.6294955E-02;  4.0000000E+04;  0.0000000E+00;  4.0020422E+04; -2.7149439E-01;  0.0000000E+00;  6.1657815E-03;  3.5196128E+03;
  2.1487665E-01;  9.9999998E-03; -5.9999585E-02;3751; -7.4194685E-02;  0.0000000E+00; -1.0024753E-05;  9.8860822E+02;  1.0000000E-01; -9.4378555E+03;3; -4.0995920E-01;  0.0000000E+00;  2.5696597E-01;0; -2.6562849E-01;  3.9075746E+04;  0.0000000E+00;  2.9068189E-02;  4.0000000E+04;  0.0000000E+00;  4.0017125E+04; -2.7200139E-01;  0.0000000E+00;  6.3728909E-03;  3.1112505E+03;
  2.1484898E-01;  9.9999998E-03; -4.9985927E-02;3752; -7.4479610E-02;  0.0000000E+00;  6.8785186E-05;  9.8866315E+02;  1.0000000E-01; -9.3923760E+03;3; -4.0508828E-01;  0.0000000E+00;  2.0673381E-01;0; -2.6612833E-01;  3.9083289E+04;  0.0000000E+00;  1.1718200E-02;  4.0000000E+04;  0.0000000E+00;  4.0013793E+04; -2.7242526E-01;  0.0000000E+00;  6.2969467E-03;  2.6970537E+03;
  2.1481848E-01;  9.9999998E-03; -3.9975218E-02;3753; -7.4693494E-02;  0.0000000E+00;  1.1003640E-04;  9.8873346E+02;  1.0000000E-01; -9.3341055E+03;3; -4.0019619E-01;  0.0000000E+00;  1.5793367E-01;0; -2.6673383E-01;  3.9091699E+04;  0.0000000E+00;  2.6041905E-03;  4.0000000E+04;  0.0000000E+00;  4.0010953E+04; -2.7276015E-01;  0.0000000E+00;  6.0263197E-03;  2.3305425E+03;
  2.1479946E-01;  9.9999998E-03; -2.9974813E-02;3754; -7.4848123E-02;  0.0000000E+00;  1.1650887E-04;  9.8880750E+02;  1.0000000E-01; -9.2727744E+03;3; -3.9677656E-01;  0.0000000E+00;  1.1570012E-01;0; -2.6734194E-01;  3.9099836E+04;  0.0000000E+00; -7.9700357E-04;  4.0000000E+04;  0.0000000E+00;  4.0008762E+04; -2.7300799E-01;  0.0000000E+00;  5.6660585E-03;  2.0374055E+03;
  2.1478976E-01;  9.9999998E-03; -1.9981192E-02;3755; -7.4951619E-02;  0.0000000E+00;  9.4067756E-05;  9.8887195E+02;  1.0000000E-01; -9.2193926E+03;3; -3.9400280E-01;  0.0000000E+00;  7.5213403E-02;0; -2.6785579E-01;  3.9106445E+04;  0.0000000E+00; -1.0916188E-03;  4.0000000E+04;  0.0000000E+00;  4.0007090E+04; -2.7317506E-01;  0.0000000E+00;  5.3192768E-03;  1.8257955E+03;
  2.1478447E-01;  9.9999998E-03; -9.9900141E-03;3756; -7.5010478E-02;  0.0000000E+00;  5.2028900E-05;  9.8891376E+02;  1.0000000E-01; -9.1847275E+03;3; -3.9245641E-01;  0.0000000E+00;  3.7591085E-02;0; -2.6819873E-01;  3.9110840E+04;  0.0000000E+00; -3.8466527E-04;  4.0000000E+04;  0.0000000E+00;  4.0006000E+04; -2.7327126E-01;  0.0000000E+00;  5.0725215E-03;  1.6975737E+03;
  2.1478333E-01;  9.9999998E-03;  5.9772243E-10;3757; -7.5029701E-02;  0.0000000E+00;  4.9179749E-09;  9.8893091E+02;  1.0000000E-01; -9.1705547E+03;3; -3.9188251E-01;  0.0000000E+00; -1.6883067E-05;0; -2.6831859E-01;  3.9112348E+04;  0.0000000E+00; -5.0948660E-13;  4.0000000E+04;  0.0000000E+00;  4.0005723E+04; -2.7330214E-01;  0.0000000E+00;  4.9835565E-03;  1.6544454E+03;
  2.1478447E-01;  9.9999998E-03;  9.9900151E-03;3758; -7.5010486E-02;  0.0000000E+00; -5.2019543E-05;  9.8891376E+02;  1.0000000E-01; -9.1847275E+03;3; -3.9245811E-01;  0.0000000E+00; -3.7588544E-02;0; -2.6819843E-01;  3.9110844E+04;  0.0000000E+00; -3.8492991E-04;  4.0000000E+04;  0.0000000E+00;  4.0006000E+04; -2.7327096E-01;  0.0000000E+00;  5.0725196E-03;  1.6975803E+03;
  2.1478976E-01;  9.9999998E-03;  1.9981194E-02;3759; -7.4951619E-02;  0.0000000E+00; -9.4055496E-05;  9.8887195E+02;  1.0000000E-01; -9.2193926E+03;3; -3.9397955E-01;  0.0000000E+00; -7.5152829E-02;0; -2.6785573E-01;  3.9106441E+04;  0.0000000E+00; -1.0923392E-03;  4.0000000E+04;  0.0000000E+00;  4.0007090E+04; -2.7317500E-01;  0.0000000E+00;  5.3192731E-03;  1.8257979E+03;
  2.1479946E-01;  9.9999998E-03;  2.9974815E-02;3760; -7.4848123E-02;  0.0000000E+00; -1.1650270E-04;  9.8880756E+02;  1.0000000E-01; -9.2727246E+03;3; -3.9679706E-01;  0.0000000E+00; -1.1569533E-01;0; -2.6734200E-01;  3.9099836E+04;  0.0000000E+00; -7.9769071E-04;  4.0000000E+04;  0.0000000E+00;  4.0008762E+04; -2.7300805E-01;  0.0000000E+00;  5.6660515E-03;  2.0374104E+03;
  2.1481848E-01;  9.9999998E-03;  3.9975218E-02;3761; -7.4693494E-02;  0.0000000E+00; -1.1002440E-04;  9.8873346E+02;  1.0000000E-01; -9.3341055E+03;3; -4.0020895E-01;  0.0000000E+00; -1.5792248E-01;0; -2.6673406E-01;  3.9091695E+04;  0.0000000E+00;  2.6038098E-03;  4.0000000E+04;  0.0000000E+00;  4.0010953E+04; -2.7276036E-01;  0.0000000E+00;  6.0263127E-03;  2.3305417E+03;
  2.1484898E-01;  9.9999998E-03;  4.9985930E-02;3762; -7.4479610E-02;  0.0000000E+00; -6.8777437E-05;  9.8866321E+02;  1.0000000E-01; -9.3923262E+03;3; -4.0494338E-01;  0.0000000E+00; -2.0677878E-01;0; -2.6612839E-01;  3.9083289E+04;  0.0000000E+00;  1.1716689E-02;  4.0000000E+04;  0.0000000E+00;  4.0013793E+04; -2.7242532E-01;  0.0000000E+00;  6.2969406E-03;  2.6970674E+03;
  2.1487665E-01;  9.9999998E-03;  5.9999585E-02;3763; -7.4194685E-02;  0.0000000E+00;  1.0034372E-05;  9.8860822E+02;  1.0000000E-01; -9.4378555E+03;3; -4.0991828E-01;  0.0000000E+00; -2.5699022E-01;0; -2.6562804E-01;  3.9075746E+04;  0.0000000E+00;  2.9064724E-02;  4.0000000E+04;  0.0000000E+00;  4.0017125E+04; -2.7200094E-01;  0.0000000E+00;  6.3728876E-03;  3.1112598E+03;
  2.2500637E-01;  9.9999998E-03; -9.9955365E-02;3808; -7.5254761E-02;  0.0000000E+00; -5.9449341E-04;  9.8940930E+02;  1.0000000E-01; -8.7741709E+03;3; -4.0678349E-01;  0.0000000E+00;  4.9425513E-01;0; -2.6717722E-01;  3.9128969E+04;  0.0000000E+00;  2.3739611E-01;  4.0000000E+04;  0.0000000E+00;  4.0027379E+04; -2.7235219E-01;  0.0000000E+00;  5.1749721E-03;  4.3481055E+03;
  2.2504674E-01;  9.9999998E-03; -8.9963429E-02;3809; -7.5840250E-02;  0.0000000E+00; -4.7518700E-04;  9.8942163E+02;  1.0000000E-01; -8.7639980E+03;3; -4.0402406E-01;  0.0000000E+00;  4.4542646E-01;0; -2.6626313E-01;  3.9129711E+04;  0.0000000E+00;  1.7491503E-01;  4.0000000E+04;  0.0000000E+00;  4.0027719E+04; -2.7249748E-01;  0.0000000E+00;  6.2343474E-03;  4.3764365E+03;
  2.2505097E-01;  9.9999998E-03; -7.9970732E-02;3810; -7.6357499E-02;  0.0000000E+00; -3.3190445E-04;  9.8947278E+02;  1.0000000E-01; -8.7215801E+03;3; -3.9968392E-01;  0.0000000E+00;  3.9699218E-01;0; -2.6571390E-01;  3.9134984E+04;  0.0000000E+00;  1.2014036E-01;  4.0000000E+04;  0.0000000E+00;  4.0026418E+04; -2.7268022E-01;  0.0000000E+00;  6.9663241E-03;  4.1976709E+03;
  2.2502665E-01;  9.9999998E-03; -6.9973126E-02;3811; -7.6794453E-02;  0.0000000E+00; -1.9273230E-04;  9.8955164E+02;  1.0000000E-01; -8.6562480E+03;3; -3.9177892E-01;  0.0000000E+00;  3.3317679E-01;0; -2.6550597E-01;  3.9143500E+04;  0.0000000E+00;  7.7255748E-02;  4.0000000E+04;  0.0000000E+00;  4.0023949E+04; -2.7285796E-01;  0.0000000E+00;  7.3519931E-03;  3.8852649E+03;
  2.2498134E-01;  9.9999998E-03; -5.9969373E-02;3812; -7.7146456E-02;  0.0000000E+00; -7.7554105E-05;  9.8965131E+02;  1.0000000E-01; -8.5736826E+03;3; -3.8587406E-01;  0.0000000E+00;  2.8458494E-01;0; -2.6558885E-01;  3.9154160E+04;  0.0000000E+00;  4.6615768E-02;  4.0000000E+04;  0.0000000E+00;  4.0021020E+04; -2.7300492E-01;  0.0000000E+00;  7.4160551E-03;  3.5219214E+03;
  2.2492437E-01;  9.9999998E-03; -4.9961224E-02;3813; -7.7417344E-02;  0.0000000E+00;  8.4634603E-06;  9.8976300E+02;  1.0000000E-01; -8.4811426E+03;3; -3.7995699E-01;  0.0000000E+00;  2.2785388E-01;0; -2.6588944E-01;  3.9165625E+04;  0.0000000E+00;  2.6387604E-02;  4.0000000E+04;  0.0000000E+00;  4.0018379E+04; -2.7311075E-01;  0.0000000E+00;  7.2213239E-03;  3.1776753E+03;
  2.2487056E-01;  9.9999998E-03; -3.9957028E-02;3814; -7.7616580E-02;  0.0000000E+00;  5.8071462E-05;  9.8987598E+02;  1.0000000E-01; -8.3875645E+03;3; -3.7532851E-01;  0.0000000E+00;  1.7354482E-01;0; -2.6631773E-01;  3.9176926E+04;  0.0000000E+00;  1.3914573E-02;  4.0000000E+04;  0.0000000E+00;  4.0016352E+04; -2.7317679E-01;  0.0000000E+00;  6.8590529E-03;  2.8948411E+03;
  2.2483110E-01;  9.9999998E-03; -2.9962592E-02;3815; -7.7756815E-02;  0.0000000E+00;  7.4414638E-05;  9.8998370E+02;  1.0000000E-01; -8.2983330E+03;3; -3.7176767E-01;  0.0000000E+00;  1.2582977E-01;0; -2.6677737E-01;  3.9186781E+04;  0.0000000E+00;  6.6454988E-03;  4.0000000E+04;  0.0000000E+00;  4.0014637E+04; -2.7321056E-01;  0.0000000E+00;  6.4331936E-03;  2.6869084E+03;
  2.2480425E-01;  9.9999998E-03; -1.9973591E-02;3816; -7.7848122E-02;  0.0000000E+00;  6.4454027E-05;  9.9006854E+02;  1.0000000E-01; -8.2280137E+03;3; -3.6929435E-01;  0.0000000E+00;  8.2054682E-02;0; -2.6717868E-01;  3.9194605E+04;  0.0000000E+00;  2.6187843E-03;  4.0000000E+04;  0.0000000E+00;  4.0013715E+04; -2.7322215E-01;  0.0000000E+00;  6.0434598E-03;  2.5495781E+03;
  2.2478828E-01;  9.9999998E-03; -9.9865012E-03;3817; -7.7899024E-02;  0.0000000E+00;  3.6766796E-05;  9.9012476E+02;  1.0000000E-01; -8.1814468E+03;3; -3.6778921E-01;  0.0000000E+00;  3.9447341E-02;0; -2.6745096E-01;  3.9199543E+04;  0.0000000E+00;  6.0930202E-04;  4.0000000E+04;  0.0000000E+00;  4.0012969E+04; -2.7322379E-01;  0.0000000E+00;  5.7728216E-03;  2.4725317E+03;
  2.2478364E-01;  9.9999998E-03;  6.1465227E-10;3818; -7.7915512E-02;  0.0000000E+00;  4.6511812E-09;  9.9014349E+02;  1.0000000E-01; -8.1659414E+03;3; -3.6752939E-01;  0.0000000E+00; -1.0571646E-05;0; -2.6754695E-01;  3.9201277E+04;  0.0000000E+00; -3.0551646E-13;  4.0000000E+04;  0.0000000E+00;  4.0012758E+04; -2.7322322E-01;  0.0000000E+00;  5.6762672E-03;  2.4477544E+03;
  2.2478828E-01;  9.9999998E-03;  9.9865021E-03;3819; -7.7899031E-02;  0.0000000E+00; -3.6755708E-05;  9.9012469E+02;  1.0000000E-01; -8.1814966E+03;3; -3.6780247E-01;  0.0000000E+00; -3.9420608E-02;0; -2.6745117E-01;  3.9199543E+04;  0.0000000E+00;  6.0904224E-04;  4.0000000E+04;  0.0000000E+00;  4.0012969E+04; -2.7322400E-01;  0.0000000E+00;  5.7728207E-03;  2.4725339E+03;
  2.2480425E-01;  9.9999998E-03;  1.9973593E-02;3820; -7.7848122E-02;  0.0000000E+00; -6.4446998E-05;  9.9006860E+02;  1.0000000E-01; -8.2279639E+03;3; -3.6928678E-01;  0.0000000E+00; -8.2087837E-02;0; -2.6717868E-01;  3.9194605E+04;  0.0000000E+00;  2.6184088E-03;  4.0000000E+04;  0.0000000E+00;  4.0013715E+04; -2.7322215E-01;  0.0000000E+00;  6.0434607E-03;  2.5495808E+03;
  2.2483109E-01;  9.9999998E-03;  2.9962594E-02;3821; -7.7756815E-02;  0.0000000E+00; -7.4405136E-05;  9.8998370E+02;  1.0000000E-01; -8.2983330E+03;3; -3.7174922E-01;  0.0000000E+00; -1.2584223E-01;0; -2.6677713E-01;  3.9186781E+04;  0.0000000E+00;  6.6454634E-03;  4.0000000E+04;  0.0000000E+00;  4.0014637E+04; -2.7321032E-01;  0.0000000E+00;  6.4331903E-03;  2.6869153E+03;
  2.2487056E-01;  9.9999998E-03;  3.9957032E-02;3822; -7.7616572E-02;  0.0000000E+00; -5.8059006E-05;  9.8987598E+02;  1.0000000E-01; -8.3875645E+03;3; -3.7531683E-01;  0.0000000E+00; -1.7350668E-01;0; -2.6631773E-01;  3.9176926E+04;  0.0000000E+00;  1.3914080E-02;  4.0000000E+04;  0.0000000E+00;  4.0016352E+04; -2.7317676E-01;  0.0000000E+00;  6.8590487E-03;  2.8948547E+03;
  2.2492437E-01;  9.9999998E-03;  4.9961224E-02;3823; -7.7417344E-02;  0.0000000E+00; -8.4469048E-06;  9.8976300E+02;  1.0000000E-01; -8.4811426E+03;3; -3.7992489E-01;  0.0000000E+00; -2.2788301E-01;0; -2.6588953E-01;  3.9165625E+04;  0.0000000E+00;  2.6386434E-02;  4.0000000E+04;  0.0000000E+00;  4.0018379E+04; -2.7311084E-01;  0.0000000E+00;  7.2213192E-03;  3.1776858E+03;
  2.2498134E-01;  9.9999998E-03;  5.9969373E-02;3824; -7.7146448E-02;  0.0000000E+00;  7.7567114E-05;  9.8965131E+02;  1.0000000E-01; -8.5736826E+03;3; -3.8599589E-01;  0.0000000E+00; -2.8461146E-01;0; -2.6558864E-01;  3.9154160E+04;  0.0000000E+00;  4.6616066E-02;  4.0000000E+04;  0.0000000E+00;  4.0021016E+04; -2.7300468E-01;  0.0000000E+00;  7.4160504E-03;  3.5219302E+03;
  2.3514615E-01;  9.9999998E-03; -9.9930085E-02;3869; -7.8193821E-02;  0.0000000E+00; -7.5751106E-04;  9.9032458E+02;  1.0000000E-01; -8.0159209E+03;3; -3.8031802E-01;  0.0000000E+00;  5.5011356E-01;0; -2.6698381E-01;  3.9196379E+04;  0.0000000E+00;  2.6100197E-01;  4.0000000E+04;  0.0000000E+00;  4.0032262E+04; -2.7410513E-01;  0.0000000E+00;  7.1213357E-03;  4.8878467E+03;
  2.3514220E-01;  9.9999998E-03; -8.9946739E-02;3870; -7.8773513E-02;  0.0000000E+00; -6.0701475E-04;  9.9044159E+02;  1.0000000E-01; -7.9189854E+03;3; -3.7469032E-01;  0.0000000E+00;  4.8870823E-01;0; -2.6583242E-01;  3.9205691E+04;  0.0000000E+00;  1.8822190E-01;  4.0000000E+04;  0.0000000E+00;  4.0032312E+04; -2.7384204E-01;  0.0000000E+00;  8.0095986E-03;  4.8527378E+03;
  2.3511301E-01;  9.9999998E-03; -7.9959325E-02;3871; -7.9280280E-02;  0.0000000E+00; -4.4463517E-04;  9.9057471E+02;  1.0000000E-01; -7.8086675E+03;3; -3.6803004E-01;  0.0000000E+00;  4.3249545E-01;0; -2.6505455E-01;  3.9217828E+04;  0.0000000E+00;  1.3090441E-01;  4.0000000E+04;  0.0000000E+00;  4.0030727E+04; -2.7362475E-01;  0.0000000E+00;  8.5701980E-03;  4.6480898E+03;
  2.3506251E-01;  9.9999998E-03; -6.9964729E-02;3872; -7.9703033E-02;  0.0000000E+00; -2.9137562E-04;  9.9071997E+02;  1.0000000E-01; -7.6883252E+03;3; -3.6066228E-01;  0.0000000E+00;  3.7294602E-01;0; -2.6462802E-01;  3.9231426E+04;  0.0000000E+00;  8.9123994E-02;  4.0000000E+04;  0.0000000E+00;  4.0028418E+04; -2.7342388E-01;  0.0000000E+00;  8.7958565E-03;  4.3472485E+03;
  2.3499624E-01;  9.9999998E-03; -5.9962846E-02;3873; -8.0037594E-02;  0.0000000E+00; -1.6717860E-04;  9.9086597E+02;  1.0000000E-01; -7.5673901E+03;3; -3.5263726E-01;  0.0000000E+00;  3.0752915E-01;0; -2.6450551E-01;  3.9245469E+04;  0.0000000E+00;  6.0014676E-02;  4.0000000E+04;  0.0000000E+00;  4.0025855E+04; -2.7322623E-01;  0.0000000E+00;  8.7207388E-03;  4.0278484E+03;
  2.3492354E-01;  9.9999998E-03; -4.9956623E-02;3874; -8.0289833E-02;  0.0000000E+00; -7.2729301E-05;  9.9101068E+02;  1.0000000E-01; -7.4474927E+03;3; -3.4715497E-01;  0.0000000E+00;  2.5552145E-01;0; -2.6461756E-01;  3.9259098E+04;  0.0000000E+00;  3.9823603E-02;  4.0000000E+04;  0.0000000E+00;  4.0023789E+04; -2.7303091E-01;  0.0000000E+00;  8.4133428E-03;  3.7509224E+03;
  2.3485960E-01;  9.9999998E-03; -3.9954603E-02;3875; -8.0471545E-02;  0.0000000E+00; -1.0559525E-05;  9.9114899E+02;  1.0000000E-01; -7.3328784E+03;3; -3.4269863E-01;  0.0000000E+00;  2.0333517E-01;0; -2.6487806E-01;  3.9271496E+04;  0.0000000E+00;  2.5345812E-02;  4.0000000E+04;  0.0000000E+00;  4.0022238E+04; -2.7284446E-01;  0.0000000E+00;  7.9663945E-03;  3.5473052E+03;
  2.3481295E-01;  9.9999998E-03; -2.9961038E-02;3876; -8.0596313E-02;  0.0000000E+00;  2.0689873E-05;  9.9127020E+02;  1.0000000E-01; -7.2324863E+03;3; -3.3910114E-01;  0.0000000E+00;  1.4346650E-01;0; -2.6519606E-01;  3.9282039E+04;  0.0000000E+00;  1.4562234E-02;  4.0000000E+04;  0.0000000E+00;  4.0021289E+04; -2.7267754E-01;  0.0000000E+00;  7.4814935E-03;  3.4188538E+03;
  2.3478195E-01;  9.9999998E-03; -1.9972257E-02;3877; -8.0675691E-02;  0.0000000E+00;  2.7641097E-05;  9.9136670E+02;  1.0000000E-01; -7.1525381E+03;3; -3.3719561E-01;  0.0000000E+00;  8.8038549E-02;0; -2.6549080E-01;  3.9290145E+04;  0.0000000E+00;  6.6697067E-03;  4.0000000E+04;  0.0000000E+00;  4.0020918E+04; -2.7254507E-01;  0.0000000E+00;  7.0542675E-03;  3.3497686E+03;
  2.3476411E-01;  9.9999998E-03; -9.9856853E-03;3878; -8.0719009E-02;  0.0000000E+00;  1.7926435E-05;  9.9142737E+02;  1.0000000E-01; -7.1022676E+03;3; -3.3621714E-01;  0.0000000E+00;  4.3233365E-02;0; -2.6569593E-01;  3.9295180E+04;  0.0000000E+00;  1.7078583E-03;  4.0000000E+04;  0.0000000E+00;  4.0020566E+04; -2.7245927E-01;  0.0000000E+00;  6.7633395E-03;  3.3190378E+03;
  2.3475875E-01;  9.9999998E-03;  5.4186139E-10;3879; -8.0732837E-02;  0.0000000E+00;  6.2857648E-09;  9.9144940E+02;  1.0000000E-01; -7.0839966E+03;3; -3.3527032E-01;  0.0000000E+00; -4.0606974E-06;0; -2.6576892E-01;  3.9296973E+04;  0.0000000E+00; -7.8723876E-13;  4.0000000E+04;  0.0000000E+00;  4.0020500E+04; -2.7242935E-01;  0.0000000E+00;  6.6604191E-03;  3.3107073E+03;
  2.3476413E-01;  9.9999998E-03;  9.9856863E-03;3880; -8.0719009E-02;  0.0000000E+00; -1.7913495E-05;  9.9142737E+02;  1.0000000E-01; -7.1022676E+03;3; -3.3622551E-01;  0.0000000E+00; -4.3191068E-02;0; -2.6569575E-01;  3.9295180E+04;  0.0000000E+00;  1.7077440E-03;  4.0000000E+04;  0.0000000E+00;  4.0020566E+04; -2.7245909E-01;  0.0000000E+00;  6.7633428E-03;  3.3190430E+03;
  2.3478195E-01;  9.9999998E-03;  1.9972259E-02;3881; -8.0675691E-02;  0.0000000E+00; -2.7630898E-05;  9.9136670E+02;  1.0000000E-01; -7.1525381E+03;3; -3.3720121E-01;  0.0000000E+00; -8.8028453E-02;0; -2.6549062E-01;  3.9290145E+04;  0.0000000E+00;  6.6694389E-03;  4.0000000E+04;  0.0000000E+00;  4.0020918E+04; -2.7254489E-01;  0.0000000E+00;  7.0542661E-03;  3.3497690E+03;
  2.3481295E-01;  9.9999998E-03;  2.9961040E-02;3882; -8.0596313E-02;  0.0000000E+00; -2.0678270E-05;  9.9127020E+02;  1.0000000E-01; -7.2324863E+03;3; -3.3909309E-01;  0.0000000E+00; -1.4344588E-01;0; -2.6519600E-01;  3.9282043E+04;  0.0000000E+00;  1.4562037E-02;  4.0000000E+04;  0.0000000E+00;  4.0021289E+04; -2.7267748E-01;  0.0000000E+00;  7.4814865E-03;  3.4188591E+03;
  2.3485960E-01;  9.9999998E-03;  3.9954603E-02;3883; -8.0471553E-02;  0.0000000E+00;  1.0567988E-05;  9.9114905E+02;  1.0000000E-01; -7.3328291E+03;3; -3.4283912E-01;  0.0000000E+00; -2.0335875E-01;0; -2.6487771E-01;  3.9271496E+04;  0.0000000E+00;  2.5345227E-02;  4.0000000E+04;  0.0000000E+00;  4.0022238E+04; -2.7284411E-01;  0.0000000E+00;  7.9664011E-03;  3.5473181E+03;
  2.3492354E-01;  9.9999998E-03;  4.9956623E-02;3884; -8.0289833E-02;  0.0000000E+00;  7.2742398E-05;  9.9101068E+02;  1.0000000E-01; -7.4474927E+03;3; -3.4716532E-01;  0.0000000E+00; -2.5556448E-01;0; -2.6461741E-01;  3.9259098E+04;  0.0000000E+00;  3.9824039E-02;  4.0000000E+04;  0.0000000E+00;  4.0023789E+04; -2.7303076E-01;  0.0000000E+00;  8.4133446E-03;  3.7509312E+03;
  2.3499624E-01;  9.9999998E-03;  5.9962846E-02;3885; -8.0037594E-02;  0.0000000E+00;  1.6718905E-04;  9.9086597E+02;  1.0000000E-01; -7.5673901E+03;3; -3.5257426E-01;  0.0000000E+00; -3.0754808E-01;0; -2.6450548E-01;  3.9245469E+04;  0.0000000E+00;  6.0016751E-02;  4.0000000E+04;  0.0000000E+00;  4.0025855E+04; -2.7322623E-01;  0.0000000E+00;  8.7207481E-03;  4.0278560E+03;
  2.4519894E-01;  9.9999998E-03; -9.9927671E-02;3930; -8.1098996E-02;  0.0000000E+00; -9.3522423E-04;  9.9139484E+02;  1.0000000E-01; -7.1292300E+03;3; -3.4411368E-01;  0.0000000E+00;  6.0322064E-01;0; -2.6578268E-01;  3.9275859E+04;  0.0000000E+00;  2.4738009E-01;  4.0000000E+04;  0.0000000E+00;  4.0037789E+04; -2.7507332E-01;  0.0000000E+00;  9.2906477E-03;  5.4785464E+03;
  2.4517067E-01;  9.9999998E-03; -8.9945883E-02;3931; -8.1664622E-02;  0.0000000E+00; -7.5513433E-04;  9.9158710E+02;  1.0000000E-01; -6.9699258E+03;3; -3.3692604E-01;  0.0000000E+00;  5.4063696E-01;0; -2.6442477E-01;  3.9291773E+04;  0.0000000E+00;  1.7607529E-01;  4.0000000E+04;  0.0000000E+00;  4.0037102E+04; -2.7442199E-01;  0.0000000E+00;  9.9972161E-03;  5.3757925E+03;
  2.4512301E-01;  9.9999998E-03; -7.9958580E-02;3932; -8.2152180E-02;  0.0000000E+00; -5.7462580E-04;  9.9177539E+02;  1.0000000E-01; -6.8139302E+03;3; -3.2774138E-01;  0.0000000E+00;  4.7551963E-01;0; -2.6344645E-01;  3.9308398E+04;  0.0000000E+00;  1.2551197E-01;  4.0000000E+04;  0.0000000E+00;  4.0035488E+04; -2.7382898E-01;  0.0000000E+00;  1.0382528E-02;  5.1432983E+03;
  2.4505936E-01;  9.9999998E-03; -6.9963582E-02;3933; -8.2552657E-02;  0.0000000E+00; -4.0905920E-04;  9.9195612E+02;  1.0000000E-01; -6.6642061E+03;3; -3.1995502E-01;  0.0000000E+00;  4.1234699E-01;0; -2.6282817E-01;  3.9324844E+04;  0.0000000E+00;  9.1416202E-02;  4.0000000E+04;  0.0000000E+00;  4.0033375E+04; -2.7327809E-01;  0.0000000E+00;  1.0449925E-02;  4.8531855E+03;
  2.4498548E-01;  9.9999998E-03; -5.9961405E-02;3934; -8.2864299E-02;  0.0000000E+00; -2.7245891E-04;  9.9212512E+02;  1.0000000E-01; -6.5242100E+03;3; -3.1208670E-01;  0.0000000E+00;  3.4434175E-01;0; -2.6252443E-01;  3.9340270E+04;  0.0000000E+00;  6.8050988E-02;  4.0000000E+04;  0.0000000E+00;  4.0031238E+04; -2.7276602E-01;  0.0000000E+00;  1.0241597E-02;  4.5762939E+03;
  2.4491054E-01;  9.9999998E-03; -4.9955573E-02;3935; -8.3094440E-02;  0.0000000E+00; -1.6785806E-04;  9.9228363E+02;  1.0000000E-01; -6.3928560E+03;3; -3.0579382E-01;  0.0000000E+00;  2.8300464E-01;0; -2.6246780E-01;  3.9354180E+04;  0.0000000E+00;  5.0379712E-02;  4.0000000E+04;  0.0000000E+00;  4.0029672E+04; -2.7229786E-01;  0.0000000E+00;  9.8300595E-03;  4.3633354E+03;
  2.4484664E-01;  9.9999998E-03; -3.9954256E-02;3936; -8.3255894E-02;  0.0000000E+00; -9.2591952E-05;  9.9242303E+02;  1.0000000E-01; -6.2773530E+03;3; -3.0141777E-01;  0.0000000E+00;  2.1725687E-01;0; -2.6257703E-01;  3.9366281E+04;  0.0000000E+00;  3.5273965E-02;  4.0000000E+04;  0.0000000E+00;  4.0028641E+04; -2.7188459E-01;  0.0000000E+00;  9.3075596E-03;  4.2335146E+03;
  2.4479945E-01;  9.9999998E-03; -2.9960565E-02;3937; -8.3363168E-02;  0.0000000E+00; -4.2867789E-05;  9.9254340E+02;  1.0000000E-01; -6.1776519E+03;3; -2.9801342E-01;  0.0000000E+00;  1.6043547E-01;0; -2.6276860E-01;  3.9376219E+04;  0.0000000E+00;  2.1733006E-02;  4.0000000E+04;  0.0000000E+00;  4.0028312E+04; -2.7154052E-01;  0.0000000E+00;  8.7719392E-03;  4.1775361E+03;
  2.4476753E-01;  9.9999998E-03; -1.9971663E-02;3938; -8.3428890E-02;  0.0000000E+00; -1.5280091E-05;  9.9263562E+02;  1.0000000E-01; -6.1012593E+03;3; -2.9663411E-01;  0.0000000E+00;  1.0807190E-01;0; -2.6296660E-01;  3.9383551E+04;  0.0000000E+00;  1.0406825E-02;  4.0000000E+04;  0.0000000E+00;  4.0028359E+04; -2.7128041E-01;  0.0000000E+00;  8.3138170E-03;  4.1692578E+03;
  2.4474905E-01;  9.9999998E-03; -9.9851778E-03;3939; -8.3463646E-02;  0.0000000E+00; -3.6433860E-06;  9.9269244E+02;  1.0000000E-01; -6.0541494E+03;3; -2.9530957E-01;  0.0000000E+00;  5.2294888E-02;0; -2.6311174E-01;  3.9387918E+04;  0.0000000E+00;  2.7292520E-03;  4.0000000E+04;  0.0000000E+00;  4.0028426E+04; -2.7111855E-01;  0.0000000E+00;  8.0068186E-03;  4.1790381E+03;
  2.4474315E-01;  9.9999998E-03;  4.7521725E-10;3940; -8.3474495E-02;  0.0000000E+00;  6.3012378E-09;  9.9271179E+02;  1.0000000E-01; -6.0381499E+03;3; -2.9472980E-01;  0.0000000E+00; -4.3360124E-06;0; -2.6316443E-01;  3.9389457E+04;  0.0000000E+00; -9.1464607E-13;  4.0000000E+04;  0.0000000E+00;  4.0028445E+04; -2.7106339E-01;  0.0000000E+00;  7.8989584E-03;  4.1849341E+03;
  2.4474905E-01;  9.9999998E-03;  9.9851787E-03;3941; -8.3463646E-02;  0.0000000E+00;  3.6580880E-06;  9.9269238E+02;  1.0000000E-01; -6.0541987E+03;3; -2.9529491E-01;  0.0000000E+00; -5.2273426E-02;0; -2.6311171E-01;  3.9387918E+04;  0.0000000E+00;  2.7292806E-03;  4.0000000E+04;  0.0000000E+00;  4.0028426E+04; -2.7111852E-01;  0.0000000E+00;  8.0068139E-03;  4.1790361E+03;
  2.4476753E-01;  9.9999998E-03;  1.9971665E-02;3942; -8.3428890E-02;  0.0000000E+00;  1.5291373E-05;  9.9263562E+02;  1.0000000E-01; -6.1012593E+03;3; -2.9661128E-01;  0.0000000E+00; -1.0808101E-01;0; -2.6296693E-01;  3.9383551E+04;  0.0000000E+00;  1.0407012E-02;  4.0000000E+04;  0.0000000E+00;  4.0028359E+04; -2.7128077E-01;  0.0000000E+00;  8.3138207E-03;  4.1692651E+03;
  2.4479945E-01;  9.9999998E-03;  2.9960567E-02;3943; -8.3363168E-02;  0.0000000E+00;  4.2878070E-05;  9.9254340E+02;  1.0000000E-01; -6.1776519E+03;3; -2.9796985E-01;  0.0000000E+00; -1.6043729E-01;0; -2.6276812E-01;  3.9376219E+04;  0.0000000E+00;  2.1732856E-02;  4.0000000E+04;  0.0000000E+00;  4.0028312E+04; -2.7154008E-01;  0.0000000E+00;  8.7719429E-03;  4.1775420E+03;
  2.4484664E-01;  9.9999998E-03;  3.9954256E-02;3944; -8.3255902E-02;  0.0000000E+00;  9.2601491E-05;  9.9242303E+02;  1.0000000E-01; -6.2773530E+03;3; -3.0139184E-01;  0.0000000E+00; -2.1726431E-01;0; -2.6257676E-01;  3.9366289E+04;  0.0000000E+00;  3.5273366E-02;  4.0000000E+04;  0.0000000E+00;  4.0028645E+04; -2.7188432E-01;  0.0000000E+00;  9.3075652E-03;  4.2335137E+03;
  2.4491054E-01;  9.9999998E-03;  4.9955573E-02;3945; -8.3094425E-02;  0.0000000E+00;  1.6786545E-04;  9.9228369E+02;  1.0000000E-01; -6.3928062E+03;3; -3.0573866E-01;  0.0000000E+00; -2.8301856E-01;0; -2.6246753E-01;  3.9354184E+04;  0.0000000E+00;  5.0380949E-02;  4.0000000E+04;  0.0000000E+00;  4.0029672E+04; -2.7229759E-01;  0.0000000E+00;  9.8300530E-03;  4.3633423E+03;
  2.4498548E-01;  9.9999998E-03;  5.9961408E-02;3946; -8.2864299E-02;  0.0000000E+00;  2.7246811E-04;  9.9212506E+02;  1.0000000E-01; -6.5242593E+03;3; -3.1204447E-01;  0.0000000E+00; -3.4436157E-01;0; -2.6252422E-01;  3.9340270E+04;  0.0000000E+00;  6.8051927E-02;  4.0000000E+04;  0.0000000E+00;  4.0031238E+04; -2.7276582E-01;  0.0000000E+00;  1.0241591E-02;  4.5762939E+03;
  2.5521436E-01;  9.9999998E-03; -9.9932380E-02;3991; -8.3966404E-02;  0.0000000E+00; -1.1195207E-03;  9.9252295E+02;  1.0000000E-01; -6.1945898E+03;3; -2.9789925E-01;  0.0000000E+00;  6.6308928E-01;0; -2.6372346E-01;  3.9360156E+04;  0.0000000E+00;  2.0289685E-01;  4.0000000E+04;  0.0000000E+00;  4.0043363E+04; -2.7534738E-01;  0.0000000E+00;  1.1623931E-02;  6.0632329E+03;
  2.5517204E-01;  9.9999998E-03; -8.9949034E-02;3992; -8.4507160E-02;  0.0000000E+00; -9.1379532E-04;  9.9275836E+02;  1.0000000E-01; -5.9995830E+03;3; -2.8942853E-01;  0.0000000E+00;  5.9832686E-01;0; -2.6220554E-01;  3.9379953E+04;  0.0000000E+00;  1.4358968E-01;  4.0000000E+04;  0.0000000E+00;  4.0042074E+04; -2.7434558E-01;  0.0000000E+00;  1.2140032E-02;  5.8926084E+03;
  2.5511628E-01;  9.9999998E-03; -7.9959624E-02;3993; -8.4966987E-02;  0.0000000E+00; -7.1557204E-04;  9.9297021E+02;  1.0000000E-01; -5.8240322E+03;3; -2.7869919E-01;  0.0000000E+00;  5.2600259E-01;0; -2.6107082E-01;  3.9398691E+04;  0.0000000E+00;  1.0679030E-01;  4.0000000E+04;  0.0000000E+00;  4.0040062E+04; -2.7341959E-01;  0.0000000E+00;  1.2348771E-02;  5.6338438E+03;
  2.5504977E-01;  9.9999998E-03; -6.9962919E-02;3994; -8.5338473E-02;  0.0000000E+00; -5.3802651E-04;  9.9315796E+02;  1.0000000E-01; -5.6684814E+03;3; -2.6952860E-01;  0.0000000E+00;  4.5623136E-01;0; -2.6030123E-01;  3.9415516E+04;  0.0000000E+00;  8.4646232E-02;  4.0000000E+04;  0.0000000E+00;  4.0038133E+04; -2.7256382E-01;  0.0000000E+00;  1.2262592E-02;  5.3561064E+03;
  2.5497705E-01;  9.9999998E-03; -5.9960056E-02;3995; -8.5621990E-02;  0.0000000E+00; -3.8969234E-04;  9.9332367E+02;  1.0000000E-01; -5.5312012E+03;3; -2.6217133E-01;  0.0000000E+00;  3.8810369E-01;0; -2.5985220E-01;  3.9430238E+04;  0.0000000E+00;  6.9543488E-02;  4.0000000E+04;  0.0000000E+00;  4.0036371E+04; -2.7178195E-01;  0.0000000E+00;  1.1929744E-02;  5.1216196E+03;
  2.5490516E-01;  9.9999998E-03; -4.9954977E-02;3996; -8.5826159E-02;  0.0000000E+00; -2.6899207E-04;  9.9346552E+02;  1.0000000E-01; -5.4136738E+03;3; -2.5602889E-01;  0.0000000E+00;  3.1129923E-01;0; -2.5965884E-01;  3.9442809E+04;  0.0000000E+00;  5.6043241E-02;  4.0000000E+04;  0.0000000E+00;  4.0035250E+04; -2.7108350E-01;  0.0000000E+00;  1.1424651E-02;  4.9695674E+03;
  2.5484386E-01;  9.9999998E-03; -3.9954431E-02;3997; -8.5964501E-02;  0.0000000E+00; -1.7688079E-04;  9.9359009E+02;  1.0000000E-01; -5.3104668E+03;3; -2.5013733E-01;  0.0000000E+00;  2.3882334E-01;0; -2.5964504E-01;  3.9452918E+04;  0.0000000E+00;  4.1661896E-02;  4.0000000E+04;  0.0000000E+00;  4.0034809E+04; -2.7048263E-01;  0.0000000E+00;  1.0837583E-02;  4.9075752E+03;
  2.5479767E-01;  9.9999998E-03; -2.9960573E-02;3998; -8.6052477E-02;  0.0000000E+00; -1.0961561E-04;  9.9369147E+02;  1.0000000E-01; -5.2265186E+03;3; -2.4792348E-01;  0.0000000E+00;  1.7994002E-01;0; -2.5973246E-01;  3.9460895E+04;  0.0000000E+00;  2.6643632E-02;  4.0000000E+04;  0.0000000E+00;  4.0034898E+04; -2.6999381E-01;  0.0000000E+00;  1.0261348E-02;  4.9162695E+03;
  2.5476593E-01;  9.9999998E-03; -1.9971546E-02;3999; -8.6103626E-02;  0.0000000E+00; -6.2281171E-05;  9.9376782E+02;  1.0000000E-01; -5.1632612E+03;3; -2.4611934E-01;  0.0000000E+00;  1.1662022E-01;0; -2.5985152E-01;  3.9466535E+04;  0.0000000E+00;  1.3030793E-02;  4.0000000E+04;  0.0000000E+00;  4.0035375E+04; -2.6963195E-01;  0.0000000E+00;  9.7804312E-03;  4.9608110E+03;
  2.5474730E-01;  9.9999998E-03; -9.9849813E-03;4000; -8.6129420E-02;  0.0000000E+00; -2.7536122E-05;  9.9381580E+02;  1.0000000E-01; -5.1235088E+03;3; -2.4499367E-01;  0.0000000E+00;  5.9506875E-02;0; -2.5994697E-01;  3.9469945E+04;  0.0000000E+00;  3.4535381E-03;  4.0000000E+04;  0.0000000E+00;  4.0035789E+04; -2.6940951E-01;  0.0000000E+00;  9.4625438E-03;  5.0050835E+03;
  2.5474131E-01;  9.9999998E-03;  4.0616821E-10;4001; -8.6137131E-02;  0.0000000E+00;  7.2187856E-09;  9.9383209E+02;  1.0000000E-01; -5.1099785E+03;3; -2.4554051E-01;  0.0000000E+00; -2.0939515E-06;0; -2.5998268E-01;  3.9471031E+04;  0.0000000E+00; -6.5298710E-13;  4.0000000E+04;  0.0000000E+00;  4.0035883E+04; -2.6933423E-01;  0.0000000E+00;  9.3515608E-03;  5.0229707E+03;
  2.5474730E-01;  9.9999998E-03;  9.9849822E-03;4002; -8.6129420E-02;  0.0000000E+00;  2.7550066E-05;  9.9381580E+02;  1.0000000E-01; -5.1235088E+03;3; -2.4498750E-01;  0.0000000E+00; -5.9499253E-02;0; -2.5994688E-01;  3.9469945E+04;  0.0000000E+00;  3.4534859E-03;  4.0000000E+04;  0.0000000E+00;  4.0035789E+04; -2.6940942E-01;  0.0000000E+00;  9.4625382E-03;  5.0050825E+03;
  2.5476593E-01;  9.9999998E-03;  1.9971548E-02;4003; -8.6103626E-02;  0.0000000E+00;  6.2296444E-05;  9.9376782E+02;  1.0000000E-01; -5.1632612E+03;3; -2.4611527E-01;  0.0000000E+00; -1.1661043E-01;0; -2.5985125E-01;  3.9466539E+04;  0.0000000E+00;  1.3030637E-02;  4.0000000E+04;  0.0000000E+00;  4.0035379E+04; -2.6963168E-01;  0.0000000E+00;  9.7804228E-03;  4.9608149E+03;
  2.5479767E-01;  9.9999998E-03;  2.9960573E-02;4004; -8.6052477E-02;  0.0000000E+00;  1.0962909E-04;  9.9369141E+02;  1.0000000E-01; -5.2265679E+03;3; -2.4790812E-01;  0.0000000E+00; -1.7994341E-01;0; -2.5973237E-01;  3.9460895E+04;  0.0000000E+00;  2.6643882E-02;  4.0000000E+04;  0.0000000E+00;  4.0034898E+04; -2.6999372E-01;  0.0000000E+00;  1.0261348E-02;  4.9162749E+03;
  2.5484386E-01;  9.9999998E-03;  3.9954431E-02;4005; -8.5964508E-02;  0.0000000E+00;  1.7689487E-04;  9.9359015E+02;  1.0000000E-01; -5.3104175E+03;3; -2.5007761E-01;  0.0000000E+00; -2.3882455E-01;0; -2.5964487E-01;  3.9452926E+04;  0.0000000E+00;  4.1662645E-02;  4.0000000E+04;  0.0000000E+00;  4.0034809E+04; -2.7048248E-01;  0.0000000E+00;  1.0837602E-02;  4.9075825E+03;
  2.5490516E-01;  9.9999998E-03;  4.9954977E-02;4006; -8.5826151E-02;  0.0000000E+00;  2.6900301E-04;  9.9346539E+02;  1.0000000E-01; -5.4138218E+03;3; -2.5610250E-01;  0.0000000E+00; -3.1129938E-01;0; -2.5965858E-01;  3.9442805E+04;  0.0000000E+00;  5.6041759E-02;  4.0000000E+04;  0.0000000E+00;  4.0035250E+04; -2.7108324E-01;  0.0000000E+00;  1.1424656E-02;  4.9695703E+03;
  2.5497705E-01;  9.9999998E-03;  5.9960056E-02;4007; -8.5621975E-02;  0.0000000E+00;  3.8970431E-04;  9.9332373E+02;  1.0000000E-01; -5.5311519E+03;3; -2.6208180E-01;  0.0000000E+00; -3.8811183E-01;0; -2.5985169E-01;  3.9430238E+04;  0.0000000E+00;  6.9541298E-02;  4.0000000E+04;  0.0000000E+00;  4.0036371E+04; -2.7178144E-01;  0.0000000E+00;  1.1929736E-02;  5.1216201E+03;
  2.6521423E-01;  9.9999998E-03; -9.9938989E-02;4052; -8.6789705E-02;  0.0000000E+00; -1.3049298E-03;  9.9361542E+02;  1.0000000E-01; -5.2895288E+03;3; -2.4291702E-01;  0.0000000E+00;  7.3733884E-01;0; -2.6100159E-01;  3.9442445E+04;  0.0000000E+00;  1.3881999E-01;  4.0000000E+04;  0.0000000E+00;  4.0048285E+04; -2.7505574E-01;  0.0000000E+00;  1.4054136E-02;  6.5892593E+03;
  2.6516551E-01;  9.9999998E-03; -8.9952424E-02;4053; -8.7296434E-02;  0.0000000E+00; -1.0773313E-03;  9.9386475E+02;  1.0000000E-01; -5.0829175E+03;3; -2.3247211E-01;  0.0000000E+00;  6.6202366E-01;0; -2.5938484E-01;  3.9463523E+04;  0.0000000E+00;  9.8161831E-02;  4.0000000E+04;  0.0000000E+00;  4.0046762E+04; -2.7376068E-01;  0.0000000E+00;  1.4375848E-02;  6.3568071E+03;
  2.6510835E-01;  9.9999998E-03; -7.9959944E-02;4054; -8.7721474E-02;  0.0000000E+00; -8.6265965E-04;  9.9406903E+02;  1.0000000E-01; -4.9136880E+03;3; -2.2024654E-01;  0.0000000E+00;  5.8246911E-01;0; -2.5815022E-01;  3.9481875E+04;  0.0000000E+00;  7.8403406E-02;  4.0000000E+04;  0.0000000E+00;  4.0044562E+04; -2.7256107E-01;  0.0000000E+00;  1.4410857E-02;  6.0782710E+03;
  2.6504412E-01;  9.9999998E-03; -6.9961369E-02;4055; -8.8058688E-02;  0.0000000E+00; -6.7271269E-04;  9.9423615E+02;  1.0000000E-01; -4.7752227E+03;3; -2.0989281E-01;  0.0000000E+00;  5.0160652E-01;0; -2.5728241E-01;  3.9496934E+04;  0.0000000E+00;  6.9558769E-02;  4.0000000E+04;  0.0000000E+00;  4.0042477E+04; -2.7146170E-01;  0.0000000E+00;  1.4179282E-02;  5.8177153E+03;
  2.6497585E-01;  9.9999998E-03; -5.9958339E-02;4056; -8.8309988E-02;  0.0000000E+00; -5.0780439E-04;  9.9437268E+02;  1.0000000E-01; -4.6621392E+03;3; -2.0059976E-01;  0.0000000E+00;  4.1666594E-01;0; -2.5673658E-01;  3.9509203E+04;  0.0000000E+00;  6.3414127E-02;  4.0000000E+04;  0.0000000E+00;  4.0040996E+04; -2.7047023E-01;  0.0000000E+00;  1.3733642E-02;  5.6271523E+03;
  2.6490921E-01;  9.9999998E-03; -4.9954545E-02;4057; -8.8485830E-02;  0.0000000E+00; -3.7153449E-04;  9.9448010E+02;  1.0000000E-01; -4.5731543E+03;3; -1.9610098E-01;  0.0000000E+00;  3.4900105E-01;0; -2.5644949E-01;  3.9518508E+04;  0.0000000E+00;  5.4962065E-02;  4.0000000E+04;  0.0000000E+00;  4.0040480E+04; -2.6959825E-01;  0.0000000E+00;  1.3148766E-02;  5.5336182E+03;
  2.6485193E-01;  9.9999998E-03; -3.9954964E-02;4058; -8.8600270E-02;  0.0000000E+00; -2.6321859E-04;  9.9456854E+02;  1.0000000E-01; -4.4998726E+03;3; -1.9029863E-01;  0.0000000E+00;  2.7131817E-01;0; -2.5634971E-01;  3.9525203E+04;  0.0000000E+00;  4.2696100E-02;  4.0000000E+04;  0.0000000E+00;  4.0040504E+04; -2.6886067E-01;  0.0000000E+00;  1.2510947E-02;  5.5338013E+03;
  2.6480797E-01;  9.9999998E-03; -2.9961085E-02;4059; -8.8668726E-02;  0.0000000E+00; -1.7841534E-04;  9.9463751E+02;  1.0000000E-01; -4.4427383E+03;3; -1.8826893E-01;  0.0000000E+00;  2.0281564E-01;0; -2.5636294E-01;  3.9530230E+04;  0.0000000E+00;  2.7983092E-02;  4.0000000E+04;  0.0000000E+00;  4.0040980E+04; -2.6826942E-01;  0.0000000E+00;  1.1906466E-02;  5.5994189E+03;
  2.6477715E-01;  9.9999998E-03; -1.9971740E-02;4060; -8.8705651E-02;  0.0000000E+00; -1.1027252E-04;  9.9468909E+02;  1.0000000E-01; -4.3999741E+03;3; -1.8608239E-01;  0.0000000E+00;  1.3213380E-01;0; -2.5642455E-01;  3.9533465E+04;  0.0000000E+00;  1.3863133E-02;  4.0000000E+04;  0.0000000E+00;  4.0041762E+04; -2.6783702E-01;  0.0000000E+00;  1.1412486E-02;  5.6890767E+03;
  2.6475900E-01;  9.9999998E-03; -9.9850558E-03;4061; -8.8722818E-02;  0.0000000E+00; -5.2292264E-05;  9.9471851E+02;  1.0000000E-01; -4.3756289E+03;3; -1.8600108E-01;  0.0000000E+00;  6.7827158E-02;0; -2.5648320E-01;  3.9535227E+04;  0.0000000E+00;  3.6966351E-03;  4.0000000E+04;  0.0000000E+00;  4.0042371E+04; -2.6757321E-01;  0.0000000E+00;  1.1090002E-02;  5.7621821E+03;
  2.6475322E-01;  9.9999998E-03;  3.6052211E-10;4062; -8.8727526E-02;  0.0000000E+00;  8.6169401E-09;  9.9472931E+02;  1.0000000E-01; -4.3666909E+03;3; -1.8466946E-01;  0.0000000E+00;  3.1337186E-07;0; -2.5650683E-01;  3.9535793E+04;  0.0000000E+00; -1.0846772E-12;  4.0000000E+04;  0.0000000E+00;  4.0042688E+04; -2.6748487E-01;  0.0000000E+00;  1.0978053E-02;  5.7899741E+03;
  2.6475900E-01;  9.9999998E-03;  9.9850567E-03;4063; -8.8722825E-02;  0.0000000E+00;  5.2309046E-05;  9.9471851E+02;  1.0000000E-01; -4.3756289E+03;3; -1.8598782E-01;  0.0000000E+00; -6.7822076E-02;0; -2.5648358E-01;  3.9535227E+04;  0.0000000E+00;  3.6965902E-03;  4.0000000E+04;  0.0000000E+00;  4.0042367E+04; -2.6757357E-01;  0.0000000E+00;  1.1089987E-02;  5.7621870E+03;
  2.6477715E-01;  9.9999998E-03;  1.9971741E-02;4064; -8.8705651E-02;  0.0000000E+00;  1.1028815E-04;  9.9468909E+02;  1.0000000E-01; -4.3999741E+03;3; -1.8623702E-01;  0.0000000E+00; -1.3213797E-01;0; -2.5642461E-01;  3.9533465E+04;  0.0000000E+00;  1.3863445E-02;  4.0000000E+04;  0.0000000E+00;  4.0041762E+04; -2.6783711E-01;  0.0000000E+00;  1.1412498E-02;  5.6890781E+03;
  2.6480797E-01;  9.9999998E-03;  2.9961085E-02;4065; -8.8668719E-02;  0.0000000E+00;  1.7843115E-04;  9.9463745E+02;  1.0000000E-01; -4.4427876E+03;3; -1.8822694E-01;  0.0000000E+00; -2.0282255E-01;0; -2.5636297E-01;  3.9530230E+04;  0.0000000E+00;  2.7983181E-02;  4.0000000E+04;  0.0000000E+00;  4.0040980E+04; -2.6826945E-01;  0.0000000E+00;  1.1906489E-02;  5.5994229E+03;
  2.6485193E-01;  9.9999998E-03;  3.9954964E-02;4066; -8.8600270E-02;  0.0000000E+00;  2.6323422E-04;  9.9456854E+02;  1.0000000E-01; -4.4998726E+03;3; -1.9039506E-01;  0.0000000E+00; -2.7130449E-01;0; -2.5634915E-01;  3.9525203E+04;  0.0000000E+00;  4.2695787E-02;  4.0000000E+04;  0.0000000E+00;  4.0040504E+04; -2.6886007E-01;  0.0000000E+00;  1.2510926E-02;  5.5338135E+03;
  2.6490921E-01;  9.9999998E-03;  4.9954545E-02;4067; -8.8485830E-02;  0.0000000E+00;  3.7154794E-04;  9.9448010E+02;  1.0000000E-01; -4.5731543E+03;3; -1.9615833E-01;  0.0000000E+00; -3.4900099E-01;0; -2.5645003E-01;  3.9518508E+04;  0.0000000E+00;  5.4962184E-02;  4.0000000E+04;  0.0000000E+00;  4.0040480E+04; -2.6959878E-01;  0.0000000E+00;  1.3148761E-02;  5.5336147E+03;
  2.6497585E-01;  9.9999998E-03;  5.9958339E-02;4068; -8.8309988E-02;  0.0000000E+00;  5.0781516E-04;  9.9437268E+02;  1.0000000E-01; -4.6621392E+03;3; -2.0049678E-01;  0.0000000E+00; -4.1668844E-01;0; -2.5673622E-01;  3.9509203E+04;  0.0000000E+00;  6.3415378E-02;  4.0000000E+04;  0.0000000E+00;  4.0040996E+04; -2.7046984E-01;  0.0000000E+00;  1.3733631E-02;  5.6271523E+03;
  2.7520999E-01;  9.9999998E-03; -9.9944867E-02;4113; -8.9566268E-02;  0.0000000E+00; -1.4905462E-03;  9.9460870E+02;  1.0000000E-01; -4.4665894E+03;3; -1.7748022E-01;  0.0000000E+00;  8.1402272E-01;0; -2.5783759E-01;  3.9517449E+04;  0.0000000E+00;  6.7167237E-02;  4.0000000E+04;  0.0000000E+00;  4.0052336E+04; -2.7434891E-01;  0.0000000E+00;  1.6511330E-02;  7.0140259E+03;
  2.7515972E-01;  9.9999998E-03; -8.9954838E-02;4114; -9.0032279E-02;  0.0000000E+00; -1.2427882E-03;  9.9483514E+02;  1.0000000E-01; -4.2789897E+03;3; -1.6518848E-01;  0.0000000E+00;  7.3549527E-01;0; -2.5619122E-01;  3.9537414E+04;  0.0000000E+00;  4.7149781E-02;  4.0000000E+04;  0.0000000E+00;  4.0050273E+04; -2.7283210E-01;  0.0000000E+00;  1.6640859E-02;  6.7328774E+03;
  2.7510434E-01;  9.9999998E-03; -7.9959139E-02;4115; -9.0417527E-02;  0.0000000E+00; -1.0103156E-03;  9.9500574E+02;  1.0000000E-01; -4.1376606E+03;3; -1.5191579E-01;  0.0000000E+00;  6.4241111E-01;0; -2.5492525E-01;  3.9552973E+04;  0.0000000E+00;  4.4033136E-02;  4.0000000E+04;  0.0000000E+00;  4.0048031E+04; -2.7143529E-01;  0.0000000E+00;  1.6510032E-02;  6.4458726E+03;
  2.7504459E-01;  9.9999998E-03; -6.9959022E-02;4116; -9.0717211E-02;  0.0000000E+00; -8.0144784E-04;  9.9512903E+02;  1.0000000E-01; -4.0354905E+03;3; -1.3995923E-01;  0.0000000E+00;  5.5301178E-01;0; -2.5402156E-01;  3.9564559E+04;  0.0000000E+00;  4.7357012E-02;  4.0000000E+04;  0.0000000E+00;  4.0046367E+04; -2.7016729E-01;  0.0000000E+00;  1.6145732E-02;  6.2102070E+03;
  2.7498245E-01;  9.9999998E-03; -5.9956558E-02;4117; -9.0935446E-02;  0.0000000E+00; -6.2453718E-04;  9.9521552E+02;  1.0000000E-01; -3.9638381E+03;3; -1.2986863E-01;  0.0000000E+00;  4.5934996E-01;0; -2.5343522E-01;  3.9572375E+04;  0.0000000E+00;  4.9475607E-02;  4.0000000E+04;  0.0000000E+00;  4.0045242E+04; -2.6903862E-01;  0.0000000E+00;  1.5603399E-02;  6.0665698E+03;
  2.7492237E-01;  9.9999998E-03; -4.9954329E-02;4118; -9.1083072E-02;  0.0000000E+00; -4.7666044E-04;  9.9527429E+02;  1.0000000E-01; -3.9151482E+03;3; -1.2594841E-01;  0.0000000E+00;  3.8439399E-01;0; -2.5310484E-01;  3.9577195E+04;  0.0000000E+00;  4.6390921E-02;  4.0000000E+04;  0.0000000E+00;  4.0045039E+04; -2.6806089E-01;  0.0000000E+00;  1.4956069E-02;  6.0300059E+03;
  2.7487031E-01;  9.9999998E-03; -3.9955728E-02;4119; -9.1174610E-02;  0.0000000E+00; -3.5285857E-04;  9.9531238E+02;  1.0000000E-01; -3.8835935E+03;3; -1.2044240E-01;  0.0000000E+00;  3.0407649E-01;0; -2.5295979E-01;  3.9579828E+04;  0.0000000E+00;  3.7596297E-02;  4.0000000E+04;  0.0000000E+00;  4.0045414E+04; -2.6724410E-01;  0.0000000E+00;  1.4284304E-02;  6.0872295E+03;
  2.7482930E-01;  9.9999998E-03; -2.9962042E-02;4120; -9.1225103E-02;  0.0000000E+00; -2.4948901E-04;  9.9533899E+02;  1.0000000E-01; -3.8615696E+03;3; -1.1848950E-01;  0.0000000E+00;  2.3101005E-01;0; -2.5293267E-01;  3.9580914E+04;  0.0000000E+00;  2.5191452E-02;  4.0000000E+04;  0.0000000E+00;  4.0046426E+04; -2.6659894E-01;  0.0000000E+00;  1.3666275E-02;  6.2026997E+03;
  2.7480021E-01;  9.9999998E-03; -1.9972431E-02;4121; -9.1249369E-02;  0.0000000E+00; -1.5931300E-04;  9.9535364E+02;  1.0000000E-01; -3.8494216E+03;3; -1.1544554E-01;  0.0000000E+00;  1.5044750E-01;0; -2.5296199E-01;  3.9581102E+04;  0.0000000E+00;  1.2620877E-02;  4.0000000E+04;  0.0000000E+00;  4.0047367E+04; -2.6613262E-01;  0.0000000E+00;  1.3170637E-02;  6.3304712E+03;
  2.7478340E-01;  9.9999998E-03; -9.9854730E-03;4122; -9.1259025E-02;  0.0000000E+00; -7.7710261E-05;  9.9536487E+02;  1.0000000E-01; -3.8401379E+03;3; -1.1595206E-01;  0.0000000E+00;  7.9763204E-02;0; -2.5299865E-01;  3.9581109E+04;  0.0000000E+00;  3.3829152E-03;  4.0000000E+04;  0.0000000E+00;  4.0048141E+04; -2.6584944E-01;  0.0000000E+00;  1.2850780E-02;  6.4273130E+03;
  2.7477771E-01;  9.9999998E-03;  3.4835887E-10;4123; -9.1261424E-02;  0.0000000E+00;  9.4399528E-09;  9.9536835E+02;  1.0000000E-01; -3.8372246E+03;3; -1.1488523E-01;  0.0000000E+00; -5.2287687E-06;0; -2.5301507E-01;  3.9581102E+04;  0.0000000E+00; -8.9337023E-13;  4.0000000E+04;  0.0000000E+00;  4.0048574E+04; -2.6575533E-01;  0.0000000E+00;  1.2740260E-02;  6.4631821E+03;
  2.7478340E-01;  9.9999998E-03;  9.9854730E-03;4124; -9.1259018E-02;  0.0000000E+00;  7.7729223E-05;  9.9536487E+02;  1.0000000E-01; -3.8401379E+03;3; -1.1593955E-01;  0.0000000E+00; -7.9767331E-02;0; -2.5299883E-01;  3.9581105E+04;  0.0000000E+00;  3.3829731E-03;  4.0000000E+04;  0.0000000E+00;  4.0048141E+04; -2.6584959E-01;  0.0000000E+00;  1.2850765E-02;  6.4273135E+03;
  2.7480021E-01;  9.9999998E-03;  1.9972432E-02;4125; -9.1249369E-02;  0.0000000E+00;  1.5933115E-04;  9.9535364E+02;  1.0000000E-01; -3.8494216E+03;3; -1.1540730E-01;  0.0000000E+00; -1.5044193E-01;0; -2.5296202E-01;  3.9581105E+04;  0.0000000E+00;  1.2621197E-02;  4.0000000E+04;  0.0000000E+00;  4.0047367E+04; -2.6613265E-01;  0.0000000E+00;  1.3170638E-02;  6.3304751E+03;
  2.7482930E-01;  9.9999998E-03;  2.9962042E-02;4126; -9.1225103E-02;  0.0000000E+00;  2.4950714E-04;  9.9533899E+02;  1.0000000E-01; -3.8615696E+03;3; -1.1844453E-01;  0.0000000E+00; -2.3100954E-01;0; -2.5293255E-01;  3.9580914E+04;  0.0000000E+00;  2.5191715E-02;  4.0000000E+04;  0.0000000E+00;  4.0046426E+04; -2.6659882E-01;  0.0000000E+00;  1.3666279E-02;  6.2027085E+03;
  2.7487031E-01;  9.9999998E-03;  3.9955728E-02;4127; -9.1174603E-02;  0.0000000E+00;  3.5287288E-04;  9.9531238E+02;  1.0000000E-01; -3.8835935E+03;3; -1.2051441E-01;  0.0000000E+00; -3.0412060E-01;0; -2.5295991E-01;  3.9579828E+04;  0.0000000E+00;  3.7596747E-02;  4.0000000E+04;  0.0000000E+00;  4.0045414E+04; -2.6724422E-01;  0.0000000E+00;  1.4284305E-02;  6.0872417E+03;
  2.7492237E-01;  9.9999998E-03;  4.9954329E-02;4128; -9.1083057E-02;  0.0000000E+00;  4.7667592E-04;  9.9527429E+02;  1.0000000E-01; -3.9151482E+03;3; -1.2601307E-01;  0.0000000E+00; -3.8442162E-01;0; -2.5310495E-01;  3.9577199E+04;  0.0000000E+00;  4.6390519E-02;  4.0000000E+04;  0.0000000E+00;  4.0045039E+04; -2.6806104E-01;  0.0000000E+00;  1.4956097E-02;  6.0300103E+03;
  2.7498245E-01;  9.9999998E-03;  5.9956558E-02;4129; -9.0935439E-02;  0.0000000E+00;  6.2454760E-04;  9.9521539E+02;  1.0000000E-01; -3.9639370E+03;3; -1.2985513E-01;  0.0000000E+00; -4.5937765E-01;0; -2.5343493E-01;  3.9572375E+04;  0.0000000E+00;  4.9475770E-02;  4.0000000E+04;  0.0000000E+00;  4.0045242E+04; -2.6903832E-01;  0.0000000E+00;  1.5603393E-02;  6.0665708E+03;
  2.8520688E-01;  9.9999998E-03; -9.9948853E-02;4174; -9.2297152E-02;  0.0000000E+00; -1.6727257E-03;  9.9544318E+02;  1.0000000E-01; -3.7752510E+03;3; -1.0132285E-01;  0.0000000E+00;  8.9707816E-01;0; -2.5445300E-01;  3.9581289E+04;  0.0000000E+00; -1.9082973E-03;  4.0000000E+04;  0.0000000E+00;  4.0055375E+04; -2.7337858E-01;  0.0000000E+00;  1.8925572E-02;  7.3089795E+03;
  2.8515774E-01;  9.9999998E-03; -8.9955553E-02;4175; -9.2718579E-02;  0.0000000E+00; -1.4008232E-03;  9.9562201E+02;  1.0000000E-01; -3.6270576E+03;3; -8.7263547E-02;  0.0000000E+00;  8.0106968E-01;0; -2.5285313E-01;  3.9597883E+04;  0.0000000E+00; -3.1553688E-03;  4.0000000E+04;  0.0000000E+00;  4.0052852E+04; -2.7172551E-01;  0.0000000E+00;  1.8872377E-02;  6.9981836E+03;
  2.8510582E-01;  9.9999998E-03; -7.9957478E-02;4176; -9.3061909E-02;  0.0000000E+00; -1.1495885E-03;  9.9573883E+02;  1.0000000E-01; -3.5303196E+03;3; -7.3736720E-02;  0.0000000E+00;  7.0683658E-01;0; -2.5162736E-01;  3.9609152E+04;  0.0000000E+00;  7.4292365E-03;  4.0000000E+04;  0.0000000E+00;  4.0050793E+04; -2.7021739E-01;  0.0000000E+00;  1.8590042E-02;  6.7177573E+03;
  2.8505167E-01;  9.9999998E-03; -6.9956578E-02;4177; -9.3324356E-02;  0.0000000E+00; -9.3017309E-04;  9.9580066E+02;  1.0000000E-01; -3.4790618E+03;3; -6.0008638E-02;  0.0000000E+00;  6.0961199E-01;0; -2.5075349E-01;  3.9615367E+04;  0.0000000E+00;  2.0313514E-02;  4.0000000E+04;  0.0000000E+00;  4.0049164E+04; -2.6886481E-01;  0.0000000E+00;  1.8111322E-02;  6.5164756E+03;
  2.8499675E-01;  9.9999998E-03; -5.9954982E-02;4178; -9.3511067E-02;  0.0000000E+00; -7.4335979E-04;  9.9582434E+02;  1.0000000E-01; -3.4594575E+03;3; -4.9255822E-02;  0.0000000E+00;  5.1668763E-01;0; -2.5018567E-01;  3.9617898E+04;  0.0000000E+00;  2.9228773E-02;  4.0000000E+04;  0.0000000E+00;  4.0048469E+04; -2.6767847E-01;  0.0000000E+00;  1.7492812E-02;  6.4236396E+03;
  2.8494412E-01;  9.9999998E-03; -4.9954481E-02;4179; -9.3633167E-02;  0.0000000E+00; -5.8400189E-04;  9.9581927E+02;  1.0000000E-01; -3.4636548E+03;3; -4.4174630E-02;  0.0000000E+00;  4.3137386E-01;0; -2.4986252E-01;  3.9617320E+04;  0.0000000E+00;  3.1424068E-02;  4.0000000E+04;  0.0000000E+00;  4.0048660E+04; -2.6666647E-01;  0.0000000E+00;  1.6803956E-02;  6.4429819E+03;
  2.8489792E-01;  9.9999998E-03; -3.9957173E-02;4180; -9.3704991E-02;  0.0000000E+00; -4.4502746E-04;  9.9580328E+02;  1.0000000E-01; -3.4768892E+03;3; -3.9383031E-02;  0.0000000E+00;  3.4352410E-01;0; -2.4971622E-01;  3.9615031E+04;  0.0000000E+00;  2.7172770E-02;  4.0000000E+04;  0.0000000E+00;  4.0049535E+04; -2.6583400E-01;  0.0000000E+00;  1.6117778E-02;  6.5526108E+03;
  2.8486103E-01;  9.9999998E-03; -2.9963702E-02;4181; -9.3740948E-02;  0.0000000E+00; -3.2275083E-04;  9.9578101E+02;  1.0000000E-01; -3.4953577E+03;3; -3.7348848E-02;  0.0000000E+00;  2.5650299E-01;0; -2.4968229E-01;  3.9611875E+04;  0.0000000E+00;  1.8808218E-02;  4.0000000E+04;  0.0000000E+00;  4.0050688E+04; -2.6518533E-01;  0.0000000E+00;  1.5503037E-02;  6.7116631E+03;
  2.8483483E-01;  9.9999998E-03; -1.9973826E-02;4182; -9.3755513E-02;  0.0000000E+00; -2.0992960E-04;  9.9575983E+02;  1.0000000E-01; -3.5128879E+03;3; -3.4252986E-02;  0.0000000E+00;  1.6700681E-01;0; -2.4970350E-01;  3.9608965E+04;  0.0000000E+00;  9.5789209E-03;  4.0000000E+04;  0.0000000E+00;  4.0051984E+04; -2.6472211E-01;  0.0000000E+00;  1.5018613E-02;  6.8714736E+03;
  2.8481936E-01;  9.9999998E-03; -9.9862991E-03;4183; -9.3759306E-02;  0.0000000E+00; -1.0419471E-04;  9.9574701E+02;  1.0000000E-01; -3.5235051E+03;3; -3.3454712E-02;  0.0000000E+00;  8.1978671E-02;0; -2.4973464E-01;  3.9606867E+04;  0.0000000E+00;  2.5874302E-03;  4.0000000E+04;  0.0000000E+00;  4.0053020E+04; -2.6444393E-01;  0.0000000E+00;  1.4709288E-02;  6.9877935E+03;
  2.8481424E-01;  9.9999998E-03;  3.3663494E-10;4184; -9.3759887E-02;  0.0000000E+00;  1.0992360E-08;  9.9574146E+02;  1.0000000E-01; -3.5281470E+03;3; -3.3765383E-02;  0.0000000E+00; -1.0640946E-05;0; -2.4974822E-01;  3.9606242E+04;  0.0000000E+00;  3.2347044E-13;  4.0000000E+04;  0.0000000E+00;  4.0053238E+04; -2.6435122E-01;  0.0000000E+00;  1.4603005E-02;  7.0301807E+03;
  2.8481936E-01;  9.9999998E-03;  9.9863000E-03;4185; -9.3759298E-02;  0.0000000E+00;  1.0421801E-04;  9.9574701E+02;  1.0000000E-01; -3.5235051E+03;3; -3.3451408E-02;  0.0000000E+00; -8.1956387E-02;0; -2.4973476E-01;  3.9606871E+04;  0.0000000E+00;  2.5876160E-03;  4.0000000E+04;  0.0000000E+00;  4.0053020E+04; -2.6444405E-01;  0.0000000E+00;  1.4709288E-02;  6.9877939E+03;
  2.8483483E-01;  9.9999998E-03;  1.9973828E-02;4186; -9.3755506E-02;  0.0000000E+00;  2.0994834E-04;  9.9575983E+02;  1.0000000E-01; -3.5128879E+03;3; -3.4193669E-02;  0.0000000E+00; -1.6702689E-01;0; -2.4970353E-01;  3.9608965E+04;  0.0000000E+00;  9.5793232E-03;  4.0000000E+04;  0.0000000E+00;  4.0051984E+04; -2.6472214E-01;  0.0000000E+00;  1.5018620E-02;  6.8714736E+03;
  2.8486103E-01;  9.9999998E-03;  2.9963702E-02;4187; -9.3740948E-02;  0.0000000E+00;  3.2276887E-04;  9.9578094E+02;  1.0000000E-01; -3.4954070E+03;3; -3.7455376E-02;  0.0000000E+00; -2.5652322E-01;0; -2.4968249E-01;  3.9611875E+04;  0.0000000E+00;  1.8808983E-02;  4.0000000E+04;  0.0000000E+00;  4.0050688E+04; -2.6518553E-01;  0.0000000E+00;  1.5503042E-02;  6.7116729E+03;
  2.8489792E-01;  9.9999998E-03;  3.9957173E-02;4188; -9.3704998E-02;  0.0000000E+00;  4.4504579E-04;  9.9580328E+02;  1.0000000E-01; -3.4768892E+03;3; -3.9287705E-02;  0.0000000E+00; -3.4354514E-01;0; -2.4971697E-01;  3.9615031E+04;  0.0000000E+00;  2.7173592E-02;  4.0000000E+04;  0.0000000E+00;  4.0049535E+04; -2.6583475E-01;  0.0000000E+00;  1.6117780E-02;  6.5526138E+03;
  2.8494412E-01;  9.9999998E-03;  4.9954481E-02;4189; -9.3633167E-02;  0.0000000E+00;  5.8401568E-04;  9.9581927E+02;  1.0000000E-01; -3.4636548E+03;3; -4.4206318E-02;  0.0000000E+00; -4.3139988E-01;0; -2.4986245E-01;  3.9617312E+04;  0.0000000E+00;  3.1425394E-02;  4.0000000E+04;  0.0000000E+00;  4.0048660E+04; -2.6666641E-01;  0.0000000E+00;  1.6803959E-02;  6.4429883E+03;
  2.8499675E-01;  9.9999998E-03;  5.9954982E-02;4190; -9.3511067E-02;  0.0000000E+00;  7.4337336E-04;  9.9582434E+02;  1.0000000E-01; -3.4594575E+03;3; -4.9289607E-02;  0.0000000E+00; -5.1671231E-01;0; -2.5018531E-01;  3.9617898E+04;  0.0000000E+00;  2.9228926E-02;  4.0000000E+04;  0.0000000E+00;  4.0048469E+04; -2.6767814E-01;  0.0000000E+00;  1.7492816E-02;  6.4236313E+03;
  2.9520661E-01;  9.9999998E-03; -9.9950314E-02;4235; -9.4986163E-02;  0.0000000E+00; -1.8389215E-03;  9.9608868E+02;  1.0000000E-01; -3.2404514E+03;3; -1.4253933E-02;  0.0000000E+00;  9.7607613E-01;0; -2.5105357E-01;  3.9631477E+04;  0.0000000E+00; -6.1047435E-02;  4.0000000E+04;  0.0000000E+00;  4.0056945E+04; -2.7228400E-01;  0.0000000E+00;  2.1230415E-02;  7.4609551E+03;
  2.9516032E-01;  9.9999998E-03; -8.9954220E-02;4236; -9.5362611E-02;  0.0000000E+00; -1.5496578E-03;  9.9620300E+02;  1.0000000E-01; -3.1457380E+03;3;  1.1993943E-03;  0.0000000E+00;  8.7697250E-01;0; -2.4957317E-01;  3.9643020E+04;  0.0000000E+00; -4.7564238E-02;  4.0000000E+04;  0.0000000E+00;  4.0054445E+04; -2.7058524E-01;  0.0000000E+00;  2.1012073E-02;  7.1431211E+03;
  2.9511297E-01;  9.9999998E-03; -7.9954892E-02;4237; -9.5665574E-02;  0.0000000E+00; -1.2887343E-03;  9.9625031E+02;  1.0000000E-01; -3.1065293E+03;3;  1.6197713E-02;  0.0000000E+00;  7.7823329E-01;0; -2.4845564E-01;  3.9648664E+04;  0.0000000E+00; -2.7265213E-02;  4.0000000E+04;  0.0000000E+00;  4.0052477E+04; -2.6905507E-01;  0.0000000E+00;  2.0599425E-02;  6.8859575E+03;
  2.9506534E-01;  9.9999998E-03; -6.9954358E-02;4238; -9.5894009E-02;  0.0000000E+00; -1.0620081E-03;  9.9624365E+02;  1.0000000E-01; -3.1120598E+03;3;  3.1077655E-02;  0.0000000E+00;  6.7339349E-01;0; -2.4767426E-01;  3.9649043E+04;  0.0000000E+00; -7.8533515E-03;  4.0000000E+04;  0.0000000E+00;  4.0051215E+04; -2.6770443E-01;  0.0000000E+00;  2.0030163E-02;  6.7289976E+03;
  2.9501849E-01;  9.9999998E-03; -5.9954327E-02;4239; -9.6053541E-02;  0.0000000E+00; -8.6685573E-04;  9.9619629E+02;  1.0000000E-01; -3.1513181E+03;3;  4.2762257E-02;  0.0000000E+00;  5.7191414E-01;0; -2.4718037E-01;  3.9645434E+04;  0.0000000E+00;  6.1345594E-03;  4.0000000E+04;  0.0000000E+00;  4.0050906E+04; -2.6654074E-01;  0.0000000E+00;  1.9360356E-02;  6.6906426E+03;
  2.9497421E-01;  9.9999998E-03; -4.9955800E-02;4240; -9.6155405E-02;  0.0000000E+00; -6.9477066E-04;  9.9612817E+02;  1.0000000E-01; -3.2077114E+03;3;  4.8114825E-02;  0.0000000E+00;  4.8200014E-01;0; -2.4691220E-01;  3.9639262E+04;  0.0000000E+00;  1.3126542E-02;  4.0000000E+04;  0.0000000E+00;  4.0051445E+04; -2.6556632E-01;  0.0000000E+00;  1.8654123E-02;  6.7647930E+03;
  2.9493517E-01;  9.9999998E-03; -3.9959744E-02;4241; -9.6212581E-02;  0.0000000E+00; -5.3991232E-04;  9.9605066E+02;  1.0000000E-01; -3.2719565E+03;3;  5.3957451E-02;  0.0000000E+00;  3.8174579E-01;0; -2.4680491E-01;  3.9631871E+04;  0.0000000E+00;  1.3851739E-02;  4.0000000E+04;  0.0000000E+00;  4.0052656E+04; -2.6478043E-01;  0.0000000E+00;  1.7975522E-02;  6.9227017E+03;
  2.9490349E-01;  9.9999998E-03; -2.9966569E-02;4242; -9.6238673E-02;  0.0000000E+00; -3.9792270E-04;  9.9597882E+02;  1.0000000E-01; -3.3314612E+03;3;  5.7025749E-02;  0.0000000E+00;  2.8426728E-01;0; -2.4679607E-01;  3.9624531E+04;  0.0000000E+00;  1.0446453E-02;  4.0000000E+04;  0.0000000E+00;  4.0054195E+04; -2.6417854E-01;  0.0000000E+00;  1.7382471E-02;  7.1199409E+03;
  2.9488060E-01;  9.9999998E-03; -1.9976065E-02;4243; -9.6247114E-02;  0.0000000E+00; -2.6177274E-04;  9.9592285E+02;  1.0000000E-01; -3.3778301E+03;3;  5.8530767E-02;  0.0000000E+00;  1.8938547E-01;0; -2.4683104E-01;  3.9618527E+04;  0.0000000E+00;  5.5451575E-03;  4.0000000E+04;  0.0000000E+00;  4.0055688E+04; -2.6375404E-01;  0.0000000E+00;  1.6922997E-02;  7.3068511E+03;
  2.9486707E-01;  9.9999998E-03; -9.9875620E-03;4244; -9.6247643E-02;  0.0000000E+00; -1.3012780E-04;  9.9588544E+02;  1.0000000E-01; -3.4088416E+03;3;  6.0292177E-02;  0.0000000E+00;  9.2894778E-02;0; -2.4686970E-01;  3.9614469E+04;  0.0000000E+00;  1.5270325E-03;  4.0000000E+04;  0.0000000E+00;  4.0056668E+04; -2.6350248E-01;  0.0000000E+00;  1.6632780E-02;  7.4391685E+03;
  2.9486245E-01;  9.9999998E-03;  3.4045572E-10;4245; -9.6247017E-02;  0.0000000E+00;  1.1995301E-08;  9.9587231E+02;  1.0000000E-01; -3.4197056E+03;3;  6.1356448E-02;  0.0000000E+00; -1.0618274E-05;0; -2.4688527E-01;  3.9613094E+04;  0.0000000E+00; -3.5928793E-14;  4.0000000E+04;  0.0000000E+00;  4.0056996E+04; -2.6341882E-01;  0.0000000E+00;  1.6533559E-02;  7.4867998E+03;
  2.9486707E-01;  9.9999998E-03;  9.9875620E-03;4246; -9.6247643E-02;  0.0000000E+00;  1.3015411E-04;  9.9588544E+02;  1.0000000E-01; -3.4088416E+03;3;  6.0144097E-02;  0.0000000E+00; -9.2864871E-02;0; -2.4686955E-01;  3.9614469E+04;  0.0000000E+00;  1.5272534E-03;  4.0000000E+04;  0.0000000E+00;  4.0056668E+04; -2.6350233E-01;  0.0000000E+00;  1.6632775E-02;  7.4391685E+03;
  2.9488060E-01;  9.9999998E-03;  1.9976065E-02;4247; -9.6247107E-02;  0.0000000E+00;  2.6179355E-04;  9.9592279E+02;  1.0000000E-01; -3.3778796E+03;3;  5.8589477E-02;  0.0000000E+00; -1.8939190E-01;0; -2.4683091E-01;  3.9618527E+04;  0.0000000E+00;  5.5456683E-03;  4.0000000E+04;  0.0000000E+00;  4.0055688E+04; -2.6375389E-01;  0.0000000E+00;  1.6922986E-02;  7.3068511E+03;
  2.9490349E-01;  9.9999998E-03;  2.9966569E-02;4248; -9.6238658E-02;  0.0000000E+00;  3.9794360E-04;  9.9597882E+02;  1.0000000E-01; -3.3314612E+03;3;  5.7114992E-02;  0.0000000E+00; -2.8424492E-01;0; -2.4679604E-01;  3.9624531E+04;  0.0000000E+00;  1.0447287E-02;  4.0000000E+04;  0.0000000E+00;  4.0054195E+04; -2.6417851E-01;  0.0000000E+00;  1.7382471E-02;  7.1199448E+03;
  2.9493517E-01;  9.9999998E-03;  3.9959744E-02;4249; -9.6212573E-02;  0.0000000E+00;  5.3992786E-04;  9.9605066E+02;  1.0000000E-01; -3.2719565E+03;3;  5.3891398E-02;  0.0000000E+00; -3.8176849E-01;0; -2.4680488E-01;  3.9631871E+04;  0.0000000E+00;  1.3852434E-02;  4.0000000E+04;  0.0000000E+00;  4.0052652E+04; -2.6478040E-01;  0.0000000E+00;  1.7975520E-02;  6.9227061E+03;
  2.9497421E-01;  9.9999998E-03;  4.9955800E-02;4250; -9.6155398E-02;  0.0000000E+00;  6.9478614E-04;  9.9612805E+02;  1.0000000E-01; -3.2078596E+03;3;  4.8061095E-02;  0.0000000E+00; -4.8197851E-01;0; -2.4691230E-01;  3.9639262E+04;  0.0000000E+00;  1.3127318E-02;  4.0000000E+04;  0.0000000E+00;  4.0051445E+04; -2.6556644E-01;  0.0000000E+00;  1.8654134E-02;  6.7647974E+03;
  2.9501849E-01;  9.9999998E-03;  5.9954330E-02;4251; -9.6053533E-02;  0.0000000E+00;  8.6687715E-04;  9.9619629E+02;  1.0000000E-01; -3.1513181E+03;3;  4.2721462E-02;  0.0000000E+00; -5.7189381E-01;0; -2.4718016E-01;  3.9645434E+04;  0.0000000E+00;  6.1352961E-03;  4.0000000E+04;  0.0000000E+00;  4.0050906E+04; -2.6654050E-01;  0.0000000E+00;  1.9360337E-02;  6.6906523E+03;
  3.0520889E-01;  9.9999998E-03; -9.9949114E-02;4296; -9.7639680E-02;  0.0000000E+00; -1.9983484E-03;  9.9653094E+02;  1.0000000E-01; -2.8740420E+03;3;  8.4980778E-02;  0.0000000E+00;  1.0710261E+00;0; -2.4781026E-01;  3.9666742E+04;  0.0000000E+00; -1.0546408E-01;  4.0000000E+04;  0.0000000E+00;  4.0057375E+04; -2.7117664E-01;  0.0000000E+00;  2.3366377E-02;  7.4713740E+03;
  3.0516759E-01;  9.9999998E-03; -8.9951135E-02;4297; -9.7974405E-02;  0.0000000E+00; -1.6993211E-03;  9.9657690E+02;  1.0000000E-01; -2.8359690E+03;3;  1.0096771E-01;  0.0000000E+00;  9.6712154E-01;0; -2.4651341E-01;  3.9672410E+04;  0.0000000E+00; -8.1777811E-02;  4.0000000E+04;  0.0000000E+00;  4.0055000E+04; -2.6952195E-01;  0.0000000E+00;  2.3008546E-02;  7.1695977E+03;
  3.0512604E-01;  9.9999998E-03; -7.9951458E-02;4298; -9.8241732E-02;  0.0000000E+00; -1.4324944E-03;  9.9654718E+02;  1.0000000E-01; -2.8606104E+03;3;  1.1699302E-01;  0.0000000E+00;  8.5762012E-01;0; -2.4556294E-01;  3.9671824E+04;  0.0000000E+00; -5.5538513E-02;  4.0000000E+04;  0.0000000E+00;  4.0053172E+04; -2.6805627E-01;  0.0000000E+00;  2.2493336E-02;  6.9516196E+03;
  3.0508584E-01;  9.9999998E-03; -6.9951937E-02;4299; -9.8442003E-02;  0.0000000E+00; -1.1991337E-03;  9.9646594E+02;  1.0000000E-01; -2.9279170E+03;3;  1.3393807E-01;  0.0000000E+00;  7.3995161E-01;0; -2.4492706E-01;  3.9666156E+04;  0.0000000E+00; -3.2313086E-02;  4.0000000E+04;  0.0000000E+00;  4.0052355E+04; -2.6678941E-01;  0.0000000E+00;  2.1862345E-02;  6.8477065E+03;
  3.0504787E-01;  9.9999998E-03; -5.9953649E-02;4300; -9.8581098E-02;  0.0000000E+00; -9.9499314E-04;  9.9634875E+02;  1.0000000E-01; -3.0250007E+03;3;  1.4645165E-01;  0.0000000E+00;  6.3172621E-01;0; -2.4455301E-01;  3.9656586E+04;  0.0000000E+00; -1.4966864E-02;  4.0000000E+04;  0.0000000E+00;  4.0052383E+04; -2.6572260E-01;  0.0000000E+00;  2.1169586E-02;  6.8664692E+03;
  3.0501303E-01;  9.9999998E-03; -4.9957104E-02;4301; -9.8669589E-02;  0.0000000E+00; -8.1046141E-04;  9.9621802E+02;  1.0000000E-01; -3.1332939E+03;3;  1.5198925E-01;  0.0000000E+00;  5.3319257E-01;0; -2.4437951E-01;  3.9644961E+04;  0.0000000E+00; -4.1407845E-03;  4.0000000E+04;  0.0000000E+00;  4.0053359E+04; -2.6485205E-01;  0.0000000E+00;  2.0472536E-02;  6.9938662E+03;
  3.0498254E-01;  9.9999998E-03; -3.9962463E-02;4302; -9.8718964E-02;  0.0000000E+00; -6.3915545E-04;  9.9608636E+02;  1.0000000E-01; -3.2423772E+03;3;  1.5878320E-01;  0.0000000E+00;  4.3108425E-01;0; -2.4434270E-01;  3.9632816E+04;  0.0000000E+00;  1.0640471E-03;  4.0000000E+04;  0.0000000E+00;  4.0054809E+04; -2.6416764E-01;  0.0000000E+00;  1.9824935E-02;  7.1961724E+03;
  3.0495748E-01;  9.9999998E-03; -2.9969720E-02;4303; -9.8741174E-02;  0.0000000E+00; -4.7663733E-04;  9.9596918E+02;  1.0000000E-01; -3.3394609E+03;3;  1.6276589E-01;  0.0000000E+00;  3.2246283E-01;0; -2.4438317E-01;  3.9621680E+04;  0.0000000E+00;  2.3585588E-03;  4.0000000E+04;  0.0000000E+00;  4.0056676E+04; -2.6365599E-01;  0.0000000E+00;  1.9272825E-02;  7.4271118E+03;
  3.0493903E-01;  9.9999998E-03; -1.9978771E-02;4304; -9.8748006E-02;  0.0000000E+00; -3.1681903E-04;  9.9587811E+02;  1.0000000E-01; -3.4149155E+03;3;  1.6543096E-01;  0.0000000E+00;  2.1801940E-01;0; -2.4445117E-01;  3.9612711E+04;  0.0000000E+00;  1.6341374E-03;  4.0000000E+04;  0.0000000E+00;  4.0058230E+04; -2.6330373E-01;  0.0000000E+00;  1.8852569E-02;  7.6370620E+03;
  3.0492797E-01;  9.9999998E-03; -9.9890865E-03;4305; -9.8748177E-02;  0.0000000E+00; -1.5839226E-04;  9.9582074E+02;  1.0000000E-01; -3.4624204E+03;3;  1.6821148E-01;  0.0000000E+00;  1.0872855E-01;0; -2.4450773E-01;  3.9607012E+04;  0.0000000E+00;  4.9860822E-04;  4.0000000E+04;  0.0000000E+00;  4.0059395E+04; -2.6309788E-01;  0.0000000E+00;  1.8590156E-02;  7.7826519E+03;
  3.0492434E-01;  9.9999998E-03;  3.7403147E-10;4306; -9.8747633E-02;  0.0000000E+00;  1.2397747E-08;  9.9580029E+02;  1.0000000E-01; -3.4793582E+03;3;  1.6778620E-01;  0.0000000E+00; -8.0275640E-06;0; -2.4452904E-01;  3.9605051E+04;  0.0000000E+00;  1.1287770E-12;  4.0000000E+04;  0.0000000E+00;  4.0059750E+04; -2.6303008E-01;  0.0000000E+00;  1.8501036E-02;  7.8346147E+03;
  3.0492797E-01;  9.9999998E-03;  9.9890875E-03;4307; -9.8748185E-02;  0.0000000E+00;  1.5841788E-04;  9.9582074E+02;  1.0000000E-01; -3.4624204E+03;3;  1.6824727E-01;  0.0000000E+00; -1.0870736E-01;0; -2.4450764E-01;  3.9607008E+04;  0.0000000E+00;  4.9879344E-04;  4.0000000E+04;  0.0000000E+00;  4.0059395E+04; -2.6309782E-01;  0.0000000E+00;  1.8590182E-02;  7.7826562E+03;
  3.0493903E-01;  9.9999998E-03;  1.9978771E-02;4308; -9.8748006E-02;  0.0000000E+00;  3.1684357E-04;  9.9587811E+02;  1.0000000E-01; -3.4149155E+03;3;  1.6550361E-01;  0.0000000E+00; -2.1801795E-01;0; -2.4445128E-01;  3.9612711E+04;  0.0000000E+00;  1.6345538E-03;  4.0000000E+04;  0.0000000E+00;  4.0058230E+04; -2.6330385E-01;  0.0000000E+00;  1.8852562E-02;  7.6370723E+03;
  3.0495748E-01;  9.9999998E-03;  2.9969720E-02;4309; -9.8741166E-02;  0.0000000E+00;  4.7666320E-04;  9.9596918E+02;  1.0000000E-01; -3.3394609E+03;3;  1.6289227E-01;  0.0000000E+00; -3.2253158E-01;0; -2.4438316E-01;  3.9621680E+04;  0.0000000E+00;  2.3589840E-03;  4.0000000E+04;  0.0000000E+00;  4.0056676E+04; -2.6365599E-01;  0.0000000E+00;  1.9272836E-02;  7.4271216E+03;
  3.0498254E-01;  9.9999998E-03;  3.9962463E-02;4310; -9.8718949E-02;  0.0000000E+00;  6.3917658E-04;  9.9608630E+02;  1.0000000E-01; -3.2424265E+03;3;  1.5872619E-01;  0.0000000E+00; -4.3106806E-01;0; -2.4434295E-01;  3.9632820E+04;  0.0000000E+00;  1.0645582E-03;  4.0000000E+04;  0.0000000E+00;  4.0054809E+04; -2.6416790E-01;  0.0000000E+00;  1.9824948E-02;  7.1961787E+03;
  3.0501303E-01;  9.9999998E-03;  4.9957104E-02;4311; -9.8669581E-02;  0.0000000E+00;  8.1048545E-04;  9.9621790E+02;  1.0000000E-01; -3.1333926E+03;3;  1.5196870E-01;  0.0000000E+00; -5.3316778E-01;0; -2.4437930E-01;  3.9644961E+04;  0.0000000E+00; -4.1403896E-03;  4.0000000E+04;  0.0000000E+00;  4.0053359E+04; -2.6485184E-01;  0.0000000E+00;  2.0472541E-02;  6.9938608E+03;
  3.0504787E-01;  9.9999998E-03;  5.9953649E-02;4312; -9.8581091E-02;  0.0000000E+00;  9.9502329E-04;  9.9634875E+02;  1.0000000E-01; -3.0250007E+03;3;  1.4631793E-01;  0.0000000E+00; -6.3176036E-01;0; -2.4455315E-01;  3.9656586E+04;  0.0000000E+00; -1.4966471E-02;  4.0000000E+04;  0.0000000E+00;  4.0052387E+04; -2.6572275E-01;  0.0000000E+00;  2.1169603E-02;  6.8664683E+03;
  3.1521326E-01;  9.9999998E-03; -9.9945523E-02;4357; -1.0026576E-01;  0.0000000E+00; -2.1575911E-03;  9.9677136E+02;  1.0000000E-01; -2.6748872E+03;3;  1.9273366E-01;  0.0000000E+00;  1.1706792E+00;0; -2.4484988E-01;  3.9686996E+04;  0.0000000E+00; -1.3246587E-01;  4.0000000E+04;  0.0000000E+00;  4.0056500E+04; -2.7013406E-01;  0.0000000E+00;  2.5284188E-02;  7.3535591E+03;
  3.1517947E-01;  9.9999998E-03; -8.9946732E-02;4358; -1.0056485E-01;  0.0000000E+00; -1.8517318E-03;  9.9674182E+02;  1.0000000E-01; -2.6993308E+03;3;  2.1116781E-01;  0.0000000E+00;  1.0614042E+00;0; -2.4378428E-01;  3.9686586E+04;  0.0000000E+00; -1.0242996E-01;  4.0000000E+04;  0.0000000E+00;  4.0054453E+04; -2.6860365E-01;  0.0000000E+00;  2.4819378E-02;  7.0883154E+03;
  3.1514582E-01;  9.9999998E-03; -7.9947405E-02;4359; -1.0080387E-01;  0.0000000E+00; -1.5801752E-03;  9.9664349E+02;  1.0000000E-01; -2.7808101E+03;3;  2.2981338E-01;  0.0000000E+00;  9.3889219E-01;0; -2.4304441E-01;  3.9679938E+04;  0.0000000E+00; -7.3157802E-02;  4.0000000E+04;  0.0000000E+00;  4.0053016E+04; -2.6727930E-01;  0.0000000E+00;  2.4234895E-02;  6.9225923E+03;
  3.1511402E-01;  9.9999998E-03; -6.9948904E-02;4360; -1.0098413E-01;  0.0000000E+00; -1.3407967E-03;  9.9649609E+02;  1.0000000E-01; -2.9029299E+03;3;  2.4750361E-01;  0.0000000E+00;  8.1454021E-01;0; -2.4259125E-01;  3.9668363E+04;  0.0000000E+00; -4.8241228E-02;  4.0000000E+04;  0.0000000E+00;  4.0052555E+04; -2.6616579E-01;  0.0000000E+00;  2.3574552E-02;  6.8778076E+03;
  3.1508520E-01;  9.9999998E-03; -5.9951831E-02;4361; -1.0111105E-01;  0.0000000E+00; -1.1290656E-03;  9.9631836E+02;  1.0000000E-01; -3.0501851E+03;3;  2.6230955E-01;  0.0000000E+00;  6.9414639E-01;0; -2.4237023E-01;  3.9653738E+04;  0.0000000E+00; -2.9198006E-02;  4.0000000E+04;  0.0000000E+00;  4.0053016E+04; -2.6525950E-01;  0.0000000E+00;  2.2889270E-02;  6.9544287E+03;
  3.1505990E-01;  9.9999998E-03; -4.9956437E-02;4362; -1.0119437E-01;  0.0000000E+00; -9.3269732E-04;  9.9613135E+02;  1.0000000E-01; -3.2050942E+03;3;  2.6942828E-01;  0.0000000E+00;  5.9305924E-01;0; -2.4231803E-01;  3.9637430E+04;  0.0000000E+00; -1.6031934E-02;  4.0000000E+04;  0.0000000E+00;  4.0054344E+04; -2.6454669E-01;  0.0000000E+00;  2.2228666E-02;  7.1325469E+03;
  3.1503841E-01;  9.9999998E-03; -3.9962664E-02;4363; -1.0124332E-01;  0.0000000E+00; -7.4537290E-04;  9.9595349E+02;  1.0000000E-01; -3.3524482E+03;3;  2.7764374E-01;  0.0000000E+00;  4.8005614E-01;0; -2.4237347E-01;  3.9621336E+04;  0.0000000E+00; -7.8285197E-03;  4.0000000E+04;  0.0000000E+00;  4.0056227E+04; -2.6400891E-01;  0.0000000E+00;  2.1635436E-02;  7.3754082E+03;
  3.1502101E-01;  9.9999998E-03; -2.9970415E-02;4364; -1.0126817E-01;  0.0000000E+00; -5.6162954E-04;  9.9579980E+02;  1.0000000E-01; -3.4798025E+03;3;  2.8237635E-01;  0.0000000E+00;  3.6315310E-01;0; -2.4248053E-01;  3.9607062E+04;  0.0000000E+00; -3.2821500E-03;  4.0000000E+04;  0.0000000E+00;  4.0058172E+04; -2.6362360E-01;  0.0000000E+00;  2.1143058E-02;  7.6361074E+03;
  3.1500816E-01;  9.9999998E-03; -1.9979486E-02;4365; -1.0127837E-01;  0.0000000E+00; -3.7664251E-04;  9.9568335E+02;  1.0000000E-01; -3.5762444E+03;3;  2.8562117E-01;  0.0000000E+00;  2.4535961E-01;0; -2.4259196E-01;  3.9595742E+04;  0.0000000E+00; -1.0925081E-03;  4.0000000E+04;  0.0000000E+00;  4.0060000E+04; -2.6336783E-01;  0.0000000E+00;  2.0775869E-02;  7.8659170E+03;
  3.1500033E-01;  9.9999998E-03; -9.9895047E-03;4366; -1.0128130E-01;  0.0000000E+00; -1.8919348E-04;  9.9560773E+02;  1.0000000E-01; -3.6389092E+03;3;  2.8758225E-01;  0.0000000E+00;  1.2319219E-01;0; -2.4267346E-01;  3.9588641E+04;  0.0000000E+00; -2.1748099E-04;  4.0000000E+04;  0.0000000E+00;  4.0061102E+04; -2.6322314E-01;  0.0000000E+00;  2.0549681E-02;  8.0227163E+03;
  3.1499770E-01;  9.9999998E-03;  3.9972742E-10;4367; -1.0128169E-01;  0.0000000E+00;  1.3493705E-08;  9.9558167E+02;  1.0000000E-01; -3.6604888E+03;3;  2.8796655E-01;  0.0000000E+00;  4.3860127E-06;0; -2.4270253E-01;  3.9586199E+04;  0.0000000E+00;  5.6719023E-13;  4.0000000E+04;  0.0000000E+00;  4.0061699E+04; -2.6317587E-01;  0.0000000E+00;  2.0473350E-02;  8.0783145E+03;
  3.1500033E-01;  9.9999998E-03;  9.9895056E-03;4368; -1.0128129E-01;  0.0000000E+00;  1.8921965E-04;  9.9560767E+02;  1.0000000E-01; -3.6389585E+03;3;  2.8761339E-01;  0.0000000E+00; -1.2318713E-01;0; -2.4267346E-01;  3.9588641E+04;  0.0000000E+00; -2.1728872E-04;  4.0000000E+04;  0.0000000E+00;  4.0061102E+04; -2.6322314E-01;  0.0000000E+00;  2.0549690E-02;  8.0227202E+03;
  3.1500816E-01;  9.9999998E-03;  1.9979486E-02;4369; -1.0127837E-01;  0.0000000E+00;  3.7667080E-04;  9.9568341E+02;  1.0000000E-01; -3.5761948E+03;3;  2.8568074E-01;  0.0000000E+00; -2.4537361E-01;0; -2.4259214E-01;  3.9595746E+04;  0.0000000E+00; -1.0922613E-03;  4.0000000E+04;  0.0000000E+00;  4.0060000E+04; -2.6336801E-01;  0.0000000E+00;  2.0775871E-02;  7.8659180E+03;
  3.1502101E-01;  9.9999998E-03;  2.9970415E-02;4370; -1.0126817E-01;  0.0000000E+00;  5.6165917E-04;  9.9579980E+02;  1.0000000E-01; -3.4798025E+03;3;  2.8248164E-01;  0.0000000E+00; -3.6310878E-01;0; -2.4248070E-01;  3.9607062E+04;  0.0000000E+00; -3.2817768E-03;  4.0000000E+04;  0.0000000E+00;  4.0058172E+04; -2.6362377E-01;  0.0000000E+00;  2.1143073E-02;  7.6361138E+03;
  3.1503841E-01;  9.9999998E-03;  3.9962664E-02;4371; -1.0124331E-01;  0.0000000E+00;  7.4540020E-04;  9.9595355E+02;  1.0000000E-01; -3.3523987E+03;3;  2.7774912E-01;  0.0000000E+00; -4.7998095E-01;0; -2.4237345E-01;  3.9621332E+04;  0.0000000E+00; -7.8285215E-03;  4.0000000E+04;  0.0000000E+00;  4.0056227E+04; -2.6400888E-01;  0.0000000E+00;  2.1635426E-02;  7.3754131E+03;
  3.1505990E-01;  9.9999998E-03;  4.9956437E-02;4372; -1.0119437E-01;  0.0000000E+00;  9.3272433E-04;  9.9613129E+02;  1.0000000E-01; -3.2051438E+03;3;  2.6942211E-01;  0.0000000E+00; -5.9311277E-01;0; -2.4231827E-01;  3.9637430E+04;  0.0000000E+00; -1.6031411E-02;  4.0000000E+04;  0.0000000E+00;  4.0054344E+04; -2.6454696E-01;  0.0000000E+00;  2.2228684E-02;  7.1325503E+03;
  3.1508520E-01;  9.9999998E-03;  5.9951831E-02;4373; -1.0111105E-01;  0.0000000E+00;  1.1290922E-03;  9.9631836E+02;  1.0000000E-01; -3.0501851E+03;3;  2.6233211E-01;  0.0000000E+00; -6.9422179E-01;0; -2.4237004E-01;  3.9653730E+04;  0.0000000E+00; -2.9197220E-02;  4.0000000E+04;  0.0000000E+00;  4.0053016E+04; -2.6525933E-01;  0.0000000E+00;  2.2889283E-02;  6.9544473E+03;
  3.2508239E-01;  9.9999998E-03; -9.9893650E-03;4427; -1.0386259E-01;  0.0000000E+00; -2.2119646E-04;  9.9530054E+02;  1.0000000E-01; -3.8934204E+03;3;  4.2171776E-01;  0.0000000E+00;  1.2982044E-01;0; -2.4131715E-01;  3.9563918E+04;  0.0000000E+00; -4.5763401E-04;  4.0000000E+04;  0.0000000E+00;  4.0062023E+04; -2.6379517E-01;  0.0000000E+00;  2.2478011E-02;  8.1643809E+03;
  3.2508096E-01;  9.9999998E-03;  4.0504247E-10;4428; -1.0386503E-01;  0.0000000E+00;  1.3889302E-08;  9.9527271E+02;  1.0000000E-01; -3.9164814E+03;3;  4.2169073E-01;  0.0000000E+00;  1.7348626E-05;0; -2.4135534E-01;  3.9561152E+04;  0.0000000E+00;  1.0028181E-12;  4.0000000E+04;  0.0000000E+00;  4.0062500E+04; -2.6377225E-01;  0.0000000E+00;  2.2416908E-02;  8.2229668E+03;
  3.2508239E-01;  9.9999998E-03;  9.9893650E-03;4429; -1.0386258E-01;  0.0000000E+00;  2.2122344E-04;  9.9530054E+02;  1.0000000E-01; -3.8934204E+03;3;  4.2174029E-01;  0.0000000E+00; -1.2981185E-01;0; -2.4131688E-01;  3.9563918E+04;  0.0000000E+00; -4.5756035E-04;  4.0000000E+04;  0.0000000E+00;  4.0062023E+04; -2.6379490E-01;  0.0000000E+00;  2.2478018E-02;  8.1643853E+03;
  3.2508650E-01;  9.9999998E-03; -1.9979076E-02;4426; -1.0385408E-01;  0.0000000E+00; -4.3887470E-04;  9.9538562E+02;  1.0000000E-01; -3.8229041E+03;3;  4.1874060E-01;  0.0000000E+00;  2.6111183E-01;0; -2.4120852E-01;  3.9572090E+04;  0.0000000E+00; -2.0044311E-03;  4.0000000E+04;  0.0000000E+00;  4.0060848E+04; -2.6386926E-01;  0.0000000E+00;  2.2660727E-02;  7.9981597E+03;
  3.2508650E-01;  9.9999998E-03;  1.9979078E-02;4430; -1.0385408E-01;  0.0000000E+00;  4.3890232E-04;  9.9538562E+02;  1.0000000E-01; -3.8229041E+03;3;  4.1879070E-01;  0.0000000E+00; -2.6109257E-01;0; -2.4120881E-01;  3.9572090E+04;  0.0000000E+00; -2.0042434E-03;  4.0000000E+04;  0.0000000E+00;  4.0060848E+04; -2.6386955E-01;  0.0000000E+00;  2.2660749E-02;  7.9981577E+03;
  3.2509315E-01;  9.9999998E-03; -2.9969597E-02;4425; -1.0383563E-01;  0.0000000E+00; -6.5102958E-04;  9.9552209E+02;  1.0000000E-01; -3.7098701E+03;3;  4.1554722E-01;  0.0000000E+00;  3.9146480E-01;0; -2.4104920E-01;  3.9584758E+04;  0.0000000E+00; -5.1513510E-03;  4.0000000E+04;  0.0000000E+00;  4.0058953E+04; -2.6401207E-01;  0.0000000E+00;  2.2962864E-02;  7.7515186E+03;
  3.2509315E-01;  9.9999998E-03;  2.9969599E-02;4431; -1.0383563E-01;  0.0000000E+00;  6.5105682E-04;  9.9552209E+02;  1.0000000E-01; -3.7098701E+03;3;  4.1562623E-01;  0.0000000E+00; -3.9145020E-01;0; -2.4104922E-01;  3.9584754E+04;  0.0000000E+00; -5.1511726E-03;  4.0000000E+04;  0.0000000E+00;  4.0058953E+04; -2.6401207E-01;  0.0000000E+00;  2.2962855E-02;  7.7515229E+03;
  3.2510278E-01;  9.9999998E-03; -3.9961208E-02;4424; -1.0380201E-01;  0.0000000E+00; -8.5729267E-04;  9.9570026E+02;  1.0000000E-01; -3.5622693E+03;3;  4.1028294E-01;  0.0000000E+00;  5.1943874E-01;0; -2.4086963E-01;  3.9601180E+04;  0.0000000E+00; -1.0709079E-02;  4.0000000E+04;  0.0000000E+00;  4.0056656E+04; -2.6424816E-01;  0.0000000E+00;  2.3378531E-02;  7.4650249E+03;
  3.2510278E-01;  9.9999998E-03;  3.9961208E-02;4432; -1.0380200E-01;  0.0000000E+00;  8.5732492E-04;  9.9570020E+02;  1.0000000E-01; -3.5623188E+03;3;  4.1020897E-01;  0.0000000E+00; -5.1944989E-01;0; -2.4086979E-01;  3.9601184E+04;  0.0000000E+00; -1.0709108E-02;  4.0000000E+04;  0.0000000E+00;  4.0056656E+04; -2.6424834E-01;  0.0000000E+00;  2.3378553E-02;  7.4650439E+03;
  3.2511538E-01;  9.9999998E-03; -4.9954191E-02;4423; -1.0374581E-01;  0.0000000E+00; -1.0619868E-03;  9.9591162E+02;  1.0000000E-01; -3.3871631E+03;3;  3.9978763E-01;  0.0000000E+00;  6.5085375E-01;0; -2.4071297E-01;  3.9620105E+04;  0.0000000E+00; -1.9711209E-02;  4.0000000E+04;  0.0000000E+00;  4.0054676E+04; -2.6460853E-01;  0.0000000E+00;  2.3895564E-02;  7.1860225E+03;
  3.2511538E-01;  9.9999998E-03;  4.9954191E-02;4433; -1.0374580E-01;  0.0000000E+00;  1.0620179E-03;  9.9591156E+02;  1.0000000E-01; -3.3872126E+03;3;  3.9977881E-01;  0.0000000E+00; -6.5090883E-01;0; -2.4071306E-01;  3.9620105E+04;  0.0000000E+00; -1.9710271E-02;  4.0000000E+04;  0.0000000E+00;  4.0054680E+04; -2.6460862E-01;  0.0000000E+00;  2.3895558E-02;  7.1860342E+03;
  3.2513118E-01;  9.9999998E-03; -5.9948694E-02;4422; -1.0365910E-01;  0.0000000E+00; -1.2708360E-03;  9.9613898E+02;  1.0000000E-01; -3.1987734E+03;3;  3.8957980E-01;  0.0000000E+00;  7.7140433E-01;0; -2.4063167E-01;  3.9639875E+04;  0.0000000E+00; -3.3264428E-02;  4.0000000E+04;  0.0000000E+00;  4.0052938E+04; -2.6512480E-01;  0.0000000E+00;  2.4493130E-02;  6.9610161E+03;
  3.2513118E-01;  9.9999998E-03;  5.9948694E-02;4434; -1.0365909E-01;  0.0000000E+00;  1.2708710E-03;  9.9613898E+02;  1.0000000E-01; -3.1987734E+03;3;  3.8961601E-01;  0.0000000E+00; -7.7137679E-01;0; -2.4063145E-01;  3.9639875E+04;  0.0000000E+00; -3.3263087E-02;  4.0000000E+04;  0.0000000E+00;  4.0052938E+04; -2.6512459E-01;  0.0000000E+00;  2.4493145E-02;  6.9610308E+03;
  3.2515025E-01;  9.9999998E-03; -6.9944754E-02;4421; -1.0353483E-01;  0.0000000E+00; -1.4909178E-03;  9.9636267E+02;  1.0000000E-01; -3.0134453E+03;3;  3.7418213E-01;  0.0000000E+00;  8.9673799E-01;0; -2.4068475E-01;  3.9658664E+04;  0.0000000E+00; -5.2306056E-02;  4.0000000E+04;  0.0000000E+00;  4.0052102E+04; -2.6582474E-01;  0.0000000E+00;  2.5139993E-02;  6.8281704E+03;
  3.2517207E-01;  9.9999998E-03; -7.9942331E-02;4420; -1.0336503E-01;  0.0000000E+00; -1.7342702E-03;  9.9656531E+02;  1.0000000E-01; -2.8455984E+03;3;  3.5507908E-01;  0.0000000E+00;  1.0260091E+00;0; -2.4093547E-01;  3.9674957E+04;  0.0000000E+00; -7.7251069E-02;  4.0000000E+04;  0.0000000E+00;  4.0052082E+04; -2.6673076E-01;  0.0000000E+00;  2.5795285E-02;  6.8112749E+03;
  3.2519570E-01;  9.9999998E-03; -8.9940973E-02;4419; -1.0314493E-01;  0.0000000E+00; -2.0078805E-03;  9.9672467E+02;  1.0000000E-01; -2.7135527E+03;3;  3.3320010E-01;  0.0000000E+00;  1.1582922E+00;0; -2.4144123E-01;  3.9686848E+04;  0.0000000E+00; -1.0753925E-01;  4.0000000E+04;  0.0000000E+00;  4.0053059E+04; -2.6785386E-01;  0.0000000E+00;  2.6412621E-02;  6.9161499E+03;
  3.2522023E-01;  9.9999998E-03; -9.9939965E-02;4418; -1.0287327E-01;  0.0000000E+00; -2.3156712E-03;  9.9682037E+02;  1.0000000E-01; -2.6342463E+03;3;  3.1168938E-01;  0.0000000E+00;  1.2787338E+00;0; -2.4224718E-01;  3.9692867E+04;  0.0000000E+00; -1.4109075E-01;  4.0000000E+04;  0.0000000E+00;  4.0054746E+04; -2.6919430E-01;  0.0000000E+00;  2.6947130E-02;  7.1291943E+03;
  3.3523142E-01;  9.9999998E-03; -9.9933259E-02;4479; -1.0547186E-01;  0.0000000E+00; -2.4750454E-03;  9.9669684E+02;  1.0000000E-01; -2.7366138E+03;3;  4.4196457E-01;  0.0000000E+00;  1.3916601E+00;0; -2.4002373E-01;  3.9685754E+04;  0.0000000E+00; -1.3201346E-01;  4.0000000E+04;  0.0000000E+00;  4.0052285E+04; -2.6835635E-01;  0.0000000E+00;  2.8332628E-02;  6.8246396E+03;
  3.3521697E-01;  9.9999998E-03; -8.9934558E-02;4480; -1.0572544E-01;  0.0000000E+00; -2.1689462E-03;  9.9654681E+02;  1.0000000E-01; -2.8609065E+03;3;  4.6702686E-01;  0.0000000E+00;  1.2596958E+00;0; -2.3948377E-01;  3.9674996E+04;  0.0000000E+00; -9.7071692E-02;  4.0000000E+04;  0.0000000E+00;  4.0050934E+04; -2.6725164E-01;  0.0000000E+00;  2.7767859E-02;  6.6732832E+03;
  3.3520451E-01;  9.9999998E-03; -7.9936706E-02;4481; -1.0593660E-01;  0.0000000E+00; -1.8955135E-03;  9.9634271E+02;  1.0000000E-01; -3.0299880E+03;3;  4.9112341E-01;  0.0000000E+00;  1.1242346E+00;0; -2.3921463E-01;  3.9659082E+04;  0.0000000E+00; -6.7336462E-02;  4.0000000E+04;  0.0000000E+00;  4.0050500E+04; -2.6636964E-01;  0.0000000E+00;  2.7155014E-02;  6.6327856E+03;
  3.3519417E-01;  9.9999998E-03; -6.9940113E-02;4482; -1.0610601E-01;  0.0000000E+00; -1.6490910E-03;  9.9610352E+02;  1.0000000E-01; -3.2281553E+03;3;  5.1352233E-01;  0.0000000E+00;  9.8660082E-01;0; -2.3916568E-01;  3.9639590E+04;  0.0000000E+00; -4.3888122E-02;  4.0000000E+04;  0.0000000E+00;  4.0050934E+04; -2.6570415E-01;  0.0000000E+00;  2.6538474E-02;  6.7100664E+03;
  3.3518606E-01;  9.9999998E-03; -5.9944976E-02;4483; -1.0623736E-01;  0.0000000E+00; -1.4202665E-03;  9.9585162E+02;  1.0000000E-01; -3.4368408E+03;3;  5.3057587E-01;  0.0000000E+00;  8.5015094E-01;0; -2.3927727E-01;  3.9617996E+04;  0.0000000E+00; -2.6657384E-02;  4.0000000E+04;  0.0000000E+00;  4.0052207E+04; -2.6523644E-01;  0.0000000E+00;  2.5959171E-02;  6.8948521E+03;
  3.3518043E-01;  9.9999998E-03; -4.9951345E-02;4484; -1.0633598E-01;  0.0000000E+00; -1.1973679E-03;  9.9560132E+02;  1.0000000E-01; -3.6442424E+03;3;  5.4335517E-01;  0.0000000E+00;  7.1588045E-01;0; -2.3948789E-01;  3.9596281E+04;  0.0000000E+00; -1.4890463E-02;  4.0000000E+04;  0.0000000E+00;  4.0054258E+04; -2.6493657E-01;  0.0000000E+00;  2.5448687E-02;  7.1610889E+03;
  3.3517727E-01;  9.9999998E-03; -3.9959114E-02;4485; -1.0640699E-01;  0.0000000E+00; -9.7295287E-04;  9.9537622E+02;  1.0000000E-01; -3.8307063E+03;3;  5.5483288E-01;  0.0000000E+00;  5.7222879E-01;0; -2.3974125E-01;  3.9575980E+04;  0.0000000E+00; -7.4919793E-03;  4.0000000E+04;  0.0000000E+00;  4.0056574E+04; -2.6476789E-01;  0.0000000E+00;  2.5026631E-02;  7.4705142E+03;
  3.3517590E-01;  9.9999998E-03; -2.9968174E-02;4486; -1.0645562E-01;  0.0000000E+00; -7.4193883E-04;  9.9518640E+02;  1.0000000E-01; -3.9879856E+03;3;  5.6382030E-01;  0.0000000E+00;  4.2959017E-01;0; -2.3998879E-01;  3.9558566E+04;  0.0000000E+00; -3.2754822E-03;  4.0000000E+04;  0.0000000E+00;  4.0058871E+04; -2.6469031E-01;  0.0000000E+00;  2.4701521E-02;  7.7778975E+03;
  3.3517569E-01;  9.9999998E-03; -1.9978272E-02;4487; -1.0648663E-01;  0.0000000E+00; -5.0177955E-04;  9.9504462E+02;  1.0000000E-01; -4.1054639E+03;3;  5.6954491E-01;  0.0000000E+00;  2.8406519E-01;0; -2.4019314E-01;  3.9545195E+04;  0.0000000E+00; -1.1475239E-03;  4.0000000E+04;  0.0000000E+00;  4.0060816E+04; -2.6466694E-01;  0.0000000E+00;  2.4473803E-02;  8.0376650E+03;
  3.3517593E-01;  9.9999998E-03; -9.9890288E-03;4488; -1.0650374E-01;  0.0000000E+00; -2.5318901E-04;  9.9495465E+02;  1.0000000E-01; -4.1799805E+03;3;  5.7337022E-01;  0.0000000E+00;  1.4363542E-01;0; -2.4032654E-01;  3.9536969E+04;  0.0000000E+00; -2.3980485E-04;  4.0000000E+04;  0.0000000E+00;  4.0062172E+04; -2.6466647E-01;  0.0000000E+00;  2.4339925E-02;  8.2109902E+03;
  3.3517611E-01;  9.9999998E-03;  3.7998948E-10;4489; -1.0650919E-01;  0.0000000E+00;  1.4333615E-08;  9.9492480E+02;  1.0000000E-01; -4.2047202E+03;3;  5.7450461E-01;  0.0000000E+00;  1.0416505E-05;0; -2.4037279E-01;  3.9534074E+04;  0.0000000E+00;  1.2101186E-12;  4.0000000E+04;  0.0000000E+00;  4.0062633E+04; -2.6466864E-01;  0.0000000E+00;  2.4295857E-02;  8.2718457E+03;
  3.3517593E-01;  9.9999998E-03;  9.9890297E-03;4490; -1.0650374E-01;  0.0000000E+00;  2.5321881E-04;  9.9495465E+02;  1.0000000E-01; -4.1799805E+03;3;  5.7337624E-01;  0.0000000E+00; -1.4362198E-01;0; -2.4032626E-01;  3.9536969E+04;  0.0000000E+00; -2.3976347E-04;  4.0000000E+04;  0.0000000E+00;  4.0062172E+04; -2.6466617E-01;  0.0000000E+00;  2.4339922E-02;  8.2109961E+03;
  3.3517569E-01;  9.9999998E-03;  1.9978272E-02;4491; -1.0648662E-01;  0.0000000E+00;  5.0181011E-04;  9.9504456E+02;  1.0000000E-01; -4.1055132E+03;3;  5.6956583E-01;  0.0000000E+00; -2.8402126E-01;0; -2.4019329E-01;  3.9545195E+04;  0.0000000E+00; -1.1476428E-03;  4.0000000E+04;  0.0000000E+00;  4.0060816E+04; -2.6466712E-01;  0.0000000E+00;  2.4473829E-02;  8.0376670E+03;
  3.3517590E-01;  9.9999998E-03;  2.9968174E-02;4492; -1.0645561E-01;  0.0000000E+00;  7.4196933E-04;  9.9518640E+02;  1.0000000E-01; -3.9879856E+03;3;  5.6388402E-01;  0.0000000E+00; -4.2954874E-01;0; -2.3998901E-01;  3.9558566E+04;  0.0000000E+00; -3.2756513E-03;  4.0000000E+04;  0.0000000E+00;  4.0058871E+04; -2.6469052E-01;  0.0000000E+00;  2.4701513E-02;  7.7779023E+03;
  3.3517727E-01;  9.9999998E-03;  3.9959118E-02;4493; -1.0640698E-01;  0.0000000E+00;  9.7297906E-04;  9.9537622E+02;  1.0000000E-01; -3.8307063E+03;3;  5.5475950E-01;  0.0000000E+00; -5.7227498E-01;0; -2.3974159E-01;  3.9575977E+04;  0.0000000E+00; -7.4921390E-03;  4.0000000E+04;  0.0000000E+00;  4.0056582E+04; -2.6476824E-01;  0.0000000E+00;  2.5026644E-02;  7.4705225E+03;
  3.3518043E-01;  9.9999998E-03;  4.9951345E-02;4494; -1.0633598E-01;  0.0000000E+00;  1.1973984E-03;  9.9560132E+02;  1.0000000E-01; -3.6442424E+03;3;  5.4331613E-01;  0.0000000E+00; -7.1578586E-01;0; -2.3948805E-01;  3.9596281E+04;  0.0000000E+00; -1.4890727E-02;  4.0000000E+04;  0.0000000E+00;  4.0054258E+04; -2.6493675E-01;  0.0000000E+00;  2.5448691E-02;  7.1610981E+03;
  3.3518606E-01;  9.9999998E-03;  5.9944976E-02;4495; -1.0623734E-01;  0.0000000E+00;  1.4202967E-03;  9.9585168E+02;  1.0000000E-01; -3.4367915E+03;3;  5.3072774E-01;  0.0000000E+00; -8.5017949E-01;0; -2.3927726E-01;  3.9617996E+04;  0.0000000E+00; -2.6657421E-02;  4.0000000E+04;  0.0000000E+00;  4.0052207E+04; -2.6523644E-01;  0.0000000E+00;  2.5959184E-02;  6.8948594E+03;
  3.4524846E-01;  9.9999998E-03; -9.9926747E-02;4540; -1.0807062E-01;  0.0000000E+00; -2.6357668E-03;  9.9642786E+02;  1.0000000E-01; -2.9594717E+03;3;  5.8442456E-01;  0.0000000E+00;  1.5057135E+00;0; -2.3815167E-01;  3.9667414E+04;  0.0000000E+00; -1.0756677E-01;  4.0000000E+04;  0.0000000E+00;  4.0049203E+04; -2.6758438E-01;  0.0000000E+00;  2.9432718E-02;  6.4682314E+03;
  3.4524387E-01;  9.9999998E-03; -8.9928463E-02;4541; -1.0831567E-01;  0.0000000E+00; -2.3339898E-03;  9.9624225E+02;  1.0000000E-01; -3.1132451E+03;3;  6.1190730E-01;  0.0000000E+00;  1.3658621E+00;0; -2.3786137E-01;  3.9653387E+04;  0.0000000E+00; -7.3241092E-02;  4.0000000E+04;  0.0000000E+00;  4.0048395E+04; -2.6673788E-01;  0.0000000E+00;  2.8876511E-02;  6.3814341E+03;
  3.4524241E-01;  9.9999998E-03; -7.9931319E-02;4542; -1.0852748E-01;  0.0000000E+00; -2.0621838E-03;  9.9601129E+02;  1.0000000E-01; -3.3045483E+03;3;  6.3885587E-01;  0.0000000E+00;  1.2227730E+00;0; -2.3781016E-01;  3.9635055E+04;  0.0000000E+00; -4.5700699E-02;  4.0000000E+04;  0.0000000E+00;  4.0048453E+04; -2.6611352E-01;  0.0000000E+00;  2.8303348E-02;  6.4034668E+03;
  3.4524363E-01;  9.9999998E-03; -6.9935635E-02;4543; -1.0870606E-01;  0.0000000E+00; -1.8121824E-03;  9.9575696E+02;  1.0000000E-01; -3.5152583E+03;3;  6.6403818E-01;  0.0000000E+00;  1.0821064E+00;0; -2.3794249E-01;  3.9613840E+04;  0.0000000E+00; -2.5405383E-02;  4.0000000E+04;  0.0000000E+00;  4.0049316E+04; -2.6569843E-01;  0.0000000E+00;  2.7755942E-02;  6.5358652E+03;
  3.4524727E-01;  9.9999998E-03; -5.9941351E-02;4544; -1.0885324E-01;  0.0000000E+00; -1.5734918E-03;  9.9549506E+02;  1.0000000E-01; -3.7322397E+03;3;  6.8431866E-01;  0.0000000E+00;  9.3470055E-01;0; -2.3819838E-01;  3.9591219E+04;  0.0000000E+00; -1.1832721E-02;  4.0000000E+04;  0.0000000E+00;  4.0051031E+04; -2.6546741E-01;  0.0000000E+00;  2.7269023E-02;  6.7652954E+03;
  3.4525242E-01;  9.9999998E-03; -4.9948495E-02;4545; -1.0897167E-01;  0.0000000E+00; -1.3352004E-03;  9.9524371E+02;  1.0000000E-01; -3.9404810E+03;3;  7.0027697E-01;  0.0000000E+00;  7.8946579E-01;0; -2.3851922E-01;  3.9569242E+04;  0.0000000E+00; -3.8554696E-03;  4.0000000E+04;  0.0000000E+00;  4.0053223E+04; -2.6538393E-01;  0.0000000E+00;  2.6864706E-02;  7.0648667E+03;
  3.4525871E-01;  9.9999998E-03; -3.9956905E-02;4546; -1.0906399E-01;  0.0000000E+00; -1.0903353E-03;  9.9501935E+02;  1.0000000E-01; -4.1263521E+03;3;  7.1553373E-01;  0.0000000E+00;  6.3194042E-01;0; -2.3885188E-01;  3.9548879E+04;  0.0000000E+00; -4.9442697E-05;  4.0000000E+04;  0.0000000E+00;  4.0055887E+04; -2.6540321E-01;  0.0000000E+00;  2.6551329E-02;  7.3971553E+03;
  3.4526512E-01;  9.9999998E-03; -2.9966556E-02;4547; -1.0913275E-01;  0.0000000E+00; -8.3408412E-04;  9.9483423E+02;  1.0000000E-01; -4.2797305E+03;3;  7.2752106E-01;  0.0000000E+00;  4.7807756E-01;0; -2.3915398E-01;  3.9531836E+04;  0.0000000E+00;  1.0654829E-03;  4.0000000E+04;  0.0000000E+00;  4.0058145E+04; -2.6547980E-01;  0.0000000E+00;  2.6325829E-02;  7.7187510E+03;
  3.4527013E-01;  9.9999998E-03; -1.9977249E-02;4548; -1.0918016E-01;  0.0000000E+00; -5.6515256E-04;  9.9469556E+02;  1.0000000E-01; -4.3946406E+03;3;  7.3552114E-01;  0.0000000E+00;  3.1917971E-01;0; -2.3939285E-01;  3.9518816E+04;  0.0000000E+00;  8.2469929E-04;  4.0000000E+04;  0.0000000E+00;  4.0060102E+04; -2.6557076E-01;  0.0000000E+00;  2.6177920E-02;  7.9864751E+03;
  3.4527379E-01;  9.9999998E-03; -9.9884234E-03;4549; -1.0920803E-01;  0.0000000E+00; -2.8531489E-04;  9.9461066E+02;  1.0000000E-01; -4.4649600E+03;3;  7.4052107E-01;  0.0000000E+00;  1.6476773E-01;0; -2.3954463E-01;  3.9510766E+04;  0.0000000E+00;  2.5876018E-04;  4.0000000E+04;  0.0000000E+00;  4.0061613E+04; -2.6564029E-01;  0.0000000E+00;  2.6095657E-02;  8.1635752E+03;
  3.4527493E-01;  9.9999998E-03;  3.7022282E-10;4550; -1.0921718E-01;  0.0000000E+00;  1.4862142E-08;  9.9458264E+02;  1.0000000E-01; -4.4881689E+03;3;  7.4228847E-01;  0.0000000E+00;  1.4301189E-05;0; -2.3959647E-01;  3.9507938E+04;  0.0000000E+00;  1.6860347E-12;  4.0000000E+04;  0.0000000E+00;  4.0062090E+04; -2.6566583E-01;  0.0000000E+00;  2.6069360E-02;  8.2254893E+03;
  3.4527379E-01;  9.9999998E-03;  9.9884244E-03;4551; -1.0920803E-01;  0.0000000E+00;  2.8534664E-04;  9.9461066E+02;  1.0000000E-01; -4.4649600E+03;3;  7.4051410E-01;  0.0000000E+00; -1.6473088E-01;0; -2.3954482E-01;  3.9510766E+04;  0.0000000E+00;  2.5862089E-04;  4.0000000E+04;  0.0000000E+00;  4.0061613E+04; -2.6564047E-01;  0.0000000E+00;  2.6095640E-02;  8.1635850E+03;
  3.4527016E-01;  9.9999998E-03;  1.9977251E-02;4552; -1.0918014E-01;  0.0000000E+00;  5.6518440E-04;  9.9469556E+02;  1.0000000E-01; -4.3946406E+03;3;  7.3554939E-01;  0.0000000E+00; -3.1917924E-01;0; -2.3939282E-01;  3.9518816E+04;  0.0000000E+00;  8.2433340E-04;  4.0000000E+04;  0.0000000E+00;  4.0060102E+04; -2.6557076E-01;  0.0000000E+00;  2.6177937E-02;  7.9864736E+03;
  3.4526512E-01;  9.9999998E-03;  2.9966556E-02;4553; -1.0913274E-01;  0.0000000E+00;  8.3411671E-04;  9.9483429E+02;  1.0000000E-01; -4.2796812E+03;3;  7.2758007E-01;  0.0000000E+00; -4.7804502E-01;0; -2.3915401E-01;  3.9531844E+04;  0.0000000E+00;  1.0653759E-03;  4.0000000E+04;  0.0000000E+00;  4.0058145E+04; -2.6547980E-01;  0.0000000E+00;  2.6325800E-02;  7.7187559E+03;
  3.4525871E-01;  9.9999998E-03;  3.9956905E-02;4554; -1.0906398E-01;  0.0000000E+00;  1.0903678E-03;  9.9501929E+02;  1.0000000E-01; -4.1264014E+03;3;  7.1565044E-01;  0.0000000E+00; -6.3195205E-01;0; -2.3885195E-01;  3.9548879E+04;  0.0000000E+00; -4.9494218E-05;  4.0000000E+04;  0.0000000E+00;  4.0055887E+04; -2.6540327E-01;  0.0000000E+00;  2.6551323E-02;  7.3971543E+03;
  3.4525242E-01;  9.9999998E-03;  4.9948499E-02;4555; -1.0897167E-01;  0.0000000E+00;  1.3352326E-03;  9.9524371E+02;  1.0000000E-01; -3.9404810E+03;3;  7.0023900E-01;  0.0000000E+00; -7.8940314E-01;0; -2.3851918E-01;  3.9569242E+04;  0.0000000E+00; -3.8558932E-03;  4.0000000E+04;  0.0000000E+00;  4.0053223E+04; -2.6538390E-01;  0.0000000E+00;  2.6864717E-02;  7.0648813E+03;
  3.4524727E-01;  9.9999998E-03;  5.9941351E-02;4556; -1.0885324E-01;  0.0000000E+00;  1.5735184E-03;  9.9549506E+02;  1.0000000E-01; -3.7322397E+03;3;  6.8428701E-01;  0.0000000E+00; -9.3477821E-01;0; -2.3819877E-01;  3.9591215E+04;  0.0000000E+00; -1.1832595E-02;  4.0000000E+04;  0.0000000E+00;  4.0051031E+04; -2.6546779E-01;  0.0000000E+00;  2.7269023E-02;  6.7652983E+03;
  3.5527363E-01;  9.9999998E-03; -9.9922605E-02;4601; -1.1067747E-01;  0.0000000E+00; -2.7940227E-03;  9.9604224E+02;  1.0000000E-01; -3.2789194E+03;3;  7.3701000E-01;  0.0000000E+00;  1.6302204E+00;0; -2.3656070E-01;  3.9640117E+04;  0.0000000E+00; -7.1624942E-02;  4.0000000E+04;  0.0000000E+00;  4.0045883E+04; -2.6681429E-01;  0.0000000E+00;  3.0253582E-02;  6.0878164E+03;
  3.5527796E-01;  9.9999998E-03; -8.9924790E-02;4602; -1.1092286E-01;  0.0000000E+00; -2.4983217E-03;  9.9584259E+02;  1.0000000E-01; -3.4443467E+03;3;  7.6898944E-01;  0.0000000E+00;  1.4804205E+00;0; -2.3648494E-01;  3.9624500E+04;  0.0000000E+00; -4.0199615E-02;  4.0000000E+04;  0.0000000E+00;  4.0045590E+04; -2.6622602E-01;  0.0000000E+00;  2.9741073E-02;  6.0620688E+03;
  3.5528591E-01;  9.9999998E-03; -7.9928041E-02;4603; -1.1114382E-01;  0.0000000E+00; -2.2280999E-03;  9.9560663E+02;  1.0000000E-01; -3.6398474E+03;3;  7.9975754E-01;  0.0000000E+00;  1.3310175E+00;0; -2.3661385E-01;  3.9605340E+04;  0.0000000E+00; -1.6804444E-02;  4.0000000E+04;  0.0000000E+00;  4.0046156E+04; -2.6585177E-01;  0.0000000E+00;  2.9237907E-02;  6.1397046E+03;
  3.5529706E-01;  9.9999998E-03; -6.9932587E-02;4604; -1.1133943E-01;  0.0000000E+00; -1.9744437E-03;  9.9535535E+02;  1.0000000E-01; -3.8479897E+03;3;  8.2666600E-01;  0.0000000E+00;  1.1757737E+00;0; -2.3689035E-01;  3.9584090E+04;  0.0000000E+00; -1.4453677E-03;  4.0000000E+04;  0.0000000E+00;  4.0047340E+04; -2.6567432E-01;  0.0000000E+00;  2.8783977E-02;  6.3180884E+03;
  3.5531074E-01;  9.9999998E-03; -5.9938483E-02;4605; -1.1150928E-01;  0.0000000E+00; -1.7253876E-03;  9.9510394E+02;  1.0000000E-01; -4.0562800E+03;3;  8.5169142E-01;  0.0000000E+00;  1.0197412E+00;0; -2.3725477E-01;  3.9562266E+04;  0.0000000E+00;  6.8441341E-03;  4.0000000E+04;  0.0000000E+00;  4.0049250E+04; -2.6566228E-01;  0.0000000E+00;  2.8407509E-02;  6.5819224E+03;
  3.5532582E-01;  9.9999998E-03; -4.9945749E-02;4606; -1.1165369E-01;  0.0000000E+00; -1.4714209E-03;  9.9486945E+02;  1.0000000E-01; -4.2505459E+03;3;  8.7112963E-01;  0.0000000E+00;  8.6370707E-01;0; -2.3765332E-01;  3.9541293E+04;  0.0000000E+00;  9.6352482E-03;  4.0000000E+04;  0.0000000E+00;  4.0051734E+04; -2.6577473E-01;  0.0000000E+00;  2.8121408E-02;  6.9043428E+03;
  3.5534033E-01;  9.9999998E-03; -3.9954588E-02;4607; -1.1177226E-01;  0.0000000E+00; -1.2057212E-03;  9.9466364E+02;  1.0000000E-01; -4.4210596E+03;3;  8.9082605E-01;  0.0000000E+00;  6.9935393E-01;0; -2.3803817E-01;  3.9522441E+04;  0.0000000E+00;  8.7696631E-03;  4.0000000E+04;  0.0000000E+00;  4.0054230E+04; -2.6596189E-01;  0.0000000E+00;  2.7923713E-02;  7.2494805E+03;
  3.5535222E-01;  9.9999998E-03; -2.9964970E-02;4608; -1.1186479E-01;  0.0000000E+00; -9.2461641E-04;  9.9449493E+02;  1.0000000E-01; -4.5608584E+03;3;  9.0434480E-01;  0.0000000E+00;  5.2841008E-01;0; -2.3837233E-01;  3.9506656E+04;  0.0000000E+00;  6.0597816E-03;  4.0000000E+04;  0.0000000E+00;  4.0056863E+04; -2.6617324E-01;  0.0000000E+00;  2.7800912E-02;  7.5765083E+03;
  3.5536072E-01;  9.9999998E-03; -1.9976383E-02;4609; -1.1193106E-01;  0.0000000E+00; -6.2739319E-04;  9.9436963E+02;  1.0000000E-01; -4.6646577E+03;3;  9.1525477E-01;  0.0000000E+00;  3.6045942E-01;0; -2.3862922E-01;  3.9494727E+04;  0.0000000E+00;  3.0405233E-03;  4.0000000E+04;  0.0000000E+00;  4.0058949E+04; -2.6636294E-01;  0.0000000E+00;  2.7733717E-02;  7.8451782E+03;
  3.5536522E-01;  9.9999998E-03; -9.9882605E-03;4610; -1.1197079E-01;  0.0000000E+00; -3.1737101E-04;  9.9429535E+02;  1.0000000E-01; -4.7261870E+03;3;  9.2236108E-01;  0.0000000E+00;  1.7970203E-01;0; -2.3879018E-01;  3.9487496E+04;  0.0000000E+00;  8.1052264E-04;  4.0000000E+04;  0.0000000E+00;  4.0060238E+04; -2.6649293E-01;  0.0000000E+00;  2.7702741E-02;  8.0215039E+03;
  3.5536632E-01;  9.9999998E-03;  3.7704917E-10;4611; -1.1198393E-01;  0.0000000E+00;  1.6559106E-08;  9.9427032E+02;  1.0000000E-01; -4.7469272E+03;3;  9.2552185E-01;  0.0000000E+00;  1.2971112E-05;0; -2.3884501E-01;  3.9485004E+04;  0.0000000E+00;  1.4744914E-13;  4.0000000E+04;  0.0000000E+00;  4.0060703E+04; -2.6653910E-01;  0.0000000E+00;  2.7694089E-02;  8.0829160E+03;
  3.5536522E-01;  9.9999998E-03;  9.9882605E-03;4612; -1.1197078E-01;  0.0000000E+00;  3.1740358E-04;  9.9429535E+02;  1.0000000E-01; -4.7261870E+03;3;  9.2236602E-01;  0.0000000E+00; -1.7968184E-01;0; -2.3878986E-01;  3.9487496E+04;  0.0000000E+00;  8.1040966E-04;  4.0000000E+04;  0.0000000E+00;  4.0060238E+04; -2.6649261E-01;  0.0000000E+00;  2.7702751E-02;  8.0215103E+03;
  3.5536072E-01;  9.9999998E-03;  1.9976383E-02;4613; -1.1193106E-01;  0.0000000E+00;  6.2742765E-04;  9.9436963E+02;  1.0000000E-01; -4.6646577E+03;3;  9.1529816E-01;  0.0000000E+00; -3.6041024E-01;0; -2.3862942E-01;  3.9494723E+04;  0.0000000E+00;  3.0402711E-03;  4.0000000E+04;  0.0000000E+00;  4.0058949E+04; -2.6636314E-01;  0.0000000E+00;  2.7733728E-02;  7.8451826E+03;
  3.5535222E-01;  9.9999998E-03;  2.9964970E-02;4614; -1.1186478E-01;  0.0000000E+00;  9.2465110E-04;  9.9449493E+02;  1.0000000E-01; -4.5608584E+03;3;  9.0438658E-01;  0.0000000E+00; -5.2842301E-01;0; -2.3837250E-01;  3.9506656E+04;  0.0000000E+00;  6.0592000E-03;  4.0000000E+04;  0.0000000E+00;  4.0056863E+04; -2.6617339E-01;  0.0000000E+00;  2.7800888E-02;  7.5765083E+03;
  3.5534033E-01;  9.9999998E-03;  3.9954588E-02;4615; -1.1177225E-01;  0.0000000E+00;  1.2057545E-03;  9.9466370E+02;  1.0000000E-01; -4.4210103E+03;3;  8.9094371E-01;  0.0000000E+00; -6.9930834E-01;0; -2.3803833E-01;  3.9522434E+04;  0.0000000E+00;  8.7689217E-03;  4.0000000E+04;  0.0000000E+00;  4.0054230E+04; -2.6596206E-01;  0.0000000E+00;  2.7923726E-02;  7.2494883E+03;
  3.5532582E-01;  9.9999998E-03;  4.9945753E-02;4616; -1.1165369E-01;  0.0000000E+00;  1.4714587E-03;  9.9486945E+02;  1.0000000E-01; -4.2505459E+03;3;  8.7115067E-01;  0.0000000E+00; -8.6367553E-01;0; -2.3765355E-01;  3.9541289E+04;  0.0000000E+00;  9.6357726E-03;  4.0000000E+04;  0.0000000E+00;  4.0051734E+04; -2.6577500E-01;  0.0000000E+00;  2.8121440E-02;  6.9043467E+03;
  3.5531074E-01;  9.9999998E-03;  5.9938483E-02;4617; -1.1150927E-01;  0.0000000E+00;  1.7254208E-03;  9.9510394E+02;  1.0000000E-01; -4.0562800E+03;3;  8.5154885E-01;  0.0000000E+00; -1.0196881E+00;0; -2.3725480E-01;  3.9562266E+04;  0.0000000E+00;  6.8432610E-03;  4.0000000E+04;  0.0000000E+00;  4.0049250E+04; -2.6566231E-01;  0.0000000E+00;  2.8407510E-02;  6.5819287E+03;
  3.6530995E-01;  9.9999998E-03; -9.9922277E-02;4662; -1.1329843E-01;  0.0000000E+00; -2.9457537E-03;  9.9558228E+02;  1.0000000E-01; -3.6599949E+03;3;  9.0218633E-01;  0.0000000E+00;  1.7546936E+00;0; -2.3515037E-01;  3.9606809E+04;  0.0000000E+00; -2.9169254E-02;  4.0000000E+04;  0.0000000E+00;  4.0042570E+04; -2.6596409E-01;  0.0000000E+00;  3.0813731E-02;  5.7091621E+03;
  3.6532167E-01;  9.9999998E-03; -8.9924775E-02;4663; -1.1355187E-01;  0.0000000E+00; -2.6564824E-03;  9.9538202E+02;  1.0000000E-01; -3.8259163E+03;3;  9.3816787E-01;  0.0000000E+00;  1.5948820E+00;0; -2.3523620E-01;  3.9590863E+04;  0.0000000E+00; -3.1446165E-03;  4.0000000E+04;  0.0000000E+00;  4.0042672E+04; -2.6560965E-01;  0.0000000E+00;  3.0373454E-02;  5.7356753E+03;
  3.6533776E-01;  9.9999998E-03; -7.9928041E-02;4664; -1.1378908E-01;  0.0000000E+00; -2.3874028E-03;  9.9516089E+02;  1.0000000E-01; -4.0091208E+03;3;  9.7216535E-01;  0.0000000E+00;  1.4389604E+00;0; -2.3549306E-01;  3.9572574E+04;  0.0000000E+00;  1.4063951E-02;  4.0000000E+04;  0.0000000E+00;  4.0043535E+04; -2.6545641E-01;  0.0000000E+00;  2.9963344E-02;  5.8576938E+03;
  3.6535746E-01;  9.9999998E-03; -6.9932126E-02;4665; -1.1400769E-01;  0.0000000E+00; -2.1286679E-03;  9.9493231E+02;  1.0000000E-01; -4.1984980E+03;3;  1.0040381E+00;  0.0000000E+00;  1.2712588E+00;0; -2.3586303E-01;  3.9552914E+04;  0.0000000E+00;  2.2931373E-02;  4.0000000E+04;  0.0000000E+00;  4.0045160E+04; -2.6548240E-01;  0.0000000E+00;  2.9619358E-02;  6.0694365E+03;
  3.6537901E-01;  9.9999998E-03; -5.9937309E-02;4666; -1.1420507E-01;  0.0000000E+00; -1.8689677E-03;  9.9470953E+02;  1.0000000E-01; -4.3830361E+03;3;  1.0339559E+00;  0.0000000E+00;  1.1051052E+00;0; -2.3629075E-01;  3.9533211E+04;  0.0000000E+00;  2.4916198E-02;  4.0000000E+04;  0.0000000E+00;  4.0047062E+04; -2.6565376E-01;  0.0000000E+00;  2.9363010E-02;  6.3544395E+03;
  3.6539957E-01;  9.9999998E-03; -4.9944211E-02;4667; -1.1437869E-01;  0.0000000E+00; -1.5993238E-03;  9.9450531E+02;  1.0000000E-01; -4.5522661E+03;3;  1.0576904E+00;  0.0000000E+00;  9.3604994E-01;0; -2.3672540E-01;  3.9514668E+04;  0.0000000E+00;  2.2044621E-02;  4.0000000E+04;  0.0000000E+00;  4.0049672E+04; -2.6592425E-01;  0.0000000E+00;  2.9198842E-02;  6.6866475E+03;
  3.6541688E-01;  9.9999998E-03; -3.9953198E-02;4668; -1.1452571E-01;  0.0000000E+00; -1.3139291E-03;  9.9432843E+02;  1.0000000E-01; -4.6987803E+03;3;  1.0797600E+00;  0.0000000E+00;  7.6062799E-01;0; -2.3712775E-01;  3.9498238E+04;  0.0000000E+00;  1.6502298E-02;  4.0000000E+04;  0.0000000E+00;  4.0052301E+04; -2.6624367E-01;  0.0000000E+00;  2.9115913E-02;  7.0323452E+03;
  3.6543000E-01;  9.9999998E-03; -2.9963998E-02;4669; -1.1464341E-01;  0.0000000E+00; -1.0088952E-03;  9.9418817E+02;  1.0000000E-01; -4.8149746E+03;3;  1.0974348E+00;  0.0000000E+00;  5.8608717E-01;0; -2.3746715E-01;  3.9484527E+04;  0.0000000E+00;  1.0265688E-02;  4.0000000E+04;  0.0000000E+00;  4.0054770E+04; -2.6655963E-01;  0.0000000E+00;  2.9092481E-02;  7.3540249E+03;
  3.6543903E-01;  9.9999998E-03; -1.9975867E-02;4670; -1.1472955E-01;  0.0000000E+00; -6.8570831E-04;  9.9408362E+02;  1.0000000E-01; -4.9015894E+03;3;  1.1120244E+00;  0.0000000E+00;  3.9573926E-01;0; -2.3772240E-01;  3.9474465E+04;  0.0000000E+00;  4.8525985E-03;  4.0000000E+04;  0.0000000E+00;  4.0056852E+04; -2.6682439E-01;  0.0000000E+00;  2.9102001E-02;  7.6150615E+03;
  3.6544359E-01;  9.9999998E-03; -9.9880407E-03;4671; -1.1478202E-01;  0.0000000E+00; -3.4725171E-04;  9.9402240E+02;  1.0000000E-01; -4.9523042E+03;3;  1.1195421E+00;  0.0000000E+00;  2.0281830E-01;0; -2.3788022E-01;  3.9468227E+04;  0.0000000E+00;  1.2539226E-03;  4.0000000E+04;  0.0000000E+00;  4.0058043E+04; -2.6699966E-01;  0.0000000E+00;  2.9119441E-02;  7.7851138E+03;
  3.6544517E-01;  9.9999998E-03;  3.8230333E-10;4672; -1.1479974E-01;  0.0000000E+00;  1.6172530E-08;  9.9400171E+02;  1.0000000E-01; -4.9694888E+03;3;  1.1224135E+00;  0.0000000E+00;  1.0899952E-05;0; -2.3793325E-01;  3.9466082E+04;  0.0000000E+00; -3.3634208E-14;  4.0000000E+04;  0.0000000E+00;  4.0058527E+04; -2.6706061E-01;  0.0000000E+00;  2.9127365E-02;  7.8441318E+03;
  3.6544359E-01;  9.9999998E-03;  9.9880416E-03;4673; -1.1478202E-01;  0.0000000E+00;  3.4728504E-04;  9.9402240E+02;  1.0000000E-01; -4.9523042E+03;3;  1.1195357E+00;  0.0000000E+00; -2.0278180E-01;0; -2.3787987E-01;  3.9468227E+04;  0.0000000E+00;  1.2537241E-03;  4.0000000E+04;  0.0000000E+00;  4.0058043E+04; -2.6699933E-01;  0.0000000E+00;  2.9119454E-02;  7.7851221E+03;
  3.6543903E-01;  9.9999998E-03;  1.9975869E-02;4674; -1.1472955E-01;  0.0000000E+00;  6.8574300E-04;  9.9408362E+02;  1.0000000E-01; -4.9015894E+03;3;  1.1120436E+00;  0.0000000E+00; -3.9570510E-01;0; -2.3772208E-01;  3.9474461E+04;  0.0000000E+00;  4.8522023E-03;  4.0000000E+04;  0.0000000E+00;  4.0056852E+04; -2.6682407E-01;  0.0000000E+00;  2.9101988E-02;  7.6150679E+03;
  3.6543000E-01;  9.9999998E-03;  2.9963998E-02;4675; -1.1464341E-01;  0.0000000E+00;  1.0089274E-03;  9.9418811E+02;  1.0000000E-01; -4.8150239E+03;3;  1.0975094E+00;  0.0000000E+00; -5.8607602E-01;0; -2.3746693E-01;  3.9484527E+04;  0.0000000E+00;  1.0265062E-02;  4.0000000E+04;  0.0000000E+00;  4.0054770E+04; -2.6655942E-01;  0.0000000E+00;  2.9092498E-02;  7.3540405E+03;
  3.6541688E-01;  9.9999998E-03;  3.9953198E-02;4676; -1.1452571E-01;  0.0000000E+00;  1.3139609E-03;  9.9432843E+02;  1.0000000E-01; -4.6987803E+03;3;  1.0796908E+00;  0.0000000E+00; -7.6061630E-01;0; -2.3712765E-01;  3.9498234E+04;  0.0000000E+00;  1.6502358E-02;  4.0000000E+04;  0.0000000E+00;  4.0052301E+04; -2.6624355E-01;  0.0000000E+00;  2.9115897E-02;  7.0323511E+03;
  3.6539957E-01;  9.9999998E-03;  4.9944211E-02;4677; -1.1437868E-01;  0.0000000E+00;  1.5993617E-03;  9.9450531E+02;  1.0000000E-01; -4.5522661E+03;3;  1.0576692E+00;  0.0000000E+00; -9.3600202E-01;0; -2.3672557E-01;  3.9514672E+04;  0.0000000E+00;  2.2043971E-02;  4.0000000E+04;  0.0000000E+00;  4.0049672E+04; -2.6592439E-01;  0.0000000E+00;  2.9198829E-02;  6.6866665E+03;
  3.6537901E-01;  9.9999998E-03;  5.9937309E-02;4678; -1.1420505E-01;  0.0000000E+00;  1.8690052E-03;  9.9470953E+02;  1.0000000E-01; -4.3830361E+03;3;  1.0339466E+00;  0.0000000E+00; -1.1051390E+00;0; -2.3629060E-01;  3.9533207E+04;  0.0000000E+00;  2.4915699E-02;  4.0000000E+04;  0.0000000E+00;  4.0047062E+04; -2.6565361E-01;  0.0000000E+00;  2.9363014E-02;  6.3544370E+03;
  3.7535888E-01;  9.9999998E-03; -9.9925809E-02;4723; -1.1593662E-01;  0.0000000E+00; -3.0834109E-03;  9.9508209E+02;  1.0000000E-01; -4.0744031E+03;3;  1.0746511E+00;  0.0000000E+00;  1.8945819E+00;0; -2.3380277E-01;  3.9570289E+04;  0.0000000E+00;  1.4510173E-02;  4.0000000E+04;  0.0000000E+00;  4.0039410E+04; -2.6494402E-01;  0.0000000E+00;  3.1141249E-02;  5.3548569E+03;
  3.7537715E-01;  9.9999998E-03; -8.9928135E-02;4724; -1.1620407E-01;  0.0000000E+00; -2.7998800E-03;  9.9490326E+02;  1.0000000E-01; -4.2225469E+03;3;  1.1177378E+00;  0.0000000E+00;  1.7224426E+00;0; -2.3398839E-01;  3.9555707E+04;  0.0000000E+00;  3.2897018E-02;  4.0000000E+04;  0.0000000E+00;  4.0039910E+04; -2.6478121E-01;  0.0000000E+00;  3.0792816E-02;  5.4210991E+03;
  3.7539959E-01;  9.9999998E-03; -7.9930700E-02;4725; -1.1646225E-01;  0.0000000E+00; -2.5311764E-03;  9.9471191E+02;  1.0000000E-01; -4.3810610E+03;3;  1.1578569E+00;  0.0000000E+00;  1.5459236E+00;0; -2.3431142E-01;  3.9539602E+04;  0.0000000E+00;  4.2336024E-02;  4.0000000E+04;  0.0000000E+00;  4.0040895E+04; -2.6480067E-01;  0.0000000E+00;  3.0489253E-02;  5.5732344E+03;
  3.7542456E-01;  9.9999998E-03; -6.9934085E-02;4726; -1.1670711E-01;  0.0000000E+00; -2.2668361E-03;  9.9452014E+02;  1.0000000E-01; -4.5399702E+03;3;  1.1955585E+00;  0.0000000E+00;  1.3683370E+00;0; -2.3471758E-01;  3.9522695E+04;  0.0000000E+00;  4.3873347E-02;  4.0000000E+04;  0.0000000E+00;  4.0042562E+04; -2.6497939E-01;  0.0000000E+00;  3.0261818E-02;  5.8030190E+03;
  3.7544876E-01;  9.9999998E-03; -5.9939090E-02;4727; -1.1693383E-01;  0.0000000E+00; -1.9963447E-03;  9.9433691E+02;  1.0000000E-01; -4.6917681E+03;3;  1.2299248E+00;  0.0000000E+00;  1.1879096E+00;0; -2.3515572E-01;  3.9506246E+04;  0.0000000E+00;  3.9439850E-02;  4.0000000E+04;  0.0000000E+00;  4.0044859E+04; -2.6528153E-01;  0.0000000E+00;  3.0125806E-02;  6.0936738E+03;
  3.7546957E-01;  9.9999998E-03; -4.9946189E-02;4728; -1.1713762E-01;  0.0000000E+00; -1.7117517E-03;  9.9417474E+02;  1.0000000E-01; -4.8261348E+03;3;  1.2591599E+00;  0.0000000E+00;  1.0116137E+00;0; -2.3558219E-01;  3.9490922E+04;  0.0000000E+00;  3.1386737E-02;  4.0000000E+04;  0.0000000E+00;  4.0047293E+04; -2.6566067E-01;  0.0000000E+00;  3.0078491E-02;  6.4204844E+03;
  3.7548563E-01;  9.9999998E-03; -3.9955173E-02;4729; -1.1731336E-01;  0.0000000E+00; -1.4078661E-03;  9.9403790E+02;  1.0000000E-01; -4.9394648E+03;3;  1.2838486E+00;  0.0000000E+00;  8.2175875E-01;0; -2.3596394E-01;  3.9477664E+04;  0.0000000E+00;  2.1991352E-02;  4.0000000E+04;  0.0000000E+00;  4.0049930E+04; -2.6606610E-01;  0.0000000E+00;  3.0102158E-02;  6.7526626E+03;
  3.7549758E-01;  9.9999998E-03; -2.9965529E-02;4730; -1.1745647E-01;  0.0000000E+00; -1.0825214E-03;  9.9392773E+02;  1.0000000E-01; -5.0307710E+03;3;  1.3073903E+00;  0.0000000E+00;  6.3197535E-01;0; -2.3627855E-01;  3.9466676E+04;  0.0000000E+00;  1.3110504E-02;  4.0000000E+04;  0.0000000E+00;  4.0052215E+04; -2.6644728E-01;  0.0000000E+00;  3.0168731E-02;  7.0567607E+03;
  3.7550598E-01;  9.9999998E-03; -1.9976735E-02;4731; -1.1756276E-01;  0.0000000E+00; -7.3602801E-04;  9.9384973E+02;  1.0000000E-01; -5.0953618E+03;3;  1.3220842E+00;  0.0000000E+00;  4.3013990E-01;0; -2.3651035E-01;  3.9458660E+04;  0.0000000E+00;  6.0349326E-03;  4.0000000E+04;  0.0000000E+00;  4.0054156E+04; -2.6675689E-01;  0.0000000E+00;  3.0246539E-02;  7.3008867E+03;
  3.7551025E-01;  9.9999998E-03; -9.9883145E-03;4732; -1.1762797E-01;  0.0000000E+00; -3.7308500E-04;  9.9380298E+02;  1.0000000E-01; -5.1341260E+03;3;  1.3321248E+00;  0.0000000E+00;  2.1320112E-01;0; -2.3665228E-01;  3.9453652E+04;  0.0000000E+00;  1.5368683E-03;  4.0000000E+04;  0.0000000E+00;  4.0055305E+04; -2.6695892E-01;  0.0000000E+00;  3.0306635E-02;  7.4588218E+03;
  3.7551132E-01;  9.9999998E-03;  3.8968620E-10;4733; -1.1764997E-01;  0.0000000E+00;  1.6583225E-08;  9.9378662E+02;  1.0000000E-01; -5.1476562E+03;3;  1.3336556E+00;  0.0000000E+00;  1.4827034E-05;0; -2.3669988E-01;  3.9452035E+04;  0.0000000E+00;  1.1420604E-12;  4.0000000E+04;  0.0000000E+00;  4.0055711E+04; -2.6702896E-01;  0.0000000E+00;  3.0329071E-02;  7.5134282E+03;
  3.7551025E-01;  9.9999998E-03;  9.9883145E-03;4734; -1.1762797E-01;  0.0000000E+00;  3.7311902E-04;  9.9380298E+02;  1.0000000E-01; -5.1341260E+03;3;  1.3321459E+00;  0.0000000E+00; -2.1318278E-01;0; -2.3665248E-01;  3.9453652E+04;  0.0000000E+00;  1.5366096E-03;  4.0000000E+04;  0.0000000E+00;  4.0055305E+04; -2.6695913E-01;  0.0000000E+00;  3.0306658E-02;  7.4588179E+03;
  3.7550598E-01;  9.9999998E-03;  1.9976737E-02;4735; -1.1756275E-01;  0.0000000E+00;  7.3606166E-04;  9.9384979E+02;  1.0000000E-01; -5.0953125E+03;3;  1.3220819E+00;  0.0000000E+00; -4.3012282E-01;0; -2.3651062E-01;  3.9458660E+04;  0.0000000E+00;  6.0345172E-03;  4.0000000E+04;  0.0000000E+00;  4.0054156E+04; -2.6675719E-01;  0.0000000E+00;  3.0246574E-02;  7.3008833E+03;
  3.7549758E-01;  9.9999998E-03;  2.9965531E-02;4736; -1.1745647E-01;  0.0000000E+00;  1.0825543E-03;  9.9392773E+02;  1.0000000E-01; -5.0307710E+03;3;  1.3072747E+00;  0.0000000E+00; -6.3198054E-01;0; -2.3627853E-01;  3.9466676E+04;  0.0000000E+00;  1.3109875E-02;  4.0000000E+04;  0.0000000E+00;  4.0052215E+04; -2.6644728E-01;  0.0000000E+00;  3.0168736E-02;  7.0567734E+03;
  3.7548563E-01;  9.9999998E-03;  3.9955176E-02;4737; -1.1731336E-01;  0.0000000E+00;  1.4079016E-03;  9.9403790E+02;  1.0000000E-01; -4.9394648E+03;3;  1.2837937E+00;  0.0000000E+00; -8.2176226E-01;0; -2.3596390E-01;  3.9477664E+04;  0.0000000E+00;  2.1990897E-02;  4.0000000E+04;  0.0000000E+00;  4.0049930E+04; -2.6606607E-01;  0.0000000E+00;  3.0102180E-02;  6.7526704E+03;
  3.7546957E-01;  9.9999998E-03;  4.9946189E-02;4738; -1.1713761E-01;  0.0000000E+00;  1.7117852E-03;  9.9417480E+02;  1.0000000E-01; -4.8260854E+03;3;  1.2591063E+00;  0.0000000E+00; -1.0116411E+00;0; -2.3558180E-01;  3.9490914E+04;  0.0000000E+00;  3.1385824E-02;  4.0000000E+04;  0.0000000E+00;  4.0047293E+04; -2.6566032E-01;  0.0000000E+00;  3.0078512E-02;  6.4204893E+03;
  3.7544876E-01;  9.9999998E-03;  5.9939090E-02;4739; -1.1693382E-01;  0.0000000E+00;  1.9963805E-03;  9.9433691E+02;  1.0000000E-01; -4.6917681E+03;3;  1.2300543E+00;  0.0000000E+00; -1.1879125E+00;0; -2.3515546E-01;  3.9506242E+04;  0.0000000E+00;  3.9439704E-02;  4.0000000E+04;  0.0000000E+00;  4.0044859E+04; -2.6528129E-01;  0.0000000E+00;  3.0125823E-02;  6.0936797E+03;
  3.8541865E-01;  9.9999998E-03; -9.9932715E-02;4784; -1.1859045E-01;  0.0000000E+00; -3.2004220E-03;  9.9459326E+02;  1.0000000E-01; -4.4793789E+03;3;  1.2607168E+00;  0.0000000E+00;  2.0212846E+00;0; -2.3239884E-01;  3.9534121E+04;  0.0000000E+00;  5.4753821E-02;  4.0000000E+04;  0.0000000E+00;  4.0036633E+04; -2.6367000E-01;  0.0000000E+00;  3.1271160E-02;  5.0438926E+03;
  3.8544118E-01;  9.9999998E-03; -8.9934796E-02;4785; -1.1887537E-01;  0.0000000E+00; -2.9216940E-03;  9.9444678E+02;  1.0000000E-01; -4.6007583E+03;3;  1.3090414E+00;  0.0000000E+00;  1.8446633E+00;0; -2.3261790E-01;  3.9522047E+04;  0.0000000E+00;  6.4173497E-02;  4.0000000E+04;  0.0000000E+00;  4.0037227E+04; -2.6364112E-01;  0.0000000E+00;  3.1023217E-02;  5.1351475E+03;
  3.8546640E-01;  9.9999998E-03; -7.9937108E-02;4786; -1.1915640E-01;  0.0000000E+00; -2.6517876E-03;  9.9429626E+02;  1.0000000E-01; -4.7254463E+03;3;  1.3551787E+00;  0.0000000E+00;  1.6568773E+00;0; -2.3294438E-01;  3.9508875E+04;  0.0000000E+00;  6.5292910E-02;  4.0000000E+04;  0.0000000E+00;  4.0038434E+04; -2.6377317E-01;  0.0000000E+00;  3.0828791E-02;  5.3011899E+03;
  3.8549146E-01;  9.9999998E-03; -6.9940582E-02;4787; -1.1942784E-01;  0.0000000E+00; -2.3810389E-03;  9.9415057E+02;  1.0000000E-01; -4.8461343E+03;3;  1.4002852E+00;  0.0000000E+00;  1.4671913E+00;0; -2.3332837E-01;  3.9495812E+04;  0.0000000E+00;  5.9693225E-02;  4.0000000E+04;  0.0000000E+00;  4.0040246E+04; -2.6404259E-01;  0.0000000E+00;  3.0714206E-02;  5.5322788E+03;
  3.8551387E-01;  9.9999998E-03; -5.9945848E-02;4788; -1.1968340E-01;  0.0000000E+00; -2.0996998E-03;  9.9401715E+02;  1.0000000E-01; -4.9566987E+03;3;  1.4385408E+00;  0.0000000E+00;  1.2755411E+00;0; -2.3372452E-01;  3.9483176E+04;  0.0000000E+00;  4.9623083E-02;  4.0000000E+04;  0.0000000E+00;  4.0042367E+04; -2.6441348E-01;  0.0000000E+00;  3.0688953E-02;  5.8117661E+03;
  3.8553190E-01;  9.9999998E-03; -4.9952898E-02;4789; -1.1991639E-01;  0.0000000E+00; -1.8018513E-03;  9.9390057E+02;  1.0000000E-01; -5.0532393E+03;3;  1.4744318E+00;  0.0000000E+00;  1.0803555E+00;0; -2.3409751E-01;  3.9471656E+04;  0.0000000E+00;  3.7471257E-02;  4.0000000E+04;  0.0000000E+00;  4.0044750E+04; -2.6484257E-01;  0.0000000E+00;  3.0745063E-02;  6.1169932E+03;
  3.8554618E-01;  9.9999998E-03; -3.9961267E-02;4790; -1.2012005E-01;  0.0000000E+00; -1.4821482E-03;  9.9380304E+02;  1.0000000E-01; -5.1340767E+03;3;  1.5055727E+00;  0.0000000E+00;  8.8297784E-01;0; -2.3442242E-01;  3.9461742E+04;  0.0000000E+00;  2.5323115E-02;  4.0000000E+04;  0.0000000E+00;  4.0047008E+04; -2.6528236E-01;  0.0000000E+00;  3.0859940E-02;  6.4210635E+03;
  3.8555655E-01;  9.9999998E-03; -2.9970462E-02;4791; -1.2028769E-01;  0.0000000E+00; -1.1397549E-03;  9.9372827E+02;  1.0000000E-01; -5.1960010E+03;3;  1.5316534E+00;  0.0000000E+00;  6.7260832E-01;0; -2.3468302E-01;  3.9453688E+04;  0.0000000E+00;  1.4728460E-02;  4.0000000E+04;  0.0000000E+00;  4.0049184E+04; -2.6568463E-01;  0.0000000E+00;  3.1001618E-02;  6.6954478E+03;
  3.8556308E-01;  9.9999998E-03; -1.9980136E-02;4792; -1.2041267E-01;  0.0000000E+00; -7.7506225E-04;  9.9367450E+02;  1.0000000E-01; -5.2405430E+03;3;  1.5498770E+00;  0.0000000E+00;  4.5396057E-01;0; -2.3487219E-01;  3.9447867E+04;  0.0000000E+00;  6.6715102E-03;  4.0000000E+04;  0.0000000E+00;  4.0050914E+04; -2.6600736E-01;  0.0000000E+00;  3.1135179E-02;  6.9135532E+03;
  3.8556656E-01;  9.9999998E-03; -9.9900244E-03;4793; -1.2048995E-01;  0.0000000E+00; -3.9244001E-04;  9.9364056E+02;  1.0000000E-01; -5.2686899E+03;3;  1.5606753E+00;  0.0000000E+00;  2.2753544E-01;0; -2.3498560E-01;  3.9444324E+04;  0.0000000E+00;  1.6836764E-03;  4.0000000E+04;  0.0000000E+00;  4.0052121E+04; -2.6621523E-01;  0.0000000E+00;  3.1229636E-02;  7.0537842E+03;
  3.8556746E-01;  9.9999998E-03;  3.7650857E-10;4794; -1.2051589E-01;  0.0000000E+00;  1.7026069E-08;  9.9363202E+02;  1.0000000E-01; -5.2757515E+03;3;  1.5634686E+00;  0.0000000E+00;  1.1184842E-05;0; -2.3502362E-01;  3.9443145E+04;  0.0000000E+00;  1.0313368E-12;  4.0000000E+04;  0.0000000E+00;  4.0052363E+04; -2.6628724E-01;  0.0000000E+00;  3.1263620E-02;  7.1021411E+03;
  3.8556656E-01;  9.9999998E-03;  9.9900253E-03;4795; -1.2048995E-01;  0.0000000E+00;  3.9247412E-04;  9.9364056E+02;  1.0000000E-01; -5.2686899E+03;3;  1.5607028E+00;  0.0000000E+00; -2.2751780E-01;0; -2.3498587E-01;  3.9444328E+04;  0.0000000E+00;  1.6834805E-03;  4.0000000E+04;  0.0000000E+00;  4.0052121E+04; -2.6621553E-01;  0.0000000E+00;  3.1229658E-02;  7.0537876E+03;
  3.8556308E-01;  9.9999998E-03;  1.9980136E-02;4796; -1.2041267E-01;  0.0000000E+00;  7.7509618E-04;  9.9367450E+02;  1.0000000E-01; -5.2405430E+03;3;  1.5499152E+00;  0.0000000E+00; -4.5394611E-01;0; -2.3487185E-01;  3.9447867E+04;  0.0000000E+00;  6.6709141E-03;  4.0000000E+04;  0.0000000E+00;  4.0050914E+04; -2.6600704E-01;  0.0000000E+00;  3.1135181E-02;  6.9135659E+03;
  3.8555655E-01;  9.9999998E-03;  2.9970462E-02;4797; -1.2028769E-01;  0.0000000E+00;  1.1397899E-03;  9.9372827E+02;  1.0000000E-01; -5.1960010E+03;3;  1.5315588E+00;  0.0000000E+00; -6.7259747E-01;0; -2.3468322E-01;  3.9453688E+04;  0.0000000E+00;  1.4728023E-02;  4.0000000E+04;  0.0000000E+00;  4.0049184E+04; -2.6568484E-01;  0.0000000E+00;  3.1001626E-02;  6.6954434E+03;
  3.8554618E-01;  9.9999998E-03;  3.9961267E-02;4798; -1.2012003E-01;  0.0000000E+00;  1.4821840E-03;  9.9380292E+02;  1.0000000E-01; -5.1341753E+03;3;  1.5055195E+00;  0.0000000E+00; -8.8294256E-01;0; -2.3442228E-01;  3.9461742E+04;  0.0000000E+00;  2.5321739E-02;  4.0000000E+04;  0.0000000E+00;  4.0047008E+04; -2.6528224E-01;  0.0000000E+00;  3.0859958E-02;  6.4210557E+03;
  3.8553190E-01;  9.9999998E-03;  4.9952898E-02;4799; -1.1991640E-01;  0.0000000E+00;  1.8018862E-03;  9.9390057E+02;  1.0000000E-01; -5.0532393E+03;3;  1.4743705E+00;  0.0000000E+00; -1.0803466E+00;0; -2.3409756E-01;  3.9471648E+04;  0.0000000E+00;  3.7470814E-02;  4.0000000E+04;  0.0000000E+00;  4.0044750E+04; -2.6484263E-01;  0.0000000E+00;  3.0745069E-02;  6.1170039E+03;
  3.8551387E-01;  9.9999998E-03;  5.9945848E-02;4800; -1.1968339E-01;  0.0000000E+00;  2.0997303E-03;  9.9401715E+02;  1.0000000E-01; -4.9566987E+03;3;  1.4385234E+00;  0.0000000E+00; -1.2755185E+00;0; -2.3372416E-01;  3.9483184E+04;  0.0000000E+00;  4.9622741E-02;  4.0000000E+04;  0.0000000E+00;  4.0042367E+04; -2.6441315E-01;  0.0000000E+00;  3.0688981E-02;  5.8117676E+03;
  3.9548793E-01;  9.9999998E-03; -9.9942088E-02;4845; -1.2125496E-01;  0.0000000E+00; -3.2895103E-03;  9.9415649E+02;  1.0000000E-01; -4.8412456E+03;3;  1.4559021E+00;  0.0000000E+00;  2.1529293E+00;0; -2.3083335E-01;  3.9501582E+04;  0.0000000E+00;  8.8315837E-02;  4.0000000E+04;  0.0000000E+00;  4.0034297E+04; -2.6207498E-01;  0.0000000E+00;  3.1241629E-02;  4.7904297E+03;
  3.9551166E-01;  9.9999998E-03; -8.9943923E-02;4846; -1.2155808E-01;  0.0000000E+00; -3.0141403E-03;  9.9405206E+02;  1.0000000E-01; -4.9277617E+03;3;  1.5118339E+00;  0.0000000E+00;  1.9608446E+00;0; -2.3102400E-01;  3.9492734E+04;  0.0000000E+00;  8.8783652E-02;  4.0000000E+04;  0.0000000E+00;  4.0035016E+04; -2.6211560E-01;  0.0000000E+00;  3.1091603E-02;  4.8910347E+03;
  3.9553562E-01;  9.9999998E-03; -7.9946317E-02;4847; -1.2186120E-01;  0.0000000E+00; -2.7418567E-03;  9.9395032E+02;  1.0000000E-01; -5.0120552E+03;3;  1.5638118E+00;  0.0000000E+00;  1.7656039E+00;0; -2.3129480E-01;  3.9483605E+04;  0.0000000E+00;  8.2216270E-02;  4.0000000E+04;  0.0000000E+00;  4.0036203E+04; -2.6229280E-01;  0.0000000E+00;  3.0998005E-02;  5.0544272E+03;
  3.9555758E-01;  9.9999998E-03; -6.9950059E-02;4848; -1.2215757E-01;  0.0000000E+00; -2.4641491E-03;  9.9385358E+02;  1.0000000E-01; -5.0922012E+03;3;  1.6143804E+00;  0.0000000E+00;  1.5688275E+00;0; -2.3160271E-01;  3.9474434E+04;  0.0000000E+00;  7.0548691E-02;  4.0000000E+04;  0.0000000E+00;  4.0037828E+04; -2.6258492E-01;  0.0000000E+00;  3.0982215E-02;  5.2698379E+03;
  3.9557633E-01;  9.9999998E-03; -5.9955344E-02;4849; -1.2243964E-01;  0.0000000E+00; -2.1729686E-03;  9.9377209E+02;  1.0000000E-01; -5.1597056E+03;3;  1.6615458E+00;  0.0000000E+00;  1.3693106E+00;0; -2.3191026E-01;  3.9465973E+04;  0.0000000E+00;  5.6086589E-02;  4.0000000E+04;  0.0000000E+00;  4.0039855E+04; -2.6295957E-01;  0.0000000E+00;  3.1049313E-02;  5.5216157E+03;
  3.9559123E-01;  9.9999998E-03; -4.9961817E-02;4850; -1.2269938E-01;  0.0000000E+00; -1.8636481E-03;  9.9369904E+02;  1.0000000E-01; -5.2202471E+03;3;  1.7035480E+00;  0.0000000E+00;  1.1502874E+00;0; -2.3218979E-01;  3.9458375E+04;  0.0000000E+00;  4.1017044E-02;  4.0000000E+04;  0.0000000E+00;  4.0041941E+04; -2.6337743E-01;  0.0000000E+00;  3.1187635E-02;  5.7901191E+03;
  3.9560223E-01;  9.9999998E-03; -3.9969001E-02;4851; -1.2292799E-01;  0.0000000E+00; -1.5319181E-03;  9.9364313E+02;  1.0000000E-01; -5.2665669E+03;3;  1.7418622E+00;  0.0000000E+00;  9.3704426E-01;0; -2.3242524E-01;  3.9451840E+04;  0.0000000E+00;  2.7090732E-02;  4.0000000E+04;  0.0000000E+00;  4.0043988E+04; -2.6379725E-01;  0.0000000E+00;  3.1372011E-02;  6.0528652E+03;
  3.9561024E-01;  9.9999998E-03; -2.9976588E-02;4852; -1.2311724E-01;  0.0000000E+00; -1.1768123E-03;  9.9359918E+02;  1.0000000E-01; -5.3029609E+03;3;  1.7713652E+00;  0.0000000E+00;  7.1102411E-01;0; -2.3260784E-01;  3.9446859E+04;  0.0000000E+00;  1.5505772E-02;  4.0000000E+04;  0.0000000E+00;  4.0045828E+04; -2.6417658E-01;  0.0000000E+00;  3.1568743E-02;  6.2869585E+03;
  3.9561534E-01;  9.9999998E-03; -1.9984363E-02;4853; -1.2325899E-01;  0.0000000E+00; -7.9957518E-04;  9.9357050E+02;  1.0000000E-01; -5.3267134E+03;3;  1.7926333E+00;  0.0000000E+00;  4.7489342E-01;0; -2.3273565E-01;  3.9443090E+04;  0.0000000E+00;  6.9494373E-03;  4.0000000E+04;  0.0000000E+00;  4.0047293E+04; -2.6447767E-01;  0.0000000E+00;  3.1742021E-02;  6.4713091E+03;
  3.9561802E-01;  9.9999998E-03; -9.9921925E-03;4854; -1.2334681E-01;  0.0000000E+00; -4.0466202E-04;  9.9355182E+02;  1.0000000E-01; -5.3422188E+03;3;  1.8042734E+00;  0.0000000E+00;  2.3552085E-01;0; -2.3281105E-01;  3.9440801E+04;  0.0000000E+00;  1.7431519E-03;  4.0000000E+04;  0.0000000E+00;  4.0048270E+04; -2.6467150E-01;  0.0000000E+00;  3.1860456E-02;  6.5891631E+03;
  3.9561865E-01;  9.9999998E-03;  3.4895653E-10;4855; -1.2337638E-01;  0.0000000E+00;  1.7486167E-08;  9.9354645E+02;  1.0000000E-01; -5.3466631E+03;3;  1.8107315E+00;  0.0000000E+00;  6.3667685E-06;0; -2.3283558E-01;  3.9439969E+04;  0.0000000E+00;  1.2931973E-12;  4.0000000E+04;  0.0000000E+00;  4.0048633E+04; -2.6473799E-01;  0.0000000E+00;  3.1902418E-02;  6.6297070E+03;
  3.9561802E-01;  9.9999998E-03;  9.9921925E-03;4856; -1.2334680E-01;  0.0000000E+00;  4.0469642E-04;  9.9355182E+02;  1.0000000E-01; -5.3422188E+03;3;  1.8042852E+00;  0.0000000E+00; -2.3551163E-01;0; -2.3281111E-01;  3.9440797E+04;  0.0000000E+00;  1.7430425E-03;  4.0000000E+04;  0.0000000E+00;  4.0048270E+04; -2.6467156E-01;  0.0000000E+00;  3.1860456E-02;  6.5891685E+03;
  3.9561534E-01;  9.9999998E-03;  1.9984363E-02;4857; -1.2325899E-01;  0.0000000E+00;  7.9960929E-04;  9.9357056E+02;  1.0000000E-01; -5.3266636E+03;3;  1.7926912E+00;  0.0000000E+00; -4.7488624E-01;0; -2.3273569E-01;  3.9443086E+04;  0.0000000E+00;  6.9490168E-03;  4.0000000E+04;  0.0000000E+00;  4.0047297E+04; -2.6447773E-01;  0.0000000E+00;  3.1742044E-02;  6.4713125E+03;
  3.9561024E-01;  9.9999998E-03;  2.9976588E-02;4858; -1.2311723E-01;  0.0000000E+00;  1.1768475E-03;  9.9359918E+02;  1.0000000E-01; -5.3029609E+03;3;  1.7713884E+00;  0.0000000E+00; -7.1100748E-01;0; -2.3260778E-01;  3.9446859E+04;  0.0000000E+00;  1.5504963E-02;  4.0000000E+04;  0.0000000E+00;  4.0045824E+04; -2.6417655E-01;  0.0000000E+00;  3.1568773E-02;  6.2869556E+03;
  3.9560223E-01;  9.9999998E-03;  3.9969001E-02;4859; -1.2292799E-01;  0.0000000E+00;  1.5319549E-03;  9.9364313E+02;  1.0000000E-01; -5.2665669E+03;3;  1.7417899E+00;  0.0000000E+00; -9.3707103E-01;0; -2.3242509E-01;  3.9451840E+04;  0.0000000E+00;  2.7090035E-02;  4.0000000E+04;  0.0000000E+00;  4.0043988E+04; -2.6379713E-01;  0.0000000E+00;  3.1372048E-02;  6.0528682E+03;
  3.9559123E-01;  9.9999998E-03;  4.9961817E-02;4860; -1.2269937E-01;  0.0000000E+00;  1.8636846E-03;  9.9369904E+02;  1.0000000E-01; -5.2202471E+03;3;  1.7036597E+00;  0.0000000E+00; -1.1502901E+00;0; -2.3219003E-01;  3.9458375E+04;  0.0000000E+00;  4.1016158E-02;  4.0000000E+04;  0.0000000E+00;  4.0041941E+04; -2.6337770E-01;  0.0000000E+00;  3.1187665E-02;  5.7901118E+03;
  3.9557633E-01;  9.9999998E-03;  5.9955344E-02;4861; -1.2243963E-01;  0.0000000E+00;  2.1730058E-03;  9.9377203E+02;  1.0000000E-01; -5.1597549E+03;3;  1.6615287E+00;  0.0000000E+00; -1.3692964E+00;0; -2.3190995E-01;  3.9465969E+04;  0.0000000E+00;  5.6086536E-02;  4.0000000E+04;  0.0000000E+00;  4.0039855E+04; -2.6295927E-01;  0.0000000E+00;  3.1049320E-02;  5.5216235E+03;
  4.0556502E-01;  9.9999998E-03; -9.9952415E-02;4906; -1.2392175E-01;  0.0000000E+00; -3.3442122E-03;  9.9381317E+02;  1.0000000E-01; -5.1256816E+03;3;  1.6606989E+00;  0.0000000E+00;  2.2811513E+00;0; -2.2902982E-01;  3.9475938E+04;  0.0000000E+00;  1.1332126E-01;  4.0000000E+04;  0.0000000E+00;  4.0032480E+04; -2.6012084E-01;  0.0000000E+00;  3.1091016E-02;  4.6029453E+03;
  4.0558699E-01;  9.9999998E-03; -8.9954056E-02;4907; -1.2424129E-01;  0.0000000E+00; -3.0704238E-03;  9.9375848E+02;  1.0000000E-01; -5.1709644E+03;3;  1.7249436E+00;  0.0000000E+00;  2.0764575E+00;0; -2.2913812E-01;  3.9470848E+04;  0.0000000E+00;  1.0617061E-01;  4.0000000E+04;  0.0000000E+00;  4.0033348E+04; -2.6016349E-01;  0.0000000E+00;  3.1025371E-02;  4.6978857E+03;
  4.0560764E-01;  9.9999998E-03; -7.9956599E-02;4908; -1.2456375E-01;  0.0000000E+00; -2.7950278E-03;  9.9370502E+02;  1.0000000E-01; -5.2152593E+03;3;  1.7851765E+00;  0.0000000E+00;  1.8695061E+00;0; -2.2930443E-01;  3.9465777E+04;  0.0000000E+00;  9.3457781E-02;  4.0000000E+04;  0.0000000E+00;  4.0034480E+04; -2.6031843E-01;  0.0000000E+00;  3.1014001E-02;  4.8428540E+03;
  4.0562558E-01;  9.9999998E-03; -6.9960386E-02;4909; -1.2488151E-01;  0.0000000E+00; -2.5106615E-03;  9.9366174E+02;  1.0000000E-01; -5.2511104E+03;3;  1.8427739E+00;  0.0000000E+00;  1.6634119E+00;0; -2.2949228E-01;  3.9460840E+04;  0.0000000E+00;  7.7263124E-02;  4.0000000E+04;  0.0000000E+00;  4.0035781E+04; -2.6056629E-01;  0.0000000E+00;  3.1074023E-02;  5.0271147E+03;
  4.0564039E-01;  9.9999998E-03; -5.9965234E-02;4910; -1.2518615E-01;  0.0000000E+00; -2.2114271E-03;  9.9362543E+02;  1.0000000E-01; -5.2812329E+03;3;  1.8976125E+00;  0.0000000E+00;  1.4498460E+00;0; -2.2967286E-01;  3.9456469E+04;  0.0000000E+00;  5.9755016E-02;  4.0000000E+04;  0.0000000E+00;  4.0037418E+04; -2.6088014E-01;  0.0000000E+00;  3.1207273E-02;  5.2368774E+03;
  4.0565237E-01;  9.9999998E-03; -4.9970727E-02;4911; -1.2546836E-01;  0.0000000E+00; -1.8928259E-03;  9.9359845E+02;  1.0000000E-01; -5.3035532E+03;3;  1.9454695E+00;  0.0000000E+00;  1.2225651E+00;0; -2.2982827E-01;  3.9452707E+04;  0.0000000E+00;  4.2824574E-02;  4.0000000E+04;  0.0000000E+00;  4.0039191E+04; -2.6122859E-01;  0.0000000E+00;  3.1400319E-02;  5.4559907E+03;
  4.0566131E-01;  9.9999998E-03; -3.9976571E-02;4912; -1.2571785E-01;  0.0000000E+00; -1.5530032E-03;  9.9357617E+02;  1.0000000E-01; -5.3220220E+03;3;  1.9913056E+00;  0.0000000E+00;  9.9015141E-01;0; -2.2994921E-01;  3.9449484E+04;  0.0000000E+00;  2.7875448E-02;  4.0000000E+04;  0.0000000E+00;  4.0040855E+04; -2.6157662E-01;  0.0000000E+00;  3.1627417E-02;  5.6670674E+03;
  4.0566748E-01;  9.9999998E-03; -2.9982544E-02;4913; -1.2592483E-01;  0.0000000E+00; -1.1907460E-03;  9.9356317E+02;  1.0000000E-01; -5.3327871E+03;3;  2.0248964E+00;  0.0000000E+00;  7.4953747E-01;0; -2.3003501E-01;  3.9447141E+04;  0.0000000E+00;  1.5793750E-02;  4.0000000E+04;  0.0000000E+00;  4.0042441E+04; -2.6189044E-01;  0.0000000E+00;  3.1855438E-02;  5.8528242E+03;
  4.0567121E-01;  9.9999998E-03; -1.9988460E-02;4914; -1.2608011E-01;  0.0000000E+00; -8.0760033E-04;  9.9355365E+02;  1.0000000E-01; -5.3406880E+03;3;  2.0489528E+00;  0.0000000E+00;  5.0145364E-01;0; -2.3008953E-01;  3.9445422E+04;  0.0000000E+00;  7.0317434E-03;  4.0000000E+04;  0.0000000E+00;  4.0043449E+04; -2.6213929E-01;  0.0000000E+00;  3.2049756E-02;  5.9978574E+03;
  4.0567297E-01;  9.9999998E-03; -9.9942563E-03;4915; -1.2617625E-01;  0.0000000E+00; -4.0812223E-04;  9.9355157E+02;  1.0000000E-01; -5.3424165E+03;3;  2.0628414E+00;  0.0000000E+00;  2.4852230E-01;0; -2.3011914E-01;  3.9444277E+04;  0.0000000E+00;  1.7572780E-03;  4.0000000E+04;  0.0000000E+00;  4.0044234E+04; -2.6229924E-01;  0.0000000E+00;  3.2180108E-02;  6.0900283E+03;
  4.0567335E-01;  9.9999998E-03;  2.9919919E-10;4916; -1.2620884E-01;  0.0000000E+00;  1.7350704E-08;  9.9355054E+02;  1.0000000E-01; -5.3432559E+03;3;  2.0711575E+00;  0.0000000E+00;  1.9180879E-07;0; -2.3012754E-01;  3.9444047E+04;  0.0000000E+00;  7.1154535E-13;  4.0000000E+04;  0.0000000E+00;  4.0044414E+04; -2.6235354E-01;  0.0000000E+00;  3.2225989E-02;  6.1216362E+03;
  4.0567297E-01;  9.9999998E-03;  9.9942572E-03;4917; -1.2617627E-01;  0.0000000E+00;  4.0815701E-04;  9.9355157E+02;  1.0000000E-01; -5.3424165E+03;3;  2.0628486E+00;  0.0000000E+00; -2.4852523E-01;0; -2.3011902E-01;  3.9444273E+04;  0.0000000E+00;  1.7571007E-03;  4.0000000E+04;  0.0000000E+00;  4.0044234E+04; -2.6229912E-01;  0.0000000E+00;  3.2180093E-02;  6.0900264E+03;
  4.0567121E-01;  9.9999998E-03;  1.9988460E-02;4918; -1.2608013E-01;  0.0000000E+00;  8.0763485E-04;  9.9355365E+02;  1.0000000E-01; -5.3406880E+03;3;  2.0486519E+00;  0.0000000E+00; -5.0145090E-01;0; -2.3008955E-01;  3.9445430E+04;  0.0000000E+00;  7.0314389E-03;  4.0000000E+04;  0.0000000E+00;  4.0043449E+04; -2.6213932E-01;  0.0000000E+00;  3.2049775E-02;  5.9978574E+03;
  4.0566748E-01;  9.9999998E-03;  2.9982544E-02;4919; -1.2592483E-01;  0.0000000E+00;  1.1907815E-03;  9.9356311E+02;  1.0000000E-01; -5.3328364E+03;3;  2.0246115E+00;  0.0000000E+00; -7.4951744E-01;0; -2.3003492E-01;  3.9447141E+04;  0.0000000E+00;  1.5793046E-02;  4.0000000E+04;  0.0000000E+00;  4.0042441E+04; -2.6189041E-01;  0.0000000E+00;  3.1855486E-02;  5.8528423E+03;
  4.0566131E-01;  9.9999998E-03;  3.9976571E-02;4920; -1.2571786E-01;  0.0000000E+00;  1.5530394E-03;  9.9357617E+02;  1.0000000E-01; -5.3220220E+03;3;  1.9910363E+00;  0.0000000E+00; -9.9016929E-01;0; -2.2994922E-01;  3.9449484E+04;  0.0000000E+00;  2.7874617E-02;  4.0000000E+04;  0.0000000E+00;  4.0040855E+04; -2.6157665E-01;  0.0000000E+00;  3.1627428E-02;  5.6670747E+03;
  4.0565237E-01;  9.9999998E-03;  4.9970727E-02;4921; -1.2546836E-01;  0.0000000E+00;  1.8928648E-03;  9.9359839E+02;  1.0000000E-01; -5.3036025E+03;3;  1.9452637E+00;  0.0000000E+00; -1.2225412E+00;0; -2.2982793E-01;  3.9452703E+04;  0.0000000E+00;  4.2823959E-02;  4.0000000E+04;  0.0000000E+00;  4.0039191E+04; -2.6122826E-01;  0.0000000E+00;  3.1400338E-02;  5.4560010E+03;
  4.0564039E-01;  9.9999998E-03;  5.9965234E-02;4922; -1.2518615E-01;  0.0000000E+00;  2.2114636E-03;  9.9362543E+02;  1.0000000E-01; -5.2812329E+03;3;  1.8977329E+00;  0.0000000E+00; -1.4498550E+00;0; -2.2967333E-01;  3.9456469E+04;  0.0000000E+00;  5.9754636E-02;  4.0000000E+04;  0.0000000E+00;  4.0037414E+04; -2.6088059E-01;  0.0000000E+00;  3.1207265E-02;  5.2368911E+03;
  4.1564900E-01;  9.9999998E-03; -9.9962257E-02;4967; -1.2657930E-01;  0.0000000E+00; -3.3604002E-03;  9.9360376E+02;  1.0000000E-01; -5.2991582E+03;3;  1.8769892E+00;  0.0000000E+00;  2.3957176E+00;0; -2.2694847E-01;  3.9460004E+04;  0.0000000E+00;  1.2870923E-01;  4.0000000E+04;  0.0000000E+00;  4.0031426E+04; -2.5780267E-01;  0.0000000E+00;  3.0854197E-02;  4.4842715E+03;
  4.1566867E-01;  9.9999998E-03; -8.9963824E-02;4968; -1.2691228E-01;  0.0000000E+00; -3.0859434E-03;  9.9359528E+02;  1.0000000E-01; -5.3061699E+03;3;  1.9478755E+00;  0.0000000E+00;  2.1870387E+00;0; -2.2693445E-01;  3.9458895E+04;  0.0000000E+00;  1.1619409E-01;  4.0000000E+04;  0.0000000E+00;  4.0032113E+04; -2.5778463E-01;  0.0000000E+00;  3.0850183E-02;  4.5601357E+03;
  4.1568738E-01;  9.9999998E-03; -7.9966404E-02;4969; -1.2725018E-01;  0.0000000E+00; -2.8066142E-03;  9.9359229E+02;  1.0000000E-01; -5.3086885E+03;3;  2.0183079E+00;  0.0000000E+00;  1.9712504E+00;0; -2.2695950E-01;  3.9457879E+04;  0.0000000E+00;  9.9418856E-02;  4.0000000E+04;  0.0000000E+00;  4.0032828E+04; -2.5785363E-01;  0.0000000E+00;  3.0894132E-02;  4.6731816E+03;
  4.1570285E-01;  9.9999998E-03; -6.9970012E-02;4970; -1.2758465E-01;  0.0000000E+00; -2.5164224E-03;  9.9359485E+02;  1.0000000E-01; -5.3065649E+03;3;  2.0836089E+00;  0.0000000E+00;  1.7509423E+00;0; -2.2699620E-01;  3.9457137E+04;  0.0000000E+00;  8.0443539E-02;  4.0000000E+04;  0.0000000E+00;  4.0034090E+04; -2.5799596E-01;  0.0000000E+00;  3.0999759E-02;  4.8136846E+03;
  4.1571593E-01;  9.9999998E-03; -5.9974242E-02;4971; -1.2790665E-01;  0.0000000E+00; -2.2110769E-03;  9.9360352E+02;  1.0000000E-01; -5.2993555E+03;3;  2.1445472E+00;  0.0000000E+00;  1.5276973E+00;0; -2.2702466E-01;  3.9456617E+04;  0.0000000E+00;  6.1229203E-02;  4.0000000E+04;  0.0000000E+00;  4.0035328E+04; -2.5819176E-01;  0.0000000E+00;  3.1167105E-02;  4.9703882E+03;
  4.1572645E-01;  9.9999998E-03; -4.9978752E-02;4972; -1.2820557E-01;  0.0000000E+00; -1.8871166E-03;  9.9361633E+02;  1.0000000E-01; -5.2887383E+03;3;  2.2020571E+00;  0.0000000E+00;  1.2929518E+00;0; -2.2703561E-01;  3.9456371E+04;  0.0000000E+00;  4.3373492E-02;  4.0000000E+04;  0.0000000E+00;  4.0036668E+04; -2.5841832E-01;  0.0000000E+00;  3.1382710E-02;  5.1311426E+03;
  4.1573420E-01;  9.9999998E-03; -3.9983321E-02;4973; -1.2847047E-01;  0.0000000E+00; -1.5437283E-03;  9.9362787E+02;  1.0000000E-01; -5.2792080E+03;3;  2.2526355E+00;  0.0000000E+00;  1.0398151E+00;0; -2.2702701E-01;  3.9456301E+04;  0.0000000E+00;  2.8003616E-02;  4.0000000E+04;  0.0000000E+00;  4.0037848E+04; -2.5864941E-01;  0.0000000E+00;  3.1622395E-02;  5.2836431E+03;
  4.1573983E-01;  9.9999998E-03; -2.9987782E-02;4974; -1.2869036E-01;  0.0000000E+00; -1.1803894E-03;  9.9364325E+02;  1.0000000E-01; -5.2664678E+03;3;  2.2912903E+00;  0.0000000E+00;  7.8220153E-01;0; -2.2700508E-01;  3.9456254E+04;  0.0000000E+00;  1.5779648E-02;  4.0000000E+04;  0.0000000E+00;  4.0038887E+04; -2.5886071E-01;  0.0000000E+00;  3.1855628E-02;  5.4161147E+03;
  4.1574323E-01;  9.9999998E-03; -1.9992031E-02;4975; -1.2885538E-01;  0.0000000E+00; -7.9874712E-04;  9.9365308E+02;  1.0000000E-01; -5.2583198E+03;3;  2.3189802E+00;  0.0000000E+00;  5.2416092E-01;0; -2.2697893E-01;  3.9456434E+04;  0.0000000E+00;  7.0018834E-03;  4.0000000E+04;  0.0000000E+00;  4.0039770E+04; -2.5902969E-01;  0.0000000E+00;  3.2050751E-02;  5.5185371E+03;
  4.1574496E-01;  9.9999998E-03; -9.9960761E-03;4976; -1.2895760E-01;  0.0000000E+00; -4.0307365E-04;  9.9366150E+02;  1.0000000E-01; -5.2513076E+03;3;  2.3353529E+00;  0.0000000E+00;  2.5970408E-01;0; -2.2695847E-01;  3.9456461E+04;  0.0000000E+00;  1.7466643E-03;  4.0000000E+04;  0.0000000E+00;  4.0040289E+04; -2.5913873E-01;  0.0000000E+00;  3.2180265E-02;  5.5832095E+03;
  4.1574538E-01;  9.9999998E-03;  2.4429803E-10;4977; -1.2899238E-01;  0.0000000E+00;  1.8030260E-08;  9.9366211E+02;  1.0000000E-01; -5.2508135E+03;3;  2.3397622E+00;  0.0000000E+00;  1.9149957E-06;0; -2.2695097E-01;  3.9456586E+04;  0.0000000E+00; -6.3014381E-15;  4.0000000E+04;  0.0000000E+00;  4.0040488E+04; -2.5917664E-01;  0.0000000E+00;  3.2225661E-02;  5.6053169E+03;
  4.1574496E-01;  9.9999998E-03;  9.9960761E-03;4978; -1.2895760E-01;  0.0000000E+00;  4.0310965E-04;  9.9366144E+02;  1.0000000E-01; -5.2513569E+03;3;  2.3356581E+00;  0.0000000E+00; -2.5970635E-01;0; -2.2695841E-01;  3.9456457E+04;  0.0000000E+00;  1.7465964E-03;  4.0000000E+04;  0.0000000E+00;  4.0040289E+04; -2.5913870E-01;  0.0000000E+00;  3.2180298E-02;  5.5832056E+03;
  4.1574323E-01;  9.9999998E-03;  1.9992033E-02;4979; -1.2885538E-01;  0.0000000E+00;  7.9878257E-04;  9.9365314E+02;  1.0000000E-01; -5.2582700E+03;3;  2.3189945E+00;  0.0000000E+00; -5.2416903E-01;0; -2.2697896E-01;  3.9456430E+04;  0.0000000E+00;  7.0016165E-03;  4.0000000E+04;  0.0000000E+00;  4.0039766E+04; -2.5902975E-01;  0.0000000E+00;  3.2050781E-02;  5.5185391E+03;
  4.1573983E-01;  9.9999998E-03;  2.9987782E-02;4980; -1.2869035E-01;  0.0000000E+00;  1.1804266E-03;  9.9364325E+02;  1.0000000E-01; -5.2664678E+03;3;  2.2910547E+00;  0.0000000E+00; -7.8219557E-01;0; -2.2700492E-01;  3.9456254E+04;  0.0000000E+00;  1.5779713E-02;  4.0000000E+04;  0.0000000E+00;  4.0038887E+04; -2.5886059E-01;  0.0000000E+00;  3.1855669E-02;  5.4161152E+03;
  4.1573420E-01;  9.9999998E-03;  3.9983321E-02;4981; -1.2847045E-01;  0.0000000E+00;  1.5437660E-03;  9.9362787E+02;  1.0000000E-01; -5.2792080E+03;3;  2.2527537E+00;  0.0000000E+00; -1.0398059E+00;0; -2.2702713E-01;  3.9456301E+04;  0.0000000E+00;  2.8002683E-02;  4.0000000E+04;  0.0000000E+00;  4.0037848E+04; -2.5864956E-01;  0.0000000E+00;  3.1622428E-02;  5.2836450E+03;
  4.1572645E-01;  9.9999998E-03;  4.9978752E-02;4982; -1.2820557E-01;  0.0000000E+00;  1.8871553E-03;  9.9361633E+02;  1.0000000E-01; -5.2887383E+03;3;  2.2018456E+00;  0.0000000E+00; -1.2929426E+00;0; -2.2703557E-01;  3.9456375E+04;  0.0000000E+00;  4.3372951E-02;  4.0000000E+04;  0.0000000E+00;  4.0036668E+04; -2.5841829E-01;  0.0000000E+00;  3.1382728E-02;  5.1311509E+03;
  4.1571593E-01;  9.9999998E-03;  5.9974242E-02;4983; -1.2790662E-01;  0.0000000E+00;  2.2111174E-03;  9.9360352E+02;  1.0000000E-01; -5.2993555E+03;3;  2.1446557E+00;  0.0000000E+00; -1.5276979E+00;0; -2.2702499E-01;  3.9456617E+04;  0.0000000E+00;  6.1228778E-02;  4.0000000E+04;  0.0000000E+00;  4.0035328E+04; -2.5819209E-01;  0.0000000E+00;  3.1167101E-02;  4.9703848E+03;
  4.2574546E-01;  9.9999998E-03; -9.9970773E-02;5028; -1.2921639E-01;  0.0000000E+00; -3.3359372E-03;  9.9354968E+02;  1.0000000E-01; -5.3439468E+03;3;  2.1032429E+00;  0.0000000E+00;  2.5002873E+00;0; -2.2459139E-01;  3.9455875E+04;  0.0000000E+00;  1.3373618E-01;  4.0000000E+04;  0.0000000E+00;  4.0030914E+04; -2.5515148E-01;  0.0000000E+00;  3.0560093E-02;  4.4309927E+03;
  4.2576554E-01;  9.9999998E-03; -8.9972474E-02;5029; -1.2955889E-01;  0.0000000E+00; -3.0590035E-03;  9.9358746E+02;  1.0000000E-01; -5.3126885E+03;3;  2.1831200E+00;  0.0000000E+00;  2.2851322E+00;0; -2.2442980E-01;  3.9458664E+04;  0.0000000E+00;  1.1857331E-01;  4.0000000E+04;  0.0000000E+00;  4.0031363E+04; -2.5501773E-01;  0.0000000E+00;  3.0587927E-02;  4.4770103E+03;
  4.2578256E-01;  9.9999998E-03; -7.9975121E-02;5030; -1.2990665E-01;  0.0000000E+00; -2.7752118E-03;  9.9363000E+02;  1.0000000E-01; -5.2774302E+03;3;  2.2630095E+00;  0.0000000E+00;  2.0606480E+00;0; -2.2429372E-01;  3.9461520E+04;  0.0000000E+00;  1.0005619E-01;  4.0000000E+04;  0.0000000E+00;  4.0031910E+04; -2.5494814E-01;  0.0000000E+00;  3.0654412E-02;  4.5479707E+03;
  4.2579770E-01;  9.9999998E-03; -6.9978468E-02;5031; -1.3025181E-01;  0.0000000E+00; -2.4802985E-03;  9.9367914E+02;  1.0000000E-01; -5.2366904E+03;3;  2.3377855E+00;  0.0000000E+00;  1.8291068E+00;0; -2.2416326E-01;  3.9464602E+04;  0.0000000E+00;  8.0133349E-02;  4.0000000E+04;  0.0000000E+00;  4.0032680E+04; -2.5493404E-01;  0.0000000E+00;  3.0770775E-02;  4.6358740E+03;
  4.2581075E-01;  9.9999998E-03; -5.9982128E-02;5032; -1.3058452E-01;  0.0000000E+00; -2.1712231E-03;  9.9372681E+02;  1.0000000E-01; -5.1972349E+03;3;  2.4063401E+00;  0.0000000E+00;  1.5935282E+00;0; -2.2402830E-01;  3.9467656E+04;  0.0000000E+00;  6.0549803E-02;  4.0000000E+04;  0.0000000E+00;  4.0033555E+04; -2.5496504E-01;  0.0000000E+00;  3.0936727E-02;  4.7324985E+03;
  4.2582133E-01;  9.9999998E-03; -4.9985819E-02;5033; -1.3089360E-01;  0.0000000E+00; -1.8458668E-03;  9.9377081E+02;  1.0000000E-01; -5.1607422E+03;3;  2.4703233E+00;  0.0000000E+00;  1.3497747E+00;0; -2.2388685E-01;  3.9470609E+04;  0.0000000E+00;  4.2682737E-02;  4.0000000E+04;  0.0000000E+00;  4.0034301E+04; -2.5502738E-01;  0.0000000E+00;  3.1140532E-02;  4.8298965E+03;
  4.2582917E-01;  9.9999998E-03; -3.9989337E-02;5034; -1.3116738E-01;  0.0000000E+00; -1.5039737E-03;  9.9381244E+02;  1.0000000E-01; -5.1262739E+03;3;  2.5264409E+00;  0.0000000E+00;  1.0828171E+00;0; -2.2374502E-01;  3.9473152E+04;  0.0000000E+00;  2.7473956E-02;  4.0000000E+04;  0.0000000E+00;  4.0035070E+04; -2.5510645E-01;  0.0000000E+00;  3.1361427E-02;  4.9206250E+03;
  4.2583460E-01;  9.9999998E-03; -2.9992495E-02;5035; -1.3139437E-01;  0.0000000E+00; -1.1458660E-03;  9.9384802E+02;  1.0000000E-01; -5.0967935E+03;3;  2.5714035E+00;  0.0000000E+00;  8.1392223E-01;0; -2.2361392E-01;  3.9475469E+04;  0.0000000E+00;  1.5454850E-02;  4.0000000E+04;  0.0000000E+00;  4.0035703E+04; -2.5518703E-01;  0.0000000E+00;  3.1573109E-02;  4.9981445E+03;
  4.2583740E-01;  9.9999998E-03; -1.9995248E-02;5036; -1.3156457E-01;  0.0000000E+00; -7.7341130E-04;  9.9387659E+02;  1.0000000E-01; -5.0731396E+03;3;  2.6012683E+00;  0.0000000E+00;  5.3899890E-01;0; -2.2350682E-01;  3.9477082E+04;  0.0000000E+00;  6.8519930E-03;  4.0000000E+04;  0.0000000E+00;  4.0036230E+04; -2.5525552E-01;  0.0000000E+00;  3.1748701E-02;  5.0572197E+03;
  4.2583910E-01;  9.9999998E-03; -9.9977050E-03;5037; -1.3167009E-01;  0.0000000E+00; -3.8959470E-04;  9.9389117E+02;  1.0000000E-01; -5.0610415E+03;3;  2.6204603E+00;  0.0000000E+00;  2.7011085E-01;0; -2.2343670E-01;  3.9478180E+04;  0.0000000E+00;  1.7086924E-03;  4.0000000E+04;  0.0000000E+00;  4.0036562E+04; -2.5530136E-01;  0.0000000E+00;  3.1864662E-02;  5.0941528E+03;
  4.2583954E-01;  9.9999998E-03;  2.0778218E-10;5038; -1.3170590E-01;  0.0000000E+00;  1.8498815E-08;  9.9389661E+02;  1.0000000E-01; -5.0565474E+03;3;  2.6237841E+00;  0.0000000E+00;  8.4755156E-06;0; -2.2341245E-01;  3.9478543E+04;  0.0000000E+00;  1.5875834E-13;  4.0000000E+04;  0.0000000E+00;  4.0036637E+04; -2.5531766E-01;  0.0000000E+00;  3.1905204E-02;  5.1067168E+03;
  4.2583910E-01;  9.9999998E-03;  9.9977059E-03;5039; -1.3167009E-01;  0.0000000E+00;  3.8963222E-04;  9.9389117E+02;  1.0000000E-01; -5.0610415E+03;3;  2.6204560E+00;  0.0000000E+00; -2.7010089E-01;0; -2.2343668E-01;  3.9478180E+04;  0.0000000E+00;  1.7086377E-03;  4.0000000E+04;  0.0000000E+00;  4.0036562E+04; -2.5530136E-01;  0.0000000E+00;  3.1864677E-02;  5.0941499E+03;
  4.2583740E-01;  9.9999998E-03;  1.9995248E-02;5040; -1.3156456E-01;  0.0000000E+00;  7.7344762E-04;  9.9387653E+02;  1.0000000E-01; -5.0731890E+03;3;  2.6012890E+00;  0.0000000E+00; -5.3899854E-01;0; -2.2350697E-01;  3.9477082E+04;  0.0000000E+00;  6.8517681E-03;  4.0000000E+04;  0.0000000E+00;  4.0036230E+04; -2.5525570E-01;  0.0000000E+00;  3.1748723E-02;  5.0572266E+03;
  4.2583460E-01;  9.9999998E-03;  2.9992495E-02;5041; -1.3139434E-01;  0.0000000E+00;  1.1459024E-03;  9.9384802E+02;  1.0000000E-01; -5.0967935E+03;3;  2.5714839E+00;  0.0000000E+00; -8.1393141E-01;0; -2.2361375E-01;  3.9475469E+04;  0.0000000E+00;  1.5454437E-02;  4.0000000E+04;  0.0000000E+00;  4.0035703E+04; -2.5518692E-01;  0.0000000E+00;  3.1573161E-02;  4.9981470E+03;
  4.2582917E-01;  9.9999998E-03;  3.9989337E-02;5042; -1.3116737E-01;  0.0000000E+00;  1.5040125E-03;  9.9381244E+02;  1.0000000E-01; -5.1262739E+03;3;  2.5265694E+00;  0.0000000E+00; -1.0828028E+00;0; -2.2374532E-01;  3.9473152E+04;  0.0000000E+00;  2.7472571E-02;  4.0000000E+04;  0.0000000E+00;  4.0035070E+04; -2.5510678E-01;  0.0000000E+00;  3.1361457E-02;  4.9206284E+03;
  4.2582133E-01;  9.9999998E-03;  4.9985819E-02;5043; -1.3089362E-01;  0.0000000E+00;  1.8459061E-03;  9.9377087E+02;  1.0000000E-01; -5.1606929E+03;3;  2.4701684E+00;  0.0000000E+00; -1.3497533E+00;0; -2.2388698E-01;  3.9470613E+04;  0.0000000E+00;  4.2682815E-02;  4.0000000E+04;  0.0000000E+00;  4.0034301E+04; -2.5502756E-01;  0.0000000E+00;  3.1140579E-02;  4.8299097E+03;
  4.2581075E-01;  9.9999998E-03;  5.9982128E-02;5044; -1.3058452E-01;  0.0000000E+00;  2.1712650E-03;  9.9372681E+02;  1.0000000E-01; -5.1972349E+03;3;  2.4064708E+00;  0.0000000E+00; -1.5935290E+00;0; -2.2402869E-01;  3.9467652E+04;  0.0000000E+00;  6.0549472E-02;  4.0000000E+04;  0.0000000E+00;  4.0033559E+04; -2.5496539E-01;  0.0000000E+00;  3.0936697E-02;  4.7325142E+03;
  4.3585756E-01;  9.9999998E-03; -9.9977121E-02;5089; -1.3182166E-01;  0.0000000E+00; -3.2707371E-03;  9.9366168E+02;  1.0000000E-01; -5.2511592E+03;3;  2.3389056E+00;  0.0000000E+00;  2.5940795E+00;0; -2.2200206E-01;  3.9464332E+04;  0.0000000E+00;  1.2789609E-01;  4.0000000E+04;  0.0000000E+00;  4.0031145E+04; -2.5223172E-01;  0.0000000E+00;  3.0229650E-02;  4.4334414E+03;
  4.3587676E-01;  9.9999998E-03; -8.9979276E-02;5090; -1.3216755E-01;  0.0000000E+00; -2.9899168E-03;  9.9374280E+02;  1.0000000E-01; -5.1839512E+03;3;  2.4293311E+00;  0.0000000E+00;  2.3708255E+00;0; -2.2168680E-01;  3.9470668E+04;  0.0000000E+00;  1.1281385E-01;  4.0000000E+04;  0.0000000E+00;  4.0031195E+04; -2.5194272E-01;  0.0000000E+00;  3.0255930E-02;  4.4424302E+03;
  4.3589452E-01;  9.9999998E-03; -7.9981998E-02;5091; -1.3251919E-01;  0.0000000E+00; -2.7016625E-03;  9.9382605E+02;  1.0000000E-01; -5.1150151E+03;3;  2.5190587E+00;  0.0000000E+00;  2.1378083E+00;0; -2.2138564E-01;  3.9477184E+04;  0.0000000E+00;  9.4865851E-02;  4.0000000E+04;  0.0000000E+00;  4.0031461E+04; -2.5169489E-01;  0.0000000E+00;  3.0309243E-02;  4.4650547E+03;
  4.3590984E-01;  9.9999998E-03; -6.9985092E-02;5092; -1.3286777E-01;  0.0000000E+00; -2.4034048E-03;  9.9390985E+02;  1.0000000E-01; -5.0455850E+03;3;  2.6040087E+00;  0.0000000E+00;  1.8993852E+00;0; -2.2108896E-01;  3.9483637E+04;  0.0000000E+00;  7.5825855E-02;  4.0000000E+04;  0.0000000E+00;  4.0031785E+04; -2.5148878E-01;  0.0000000E+00;  3.0399818E-02;  4.4957129E+03;
  4.3592271E-01;  9.9999998E-03; -5.9988365E-02;5093; -1.3320340E-01;  0.0000000E+00; -2.0934611E-03;  9.9399097E+02;  1.0000000E-01; -4.9783770E+03;3;  2.6803803E+00;  0.0000000E+00;  1.6510547E+00;0; -2.2079460E-01;  3.9489746E+04;  0.0000000E+00;  5.7257585E-02;  4.0000000E+04;  0.0000000E+00;  4.0032066E+04; -2.5132313E-01;  0.0000000E+00;  3.0528534E-02;  4.5296538E+03;
  4.3593284E-01;  9.9999998E-03; -4.9991526E-02;5094; -1.3351472E-01;  0.0000000E+00; -1.7710237E-03;  9.9406555E+02;  1.0000000E-01; -4.9166011E+03;3;  2.7514794E+00;  0.0000000E+00;  1.3930017E+00;0; -2.2050785E-01;  3.9495477E+04;  0.0000000E+00;  4.0376026E-02;  4.0000000E+04;  0.0000000E+00;  4.0032348E+04; -2.5119466E-01;  0.0000000E+00;  3.0686807E-02;  4.5628477E+03;
  4.3593952E-01;  9.9999998E-03; -3.9994225E-02;5095; -1.3378994E-01;  0.0000000E+00; -1.4358431E-03;  9.9413202E+02;  1.0000000E-01; -4.8614912E+03;3;  2.8121495E+00;  0.0000000E+00;  1.1186204E+00;0; -2.2024029E-01;  3.9500508E+04;  0.0000000E+00;  2.6013732E-02;  4.0000000E+04;  0.0000000E+00;  4.0032648E+04; -2.5109899E-01;  0.0000000E+00;  3.0858703E-02;  4.5923979E+03;
  4.3594351E-01;  9.9999998E-03; -2.9996410E-02;5096; -1.3401769E-01;  0.0000000E+00; -1.0891919E-03;  9.9418756E+02;  1.0000000E-01; -4.8155176E+03;3;  2.8620191E+00;  0.0000000E+00;  8.4176379E-01;0; -2.2000748E-01;  3.9504637E+04;  0.0000000E+00;  1.4651556E-02;  4.0000000E+04;  0.0000000E+00;  4.0032895E+04; -2.5103131E-01;  0.0000000E+00;  3.1023823E-02;  4.6164253E+03;
  4.3594563E-01;  9.9999998E-03; -1.9998008E-02;5097; -1.3418832E-01;  0.0000000E+00; -7.3255878E-04;  9.9422827E+02;  1.0000000E-01; -4.7817900E+03;3;  2.8956249E+00;  0.0000000E+00;  5.6075591E-01;0; -2.1982604E-01;  3.9507566E+04;  0.0000000E+00;  6.5031224E-03;  4.0000000E+04;  0.0000000E+00;  4.0032996E+04; -2.5098693E-01;  0.0000000E+00;  3.1160895E-02;  4.6337788E+03;
  4.3594643E-01;  9.9999998E-03; -9.9990955E-03;5098; -1.3429394E-01;  0.0000000E+00; -3.6833837E-04;  9.9425067E+02;  1.0000000E-01; -4.7632227E+03;3;  2.9164977E+00;  0.0000000E+00;  2.8168869E-01;0; -2.1971074E-01;  3.9509543E+04;  0.0000000E+00;  1.6230056E-03;  4.0000000E+04;  0.0000000E+00;  4.0033090E+04; -2.5096229E-01;  0.0000000E+00;  3.1251553E-02;  4.6442480E+03;
  4.3594691E-01;  9.9999998E-03;  1.7817353E-10;5099; -1.3432983E-01;  0.0000000E+00;  1.9713438E-08;  9.9425922E+02;  1.0000000E-01; -4.7561118E+03;3;  2.9226851E+00;  0.0000000E+00;  7.7842524E-06;0; -2.1967106E-01;  3.9510215E+04;  0.0000000E+00;  1.1295054E-13;  4.0000000E+04;  0.0000000E+00;  4.0033223E+04; -2.5095427E-01;  0.0000000E+00;  3.1283218E-02;  4.6476733E+03;
  4.3594643E-01;  9.9999998E-03;  9.9990955E-03;5100; -1.3429394E-01;  0.0000000E+00;  3.6837693E-04;  9.9425073E+02;  1.0000000E-01; -4.7631733E+03;3;  2.9165199E+00;  0.0000000E+00; -2.8168935E-01;0; -2.1971090E-01;  3.9509543E+04;  0.0000000E+00;  1.6229484E-03;  4.0000000E+04;  0.0000000E+00;  4.0033090E+04; -2.5096244E-01;  0.0000000E+00;  3.1251539E-02;  4.6442539E+03;
  4.3594563E-01;  9.9999998E-03;  1.9998010E-02;5101; -1.3418832E-01;  0.0000000E+00;  7.3259580E-04;  9.9422821E+02;  1.0000000E-01; -4.7818394E+03;3;  2.8956838E+00;  0.0000000E+00; -5.6076306E-01;0; -2.1982603E-01;  3.9507566E+04;  0.0000000E+00;  6.5030656E-03;  4.0000000E+04;  0.0000000E+00;  4.0032996E+04; -2.5098690E-01;  0.0000000E+00;  3.1160882E-02;  4.6337808E+03;
  4.3594351E-01;  9.9999998E-03;  2.9996410E-02;5102; -1.3401768E-01;  0.0000000E+00;  1.0892296E-03;  9.9418756E+02;  1.0000000E-01; -4.8155176E+03;3;  2.8624046E+00;  0.0000000E+00; -8.4176666E-01;0; -2.2000763E-01;  3.9504637E+04;  0.0000000E+00;  1.4651764E-02;  4.0000000E+04;  0.0000000E+00;  4.0032895E+04; -2.5103143E-01;  0.0000000E+00;  3.1023808E-02;  4.6164229E+03;
  4.3593952E-01;  9.9999998E-03;  3.9994225E-02;5103; -1.3378993E-01;  0.0000000E+00;  1.4358816E-03;  9.9413184E+02;  1.0000000E-01; -4.8616396E+03;3;  2.8125963E+00;  0.0000000E+00; -1.1186254E+00;0; -2.2024010E-01;  3.9500508E+04;  0.0000000E+00;  2.6013488E-02;  4.0000000E+04;  0.0000000E+00;  4.0032648E+04; -2.5109881E-01;  0.0000000E+00;  3.0858709E-02;  4.5924053E+03;
  4.3593284E-01;  9.9999998E-03;  4.9991526E-02;5104; -1.3351473E-01;  0.0000000E+00;  1.7710648E-03;  9.9406555E+02;  1.0000000E-01; -4.9166011E+03;3;  2.7513413E+00;  0.0000000E+00; -1.3929778E+00;0; -2.2050785E-01;  3.9495480E+04;  0.0000000E+00;  4.0375929E-02;  4.0000000E+04;  0.0000000E+00;  4.0032352E+04; -2.5119466E-01;  0.0000000E+00;  3.0686809E-02;  4.5628511E+03;
  4.3592271E-01;  9.9999998E-03;  5.9988365E-02;5105; -1.3320339E-01;  0.0000000E+00;  2.0935009E-03;  9.9399097E+02;  1.0000000E-01; -4.9783770E+03;3;  2.6805494E+00;  0.0000000E+00; -1.6510503E+00;0; -2.2079487E-01;  3.9489750E+04;  0.0000000E+00;  5.7255991E-02;  4.0000000E+04;  0.0000000E+00;  4.0032066E+04; -2.5132340E-01;  0.0000000E+00;  3.0528536E-02;  4.5296562E+03;
  4.4597626E-01;  9.9999998E-03; -9.9980265E-02;5150; -1.3438299E-01;  0.0000000E+00; -3.1673103E-03;  9.9392737E+02;  1.0000000E-01; -5.0310669E+03;3;  2.5842123E+00;  0.0000000E+00;  2.6753147E+00;0; -2.1926564E-01;  3.9484676E+04;  0.0000000E+00;  1.1122274E-01;  4.0000000E+04;  0.0000000E+00;  4.0031559E+04; -2.4914141E-01;  0.0000000E+00;  2.9875765E-02;  4.4771777E+03;
  4.4599396E-01;  9.9999998E-03; -8.9982770E-02;5151; -1.3472579E-01;  0.0000000E+00; -2.8819230E-03;  9.9404370E+02;  1.0000000E-01; -4.9346743E+03;3;  2.6862187E+00;  0.0000000E+00;  2.4432721E+00;0; -2.1880543E-01;  3.9494105E+04;  0.0000000E+00;  9.8546013E-02;  4.0000000E+04;  0.0000000E+00;  4.0031410E+04; -2.4867189E-01;  0.0000000E+00;  2.9866459E-02;  4.4455796E+03;
  4.4600990E-01;  9.9999998E-03; -7.9985432E-02;5152; -1.3507353E-01;  0.0000000E+00; -2.5898323E-03;  9.9416302E+02;  1.0000000E-01; -4.8358130E+03;3;  2.7853630E+00;  0.0000000E+00;  2.2021229E+00;0; -2.1835303E-01;  3.9503664E+04;  0.0000000E+00;  8.3220787E-02;  4.0000000E+04;  0.0000000E+00;  4.0031262E+04; -2.4822477E-01;  0.0000000E+00;  2.9871738E-02;  4.4178413E+03;
  4.4602334E-01;  9.9999998E-03; -6.9988348E-02;5153; -1.3541740E-01;  0.0000000E+00; -2.2901655E-03;  9.9427820E+02;  1.0000000E-01; -4.7404082E+03;3;  2.8797588E+00;  0.0000000E+00;  1.9555701E+00;0; -2.1790738E-01;  3.9512973E+04;  0.0000000E+00;  6.6806458E-02;  4.0000000E+04;  0.0000000E+00;  4.0031172E+04; -2.4780937E-01;  0.0000000E+00;  2.9901979E-02;  4.3911396E+03;
  4.4603452E-01;  9.9999998E-03; -5.9991401E-02;5154; -1.3574758E-01;  0.0000000E+00; -1.9825238E-03;  9.9438501E+02;  1.0000000E-01; -4.6519170E+03;3;  2.9663513E+00;  0.0000000E+00;  1.6965336E+00;0; -2.1747197E-01;  3.9521727E+04;  0.0000000E+00;  5.0668072E-02;  4.0000000E+04;  0.0000000E+00;  4.0031031E+04; -2.4743241E-01;  0.0000000E+00;  2.9960442E-02;  4.3638354E+03;
  4.4604322E-01;  9.9999998E-03; -4.9994264E-02;5155; -1.3605314E-01;  0.0000000E+00; -1.6668686E-03;  9.9448230E+02;  1.0000000E-01; -4.5713267E+03;3;  3.0445900E+00;  0.0000000E+00;  1.4266393E+00;0; -2.1705845E-01;  3.9529691E+04;  0.0000000E+00;  3.5884514E-02;  4.0000000E+04;  0.0000000E+00;  4.0030863E+04; -2.4710134E-01;  0.0000000E+00;  3.0042890E-02;  4.3358257E+03;
  4.4604942E-01;  9.9999998E-03; -3.9996669E-02;5156; -1.3632281E-01;  0.0000000E+00; -1.3437122E-03;  9.9456879E+02;  1.0000000E-01; -4.4996743E+03;3;  3.1112597E+00;  0.0000000E+00;  1.1470490E+00;0; -2.1668246E-01;  3.9536641E+04;  0.0000000E+00;  2.3213414E-02;  4.0000000E+04;  0.0000000E+00;  4.0030613E+04; -2.4682175E-01;  0.0000000E+00;  3.0139284E-02;  4.3081182E+03;
  4.4605246E-01;  9.9999998E-03; -2.9998424E-02;5157; -1.3654549E-01;  0.0000000E+00; -1.0142965E-03;  9.9463635E+02;  1.0000000E-01; -4.4436763E+03;3;  3.1649144E+00;  0.0000000E+00;  8.6169285E-01;0; -2.1636374E-01;  3.9542230E+04;  0.0000000E+00;  1.3119743E-02;  4.0000000E+04;  0.0000000E+00;  4.0030516E+04; -2.4659990E-01;  0.0000000E+00;  3.0236157E-02;  4.2826606E+03;
  4.4605392E-01;  9.9999998E-03; -1.9999472E-02;5158; -1.3671204E-01;  0.0000000E+00; -6.7948614E-04;  9.9468549E+02;  1.0000000E-01; -4.4029858E+03;3;  3.2013447E+00;  0.0000000E+00;  5.7299805E-01;0; -2.1612002E-01;  3.9546332E+04;  0.0000000E+00;  5.8389446E-03;  4.0000000E+04;  0.0000000E+00;  4.0030379E+04; -2.4643876E-01;  0.0000000E+00;  3.0318743E-02;  4.2618447E+03;
  4.4605455E-01;  9.9999998E-03; -9.9999178E-03;5159; -1.3681512E-01;  0.0000000E+00; -3.4066886E-04;  9.9471753E+02;  1.0000000E-01; -4.3764189E+03;3;  3.2254875E+00;  0.0000000E+00;  2.8943953E-01;0; -2.1596688E-01;  3.9548855E+04;  0.0000000E+00;  1.4596926E-03;  4.0000000E+04;  0.0000000E+00;  4.0030250E+04; -2.4634100E-01;  0.0000000E+00;  3.0374127E-02;  4.2481724E+03;
  4.4605413E-01;  9.9999998E-03;  1.7046675E-10;5160; -1.3684990E-01;  0.0000000E+00;  1.9816877E-08;  9.9472742E+02;  1.0000000E-01; -4.3682217E+03;3;  3.2322190E+00;  0.0000000E+00;  6.7652072E-06;0; -2.1591486E-01;  3.9549703E+04;  0.0000000E+00; -1.4737842E-12;  4.0000000E+04;  0.0000000E+00;  4.0030352E+04; -2.4630859E-01;  0.0000000E+00;  3.0393735E-02;  4.2434253E+03;
  4.4605455E-01;  9.9999998E-03;  9.9999178E-03;5161; -1.3681512E-01;  0.0000000E+00;  3.4070842E-04;  9.9471753E+02;  1.0000000E-01; -4.3764189E+03;3;  3.2255423E+00;  0.0000000E+00; -2.8943199E-01;0; -2.1596675E-01;  3.9548855E+04;  0.0000000E+00;  1.4597406E-03;  4.0000000E+04;  0.0000000E+00;  4.0030250E+04; -2.4634089E-01;  0.0000000E+00;  3.0374136E-02;  4.2481641E+03;
  4.4605392E-01;  9.9999998E-03;  1.9999472E-02;5162; -1.3671203E-01;  0.0000000E+00;  6.7952595E-04;  9.9468549E+02;  1.0000000E-01; -4.4029858E+03;3;  3.2013700E+00;  0.0000000E+00; -5.7298189E-01;0; -2.1612018E-01;  3.9546328E+04;  0.0000000E+00;  5.8388240E-03;  4.0000000E+04;  0.0000000E+00;  4.0030379E+04; -2.4643894E-01;  0.0000000E+00;  3.0318746E-02;  4.2618413E+03;
  4.4605246E-01;  9.9999998E-03;  2.9998424E-02;5163; -1.3654549E-01;  0.0000000E+00;  1.0143347E-03;  9.9463635E+02;  1.0000000E-01; -4.4436763E+03;3;  3.1649873E+00;  0.0000000E+00; -8.6169380E-01;0; -2.1636370E-01;  3.9542227E+04;  0.0000000E+00;  1.3119498E-02;  4.0000000E+04;  0.0000000E+00;  4.0030516E+04; -2.4659985E-01;  0.0000000E+00;  3.0236159E-02;  4.2826709E+03;
  4.4604942E-01;  9.9999998E-03;  3.9996669E-02;5164; -1.3632280E-01;  0.0000000E+00;  1.3437498E-03;  9.9456873E+02;  1.0000000E-01; -4.4997241E+03;3;  3.1110651E+00;  0.0000000E+00; -1.1470650E+00;0; -2.1668249E-01;  3.9536637E+04;  0.0000000E+00;  2.3213007E-02;  4.0000000E+04;  0.0000000E+00;  4.0030613E+04; -2.4682181E-01;  0.0000000E+00;  3.0139307E-02;  4.3081221E+03;
  4.4604322E-01;  9.9999998E-03;  4.9994264E-02;5165; -1.3605313E-01;  0.0000000E+00;  1.6669066E-03;  9.9448236E+02;  1.0000000E-01; -4.5712773E+03;3;  3.0447218E+00;  0.0000000E+00; -1.4266412E+00;0; -2.1705849E-01;  3.9529691E+04;  0.0000000E+00;  3.5884399E-02;  4.0000000E+04;  0.0000000E+00;  4.0030863E+04; -2.4710137E-01;  0.0000000E+00;  3.0042876E-02;  4.3358335E+03;
  4.4603452E-01;  9.9999998E-03;  5.9991401E-02;5166; -1.3574757E-01;  0.0000000E+00;  1.9825632E-03;  9.9438495E+02;  1.0000000E-01; -4.6519663E+03;3;  2.9666095E+00;  0.0000000E+00; -1.6965449E+00;0; -2.1747181E-01;  3.9521727E+04;  0.0000000E+00;  5.0667673E-02;  4.0000000E+04;  0.0000000E+00;  4.0031027E+04; -2.4743226E-01;  0.0000000E+00;  2.9960452E-02;  4.3638281E+03;
  4.5608220E-01;  9.9999998E-03; -9.9977843E-02;5211; -1.3688959E-01;  0.0000000E+00; -3.0310689E-03;  9.9430890E+02;  1.0000000E-01; -4.7149771E+03;3;  2.8379648E+00;  0.0000000E+00;  2.7438531E+00;0; -2.1649329E-01;  3.9513824E+04;  0.0000000E+00;  8.4652513E-02;  4.0000000E+04;  0.0000000E+00;  4.0032422E+04; -2.4599640E-01;  0.0000000E+00;  2.9503109E-02;  4.5449429E+03;
  4.5609725E-01;  9.9999998E-03; -8.9980967E-02;5212; -1.3722265E-01;  0.0000000E+00; -2.7412428E-03;  9.9445142E+02;  1.0000000E-01; -4.5969062E+03;3;  2.9530878E+00;  0.0000000E+00;  2.5009558E+00;0; -2.1591195E-01;  3.9525812E+04;  0.0000000E+00;  7.5996555E-02;  4.0000000E+04;  0.0000000E+00;  4.0032016E+04; -2.4533930E-01;  0.0000000E+00;  2.9427348E-02;  4.4728047E+03;
  4.5611107E-01;  9.9999998E-03; -7.9984032E-02;5213; -1.3755925E-01;  0.0000000E+00; -2.4469832E-03;  9.9459430E+02;  1.0000000E-01; -4.4785396E+03;3;  3.0630896E+00;  0.0000000E+00;  2.2514346E+00;0; -2.1533550E-01;  3.9537539E+04;  0.0000000E+00;  6.4889319E-02;  4.0000000E+04;  0.0000000E+00;  4.0031441E+04; -2.4468906E-01;  0.0000000E+00;  2.9353553E-02;  4.3963716E+03;
  4.5612341E-01;  9.9999998E-03; -6.9987170E-02;5214; -1.3789102E-01;  0.0000000E+00; -2.1481013E-03;  9.9473315E+02;  1.0000000E-01; -4.3634810E+03;3;  3.1676764E+00;  0.0000000E+00;  1.9953458E+00;0; -2.1476814E-01;  3.9549133E+04;  0.0000000E+00;  5.2587438E-02;  4.0000000E+04;  0.0000000E+00;  4.0030895E+04; -2.4406189E-01;  0.0000000E+00;  2.9293744E-02;  4.3156177E+03;
  4.5613381E-01;  9.9999998E-03; -5.9990302E-02;5215; -1.3820848E-01;  0.0000000E+00; -1.8455451E-03;  9.9486005E+02;  1.0000000E-01; -4.2583481E+03;3;  3.2643995E+00;  0.0000000E+00;  1.7305572E+00;0; -2.1422103E-01;  3.9559867E+04;  0.0000000E+00;  4.0217191E-02;  4.0000000E+04;  0.0000000E+00;  4.0030234E+04; -2.4347544E-01;  0.0000000E+00;  2.9254409E-02;  4.2320991E+03;
  4.5614201E-01;  9.9999998E-03; -4.9993329E-02;5216; -1.3850133E-01;  0.0000000E+00; -1.5404630E-03;  9.9497430E+02;  1.0000000E-01; -4.1636841E+03;3;  3.3482034E+00;  0.0000000E+00;  1.4529005E+00;0; -2.1370882E-01;  3.9569562E+04;  0.0000000E+00;  2.8690144E-02;  4.0000000E+04;  0.0000000E+00;  4.0029652E+04; -2.4294539E-01;  0.0000000E+00;  2.9236577E-02;  4.1489248E+03;
  4.5614800E-01;  9.9999998E-03; -3.9995961E-02;5217; -1.3875902E-01;  0.0000000E+00; -1.2336585E-03;  9.9507202E+02;  1.0000000E-01; -4.0827480E+03;3;  3.4210844E+00;  0.0000000E+00;  1.1638404E+00;0; -2.1325028E-01;  3.9578012E+04;  0.0000000E+00;  1.8675707E-02;  4.0000000E+04;  0.0000000E+00;  4.0029156E+04; -2.4248712E-01;  0.0000000E+00;  2.9236831E-02;  4.0703579E+03;
  4.5615250E-01;  9.9999998E-03; -2.9997969E-02;5218; -1.3897172E-01;  0.0000000E+00; -9.2591613E-04;  9.9515289E+02;  1.0000000E-01; -4.0157378E+03;3;  3.4773755E+00;  0.0000000E+00;  8.7239587E-01;0; -2.1286632E-01;  3.9584598E+04;  0.0000000E+00;  1.0608898E-02;  4.0000000E+04;  0.0000000E+00;  4.0028621E+04; -2.4211507E-01;  0.0000000E+00;  2.9248739E-02;  4.0014163E+03;
  4.5615527E-01;  9.9999998E-03; -1.9999301E-02;5219; -1.3913044E-01;  0.0000000E+00; -6.1751058E-04;  9.9520819E+02;  1.0000000E-01; -3.9699119E+03;3;  3.5183909E+00;  0.0000000E+00;  5.8273441E-01;0; -2.1257558E-01;  3.9589641E+04;  0.0000000E+00;  4.7393106E-03;  4.0000000E+04;  0.0000000E+00;  4.0028273E+04; -2.4184024E-01;  0.0000000E+00;  2.9264666E-02;  3.9473340E+03;
  4.5615658E-01;  9.9999998E-03; -9.9998675E-03;5220; -1.3922864E-01;  0.0000000E+00; -3.0882502E-04;  9.9524255E+02;  1.0000000E-01; -3.9414683E+03;3;  3.5423453E+00;  0.0000000E+00;  2.8967407E-01;0; -2.1239442E-01;  3.9592590E+04;  0.0000000E+00;  1.1875123E-03;  4.0000000E+04;  0.0000000E+00;  4.0028004E+04; -2.4167199E-01;  0.0000000E+00;  2.9277571E-02;  3.9127424E+03;
  4.5615688E-01;  9.9999998E-03;  2.0959347E-10;5221; -1.3926175E-01;  0.0000000E+00;  2.0535239E-08;  9.9525525E+02;  1.0000000E-01; -3.9309500E+03;3;  3.5517499E+00;  0.0000000E+00;  6.7174515E-06;0; -2.1233252E-01;  3.9593617E+04;  0.0000000E+00; -1.5214912E-12;  4.0000000E+04;  0.0000000E+00;  4.0027996E+04; -2.4161497E-01;  0.0000000E+00;  2.9282449E-02;  3.9008098E+03;
  4.5615658E-01;  9.9999998E-03;  9.9998685E-03;5222; -1.3922864E-01;  0.0000000E+00;  3.0886591E-04;  9.9524243E+02;  1.0000000E-01; -3.9415669E+03;3;  3.5424037E+00;  0.0000000E+00; -2.8966582E-01;0; -2.1239434E-01;  3.9592590E+04;  0.0000000E+00;  1.1875624E-03;  4.0000000E+04;  0.0000000E+00;  4.0028004E+04; -2.4167189E-01;  0.0000000E+00;  2.9277550E-02;  3.9127366E+03;
  4.5615527E-01;  9.9999998E-03;  1.9999301E-02;5223; -1.3913044E-01;  0.0000000E+00;  6.1755074E-04;  9.9520819E+02;  1.0000000E-01; -3.9699119E+03;3;  3.5184426E+00;  0.0000000E+00; -5.8272904E-01;0; -2.1257569E-01;  3.9589641E+04;  0.0000000E+00;  4.7393846E-03;  4.0000000E+04;  0.0000000E+00;  4.0028277E+04; -2.4184035E-01;  0.0000000E+00;  2.9264653E-02;  3.9473311E+03;
  4.5615250E-01;  9.9999998E-03;  2.9997969E-02;5224; -1.3897172E-01;  0.0000000E+00;  9.2595554E-04;  9.9515289E+02;  1.0000000E-01; -4.0157378E+03;3;  3.4774714E+00;  0.0000000E+00; -8.7239248E-01;0; -2.1286613E-01;  3.9584602E+04;  0.0000000E+00;  1.0608797E-02;  4.0000000E+04;  0.0000000E+00;  4.0028621E+04; -2.4211486E-01;  0.0000000E+00;  2.9248733E-02;  4.0014253E+03;
  4.5614800E-01;  9.9999998E-03;  3.9995961E-02;5225; -1.3875902E-01;  0.0000000E+00;  1.2336974E-03;  9.9507202E+02;  1.0000000E-01; -4.0827480E+03;3;  3.4208632E+00;  0.0000000E+00; -1.1638331E+00;0; -2.1325025E-01;  3.9578012E+04;  0.0000000E+00;  1.8676555E-02;  4.0000000E+04;  0.0000000E+00;  4.0029152E+04; -2.4248712E-01;  0.0000000E+00;  2.9236861E-02;  4.0703545E+03;
  4.5614201E-01;  9.9999998E-03;  4.9993329E-02;5226; -1.3850132E-01;  0.0000000E+00;  1.5405015E-03;  9.9497437E+02;  1.0000000E-01; -4.1636348E+03;3;  3.3483365E+00;  0.0000000E+00; -1.4529006E+00;0; -2.1370865E-01;  3.9569562E+04;  0.0000000E+00;  2.8690379E-02;  4.0000000E+04;  0.0000000E+00;  4.0029652E+04; -2.4294525E-01;  0.0000000E+00;  2.9236602E-02;  4.1489370E+03;
  4.5613381E-01;  9.9999998E-03;  5.9990302E-02;5227; -1.3820848E-01;  0.0000000E+00;  1.8455849E-03;  9.9486005E+02;  1.0000000E-01; -4.2583481E+03;3;  3.2642682E+00;  0.0000000E+00; -1.7305771E+00;0; -2.1422076E-01;  3.9559867E+04;  0.0000000E+00;  4.0218573E-02;  4.0000000E+04;  0.0000000E+00;  4.0030234E+04; -2.4347520E-01;  0.0000000E+00;  2.9254435E-02;  4.2320884E+03;
  4.6616510E-01;  9.9999998E-03; -9.9970281E-02;5272; -1.3933720E-01;  0.0000000E+00; -2.8698044E-03;  9.9474182E+02;  1.0000000E-01; -4.3563203E+03;3;  3.1017637E+00;  0.0000000E+00;  2.7998161E+00;0; -2.1380463E-01;  3.9547242E+04;  0.0000000E+00;  5.0179411E-02;  4.0000000E+04;  0.0000000E+00;  4.0033199E+04; -2.4291369E-01;  0.0000000E+00;  2.9109057E-02;  4.6178018E+03;
  4.6617773E-01;  9.9999998E-03; -8.9974456E-02;5273; -1.3965462E-01;  0.0000000E+00; -2.5765875E-03;  9.9490173E+02;  1.0000000E-01; -4.2238301E+03;3;  3.2294502E+00;  0.0000000E+00;  2.5499794E+00;0; -2.1313494E-01;  3.9560777E+04;  0.0000000E+00;  4.6296883E-02;  4.0000000E+04;  0.0000000E+00;  4.0032527E+04; -2.4207635E-01;  0.0000000E+00;  2.8941404E-02;  4.5080469E+03;
  4.6619013E-01;  9.9999998E-03; -7.9978526E-02;5274; -1.3997380E-01;  0.0000000E+00; -2.2817424E-03;  9.9506165E+02;  1.0000000E-01; -4.0913401E+03;3;  3.3499272E+00;  0.0000000E+00;  2.2900560E+00;0; -2.1246986E-01;  3.9574199E+04;  0.0000000E+00;  4.0366437E-02;  4.0000000E+04;  0.0000000E+00;  4.0031680E+04; -2.4123412E-01;  0.0000000E+00;  2.8764263E-02;  4.3877471E+03;
  4.6620139E-01;  9.9999998E-03; -6.9982544E-02;5275; -1.4028685E-01;  0.0000000E+00; -1.9864957E-03;  9.9521204E+02;  1.0000000E-01; -3.9667512E+03;3;  3.4632621E+00;  0.0000000E+00;  2.0212002E+00;0; -2.1181922E-01;  3.9587051E+04;  0.0000000E+00;  3.3257350E-02;  4.0000000E+04;  0.0000000E+00;  4.0030754E+04; -2.4041121E-01;  0.0000000E+00;  2.8591985E-02;  4.2594082E+03;
  4.6621120E-01;  9.9999998E-03; -5.9986457E-02;5276; -1.4058505E-01;  0.0000000E+00; -1.6923723E-03;  9.9535040E+02;  1.0000000E-01; -3.8520876E+03;3;  3.5666759E+00;  0.0000000E+00;  1.7468960E+00;0; -2.1119627E-01;  3.9599133E+04;  0.0000000E+00;  2.5770918E-02;  4.0000000E+04;  0.0000000E+00;  4.0029789E+04; -2.3963133E-01;  0.0000000E+00;  2.8435050E-02;  4.1273159E+03;
  4.6621895E-01;  9.9999998E-03; -4.9990118E-02;5277; -1.4085883E-01;  0.0000000E+00; -1.4007704E-03;  9.9547455E+02;  1.0000000E-01; -3.7492266E+03;3;  3.6609147E+00;  0.0000000E+00;  1.4655859E+00;0; -2.1061981E-01;  3.9609840E+04;  0.0000000E+00;  1.8579081E-02;  4.0000000E+04;  0.0000000E+00;  4.0028801E+04; -2.3892009E-01;  0.0000000E+00;  2.8300280E-02;  3.9972874E+03;
  4.6622515E-01;  9.9999998E-03; -3.9993349E-02;5278; -1.4109904E-01;  0.0000000E+00; -1.1132500E-03;  9.9558038E+02;  1.0000000E-01; -3.6615747E+03;3;  3.7399626E+00;  0.0000000E+00;  1.1776582E+00;0; -2.1010908E-01;  3.9619062E+04;  0.0000000E+00;  1.2193739E-02;  4.0000000E+04;  0.0000000E+00;  4.0027914E+04; -2.3830004E-01;  0.0000000E+00;  2.8190963E-02;  3.8761948E+03;
  4.6622950E-01;  9.9999998E-03; -2.9996021E-02;5279; -1.4129673E-01;  0.0000000E+00; -8.3017279E-04;  9.9566278E+02;  1.0000000E-01; -3.5932803E+03;3;  3.8000612E+00;  0.0000000E+00;  8.8241494E-01;0; -2.0968524E-01;  3.9626516E+04;  0.0000000E+00;  6.9702943E-03;  4.0000000E+04;  0.0000000E+00;  4.0027199E+04; -2.3779315E-01;  0.0000000E+00;  2.8107911E-02;  3.7714392E+03;
  4.6623272E-01;  9.9999998E-03; -1.9997969E-02;5280; -1.4144415E-01;  0.0000000E+00; -5.5097870E-04;  9.9572424E+02;  1.0000000E-01; -3.5423682E+03;3;  3.8447306E+00;  0.0000000E+00;  5.8824092E-01;0; -2.0936702E-01;  3.9631879E+04;  0.0000000E+00;  3.1277251E-03;  4.0000000E+04;  0.0000000E+00;  4.0026488E+04; -2.3741722E-01;  0.0000000E+00;  2.8050194E-02;  3.6902151E+03;
  4.6623489E-01;  9.9999998E-03; -9.9992109E-03;5281; -1.4153536E-01;  0.0000000E+00; -2.7462892E-04;  9.9576068E+02;  1.0000000E-01; -3.5121963E+03;3;  3.8688061E+00;  0.0000000E+00;  2.9434291E-01;0; -2.0916936E-01;  3.9635332E+04;  0.0000000E+00;  7.8574836E-04;  4.0000000E+04;  0.0000000E+00;  4.0026141E+04; -2.3718570E-01;  0.0000000E+00;  2.8016340E-02;  3.6386165E+03;
  4.6623576E-01;  9.9999998E-03;  2.8881875E-10;5282; -1.4156614E-01;  0.0000000E+00;  2.0373315E-08;  9.9577258E+02;  1.0000000E-01; -3.5023198E+03;3;  3.8786261E+00;  0.0000000E+00; -3.9393490E-06;0; -2.0910220E-01;  3.9636375E+04;  0.0000000E+00; -1.3148428E-12;  4.0000000E+04;  0.0000000E+00;  4.0026039E+04; -2.3710741E-01;  0.0000000E+00;  2.8005214E-02;  3.6209160E+03;
  4.6623489E-01;  9.9999998E-03;  9.9992119E-03;5283; -1.4153534E-01;  0.0000000E+00;  2.7466987E-04;  9.9576068E+02;  1.0000000E-01; -3.5121963E+03;3;  3.8688424E+00;  0.0000000E+00; -2.9433811E-01;0; -2.0916945E-01;  3.9635332E+04;  0.0000000E+00;  7.8593771E-04;  4.0000000E+04;  0.0000000E+00;  4.0026141E+04; -2.3718579E-01;  0.0000000E+00;  2.8016344E-02;  3.6386189E+03;
  4.6623272E-01;  9.9999998E-03;  1.9997971E-02;5284; -1.4144418E-01;  0.0000000E+00;  5.5101956E-04;  9.9572424E+02;  1.0000000E-01; -3.5423682E+03;3;  3.8444483E+00;  0.0000000E+00; -5.8823830E-01;0; -2.0936701E-01;  3.9631883E+04;  0.0000000E+00;  3.1277530E-03;  4.0000000E+04;  0.0000000E+00;  4.0026484E+04; -2.3741722E-01;  0.0000000E+00;  2.8050218E-02;  3.6902107E+03;
  4.6622950E-01;  9.9999998E-03;  2.9996021E-02;5285; -1.4129673E-01;  0.0000000E+00;  8.3021319E-04;  9.9566284E+02;  1.0000000E-01; -3.5932310E+03;3;  3.8001797E+00;  0.0000000E+00; -8.8241529E-01;0; -2.0968527E-01;  3.9626516E+04;  0.0000000E+00;  6.9708624E-03;  4.0000000E+04;  0.0000000E+00;  4.0027199E+04; -2.3779321E-01;  0.0000000E+00;  2.8107936E-02;  3.7714399E+03;
  4.6622515E-01;  9.9999998E-03;  3.9993349E-02;5286; -1.4109902E-01;  0.0000000E+00;  1.1132900E-03;  9.9558038E+02;  1.0000000E-01; -3.6615747E+03;3;  3.7397771E+00;  0.0000000E+00; -1.1776612E+00;0; -2.1010907E-01;  3.9619059E+04;  0.0000000E+00;  1.2193866E-02;  4.0000000E+04;  0.0000000E+00;  4.0027910E+04; -2.3830006E-01;  0.0000000E+00;  2.8190982E-02;  3.8761936E+03;
  4.6621895E-01;  9.9999998E-03;  4.9990118E-02;5287; -1.4085881E-01;  0.0000000E+00;  1.4008109E-03;  9.9547461E+02;  1.0000000E-01; -3.7491770E+03;3;  3.6607554E+00;  0.0000000E+00; -1.4655880E+00;0; -2.1061958E-01;  3.9609840E+04;  0.0000000E+00;  1.8578533E-02;  4.0000000E+04;  0.0000000E+00;  4.0028801E+04; -2.3891990E-01;  0.0000000E+00;  2.8300311E-02;  3.9972959E+03;
  4.6621120E-01;  9.9999998E-03;  5.9986457E-02;5288; -1.4058504E-01;  0.0000000E+00;  1.6924114E-03;  9.9535034E+02;  1.0000000E-01; -3.8521372E+03;3;  3.5668941E+00;  0.0000000E+00; -1.7468961E+00;0; -2.1119629E-01;  3.9599137E+04;  0.0000000E+00;  2.5770767E-02;  4.0000000E+04;  0.0000000E+00;  4.0029789E+04; -2.3963133E-01;  0.0000000E+00;  2.8435035E-02;  4.1273247E+03;
  4.7621781E-01;  9.9999998E-03; -9.9961616E-02;5333; -1.4172681E-01;  0.0000000E+00; -2.6930249E-03;  9.9515399E+02;  1.0000000E-01; -4.0148484E+03;3;  3.3751698E+00;  0.0000000E+00;  2.8480279E+00;0; -2.1130869E-01;  3.9579090E+04;  0.0000000E+00;  1.0793311E-02;  4.0000000E+04;  0.0000000E+00;  4.0034008E+04; -2.3999418E-01;  0.0000000E+00;  2.8685493E-02;  4.6766846E+03;
  4.7622564E-01;  9.9999998E-03; -8.9967236E-02;5334; -1.4202288E-01;  0.0000000E+00; -2.3979992E-03;  9.9531915E+02;  1.0000000E-01; -3.8780129E+03;3;  3.5142856E+00;  0.0000000E+00;  2.5874884E+00;0; -2.1059176E-01;  3.9593395E+04;  0.0000000E+00;  1.1585058E-02;  4.0000000E+04;  0.0000000E+00;  4.0033004E+04; -2.3900011E-01;  0.0000000E+00;  2.8408354E-02;  4.5346230E+03;
  4.7623324E-01;  9.9999998E-03; -7.9972602E-02;5335; -1.4231855E-01;  0.0000000E+00; -2.1050067E-03;  9.9548102E+02;  1.0000000E-01; -3.7438933E+03;3;  3.6458657E+00;  0.0000000E+00;  2.3175385E+00;0; -2.0988092E-01;  3.9607387E+04;  0.0000000E+00;  1.1105337E-02;  4.0000000E+04;  0.0000000E+00;  4.0031902E+04; -2.3799297E-01;  0.0000000E+00;  2.8112052E-02;  4.3779424E+03;
  4.7624043E-01;  9.9999998E-03; -6.9977745E-02;5336; -1.4260694E-01;  0.0000000E+00; -1.8160789E-03;  9.9563348E+02;  1.0000000E-01; -3.6175759E+03;3;  3.7680933E+00;  0.0000000E+00;  2.0371439E+00;0; -2.0918924E-01;  3.9620715E+04;  0.0000000E+00;  9.7457441E-03;  4.0000000E+04;  0.0000000E+00;  4.0030680E+04; -2.3700319E-01;  0.0000000E+00;  2.7813956E-02;  4.2111221E+03;
  4.7624668E-01;  9.9999998E-03; -5.9982557E-02;5337; -1.4288008E-01;  0.0000000E+00; -1.5333483E-03;  9.9577399E+02;  1.0000000E-01; -3.5011841E+03;3;  3.8798730E+00;  0.0000000E+00;  1.7485759E+00;0; -2.0853165E-01;  3.9633270E+04;  0.0000000E+00;  7.8851823E-03;  4.0000000E+04;  0.0000000E+00;  4.0029227E+04; -2.3606071E-01;  0.0000000E+00;  2.7529066E-02;  4.0405483E+03;
  4.7625202E-01;  9.9999998E-03; -4.9986944E-02;5338; -1.4312989E-01;  0.0000000E+00; -1.2582802E-03;  9.9590033E+02;  1.0000000E-01; -3.3964958E+03;3;  3.9780724E+00;  0.0000000E+00;  1.4564490E+00;0; -2.0792797E-01;  3.9644371E+04;  0.0000000E+00;  5.8557587E-03;  4.0000000E+04;  0.0000000E+00;  4.0028199E+04; -2.3519763E-01;  0.0000000E+00;  2.7269654E-02;  3.8740449E+03;
  4.7625616E-01;  9.9999998E-03; -3.9990805E-02;5339; -1.4334811E-01;  0.0000000E+00; -9.9189009E-04;  9.9600586E+02;  1.0000000E-01; -3.3090908E+03;3;  4.0605469E+00;  0.0000000E+00;  1.1638149E+00;0; -2.0739803E-01;  3.9653852E+04;  0.0000000E+00;  3.9210669E-03;  4.0000000E+04;  0.0000000E+00;  4.0027023E+04; -2.3444362E-01;  0.0000000E+00;  2.7045596E-02;  3.7203494E+03;
  4.7625914E-01;  9.9999998E-03; -2.9994018E-02;5340; -1.4352717E-01;  0.0000000E+00; -7.3425297E-04;  9.9608972E+02;  1.0000000E-01; -3.2396113E+03;3;  4.1259966E+00;  0.0000000E+00;  8.7694257E-01;0; -2.0696110E-01;  3.9661492E+04;  0.0000000E+00;  2.2716047E-03;  4.0000000E+04;  0.0000000E+00;  4.0025984E+04; -2.3382545E-01;  0.0000000E+00;  2.6864355E-02;  3.5884487E+03;
  4.7626105E-01;  9.9999998E-03; -1.9996561E-02;5341; -1.4366026E-01;  0.0000000E+00; -4.8436271E-04;  9.9614825E+02;  1.0000000E-01; -3.1911189E+03;3;  4.1744194E+00;  0.0000000E+00;  5.9017050E-01;0; -2.0663519E-01;  3.9666938E+04;  0.0000000E+00;  1.0278564E-03;  4.0000000E+04;  0.0000000E+00;  4.0025160E+04; -2.3336655E-01;  0.0000000E+00;  2.6731351E-02;  3.4868450E+03;
  4.7626227E-01;  9.9999998E-03; -9.9985031E-03;5342; -1.4374234E-01;  0.0000000E+00; -2.4039565E-04;  9.9618683E+02;  1.0000000E-01; -3.1591199E+03;3;  4.2049608E+00;  0.0000000E+00;  2.9841998E-01;0; -2.0643367E-01;  3.9670637E+04;  0.0000000E+00;  2.5936996E-04;  4.0000000E+04;  0.0000000E+00;  4.0024676E+04; -2.3308381E-01;  0.0000000E+00;  2.6650151E-02;  3.4226641E+03;
  4.7626272E-01;  9.9999998E-03;  3.7776848E-10;5343; -1.4377016E-01;  0.0000000E+00;  2.0599220E-08;  9.9619843E+02;  1.0000000E-01; -3.1495398E+03;3;  4.2141876E+00;  0.0000000E+00; -5.0334311E-06;0; -2.0636535E-01;  3.9671520E+04;  0.0000000E+00; -1.1629422E-12;  4.0000000E+04;  0.0000000E+00;  4.0024605E+04; -2.3298824E-01;  0.0000000E+00;  2.6622895E-02;  3.4006702E+03;
  4.7626227E-01;  9.9999998E-03;  9.9985041E-03;5344; -1.4374234E-01;  0.0000000E+00;  2.4043700E-04;  9.9618677E+02;  1.0000000E-01; -3.1591692E+03;3;  4.2049899E+00;  0.0000000E+00; -2.9842341E-01;0; -2.0643365E-01;  3.9670637E+04;  0.0000000E+00;  2.5954697E-04;  4.0000000E+04;  0.0000000E+00;  4.0024676E+04; -2.3308383E-01;  0.0000000E+00;  2.6650175E-02;  3.4226587E+03;
  4.7626105E-01;  9.9999998E-03;  1.9996561E-02;5345; -1.4366028E-01;  0.0000000E+00;  4.8440407E-04;  9.9614825E+02;  1.0000000E-01; -3.1911189E+03;3;  4.1744657E+00;  0.0000000E+00; -5.9017181E-01;0; -2.0663549E-01;  3.9666938E+04;  0.0000000E+00;  1.0281686E-03;  4.0000000E+04;  0.0000000E+00;  4.0025160E+04; -2.3336682E-01;  0.0000000E+00;  2.6731327E-02;  3.4868484E+03;
  4.7625914E-01;  9.9999998E-03;  2.9994020E-02;5346; -1.4352718E-01;  0.0000000E+00;  7.3429447E-04;  9.9608972E+02;  1.0000000E-01; -3.2396113E+03;3;  4.1257644E+00;  0.0000000E+00; -8.7694496E-01;0; -2.0696127E-01;  3.9661496E+04;  0.0000000E+00;  2.2721044E-03;  4.0000000E+04;  0.0000000E+00;  4.0025984E+04; -2.3382561E-01;  0.0000000E+00;  2.6864331E-02;  3.5884514E+03;
  4.7625616E-01;  9.9999998E-03;  3.9990805E-02;5347; -1.4334813E-01;  0.0000000E+00;  9.9193119E-04;  9.9600580E+02;  1.0000000E-01; -3.3091401E+03;3;  4.0603824E+00;  0.0000000E+00; -1.1638153E+00;0; -2.0739788E-01;  3.9653852E+04;  0.0000000E+00;  3.9214063E-03;  4.0000000E+04;  0.0000000E+00;  4.0027027E+04; -2.3444349E-01;  0.0000000E+00;  2.7045611E-02;  3.7203525E+03;
  4.7625202E-01;  9.9999998E-03;  4.9986944E-02;5348; -1.4312989E-01;  0.0000000E+00;  1.2583202E-03;  9.9590033E+02;  1.0000000E-01; -3.3964958E+03;3;  3.9779284E+00;  0.0000000E+00; -1.4564439E+00;0; -2.0792820E-01;  3.9644371E+04;  0.0000000E+00;  5.8552083E-03;  4.0000000E+04;  0.0000000E+00;  4.0028199E+04; -2.3519790E-01;  0.0000000E+00;  2.7269704E-02;  3.8740566E+03;
  4.7624668E-01;  9.9999998E-03;  5.9982561E-02;5349; -1.4288008E-01;  0.0000000E+00;  1.5333905E-03;  9.9577405E+02;  1.0000000E-01; -3.5011348E+03;3;  3.8797896E+00;  0.0000000E+00; -1.7485940E+00;0; -2.0853189E-01;  3.9633273E+04;  0.0000000E+00;  7.8859795E-03;  4.0000000E+04;  0.0000000E+00;  4.0029227E+04; -2.3606095E-01;  0.0000000E+00;  2.7529061E-02;  4.0405498E+03;
  4.8623824E-01;  9.9999998E-03; -9.9955216E-02;5394; -1.4406486E-01;  0.0000000E+00; -2.5100450E-03;  9.9548010E+02;  1.0000148E-01; -3.7446340E+03;3;  3.6519792E+00;  0.0000000E+00;  2.8653033E+00;0; -2.0909415E-01;  3.9603395E+04;  0.0000000E+00; -2.9763060E-02;  4.0000000E+04;  0.0000000E+00;  4.0034441E+04; -2.3731494E-01;  0.0000000E+00;  2.8220784E-02;  4.7051465E+03;
  4.8623919E-01;  9.9999998E-03; -8.9962013E-02;5395; -1.4433534E-01;  0.0000000E+00; -2.2156213E-03;  9.9564050E+02;  1.0000148E-01; -3.6117488E+03;3;  3.8046131E+00;  0.0000000E+00;  2.5990398E+00;0; -2.0837179E-01;  3.9617520E+04;  0.0000000E+00; -2.5105974E-02;  4.0000000E+04;  0.0000000E+00;  4.0033184E+04; -2.3619692E-01;  0.0000000E+00;  2.7825138E-02;  4.5378701E+03;
  4.8624057E-01;  9.9999998E-03; -7.9968348E-02;5396; -1.4460346E-01;  0.0000000E+00; -1.9272190E-03;  9.9579382E+02;  1.0000142E-01; -3.4847402E+03;3;  3.9482229E+00;  0.0000000E+00;  2.3225441E+00;0; -2.0765822E-01;  3.9630984E+04;  0.0000000E+00; -2.0542582E-02;  4.0000000E+04;  0.0000000E+00;  4.0031914E+04; -2.3506095E-01;  0.0000000E+00;  2.7402733E-02;  4.3541357E+03;
  4.8624238E-01;  9.9999998E-03; -5.9979644E-02;5398; -1.4510733E-01;  0.0000000E+00; -1.3781408E-03;  9.9607190E+02;  1.0000145E-01; -3.2543765E+03;3;  4.2008586E+00;  0.0000000E+00;  1.7421372E+00;0; -2.0631662E-01;  3.9656230E+04;  0.0000000E+00; -1.2191794E-02;  4.0000000E+04;  0.0000000E+00;  4.0028949E+04; -2.3287672E-01;  0.0000000E+00;  2.6560105E-02;  3.9621633E+03;
  4.8624238E-01;  9.9999998E-03;  5.9979644E-02;5410; -1.4510733E-01;  0.0000000E+00;  1.3781826E-03;  9.9607196E+02;  1.0000145E-01; -3.2543269E+03;3;  4.2007656E+00;  0.0000000E+00; -1.7420951E+00;0; -2.0631643E-01;  3.9656227E+04;  0.0000000E+00; -1.2191302E-02;  4.0000000E+04;  0.0000000E+00;  4.0028949E+04; -2.3287655E-01;  0.0000000E+00;  2.6560131E-02;  3.9621707E+03;
  4.8624167E-01;  9.9999998E-03; -6.9974259E-02;5397; -1.4486298E-01;  0.0000000E+00; -1.6473623E-03;  9.9593939E+02;  1.0000142E-01; -3.3641511E+03;3;  4.0807381E+00;  0.0000000E+00;  2.0320566E+00;0; -2.0696793E-01;  3.9644129E+04;  0.0000000E+00; -1.6196512E-02;  4.0000000E+04;  0.0000000E+00;  4.0030441E+04; -2.3394258E-01;  0.0000000E+00;  2.6974646E-02;  4.1596562E+03;
  4.8624280E-01;  9.9999998E-03; -4.9984500E-02;5399; -1.4532965E-01;  0.0000000E+00; -1.1209783E-03;  9.9619165E+02;  1.0000148E-01; -3.1551692E+03;3;  4.3052649E+00;  0.0000000E+00;  1.4516767E+00;0; -2.0572263E-01;  3.9666867E+04;  0.0000000E+00; -8.6344685E-03;  4.0000000E+04;  0.0000000E+00;  4.0027480E+04; -2.3189938E-01;  0.0000000E+00;  2.6176758E-02;  3.7706731E+03;
  4.8624280E-01;  9.9999998E-03;  4.9984500E-02;5409; -1.4532964E-01;  0.0000000E+00;  1.1210196E-03;  9.9619165E+02;  1.0000148E-01; -3.1551692E+03;3;  4.3054762E+00;  0.0000000E+00; -1.4516732E+00;0; -2.0572278E-01;  3.9666863E+04;  0.0000000E+00; -8.6321132E-03;  4.0000000E+04;  0.0000000E+00;  4.0027484E+04; -2.3189956E-01;  0.0000000E+00;  2.6176777E-02;  3.7706685E+03;
  4.8624250E-01;  9.9999998E-03; -9.9980738E-03;5403; -1.4587016E-01;  0.0000000E+00; -2.0949589E-04;  9.9645673E+02;  1.0000148E-01; -2.9355212E+03;3;  4.5485859E+00;  0.0000000E+00;  2.8538087E-01;0; -2.0427124E-01;  3.9692039E+04;  0.0000000E+00; -3.5938539E-04;  4.0000000E+04;  0.0000000E+00;  4.0023613E+04; -2.2950320E-01;  0.0000000E+00;  2.5231959E-02;  3.2576807E+03;
  4.8624238E-01;  9.9999998E-03;  4.2445977E-10;5404; -1.4589442E-01;  0.0000000E+00;  2.0647953E-08;  9.9646857E+02;  1.0000145E-01; -2.9257437E+03;3;  4.5593934E+00;  0.0000000E+00; -4.0741870E-06;0; -2.0420577E-01;  3.9693102E+04;  0.0000000E+00; -1.2349835E-12;  4.0000000E+04;  0.0000000E+00;  4.0023414E+04; -2.2939499E-01;  0.0000000E+00;  2.5189215E-02;  3.2329282E+03;
  4.8624250E-01;  9.9999998E-03;  9.9980747E-03;5405; -1.4587016E-01;  0.0000000E+00;  2.0953771E-04;  9.9645667E+02;  1.0000148E-01; -2.9355706E+03;3;  4.5486221E+00;  0.0000000E+00; -2.8538853E-01;0; -2.0427144E-01;  3.9692043E+04;  0.0000000E+00; -3.5934575E-04;  4.0000000E+04;  0.0000000E+00;  4.0023613E+04; -2.2950338E-01;  0.0000000E+00;  2.5231943E-02;  3.2576782E+03;
  4.8624265E-01;  9.9999998E-03; -1.9995624E-02;5402; -1.4579827E-01;  0.0000000E+00; -4.2265555E-04;  9.9642462E+02;  1.0000151E-01; -2.9621377E+03;3;  4.5140190E+00;  0.0000000E+00;  5.8284014E-01;0; -2.0446533E-01;  3.9688746E+04;  0.0000000E+00; -1.4306711E-03;  4.0000000E+04;  0.0000000E+00;  4.0024156E+04; -2.2982377E-01;  0.0000000E+00;  2.5358440E-02;  3.3300945E+03;
  4.8624265E-01;  9.9999998E-03;  1.9995626E-02;5406; -1.4579827E-01;  0.0000000E+00;  4.2269696E-04;  9.9642462E+02;  1.0000151E-01; -2.9621377E+03;3;  4.5140991E+00;  0.0000000E+00; -5.8285290E-01;0; -2.0446546E-01;  3.9688750E+04;  0.0000000E+00; -1.4304389E-03;  4.0000000E+04;  0.0000000E+00;  4.0024156E+04; -2.2982392E-01;  0.0000000E+00;  2.5358450E-02;  3.3301042E+03;
  4.8624298E-01;  9.9999998E-03; -2.9992541E-02;5401; -1.4568111E-01;  0.0000000E+00; -6.4423046E-04;  9.9636658E+02;  1.0000148E-01; -3.0102351E+03;3;  4.4633169E+00;  0.0000000E+00;  8.7438130E-01;0; -2.0478071E-01;  3.9683348E+04;  0.0000000E+00; -3.1933740E-03;  4.0000000E+04;  0.0000000E+00;  4.0024984E+04; -2.3034453E-01;  0.0000000E+00;  2.5563817E-02;  3.4450994E+03;
  4.8624298E-01;  9.9999998E-03;  2.9992541E-02;5407; -1.4568110E-01;  0.0000000E+00;  6.4427272E-04;  9.9636658E+02;  1.0000148E-01; -3.0102351E+03;3;  4.4631310E+00;  0.0000000E+00; -8.7436509E-01;0; -2.0478064E-01;  3.9683344E+04;  0.0000000E+00; -3.1933554E-03;  4.0000000E+04;  0.0000000E+00;  4.0024984E+04; -2.3034449E-01;  0.0000000E+00;  2.5563855E-02;  3.4451116E+03;
  4.8624307E-01;  9.9999998E-03; -3.9988797E-02;5400; -1.4552307E-01;  0.0000000E+00; -8.7640586E-04;  9.9628723E+02;  1.0000148E-01; -3.0759617E+03;3;  4.3929749E+00;  0.0000000E+00;  1.1645660E+00;0; -2.0520458E-01;  3.9676051E+04;  0.0000000E+00; -5.6115142E-03;  4.0000000E+04;  0.0000000E+00;  4.0026133E+04; -2.3104481E-01;  0.0000000E+00;  2.5840230E-02;  3.5950415E+03;
  4.8624307E-01;  9.9999998E-03;  3.9988797E-02;5408; -1.4552307E-01;  0.0000000E+00;  8.7644847E-04;  9.9628723E+02;  1.0000148E-01; -3.0759617E+03;3;  4.3928227E+00;  0.0000000E+00; -1.1645503E+00;0; -2.0520489E-01;  3.9676051E+04;  0.0000000E+00; -5.6113009E-03;  4.0000000E+04;  0.0000000E+00;  4.0026133E+04; -2.3104510E-01;  0.0000000E+00;  2.5840212E-02;  3.5950432E+03;
  4.9620077E-01;  9.9999998E-03; -9.9977488E-03;5464; -1.4794783E-01;  0.0000000E+00; -1.8255800E-04;  9.9649487E+02;  1.0000206E-01; -2.9039167E+03;3;  4.8966188E+00;  0.0000000E+00;  2.8361633E-01;0; -2.0271403E-01;  3.9695414E+04;  0.0000000E+00; -1.0188072E-03;  4.0000000E+04;  0.0000000E+00;  4.0022660E+04; -2.2651789E-01;  0.0000000E+00;  2.3803854E-02;  3.1354822E+03;
  4.9620047E-01;  9.9999998E-03;  4.2949486E-10;5465; -1.4796875E-01;  0.0000000E+00;  2.0754452E-08;  9.9650513E+02;  1.0000201E-01; -2.8954231E+03;3;  4.9064298E+00;  0.0000000E+00; -8.7025328E-06;0; -2.0265496E-01;  3.9696363E+04;  0.0000000E+00; -1.1349552E-12;  4.0000000E+04;  0.0000000E+00;  4.0022430E+04; -2.2640213E-01;  0.0000000E+00;  2.3747183E-02;  3.1093672E+03;
  4.9620077E-01;  9.9999998E-03;  9.9977488E-03;5466; -1.4794783E-01;  0.0000000E+00;  1.8259947E-04;  9.9649487E+02;  1.0000206E-01; -2.9039167E+03;3;  4.8966365E+00;  0.0000000E+00; -2.8363517E-01;0; -2.0271398E-01;  3.9695418E+04;  0.0000000E+00; -1.0186549E-03;  4.0000000E+04;  0.0000000E+00;  4.0022660E+04; -2.2651783E-01;  0.0000000E+00;  2.3803851E-02;  3.1354863E+03;
  4.9620184E-01;  9.9999998E-03; -1.9995095E-02;5463; -1.4788577E-01;  0.0000000E+00; -3.6959790E-04;  9.9646680E+02;  1.0000205E-01; -2.9271753E+03;3;  4.8666034E+00;  0.0000000E+00;  5.6915450E-01;0; -2.0289105E-01;  3.9692430E+04;  0.0000000E+00; -4.0413835E-03;  4.0000000E+04;  0.0000000E+00;  4.0023188E+04; -2.2686246E-01;  0.0000000E+00;  2.3971410E-02;  3.2120007E+03;
  4.9620184E-01;  9.9999998E-03;  1.9995097E-02;5467; -1.4788578E-01;  0.0000000E+00;  3.6963943E-04;  9.9646667E+02;  1.0000205E-01; -2.9272742E+03;3;  4.8666930E+00;  0.0000000E+00; -5.6916654E-01;0; -2.0289090E-01;  3.9692430E+04;  0.0000000E+00; -4.0410664E-03;  4.0000000E+04;  0.0000000E+00;  4.0023188E+04; -2.2686230E-01;  0.0000000E+00;  2.3971390E-02;  3.2120178E+03;
  4.9620387E-01;  9.9999998E-03; -2.9991833E-02;5462; -1.4778492E-01;  0.0000000E+00; -5.6506658E-04;  9.9641742E+02;  1.0000210E-01; -2.9681125E+03;3;  4.8143353E+00;  0.0000000E+00;  8.5793132E-01;0; -2.0317897E-01;  3.9687672E+04;  0.0000000E+00; -8.9620911E-03;  4.0000000E+04;  0.0000000E+00;  4.0024062E+04; -2.2742163E-01;  0.0000000E+00;  2.4242647E-02;  3.3336577E+03;
  4.9620387E-01;  9.9999998E-03;  2.9991835E-02;5468; -1.4778492E-01;  0.0000000E+00;  5.6510849E-04;  9.9641742E+02;  1.0000210E-01; -2.9681125E+03;3;  4.8144841E+00;  0.0000000E+00; -8.5793746E-01;0; -2.0317888E-01;  3.9687676E+04;  0.0000000E+00; -8.9617539E-03;  4.0000000E+04;  0.0000000E+00;  4.0024062E+04; -2.2742155E-01;  0.0000000E+00;  2.4242673E-02;  3.3336592E+03;
  4.9620670E-01;  9.9999998E-03; -3.9987948E-02;5461; -1.4764869E-01;  0.0000000E+00; -7.7292469E-04;  9.9634808E+02;  1.0000205E-01; -3.0255430E+03;3;  4.7360010E+00;  0.0000000E+00;  1.1595490E+00;0; -2.0356794E-01;  3.9681129E+04;  0.0000000E+00; -1.5589594E-02;  4.0000000E+04;  0.0000000E+00;  4.0025387E+04; -2.2817419E-01;  0.0000000E+00;  2.4606252E-02;  3.4927229E+03;
  4.9620670E-01;  9.9999998E-03;  3.9987948E-02;5469; -1.4764869E-01;  0.0000000E+00;  7.7296660E-04;  9.9634814E+02;  1.0000205E-01; -3.0254937E+03;3;  4.7358675E+00;  0.0000000E+00; -1.1595387E+00;0; -2.0356788E-01;  3.9681129E+04;  0.0000000E+00; -1.5589548E-02;  4.0000000E+04;  0.0000000E+00;  4.0025387E+04; -2.2817415E-01;  0.0000000E+00;  2.4606271E-02;  3.4927283E+03;
  4.9621016E-01;  9.9999998E-03; -4.9983419E-02;5460; -1.4748120E-01;  0.0000000E+00; -9.9616754E-04;  9.9626404E+02;  1.0000209E-01; -3.0951707E+03;3;  4.6386652E+00;  0.0000000E+00;  1.4485792E+00;0; -2.0404537E-01;  3.9672926E+04;  0.0000000E+00; -2.3629813E-02;  4.0000000E+04;  0.0000000E+00;  4.0026766E+04; -2.2909242E-01;  0.0000000E+00;  2.5047045E-02;  3.6797466E+03;
  4.9621016E-01;  9.9999998E-03;  4.9983419E-02;5470; -1.4748119E-01;  0.0000000E+00;  9.9620759E-04;  9.9626404E+02;  1.0000209E-01; -3.0951707E+03;3;  4.6388817E+00;  0.0000000E+00; -1.4485924E+00;0; -2.0404541E-01;  3.9672926E+04;  0.0000000E+00; -2.3630198E-02;  4.0000000E+04;  0.0000000E+00;  4.0026766E+04; -2.2909245E-01;  0.0000000E+00;  2.5047040E-02;  3.6797458E+03;
  4.9621439E-01;  9.9999998E-03; -5.9978213E-02;5459; -1.4728758E-01;  0.0000000E+00; -1.2353000E-03;  9.9616290E+02;  1.0000206E-01; -3.1789707E+03;3;  4.5274682E+00;  0.0000000E+00;  1.7359276E+00;0; -2.0459637E-01;  3.9663250E+04;  0.0000000E+00; -3.2675363E-02;  4.0000000E+04;  0.0000000E+00;  4.0028367E+04; -2.3014309E-01;  0.0000000E+00;  2.5546713E-02;  3.8844714E+03;
  4.9621439E-01;  9.9999998E-03;  5.9978213E-02;5471; -1.4728756E-01;  0.0000000E+00;  1.2353420E-03;  9.9616290E+02;  1.0000206E-01; -3.1789707E+03;3;  4.5274448E+00;  0.0000000E+00; -1.7359184E+00;0; -2.0459640E-01;  3.9663250E+04;  0.0000000E+00; -3.2676283E-02;  4.0000000E+04;  0.0000000E+00;  4.0028367E+04; -2.3014309E-01;  0.0000000E+00;  2.5546679E-02;  3.8844824E+03;
  4.9621922E-01;  9.9999998E-03; -6.9972426E-02;5458; -1.4707349E-01;  0.0000000E+00; -1.4898053E-03;  9.9604535E+02;  1.0000208E-01; -3.2763506E+03;3;  4.4009194E+00;  0.0000000E+00;  2.0234644E+00;0; -2.0520453E-01;  3.9652273E+04;  0.0000000E+00; -4.2205457E-02;  4.0000000E+04;  0.0000000E+00;  4.0029984E+04; -2.3128928E-01;  0.0000000E+00;  2.6084745E-02;  4.0967959E+03;
  4.9622443E-01;  9.9999998E-03; -7.9966143E-02;5457; -1.4684460E-01;  0.0000000E+00; -1.7584034E-03;  9.9591577E+02;  1.0000210E-01; -3.3837056E+03;3;  4.2588582E+00;  0.0000000E+00;  2.3119707E+00;0; -2.0585339E-01;  3.9640543E+04;  0.0000000E+00; -5.1610164E-02;  4.0000000E+04;  0.0000000E+00;  4.0031465E+04; -2.3249242E-01;  0.0000000E+00;  2.6639035E-02;  4.3072021E+03;
  4.9622995E-01;  9.9999998E-03; -8.9959376E-02;5456; -1.4660622E-01;  0.0000000E+00; -2.0391138E-03;  9.9577887E+02;  1.0000204E-01; -3.4971343E+03;3;  4.1045246E+00;  0.0000000E+00;  2.6004298E+00;0; -2.0652759E-01;  3.9628125E+04;  0.0000000E+00; -6.0236122E-02;  4.0000000E+04;  0.0000000E+00;  4.0033109E+04; -2.3371375E-01;  0.0000000E+00;  2.7186163E-02;  4.5076191E+03;
  4.9623609E-01;  9.9999998E-03; -9.9952102E-02;5455; -1.4636369E-01;  0.0000000E+00; -2.3297048E-03;  9.9563531E+02;  1.0000208E-01; -3.6160444E+03;3;  3.9376183E+00;  0.0000000E+00;  2.8733184E+00;0; -2.0721382E-01;  3.9615449E+04;  0.0000000E+00; -6.7441277E-02;  4.0000000E+04;  0.0000000E+00;  4.0034535E+04; -2.3491542E-01;  0.0000000E+00;  2.7701609E-02;  4.6920015E+03;
  5.0622386E-01;  9.9999998E-03; -9.9952742E-02;5516; -1.4863884E-01;  0.0000000E+00; -2.1627927E-03;  9.9560468E+02;  1.0000372E-01; -3.6414265E+03;3;  4.2336202E+00;  0.0000000E+00;  2.8679712E+00;0; -2.0568837E-01;  3.9612164E+04;  0.0000000E+00; -9.8219618E-02;  4.0000000E+04;  0.0000000E+00;  4.0033980E+04; -2.3280203E-01;  0.0000000E+00;  2.7113659E-02;  4.6335229E+03;
  5.0621128E-01;  9.9999998E-03; -8.9959845E-02;5517; -1.4885293E-01;  0.0000000E+00; -1.8788705E-03;  9.9572247E+02;  1.0000387E-01; -3.5438491E+03;3;  4.4118567E+00;  0.0000000E+00;  2.5889385E+00;0; -2.0507722E-01;  3.9622965E+04;  0.0000000E+00; -9.0058319E-02;  4.0000000E+04;  0.0000000E+00;  4.0032504E+04; -2.3156127E-01;  0.0000000E+00;  2.6484061E-02;  4.4406953E+03;
  5.0619924E-01;  9.9999998E-03; -7.9966486E-02;5518; -1.4906113E-01;  0.0000000E+00; -1.6076834E-03;  9.9583618E+02;  1.0000373E-01; -3.4496296E+03;3;  4.5782413E+00;  0.0000000E+00;  2.3069289E+00;0; -2.0448044E-01;  3.9633145E+04;  0.0000000E+00; -7.8812420E-02;  4.0000000E+04;  0.0000000E+00;  4.0030863E+04; -2.3030093E-01;  0.0000000E+00;  2.5820488E-02;  4.2342866E+03;
  5.0618833E-01;  9.9999998E-03; -6.9972597E-02;5519; -1.4925951E-01;  0.0000000E+00; -1.3512473E-03;  9.9593872E+02;  1.0000388E-01; -3.3646936E+03;3;  4.7292066E+00;  0.0000000E+00;  2.0231481E+00;0; -2.0390935E-01;  3.9643184E+04;  0.0000000E+00; -6.5561682E-02;  4.0000000E+04;  0.0000000E+00;  4.0029336E+04; -2.2905999E-01;  0.0000000E+00;  2.5150644E-02;  4.0197749E+03;
  5.0617927E-01;  9.9999998E-03; -5.9978083E-02;5520; -1.4944373E-01;  0.0000000E+00; -1.1121670E-03;  9.9603247E+02;  1.0000376E-01; -3.2870168E+03;3;  4.8649836E+00;  0.0000000E+00;  1.7259691E+00;0; -2.0337757E-01;  3.9652184E+04;  0.0000000E+00; -5.1456213E-02;  4.0000000E+04;  0.0000000E+00;  4.0027617E+04; -2.2787894E-01;  0.0000000E+00;  2.4501370E-02;  3.8046138E+03;
  5.0617212E-01;  9.9999998E-03; -4.9982954E-02;5521; -1.4960919E-01;  0.0000000E+00; -8.9099503E-04;  9.9611273E+02;  1.0000374E-01; -3.2205496E+03;3;  4.9888220E+00;  0.0000000E+00;  1.4233992E+00;0; -2.0289922E-01;  3.9660098E+04;  0.0000000E+00; -3.7611578E-02;  4.0000000E+04;  0.0000000E+00;  4.0025973E+04; -2.2679783E-01;  0.0000000E+00;  2.3898611E-02;  3.5979321E+03;
  5.0616676E-01;  9.9999998E-03; -3.9987288E-02;5522; -1.4975163E-01;  0.0000000E+00; -6.8754301E-04;  9.9617938E+02;  1.0000377E-01; -3.1652920E+03;3;  5.0882792E+00;  0.0000000E+00;  1.1320897E+00;0; -2.0248672E-01;  3.9666953E+04;  0.0000000E+00; -2.5017286E-02;  4.0000000E+04;  0.0000000E+00;  4.0024523E+04; -2.2585343E-01;  0.0000000E+00;  2.3366712E-02;  3.4095935E+03;
  5.0616288E-01;  9.9999998E-03; -2.9991100E-02;5523; -1.4986730E-01;  0.0000000E+00; -4.9984094E-04;  9.9623273E+02;  1.0000386E-01; -3.1210957E+03;3;  5.1653543E+00;  0.0000000E+00;  8.5111099E-01;0; -2.0215219E-01;  3.9672480E+04;  0.0000000E+00; -1.4467648E-02;  4.0000000E+04;  0.0000000E+00;  4.0023355E+04; -2.2507977E-01;  0.0000000E+00;  2.2927579E-02;  3.2496604E+03;
  5.0616026E-01;  9.9999998E-03; -1.9994497E-02;5524; -1.4995266E-01;  0.0000000E+00; -3.2504520E-04;  9.9627179E+02;  1.0000373E-01; -3.0887510E+03;3;  5.2208133E+00;  0.0000000E+00;  5.7487756E-01;0; -2.0190570E-01;  3.9676363E+04;  0.0000000E+00; -6.5504904E-03;  4.0000000E+04;  0.0000000E+00;  4.0022438E+04; -2.2450544E-01;  0.0000000E+00;  2.2599749E-02;  3.1273823E+03;
  5.0615877E-01;  9.9999998E-03; -9.9974126E-03;5525; -1.5000510E-01;  0.0000000E+00; -1.6001890E-04;  9.9629462E+02;  1.0000381E-01; -3.0698379E+03;3;  5.2527647E+00;  0.0000000E+00;  2.8915352E-01;0; -2.0175503E-01;  3.9678723E+04;  0.0000000E+00; -1.6550781E-03;  4.0000000E+04;  0.0000000E+00;  4.0021730E+04; -2.2415221E-01;  0.0000000E+00;  2.2397174E-02;  3.0505588E+03;
  5.0615823E-01;  9.9999998E-03;  4.0267092E-10;5526; -1.5002280E-01;  0.0000000E+00;  2.0622199E-08;  9.9630188E+02;  1.0000373E-01; -3.0638135E+03;3;  5.2634912E+00;  0.0000000E+00; -7.1563409E-06;0; -2.0170383E-01;  3.9679504E+04;  0.0000000E+00;  1.4356909E-14;  4.0000000E+04;  0.0000000E+00;  4.0021527E+04; -2.2403248E-01;  0.0000000E+00;  2.2328641E-02;  3.0243208E+03;
  5.0615877E-01;  9.9999998E-03;  9.9974135E-03;5527; -1.5000510E-01;  0.0000000E+00;  1.6006004E-04;  9.9629462E+02;  1.0000381E-01; -3.0698379E+03;3;  5.2527785E+00;  0.0000000E+00; -2.8917226E-01;0; -2.0175490E-01;  3.9678723E+04;  0.0000000E+00; -1.6549903E-03;  4.0000000E+04;  0.0000000E+00;  4.0021734E+04; -2.2415207E-01;  0.0000000E+00;  2.2397172E-02;  3.0505669E+03;
  5.0616026E-01;  9.9999998E-03;  1.9994497E-02;5528; -1.4995266E-01;  0.0000000E+00;  3.2508647E-04;  9.9627179E+02;  1.0000373E-01; -3.0887510E+03;3;  5.2209373E+00;  0.0000000E+00; -5.7489163E-01;0; -2.0190559E-01;  3.9676363E+04;  0.0000000E+00; -6.5503246E-03;  4.0000000E+04;  0.0000000E+00;  4.0022438E+04; -2.2450534E-01;  0.0000000E+00;  2.2599746E-02;  3.1273831E+03;
  5.0616288E-01;  9.9999998E-03;  2.9991101E-02;5529; -1.4986728E-01;  0.0000000E+00;  4.9988175E-04;  9.9623273E+02;  1.0000386E-01; -3.1210957E+03;3;  5.1651464E+00;  0.0000000E+00; -8.5112613E-01;0; -2.0215230E-01;  3.9672480E+04;  0.0000000E+00; -1.4467451E-02;  4.0000000E+04;  0.0000000E+00;  4.0023355E+04; -2.2507989E-01;  0.0000000E+00;  2.2927597E-02;  3.2496726E+03;
  5.0616676E-01;  9.9999998E-03;  3.9987288E-02;5530; -1.4975162E-01;  0.0000000E+00;  6.8758434E-04;  9.9617938E+02;  1.0000377E-01; -3.1652920E+03;3;  5.0881391E+00;  0.0000000E+00; -1.1320956E+00;0; -2.0248659E-01;  3.9666949E+04;  0.0000000E+00; -2.5016261E-02;  4.0000000E+04;  0.0000000E+00;  4.0024523E+04; -2.2585328E-01;  0.0000000E+00;  2.3366684E-02;  3.4095947E+03;
  5.0617212E-01;  9.9999998E-03;  4.9982958E-02;5531; -1.4960919E-01;  0.0000000E+00;  8.9103723E-04;  9.9611273E+02;  1.0000374E-01; -3.2205496E+03;3;  4.9887333E+00;  0.0000000E+00; -1.4234360E+00;0; -2.0289889E-01;  3.9660098E+04;  0.0000000E+00; -3.7610438E-02;  4.0000000E+04;  0.0000000E+00;  4.0025973E+04; -2.2679749E-01;  0.0000000E+00;  2.3898602E-02;  3.5979355E+03;
  5.0617927E-01;  9.9999998E-03;  5.9978083E-02;5532; -1.4944372E-01;  0.0000000E+00;  1.1122086E-03;  9.9603247E+02;  1.0000376E-01; -3.2870168E+03;3;  4.8649554E+00;  0.0000000E+00; -1.7259700E+00;0; -2.0337780E-01;  3.9652176E+04;  0.0000000E+00; -5.1455732E-02;  4.0000000E+04;  0.0000000E+00;  4.0027617E+04; -2.2787915E-01;  0.0000000E+00;  2.4501352E-02;  3.8046160E+03;
  5.1621312E-01;  9.9999998E-03; -9.9957369E-02;5577; -1.5090588E-01;  0.0000000E+00; -2.0168982E-03;  9.9538220E+02;  1.0000619E-01; -3.8257666E+03;3;  4.5335951E+00;  0.0000000E+00;  2.8529649E+00;0; -2.0450918E-01;  3.9593215E+04;  0.0000000E+00; -1.1829140E-01;  4.0000000E+04;  0.0000000E+00;  4.0032969E+04; -2.3095147E-01;  0.0000000E+00;  2.6442289E-02;  4.5344946E+03;
  5.1619548E-01;  9.9999998E-03; -8.9963697E-02;5578; -1.5109248E-01;  0.0000000E+00; -1.7417555E-03;  9.9546918E+02;  1.0000612E-01; -3.7537192E+03;3;  4.7265015E+00;  0.0000000E+00;  2.5793743E+00;0; -2.0400864E-01;  3.9601426E+04;  0.0000000E+00; -1.1085018E-01;  4.0000000E+04;  0.0000000E+00;  4.0031441E+04; -2.2971793E-01;  0.0000000E+00;  2.5709286E-02;  4.3420562E+03;
  5.1617879E-01;  9.9999998E-03; -7.9969451E-02;5579; -1.5127221E-01;  0.0000000E+00; -1.4816098E-03;  9.9554913E+02;  1.0000617E-01; -3.6874497E+03;3;  4.9044218E+00;  0.0000000E+00;  2.2971621E+00;0; -2.0352316E-01;  3.9609359E+04;  0.0000000E+00; -9.8758407E-02;  4.0000000E+04;  0.0000000E+00;  4.0029965E+04; -2.2846584E-01;  0.0000000E+00;  2.4942677E-02;  4.1402998E+03;
  5.1616418E-01;  9.9999998E-03; -6.9974616E-02;5580; -1.5144183E-01;  0.0000000E+00; -1.2387703E-03;  9.9562219E+02;  1.0000610E-01; -3.6269082E+03;3;  5.0682540E+00;  0.0000000E+00;  1.9990982E+00;0; -2.0306179E-01;  3.9616746E+04;  0.0000000E+00; -8.3370619E-02;  4.0000000E+04;  0.0000000E+00;  4.0028309E+04; -2.2723453E-01;  0.0000000E+00;  2.4172731E-02;  3.9330300E+03;
  5.1615226E-01;  9.9999998E-03; -5.9979226E-02;5581; -1.5159805E-01;  0.0000000E+00; -1.0143671E-03;  9.9568695E+02;  1.0000613E-01; -3.5732800E+03;3;  5.2165856E+00;  0.0000000E+00;  1.7043413E+00;0; -2.0263523E-01;  3.9623355E+04;  0.0000000E+00; -6.6230729E-02;  4.0000000E+04;  0.0000000E+00;  4.0026719E+04; -2.2606434E-01;  0.0000000E+00;  2.3429116E-02;  3.7262791E+03;
  5.1614320E-01;  9.9999998E-03; -4.9983386E-02;5582; -1.5173763E-01;  0.0000000E+00; -8.0875319E-04;  9.9574390E+02;  1.0000623E-01; -3.5261208E+03;3;  5.3424110E+00;  0.0000000E+00;  1.4124169E+00;0; -2.0225352E-01;  3.9629246E+04;  0.0000000E+00; -4.8891965E-02;  4.0000000E+04;  0.0000000E+00;  4.0025207E+04; -2.2499411E-01;  0.0000000E+00;  2.2740582E-02;  3.5279702E+03;
  5.1613653E-01;  9.9999998E-03; -3.9987236E-02;5583; -1.5185741E-01;  0.0000000E+00; -6.2095397E-04;  9.9578772E+02;  1.0000616E-01; -3.4897764E+03;3;  5.4451461E+00;  0.0000000E+00;  1.1321816E+00;0; -2.0192698E-01;  3.9634316E+04;  0.0000000E+00; -3.2774456E-02;  4.0000000E+04;  0.0000000E+00;  4.0023910E+04; -2.2406112E-01;  0.0000000E+00;  2.2134140E-02;  3.3472495E+03;
  5.1613164E-01;  9.9999998E-03; -2.9990809E-02;5584; -1.5195422E-01;  0.0000000E+00; -4.4924900E-04;  9.9582349E+02;  1.0000622E-01; -3.4601475E+03;3;  5.5250702E+00;  0.0000000E+00;  8.5385615E-01;0; -2.0166327E-01;  3.9638215E+04;  0.0000000E+00; -1.9065829E-02;  4.0000000E+04;  0.0000000E+00;  4.0022668E+04; -2.2329749E-01;  0.0000000E+00;  2.1634215E-02;  3.1935410E+03;
  5.1612866E-01;  9.9999998E-03; -1.9994151E-02;5585; -1.5202555E-01;  0.0000000E+00; -2.9101141E-04;  9.9584918E+02;  1.0000621E-01; -3.4388643E+03;3;  5.5814571E+00;  0.0000000E+00;  5.7034737E-01;0; -2.0146985E-01;  3.9641195E+04;  0.0000000E+00; -8.6676236E-03;  4.0000000E+04;  0.0000000E+00;  4.0021754E+04; -2.2273110E-01;  0.0000000E+00;  2.1261249E-02;  3.0758782E+03;
  5.1612693E-01;  9.9999998E-03; -9.9972049E-03;5586; -1.5206921E-01;  0.0000000E+00; -1.4273031E-04;  9.9586353E+02;  1.0000639E-01; -3.4270127E+03;3;  5.6184034E+00;  0.0000000E+00;  2.8927848E-01;0; -2.0135191E-01;  3.9642875E+04;  0.0000000E+00; -2.1953045E-03;  4.0000000E+04;  0.0000000E+00;  4.0021082E+04; -2.2238281E-01;  0.0000000E+00;  2.1030895E-02;  3.0018735E+03;
  5.1612663E-01;  9.9999998E-03;  3.5191128E-10;5587; -1.5208393E-01;  0.0000000E+00;  2.0328306E-08;  9.9586847E+02;  1.0000618E-01; -3.4229141E+03;3;  5.6306858E+00;  0.0000000E+00; -1.1840111E-05;0; -2.0131215E-01;  3.9643473E+04;  0.0000000E+00;  1.3478974E-12;  4.0000000E+04;  0.0000000E+00;  4.0020793E+04; -2.2226512E-01;  0.0000000E+00;  2.0952962E-02;  2.9765688E+03;
  5.1612699E-01;  9.9999998E-03;  9.9972049E-03;5588; -1.5206921E-01;  0.0000000E+00;  1.4277123E-04;  9.9586359E+02;  1.0000639E-01; -3.4269631E+03;3;  5.6183934E+00;  0.0000000E+00; -2.8930056E-01;0; -2.0135187E-01;  3.9642875E+04;  0.0000000E+00; -2.1953715E-03;  4.0000000E+04;  0.0000000E+00;  4.0021082E+04; -2.2238277E-01;  0.0000000E+00;  2.1030899E-02;  3.0018679E+03;
  5.1612866E-01;  9.9999998E-03;  1.9994151E-02;5589; -1.5202555E-01;  0.0000000E+00;  2.9105219E-04;  9.9584918E+02;  1.0000621E-01; -3.4388643E+03;3;  5.5815816E+00;  0.0000000E+00; -5.7035941E-01;0; -2.0146957E-01;  3.9641199E+04;  0.0000000E+00; -8.6674821E-03;  4.0000000E+04;  0.0000000E+00;  4.0021754E+04; -2.2273083E-01;  0.0000000E+00;  2.1261262E-02;  3.0758948E+03;
  5.1613164E-01;  9.9999998E-03;  2.9990809E-02;5590; -1.5195423E-01;  0.0000000E+00;  4.4929047E-04;  9.9582349E+02;  1.0000622E-01; -3.4601475E+03;3;  5.5248771E+00;  0.0000000E+00; -8.5387158E-01;0; -2.0166326E-01;  3.9638211E+04;  0.0000000E+00; -1.9065490E-02;  4.0000000E+04;  0.0000000E+00;  4.0022668E+04; -2.2329746E-01;  0.0000000E+00;  2.1634210E-02;  3.1935444E+03;
  5.1613653E-01;  9.9999998E-03;  3.9987236E-02;5591; -1.5185738E-01;  0.0000000E+00;  6.2099530E-04;  9.9578778E+02;  1.0000611E-01; -3.4897268E+03;3;  5.4453306E+00;  0.0000000E+00; -1.1321926E+00;0; -2.0192692E-01;  3.9634316E+04;  0.0000000E+00; -3.2775071E-02;  4.0000000E+04;  0.0000000E+00;  4.0023910E+04; -2.2406107E-01;  0.0000000E+00;  2.2134148E-02;  3.3472627E+03;
  5.1614320E-01;  9.9999998E-03;  4.9983386E-02;5592; -1.5173765E-01;  0.0000000E+00;  8.0879638E-04;  9.9574390E+02;  1.0000623E-01; -3.5261208E+03;3;  5.3423171E+00;  0.0000000E+00; -1.4124115E+00;0; -2.0225336E-01;  3.9629246E+04;  0.0000000E+00; -4.8891701E-02;  4.0000000E+04;  0.0000000E+00;  4.0025211E+04; -2.2499397E-01;  0.0000000E+00;  2.2740616E-02;  3.5279785E+03;
  5.1615226E-01;  9.9999998E-03;  5.9979226E-02;5593; -1.5159805E-01;  0.0000000E+00;  1.0144083E-03;  9.9568695E+02;  1.0000613E-01; -3.5732800E+03;3;  5.2168999E+00;  0.0000000E+00; -1.7043527E+00;0; -2.0263529E-01;  3.9623355E+04;  0.0000000E+00; -6.6228516E-02;  4.0000000E+04;  0.0000000E+00;  4.0026719E+04; -2.2606441E-01;  0.0000000E+00;  2.3429120E-02;  3.7262712E+03;
  5.2621329E-01;  9.9999998E-03; -9.9965848E-02;5638; -1.5317734E-01;  0.0000000E+00; -1.8963467E-03;  9.9500995E+02;  1.0001040E-01; -4.1341523E+03;3;  4.8408580E+00;  0.0000000E+00;  2.8354259E+00;0; -2.0364627E-01;  3.9561012E+04;  0.0000000E+00; -1.2424278E-01;  4.0000000E+04;  0.0000000E+00;  4.0031738E+04; -2.2931854E-01;  0.0000000E+00;  2.5672266E-02;  4.4084302E+03;
  5.2619296E-01;  9.9999998E-03; -8.9970812E-02;5639; -1.5333903E-01;  0.0000000E+00; -1.6321517E-03;  9.9506195E+02;  1.0001049E-01; -4.0910920E+03;3;  5.0480800E+00;  0.0000000E+00;  2.5583124E+00;0; -2.0328802E-01;  3.9566582E+04;  0.0000000E+00; -1.1908500E-01;  4.0000000E+04;  0.0000000E+00;  4.0030281E+04; -2.2813772E-01;  0.0000000E+00;  2.4849698E-02;  4.2251514E+03;
  5.2617395E-01;  9.9999998E-03; -7.9975180E-02;5640; -1.5349312E-01;  0.0000000E+00; -1.3844481E-03;  9.9510828E+02;  1.0001046E-01; -4.0527227E+03;3;  5.2409749E+00;  0.0000000E+00;  2.2681234E+00;0; -2.0294379E-01;  3.9571719E+04;  0.0000000E+00; -1.0807974E-01;  4.0000000E+04;  0.0000000E+00;  4.0028770E+04; -2.2694017E-01;  0.0000000E+00;  2.3996387E-02;  4.0381216E+03;
  5.2615732E-01;  9.9999998E-03; -6.9978982E-02;5641; -1.5363719E-01;  0.0000000E+00; -1.1544531E-03;  9.9515002E+02;  1.0001037E-01; -4.0181064E+03;3;  5.4174724E+00;  0.0000000E+00;  1.9783645E+00;0; -2.0261917E-01;  3.9576430E+04;  0.0000000E+00; -9.2664286E-02;  4.0000000E+04;  0.0000000E+00;  4.0027340E+04; -2.2576387E-01;  0.0000000E+00;  2.3144701E-02;  3.8485254E+03;
  5.2614361E-01;  9.9999998E-03; -5.9982404E-02;5642; -1.5376900E-01;  0.0000000E+00; -9.4301533E-04;  9.9518372E+02;  1.0001051E-01; -3.9902061E+03;3;  5.5720978E+00;  0.0000000E+00;  1.6879278E+00;0; -2.0232137E-01;  3.9580457E+04;  0.0000000E+00; -7.4576348E-02;  4.0000000E+04;  0.0000000E+00;  4.0025816E+04; -2.2464769E-01;  0.0000000E+00;  2.2326320E-02;  3.6601160E+03;
  5.2613300E-01;  9.9999998E-03; -4.9985595E-02;5643; -1.5388609E-01;  0.0000000E+00; -7.4971665E-04;  9.9521344E+02;  1.0001035E-01; -3.9655647E+03;3;  5.7037954E+00;  0.0000000E+00;  1.4092891E+00;0; -2.0205700E-01;  3.9584027E+04;  0.0000000E+00; -5.5647865E-02;  4.0000000E+04;  0.0000000E+00;  4.0024457E+04; -2.2362863E-01;  0.0000000E+00;  2.1571625E-02;  3.4790757E+03;
  5.2612466E-01;  9.9999998E-03; -3.9988719E-02;5644; -1.5398595E-01;  0.0000000E+00; -5.7411625E-04;  9.9523456E+02;  1.0001035E-01; -3.9480837E+03;3;  5.8121700E+00;  0.0000000E+00;  1.1280404E+00;0; -2.0183192E-01;  3.9587066E+04;  0.0000000E+00; -3.7629768E-02;  4.0000000E+04;  0.0000000E+00;  4.0023121E+04; -2.2274113E-01;  0.0000000E+00;  2.0909199E-02;  3.3132300E+03;
  5.2611881E-01;  9.9999998E-03; -2.9991714E-02;5645; -1.5406650E-01;  0.0000000E+00; -4.1437210E-04;  9.9525195E+02;  1.0001040E-01; -3.9336646E+03;3;  5.8964295E+00;  0.0000000E+00;  8.4712368E-01;0; -2.0165189E-01;  3.9589660E+04;  0.0000000E+00; -2.2037860E-02;  4.0000000E+04;  0.0000000E+00;  4.0022062E+04; -2.2201626E-01;  0.0000000E+00;  2.0364368E-02;  3.1713804E+03;
  5.2611506E-01;  9.9999998E-03; -1.9994618E-02;5646; -1.5412568E-01;  0.0000000E+00; -2.6813740E-04;  9.9526471E+02;  1.0001042E-01; -3.9230969E+03;3;  5.9574337E+00;  0.0000000E+00;  5.6256664E-01;0; -2.0152040E-01;  3.9591473E+04;  0.0000000E+00; -1.0066640E-02;  4.0000000E+04;  0.0000000E+00;  4.0021102E+04; -2.2147907E-01;  0.0000000E+00;  1.9958680E-02;  3.0622192E+03;
  5.2611297E-01;  9.9999998E-03; -9.9973856E-03;5647; -1.5416178E-01;  0.0000000E+00; -1.3153361E-04;  9.9527112E+02;  1.0001042E-01; -3.9177637E+03;3;  5.9935541E+00;  0.0000000E+00;  2.7637589E-01;0; -2.0144053E-01;  3.9592465E+04;  0.0000000E+00; -2.5568157E-03;  4.0000000E+04;  0.0000000E+00;  4.0020496E+04; -2.2114895E-01;  0.0000000E+00;  1.9708421E-02;  2.9933230E+03;
  5.2611232E-01;  9.9999998E-03;  2.8768246E-10;5648; -1.5417394E-01;  0.0000000E+00;  2.0641792E-08;  9.9527350E+02;  1.0001050E-01; -3.9158379E+03;3;  6.0068059E+00;  0.0000000E+00; -1.6028611E-05;0; -2.0141399E-01;  3.9592883E+04;  0.0000000E+00;  1.3564173E-12;  4.0000000E+04;  0.0000000E+00;  4.0020430E+04; -2.2103782E-01;  0.0000000E+00;  1.9623823E-02;  2.9696787E+03;
  5.2611297E-01;  9.9999998E-03;  9.9973856E-03;5649; -1.5416180E-01;  0.0000000E+00;  1.3157353E-04;  9.9527112E+02;  1.0001042E-01; -3.9177637E+03;3;  5.9939084E+00;  0.0000000E+00; -2.7640483E-01;0; -2.0144048E-01;  3.9592465E+04;  0.0000000E+00; -2.5571429E-03;  4.0000000E+04;  0.0000000E+00;  4.0020496E+04; -2.2114889E-01;  0.0000000E+00;  1.9708410E-02;  2.9933167E+03;
  5.2611506E-01;  9.9999998E-03;  1.9994620E-02;5650; -1.5412565E-01;  0.0000000E+00;  2.6817832E-04;  9.9526471E+02;  1.0001042E-01; -3.9230969E+03;3;  5.9572310E+00;  0.0000000E+00; -5.6258619E-01;0; -2.0152034E-01;  3.9591473E+04;  0.0000000E+00; -1.0067116E-02;  4.0000000E+04;  0.0000000E+00;  4.0021102E+04; -2.2147900E-01;  0.0000000E+00;  1.9958664E-02;  3.0622329E+03;
  5.2611881E-01;  9.9999998E-03;  2.9991714E-02;5651; -1.5406650E-01;  0.0000000E+00;  4.1441261E-04;  9.9525189E+02;  1.0001040E-01; -3.9337139E+03;3;  5.8962536E+00;  0.0000000E+00; -8.4713715E-01;0; -2.0165172E-01;  3.9589664E+04;  0.0000000E+00; -2.2037931E-02;  4.0000000E+04;  0.0000000E+00;  4.0022062E+04; -2.2201611E-01;  0.0000000E+00;  2.0364389E-02;  3.1713843E+03;
  5.2612466E-01;  9.9999998E-03;  3.9988723E-02;5652; -1.5398593E-01;  0.0000000E+00;  5.7415717E-04;  9.9523444E+02;  1.0001045E-01; -3.9481826E+03;3;  5.8120451E+00;  0.0000000E+00; -1.1280599E+00;0; -2.0183203E-01;  3.9587066E+04;  0.0000000E+00; -3.7629690E-02;  4.0000000E+04;  0.0000000E+00;  4.0023121E+04; -2.2274119E-01;  0.0000000E+00;  2.0909168E-02;  3.3132283E+03;
  5.2613300E-01;  9.9999998E-03;  4.9985595E-02;5653; -1.5388609E-01;  0.0000000E+00;  7.4975763E-04;  9.9521344E+02;  1.0001035E-01; -3.9655647E+03;3;  5.7037067E+00;  0.0000000E+00; -1.4093016E+00;0; -2.0205680E-01;  3.9584031E+04;  0.0000000E+00; -5.5648096E-02;  4.0000000E+04;  0.0000000E+00;  4.0024457E+04; -2.2362842E-01;  0.0000000E+00;  2.1571627E-02;  3.4790732E+03;
  5.2614361E-01;  9.9999998E-03;  5.9982404E-02;5654; -1.5376899E-01;  0.0000000E+00;  9.4305893E-04;  9.9518378E+02;  1.0001051E-01; -3.9901567E+03;3;  5.5720663E+00;  0.0000000E+00; -1.6879268E+00;0; -2.0232132E-01;  3.9580453E+04;  0.0000000E+00; -7.4576646E-02;  4.0000000E+04;  0.0000000E+00;  4.0025816E+04; -2.2464763E-01;  0.0000000E+00;  2.2326311E-02;  3.6601304E+03;
  5.3623205E-01;  9.9999998E-03; -9.9977329E-02;5699; -1.5546089E-01;  0.0000000E+00; -1.8027208E-03;  9.9455829E+02;  1.0001730E-01; -4.5083638E+03;3;  5.1556573E+00;  0.0000000E+00;  2.7999029E+00;0; -2.0306131E-01;  3.9520766E+04;  0.0000000E+00; -1.1329971E-01;  4.0000000E+04;  0.0000000E+00;  4.0030215E+04; -2.2784817E-01;  0.0000000E+00;  2.4786863E-02;  4.2759219E+03;
  5.3621083E-01;  9.9999998E-03; -8.9980751E-02;5700; -1.5560089E-01;  0.0000000E+00; -1.5509179E-03;  9.9457947E+02;  1.0001747E-01; -4.4907842E+03;3;  5.3789268E+00;  0.0000000E+00;  2.5209267E+00;0; -2.0287454E-01;  3.9523645E+04;  0.0000000E+00; -1.1167676E-01;  4.0000000E+04;  0.0000000E+00;  4.0028980E+04; -2.2676401E-01;  0.0000000E+00;  2.3889460E-02;  4.1103682E+03;
  5.3619140E-01;  9.9999998E-03; -7.9983570E-02;5701; -1.5573318E-01;  0.0000000E+00; -1.3155045E-03;  9.9459363E+02;  1.0001741E-01; -4.4790811E+03;3;  5.5872979E+00;  0.0000000E+00;  2.2402618E+00;0; -2.0269716E-01;  3.9526098E+04;  0.0000000E+00; -1.0369255E-01;  4.0000000E+04;  0.0000000E+00;  4.0027680E+04; -2.2566390E-01;  0.0000000E+00;  2.2966735E-02;  3.9473381E+03;
  5.3617418E-01;  9.9999998E-03; -6.9985971E-02;5702; -1.5585606E-01;  0.0000000E+00; -1.0973616E-03;  9.9460413E+02;  1.0001725E-01; -4.4703896E+03;3;  5.7724428E+00;  0.0000000E+00;  1.9549941E+00;0; -2.0253165E-01;  3.9528098E+04;  0.0000000E+00; -9.0610459E-02;  4.0000000E+04;  0.0000000E+00;  4.0026391E+04; -2.2458407E-01;  0.0000000E+00;  2.2052428E-02;  3.7845249E+03;
  5.3615987E-01;  9.9999998E-03; -5.9988070E-02;5703; -1.5596774E-01;  0.0000000E+00; -8.9651084E-04;  9.9460986E+02;  1.0001735E-01; -4.4655996E+03;3;  5.9355235E+00;  0.0000000E+00;  1.6779255E+00;0; -2.0238170E-01;  3.9529828E+04;  0.0000000E+00; -7.4092783E-02;  4.0000000E+04;  0.0000000E+00;  4.0025070E+04; -2.2356097E-01;  0.0000000E+00;  2.1179277E-02;  3.6227021E+03;
  5.3614783E-01;  9.9999998E-03; -4.9990155E-02;5704; -1.5606637E-01;  0.0000000E+00; -7.1304652E-04;  9.9461365E+02;  1.0001732E-01; -4.4624888E+03;3;  6.0728698E+00;  0.0000000E+00;  1.3996817E+00;0; -2.0225000E-01;  3.9531148E+04;  0.0000000E+00; -5.6025680E-02;  4.0000000E+04;  0.0000000E+00;  4.0023914E+04; -2.2262834E-01;  0.0000000E+00;  2.0378333E-02;  3.4657529E+03;
  5.3613812E-01;  9.9999998E-03; -3.9992236E-02;5705; -1.5615016E-01;  0.0000000E+00; -5.4631656E-04;  9.9461493E+02;  1.0001732E-01; -4.4614023E+03;3;  6.1852717E+00;  0.0000000E+00;  1.1213576E+00;0; -2.0213959E-01;  3.9532398E+04;  0.0000000E+00; -3.8295683E-02;  4.0000000E+04;  0.0000000E+00;  4.0022711E+04; -2.2181788E-01;  0.0000000E+00;  1.9678300E-02;  3.3201917E+03;
  5.3613126E-01;  9.9999998E-03; -2.9994220E-02;5706; -1.5621752E-01;  0.0000000E+00; -3.9475202E-04;  9.9461572E+02;  1.0001733E-01; -4.4607603E+03;3;  6.2751303E+00;  0.0000000E+00;  8.3745015E-01;0; -2.0205189E-01;  3.9533332E+04;  0.0000000E+00; -2.2616528E-02;  4.0000000E+04;  0.0000000E+00;  4.0021691E+04; -2.2115642E-01;  0.0000000E+00;  1.9104525E-02;  3.1940640E+03;
  5.3612649E-01;  9.9999998E-03; -1.9996233E-02;5707; -1.5626676E-01;  0.0000000E+00; -2.5574036E-04;  9.9461499E+02;  1.0001739E-01; -4.4613530E+03;3;  6.3403878E+00;  0.0000000E+00;  5.5327255E-01;0; -2.0198901E-01;  3.9534102E+04;  0.0000000E+00; -1.0393488E-02;  4.0000000E+04;  0.0000000E+00;  4.0020996E+04; -2.2066739E-01;  0.0000000E+00;  1.8678378E-02;  3.0959370E+03;
  5.3612399E-01;  9.9999998E-03; -9.9981613E-03;5708; -1.5629679E-01;  0.0000000E+00; -1.2578731E-04;  9.9461554E+02;  1.0001720E-01; -4.4609087E+03;3;  6.3809977E+00;  0.0000000E+00;  2.7131227E-01;0; -2.0195049E-01;  3.9534512E+04;  0.0000000E+00; -2.6494556E-03;  4.0000000E+04;  0.0000000E+00;  4.0020379E+04; -2.2036640E-01;  0.0000000E+00;  1.8415907E-02;  3.0334539E+03;
  5.3612328E-01;  9.9999998E-03;  1.9935334E-10;5709; -1.5630695E-01;  0.0000000E+00;  1.9807800E-08;  9.9461261E+02;  1.0001738E-01; -4.4633281E+03;3;  6.3934431E+00;  0.0000000E+00; -1.3493409E-05;0; -2.0193787E-01;  3.9534695E+04;  0.0000000E+00;  2.0613793E-12;  4.0000000E+04;  0.0000000E+00;  4.0020148E+04; -2.2026516E-01;  0.0000000E+00;  1.8327290E-02;  3.0119490E+03;
  5.3612399E-01;  9.9999998E-03;  9.9981613E-03;5710; -1.5629677E-01;  0.0000000E+00;  1.2582677E-04;  9.9461554E+02;  1.0001720E-01; -4.4609087E+03;3;  6.3810625E+00;  0.0000000E+00; -2.7133718E-01;0; -2.0195055E-01;  3.9534516E+04;  0.0000000E+00; -2.6497850E-03;  4.0000000E+04;  0.0000000E+00;  4.0020375E+04; -2.2036648E-01;  0.0000000E+00;  1.8415932E-02;  3.0334436E+03;
  5.3612649E-01;  9.9999998E-03;  1.9996233E-02;5711; -1.5626673E-01;  0.0000000E+00;  2.5578059E-04;  9.9461499E+02;  1.0001739E-01; -4.4613530E+03;3;  6.3405023E+00;  0.0000000E+00; -5.5331540E-01;0; -2.0198867E-01;  3.9534102E+04;  0.0000000E+00; -1.0393896E-02;  4.0000000E+04;  0.0000000E+00;  4.0020996E+04; -2.2066703E-01;  0.0000000E+00;  1.8678371E-02;  3.0959258E+03;
  5.3613126E-01;  9.9999998E-03;  2.9994221E-02;5712; -1.5621750E-01;  0.0000000E+00;  3.9479215E-04;  9.9461572E+02;  1.0001733E-01; -4.4607603E+03;3;  6.2749553E+00;  0.0000000E+00; -8.3747703E-01;0; -2.0205191E-01;  3.9533336E+04;  0.0000000E+00; -2.2617450E-02;  4.0000000E+04;  0.0000000E+00;  4.0021691E+04; -2.2115642E-01;  0.0000000E+00;  1.9104516E-02;  3.1940510E+03;
  5.3613812E-01;  9.9999998E-03;  3.9992239E-02;5713; -1.5615015E-01;  0.0000000E+00;  5.4635713E-04;  9.9461487E+02;  1.0001726E-01; -4.4615010E+03;3;  6.1854639E+00;  0.0000000E+00; -1.1213683E+00;0; -2.0213956E-01;  3.9532398E+04;  0.0000000E+00; -3.8296580E-02;  4.0000000E+04;  0.0000000E+00;  4.0022711E+04; -2.2181790E-01;  0.0000000E+00;  1.9678332E-02;  3.3202073E+03;
  5.3614783E-01;  9.9999998E-03;  4.9990159E-02;5714; -1.5606636E-01;  0.0000000E+00;  7.1308750E-04;  9.9461365E+02;  1.0001732E-01; -4.4624888E+03;3;  6.0727916E+00;  0.0000000E+00; -1.3996940E+00;0; -2.0224980E-01;  3.9531148E+04;  0.0000000E+00; -5.6026258E-02;  4.0000000E+04;  0.0000000E+00;  4.0023914E+04; -2.2262812E-01;  0.0000000E+00;  2.0378320E-02;  3.4657605E+03;
  5.3615987E-01;  9.9999998E-03;  5.9988070E-02;5715; -1.5596774E-01;  0.0000000E+00;  8.9655386E-04;  9.9460980E+02;  1.0001728E-01; -4.4656987E+03;3;  5.9355021E+00;  0.0000000E+00; -1.6779174E+00;0; -2.0238158E-01;  3.9529820E+04;  0.0000000E+00; -7.4094355E-02;  4.0000000E+04;  0.0000000E+00;  4.0025070E+04; -2.2356087E-01;  0.0000000E+00;  2.1179289E-02;  3.6227007E+03;
  5.4627639E-01;  9.9999998E-03; -9.9990241E-02;5760; -1.5775791E-01;  0.0000000E+00; -1.7334290E-03;  9.9413910E+02;  1.0002934E-01; -4.8556621E+03;3;  5.4764123E+00;  0.0000000E+00;  2.7486954E+00;0; -2.0272581E-01;  3.9478645E+04;  0.0000000E+00; -8.3756983E-02;  4.0000000E+04;  0.0000000E+00;  4.0028969E+04; -2.2649260E-01;  0.0000000E+00;  2.3766788E-02;  4.1622695E+03;
  5.4625553E-01;  9.9999998E-03; -8.9992017E-02;5761; -1.5787996E-01;  0.0000000E+00; -1.4942189E-03;  9.9413483E+02;  1.0002936E-01; -4.8591685E+03;3;  5.7177901E+00;  0.0000000E+00;  2.4818399E+00;0; -2.0273556E-01;  3.9479355E+04;  0.0000000E+00; -8.6457744E-02;  4.0000000E+04;  0.0000000E+00;  4.0027879E+04; -2.2554372E-01;  0.0000000E+00;  2.2808168E-02;  4.0226367E+03;
  5.4623675E-01;  9.9999998E-03; -7.9993397E-02;5762; -1.5799481E-01;  0.0000000E+00; -1.2707084E-03;  9.9412378E+02;  1.0002926E-01; -4.8683530E+03;3;  5.9374070E+00;  0.0000000E+00;  2.2050161E+00;0; -2.0274697E-01;  3.9479453E+04;  0.0000000E+00; -8.3227552E-02;  4.0000000E+04;  0.0000000E+00;  4.0026879E+04; -2.2457913E-01;  0.0000000E+00;  2.1832155E-02;  3.8915378E+03;
  5.4622018E-01;  9.9999998E-03; -6.9994524E-02;5763; -1.5810107E-01;  0.0000000E+00; -1.0628353E-03;  9.9410931E+02;  1.0002947E-01; -4.8803037E+03;3;  6.1331024E+00;  0.0000000E+00;  1.9375457E+00;0; -2.0275921E-01;  3.9479285E+04;  0.0000000E+00; -7.4881487E-02;  4.0000000E+04;  0.0000000E+00;  4.0025840E+04; -2.2363223E-01;  0.0000000E+00;  2.0873018E-02;  3.7627446E+03;
  5.4620570E-01;  9.9999998E-03; -5.9995551E-02;5764; -1.5819727E-01;  0.0000000E+00; -8.7099540E-04;  9.9409302E+02;  1.0002933E-01; -4.8938340E+03;3;  6.3029761E+00;  0.0000000E+00;  1.6657665E+00;0; -2.0277247E-01;  3.9478898E+04;  0.0000000E+00; -6.2717199E-02;  4.0000000E+04;  0.0000000E+00;  4.0024773E+04; -2.2273609E-01;  0.0000000E+00;  1.9963628E-02;  3.6336182E+03;
  5.4619277E-01;  9.9999998E-03; -4.9996607E-02;5765; -1.5828180E-01;  0.0000000E+00; -6.9512642E-04;  9.9407745E+02;  1.0002938E-01; -4.9067227E+03;3;  6.4481692E+00;  0.0000000E+00;  1.3915108E+00;0; -2.0278524E-01;  3.9478516E+04;  0.0000000E+00; -4.8364632E-02;  4.0000000E+04;  0.0000000E+00;  4.0023809E+04; -2.2191995E-01;  0.0000000E+00;  1.9134721E-02;  3.5056116E+03;
  5.4618233E-01;  9.9999998E-03; -3.9997593E-02;5766; -1.5835342E-01;  0.0000000E+00; -5.3442811E-04;  9.9405890E+02;  1.0002935E-01; -4.9220801E+03;3;  6.5691042E+00;  0.0000000E+00;  1.1086956E+00;0; -2.0279762E-01;  3.9478266E+04;  0.0000000E+00; -3.3586677E-02;  4.0000000E+04;  0.0000000E+00;  4.0022750E+04; -2.2121161E-01;  0.0000000E+00;  1.8413993E-02;  3.3836467E+03;
  5.4617447E-01;  9.9999998E-03; -2.9998440E-02;5767; -1.5841077E-01;  0.0000000E+00; -3.8745752E-04;  9.9404657E+02;  1.0002936E-01; -4.9323018E+03;3;  6.6643033E+00;  0.0000000E+00;  8.2630545E-01;0; -2.0280848E-01;  3.9477984E+04;  0.0000000E+00; -2.0079801E-02;  4.0000000E+04;  0.0000000E+00;  4.0021852E+04; -2.2063431E-01;  0.0000000E+00;  1.7825831E-02;  3.2753682E+03;
  5.4616904E-01;  9.9999998E-03; -1.9999150E-02;5768; -1.5845257E-01;  0.0000000E+00; -2.5197957E-04;  9.9403717E+02;  1.0002936E-01; -4.9401040E+03;3;  6.7347946E+00;  0.0000000E+00;  5.4392177E-01;0; -2.0281756E-01;  3.9477926E+04;  0.0000000E+00; -9.3087014E-03;  4.0000000E+04;  0.0000000E+00;  4.0021238E+04; -2.2020793E-01;  0.0000000E+00;  1.7390367E-02;  3.1893889E+03;
  5.4616600E-01;  9.9999998E-03; -9.9996850E-03;5769; -1.5847801E-01;  0.0000000E+00; -1.2393152E-04;  9.9402893E+02;  1.0002940E-01; -4.9469189E+03;3;  6.7771983E+00;  0.0000000E+00;  2.7293727E-01;0; -2.0282350E-01;  3.9477773E+04;  0.0000000E+00; -2.3854354E-03;  4.0000000E+04;  0.0000000E+00;  4.0020785E+04; -2.1994624E-01;  0.0000000E+00;  1.7122729E-02;  3.1338506E+03;
  5.4616511E-01;  9.9999998E-03;  8.7892749E-11;5770; -1.5848660E-01;  0.0000000E+00;  1.9846087E-08;  9.9402661E+02;  1.0002925E-01; -4.9488447E+03;3;  6.7907023E+00;  0.0000000E+00; -2.0694546E-05;0; -2.0282532E-01;  3.9477715E+04;  0.0000000E+00;  2.8094402E-12;  4.0000000E+04;  0.0000000E+00;  4.0020641E+04; -2.1985777E-01;  0.0000000E+00;  1.7032443E-02;  3.1145942E+03;
  5.4616600E-01;  9.9999998E-03;  9.9996850E-03;5771; -1.5847799E-01;  0.0000000E+00;  1.2397041E-04;  9.9402893E+02;  1.0002940E-01; -4.9469189E+03;3;  6.7772369E+00;  0.0000000E+00; -2.7297232E-01;0; -2.0282328E-01;  3.9477770E+04;  0.0000000E+00; -2.3857963E-03;  4.0000000E+04;  0.0000000E+00;  4.0020785E+04; -2.1994600E-01;  0.0000000E+00;  1.7122721E-02;  3.1338569E+03;
  5.4616904E-01;  9.9999998E-03;  1.9999150E-02;5772; -1.5845256E-01;  0.0000000E+00;  2.5201918E-04;  9.9403717E+02;  1.0002936E-01; -4.9401040E+03;3;  6.7345591E+00;  0.0000000E+00; -5.4394215E-01;0; -2.0281759E-01;  3.9477930E+04;  0.0000000E+00; -9.3092723E-03;  4.0000000E+04;  0.0000000E+00;  4.0021238E+04; -2.2020793E-01;  0.0000000E+00;  1.7390333E-02;  3.1893918E+03;
  5.4617453E-01;  9.9999998E-03;  2.9998442E-02;5773; -1.5841076E-01;  0.0000000E+00;  3.8749687E-04;  9.9404651E+02;  1.0002931E-01; -4.9323516E+03;3;  6.6641154E+00;  0.0000000E+00; -8.2632267E-01;0; -2.0280841E-01;  3.9477984E+04;  0.0000000E+00; -2.0080531E-02;  4.0000000E+04;  0.0000000E+00;  4.0021852E+04; -2.2063424E-01;  0.0000000E+00;  1.7825821E-02;  3.2753752E+03;
  5.4618233E-01;  9.9999998E-03;  3.9997593E-02;5774; -1.5835343E-01;  0.0000000E+00;  5.3446746E-04;  9.9405896E+02;  1.0002930E-01; -4.9220308E+03;3;  6.5689845E+00;  0.0000000E+00; -1.1087075E+00;0; -2.0279747E-01;  3.9478262E+04;  0.0000000E+00; -3.3587810E-02;  4.0000000E+04;  0.0000000E+00;  4.0022742E+04; -2.2121146E-01;  0.0000000E+00;  1.8413998E-02;  3.3836533E+03;
  5.4619277E-01;  9.9999998E-03;  4.9996607E-02;5775; -1.5828179E-01;  0.0000000E+00;  6.9516705E-04;  9.9407745E+02;  1.0002938E-01; -4.9067227E+03;3;  6.4484396E+00;  0.0000000E+00; -1.3914993E+00;0; -2.0278497E-01;  3.9478516E+04;  0.0000000E+00; -4.8365176E-02;  4.0000000E+04;  0.0000000E+00;  4.0023809E+04; -2.2191969E-01;  0.0000000E+00;  1.9134719E-02;  3.5056074E+03;
  5.4620570E-01;  9.9999998E-03;  5.9995551E-02;5776; -1.5819725E-01;  0.0000000E+00;  8.7103527E-04;  9.9409302E+02;  1.0002933E-01; -4.8938340E+03;3;  6.3029995E+00;  0.0000000E+00; -1.6657649E+00;0; -2.0277236E-01;  3.9478898E+04;  0.0000000E+00; -6.2719904E-02;  4.0000000E+04;  0.0000000E+00;  4.0024773E+04; -2.2273597E-01;  0.0000000E+00;  1.9963609E-02;  3.6336125E+03;
  5.5635202E-01;  9.9999998E-03; -1.0000085E-01;5821; -1.6006325E-01;  0.0000000E+00; -1.6805548E-03;  9.9384540E+02;  1.0004845E-01; -5.0989629E+03;3;  5.8035898E+00;  0.0000000E+00;  2.6919065E+00;0; -2.0263451E-01;  3.9440469E+04;  0.0000000E+00; -3.5901304E-02;  4.0000000E+04;  0.0000000E+00;  4.0028105E+04; -2.2522406E-01;  0.0000000E+00;  2.2589557E-02;  4.0946484E+03;
  5.5633372E-01;  9.9999998E-03; -9.0001427E-02;5822; -1.6017161E-01;  0.0000000E+00; -1.4542320E-03;  9.9382483E+02;  1.0004840E-01; -5.1159990E+03;3;  6.0596623E+00;  0.0000000E+00;  2.4297557E+00;0; -2.0286366E-01;  3.9439844E+04;  0.0000000E+00; -4.3073595E-02;  4.0000000E+04;  0.0000000E+00;  4.0027297E+04; -2.2444394E-01;  0.0000000E+00;  2.1580277E-02;  3.9881787E+03;
  5.5631691E-01;  9.9999998E-03; -8.0001719E-02;5823; -1.6027354E-01;  0.0000000E+00; -1.2414609E-03;  9.9380115E+02;  1.0004842E-01; -5.1356035E+03;3;  6.2887645E+00;  0.0000000E+00;  2.1816967E+00;0; -2.0308347E-01;  3.9438336E+04;  0.0000000E+00; -4.5866314E-02;  4.0000000E+04;  0.0000000E+00;  4.0026566E+04; -2.2364752E-01;  0.0000000E+00;  2.0564046E-02;  3.8951096E+03;
  5.5630130E-01;  9.9999998E-03; -7.0001923E-02;5824; -1.6036752E-01;  0.0000000E+00; -1.0433678E-03;  9.9377203E+02;  1.0004834E-01; -5.1597510E+03;3;  6.4961753E+00;  0.0000000E+00;  1.9175446E+00;0; -2.0328882E-01;  3.9436754E+04;  0.0000000E+00; -4.4414196E-02;  4.0000000E+04;  0.0000000E+00;  4.0025812E+04; -2.2286369E-01;  0.0000000E+00;  1.9574869E-02;  3.8051741E+03;
  5.5628705E-01;  9.9999998E-03; -6.0002174E-02;5825; -1.6045244E-01;  0.0000000E+00; -8.5942697E-04;  9.9374072E+02;  1.0004846E-01; -5.1856763E+03;3;  6.6790824E+00;  0.0000000E+00;  1.6474434E+00;0; -2.0347607E-01;  3.9435195E+04;  0.0000000E+00; -3.9331488E-02;  4.0000000E+04;  0.0000000E+00;  4.0025098E+04; -2.2212081E-01;  0.0000000E+00;  1.8644741E-02;  3.7123049E+03;
  5.5627429E-01;  9.9999998E-03; -5.0002545E-02;5826; -1.6052711E-01;  0.0000000E+00; -6.8972365E-04;  9.9371161E+02;  1.0004857E-01; -5.2098237E+03;3;  6.8336887E+00;  0.0000000E+00;  1.3687216E+00;0; -2.0364180E-01;  3.9433672E+04;  0.0000000E+00; -3.1663083E-02;  4.0000000E+04;  0.0000000E+00;  4.0024254E+04; -2.2144495E-01;  0.0000000E+00;  1.7803142E-02;  3.6154575E+03;
  5.5626374E-01;  9.9999998E-03; -4.0002782E-02;5827; -1.6059025E-01;  0.0000000E+00; -5.3320406E-04;  9.9368488E+02;  1.0004835E-01; -5.2319463E+03;3;  6.9624605E+00;  0.0000000E+00;  1.0904770E+00;0; -2.0378280E-01;  3.9432297E+04;  0.0000000E+00; -2.2725964E-02;  4.0000000E+04;  0.0000000E+00;  4.0023398E+04; -2.2085871E-01;  0.0000000E+00;  1.7075907E-02;  3.5184192E+03;
  5.5625510E-01;  9.9999998E-03; -3.0002799E-02;5828; -1.6064064E-01;  0.0000000E+00; -3.8839632E-04;  9.9366693E+02;  1.0004839E-01; -5.2468101E+03;3;  7.0647898E+00;  0.0000000E+00;  8.1458312E-01;0; -2.0389667E-01;  3.9431363E+04;  0.0000000E+00; -1.3926303E-02;  4.0000000E+04;  0.0000000E+00;  4.0022617E+04; -2.2038211E-01;  0.0000000E+00;  1.6485440E-02;  3.4283940E+03;
  5.5624849E-01;  9.9999998E-03; -2.0002468E-02;5829; -1.6067727E-01;  0.0000000E+00; -2.5342099E-04;  9.9364966E+02;  1.0004836E-01; -5.2611309E+03;3;  7.1385555E+00;  0.0000000E+00;  5.3946662E-01;0; -2.0397966E-01;  3.9430621E+04;  0.0000000E+00; -6.5685865E-03;  4.0000000E+04;  0.0000000E+00;  4.0022195E+04; -2.2002967E-01;  0.0000000E+00;  1.6050009E-02;  3.3545227E+03;
  5.5624408E-01;  9.9999998E-03; -1.0001548E-02;5830; -1.6069943E-01;  0.0000000E+00; -1.2484092E-04;  9.9363800E+02;  1.0004847E-01; -5.2708096E+03;3;  7.1830459E+00;  0.0000000E+00;  2.7170929E-01;0; -2.0403074E-01;  3.9430102E+04;  0.0000000E+00; -1.7006261E-03;  4.0000000E+04;  0.0000000E+00;  4.0021703E+04; -2.1981390E-01;  0.0000000E+00;  1.5783167E-02;  3.3057129E+03;
  5.5624247E-01;  9.9999998E-03; -5.9285556E-11;5831; -1.6070680E-01;  0.0000000E+00;  1.9629939E-08;  9.9363586E+02;  1.0004861E-01; -5.2725381E+03;3;  7.1991534E+00;  0.0000000E+00; -6.3014927E-06;0; -2.0404772E-01;  3.9429965E+04;  0.0000000E+00;  3.3358752E-12;  4.0000000E+04;  0.0000000E+00;  4.0021621E+04; -2.1974102E-01;  0.0000000E+00;  1.5693292E-02;  3.2885803E+03;
  5.5624408E-01;  9.9999998E-03;  1.0001548E-02;5832; -1.6069943E-01;  0.0000000E+00;  1.2487975E-04;  9.9363806E+02;  1.0004843E-01; -5.2707603E+03;3;  7.1831231E+00;  0.0000000E+00; -2.7174041E-01;0; -2.0403078E-01;  3.9430098E+04;  0.0000000E+00; -1.7010709E-03;  4.0000000E+04;  0.0000000E+00;  4.0021703E+04; -2.1981393E-01;  0.0000000E+00;  1.5783153E-02;  3.3057092E+03;
  5.5624849E-01;  9.9999998E-03;  2.0002468E-02;5833; -1.6067725E-01;  0.0000000E+00;  2.5346017E-04;  9.9364972E+02;  1.0004843E-01; -5.2610815E+03;3;  7.1386781E+00;  0.0000000E+00; -5.3949606E-01;0; -2.0397985E-01;  3.9430621E+04;  0.0000000E+00; -6.5692756E-03;  4.0000000E+04;  0.0000000E+00;  4.0022195E+04; -2.2002986E-01;  0.0000000E+00;  1.6050013E-02;  3.3545193E+03;
  5.5625510E-01;  9.9999998E-03;  3.0002799E-02;5834; -1.6064066E-01;  0.0000000E+00;  3.8843424E-04;  9.9366693E+02;  1.0004839E-01; -5.2468101E+03;3;  7.0646167E+00;  0.0000000E+00; -8.1460381E-01;0; -2.0389661E-01;  3.9431367E+04;  0.0000000E+00; -1.3927184E-02;  4.0000000E+04;  0.0000000E+00;  4.0022617E+04; -2.2038205E-01;  0.0000000E+00;  1.6485430E-02;  3.4283997E+03;
  5.5626374E-01;  9.9999998E-03;  4.0002782E-02;5835; -1.6059023E-01;  0.0000000E+00;  5.3324422E-04;  9.9368488E+02;  1.0004835E-01; -5.2319463E+03;3;  6.9626718E+00;  0.0000000E+00; -1.0904793E+00;0; -2.0378292E-01;  3.9432297E+04;  0.0000000E+00; -2.2727063E-02;  4.0000000E+04;  0.0000000E+00;  4.0023398E+04; -2.2085880E-01;  0.0000000E+00;  1.7075883E-02;  3.5184329E+03;
  5.5627429E-01;  9.9999998E-03;  5.0002545E-02;5836; -1.6052708E-01;  0.0000000E+00;  6.8976259E-04;  9.9371167E+02;  1.0004857E-01; -5.2097744E+03;3;  6.8339715E+00;  0.0000000E+00; -1.3687314E+00;0; -2.0364195E-01;  3.9433672E+04;  0.0000000E+00; -3.1664658E-02;  4.0000000E+04;  0.0000000E+00;  4.0024254E+04; -2.2144510E-01;  0.0000000E+00;  1.7803155E-02;  3.6154587E+03;
  5.5628705E-01;  9.9999998E-03;  6.0002174E-02;5837; -1.6045243E-01;  0.0000000E+00;  8.5946679E-04;  9.9374078E+02;  1.0004842E-01; -5.1856270E+03;3;  6.6791215E+00;  0.0000000E+00; -1.6474290E+00;0; -2.0347612E-01;  3.9435191E+04;  0.0000000E+00; -3.9332889E-02;  4.0000000E+04;  0.0000000E+00;  4.0025098E+04; -2.2212088E-01;  0.0000000E+00;  1.8644761E-02;  3.7122927E+03;
  5.6646931E-01;  9.9999998E-03; -1.0000263E-01;5882; -1.6236880E-01;  0.0000000E+00; -1.6314368E-03;  9.9375604E+02;  1.0007958E-01; -5.1729849E+03;3;  6.1282034E+00;  0.0000000E+00;  2.6318080E+00;0; -2.0281973E-01;  3.9408570E+04;  0.0000000E+00;  2.6486108E-02;  4.0000000E+04;  0.0000000E+00;  4.0027957E+04; -2.2404785E-01;  0.0000000E+00;  2.1228114E-02;  4.0990649E+03;
  5.6645626E-01;  9.9999998E-03; -9.0002649E-02;5883; -1.6246763E-01;  0.0000000E+00; -1.4175074E-03;  9.9373566E+02;  1.0007951E-01; -5.1898730E+03;3;  6.3987546E+00;  0.0000000E+00;  2.3949988E+00;0; -2.0329031E-01;  3.9407398E+04;  0.0000000E+00;  1.5477008E-02;  4.0000000E+04;  0.0000000E+00;  4.0027359E+04; -2.2346503E-01;  0.0000000E+00;  2.0174718E-02;  4.0314265E+03;
  5.6644356E-01;  9.9999998E-03; -8.0002658E-02;5884; -1.6256049E-01;  0.0000000E+00; -1.2164763E-03;  9.9370898E+02;  1.0007960E-01; -5.2119961E+03;3;  6.6464190E+00;  0.0000000E+00;  2.1424456E+00;0; -2.0373495E-01;  3.9405695E+04;  0.0000000E+00;  6.1831754E-03;  4.0000000E+04;  0.0000000E+00;  4.0026992E+04; -2.2286212E-01;  0.0000000E+00;  1.9127173E-02;  3.9796982E+03;
  5.6643081E-01;  9.9999998E-03; -7.0002787E-02;5885; -1.6264628E-01;  0.0000000E+00; -1.0281712E-03;  9.9367767E+02;  1.0007960E-01; -5.2379214E+03;3;  6.8685741E+00;  0.0000000E+00;  1.8791568E+00;0; -2.0414641E-01;  3.9403738E+04;  0.0000000E+00; -6.9496315E-04;  4.0000000E+04;  0.0000000E+00;  4.0026516E+04; -2.2226483E-01;  0.0000000E+00;  1.8118415E-02;  3.9302432E+03;
  5.6641847E-01;  9.9999998E-03; -6.0003038E-02;5886; -1.6272396E-01;  0.0000000E+00; -8.5237675E-04;  9.9364825E+02;  1.0007947E-01; -5.2623154E+03;3;  7.0620880E+00;  0.0000000E+00;  1.6126759E+00;0; -2.0451762E-01;  3.9401758E+04;  0.0000000E+00; -4.8412094E-03;  4.0000000E+04;  0.0000000E+00;  4.0026016E+04; -2.2169657E-01;  0.0000000E+00;  1.7178951E-02;  3.8739329E+03;
  5.6640714E-01;  9.9999998E-03; -5.0003432E-02;5887; -1.6279241E-01;  0.0000000E+00; -6.8845792E-04;  9.9361981E+02;  1.0007939E-01; -5.2858706E+03;3;  7.2272935E+00;  0.0000000E+00;  1.3401157E+00;0; -2.0484322E-01;  3.9399934E+04;  0.0000000E+00; -6.4035957E-03;  4.0000000E+04;  0.0000000E+00;  4.0025508E+04; -2.2117908E-01;  0.0000000E+00;  1.6335856E-02;  3.8077173E+03;
  5.6639725E-01;  9.9999998E-03; -4.0003866E-02;5888; -1.6285042E-01;  0.0000000E+00; -5.3540216E-04;  9.9359369E+02;  1.0007937E-01; -5.3074995E+03;3;  7.3637996E+00;  0.0000000E+00;  1.0695938E+00;0; -2.0511732E-01;  3.9398496E+04;  0.0000000E+00; -5.9286766E-03;  4.0000000E+04;  0.0000000E+00;  4.0024992E+04; -2.2072993E-01;  0.0000000E+00;  1.5612614E-02;  3.7344829E+03;
  5.6638873E-01;  9.9999998E-03; -3.0004047E-02;5889; -1.6289668E-01;  0.0000000E+00; -3.9188817E-04;  9.9357056E+02;  1.0007945E-01; -5.3266592E+03;3;  7.4728136E+00;  0.0000000E+00;  8.0375493E-01;0; -2.0533600E-01;  3.9397359E+04;  0.0000000E+00; -4.2259684E-03;  4.0000000E+04;  0.0000000E+00;  4.0024258E+04; -2.2036487E-01;  0.0000000E+00;  1.5028864E-02;  3.6615039E+03;
  5.6638193E-01;  9.9999998E-03; -2.0003710E-02;5890; -1.6293034E-01;  0.0000000E+00; -2.5654503E-04;  9.9355316E+02;  1.0007954E-01; -5.3410786E+03;3;  7.5507283E+00;  0.0000000E+00;  5.3406250E-01;0; -2.0549513E-01;  3.9396445E+04;  0.0000000E+00; -2.1847284E-03;  4.0000000E+04;  0.0000000E+00;  4.0023805E+04; -2.2009546E-01;  0.0000000E+00;  1.4600317E-02;  3.5986187E+03;
  5.6637681E-01;  9.9999998E-03; -1.0002517E-02;5891; -1.6295063E-01;  0.0000000E+00; -1.2665054E-04;  9.9354468E+02;  1.0007961E-01; -5.3480908E+03;3;  7.5982985E+00;  0.0000000E+00;  2.6645920E-01;0; -2.0559165E-01;  3.9395914E+04;  0.0000000E+00; -5.9468404E-04;  4.0000000E+04;  0.0000000E+00;  4.0023500E+04; -2.1993022E-01;  0.0000000E+00;  1.4338573E-02;  3.5557246E+03;
  5.6637478E-01;  9.9999998E-03; -1.8717876E-10;5892; -1.6295734E-01;  0.0000000E+00;  2.0059515E-08;  9.9354041E+02;  1.0007939E-01; -5.3516465E+03;3;  7.6147690E+00;  0.0000000E+00;  4.6100081E-06;0; -2.0562345E-01;  3.9395797E+04;  0.0000000E+00;  3.1999342E-12;  4.0000000E+04;  0.0000000E+00;  4.0023441E+04; -2.1987399E-01;  0.0000000E+00;  1.4250551E-02;  3.5404675E+03;
  5.6637681E-01;  9.9999998E-03;  1.0002517E-02;5893; -1.6295063E-01;  0.0000000E+00;  1.2668909E-04;  9.9354468E+02;  1.0007961E-01; -5.3480908E+03;3;  7.5983691E+00;  0.0000000E+00; -2.6648760E-01;0; -2.0559148E-01;  3.9395914E+04;  0.0000000E+00; -5.9512863E-04;  4.0000000E+04;  0.0000000E+00;  4.0023500E+04; -2.1993005E-01;  0.0000000E+00;  1.4338567E-02;  3.5557163E+03;
  5.6638193E-01;  9.9999998E-03;  2.0003710E-02;5894; -1.6293032E-01;  0.0000000E+00;  2.5658371E-04;  9.9355310E+02;  1.0007954E-01; -5.3411279E+03;3;  7.5505271E+00;  0.0000000E+00; -5.3407711E-01;0; -2.0549501E-01;  3.9396438E+04;  0.0000000E+00; -2.1856185E-03;  4.0000000E+04;  0.0000000E+00;  4.0023809E+04; -2.2009534E-01;  0.0000000E+00;  1.4600325E-02;  3.5986152E+03;
  5.6638873E-01;  9.9999998E-03;  3.0004047E-02;5895; -1.6289668E-01;  0.0000000E+00;  3.9192708E-04;  9.9357056E+02;  1.0007945E-01; -5.3266592E+03;3;  7.4729867E+00;  0.0000000E+00; -8.0377448E-01;0; -2.0533589E-01;  3.9397359E+04;  0.0000000E+00; -4.2279363E-03;  4.0000000E+04;  0.0000000E+00;  4.0024258E+04; -2.2036476E-01;  0.0000000E+00;  1.5028872E-02;  3.6614917E+03;
  5.6639725E-01;  9.9999998E-03;  4.0003866E-02;5896; -1.6285039E-01;  0.0000000E+00;  5.3544028E-04;  9.9359369E+02;  1.0007937E-01; -5.3074995E+03;3;  7.3637166E+00;  0.0000000E+00; -1.0696030E+00;0; -2.0511718E-01;  3.9398492E+04;  0.0000000E+00; -5.9306747E-03;  4.0000000E+04;  0.0000000E+00;  4.0024992E+04; -2.2072980E-01;  0.0000000E+00;  1.5612613E-02;  3.7344915E+03;
  5.6640714E-01;  9.9999998E-03;  5.0003432E-02;5897; -1.6279240E-01;  0.0000000E+00;  6.8849680E-04;  9.9361981E+02;  1.0007939E-01; -5.2858706E+03;3;  7.2272515E+00;  0.0000000E+00; -1.3401065E+00;0; -2.0484297E-01;  3.9399934E+04;  0.0000000E+00; -6.4050844E-03;  4.0000000E+04;  0.0000000E+00;  4.0025508E+04; -2.2117883E-01;  0.0000000E+00;  1.6335865E-02;  3.8077151E+03;
  5.6641847E-01;  9.9999998E-03;  6.0003038E-02;5898; -1.6272394E-01;  0.0000000E+00;  8.5241580E-04;  9.9364819E+02;  1.0007951E-01; -5.2623647E+03;3;  7.0621128E+00;  0.0000000E+00; -1.6126546E+00;0; -2.0451750E-01;  3.9401754E+04;  0.0000000E+00; -4.8423731E-03;  4.0000000E+04;  0.0000000E+00;  4.0026016E+04; -2.2169647E-01;  0.0000000E+00;  1.7178962E-02;  3.8739385E+03;
  5.7663804E-01;  9.9999998E-03; -9.9991582E-02;5943; -1.6466442E-01;  0.0000000E+00; -1.5699032E-03;  9.9390363E+02;  1.0013086E-01; -5.0507163E+03;3;  6.4560089E+00;  0.0000000E+00;  2.5594127E+00;0; -2.0335884E-01;  3.9379297E+04;  0.0000000E+00;  9.4252728E-02;  4.0000000E+04;  0.0000000E+00;  4.0028422E+04; -2.2301082E-01;  0.0000000E+00;  1.9651979E-02;  4.1964355E+03;
  5.7663399E-01;  9.9999998E-03; -8.9991540E-02;5944; -1.6475731E-01;  0.0000000E+00; -1.3696759E-03;  9.9389850E+02;  1.0013097E-01; -5.0549634E+03;3;  6.7454996E+00;  0.0000000E+00;  2.3266597E+00;0; -2.0409110E-01;  3.9378844E+04;  0.0000000E+00;  8.0910020E-02;  4.0000000E+04;  0.0000000E+00;  4.0028230E+04; -2.2264759E-01;  0.0000000E+00;  1.8556494E-02;  4.1706216E+03;
  5.7662970E-01;  9.9999998E-03; -7.9991929E-02;5945; -1.6484511E-01;  0.0000000E+00; -1.1814524E-03;  9.9388721E+02;  1.0013099E-01; -5.0643457E+03;3;  7.0102944E+00;  0.0000000E+00;  2.0784969E+00;0; -2.0477696E-01;  3.9378086E+04;  0.0000000E+00;  6.5831453E-02;  4.0000000E+04;  0.0000000E+00;  4.0028223E+04; -2.2225863E-01;  0.0000000E+00;  1.7481670E-02;  4.1601865E+03;
  5.7662505E-01;  9.9999998E-03; -6.9992810E-02;5946; -1.6492683E-01;  0.0000000E+00; -1.0043504E-03;  9.9387256E+02;  1.0013084E-01; -5.0764438E+03;3;  7.2453961E+00;  0.0000000E+00;  1.8270223E+00;0; -2.0540720E-01;  3.9377137E+04;  0.0000000E+00;  5.0552726E-02;  4.0000000E+04;  0.0000000E+00;  4.0028023E+04; -2.2186606E-01;  0.0000000E+00;  1.6458854E-02;  4.1489150E+03;
  5.7661957E-01;  9.9999998E-03; -5.9994128E-02;5947; -1.6500133E-01;  0.0000000E+00; -8.3761837E-04;  9.9385822E+02;  1.0013077E-01; -5.0883447E+03;3;  7.4509082E+00;  0.0000000E+00;  1.5684901E+00;0; -2.0597237E-01;  3.9376062E+04;  0.0000000E+00;  3.6416240E-02;  4.0000000E+04;  0.0000000E+00;  4.0027848E+04; -2.2148861E-01;  0.0000000E+00;  1.5516236E-02;  4.1256660E+03;
  5.7661343E-01;  9.9999998E-03; -4.9995758E-02;5948; -1.6506723E-01;  0.0000000E+00; -6.8036525E-04;  9.9384222E+02;  1.0013092E-01; -5.1015791E+03;3;  7.6261673E+00;  0.0000000E+00;  1.3092355E+00;0; -2.0646445E-01;  3.9375016E+04;  0.0000000E+00;  2.4355993E-02;  4.0000000E+04;  0.0000000E+00;  4.0027531E+04; -2.2114269E-01;  0.0000000E+00;  1.4678233E-02;  4.0862207E+03;
  5.7660669E-01;  9.9999998E-03; -3.9997585E-02;5949; -1.6512305E-01;  0.0000000E+00; -5.3191680E-04;  9.9382812E+02;  1.0013068E-01; -5.1132822E+03;3;  7.7730255E+00;  0.0000000E+00;  1.0508772E+00;0; -2.0687681E-01;  3.9374344E+04;  0.0000000E+00;  1.4840655E-02;  4.0000000E+04;  0.0000000E+00;  4.0027105E+04; -2.2084208E-01;  0.0000000E+00;  1.3965260E-02;  4.0331143E+03;
  5.7660025E-01;  9.9999998E-03; -2.9999388E-02;5950; -1.6516770E-01;  0.0000000E+00; -3.9134960E-04;  9.9381274E+02;  1.0013074E-01; -5.1260229E+03;3;  7.8887815E+00;  0.0000000E+00;  7.8231186E-01;0; -2.0720349E-01;  3.9373625E+04;  0.0000000E+00;  7.9191653E-03;  4.0000000E+04;  0.0000000E+00;  4.0026633E+04; -2.2059713E-01;  0.0000000E+00;  1.3393634E-02;  3.9741697E+03;
  5.7659459E-01;  9.9999998E-03; -2.0000845E-02;5951; -1.6520029E-01;  0.0000000E+00; -2.5711529E-04;  9.9380133E+02;  1.0013067E-01; -5.1354546E+03;3;  7.9714127E+00;  0.0000000E+00;  5.1839274E-01;0; -2.0743999E-01;  3.9373250E+04;  0.0000000E+00;  3.3565976E-03;  4.0000000E+04;  0.0000000E+00;  4.0026121E+04; -2.2041616E-01;  0.0000000E+00;  1.2976170E-02;  3.9201482E+03;
  5.7659000E-01;  9.9999998E-03; -1.0001366E-02;5952; -1.6521995E-01;  0.0000000E+00; -1.2728028E-04;  9.9379639E+02;  1.0013087E-01; -5.1395532E+03;3;  8.0224333E+00;  0.0000000E+00;  2.5856817E-01;0; -2.0758298E-01;  3.9372906E+04;  0.0000000E+00;  8.1188657E-04;  4.0000000E+04;  0.0000000E+00;  4.0025898E+04; -2.2030506E-01;  0.0000000E+00;  1.2722078E-02;  3.8819653E+03;
  5.7658809E-01;  9.9999998E-03; -3.1594188E-10;5953; -1.6522644E-01;  0.0000000E+00;  1.9181924E-08;  9.9379279E+02;  1.0013071E-01; -5.1425654E+03;3;  8.0392752E+00;  0.0000000E+00; -5.8525748E-06;0; -2.0763114E-01;  3.9372875E+04;  0.0000000E+00;  2.4153143E-12;  4.0000000E+04;  0.0000000E+00;  4.0025762E+04; -2.2026794E-01;  0.0000000E+00;  1.2636794E-02;  3.8681560E+03;
  5.7659000E-01;  9.9999998E-03;  1.0001365E-02;5954; -1.6521993E-01;  0.0000000E+00;  1.2731826E-04;  9.9379626E+02;  1.0013088E-01; -5.1396519E+03;3;  8.0225267E+00;  0.0000000E+00; -2.5857651E-01;0; -2.0758286E-01;  3.9372906E+04;  0.0000000E+00;  8.1140496E-04;  4.0000000E+04;  0.0000000E+00;  4.0025898E+04; -2.2030495E-01;  0.0000000E+00;  1.2722093E-02;  3.8819624E+03;
  5.7659459E-01;  9.9999998E-03;  2.0000845E-02;5955; -1.6520026E-01;  0.0000000E+00;  2.5715312E-04;  9.9380133E+02;  1.0013067E-01; -5.1354546E+03;3;  7.9715748E+00;  0.0000000E+00; -5.1840913E-01;0; -2.0744011E-01;  3.9373250E+04;  0.0000000E+00;  3.3557480E-03;  4.0000000E+04;  0.0000000E+00;  4.0026121E+04; -2.2041626E-01;  0.0000000E+00;  1.2976159E-02;  3.9201555E+03;
  5.7660025E-01;  9.9999998E-03;  2.9999388E-02;5956; -1.6516769E-01;  0.0000000E+00;  3.9138802E-04;  9.9381274E+02;  1.0013074E-01; -5.1260229E+03;3;  7.8889818E+00;  0.0000000E+00; -7.8232586E-01;0; -2.0720348E-01;  3.9373613E+04;  0.0000000E+00;  7.9178093E-03;  4.0000000E+04;  0.0000000E+00;  4.0026633E+04; -2.2059710E-01;  0.0000000E+00;  1.3393630E-02;  3.9741785E+03;
  5.7660669E-01;  9.9999998E-03;  3.9997585E-02;5957; -1.6512303E-01;  0.0000000E+00;  5.3195376E-04;  9.9382806E+02;  1.0013068E-01; -5.1133320E+03;3;  7.7732687E+00;  0.0000000E+00; -1.0508900E+00;0; -2.0687702E-01;  3.9374348E+04;  0.0000000E+00;  1.4838497E-02;  4.0000000E+04;  0.0000000E+00;  4.0027105E+04; -2.2084227E-01;  0.0000000E+00;  1.3965254E-02;  4.0331147E+03;
  5.7661343E-01;  9.9999998E-03;  4.9995758E-02;5958; -1.6506721E-01;  0.0000000E+00;  6.8040210E-04;  9.9384216E+02;  1.0013079E-01; -5.1016284E+03;3;  7.6261740E+00;  0.0000000E+00; -1.3092430E+00;0; -2.0646454E-01;  3.9375020E+04;  0.0000000E+00;  2.4352293E-02;  4.0000000E+04;  0.0000000E+00;  4.0027531E+04; -2.2114278E-01;  0.0000000E+00;  1.4678239E-02;  4.0862224E+03;
  5.7661957E-01;  9.9999998E-03;  5.9994128E-02;5959; -1.6500129E-01;  0.0000000E+00;  8.3765562E-04;  9.9385822E+02;  1.0013077E-01; -5.0883447E+03;3;  7.4509873E+00;  0.0000000E+00; -1.5684836E+00;0; -2.0597260E-01;  3.9376066E+04;  0.0000000E+00;  3.6412369E-02;  4.0000000E+04;  0.0000000E+00;  4.0027844E+04; -2.2148880E-01;  0.0000000E+00;  1.5516211E-02;  4.1256729E+03;
  5.8682829E-01;  9.9999998E-03; -9.9973805E-02;6004; -1.6693275E-01;  0.0000000E+00; -1.4795091E-03;  9.9424878E+02;  1.0021400E-01; -4.7647485E+03;3;  6.7865562E+00;  0.0000000E+00;  2.4590290E+00;0; -2.0436434E-01;  3.9340285E+04;  0.0000000E+00;  1.5283696E-01;  4.0000000E+04;  0.0000000E+00;  4.0029668E+04; -2.2220005E-01;  0.0000000E+00;  1.7835708E-02;  4.3969390E+03;
  5.8684075E-01;  9.9999998E-03; -8.9973338E-02;6005; -1.6702370E-01;  0.0000000E+00; -1.2947149E-03;  9.9427344E+02;  1.0021414E-01; -4.7443540E+03;3;  7.0951715E+00;  0.0000000E+00;  2.2327094E+00;0; -2.0537819E-01;  3.9342105E+04;  0.0000000E+00;  1.3947563E-01;  4.0000000E+04;  0.0000000E+00;  4.0029910E+04; -2.2207379E-01;  0.0000000E+00;  1.6695604E-02;  4.4126387E+03;
  5.8685201E-01;  9.9999998E-03; -7.9973921E-02;6006; -1.6711035E-01;  0.0000000E+00; -1.1210085E-03;  9.9429370E+02;  1.0021397E-01; -4.7275645E+03;3;  7.3747611E+00;  0.0000000E+00;  2.0026610E+00;0; -2.0632257E-01;  3.9343531E+04;  0.0000000E+00;  1.2078937E-01;  4.0000000E+04;  0.0000000E+00;  4.0030102E+04; -2.2191557E-01;  0.0000000E+00;  1.5593001E-02;  4.4393691E+03;
  5.8686012E-01;  9.9999998E-03; -6.9975786E-02;6007; -1.6719152E-01;  0.0000000E+00; -9.5683709E-04;  9.9431335E+02;  1.0021388E-01; -4.7112686E+03;3;  7.6245818E+00;  0.0000000E+00;  1.7675087E+00;0; -2.0718555E-01;  3.9344836E+04;  0.0000000E+00;  9.8951742E-02;  4.0000000E+04;  0.0000000E+00;  4.0030223E+04; -2.2174269E-01;  0.0000000E+00;  1.4557136E-02;  4.4598960E+03;
  5.8686459E-01;  9.9999998E-03; -5.9978746E-02;6008; -1.6726579E-01;  0.0000000E+00; -8.0176065E-04;  9.9432678E+02;  1.0021403E-01; -4.7001577E+03;3;  7.8437142E+00;  0.0000000E+00;  1.5188708E+00;0; -2.0795536E-01;  3.9345793E+04;  0.0000000E+00;  7.6203458E-02;  4.0000000E+04;  0.0000000E+00;  4.0030293E+04; -2.2156876E-01;  0.0000000E+00;  1.3613395E-02;  4.4623838E+03;
  5.8686578E-01;  9.9999998E-03; -4.9982533E-02;6009; -1.6733156E-01;  0.0000000E+00; -6.5451668E-04;  9.9433527E+02;  1.0021371E-01; -4.6930962E+03;3;  8.0328178E+00;  0.0000000E+00;  1.2682644E+00;0; -2.0862249E-01;  3.9346781E+04;  0.0000000E+00;  5.4548379E-02;  4.0000000E+04;  0.0000000E+00;  4.0030168E+04; -2.2140536E-01;  0.0000000E+00;  1.2782875E-02;  4.4424541E+03;
  5.8686376E-01;  9.9999998E-03; -3.9986826E-02;6010; -1.6738744E-01;  0.0000000E+00; -5.1419146E-04;  9.9434131E+02;  1.0021380E-01; -4.6881089E+03;3;  8.1896315E+00;  0.0000000E+00;  1.0145140E+00;0; -2.0917888E-01;  3.9347598E+04;  0.0000000E+00;  3.5525233E-02;  4.0000000E+04;  0.0000000E+00;  4.0029828E+04; -2.2126134E-01;  0.0000000E+00;  1.2082458E-02;  4.4032124E+03;
  5.8685994E-01;  9.9999998E-03; -2.9991198E-02;6011; -1.6743225E-01;  0.0000000E+00; -3.8001558E-04;  9.9434552E+02;  1.0021389E-01; -4.6846025E+03;3;  8.3119736E+00;  0.0000000E+00;  7.5451517E-01;0; -2.0961767E-01;  3.9348277E+04;  0.0000000E+00;  2.0153081E-02;  4.0000000E+04;  0.0000000E+00;  4.0029473E+04; -2.2114274E-01;  0.0000000E+00;  1.1525062E-02;  4.3534141E+03;
  5.8685619E-01;  9.9999998E-03; -1.9995334E-02;6012; -1.6746512E-01;  0.0000000E+00; -2.5037926E-04;  9.9434851E+02;  1.0021383E-01; -4.6821333E+03;3;  8.3998547E+00;  0.0000000E+00;  5.0099587E-01;0; -2.0993462E-01;  3.9348789E+04;  0.0000000E+00;  8.9851776E-03;  4.0000000E+04;  0.0000000E+00;  4.0029129E+04; -2.2105481E-01;  0.0000000E+00;  1.1120178E-02;  4.3048574E+03;
  5.8685297E-01;  9.9999998E-03; -9.9986391E-03;6013; -1.6748516E-01;  0.0000000E+00; -1.2413373E-04;  9.9434796E+02;  1.0021370E-01; -4.6825781E+03;3;  8.4502697E+00;  0.0000000E+00;  2.5137737E-01;0; -2.1012598E-01;  3.9349086E+04;  0.0000000E+00;  2.2480760E-03;  4.0000000E+04;  0.0000000E+00;  4.0028715E+04; -2.2100061E-01;  0.0000000E+00;  1.0874634E-02;  4.2696001E+03;
  5.8685148E-01;  9.9999998E-03; -4.4734200E-10;6014; -1.6749184E-01;  0.0000000E+00;  1.8271832E-08;  9.9434772E+02;  1.0021380E-01; -4.6828247E+03;3;  8.4673548E+00;  0.0000000E+00;  1.0791809E-06;0; -2.1019018E-01;  3.9349180E+04;  0.0000000E+00;  1.9425275E-12;  4.0000000E+04;  0.0000000E+00;  4.0028762E+04; -2.2098258E-01;  0.0000000E+00;  1.0792398E-02;  4.2566768E+03;
  5.8685297E-01;  9.9999998E-03;  9.9986382E-03;6015; -1.6748518E-01;  0.0000000E+00;  1.2416988E-04;  9.9434796E+02;  1.0021370E-01; -4.6825781E+03;3;  8.4503469E+00;  0.0000000E+00; -2.5138733E-01;0; -2.1012604E-01;  3.9349082E+04;  0.0000000E+00;  2.2474951E-03;  4.0000000E+04;  0.0000000E+00;  4.0028719E+04; -2.2100069E-01;  0.0000000E+00;  1.0874644E-02;  4.2696021E+03;
  5.8685619E-01;  9.9999998E-03;  1.9995334E-02;6016; -1.6746512E-01;  0.0000000E+00;  2.5041439E-04;  9.9434851E+02;  1.0021383E-01; -4.6821333E+03;3;  8.3996439E+00;  0.0000000E+00; -5.0102037E-01;0; -2.0993459E-01;  3.9348789E+04;  0.0000000E+00;  8.9844046E-03;  4.0000000E+04;  0.0000000E+00;  4.0029129E+04; -2.2105476E-01;  0.0000000E+00;  1.1120165E-02;  4.3048701E+03;
  5.8685994E-01;  9.9999998E-03;  2.9991198E-02;6017; -1.6743223E-01;  0.0000000E+00;  3.8005231E-04;  9.9434552E+02;  1.0021389E-01; -4.6846025E+03;3;  8.3121405E+00;  0.0000000E+00; -7.5452358E-01;0; -2.0961735E-01;  3.9348277E+04;  0.0000000E+00;  2.0151425E-02;  4.0000000E+04;  0.0000000E+00;  4.0029473E+04; -2.2114240E-01;  0.0000000E+00;  1.1525052E-02;  4.3534106E+03;
  5.8686376E-01;  9.9999998E-03;  3.9986826E-02;6018; -1.6738743E-01;  0.0000000E+00;  5.1422825E-04;  9.9434131E+02;  1.0021380E-01; -4.6881089E+03;3;  8.1898928E+00;  0.0000000E+00; -1.0145203E+00;0; -2.0917839E-01;  3.9347598E+04;  0.0000000E+00;  3.5522763E-02;  4.0000000E+04;  0.0000000E+00;  4.0029828E+04; -2.2126085E-01;  0.0000000E+00;  1.2082453E-02;  4.4032119E+03;
  5.8686578E-01;  9.9999998E-03;  4.9982533E-02;6019; -1.6733155E-01;  0.0000000E+00;  6.5455242E-04;  9.9433527E+02;  1.0021371E-01; -4.6930962E+03;3;  8.0328054E+00;  0.0000000E+00; -1.2682606E+00;0; -2.0862237E-01;  3.9346781E+04;  0.0000000E+00;  5.4544687E-02;  4.0000000E+04;  0.0000000E+00;  4.0030168E+04; -2.2140524E-01;  0.0000000E+00;  1.2782869E-02;  4.4424668E+03;
  5.8686459E-01;  9.9999998E-03;  5.9978746E-02;6020; -1.6726577E-01;  0.0000000E+00;  8.0179656E-04;  9.9432678E+02;  1.0021403E-01; -4.7001577E+03;3;  7.8440828E+00;  0.0000000E+00; -1.5189067E+00;0; -2.0795514E-01;  3.9345797E+04;  0.0000000E+00;  7.6200411E-02;  4.0000000E+04;  0.0000000E+00;  4.0030293E+04; -2.2156851E-01;  0.0000000E+00;  1.3613373E-02;  4.4623794E+03;
  5.9700227E-01;  9.9999998E-03; -9.9954359E-02;6065; -1.6915856E-01;  0.0000000E+00; -1.3448368E-03;  9.9469354E+02;  1.0034835E-01; -4.3963140E+03;3;  7.1140671E+00;  0.0000000E+00;  2.3368785E+00;0; -2.0596583E-01;  3.9269594E+04;  0.0000000E+00;  1.8534987E-01;  4.0000000E+04;  0.0000000E+00;  4.0031484E+04; -2.2172277E-01;  0.0000000E+00;  1.5756929E-02;  4.6962681E+03;
  5.9702623E-01;  9.9999998E-03; -8.9954920E-02;6066; -1.6924877E-01;  0.0000000E+00; -1.1771441E-03;  9.9475909E+02;  1.0034798E-01; -4.3419946E+03;3;  7.4401903E+00;  0.0000000E+00;  2.1304626E+00;0; -2.0727699E-01;  3.9274316E+04;  0.0000000E+00;  1.7478381E-01;  4.0000000E+04;  0.0000000E+00;  4.0031891E+04; -2.2184715E-01;  0.0000000E+00;  1.4570161E-02;  4.7495986E+03;
  5.9704983E-01;  9.9999998E-03; -7.9957291E-02;6067; -1.6933568E-01;  0.0000000E+00; -1.0204002E-03;  9.9482227E+02;  1.0034810E-01; -4.2896504E+03;3;  7.7390413E+00;  0.0000000E+00;  1.9148289E+00;0; -2.0849383E-01;  3.9278922E+04;  0.0000000E+00;  1.5605269E-01;  4.0000000E+04;  0.0000000E+00;  4.0032512E+04; -2.2193223E-01;  0.0000000E+00;  1.3438409E-02;  4.8059805E+03;
  5.9707093E-01;  9.9999998E-03; -6.9961153E-02;6068; -1.6941804E-01;  0.0000000E+00; -8.7329227E-04;  9.9488068E+02;  1.0034806E-01; -4.2412568E+03;3;  8.0052624E+00;  0.0000000E+00;  1.6835649E+00;0; -2.0960258E-01;  3.9283254E+04;  0.0000000E+00;  1.3155122E-01;  4.0000000E+04;  0.0000000E+00;  4.0032809E+04; -2.2199075E-01;  0.0000000E+00;  1.2388173E-02;  4.8486421E+03;
  5.9708583E-01;  9.9999998E-03; -5.9966207E-02;6069; -1.6949375E-01;  0.0000000E+00; -7.3406316E-04;  9.9493311E+02;  1.0034783E-01; -4.1978013E+03;3;  8.2396860E+00;  0.0000000E+00;  1.4491087E+00;0; -2.1058872E-01;  3.9287328E+04;  0.0000000E+00;  1.0405648E-01;  4.0000000E+04;  0.0000000E+00;  4.0033082E+04; -2.2203086E-01;  0.0000000E+00;  1.1442140E-02;  4.8667114E+03;
  5.9709412E-01;  9.9999998E-03; -4.9972203E-02;6070; -1.6956110E-01;  0.0000000E+00; -6.0123712E-04;  9.9497760E+02;  1.0034808E-01; -4.1609629E+03;3;  8.4402351E+00;  0.0000000E+00;  1.2159408E+00;0; -2.1144044E-01;  3.9290895E+04;  0.0000000E+00;  7.6339506E-02;  4.0000000E+04;  0.0000000E+00;  4.0033000E+04; -2.2205855E-01;  0.0000000E+00;  1.0618098E-02;  4.8569058E+03;
  5.9709734E-01;  9.9999998E-03; -3.9978642E-02;6071; -1.6961859E-01;  0.0000000E+00; -4.7366804E-04;  9.9501343E+02;  1.0034766E-01; -4.1312852E+03;3;  8.6055307E+00;  0.0000000E+00;  9.7552991E-01;0; -2.1214855E-01;  3.9294094E+04;  0.0000000E+00;  5.0814796E-02;  4.0000000E+04;  0.0000000E+00;  4.0032828E+04; -2.2207767E-01;  0.0000000E+00;  9.9291177E-03;  4.8235142E+03;
  5.9709698E-01;  9.9999998E-03; -2.9984944E-02;6072; -1.6966490E-01;  0.0000000E+00; -3.5076035E-04;  9.9504065E+02;  1.0034752E-01; -4.1087178E+03;3;  8.7348299E+00;  0.0000000E+00;  7.3093301E-01;0; -2.1270619E-01;  3.9296531E+04;  0.0000000E+00;  2.9359996E-02;  4.0000000E+04;  0.0000000E+00;  4.0032383E+04; -2.2209091E-01;  0.0000000E+00;  9.3847178E-03;  4.7767573E+03;
  5.9709489E-01;  9.9999998E-03; -1.9990878E-02;6073; -1.6969876E-01;  0.0000000E+00; -2.3157556E-04;  9.9505634E+02;  1.0034764E-01; -4.0957305E+03;3;  8.8280640E+00;  0.0000000E+00;  4.8798645E-01;0; -2.1310799E-01;  3.9298477E+04;  0.0000000E+00;  1.3273924E-02;  4.0000000E+04;  0.0000000E+00;  4.0032168E+04; -2.2209957E-01;  0.0000000E+00;  8.9915795E-03;  4.7295923E+03;
  5.9709275E-01;  9.9999998E-03; -9.9961050E-03;6074; -1.6971950E-01;  0.0000000E+00; -1.1519665E-04;  9.9506927E+02;  1.0034753E-01; -4.0850146E+03;3;  8.8842936E+00;  0.0000000E+00;  2.4352279E-01;0; -2.1335034E-01;  3.9299535E+04;  0.0000000E+00;  3.3503193E-03;  4.0000000E+04;  0.0000000E+00;  4.0031758E+04; -2.2210439E-01;  0.0000000E+00;  8.7540476E-03;  4.6949155E+03;
  5.9709167E-01;  9.9999998E-03; -4.8016963E-10;6075; -1.6972642E-01;  0.0000000E+00;  1.6869512E-08;  9.9507294E+02;  1.0034761E-01; -4.0819531E+03;3;  8.9024763E+00;  0.0000000E+00; -6.6557768E-06;0; -2.1343163E-01;  3.9299938E+04;  0.0000000E+00;  1.8866842E-12;  4.0000000E+04;  0.0000000E+00;  4.0031664E+04; -2.2210626E-01;  0.0000000E+00;  8.6746346E-03;  4.6821685E+03;
  5.9709275E-01;  9.9999998E-03;  9.9961041E-03;6076; -1.6971950E-01;  0.0000000E+00;  1.1523082E-04;  9.9506940E+02;  1.0034746E-01; -4.0849160E+03;3;  8.8840017E+00;  0.0000000E+00; -2.4353270E-01;0; -2.1335024E-01;  3.9299535E+04;  0.0000000E+00;  3.3499913E-03;  4.0000000E+04;  0.0000000E+00;  4.0031762E+04; -2.2210428E-01;  0.0000000E+00;  8.7540401E-03;  4.6949092E+03;
  5.9709489E-01;  9.9999998E-03;  1.9990878E-02;6077; -1.6969876E-01;  0.0000000E+00;  2.3161031E-04;  9.9505640E+02;  1.0034756E-01; -4.0956812E+03;3;  8.8281670E+00;  0.0000000E+00; -4.8798940E-01;0; -2.1310790E-01;  3.9298477E+04;  0.0000000E+00;  1.3273275E-02;  4.0000000E+04;  0.0000000E+00;  4.0032168E+04; -2.2209947E-01;  0.0000000E+00;  8.9915749E-03;  4.7295928E+03;
  5.9709698E-01;  9.9999998E-03;  2.9984944E-02;6078; -1.6966489E-01;  0.0000000E+00;  3.5079577E-04;  9.9504071E+02;  1.0034752E-01; -4.1086685E+03;3;  8.7346668E+00;  0.0000000E+00; -7.3093098E-01;0; -2.1270590E-01;  3.9296531E+04;  0.0000000E+00;  2.9358786E-02;  4.0000000E+04;  0.0000000E+00;  4.0032383E+04; -2.2209062E-01;  0.0000000E+00;  9.3847224E-03;  4.7767471E+03;
  5.9709734E-01;  9.9999998E-03;  3.9978638E-02;6079; -1.6961859E-01;  0.0000000E+00;  4.7370431E-04;  9.9501343E+02;  1.0034766E-01; -4.1312852E+03;3;  8.6054697E+00;  0.0000000E+00; -9.7554290E-01;0; -2.1214858E-01;  3.9294090E+04;  0.0000000E+00;  5.0812684E-02;  4.0000000E+04;  0.0000000E+00;  4.0032828E+04; -2.2207768E-01;  0.0000000E+00;  9.9291056E-03;  4.8235098E+03;
  5.9709412E-01;  9.9999998E-03;  4.9972203E-02;6080; -1.6956109E-01;  0.0000000E+00;  6.0127256E-04;  9.9497754E+02;  1.0034808E-01; -4.1610127E+03;3;  8.4402800E+00;  0.0000000E+00; -1.2159387E+00;0; -2.1144028E-01;  3.9290895E+04;  0.0000000E+00;  7.6336317E-02;  4.0000000E+04;  0.0000000E+00;  4.0032996E+04; -2.2205837E-01;  0.0000000E+00;  1.0618091E-02;  4.8569072E+03;
  5.9708583E-01;  9.9999998E-03;  5.9966207E-02;6081; -1.6949373E-01;  0.0000000E+00;  7.3409994E-04;  9.9493304E+02;  1.0034789E-01; -4.1978511E+03;3;  8.2394514E+00;  0.0000000E+00; -1.4490529E+00;0; -2.1058883E-01;  3.9287324E+04;  0.0000000E+00;  1.0405493E-01;  4.0000000E+04;  0.0000000E+00;  4.0033078E+04; -2.2203095E-01;  0.0000000E+00;  1.1442121E-02;  4.8667119E+03;
  6.0712779E-01;  9.9999998E-03; -9.9938571E-02;6126; -1.7133379E-01;  0.0000000E+00; -1.1534296E-03;  9.9512524E+02;  1.0056186E-01; -4.0386445E+03;3;  7.4386854E+00;  0.0000000E+00;  2.1948824E+00;0; -2.0827714E-01;  3.9136547E+04;  0.0000000E+00;  1.7815021E-01;  4.0000000E+04;  0.0000000E+00;  4.0033371E+04; -2.2167416E-01;  0.0000000E+00;  1.3397026E-02;  5.0760615E+03;
  6.0715032E-01;  9.9999998E-03; -8.9942873E-02;6127; -1.7142233E-01;  0.0000000E+00; -1.0065436E-03;  9.9522620E+02;  1.0056183E-01; -3.9549927E+03;3;  7.7855096E+00;  0.0000000E+00;  2.0045588E+00;0; -2.0989297E-01;  3.9144023E+04;  0.0000000E+00;  1.7359455E-01;  4.0000000E+04;  0.0000000E+00;  4.0034180E+04; -2.2205685E-01;  0.0000000E+00;  1.2163876E-02;  5.1591841E+03;
  6.0717267E-01;  9.9999998E-03; -7.9949148E-02;6128; -1.7150842E-01;  0.0000000E+00; -8.7094458E-04;  9.9532819E+02;  1.0056185E-01; -3.8705015E+03;3;  8.1004229E+00;  0.0000000E+00;  1.7969452E+00;0; -2.1139011E-01;  3.9151605E+04;  0.0000000E+00;  1.5941055E-01;  4.0000000E+04;  0.0000000E+00;  4.0034855E+04; -2.2239371E-01;  0.0000000E+00;  1.1003603E-02;  5.2356387E+03;
  6.0719371E-01;  9.9999998E-03; -6.9956496E-02;6129; -1.7159082E-01;  0.0000000E+00; -7.4470683E-04;  9.9542560E+02;  1.0056146E-01; -3.7898125E+03;3;  8.3837538E+00;  0.0000000E+00;  1.5842694E+00;0; -2.1275206E-01;  3.9158945E+04;  0.0000000E+00;  1.3770360E-01;  4.0000000E+04;  0.0000000E+00;  4.0035395E+04; -2.2269128E-01;  0.0000000E+00;  9.9392226E-03;  5.2901626E+03;
  6.0721225E-01;  9.9999998E-03; -5.9964042E-02;6130; -1.7166795E-01;  0.0000000E+00; -6.2619703E-04;  9.9551685E+02;  1.0056137E-01; -3.7142097E+03;3;  8.6319866E+00;  0.0000000E+00;  1.3652894E+00;0; -2.1396333E-01;  3.9166039E+04;  0.0000000E+00;  1.1127382E-01;  4.0000000E+04;  0.0000000E+00;  4.0035668E+04; -2.2295263E-01;  0.0000000E+00;  8.9892996E-03;  5.3135723E+03;
  6.0722739E-01;  9.9999998E-03; -4.9971055E-02;6131; -1.7173785E-01;  0.0000000E+00; -5.1336997E-04;  9.9559863E+02;  1.0056134E-01; -3.6464587E+03;3;  8.8449240E+00;  0.0000000E+00;  1.1463332E+00;0; -2.1501020E-01;  3.9172672E+04;  0.0000000E+00;  8.3152913E-02;  4.0000000E+04;  0.0000000E+00;  4.0035574E+04; -2.2317836E-01;  0.0000000E+00;  8.1681665E-03;  5.3044775E+03;
  6.0723728E-01;  9.9999998E-03; -3.9977312E-02;6132; -1.7179811E-01;  0.0000000E+00; -4.0496723E-04;  9.9566614E+02;  1.0056116E-01; -3.5905098E+03;3;  9.0202904E+00;  0.0000000E+00;  9.2000103E-01;0; -2.1588056E-01;  3.9178453E+04;  0.0000000E+00;  5.6214407E-02;  4.0000000E+04;  0.0000000E+00;  4.0035379E+04; -2.2336704E-01;  0.0000000E+00;  7.4864808E-03;  5.2692603E+03;
  6.0724163E-01;  9.9999998E-03; -2.9983237E-02;6133; -1.7184670E-01;  0.0000000E+00; -3.0020002E-04;  9.9571887E+02;  1.0056099E-01; -3.5468074E+03;3;  9.1583071E+00;  0.0000000E+00;  6.9342101E-01;0; -2.1656552E-01;  3.9183008E+04;  0.0000000E+00;  3.2884430E-02;  4.0000000E+04;  0.0000000E+00;  4.0035027E+04; -2.2351691E-01;  0.0000000E+00;  6.9513889E-03;  5.2197324E+03;
  6.0724294E-01;  9.9999998E-03; -1.9989016E-02;6134; -1.7188253E-01;  0.0000000E+00; -1.9849022E-04;  9.9575751E+02;  1.0056104E-01; -3.5148083E+03;3;  9.2567244E+00;  0.0000000E+00;  4.6251246E-01;0; -2.1705909E-01;  3.9186379E+04;  0.0000000E+00;  1.5001934E-02;  4.0000000E+04;  0.0000000E+00;  4.0034660E+04; -2.2362596E-01;  0.0000000E+00;  6.5668649E-03;  5.1700679E+03;
  6.0724306E-01;  9.9999998E-03; -9.9945767E-03;6135; -1.7190449E-01;  0.0000000E+00; -9.8694109E-05;  9.9577905E+02;  1.0056102E-01; -3.4969817E+03;3;  9.3157854E+00;  0.0000000E+00;  2.3043635E-01;0; -2.1735674E-01;  3.9188625E+04;  0.0000000E+00;  3.8067617E-03;  4.0000000E+04;  0.0000000E+00;  4.0034367E+04; -2.2369201E-01;  0.0000000E+00;  6.3352715E-03;  5.1337197E+03;
  6.0724312E-01;  9.9999998E-03; -4.5802784E-10;6136; -1.7191190E-01;  0.0000000E+00;  1.5958596E-08;  9.9578821E+02;  1.0056108E-01; -3.4893770E+03;3;  9.3359718E+00;  0.0000000E+00; -1.1894108E-05;0; -2.1745625E-01;  3.9189227E+04;  0.0000000E+00;  1.9397197E-12;  4.0000000E+04;  0.0000000E+00;  4.0034211E+04; -2.2371416E-01;  0.0000000E+00;  6.2579112E-03;  5.1204487E+03;
  6.0724306E-01;  9.9999998E-03;  9.9945758E-03;6137; -1.7190447E-01;  0.0000000E+00;  9.8726247E-05;  9.9577911E+02;  1.0056102E-01; -3.4969324E+03;3;  9.3158350E+00;  0.0000000E+00; -2.3045973E-01;0; -2.1735664E-01;  3.9188625E+04;  0.0000000E+00;  3.8066388E-03;  4.0000000E+04;  0.0000000E+00;  4.0034363E+04; -2.2369191E-01;  0.0000000E+00;  6.3352673E-03;  5.1337217E+03;
  6.0724294E-01;  9.9999998E-03;  1.9989014E-02;6138; -1.7188253E-01;  0.0000000E+00;  1.9852431E-04;  9.9575757E+02;  1.0056099E-01; -3.5147590E+03;3;  9.2565174E+00;  0.0000000E+00; -4.6250412E-01;0; -2.1705884E-01;  3.9186379E+04;  0.0000000E+00;  1.5001452E-02;  4.0000000E+04;  0.0000000E+00;  4.0034656E+04; -2.2362570E-01;  0.0000000E+00;  6.5668672E-03;  5.1700688E+03;
  6.0724163E-01;  9.9999998E-03;  2.9983237E-02;6139; -1.7184667E-01;  0.0000000E+00;  3.0023337E-04;  9.9571881E+02;  1.0056105E-01; -3.5468567E+03;3;  9.1585693E+00;  0.0000000E+00; -6.9342232E-01;0; -2.1656567E-01;  3.9183008E+04;  0.0000000E+00;  3.2883119E-02;  4.0000000E+04;  0.0000000E+00;  4.0035027E+04; -2.2351706E-01;  0.0000000E+00;  6.9513954E-03;  5.2197275E+03;
  6.0723728E-01;  9.9999998E-03;  3.9977312E-02;6140; -1.7179810E-01;  0.0000000E+00;  4.0500026E-04;  9.9566620E+02;  1.0056146E-01; -3.5904604E+03;3;  9.0202417E+00;  0.0000000E+00; -9.2001462E-01;0; -2.1588054E-01;  3.9178453E+04;  0.0000000E+00;  5.6212328E-02;  4.0000000E+04;  0.0000000E+00;  4.0035379E+04; -2.2336702E-01;  0.0000000E+00;  7.4864738E-03;  5.2692510E+03;
  6.0722739E-01;  9.9999998E-03;  4.9971055E-02;6141; -1.7173783E-01;  0.0000000E+00;  5.1340309E-04;  9.9559863E+02;  1.0056129E-01; -3.6464587E+03;3;  8.8449507E+00;  0.0000000E+00; -1.1463400E+00;0; -2.1500997E-01;  3.9172688E+04;  0.0000000E+00;  8.3151534E-02;  4.0000000E+04;  0.0000000E+00;  4.0035578E+04; -2.2317812E-01;  0.0000000E+00;  8.1681414E-03;  5.3044893E+03;
  6.0721225E-01;  9.9999998E-03;  5.9964042E-02;6142; -1.7166793E-01;  0.0000000E+00;  6.2623137E-04;  9.9551691E+02;  1.0056137E-01; -3.7141604E+03;3;  8.6320906E+00;  0.0000000E+00; -1.3653129E+00;0; -2.1396314E-01;  3.9166035E+04;  0.0000000E+00;  1.1126885E-01;  4.0000000E+04;  0.0000000E+00;  4.0035668E+04; -2.2295243E-01;  0.0000000E+00;  8.9892941E-03;  5.3135771E+03;
  6.1718106E-01;  9.9999998E-03; -9.9934161E-02;6187; -1.7345887E-01;  0.0000000E+00; -8.9907367E-04;  9.9545294E+02;  1.0089583E-01; -3.7671453E+03;3;  7.7584348E+00;  0.0000000E+00;  2.0355744E+00;0; -2.1136025E-01;  3.8904488E+04;  0.0000000E+00;  1.2585892E-01;  4.0000000E+04;  0.0000000E+00;  4.0034871E+04; -2.2210349E-01;  0.0000000E+00;  1.0743238E-02;  5.5089790E+03;
  6.1719596E-01;  9.9999998E-03; -8.9941643E-02;6188; -1.7354661E-01;  0.0000000E+00; -7.7743770E-04;  9.9557910E+02;  1.0089567E-01; -3.6626052E+03;3;  8.1240530E+00;  0.0000000E+00;  1.8493779E+00;0; -2.1328163E-01;  3.8913840E+04;  0.0000000E+00;  1.3052206E-01;  4.0000000E+04;  0.0000000E+00;  4.0035727E+04; -2.2274578E-01;  0.0000000E+00;  9.4641447E-03;  5.6104609E+03;
  6.1721015E-01;  9.9999998E-03; -7.9950370E-02;6189; -1.7363197E-01;  0.0000000E+00; -6.6814374E-04;  9.9570947E+02;  1.0089529E-01; -3.5546086E+03;3;  8.4585762E+00;  0.0000000E+00;  1.6613324E+00;0; -2.1506160E-01;  3.8923566E+04;  0.0000000E+00;  1.2578025E-01;  4.0000000E+04;  0.0000000E+00;  4.0036645E+04; -2.2333696E-01;  0.0000000E+00;  8.2753608E-03;  5.6960942E+03;
  6.1722296E-01;  9.9999998E-03; -6.9959588E-02;6190; -1.7371410E-01;  0.0000000E+00; -5.6798063E-04;  9.9583582E+02;  1.0089497E-01; -3.4499204E+03;3;  8.7569275E+00;  0.0000000E+00;  1.4734854E+00;0; -2.1668081E-01;  3.8933348E+04;  0.0000000E+00;  1.1290251E-01;  4.0000000E+04;  0.0000000E+00;  4.0037148E+04; -2.2387710E-01;  0.0000000E+00;  7.1962872E-03;  5.7526313E+03;
  6.1723441E-01;  9.9999998E-03; -5.9968501E-02;6191; -1.7379154E-01;  0.0000000E+00; -4.7554754E-04;  9.9595721E+02;  1.0089485E-01; -3.3493801E+03;3;  9.0197964E+00;  0.0000000E+00;  1.2699510E+00;0; -2.1812169E-01;  3.8942918E+04;  0.0000000E+00;  9.4094887E-02;  4.0000000E+04;  0.0000000E+00;  4.0037234E+04; -2.2436334E-01;  0.0000000E+00;  6.2416503E-03;  5.7731870E+03;
  6.1724448E-01;  9.9999998E-03; -4.9976509E-02;6192; -1.7386237E-01;  0.0000000E+00; -3.8888861E-04;  9.9606604E+02;  1.0089473E-01; -3.2592100E+03;3;  9.2437544E+00;  0.0000000E+00;  1.0643792E+00;0; -2.1936841E-01;  3.8951734E+04;  0.0000000E+00;  7.2085395E-02;  4.0000000E+04;  0.0000000E+00;  4.0037238E+04; -2.2479059E-01;  0.0000000E+00;  5.4221726E-03;  5.7584888E+03;
  6.1725307E-01;  9.9999998E-03; -3.9983146E-02;6193; -1.7392431E-01;  0.0000000E+00; -3.0608583E-04;  9.9616034E+02;  1.0089454E-01; -3.1810889E+03;3;  9.4304924E+00;  0.0000000E+00;  8.5937941E-01;0; -2.2040747E-01;  3.8959559E+04;  0.0000000E+00;  4.9702384E-02;  4.0000000E+04;  0.0000000E+00;  4.0036977E+04; -2.2515267E-01;  0.0000000E+00;  4.7452012E-03;  5.7165029E+03;
  6.1726028E-01;  9.9999998E-03; -2.9988321E-02;6194; -1.7397533E-01;  0.0000000E+00; -2.2659298E-04;  9.9623566E+02;  1.0089444E-01; -3.1186711E+03;3;  9.5754261E+00;  0.0000000E+00;  6.4823675E-01;0; -2.2122794E-01;  3.8966047E+04;  0.0000000E+00;  2.9514752E-02;  4.0000000E+04;  0.0000000E+00;  4.0036539E+04; -2.2544324E-01;  0.0000000E+00;  4.2152973E-03;  5.6604072E+03;
  6.1726552E-01;  9.9999998E-03; -1.9992488E-02;6195; -1.7401344E-01;  0.0000000E+00; -1.4973080E-04;  9.9629285E+02;  1.0089423E-01; -3.0713145E+03;3;  9.6794243E+00;  0.0000000E+00;  4.3143281E-01;0; -2.2182049E-01;  3.8971000E+04;  0.0000000E+00;  1.3607948E-02;  4.0000000E+04;  0.0000000E+00;  4.0036320E+04; -2.2565585E-01;  0.0000000E+00;  3.8353673E-03;  5.6055649E+03;
  6.1726862E-01;  9.9999998E-03; -9.9962717E-03;6196; -1.7403693E-01;  0.0000000E+00; -7.4354415E-05;  9.9632776E+02;  1.0089421E-01; -3.0423772E+03;3;  9.7429047E+00;  0.0000000E+00;  2.1806869E-01;0; -2.2217865E-01;  3.8974102E+04;  0.0000000E+00;  3.4748872E-03;  4.0000000E+04;  0.0000000E+00;  4.0035883E+04; -2.2578561E-01;  0.0000000E+00;  3.6069553E-03;  5.5660811E+03;
  6.1726987E-01;  9.9999998E-03; -4.1322384E-10;6197; -1.7404486E-01;  0.0000000E+00;  1.4802595E-08;  9.9633734E+02;  1.0089427E-01; -3.0344268E+03;3;  9.7635889E+00;  0.0000000E+00; -1.2661095E-05;0; -2.2229828E-01;  3.8974992E+04;  0.0000000E+00;  1.3566024E-12;  4.0000000E+04;  0.0000000E+00;  4.0035898E+04; -2.2582899E-01;  0.0000000E+00;  3.5307056E-03;  5.5517812E+03;
  6.1726862E-01;  9.9999998E-03;  9.9962708E-03;6198; -1.7403692E-01;  0.0000000E+00;  7.4385818E-05;  9.9632776E+02;  1.0089421E-01; -3.0423772E+03;3;  9.7429657E+00;  0.0000000E+00; -2.1809687E-01;0; -2.2217844E-01;  3.8974102E+04;  0.0000000E+00;  3.4748153E-03;  4.0000000E+04;  0.0000000E+00;  4.0035887E+04; -2.2578540E-01;  0.0000000E+00;  3.6069539E-03;  5.5660864E+03;
  6.1726552E-01;  9.9999998E-03;  1.9992488E-02;6199; -1.7401342E-01;  0.0000000E+00;  1.4976205E-04;  9.9629285E+02;  1.0089423E-01; -3.0713145E+03;3;  9.6795902E+00;  0.0000000E+00; -4.3143904E-01;0; -2.2182070E-01;  3.8971004E+04;  0.0000000E+00;  1.3607503E-02;  4.0000000E+04;  0.0000000E+00;  4.0036320E+04; -2.2565606E-01;  0.0000000E+00;  3.8353649E-03;  5.6055566E+03;
  6.1726028E-01;  9.9999998E-03;  2.9988321E-02;6200; -1.7397533E-01;  0.0000000E+00;  2.2662389E-04;  9.9623566E+02;  1.0089444E-01; -3.1186711E+03;3;  9.5753136E+00;  0.0000000E+00; -6.4822137E-01;0; -2.2122806E-01;  3.8966051E+04;  0.0000000E+00;  2.9514601E-02;  4.0000000E+04;  0.0000000E+00;  4.0036539E+04; -2.2544335E-01;  0.0000000E+00;  4.2152894E-03;  5.6603994E+03;
  6.1725307E-01;  9.9999998E-03;  3.9983146E-02;6201; -1.7392430E-01;  0.0000000E+00;  3.0611799E-04;  9.9616034E+02;  1.0089454E-01; -3.1810889E+03;3;  9.4304829E+00;  0.0000000E+00; -8.5941023E-01;0; -2.2040758E-01;  3.8959555E+04;  0.0000000E+00;  4.9701750E-02;  4.0000000E+04;  0.0000000E+00;  4.0036977E+04; -2.2515276E-01;  0.0000000E+00;  4.7451868E-03;  5.7164951E+03;
  6.1724448E-01;  9.9999998E-03;  4.9976509E-02;6202; -1.7386235E-01;  0.0000000E+00;  3.8892159E-04;  9.9606610E+02;  1.0089470E-01; -3.2591606E+03;3;  9.2437878E+00;  0.0000000E+00; -1.0643613E+00;0; -2.1936853E-01;  3.8951734E+04;  0.0000000E+00;  7.2083324E-02;  4.0000000E+04;  0.0000000E+00;  4.0037238E+04; -2.2479069E-01;  0.0000000E+00;  5.4221582E-03;  5.7584814E+03;
  6.1723441E-01;  9.9999998E-03;  5.9968501E-02;6203; -1.7379154E-01;  0.0000000E+00;  4.7557725E-04;  9.9595728E+02;  1.0089481E-01; -3.3493308E+03;3;  9.0195990E+00;  0.0000000E+00; -1.2699775E+00;0; -2.1812202E-01;  3.8942918E+04;  0.0000000E+00;  9.4090998E-02;  4.0000000E+04;  0.0000000E+00;  4.0037230E+04; -2.2436365E-01;  0.0000000E+00;  6.2416312E-03;  5.7731841E+03;
  6.2716830E-01;  9.9999998E-03; -9.9933274E-02;6248; -1.7554916E-01;  0.0000000E+00; -5.8256061E-04;  9.9568488E+02;  1.0140263E-01; -3.5750020E+03;3;  8.0745020E+00;  0.0000000E+00;  1.8402478E+00;0; -2.1520621E-01;  3.8535738E+04;  0.0000000E+00;  3.3097602E-02;  4.0000000E+04;  0.0000000E+00;  4.0035297E+04; -2.2298776E-01;  0.0000000E+00;  7.7815531E-03;  5.9660044E+03;
  6.2717211E-01;  9.9999998E-03; -8.9942992E-02;6249; -1.7563750E-01;  0.0000000E+00; -4.9035548E-04;  9.9581934E+02;  1.0140219E-01; -3.4635979E+03;3;  8.4610929E+00;  0.0000000E+00;  1.6788974E+00;0; -2.1742339E-01;  3.8545883E+04;  0.0000000E+00;  4.9358629E-02;  4.0000000E+04;  0.0000000E+00;  4.0036273E+04; -2.2388254E-01;  0.0000000E+00;  6.4591495E-03;  6.0721421E+03;
  6.2717563E-01;  9.9999998E-03; -7.9953447E-02;6250; -1.7572366E-01;  0.0000000E+00; -4.1206329E-04;  9.9595892E+02;  1.0140149E-01; -3.3479470E+03;3;  8.8132515E+00;  0.0000000E+00;  1.5075766E+00;0; -2.1948189E-01;  3.8556469E+04;  0.0000000E+00;  5.8065247E-02;  4.0000000E+04;  0.0000000E+00;  4.0036961E+04; -2.2472446E-01;  0.0000000E+00;  5.2425745E-03;  6.1556772E+03;
  6.2717831E-01;  9.9999998E-03; -6.9963947E-02;6251; -1.7580676E-01;  0.0000000E+00; -3.4403312E-04;  9.9609979E+02;  1.0140128E-01; -3.2312593E+03;3;  9.1281042E+00;  0.0000000E+00;  1.3312411E+00;0; -2.2135900E-01;  3.8567527E+04;  0.0000000E+00;  5.9245043E-02;  4.0000000E+04;  0.0000000E+00;  4.0037535E+04; -2.2550674E-01;  0.0000000E+00;  4.1477396E-03;  6.2055874E+03;
  6.2718028E-01;  9.9999998E-03; -5.9973590E-02;6252; -1.7588533E-01;  0.0000000E+00; -2.8399433E-04;  9.9623755E+02;  1.0140084E-01; -3.1170901E+03;3;  9.4047699E+00;  0.0000000E+00;  1.1466225E+00;0; -2.2303286E-01;  3.8578371E+04;  0.0000000E+00;  5.3974841E-02;  4.0000000E+04;  0.0000000E+00;  4.0037711E+04; -2.2621886E-01;  0.0000000E+00;  3.1860038E-03;  6.2171465E+03;
  6.2718171E-01;  9.9999998E-03; -4.9981672E-02;6253; -1.7595723E-01;  0.0000000E+00; -2.2929283E-04;  9.9636267E+02;  1.0140058E-01; -3.0134387E+03;3;  9.6422834E+00;  0.0000000E+00;  9.6473116E-01;0; -2.2448434E-01;  3.8588625E+04;  0.0000000E+00;  4.4092946E-02;  4.0000000E+04;  0.0000000E+00;  4.0037668E+04; -2.2684942E-01;  0.0000000E+00;  2.3650867E-03;  6.1929185E+03;
  6.2718278E-01;  9.9999998E-03; -3.9988197E-02;6254; -1.7602026E-01;  0.0000000E+00; -1.7861658E-04;  9.9647107E+02;  1.0140052E-01; -2.9236638E+03;3;  9.8375177E+00;  0.0000000E+00;  7.7629882E-01;0; -2.2569676E-01;  3.8597781E+04;  0.0000000E+00;  3.1856574E-02;  4.0000000E+04;  0.0000000E+00;  4.0037406E+04; -2.2738670E-01;  0.0000000E+00;  1.6899399E-03;  6.1421753E+03;
  6.2718332E-01;  9.9999998E-03; -2.9993119E-02;6255; -1.7607225E-01;  0.0000000E+00; -1.3150030E-04;  9.9656006E+02;  1.0140011E-01; -2.8499377E+03;3;  9.9898720E+00;  0.0000000E+00;  5.8012128E-01;0; -2.2665545E-01;  3.8605484E+04;  0.0000000E+00;  1.9561201E-02;  4.0000000E+04;  0.0000000E+00;  4.0036922E+04; -2.2781886E-01;  0.0000000E+00;  1.1634110E-03;  6.0789116E+03;
  6.2718356E-01;  9.9999998E-03; -1.9996475E-02;6256; -1.7611103E-01;  0.0000000E+00; -8.6412903E-05;  9.9662561E+02;  1.0139981E-01; -2.7956184E+03;3;  1.0099944E+01;  0.0000000E+00;  3.8793188E-01;0; -2.2734895E-01;  3.8611156E+04;  0.0000000E+00;  9.2243915E-03;  4.0000000E+04;  0.0000000E+00;  4.0036324E+04; -2.2813579E-01;  0.0000000E+00;  7.8684790E-04;  6.0188037E+03;
  6.2718332E-01;  9.9999998E-03; -9.9985218E-03;6257; -1.7613494E-01;  0.0000000E+00; -4.2835436E-05;  9.9666693E+02;  1.0140011E-01; -2.7613972E+03;3;  1.0166000E+01;  0.0000000E+00;  1.9193055E-01;0; -2.2776821E-01;  3.8614633E+04;  0.0000000E+00;  2.3863392E-03;  4.0000000E+04;  0.0000000E+00;  4.0036125E+04; -2.2832908E-01;  0.0000000E+00;  5.6087121E-04;  5.9761504E+03;
  6.2718320E-01;  9.9999998E-03; -3.7278011E-10;6258; -1.7614305E-01;  0.0000000E+00;  1.4145574E-08;  9.9668127E+02;  1.0139997E-01; -2.7494963E+03;3;  1.0188398E+01;  0.0000000E+00; -3.5545793E-06;0; -2.2790818E-01;  3.8615980E+04;  0.0000000E+00; -1.0053080E-12;  4.0000000E+04;  0.0000000E+00;  4.0036051E+04; -2.2839373E-01;  0.0000000E+00;  4.8554866E-04;  5.9607354E+03;
  6.2718332E-01;  9.9999998E-03;  9.9985218E-03;6259; -1.7613496E-01;  0.0000000E+00;  4.2865657E-05;  9.9666693E+02;  1.0140011E-01; -2.7613972E+03;3;  1.0166077E+01;  0.0000000E+00; -1.9191000E-01;0; -2.2776790E-01;  3.8614621E+04;  0.0000000E+00;  2.3867555E-03;  4.0000000E+04;  0.0000000E+00;  4.0036125E+04; -2.2832876E-01;  0.0000000E+00;  5.6086766E-04;  5.9761421E+03;
  6.2718356E-01;  9.9999998E-03;  1.9996475E-02;6260; -1.7611100E-01;  0.0000000E+00;  8.6442255E-05;  9.9662561E+02;  1.0139981E-01; -2.7956184E+03;3;  1.0100074E+01;  0.0000000E+00; -3.8793290E-01;0; -2.2734876E-01;  3.8611160E+04;  0.0000000E+00;  9.2250137E-03;  4.0000000E+04;  0.0000000E+00;  4.0036324E+04; -2.2813560E-01;  0.0000000E+00;  7.8683457E-04;  6.0187939E+03;
  6.2718332E-01;  9.9999998E-03;  2.9993119E-02;6261; -1.7607224E-01;  0.0000000E+00;  1.3153061E-04;  9.9656000E+02;  1.0140017E-01; -2.8499871E+03;3;  9.9901323E+00;  0.0000000E+00; -5.8013260E-01;0; -2.2665524E-01;  3.8605480E+04;  0.0000000E+00;  1.9561268E-02;  4.0000000E+04;  0.0000000E+00;  4.0036922E+04; -2.2781864E-01;  0.0000000E+00;  1.1633958E-03;  6.0789165E+03;
  6.2718278E-01;  9.9999998E-03;  3.9988197E-02;6262; -1.7602026E-01;  0.0000000E+00;  1.7864942E-04;  9.9647107E+02;  1.0140052E-01; -2.9236638E+03;3;  9.8372116E+00;  0.0000000E+00; -7.7634364E-01;0; -2.2569706E-01;  3.8597777E+04;  0.0000000E+00;  3.1855956E-02;  4.0000000E+04;  0.0000000E+00;  4.0037406E+04; -2.2738698E-01;  0.0000000E+00;  1.6899258E-03;  6.1421812E+03;
  6.2718171E-01;  9.9999998E-03;  4.9981672E-02;6263; -1.7595722E-01;  0.0000000E+00;  2.2932497E-04;  9.9636267E+02;  1.0140058E-01; -3.0134387E+03;3;  9.6424084E+00;  0.0000000E+00; -9.6472335E-01;0; -2.2448438E-01;  3.8588625E+04;  0.0000000E+00;  4.4091482E-02;  4.0000000E+04;  0.0000000E+00;  4.0037668E+04; -2.2684945E-01;  0.0000000E+00;  2.3650681E-03;  6.1929287E+03;
  6.2718028E-01;  9.9999998E-03;  5.9973590E-02;6264; -1.7588532E-01;  0.0000000E+00;  2.8402600E-04;  9.9623755E+02;  1.0140084E-01; -3.1170901E+03;3;  9.4045858E+00;  0.0000000E+00; -1.1465945E+00;0; -2.2303276E-01;  3.8578371E+04;  0.0000000E+00;  5.3973004E-02;  4.0000000E+04;  0.0000000E+00;  4.0037711E+04; -2.2621873E-01;  0.0000000E+00;  3.1859751E-03;  6.2171553E+03;
  6.3711286E-01;  9.9999998E-03; -9.9930465E-02;6309; -1.7763063E-01;  0.0000000E+00; -2.0765059E-04;  9.9588464E+02;  1.0214076E-01; -3.4094749E+03;3;  8.3884573E+00;  0.0000000E+00;  1.6186801E+00;0; -2.1971121E-01;  3.7997371E+04;  0.0000000E+00; -8.4843591E-02;  4.0000000E+04;  0.0000000E+00;  4.0034219E+04; -2.2421268E-01;  0.0000000E+00;  4.5014611E-03;  6.4175029E+03;
  6.3710707E-01;  9.9999998E-03; -8.9940973E-02;6310; -1.7772314E-01;  0.0000000E+00; -1.5230625E-04;  9.9600256E+02;  1.0213955E-01; -3.3117988E+03;3;  8.7943325E+00;  0.0000000E+00;  1.4659467E+00;0; -2.2220501E-01;  3.8006484E+04;  0.0000000E+00; -5.6096446E-02;  4.0000000E+04;  0.0000000E+00;  4.0034984E+04; -2.2534446E-01;  0.0000000E+00;  3.1394581E-03;  6.5139375E+03;
  6.3710141E-01;  9.9999998E-03; -7.9951942E-02;6311; -1.7781323E-01;  0.0000000E+00; -1.1101417E-04;  9.9613483E+02;  1.0213891E-01; -3.2022219E+03;3;  9.1645126E+00;  0.0000000E+00;  1.3161756E+00;0; -2.2453116E-01;  3.8016879E+04;  0.0000000E+00; -3.1983610E-02;  4.0000000E+04;  0.0000000E+00;  4.0035727E+04; -2.2642730E-01;  0.0000000E+00;  1.8961367E-03;  6.5849585E+03;
  6.3709545E-01;  9.9999998E-03; -6.9962539E-02;6312; -1.7789996E-01;  0.0000000E+00; -8.0658458E-05;  9.9627014E+02;  1.0213833E-01; -3.0901267E+03;3;  9.4967632E+00;  0.0000000E+00;  1.1574969E+00;0; -2.2666068E-01;  3.8027578E+04;  0.0000000E+00; -1.3888304E-02;  4.0000000E+04;  0.0000000E+00;  4.0036055E+04; -2.2744471E-01;  0.0000000E+00;  7.8402390E-04;  6.6214224E+03;
  6.3708925E-01;  9.9999998E-03; -5.9972055E-02;6313; -1.7798167E-01;  0.0000000E+00; -5.7767498E-05;  9.9640082E+02;  1.0213739E-01; -2.9818337E+03;3;  9.7892780E+00;  0.0000000E+00;  1.0034754E+00;0; -2.2856772E-01;  3.8038328E+04;  0.0000000E+00; -2.0950637E-03;  4.0000000E+04;  0.0000000E+00;  4.0036184E+04; -2.2837946E-01;  0.0000000E+00; -1.8826590E-04;  6.6201079E+03;
  6.3708311E-01;  9.9999998E-03; -4.9980093E-02;6314; -1.7805639E-01;  0.0000000E+00; -4.0697345E-05;  9.9652655E+02;  1.0213724E-01; -2.8776887E+03;3;  1.0038075E+01;  0.0000000E+00;  8.4102994E-01;0; -2.3022760E-01;  3.8048715E+04;  0.0000000E+00;  4.0222863E-03;  4.0000000E+04;  0.0000000E+00;  4.0035898E+04; -2.2921242E-01;  0.0000000E+00; -1.0151912E-03;  6.5847754E+03;
  6.3707721E-01;  9.9999998E-03; -3.9986514E-02;6315; -1.7812189E-01;  0.0000000E+00; -2.8053368E-05;  9.9663788E+02;  1.0213652E-01; -2.7854448E+03;3;  1.0243818E+01;  0.0000000E+00;  6.7578262E-01;0; -2.3161808E-01;  3.8058129E+04;  0.0000000E+00;  5.7558026E-03;  4.0000000E+04;  0.0000000E+00;  4.0035551E+04; -2.2992462E-01;  0.0000000E+00; -1.6934570E-03;  6.5253540E+03;
  6.3707232E-01;  9.9999998E-03; -2.9991388E-02;6316; -1.7817576E-01;  0.0000000E+00; -1.8359196E-05;  9.9672998E+02;  1.0213626E-01; -2.7091509E+03;3;  1.0405196E+01;  0.0000000E+00;  5.0911790E-01;0; -2.3272084E-01;  3.8066020E+04;  0.0000000E+00;  4.7374223E-03;  4.0000000E+04;  0.0000000E+00;  4.0035102E+04; -2.3049924E-01;  0.0000000E+00; -2.2216025E-03;  6.4558760E+03;
  6.3706869E-01;  9.9999998E-03; -1.9995036E-02;6317; -1.7821603E-01;  0.0000000E+00; -1.1136622E-05;  9.9680005E+02;  1.0213589E-01; -2.6510786E+03;3;  1.0520614E+01;  0.0000000E+00;  3.3846489E-01;0; -2.3351996E-01;  3.8072082E+04;  0.0000000E+00;  2.6065807E-03;  4.0000000E+04;  0.0000000E+00;  4.0034699E+04; -2.3092100E-01;  0.0000000E+00; -2.5989527E-03;  6.3917705E+03;
  6.3706642E-01;  9.9999998E-03; -9.9977879E-03;6318; -1.7824093E-01;  0.0000000E+00; -5.1055163E-06;  9.9684576E+02;  1.0213576E-01; -2.6132031E+03;3;  1.0590204E+01;  0.0000000E+00;  1.7201990E-01;0; -2.3400438E-01;  3.8075727E+04;  0.0000000E+00;  7.2925922E-04;  4.0000000E+04;  0.0000000E+00;  4.0034316E+04; -2.3117900E-01;  0.0000000E+00; -2.8253726E-03;  6.3468701E+03;
  6.3706565E-01;  9.9999998E-03; -3.4962080E-10;6319; -1.7824931E-01;  0.0000000E+00;  1.3295600E-08;  9.9685767E+02;  1.0213578E-01; -2.6033762E+03;3;  1.0612943E+01;  0.0000000E+00; -1.5994929E-05;0; -2.3416635E-01;  3.8077156E+04;  0.0000000E+00; -3.4171843E-12;  4.0000000E+04;  0.0000000E+00;  4.0034199E+04; -2.3126553E-01;  0.0000000E+00; -2.9008307E-03;  6.3307749E+03;
  6.3706642E-01;  9.9999998E-03;  9.9977870E-03;6320; -1.7824091E-01;  0.0000000E+00;  5.1323295E-06;  9.9684570E+02;  1.0213573E-01; -2.6132524E+03;3;  1.0590292E+01;  0.0000000E+00; -1.7203301E-01;0; -2.3400441E-01;  3.8075723E+04;  0.0000000E+00;  7.2974624E-04;  4.0000000E+04;  0.0000000E+00;  4.0034312E+04; -2.3117903E-01;  0.0000000E+00; -2.8253805E-03;  6.3468623E+03;
  6.3706869E-01;  9.9999998E-03;  1.9995036E-02;6321; -1.7821601E-01;  0.0000000E+00;  1.1162011E-05;  9.9680011E+02;  1.0213578E-01; -2.6510291E+03;3;  1.0520497E+01;  0.0000000E+00; -3.3850032E-01;0; -2.3352002E-01;  3.8072078E+04;  0.0000000E+00;  2.6076115E-03;  4.0000000E+04;  0.0000000E+00;  4.0034703E+04; -2.3092106E-01;  0.0000000E+00; -2.5989632E-03;  6.3917676E+03;
  6.3707232E-01;  9.9999998E-03;  2.9991386E-02;6322; -1.7817576E-01;  0.0000000E+00;  1.8386438E-05;  9.9672998E+02;  1.0213626E-01; -2.7091509E+03;3;  1.0405157E+01;  0.0000000E+00; -5.0915343E-01;0; -2.3272100E-01;  3.8066020E+04;  0.0000000E+00;  4.7384342E-03;  4.0000000E+04;  0.0000000E+00;  4.0035102E+04; -2.3049939E-01;  0.0000000E+00; -2.2216130E-03;  6.4558760E+03;
  6.3707721E-01;  9.9999998E-03;  3.9986510E-02;6323; -1.7812186E-01;  0.0000000E+00;  2.8077058E-05;  9.9663788E+02;  1.0213652E-01; -2.7854448E+03;3;  1.0243869E+01;  0.0000000E+00; -6.7580479E-01;0; -2.3161815E-01;  3.8058129E+04;  0.0000000E+00;  5.7575856E-03;  4.0000000E+04;  0.0000000E+00;  4.0035551E+04; -2.2992468E-01;  0.0000000E+00; -1.6934734E-03;  6.5253506E+03;
  6.3708311E-01;  9.9999998E-03;  4.9980089E-02;6324; -1.7805637E-01;  0.0000000E+00;  4.0723102E-05;  9.9652655E+02;  1.0213724E-01; -2.8776887E+03;3;  1.0037879E+01;  0.0000000E+00; -8.4100032E-01;0; -2.3022743E-01;  3.8048719E+04;  0.0000000E+00;  4.0209754E-03;  4.0000000E+04;  0.0000000E+00;  4.0035898E+04; -2.2921221E-01;  0.0000000E+00; -1.0152154E-03;  6.5847822E+03;
  6.3708925E-01;  9.9999998E-03;  5.9972055E-02;6325; -1.7798163E-01;  0.0000000E+00;  5.7796624E-05;  9.9640076E+02;  1.0213742E-01; -2.9818831E+03;3;  9.7891760E+00;  0.0000000E+00; -1.0034758E+00;0; -2.2856769E-01;  3.8038328E+04;  0.0000000E+00; -2.0983140E-03;  4.0000000E+04;  0.0000000E+00;  4.0036184E+04; -2.2837940E-01;  0.0000000E+00; -1.8829286E-04;  6.6201113E+03;
  6.4704370E-01;  9.9999998E-03; -9.9923231E-02;6370; -1.7973608E-01;  0.0000000E+00;  2.1096192E-04;  9.9609985E+02;  1.0315981E-01; -3.2312075E+03;3;  8.6987886E+00;  0.0000000E+00;  1.3689195E+00;0; -2.2466263E-01;  3.7265758E+04;  0.0000000E+00; -2.0590542E-01;  4.0000000E+04;  0.0000000E+00;  4.0030941E+04; -2.2556166E-01;  0.0000000E+00;  8.9903770E-04;  6.8337783E+03;
  6.4702934E-01;  9.9999998E-03; -8.9933537E-02;6371; -1.7983717E-01;  0.0000000E+00;  2.2416595E-04;  9.9617676E+02;  1.0315804E-01; -3.1674563E+03;3;  9.1261101E+00;  0.0000000E+00;  1.2316939E+00;0; -2.2740318E-01;  3.7272621E+04;  0.0000000E+00; -1.6578768E-01;  4.0000000E+04;  0.0000000E+00;  4.0031574E+04; -2.2690603E-01;  0.0000000E+00; -4.9715198E-04;  6.9070356E+03;
  6.4701509E-01;  9.9999998E-03; -7.9944246E-02;6372; -1.7993504E-01;  0.0000000E+00;  2.2319214E-04;  9.9627283E+02;  1.0315677E-01; -3.0879033E+03;3;  9.5155067E+00;  0.0000000E+00;  1.0973538E+00;0; -2.2997485E-01;  3.7280441E+04;  0.0000000E+00; -1.2688264E-01;  4.0000000E+04;  0.0000000E+00;  4.0031988E+04; -2.2820973E-01;  0.0000000E+00; -1.7651204E-03;  6.9566870E+03;
  6.4700109E-01;  9.9999998E-03; -6.9954820E-02;6373; -1.8002889E-01;  0.0000000E+00;  2.1156858E-04;  9.9637488E+02;  1.0315575E-01; -3.0033135E+03;3;  9.8642406E+00;  0.0000000E+00;  9.6419674E-01;0; -2.3234351E-01;  3.7289176E+04;  0.0000000E+00; -9.1961540E-02;  4.0000000E+04;  0.0000000E+00;  4.0032246E+04; -2.2944795E-01;  0.0000000E+00; -2.8955583E-03;  6.9747559E+03;
  6.4698774E-01;  9.9999998E-03; -5.9964620E-02;6374; -1.8011710E-01;  0.0000000E+00;  1.9233962E-04;  9.9648169E+02;  1.0315444E-01; -2.9148223E+03;3;  1.0170526E+01;  0.0000000E+00;  8.3445853E-01;0; -2.3447658E-01;  3.7298395E+04;  0.0000000E+00; -6.2740758E-02;  4.0000000E+04;  0.0000000E+00;  4.0032238E+04; -2.3059450E-01;  0.0000000E+00; -3.8820787E-03;  6.9587085E+03;
  6.4697558E-01;  9.9999998E-03; -4.9973261E-02;6375; -1.8019758E-01;  0.0000000E+00;  1.6753530E-04;  9.9658832E+02;  1.0315342E-01; -2.8265288E+03;3;  1.0432683E+01;  0.0000000E+00;  7.0210093E-01;0; -2.3634255E-01;  3.7307504E+04;  0.0000000E+00; -3.9889421E-02;  4.0000000E+04;  0.0000000E+00;  4.0031898E+04; -2.3162203E-01;  0.0000000E+00; -4.7205314E-03;  6.9125962E+03;
  6.4696503E-01;  9.9999998E-03; -3.9980650E-02;6376; -1.8026792E-01;  0.0000000E+00;  1.3853582E-04;  9.9668427E+02;  1.0315263E-01; -2.7470251E+03;3;  1.0648977E+01;  0.0000000E+00;  5.6668180E-01;0; -2.3791289E-01;  3.7315855E+04;  0.0000000E+00; -2.3204949E-02;  4.0000000E+04;  0.0000000E+00;  4.0031438E+04; -2.3250453E-01;  0.0000000E+00; -5.4083546E-03;  6.8460234E+03;
  6.4695644E-01;  9.9999998E-03; -2.9986754E-02;6377; -1.8032570E-01;  0.0000000E+00;  1.0655881E-04;  9.9676654E+02;  1.0315181E-01; -2.6788298E+03;3;  1.0819006E+01;  0.0000000E+00;  4.2943358E-01;0; -2.3916231E-01;  3.7323121E+04;  0.0000000E+00; -1.1890411E-02;  4.0000000E+04;  0.0000000E+00;  4.0031008E+04; -2.3321815E-01;  0.0000000E+00; -5.9441663E-03;  6.7723818E+03;
  6.4695042E-01;  9.9999998E-03; -1.9991852E-02;6378; -1.8036881E-01;  0.0000000E+00;  7.2284325E-05;  9.9682874E+02;  1.0315154E-01; -2.6273252E+03;3;  1.0940836E+01;  0.0000000E+00;  2.8799537E-01;0; -2.4007067E-01;  3.7328695E+04;  0.0000000E+00; -4.8813089E-03;  4.0000000E+04;  0.0000000E+00;  4.0030453E+04; -2.3374332E-01;  0.0000000E+00; -6.3273422E-03;  6.7062251E+03;
  6.4694679E-01;  9.9999998E-03; -9.9960947E-03;6379; -1.8039548E-01;  0.0000000E+00;  3.6517249E-05;  9.9686707E+02;  1.0315090E-01; -2.5955730E+03;3;  1.1013809E+01;  0.0000000E+00;  1.4409862E-01;0; -2.4062194E-01;  3.7332262E+04;  0.0000000E+00; -1.1570572E-03;  4.0000000E+04;  0.0000000E+00;  4.0030164E+04; -2.3406453E-01;  0.0000000E+00; -6.5574022E-03;  6.6605283E+03;
  6.4694554E-01;  9.9999998E-03; -3.3775902E-10;6380; -1.8040447E-01;  0.0000000E+00;  1.3764327E-08;  9.9687976E+02;  1.0315070E-01; -2.5850549E+03;3;  1.1038337E+01;  0.0000000E+00; -9.4129064E-07;0; -2.4080688E-01;  3.7333410E+04;  0.0000000E+00; -6.2987580E-12;  4.0000000E+04;  0.0000000E+00;  4.0029930E+04; -2.3417279E-01;  0.0000000E+00; -6.6340882E-03;  6.6442139E+03;
  6.4694679E-01;  9.9999998E-03;  9.9960947E-03;6381; -1.8039545E-01;  0.0000000E+00; -3.6489040E-05;  9.9686707E+02;  1.0315090E-01; -2.5955730E+03;3;  1.1013907E+01;  0.0000000E+00; -1.4412147E-01;0; -2.4062185E-01;  3.7332262E+04;  0.0000000E+00; -1.1560997E-03;  4.0000000E+04;  0.0000000E+00;  4.0030164E+04; -2.3406444E-01;  0.0000000E+00; -6.5574097E-03;  6.6605176E+03;
  6.4695042E-01;  9.9999998E-03;  1.9991852E-02;6382; -1.8036881E-01;  0.0000000E+00; -7.2256640E-05;  9.9682874E+02;  1.0315154E-01; -2.6273252E+03;3;  1.0941032E+01;  0.0000000E+00; -2.8799716E-01;0; -2.4007075E-01;  3.7328699E+04;  0.0000000E+00; -4.8800251E-03;  4.0000000E+04;  0.0000000E+00;  4.0030453E+04; -2.3374340E-01;  0.0000000E+00; -6.3273516E-03;  6.7062246E+03;
  6.4695644E-01;  9.9999998E-03;  2.9986752E-02;6383; -1.8032569E-01;  0.0000000E+00; -1.0652631E-04;  9.9676654E+02;  1.0315181E-01; -2.6788298E+03;3;  1.0818954E+01;  0.0000000E+00; -4.2935646E-01;0; -2.3916215E-01;  3.7323121E+04;  0.0000000E+00; -1.1888776E-02;  4.0000000E+04;  0.0000000E+00;  4.0031012E+04; -2.3321795E-01;  0.0000000E+00; -5.9441878E-03;  6.7723843E+03;
  6.4696503E-01;  9.9999998E-03;  3.9980650E-02;6384; -1.8026790E-01;  0.0000000E+00; -1.3851082E-04;  9.9668439E+02;  1.0315258E-01; -2.7469263E+03;3;  1.0649055E+01;  0.0000000E+00; -5.6674421E-01;0; -2.3791273E-01;  3.7315852E+04;  0.0000000E+00; -2.3203600E-02;  4.0000000E+04;  0.0000000E+00;  4.0031438E+04; -2.3250435E-01;  0.0000000E+00; -5.4083769E-03;  6.8460332E+03;
  6.4697558E-01;  9.9999998E-03;  4.9973261E-02;6385; -1.8019755E-01;  0.0000000E+00; -1.6750944E-04;  9.9658838E+02;  1.0315341E-01; -2.8264795E+03;3;  1.0432875E+01;  0.0000000E+00; -7.0210892E-01;0; -2.3634225E-01;  3.7307504E+04;  0.0000000E+00; -3.9888527E-02;  4.0000000E+04;  0.0000000E+00;  4.0031898E+04; -2.3162170E-01;  0.0000000E+00; -4.7205598E-03;  6.9126074E+03;
  6.4698774E-01;  9.9999998E-03;  5.9964620E-02;6386; -1.8011704E-01;  0.0000000E+00; -1.9231228E-04;  9.9648169E+02;  1.0315444E-01; -2.9148223E+03;3;  1.0170827E+01;  0.0000000E+00; -8.3449751E-01;0; -2.3447658E-01;  3.7298398E+04;  0.0000000E+00; -6.2739246E-02;  4.0000000E+04;  0.0000000E+00;  4.0032238E+04; -2.3059447E-01;  0.0000000E+00; -3.8821131E-03;  6.9587188E+03;
  6.5683520E-01;  9.9999998E-03; -3.2310843E-10;6441; -1.8265352E-01;  0.0000000E+00;  1.2115972E-08;  9.9664349E+02;  1.0447003E-01; -2.7808005E+03;3;  1.1459486E+01;  0.0000000E+00; -3.5004086E-06;0; -2.4743077E-01;  3.6376848E+04;  0.0000000E+00; -1.1181401E-11;  4.0000000E+04;  0.0000000E+00;  4.0023078E+04; -2.3671855E-01;  0.0000000E+00; -1.0712224E-02;  6.8824639E+03;
  6.5683711E-01;  9.9999998E-03; -9.9940868E-03;6440; -1.8264355E-01;  0.0000000E+00;  8.5888205E-05;  9.9663416E+02;  1.0447026E-01; -2.7885535E+03;3;  1.1433580E+01;  0.0000000E+00;  1.2762691E-01;0; -2.4722375E-01;  3.6375879E+04;  0.0000000E+00; -2.8333829E-03;  4.0000000E+04;  0.0000000E+00;  4.0023195E+04; -2.3659058E-01;  0.0000000E+00; -1.0633168E-02;  6.8985146E+03;
  6.5683711E-01;  9.9999998E-03;  9.9940859E-03;6442; -1.8264355E-01;  0.0000000E+00; -8.5862666E-05;  9.9663416E+02;  1.0447026E-01; -2.7885535E+03;3;  1.1433682E+01;  0.0000000E+00; -1.2764107E-01;0; -2.4722366E-01;  3.6375879E+04;  0.0000000E+00; -2.8321915E-03;  4.0000000E+04;  0.0000000E+00;  4.0023195E+04; -2.3659049E-01;  0.0000000E+00; -1.0633176E-02;  6.8985215E+03;
  6.5684253E-01;  9.9999998E-03; -1.9987695E-02;6439; -1.8261398E-01;  0.0000000E+00;  1.7056557E-04;  9.9660468E+02;  1.0447076E-01; -2.8129478E+03;3;  1.1357223E+01;  0.0000000E+00;  2.5376567E-01;0; -2.4660584E-01;  3.6373125E+04;  0.0000000E+00; -1.1524229E-02;  4.0000000E+04;  0.0000000E+00;  4.0023559E+04; -2.3620977E-01;  0.0000000E+00; -1.0396073E-02;  6.9437471E+03;
  6.5684253E-01;  9.9999998E-03;  1.9987695E-02;6443; -1.8261397E-01;  0.0000000E+00; -1.7053867E-04;  9.9660468E+02;  1.0447076E-01; -2.8129478E+03;3;  1.1356783E+01;  0.0000000E+00; -2.5377312E-01;0; -2.4660563E-01;  3.6373129E+04;  0.0000000E+00; -1.1522204E-02;  4.0000000E+04;  0.0000000E+00;  4.0023562E+04; -2.3620954E-01;  0.0000000E+00; -1.0396094E-02;  6.9437500E+03;
  6.5685129E-01;  9.9999998E-03; -2.9980650E-02;6438; -1.8256597E-01;  0.0000000E+00;  2.5296287E-04;  9.9655908E+02;  1.0447132E-01; -2.8507244E+03;3;  1.1229355E+01;  0.0000000E+00;  3.7821823E-01;0; -2.4558975E-01;  3.6368699E+04;  0.0000000E+00; -2.6582265E-02;  4.0000000E+04;  0.0000000E+00;  4.0023988E+04; -2.3558800E-01;  0.0000000E+00; -1.0001752E-02;  7.0099683E+03;
  6.5685129E-01;  9.9999998E-03;  2.9980650E-02;6444; -1.8256596E-01;  0.0000000E+00; -2.5293653E-04;  9.9655908E+02;  1.0447132E-01; -2.8507244E+03;3;  1.1229372E+01;  0.0000000E+00; -3.7825221E-01;0; -2.4558972E-01;  3.6368699E+04;  0.0000000E+00; -2.6579505E-02;  4.0000000E+04;  0.0000000E+00;  4.0023980E+04; -2.3558794E-01;  0.0000000E+00; -1.0001776E-02;  7.0099790E+03;
  6.5686345E-01;  9.9999998E-03; -3.9972838E-02;6437; -1.8250145E-01;  0.0000000E+00;  3.3197546E-04;  9.9650208E+02;  1.0447215E-01; -2.8979326E+03;3;  1.1051601E+01;  0.0000000E+00;  4.9951988E-01;0; -2.4419636E-01;  3.6363086E+04;  0.0000000E+00; -4.8651639E-02;  4.0000000E+04;  0.0000000E+00;  4.0024488E+04; -2.3474485E-01;  0.0000000E+00; -9.4515141E-03;  7.0853613E+03;
  6.5686345E-01;  9.9999998E-03;  3.9972838E-02;6445; -1.8250142E-01;  0.0000000E+00; -3.3195229E-04;  9.9650208E+02;  1.0447215E-01; -2.8979326E+03;3;  1.1051720E+01;  0.0000000E+00; -4.9949658E-01;0; -2.4419650E-01;  3.6363086E+04;  0.0000000E+00; -4.8649866E-02;  4.0000000E+04;  0.0000000E+00;  4.0024488E+04; -2.3474497E-01;  0.0000000E+00; -9.4515458E-03;  7.0853613E+03;
  6.5687871E-01;  9.9999998E-03; -4.9964115E-02;6436; -1.8242270E-01;  0.0000000E+00;  4.0655959E-04;  9.9643768E+02;  1.0447386E-01; -2.9513137E+03;3;  1.0824610E+01;  0.0000000E+00;  6.1642551E-01;0; -2.4245240E-01;  3.6356797E+04;  0.0000000E+00; -7.8224838E-02;  4.0000000E+04;  0.0000000E+00;  4.0025059E+04; -2.3370536E-01;  0.0000000E+00; -8.7470384E-03;  7.1567754E+03;
  6.5687871E-01;  9.9999998E-03;  4.9964115E-02;6446; -1.8242267E-01;  0.0000000E+00; -4.0652958E-04;  9.9643768E+02;  1.0447386E-01; -2.9513137E+03;3;  1.0824852E+01;  0.0000000E+00; -6.1637932E-01;0; -2.4245231E-01;  3.6356805E+04;  0.0000000E+00; -7.8223348E-02;  4.0000000E+04;  0.0000000E+00;  4.0025059E+04; -2.3370524E-01;  0.0000000E+00; -8.7470692E-03;  7.1567695E+03;
  6.5689629E-01;  9.9999998E-03; -5.9954379E-02;6435; -1.8233219E-01;  0.0000000E+00;  4.7574859E-04;  9.9637469E+02;  1.0447560E-01; -3.0035095E+03;3;  1.0550157E+01;  0.0000000E+00;  7.2957546E-01;0; -2.4038994E-01;  3.6350453E+04;  0.0000000E+00; -1.1530222E-01;  4.0000000E+04;  0.0000000E+00;  4.0025547E+04; -2.3249955E-01;  0.0000000E+00; -7.8903856E-03;  7.2121392E+03;
  6.5689629E-01;  9.9999998E-03;  5.9954375E-02;6447; -1.8233216E-01;  0.0000000E+00; -4.7572851E-04;  9.9637476E+02;  1.0447563E-01; -3.0034602E+03;3;  1.0550179E+01;  0.0000000E+00; -7.2957224E-01;0; -2.4039012E-01;  3.6350453E+04;  0.0000000E+00; -1.1530227E-01;  4.0000000E+04;  0.0000000E+00;  4.0025547E+04; -2.3249970E-01;  0.0000000E+00; -7.8904210E-03;  7.2121411E+03;
  6.5691602E-01;  9.9999998E-03; -6.9943868E-02;6434; -1.8223263E-01;  0.0000000E+00;  5.3808111E-04;  9.9631555E+02;  1.0447749E-01; -3.0524956E+03;3;  1.0228627E+01;  0.0000000E+00;  8.3947641E-01;0; -2.3804629E-01;  3.6344414E+04;  0.0000000E+00; -1.5905504E-01;  4.0000000E+04;  0.0000000E+00;  4.0025582E+04; -2.3116165E-01;  0.0000000E+00; -6.8846270E-03;  7.2429233E+03;
  6.5693718E-01;  9.9999998E-03; -7.9933055E-02;6433; -1.8212640E-01;  0.0000000E+00;  5.9140986E-04;  9.9626819E+02;  1.0447961E-01; -3.0917043E+03;3;  9.8624220E+00;  0.0000000E+00;  9.4333345E-01;0; -2.3546147E-01;  3.6339035E+04;  0.0000000E+00; -2.0759064E-01;  4.0000000E+04;  0.0000000E+00;  4.0025621E+04; -2.2972783E-01;  0.0000000E+00; -5.7336423E-03;  7.2459551E+03;
  6.5695930E-01;  9.9999998E-03; -8.9922383E-02;6432; -1.8201503E-01;  0.0000000E+00;  6.3467928E-04;  9.9623767E+02;  1.0448255E-01; -3.1169875E+03;3;  9.4544878E+00;  0.0000000E+00;  1.0435702E+00;0; -2.3267567E-01;  3.6334848E+04;  0.0000000E+00; -2.5789115E-01;  4.0000000E+04;  0.0000000E+00;  4.0025270E+04; -2.2823304E-01;  0.0000000E+00; -4.4426392E-03;  7.2241729E+03;
  6.5698200E-01;  9.9999998E-03; -9.9912323E-02;6431; -1.8189977E-01;  0.0000000E+00;  6.6432409E-04;  9.9622803E+02;  1.0448536E-01; -3.1249873E+03;3;  9.0053625E+00;  0.0000000E+00;  1.1393814E+00;0; -2.2973107E-01;  3.6332199E+04;  0.0000000E+00; -3.0591795E-01;  4.0000000E+04;  0.0000000E+00;  4.0024883E+04; -2.2671302E-01;  0.0000000E+00; -3.0180560E-03;  7.1850234E+03;
  6.6675144E-01;  9.9999998E-03; -9.9913357E-03;6501; -1.8503352E-01;  0.0000000E+00;  1.4089963E-04;  9.9587640E+02;  1.0608318E-01; -3.4162847E+03;3;  1.1852942E+01;  0.0000000E+00;  1.0255112E-01;0; -2.5330371E-01;  3.5220047E+04;  0.0000000E+00; -3.8916196E-03;  4.0000000E+04;  0.0000000E+00;  4.0013355E+04; -2.3825228E-01;  0.0000000E+00; -1.5051426E-02;  7.0410796E+03;
  6.6674906E-01;  9.9999998E-03; -2.9767525E-10;6502; -1.8504515E-01;  0.0000000E+00;  1.1303256E-08;  9.9588257E+02;  1.0608289E-01; -3.4111985E+03;3;  1.1879761E+01;  0.0000000E+00; -2.1915943E-05;0; -2.5353250E-01;  3.5220719E+04;  0.0000000E+00; -1.3948427E-11;  4.0000000E+04;  0.0000000E+00;  4.0013215E+04; -2.3839797E-01;  0.0000000E+00; -1.5134516E-02;  7.0255273E+03;
  6.6675144E-01;  9.9999998E-03;  9.9913357E-03;6503; -1.8503353E-01;  0.0000000E+00; -1.4087569E-04;  9.9587628E+02;  1.0608322E-01; -3.4164329E+03;3;  1.1853012E+01;  0.0000000E+00; -1.0253502E-01;0; -2.5330362E-01;  3.5220055E+04;  0.0000000E+00; -3.8903337E-03;  4.0000000E+04;  0.0000000E+00;  4.0013355E+04; -2.3825219E-01;  0.0000000E+00; -1.5051425E-02;  7.0410835E+03;
  6.6675854E-01;  9.9999998E-03; -1.9982532E-02;6500; -1.8499905E-01;  0.0000000E+00;  2.8024695E-04;  9.9586517E+02;  1.0608380E-01; -3.4256179E+03;3;  1.1772775E+01;  0.0000000E+00;  2.0452784E-01;0; -2.5262195E-01;  3.5218367E+04;  0.0000000E+00; -1.5731495E-02;  4.0000000E+04;  0.0000000E+00;  4.0013598E+04; -2.3781911E-01;  0.0000000E+00; -1.4802848E-02;  7.0850454E+03;
  6.6675854E-01;  9.9999998E-03;  1.9982532E-02;6504; -1.8499905E-01;  0.0000000E+00; -2.8022123E-04;  9.9586517E+02;  1.0608380E-01; -3.4256179E+03;3;  1.1772679E+01;  0.0000000E+00; -2.0451611E-01;0; -2.5262195E-01;  3.5218371E+04;  0.0000000E+00; -1.5729459E-02;  4.0000000E+04;  0.0000000E+00;  4.0013598E+04; -2.3781911E-01;  0.0000000E+00; -1.4802858E-02;  7.0850435E+03;
  6.6677052E-01;  9.9999998E-03; -2.9973505E-02;6499; -1.8494315E-01;  0.0000000E+00;  4.1653329E-04;  9.9584857E+02;  1.0608542E-01; -3.4393457E+03;3;  1.1639269E+01;  0.0000000E+00;  3.0529958E-01;0; -2.5150332E-01;  3.5215613E+04;  0.0000000E+00; -3.5918288E-02;  4.0000000E+04;  0.0000000E+00;  4.0014125E+04; -2.3711263E-01;  0.0000000E+00; -1.4390679E-02;  7.1499736E+03;
  6.6677052E-01;  9.9999998E-03;  2.9973505E-02;6505; -1.8494314E-01;  0.0000000E+00; -4.1651164E-04;  9.9584851E+02;  1.0608523E-01; -3.4393953E+03;3;  1.1639338E+01;  0.0000000E+00; -3.0533239E-01;0; -2.5150365E-01;  3.5215609E+04;  0.0000000E+00; -3.5915259E-02;  4.0000000E+04;  0.0000000E+00;  4.0014125E+04; -2.3711294E-01;  0.0000000E+00; -1.4390696E-02;  7.1499814E+03;
  6.6678703E-01;  9.9999998E-03; -3.9964069E-02;6498; -1.8486786E-01;  0.0000000E+00;  5.4828421E-04;  9.9583057E+02;  1.0608704E-01; -3.4542588E+03;3;  1.1453161E+01;  0.0000000E+00;  4.0390590E-01;0; -2.4997446E-01;  3.5212414E+04;  0.0000000E+00; -6.4840704E-02;  4.0000000E+04;  0.0000000E+00;  4.0014680E+04; -2.3615670E-01;  0.0000000E+00; -1.3817756E-02;  7.2252417E+03;
  6.6678703E-01;  9.9999998E-03;  3.9964069E-02;6506; -1.8486783E-01;  0.0000000E+00; -5.4825965E-04;  9.9583057E+02;  1.0608704E-01; -3.4542588E+03;3;  1.1453280E+01;  0.0000000E+00; -4.0383843E-01;0; -2.4997434E-01;  3.5212414E+04;  0.0000000E+00; -6.4836666E-02;  4.0000000E+04;  0.0000000E+00;  4.0014684E+04; -2.3615655E-01;  0.0000000E+00; -1.3817786E-02;  7.2252324E+03;
  6.6680759E-01;  9.9999998E-03; -4.9954064E-02;6497; -1.8477571E-01;  0.0000000E+00;  6.7409297E-04;  9.9581445E+02;  1.0608902E-01; -3.4676411E+03;3;  1.1215643E+01;  0.0000000E+00;  4.9951971E-01;0; -2.4806854E-01;  3.5209230E+04;  0.0000000E+00; -1.0256783E-01;  4.0000000E+04;  0.0000000E+00;  4.0015199E+04; -2.3498103E-01;  0.0000000E+00; -1.3087519E-02;  7.2992612E+03;
  6.6680759E-01;  9.9999998E-03;  4.9954064E-02;6507; -1.8477571E-01;  0.0000000E+00; -6.7407469E-04;  9.9581433E+02;  1.0608896E-01; -3.4677400E+03;3;  1.1215539E+01;  0.0000000E+00; -4.9959961E-01;0; -2.4806856E-01;  3.5209234E+04;  0.0000000E+00; -1.0256448E-01;  4.0000000E+04;  0.0000000E+00;  4.0015199E+04; -2.3498100E-01;  0.0000000E+00; -1.3087560E-02;  7.2992690E+03;
  6.6683149E-01;  9.9999998E-03; -5.9943426E-02;6496; -1.8466958E-01;  0.0000000E+00;  7.9263054E-04;  9.9581085E+02;  1.0609200E-01; -3.4706040E+03;3;  1.0927650E+01;  0.0000000E+00;  5.9257072E-01;0; -2.4582708E-01;  3.5206375E+04;  0.0000000E+00; -1.4848465E-01;  4.0000000E+04;  0.0000000E+00;  4.0015762E+04; -2.3362303E-01;  0.0000000E+00; -1.2204049E-02;  7.3617993E+03;
  6.6683149E-01;  9.9999998E-03;  5.9943426E-02;6508; -1.8466955E-01;  0.0000000E+00; -7.9260225E-04;  9.9581085E+02;  1.0609200E-01; -3.4706040E+03;3;  1.0927634E+01;  0.0000000E+00; -5.9251708E-01;0; -2.4582693E-01;  3.5206383E+04;  0.0000000E+00; -1.4848478E-01;  4.0000000E+04;  0.0000000E+00;  4.0015762E+04; -2.3362283E-01;  0.0000000E+00; -1.2204101E-02;  7.3618145E+03;
  6.6685832E-01;  9.9999998E-03; -6.9932409E-02;6495; -1.8455246E-01;  0.0000000E+00;  9.0240111E-04;  9.9582190E+02;  1.0609541E-01; -3.4614685E+03;3;  1.0591169E+01;  0.0000000E+00;  6.8056929E-01;0; -2.4329603E-01;  3.5204398E+04;  0.0000000E+00; -2.0094332E-01;  4.0000000E+04;  0.0000000E+00;  4.0015984E+04; -2.3212402E-01;  0.0000000E+00; -1.1172007E-02;  7.4061836E+03;
  6.6688716E-01;  9.9999998E-03; -7.9921447E-02;6494; -1.8442698E-01;  0.0000000E+00;  1.0019318E-03;  9.9585266E+02;  1.0609907E-01; -3.4359878E+03;3;  1.0207428E+01;  0.0000000E+00;  7.6576602E-01;0; -2.4052589E-01;  3.5203777E+04;  0.0000000E+00; -2.5706083E-01;  4.0000000E+04;  0.0000000E+00;  4.0016102E+04; -2.3052974E-01;  0.0000000E+00; -9.9961506E-03;  7.4309805E+03;
  6.6691744E-01;  9.9999998E-03; -8.9911081E-02;6493; -1.8429536E-01;  0.0000000E+00;  1.0891815E-03;  9.9590912E+02;  1.0610341E-01; -3.3892239E+03;3;  9.7788677E+00;  0.0000000E+00;  8.4568357E-01;0; -2.3756665E-01;  3.5204520E+04;  0.0000000E+00; -3.1271935E-01;  4.0000000E+04;  0.0000000E+00;  4.0016188E+04; -2.2888525E-01;  0.0000000E+00; -8.6813997E-03;  7.4403047E+03;
  6.6694838E-01;  9.9999998E-03; -9.9901631E-02;6492; -1.8415871E-01;  0.0000000E+00;  1.1626659E-03;  9.9598926E+02;  1.0610805E-01; -3.3228064E+03;3;  9.3076620E+00;  0.0000000E+00;  9.1931152E-01;0; -2.3446798E-01;  3.5206789E+04;  0.0000000E+00; -3.6283040E-01;  4.0000000E+04;  0.0000000E+00;  4.0016211E+04; -2.2723612E-01;  0.0000000E+00; -7.2318548E-03;  7.4420234E+03;
  6.7696470E-01;  9.9999998E-03; -9.9893875E-02;6553; -1.8654633E-01;  0.0000000E+00;  1.7023535E-03;  9.9511456E+02;  1.0800125E-01; -4.0474714E+03;3;  9.6056004E+00;  0.0000000E+00;  6.6246152E-01;0; -2.3831065E-01;  3.3918812E+04;  0.0000000E+00; -3.5925275E-01;  4.0000000E+04;  0.0000000E+00;  4.0004418E+04; -2.2659603E-01;  0.0000000E+00; -1.1714627E-02;  7.5780845E+03;
  6.7692536E-01;  9.9999998E-03; -8.9902058E-02;6554; -1.8671195E-01;  0.0000000E+00;  1.5811574E-03;  9.9492810E+02;  1.0799401E-01; -4.2019355E+03;3;  1.0099815E+01;  0.0000000E+00;  6.1001557E-01;0; -2.4150848E-01;  3.3911238E+04;  0.0000000E+00; -3.1503195E-01;  4.0000000E+04;  0.0000000E+00;  4.0004004E+04; -2.2831719E-01;  0.0000000E+00; -1.3191304E-02;  7.5340928E+03;
  6.7688638E-01;  9.9999998E-03; -7.9911463E-02;6555; -1.8687186E-01;  0.0000000E+00;  1.4450470E-03;  9.9477014E+02;  1.0798734E-01; -4.3327954E+03;3;  1.0549805E+01;  0.0000000E+00;  5.5376172E-01;0; -2.4459679E-01;  3.3905359E+04;  0.0000000E+00; -2.6248789E-01;  4.0000000E+04;  0.0000000E+00;  4.0003805E+04; -2.3006086E-01;  0.0000000E+00; -1.4535937E-02;  7.4939751E+03;
  6.7684883E-01;  9.9999998E-03; -6.9921933E-02;6556; -1.8702424E-01;  0.0000000E+00;  1.2953399E-03;  9.9464331E+02;  1.0798123E-01; -4.4378784E+03;3;  1.0952002E+01;  0.0000000E+00;  4.9380198E-01;0; -2.4751656E-01;  3.3901094E+04;  0.0000000E+00; -2.0733443E-01;  4.0000000E+04;  0.0000000E+00;  4.0003379E+04; -2.3177056E-01;  0.0000000E+00; -1.5746003E-02;  7.4488779E+03;
  6.7681402E-01;  9.9999998E-03; -5.9933189E-02;6557; -1.8716635E-01;  0.0000000E+00;  1.1334543E-03;  9.9454889E+02;  1.0797586E-01; -4.5160981E+03;3;  1.1305023E+01;  0.0000000E+00;  4.2992815E-01;0; -2.5020701E-01;  3.3898641E+04;  0.0000000E+00; -1.5442090E-01;  4.0000000E+04;  0.0000000E+00;  4.0002992E+04; -2.3339103E-01;  0.0000000E+00; -1.6815981E-02;  7.3927754E+03;
  6.7678314E-01;  9.9999998E-03; -4.9944691E-02;6558; -1.8729497E-01;  0.0000000E+00;  9.6096302E-04;  9.9448004E+02;  1.0797128E-01; -4.5731826E+03;3;  1.1607012E+01;  0.0000000E+00;  3.6297917E-01;0; -2.5260639E-01;  3.3897570E+04;  0.0000000E+00; -1.0729320E-01;  4.0000000E+04;  0.0000000E+00;  4.0002441E+04; -2.3486739E-01;  0.0000000E+00; -1.7739002E-02;  7.3248687E+03;
  6.7675680E-01;  9.9999998E-03; -3.9956100E-02;6559; -1.8740654E-01;  0.0000000E+00;  7.7954994E-04;  9.9443176E+02;  1.0796767E-01; -4.6131812E+03;3;  1.1855890E+01;  0.0000000E+00;  2.9330057E-01;0; -2.5465861E-01;  3.3897473E+04;  0.0000000E+00; -6.8105474E-02;  4.0000000E+04;  0.0000000E+00;  4.0001832E+04; -2.3615102E-01;  0.0000000E+00; -1.8507596E-02;  7.2494902E+03;
  6.7673576E-01;  9.9999998E-03; -2.9967366E-02;6560; -1.8749753E-01;  0.0000000E+00;  5.9095729E-04;  9.9440454E+02;  1.0796519E-01; -4.6356992E+03;3;  1.2050629E+01;  0.0000000E+00;  2.2158746E-01;0; -2.5631231E-01;  3.3897977E+04;  0.0000000E+00; -3.7826248E-02;  4.0000000E+04;  0.0000000E+00;  4.0001250E+04; -2.3719770E-01;  0.0000000E+00; -1.9114612E-02;  7.1749912E+03;
  6.7672044E-01;  9.9999998E-03; -1.9978397E-02;6561; -1.8756497E-01;  0.0000000E+00;  3.9697363E-04;  9.9438635E+02;  1.0796269E-01; -4.6507603E+03;3;  1.2190801E+01;  0.0000000E+00;  1.4845003E-01;0; -2.5752565E-01;  3.3898746E+04;  0.0000000E+00; -1.6594617E-02;  4.0000000E+04;  0.0000000E+00;  4.0000730E+04; -2.3797220E-01;  0.0000000E+00; -1.9553449E-02;  7.1116079E+03;
  6.7671120E-01;  9.9999998E-03; -9.9892886E-03;6562; -1.8760641E-01;  0.0000000E+00;  1.9939378E-04;  9.9437994E+02;  1.0796156E-01; -4.6560933E+03;3;  1.2274653E+01;  0.0000000E+00;  7.4421003E-02;0; -2.5826699E-01;  3.3899352E+04;  0.0000000E+00; -4.1095265E-03;  4.0000000E+04;  0.0000000E+00;  4.0000414E+04; -2.3844798E-01;  0.0000000E+00; -1.9819017E-02;  7.0688975E+03;
  6.7670810E-01;  9.9999998E-03; -2.9683864E-10;6563; -1.8762039E-01;  0.0000000E+00;  1.2572772E-08;  9.9437769E+02;  1.0796122E-01; -4.6579697E+03;3;  1.2303204E+01;  0.0000000E+00; -6.7208948E-06;0; -2.5851613E-01;  3.3899520E+04;  0.0000000E+00; -1.5625666E-11;  4.0000000E+04;  0.0000000E+00;  4.0000348E+04; -2.3860823E-01;  0.0000000E+00; -1.9907910E-02;  7.0538501E+03;
  6.7671120E-01;  9.9999998E-03;  9.9892877E-03;6564; -1.8760639E-01;  0.0000000E+00; -1.9937055E-04;  9.9438000E+02;  1.0796180E-01; -4.6560439E+03;3;  1.2274801E+01;  0.0000000E+00; -7.4454278E-02;0; -2.5826687E-01;  3.3899352E+04;  0.0000000E+00; -4.1083801E-03;  4.0000000E+04;  0.0000000E+00;  4.0000414E+04; -2.3844783E-01;  0.0000000E+00; -1.9819025E-02;  7.0689121E+03;
  6.7672044E-01;  9.9999998E-03;  1.9978397E-02;6565; -1.8756494E-01;  0.0000000E+00; -3.9694941E-04;  9.9438617E+02;  1.0796273E-01; -4.6509082E+03;3;  1.2190688E+01;  0.0000000E+00; -1.4851955E-01;0; -2.5752556E-01;  3.3898746E+04;  0.0000000E+00; -1.6592268E-02;  4.0000000E+04;  0.0000000E+00;  4.0000730E+04; -2.3797207E-01;  0.0000000E+00; -1.9553490E-02;  7.1115967E+03;
  6.7673576E-01;  9.9999998E-03;  2.9967366E-02;6566; -1.8749750E-01;  0.0000000E+00; -5.9093494E-04;  9.9440460E+02;  1.0796516E-01; -4.6356499E+03;3;  1.2050686E+01;  0.0000000E+00; -2.2157447E-01;0; -2.5631237E-01;  3.3897977E+04;  0.0000000E+00; -3.7823632E-02;  4.0000000E+04;  0.0000000E+00;  4.0001250E+04; -2.3719774E-01;  0.0000000E+00; -1.9114638E-02;  7.1750078E+03;
  6.7675680E-01;  9.9999998E-03;  3.9956100E-02;6567; -1.8740653E-01;  0.0000000E+00; -7.7952741E-04;  9.9443176E+02;  1.0796767E-01; -4.6131812E+03;3;  1.1856045E+01;  0.0000000E+00; -2.9330897E-01;0; -2.5465879E-01;  3.3897473E+04;  0.0000000E+00; -6.8102427E-02;  4.0000000E+04;  0.0000000E+00;  4.0001832E+04; -2.3615114E-01;  0.0000000E+00; -1.8507654E-02;  7.2494897E+03;
  6.7678314E-01;  9.9999998E-03;  4.9944691E-02;6568; -1.8729496E-01;  0.0000000E+00; -9.6094707E-04;  9.9448010E+02;  1.0797141E-01; -4.5731333E+03;3;  1.1606637E+01;  0.0000000E+00; -3.6298880E-01;0; -2.5260651E-01;  3.3897570E+04;  0.0000000E+00; -1.0728946E-01;  4.0000000E+04;  0.0000000E+00;  4.0002441E+04; -2.3486748E-01;  0.0000000E+00; -1.7739028E-02;  7.3248662E+03;
  6.7681402E-01;  9.9999998E-03;  5.9933189E-02;6569; -1.8716632E-01;  0.0000000E+00; -1.1334408E-03;  9.9454895E+02;  1.0797583E-01; -4.5160488E+03;3;  1.1305076E+01;  0.0000000E+00; -4.2996567E-01;0; -2.5020692E-01;  3.3898641E+04;  0.0000000E+00; -1.5441938E-01;  4.0000000E+04;  0.0000000E+00;  4.0002992E+04; -2.3339088E-01;  0.0000000E+00; -1.6816022E-02;  7.3927822E+03;
  6.8708044E-01;  9.9999998E-03; -9.9896275E-02;6614; -1.8907605E-01;  0.0000000E+00;  2.2751072E-03;  9.9358459E+02;  1.1014680E-01; -5.3150308E+03;3;  9.9007177E+00;  0.0000000E+00;  3.6797816E-01;0; -2.4053672E-01;  3.2510869E+04;  0.0000000E+00; -2.8603268E-01;  4.0000000E+04;  0.0000000E+00;  3.9989965E+04; -2.2409233E-01;  0.0000000E+00; -1.6444378E-02;  7.5730894E+03;
  6.8703228E-01;  9.9999998E-03; -8.9902543E-02;6615; -1.8927813E-01;  0.0000000E+00;  2.1010272E-03;  9.9328662E+02;  1.1013570E-01; -5.5618867E+03;3;  1.0419885E+01;  0.0000000E+00;  3.4309930E-01;0; -2.4379036E-01;  3.2498980E+04;  0.0000000E+00; -2.5671473E-01;  4.0000000E+04;  0.0000000E+00;  3.9989316E+04; -2.2583008E-01;  0.0000000E+00; -1.7960282E-02;  7.4916294E+03;
  6.8698388E-01;  9.9999998E-03; -7.9910129E-02;6616; -1.8947399E-01;  0.0000000E+00;  1.9113679E-03;  9.9302313E+02;  1.1012526E-01; -5.7801509E+03;3;  1.0891856E+01;  0.0000000E+00;  3.1530520E-01;0; -2.4697226E-01;  3.2488492E+04;  0.0000000E+00; -2.1728919E-01;  4.0000000E+04;  0.0000000E+00;  3.9988570E+04; -2.2762188E-01;  0.0000000E+00; -1.9350372E-02;  7.4254146E+03;
  6.8693680E-01;  9.9999998E-03; -6.9918960E-02;6617; -1.8966097E-01;  0.0000000E+00;  1.7068856E-03;  9.9279938E+02;  1.1011634E-01; -5.9655273E+03;3;  1.1314374E+01;  0.0000000E+00;  2.8380418E-01;0; -2.5001344E-01;  3.2480096E+04;  0.0000000E+00; -1.7329948E-01;  4.0000000E+04;  0.0000000E+00;  3.9988039E+04; -2.2940101E-01;  0.0000000E+00; -2.0612437E-02;  7.3637520E+03;
  6.8689245E-01;  9.9999998E-03; -5.9929106E-02;6618; -1.8983540E-01;  0.0000000E+00;  1.4889558E-03;  9.9261414E+02;  1.1010800E-01; -6.1190034E+03;3;  1.1684666E+01;  0.0000000E+00;  2.4919276E-01;0; -2.5284094E-01;  3.2473676E+04;  0.0000000E+00; -1.2969038E-01;  4.0000000E+04;  0.0000000E+00;  3.9987484E+04; -2.3110192E-01;  0.0000000E+00; -2.1739027E-02;  7.2984233E+03;
  6.8685222E-01;  9.9999998E-03; -4.9940251E-02;6619; -1.8999304E-01;  0.0000000E+00;  1.2592233E-03;  9.9246698E+02;  1.1010128E-01; -6.2409253E+03;3;  1.2001523E+01;  0.0000000E+00;  2.1163143E-01;0; -2.5538158E-01;  3.2469189E+04;  0.0000000E+00; -9.0195499E-02;  4.0000000E+04;  0.0000000E+00;  3.9986941E+04; -2.3266189E-01;  0.0000000E+00; -2.2719698E-02;  7.2261592E+03;
  6.8681765E-01;  9.9999998E-03; -3.9951954E-02;6620; -1.9012944E-01;  0.0000000E+00;  1.0195674E-03;  9.9235791E+02;  1.1009541E-01; -6.3312925E+03;3;  1.2262467E+01;  0.0000000E+00;  1.7174847E-01;0; -2.5756663E-01;  3.2466240E+04;  0.0000000E+00; -5.7156734E-02;  4.0000000E+04;  0.0000000E+00;  3.9986203E+04; -2.3402326E-01;  0.0000000E+00; -2.3543363E-02;  7.1493423E+03;
  6.8678957E-01;  9.9999998E-03; -2.9963935E-02;6621; -1.9024061E-01;  0.0000000E+00;  7.7186571E-04;  9.9227411E+02;  1.1009092E-01; -6.4007227E+03;3;  1.2466529E+01;  0.0000000E+00;  1.3015285E-01;0; -2.5933540E-01;  3.2464523E+04;  0.0000000E+00; -3.1659450E-02;  4.0000000E+04;  0.0000000E+00;  3.9985750E+04; -2.3513693E-01;  0.0000000E+00; -2.4198487E-02;  7.0747573E+03;
  6.8676877E-01;  9.9999998E-03; -1.9976044E-02;6622; -1.9032265E-01;  0.0000000E+00;  5.1804044E-04;  9.9222345E+02;  1.1008743E-01; -6.4426963E+03;3;  1.2612731E+01;  0.0000000E+00;  8.7358087E-02;0; -2.6063761E-01;  3.2463621E+04;  0.0000000E+00; -1.3856113E-02;  4.0000000E+04;  0.0000000E+00;  3.9985090E+04; -2.3596287E-01;  0.0000000E+00; -2.4674734E-02;  7.0116460E+03;
  6.8675578E-01;  9.9999998E-03; -9.9881031E-03;6623; -1.9037296E-01;  0.0000000E+00;  2.6007308E-04;  9.9219550E+02;  1.1008594E-01; -6.4658560E+03;3;  1.2700846E+01;  0.0000000E+00;  4.3839913E-02;0; -2.6143438E-01;  3.2463271E+04;  0.0000000E+00; -3.4258950E-03;  4.0000000E+04;  0.0000000E+00;  3.9984820E+04; -2.3647046E-01;  0.0000000E+00; -2.4963917E-02;  6.9691816E+03;
  6.8675154E-01;  9.9999998E-03; -3.5715153E-10;6624; -1.9039002E-01;  0.0000000E+00;  1.1195664E-08;  9.9218317E+02;  1.1008494E-01; -6.4760781E+03;3;  1.2730322E+01;  0.0000000E+00; -1.4570862E-05;0; -2.6170266E-01;  3.2463184E+04;  0.0000000E+00; -1.7524322E-11;  4.0000000E+04;  0.0000000E+00;  3.9984742E+04; -2.3664171E-01;  0.0000000E+00; -2.5060937E-02;  6.9542031E+03;
  6.8675578E-01;  9.9999998E-03;  9.9881021E-03;6625; -1.9037296E-01;  0.0000000E+00; -2.6004991E-04;  9.9219550E+02;  1.1008594E-01; -6.4658560E+03;3;  1.2700986E+01;  0.0000000E+00; -4.3873962E-02;0; -2.6143432E-01;  3.2463268E+04;  0.0000000E+00; -3.4248310E-03;  4.0000000E+04;  0.0000000E+00;  3.9984820E+04; -2.3647043E-01;  0.0000000E+00; -2.4963895E-02;  6.9691729E+03;
  6.8676877E-01;  9.9999998E-03;  1.9976044E-02;6626; -1.9032262E-01;  0.0000000E+00; -5.1801925E-04;  9.9222351E+02;  1.1008745E-01; -6.4426470E+03;3;  1.2613008E+01;  0.0000000E+00; -8.7388419E-02;0; -2.6063761E-01;  3.2463617E+04;  0.0000000E+00; -1.3853668E-02;  4.0000000E+04;  0.0000000E+00;  3.9985094E+04; -2.3596282E-01;  0.0000000E+00; -2.4674784E-02;  7.0116455E+03;
  6.8678957E-01;  9.9999998E-03;  2.9963933E-02;6627; -1.9024059E-01;  0.0000000E+00; -7.7184441E-04;  9.9227411E+02;  1.1009092E-01; -6.4007227E+03;3;  1.2466577E+01;  0.0000000E+00; -1.3013104E-01;0; -2.5933549E-01;  3.2464525E+04;  0.0000000E+00; -3.1657632E-02;  4.0000000E+04;  0.0000000E+00;  3.9985750E+04; -2.3513700E-01;  0.0000000E+00; -2.4198491E-02;  7.0747529E+03;
  6.8681771E-01;  9.9999998E-03;  3.9951954E-02;6628; -1.9012943E-01;  0.0000000E+00; -1.0195491E-03;  9.9235791E+02;  1.1009541E-01; -6.3312925E+03;3;  1.2262312E+01;  0.0000000E+00; -1.7179674E-01;0; -2.5756681E-01;  3.2466236E+04;  0.0000000E+00; -5.7154376E-02;  4.0000000E+04;  0.0000000E+00;  3.9986203E+04; -2.3402341E-01;  0.0000000E+00; -2.3543391E-02;  7.1493281E+03;
  6.8685222E-01;  9.9999998E-03;  4.9940251E-02;6629; -1.8999301E-01;  0.0000000E+00; -1.2592087E-03;  9.9246704E+02;  1.1010128E-01; -6.2408760E+03;3;  1.2001505E+01;  0.0000000E+00; -2.1164349E-01;0; -2.5538146E-01;  3.2469193E+04;  0.0000000E+00; -9.0192653E-02;  4.0000000E+04;  0.0000000E+00;  3.9986941E+04; -2.3266171E-01;  0.0000000E+00; -2.2719758E-02;  7.2261592E+03;
  6.8689245E-01;  9.9999998E-03;  5.9929106E-02;6630; -1.8983537E-01;  0.0000000E+00; -1.4889413E-03;  9.9261414E+02;  1.1010800E-01; -6.1190034E+03;3;  1.1684711E+01;  0.0000000E+00; -2.4920547E-01;0; -2.5284106E-01;  3.2473672E+04;  0.0000000E+00; -1.2968971E-01;  4.0000000E+04;  0.0000000E+00;  3.9987484E+04; -2.3110197E-01;  0.0000000E+00; -2.1739066E-02;  7.2984355E+03;
  6.9782478E-01;  9.9999998E-03; -9.9945217E-02;6675; -1.9183184E-01;  0.0000000E+00;  2.9000524E-03;  9.9156525E+02;  1.1262821E-01; -6.9880044E+03;3;  1.0205458E+01;  0.0000000E+00;  2.7085690E-02;0; -2.3993735E-01;  3.0979303E+04;  0.0000000E+00; -1.3848871E-01;  4.0000000E+04;  0.0000000E+00;  3.9972262E+04; -2.1829984E-01;  0.0000000E+00; -2.1637516E-02;  7.4132822E+03;
  6.9775891E-01;  9.9999998E-03; -8.9945771E-02;6676; -1.9207506E-01;  0.0000000E+00;  2.6641383E-03;  9.9117273E+02;  1.1261101E-01; -7.3131782E+03;3;  1.0752253E+01;  0.0000000E+00;  3.6446139E-02;0; -2.4325824E-01;  3.0965354E+04;  0.0000000E+00; -1.3303177E-01;  4.0000000E+04;  0.0000000E+00;  3.9971293E+04; -2.2003931E-01;  0.0000000E+00; -2.3218924E-02;  7.3073203E+03;
  6.9768637E-01;  9.9999998E-03; -7.9947539E-02;6677; -1.9231072E-01;  0.0000000E+00;  2.4127979E-03;  9.9081665E+02;  1.1259387E-01; -7.6081807E+03;3;  1.1249053E+01;  0.0000000E+00;  4.2253762E-02;0; -2.4654774E-01;  3.0953547E+04;  0.0000000E+00; -1.1741757E-01;  4.0000000E+04;  0.0000000E+00;  3.9970492E+04; -2.2186714E-01;  0.0000000E+00; -2.4680603E-02;  7.2258853E+03;
  6.9761002E-01;  9.9999998E-03; -6.9950007E-02;6678; -1.9253491E-01;  0.0000000E+00;  2.1467130E-03;  9.9050684E+02;  1.1257772E-01; -7.8648628E+03;3;  1.1693027E+01;  0.0000000E+00;  4.4694472E-02;0; -2.4972601E-01;  3.0944299E+04;  0.0000000E+00; -9.5930442E-02;  4.0000000E+04;  0.0000000E+00;  3.9969711E+04; -2.2370645E-01;  0.0000000E+00; -2.6019553E-02;  7.1557456E+03;
  6.9753397E-01;  9.9999998E-03; -5.9953559E-02;6679; -1.9274320E-01;  0.0000000E+00;  1.8670942E-03;  9.9024652E+02;  1.1256230E-01; -8.0805098E+03;3;  1.2081942E+01;  0.0000000E+00;  4.3851145E-02;0; -2.5270677E-01;  3.0937465E+04;  0.0000000E+00; -7.2574019E-02;  4.0000000E+04;  0.0000000E+00;  3.9969262E+04; -2.2548124E-01;  0.0000000E+00; -2.7225528E-02;  7.0859810E+03;
  6.9746202E-01;  9.9999998E-03; -4.9958613E-02;6680; -1.9293053E-01;  0.0000000E+00;  1.5754792E-03;  9.9003632E+02;  1.1254840E-01; -8.2546777E+03;3;  1.2414116E+01;  0.0000000E+00;  4.0271848E-02;0; -2.5540376E-01;  3.0932955E+04;  0.0000000E+00; -5.0510883E-02;  4.0000000E+04;  0.0000000E+00;  3.9968641E+04; -2.2711962E-01;  0.0000000E+00; -2.8284142E-02;  7.0114019E+03;
  6.9739813E-01;  9.9999998E-03; -3.9965201E-02;6681; -1.9309227E-01;  0.0000000E+00;  1.2735444E-03;  9.8986816E+02;  1.1253624E-01; -8.3939814E+03;3;  1.2688140E+01;  0.0000000E+00;  3.4560014E-02;0; -2.5773525E-01;  3.0930236E+04;  0.0000000E+00; -3.1806044E-02;  4.0000000E+04;  0.0000000E+00;  3.9967953E+04; -2.2855547E-01;  0.0000000E+00; -2.9179767E-02;  6.9329146E+03;
  6.9734550E-01;  9.9999998E-03; -2.9972965E-02;6682; -1.9322355E-01;  0.0000000E+00;  9.6304307E-04;  9.8974658E+02;  1.1252658E-01; -8.4947188E+03;3;  1.2903389E+01;  0.0000000E+00;  2.7169533E-02;0; -2.5963041E-01;  3.0928797E+04;  0.0000000E+00; -1.7435545E-02;  4.0000000E+04;  0.0000000E+00;  3.9967348E+04; -2.2973368E-01;  0.0000000E+00; -2.9896736E-02;  6.8565815E+03;
  6.9730639E-01;  9.9999998E-03; -1.9981494E-02;6683; -1.9332053E-01;  0.0000000E+00;  6.4586900E-04;  9.8966187E+02;  1.1251965E-01; -8.5648896E+03;3;  1.3058522E+01;  0.0000000E+00;  1.8428579E-02;0; -2.6102853E-01;  3.0928051E+04;  0.0000000E+00; -7.5468621E-03;  4.0000000E+04;  0.0000000E+00;  3.9966793E+04; -2.3060784E-01;  0.0000000E+00; -3.0420695E-02;  6.7916455E+03;
  6.9728225E-01;  9.9999998E-03; -9.9905636E-03;6684; -1.9338009E-01;  0.0000000E+00;  3.2411417E-04;  9.8961127E+02;  1.1251528E-01; -8.6068135E+03;3;  1.3150181E+01;  0.0000000E+00;  9.3631726E-03;0; -2.6188600E-01;  3.0927844E+04;  0.0000000E+00; -1.8506848E-03;  4.0000000E+04;  0.0000000E+00;  3.9966363E+04; -2.3114587E-01;  0.0000000E+00; -3.0740120E-02;  6.7478008E+03;
  6.9727397E-01;  9.9999998E-03; -3.5904701E-10;6685; -1.9340010E-01;  0.0000000E+00;  1.0796285E-08;  9.8959534E+02;  1.1251362E-01; -8.6199980E+03;3;  1.3180858E+01;  0.0000000E+00; -9.4690349E-06;0; -2.6217490E-01;  3.0927828E+04;  0.0000000E+00; -1.4687553E-11;  4.0000000E+04;  0.0000000E+00;  3.9966258E+04; -2.3132753E-01;  0.0000000E+00; -3.0847369E-02;  6.7322676E+03;
  6.9728225E-01;  9.9999998E-03;  9.9905627E-03;6686; -1.9338007E-01;  0.0000000E+00; -3.2409289E-04;  9.8961115E+02;  1.1251518E-01; -8.6069121E+03;3;  1.3150244E+01;  0.0000000E+00; -9.3895644E-03;0; -2.6188603E-01;  3.0927850E+04;  0.0000000E+00; -1.8497073E-03;  4.0000000E+04;  0.0000000E+00;  3.9966363E+04; -2.3114592E-01;  0.0000000E+00; -3.0740121E-02;  6.7478013E+03;
  6.9730639E-01;  9.9999998E-03;  1.9981492E-02;6687; -1.9332051E-01;  0.0000000E+00; -6.4584910E-04;  9.8966180E+02;  1.1251961E-01; -8.5649385E+03;3;  1.3058417E+01;  0.0000000E+00; -1.8459225E-02;0; -2.6102844E-01;  3.0928055E+04;  0.0000000E+00; -7.5450842E-03;  4.0000000E+04;  0.0000000E+00;  3.9966793E+04; -2.3060772E-01;  0.0000000E+00; -3.0420734E-02;  6.7916377E+03;
  6.9734550E-01;  9.9999998E-03;  2.9972963E-02;6688; -1.9322354E-01;  0.0000000E+00; -9.6302398E-04;  9.8974646E+02;  1.1252659E-01; -8.4948174E+03;3;  1.2903384E+01;  0.0000000E+00; -2.7164377E-02;0; -2.5963017E-01;  3.0928801E+04;  0.0000000E+00; -1.7433478E-02;  4.0000000E+04;  0.0000000E+00;  3.9967352E+04; -2.2973341E-01;  0.0000000E+00; -2.9896772E-02;  6.8565815E+03;
  6.9739813E-01;  9.9999998E-03;  3.9965201E-02;6689; -1.9309226E-01;  0.0000000E+00; -1.2735247E-03;  9.8986823E+02;  1.1253625E-01; -8.3939326E+03;3;  1.2688073E+01;  0.0000000E+00; -3.4545586E-02;0; -2.5773534E-01;  3.0930240E+04;  0.0000000E+00; -3.1802449E-02;  4.0000000E+04;  0.0000000E+00;  3.9967949E+04; -2.2855549E-01;  0.0000000E+00; -2.9179858E-02;  6.9328823E+03;
  6.9746202E-01;  9.9999998E-03;  4.9958613E-02;6690; -1.9293050E-01;  0.0000000E+00; -1.5754640E-03;  9.9003632E+02;  1.1254840E-01; -8.2546777E+03;3;  1.2414104E+01;  0.0000000E+00; -4.0280327E-02;0; -2.5540352E-01;  3.0932957E+04;  0.0000000E+00; -5.0508413E-02;  4.0000000E+04;  0.0000000E+00;  3.9968641E+04; -2.2711933E-01;  0.0000000E+00; -2.8284183E-02;  7.0114023E+03;
  6.9753397E-01;  9.9999998E-03;  5.9953559E-02;6691; -1.9274315E-01;  0.0000000E+00; -1.8670786E-03;  9.9024652E+02;  1.1256230E-01; -8.0805098E+03;3;  1.2081686E+01;  0.0000000E+00; -4.3834466E-02;0; -2.5270686E-01;  3.0937467E+04;  0.0000000E+00; -7.2573222E-02;  4.0000000E+04;  0.0000000E+00;  3.9969266E+04; -2.2548129E-01;  0.0000000E+00; -2.7225582E-02;  7.0859941E+03;
  7.1015048E-01;  9.9999998E-03; -1.0011779E-01;6736; -1.9495100E-01;  0.0000000E+00;  3.6211617E-03;  9.8961963E+02;  1.1569040E-01; -8.5998887E+03;3;  1.0542194E+01;  0.0000000E+00; -3.9660144E-01;0; -2.3298016E-01;  2.9270066E+04;  0.0000000E+00;  8.8998936E-02;  4.0000000E+04;  0.0000000E+00;  3.9949992E+04; -2.0519215E-01;  0.0000000E+00; -2.7788006E-02;  7.0603633E+03;
  7.1012682E-01;  9.9999998E-03; -9.0107538E-02;6737; -1.9525646E-01;  0.0000000E+00;  3.3146280E-03;  9.8916113E+02;  1.1567856E-01; -8.9797266E+03;3;  1.1123438E+01;  0.0000000E+00; -3.4815907E-01;0; -2.3652381E-01;  2.9250250E+04;  0.0000000E+00;  6.4703003E-02;  4.0000000E+04;  0.0000000E+00;  3.9948961E+04; -2.0698974E-01;  0.0000000E+00; -2.9534072E-02;  6.9544028E+03;
  7.1009004E-01;  9.9999998E-03; -8.0098204E-02;6738; -1.9555451E-01;  0.0000000E+00;  2.9937739E-03;  9.8873236E+02;  1.1566540E-01; -9.3349736E+03;3;  1.1651587E+01;  0.0000000E+00; -3.0245656E-01;0; -2.4005641E-01;  2.9232945E+04;  0.0000000E+00;  4.6875320E-02;  4.0000000E+04;  0.0000000E+00;  3.9948164E+04; -2.0888691E-01;  0.0000000E+00; -3.1169508E-02;  6.8765981E+03;
  7.1004224E-01;  9.9999998E-03; -7.0089586E-02;6739; -1.9583902E-01;  0.0000000E+00;  2.6586815E-03;  9.8835016E+02;  1.1565191E-01; -9.6516045E+03;3;  1.2123419E+01;  0.0000000E+00; -2.5949994E-01;0; -2.4349231E-01;  2.9218562E+04;  0.0000000E+00;  3.3989191E-02;  4.0000000E+04;  0.0000000E+00;  3.9947391E+04; -2.1080509E-01;  0.0000000E+00; -3.2687224E-02;  6.8109316E+03;
  7.0998722E-01;  9.9999998E-03; -6.0080901E-02;6740; -1.9610362E-01;  0.0000000E+00;  2.3097976E-03;  9.8801666E+02;  1.1563814E-01; -9.9278906E+03;3;  1.2536370E+01;  0.0000000E+00; -2.1877386E-01;0; -2.4673438E-01;  2.9207270E+04;  0.0000000E+00;  2.4537068E-02;  4.0000000E+04;  0.0000000E+00;  3.9946789E+04; -2.1266387E-01;  0.0000000E+00; -3.4070499E-02;  6.7443682E+03;
  7.0992929E-01;  9.9999998E-03; -5.0071631E-02;6741; -1.9634143E-01;  0.0000000E+00;  1.9479588E-03;  9.8774377E+02;  1.1562510E-01; -1.0153956E+04;3;  1.2888715E+01;  0.0000000E+00; -1.7984784E-01;0; -2.4968386E-01;  2.9198938E+04;  0.0000000E+00;  1.7305529E-02;  4.0000000E+04;  0.0000000E+00;  3.9946129E+04; -2.1438655E-01;  0.0000000E+00; -3.5297301E-02;  6.6705386E+03;
  7.0987326E-01;  9.9999998E-03; -4.0061455E-02;6742; -1.9654617E-01;  0.0000000E+00;  1.5743619E-03;  9.8752081E+02;  1.1561280E-01; -1.0338690E+04;3;  1.3179029E+01;  0.0000000E+00; -1.4226829E-01;0; -2.5224584E-01;  2.9193254E+04;  0.0000000E+00;  1.1509232E-02;  4.0000000E+04;  0.0000000E+00;  3.9945332E+04; -2.1590228E-01;  0.0000000E+00; -3.6343575E-02;  6.5901562E+03;
  7.0982409E-01;  9.9999998E-03; -3.0049425E-02;6743; -1.9671202E-01;  0.0000000E+00;  1.1905653E-03;  9.8735168E+02;  1.1560275E-01; -1.0478834E+04;3;  1.3405805E+01;  0.0000000E+00; -1.0581785E-01;0; -2.5433549E-01;  2.9189611E+04;  0.0000000E+00;  6.7940084E-03;  4.0000000E+04;  0.0000000E+00;  3.9944820E+04; -2.1714902E-01;  0.0000000E+00; -3.7186481E-02;  6.5101040E+03;
  7.0978576E-01;  9.9999998E-03; -2.0034790E-02;6744; -1.9683418E-01;  0.0000000E+00;  7.9855486E-04;  9.8723224E+02;  1.1559474E-01; -1.0577744E+04;3;  1.3568709E+01;  0.0000000E+00; -6.9911204E-02;0; -2.5588211E-01;  2.9187500E+04;  0.0000000E+00;  3.1594918E-03;  4.0000000E+04;  0.0000000E+00;  3.9944078E+04; -2.1807680E-01;  0.0000000E+00; -3.7805319E-02;  6.4409863E+03;
  7.0976150E-01;  9.9999998E-03; -1.0018002E-02;6745; -1.9690892E-01;  0.0000000E+00;  4.0077083E-04;  9.8716461E+02;  1.1558960E-01; -1.0633791E+04;3;  1.3667229E+01;  0.0000000E+00; -3.4807719E-02;0; -2.5683233E-01;  2.9186467E+04;  0.0000000E+00;  8.1550586E-04;  4.0000000E+04;  0.0000000E+00;  3.9943648E+04; -2.1864849E-01;  0.0000000E+00; -3.8183838E-02;  6.3939434E+03;
  7.0975322E-01;  9.9999998E-03; -6.2599576E-10;6746; -1.9693413E-01;  0.0000000E+00;  9.1337107E-09;  9.8714160E+02;  1.1558837E-01; -1.0652853E+04;3;  1.3700120E+01;  0.0000000E+00; -1.3584805E-05;0; -2.5715294E-01;  2.9186121E+04;  0.0000000E+00; -1.2803886E-11;  4.0000000E+04;  0.0000000E+00;  3.9943582E+04; -2.1884169E-01;  0.0000000E+00; -3.8311254E-02;  6.3772046E+03;
  7.0976150E-01;  9.9999998E-03;  1.0018000E-02;6747; -1.9690892E-01;  0.0000000E+00; -4.0075043E-04;  9.8716467E+02;  1.1558960E-01; -1.0633741E+04;3;  1.3667042E+01;  0.0000000E+00;  3.4779664E-02;0; -2.5683245E-01;  2.9186465E+04;  0.0000000E+00;  8.1613706E-04;  4.0000000E+04;  0.0000000E+00;  3.9943652E+04; -2.1864864E-01;  0.0000000E+00; -3.8183808E-02;  6.3939429E+03;
  7.0978576E-01;  9.9999998E-03;  2.0034788E-02;6748; -1.9683416E-01;  0.0000000E+00; -7.9853565E-04;  9.8723224E+02;  1.1559474E-01; -1.0577744E+04;3;  1.3568995E+01;  0.0000000E+00;  6.9891445E-02;0; -2.5588223E-01;  2.9187502E+04;  0.0000000E+00;  3.1604881E-03;  4.0000000E+04;  0.0000000E+00;  3.9944078E+04; -2.1807687E-01;  0.0000000E+00; -3.7805360E-02;  6.4409761E+03;
  7.0982409E-01;  9.9999998E-03;  3.0049425E-02;6749; -1.9671202E-01;  0.0000000E+00; -1.1905479E-03;  9.8735168E+02;  1.1560275E-01; -1.0478834E+04;3;  1.3405559E+01;  0.0000000E+00;  1.0580834E-01;0; -2.5433537E-01;  2.9189609E+04;  0.0000000E+00;  6.7953505E-03;  4.0000000E+04;  0.0000000E+00;  3.9944820E+04; -2.1714886E-01;  0.0000000E+00; -3.7186511E-02;  6.5100820E+03;
  7.0987326E-01;  9.9999998E-03;  4.0061451E-02;6750; -1.9654614E-01;  0.0000000E+00; -1.5743447E-03;  9.8752081E+02;  1.1561280E-01; -1.0338690E+04;3;  1.3178929E+01;  0.0000000E+00;  1.4227800E-01;0; -2.5224596E-01;  2.9193260E+04;  0.0000000E+00;  1.1509844E-02;  4.0000000E+04;  0.0000000E+00;  3.9945332E+04; -2.1590234E-01;  0.0000000E+00; -3.6343608E-02;  6.5901631E+03;
  7.0992929E-01;  9.9999998E-03;  5.0071627E-02;6751; -1.9634138E-01;  0.0000000E+00; -1.9479424E-03;  9.8774365E+02;  1.1562525E-01; -1.0154056E+04;3;  1.2888712E+01;  0.0000000E+00;  1.7985377E-01;0; -2.4968378E-01;  2.9198943E+04;  0.0000000E+00;  1.7307088E-02;  4.0000000E+04;  0.0000000E+00;  3.9946125E+04; -2.1438646E-01;  0.0000000E+00; -3.5297319E-02;  6.6705327E+03;
  7.0998722E-01;  9.9999998E-03;  6.0080901E-02;6752; -1.9610357E-01;  0.0000000E+00; -2.3097827E-03;  9.8801660E+02;  1.1563793E-01; -9.9279395E+03;3;  1.2536434E+01;  0.0000000E+00;  2.1878347E-01;0; -2.4673425E-01;  2.9207270E+04;  0.0000000E+00;  2.4538133E-02;  4.0000000E+04;  0.0000000E+00;  3.9946793E+04; -2.1266368E-01;  0.0000000E+00; -3.4070570E-02;  6.7443643E+03;
  7.2321081E-01;  9.9999998E-03; -1.0025146E-01;6797; -1.9811299E-01;  0.0000000E+00;  4.3642735E-03;  9.8881531E+02;  1.1924443E-01; -9.2662197E+03;3;  1.0901685E+01;  0.0000000E+00; -8.9823008E-01;0; -2.1298288E-01;  2.7534324E+04;  0.0000000E+00;  3.3515209E-01;  4.0000000E+04;  0.0000000E+00;  3.9924836E+04; -1.7827404E-01;  0.0000000E+00; -3.4708846E-02;  6.5609473E+03;
  7.2325164E-01;  9.9999998E-03; -9.0232760E-02;6798; -1.9848409E-01;  0.0000000E+00;  3.9872583E-03;  9.8838428E+02;  1.1924474E-01; -9.6232930E+03;3;  1.1520192E+01;  0.0000000E+00; -8.0653441E-01;0; -2.1724866E-01;  2.7511371E+04;  0.0000000E+00;  2.8680143E-01;  4.0000000E+04;  0.0000000E+00;  3.9924066E+04; -1.8051320E-01;  0.0000000E+00; -3.6735464E-02;  6.4871826E+03;
  7.2327900E-01;  9.9999998E-03; -8.0212817E-02;6799; -1.9885050E-01;  0.0000000E+00;  3.5976642E-03;  9.8797827E+02;  1.1924423E-01; -9.9596748E+03;3;  1.2082529E+01;  0.0000000E+00; -7.1570724E-01;0; -2.2142491E-01;  2.7490199E+04;  0.0000000E+00;  2.3680292E-01;  4.0000000E+04;  0.0000000E+00;  3.9923336E+04; -1.8276142E-01;  0.0000000E+00; -3.8663484E-02;  6.4316323E+03;
  7.2329330E-01;  9.9999998E-03; -7.0191741E-02;6800; -1.9920373E-01;  0.0000000E+00;  3.1942367E-03;  9.8760516E+02;  1.1924312E-01; -1.0268800E+04;3;  1.2584460E+01;  0.0000000E+00; -6.2587756E-01;0; -2.2543517E-01;  2.7471553E+04;  0.0000000E+00;  1.8740426E-01;  4.0000000E+04;  0.0000000E+00;  3.9922727E+04; -1.8495755E-01;  0.0000000E+00; -4.0477619E-02;  6.3773213E+03;
  7.2329599E-01;  9.9999998E-03; -6.0169756E-02;6801; -1.9953440E-01;  0.0000000E+00;  2.7760910E-03;  9.8727612E+02;  1.1924038E-01; -1.0541382E+04;3;  1.3024396E+01;  0.0000000E+00; -5.3627944E-01;0; -2.2918753E-01;  2.7455783E+04;  0.0000000E+00;  1.4091198E-01;  4.0000000E+04;  0.0000000E+00;  3.9922090E+04; -1.8703695E-01;  0.0000000E+00; -4.2150583E-02;  6.3121675E+03;
  7.2329062E-01;  9.9999998E-03; -5.0146870E-02;6802; -1.9983356E-01;  0.0000000E+00;  2.3429773E-03;  9.8699506E+02;  1.1923730E-01; -1.0774262E+04;3;  1.3399551E+01;  0.0000000E+00; -4.4696245E-01;0; -2.3257938E-01;  2.7443082E+04;  0.0000000E+00;  9.9335529E-02;  4.0000000E+04;  0.0000000E+00;  3.9921191E+04; -1.8892957E-01;  0.0000000E+00; -4.3649815E-02;  6.2315347E+03;
  7.2327805E-01;  9.9999998E-03; -4.0121686E-02;6803; -2.0009170E-01;  0.0000000E+00;  1.8952998E-03;  9.8676447E+02;  1.1923347E-01; -1.0965268E+04;3;  1.3707625E+01;  0.0000000E+00; -3.5776779E-01;0; -2.3551711E-01;  2.7433434E+04;  0.0000000E+00;  6.4137384E-02;  4.0000000E+04;  0.0000000E+00;  3.9920273E+04; -1.9057870E-01;  0.0000000E+00; -4.4938415E-02;  6.1387402E+03;
  7.2326016E-01;  9.9999998E-03; -3.0093633E-02;6804; -2.0030057E-01;  0.0000000E+00;  1.4344048E-03;  9.8658521E+02;  1.1922908E-01; -1.1113805E+04;3;  1.3948965E+01;  0.0000000E+00; -2.6824090E-01;0; -2.3791216E-01;  2.7426752E+04;  0.0000000E+00;  3.6241528E-02;  4.0000000E+04;  0.0000000E+00;  3.9919453E+04; -1.9193150E-01;  0.0000000E+00; -4.5980658E-02;  6.0441289E+03;
  7.2324139E-01;  9.9999998E-03; -2.0063685E-02;6805; -2.0045376E-01;  0.0000000E+00;  9.6269307E-04;  9.8646094E+02;  1.1922544E-01; -1.1216764E+04;3;  1.4121333E+01;  0.0000000E+00; -1.7860484E-01;0; -2.3968664E-01;  2.7422631E+04;  0.0000000E+00;  1.6136998E-02;  4.0000000E+04;  0.0000000E+00;  3.9918820E+04; -1.9293979E-01;  0.0000000E+00; -4.6746850E-02;  5.9617617E+03;
  7.2322738E-01;  9.9999998E-03; -1.0032488E-02;6806; -2.0054722E-01;  0.0000000E+00;  4.8333689E-04;  9.8638416E+02;  1.1922241E-01; -1.1280366E+04;3;  1.4225135E+01;  0.0000000E+00; -8.9149117E-02;0; -2.4077775E-01;  2.7420449E+04;  0.0000000E+00;  4.0362654E-03;  4.0000000E+04;  0.0000000E+00;  3.9918383E+04; -1.9356240E-01;  0.0000000E+00; -4.7215346E-02;  5.9054136E+03;
  7.2322220E-01;  9.9999998E-03; -1.4918021E-09;6807; -2.0057860E-01;  0.0000000E+00;  7.0038930E-09;  9.8635919E+02;  1.1922114E-01; -1.1301057E+04;3;  1.4260340E+01;  0.0000000E+00; -1.9780411E-05;0; -2.4114594E-01;  2.7419781E+04;  0.0000000E+00; -1.1132724E-11;  4.0000000E+04;  0.0000000E+00;  3.9918113E+04; -1.9377293E-01;  0.0000000E+00; -4.7373015E-02;  5.8853779E+03;
  7.2322738E-01;  9.9999998E-03;  1.0032485E-02;6808; -2.0054720E-01;  0.0000000E+00; -4.8332222E-04;  9.8638422E+02;  1.1922216E-01; -1.1280317E+04;3;  1.4224964E+01;  0.0000000E+00;  8.9149043E-02;0; -2.4077773E-01;  2.7420451E+04;  0.0000000E+00;  4.0363804E-03;  4.0000000E+04;  0.0000000E+00;  3.9918379E+04; -1.9356237E-01;  0.0000000E+00; -4.7215357E-02;  5.9054058E+03;
  7.2324139E-01;  9.9999998E-03;  2.0063682E-02;6809; -2.0045374E-01;  0.0000000E+00; -9.6267840E-04;  9.8646094E+02;  1.1922544E-01; -1.1216764E+04;3;  1.4121259E+01;  0.0000000E+00;  1.7857379E-01;0; -2.3968661E-01;  2.7422637E+04;  0.0000000E+00;  1.6137429E-02;  4.0000000E+04;  0.0000000E+00;  3.9918820E+04; -1.9293976E-01;  0.0000000E+00; -4.6746854E-02;  5.9617593E+03;
  7.2326016E-01;  9.9999998E-03;  3.0093631E-02;6810; -2.0030057E-01;  0.0000000E+00; -1.4343908E-03;  9.8658527E+02;  1.1922911E-01; -1.1113756E+04;3;  1.3948676E+01;  0.0000000E+00;  2.6822197E-01;0; -2.3791224E-01;  2.7426754E+04;  0.0000000E+00;  3.6241274E-02;  4.0000000E+04;  0.0000000E+00;  3.9919453E+04; -1.9193153E-01;  0.0000000E+00; -4.5980703E-02;  6.0441338E+03;
  7.2327799E-01;  9.9999998E-03;  4.0121686E-02;6811; -2.0009167E-01;  0.0000000E+00; -1.8952846E-03;  9.8676447E+02;  1.1923347E-01; -1.0965268E+04;3;  1.3707821E+01;  0.0000000E+00;  3.5775405E-01;0; -2.3551722E-01;  2.7433432E+04;  0.0000000E+00;  6.4136617E-02;  4.0000000E+04;  0.0000000E+00;  3.9920266E+04; -1.9057882E-01;  0.0000000E+00; -4.4938404E-02;  6.1387466E+03;
  7.2329062E-01;  9.9999998E-03;  5.0146867E-02;6812; -1.9983353E-01;  0.0000000E+00; -2.3429617E-03;  9.8699493E+02;  1.1923730E-01; -1.0774360E+04;3;  1.3399432E+01;  0.0000000E+00;  4.4696662E-01;0; -2.3257962E-01;  2.7443078E+04;  0.0000000E+00;  9.9334069E-02;  4.0000000E+04;  0.0000000E+00;  3.9921191E+04; -1.8892968E-01;  0.0000000E+00; -4.3649938E-02;  6.2315190E+03;
  7.2329599E-01;  9.9999998E-03;  6.0169753E-02;6813; -1.9953437E-01;  0.0000000E+00; -2.7760773E-03;  9.8727600E+02;  1.1924039E-01; -1.0541480E+04;3;  1.3024425E+01;  0.0000000E+00;  5.3630209E-01;0; -2.2918770E-01;  2.7455775E+04;  0.0000000E+00;  1.4091234E-01;  4.0000000E+04;  0.0000000E+00;  3.9922090E+04; -1.8703702E-01;  0.0000000E+00; -4.2150673E-02;  6.3121675E+03;
  7.3546261E-01;  9.9999998E-03; -1.0026144E-01;6858; -2.0088921E-01;  0.0000000E+00;  5.0241067E-03;  9.8902893E+02;  1.2284417E-01; -9.0892217E+03;3;  1.1138113E+01;  0.0000000E+00; -1.4476899E+00;0; -1.7459822E-01;  2.5979832E+04;  0.0000000E+00;  4.9833137E-01;  4.0000000E+04;  0.0000000E+00;  3.9900059E+04; -1.3259833E-01;  0.0000000E+00; -4.1999895E-02;  6.0440488E+03;
  7.3550773E-01;  9.9999998E-03; -9.0235874E-02;6859; -2.0129615E-01;  0.0000000E+00;  4.5879232E-03;  9.8871887E+02;  1.2284329E-01; -9.3461006E+03;3;  1.1806897E+01;  0.0000000E+00; -1.3054637E+00;0; -1.8062305E-01;  2.5964045E+04;  0.0000000E+00;  4.4112745E-01;  4.0000000E+04;  0.0000000E+00;  3.9899965E+04; -1.3624950E-01;  0.0000000E+00; -4.4373550E-02;  6.0304092E+03;
  7.3554009E-01;  9.9999998E-03; -8.0209777E-02;6860; -2.0170316E-01;  0.0000000E+00;  4.1399272E-03;  9.8841986E+02;  1.2284208E-01; -9.5937939E+03;3;  1.2429859E+01;  0.0000000E+00; -1.1616907E+00;0; -1.8632568E-01;  2.5949262E+04;  0.0000000E+00;  3.7272686E-01;  4.0000000E+04;  0.0000000E+00;  3.9899754E+04; -1.3967487E-01;  0.0000000E+00; -4.6650808E-02;  6.0081855E+03;
  7.3555934E-01;  9.9999998E-03; -7.0183910E-02;6861; -2.0210034E-01;  0.0000000E+00;  3.6776499E-03;  9.8813910E+02;  1.2284016E-01; -9.8264268E+03;3;  1.2987240E+01;  0.0000000E+00; -1.0175334E+00;0; -1.9164395E-01;  2.5936109E+04;  0.0000000E+00;  2.9901877E-01;  4.0000000E+04;  0.0000000E+00;  3.9899309E+04; -1.4283864E-01;  0.0000000E+00; -4.8805319E-02;  5.9637427E+03;
  7.3556817E-01;  9.9999998E-03; -6.0158312E-02;6862; -2.0247544E-01;  0.0000000E+00;  3.1989457E-03;  9.8789001E+02;  1.2283810E-01; -1.0032789E+04;3;  1.3472856E+01;  0.0000000E+00; -8.7227267E-01;0; -1.9649644E-01;  2.5924725E+04;  0.0000000E+00;  2.2620590E-01;  4.0000000E+04;  0.0000000E+00;  3.9898781E+04; -1.4569579E-01;  0.0000000E+00; -5.0800648E-02;  5.8905415E+03;
  7.3556864E-01;  9.9999998E-03; -5.0133675E-02;6863; -2.0281628E-01;  0.0000000E+00;  2.7026592E-03;  9.8767102E+02;  1.2283508E-01; -1.0214215E+04;3;  1.3876765E+01;  0.0000000E+00; -7.2744578E-01;0; -2.0079777E-01;  2.5915518E+04;  0.0000000E+00;  1.5954188E-01;  4.0000000E+04;  0.0000000E+00;  3.9898043E+04; -1.4820421E-01;  0.0000000E+00; -5.2593563E-02;  5.7906670E+03;
  7.3556429E-01;  9.9999998E-03; -4.0110234E-02;6864; -2.0311199E-01;  0.0000000E+00;  2.1886886E-03;  9.8748901E+02;  1.2283225E-01; -1.0365023E+04;3;  1.4201825E+01;  0.0000000E+00; -5.8317405E-01;0; -2.0445925E-01;  2.5908348E+04;  0.0000000E+00;  1.0269707E-01;  4.0000000E+04;  0.0000000E+00;  3.9896926E+04; -1.5031959E-01;  0.0000000E+00; -5.4139655E-02;  5.6739526E+03;
  7.3555654E-01;  9.9999998E-03; -3.0085832E-02;6865; -2.0335254E-01;  0.0000000E+00;  1.6581906E-03;  9.8734583E+02;  1.2282982E-01; -1.0483636E+04;3;  1.4454444E+01;  0.0000000E+00; -4.3783048E-01;0; -2.0740560E-01;  2.5903113E+04;  0.0000000E+00;  5.7750605E-02;  4.0000000E+04;  0.0000000E+00;  3.9896000E+04; -1.5201065E-01;  0.0000000E+00; -5.5394940E-02;  5.5559351E+03;
  7.3554724E-01;  9.9999998E-03; -2.0059574E-02;6866; -2.0352985E-01;  0.0000000E+00;  1.1138427E-03;  9.8724231E+02;  1.2282713E-01; -1.0569410E+04;3;  1.4634728E+01;  0.0000000E+00; -2.9192442E-01;0; -2.0956898E-01;  2.5899727E+04;  0.0000000E+00;  2.5591452E-02;  4.0000000E+04;  0.0000000E+00;  3.9895090E+04; -1.5324837E-01;  0.0000000E+00; -5.6320604E-02;  5.4544492E+03;
  7.3553973E-01;  9.9999998E-03; -1.0031118E-02;6867; -2.0363835E-01;  0.0000000E+00;  5.5951945E-04;  9.8717761E+02;  1.2282463E-01; -1.0622988E+04;3;  1.4743141E+01;  0.0000000E+00; -1.4624858E-01;0; -2.1089235E-01;  2.5897883E+04;  0.0000000E+00;  6.3794740E-03;  4.0000000E+04;  0.0000000E+00;  3.9894574E+04; -1.5400457E-01;  0.0000000E+00; -5.6887776E-02;  5.3856455E+03;
  7.3553711E-01;  9.9999998E-03; -1.3881781E-09;6868; -2.0367488E-01;  0.0000000E+00;  5.5234164E-09;  9.8715765E+02;  1.2282407E-01; -1.0639531E+04;3;  1.4780560E+01;  0.0000000E+00; -2.1600328E-05;0; -2.1133687E-01;  2.5897299E+04;  0.0000000E+00; -6.3809344E-12;  4.0000000E+04;  0.0000000E+00;  3.9894379E+04; -1.5425788E-01;  0.0000000E+00; -5.7078991E-02;  5.3612212E+03;
  7.3553973E-01;  9.9999998E-03;  1.0031115E-02;6869; -2.0363835E-01;  0.0000000E+00; -5.5950886E-04;  9.8717773E+02;  1.2282485E-01; -1.0622890E+04;3;  1.4743285E+01;  0.0000000E+00;  1.4620821E-01;0; -2.1089230E-01;  2.5897883E+04;  0.0000000E+00;  6.3791494E-03;  4.0000000E+04;  0.0000000E+00;  3.9894574E+04; -1.5400453E-01;  0.0000000E+00; -5.6887776E-02;  5.3856367E+03;
  7.3554724E-01;  9.9999998E-03;  2.0059573E-02;6870; -2.0352983E-01;  0.0000000E+00; -1.1138320E-03;  9.8724225E+02;  1.2282686E-01; -1.0569460E+04;3;  1.4634969E+01;  0.0000000E+00;  2.9186717E-01;0; -2.0956895E-01;  2.5899730E+04;  0.0000000E+00;  2.5590822E-02;  4.0000000E+04;  0.0000000E+00;  3.9895090E+04; -1.5324838E-01;  0.0000000E+00; -5.6320563E-02;  5.4544395E+03;
  7.3555654E-01;  9.9999998E-03;  3.0085830E-02;6871; -2.0335254E-01;  0.0000000E+00; -1.6581792E-03;  9.8734607E+02;  1.2282982E-01; -1.0483438E+04;3;  1.4454488E+01;  0.0000000E+00;  4.3779802E-01;0; -2.0740570E-01;  2.5903113E+04;  0.0000000E+00;  5.7749003E-02;  4.0000000E+04;  0.0000000E+00;  3.9895996E+04; -1.5201068E-01;  0.0000000E+00; -5.5395018E-02;  5.5559619E+03;
  7.3556429E-01;  9.9999998E-03;  4.0110234E-02;6872; -2.0311198E-01;  0.0000000E+00; -2.1886758E-03;  9.8748901E+02;  1.2283225E-01; -1.0365023E+04;3;  1.4201923E+01;  0.0000000E+00;  5.8315474E-01;0; -2.0445947E-01;  2.5908348E+04;  0.0000000E+00;  1.0269501E-01;  4.0000000E+04;  0.0000000E+00;  3.9896918E+04; -1.5031976E-01;  0.0000000E+00; -5.4139722E-02;  5.6739644E+03;
  7.3556864E-01;  9.9999998E-03;  5.0133672E-02;6873; -2.0281625E-01;  0.0000000E+00; -2.7026467E-03;  9.8767096E+02;  1.2283488E-01; -1.0214264E+04;3;  1.3876688E+01;  0.0000000E+00;  7.2743189E-01;0; -2.0079784E-01;  2.5915512E+04;  0.0000000E+00;  1.5954067E-01;  4.0000000E+04;  0.0000000E+00;  3.9898043E+04; -1.4820424E-01;  0.0000000E+00; -5.2593600E-02;  5.7906758E+03;
  7.3556817E-01;  9.9999998E-03;  6.0158312E-02;6874; -2.0247543E-01;  0.0000000E+00; -3.1989345E-03;  9.8789001E+02;  1.2283770E-01; -1.0032789E+04;3;  1.3472553E+01;  0.0000000E+00;  8.7226135E-01;0; -1.9649644E-01;  2.5924721E+04;  0.0000000E+00;  2.2620419E-01;  4.0000000E+04;  0.0000000E+00;  3.9898781E+04; -1.4569572E-01;  0.0000000E+00; -5.0800726E-02;  5.8905327E+03;
  7.4775517E-01;  9.9999998E-03; -1.0025717E-01;6919; -2.0337784E-01;  0.0000000E+00;  5.6601362E-03;  9.9001831E+02;  1.2658174E-01; -8.2695312E+03;3;  1.1356297E+01;  0.0000000E+00; -2.0576246E+00;0; -1.0745703E-01;  2.4537605E+04;  0.0000000E+00;  5.4505485E-01;  4.0000000E+04;  0.0000000E+00;  3.9875527E+04; -5.6676090E-02;  0.0000000E+00; -5.0780933E-02;  5.5073164E+03;
  7.4781942E-01;  9.9999998E-03; -9.0225220E-02;6920; -2.0381427E-01;  0.0000000E+00;  5.1755090E-03;  9.8990521E+02;  1.2658319E-01; -8.3632070E+03;3;  1.2047486E+01;  0.0000000E+00; -1.8671037E+00;0; -1.1650544E-01;  2.4529832E+04;  0.0000000E+00;  4.9576384E-01;  4.0000000E+04;  0.0000000E+00;  3.9876270E+04; -6.2849142E-02;  0.0000000E+00; -5.3656299E-02;  5.5789946E+03;
  7.4787283E-01;  9.9999998E-03; -8.0194511E-02;6921; -2.0425537E-01;  0.0000000E+00;  4.6781101E-03;  9.8978546E+02;  1.2658541E-01; -8.4624619E+03;3;  1.2687949E+01;  0.0000000E+00; -1.6652905E+00;0; -1.2485911E-01;  2.4521980E+04;  0.0000000E+00;  4.2640662E-01;  4.0000000E+04;  0.0000000E+00;  3.9876645E+04; -6.8435647E-02;  0.0000000E+00; -5.6423467E-02;  5.5992910E+03;
  7.4791580E-01;  9.9999998E-03; -7.0164829E-02;6922; -2.0468889E-01;  0.0000000E+00;  4.1631083E-03;  9.8966632E+02;  1.2658750E-01; -8.5611240E+03;3;  1.3249641E+01;  0.0000000E+00; -1.4668474E+00;0; -1.3244697E-01;  2.4514531E+04;  0.0000000E+00;  3.4555379E-01;  4.0000000E+04;  0.0000000E+00;  3.9876469E+04; -7.3401056E-02;  0.0000000E+00; -5.9045911E-02;  5.5599058E+03;
  7.4795175E-01;  9.9999998E-03; -6.0137868E-02;6923; -2.0510143E-01;  0.0000000E+00;  3.6283054E-03;  9.8955365E+02;  1.2659065E-01; -8.6545029E+03;3;  1.3752065E+01;  0.0000000E+00; -1.2666390E+00;0; -1.3918385E-01;  2.4507607E+04;  0.0000000E+00;  2.6252407E-01;  4.0000000E+04;  0.0000000E+00;  3.9875789E+04; -7.7706665E-02;  0.0000000E+00; -6.1477177E-02;  5.4644233E+03;
  7.4797791E-01;  9.9999998E-03; -5.0113302E-02;6924; -2.0547822E-01;  0.0000000E+00;  3.0712038E-03;  9.8945276E+02;  1.2659350E-01; -8.7380557E+03;3;  1.4193587E+01;  0.0000000E+00; -1.0574731E+00;0; -1.4502937E-01;  2.4501801E+04;  0.0000000E+00;  1.8517736E-01;  4.0000000E+04;  0.0000000E+00;  3.9874758E+04; -8.1369281E-02;  0.0000000E+00; -6.3660078E-02;  5.3270688E+03;
  7.4799621E-01;  9.9999998E-03; -4.0090621E-02;6925; -2.0580727E-01;  0.0000000E+00;  2.4911582E-03;  9.8936560E+02;  1.2659547E-01; -8.8102988E+03;3;  1.4538228E+01;  0.0000000E+00; -8.5097617E-01;0; -1.4992005E-01;  2.4497100E+04;  0.0000000E+00;  1.1891229E-01;  4.0000000E+04;  0.0000000E+00;  3.9873617E+04; -8.4380150E-02;  0.0000000E+00; -6.5539889E-02;  5.1692612E+03;
  7.4800885E-01;  9.9999998E-03; -3.0069500E-02;6926; -2.0607616E-01;  0.0000000E+00;  1.8900173E-03;  9.8929675E+02;  1.2659720E-01; -8.8673340E+03;3;  1.4800237E+01;  0.0000000E+00; -6.3903075E-01;0; -1.5379265E-01;  2.4493609E+04;  0.0000000E+00;  6.6656671E-02;  4.0000000E+04;  0.0000000E+00;  3.9872297E+04; -8.6727060E-02;  0.0000000E+00; -6.7065589E-02;  5.0149043E+03;
  7.4801803E-01;  9.9999998E-03; -2.0048797E-02;6927; -2.0627517E-01;  0.0000000E+00;  1.2709617E-03;  9.8924725E+02;  1.2659787E-01; -8.9083193E+03;3;  1.4989101E+01;  0.0000000E+00; -4.2603362E-01;0; -1.5659331E-01;  2.4491016E+04;  0.0000000E+00;  2.9457696E-02;  4.0000000E+04;  0.0000000E+00;  3.9871355E+04; -8.8400416E-02;  0.0000000E+00; -6.8192892E-02;  4.8860176E+03;
  7.4802357E-01;  9.9999998E-03; -1.0026091E-02;6928; -2.0639774E-01;  0.0000000E+00;  6.3903251E-04;  9.8921588E+02;  1.2659937E-01; -8.9342939E+03;3;  1.5114849E+01;  0.0000000E+00; -2.1054280E-01;0; -1.5828826E-01;  2.4489496E+04;  0.0000000E+00;  7.3320768E-03;  4.0000000E+04;  0.0000000E+00;  3.9870414E+04; -8.9403100E-02;  0.0000000E+00; -6.8885155E-02;  4.8003950E+03;
  7.4802524E-01;  9.9999998E-03; -1.3325363E-09;6929; -2.0643923E-01;  0.0000000E+00;  2.4785434E-09;  9.8920435E+02;  1.2659949E-01; -8.9438740E+03;3;  1.5154513E+01;  0.0000000E+00; -3.8944931E-05;0; -1.5885669E-01;  2.4489004E+04;  0.0000000E+00;  4.9073675E-12;  4.0000000E+04;  0.0000000E+00;  3.9870363E+04; -8.9738145E-02;  0.0000000E+00; -6.9118544E-02;  4.7704009E+03;
  7.4802357E-01;  9.9999998E-03;  1.0026089E-02;6930; -2.0639773E-01;  0.0000000E+00; -6.3902582E-04;  9.8921588E+02;  1.2659895E-01; -8.9342939E+03;3;  1.5114859E+01;  0.0000000E+00;  2.1048415E-01;0; -1.5828827E-01;  2.4489494E+04;  0.0000000E+00;  7.3312912E-03;  4.0000000E+04;  0.0000000E+00;  3.9870414E+04; -8.9403108E-02;  0.0000000E+00; -6.8885155E-02;  4.8004048E+03;
  7.4801803E-01;  9.9999998E-03;  2.0048795E-02;6931; -2.0627515E-01;  0.0000000E+00; -1.2709559E-03;  9.8924719E+02;  1.2659800E-01; -8.9083691E+03;3;  1.4989070E+01;  0.0000000E+00;  4.2596897E-01;0; -1.5659326E-01;  2.4491016E+04;  0.0000000E+00;  2.9455934E-02;  4.0000000E+04;  0.0000000E+00;  3.9871352E+04; -8.8400371E-02;  0.0000000E+00; -6.8192899E-02;  4.8860347E+03;
  7.4800885E-01;  9.9999998E-03;  3.0069498E-02;6932; -2.0607613E-01;  0.0000000E+00; -1.8900099E-03;  9.8929675E+02;  1.2659684E-01; -8.8673340E+03;3;  1.4800205E+01;  0.0000000E+00;  6.3898379E-01;0; -1.5379269E-01;  2.4493611E+04;  0.0000000E+00;  6.6654630E-02;  4.0000000E+04;  0.0000000E+00;  3.9872297E+04; -8.6727060E-02;  0.0000000E+00; -6.7065634E-02;  5.0148936E+03;
  7.4799621E-01;  9.9999998E-03;  4.0090617E-02;6933; -2.0580724E-01;  0.0000000E+00; -2.4911510E-03;  9.8936554E+02;  1.2659484E-01; -8.8103486E+03;3;  1.4538081E+01;  0.0000000E+00;  8.5095406E-01;0; -1.4991990E-01;  2.4497104E+04;  0.0000000E+00;  1.1891019E-01;  4.0000000E+04;  0.0000000E+00;  3.9873617E+04; -8.4380038E-02;  0.0000000E+00; -6.5539859E-02;  5.1692651E+03;
  7.4797791E-01;  9.9999998E-03;  5.0113302E-02;6934; -2.0547818E-01;  0.0000000E+00; -3.0711950E-03;  9.8945282E+02;  1.2659331E-01; -8.7380059E+03;3;  1.4193592E+01;  0.0000000E+00;  1.0574595E+00;0; -1.4502940E-01;  2.4501799E+04;  0.0000000E+00;  1.8517160E-01;  4.0000000E+04;  0.0000000E+00;  3.9874758E+04; -8.1369326E-02;  0.0000000E+00; -6.3660063E-02;  5.3270903E+03;
  7.4795175E-01;  9.9999998E-03;  6.0137864E-02;6935; -2.0510140E-01;  0.0000000E+00; -3.6282963E-03;  9.8955371E+02;  1.2659046E-01; -8.6544541E+03;3;  1.3752114E+01;  0.0000000E+00;  1.2666546E+00;0; -1.3918388E-01;  2.4507611E+04;  0.0000000E+00;  2.6252046E-01;  4.0000000E+04;  0.0000000E+00;  3.9875789E+04; -7.7706665E-02;  0.0000000E+00; -6.1477214E-02;  5.4644150E+03;
  7.6084059E-01;  9.9999998E-03; -1.0028135E-01;6980; -2.0552559E-01;  0.0000000E+00;  6.3499650E-03;  9.9218799E+02;  1.3062702E-01; -6.4720073E+03;3;  1.1572658E+01;  0.0000000E+00; -2.7725692E+00;0;  6.3551217E-03;  2.3159209E+04;  0.0000000E+00;  4.5476574E-01;  4.0000000E+04;  0.0000000E+00;  3.9850453E+04;  6.9168836E-02;  0.0000000E+00; -6.2813714E-02;  4.8685640E+03;
  7.6093847E-01;  9.9999998E-03; -9.0247117E-02;6981; -2.0597906E-01;  0.0000000E+00;  5.8242776E-03;  9.9232233E+02;  1.3063176E-01; -6.3607036E+03;3;  1.2301169E+01;  0.0000000E+00; -2.5213246E+00;0; -7.1765222E-03;  2.3159818E+04;  0.0000000E+00;  4.2719385E-01;  4.0000000E+04;  0.0000000E+00;  3.9851949E+04;  5.9266258E-02;  0.0000000E+00; -6.6442780E-02;  5.0401538E+03;
  7.6101410E-01;  9.9999998E-03; -8.0213338E-02;6982; -2.0644219E-01;  0.0000000E+00;  5.2792863E-03;  9.9242719E+02;  1.3063475E-01; -6.2738433E+03;3;  1.2972554E+01;  0.0000000E+00; -2.2537282E+00;0; -1.9669436E-02;  2.3160529E+04;  0.0000000E+00;  3.7459359E-01;  4.0000000E+04;  0.0000000E+00;  3.9852863E+04;  5.0239488E-02;  0.0000000E+00; -6.9908924E-02;  5.1037212E+03;
  7.6105982E-01;  9.9999998E-03; -7.0182763E-02;6983; -2.0689903E-01;  0.0000000E+00;  4.7105276E-03;  9.9250116E+02;  1.3063323E-01; -6.2125620E+03;3;  1.3567879E+01;  0.0000000E+00; -1.9891113E+00;0; -3.1076267E-02;  2.3161943E+04;  0.0000000E+00;  3.0649766E-01;  4.0000000E+04;  0.0000000E+00;  3.9852691E+04;  4.2075582E-02;  0.0000000E+00; -7.3151849E-02;  5.0574365E+03;
  7.6107758E-01;  9.9999998E-03; -6.0156438E-02;6984; -2.0733249E-01;  0.0000000E+00;  4.1147247E-03;  9.9254523E+02;  1.3062865E-01; -6.1760205E+03;3;  1.4103442E+01;  0.0000000E+00; -1.7084025E+00;0; -4.1279700E-02;  2.3164195E+04;  0.0000000E+00;  2.3349726E-01;  4.0000000E+04;  0.0000000E+00;  3.9851836E+04;  3.4832660E-02;  0.0000000E+00; -7.6112360E-02;  4.9193735E+03;
  7.6107657E-01;  9.9999998E-03; -5.0131474E-02;6985; -2.0772938E-01;  0.0000000E+00;  3.4887104E-03;  9.9257080E+02;  1.3062173E-01; -6.1548364E+03;3;  1.4556964E+01;  0.0000000E+00; -1.4332155E+00;0; -5.0127521E-02;  2.3166771E+04;  0.0000000E+00;  1.6440482E-01;  4.0000000E+04;  0.0000000E+00;  3.9850551E+04;  2.8610883E-02;  0.0000000E+00; -7.8738406E-02;  4.7227085E+03;
  7.6106644E-01;  9.9999998E-03; -4.0105637E-02;6986; -2.0807573E-01;  0.0000000E+00;  2.8336723E-03;  9.9258020E+02;  1.3061507E-01; -6.1470835E+03;3;  1.4913633E+01;  0.0000000E+00; -1.1532502E+00;0; -5.7491891E-02;  2.3169211E+04;  0.0000000E+00;  1.0509806E-01;  4.0000000E+04;  0.0000000E+00;  3.9849008E+04;  2.3487387E-02;  0.0000000E+00; -8.0979280E-02;  4.5063276E+03;
  7.6105255E-01;  9.9999998E-03; -3.0080471E-02;6987; -2.0835936E-01;  0.0000000E+00;  2.1523864E-03;  9.9258405E+02;  1.3060915E-01; -6.1438740E+03;3;  1.5172251E+01;  0.0000000E+00; -8.6823142E-01;0; -6.3296862E-02;  2.3171283E+04;  0.0000000E+00;  5.8602631E-02;  4.0000000E+04;  0.0000000E+00;  3.9847453E+04;  1.9486247E-02;  0.0000000E+00; -8.2783110E-02;  4.3052612E+03;
  7.6103926E-01;  9.9999998E-03; -2.0056505E-02;6988; -2.0856930E-01;  0.0000000E+00;  1.4488978E-03;  9.9258301E+02;  1.3060451E-01; -6.1447134E+03;3;  1.5378864E+01;  0.0000000E+00; -5.7431942E-01;0; -6.7486726E-02;  2.3172879E+04;  0.0000000E+00;  2.5787858E-02;  4.0000000E+04;  0.0000000E+00;  3.9846164E+04;  1.6619394E-02;  0.0000000E+00; -8.4106117E-02;  4.1452114E+03;
  7.6102781E-01;  9.9999998E-03; -1.0030674E-02;6989; -2.0869878E-01;  0.0000000E+00;  7.2867918E-04;  9.9257947E+02;  1.3060097E-01; -6.1476763E+03;3;  1.5502785E+01;  0.0000000E+00; -2.8978878E-01;0; -7.0036493E-02;  2.3173947E+04;  0.0000000E+00;  6.4044199E-03;  4.0000000E+04;  0.0000000E+00;  3.9845465E+04;  1.4875064E-02;  0.0000000E+00; -8.4911555E-02;  4.0429460E+03;
  7.6102293E-01;  9.9999998E-03; -1.5834590E-09;6990; -2.0874196E-01;  0.0000000E+00;  1.6241255E-09;  9.9257904E+02;  1.3059999E-01; -6.1480220E+03;3;  1.5550050E+01;  0.0000000E+00; -2.7527703E-05;0; -7.0897117E-02;  2.3174365E+04;  0.0000000E+00;  2.3464857E-11;  4.0000000E+04;  0.0000000E+00;  3.9845098E+04;  1.4284314E-02;  0.0000000E+00; -8.5181430E-02;  4.0078601E+03;
  7.6102781E-01;  9.9999998E-03;  1.0030671E-02;6991; -2.0869875E-01;  0.0000000E+00; -7.2867644E-04;  9.9257947E+02;  1.3060097E-01; -6.1476763E+03;3;  1.5502977E+01;  0.0000000E+00;  2.8973112E-01;0; -7.0036434E-02;  2.3173947E+04;  0.0000000E+00;  6.4029149E-03;  4.0000000E+04;  0.0000000E+00;  3.9845469E+04;  1.4875079E-02;  0.0000000E+00; -8.4911510E-02;  4.0429629E+03;
  7.6103926E-01;  9.9999998E-03;  2.0056501E-02;6992; -2.0856929E-01;  0.0000000E+00; -1.4488936E-03;  9.9258301E+02;  1.3060406E-01; -6.1447134E+03;3;  1.5378741E+01;  0.0000000E+00;  5.7426453E-01;0; -6.7486666E-02;  2.3172883E+04;  0.0000000E+00;  2.5785416E-02;  4.0000000E+04;  0.0000000E+00;  3.9846168E+04;  1.6619354E-02;  0.0000000E+00; -8.4106021E-02;  4.1451836E+03;
  7.6105255E-01;  9.9999998E-03;  3.0080467E-02;6993; -2.0835935E-01;  0.0000000E+00; -2.1523819E-03;  9.9258386E+02;  1.3060895E-01; -6.1440220E+03;3;  1.5172550E+01;  0.0000000E+00;  8.6820364E-01;0; -6.3296981E-02;  2.3171285E+04;  0.0000000E+00;  5.8599111E-02;  4.0000000E+04;  0.0000000E+00;  3.9847453E+04;  1.9486198E-02;  0.0000000E+00; -8.2783177E-02;  4.3052480E+03;
  7.6106644E-01;  9.9999998E-03;  4.0105633E-02;6994; -2.0807570E-01;  0.0000000E+00; -2.8336698E-03;  9.9258026E+02;  1.3061491E-01; -6.1470342E+03;3;  1.4913738E+01;  0.0000000E+00;  1.1531940E+00;0; -5.7491913E-02;  2.3169209E+04;  0.0000000E+00;  1.0509446E-01;  4.0000000E+04;  0.0000000E+00;  3.9849004E+04;  2.3487335E-02;  0.0000000E+00; -8.0979250E-02;  4.5063306E+03;
  7.6107657E-01;  9.9999998E-03;  5.0131470E-02;6995; -2.0772937E-01;  0.0000000E+00; -3.4887060E-03;  9.9257092E+02;  1.3062131E-01; -6.1547373E+03;3;  1.4556863E+01;  0.0000000E+00;  1.4331948E+00;0; -5.0127573E-02;  2.3166768E+04;  0.0000000E+00;  1.6440096E-01;  4.0000000E+04;  0.0000000E+00;  3.9850551E+04;  2.8610907E-02;  0.0000000E+00; -7.8738481E-02;  4.7227217E+03;
  7.6107758E-01;  9.9999998E-03;  6.0156438E-02;6996; -2.0733248E-01;  0.0000000E+00; -4.1147186E-03;  9.9254529E+02;  1.3062848E-01; -6.1759712E+03;3;  1.4103347E+01;  0.0000000E+00;  1.7084156E+00;0; -4.1279741E-02;  2.3164191E+04;  0.0000000E+00;  2.3349202E-01;  4.0000000E+04;  0.0000000E+00;  3.9851840E+04;  3.4832649E-02;  0.0000000E+00; -7.6112390E-02;  4.9193760E+03;
  7.7482820E-01;  9.9999998E-03; -1.0010969E-01;7041; -2.0719954E-01;  0.0000000E+00;  7.1278429E-03;  9.9585303E+02;  1.3498262E-01; -3.4356360E+03;3;  1.1658607E+01;  0.0000000E+00; -3.6525240E+00;0;  1.8699896E-01;  2.1861451E+04;  0.0000000E+00;  2.2667295E-01;  4.0000000E+04;  0.0000000E+00;  3.9825453E+04;  2.6731217E-01;  0.0000000E+00; -8.0313213E-02;  4.1493867E+03;
  7.7500981E-01;  9.9999998E-03; -9.0085328E-02;7042; -2.0765117E-01;  0.0000000E+00;  6.5722992E-03;  9.9623688E+02;  1.3500540E-01; -3.1176265E+03;3;  1.2437253E+01;  0.0000000E+00; -3.3157544E+00;0;  1.6865188E-01;  2.1865172E+04;  0.0000000E+00;  2.2582044E-01;  4.0000000E+04;  0.0000000E+00;  3.9827426E+04;  2.5377795E-01;  0.0000000E+00; -8.5126080E-02;  4.3928584E+03;
  7.7516001E-01;  9.9999998E-03; -8.0066226E-02;7043; -2.0812184E-01;  0.0000000E+00;  5.9836465E-03;  9.9657635E+02;  1.3502327E-01; -2.8363562E+03;3;  1.3141791E+01;  0.0000000E+00; -2.9705753E+00;0;  1.5158015E-01;  2.1869535E+04;  0.0000000E+00;  2.0348726E-01;  4.0000000E+04;  0.0000000E+00;  3.9828148E+04;  2.4124789E-01;  0.0000000E+00; -8.9667737E-02;  4.4645391E+03;
  7.7527815E-01;  9.9999998E-03; -7.0052259E-02;7044; -2.0859171E-01;  0.0000000E+00;  5.3599956E-03;  9.9685724E+02;  1.3503465E-01; -2.6036763E+03;3;  1.3761698E+01;  0.0000000E+00; -2.6269140E+00;0;  1.3597140E-01;  2.1874373E+04;  0.0000000E+00;  1.6756739E-01;  4.0000000E+04;  0.0000000E+00;  3.9827672E+04;  2.2984651E-01;  0.0000000E+00; -9.3875110E-02;  4.3711782E+03;
  7.7536708E-01;  9.9999998E-03; -6.0041815E-02;7045; -2.0904218E-01;  0.0000000E+00;  4.6974951E-03;  9.9708691E+02;  1.3504171E-01; -2.4133643E+03;3;  1.4321358E+01;  0.0000000E+00; -2.2615013E+00;0;  1.2202425E-01;  2.1879266E+04;  0.0000000E+00;  1.2664728E-01;  4.0000000E+04;  0.0000000E+00;  3.9826102E+04;  2.1970950E-01;  0.0000000E+00; -9.7685248E-02;  4.1510967E+03;
  7.7542824E-01;  9.9999998E-03; -5.0032794E-02;7046; -2.0945653E-01;  0.0000000E+00;  3.9934483E-03;  9.9726721E+02;  1.3504478E-01; -2.2640381E+03;3;  1.4799653E+01;  0.0000000E+00; -1.8962548E+00;0;  1.0988212E-01;  2.1884088E+04;  0.0000000E+00;  8.7650716E-02;  4.0000000E+04;  0.0000000E+00;  3.9824082E+04;  2.1091424E-01;  0.0000000E+00; -1.0103212E-01;  3.8622205E+03;
  7.7546167E-01;  9.9999998E-03; -4.0022548E-02;7047; -2.0982018E-01;  0.0000000E+00;  3.2521791E-03;  9.9739899E+02;  1.3504347E-01; -2.1548584E+03;3;  1.5211826E+01;  0.0000000E+00; -1.5277206E+00;0;  9.9636972E-02;  2.1888818E+04;  0.0000000E+00;  5.4777551E-02;  4.0000000E+04;  0.0000000E+00;  3.9821676E+04;  2.0348503E-01;  0.0000000E+00; -1.0384806E-01;  3.5652998E+03;
  7.7547634E-01;  9.9999998E-03; -3.0012833E-02;7048; -2.1011922E-01;  0.0000000E+00;  2.4753511E-03;  9.9749329E+02;  1.3504033E-01; -2.0767385E+03;3;  1.5496384E+01;  0.0000000E+00; -1.1431820E+00;0;  9.1473468E-02;  2.1892896E+04;  0.0000000E+00;  2.9810201E-02;  4.0000000E+04;  0.0000000E+00;  3.9819766E+04;  1.9756019E-01;  0.0000000E+00; -1.0608672E-01;  3.3061497E+03;
  7.7548575E-01;  9.9999998E-03; -2.0007089E-02;7049; -2.1034175E-01;  0.0000000E+00;  1.6686625E-03;  9.9755426E+02;  1.3503814E-01; -2.0262225E+03;3;  1.5718338E+01;  0.0000000E+00; -7.6682442E-01;0;  8.5610390E-02;  2.1895807E+04;  0.0000000E+00;  1.2839514E-02;  4.0000000E+04;  0.0000000E+00;  3.9818293E+04;  1.9333182E-01;  0.0000000E+00; -1.0772143E-01;  3.1103811E+03;
  7.7549237E-01;  9.9999998E-03; -1.0003983E-02;7050; -2.1047992E-01;  0.0000000E+00;  8.4025232E-04;  9.9759467E+02;  1.3503708E-01; -1.9927427E+03;3;  1.5844924E+01;  0.0000000E+00; -3.8073379E-01;0;  8.2097009E-02;  2.1897420E+04;  0.0000000E+00;  3.1433050E-03;  4.0000000E+04;  0.0000000E+00;  3.9817379E+04;  1.9081658E-01;  0.0000000E+00; -1.0871957E-01;  2.9901177E+03;
  7.7549577E-01;  9.9999998E-03; -1.8644049E-09;7051; -2.1052685E-01;  0.0000000E+00;  6.7162126E-10;  9.9760846E+02;  1.3503730E-01; -1.9812865E+03;3;  1.5884849E+01;  0.0000000E+00; -1.8054347E-05;0;  8.0938525E-02;  2.1897902E+04;  0.0000000E+00;  5.4791092E-11;  4.0000000E+04;  0.0000000E+00;  3.9817074E+04;  1.8999578E-01;  0.0000000E+00; -1.0905726E-01;  2.9495598E+03;
  7.7549237E-01;  9.9999998E-03;  1.0003979E-02;7052; -2.1047992E-01;  0.0000000E+00; -8.4025308E-04;  9.9759473E+02;  1.3503705E-01; -1.9926934E+03;3;  1.5844775E+01;  0.0000000E+00;  3.8065249E-01;0;  8.2096793E-02;  2.1897422E+04;  0.0000000E+00;  3.1419287E-03;  4.0000000E+04;  0.0000000E+00;  3.9817379E+04;  1.9081639E-01;  0.0000000E+00; -1.0871959E-01;  2.9901155E+03;
  7.7548575E-01;  9.9999998E-03;  2.0007085E-02;7053; -2.1034174E-01;  0.0000000E+00; -1.6686657E-03;  9.9755420E+02;  1.3503839E-01; -2.0262720E+03;3;  1.5718309E+01;  0.0000000E+00;  7.6676297E-01;0;  8.5610271E-02;  2.1895801E+04;  0.0000000E+00;  1.2836878E-02;  4.0000000E+04;  0.0000000E+00;  3.9818293E+04;  1.9333169E-01;  0.0000000E+00; -1.0772142E-01;  3.1103901E+03;
  7.7547634E-01;  9.9999998E-03;  3.0012827E-02;7054; -2.1011922E-01;  0.0000000E+00; -2.4753546E-03;  9.9749329E+02;  1.3504033E-01; -2.0767385E+03;3;  1.5496145E+01;  0.0000000E+00;  1.1430460E+00;0;  9.1473527E-02;  2.1892895E+04;  0.0000000E+00;  2.9806804E-02;  4.0000000E+04;  0.0000000E+00;  3.9819766E+04;  1.9756024E-01;  0.0000000E+00; -1.0608671E-01;  3.3061433E+03;
  7.7546167E-01;  9.9999998E-03;  4.0022545E-02;7055; -2.0982015E-01;  0.0000000E+00; -3.2521831E-03;  9.9739899E+02;  1.3504347E-01; -2.1548584E+03;3;  1.5211727E+01;  0.0000000E+00;  1.5276269E+00;0;  9.9636644E-02;  2.1888818E+04;  0.0000000E+00;  5.4775186E-02;  4.0000000E+04;  0.0000000E+00;  3.9821676E+04;  2.0348485E-01;  0.0000000E+00; -1.0384820E-01;  3.5652937E+03;
  7.7542824E-01;  9.9999998E-03;  5.0032787E-02;7056; -2.0945650E-01;  0.0000000E+00; -3.9934479E-03;  9.9726709E+02;  1.3504471E-01; -2.2641370E+03;3;  1.4799601E+01;  0.0000000E+00;  1.8962319E+00;0;  1.0988214E-01;  2.1884082E+04;  0.0000000E+00;  8.7646253E-02;  4.0000000E+04;  0.0000000E+00;  3.9824086E+04;  2.1091418E-01;  0.0000000E+00; -1.0103204E-01;  3.8622017E+03;
  7.7536708E-01;  9.9999998E-03;  6.0041811E-02;7057; -2.0904215E-01;  0.0000000E+00; -4.6974956E-03;  9.9708710E+02;  1.3504177E-01; -2.4132161E+03;3;  1.4321142E+01;  0.0000000E+00;  2.2615345E+00;0;  1.2202416E-01;  2.1879264E+04;  0.0000000E+00;  1.2664425E-01;  4.0000000E+04;  0.0000000E+00;  3.9826098E+04;  2.1970947E-01;  0.0000000E+00; -9.7685307E-02;  4.1511030E+03;
  7.8907317E-01;  9.9999998E-03; -1.0001101E-01;7102; -2.0810381E-01;  0.0000000E+00;  8.0719907E-03;  1.0002690E+03;  1.3932313E-01;  2.2280295E+02;3;  1.1772797E+01;  0.0000000E+00; -4.6123629E+00;0;  4.4291452E-01;  2.0711688E+04;  0.0000000E+00; -6.1953813E-02;  4.0000000E+04;  0.0000000E+00;  3.9801730E+04;  5.4739195E-01;  0.0000000E+00; -1.0447743E-01;  3.4559263E+03;
  7.8903151E-01;  9.9999998E-03; -9.0005733E-02;7103; -2.0850678E-01;  0.0000000E+00;  7.4687633E-03;  1.0006154E+03;  1.3928626E-01;  5.0980002E+02;3;  1.2586308E+01;  0.0000000E+00; -4.1641350E+00;0;  4.1478851E-01;  2.0730498E+04;  0.0000000E+00; -3.4743793E-02;  4.0000000E+04;  0.0000000E+00;  3.9803914E+04;  5.2510875E-01;  0.0000000E+00; -1.1032024E-01;  3.6832061E+03;
  7.8898996E-01;  9.9999998E-03; -8.0016926E-02;7104; -2.0893581E-01;  0.0000000E+00;  6.8208380E-03;  1.0009267E+03;  1.3925323E-01;  7.6776172E+02;3;  1.3312429E+01;  0.0000000E+00; -3.7288382E+00;0;  3.8892585E-01;  2.0747895E+04;  0.0000000E+00; -2.0187385E-02;  4.0000000E+04;  0.0000000E+00;  3.9804172E+04;  5.0465441E-01;  0.0000000E+00; -1.1572855E-01;  3.6830112E+03;
  7.8903264E-01;  9.9999998E-03; -7.0035346E-02;7105; -2.0937224E-01;  0.0000000E+00;  6.1296900E-03;  1.0012360E+03;  1.3924596E-01;  1.0240442E+03;3;  1.3971621E+01;  0.0000000E+00; -3.2800519E+00;0;  3.6716723E-01;  2.0758818E+04;  0.0000000E+00; -1.5201896E-02;  4.0000000E+04;  0.0000000E+00;  3.9802672E+04;  4.8801762E-01;  0.0000000E+00; -1.2085039E-01;  3.4753442E+03;
  7.8907806E-01;  9.9999998E-03; -6.0050797E-02;7106; -2.0980150E-01;  0.0000000E+00;  5.3926297E-03;  1.0014987E+03;  1.3924232E-01;  1.2416129E+03;3;  1.4588562E+01;  0.0000000E+00; -2.8667824E+00;0;  3.4804320E-01;  2.0767865E+04;  0.0000000E+00; -1.3893082E-02;  4.0000000E+04;  0.0000000E+00;  3.9800004E+04;  4.7351286E-01;  0.0000000E+00; -1.2546964E-01;  3.1341509E+03;
  7.8910953E-01;  9.9999998E-03; -5.0055612E-02;7107; -2.1020539E-01;  0.0000000E+00;  4.6072034E-03;  1.0017125E+03;  1.3923761E-01;  1.4186899E+03;3;  1.5109200E+01;  0.0000000E+00; -2.4028182E+00;0;  3.3140159E-01;  2.0775803E+04;  0.0000000E+00; -1.2852902E-02;  4.0000000E+04;  0.0000000E+00;  3.9797039E+04;  4.6089423E-01;  0.0000000E+00; -1.2949263E-01;  2.7451292E+03;
  7.8913057E-01;  9.9999998E-03; -4.0050346E-02;7108; -2.1055746E-01;  0.0000000E+00;  3.7644694E-03;  1.0018812E+03;  1.3923207E-01;  1.5585343E+03;3;  1.5558575E+01;  0.0000000E+00; -1.9245238E+00;0;  3.1747633E-01;  2.0782596E+04;  0.0000000E+00; -1.0646622E-02;  4.0000000E+04;  0.0000000E+00;  3.9794312E+04;  4.5034415E-01;  0.0000000E+00; -1.3286780E-01;  2.3811833E+03;
  7.8915018E-01;  9.9999998E-03; -3.0036533E-02;7109; -2.1084711E-01;  0.0000000E+00;  2.8701434E-03;  1.0020096E+03;  1.3922797E-01;  1.6648990E+03;3;  1.5864466E+01;  0.0000000E+00; -1.4580486E+00;0;  3.0657357E-01;  2.0787598E+04;  0.0000000E+00; -7.3477393E-03;  4.0000000E+04;  0.0000000E+00;  3.9792066E+04;  4.4213626E-01;  0.0000000E+00; -1.3556269E-01;  2.0880562E+03;
  7.8916824E-01;  9.9999998E-03; -2.0020366E-02;7110; -2.1106112E-01;  0.0000000E+00;  1.9365327E-03;  1.0021019E+03;  1.3922708E-01;  1.7413394E+03;3;  1.6078220E+01;  0.0000000E+00; -9.7129416E-01;0;  2.9879189E-01;  2.0790885E+04;  0.0000000E+00; -3.7810768E-03;  4.0000000E+04;  0.0000000E+00;  3.9790527E+04;  4.3632251E-01;  0.0000000E+00; -1.3753064E-01;  1.8818477E+03;
  7.8918099E-01;  9.9999998E-03; -1.0008658E-02;7111; -2.1119119E-01;  0.0000000E+00;  9.7459642E-04;  1.0021607E+03;  1.3922589E-01;  1.7900281E+03;3;  1.6195131E+01;  0.0000000E+00; -4.9307212E-01;0;  2.9413289E-01;  2.0792764E+04;  0.0000000E+00; -1.0294344E-03;  4.0000000E+04;  0.0000000E+00;  3.9789457E+04;  4.3286142E-01;  0.0000000E+00; -1.3872851E-01;  1.7617551E+03;
  7.8918546E-01;  9.9999998E-03; -2.1049358E-09;7112; -2.1123515E-01;  0.0000000E+00; -5.1373910E-09;  1.0021780E+03;  1.3922565E-01;  1.8043484E+03;3;  1.6213903E+01;  0.0000000E+00; -7.9342477E-05;0;  2.9258108E-01;  2.0793334E+04;  0.0000000E+00;  7.9584866E-11;  4.0000000E+04;  0.0000000E+00;  3.9789121E+04;  4.3171164E-01;  0.0000000E+00; -1.3913055E-01;  1.7226051E+03;
  7.8918099E-01;  9.9999998E-03;  1.0008655E-02;7113; -2.1119119E-01;  0.0000000E+00; -9.7460358E-04;  1.0021607E+03;  1.3922603E-01;  1.7900281E+03;3;  1.6194786E+01;  0.0000000E+00;  4.9301755E-01;0;  2.9413354E-01;  2.0792773E+04;  0.0000000E+00; -1.0302946E-03;  4.0000000E+04;  0.0000000E+00;  3.9789457E+04;  4.3286207E-01;  0.0000000E+00; -1.3872853E-01;  1.7617488E+03;
  7.8916824E-01;  9.9999998E-03;  2.0020360E-02;7114; -2.1106111E-01;  0.0000000E+00; -1.9365380E-03;  1.0021018E+03;  1.3922675E-01;  1.7412406E+03;3;  1.6078150E+01;  0.0000000E+00;  9.7123134E-01;0;  2.9879153E-01;  2.0790881E+04;  0.0000000E+00; -3.7825257E-03;  4.0000000E+04;  0.0000000E+00;  3.9790523E+04;  4.3632221E-01;  0.0000000E+00; -1.3753067E-01;  1.8818458E+03;
  7.8915018E-01;  9.9999998E-03;  3.0036528E-02;7115; -2.1084711E-01;  0.0000000E+00; -2.8701539E-03;  1.0020095E+03;  1.3922796E-01;  1.6648002E+03;3;  1.5864404E+01;  0.0000000E+00;  1.4579417E+00;0;  3.0657387E-01;  2.0787598E+04;  0.0000000E+00; -7.3495843E-03;  4.0000000E+04;  0.0000000E+00;  3.9792066E+04;  4.4213659E-01;  0.0000000E+00; -1.3556270E-01;  2.0880823E+03;
  7.8913057E-01;  9.9999998E-03;  4.0050343E-02;7116; -2.1055742E-01;  0.0000000E+00; -3.7644734E-03;  1.0018812E+03;  1.3923183E-01;  1.5584355E+03;3;  1.5558458E+01;  0.0000000E+00;  1.9244465E+00;0;  3.1747624E-01;  2.0782600E+04;  0.0000000E+00; -1.0648485E-02;  4.0000000E+04;  0.0000000E+00;  3.9794312E+04;  4.5034409E-01;  0.0000000E+00; -1.3286784E-01;  2.3811904E+03;
  7.8910953E-01;  9.9999998E-03;  5.0055604E-02;7117; -2.1020538E-01;  0.0000000E+00; -4.6072048E-03;  1.0017123E+03;  1.3923746E-01;  1.4185911E+03;3;  1.5109132E+01;  0.0000000E+00;  2.4028141E+00;0;  3.3140188E-01;  2.0775803E+04;  0.0000000E+00; -1.2855645E-02;  4.0000000E+04;  0.0000000E+00;  3.9797039E+04;  4.6089450E-01;  0.0000000E+00; -1.2949260E-01;  2.7451355E+03;
  7.8907806E-01;  9.9999998E-03;  6.0050793E-02;7118; -2.0980147E-01;  0.0000000E+00; -5.3926250E-03;  1.0014988E+03;  1.3924238E-01;  1.2417117E+03;3;  1.4588553E+01;  0.0000000E+00;  2.8669121E+00;0;  3.4804320E-01;  2.0767863E+04;  0.0000000E+00; -1.3893683E-02;  4.0000000E+04;  0.0000000E+00;  3.9800008E+04;  4.7351277E-01;  0.0000000E+00; -1.2546955E-01;  3.1341763E+03;
  8.0338085E-01;  9.9999998E-03; -1.0009446E-01;7163; -2.0789988E-01;  0.0000000E+00;  9.3564838E-03;  1.0034981E+03;  1.4331751E-01;  2.8980015E+03;3;  1.1920046E+01;  0.0000000E+00; -5.5508232E+00;0;  7.7667212E-01;  1.9710016E+04;  0.0000000E+00; -3.2895407E-01;  4.0000000E+04;  0.0000000E+00;  3.9779246E+04;  9.1270322E-01;  0.0000000E+00; -1.3603112E-01;  2.9137981E+03;
  8.0336142E-01;  9.9999998E-03; -9.0102673E-02;7164; -2.0823410E-01;  0.0000000E+00;  8.7045711E-03;  1.0037838E+03;  1.4328751E-01;  3.1346294E+03;3;  1.2768116E+01;  0.0000000E+00; -5.0071959E+00;0;  7.4556845E-01;  1.9724176E+04;  0.0000000E+00; -2.8626555E-01;  4.0000000E+04;  0.0000000E+00;  3.9780070E+04;  8.8934278E-01;  0.0000000E+00; -1.4377432E-01;  2.9688877E+03;
  8.0334711E-01;  9.9999998E-03; -8.0126688E-02;7165; -2.0861565E-01;  0.0000000E+00;  8.0109881E-03;  1.0040419E+03;  1.4325748E-01;  3.3485427E+03;3;  1.3615089E+01;  0.0000000E+00; -4.5481200E+00;0;  7.1665680E-01;  1.9738197E+04;  0.0000000E+00; -2.4399336E-01;  4.0000000E+04;  0.0000000E+00;  3.9778824E+04;  8.6749917E-01;  0.0000000E+00; -1.5084234E-01;  2.7755022E+03;
  8.0334169E-01;  9.9999998E-03; -7.0150360E-02;7166; -2.0901965E-01;  0.0000000E+00;  7.2639026E-03;  1.0042652E+03;  1.4322919E-01;  3.5335195E+03;3;  1.4330473E+01;  0.0000000E+00; -4.0169721E+00;0;  6.9031513E-01;  1.9751320E+04;  0.0000000E+00; -2.0152172E-01;  4.0000000E+04;  0.0000000E+00;  3.9776223E+04;  8.4753805E-01;  0.0000000E+00; -1.5722294E-01;  2.3883662E+03;
  8.0332899E-01;  9.9999998E-03; -6.0158860E-02;7167; -2.0940697E-01;  0.0000000E+00;  6.4341957E-03;  1.0044473E+03;  1.4320096E-01;  3.6843254E+03;3;  1.4968502E+01;  0.0000000E+00; -3.4714661E+00;0;  6.6641718E-01;  1.9763555E+04;  0.0000000E+00; -1.5876515E-01;  4.0000000E+04;  0.0000000E+00;  3.9772656E+04;  8.2925594E-01;  0.0000000E+00; -1.6283877E-01;  1.9056031E+03;
  8.0327791E-01;  9.9999998E-03; -5.0141793E-02;7168; -2.0976309E-01;  0.0000000E+00;  5.5096550E-03;  1.0045875E+03;  1.4317147E-01;  3.8004666E+03;3;  1.5477200E+01;  0.0000000E+00; -2.9041302E+00;0;  6.4448762E-01;  1.9774871E+04;  0.0000000E+00; -1.1707404E-01;  4.0000000E+04;  0.0000000E+00;  3.9769086E+04;  8.1204426E-01;  0.0000000E+00; -1.6755666E-01;  1.4354172E+03;
  8.0322140E-01;  9.9999998E-03; -4.0105354E-02;7169; -2.1006845E-01;  0.0000000E+00;  4.5071249E-03;  1.0046926E+03;  1.4314476E-01;  3.8876716E+03;3;  1.5922423E+01;  0.0000000E+00; -2.3097787E+00;0;  6.2570286E-01;  1.9784506E+04;  0.0000000E+00; -7.8619204E-02;  4.0000000E+04;  0.0000000E+00;  3.9766305E+04;  7.9713231E-01;  0.0000000E+00; -1.7142946E-01;  1.0480619E+03;
  8.0317402E-01;  9.9999998E-03; -3.0073024E-02;7170; -2.1031453E-01;  0.0000000E+00;  3.4383053E-03;  1.0047762E+03;  1.4312343E-01;  3.9569021E+03;3;  1.6267778E+01;  0.0000000E+00; -1.7184553E+00;0;  6.1073512E-01;  1.9791961E+04;  0.0000000E+00; -4.5898367E-02;  4.0000000E+04;  0.0000000E+00;  3.9764184E+04;  7.8519619E-01;  0.0000000E+00; -1.7446105E-01;  7.6624030E+02;
  8.0314213E-01;  9.9999998E-03; -2.0043716E-02;7171; -2.1049361E-01;  0.0000000E+00;  2.3173331E-03;  1.0048343E+03;  1.4310838E-01;  4.0049980E+03;3;  1.6487101E+01;  0.0000000E+00; -1.1567407E+00;0;  5.9994543E-01;  1.9797029E+04;  0.0000000E+00; -2.0940375E-02;  4.0000000E+04;  0.0000000E+00;  3.9762906E+04;  7.7659428E-01;  0.0000000E+00; -1.7664883E-01;  5.8847504E+02;
  8.0312395E-01;  9.9999998E-03; -1.0019577E-02;7172; -2.1060115E-01;  0.0000000E+00;  1.1660024E-03;  1.0048721E+03;  1.4310008E-01;  4.0363049E+03;3;  1.6577412E+01;  0.0000000E+00; -5.6413525E-01;0;  5.9343684E-01;  1.9800012E+04;  0.0000000E+00; -5.3162239E-03;  4.0000000E+04;  0.0000000E+00;  3.9762234E+04;  7.7140713E-01;  0.0000000E+00; -1.7797032E-01;  4.9558228E+02;
  8.0311799E-01;  9.9999998E-03; -2.8998910E-09;7173; -2.1063739E-01;  0.0000000E+00; -7.3814466E-09;  1.0048837E+03;  1.4309706E-01;  4.0459832E+03;3;  1.6606451E+01;  0.0000000E+00; -9.6903808E-05;0;  5.9126240E-01;  1.9801045E+04;  0.0000000E+00;  8.1814104E-11;  4.0000000E+04;  0.0000000E+00;  3.9761980E+04;  7.6967454E-01;  0.0000000E+00; -1.7841214E-01;  4.6743466E+02;
  8.0312395E-01;  9.9999998E-03;  1.0019572E-02;7174; -2.1060115E-01;  0.0000000E+00; -1.1660095E-03;  1.0048721E+03;  1.4309977E-01;  4.0363049E+03;3;  1.6577421E+01;  0.0000000E+00;  5.6407243E-01;0;  5.9343719E-01;  1.9800014E+04;  0.0000000E+00; -5.3161862E-03;  4.0000000E+04;  0.0000000E+00;  3.9762238E+04;  7.7140743E-01;  0.0000000E+00; -1.7797020E-01;  4.9558694E+02;
  8.0314213E-01;  9.9999998E-03;  2.0043710E-02;7175; -2.1049359E-01;  0.0000000E+00; -2.3173476E-03;  1.0048344E+03;  1.4310864E-01;  4.0050967E+03;3;  1.6486996E+01;  0.0000000E+00;  1.1566565E+00;0;  5.9994525E-01;  1.9797027E+04;  0.0000000E+00; -2.0940643E-02;  4.0000000E+04;  0.0000000E+00;  3.9762910E+04;  7.7659398E-01;  0.0000000E+00; -1.7664875E-01;  5.8848932E+02;
  8.0317402E-01;  9.9999998E-03;  3.0073021E-02;7176; -2.1031451E-01;  0.0000000E+00; -3.4383121E-03;  1.0047764E+03;  1.4312337E-01;  3.9570007E+03;3;  1.6267742E+01;  0.0000000E+00;  1.7183707E+00;0;  6.1073470E-01;  1.9791961E+04;  0.0000000E+00; -4.5898855E-02;  4.0000000E+04;  0.0000000E+00;  3.9764184E+04;  7.8519571E-01;  0.0000000E+00; -1.7446099E-01;  7.6622778E+02;
  8.0322140E-01;  9.9999998E-03;  4.0105350E-02;7177; -2.1006842E-01;  0.0000000E+00; -4.5071277E-03;  1.0046925E+03;  1.4314525E-01;  3.8875728E+03;3;  1.5922339E+01;  0.0000000E+00;  2.3097296E+00;0;  6.2570280E-01;  1.9784508E+04;  0.0000000E+00; -7.8619398E-02;  4.0000000E+04;  0.0000000E+00;  3.9766305E+04;  7.9713243E-01;  0.0000000E+00; -1.7142965E-01;  1.0480675E+03;
  8.0327791E-01;  9.9999998E-03;  5.0141785E-02;7178; -2.0976308E-01;  0.0000000E+00; -5.5096643E-03;  1.0045875E+03;  1.4317159E-01;  3.8005654E+03;3;  1.5477163E+01;  0.0000000E+00;  2.9041526E+00;0;  6.4448798E-01;  1.9774867E+04;  0.0000000E+00; -1.1707198E-01;  4.0000000E+04;  0.0000000E+00;  3.9769078E+04;  8.1204462E-01;  0.0000000E+00; -1.6755661E-01;  1.4354453E+03;
  8.0332899E-01;  9.9999998E-03;  6.0158852E-02;7179; -2.0940693E-01;  0.0000000E+00; -6.4342055E-03;  1.0044471E+03;  1.4320111E-01;  3.6842266E+03;3;  1.4968493E+01;  0.0000000E+00;  3.4714818E+00;0;  6.6641742E-01;  1.9763551E+04;  0.0000000E+00; -1.5876381E-01;  4.0000000E+04;  0.0000000E+00;  3.9772656E+04;  8.2925594E-01;  0.0000000E+00; -1.6283853E-01;  1.9056228E+03;
  8.1773943E-01;  9.9999998E-03; -1.0028327E-01;7224; -2.0623675E-01;  0.0000000E+00;  1.1584547E-02;  1.0038275E+03;  1.4655404E-01;  3.1709492E+03;3;  1.2832037E+01;  0.0000000E+00; -5.9946575E+00;0;  1.1820797E+00;  1.8874328E+04;  0.0000000E+00; -5.3453803E-01;  4.0000000E+04;  0.0000000E+00;  3.9758711E+04;  1.3568407E+00;  0.0000000E+00; -1.7476106E-01;  2.6170928E+03;
  8.1771034E-01;  9.9999998E-03; -9.0319388E-02;7225; -2.0658591E-01;  0.0000000E+00;  1.0920610E-02;  1.0039198E+03;  1.4653423E-01;  3.2473887E+03;3;  1.3688566E+01;  0.0000000E+00; -5.4316478E+00;0;  1.1537147E+00;  1.8880334E+04;  0.0000000E+00; -4.8620710E-01;  4.0000000E+04;  0.0000000E+00;  3.9757637E+04;  1.3385689E+00;  0.0000000E+00; -1.8485428E-01;  2.4270647E+03;
  8.1771034E-01;  9.9999998E-03; -8.0350623E-02;7226; -2.0691852E-01;  0.0000000E+00;  1.0117244E-02;  1.0040025E+03;  1.4652048E-01;  3.3158286E+03;3;  1.4426761E+01;  0.0000000E+00; -4.9444275E+00;0;  1.1272613E+00;  1.8885232E+04;  0.0000000E+00; -4.2733374E-01;  4.0000000E+04;  0.0000000E+00;  3.9754664E+04;  1.3212763E+00;  0.0000000E+00; -1.9401501E-01;  2.0263872E+03;
  8.1772858E-01;  9.9999998E-03; -7.0375144E-02;7227; -2.0722264E-01;  0.0000000E+00;  9.1949115E-03;  1.0040746E+03;  1.4651138E-01;  3.3755776E+03;3;  1.5223647E+01;  0.0000000E+00; -4.3919001E+00;0;  1.1028059E+00;  1.8889117E+04;  0.0000000E+00; -3.5931057E-01;  4.0000000E+04;  0.0000000E+00;  3.9750574E+04;  1.3050091E+00;  0.0000000E+00; -2.0220330E-01;  1.5007639E+03;
  8.1754738E-01;  9.9999998E-03; -6.0359456E-02;7228; -2.0754744E-01;  0.0000000E+00;  8.1120869E-03;  1.0041358E+03;  1.4646566E-01;  3.4263398E+03;3;  1.5768224E+01;  0.0000000E+00; -3.7764103E+00;0;  1.0738230E+00;  1.8902107E+04;  0.0000000E+00; -2.8345451E-01;  4.0000000E+04;  0.0000000E+00;  3.9746586E+04;  1.2824872E+00;  0.0000000E+00; -2.0866419E-01;  9.8614874E+02;
  8.1733388E-01;  9.9999998E-03; -5.0280828E-02;7229; -2.0783480E-01;  0.0000000E+00;  6.9140061E-03;  1.0041817E+03;  1.4641519E-01;  3.4643628E+03;3;  1.6242315E+01;  0.0000000E+00; -3.2097356E+00;0;  1.0460480E+00;  1.8915600E+04;  0.0000000E+00; -2.0702128E-01;  4.0000000E+04;  0.0000000E+00;  3.9743273E+04;  1.2599839E+00;  0.0000000E+00; -2.1393585E-01;  6.0149091E+02;
  8.1713748E-01;  9.9999998E-03; -4.0204793E-02;7230; -2.0806728E-01;  0.0000000E+00;  5.6307870E-03;  1.0042198E+03;  1.4636891E-01;  3.4959661E+03;3;  1.6714743E+01;  0.0000000E+00; -2.5385959E+00;0;  1.0217564E+00;  1.8927457E+04;  0.0000000E+00; -1.3736176E-01;  4.0000000E+04;  0.0000000E+00;  3.9740895E+04;  1.2399051E+00;  0.0000000E+00; -2.1814875E-01;  4.2935001E+02;
  8.1697720E-01;  9.9999998E-03; -3.0143268E-02;7231; -2.0824662E-01;  0.0000000E+00;  4.2808466E-03;  1.0042517E+03;  1.4633086E-01;  3.5223350E+03;3;  1.7034975E+01;  0.0000000E+00; -1.9505630E+00;0;  1.0020722E+00;  1.8936924E+04;  0.0000000E+00; -7.9259679E-02;  4.0000000E+04;  0.0000000E+00;  3.9739574E+04;  1.2234508E+00;  0.0000000E+00; -2.2137858E-01;  4.3417929E+02;
  8.1686187E-01;  9.9999998E-03; -2.0091105E-02;7232; -2.0836815E-01;  0.0000000E+00;  2.8834590E-03;  1.0042774E+03;  1.4630409E-01;  3.5435681E+03;3;  1.7282988E+01;  0.0000000E+00; -1.3413262E+00;0;  9.8768330E-01;  1.8943646E+04;  0.0000000E+00; -3.5820883E-02;  4.0000000E+04;  0.0000000E+00;  3.9738879E+04;  1.2113568E+00;  0.0000000E+00; -2.2367343E-01;  4.7781046E+02;
  8.1679195E-01;  9.9999998E-03; -1.0043963E-02;7233; -2.0843588E-01;  0.0000000E+00;  1.4519496E-03;  1.0042931E+03;  1.4628762E-01;  3.5566047E+03;3;  1.7493299E+01;  0.0000000E+00; -6.8396413E-01;0;  9.7890067E-01;  1.8947621E+04;  0.0000000E+00; -9.0378914E-03;  4.0000000E+04;  0.0000000E+00;  3.9738621E+04;  1.2039446E+00;  0.0000000E+00; -2.2504386E-01;  5.0488513E+02;
  8.1676883E-01;  9.9999998E-03; -2.0712845E-09;7234; -2.0845786E-01;  0.0000000E+00; -1.3701646E-08;  1.0042972E+03;  1.4628170E-01;  3.5599626E+03;3;  1.7595760E+01;  0.0000000E+00; -8.3811639E-05;0;  9.7596037E-01;  1.8948982E+04;  0.0000000E+00;  6.5690182E-11;  4.0000000E+04;  0.0000000E+00;  3.9738637E+04;  1.2014607E+00;  0.0000000E+00; -2.2550032E-01;  5.1316229E+02;
  8.1679195E-01;  9.9999998E-03;  1.0043959E-02;7235; -2.0843588E-01;  0.0000000E+00; -1.4519754E-03;  1.0042932E+03;  1.4628731E-01;  3.5567036E+03;3;  1.7493332E+01;  0.0000000E+00;  6.8379998E-01;0;  9.7890145E-01;  1.8947619E+04;  0.0000000E+00; -9.0375030E-03;  4.0000000E+04;  0.0000000E+00;  3.9738621E+04;  1.2039450E+00;  0.0000000E+00; -2.2504361E-01;  5.0487747E+02;
  8.1686187E-01;  9.9999998E-03;  2.0091102E-02;7236; -2.0836815E-01;  0.0000000E+00; -2.8834860E-03;  1.0042774E+03;  1.4630409E-01;  3.5435681E+03;3;  1.7283075E+01;  0.0000000E+00;  1.3412272E+00;0;  9.8768151E-01;  1.8943645E+04;  0.0000000E+00; -3.5819586E-02;  4.0000000E+04;  0.0000000E+00;  3.9738879E+04;  1.2113550E+00;  0.0000000E+00; -2.2367349E-01;  4.7781931E+02;
  8.1697720E-01;  9.9999998E-03;  3.0143267E-02;7237; -2.0824660E-01;  0.0000000E+00; -4.2808726E-03;  1.0042518E+03;  1.4633101E-01;  3.5224336E+03;3;  1.7034975E+01;  0.0000000E+00;  1.9504424E+00;0;  1.0020720E+00;  1.8936920E+04;  0.0000000E+00; -7.9258047E-02;  4.0000000E+04;  0.0000000E+00;  3.9739570E+04;  1.2234509E+00;  0.0000000E+00; -2.2137891E-01;  4.3418481E+02;
  8.1713748E-01;  9.9999998E-03;  4.0204789E-02;7238; -2.0806727E-01;  0.0000000E+00; -5.6308121E-03;  1.0042198E+03;  1.4636874E-01;  3.4958672E+03;3;  1.6714870E+01;  0.0000000E+00;  2.5384927E+00;0;  1.0217552E+00;  1.8927453E+04;  0.0000000E+00; -1.3735858E-01;  4.0000000E+04;  0.0000000E+00;  3.9740895E+04;  1.2399039E+00;  0.0000000E+00; -2.1814866E-01;  4.2934024E+02;
  8.1733388E-01;  9.9999998E-03;  5.0280824E-02;7239; -2.0783475E-01;  0.0000000E+00; -6.9140233E-03;  1.0041818E+03;  1.4641497E-01;  3.4643628E+03;3;  1.6242197E+01;  0.0000000E+00;  3.2097883E+00;0;  1.0460485E+00;  1.8915598E+04;  0.0000000E+00; -2.0701928E-01;  4.0000000E+04;  0.0000000E+00;  3.9743273E+04;  1.2599841E+00;  0.0000000E+00; -2.1393564E-01;  6.0149677E+02;
  8.1754738E-01;  9.9999998E-03;  6.0359452E-02;7240; -2.0754741E-01;  0.0000000E+00; -8.1120897E-03;  1.0041357E+03;  1.4646544E-01;  3.4262412E+03;3;  1.5768330E+01;  0.0000000E+00;  3.7765324E+00;0;  1.0738225E+00;  1.8902113E+04;  0.0000000E+00; -2.8345048E-01;  4.0000000E+04;  0.0000000E+00;  3.9746590E+04;  1.2824866E+00;  0.0000000E+00; -2.0866404E-01;  9.8615216E+02;
  8.3087856E-01;  9.9999998E-03; -2.2005537E-09;7295; -2.0351812E-01;  0.0000000E+00; -2.0604517E-08;  1.0004886E+03;  1.4869769E-01;  4.0480914E+02;3;  2.0306099E+01;  0.0000000E+00; -6.0761246E-05;0;  1.4732000E+00;  1.8231221E+04;  0.0000000E+00;  3.3474536E-11;  4.0000000E+04;  0.0000000E+00;  3.9720688E+04;  1.7546953E+00;  0.0000000E+00; -2.8149530E-01;  1.0335425E+03;
  8.3088660E-01;  9.9999998E-03; -1.0047062E-02;7294; -2.0349392E-01;  0.0000000E+00;  1.9434594E-03;  1.0004904E+03;  1.4870036E-01;  4.0629053E+02;3;  2.0340815E+01;  0.0000000E+00; -4.0058866E-01;0;  1.4754703E+00;  1.8230988E+04;  0.0000000E+00; -1.1720575E-02;  4.0000000E+04;  0.0000000E+00;  3.9720707E+04;  1.7563533E+00;  0.0000000E+00; -2.8088298E-01;  1.0470607E+03;
  8.3088660E-01;  9.9999998E-03;  1.0047060E-02;7296; -2.0349391E-01;  0.0000000E+00; -1.9434992E-03;  1.0004905E+03;  1.4870052E-01;  4.0638928E+02;3;  2.0340830E+01;  0.0000000E+00;  4.0048856E-01;0;  1.4754703E+00;  1.8230992E+04;  0.0000000E+00; -1.1719944E-02;  4.0000000E+04;  0.0000000E+00;  3.9720707E+04;  1.7563531E+00;  0.0000000E+00; -2.8088287E-01;  1.0470753E+03;
  8.3091241E-01;  9.9999998E-03; -2.0094210E-02;7293; -2.0342296E-01;  0.0000000E+00;  3.8721738E-03;  1.0005008E+03;  1.4870609E-01;  4.1488248E+02;3;  2.0398401E+01;  0.0000000E+00; -9.1425079E-01;0;  1.4822299E+00;  1.8230375E+04;  0.0000000E+00; -4.6500403E-02;  4.0000000E+04;  0.0000000E+00;  3.9720426E+04;  1.7612790E+00;  0.0000000E+00; -2.7904904E-01;  1.0809302E+03;
  8.3091241E-01;  9.9999998E-03;  2.0094208E-02;7297; -2.0342295E-01;  0.0000000E+00; -3.8722113E-03;  1.0005010E+03;  1.4870663E-01;  4.1498123E+02;3;  2.0398407E+01;  0.0000000E+00;  9.1421568E-01;0;  1.4822302E+00;  1.8230375E+04;  0.0000000E+00; -4.6498701E-02;  4.0000000E+04;  0.0000000E+00;  3.9720426E+04;  1.7612789E+00;  0.0000000E+00; -2.7904874E-01;  1.0809227E+03;
  8.3096236E-01;  9.9999998E-03; -3.0144189E-02;7292; -2.0329241E-01;  0.0000000E+00;  5.7842601E-03;  1.0005173E+03;  1.4871727E-01;  4.2851108E+02;3;  2.0385197E+01;  0.0000000E+00; -1.3500725E+00;0;  1.4933903E+00;  1.8229016E+04;  0.0000000E+00; -1.0302038E-01;  4.0000000E+04;  0.0000000E+00;  3.9720363E+04;  1.7693942E+00;  0.0000000E+00; -2.7600387E-01;  1.1150682E+03;
  8.3096236E-01;  9.9999998E-03;  3.0144189E-02;7298; -2.0329241E-01;  0.0000000E+00; -5.7842918E-03;  1.0005172E+03;  1.4871748E-01;  4.2851108E+02;3;  2.0385294E+01;  0.0000000E+00;  1.3499804E+00;0;  1.4933906E+00;  1.8229016E+04;  0.0000000E+00; -1.0301840E-01;  4.0000000E+04;  0.0000000E+00;  3.9720359E+04;  1.7693943E+00;  0.0000000E+00; -2.7600378E-01;  1.1150714E+03;
  8.3104670E-01;  9.9999998E-03; -4.0203758E-02;7291; -2.0308921E-01;  0.0000000E+00;  7.6592597E-03;  1.0005467E+03;  1.4873374E-01;  4.5290427E+02;3;  2.0347782E+01;  0.0000000E+00; -1.7694346E+00;0;  1.5088077E+00;  1.8226572E+04;  0.0000000E+00; -1.7870378E-01;  4.0000000E+04;  0.0000000E+00;  3.9720930E+04;  1.7805707E+00;  0.0000000E+00; -2.7176315E-01;  1.1255148E+03;
  8.3104670E-01;  9.9999998E-03;  4.0203758E-02;7299; -2.0308916E-01;  0.0000000E+00; -7.6592881E-03;  1.0005468E+03;  1.4873384E-01;  4.5300302E+02;3;  2.0347795E+01;  0.0000000E+00;  1.7693570E+00;0;  1.5088079E+00;  1.8226564E+04;  0.0000000E+00; -1.7870079E-01;  4.0000000E+04;  0.0000000E+00;  3.9720930E+04;  1.7805710E+00;  0.0000000E+00; -2.7176303E-01;  1.1254969E+03;
  8.3116496E-01;  9.9999998E-03; -5.0281141E-02;7290; -2.0278828E-01;  0.0000000E+00;  9.4913915E-03;  1.0005853E+03;  1.4875509E-01;  4.8490182E+02;3;  2.0261089E+01;  0.0000000E+00; -2.0891185E+00;0;  1.5277759E+00;  1.8222932E+04;  0.0000000E+00; -2.6933184E-01;  4.0000000E+04;  0.0000000E+00;  3.9722527E+04;  1.7940593E+00;  0.0000000E+00; -2.6628342E-01;  1.1152101E+03;
  8.3116496E-01;  9.9999998E-03;  5.0281137E-02;7300; -2.0278825E-01;  0.0000000E+00; -9.4914213E-03;  1.0005855E+03;  1.4875545E-01;  4.8509937E+02;3;  2.0261175E+01;  0.0000000E+00;  2.0890837E+00;0;  1.5277760E+00;  1.8222932E+04;  0.0000000E+00; -2.6932594E-01;  4.0000000E+04;  0.0000000E+00;  3.9722531E+04;  1.7940595E+00;  0.0000000E+00; -2.6628357E-01;  1.1151746E+03;
  8.3133101E-01;  9.9999998E-03; -6.0380690E-02;7289; -2.0232826E-01;  0.0000000E+00;  1.1303060E-02;  1.0006338E+03;  1.4878257E-01;  5.2509625E+02;3;  2.0318546E+01;  0.0000000E+00; -2.2465725E+00;0;  1.5500003E+00;  1.8217736E+04;  0.0000000E+00; -3.6877775E-01;  4.0000000E+04;  0.0000000E+00;  3.9725523E+04;  1.8095676E+00;  0.0000000E+00; -2.5956723E-01;  1.1617539E+03;
  8.3133101E-01;  9.9999998E-03;  6.0380686E-02;7301; -2.0232823E-01;  0.0000000E+00; -1.1303077E-02;  1.0006340E+03;  1.4878285E-01;  5.2519501E+02;3;  2.0318592E+01;  0.0000000E+00;  2.2465549E+00;0;  1.5500010E+00;  1.8217736E+04;  0.0000000E+00; -3.6876991E-01;  4.0000000E+04;  0.0000000E+00;  3.9725520E+04;  1.8095682E+00;  0.0000000E+00; -2.5956714E-01;  1.1617318E+03;
  8.3153349E-01;  9.9999998E-03; -7.0470631E-02;7288; -2.0171700E-01;  0.0000000E+00;  1.3099595E-02;  1.0006972E+03;  1.4881466E-01;  5.7763550E+02;3;  2.0318375E+01;  0.0000000E+00; -2.4336092E+00;0;  1.5741122E+00;  1.8211428E+04;  0.0000000E+00; -4.6838367E-01;  4.0000000E+04;  0.0000000E+00;  3.9729598E+04;  1.8256520E+00;  0.0000000E+00; -2.5153977E-01;  1.3860344E+03;
  8.3174759E-01;  9.9999998E-03; -8.0474392E-02;7287; -2.0096691E-01;  0.0000000E+00;  1.4862465E-02;  1.0007744E+03;  1.4884816E-01;  6.4153180E+02;3;  2.0131680E+01;  0.0000000E+00; -2.6651375E+00;0;  1.5982265E+00;  1.8204986E+04;  0.0000000E+00; -5.5766207E-01;  4.0000000E+04;  0.0000000E+00;  3.9734215E+04;  1.8403739E+00;  0.0000000E+00; -2.4214728E-01;  1.7890276E+03;
  8.3199245E-01;  9.9999998E-03; -9.0451777E-02;7286; -2.0007366E-01;  0.0000000E+00;  1.6544906E-02;  1.0008579E+03;  1.4888392E-01;  7.1076099E+02;3;  1.9714924E+01;  0.0000000E+00; -3.1930504E+00;0;  1.6224008E+00;  1.8198322E+04;  0.0000000E+00; -6.3005078E-01;  4.0000000E+04;  0.0000000E+00;  3.9738461E+04;  1.8537796E+00;  0.0000000E+00; -2.3137876E-01;  2.2273804E+03;
  8.3225346E-01;  9.9999998E-03; -1.0040560E-01;7285; -1.9909412E-01;  0.0000000E+00;  1.8081518E-02;  1.0009626E+03;  1.4892006E-01;  7.9747034E+02;3;  1.9072124E+01;  0.0000000E+00; -3.8110964E+00;0;  1.6455344E+00;  1.8192484E+04;  0.0000000E+00; -6.8048018E-01;  4.0000000E+04;  0.0000000E+00;  3.9741340E+04;  1.8646785E+00;  0.0000000E+00; -2.1914406E-01;  2.5525576E+03;
  8.4676635E-01;  9.9999998E-03; -1.6574085E-09;7356; -1.9351833E-01;  0.0000000E+00; -2.9258048E-08;  9.9423315E+02;  1.5040067E-01; -4.7774585E+03;3;  2.7872921E+01;  0.0000000E+00; -3.7216450E-05;0;  2.1474032E+00;  1.7638287E+04;  0.0000000E+00;  3.0209392E-12;  4.0000000E+04;  0.0000000E+00;  3.9708367E+04;  2.4956110E+00;  0.0000000E+00; -3.4820774E-01;  1.0732991E+03;
  8.4675306E-01;  9.9999998E-03; -1.0037082E-02;7355; -1.9341189E-01;  0.0000000E+00;  3.0172630E-03;  9.9425134E+02;  1.5039976E-01; -4.7623491E+03;3;  2.7938612E+01;  0.0000000E+00; -7.2293051E-02;0;  2.1477263E+00;  1.7639107E+04;  0.0000000E+00; -1.2699068E-02;  4.0000000E+04;  0.0000000E+00;  3.9708066E+04;  2.4950967E+00;  0.0000000E+00; -3.4737030E-01;  1.1099547E+03;
  8.4675306E-01;  9.9999998E-03;  1.0037079E-02;7357; -1.9341187E-01;  0.0000000E+00; -3.0173201E-03;  9.9425146E+02;  1.5039989E-01; -4.7622505E+03;3;  2.7938610E+01;  0.0000000E+00;  7.2220258E-02;0;  2.1477280E+00;  1.7639107E+04;  0.0000000E+00; -1.2698350E-02;  4.0000000E+04;  0.0000000E+00;  3.9708066E+04;  2.4950984E+00;  0.0000000E+00; -3.4737042E-01;  1.1099639E+03;
  8.4671628E-01;  9.9999998E-03; -2.0073930E-02;7354; -1.9307148E-01;  0.0000000E+00;  6.0596047E-03;  9.9431030E+02;  1.5039830E-01; -4.7135137E+03;3;  2.8381779E+01;  0.0000000E+00; -1.3406423E-01;0;  2.1486838E+00;  1.7641400E+04;  0.0000000E+00; -5.0459702E-02;  4.0000000E+04;  0.0000000E+00;  3.9707402E+04;  2.4935470E+00;  0.0000000E+00; -3.4486312E-01;  1.2123364E+03;
  8.4671628E-01;  9.9999998E-03;  2.0073930E-02;7358; -1.9307148E-01;  0.0000000E+00; -6.0596555E-03;  9.9431030E+02;  1.5039854E-01; -4.7135137E+03;3;  2.8381826E+01;  0.0000000E+00;  1.3400029E-01;0;  2.1486869E+00;  1.7641398E+04;  0.0000000E+00; -5.0457984E-02;  4.0000000E+04;  0.0000000E+00;  3.9707402E+04;  2.4935498E+00;  0.0000000E+00; -3.4486300E-01;  1.2123563E+03;
  8.4666634E-01;  9.9999998E-03; -3.0112417E-02;7353; -1.9247405E-01;  0.0000000E+00;  9.0989070E-03;  9.9440839E+02;  1.5039600E-01; -4.6322861E+03;3;  2.8779528E+01;  0.0000000E+00; -1.5647176E-01;0;  2.1502955E+00;  1.7645016E+04;  0.0000000E+00; -1.1211088E-01;  4.0000000E+04;  0.0000000E+00;  3.9706609E+04;  2.4909995E+00;  0.0000000E+00; -3.4070393E-01;  1.3539419E+03;
  8.4666634E-01;  9.9999998E-03;  3.0112417E-02;7359; -1.9247408E-01;  0.0000000E+00; -9.0989508E-03;  9.9440820E+02;  1.5039578E-01; -4.6324346E+03;3;  2.8779528E+01;  0.0000000E+00;  1.5640052E-01;0;  2.1502936E+00;  1.7645018E+04;  0.0000000E+00; -1.1210808E-01;  4.0000000E+04;  0.0000000E+00;  3.9706617E+04;  2.4909976E+00;  0.0000000E+00; -3.4070405E-01;  1.3539348E+03;
  8.4661865E-01;  9.9999998E-03; -4.0158045E-02;7352; -1.9154344E-01;  0.0000000E+00;  1.2146349E-02;  9.9454565E+02;  1.5039429E-01; -4.5185684E+03;3;  2.9155075E+01;  0.0000000E+00; -2.2169772E-01;0;  2.1525378E+00;  1.7649439E+04;  0.0000000E+00; -1.9516310E-01;  4.0000000E+04;  0.0000000E+00;  3.9706215E+04;  2.4874530E+00;  0.0000000E+00; -3.3491516E-01;  1.4896581E+03;
  8.4661865E-01;  9.9999998E-03;  4.0158045E-02;7360; -1.9154342E-01;  0.0000000E+00; -1.2146388E-02;  9.9454559E+02;  1.5039428E-01; -4.5186182E+03;3;  2.9155140E+01;  0.0000000E+00;  2.2164236E-01;0;  2.1525378E+00;  1.7649439E+04;  0.0000000E+00; -1.9516073E-01;  4.0000000E+04;  0.0000000E+00;  3.9706207E+04;  2.4874530E+00;  0.0000000E+00; -3.3491522E-01;  1.4896780E+03;
  8.4658843E-01;  9.9999998E-03; -5.0219219E-02;7351; -1.9026780E-01;  0.0000000E+00;  1.5211181E-02;  9.9472443E+02;  1.5039323E-01; -4.3704336E+03;3;  2.9525858E+01;  0.0000000E+00; -5.1426405E-01;0;  2.1551507E+00;  1.7654377E+04;  0.0000000E+00; -2.9515430E-01;  4.0000000E+04;  0.0000000E+00;  3.9706734E+04;  2.4826455E+00;  0.0000000E+00; -3.2749480E-01;  1.5742018E+03;
  8.4658843E-01;  9.9999998E-03;  5.0219219E-02;7361; -1.9026783E-01;  0.0000000E+00; -1.5211207E-02;  9.9472412E+02;  1.5039361E-01; -4.3707295E+03;3;  2.9525898E+01;  0.0000000E+00;  5.1424217E-01;0;  2.1551526E+00;  1.7654373E+04;  0.0000000E+00; -2.9515004E-01;  4.0000000E+04;  0.0000000E+00;  3.9706738E+04;  2.4826477E+00;  0.0000000E+00; -3.2749507E-01;  1.5742090E+03;
  8.4658808E-01;  9.9999998E-03; -6.0304433E-02;7350; -1.8866764E-01;  0.0000000E+00;  1.8283049E-02;  9.9494745E+02;  1.5039447E-01; -4.1857090E+03;3;  2.9805502E+01;  0.0000000E+00; -8.4042442E-01;0;  2.1575708E+00;  1.7659500E+04;  0.0000000E+00; -4.0505838E-01;  4.0000000E+04;  0.0000000E+00;  3.9708883E+04;  2.4759812E+00;  0.0000000E+00; -3.1841034E-01;  1.6004501E+03;
  8.4658808E-01;  9.9999998E-03;  6.0304429E-02;7362; -1.8866761E-01;  0.0000000E+00; -1.8283073E-02;  9.9494733E+02;  1.5039466E-01; -4.1858076E+03;3;  2.9805588E+01;  0.0000000E+00;  8.4042162E-01;0;  2.1575716E+00;  1.7659504E+04;  0.0000000E+00; -4.0505457E-01;  4.0000000E+04;  0.0000000E+00;  3.9708883E+04;  2.4759820E+00;  0.0000000E+00; -3.1841031E-01;  1.6004164E+03;
  8.4663218E-01;  9.9999998E-03; -7.0411891E-02;7349; -1.8664987E-01;  0.0000000E+00;  2.1408081E-02;  9.9521002E+02;  1.5039834E-01; -3.9681475E+03;3;  3.0143538E+01;  0.0000000E+00; -9.5402336E-01;0;  2.1592758E+00;  1.7664639E+04;  0.0000000E+00; -5.1515150E-01;  4.0000000E+04;  0.0000000E+00;  3.9712559E+04;  2.4669063E+00;  0.0000000E+00; -3.0763057E-01;  1.6410509E+03;
  8.4671718E-01;  9.9999998E-03; -8.0481902E-02;7348; -1.8411705E-01;  0.0000000E+00;  2.4575528E-02;  9.9550909E+02;  1.5040383E-01; -3.7204155E+03;3;  3.0442947E+01;  0.0000000E+00; -1.1146972E+00;0;  2.1590538E+00;  1.7669770E+04;  0.0000000E+00; -6.1363560E-01;  4.0000000E+04;  0.0000000E+00;  3.9717566E+04;  2.4541857E+00;  0.0000000E+00; -2.9513204E-01;  1.8137380E+03;
  8.4684467E-01;  9.9999998E-03; -9.0527527E-02;7347; -1.8098158E-01;  0.0000000E+00;  2.7750000E-02;  9.9584607E+02;  1.5041195E-01; -3.4412297E+03;3;  3.0566620E+01;  0.0000000E+00; -1.5863005E+00;0;  2.1560800E+00;  1.7675307E+04;  0.0000000E+00; -6.8921888E-01;  4.0000000E+04;  0.0000000E+00;  3.9722918E+04;  2.4369278E+00;  0.0000000E+00; -2.8084782E-01;  2.1343083E+03;
  8.4701693E-01;  9.9999998E-03; -1.0055551E-01;7346; -1.7722665E-01;  0.0000000E+00;  3.0949350E-02;  9.9620740E+02;  1.5042238E-01; -3.1418975E+03;3;  3.0357321E+01;  0.0000000E+00; -2.0807533E+00;0;  2.1497791E+00;  1.7681402E+04;  0.0000000E+00; -7.3264933E-01;  4.0000000E+04;  0.0000000E+00;  3.9727723E+04;  2.4144855E+00;  0.0000000E+00; -2.6470628E-01;  2.4786567E+03;
  8.6276376E-01;  9.9999998E-03; -1.0026853E-02;7416; -1.2843153E-01;  0.0000000E+00;  5.2910810E-03;  9.8854340E+02;  1.5136617E-01; -9.4908691E+03;3;  4.2601552E+00;  0.0000000E+00; -1.1725273E+00;0;  2.9325831E+00;  1.7248416E+04;  0.0000000E+00; -1.0749022E-02;  4.0000000E+04;  0.0000000E+00;  3.9699934E+04;  3.3410218E+00;  0.0000000E+00; -4.0843877E-01;  1.0519392E+03;
  8.6277431E-01;  9.9999998E-03; -1.0149193E-09;7417; -1.2855816E-01;  0.0000000E+00; -2.8067426E-08;  9.8852209E+02;  1.5136716E-01; -9.5084971E+03;3;  4.0992737E+00;  0.0000000E+00; -2.7170061E-05;0;  2.9341788E+00;  1.7247664E+04;  0.0000000E+00; -2.7530274E-12;  4.0000000E+04;  0.0000000E+00;  3.9700297E+04;  3.3435760E+00;  0.0000000E+00; -4.0939724E-01;  9.9918237E+02;
  8.6276376E-01;  9.9999998E-03;  1.0026851E-02;7418; -1.2843180E-01;  0.0000000E+00; -5.2911374E-03;  9.8854315E+02;  1.5136635E-01; -9.4910674E+03;3;  4.2602215E+00;  0.0000000E+00;  1.1724478E+00;0;  2.9325826E+00;  1.7248414E+04;  0.0000000E+00; -1.0748150E-02;  4.0000000E+04;  0.0000000E+00;  3.9699938E+04;  3.3410215E+00;  0.0000000E+00; -4.0843886E-01;  1.0519304E+03;
  8.6273420E-01;  9.9999998E-03; -2.0052571E-02;7415; -1.2803993E-01;  0.0000000E+00;  1.0601565E-02;  9.8860651E+02;  1.5136300E-01; -9.4385791E+03;3;  4.6580300E+00;  0.0000000E+00; -2.0871284E+00;0;  2.9276981E+00;  1.7250732E+04;  0.0000000E+00; -4.2898733E-02;  4.0000000E+04;  0.0000000E+00;  3.9698863E+04;  3.3332529E+00;  0.0000000E+00; -4.0555480E-01;  1.2013615E+03;
  8.6273420E-01;  9.9999998E-03;  2.0052571E-02;7419; -1.2803988E-01;  0.0000000E+00; -1.0601617E-02;  9.8860675E+02;  1.5136299E-01; -9.4383809E+03;3;  4.6581011E+00;  0.0000000E+00;  2.0870664E+00;0;  2.9276958E+00;  1.7250730E+04;  0.0000000E+00; -4.2897254E-02;  4.0000000E+04;  0.0000000E+00;  3.9698867E+04;  3.3332508E+00;  0.0000000E+00; -4.0555492E-01;  1.2013656E+03;
  8.6269242E-01;  9.9999998E-03; -3.0078122E-02;7414; -1.2730035E-01;  0.0000000E+00;  1.5865466E-02;  9.8871698E+02;  1.5135829E-01; -9.3470830E+03;3;  5.3869061E+00;  0.0000000E+00; -2.9921901E+00;0;  2.9192808E+00;  1.7254586E+04;  0.0000000E+00; -9.6010186E-02;  4.0000000E+04;  0.0000000E+00;  3.9697254E+04;  3.3200011E+00;  0.0000000E+00; -4.0072033E-01;  1.4160350E+03;
  8.6269242E-01;  9.9999998E-03;  3.0078122E-02;7420; -1.2730059E-01;  0.0000000E+00; -1.5865512E-02;  9.8871698E+02;  1.5135811E-01; -9.3470830E+03;3;  5.3870749E+00;  0.0000000E+00;  2.9921498E+00;0;  2.9192808E+00;  1.7254582E+04;  0.0000000E+00; -9.6007183E-02;  4.0000000E+04;  0.0000000E+00;  3.9697254E+04;  3.3200009E+00;  0.0000000E+00; -4.0072012E-01;  1.4160380E+03;
  8.6264729E-01;  9.9999998E-03; -4.0108178E-02;7413; -1.2603545E-01;  0.0000000E+00;  2.1041250E-02;  9.8888367E+02;  1.5135266E-01; -9.2089736E+03;3;  6.4139495E+00;  0.0000000E+00; -3.6613145E+00;0;  2.9068747E+00;  1.7259988E+04;  0.0000000E+00; -1.6877638E-01;  4.0000000E+04;  0.0000000E+00;  3.9695926E+04;  3.3007624E+00;  0.0000000E+00; -3.9388773E-01;  1.6402278E+03;
  8.6264729E-01;  9.9999998E-03;  4.0108178E-02;7421; -1.2603563E-01;  0.0000000E+00; -2.1041296E-02;  9.8888379E+02;  1.5135264E-01; -9.2088750E+03;3;  6.4139872E+00;  0.0000000E+00;  3.6612661E+00;0;  2.9068732E+00;  1.7259994E+04;  0.0000000E+00; -1.6877288E-01;  4.0000000E+04;  0.0000000E+00;  3.9695926E+04;  3.3007607E+00;  0.0000000E+00; -3.9388752E-01;  1.6402458E+03;
  8.6260921E-01;  9.9999998E-03; -5.0150353E-02;7412; -1.2411656E-01;  0.0000000E+00;  2.6160074E-02;  9.8911713E+02;  1.5134524E-01; -9.0155625E+03;3;  7.5241284E+00;  0.0000000E+00; -4.4187217E+00;0;  2.8898172E+00;  1.7266988E+04;  0.0000000E+00; -2.5806516E-01;  4.0000000E+04;  0.0000000E+00;  3.9695613E+04;  3.2748039E+00;  0.0000000E+00; -3.8498652E-01;  1.8046527E+03;
  8.6260921E-01;  9.9999998E-03;  5.0150353E-02;7422; -1.2411696E-01;  0.0000000E+00; -2.6160100E-02;  9.8911707E+02;  1.5134533E-01; -9.0156113E+03;3;  7.5242290E+00;  0.0000000E+00;  4.4187045E+00;0;  2.8898151E+00;  1.7266984E+04;  0.0000000E+00; -2.5805968E-01;  4.0000000E+04;  0.0000000E+00;  3.9695613E+04;  3.2748013E+00;  0.0000000E+00; -3.8498613E-01;  1.8046698E+03;
  8.6258900E-01;  9.9999998E-03; -6.0214464E-02;7411; -1.2129983E-01;  0.0000000E+00;  3.1242631E-02;  9.8942639E+02;  1.5133753E-01; -8.7593906E+03;3;  8.7323456E+00;  0.0000000E+00; -5.2181902E+00;0;  2.8673086E+00;  1.7275467E+04;  0.0000000E+00; -3.5787594E-01;  4.0000000E+04;  0.0000000E+00;  3.9696617E+04;  3.2412353E+00;  0.0000000E+00; -3.7392676E-01;  1.8539139E+03;
  8.6258894E-01;  9.9999998E-03;  6.0214464E-02;7423; -1.2130015E-01;  0.0000000E+00; -3.1242648E-02;  9.8942651E+02;  1.5133722E-01; -8.7592920E+03;3;  8.7324781E+00;  0.0000000E+00;  5.2181396E+00;0;  2.8673058E+00;  1.7275467E+04;  0.0000000E+00; -3.5786924E-01;  4.0000000E+04;  0.0000000E+00;  3.9696609E+04;  3.2412322E+00;  0.0000000E+00; -3.7392637E-01;  1.8539404E+03;
  8.6260271E-01;  9.9999998E-03; -7.0309550E-02;7410; -1.1728904E-01;  0.0000000E+00;  3.6335919E-02;  9.8981097E+02;  1.5132864E-01; -8.4407568E+03;3;  9.9704742E+00;  0.0000000E+00; -5.9910917E+00;0;  2.8387048E+00;  1.7285592E+04;  0.0000000E+00; -4.5870465E-01;  4.0000000E+04;  0.0000000E+00;  3.9699641E+04;  3.1993318E+00;  0.0000000E+00; -3.6062694E-01;  1.7927450E+03;
  8.6265683E-01;  9.9999998E-03; -8.0408789E-02;7409; -1.1184912E-01;  0.0000000E+00;  4.1452255E-02;  9.9028198E+02;  1.5132026E-01; -8.0505747E+03;3;  1.0992651E+01;  0.0000000E+00; -6.6178188E+00;0;  2.8030951E+00;  1.7297182E+04;  0.0000000E+00; -5.4810256E-01;  4.0000000E+04;  0.0000000E+00;  3.9704570E+04;  3.1481330E+00;  0.0000000E+00; -3.4503797E-01;  1.7320920E+03;
  8.6274654E-01;  9.9999998E-03; -9.0480231E-02;7408; -1.0497074E-01;  0.0000000E+00;  4.6538264E-02;  9.9082562E+02;  1.5131289E-01; -7.6002505E+03;3;  1.1934921E+01;  0.0000000E+00; -7.2049704E+00;0;  2.7594647E+00;  1.7310566E+04;  0.0000000E+00; -6.1209428E-01;  4.0000000E+04;  0.0000000E+00;  3.9710660E+04;  3.0865998E+00;  0.0000000E+00; -3.2713518E-01;  1.8293293E+03;
  8.6286324E-01;  9.9999998E-03; -1.0053702E-01;7407; -9.6837655E-02;  0.0000000E+00;  5.1551517E-02;  9.9143390E+02;  1.5130460E-01; -7.0963022E+03;3;  1.2757585E+01;  0.0000000E+00; -7.7824941E+00;0;  2.7069995E+00;  1.7325871E+04;  0.0000000E+00; -6.3715267E-01;  4.0000000E+04;  0.0000000E+00;  3.9716934E+04;  3.0138283E+00;  0.0000000E+00; -3.0682865E-01;  2.0968904E+03;
  8.7838614E-01;  9.9999998E-03; -1.0025623E-02;7477; -7.2650157E-02;  0.0000000E+00;  6.3076238E-03;  9.8570251E+02;  1.5184990E-01; -1.1844069E+04;3; -2.6548344E+01;  0.0000000E+00; -8.2505596E-01;0;  3.7449102E+00;  1.7058443E+04;  0.0000000E+00; -5.8668749E-03;  4.0000000E+04;  0.0000000E+00;  3.9693148E+04;  4.1945081E+00;  0.0000000E+00; -4.4959775E-01;  1.2615544E+03;
  8.7839061E-01;  9.9999998E-03; -7.2284057E-10;7478; -7.3148161E-02;  0.0000000E+00; -1.8208445E-08;  9.8568872E+02;  1.5185092E-01; -1.1855475E+04;3; -2.6764645E+01;  0.0000000E+00; -1.6188089E-05;0;  3.7488101E+00;  1.7057924E+04;  0.0000000E+00;  1.2306661E-11;  4.0000000E+04;  0.0000000E+00;  3.9693633E+04;  4.1994085E+00;  0.0000000E+00; -4.5059851E-01;  1.2032079E+03;
  8.7838614E-01;  9.9999998E-03;  1.0025621E-02;7479; -7.2650336E-02;  0.0000000E+00; -6.3076545E-03;  9.8570245E+02;  1.5184948E-01; -1.1844118E+04;3; -2.6548355E+01;  0.0000000E+00;  8.2503170E-01;0;  3.7449114E+00;  1.7058443E+04;  0.0000000E+00; -5.8659106E-03;  4.0000000E+04;  0.0000000E+00;  3.9693145E+04;  4.1945090E+00;  0.0000000E+00; -4.4959763E-01;  1.2615585E+03;
  8.7837332E-01;  9.9999998E-03; -2.0049237E-02;7476; -7.1179338E-02;  0.0000000E+00;  1.2610201E-02;  9.8574457E+02;  1.5184638E-01; -1.1809209E+04;3; -2.6035442E+01;  0.0000000E+00; -1.5820342E+00;0;  3.7330172E+00;  1.7059891E+04;  0.0000000E+00; -2.3655167E-02;  4.0000000E+04;  0.0000000E+00;  3.9692000E+04;  4.1795840E+00;  0.0000000E+00; -4.4656688E-01;  1.4254121E+03;
  8.7837327E-01;  9.9999998E-03;  2.0049237E-02;7480; -7.1179517E-02;  0.0000000E+00; -1.2610232E-02;  9.8574445E+02;  1.5184644E-01; -1.1809357E+04;3; -2.6035404E+01;  0.0000000E+00;  1.5820154E+00;0;  3.7330172E+00;  1.7059895E+04;  0.0000000E+00; -2.3653112E-02;  4.0000000E+04;  0.0000000E+00;  3.9692000E+04;  4.1795840E+00;  0.0000000E+00; -4.4656673E-01;  1.4253992E+03;
  8.7835395E-01;  9.9999998E-03; -3.0071434E-02;7475; -6.8792947E-02;  0.0000000E+00;  1.8896688E-02;  9.8582709E+02;  1.5184040E-01; -1.1740874E+04;3; -2.5285810E+01;  0.0000000E+00; -2.4600585E+00;0;  3.7125659E+00;  1.7062561E+04;  0.0000000E+00; -5.3796254E-02;  4.0000000E+04;  0.0000000E+00;  3.9690188E+04;  4.1539927E+00;  0.0000000E+00; -4.4142663E-01;  1.6597567E+03;
  8.7835395E-01;  9.9999998E-03;  3.0071434E-02;7481; -6.8793081E-02;  0.0000000E+00; -1.8896721E-02;  9.8582709E+02;  1.5184040E-01; -1.1740874E+04;3; -2.5285757E+01;  0.0000000E+00;  2.4600477E+00;0;  3.7125654E+00;  1.7062557E+04;  0.0000000E+00; -5.3792994E-02;  4.0000000E+04;  0.0000000E+00;  3.9690188E+04;  4.1539917E+00;  0.0000000E+00; -4.4142637E-01;  1.6597366E+03;
  8.7833130E-01;  9.9999998E-03; -4.0096521E-02;7474; -6.5561593E-02;  0.0000000E+00;  2.5165996E-02;  9.8596112E+02;  1.5183252E-01; -1.1629825E+04;3; -2.4272198E+01;  0.0000000E+00; -3.1506586E+00;0;  3.6826930E+00;  1.7066779E+04;  0.0000000E+00; -9.6529290E-02;  4.0000000E+04;  0.0000000E+00;  3.9688441E+04;  4.1167464E+00;  0.0000000E+00; -4.3405348E-01;  1.9038862E+03;
  8.7833130E-01;  9.9999998E-03;  4.0096525E-02;7482; -6.5561764E-02;  0.0000000E+00; -2.5166024E-02;  9.8596100E+02;  1.5183245E-01; -1.1629925E+04;3; -2.4272171E+01;  0.0000000E+00;  3.1506631E+00;0;  3.6826885E+00;  1.7066775E+04;  0.0000000E+00; -9.6525922E-02;  4.0000000E+04;  0.0000000E+00;  3.9688445E+04;  4.1167417E+00;  0.0000000E+00; -4.3405315E-01;  1.9038628E+03;
  8.7830889E-01;  9.9999998E-03; -5.0132014E-02;7473; -6.1540581E-02;  0.0000000E+00;  3.1408358E-02;  9.8616864E+02;  1.5182197E-01; -1.1457945E+04;3; -2.2981009E+01;  0.0000000E+00; -3.9056990E+00;0;  3.6422555E+00;  1.7072836E+04;  0.0000000E+00; -1.5108985E-01;  4.0000000E+04;  0.0000000E+00;  3.9687258E+04;  4.0665436E+00;  0.0000000E+00; -4.2428795E-01;  2.0763323E+03;
  8.7830889E-01;  9.9999998E-03;  5.0132018E-02;7483; -6.1540637E-02;  0.0000000E+00; -3.1408388E-02;  9.8616876E+02;  1.5182213E-01; -1.1457847E+04;3; -2.2980993E+01;  0.0000000E+00;  3.9056666E+00;0;  3.6422572E+00;  1.7072834E+04;  0.0000000E+00; -1.5108497E-01;  4.0000000E+04;  0.0000000E+00;  3.9687258E+04;  4.0665450E+00;  0.0000000E+00; -4.2428774E-01;  2.0762981E+03;
  8.7829256E-01;  9.9999998E-03; -6.0187798E-02;7472; -5.6710113E-02;  0.0000000E+00;  3.7588377E-02;  9.8646735E+02;  1.5180844E-01; -1.1210471E+04;3; -2.1373714E+01;  0.0000000E+00; -4.6542368E+00;0;  3.5900936E+00;  1.7081117E+04;  0.0000000E+00; -2.1451007E-01;  4.0000000E+04;  0.0000000E+00;  3.9687734E+04;  4.0020533E+00;  0.0000000E+00; -4.1195971E-01;  2.0917585E+03;
  8.7829256E-01;  9.9999998E-03;  6.0187805E-02;7484; -5.6710318E-02;  0.0000000E+00; -3.7588406E-02;  9.8646722E+02;  1.5180849E-01; -1.1210569E+04;3; -2.1373657E+01;  0.0000000E+00;  4.6542439E+00;0;  3.5900903E+00;  1.7081119E+04;  0.0000000E+00; -2.1450469E-01;  4.0000000E+04;  0.0000000E+00;  3.9687742E+04;  4.0020499E+00;  0.0000000E+00; -4.1195974E-01;  2.0917732E+03;
  8.7829381E-01;  9.9999998E-03; -7.0273973E-02;7471; -5.0971527E-02;  0.0000000E+00;  4.3685596E-02;  9.8687360E+02;  1.5179375E-01; -1.0873969E+04;3; -1.9476540E+01;  0.0000000E+00; -5.3885350E+00;0;  3.5252686E+00;  1.7091918E+04;  0.0000000E+00; -2.8034186E-01;  4.0000000E+04;  0.0000000E+00;  3.9690176E+04;  3.9221859E+00;  0.0000000E+00; -3.9691728E-01;  1.8955698E+03;
  8.7833303E-01;  9.9999998E-03; -8.0378607E-02;7470; -4.4141952E-02;  0.0000000E+00;  4.9669605E-02;  9.8739282E+02;  1.5177840E-01; -1.0443799E+04;3; -1.7409103E+01;  0.0000000E+00; -6.1895580E+00;0;  3.4475186E+00;  1.7105346E+04;  0.0000000E+00; -3.3818832E-01;  4.0000000E+04;  0.0000000E+00;  3.9694938E+04;  3.8266118E+00;  0.0000000E+00; -3.7909317E-01;  1.5248508E+03;
  8.7842935E-01;  9.9999998E-03; -9.0457857E-02;7469; -3.6144245E-02;  0.0000000E+00;  5.5508077E-02;  9.8801080E+02;  1.5176305E-01; -9.9318604E+03;3; -1.5230751E+01;  0.0000000E+00; -6.9198289E+00;0;  3.3571324E+00;  1.7121330E+04;  0.0000000E+00; -3.7472197E-01;  4.0000000E+04;  0.0000000E+00;  3.9701230E+04;  3.7156816E+00;  0.0000000E+00; -3.5854912E-01;  1.1828325E+03;
  8.7855756E-01;  9.9999998E-03; -1.0050352E-01;7468; -2.7367773E-02;  0.0000000E+00;  6.1125182E-02;  9.8871997E+02;  1.5174775E-01; -9.3443760E+03;3; -1.2963648E+01;  0.0000000E+00; -7.5553036E+00;0;  3.2531102E+00;  1.7139961E+04;  0.0000000E+00; -3.7609184E-01;  4.0000000E+04;  0.0000000E+00;  3.9708125E+04;  3.5883865E+00;  0.0000000E+00; -3.3527634E-01;  1.1954482E+03;
  8.9438587E-01;  9.9999998E-03; -1.0048898E-01;7529;  1.8625323E-02;  0.0000000E+00;  6.6588871E-02;  9.8861316E+02;  1.5190391E-01; -9.4326172E+03;3; -4.0136269E+01;  0.0000000E+00; -4.3684773E+00;0;  3.8066630E+00;  1.7101578E+04;  0.0000000E+00; -1.4035242E-02;  4.0000000E+04;  0.0000000E+00;  3.9699844E+04;  4.1513920E+00;  0.0000000E+00; -3.4472889E-01;  3.3083585E+02;
  8.9431643E-01;  9.9999998E-03; -9.0443082E-02;7530;  1.3381710E-02;  0.0000000E+00;  6.1218042E-02;  9.8794733E+02;  1.5192217E-01; -9.9841914E+03;3; -4.3505737E+01;  0.0000000E+00; -3.7977355E+00;0;  3.9618602E+00;  1.7083863E+04;  0.0000000E+00; -2.7498789E-02;  4.0000000E+04;  0.0000000E+00;  3.9693016E+04;  4.3309083E+00;  0.0000000E+00; -3.6904803E-01;  1.1246384E+03;
  8.9424223E-01;  9.9999998E-03; -8.0364831E-02;7531;  7.4522262E-03;  0.0000000E+00;  5.5269979E-02;  9.8738086E+02;  1.5194093E-01; -1.0453455E+04;3; -4.6167065E+01;  0.0000000E+00; -3.4177356E+00;0;  4.0984850E+00;  1.7069318E+04;  0.0000000E+00; -2.6790939E-02;  4.0000000E+04;  0.0000000E+00;  3.9686965E+04;  4.4888902E+00;  0.0000000E+00; -3.9040539E-01;  1.8554429E+03;
  8.9417219E-01;  9.9999998E-03; -7.0254005E-02;7532;  1.0979438E-03;  0.0000000E+00;  4.8955195E-02;  9.8692822E+02;  1.5195836E-01; -1.0828414E+04;3; -4.8685516E+01;  0.0000000E+00; -3.0648758E+00;0;  4.2160664E+00;  1.7057957E+04;  0.0000000E+00; -1.9090008E-02;  4.0000000E+04;  0.0000000E+00;  3.9682332E+04;  4.6247864E+00;  0.0000000E+00; -4.0872008E-01;  2.3975884E+03;
  8.9410818E-01;  9.9999998E-03; -6.0163967E-02;7533; -5.2491035E-03;  0.0000000E+00;  4.2314608E-02;  9.8659912E+02;  1.5197369E-01; -1.1101017E+04;3; -5.0694656E+01;  0.0000000E+00; -2.5758514E+00;0;  4.3142104E+00;  1.7049678E+04;  0.0000000E+00; -1.0135205E-02;  4.0000000E+04;  0.0000000E+00;  3.9679887E+04;  4.7381430E+00;  0.0000000E+00; -4.2393267E-01;  2.6792014E+03;
  8.9404988E-01;  9.9999998E-03; -5.0108645E-02;7534; -1.1308975E-02;  0.0000000E+00;  3.5482474E-02;  9.8637622E+02;  1.5198667E-01; -1.1285682E+04;3; -5.2337864E+01;  0.0000000E+00; -2.1155245E+00;0;  4.3937140E+00;  1.7044080E+04;  0.0000000E+00; -3.2834541E-03;  4.0000000E+04;  0.0000000E+00;  3.9679625E+04;  4.8298926E+00;  0.0000000E+00; -4.3617851E-01;  2.7154397E+03;
  8.9399678E-01;  9.9999998E-03; -4.0076967E-02;7535; -1.6769867E-02;  0.0000000E+00;  2.8501581E-02;  9.8623712E+02;  1.5199813E-01; -1.1400925E+04;3; -5.3419228E+01;  0.0000000E+00; -1.6990372E+00;0;  4.4559069E+00;  1.7040578E+04;  0.0000000E+00;  4.1454463E-04;  4.0000000E+04;  0.0000000E+00;  3.9680547E+04;  4.9016085E+00;  0.0000000E+00; -4.4570169E-01;  2.5818804E+03;
  8.9395088E-01;  9.9999998E-03; -3.0056845E-02;7536; -2.1357020E-02;  0.0000000E+00;  2.1453921E-02;  9.8615991E+02;  1.5200566E-01; -1.1464867E+04;3; -5.4093166E+01;  0.0000000E+00; -1.3178077E+00;0;  4.5022998E+00;  1.7038602E+04;  0.0000000E+00;  1.4922553E-03;  4.0000000E+04;  0.0000000E+00;  3.9682176E+04;  4.9550681E+00;  0.0000000E+00; -4.5276830E-01;  2.3700940E+03;
  8.9391530E-01;  9.9999998E-03; -2.0039657E-02;7537; -2.4806377E-02;  0.0000000E+00;  1.4346474E-02;  9.8612244E+02;  1.5201032E-01; -1.1495925E+04;3; -5.4442295E+01;  0.0000000E+00; -6.5652376E-01;0;  4.5342879E+00;  1.7037584E+04;  0.0000000E+00;  1.0965357E-03;  4.0000000E+04;  0.0000000E+00;  3.9683945E+04;  4.9919086E+00;  0.0000000E+00; -4.5762050E-01;  2.1610457E+03;
  8.9389265E-01;  9.9999998E-03; -1.0020880E-02;7538; -2.6948879E-02;  0.0000000E+00;  7.1731899E-03;  9.8610736E+02;  1.5201417E-01; -1.1508417E+04;3; -5.4729965E+01;  0.0000000E+00; -3.1419742E-01;0;  4.5529995E+00;  1.7037193E+04;  0.0000000E+00;  3.4223034E-04;  4.0000000E+04;  0.0000000E+00;  3.9685176E+04;  5.0134497E+00;  0.0000000E+00; -4.6044999E-01;  2.0132592E+03;
  8.9388490E-01;  9.9999998E-03; -6.5900208E-10;7539; -2.7679127E-02;  0.0000000E+00; -1.2118325E-08;  9.8610492E+02;  1.5201484E-01; -1.1510441E+04;3; -5.4829140E+01;  0.0000000E+00; -1.5361918E-05;0;  4.5591555E+00;  1.7037102E+04;  0.0000000E+00;  3.1554856E-11;  4.0000000E+04;  0.0000000E+00;  3.9685500E+04;  5.0205345E+00;  0.0000000E+00; -4.6137887E-01;  1.9603883E+03;
  8.9389265E-01;  9.9999998E-03;  1.0020879E-02;7540; -2.6948960E-02;  0.0000000E+00; -7.1732160E-03;  9.8610748E+02;  1.5201351E-01; -1.1508318E+04;3; -5.4729866E+01;  0.0000000E+00;  3.1415421E-01;0;  4.5529995E+00;  1.7037197E+04;  0.0000000E+00;  3.4346918E-04;  4.0000000E+04;  0.0000000E+00;  3.9685176E+04;  5.0134492E+00;  0.0000000E+00; -4.6044990E-01;  2.0132744E+03;
  8.9391530E-01;  9.9999998E-03;  2.0039657E-02;7541; -2.4806354E-02;  0.0000000E+00; -1.4346500E-02;  9.8612238E+02;  1.5201078E-01; -1.1495974E+04;3; -5.4442379E+01;  0.0000000E+00;  6.5652722E-01;0;  4.5342865E+00;  1.7037586E+04;  0.0000000E+00;  1.0991096E-03;  4.0000000E+04;  0.0000000E+00;  3.9683945E+04;  4.9919071E+00;  0.0000000E+00; -4.5762047E-01;  2.1610476E+03;
  8.9395088E-01;  9.9999998E-03;  3.0056842E-02;7542; -2.1356938E-02;  0.0000000E+00; -2.1453947E-02;  9.8615997E+02;  1.5200539E-01; -1.1464818E+04;3; -5.4093269E+01;  0.0000000E+00;  1.3178047E+00;0;  4.5023026E+00;  1.7038604E+04;  0.0000000E+00;  1.4965479E-03;  4.0000000E+04;  0.0000000E+00;  3.9682176E+04;  4.9550710E+00;  0.0000000E+00; -4.5276833E-01;  2.3700769E+03;
  8.9399678E-01;  9.9999998E-03;  4.0076964E-02;7543; -1.6769903E-02;  0.0000000E+00; -2.8501611E-02;  9.8623730E+02;  1.5199737E-01; -1.1400776E+04;3; -5.3419228E+01;  0.0000000E+00;  1.6990274E+00;0;  4.4559045E+00;  1.7040580E+04;  0.0000000E+00;  4.1898590E-04;  4.0000000E+04;  0.0000000E+00;  3.9680562E+04;  4.9016066E+00;  0.0000000E+00; -4.4570205E-01;  2.5818699E+03;
  8.9404988E-01;  9.9999998E-03;  5.0108645E-02;7544; -1.1308913E-02;  0.0000000E+00; -3.5482507E-02;  9.8637640E+02;  1.5198666E-01; -1.1285533E+04;3; -5.2337891E+01;  0.0000000E+00;  2.1155171E+00;0;  4.3937116E+00;  1.7044082E+04;  0.0000000E+00; -3.2788734E-03;  4.0000000E+04;  0.0000000E+00;  3.9679621E+04;  4.8298898E+00;  0.0000000E+00; -4.3617818E-01;  2.7154563E+03;
  8.9410818E-01;  9.9999998E-03;  6.0163967E-02;7545; -5.2488716E-03;  0.0000000E+00; -4.2314652E-02;  9.8659918E+02;  1.5197413E-01; -1.1100968E+04;3; -5.0694878E+01;  0.0000000E+00;  2.5757806E+00;0;  4.3142109E+00;  1.7049680E+04;  0.0000000E+00; -1.0128144E-02;  4.0000000E+04;  0.0000000E+00;  3.9679883E+04;  4.7381439E+00;  0.0000000E+00; -4.2393297E-01;  2.6791594E+03;
  9.1019511E-01;  9.9999998E-03; -1.0048955E-01;7590;  6.5344751E-02;  0.0000000E+00;  6.5334365E-02;  9.9078802E+02;  1.5185758E-01; -7.6307632E+03;3; -7.3571320E+01;  0.0000000E+00;  4.1823789E-01;0;  4.3598151E+00;  1.7180268E+04;  0.0000000E+00;  3.1966439E-01;  4.0000000E+04;  0.0000000E+00;  3.9690629E+04;  4.6917725E+00;  0.0000000E+00; -3.3195716E-01;  2.0582063E+03;
  9.1022778E-01;  9.9999998E-03; -9.0448327E-02;7591;  6.9953062E-02;  0.0000000E+00;  6.0495950E-02;  9.9033539E+02;  1.5187478E-01; -8.0057065E+03;3; -7.7981270E+01;  0.0000000E+00;  7.0960391E-01;0;  4.5497775E+00;  1.7168811E+04;  0.0000000E+00;  3.0979902E-01;  4.0000000E+04;  0.0000000E+00;  3.9684383E+04;  4.9038844E+00;  0.0000000E+00; -3.5410690E-01;  2.5729128E+03;
  9.1023791E-01;  9.9999998E-03; -8.0381155E-02;7592;  7.1590818E-02;  0.0000000E+00;  5.5202335E-02;  9.8997620E+02;  1.5189163E-01; -8.3032822E+03;3; -8.1801102E+01;  0.0000000E+00;  1.0212878E+00;0;  4.7196083E+00;  1.7160314E+04;  0.0000000E+00;  2.7992165E-01;  4.0000000E+04;  0.0000000E+00;  3.9678551E+04;  5.0927577E+00;  0.0000000E+00; -3.7314916E-01;  3.1177483E+03;
  9.1022891E-01;  9.9999998E-03; -7.0294470E-02;7593;  7.0605412E-02;  0.0000000E+00;  4.9375072E-02;  9.8971283E+02;  1.5190782E-01; -8.5214150E+03;3; -8.4646011E+01;  0.0000000E+00;  1.2430533E+00;0;  4.8681908E+00;  1.7154750E+04;  0.0000000E+00;  2.3563656E-01;  4.0000000E+04;  0.0000000E+00;  3.9673914E+04;  5.2572522E+00;  0.0000000E+00; -3.8906124E-01;  3.5744128E+03;
  9.1020095E-01;  9.9999998E-03; -6.0208932E-02;7594;  6.7446977E-02;  0.0000000E+00;  4.3162804E-02;  9.8954211E+02;  1.5192164E-01; -8.6628223E+03;3; -8.6865822E+01;  0.0000000E+00;  1.2421615E+00;0;  4.9948564E+00;  1.7151629E+04;  0.0000000E+00;  1.8432717E-01;  4.0000000E+04;  0.0000000E+00;  3.9671160E+04;  5.3967810E+00;  0.0000000E+00; -4.0192440E-01;  3.8623533E+03;
  9.1015524E-01;  9.9999998E-03; -5.0143786E-02;7595;  6.2943578E-02;  0.0000000E+00;  3.6617748E-02;  9.8945001E+02;  1.5193243E-01; -8.7391064E+03;3; -8.8572731E+01;  0.0000000E+00;  1.1380466E+00;0;  5.0995874E+00;  1.7150432E+04;  0.0000000E+00;  1.3302074E-01;  4.0000000E+04;  0.0000000E+00;  3.9669973E+04;  5.5115643E+00;  0.0000000E+00; -4.1197705E-01;  3.9650452E+03;
  9.1009802E-01;  9.9999998E-03; -4.0101260E-02;7596;  5.7805248E-02;  0.0000000E+00;  2.9719470E-02;  9.8941443E+02;  1.5194130E-01; -8.7685840E+03;3; -8.9631264E+01;  0.0000000E+00;  9.5828635E-01;0;  5.1831212E+00;  1.7150475E+04;  0.0000000E+00;  8.6998351E-02;  4.0000000E+04;  0.0000000E+00;  3.9670230E+04;  5.6026759E+00;  0.0000000E+00; -4.1955483E-01;  3.9242024E+03;
  9.1003883E-01;  9.9999998E-03; -3.0072201E-02;7597;  5.2756842E-02;  0.0000000E+00;  2.2629784E-02;  9.8941296E+02;  1.5194845E-01; -8.7698184E+03;3; -9.0500511E+01;  0.0000000E+00;  8.8851064E-01;0;  5.2465839E+00;  1.7151205E+04;  0.0000000E+00;  4.9488515E-02;  4.0000000E+04;  0.0000000E+00;  3.9671078E+04;  5.6715937E+00;  0.0000000E+00; -4.2500955E-01;  3.8064841E+03;
  9.0998793E-01;  9.9999998E-03; -2.0048268E-02;7598;  4.8549585E-02;  0.0000000E+00;  1.5251280E-02;  9.8942932E+02;  1.5195231E-01; -8.7562920E+03;3; -9.1155357E+01;  0.0000000E+00;  8.7422627E-01;0;  5.2910442E+00;  1.7152109E+04;  0.0000000E+00;  2.2113662E-02;  4.0000000E+04;  0.0000000E+00;  3.9672129E+04;  5.7197037E+00;  0.0000000E+00; -4.2865950E-01;  3.6754280E+03;
  9.0995353E-01;  9.9999998E-03; -1.0024631E-02;7599;  4.5761984E-02;  0.0000000E+00;  7.6757781E-03;  9.8944141E+02;  1.5195476E-01; -8.7462695E+03;3; -9.1413155E+01;  0.0000000E+00;  3.3287892E-01;0;  5.3173532E+00;  1.7152865E+04;  0.0000000E+00;  5.5414187E-03;  4.0000000E+04;  0.0000000E+00;  3.9672945E+04;  5.7481003E+00;  0.0000000E+00; -4.3074697E-01;  3.5785266E+03;
  9.0994155E-01;  9.9999998E-03;  5.8814606E-11;7600;  4.4787444E-02;  0.0000000E+00; -1.9662144E-08;  9.8944763E+02;  1.5195550E-01; -8.7410850E+03;3; -9.1517319E+01;  0.0000000E+00; -2.6111838E-05;0;  5.3260622E+00;  1.7153143E+04;  0.0000000E+00;  4.0900446E-11;  4.0000000E+04;  0.0000000E+00;  3.9673223E+04;  5.7574873E+00;  0.0000000E+00; -4.3142506E-01;  3.5432737E+03;
  9.0995353E-01;  9.9999998E-03;  1.0024631E-02;7601;  4.5762334E-02;  0.0000000E+00; -7.6758140E-03;  9.8944128E+02;  1.5195505E-01; -8.7463682E+03;3; -9.1413254E+01;  0.0000000E+00; -3.3291873E-01;0;  5.3173509E+00;  1.7152861E+04;  0.0000000E+00;  5.5431407E-03;  4.0000000E+04;  0.0000000E+00;  3.9672945E+04;  5.7480979E+00;  0.0000000E+00; -4.3074718E-01;  3.5785103E+03;
  9.0998793E-01;  9.9999998E-03;  2.0048268E-02;7602;  4.8549727E-02;  0.0000000E+00; -1.5251311E-02;  9.8942932E+02;  1.5195237E-01; -8.7562920E+03;3; -9.1155365E+01;  0.0000000E+00; -8.7427694E-01;0;  5.2910409E+00;  1.7152105E+04;  0.0000000E+00;  2.2117050E-02;  4.0000000E+04;  0.0000000E+00;  3.9672133E+04;  5.7197003E+00;  0.0000000E+00; -4.2865956E-01;  3.6754531E+03;
  9.1003883E-01;  9.9999998E-03;  3.0072201E-02;7603;  5.2756734E-02;  0.0000000E+00; -2.2629814E-02;  9.8941302E+02;  1.5194842E-01; -8.7697695E+03;3; -9.0500565E+01;  0.0000000E+00; -8.8855070E-01;0;  5.2465873E+00;  1.7151209E+04;  0.0000000E+00;  4.9492858E-02;  4.0000000E+04;  0.0000000E+00;  3.9671078E+04;  5.6715970E+00;  0.0000000E+00; -4.2500958E-01;  3.8065190E+03;
  9.1009802E-01;  9.9999998E-03;  4.0101260E-02;7604;  5.7805508E-02;  0.0000000E+00; -2.9719485E-02;  9.8941437E+02;  1.5194148E-01; -8.7686328E+03;3; -8.9631279E+01;  0.0000000E+00; -9.5829105E-01;0;  5.1831231E+00;  1.7150469E+04;  0.0000000E+00;  8.7004870E-02;  4.0000000E+04;  0.0000000E+00;  3.9670227E+04;  5.6026778E+00;  0.0000000E+00; -4.1955471E-01;  3.9242354E+03;
  9.1015524E-01;  9.9999998E-03;  5.0143786E-02;7605;  6.2943682E-02;  0.0000000E+00; -3.6617763E-02;  9.8945007E+02;  1.5193276E-01; -8.7390566E+03;3; -8.8572678E+01;  0.0000000E+00; -1.1380463E+00;0;  5.0995870E+00;  1.7150430E+04;  0.0000000E+00;  1.3302805E-01;  4.0000000E+04;  0.0000000E+00;  3.9669973E+04;  5.5115633E+00;  0.0000000E+00; -4.1197652E-01;  3.9650618E+03;
  9.1020095E-01;  9.9999998E-03;  6.0208932E-02;7606;  6.7446843E-02;  0.0000000E+00; -4.3162823E-02;  9.8954230E+02;  1.5192127E-01; -8.6626748E+03;3; -8.6865959E+01;  0.0000000E+00; -1.2421691E+00;0;  4.9948583E+00;  1.7151625E+04;  0.0000000E+00;  1.8433574E-01;  4.0000000E+04;  0.0000000E+00;  3.9671160E+04;  5.3967824E+00;  0.0000000E+00; -4.0192413E-01;  3.8623611E+03;
  9.2607629E-01;  9.9999998E-03; -1.0045807E-01;7651;  1.6490103E-01;  0.0000000E+00;  5.8669832E-02;  9.9422632E+02;  1.5163986E-01; -4.7824414E+03;3; -1.0741411E+02;  0.0000000E+00;  3.6706371E+00;0;  4.8628287E+00;  1.7339869E+04;  0.0000000E+00;  5.0790232E-01;  4.0000000E+04;  0.0000000E+00;  3.9679328E+04;  5.1587062E+00;  0.0000000E+00; -2.9587746E-01;  3.8646118E+03;
  9.2624772E-01;  9.9999998E-03; -9.0425335E-02;7652;  1.8338899E-01;  0.0000000E+00;  5.3813398E-02;  9.9414276E+02;  1.5165094E-01; -4.8516577E+03;3; -1.1290708E+02;  0.0000000E+00;  3.7770257E+00;0;  5.0573874E+00;  1.7339553E+04;  0.0000000E+00;  5.1714706E-01;  4.0000000E+04;  0.0000000E+00;  3.9673895E+04;  5.3692508E+00;  0.0000000E+00; -3.1186345E-01;  4.3331665E+03;
  9.2636979E-01;  9.9999998E-03; -8.0380350E-02;7653;  1.9613987E-01;  0.0000000E+00;  4.8566882E-02;  9.9412421E+02;  1.5166256E-01; -4.8670112E+03;3; -1.1796190E+02;  0.0000000E+00;  3.4634092E+00;0;  5.2326970E+00;  1.7341723E+04;  0.0000000E+00;  4.7172198E-01;  4.0000000E+04;  0.0000000E+00;  3.9668398E+04;  5.5574017E+00;  0.0000000E+00; -3.2470447E-01;  4.7899658E+03;
  9.2644268E-01;  9.9999998E-03; -7.0315152E-02;7654;  2.0377924E-01;  0.0000000E+00;  4.2920604E-02;  9.9416217E+02;  1.5167220E-01; -4.8356094E+03;3; -1.2217867E+02;  0.0000000E+00;  3.2618420E+00;0;  5.3881302E+00;  1.7345707E+04;  0.0000000E+00;  3.9107904E-01;  4.0000000E+04;  0.0000000E+00;  3.9663492E+04;  5.7227058E+00;  0.0000000E+00; -3.3457544E-01;  5.2172007E+03;
  9.2647523E-01;  9.9999998E-03; -6.0249556E-02;7655;  2.0687540E-01;  0.0000000E+00;  3.7019409E-02;  9.9424390E+02;  1.5168118E-01; -4.7678711E+03;3; -1.2558761E+02;  0.0000000E+00;  3.0741167E+00;0;  5.5232110E+00;  1.7350918E+04;  0.0000000E+00;  2.9681039E-01;  4.0000000E+04;  0.0000000E+00;  3.9659434E+04;  5.8649583E+00;  0.0000000E+00; -3.4174746E-01;  5.5711689E+03;
  9.2647117E-01;  9.9999998E-03; -5.0188322E-02;7656;  2.0651795E-01;  0.0000000E+00;  3.1078607E-02;  9.9435632E+02;  1.5168774E-01; -4.6747563E+03;3; -1.2827139E+02;  0.0000000E+00;  2.8004761E+00;0;  5.6375995E+00;  1.7356617E+04;  0.0000000E+00;  2.0616640E-01;  4.0000000E+04;  0.0000000E+00;  3.9657090E+04;  5.9842758E+00;  0.0000000E+00; -3.4667656E-01;  5.8187231E+03;
  9.2644453E-01;  9.9999998E-03; -4.0138058E-02;7657;  2.0426641E-01;  0.0000000E+00;  2.5102364E-02;  9.9447729E+02;  1.5169331E-01; -4.5745811E+03;3; -1.3027722E+02;  0.0000000E+00;  2.6249568E+00;0;  5.7311578E+00;  1.7362100E+04;  0.0000000E+00;  1.2951405E-01;  4.0000000E+04;  0.0000000E+00;  3.9655719E+04;  6.0810013E+00;  0.0000000E+00; -3.4984344E-01;  5.9574541E+03;
  9.2641020E-01;  9.9999998E-03; -3.0098403E-02;7658;  2.0127243E-01;  0.0000000E+00;  1.8988747E-02;  9.9459204E+02;  1.5169729E-01; -4.4794917E+03;3; -1.3153482E+02;  0.0000000E+00;  2.1013341E+00;0;  5.8039260E+00;  1.7366928E+04;  0.0000000E+00;  7.0978060E-02;  4.0000000E+04;  0.0000000E+00;  3.9655316E+04;  6.1556416E+00;  0.0000000E+00; -3.5171559E-01;  6.0116455E+03;
  9.2637557E-01;  9.9999998E-03; -2.0064503E-02;7659;  1.9834572E-01;  0.0000000E+00;  1.2741952E-02;  9.9468347E+02;  1.5169895E-01; -4.4038052E+03;3; -1.3242233E+02;  0.0000000E+00;  1.2853342E+00;0;  5.8558822E+00;  1.7370648E+04;  0.0000000E+00;  3.0777492E-02;  4.0000000E+04;  0.0000000E+00;  3.9655258E+04;  6.2086177E+00;  0.0000000E+00; -3.5273534E-01;  6.0165029E+03;
  9.2635036E-01;  9.9999998E-03; -1.0032387E-02;7660;  1.9626723E-01;  0.0000000E+00;  6.3921367E-03;  9.9474011E+02;  1.5170087E-01; -4.3568535E+03;3; -1.3294617E+02;  0.0000000E+00;  6.1723733E-01;0;  5.8870420E+00;  1.7372924E+04;  0.0000000E+00;  7.5641316E-03;  4.0000000E+04;  0.0000000E+00;  3.9655375E+04;  6.2402596E+00;  0.0000000E+00; -3.5321742E-01;  6.0048052E+03;
  9.2634100E-01;  9.9999998E-03;  7.4160358E-11;7661;  1.9550712E-01;  0.0000000E+00; -1.6946204E-08;  9.9476111E+02;  1.5170114E-01; -4.3394751E+03;3; -1.3313013E+02;  0.0000000E+00; -2.8891040E-05;0;  5.8974347E+00;  1.7373721E+04;  0.0000000E+00;  3.4074899E-11;  4.0000000E+04;  0.0000000E+00;  3.9655371E+04;  6.2507920E+00;  0.0000000E+00; -3.5335737E-01;  5.9984072E+03;
  9.2635036E-01;  9.9999998E-03;  1.0032387E-02;7662;  1.9626734E-01;  0.0000000E+00; -6.3921683E-03;  9.9474005E+02;  1.5170071E-01; -4.3569028E+03;3; -1.3294608E+02;  0.0000000E+00; -6.1726290E-01;0;  5.8870463E+00;  1.7372928E+04;  0.0000000E+00;  7.5659882E-03;  4.0000000E+04;  0.0000000E+00;  3.9655375E+04;  6.2402635E+00;  0.0000000E+00; -3.5321712E-01;  6.0048193E+03;
  9.2637557E-01;  9.9999998E-03;  2.0064503E-02;7663;  1.9834574E-01;  0.0000000E+00; -1.2741985E-02;  9.9468335E+02;  1.5169877E-01; -4.4039038E+03;3; -1.3242255E+02;  0.0000000E+00; -1.2853599E+00;0;  5.8558865E+00;  1.7370648E+04;  0.0000000E+00;  3.0781219E-02;  4.0000000E+04;  0.0000000E+00;  3.9655258E+04;  6.2086215E+00;  0.0000000E+00; -3.5273519E-01;  6.0164858E+03;
  9.2641020E-01;  9.9999998E-03;  3.0098401E-02;7664;  2.0127229E-01;  0.0000000E+00; -1.8988775E-02;  9.9459198E+02;  1.5169728E-01; -4.4795903E+03;3; -1.3153514E+02;  0.0000000E+00; -2.1013327E+00;0;  5.8039227E+00;  1.7366926E+04;  0.0000000E+00;  7.0983849E-02;  4.0000000E+04;  0.0000000E+00;  3.9655316E+04;  6.1556382E+00;  0.0000000E+00; -3.5171548E-01;  6.0116450E+03;
  9.2644453E-01;  9.9999998E-03;  4.0138058E-02;7665;  2.0426656E-01;  0.0000000E+00; -2.5102392E-02;  9.9447717E+02;  1.5169333E-01; -4.5746802E+03;3; -1.3027734E+02;  0.0000000E+00; -2.6249731E+00;0;  5.7311540E+00;  1.7362102E+04;  0.0000000E+00;  1.2952158E-01;  4.0000000E+04;  0.0000000E+00;  3.9655719E+04;  6.0809975E+00;  0.0000000E+00; -3.4984338E-01;  5.9574561E+03;
  9.2647117E-01;  9.9999998E-03;  5.0188318E-02;7666;  2.0651837E-01;  0.0000000E+00; -3.1078629E-02;  9.9435626E+02;  1.5168805E-01; -4.6748057E+03;3; -1.2827130E+02;  0.0000000E+00; -2.8004961E+00;0;  5.6376004E+00;  1.7356621E+04;  0.0000000E+00;  2.0617348E-01;  4.0000000E+04;  0.0000000E+00;  3.9657094E+04;  5.9842768E+00;  0.0000000E+00; -3.4667617E-01;  5.8187075E+03;
  9.2647523E-01;  9.9999998E-03;  6.0249552E-02;7667;  2.0687550E-01;  0.0000000E+00; -3.7019435E-02;  9.9424390E+02;  1.5168172E-01; -4.7678711E+03;3; -1.2558778E+02;  0.0000000E+00; -3.0741007E+00;0;  5.5232115E+00;  1.7350920E+04;  0.0000000E+00;  2.9681894E-01;  4.0000000E+04;  0.0000000E+00;  3.9659434E+04;  5.8649588E+00;  0.0000000E+00; -3.4174719E-01;  5.5711802E+03;
  9.4122475E-01;  9.9999998E-03; -1.0043648E-01;7712;  2.7815169E-01;  0.0000000E+00;  4.8161365E-02;  9.9757776E+02;  1.5124673E-01; -2.0062684E+03;3; -1.1840897E+02;  0.0000000E+00;  8.8631573E+00;0;  5.2303267E+00;  1.7540811E+04;  0.0000000E+00;  4.9071369E-01;  4.0000000E+04;  0.0000000E+00;  3.9667320E+04;  5.4707723E+00;  0.0000000E+00; -2.4044552E-01;  5.3568628E+03;
  9.4141084E-01;  9.9999998E-03; -9.0411641E-02;7713;  2.9685786E-01;  0.0000000E+00;  4.3853916E-02;  9.9784521E+02;  1.5124935E-01; -1.7847473E+03;3; -1.2300158E+02;  0.0000000E+00;  8.4775229E+00;0;  5.3975277E+00;  1.7551592E+04;  0.0000000E+00;  5.2113426E-01;  4.0000000E+04;  0.0000000E+00;  3.9662969E+04;  5.6448879E+00;  0.0000000E+00; -2.4736002E-01;  5.8038354E+03;
  9.4155526E-01;  9.9999998E-03; -8.0387093E-02;7714;  3.1076840E-01;  0.0000000E+00;  3.9285894E-02;  9.9814410E+02;  1.5125294E-01; -1.5372091E+03;3; -1.2717545E+02;  0.0000000E+00;  7.9846253E+00;0;  5.5498557E+00;  1.7564125E+04;  0.0000000E+00;  4.7824159E-01;  4.0000000E+04;  0.0000000E+00;  3.9657723E+04;  5.8011289E+00;  0.0000000E+00; -2.5127313E-01;  6.2804160E+03;
  9.4165671E-01;  9.9999998E-03; -7.0345268E-02;7715;  3.2068220E-01;  0.0000000E+00;  3.4499735E-02;  9.9846686E+02;  1.5125525E-01; -1.2698745E+03;3; -1.3101816E+02;  0.0000000E+00;  7.3278208E+00;0;  5.6869702E+00;  1.7577641E+04;  0.0000000E+00;  3.9071420E-01;  4.0000000E+04;  0.0000000E+00;  3.9652246E+04;  5.9395494E+00;  0.0000000E+00; -2.5257927E-01;  6.8006792E+03;
  9.4171315E-01;  9.9999998E-03; -6.0286906E-02;7716;  3.2716483E-01;  0.0000000E+00;  2.9552989E-02;  9.9878296E+02;  1.5125617E-01; -1.0080693E+03;3; -1.3450212E+02;  0.0000000E+00;  6.4307179E+00;0;  5.8082409E+00;  1.7591088E+04;  0.0000000E+00;  2.8811702E-01;  4.0000000E+04;  0.0000000E+00;  3.9647121E+04;  6.0601029E+00;  0.0000000E+00; -2.5186202E-01;  7.3266235E+03;
  9.4173646E-01;  9.9999998E-03; -5.0228219E-02;7717;  3.3118325E-01;  0.0000000E+00;  2.4506042E-02;  9.9908484E+02;  1.5125695E-01; -7.5801434E+02;3; -1.3768575E+02;  0.0000000E+00;  5.5384803E+00;0;  5.9127798E+00;  1.7603598E+04;  0.0000000E+00;  1.9270808E-01;  4.0000000E+04;  0.0000000E+00;  3.9643047E+04;  6.1625271E+00;  0.0000000E+00; -2.4974737E-01;  7.7976021E+03;
  9.4173729E-01;  9.9999998E-03; -4.0171172E-02;7718;  3.3351976E-01;  0.0000000E+00;  1.9457990E-02;  9.9935303E+02;  1.5125662E-01; -5.3585309E+02;3; -1.4016234E+02;  0.0000000E+00;  4.7105784E+00;0;  5.9997859E+00;  1.7614506E+04;  0.0000000E+00;  1.1599692E-01;  4.0000000E+04;  0.0000000E+00;  3.9639980E+04;  6.2466879E+00;  0.0000000E+00; -2.4690202E-01;  8.1695220E+03;
  9.4172424E-01;  9.9999998E-03; -3.0121157E-02;7719;  3.3509335E-01;  0.0000000E+00;  1.4685974E-02;  9.9957385E+02;  1.5125588E-01; -3.5298965E+02;3; -1.4185550E+02;  0.0000000E+00;  3.6850216E+00;0;  6.0683031E+00;  1.7623453E+04;  0.0000000E+00;  6.0923804E-02;  4.0000000E+04;  0.0000000E+00;  3.9638059E+04;  6.3122773E+00;  0.0000000E+00; -2.4397416E-01;  8.4298750E+03;
  9.4170547E-01;  9.9999998E-03; -2.0078074E-02;7720;  3.3619627E-01;  0.0000000E+00;  9.8693511E-03;  9.9973920E+02;  1.5125553E-01; -2.1603958E+02;3; -1.4288370E+02;  0.0000000E+00;  2.5538120E+00;0;  6.1176829E+00;  1.7629951E+04;  0.0000000E+00;  2.5471505E-02;  4.0000000E+04;  0.0000000E+00;  3.9636828E+04;  6.3591833E+00;  0.0000000E+00; -2.4150023E-01;  8.5910596E+03;
  9.4169015E-01;  9.9999998E-03; -1.0038576E-02;7721;  3.3681613E-01;  0.0000000E+00;  4.9509699E-03;  9.9984119E+02;  1.5125544E-01; -1.3151952E+02;3; -1.4347653E+02;  0.0000000E+00;  1.2510059E+00;0;  6.1475077E+00;  1.7633885E+04;  0.0000000E+00;  6.1062700E-03;  4.0000000E+04;  0.0000000E+00;  3.9636230E+04;  6.3873682E+00;  0.0000000E+00; -2.3986073E-01;  8.6753799E+03;
  9.4168419E-01;  9.9999998E-03; -4.5921769E-10;7722;  3.3700633E-01;  0.0000000E+00; -3.7443848E-09;  9.9987476E+02;  1.5125455E-01; -1.0372468E+02;3; -1.4368823E+02;  0.0000000E+00; -1.6413100E-05;0;  6.1574845E+00;  1.7635211E+04;  0.0000000E+00;  1.5571796E-11;  4.0000000E+04;  0.0000000E+00;  3.9636023E+04;  6.3967743E+00;  0.0000000E+00; -2.3928961E-01;  8.7011426E+03;
  9.4169015E-01;  9.9999998E-03;  1.0038576E-02;7723;  3.3681610E-01;  0.0000000E+00; -4.9509821E-03;  9.9984119E+02;  1.5125544E-01; -1.3151952E+02;3; -1.4347655E+02;  0.0000000E+00; -1.2510593E+00;0;  6.1475081E+00;  1.7633889E+04;  0.0000000E+00;  6.1085424E-03;  4.0000000E+04;  0.0000000E+00;  3.9636227E+04;  6.3873687E+00;  0.0000000E+00; -2.3986073E-01;  8.6753799E+03;
  9.4170547E-01;  9.9999998E-03;  2.0078074E-02;7724;  3.3619565E-01;  0.0000000E+00; -9.8693641E-03;  9.9973926E+02;  1.5125570E-01; -2.1599020E+02;3; -1.4288391E+02;  0.0000000E+00; -2.5538497E+00;0;  6.1176834E+00;  1.7629947E+04;  0.0000000E+00;  2.5475191E-02;  4.0000000E+04;  0.0000000E+00;  3.9636828E+04;  6.3591833E+00;  0.0000000E+00; -2.4150011E-01;  8.5910449E+03;
  9.4172424E-01;  9.9999998E-03;  3.0121157E-02;7725;  3.3509314E-01;  0.0000000E+00; -1.4685990E-02;  9.9957385E+02;  1.5125568E-01; -3.5298965E+02;3; -1.4185538E+02;  0.0000000E+00; -3.6850498E+00;0;  6.0683022E+00;  1.7623445E+04;  0.0000000E+00;  6.0929354E-02;  4.0000000E+04;  0.0000000E+00;  3.9638059E+04;  6.3122764E+00;  0.0000000E+00; -2.4397402E-01;  8.4298740E+03;
  9.4173729E-01;  9.9999998E-03;  4.0171172E-02;7726;  3.3351946E-01;  0.0000000E+00; -1.9458009E-02;  9.9935297E+02;  1.5125611E-01; -5.3590240E+02;3; -1.4016245E+02;  0.0000000E+00; -4.7105823E+00;0;  5.9997830E+00;  1.7614506E+04;  0.0000000E+00;  1.1600399E-01;  4.0000000E+04;  0.0000000E+00;  3.9639980E+04;  6.2466850E+00;  0.0000000E+00; -2.4690202E-01;  8.1695244E+03;
  9.4173646E-01;  9.9999998E-03;  5.0228219E-02;7727;  3.3118290E-01;  0.0000000E+00; -2.4506064E-02;  9.9908472E+02;  1.5125677E-01; -7.5811310E+02;3; -1.3768588E+02;  0.0000000E+00; -5.5385232E+00;0;  5.9127774E+00;  1.7603602E+04;  0.0000000E+00;  1.9271708E-01;  4.0000000E+04;  0.0000000E+00;  3.9643047E+04;  6.1625247E+00;  0.0000000E+00; -2.4974717E-01;  7.7976079E+03;
  9.4171315E-01;  9.9999998E-03;  6.0286902E-02;7728;  3.2716462E-01;  0.0000000E+00; -2.9553015E-02;  9.9878284E+02;  1.5125582E-01; -1.0081681E+03;3; -1.3450224E+02;  0.0000000E+00; -6.4306808E+00;0;  5.8082399E+00;  1.7591090E+04;  0.0000000E+00;  2.8812596E-01;  4.0000000E+04;  0.0000000E+00;  3.9647121E+04;  6.0601020E+00;  0.0000000E+00; -2.5186199E-01;  7.3266309E+03;
  9.5570415E-01;  9.9999998E-03; -1.0037968E-01;7773;  3.7715420E-01;  0.0000000E+00;  3.0023670E-02;  9.9992682E+02;  1.5065265E-01; -6.0621883E+01;3; -1.1514204E+02;  0.0000000E+00;  1.5655579E+01;0;  5.4298363E+00;  1.7760502E+04;  0.0000000E+00;  2.8874537E-01;  4.0000000E+04;  0.0000000E+00;  3.9655672E+04;  5.5999689E+00;  0.0000000E+00; -1.7013285E-01;  6.5739722E+03;
  9.5600295E-01;  9.9999998E-03; -9.0355545E-02;7774;  4.0232632E-01;  0.0000000E+00;  2.6779318E-02;  1.0004761E+03;  1.5064558E-01;  3.9433792E+02;3; -1.1866634E+02;  0.0000000E+00;  1.4991936E+01;0;  5.5476794E+00;  1.7780658E+04;  0.0000000E+00;  3.2859087E-01;  4.0000000E+04;  0.0000000E+00;  3.9651656E+04;  5.7128267E+00;  0.0000000E+00; -1.6514729E-01;  7.0360645E+03;
  9.5626181E-01;  9.9999998E-03; -8.0342963E-02;7775;  4.2297757E-01;  0.0000000E+00;  2.3536075E-02;  1.0010335E+03;  1.5063886E-01;  8.5601038E+02;3; -1.2163811E+02;  0.0000000E+00;  1.4120444E+01;0;  5.6557498E+00;  1.7802105E+04;  0.0000000E+00;  3.0157974E-01;  4.0000000E+04;  0.0000000E+00;  3.9646309E+04;  5.8132010E+00;  0.0000000E+00; -1.5745124E-01;  7.6345918E+03;
  9.5646125E-01;  9.9999998E-03; -7.0324026E-02;7776;  4.3930027E-01;  0.0000000E+00;  2.0422470E-02;  1.0015676E+03;  1.5063050E-01;  1.2983307E+03;3; -1.2436012E+02;  0.0000000E+00;  1.3039340E+01;0;  5.7542214E+00;  1.7823322E+04;  0.0000000E+00;  2.3788781E-01;  4.0000000E+04;  0.0000000E+00;  3.9640066E+04;  5.9020753E+00;  0.0000000E+00; -1.4785367E-01;  8.3530410E+03;
  9.5660132E-01;  9.9999998E-03; -6.0285173E-02;7777;  4.5196086E-01;  0.0000000E+00;  1.7315019E-02;  1.0020606E+03;  1.5062344E-01;  1.7066866E+03;3; -1.2670447E+02;  0.0000000E+00;  1.1609928E+01;0;  5.8428826E+00;  1.7843199E+04;  0.0000000E+00;  1.6515835E-01;  4.0000000E+04;  0.0000000E+00;  3.9633727E+04;  5.9801130E+00;  0.0000000E+00; -1.3723028E-01;  9.1180527E+03;
  9.5668876E-01;  9.9999998E-03; -5.0238818E-02;7778;  4.6158651E-01;  0.0000000E+00;  1.4310818E-02;  1.0024953E+03;  1.5061703E-01;  2.0666638E+03;3; -1.2886664E+02;  0.0000000E+00;  1.0026784E+01;0;  5.9208617E+00;  1.7860871E+04;  0.0000000E+00;  1.0201797E-01;  4.0000000E+04;  0.0000000E+00;  3.9628035E+04;  6.0473814E+00;  0.0000000E+00; -1.2651956E-01;  9.8347148E+03;
  9.5674032E-01;  9.9999998E-03; -4.0194478E-02;7779;  4.6883243E-01;  0.0000000E+00;  1.1291864E-02;  1.0028588E+03;  1.5061030E-01;  2.3677966E+03;3; -1.3063835E+02;  0.0000000E+00;  8.1253099E+00;0;  5.9869699E+00;  1.7875664E+04;  0.0000000E+00;  5.6031886E-02;  4.0000000E+04;  0.0000000E+00;  3.9623414E+04;  6.1034913E+00;  0.0000000E+00; -1.1652125E-01;  1.0430312E+04;
  9.5676804E-01;  9.9999998E-03; -3.0151350E-02;7780;  4.7416303E-01;  0.0000000E+00;  8.3791865E-03;  1.0031472E+03;  1.5060537E-01;  2.6065310E+03;3; -1.3196576E+02;  0.0000000E+00;  6.4154267E+00;0;  6.0399876E+00;  1.7887305E+04;  0.0000000E+00;  2.6770588E-02;  4.0000000E+04;  0.0000000E+00;  3.9620012E+04;  6.1479411E+00;  0.0000000E+00; -1.0795346E-01;  1.0870942E+04;
  9.5677960E-01;  9.9999998E-03; -2.0102058E-02;7781;  4.7792411E-01;  0.0000000E+00;  5.5992203E-03;  1.0033570E+03;  1.5060188E-01;  2.7803982E+03;3; -1.3278261E+02;  0.0000000E+00;  4.3540964E+00;0;  6.0788074E+00;  1.7895619E+04;  0.0000000E+00;  1.0241416E-02;  4.0000000E+04;  0.0000000E+00;  3.9617797E+04;  6.1802197E+00;  0.0000000E+00; -1.0141217E-01;  1.1158187E+04;
  9.5678484E-01;  9.9999998E-03; -1.0050388E-02;7782;  4.8016584E-01;  0.0000000E+00;  2.8037834E-03;  1.0034838E+03;  1.5059924E-01;  2.8853506E+03;3; -1.3327853E+02;  0.0000000E+00;  2.2101047E+00;0;  6.1024804E+00;  1.7900568E+04;  0.0000000E+00;  2.2983737E-03;  4.0000000E+04;  0.0000000E+00;  3.9616707E+04;  6.1997800E+00;  0.0000000E+00; -9.7299591E-02;  1.1315801E+04;
  9.5678604E-01;  9.9999998E-03; -1.4211123E-09;7783;  4.8090222E-01;  0.0000000E+00;  6.8019257E-09;  1.0035269E+03;  1.5059806E-01;  2.9209929E+03;3; -1.3344530E+02;  0.0000000E+00; -2.7958871E-05;0;  6.1104441E+00;  1.7902238E+04;  0.0000000E+00; -4.3715496E-12;  4.0000000E+04;  0.0000000E+00;  3.9616293E+04;  6.2063446E+00;  0.0000000E+00; -9.5900387E-02;  1.1365507E+04;
  9.5678484E-01;  9.9999998E-03;  1.0050386E-02;7784;  4.8016539E-01;  0.0000000E+00; -2.8037697E-03;  1.0034841E+03;  1.5059899E-01;  2.8856467E+03;3; -1.3327861E+02;  0.0000000E+00; -2.2101641E+00;0;  6.1024837E+00;  1.7900562E+04;  0.0000000E+00;  2.3001616E-03;  4.0000000E+04;  0.0000000E+00;  3.9616703E+04;  6.1997833E+00;  0.0000000E+00; -9.7299650E-02;  1.1315808E+04;
  9.5677960E-01;  9.9999998E-03;  2.0102056E-02;7785;  4.7792399E-01;  0.0000000E+00; -5.5992003E-03;  1.0033569E+03;  1.5060136E-01;  2.7802007E+03;3; -1.3278256E+02;  0.0000000E+00; -4.3541594E+00;0;  6.0788078E+00;  1.7895619E+04;  0.0000000E+00;  1.0244982E-02;  4.0000000E+04;  0.0000000E+00;  3.9617797E+04;  6.1802197E+00;  0.0000000E+00; -1.0141174E-01;  1.1158176E+04;
  9.5676804E-01;  9.9999998E-03;  3.0151349E-02;7786;  4.7416261E-01;  0.0000000E+00; -8.3791642E-03;  1.0031472E+03;  1.5060557E-01;  2.6065310E+03;3; -1.3196576E+02;  0.0000000E+00; -6.4154654E+00;0;  6.0399847E+00;  1.7887299E+04;  0.0000000E+00;  2.6775926E-02;  4.0000000E+04;  0.0000000E+00;  3.9620012E+04;  6.1479378E+00;  0.0000000E+00; -1.0795327E-01;  1.0870938E+04;
  9.5674032E-01;  9.9999998E-03;  4.0194478E-02;7787;  4.6883217E-01;  0.0000000E+00; -1.1291851E-02;  1.0028587E+03;  1.5061025E-01;  2.3676978E+03;3; -1.3063849E+02;  0.0000000E+00; -8.1253347E+00;0;  5.9869699E+00;  1.7875664E+04;  0.0000000E+00;  5.6038063E-02;  4.0000000E+04;  0.0000000E+00;  3.9623414E+04;  6.1034913E+00;  0.0000000E+00; -1.1652113E-01;  1.0430324E+04;
  9.5668876E-01;  9.9999998E-03;  5.0238818E-02;7788;  4.6158564E-01;  0.0000000E+00; -1.4310781E-02;  1.0024952E+03;  1.5061730E-01;  2.0665649E+03;3; -1.2886679E+02;  0.0000000E+00; -1.0026875E+01;0;  5.9208536E+00;  1.7860867E+04;  0.0000000E+00;  1.0202428E-01;  4.0000000E+04;  0.0000000E+00;  3.9628031E+04;  6.0473733E+00;  0.0000000E+00; -1.2651958E-01;  9.8347217E+03;
  9.5660132E-01;  9.9999998E-03;  6.0285173E-02;7789;  4.5196033E-01;  0.0000000E+00; -1.7314984E-02;  1.0020605E+03;  1.5062343E-01;  1.7065879E+03;3; -1.2670451E+02;  0.0000000E+00; -1.1609890E+01;0;  5.8428798E+00;  1.7843186E+04;  0.0000000E+00;  1.6516362E-01;  4.0000000E+04;  0.0000000E+00;  3.9633727E+04;  5.9801097E+00;  0.0000000E+00; -1.3722986E-01;  9.1180566E+03;
  9.7053456E-01;  9.9999998E-03; -1.0034276E-01;7834;  4.8887160E-01;  0.0000000E+00;  6.1457083E-03;  1.0012475E+03;  1.4981952E-01;  1.0331598E+03;3; -1.0225606E+02;  0.0000000E+00;  2.3989754E+01;0;  5.4401698E+00;  1.8009455E+04;  0.0000000E+00; -2.5630506E-02;  4.0000000E+04;  0.0000000E+00;  3.9645129E+04;  5.5238419E+00;  0.0000000E+00; -8.3672151E-02;  7.6986221E+03;
  9.7078848E-01;  9.9999998E-03; -9.0322815E-02;7835;  5.1631975E-01;  0.0000000E+00;  4.0493272E-03;  1.0019137E+03;  1.4980192E-01;  1.5848342E+03;3; -1.0395389E+02;  0.0000000E+00;  2.3894045E+01;0;  5.4919605E+00;  1.8034564E+04;  0.0000000E+00;  1.3618589E-02;  4.0000000E+04;  0.0000000E+00;  3.9641191E+04;  5.5576901E+00;  0.0000000E+00; -6.5729402E-02;  8.2135781E+03;
  9.7096431E-01;  9.9999998E-03; -8.0315284E-02;7836;  5.3894925E-01;  0.0000000E+00;  2.2157622E-03;  1.0025501E+03;  1.4978428E-01;  2.1119255E+03;3; -1.0513113E+02;  0.0000000E+00;  2.3788418E+01;0;  5.5423470E+00;  1.8059309E+04;  0.0000000E+00;  1.5022945E-02;  4.0000000E+04;  0.0000000E+00;  3.9635352E+04;  5.5886488E+00;  0.0000000E+00; -4.6301793E-02;  8.9424814E+03;
  9.7109336E-01;  9.9999998E-03; -7.0309319E-02;7837;  5.5741340E-01;  0.0000000E+00;  6.2702305E-04;  1.0031312E+03;  1.4976804E-01;  2.5931094E+03;3; -1.0603686E+02;  0.0000000E+00;  2.3827494E+01;0;  5.5911498E+00;  1.8082881E+04;  0.0000000E+00; -4.6295006E-04;  4.0000000E+04;  0.0000000E+00;  3.9628488E+04;  5.6172829E+00;  0.0000000E+00; -2.6133263E-02;  9.8258594E+03;
  9.7118038E-01;  9.9999998E-03; -6.0295306E-02;7838;  5.7231462E-01;  0.0000000E+00; -8.2759646E-04;  1.0036411E+03;  1.4975363E-01;  3.0153547E+03;3; -1.0667585E+02;  0.0000000E+00;  2.3803242E+01;0;  5.6377654E+00;  1.8104211E+04;  0.0000000E+00; -1.6236342E-02;  4.0000000E+04;  0.0000000E+00;  3.9621293E+04;  5.6440272E+00;  0.0000000E+00; -6.2619289E-03;  1.0754012E+04;
  9.7118068E-01;  9.9999998E-03; -5.0262406E-02;7839;  5.8381617E-01;  0.0000000E+00; -2.0563945E-03;  1.0040625E+03;  1.4974195E-01;  3.3644460E+03;3; -1.0724924E+02;  0.0000000E+00;  2.3296335E+01;0;  5.6822801E+00;  1.8122082E+04;  0.0000000E+00; -2.3769859E-02;  4.0000000E+04;  0.0000000E+00;  3.9614746E+04;  5.6705112E+00;  0.0000000E+00;  1.1769031E-02;  1.1601451E+04;
  9.7114140E-01;  9.9999998E-03; -4.0208895E-02;7840;  5.9264863E-01;  0.0000000E+00; -3.0018305E-03;  1.0044015E+03;  1.4973323E-01;  3.6451213E+03;3; -1.0771036E+02;  0.0000000E+00;  2.1202469E+01;0;  5.7225080E+00;  1.8136348E+04;  0.0000000E+00; -2.2669774E-02;  4.0000000E+04;  0.0000000E+00;  3.9609453E+04;  5.6951299E+00;  0.0000000E+00;  2.7378069E-02;  1.2284715E+04;
  9.7109878E-01;  9.9999998E-03; -3.0153750E-02;7841;  5.9929985E-01;  0.0000000E+00; -3.4067249E-03;  1.0046638E+03;  1.4972575E-01;  3.8623174E+03;3; -1.0802422E+02;  0.0000000E+00;  1.6755255E+01;0;  5.7559981E+00;  1.8147219E+04;  0.0000000E+00; -1.6110426E-02;  4.0000000E+04;  0.0000000E+00;  3.9605723E+04;  5.7158847E+00;  0.0000000E+00;  4.0113606E-02;  1.2779793E+04;
  9.7106695E-01;  9.9999998E-03; -2.0103181E-02;7842;  6.0398322E-01;  0.0000000E+00; -2.9992110E-03;  1.0048513E+03;  1.4972061E-01;  4.0176123E+03;3; -1.0820627E+02;  0.0000000E+00;  1.0705464E+01;0;  5.7810016E+00;  1.8154836E+04;  0.0000000E+00; -8.1896139E-03;  4.0000000E+04;  0.0000000E+00;  3.9603270E+04;  5.7314391E+00;  0.0000000E+00;  4.9562339E-02;  1.3098607E+04;
  9.7104752E-01;  9.9999998E-03; -1.0051630E-02;7843;  6.0677207E-01;  0.0000000E+00; -1.7498628E-03;  1.0049636E+03;  1.4971828E-01;  4.1107104E+03;3; -1.0829935E+02;  0.0000000E+00;  4.8544908E+00;0;  5.7964492E+00;  1.8159334E+04;  0.0000000E+00; -2.1952502E-03;  4.0000000E+04;  0.0000000E+00;  3.9601977E+04;  5.7410760E+00;  0.0000000E+00;  5.5373266E-02;  1.3269905E+04;
  9.7104102E-01;  9.9999998E-03; -2.6555915E-09;7844;  6.0770339E-01;  0.0000000E+00; -6.4220721E-08;  1.0049995E+03;  1.4971712E-01;  4.1403281E+03;3; -1.0832958E+02;  0.0000000E+00;  4.0736973E-06;0;  5.8016787E+00;  1.8160830E+04;  0.0000000E+00; -2.3017794E-11;  4.0000000E+04;  0.0000000E+00;  3.9601574E+04;  5.7443447E+00;  0.0000000E+00;  5.7334002E-02;  1.3323119E+04;
  9.7104752E-01;  9.9999998E-03;  1.0051624E-02;7845;  6.0677189E-01;  0.0000000E+00;  1.7497523E-03;  1.0049638E+03;  1.4971820E-01;  4.1108091E+03;3; -1.0829945E+02;  0.0000000E+00; -4.8544149E+00;0;  5.7964530E+00;  1.8159334E+04;  0.0000000E+00; -2.1938703E-03;  4.0000000E+04;  0.0000000E+00;  3.9601977E+04;  5.7410798E+00;  0.0000000E+00;  5.5373348E-02;  1.3269919E+04;
  9.7106695E-01;  9.9999998E-03;  2.0103175E-02;7846;  6.0398310E-01;  0.0000000E+00;  2.9991169E-03;  1.0048513E+03;  1.4972091E-01;  4.0177109E+03;3; -1.0820642E+02;  0.0000000E+00; -1.0705370E+01;0;  5.7810087E+00;  1.8154838E+04;  0.0000000E+00; -8.1871971E-03;  4.0000000E+04;  0.0000000E+00;  3.9603273E+04;  5.7314463E+00;  0.0000000E+00;  4.9562477E-02;  1.3098623E+04;
  9.7109878E-01;  9.9999998E-03;  3.0153744E-02;7847;  5.9929937E-01;  0.0000000E+00;  3.4067016E-03;  1.0046638E+03;  1.4972559E-01;  3.8624160E+03;3; -1.0802436E+02;  0.0000000E+00; -1.6755180E+01;0;  5.7559972E+00;  1.8147215E+04;  0.0000000E+00; -1.6107248E-02;  4.0000000E+04;  0.0000000E+00;  3.9605719E+04;  5.7158833E+00;  0.0000000E+00;  4.0113807E-02;  1.2779792E+04;
  9.7114140E-01;  9.9999998E-03;  4.0208891E-02;7848;  5.9264857E-01;  0.0000000E+00;  3.0018277E-03;  1.0044014E+03;  1.4973338E-01;  3.6450227E+03;3; -1.0771047E+02;  0.0000000E+00; -2.1202394E+01;0;  5.7225041E+00;  1.8136348E+04;  0.0000000E+00; -2.2666309E-02;  4.0000000E+04;  0.0000000E+00;  3.9609449E+04;  5.6951261E+00;  0.0000000E+00;  2.7378185E-02;  1.2284721E+04;
  9.7118062E-01;  9.9999998E-03;  5.0262403E-02;7849;  5.8381575E-01;  0.0000000E+00;  2.0563977E-03;  1.0040629E+03;  1.4974204E-01;  3.3647422E+03;3; -1.0724934E+02;  0.0000000E+00; -2.3296480E+01;0;  5.6822886E+00;  1.8122076E+04;  0.0000000E+00; -2.3765726E-02;  4.0000000E+04;  0.0000000E+00;  3.9614746E+04;  5.6705194E+00;  0.0000000E+00;  1.1769088E-02;  1.1601460E+04;
  9.7118038E-01;  9.9999998E-03;  6.0295302E-02;7850;  5.7231414E-01;  0.0000000E+00;  8.2760281E-04;  1.0036414E+03;  1.4975378E-01;  3.0156509E+03;3; -1.0667600E+02;  0.0000000E+00; -2.3803308E+01;0;  5.6377606E+00;  1.8104203E+04;  0.0000000E+00; -1.6232578E-02;  4.0000000E+04;  0.0000000E+00;  3.9621289E+04;  5.6440225E+00;  0.0000000E+00; -6.2617715E-03;  1.0754015E+04;
  9.8567206E-01;  9.9999998E-03; -1.0037767E-01;7895;  5.9235936E-01;  0.0000000E+00; -2.2543091E-02;  1.0016982E+03;  1.4869595E-01;  1.4063044E+03;3; -8.3528999E+01;  0.0000000E+00;  2.6336918E+01;0;  5.2395411E+00;  1.8309463E+04;  0.0000000E+00; -3.4892839E-01;  4.0000000E+04;  0.0000000E+00;  3.9638164E+04;  5.2254066E+00;  0.0000000E+00;  1.4134248E-02;  8.6283672E+03;
  9.8577976E-01;  9.9999998E-03; -9.0377063E-02;7896;  6.1772245E-01;  0.0000000E+00; -2.3973770E-02;  1.0023246E+03;  1.4867829E-01;  1.9249556E+03;3; -8.3138153E+01;  0.0000000E+00;  2.6407274E+01;0;  5.2253470E+00;  1.8333336E+04;  0.0000000E+00; -3.1484193E-01;  4.0000000E+04;  0.0000000E+00;  3.9633992E+04;  5.1805100E+00;  0.0000000E+00;  4.4836819E-02;  9.1894990E+03;
  9.8574901E-01;  9.9999998E-03; -8.0379657E-02;7897;  6.3828230E-01;  0.0000000E+00; -2.5169551E-02;  1.0028902E+03;  1.4866300E-01;  2.3933618E+03;3; -8.2408501E+01;  0.0000000E+00;  2.6269741E+01;0;  5.2208042E+00;  1.8355430E+04;  0.0000000E+00; -2.7941653E-01;  4.0000000E+04;  0.0000000E+00;  3.9628164E+04;  5.1456795E+00;  0.0000000E+00;  7.5124823E-02;  9.9567236E+03;
  9.8562354E-01;  9.9999998E-03; -7.0371218E-02;7898;  6.5478218E-01;  0.0000000E+00; -2.5987661E-02;  1.0033734E+03;  1.4864986E-01;  2.7934590E+03;3; -8.1521484E+01;  0.0000000E+00;  2.4607752E+01;0;  5.2251706E+00;  1.8374857E+04;  0.0000000E+00; -2.3864613E-01;  4.0000000E+04;  0.0000000E+00;  3.9621324E+04;  5.1211820E+00;  0.0000000E+00;  1.0398886E-01;  1.0848321E+04;
  9.8544794E-01;  9.9999998E-03; -6.0339894E-02;7899;  6.6799837E-01;  0.0000000E+00; -2.5604304E-02;  1.0037751E+03;  1.4863920E-01;  3.1261353E+03;3; -8.0436356E+01;  0.0000000E+00;  1.8865679E+01;0;  5.2363133E+00;  1.8391244E+04;  0.0000000E+00; -1.9228503E-01;  4.0000000E+04;  0.0000000E+00;  3.9614270E+04;  5.1058407E+00;  0.0000000E+00;  1.3047265E-01;  1.1758641E+04;
  9.8526067E-01;  9.9999998E-03; -5.0284531E-02;7900;  6.7852217E-01;  0.0000000E+00; -2.2841165E-02;  1.0040933E+03;  1.4863040E-01;  3.3896123E+03;3; -7.9304207E+01;  0.0000000E+00;  1.0796016E+01;0;  5.2514281E+00;  1.8404457E+04;  0.0000000E+00; -1.4326133E-01;  4.0000000E+04;  0.0000000E+00;  3.9607852E+04;  5.0976348E+00;  0.0000000E+00;  1.5379335E-01;  1.2575687E+04;
  9.8508722E-01;  9.9999998E-03; -4.0209003E-02;7901;  6.8679380E-01;  0.0000000E+00; -1.8361395E-02;  1.0043422E+03;  1.4862281E-01;  3.5957358E+03;3; -7.8318764E+01;  0.0000000E+00;  6.5583644E+00;0;  5.2678571E+00;  1.8414555E+04;  0.0000000E+00; -9.6217126E-02;  4.0000000E+04;  0.0000000E+00;  3.9602883E+04;  5.0943933E+00;  0.0000000E+00;  1.7346378E-01;  1.3219391E+04;
  9.8493934E-01;  9.9999998E-03; -3.0135138E-02;7902;  6.9303513E-01;  0.0000000E+00; -1.3632443E-02;  1.0045225E+03;  1.4861763E-01;  3.7450972E+03;3; -7.7506554E+01;  0.0000000E+00;  4.8343778E+00;0;  5.2834001E+00;  1.8421711E+04;  0.0000000E+00; -5.5737667E-02;  4.0000000E+04;  0.0000000E+00;  3.9599324E+04;  5.0943193E+00;  0.0000000E+00;  1.8908066E-01;  1.3667604E+04;
  9.8482746E-01;  9.9999998E-03; -2.0079385E-02;7903;  6.9739562E-01;  0.0000000E+00; -9.0358043E-03;  1.0046475E+03;  1.4861386E-01;  3.8485547E+03;3; -7.6875778E+01;  0.0000000E+00;  3.3060308E+00;0;  5.2960196E+00;  1.8426414E+04;  0.0000000E+00; -2.5163732E-02;  4.0000000E+04;  0.0000000E+00;  3.9597250E+04;  5.0956397E+00;  0.0000000E+00;  2.0037965E-01;  1.3942326E+04;
  9.8475754E-01;  9.9999998E-03; -1.0036630E-02;7904;  6.9997162E-01;  0.0000000E+00; -4.5095757E-03;  1.0047203E+03;  1.4861095E-01;  3.9088723E+03;3; -7.6474594E+01;  0.0000000E+00;  1.6787273E+00;0;  5.3042274E+00;  1.8429037E+04;  0.0000000E+00; -6.3348915E-03;  4.0000000E+04;  0.0000000E+00;  3.9596086E+04;  5.0970182E+00;  0.0000000E+00;  2.0720911E-01;  1.4082855E+04;
  9.8473388E-01;  9.9999998E-03; -3.3660321E-09;7905;  7.0082188E-01;  0.0000000E+00; -5.5014979E-08;  1.0047435E+03;  1.4861074E-01;  3.9281228E+03;3; -7.6336876E+01;  0.0000000E+00; -2.5773228E-05;0;  5.3070760E+00;  1.8429855E+04;  0.0000000E+00; -2.9750959E-11;  4.0000000E+04;  0.0000000E+00;  3.9595758E+04;  5.0975804E+00;  0.0000000E+00;  2.0949532E-01;  1.4124973E+04;
  9.8475754E-01;  9.9999998E-03;  1.0036623E-02;7906;  6.9997150E-01;  0.0000000E+00;  4.5094606E-03;  1.0047203E+03;  1.4861095E-01;  3.9088723E+03;3; -7.6474602E+01;  0.0000000E+00; -1.6787742E+00;0;  5.3042293E+00;  1.8429035E+04;  0.0000000E+00; -6.3340254E-03;  4.0000000E+04;  0.0000000E+00;  3.9596082E+04;  5.0970197E+00;  0.0000000E+00;  2.0720936E-01;  1.4082850E+04;
  9.8482746E-01;  9.9999998E-03;  2.0079378E-02;7907;  6.9739556E-01;  0.0000000E+00;  9.0356674E-03;  1.0046474E+03;  1.4861369E-01;  3.8484561E+03;3; -7.6875786E+01;  0.0000000E+00; -3.3060606E+00;0;  5.2960219E+00;  1.8426404E+04;  0.0000000E+00; -2.5162097E-02;  4.0000000E+04;  0.0000000E+00;  3.9597250E+04;  5.0956421E+00;  0.0000000E+00;  2.0037994E-01;  1.3942359E+04;
  9.8493934E-01;  9.9999998E-03;  3.0135132E-02;7908;  6.9303501E-01;  0.0000000E+00;  1.3632367E-02;  1.0045225E+03;  1.4861763E-01;  3.7450972E+03;3; -7.7506584E+01;  0.0000000E+00; -4.8343768E+00;0;  5.2833977E+00;  1.8421703E+04;  0.0000000E+00; -5.5735920E-02;  4.0000000E+04;  0.0000000E+00;  3.9599324E+04;  5.0943170E+00;  0.0000000E+00;  1.8908080E-01;  1.3667618E+04;
  9.8508722E-01;  9.9999998E-03;  4.0208995E-02;7909;  6.8679357E-01;  0.0000000E+00;  1.8361334E-02;  1.0043423E+03;  1.4862281E-01;  3.5958347E+03;3; -7.8318832E+01;  0.0000000E+00; -6.5583558E+00;0;  5.2678604E+00;  1.8414551E+04;  0.0000000E+00; -9.6214674E-02;  4.0000000E+04;  0.0000000E+00;  3.9602883E+04;  5.0943961E+00;  0.0000000E+00;  1.7346407E-01;  1.3219380E+04;
  9.8526067E-01;  9.9999998E-03;  5.0284524E-02;7910;  6.7852199E-01;  0.0000000E+00;  2.2841142E-02;  1.0040934E+03;  1.4863040E-01;  3.3897109E+03;3; -7.9304390E+01;  0.0000000E+00; -1.0795948E+01;0;  5.2514305E+00;  1.8404459E+04;  0.0000000E+00; -1.4325911E-01;  4.0000000E+04;  0.0000000E+00;  3.9607848E+04;  5.0976372E+00;  0.0000000E+00;  1.5379333E-01;  1.2575728E+04;
  9.8544794E-01;  9.9999998E-03;  6.0339890E-02;7911;  6.6799802E-01;  0.0000000E+00;  2.5604304E-02;  1.0037750E+03;  1.4863950E-01;  3.1260364E+03;3; -8.0436401E+01;  0.0000000E+00; -1.8865650E+01;0;  5.2363076E+00;  1.8391232E+04;  0.0000000E+00; -1.9228230E-01;  4.0000000E+04;  0.0000000E+00;  3.9614266E+04;  5.1058350E+00;  0.0000000E+00;  1.3047269E-01;  1.1758668E+04;
  9.9944073E-01;  9.9999998E-03; -1.0048940E-02;7965;  7.6516998E-01;  0.0000000E+00; -6.2449281E-03;  1.0036372E+03;  1.4725359E-01;  3.0115881E+03;3; -4.3113605E+01;  0.0000000E+00;  1.5067266E+00;0;  4.6308861E+00;  1.8746369E+04;  0.0000000E+00; -1.0283232E-02;  4.0000000E+04;  0.0000000E+00;  3.9599129E+04;  4.2682500E+00;  0.0000000E+00;  3.6263612E-01;  1.3816838E+04;
  9.9943870E-01;  9.9999998E-03; -3.8248120E-09;7966;  7.6596951E-01;  0.0000000E+00; -3.6687641E-08;  1.0036443E+03;  1.4725336E-01;  3.0175105E+03;3; -4.2766174E+01;  0.0000000E+00; -2.5604873E-05;0;  4.6296172E+00;  1.8746568E+04;  0.0000000E+00; -2.5995804E-11;  4.0000000E+04;  0.0000000E+00;  3.9598965E+04;  4.2640200E+00;  0.0000000E+00;  3.6559737E-01;  1.3827778E+04;
  9.9944073E-01;  9.9999998E-03;  1.0048932E-02;7967;  7.6517004E-01;  0.0000000E+00;  6.2448699E-03;  1.0036371E+03;  1.4725327E-01;  3.0115881E+03;3; -4.3113590E+01;  0.0000000E+00; -1.5067160E+00;0;  4.6308846E+00;  1.8746371E+04;  0.0000000E+00; -1.0282666E-02;  4.0000000E+04;  0.0000000E+00;  3.9599129E+04;  4.2682486E+00;  0.0000000E+00;  3.6263612E-01;  1.3816848E+04;
  9.9945945E-01;  9.9999998E-03; -2.0101935E-02;7964;  7.6280338E-01;  0.0000000E+00; -1.2469969E-02;  1.0036156E+03;  1.4725508E-01;  2.9937222E+03;3; -4.4108955E+01;  0.0000000E+00;  2.9614785E+00;0;  4.6342640E+00;  1.8745781E+04;  0.0000000E+00; -4.1129116E-02;  4.0000000E+04;  0.0000000E+00;  3.9599559E+04;  4.2803679E+00;  0.0000000E+00;  3.5389602E-01;  1.3763885E+04;
  9.9945945E-01;  9.9999998E-03;  2.0101927E-02;7968;  7.6280332E-01;  0.0000000E+00;  1.2469881E-02;  1.0036157E+03;  1.4725538E-01;  2.9938210E+03;3; -4.4108875E+01;  0.0000000E+00; -2.9615524E+00;0;  4.6342626E+00;  1.8745783E+04;  0.0000000E+00; -4.1127618E-02;  4.0000000E+04;  0.0000000E+00;  3.9599555E+04;  4.2803664E+00;  0.0000000E+00;  3.5389614E-01;  1.3763912E+04;
  9.9950147E-01;  9.9999998E-03; -3.0161718E-02;7963;  7.5883657E-01;  0.0000000E+00; -1.8696502E-02;  1.0035742E+03;  1.4725666E-01;  2.9594705E+03;3; -4.5681084E+01;  0.0000000E+00;  4.3041348E+00;0;  4.6400461E+00;  1.8744506E+04;  0.0000000E+00; -9.2235319E-02;  4.0000000E+04;  0.0000000E+00;  3.9600723E+04;  4.3005548E+00;  0.0000000E+00;  3.3949146E-01;  1.3617732E+04;
  9.9950147E-01;  9.9999998E-03;  3.0161710E-02;7969;  7.5883657E-01;  0.0000000E+00;  1.8696412E-02;  1.0035741E+03;  1.4725642E-01;  2.9593718E+03;3; -4.5681152E+01;  0.0000000E+00; -4.3041816E+00;0;  4.6400442E+00;  1.8744506E+04;  0.0000000E+00; -9.2234708E-02;  4.0000000E+04;  0.0000000E+00;  3.9600723E+04;  4.3005524E+00;  0.0000000E+00;  3.3949164E-01;  1.3617769E+04;
  9.9956876E-01;  9.9999998E-03; -4.0233400E-02;7962;  7.5318789E-01;  0.0000000E+00; -2.5003413E-02;  1.0035085E+03;  1.4725974E-01;  2.9049834E+03;3; -4.7731987E+01;  0.0000000E+00;  5.4643922E+00;0;  4.6491671E+00;  1.8741986E+04;  0.0000000E+00; -1.6222578E-01;  4.0000000E+04;  0.0000000E+00;  3.9603211E+04;  4.3296261E+00;  0.0000000E+00;  3.1954080E-01;  1.3319683E+04;
  9.9956876E-01;  9.9999998E-03;  4.0233396E-02;7970;  7.5318784E-01;  0.0000000E+00;  2.5003361E-02;  1.0035087E+03;  1.4725979E-01;  2.9051809E+03;3; -4.7731983E+01;  0.0000000E+00; -5.4644222E+00;0;  4.6491675E+00;  1.8741986E+04;  0.0000000E+00; -1.6222474E-01;  4.0000000E+04;  0.0000000E+00;  3.9603207E+04;  4.3296270E+00;  0.0000000E+00;  3.1954050E-01;  1.3319723E+04;
  9.9966711E-01;  9.9999998E-03; -5.0313696E-02;7961;  7.4577343E-01;  0.0000000E+00; -3.1522334E-02;  1.0034064E+03;  1.4726278E-01;  2.8204897E+03;3; -5.0122730E+01;  0.0000000E+00;  6.3784509E+00;0;  4.6626925E+00;  1.8737783E+04;  0.0000000E+00; -2.4771193E-01;  4.0000000E+04;  0.0000000E+00;  3.9607160E+04;  4.3683701E+00;  0.0000000E+00;  2.9432252E-01;  1.2832165E+04;
  9.9966711E-01;  9.9999998E-03;  5.0313689E-02;7971;  7.4577326E-01;  0.0000000E+00;  3.1522311E-02;  1.0034065E+03;  1.4726304E-01;  2.8205884E+03;3; -5.0122757E+01;  0.0000000E+00; -6.3784475E+00;0;  4.6626935E+00;  1.8737785E+04;  0.0000000E+00; -2.4771066E-01;  4.0000000E+04;  0.0000000E+00;  3.9607152E+04;  4.3683710E+00;  0.0000000E+00;  2.9432255E-01;  1.2832190E+04;
  9.9980021E-01;  9.9999998E-03; -6.0378268E-02;7960;  7.3650080E-01;  0.0000000E+00; -3.8326539E-02;  1.0032484E+03;  1.4726631E-01;  2.6897026E+03;3; -5.2722183E+01;  0.0000000E+00;  7.3477468E+00;0;  4.6820598E+00;  1.8731301E+04;  0.0000000E+00; -3.4255996E-01;  4.0000000E+04;  0.0000000E+00;  3.9612578E+04;  4.4177089E+00;  0.0000000E+00;  2.6435083E-01;  1.2154698E+04;
  9.9980021E-01;  9.9999998E-03;  6.0378261E-02;7972;  7.3650086E-01;  0.0000000E+00;  3.8326580E-02;  1.0032483E+03;  1.4726616E-01;  2.6896040E+03;3; -5.2722321E+01;  0.0000000E+00; -7.3476954E+00;0;  4.6820655E+00;  1.8731305E+04;  0.0000000E+00; -3.4255683E-01;  4.0000000E+04;  0.0000000E+00;  3.9612582E+04;  4.4177146E+00;  0.0000000E+00;  2.6435098E-01;  1.2154722E+04;
  1.0000099E+00;  9.9999998E-03; -7.0418753E-02;7959;  7.2533917E-01;  0.0000000E+00; -4.4759102E-02;  1.0030335E+03;  1.4726856E-01;  2.5117334E+03;3; -5.5475849E+01;  0.0000000E+00;  1.0828191E+01;0;  4.7073312E+00;  1.8722949E+04;  0.0000000E+00; -4.3863127E-01;  4.0000000E+04;  0.0000000E+00;  3.9619043E+04;  4.4766669E+00;  0.0000000E+00;  2.3066409E-01;  1.1346866E+04;
  1.0003281E+00;  9.9999998E-03; -8.0443583E-02;7958;  7.1200836E-01;  0.0000000E+00; -4.8282731E-02;  1.0027498E+03;  1.4726870E-01;  2.2768103E+03;3; -5.8304394E+01;  0.0000000E+00;  1.9389061E+01;0;  4.7393408E+00;  1.8713520E+04;  0.0000000E+00; -5.2585280E-01;  4.0000000E+04;  0.0000000E+00;  3.9625570E+04;  4.5451274E+00;  0.0000000E+00;  1.9421352E-01;  1.0519936E+04;
  1.0006417E+00;  9.9999998E-03; -9.0457179E-02;7957;  6.9565451E-01;  0.0000000E+00; -4.8736747E-02;  1.0023950E+03;  1.4726792E-01;  1.9830610E+03;3; -6.0730946E+01;  0.0000000E+00;  2.3762873E+01;0;  4.7843685E+00;  1.8702203E+04;  0.0000000E+00; -5.8924693E-01;  4.0000000E+04;  0.0000000E+00;  3.9631484E+04;  4.6292381E+00;  0.0000000E+00;  1.5513019E-01;  9.7836250E+03;
  1.0009781E+00;  9.9999998E-03; -1.0047759E-01;7956;  6.7601937E-01;  0.0000000E+00; -4.8494846E-02;  1.0019866E+03;  1.4726326E-01;  1.6448964E+03;3; -6.2561317E+01;  0.0000000E+00;  2.4353165E+01;0;  4.8429165E+00;  1.8690596E+04;  0.0000000E+00; -6.1512023E-01;  4.0000000E+04;  0.0000000E+00;  3.9635742E+04;  4.7279401E+00;  0.0000000E+00;  1.1497655E-01;  9.2139121E+03;
  1.0141362E+00;  9.9999998E-03; -1.0052008E-02;8026;  8.0356073E-01;  0.0000000E+00; -7.5001135E-03;  1.0027307E+03;  1.4564236E-01;  2.2606116E+03;3; -1.4752261E+01;  0.0000000E+00;  1.2778337E+00;0;  3.8940082E+00;  1.9143730E+04;  0.0000000E+00; -1.3977632E-02;  4.0000000E+04;  0.0000000E+00;  3.9610160E+04;  3.3951354E+00;  0.0000000E+00;  4.9887279E-01;  1.2659134E+04;
  1.0141282E+00;  9.9999998E-03; -4.8702464E-09;8027;  8.0409747E-01;  0.0000000E+00; -2.9059379E-08;  1.0027178E+03;  1.4564376E-01;  2.2499531E+03;3; -1.4348389E+01;  0.0000000E+00; -2.0062031E-05;0;  3.8905716E+00;  1.9142990E+04;  0.0000000E+00; -1.6395179E-11;  4.0000000E+04;  0.0000000E+00;  3.9610309E+04;  3.3885105E+00;  0.0000000E+00;  5.0206125E-01;  1.2632656E+04;
  1.0141362E+00;  9.9999998E-03;  1.0051997E-02;8028;  8.0356055E-01;  0.0000000E+00;  7.5000529E-03;  1.0027307E+03;  1.4564236E-01;  2.2606116E+03;3; -1.4752371E+01;  0.0000000E+00; -1.2778997E+00;0;  3.8940096E+00;  1.9143732E+04;  0.0000000E+00; -1.3977465E-02;  4.0000000E+04;  0.0000000E+00;  3.9610164E+04;  3.3951366E+00;  0.0000000E+00;  4.9887288E-01;  1.2659142E+04;
  1.0141644E+00;  9.9999998E-03; -2.0108400E-02;8025;  8.0194438E-01;  0.0000000E+00; -1.4965018E-02;  1.0027631E+03;  1.4564157E-01;  2.2874546E+03;3; -1.5940508E+01;  0.0000000E+00;  2.5148263E+00;0;  3.9043005E+00;  1.9146053E+04;  0.0000000E+00; -5.5866852E-02;  4.0000000E+04;  0.0000000E+00;  3.9609723E+04;  3.4149737E+00;  0.0000000E+00;  4.8932672E-01;  1.2714721E+04;
  1.0141644E+00;  9.9999998E-03;  2.0108391E-02;8029;  8.0194438E-01;  0.0000000E+00;  1.4964958E-02;  1.0027630E+03;  1.4564133E-01;  2.2874546E+03;3; -1.5940509E+01;  0.0000000E+00; -2.5148454E+00;0;  3.9043014E+00;  1.9146051E+04;  0.0000000E+00; -5.5866390E-02;  4.0000000E+04;  0.0000000E+00;  3.9609719E+04;  3.4149747E+00;  0.0000000E+00;  4.8932672E-01;  1.2714753E+04;
  1.0142183E+00;  9.9999998E-03; -3.0174587E-02;8024;  7.9919589E-01;  0.0000000E+00; -2.2397563E-02;  1.0028113E+03;  1.4563845E-01;  2.3274231E+03;3; -1.7852886E+01;  0.0000000E+00;  3.6598821E+00;0;  3.9217160E+00;  1.9149484E+04;  0.0000000E+00; -1.2520054E-01;  4.0000000E+04;  0.0000000E+00;  3.9609598E+04;  3.4482841E+00;  0.0000000E+00;  4.7343186E-01;  1.2737779E+04;
  1.0142183E+00;  9.9999998E-03;  3.0174581E-02;8030;  7.9919595E-01;  0.0000000E+00;  2.2397507E-02;  1.0028113E+03;  1.4563866E-01;  2.3274231E+03;3; -1.7852863E+01;  0.0000000E+00; -3.6598964E+00;0;  3.9217184E+00;  1.9149488E+04;  0.0000000E+00; -1.2520029E-01;  4.0000000E+04;  0.0000000E+00;  3.9609598E+04;  3.4482863E+00;  0.0000000E+00;  4.7343203E-01;  1.2737805E+04;
  1.0142990E+00;  9.9999998E-03; -4.0254381E-02;8023;  7.9522413E-01;  0.0000000E+00; -2.9852049E-02;  1.0028710E+03;  1.4563443E-01;  2.3768650E+03;3; -2.0401871E+01;  0.0000000E+00;  4.6466808E+00;0;  3.9470921E+00;  1.9153463E+04;  0.0000000E+00; -2.2017673E-01;  4.0000000E+04;  0.0000000E+00;  3.9610613E+04;  3.4959240E+00;  0.0000000E+00;  4.5116803E-01;  1.2651411E+04;
  1.0142990E+00;  9.9999998E-03;  4.0254373E-02;8031;  7.9522419E-01;  0.0000000E+00;  2.9852007E-02;  1.0028708E+03;  1.4563441E-01;  2.3766675E+03;3; -2.0401894E+01;  0.0000000E+00; -4.6467109E+00;0;  3.9470928E+00;  1.9153455E+04;  0.0000000E+00; -2.2017582E-01;  4.0000000E+04;  0.0000000E+00;  3.9610609E+04;  3.4959247E+00;  0.0000000E+00;  4.5116800E-01;  1.2651434E+04;
  1.0144150E+00;  9.9999998E-03; -5.0348721E-02;8022;  7.8993207E-01;  0.0000000E+00; -3.7441984E-02;  1.0029301E+03;  1.4562914E-01;  2.4257139E+03;3; -2.3454769E+01;  0.0000000E+00;  5.3964643E+00;0;  3.9811945E+00;  1.9157379E+04;  0.0000000E+00; -3.3653718E-01;  4.0000000E+04;  0.0000000E+00;  3.9612949E+04;  3.5585504E+00;  0.0000000E+00;  4.2264411E-01;  1.2394000E+04;
  1.0144150E+00;  9.9999998E-03;  5.0348714E-02;8032;  7.8993195E-01;  0.0000000E+00;  3.7441984E-02;  1.0029301E+03;  1.4562891E-01;  2.4257139E+03;3; -2.3454819E+01;  0.0000000E+00; -5.3964925E+00;0;  3.9811931E+00;  1.9157377E+04;  0.0000000E+00; -3.3653489E-01;  4.0000000E+04;  0.0000000E+00;  3.9612949E+04;  3.5585489E+00;  0.0000000E+00;  4.2264408E-01;  1.2394029E+04;
  1.0145653E+00;  9.9999998E-03; -6.0438611E-02;8021;  7.8320104E-01;  0.0000000E+00; -4.5303345E-02;  1.0029709E+03;  1.4562304E-01;  2.4595605E+03;3; -2.6859533E+01;  0.0000000E+00;  5.8324075E+00;0;  4.0253701E+00;  1.9160533E+04;  0.0000000E+00; -4.6624109E-01;  4.0000000E+04;  0.0000000E+00;  3.9616707E+04;  3.6372454E+00;  0.0000000E+00;  3.8812450E-01;  1.1943926E+04;
  1.0145653E+00;  9.9999998E-03;  6.0438607E-02;8033;  7.8320098E-01;  0.0000000E+00;  4.5303360E-02;  1.0029711E+03;  1.4562288E-01;  2.4596594E+03;3; -2.6859537E+01;  0.0000000E+00; -5.8323288E+00;0;  4.0253706E+00;  1.9160531E+04;  0.0000000E+00; -4.6623895E-01;  4.0000000E+04;  0.0000000E+00;  3.9616707E+04;  3.6372454E+00;  0.0000000E+00;  3.8812494E-01;  1.1943926E+04;
  1.0147703E+00;  9.9999998E-03; -7.0508271E-02;8020;  7.7494931E-01;  0.0000000E+00; -5.3537115E-02;  1.0029788E+03;  1.4561398E-01;  2.4660688E+03;3; -3.0424124E+01;  0.0000000E+00;  6.0712481E+00;0;  4.0801163E+00;  1.9162652E+04;  0.0000000E+00; -5.9681714E-01;  4.0000000E+04;  0.0000000E+00;  3.9621980E+04;  3.7317846E+00;  0.0000000E+00;  3.4833160E-01;  1.1333704E+04;
  1.0150495E+00;  9.9999998E-03; -8.0552734E-02;8019;  7.6502383E-01;  0.0000000E+00; -6.1487362E-02;  1.0029440E+03;  1.4560214E-01;  2.4372437E+03;3; -3.4142723E+01;  0.0000000E+00;  8.2542763E+00;0;  4.1461644E+00;  1.9163977E+04;  0.0000000E+00; -7.1065122E-01;  4.0000000E+04;  0.0000000E+00;  3.9627781E+04;  3.8418839E+00;  0.0000000E+00;  3.0428067E-01;  1.0645323E+04;
  1.0153931E+00;  9.9999998E-03; -9.0584755E-02;8018;  7.5292945E-01;  0.0000000E+00; -6.6298448E-02;  1.0028497E+03;  1.4558533E-01;  2.3591709E+03;3; -3.8067265E+01;  0.0000000E+00;  1.5978639E+01;0;  4.2256088E+00;  1.9164816E+04;  0.0000000E+00; -7.8431118E-01;  4.0000000E+04;  0.0000000E+00;  3.9633328E+04;  3.9686251E+00;  0.0000000E+00;  2.5698355E-01;  9.9779678E+03;
  1.0157235E+00;  9.9999998E-03; -1.0061222E-01;8017;  7.3797274E-01;  0.0000000E+00; -6.7187697E-02;  1.0026918E+03;  1.4556774E-01;  2.2283992E+03;3; -4.1580791E+01;  0.0000000E+00;  2.0650909E+01;0;  4.3228717E+00;  1.9163781E+04;  0.0000000E+00; -7.8923953E-01;  4.0000000E+04;  0.0000000E+00;  3.9638082E+04;  4.1155272E+00;  0.0000000E+00;  2.0734465E-01;  9.4025049E+03;
  1.0292776E+00;  9.9999998E-03; -1.0047491E-02;8087;  8.2642323E-01;  0.0000000E+00; -8.4819449E-03;  1.0028359E+03;  1.4375943E-01;  2.3474192E+03;3;  9.0125313E+00;  0.0000000E+00;  9.4825572E-01;0;  3.1552870E+00;  1.9662375E+04;  0.0000000E+00; -1.5706990E-02;  4.0000000E+04;  0.0000000E+00;  3.9628520E+04;  2.5462437E+00;  0.0000000E+00;  6.0904342E-01;  1.0771323E+04;
  1.0292846E+00;  9.9999998E-03; -5.8350378E-09;8088;  8.2671833E-01;  0.0000000E+00; -4.0927954E-08;  1.0028192E+03;  1.4376046E-01;  2.3335061E+03;3;  9.4243574E+00;  0.0000000E+00; -1.9425859E-05;0;  3.1497374E+00;  1.9661199E+04;  0.0000000E+00; -5.5537363E-12;  4.0000000E+04;  0.0000000E+00;  3.9629012E+04;  2.5372944E+00;  0.0000000E+00;  6.1244297E-01;  1.0701801E+04;
  1.0292776E+00;  9.9999998E-03;  1.0047479E-02;8089;  8.2642323E-01;  0.0000000E+00;  8.4818685E-03;  1.0028359E+03;  1.4375937E-01;  2.3473206E+03;3;  9.0125618E+00;  0.0000000E+00; -9.4829667E-01;0;  3.1552908E+00;  1.9662373E+04;  0.0000000E+00; -1.5707197E-02;  4.0000000E+04;  0.0000000E+00;  3.9628520E+04;  2.5462475E+00;  0.0000000E+00;  6.0904342E-01;  1.0771331E+04;
  1.0292609E+00;  9.9999998E-03; -2.0099906E-02;8086;  8.2551777E-01;  0.0000000E+00; -1.6910128E-02;  1.0028989E+03;  1.4375766E-01;  2.3995188E+03;3;  7.7962160E+00;  0.0000000E+00;  1.8793173E+00;0;  3.1718783E+00;  1.9665891E+04;  0.0000000E+00; -6.2792324E-02;  4.0000000E+04;  0.0000000E+00;  3.9627203E+04;  2.5730414E+00;  0.0000000E+00;  5.9883702E-01;  1.0952154E+04;
  1.0292609E+00;  9.9999998E-03;  2.0099895E-02;8090;  8.2551783E-01;  0.0000000E+00;  1.6910061E-02;  1.0028988E+03;  1.4375778E-01;  2.3994202E+03;3;  7.7961783E+00;  0.0000000E+00; -1.8793445E+00;0;  3.1718783E+00;  1.9665887E+04;  0.0000000E+00; -6.2792853E-02;  4.0000000E+04;  0.0000000E+00;  3.9627203E+04;  2.5730407E+00;  0.0000000E+00;  5.9883749E-01;  1.0952179E+04;
  1.0292437E+00;  9.9999998E-03; -3.0156698E-02;8085;  8.2396311E-01;  0.0000000E+00; -2.5259161E-02;  1.0029944E+03;  1.4375393E-01;  2.4785562E+03;3;  5.8257103E+00;  0.0000000E+00;  2.7614679E+00;0;  3.1994951E+00;  1.9671469E+04;  0.0000000E+00; -1.4073430E-01;  4.0000000E+04;  0.0000000E+00;  3.9625590E+04;  2.6176894E+00;  0.0000000E+00;  5.8180571E-01;  1.1168394E+04;
  1.0292437E+00;  9.9999998E-03;  3.0156689E-02;8091;  8.2396305E-01;  0.0000000E+00;  2.5259105E-02;  1.0029944E+03;  1.4375393E-01;  2.4785562E+03;3;  5.8257599E+00;  0.0000000E+00; -2.7614760E+00;0;  3.1994958E+00;  1.9671469E+04;  0.0000000E+00; -1.4073496E-01;  4.0000000E+04;  0.0000000E+00;  3.9625582E+04;  2.6176898E+00;  0.0000000E+00;  5.8180600E-01;  1.1168418E+04;
  1.0292484E+00;  9.9999998E-03; -4.0223230E-02;8084;  8.2169998E-01;  0.0000000E+00; -3.3566117E-02;  1.0031324E+03;  1.4374706E-01;  2.5927200E+03;3;  3.1965623E+00;  0.0000000E+00;  3.5407324E+00;0;  3.2378032E+00;  1.9678979E+04;  0.0000000E+00; -2.4761179E-01;  4.0000000E+04;  0.0000000E+00;  3.9624602E+04;  2.6798229E+00;  0.0000000E+00;  5.5798024E-01;  1.1319821E+04;
  1.0292484E+00;  9.9999998E-03;  4.0223222E-02;8092;  8.2169998E-01;  0.0000000E+00;  3.3566054E-02;  1.0031324E+03;  1.4374714E-01;  2.5928186E+03;3;  3.1965470E+00;  0.0000000E+00; -3.5407591E+00;0;  3.2378025E+00;  1.9678977E+04;  0.0000000E+00; -2.4761067E-01;  4.0000000E+04;  0.0000000E+00;  3.9624598E+04;  2.6798227E+00;  0.0000000E+00;  5.5797994E-01;  1.1319883E+04;
  1.0292854E+00;  9.9999998E-03; -5.0312027E-02;8083;  8.1863648E-01;  0.0000000E+00; -4.1933712E-02;  1.0032953E+03;  1.4373699E-01;  2.7276042E+03;3;  9.8609291E-03;  0.0000000E+00;  4.1433134E+00;0;  3.2873075E+00;  1.9687982E+04;  0.0000000E+00; -3.7886569E-01;  4.0000000E+04;  0.0000000E+00;  3.9625004E+04;  2.7599816E+00;  0.0000000E+00;  5.2732581E-01;  1.1322882E+04;
  1.0292854E+00;  9.9999998E-03;  5.0312020E-02;8093;  8.1863642E-01;  0.0000000E+00;  4.1933689E-02;  1.0032953E+03;  1.4373744E-01;  2.7276042E+03;3;  9.8776128E-03;  0.0000000E+00; -4.1432853E+00;0;  3.2873068E+00;  1.9687982E+04;  0.0000000E+00; -3.7886763E-01;  4.0000000E+04;  0.0000000E+00;  3.9625008E+04;  2.7599807E+00;  0.0000000E+00;  5.2732599E-01;  1.1322893E+04;
  1.0293579E+00;  9.9999998E-03; -6.0413726E-02;8082;  8.1466025E-01;  0.0000000E+00; -5.0477784E-02;  1.0034758E+03;  1.4372444E-01;  2.8769915E+03;3; -3.6153157E+00;  0.0000000E+00;  4.4863062E+00;0;  3.3489726E+00;  1.9697652E+04;  0.0000000E+00; -5.2550739E-01;  4.0000000E+04;  0.0000000E+00;  3.9627031E+04;  2.8590171E+00;  0.0000000E+00;  4.8995540E-01;  1.1130918E+04;
  1.0293579E+00;  9.9999998E-03;  6.0413714E-02;8094;  8.1466031E-01;  0.0000000E+00;  5.0477780E-02;  1.0034758E+03;  1.4372429E-01;  2.8769915E+03;3; -3.6153269E+00;  0.0000000E+00; -4.4862585E+00;0;  3.3489759E+00;  1.9697652E+04;  0.0000000E+00; -5.2550775E-01;  4.0000000E+04;  0.0000000E+00;  3.9627031E+04;  2.8590207E+00;  0.0000000E+00;  4.8995510E-01;  1.1130943E+04;
  1.0294749E+00;  9.9999998E-03; -7.0501447E-02;8081;  8.0966848E-01;  0.0000000E+00; -5.9296034E-02;  1.0036555E+03;  1.4370823E-01;  3.0256858E+03;3; -7.5266619E+00;  0.0000000E+00;  4.4990444E+00;0;  3.4234414E+00;  1.9707471E+04;  0.0000000E+00; -6.7261797E-01;  4.0000000E+04;  0.0000000E+00;  3.9630719E+04;  2.9770596E+00;  0.0000000E+00;  4.4638175E-01;  1.0747620E+04;
  1.0296416E+00;  9.9999998E-03; -8.0567367E-02;8080;  8.0351841E-01;  0.0000000E+00; -6.8374410E-02;  1.0038109E+03;  1.4368851E-01;  3.1543474E+03;3; -1.1580209E+01;  0.0000000E+00;  4.2978997E+00;0;  3.5116286E+00;  1.9716785E+04;  0.0000000E+00; -7.9842681E-01;  4.0000000E+04;  0.0000000E+00;  3.9635453E+04;  3.1141665E+00;  0.0000000E+00;  3.9746210E-01;  1.0234119E+04;
  1.0298487E+00;  9.9999998E-03; -9.0611711E-02;8079;  7.9596698E-01;  0.0000000E+00; -7.6827079E-02;  1.0039209E+03;  1.4366628E-01;  3.2454124E+03;3; -1.5736894E+01;  0.0000000E+00;  6.3293424E+00;0;  3.6151512E+00;  1.9725355E+04;  0.0000000E+00; -8.7441289E-01;  4.0000000E+04;  0.0000000E+00;  3.9640453E+04;  3.2707341E+00;  0.0000000E+00;  3.4441701E-01;  9.6742510E+03;
  1.0301033E+00;  9.9999998E-03; -1.0064051E-01;8078;  7.8659278E-01;  0.0000000E+00; -8.1177212E-02;  1.0039796E+03;  1.4363798E-01;  3.2939473E+03;3; -2.0077654E+01;  0.0000000E+00;  1.3972603E+01;0;  3.7347095E+00;  1.9733367E+04;  0.0000000E+00; -8.6810821E-01;  4.0000000E+04;  0.0000000E+00;  3.9644953E+04;  3.4457593E+00;  0.0000000E+00;  2.8895012E-01;  9.1352383E+03;
  1.0443027E+00;  9.9999998E-03; -1.0027646E-02;8148;  8.4043592E-01;  0.0000000E+00; -9.2026489E-03;  1.0041262E+03;  1.4163509E-01;  3.4145649E+03;3;  2.9425070E+01;  0.0000000E+00;  5.3899634E-01;0;  2.4974833E+00;  2.0307527E+04;  0.0000000E+00; -1.3254250E-02;  4.0000000E+04;  0.0000000E+00;  3.9651324E+04;  1.8156350E+00;  0.0000000E+00;  6.8184841E-01;  8.5342686E+03;
  1.0443190E+00;  9.9999998E-03; -6.0505991E-09;8149;  8.4050435E-01;  0.0000000E+00; -6.7379510E-08;  1.0041089E+03;  1.4163558E-01;  3.4002598E+03;3;  2.9771374E+01;  0.0000000E+00; -2.4271456E-05;0;  2.4914162E+00;  2.0306555E+04;  0.0000000E+00;  8.4926068E-12;  4.0000000E+04;  0.0000000E+00;  3.9652020E+04;  1.8062422E+00;  0.0000000E+00;  6.8517399E-01;  8.4332119E+03;
  1.0443027E+00;  9.9999998E-03;  1.0027633E-02;8150;  8.4043598E-01;  0.0000000E+00;  9.2025427E-03;  1.0041262E+03;  1.4163494E-01;  3.4145649E+03;3;  2.9425068E+01;  0.0000000E+00; -5.3903270E-01;0;  2.4974818E+00;  2.0307525E+04;  0.0000000E+00; -1.3255080E-02;  4.0000000E+04;  0.0000000E+00;  3.9651324E+04;  1.8156335E+00;  0.0000000E+00;  6.8184835E-01;  8.5342979E+03;
  1.0442588E+00;  9.9999998E-03; -2.0063382E-02;8147;  8.4022236E-01;  0.0000000E+00; -1.8347681E-02;  1.0041744E+03;  1.4163351E-01;  3.4544221E+03;3;  2.8399570E+01;  0.0000000E+00;  1.0883626E+00;0;  2.5156124E+00;  2.0310627E+04;  0.0000000E+00; -5.3420581E-02;  4.0000000E+04;  0.0000000E+00;  3.9649121E+04;  1.8437704E+00;  0.0000000E+00;  6.7184198E-01;  8.8089482E+03;
  1.0442588E+00;  9.9999998E-03;  2.0063369E-02;8151;  8.4022236E-01;  0.0000000E+00;  1.8347627E-02;  1.0041745E+03;  1.4163335E-01;  3.4545208E+03;3;  2.8399517E+01;  0.0000000E+00; -1.0884051E+00;0;  2.5156119E+00;  2.0310623E+04;  0.0000000E+00; -5.3421784E-02;  4.0000000E+04;  0.0000000E+00;  3.9649121E+04;  1.8437701E+00;  0.0000000E+00;  6.7184168E-01;  8.8089766E+03;
  1.0441916E+00;  9.9999998E-03; -3.0114060E-02;8146;  8.3983511E-01;  0.0000000E+00; -2.7404193E-02;  1.0042602E+03;  1.4163160E-01;  3.5254541E+03;3;  2.6714844E+01;  0.0000000E+00;  1.6415728E+00;0;  2.5460479E+00;  2.0315574E+04;  0.0000000E+00; -1.2130059E-01;  4.0000000E+04;  0.0000000E+00;  3.9646219E+04;  1.8910092E+00;  0.0000000E+00;  6.5503877E-01;  9.1794893E+03;
  1.0441916E+00;  9.9999998E-03;  3.0114047E-02;8152;  8.3983517E-01;  0.0000000E+00;  2.7404135E-02;  1.0042603E+03;  1.4163123E-01;  3.5255527E+03;3;  2.6714935E+01;  0.0000000E+00; -1.6415781E+00;0;  2.5460474E+00;  2.0315576E+04;  0.0000000E+00; -1.2130199E-01;  4.0000000E+04;  0.0000000E+00;  3.9646219E+04;  1.8910092E+00;  0.0000000E+00;  6.5503830E-01;  9.1795205E+03;
  1.0441153E+00;  9.9999998E-03; -4.0185574E-02;8145;  8.3922964E-01;  0.0000000E+00; -3.6392238E-02;  1.0043851E+03;  1.4162667E-01;  3.6288438E+03;3;  2.4409487E+01;  0.0000000E+00;  2.1637137E+00;0;  2.5888593E+00;  2.0322383E+04;  0.0000000E+00; -2.1691641E-01;  4.0000000E+04;  0.0000000E+00;  3.9643660E+04;  1.9575506E+00;  0.0000000E+00;  6.3130867E-01;  9.5369404E+03;
  1.0441153E+00;  9.9999998E-03;  4.0185563E-02;8153;  8.3922964E-01;  0.0000000E+00;  3.6392260E-02;  1.0043851E+03;  1.4162667E-01;  3.6288438E+03;3;  2.4409592E+01;  0.0000000E+00; -2.1636894E+00;0;  2.5888608E+00;  2.0322385E+04;  0.0000000E+00; -2.1691793E-01;  4.0000000E+04;  0.0000000E+00;  3.9643660E+04;  1.9575520E+00;  0.0000000E+00;  6.3130885E-01;  9.5369648E+03;
  1.0440538E+00;  9.9999998E-03; -5.0258629E-02;8144;  8.3835882E-01;  0.0000000E+00; -4.5364313E-02;  1.0045562E+03;  1.4161801E-01;  3.7704111E+03;3;  2.1567543E+01;  0.0000000E+00;  2.5890706E+00;0;  2.6437945E+00;  2.0331154E+04;  0.0000000E+00; -3.3737624E-01;  4.0000000E+04;  0.0000000E+00;  3.9642258E+04;  2.0431387E+00;  0.0000000E+00;  6.0065591E-01;  9.7656172E+03;
  1.0440538E+00;  9.9999998E-03;  5.0258618E-02;8154;  8.3835876E-01;  0.0000000E+00;  4.5364317E-02;  1.0045563E+03;  1.4161801E-01;  3.7705093E+03;3;  2.1567568E+01;  0.0000000E+00; -2.5889983E+00;0;  2.6437957E+00;  2.0331146E+04;  0.0000000E+00; -3.3737436E-01;  4.0000000E+04;  0.0000000E+00;  3.9642262E+04;  2.0431395E+00;  0.0000000E+00;  6.0065627E-01;  9.7656299E+03;
  1.0440285E+00;  9.9999998E-03; -6.0339462E-02;8143;  8.3716714E-01;  0.0000000E+00; -5.4433860E-02;  1.0047629E+03;  1.4160460E-01;  3.9414719E+03;3;  1.8282984E+01;  0.0000000E+00;  2.8338323E+00;0;  2.7109461E+00;  2.0341900E+04;  0.0000000E+00; -4.7547314E-01;  4.0000000E+04;  0.0000000E+00;  3.9642496E+04;  2.1477921E+00;  0.0000000E+00;  5.6315404E-01;  9.7979824E+03;
  1.0440285E+00;  9.9999998E-03;  6.0339451E-02;8155;  8.3716714E-01;  0.0000000E+00;  5.4433871E-02;  1.0047629E+03;  1.4160481E-01;  3.9414719E+03;3;  1.8282993E+01;  0.0000000E+00; -2.8337619E+00;0;  2.7109528E+00;  2.0341896E+04;  0.0000000E+00; -4.7547013E-01;  4.0000000E+04;  0.0000000E+00;  3.9642496E+04;  2.1477981E+00;  0.0000000E+00;  5.6315464E-01;  9.7980088E+03;
  1.0440605E+00;  9.9999998E-03; -7.0418231E-02;8142;  8.3560604E-01;  0.0000000E+00; -6.3686378E-02;  1.0049971E+03;  1.4158447E-01;  4.1352188E+03;3;  1.4663272E+01;  0.0000000E+00;  2.8147316E+00;0;  2.7904255E+00;  2.0354547E+04;  0.0000000E+00; -6.1766040E-01;  4.0000000E+04;  0.0000000E+00;  3.9644641E+04;  2.2712297E+00;  0.0000000E+00;  5.1919580E-01;  9.6225488E+03;
  1.0442039E+00;  9.9999998E-03; -8.0483556E-02;8141;  8.3367991E-01;  0.0000000E+00; -7.3128313E-02;  1.0052415E+03;  1.4155248E-01;  4.3375400E+03;3;  1.0870063E+01;  0.0000000E+00;  2.4691525E+00;0;  2.8809125E+00;  2.0370465E+04;  0.0000000E+00; -7.4272913E-01;  4.0000000E+04;  0.0000000E+00;  3.9648168E+04;  2.4111681E+00;  0.0000000E+00;  4.6974444E-01;  9.2781973E+03;
  1.0444235E+00;  9.9999998E-03; -9.0535752E-02;8140;  8.3122307E-01;  0.0000000E+00; -8.2545355E-02;  1.0054738E+03;  1.4151315E-01;  4.5297915E+03;3;  6.9140825E+00;  0.0000000E+00;  2.0896914E+00;0;  2.9848766E+00;  2.0387812E+04;  0.0000000E+00; -8.2328475E-01;  4.0000000E+04;  0.0000000E+00;  3.9652523E+04;  2.5690160E+00;  0.0000000E+00;  4.1586071E-01;  8.8439863E+03;
  1.0446507E+00;  9.9999998E-03; -1.0057533E-01;8139;  8.2786387E-01;  0.0000000E+00; -9.0317652E-02;  1.0056586E+03;  1.4147243E-01;  4.6826802E+03;3;  2.7458582E+00;  0.0000000E+00;  4.9740357E+00;0;  3.1061096E+00;  2.0403688E+04;  0.0000000E+00; -8.2885921E-01;  4.0000000E+04;  0.0000000E+00;  3.9656559E+04;  2.7471435E+00;  0.0000000E+00;  3.5896599E-01;  8.3926123E+03;
  1.0586911E+00;  9.9999998E-03; -5.6423066E-09;8210;  8.4879291E-01;  0.0000000E+00; -8.3231996E-08;  1.0059791E+03;  1.3934255E-01;  4.9466182E+03;3;  4.5980751E+01;  0.0000000E+00; -3.7691003E-05;0;  1.9532347E+00;  2.1047463E+04;  0.0000000E+00;  1.4599129E-11;  4.0000000E+04;  0.0000000E+00;  3.9675715E+04;  1.2345965E+00;  0.0000000E+00;  7.1863812E-01;  6.2015903E+03;
  1.0586821E+00;  9.9999998E-03; -9.9965595E-03;8209;  8.4888500E-01;  0.0000000E+00; -9.5511284E-03;  1.0059846E+03;  1.3934124E-01;  4.9510571E+03;3;  4.5769020E+01;  0.0000000E+00;  1.6825771E-01;0;  1.9583211E+00;  2.1048277E+04;  0.0000000E+00; -6.8977056E-03;  4.0000000E+04;  0.0000000E+00;  3.9674773E+04;  1.2427177E+00;  0.0000000E+00;  7.1560335E-01;  6.3151597E+03;
  1.0586821E+00;  9.9999998E-03;  9.9965474E-03;8211;  8.4888506E-01;  0.0000000E+00;  9.5509691E-03;  1.0059846E+03;  1.3934103E-01;  4.9511553E+03;3;  4.5768990E+01;  0.0000000E+00; -1.6832468E-01;0;  1.9583222E+00;  2.1048275E+04;  0.0000000E+00; -6.8989834E-03;  4.0000000E+04;  0.0000000E+00;  3.9674777E+04;  1.2427185E+00;  0.0000000E+00;  7.1560371E-01;  6.3151743E+03;
  1.0586522E+00;  9.9999998E-03; -2.0001989E-02;8208;  8.4916043E-01;  0.0000000E+00; -1.9050602E-02;  1.0060045E+03;  1.3933891E-01;  4.9675303E+03;3;  4.5111565E+01;  0.0000000E+00;  3.6646092E-01;0;  1.9737787E+00;  2.1050516E+04;  0.0000000E+00; -2.8481115E-02;  4.0000000E+04;  0.0000000E+00;  3.9672223E+04;  1.2673327E+00;  0.0000000E+00;  7.0644611E-01;  6.6297500E+03;
  1.0586522E+00;  9.9999998E-03;  2.0001978E-02;8212;  8.4916037E-01;  0.0000000E+00;  1.9050373E-02;  1.0060044E+03;  1.3933864E-01;  4.9675303E+03;3;  4.5111713E+01;  0.0000000E+00; -3.6649859E-01;0;  1.9737818E+00;  2.1050516E+04;  0.0000000E+00; -2.8483303E-02;  4.0000000E+04;  0.0000000E+00;  3.9672223E+04;  1.2673352E+00;  0.0000000E+00;  7.0644659E-01;  6.6297793E+03;
  1.0586061E+00;  9.9999998E-03; -3.0024916E-02;8207;  8.4961438E-01;  0.0000000E+00; -2.8472198E-02;  1.0060405E+03;  1.3933323E-01;  4.9973188E+03;3;  4.4050011E+01;  0.0000000E+00;  6.0734576E-01;0;  1.9998091E+00;  2.1054342E+04;  0.0000000E+00; -6.7080721E-02;  4.0000000E+04;  0.0000000E+00;  3.9668805E+04;  1.3087807E+00;  0.0000000E+00;  6.9102848E-01;  7.0703076E+03;
  1.0586061E+00;  9.9999998E-03;  3.0024905E-02;8213;  8.4961438E-01;  0.0000000E+00;  2.8472032E-02;  1.0060405E+03;  1.3933365E-01;  4.9974175E+03;3;  4.4049854E+01;  0.0000000E+00; -6.0735255E-01;0;  1.9998101E+00;  2.1054340E+04;  0.0000000E+00; -6.7082956E-02;  4.0000000E+04;  0.0000000E+00;  3.9668805E+04;  1.3087816E+00;  0.0000000E+00;  6.9102848E-01;  7.0703564E+03;
  1.0585613E+00;  9.9999998E-03; -4.0073577E-02;8206;  8.5024393E-01;  0.0000000E+00; -3.7832011E-02;  1.0061094E+03;  1.3932472E-01;  5.0544263E+03;3;  4.2562298E+01;  0.0000000E+00;  8.7419283E-01;0;  2.0363836E+00;  2.1060262E+04;  0.0000000E+00; -1.2536485E-01;  4.0000000E+04;  0.0000000E+00;  3.9665297E+04;  1.3672173E+00;  0.0000000E+00;  6.6916645E-01;  7.5300674E+03;
  1.0585613E+00;  9.9999998E-03;  4.0073570E-02;8214;  8.5024399E-01;  0.0000000E+00;  3.7831914E-02;  1.0061093E+03;  1.3932472E-01;  5.0543276E+03;3;  4.2562435E+01;  0.0000000E+00; -8.7418199E-01;0;  2.0363855E+00;  2.1060264E+04;  0.0000000E+00; -1.2536643E-01;  4.0000000E+04;  0.0000000E+00;  3.9665297E+04;  1.3672191E+00;  0.0000000E+00;  6.6916651E-01;  7.5300903E+03;
  1.0585347E+00;  9.9999998E-03; -5.0152540E-02;8205;  8.5103774E-01;  0.0000000E+00; -4.7193822E-02;  1.0062185E+03;  1.3931048E-01;  5.1446689E+03;3;  4.0685932E+01;  0.0000000E+00;  1.1042409E+00;0;  2.0836554E+00;  2.1068875E+04;  0.0000000E+00; -2.0463128E-01;  4.0000000E+04;  0.0000000E+00;  3.9662727E+04;  1.4429604E+00;  0.0000000E+00;  6.4069486E-01;  7.8990308E+03;
  1.0585347E+00;  9.9999998E-03;  5.0152533E-02;8215;  8.5103774E-01;  0.0000000E+00;  4.7193661E-02;  1.0062187E+03;  1.3931032E-01;  5.1447676E+03;3;  4.0685883E+01;  0.0000000E+00; -1.1042008E+00;0;  2.0836573E+00;  2.1068873E+04;  0.0000000E+00; -2.0463260E-01;  4.0000000E+04;  0.0000000E+00;  3.9662730E+04;  1.4429628E+00;  0.0000000E+00;  6.4069456E-01;  7.8990430E+03;
  1.0585409E+00;  9.9999998E-03; -6.0234357E-02;8204;  8.5197622E-01;  0.0000000E+00; -5.6615788E-02;  1.0063641E+03;  1.3928886E-01;  5.2650874E+03;3;  3.8439323E+01;  0.0000000E+00;  1.2314336E+00;0;  2.1418109E+00;  2.1080039E+04;  0.0000000E+00; -3.0248612E-01;  4.0000000E+04;  0.0000000E+00;  3.9661488E+04;  1.5361394E+00;  0.0000000E+00;  6.0567164E-01;  8.0895059E+03;
  1.0585411E+00;  9.9999998E-03;  6.0234349E-02;8216;  8.5197628E-01;  0.0000000E+00;  5.6615688E-02;  1.0063640E+03;  1.3928893E-01;  5.2649888E+03;3;  3.8439297E+01;  0.0000000E+00; -1.2313697E+00;0;  2.1418138E+00;  2.1080037E+04;  0.0000000E+00; -3.0248415E-01;  4.0000000E+04;  0.0000000E+00;  3.9661488E+04;  1.5361421E+00;  0.0000000E+00;  6.0567153E-01;  8.0895029E+03;
  1.0585757E+00;  9.9999998E-03; -7.0308529E-02;8203;  8.5301995E-01;  0.0000000E+00; -6.6147238E-02;  1.0065478E+03;  1.3926236E-01;  5.4170615E+03;3;  3.5798885E+01;  0.0000000E+00;  1.1657276E+00;0;  2.2118535E+00;  2.1093225E+04;  0.0000000E+00; -4.1164342E-01;  4.0000000E+04;  0.0000000E+00;  3.9662234E+04;  1.6474822E+00;  0.0000000E+00;  5.6437147E-01;  8.0762842E+03;
  1.0586262E+00;  9.9999998E-03; -8.0370516E-02;8202;  8.5411590E-01;  0.0000000E+00; -7.5754821E-02;  1.0067459E+03;  1.3923226E-01;  5.5809668E+03;3;  3.2806652E+01;  0.0000000E+00;  8.3450800E-01;0;  2.2952707E+00;  2.1107182E+04;  0.0000000E+00; -5.1880497E-01;  4.0000000E+04;  0.0000000E+00;  3.9664363E+04;  1.7778593E+00;  0.0000000E+00;  5.1741141E-01;  7.8924917E+03;
  1.0586853E+00;  9.9999998E-03; -9.0418033E-02;8201;  8.5520697E-01;  0.0000000E+00; -8.5310049E-02;  1.0069420E+03;  1.3920198E-01;  5.7430952E+03;3;  2.9407307E+01;  0.0000000E+00;  1.8725166E-01;0;  2.3933868E+00;  2.1120820E+04;  0.0000000E+00; -6.0472113E-01;  4.0000000E+04;  0.0000000E+00;  3.9667531E+04;  1.9275150E+00;  0.0000000E+00;  4.6587175E-01;  7.6028569E+03;
  1.0587496E+00;  9.9999998E-03; -1.0045609E-01;8200;  8.5624546E-01;  0.0000000E+00; -9.4485752E-02;  1.0071120E+03;  1.3917102E-01;  5.8838218E+03;3;  2.5646252E+01;  0.0000000E+00; -5.3502220E-01;0;  2.5073843E+00;  2.1133264E+04;  0.0000000E+00; -6.4663410E-01;  4.0000000E+04;  0.0000000E+00;  3.9670789E+04;  2.0961375E+00;  0.0000000E+00;  4.1124684E-01;  7.2778555E+03;
  1.0725600E+00;  9.9999998E-03; -9.9840919E-03;8270;  8.5310262E-01;  0.0000000E+00; -9.3687298E-03;  1.0075550E+03;  1.3692909E-01;  6.2482671E+03;3;  5.4283672E+01;  0.0000000E+00;  1.0621969E-01;0;  1.5236442E+00;  2.1847797E+04;  0.0000000E+00;  8.0987083E-04;  4.0000000E+04;  0.0000000E+00;  3.9697320E+04;  8.0708742E-01;  0.0000000E+00;  7.1655673E-01;  4.2531045E+03;
  1.0725549E+00;  9.9999998E-03; -5.8998175E-09;8271;  8.5298389E-01;  0.0000000E+00; -1.1234773E-07;  1.0075613E+03;  1.3693172E-01;  6.2534932E+03;3;  5.4572971E+01;  0.0000000E+00; -3.9290695E-05;0;  1.5199740E+00;  2.1847043E+04;  0.0000000E+00;  1.9090696E-11;  4.0000000E+04;  0.0000000E+00;  3.9698176E+04;  8.0071938E-01;  0.0000000E+00;  7.1925455E-01;  4.1440039E+03;
  1.0725600E+00;  9.9999998E-03;  9.9840797E-03;8272;  8.5310262E-01;  0.0000000E+00;  9.3684820E-03;  1.0075552E+03;  1.3692938E-01;  6.2483657E+03;3;  5.4283596E+01;  0.0000000E+00; -1.0629862E-01;0;  1.5236441E+00;  2.1847799E+04;  0.0000000E+00;  8.0859242E-04;  4.0000000E+04;  0.0000000E+00;  3.9697324E+04;  8.0708808E-01;  0.0000000E+00;  7.1655601E-01;  4.2531240E+03;
  1.0725733E+00;  9.9999998E-03; -1.9977687E-02;8269;  8.5351682E-01;  0.0000000E+00; -1.8710233E-02;  1.0075413E+03;  1.3692211E-01;  6.2369272E+03;3;  5.3618553E+01;  0.0000000E+00;  2.7356875E-01;0;  1.5347643E+00;  2.1850062E+04;  0.0000000E+00;  2.2361365E-03;  4.0000000E+04;  0.0000000E+00;  3.9694863E+04;  8.2634795E-01;  0.0000000E+00;  7.0841634E-01;  4.5584316E+03;
  1.0725733E+00;  9.9999998E-03;  1.9977676E-02;8273;  8.5351682E-01;  0.0000000E+00;  1.8709984E-02;  1.0075412E+03;  1.3692179E-01;  6.2368286E+03;3;  5.3618580E+01;  0.0000000E+00; -2.7360898E-01;0;  1.5347658E+00;  2.1850068E+04;  0.0000000E+00;  2.2344699E-03;  4.0000000E+04;  0.0000000E+00;  3.9694863E+04;  8.2634908E-01;  0.0000000E+00;  7.0841676E-01;  4.5584390E+03;
  1.0725935E+00;  9.9999998E-03; -2.9990016E-02;8268;  8.5423517E-01;  0.0000000E+00; -2.7974101E-02;  1.0075247E+03;  1.3690996E-01;  6.2231206E+03;3;  5.2624790E+01;  0.0000000E+00;  5.5528033E-01;0;  1.5536399E+00;  2.1853746E+04;  0.0000000E+00;  1.4239452E-03;  4.0000000E+04;  0.0000000E+00;  3.9691391E+04;  8.5893035E-01;  0.0000000E+00;  6.9470954E-01;  4.9974746E+03;
  1.0725935E+00;  9.9999998E-03;  2.9990004E-02;8274;  8.5423523E-01;  0.0000000E+00;  2.7973874E-02;  1.0075248E+03;  1.3691011E-01;  6.2232192E+03;3;  5.2624573E+01;  0.0000000E+00; -5.5530608E-01;0;  1.5536408E+00;  2.1853738E+04;  0.0000000E+00;  1.4203455E-03;  4.0000000E+04;  0.0000000E+00;  3.9691391E+04;  8.5893083E-01;  0.0000000E+00;  6.9470996E-01;  4.9974780E+03;
  1.0726142E+00;  9.9999998E-03; -4.0029511E-02;8267;  8.5521561E-01;  0.0000000E+00; -3.7140850E-02;  1.0075131E+03;  1.3689466E-01;  6.2135547E+03;3;  5.1181725E+01;  0.0000000E+00;  9.7090244E-01;0;  1.5808828E+00;  2.1858582E+04;  0.0000000E+00; -5.9165834E-03;  4.0000000E+04;  0.0000000E+00;  3.9687465E+04;  9.0562356E-01;  0.0000000E+00;  6.7525917E-01;  5.4794087E+03;
  1.0726142E+00;  9.9999998E-03;  4.0029500E-02;8275;  8.5521567E-01;  0.0000000E+00;  3.7140675E-02;  1.0075131E+03;  1.3689466E-01;  6.2136533E+03;3;  5.1181782E+01;  0.0000000E+00; -9.7089297E-01;0;  1.5808847E+00;  2.1858586E+04;  0.0000000E+00; -5.9192763E-03;  4.0000000E+04;  0.0000000E+00;  3.9687465E+04;  9.0562469E-01;  0.0000000E+00;  6.7526001E-01;  5.4794414E+03;
  1.0726149E+00;  9.9999998E-03; -5.0097328E-02;8266;  8.5638618E-01;  0.0000000E+00; -4.6213046E-02;  1.0075181E+03;  1.3687886E-01;  6.2177939E+03;3;  4.9311569E+01;  0.0000000E+00;  1.4478259E+00;0;  1.6177220E+00;  2.1863631E+04;  0.0000000E+00; -2.5049116E-02;  4.0000000E+04;  0.0000000E+00;  3.9684262E+04;  9.6780980E-01;  0.0000000E+00;  6.4991230E-01;  5.9060898E+03;
  1.0726149E+00;  9.9999998E-03;  5.0097317E-02;8276;  8.5638624E-01;  0.0000000E+00;  4.6212986E-02;  1.0075179E+03;  1.3687904E-01;  6.2175967E+03;3;  4.9311607E+01;  0.0000000E+00; -1.4477991E+00;0;  1.6177230E+00;  2.1863633E+04;  0.0000000E+00; -2.5051806E-02;  4.0000000E+04;  0.0000000E+00;  3.9684262E+04;  9.6781075E-01;  0.0000000E+00;  6.4991224E-01;  5.9061147E+03;
  1.0725504E+00;  9.9999998E-03; -6.0190592E-02;8265;  8.5771900E-01;  0.0000000E+00; -5.5259638E-02;  1.0075392E+03;  1.3686854E-01;  6.2352544E+03;3;  4.7142300E+01;  0.0000000E+00;  1.9451634E+00;0;  1.6663690E+00;  2.1866613E+04;  0.0000000E+00; -6.1723828E-02;  4.0000000E+04;  0.0000000E+00;  3.9681973E+04;  1.0477632E+00;  0.0000000E+00;  6.1860573E-01;  6.1997866E+03;
  1.0725504E+00;  9.9999998E-03;  6.0190581E-02;8277;  8.5771906E-01;  0.0000000E+00;  5.5259556E-02;  1.0075392E+03;  1.3686854E-01;  6.2352544E+03;3;  4.7142262E+01;  0.0000000E+00; -1.9451241E+00;0;  1.6663709E+00;  2.1866609E+04;  0.0000000E+00; -6.1722796E-02;  4.0000000E+04;  0.0000000E+00;  3.9681977E+04;  1.0477649E+00;  0.0000000E+00;  6.1860603E-01;  6.1997842E+03;
  1.0724844E+00;  9.9999998E-03; -7.0275672E-02;8264;  8.5918111E-01;  0.0000000E+00; -6.4252056E-02;  1.0075885E+03;  1.3685654E-01;  6.2759834E+03;3;  4.4654774E+01;  0.0000000E+00;  2.3693643E+00;0;  1.7257508E+00;  2.1870422E+04;  0.0000000E+00; -1.1777464E-01;  4.0000000E+04;  0.0000000E+00;  3.9681324E+04;  1.1441578E+00;  0.0000000E+00;  5.8159304E-01;  6.3062656E+03;
  1.0724295E+00;  9.9999998E-03; -8.0335520E-02;8263;  8.6071867E-01;  0.0000000E+00; -7.3076710E-02;  1.0076613E+03;  1.3684143E-01;  6.3362314E+03;3;  4.1902779E+01;  0.0000000E+00;  2.5771863E+00;0;  1.7964239E+00;  2.1875064E+04;  0.0000000E+00; -1.9109316E-01;  4.0000000E+04;  0.0000000E+00;  3.9682199E+04;  1.2569103E+00;  0.0000000E+00;  5.3951359E-01;  6.2395200E+03;
  1.0723965E+00;  9.9999998E-03; -9.0374634E-02;8262;  8.6232829E-01;  0.0000000E+00; -8.1554949E-02;  1.0077458E+03;  1.3682386E-01;  6.4061377E+03;3;  3.9099907E+01;  0.0000000E+00;  2.4455290E+00;0;  1.8791505E+00;  2.1880617E+04;  0.0000000E+00; -2.7474573E-01;  4.0000000E+04;  0.0000000E+00;  3.9684121E+04;  1.3857888E+00;  0.0000000E+00;  4.9336174E-01;  6.0614536E+03;
  1.0723881E+00;  9.9999998E-03; -1.0039589E-01;8261;  8.6404043E-01;  0.0000000E+00; -8.9543723E-02;  1.0078233E+03;  1.3680294E-01;  6.4702227E+03;3;  3.6115376E+01;  0.0000000E+00;  1.8251215E+00;0;  1.9748462E+00;  2.1886732E+04;  0.0000000E+00; -3.5786781E-01;  4.0000000E+04;  0.0000000E+00;  3.9686402E+04;  1.5303416E+00;  0.0000000E+00;  4.4450459E-01;  5.8523501E+03;
  1.0860084E+00;  9.9999998E-03; -6.2237788E-09;8332;  8.5454029E-01;  0.0000000E+00; -1.1549423E-07;  1.0082141E+03;  1.3448784E-01;  6.7907329E+03;3;  5.7640064E+01;  0.0000000E+00; -3.4262019E-05;0;  1.1746703E+00;  2.2657490E+04;  0.0000000E+00;  1.6597595E-11;  4.0000000E+04;  0.0000000E+00;  3.9717270E+04;  4.8049858E-01;  0.0000000E+00;  6.9417173E-01;  2.4208635E+03;
  1.0860083E+00;  9.9999998E-03; -1.0014826E-02;8331;  8.5467017E-01;  0.0000000E+00; -8.6381249E-03;  1.0081984E+03;  1.3448696E-01;  6.7777241E+03;3;  5.7429222E+01;  0.0000000E+00;  4.2036337E-01;0;  1.1774652E+00;  2.2657297E+04;  0.0000000E+00;  6.7655472E-03;  4.0000000E+04;  0.0000000E+00;  3.9716531E+04;  4.8562732E-01;  0.0000000E+00;  6.9183785E-01;  2.5122957E+03;
  1.0860083E+00;  9.9999998E-03;  1.0014814E-02;8333;  8.5467023E-01;  0.0000000E+00;  8.6378735E-03;  1.0081986E+03;  1.3448726E-01;  6.7779214E+03;3;  5.7429028E+01;  0.0000000E+00; -4.2046851E-01;0;  1.1774648E+00;  2.2657299E+04;  0.0000000E+00;  6.7643882E-03;  4.0000000E+04;  0.0000000E+00;  3.9716531E+04;  4.8562747E-01;  0.0000000E+00;  6.9183737E-01;  2.5123027E+03;
  1.0860085E+00;  9.9999998E-03; -2.0030899E-02;8330;  8.5511464E-01;  0.0000000E+00; -1.7280858E-02;  1.0081520E+03;  1.3448393E-01;  6.7393872E+03;3;  5.6771172E+01;  0.0000000E+00;  8.1987149E-01;0;  1.1858770E+00;  2.2656859E+04;  0.0000000E+00;  2.6155237E-02;  4.0000000E+04;  0.0000000E+00;  3.9714438E+04;  5.0107825E-01;  0.0000000E+00;  6.8479872E-01;  2.7699597E+03;
  1.0860085E+00;  9.9999998E-03;  2.0030888E-02;8334;  8.5511464E-01;  0.0000000E+00;  1.7280655E-02;  1.0081521E+03;  1.3448362E-01;  6.7394858E+03;3;  5.6771294E+01;  0.0000000E+00; -8.1989247E-01;0;  1.1858773E+00;  2.2656859E+04;  0.0000000E+00;  2.6153192E-02;  4.0000000E+04;  0.0000000E+00;  3.9714438E+04;  5.0107813E-01;  0.0000000E+00;  6.8479919E-01;  2.7699846E+03;
  1.0860040E+00;  9.9999998E-03; -3.0051734E-02;8329;  8.5586751E-01;  0.0000000E+00; -2.5838230E-02;  1.0080810E+03;  1.3447839E-01;  6.6806509E+03;3;  5.5665138E+01;  0.0000000E+00;  1.3715554E+00;0;  1.2002090E+00;  2.2655982E+04;  0.0000000E+00;  5.5438381E-02;  4.0000000E+04;  0.0000000E+00;  3.9711379E+04;  5.2723581E-01;  0.0000000E+00;  6.7297322E-01;  3.1476057E+03;
  1.0860040E+00;  9.9999998E-03;  3.0051725E-02;8335;  8.5586756E-01;  0.0000000E+00;  2.5838090E-02;  1.0080811E+03;  1.3447845E-01;  6.6807495E+03;3;  5.5664928E+01;  0.0000000E+00; -1.3715858E+00;0;  1.2002103E+00;  2.2655980E+04;  0.0000000E+00;  5.5435222E-02;  4.0000000E+04;  0.0000000E+00;  3.9711379E+04;  5.2723694E-01;  0.0000000E+00;  6.7297345E-01;  3.1476440E+03;
  1.0859960E+00;  9.9999998E-03; -4.0075883E-02;8328;  8.5687399E-01;  0.0000000E+00; -3.4227811E-02;  1.0079941E+03;  1.3447125E-01;  6.6088081E+03;3;  5.4103939E+01;  0.0000000E+00;  2.2489662E+00;0;  1.2207518E+00;  2.2654785E+04;  0.0000000E+00;  8.9975558E-02;  4.0000000E+04;  0.0000000E+00;  3.9707840E+04;  5.6451440E-01;  0.0000000E+00;  6.5623742E-01;  3.5736816E+03;
  1.0859960E+00;  9.9999998E-03;  4.0075872E-02;8336;  8.5687405E-01;  0.0000000E+00;  3.4227747E-02;  1.0079943E+03;  1.3447122E-01;  6.6090054E+03;3;  5.4103729E+01;  0.0000000E+00; -2.2490125E+00;0;  1.2207530E+00;  2.2654787E+04;  0.0000000E+00;  8.9974105E-02;  4.0000000E+04;  0.0000000E+00;  3.9707832E+04;  5.6451494E-01;  0.0000000E+00;  6.5623802E-01;  3.5736790E+03;
  1.0859880E+00;  9.9999998E-03; -5.0109953E-02;8327;  8.5807556E-01;  0.0000000E+00; -4.2420007E-02;  1.0078950E+03;  1.3446140E-01;  6.5269136E+03;3;  5.2250332E+01;  0.0000000E+00;  3.1737463E+00;0;  1.2478921E+00;  2.2653566E+04;  0.0000000E+00;  1.2316564E-01;  4.0000000E+04;  0.0000000E+00;  3.9704609E+04;  6.1341423E-01;  0.0000000E+00;  6.3447797E-01;  3.9670503E+03;
  1.0859882E+00;  9.9999998E-03;  5.0109945E-02;8337;  8.5807562E-01;  0.0000000E+00;  4.2419959E-02;  1.0078949E+03;  1.3446157E-01;  6.5268149E+03;3;  5.2250156E+01;  0.0000000E+00; -3.1737790E+00;0;  1.2478926E+00;  2.2653566E+04;  0.0000000E+00;  1.2316494E-01;  4.0000000E+04;  0.0000000E+00;  3.9704609E+04;  6.1341518E-01;  0.0000000E+00;  6.3447750E-01;  3.9670220E+03;
  1.0859745E+00;  9.9999998E-03; -6.0166329E-02;8326;  8.5949874E-01;  0.0000000E+00; -5.0459512E-02;  1.0078018E+03;  1.3445005E-01;  6.4498481E+03;3;  5.0258007E+01;  0.0000000E+00;  4.1188364E+00;0;  1.2824340E+00;  2.2652154E+04;  0.0000000E+00;  1.4637761E-01;  4.0000000E+04;  0.0000000E+00;  3.9702277E+04;  6.7475796E-01;  0.0000000E+00;  6.0767597E-01;  4.2563159E+03;
  1.0859745E+00;  9.9999998E-03;  6.0166322E-02;8338;  8.5949874E-01;  0.0000000E+00;  5.0459467E-02;  1.0078018E+03;  1.3445012E-01;  6.4498481E+03;3;  5.0257881E+01;  0.0000000E+00; -4.1187744E+00;0;  1.2824337E+00;  2.2652154E+04;  0.0000000E+00;  1.4637610E-01;  4.0000000E+04;  0.0000000E+00;  3.9702277E+04;  6.7475873E-01;  0.0000000E+00;  6.0767496E-01;  4.2563354E+03;
  1.0859193E+00;  9.9999998E-03; -7.0248902E-02;8325;  8.6112368E-01;  0.0000000E+00; -5.8311060E-02;  1.0077201E+03;  1.3444214E-01;  6.3823511E+03;3;  4.8042843E+01;  0.0000000E+00;  5.0125680E+00;0;  1.3262167E+00;  2.2649285E+04;  0.0000000E+00;  1.4888903E-01;  4.0000000E+04;  0.0000000E+00;  3.9701094E+04;  7.5016725E-01;  0.0000000E+00;  5.7604951E-01;  4.4016040E+03;
  1.0858039E+00;  9.9999998E-03; -8.0322005E-02;8324;  8.6292046E-01;  0.0000000E+00; -6.5845564E-02;  1.0076486E+03;  1.3444036E-01;  6.3232427E+03;3;  4.5649139E+01;  0.0000000E+00;  5.6475339E+00;0;  1.3808074E+00;  2.2644307E+04;  0.0000000E+00;  1.1984207E-01;  4.0000000E+04;  0.0000000E+00;  3.9701105E+04;  8.4062338E-01;  0.0000000E+00;  5.4018402E-01;  4.4063179E+03;
  1.0856634E+00;  9.9999998E-03; -9.0361692E-02;8323;  8.6490017E-01;  0.0000000E+00; -7.2885863E-02;  1.0075895E+03;  1.3444000E-01;  6.2743887E+03;3;  4.3263752E+01;  0.0000000E+00;  5.8163314E+00;0;  1.4464118E+00;  2.2638988E+04;  0.0000000E+00;  5.1977683E-02;  4.0000000E+04;  0.0000000E+00;  3.9701887E+04;  9.4546175E-01;  0.0000000E+00;  5.0095016E-01;  4.3137612E+03;
  1.0855415E+00;  9.9999998E-03; -1.0038153E-01;8322;  8.6713040E-01;  0.0000000E+00; -7.9332389E-02;  1.0075380E+03;  1.3443677E-01;  6.2318379E+03;3;  4.0842506E+01;  0.0000000E+00;  5.4101124E+00;0;  1.5229827E+00;  2.2634887E+04;  0.0000000E+00; -5.6943454E-02;  4.0000000E+04;  0.0000000E+00;  3.9703164E+04;  1.0635419E+00;  0.0000000E+00;  4.5944080E-01;  4.1991606E+03;
  1.0987267E+00;  9.9999998E-03; -4.0045902E-02;8389;  8.5707080E-01;  0.0000000E+00; -2.9823326E-02;  1.0074187E+03;  1.3213512E-01;  6.1304536E+03;3;  5.5545990E+01;  0.0000000E+00;  3.2572985E+00;0;  9.3927056E-01;  2.3415266E+04;  0.0000000E+00;  1.3363434E-01;  4.0000000E+04;  0.0000000E+00;  3.9725496E+04;  3.1903845E-01;  0.0000000E+00;  6.2023211E-01;  1.8570394E+03;
  1.0987345E+00;  9.9999998E-03; -3.0030141E-02;8390;  8.5600084E-01;  0.0000000E+00; -2.2551486E-02;  1.0075516E+03;  1.3213718E-01;  6.2401899E+03;3;  5.6890171E+01;  0.0000000E+00;  2.2714810E+00;0;  9.2550159E-01;  2.3420449E+04;  0.0000000E+00;  7.8530855E-02;  4.0000000E+04;  0.0000000E+00;  3.9727938E+04;  2.9125121E-01;  0.0000000E+00;  6.3425040E-01;  1.5651858E+03;
  1.0987388E+00;  9.9999998E-03; -2.0016780E-02;8391;  8.5523593E-01;  0.0000000E+00; -1.5159681E-02;  1.0076523E+03;  1.3213846E-01;  6.3234277E+03;3;  5.7880054E+01;  0.0000000E+00;  1.4172692E+00;0;  9.1593289E-01;  2.3424268E+04;  0.0000000E+00;  3.5857569E-02;  4.0000000E+04;  0.0000000E+00;  3.9729949E+04;  2.7176359E-01;  0.0000000E+00;  6.4416933E-01;  1.3170586E+03;
  1.0987403E+00;  9.9999998E-03; -1.0007118E-02;8392;  8.5480511E-01;  0.0000000E+00; -7.6458631E-03;  1.0077136E+03;  1.3213947E-01;  6.3740610E+03;3;  5.8540733E+01;  0.0000000E+00;  6.5069103E-01;0;  9.1030061E-01;  2.3426523E+04;  0.0000000E+00;  9.0971868E-03;  4.0000000E+04;  0.0000000E+00;  3.9731348E+04;  2.6022682E-01;  0.0000000E+00;  6.5007383E-01;  1.1524629E+03;
  1.0987405E+00;  9.9999998E-03; -5.3826272E-09;8393;  8.5466158E-01;  0.0000000E+00; -1.2064561E-07;  1.0077366E+03;  1.3214003E-01;  6.3930728E+03;3;  5.8850735E+01;  0.0000000E+00; -6.7513603E-05;0;  9.0844494E-01;  2.3427275E+04;  0.0000000E+00;  1.0990788E-11;  4.0000000E+04;  0.0000000E+00;  3.9731762E+04;  2.5641143E-01;  0.0000000E+00;  6.5203351E-01;  1.0950969E+03;
  1.0987402E+00;  9.9999998E-03;  1.0007108E-02;8394;  8.5480511E-01;  0.0000000E+00;  7.6456731E-03;  1.0077137E+03;  1.3213922E-01;  6.3742583E+03;3;  5.8540909E+01;  0.0000000E+00; -6.5078443E-01;0;  9.1030163E-01;  2.3426525E+04;  0.0000000E+00;  9.0963766E-03;  4.0000000E+04;  0.0000000E+00;  3.9731352E+04;  2.6022738E-01;  0.0000000E+00;  6.5007424E-01;  1.1524576E+03;
  1.0987388E+00;  9.9999998E-03;  2.0016771E-02;8395;  8.5523593E-01;  0.0000000E+00;  1.5159524E-02;  1.0076522E+03;  1.3213857E-01;  6.3233296E+03;3;  5.7880154E+01;  0.0000000E+00; -1.4172841E+00;0;  9.1593307E-01;  2.3424271E+04;  0.0000000E+00;  3.5855930E-02;  4.0000000E+04;  0.0000000E+00;  3.9729949E+04;  2.7176386E-01;  0.0000000E+00;  6.4416921E-01;  1.3170597E+03;
  1.0987345E+00;  9.9999998E-03;  3.0030131E-02;8396;  8.5600084E-01;  0.0000000E+00;  2.2551345E-02;  1.0075517E+03;  1.3213724E-01;  6.2402886E+03;3;  5.6890614E+01;  0.0000000E+00; -2.2715235E+00;0;  9.2550159E-01;  2.3420451E+04;  0.0000000E+00;  7.8528591E-02;  4.0000000E+04;  0.0000000E+00;  3.9727930E+04;  2.9125163E-01;  0.0000000E+00;  6.3424999E-01;  1.5651914E+03;
  1.0987267E+00;  9.9999998E-03;  4.0045895E-02;8397;  8.5707080E-01;  0.0000000E+00;  2.9823240E-02;  1.0074187E+03;  1.3213512E-01;  6.1304536E+03;3;  5.5546021E+01;  0.0000000E+00; -3.2572865E+00;0;  9.3927062E-01;  2.3415271E+04;  0.0000000E+00;  1.3363135E-01;  4.0000000E+04;  0.0000000E+00;  3.9725496E+04;  3.1903872E-01;  0.0000000E+00;  6.2023187E-01;  1.8570642E+03;
  1.0987135E+00;  9.9999998E-03; -5.0067153E-02;8388;  8.5837555E-01;  0.0000000E+00; -3.6987305E-02;  1.0072604E+03;  1.3213214E-01;  5.9995400E+03;3;  5.3842216E+01;  0.0000000E+00;  4.2723360E+00;0;  9.5767117E-01;  2.3408789E+04;  0.0000000E+00;  1.9527164E-01;  4.0000000E+04;  0.0000000E+00;  3.9723152E+04;  3.5560590E-01;  0.0000000E+00;  6.0206527E-01;  2.1430237E+03;
  1.0987135E+00;  9.9999998E-03;  5.0067142E-02;8398;  8.5837561E-01;  0.0000000E+00;  3.6987215E-02;  1.0072604E+03;  1.3213214E-01;  5.9995400E+03;3;  5.3841881E+01;  0.0000000E+00; -4.2723193E+00;0;  9.5767176E-01;  2.3408791E+04;  0.0000000E+00;  1.9526796E-01;  4.0000000E+04;  0.0000000E+00;  3.9723156E+04;  3.5560653E-01;  0.0000000E+00;  6.0206527E-01;  2.1430234E+03;
  1.0986630E+00;  9.9999998E-03; -7.0150733E-02;8386;  8.6168063E-01;  0.0000000E+00; -5.0691988E-02;  1.0068972E+03;  1.3212495E-01;  5.6994946E+03;3;  4.9906017E+01;  0.0000000E+00;  6.3984270E+00;0;  1.0109327E+00;  2.3392893E+04;  0.0000000E+00;  2.9801673E-01;  4.0000000E+04;  0.0000000E+00;  3.9720254E+04;  4.5729423E-01;  0.0000000E+00;  5.5363846E-01;  2.5065901E+03;
  1.0986927E+00;  9.9999998E-03; -6.0099300E-02;8387;  8.5991079E-01;  0.0000000E+00; -4.3980375E-02;  1.0070840E+03;  1.3212888E-01;  5.8538506E+03;3;  5.1935570E+01;  0.0000000E+00;  5.3849645E+00;0;  9.8129302E-01;  2.3401201E+04;  0.0000000E+00;  2.5435209E-01;  4.0000000E+04;  0.0000000E+00;  3.9721309E+04;  4.0149832E-01;  0.0000000E+00;  5.7979470E-01;  2.3727302E+03;
  1.0986927E+00;  9.9999998E-03;  6.0099293E-02;8399;  8.5991079E-01;  0.0000000E+00;  4.3980312E-02;  1.0070840E+03;  1.3212910E-01;  5.8538506E+03;3;  5.1935673E+01;  0.0000000E+00; -5.3848662E+00;0;  9.8129416E-01;  2.3401197E+04;  0.0000000E+00;  2.5435251E-01;  4.0000000E+04;  0.0000000E+00;  3.9721309E+04;  4.0149900E-01;  0.0000000E+00;  5.7979518E-01;  2.3727290E+03;
  1.0986202E+00;  9.9999998E-03; -8.0226265E-02;8385;  8.6370182E-01;  0.0000000E+00; -5.7016850E-02;  1.0067053E+03;  1.3212055E-01;  5.5409058E+03;3;  4.7828705E+01;  0.0000000E+00;  7.0551457E+00;0;  1.0476825E+00;  2.3383916E+04;  0.0000000E+00;  3.0981281E-01;  4.0000000E+04;  0.0000000E+00;  3.9719809E+04;  5.2360511E-01;  0.0000000E+00;  5.2407736E-01;  2.5305100E+03;
  1.0985376E+00;  9.9999998E-03; -9.0307586E-02;8384;  8.6600703E-01;  0.0000000E+00; -6.2890694E-02;  1.0065212E+03;  1.3211983E-01;  5.3888257E+03;3;  4.5639515E+01;  0.0000000E+00;  7.0946002E+00;0;  1.0932890E+00;  2.3373920E+04;  0.0000000E+00;  2.7147174E-01;  4.0000000E+04;  0.0000000E+00;  3.9720191E+04;  6.0132986E-01;  0.0000000E+00;  4.9195915E-01;  2.4760789E+03;
  1.0984324E+00;  9.9999998E-03; -1.0035238E-01;8383;  8.6859900E-01;  0.0000000E+00; -6.8302654E-02;  1.0063409E+03;  1.3211870E-01;  5.2398032E+03;3;  4.3288673E+01;  0.0000000E+00;  6.4797440E+00;0;  1.1483808E+00;  2.3364348E+04;  0.0000000E+00;  1.6776541E-01;  4.0000000E+04;  0.0000000E+00;  3.9720379E+04;  6.9002098E-01;  0.0000000E+00;  4.5835981E-01;  2.4070718E+03;
  1.1111690E+00;  9.9999998E-03; -5.2038915E-09;8454;  8.5372746E-01;  0.0000000E+00; -1.0783836E-07;  1.0062744E+03;  1.2988575E-01;  5.1821431E+03;3;  5.9225872E+01;  0.0000000E+00; -3.9558632E-05;0;  6.9693756E-01;  2.4158707E+04;  0.0000000E+00;  4.5190258E-12;  4.0000000E+04;  0.0000000E+00;  3.9743105E+04;  9.8378934E-02;  0.0000000E+00;  5.9855860E-01;  5.3531532E+00;
  1.1111844E+00;  9.9999998E-03; -3.0051447E-02;8451;  8.5521156E-01;  0.0000000E+00; -1.9131560E-02;  1.0060846E+03;  1.2988548E-01;  5.0252983E+03;3;  5.7491096E+01;  0.0000000E+00;  2.5862389E+00;0;  7.0670974E-01;  2.4149752E+04;  0.0000000E+00;  7.3955536E-02;  4.0000000E+04;  0.0000000E+00;  3.9741676E+04;  1.2288897E-01;  0.0000000E+00;  5.8382076E-01;  2.1649870E+02;
  1.1111765E+00;  9.9999998E-03; -2.0036591E-02;8452;  8.5440660E-01;  0.0000000E+00; -1.2780081E-02;  1.0061899E+03;  1.2988569E-01;  5.1122373E+03;3;  5.8437931E+01;  0.0000000E+00;  1.6732264E+00;0;  7.0120746E-01;  2.4154717E+04;  0.0000000E+00;  3.3191293E-02;  4.0000000E+04;  0.0000000E+00;  3.9742332E+04;  1.0917716E-01;  0.0000000E+00;  5.9203029E-01;  9.7980415E+01;
  1.1111710E+00;  9.9999998E-03; -1.0019384E-02;8453;  8.5389805E-01;  0.0000000E+00; -6.4125671E-03;  1.0062538E+03;  1.2988535E-01;  5.1651094E+03;3;  5.9024372E+01;  0.0000000E+00;  8.0786628E-01;0;  6.9799405E-01;  2.4157719E+04;  0.0000000E+00;  8.3308024E-03;  4.0000000E+04;  0.0000000E+00;  3.9743000E+04;  1.0106400E-01;  0.0000000E+00;  5.9693003E-01;  2.2175919E+01;
  1.1111710E+00;  9.9999998E-03;  1.0019374E-02;8455;  8.5389811E-01;  0.0000000E+00;  6.4123273E-03;  1.0062540E+03;  1.2988546E-01;  5.1653062E+03;3;  5.9023933E+01;  0.0000000E+00; -8.0791980E-01;0;  6.9799441E-01;  2.4157715E+04;  0.0000000E+00;  8.3304988E-03;  4.0000000E+04;  0.0000000E+00;  3.9743004E+04;  1.0106420E-01;  0.0000000E+00;  5.9693021E-01;  2.2196747E+01;
  1.1111765E+00;  9.9999998E-03;  2.0036582E-02;8456;  8.5440660E-01;  0.0000000E+00;  1.2779905E-02;  1.0061900E+03;  1.2988558E-01;  5.1124341E+03;3;  5.8438187E+01;  0.0000000E+00; -1.6732707E+00;0;  7.0120835E-01;  2.4154723E+04;  0.0000000E+00;  3.3190392E-02;  4.0000000E+04;  0.0000000E+00;  3.9742332E+04;  1.0917743E-01;  0.0000000E+00;  5.9203094E-01;  9.8007294E+01;
  1.1111844E+00;  9.9999998E-03;  3.0051438E-02;8457;  8.5521156E-01;  0.0000000E+00;  1.9131411E-02;  1.0060845E+03;  1.2988548E-01;  5.0252983E+03;3;  5.7491371E+01;  0.0000000E+00; -2.5862367E+00;0;  7.0671040E-01;  2.4149752E+04;  0.0000000E+00;  7.3953822E-02;  4.0000000E+04;  0.0000000E+00;  3.9741676E+04;  1.2288918E-01;  0.0000000E+00;  5.8382124E-01;  2.1649997E+02;
  1.1111928E+00;  9.9999998E-03; -4.0064603E-02;8450;  8.5629731E-01;  0.0000000E+00; -2.5398050E-02;  1.0059426E+03;  1.2988578E-01;  4.9080356E+03;3;  5.6151134E+01;  0.0000000E+00;  3.5849082E+00;0;  7.1472216E-01;  2.4142939E+04;  0.0000000E+00;  1.2886566E-01;  4.0000000E+04;  0.0000000E+00;  3.9740664E+04;  1.4245740E-01;  0.0000000E+00;  5.7226473E-01;  3.6467224E+02;
  1.1111928E+00;  9.9999998E-03;  4.0064596E-02;8458;  8.5629737E-01;  0.0000000E+00;  2.5397927E-02;  1.0059424E+03;  1.2988578E-01;  4.9079370E+03;3;  5.6150986E+01;  0.0000000E+00; -3.5849457E+00;0;  7.1472245E-01;  2.4142939E+04;  0.0000000E+00;  1.2886378E-01;  4.0000000E+04;  0.0000000E+00;  3.9740660E+04;  1.4245753E-01;  0.0000000E+00;  5.7226491E-01;  3.6468344E+02;
  1.1112026E+00;  9.9999998E-03; -5.0077483E-02;8449;  8.5764956E-01;  0.0000000E+00; -3.1516962E-02;  1.0057645E+03;  1.2988572E-01;  4.7609395E+03;3;  5.4517563E+01;  0.0000000E+00;  4.6217155E+00;0;  7.2554290E-01;  2.4134412E+04;  0.0000000E+00;  1.9404703E-01;  4.0000000E+04;  0.0000000E+00;  3.9739758E+04;  1.6817558E-01;  0.0000000E+00;  5.5736732E-01;  5.2381702E+02;
  1.1112026E+00;  9.9999998E-03;  5.0077472E-02;8459;  8.5764956E-01;  0.0000000E+00;  3.1516846E-02;  1.0057644E+03;  1.2988544E-01;  4.7608413E+03;3;  5.4517437E+01;  0.0000000E+00; -4.6217303E+00;0;  7.2554284E-01;  2.4134412E+04;  0.0000000E+00;  1.9404444E-01;  4.0000000E+04;  0.0000000E+00;  3.9739754E+04;  1.6817588E-01;  0.0000000E+00;  5.5736697E-01;  5.2380621E+02;
  1.1112128E+00;  9.9999998E-03; -6.0094815E-02;8448;  8.5925543E-01;  0.0000000E+00; -3.7457529E-02;  1.0055570E+03;  1.2988533E-01;  4.5896240E+03;3;  5.2694241E+01;  0.0000000E+00;  5.5962224E+00;0;  7.3964882E-01;  2.4124385E+04;  0.0000000E+00;  2.6237088E-01;  4.0000000E+04;  0.0000000E+00;  3.9738938E+04;  2.0040141E-01;  0.0000000E+00;  5.3924739E-01;  6.7086285E+02;
  1.1112128E+00;  9.9999998E-03;  6.0094804E-02;8460;  8.5925543E-01;  0.0000000E+00;  3.7457418E-02;  1.0055571E+03;  1.2988532E-01;  4.5897227E+03;3;  5.2693897E+01;  0.0000000E+00; -5.5961552E+00;0;  7.3964930E-01;  2.4124391E+04;  0.0000000E+00;  2.6236877E-01;  4.0000000E+04;  0.0000000E+00;  3.9738938E+04;  2.0040180E-01;  0.0000000E+00;  5.3924751E-01;  6.7084943E+02;
  1.1112163E+00;  9.9999998E-03; -7.0123322E-02;8447;  8.6112434E-01;  0.0000000E+00; -4.3149322E-02;  1.0053165E+03;  1.2988414E-01;  4.3909390E+03;3;  5.0750546E+01;  0.0000000E+00;  6.3436480E+00;0;  7.5783068E-01;  2.4113023E+04;  0.0000000E+00;  3.2237500E-01;  4.0000000E+04;  0.0000000E+00;  3.9738246E+04;  2.3961256E-01;  0.0000000E+00;  5.1821810E-01;  7.8107532E+02;
  1.1112058E+00;  9.9999998E-03; -8.0169350E-02;8446;  8.6328071E-01;  0.0000000E+00; -4.8552725E-02;  1.0050607E+03;  1.2988317E-01;  4.1796548E+03;3;  4.8739426E+01;  0.0000000E+00;  6.6866326E+00;0;  7.8109288E-01;  2.4100670E+04;  0.0000000E+00;  3.5764000E-01;  4.0000000E+04;  0.0000000E+00;  3.9737914E+04;  2.8630051E-01;  0.0000000E+00;  4.9479234E-01;  8.2991040E+02;
  1.1111782E+00;  9.9999998E-03; -9.0235516E-02;8445;  8.6573660E-01;  0.0000000E+00; -5.3638902E-02;  1.0047912E+03;  1.2988274E-01;  3.9570505E+03;3;  4.6520439E+01;  0.0000000E+00;  6.4303856E+00;0;  8.1055290E-01;  2.4087506E+04;  0.0000000E+00;  3.4744322E-01;  4.0000000E+04;  0.0000000E+00;  3.9737809E+04;  3.4087452E-01;  0.0000000E+00;  4.6967837E-01;  7.9841040E+02;
  1.1111221E+00;  9.9999998E-03; -1.0030999E-01;8444;  8.6847281E-01;  0.0000000E+00; -5.8426000E-02;  1.0045213E+03;  1.2988348E-01;  3.7341558E+03;3;  4.4147289E+01;  0.0000000E+00;  5.5342255E+00;0;  8.4753394E-01;  2.4074047E+04;  0.0000000E+00;  2.6971582E-01;  4.0000000E+04;  0.0000000E+00;  3.9737281E+04;  4.0375492E-01;  0.0000000E+00;  4.4377899E-01;  6.9717322E+02;
  1.1236198E+00;  9.9999998E-03; -3.0108618E-02;8512;  8.5356575E-01;  0.0000000E+00; -1.6265944E-02;  1.0039291E+03;  1.2771775E-01;  3.2429590E+03;3;  5.7504009E+01;  0.0000000E+00;  2.3702352E+00;0;  5.2928811E-01;  2.4853725E+04;  0.0000000E+00;  5.1745556E-02;  4.0000000E+04;  0.0000000E+00;  3.9753562E+04;  3.8063996E-03;  0.0000000E+00;  5.2548170E-01;  1.1719408E+03;
  1.1236004E+00;  9.9999998E-03; -2.0077629E-02;8513;  8.5272580E-01;  0.0000000E+00; -1.0917768E-02;  1.0040094E+03;  1.2771648E-01;  3.3092798E+03;3;  5.8438946E+01;  0.0000000E+00;  1.5227777E+00;0;  5.2681023E-01;  2.4858170E+04;  0.0000000E+00;  2.2799388E-02;  4.0000000E+04;  0.0000000E+00;  3.9753324E+04; -5.3746179E-03;  0.0000000E+00;  5.3218484E-01;  1.1209342E+03;
  1.1235877E+00;  9.9999998E-03; -1.0040673E-02;8514;  8.5220391E-01;  0.0000000E+00; -5.4810578E-03;  1.0040552E+03;  1.2771583E-01;  3.3470657E+03;3;  5.9022934E+01;  0.0000000E+00;  7.3543304E-01;0;  5.2539283E-01;  2.4860789E+04;  0.0000000E+00;  5.6555704E-03;  4.0000000E+04;  0.0000000E+00;  3.9753098E+04; -1.0808499E-02;  0.0000000E+00;  5.3620136E-01;  1.0875465E+03;
  1.1235833E+00;  9.9999998E-03; -5.3287939E-09;8515;  8.5202843E-01;  0.0000000E+00; -1.0660762E-07;  1.0040699E+03;  1.2771575E-01;  3.3592671E+03;3;  5.9215084E+01;  0.0000000E+00; -7.2345552E-05;0;  5.2493352E-01;  2.4861701E+04;  0.0000000E+00; -6.5188393E-13;  4.0000000E+04;  0.0000000E+00;  3.9752930E+04; -1.2606053E-02;  0.0000000E+00;  5.3753954E-01;  1.0758710E+03;
  1.1235877E+00;  9.9999998E-03;  1.0040663E-02;8516;  8.5220385E-01;  0.0000000E+00;  5.4808427E-03;  1.0040550E+03;  1.2771593E-01;  3.3469673E+03;3;  5.9022430E+01;  0.0000000E+00; -7.3554647E-01;0;  5.2539295E-01;  2.4860791E+04;  0.0000000E+00;  5.6557609E-03;  4.0000000E+04;  0.0000000E+00;  3.9753098E+04; -1.0808422E-02;  0.0000000E+00;  5.3620136E-01;  1.0875640E+03;
  1.1236004E+00;  9.9999998E-03;  2.0077620E-02;8517;  8.5272580E-01;  0.0000000E+00;  1.0917583E-02;  1.0040095E+03;  1.2771635E-01;  3.3093782E+03;3;  5.8439117E+01;  0.0000000E+00; -1.5227704E+00;0;  5.2681029E-01;  2.4858164E+04;  0.0000000E+00;  2.2799630E-02;  4.0000000E+04;  0.0000000E+00;  3.9753324E+04; -5.3746556E-03;  0.0000000E+00;  5.3218496E-01;  1.1209333E+03;
  1.1236198E+00;  9.9999998E-03;  3.0108608E-02;8518;  8.5356575E-01;  0.0000000E+00;  1.6265819E-02;  1.0039290E+03;  1.2771766E-01;  3.2429590E+03;3;  5.7504215E+01;  0.0000000E+00; -2.3702445E+00;0;  5.2928835E-01;  2.4853719E+04;  0.0000000E+00;  5.1746272E-02;  4.0000000E+04;  0.0000000E+00;  3.9753562E+04;  3.8065023E-03;  0.0000000E+00;  5.2548182E-01;  1.1719257E+03;
  1.1236809E+00;  9.9999998E-03; -5.0148405E-02;8510;  8.5611981E-01;  0.0000000E+00; -2.6591985E-02;  1.0036667E+03;  1.2771954E-01;  3.0263838E+03;3;  5.4670338E+01;  0.0000000E+00;  4.1962986E+00;0;  5.3817725E-01;  2.4839957E+04;  0.0000000E+00;  1.4291234E-01;  4.0000000E+04;  0.0000000E+00;  3.9754332E+04;  3.4064688E-02;  0.0000000E+00;  5.0411254E-01;  1.3100853E+03;
  1.1236465E+00;  9.9999998E-03; -4.0132191E-02;8511;  8.5470361E-01;  0.0000000E+00; -2.1497795E-02;  1.0038175E+03;  1.2771894E-01;  3.1509561E+03;3;  5.6230537E+01;  0.0000000E+00;  3.3010700E+00;0;  5.3298706E-01;  2.4847662E+04;  0.0000000E+00;  9.2322290E-02;  4.0000000E+04;  0.0000000E+00;  3.9754020E+04;  1.6888397E-02;  0.0000000E+00;  5.1609868E-01;  1.2362783E+03;
  1.1236465E+00;  9.9999998E-03;  4.0132184E-02;8519;  8.5470366E-01;  0.0000000E+00;  2.1497682E-02;  1.0038175E+03;  1.2771897E-01;  3.1509561E+03;3;  5.6230286E+01;  0.0000000E+00; -3.3011131E+00;0;  5.3298724E-01;  2.4847670E+04;  0.0000000E+00;  9.2319548E-02;  4.0000000E+04;  0.0000000E+00;  3.9754020E+04;  1.6888581E-02;  0.0000000E+00;  5.1609868E-01;  1.2362826E+03;
  1.1236809E+00;  9.9999998E-03;  5.0148394E-02;8520;  8.5611987E-01;  0.0000000E+00;  2.6591863E-02;  1.0036666E+03;  1.2771963E-01;  3.0262854E+03;3;  5.4670143E+01;  0.0000000E+00; -4.1962805E+00;0;  5.3817731E-01;  2.4839961E+04;  0.0000000E+00;  1.4290981E-01;  4.0000000E+04;  0.0000000E+00;  3.9754332E+04;  3.4064915E-02;  0.0000000E+00;  5.0411242E-01;  1.3100963E+03;
  1.1237222E+00;  9.9999998E-03; -6.0160372E-02;8509;  8.5780483E-01;  0.0000000E+00; -3.1536683E-02;  1.0034836E+03;  1.2772019E-01;  2.8752454E+03;3;  5.2945492E+01;  0.0000000E+00;  4.8901792E+00;0;  5.4529279E-01;  2.4830883E+04;  0.0000000E+00;  1.9926371E-01;  4.0000000E+04;  0.0000000E+00;  3.9754523E+04;  5.5565458E-02;  0.0000000E+00;  4.8972732E-01;  1.3879615E+03;
  1.1237222E+00;  9.9999998E-03;  6.0160361E-02;8521;  8.5780483E-01;  0.0000000E+00;  3.1536594E-02;  1.0034835E+03;  1.2772015E-01;  2.8751470E+03;3;  5.2945923E+01;  0.0000000E+00; -4.8900738E+00;0;  5.4529327E-01;  2.4830885E+04;  0.0000000E+00;  1.9926061E-01;  4.0000000E+04;  0.0000000E+00;  3.9754527E+04;  5.5565704E-02;  0.0000000E+00;  4.8972756E-01;  1.3879481E+03;
  1.1237669E+00;  9.9999998E-03; -7.0172757E-02;8508;  8.5977834E-01;  0.0000000E+00; -3.6362328E-02;  1.0032662E+03;  1.2772010E-01;  2.6958677E+03;3;  5.1085487E+01;  0.0000000E+00;  5.2366443E+00;0;  5.5497056E-01;  2.4820428E+04;  0.0000000E+00;  2.5330678E-01;  4.0000000E+04;  0.0000000E+00;  3.9754766E+04;  8.1653491E-02;  0.0000000E+00;  4.7331706E-01;  1.4600034E+03;
  1.1238111E+00;  9.9999998E-03; -8.0190457E-02;8507;  8.6200082E-01;  0.0000000E+00; -4.1046795E-02;  1.0030134E+03;  1.2771930E-01;  2.4871702E+03;3;  4.8987137E+01;  0.0000000E+00;  5.1775689E+00;0;  5.6802797E-01;  2.4808775E+04;  0.0000000E+00;  2.9230374E-01;  4.0000000E+04;  0.0000000E+00;  3.9754793E+04;  1.1259903E-01;  0.0000000E+00;  4.5542893E-01;  1.5079999E+03;
  1.1238471E+00;  9.9999998E-03; -9.0217724E-02;8506;  8.6449260E-01;  0.0000000E+00; -4.5576394E-02;  1.0027407E+03;  1.2771936E-01;  2.2621416E+03;3;  4.6692623E+01;  0.0000000E+00;  4.6147799E+00;0;  5.8548522E-01;  2.4796361E+04;  0.0000000E+00;  2.9894608E-01;  4.0000000E+04;  0.0000000E+00;  3.9754547E+04;  1.4871444E-01;  0.0000000E+00;  4.3677077E-01;  1.5020680E+03;
  1.1238708E+00;  9.9999998E-03; -1.0025695E-01;8505;  8.6725599E-01;  0.0000000E+00; -4.9897514E-02;  1.0024538E+03;  1.2771916E-01;  2.0253080E+03;3;  4.4337208E+01;  0.0000000E+00;  3.5191870E+00;0;  6.0837328E-01;  2.4783584E+04;  0.0000000E+00;  2.5298661E-01;  4.0000000E+04;  0.0000000E+00;  3.9753602E+04;  1.9026107E-01;  0.0000000E+00;  4.1811225E-01;  1.4056219E+03;
  1.1366733E+00;  9.9999998E-03; -1.0024466E-01;8566;  8.6525351E-01;  0.0000000E+00; -4.2584684E-02;  1.0005382E+03;  1.2563172E-01;  4.4389075E+02;3;  4.4318165E+01;  0.0000000E+00;  1.3782579E+00;0;  4.2310506E-01;  2.5507887E+04;  0.0000000E+00;  1.4864294E-01;  4.0000000E+04;  0.0000000E+00;  3.9768672E+04;  3.9155636E-02;  0.0000000E+00;  3.8394943E-01;  3.1090747E+03;
  1.1365464E+00;  9.9999998E-03; -9.0243801E-02;8567;  8.6246175E-01;  0.0000000E+00; -3.8791411E-02;  1.0007537E+03;  1.2563604E-01;  6.2155066E+02;3;  4.6613716E+01;  0.0000000E+00;  2.5515049E+00;0;  4.0983051E-01;  2.5514480E+04;  0.0000000E+00;  1.7087165E-01;  4.0000000E+04;  0.0000000E+00;  3.9769676E+04;  1.3465201E-02;  0.0000000E+00;  3.9636531E-01;  3.2085964E+03;
  1.1364307E+00;  9.9999998E-03; -8.0248892E-02;8568;  8.5993552E-01;  0.0000000E+00; -3.4836937E-02;  1.0009449E+03;  1.2563944E-01;  7.7925482E+02;3;  4.8903397E+01;  0.0000000E+00;  3.2764621E+00;0;  4.0043193E-01;  2.5520725E+04;  0.0000000E+00;  1.6149348E-01;  4.0000000E+04;  0.0000000E+00;  3.9769941E+04; -9.0314904E-03;  0.0000000E+00;  4.0946344E-01;  3.2141489E+03;
  1.1363305E+00;  9.9999998E-03; -7.0252150E-02;8569;  8.5766625E-01;  0.0000000E+00; -3.0758118E-02;  1.0011007E+03;  1.2564209E-01;  9.0776038E+02;3;  5.1056885E+01;  0.0000000E+00;  3.5157027E+00;0;  3.9405444E-01;  2.5526547E+04;  0.0000000E+00;  1.3437518E-01;  4.0000000E+04;  0.0000000E+00;  3.9769656E+04; -2.8478658E-02;  0.0000000E+00;  4.2253309E-01;  3.1459688E+03;
  1.1362429E+00;  9.9999998E-03; -6.0248736E-02;8570;  8.5566491E-01;  0.0000000E+00; -2.6585322E-02;  1.0012332E+03;  1.2564448E-01;  1.0169965E+03;3;  5.2917755E+01;  0.0000000E+00;  3.4099362E+00;0;  3.8995245E-01;  2.5531438E+04;  0.0000000E+00;  1.0084724E-01;  4.0000000E+04;  0.0000000E+00;  3.9768703E+04; -4.4964723E-02;  0.0000000E+00;  4.3491718E-01;  3.0237834E+03;
  1.1361696E+00;  9.9999998E-03; -5.0233755E-02;8571;  8.5394824E-01;  0.0000000E+00; -2.2302411E-02;  1.0013268E+03;  1.2564504E-01;  1.0942794E+03;3;  5.4588406E+01;  0.0000000E+00;  2.9805014E+00;0;  3.8742653E-01;  2.5535617E+04;  0.0000000E+00;  6.8621889E-02;  4.0000000E+04;  0.0000000E+00;  3.9767441E+04; -5.8622181E-02;  0.0000000E+00;  4.4604871E-01;  2.8673396E+03;
  1.1361136E+00;  9.9999998E-03; -4.0204808E-02;8572;  8.5251302E-01;  0.0000000E+00; -1.7931517E-02;  1.0013985E+03;  1.2564488E-01;  1.1533729E+03;3;  5.6072788E+01;  0.0000000E+00;  2.4505942E+00;0;  3.8590407E-01;  2.5539064E+04;  0.0000000E+00;  4.1909758E-02;  4.0000000E+04;  0.0000000E+00;  3.9766176E+04; -6.9591537E-02;  0.0000000E+00;  4.5549560E-01;  2.6966487E+03;
  1.1360734E+00;  9.9999998E-03; -3.0164309E-02;8573;  8.5136914E-01;  0.0000000E+00; -1.3481499E-02;  1.0014470E+03;  1.2564462E-01;  1.1933917E+03;3;  5.7261238E+01;  0.0000000E+00;  1.8648713E+00;0;  3.8500556E-01;  2.5541791E+04;  0.0000000E+00;  2.2218404E-02;  4.0000000E+04;  0.0000000E+00;  3.9764875E+04; -7.7981137E-02;  0.0000000E+00;  4.6298671E-01;  2.5315137E+03;
  1.1360455E+00;  9.9999998E-03; -2.0115599E-02;8574;  8.5054415E-01;  0.0000000E+00; -9.0110200E-03;  1.0014770E+03;  1.2564394E-01;  1.2181703E+03;3;  5.8185799E+01;  0.0000000E+00;  1.2613449E+00;0;  3.8450325E-01;  2.5543795E+04;  0.0000000E+00;  9.3252780E-03;  4.0000000E+04;  0.0000000E+00;  3.9763645E+04; -8.3884493E-02;  0.0000000E+00;  4.6838775E-01;  2.3925298E+03;
  1.1360284E+00;  9.9999998E-03; -1.0060241E-02;8575;  8.5005146E-01;  0.0000000E+00; -4.5078564E-03;  1.0014944E+03;  1.2564361E-01;  1.2325262E+03;3;  5.8782997E+01;  0.0000000E+00;  6.2139386E-01;0;  3.8425696E-01;  2.5544898E+04;  0.0000000E+00;  2.2366699E-03;  4.0000000E+04;  0.0000000E+00;  3.9762910E+04; -8.7385342E-02;  0.0000000E+00;  4.7164229E-01;  2.2994045E+03;
  1.1360226E+00;  9.9999998E-03; -5.6352727E-09;8576;  8.4988660E-01;  0.0000000E+00; -1.0462406E-07;  1.0014989E+03;  1.2564340E-01;  1.2362629E+03;3;  5.8977337E+01;  0.0000000E+00; -6.8861344E-05;0;  3.8418490E-01;  2.5545301E+04;  0.0000000E+00; -1.3692239E-12;  4.0000000E+04;  0.0000000E+00;  3.9762535E+04; -8.8545181E-02;  0.0000000E+00;  4.7273007E-01;  2.2666130E+03;
  1.1360284E+00;  9.9999998E-03;  1.0060229E-02;8577;  8.5005152E-01;  0.0000000E+00;  4.5076455E-03;  1.0014945E+03;  1.2564346E-01;  1.2326246E+03;3;  5.8783150E+01;  0.0000000E+00; -6.2149107E-01;0;  3.8425726E-01;  2.5544906E+04;  0.0000000E+00;  2.2371607E-03;  4.0000000E+04;  0.0000000E+00;  3.9762910E+04; -8.7385327E-02;  0.0000000E+00;  4.7164258E-01;  2.2994124E+03;
  1.1360455E+00;  9.9999998E-03;  2.0115588E-02;8578;  8.5054415E-01;  0.0000000E+00;  9.0108123E-03;  1.0014769E+03;  1.2564397E-01;  1.2180720E+03;3;  5.8185276E+01;  0.0000000E+00; -1.2613646E+00;0;  3.8450375E-01;  2.5543803E+04;  0.0000000E+00;  9.3259886E-03;  4.0000000E+04;  0.0000000E+00;  3.9763641E+04; -8.3884448E-02;  0.0000000E+00;  4.6838820E-01;  2.3925146E+03;
  1.1360734E+00;  9.9999998E-03;  3.0164298E-02;8579;  8.5136920E-01;  0.0000000E+00;  1.3481311E-02;  1.0014471E+03;  1.2564465E-01;  1.1934900E+03;3;  5.7261383E+01;  0.0000000E+00; -1.8649106E+00;0;  3.8500613E-01;  2.5541795E+04;  0.0000000E+00;  2.2218704E-02;  4.0000000E+04;  0.0000000E+00;  3.9764879E+04; -7.7981077E-02;  0.0000000E+00;  4.6298721E-01;  2.5315259E+03;
  1.1361136E+00;  9.9999998E-03;  4.0204797E-02;8580;  8.5251296E-01;  0.0000000E+00;  1.7931359E-02;  1.0013985E+03;  1.2564518E-01;  1.1533729E+03;3;  5.6072403E+01;  0.0000000E+00; -2.4506671E+00;0;  3.8590434E-01;  2.5539062E+04;  0.0000000E+00;  4.1910429E-02;  4.0000000E+04;  0.0000000E+00;  3.9766176E+04; -6.9591433E-02;  0.0000000E+00;  4.5549577E-01;  2.6966404E+03;
  1.1361696E+00;  9.9999998E-03;  5.0233748E-02;8581;  8.5394835E-01;  0.0000000E+00;  2.2302277E-02;  1.0013269E+03;  1.2564503E-01;  1.0943778E+03;3;  5.4588814E+01;  0.0000000E+00; -2.9803598E+00;0;  3.8742685E-01;  2.5535619E+04;  0.0000000E+00;  6.8619117E-02;  4.0000000E+04;  0.0000000E+00;  3.9767434E+04; -5.8622006E-02;  0.0000000E+00;  4.4604886E-01;  2.8673391E+03;
  1.1362429E+00;  9.9999998E-03;  6.0248725E-02;8582;  8.5566485E-01;  0.0000000E+00;  2.6585171E-02;  1.0012332E+03;  1.2564448E-01;  1.0169965E+03;3;  5.2917519E+01;  0.0000000E+00; -3.4099495E+00;0;  3.8995320E-01;  2.5531445E+04;  0.0000000E+00;  1.0084359E-01;  4.0000000E+04;  0.0000000E+00;  3.9768699E+04; -4.4964608E-02;  0.0000000E+00;  4.3491781E-01;  3.0237871E+03;
  1.1492985E+00;  9.9999998E-03; -1.0026085E-01;8627;  8.6285186E-01;  0.0000000E+00; -3.5969883E-02;  9.9909241E+02;  1.2364186E-01; -7.4781549E+02;3;  4.3854519E+01;  0.0000000E+00; -8.0399740E-01;0;  2.8421032E-01;  2.6253695E+04;  0.0000000E+00; -3.8768589E-03;  4.0000000E+04;  0.0000000E+00;  3.9781586E+04; -6.0571861E-02;  0.0000000E+00;  3.4478217E-01;  4.6318682E+03;
  1.1491109E+00;  9.9999998E-03; -9.0274327E-02;8628;  8.6004668E-01;  0.0000000E+00; -3.2675724E-02;  9.9914532E+02;  1.2365057E-01; -7.0421552E+02;3;  4.6248333E+01;  0.0000000E+00;  4.7740477E-01;0;  2.7606228E-01;  2.6249572E+04;  0.0000000E+00;  7.3410259E-03;  4.0000000E+04;  0.0000000E+00;  3.9782605E+04; -7.5912386E-02;  0.0000000E+00;  3.5197467E-01;  4.7481431E+03;
  1.1489531E+00;  9.9999998E-03; -8.0291532E-02;8629;  8.5749906E-01;  0.0000000E+00; -2.9265592E-02;  9.9917529E+02;  1.2365777E-01; -6.7952094E+02;3;  4.8496693E+01;  0.0000000E+00;  1.3738817E+00;0;  2.7088839E-01;  2.6245604E+04;  0.0000000E+00;  6.8018716E-03;  4.0000000E+04;  0.0000000E+00;  3.9782828E+04; -8.9473724E-02;  0.0000000E+00;  3.6036211E-01;  4.7659097E+03;
  1.1488236E+00;  9.9999998E-03; -7.0298247E-02;8630;  8.5521126E-01;  0.0000000E+00; -2.5762854E-02;  9.9917700E+02;  1.2366328E-01; -6.7815295E+02;3;  5.0655975E+01;  0.0000000E+00;  1.8477751E+00;0;  2.6800159E-01;  2.6241424E+04;  0.0000000E+00;  9.3976583E-04;  4.0000000E+04;  0.0000000E+00;  3.9782234E+04; -1.0131693E-01;  0.0000000E+00;  3.6931852E-01;  4.6990957E+03;
  1.1487210E+00;  9.9999998E-03; -6.0287409E-02;8631;  8.5319346E-01;  0.0000000E+00; -2.2200126E-02;  9.9915558E+02;  1.2366734E-01; -6.9579034E+02;3;  5.2556076E+01;  0.0000000E+00;  2.0078552E+00;0;  2.6672676E-01;  2.6237328E+04;  0.0000000E+00; -5.3186747E-03;  4.0000000E+04;  0.0000000E+00;  3.9781012E+04; -1.1148238E-01;  0.0000000E+00;  3.7820914E-01;  4.5652012E+03;
  1.1486367E+00;  9.9999998E-03; -5.0260141E-02;8632;  8.5144180E-01;  0.0000000E+00; -1.8571824E-02;  9.9911530E+02;  1.2367033E-01; -7.2899603E+02;3;  5.4292896E+01;  0.0000000E+00;  1.8663960E+00;0;  2.6652518E-01;  2.6233389E+04;  0.0000000E+00; -9.0768524E-03;  4.0000000E+04;  0.0000000E+00;  3.9779504E+04; -1.1997596E-01;  0.0000000E+00;  3.8650113E-01;  4.3832046E+03;
  1.1485703E+00;  9.9999998E-03; -4.0222298E-02;8633;  8.4996569E-01;  0.0000000E+00; -1.4898481E-02;  9.9907013E+02;  1.2367219E-01; -7.6622833E+02;3;  5.5801922E+01;  0.0000000E+00;  1.6120433E+00;0;  2.6689756E-01;  2.6229822E+04;  0.0000000E+00; -9.5235417E-03;  4.0000000E+04;  0.0000000E+00;  3.9777645E+04; -1.2684345E-01;  0.0000000E+00;  3.9374101E-01;  4.1766914E+03;
  1.1485229E+00;  9.9999998E-03; -3.0176083E-02;8634;  8.4878325E-01;  0.0000000E+00; -1.1210551E-02;  9.9902466E+02;  1.2367360E-01; -8.0370544E+02;3;  5.6972225E+01;  0.0000000E+00;  1.2440701E+00;0;  2.6746145E-01;  2.6226971E+04;  0.0000000E+00; -7.3343916E-03;  4.0000000E+04;  0.0000000E+00;  3.9775895E+04; -1.3213789E-01;  0.0000000E+00;  3.9959934E-01;  3.9733081E+03;
  1.1484919E+00;  9.9999998E-03; -2.0122899E-02;8635;  8.4793633E-01;  0.0000000E+00; -7.4986513E-03;  9.9898822E+02;  1.2367450E-01; -8.3371631E+02;3;  5.7806492E+01;  0.0000000E+00;  7.5534207E-01;0;  2.6798585E-01;  2.6224871E+04;  0.0000000E+00; -3.9798217E-03;  4.0000000E+04;  0.0000000E+00;  3.9774293E+04; -1.3589370E-01;  0.0000000E+00;  4.0387955E-01;  3.8012295E+03;
  1.1484739E+00;  9.9999998E-03; -1.0063511E-02;8636;  8.4742600E-01;  0.0000000E+00; -3.7563529E-03;  9.9896307E+02;  1.2367482E-01; -8.5444385E+02;3;  5.8335327E+01;  0.0000000E+00;  3.6375019E-01;0;  2.6834518E-01;  2.6223643E+04;  0.0000000E+00; -1.1127671E-03;  4.0000000E+04;  0.0000000E+00;  3.9773238E+04; -1.3813554E-01;  0.0000000E+00;  4.0648073E-01;  3.6857632E+03;
  1.1484677E+00;  9.9999998E-03; -5.9151892E-09;8637;  8.4725094E-01;  0.0000000E+00; -1.0067903E-07;  9.9895404E+02;  1.2367504E-01; -8.6186053E+02;3;  5.8519436E+01;  0.0000000E+00; -7.8573401E-05;0;  2.6847419E-01;  2.6223123E+04;  0.0000000E+00; -6.6301522E-13;  4.0000000E+04;  0.0000000E+00;  3.9772863E+04; -1.3888022E-01;  0.0000000E+00;  4.0735441E-01;  3.6450435E+03;
  1.1484739E+00;  9.9999998E-03;  1.0063500E-02;8638;  8.4742606E-01;  0.0000000E+00;  3.7561527E-03;  9.9896320E+02;  1.2367447E-01; -8.5434564E+02;3;  5.8335541E+01;  0.0000000E+00; -3.6386192E-01;0;  2.6834550E-01;  2.6223643E+04;  0.0000000E+00; -1.1121512E-03;  4.0000000E+04;  0.0000000E+00;  3.9773234E+04; -1.3813561E-01;  0.0000000E+00;  4.0648112E-01;  3.6857551E+03;
  1.1484919E+00;  9.9999998E-03;  2.0122888E-02;8639;  8.4793633E-01;  0.0000000E+00;  7.4984613E-03;  9.9898804E+02;  1.2367460E-01; -8.3386365E+02;3;  5.7806599E+01;  0.0000000E+00; -7.5541109E-01;0;  2.6798615E-01;  2.6224875E+04;  0.0000000E+00; -3.9788443E-03;  4.0000000E+04;  0.0000000E+00;  3.9774293E+04; -1.3589373E-01;  0.0000000E+00;  4.0387988E-01;  3.8012180E+03;
  1.1485229E+00;  9.9999998E-03;  3.0176071E-02;8640;  8.4878325E-01;  0.0000000E+00;  1.1210372E-02;  9.9902496E+02;  1.2367366E-01; -8.0341077E+02;3;  5.6972416E+01;  0.0000000E+00; -1.2440692E+00;0;  2.6746196E-01;  2.6226971E+04;  0.0000000E+00; -7.3336097E-03;  4.0000000E+04;  0.0000000E+00;  3.9775895E+04; -1.3213772E-01;  0.0000000E+00;  3.9959967E-01;  3.9733066E+03;
  1.1485703E+00;  9.9999998E-03;  4.0222287E-02;8641;  8.4996563E-01;  0.0000000E+00;  1.4898317E-02;  9.9907013E+02;  1.2367207E-01; -7.6622833E+02;3;  5.5802235E+01;  0.0000000E+00; -1.6119961E+00;0;  2.6689723E-01;  2.6229826E+04;  0.0000000E+00; -9.5228264E-03;  4.0000000E+04;  0.0000000E+00;  3.9777648E+04; -1.2684357E-01;  0.0000000E+00;  3.9374080E-01;  4.1766958E+03;
  1.1486367E+00;  9.9999998E-03;  5.0260130E-02;8642;  8.5144186E-01;  0.0000000E+00;  1.8571667E-02;  9.9911536E+02;  1.2367028E-01; -7.2894690E+02;3;  5.4292549E+01;  0.0000000E+00; -1.8663738E+00;0;  2.6652542E-01;  2.6233391E+04;  0.0000000E+00; -9.0759890E-03;  4.0000000E+04;  0.0000000E+00;  3.9779508E+04; -1.1997592E-01;  0.0000000E+00;  3.8650134E-01;  4.3831968E+03;
  1.1487210E+00;  9.9999998E-03;  6.0287397E-02;8643;  8.5319352E-01;  0.0000000E+00;  2.2199988E-02;  9.9915564E+02;  1.2366711E-01; -6.9574121E+02;3;  5.2555599E+01;  0.0000000E+00; -2.0078287E+00;0;  2.6672769E-01;  2.6237336E+04;  0.0000000E+00; -5.3234044E-03;  4.0000000E+04;  0.0000000E+00;  3.9781012E+04; -1.1148228E-01;  0.0000000E+00;  3.7820998E-01;  4.5652012E+03;
  1.1616204E+00;  9.9999998E-03; -1.0027160E-01;8688;  8.6026925E-01;  0.0000000E+00; -3.0003913E-02;  9.9821405E+02;  1.2176576E-01; -1.4698956E+03;3;  4.3456955E+01;  0.0000000E+00; -2.5064185E+00;0;  1.8147740E-01;  2.7016773E+04;  0.0000000E+00; -1.7162108E-01;  4.0000000E+04;  0.0000000E+00;  3.9791660E+04; -1.2217283E-01;  0.0000000E+00;  3.0365023E-01;  5.8612773E+03;
  1.1614459E+00;  9.9999998E-03; -9.0281188E-02;8689;  8.5741180E-01;  0.0000000E+00; -2.7229724E-02;  9.9806165E+02;  1.2177619E-01; -1.5953618E+03;3;  4.5847721E+01;  0.0000000E+00; -1.1700687E+00;0;  1.7525703E-01;  2.7000861E+04;  0.0000000E+00; -1.5904951E-01;  4.0000000E+04;  0.0000000E+00;  3.9792539E+04; -1.3120434E-01;  0.0000000E+00;  3.0646136E-01;  5.9928813E+03;
  1.1613066E+00;  9.9999998E-03; -8.0282755E-02;8690;  8.5480613E-01;  0.0000000E+00; -2.4389982E-02;  9.9789185E+02;  1.2178474E-01; -1.7351512E+03;3;  4.8118248E+01;  0.0000000E+00; -1.9665284E-01;0;  1.7153452E-01;  2.6985168E+04;  0.0000000E+00; -1.4245240E-01;  4.0000000E+04;  0.0000000E+00;  3.9792809E+04; -1.3932092E-01;  0.0000000E+00;  3.1085545E-01;  6.0438804E+03;
  1.1611942E+00;  9.9999998E-03; -7.0272118E-02;8691;  8.5246307E-01;  0.0000000E+00; -2.1486551E-02;  9.9770056E+02;  1.2179165E-01; -1.8926008E+03;3;  5.0253353E+01;  0.0000000E+00;  3.7199670E-01;0;  1.6976832E-01;  2.6969645E+04;  0.0000000E+00; -1.2234787E-01;  4.0000000E+04;  0.0000000E+00;  3.9792484E+04; -1.4652966E-01;  0.0000000E+00;  3.1629798E-01;  6.0194429E+03;
  1.1610984E+00;  9.9999998E-03; -6.0251981E-02;8692;  8.5039395E-01;  0.0000000E+00; -1.8522393E-02;  9.9750665E+02;  1.2179819E-01; -2.0522090E+03;3;  5.2210251E+01;  0.0000000E+00;  6.2271243E-01;0;  1.6941740E-01;  2.6954867E+04;  0.0000000E+00; -9.9599428E-02;  4.0000000E+04;  0.0000000E+00;  3.9791410E+04; -1.5281306E-01;  0.0000000E+00;  3.2223046E-01;  5.9289106E+03;
  1.1610192E+00;  9.9999998E-03; -5.0224129E-02;8693;  8.4860313E-01;  0.0000000E+00; -1.5496232E-02;  9.9731464E+02;  1.2180337E-01; -2.2102957E+03;3;  5.3937687E+01;  0.0000000E+00;  6.5214306E-01;0;  1.6992426E-01;  2.6941553E+04;  0.0000000E+00; -7.5603947E-02;  4.0000000E+04;  0.0000000E+00;  3.9789914E+04; -1.5817183E-01;  0.0000000E+00;  3.2809609E-01;  5.7893555E+03;
  1.1609579E+00;  9.9999998E-03; -4.0189713E-02;8694;  8.4711182E-01;  0.0000000E+00; -1.2429878E-02;  9.9714343E+02;  1.2180770E-01; -2.3512100E+03;3;  5.5394772E+01;  0.0000000E+00;  6.2706780E-01;0;  1.7083123E-01;  2.6929926E+04;  0.0000000E+00; -5.2114703E-02;  4.0000000E+04;  0.0000000E+00;  3.9788293E+04; -1.6259766E-01;  0.0000000E+00;  3.3342889E-01;  5.6223867E+03;
  1.1609148E+00;  9.9999998E-03; -3.0149369E-02;8695;  8.4592932E-01;  0.0000000E+00; -9.3491944E-03;  9.9699933E+02;  1.2181088E-01; -2.4698477E+03;3;  5.6627693E+01;  0.0000000E+00;  4.7192144E-01;0;  1.7179739E-01;  2.6920682E+04;  0.0000000E+00; -3.1083247E-02;  4.0000000E+04;  0.0000000E+00;  3.9786617E+04; -1.6607553E-01;  0.0000000E+00;  3.3787292E-01;  5.4528823E+03;
  1.1608870E+00;  9.9999998E-03; -2.0103555E-02;8696;  8.4506267E-01;  0.0000000E+00; -6.2507391E-03;  9.9688794E+02;  1.2181273E-01; -2.5615483E+03;3;  5.7503849E+01;  0.0000000E+00;  3.1179228E-01;0;  1.7260627E-01;  2.6913984E+04;  0.0000000E+00; -1.4411939E-02;  4.0000000E+04;  0.0000000E+00;  3.9785367E+04; -1.6858314E-01;  0.0000000E+00;  3.4118941E-01;  5.3067295E+03;
  1.1608702E+00;  9.9999998E-03; -1.0053263E-02;8697;  8.4452558E-01;  0.0000000E+00; -3.1305759E-03;  9.9681921E+02;  1.2181363E-01; -2.6181194E+03;3;  5.8002373E+01;  0.0000000E+00;  1.2936091E-01;0;  1.7314270E-01;  2.6909863E+04;  0.0000000E+00; -3.6962775E-03;  4.0000000E+04;  0.0000000E+00;  3.9784281E+04; -1.7009571E-01;  0.0000000E+00;  3.4323841E-01;  5.2072314E+03;
  1.1608645E+00;  9.9999998E-03; -6.0110135E-09;8698;  8.4434813E-01;  0.0000000E+00; -9.8178432E-08;  9.9679578E+02;  1.2181426E-01; -2.6374016E+03;3;  5.8145630E+01;  0.0000000E+00; -4.1218831E-05;0;  1.7333077E-01;  2.6908461E+04;  0.0000000E+00;  8.5081416E-13;  4.0000000E+04;  0.0000000E+00;  3.9783926E+04; -1.7060094E-01;  0.0000000E+00;  3.4393170E-01;  5.1719053E+03;
  1.1608702E+00;  9.9999998E-03;  1.0053251E-02;8699;  8.4452558E-01;  0.0000000E+00;  3.1303833E-03;  9.9681921E+02;  1.2181363E-01; -2.6181194E+03;3;  5.8003395E+01;  0.0000000E+00; -1.2943839E-01;0;  1.7314269E-01;  2.6909865E+04;  0.0000000E+00; -3.6957257E-03;  4.0000000E+04;  0.0000000E+00;  3.9784281E+04; -1.7009585E-01;  0.0000000E+00;  3.4323853E-01;  5.2072529E+03;
  1.1608870E+00;  9.9999998E-03;  2.0103544E-02;8700;  8.4506273E-01;  0.0000000E+00;  6.2505458E-03;  9.9688806E+02;  1.2181258E-01; -2.5614504E+03;3;  5.7503990E+01;  0.0000000E+00; -3.1184670E-01;0;  1.7260677E-01;  2.6913982E+04;  0.0000000E+00; -1.4411077E-02;  4.0000000E+04;  0.0000000E+00;  3.9785367E+04; -1.6858315E-01;  0.0000000E+00;  3.4118992E-01;  5.3067314E+03;
  1.1609148E+00;  9.9999998E-03;  3.0149357E-02;8701;  8.4592938E-01;  0.0000000E+00;  9.3490193E-03;  9.9699933E+02;  1.2181088E-01; -2.4698477E+03;3;  5.6626915E+01;  0.0000000E+00; -4.7197372E-01;0;  1.7179751E-01;  2.6920678E+04;  0.0000000E+00; -3.1082490E-02;  4.0000000E+04;  0.0000000E+00;  3.9786613E+04; -1.6607556E-01;  0.0000000E+00;  3.3787307E-01;  5.4528936E+03;
  1.1609579E+00;  9.9999998E-03;  4.0189702E-02;8702;  8.4711182E-01;  0.0000000E+00;  1.2429721E-02;  9.9714343E+02;  1.2180770E-01; -2.3512100E+03;3;  5.5394089E+01;  0.0000000E+00; -6.2710351E-01;0;  1.7083198E-01;  2.6929930E+04;  0.0000000E+00; -5.2114174E-02;  4.0000000E+04;  0.0000000E+00;  3.9788293E+04; -1.6259763E-01;  0.0000000E+00;  3.3342960E-01;  5.6223872E+03;
  1.1610192E+00;  9.9999998E-03;  5.0224118E-02;8703;  8.4860319E-01;  0.0000000E+00;  1.5496080E-02;  9.9731464E+02;  1.2180337E-01; -2.2102957E+03;3;  5.3937180E+01;  0.0000000E+00; -6.5213442E-01;0;  1.6992469E-01;  2.6941551E+04;  0.0000000E+00; -7.5604133E-02;  4.0000000E+04;  0.0000000E+00;  3.9789918E+04; -1.5817173E-01;  0.0000000E+00;  3.2809642E-01;  5.7893457E+03;
  1.1610984E+00;  9.9999998E-03;  6.0251970E-02;8704;  8.5039395E-01;  0.0000000E+00;  1.8522250E-02;  9.9750665E+02;  1.2179819E-01; -2.0522090E+03;3;  5.2210751E+01;  0.0000000E+00; -6.2258732E-01;0;  1.6941775E-01;  2.6954873E+04;  0.0000000E+00; -9.9603839E-02;  4.0000000E+04;  0.0000000E+00;  3.9791410E+04; -1.5281288E-01;  0.0000000E+00;  3.2223064E-01;  5.9289243E+03;
  1.1731383E+00;  9.9999998E-03; -6.1004943E-09;8759;  8.4131449E-01;  0.0000000E+00; -9.5442310E-08;  9.9525769E+02;  1.2006839E-01; -3.8983350E+03;3;  5.7664864E+01;  0.0000000E+00; -2.4760815E-05;0;  9.5926568E-02;  2.7607771E+04;  0.0000000E+00;  2.9590523E-12;  4.0000000E+04;  0.0000000E+00;  3.9795035E+04; -1.8824945E-01;  0.0000000E+00;  2.8417602E-01;  6.7223994E+03;
  1.1731535E+00;  9.9999998E-03; -2.0077160E-02;8757;  8.4203416E-01;  0.0000000E+00; -5.1758378E-03;  9.9539166E+02;  1.2006561E-01; -3.7881831E+03;3;  5.6982334E+01;  0.0000000E+00; -1.4687353E-01;0;  9.5328659E-02;  2.7616459E+04;  0.0000000E+00; -1.8888367E-02;  4.0000000E+04;  0.0000000E+00;  3.9795984E+04; -1.8674937E-01;  0.0000000E+00;  2.8207803E-01;  6.7952358E+03;
  1.1731422E+00;  9.9999998E-03; -1.0039716E-02;8758;  8.4149760E-01;  0.0000000E+00; -2.5901620E-03;  9.9529089E+02;  1.2006751E-01; -3.8710420E+03;3;  5.7481915E+01;  0.0000000E+00; -5.6657296E-02;0;  9.5770970E-02;  2.7609945E+04;  0.0000000E+00; -4.7190501E-03;  4.0000000E+04;  0.0000000E+00;  3.9795332E+04; -1.8787153E-01;  0.0000000E+00;  2.8364250E-01;  6.7418984E+03;
  1.1731422E+00;  9.9999998E-03;  1.0039704E-02;8760;  8.4149760E-01;  0.0000000E+00;  2.5899727E-03;  9.9529083E+02;  1.2006778E-01; -3.8710911E+03;3;  5.7482037E+01;  0.0000000E+00;  5.6591898E-02;0;  9.5770940E-02;  2.7609947E+04;  0.0000000E+00; -4.7188937E-03;  4.0000000E+04;  0.0000000E+00;  3.9795332E+04; -1.8787144E-01;  0.0000000E+00;  2.8364238E-01;  6.7419150E+03;
  1.1731535E+00;  9.9999998E-03;  2.0077147E-02;8761;  8.4203416E-01;  0.0000000E+00;  5.1756543E-03;  9.9539172E+02;  1.2006561E-01; -3.7881343E+03;3;  5.6983456E+01;  0.0000000E+00;  1.4681348E-01;0;  9.5329016E-02;  2.7616459E+04;  0.0000000E+00; -1.8888038E-02;  4.0000000E+04;  0.0000000E+00;  3.9795984E+04; -1.8674934E-01;  0.0000000E+00;  2.8207836E-01;  6.7952251E+03;
  1.1731732E+00;  9.9999998E-03; -3.0111231E-02;8756;  8.4291416E-01;  0.0000000E+00; -7.7514821E-03;  9.9556158E+02;  1.2006314E-01; -3.6484854E+03;3;  5.6108715E+01;  0.0000000E+00; -2.3876290E-01;0;  9.4670728E-02;  2.7627203E+04;  0.0000000E+00; -4.2442068E-02;  4.0000000E+04;  0.0000000E+00;  3.9796699E+04; -1.8491895E-01;  0.0000000E+00;  2.7958968E-01;  6.8692915E+03;
  1.1731732E+00;  9.9999998E-03;  3.0111220E-02;8762;  8.4291416E-01;  0.0000000E+00;  7.7513065E-03;  9.9556146E+02;  1.2006313E-01; -3.6485835E+03;3;  5.6108959E+01;  0.0000000E+00;  2.3876846E-01;0;  9.4670624E-02;  2.7627209E+04;  0.0000000E+00; -4.2441852E-02;  4.0000000E+04;  0.0000000E+00;  3.9796699E+04; -1.8491897E-01;  0.0000000E+00;  2.7958959E-01;  6.8692837E+03;
  1.1732024E+00;  9.9999998E-03; -4.0141538E-02;8755;  8.4411854E-01;  0.0000000E+00; -1.0300661E-02;  9.9578906E+02;  1.2005897E-01; -3.4615024E+03;3;  5.4905388E+01;  0.0000000E+00; -2.9339284E-01;0;  9.3929157E-02;  2.7642057E+04;  0.0000000E+00; -7.4991778E-02;  4.0000000E+04;  0.0000000E+00;  3.9797703E+04; -1.8243380E-01;  0.0000000E+00;  2.7636296E-01;  6.9467920E+03;
  1.1732024E+00;  9.9999998E-03;  4.0141527E-02;8763;  8.4411854E-01;  0.0000000E+00;  1.0300492E-02;  9.9578894E+02;  1.2005898E-01; -3.4616003E+03;3;  5.4905853E+01;  0.0000000E+00;  2.9342839E-01;0;  9.3928739E-02;  2.7642062E+04;  0.0000000E+00; -7.4993409E-02;  4.0000000E+04;  0.0000000E+00;  3.9797703E+04; -1.8243392E-01;  0.0000000E+00;  2.7636266E-01;  6.9467935E+03;
  1.1732403E+00;  9.9999998E-03; -5.0168235E-02;8754;  8.4564567E-01;  0.0000000E+00; -1.2804339E-02;  9.9606866E+02;  1.2005347E-01; -3.2316458E+03;3;  5.3460091E+01;  0.0000000E+00; -3.9280799E-01;0;  9.3317956E-02;  2.7660709E+04;  0.0000000E+00; -1.1553672E-01;  4.0000000E+04;  0.0000000E+00;  3.9798652E+04; -1.7935848E-01;  0.0000000E+00;  2.7267644E-01;  7.0106177E+03;
  1.1732403E+00;  9.9999998E-03;  5.0168224E-02;8764;  8.4564567E-01;  0.0000000E+00;  1.2804192E-02;  9.9606866E+02;  1.2005352E-01; -3.2316458E+03;3;  5.3459576E+01;  0.0000000E+00;  3.9281711E-01;0;  9.3317837E-02;  2.7660703E+04;  0.0000000E+00; -1.1553630E-01;  4.0000000E+04;  0.0000000E+00;  3.9798656E+04; -1.7935836E-01;  0.0000000E+00;  2.7267620E-01;  7.0106123E+03;
  1.1732913E+00;  9.9999998E-03; -6.0191460E-02;8753;  8.4748292E-01;  0.0000000E+00; -1.5261563E-02;  9.9638733E+02;  1.2004694E-01; -2.9696941E+03;3;  5.1712868E+01;  0.0000000E+00; -5.7555282E-01;0;  9.3109265E-02;  2.7682436E+04;  0.0000000E+00; -1.6215457E-01;  4.0000000E+04;  0.0000000E+00;  3.9799359E+04; -1.7576988E-01;  0.0000000E+00;  2.6887915E-01;  7.0474980E+03;
  1.1732913E+00;  9.9999998E-03;  6.0191445E-02;8765;  8.4748292E-01;  0.0000000E+00;  1.5261422E-02;  9.9638721E+02;  1.2004694E-01; -2.9697922E+03;3;  5.1712494E+01;  0.0000000E+00;  5.7563376E-01;0;  9.3109101E-02;  2.7682432E+04;  0.0000000E+00; -1.6216062E-01;  4.0000000E+04;  0.0000000E+00;  3.9799359E+04; -1.7577016E-01;  0.0000000E+00;  2.6887926E-01;  7.0474795E+03;
  1.1733600E+00;  9.9999998E-03; -7.0212379E-02;8752;  8.4960270E-01;  0.0000000E+00; -1.7652735E-02;  9.9673895E+02;  1.2003966E-01; -2.6805967E+03;3;  4.9711845E+01;  0.0000000E+00; -9.4836241E-01;0;  9.3671009E-02;  2.7706906E+04;  0.0000000E+00; -2.1174939E-01;  4.0000000E+04;  0.0000000E+00;  3.9799676E+04; -1.7174350E-01;  0.0000000E+00;  2.6541451E-01;  7.0477061E+03;
  1.1734475E+00;  9.9999998E-03; -8.0231540E-02;8751;  8.5199851E-01;  0.0000000E+00; -1.9989220E-02;  9.9709937E+02;  1.2003057E-01; -2.3843452E+03;3;  4.7564426E+01;  0.0000000E+00; -1.6215793E+00;0;  9.5475361E-02;  2.7733037E+04;  0.0000000E+00; -2.5980449E-01;  4.0000000E+04;  0.0000000E+00;  3.9799828E+04; -1.6733794E-01;  0.0000000E+00;  2.6281330E-01;  7.0040625E+03;
  1.1735551E+00;  9.9999998E-03; -9.0247937E-02;8750;  8.5465926E-01;  0.0000000E+00; -2.2280263E-02;  9.9746698E+02;  1.2002098E-01; -2.0821174E+03;3;  4.5250118E+01;  0.0000000E+00; -2.6807098E+00;0;  9.9044427E-02;  2.7760400E+04;  0.0000000E+00; -3.0042082E-01;  4.0000000E+04;  0.0000000E+00;  3.9799391E+04; -1.6258670E-01;  0.0000000E+00;  2.6163113E-01;  6.9121587E+03;
  1.1736802E+00;  9.9999998E-03; -1.0026057E-01;8749;  8.5757405E-01;  0.0000000E+00; -2.4557438E-02;  9.9781763E+02;  1.2000974E-01; -1.7938568E+03;3;  4.2854679E+01;  0.0000000E+00; -4.1292853E+00;0;  1.0490851E-01;  2.7787621E+04;  0.0000000E+00; -3.2647464E-01;  4.0000000E+04;  0.0000000E+00;  3.9798570E+04; -1.5747504E-01;  0.0000000E+00;  2.6238355E-01;  6.7687368E+03;
  1.1852348E+00;  9.9999998E-03; -6.1549446E-09;8820;  8.3825332E-01;  0.0000000E+00; -9.2455380E-08;  9.9439069E+02;  1.1844332E-01; -4.6039795E+03;3;  5.7050518E+01;  0.0000000E+00; -9.6364283E-06;0;  3.4637913E-02;  2.8319061E+04;  0.0000000E+00;  3.0955635E-12;  4.0000000E+04;  0.0000000E+00;  3.9804855E+04; -1.9425650E-01;  0.0000000E+00;  2.2889441E-01;  8.1377339E+03;
  1.1852362E+00;  9.9999998E-03; -2.0051088E-02;8818;  8.3898318E-01;  0.0000000E+00; -4.2125867E-03;  9.9455109E+02;  1.1844048E-01; -4.4723296E+03;3;  5.6342087E+01;  0.0000000E+00; -5.9270740E-01;0;  3.4310639E-02;  2.8329662E+04;  0.0000000E+00; -1.4914649E-02;  4.0000000E+04;  0.0000000E+00;  3.9805059E+04; -1.9307595E-01;  0.0000000E+00;  2.2738659E-01;  8.1285322E+03;
  1.1852359E+00;  9.9999998E-03; -1.0026472E-02;8819;  8.3843541E-01;  0.0000000E+00; -2.1031471E-03;  9.9443256E+02;  1.1844257E-01; -4.5695864E+03;3;  5.6878578E+01;  0.0000000E+00; -2.8968680E-01;0;  3.4547359E-02;  2.8321654E+04;  0.0000000E+00; -3.5521663E-03;  4.0000000E+04;  0.0000000E+00;  3.9805000E+04; -1.9395743E-01;  0.0000000E+00;  2.2850479E-01;  8.1363052E+03;
  1.1852359E+00;  9.9999998E-03;  1.0026460E-02;8821;  8.3843541E-01;  0.0000000E+00;  2.1029594E-03;  9.9443256E+02;  1.1844257E-01; -4.5695864E+03;3;  5.6878571E+01;  0.0000000E+00;  2.8966293E-01;0;  3.4547657E-02;  2.8321658E+04;  0.0000000E+00; -3.5525782E-03;  4.0000000E+04;  0.0000000E+00;  3.9805000E+04; -1.9395727E-01;  0.0000000E+00;  2.2850493E-01;  8.1363091E+03;
  1.1852363E+00;  9.9999998E-03;  2.0051077E-02;8822;  8.3898318E-01;  0.0000000E+00;  4.2124046E-03;  9.9455109E+02;  1.1844048E-01; -4.4723296E+03;3;  5.6342197E+01;  0.0000000E+00;  5.9265167E-01;0;  3.4310773E-02;  2.8329658E+04;  0.0000000E+00; -1.4915267E-02;  4.0000000E+04;  0.0000000E+00;  3.9805059E+04; -1.9307591E-01;  0.0000000E+00;  2.2738668E-01;  8.1285322E+03;
  1.1852382E+00;  9.9999998E-03; -3.0073898E-02;8817;  8.3988184E-01;  0.0000000E+00; -6.3093924E-03;  9.9474951E+02;  1.1843742E-01; -4.3094678E+03;3;  5.5463154E+01;  0.0000000E+00; -8.7755042E-01;0;  3.3990353E-02;  2.8342992E+04;  0.0000000E+00; -3.5939842E-02;  4.0000000E+04;  0.0000000E+00;  3.9805082E+04; -1.9166011E-01;  0.0000000E+00;  2.2565046E-01;  8.1072065E+03;
  1.1852382E+00;  9.9999998E-03;  3.0073885E-02;8823;  8.3988190E-01;  0.0000000E+00;  6.3092145E-03;  9.9474951E+02;  1.1843742E-01; -4.3094678E+03;3;  5.5463501E+01;  0.0000000E+00;  8.7754995E-01;0;  3.3990696E-02;  2.8342994E+04;  0.0000000E+00; -3.5940859E-02;  4.0000000E+04;  0.0000000E+00;  3.9805086E+04; -1.9166015E-01;  0.0000000E+00;  2.2565085E-01;  8.1072397E+03;
  1.1852437E+00;  9.9999998E-03; -4.0095162E-02;8816;  8.4112269E-01;  0.0000000E+00; -8.3657531E-03;  9.9502539E+02;  1.1843307E-01; -4.0830061E+03;3;  5.4267998E+01;  0.0000000E+00; -1.1180094E+00;0;  3.3703089E-02;  2.8361420E+04;  0.0000000E+00; -6.8885438E-02;  4.0000000E+04;  0.0000000E+00;  3.9805102E+04; -1.8978709E-01;  0.0000000E+00;  2.2349018E-01;  8.0645859E+03;
  1.1852437E+00;  9.9999998E-03;  4.0095150E-02;8824;  8.4112269E-01;  0.0000000E+00;  8.3655789E-03;  9.9502539E+02;  1.1843307E-01; -4.0830061E+03;3;  5.4268402E+01;  0.0000000E+00;  1.1180342E+00;0;  3.3702999E-02;  2.8361420E+04;  0.0000000E+00; -6.8886459E-02;  4.0000000E+04;  0.0000000E+00;  3.9805105E+04; -1.8978716E-01;  0.0000000E+00;  2.2349016E-01;  8.0645859E+03;
  1.1852531E+00;  9.9999998E-03; -5.0115075E-02;8815;  8.4269226E-01;  0.0000000E+00; -1.0361713E-02;  9.9536523E+02;  1.1842751E-01; -3.8040493E+03;3;  5.2757767E+01;  0.0000000E+00; -1.3746530E+00;0;  3.3633068E-02;  2.8384498E+04;  0.0000000E+00; -1.1537275E-01;  4.0000000E+04;  0.0000000E+00;  3.9804930E+04; -1.8755668E-01;  0.0000000E+00;  2.2118975E-01;  7.9959443E+03;
  1.1852531E+00;  9.9999998E-03;  5.0115064E-02;8825;  8.4269238E-01;  0.0000000E+00;  1.0361553E-02;  9.9536523E+02;  1.1842751E-01; -3.8040493E+03;3;  5.2758354E+01;  0.0000000E+00;  1.3747239E+00;0;  3.3633232E-02;  2.8384492E+04;  0.0000000E+00; -1.1537530E-01;  4.0000000E+04;  0.0000000E+00;  3.9804930E+04; -1.8755673E-01;  0.0000000E+00;  2.2118996E-01;  7.9959258E+03;
  1.1852678E+00;  9.9999998E-03; -6.0134068E-02;8814;  8.4457141E-01;  0.0000000E+00; -1.2303613E-02;  9.9577014E+02;  1.1842089E-01; -3.4717180E+03;3;  5.0965076E+01;  0.0000000E+00; -1.7354755E+00;0;  3.4032539E-02;  2.8411953E+04;  0.0000000E+00; -1.7525384E-01;  4.0000000E+04;  0.0000000E+00;  3.9804699E+04; -1.8508261E-01;  0.0000000E+00;  2.1911515E-01;  7.9017622E+03;
  1.1852679E+00;  9.9999998E-03;  6.0134057E-02;8826;  8.4457147E-01;  0.0000000E+00;  1.2303450E-02;  9.9577032E+02;  1.1842106E-01; -3.4715710E+03;3;  5.0965851E+01;  0.0000000E+00;  1.7355516E+00;0;  3.4032524E-02;  2.8411947E+04;  0.0000000E+00; -1.7525551E-01;  4.0000000E+04;  0.0000000E+00;  3.9804699E+04; -1.8508275E-01;  0.0000000E+00;  2.1911527E-01;  7.9017539E+03;
  1.1852950E+00;  9.9999998E-03; -7.0152298E-02;8813;  8.4674180E-01;  0.0000000E+00; -1.4179834E-02;  9.9621887E+02;  1.1841295E-01; -3.1034243E+03;3;  4.8961861E+01;  0.0000000E+00; -2.2403095E+00;0;  3.5205632E-02;  2.8443113E+04;  0.0000000E+00; -2.4558477E-01;  4.0000000E+04;  0.0000000E+00;  3.9804250E+04; -1.8248263E-01;  0.0000000E+00;  2.1768826E-01;  7.7876587E+03;
  1.1853380E+00;  9.9999998E-03; -8.0172233E-02;8812;  8.4918791E-01;  0.0000000E+00; -1.6001783E-02;  9.9670746E+02;  1.1840294E-01; -2.7023999E+03;3;  4.6748718E+01;  0.0000000E+00; -3.0206096E+00;0;  3.7543952E-02;  2.8477045E+04;  0.0000000E+00; -3.2003871E-01;  4.0000000E+04;  0.0000000E+00;  3.9803668E+04; -1.7986225E-01;  0.0000000E+00;  2.1740620E-01;  7.6601665E+03;
  1.1853950E+00;  9.9999998E-03; -9.0196446E-02;8811;  8.5190171E-01;  0.0000000E+00; -1.7798603E-02;  9.9720801E+02;  1.1839271E-01; -2.2915427E+03;3;  4.4448895E+01;  0.0000000E+00; -4.1642222E+00;0;  4.1505799E-02;  2.8512785E+04;  0.0000000E+00; -3.8890481E-01;  4.0000000E+04;  0.0000000E+00;  3.9803074E+04; -1.7729570E-01;  0.0000000E+00;  2.1880150E-01;  7.5227808E+03;
  1.1854637E+00;  9.9999998E-03; -1.0022211E-01;8810;  8.5487771E-01;  0.0000000E+00; -1.9617271E-02;  9.9771838E+02;  1.1838268E-01; -1.8726172E+03;3;  4.2083370E+01;  0.0000000E+00; -5.6571898E+00;0;  4.7533438E-02;  2.8548951E+04;  0.0000000E+00; -4.3979165E-01;  4.0000000E+04;  0.0000000E+00;  3.9802375E+04; -1.7481077E-01;  0.0000000E+00;  2.2234420E-01;  7.3739585E+03;
  1.1971138E+00;  9.9999998E-03; -1.0015106E-02;8880;  8.3543742E-01;  0.0000000E+00; -1.6792099E-03;  9.9416248E+02;  1.1694134E-01; -4.7826694E+03;3;  5.6214996E+01;  0.0000000E+00; -4.7544923E-01;0; -1.0961458E-02;  2.9036611E+04;  0.0000000E+00; -2.5636796E-04;  4.0000000E+04;  0.0000000E+00;  3.9812301E+04; -1.8892944E-01;  0.0000000E+00;  1.7796798E-01;  9.2510107E+03;
  1.1971166E+00;  9.9999998E-03; -6.2235297E-09;8881;  8.3524871E-01;  0.0000000E+00; -9.0390898E-08;  9.9412433E+02;  1.1694219E-01; -4.8139209E+03;3;  5.6395206E+01;  0.0000000E+00;  5.5241890E-06;0; -1.0925680E-02;  2.9033826E+04;  0.0000000E+00;  3.5017035E-12;  4.0000000E+04;  0.0000000E+00;  3.9812238E+04; -1.8914850E-01;  0.0000000E+00;  1.7822282E-01;  9.2727168E+03;
  1.1971138E+00;  9.9999998E-03;  1.0015094E-02;8882;  8.3543742E-01;  0.0000000E+00;  1.6790298E-03;  9.9416248E+02;  1.1694173E-01; -4.7826694E+03;3;  5.6215034E+01;  0.0000000E+00;  4.7543570E-01;0; -1.0961190E-02;  2.9036611E+04;  0.0000000E+00; -2.5721130E-04;  4.0000000E+04;  0.0000000E+00;  3.9812305E+04; -1.8892932E-01;  0.0000000E+00;  1.7796813E-01;  9.2510273E+03;
  1.1971048E+00;  9.9999998E-03; -2.0029070E-02;8879;  8.3600032E-01;  0.0000000E+00; -3.3464485E-03;  9.9428265E+02;  1.1693986E-01; -4.6842271E+03;3;  5.5683098E+01;  0.0000000E+00; -9.3387550E-01;0; -1.1047423E-02;  2.9044836E+04;  0.0000000E+00; -2.6315246E-03;  4.0000000E+04;  0.0000000E+00;  3.9811844E+04; -1.8829106E-01;  0.0000000E+00;  1.7724364E-01;  9.1848701E+03;
  1.1971048E+00;  9.9999998E-03;  2.0029057E-02;8883;  8.3600032E-01;  0.0000000E+00;  3.3462690E-03;  9.9428253E+02;  1.1693987E-01; -4.6843247E+03;3;  5.5683243E+01;  0.0000000E+00;  9.3386286E-01;0; -1.1047304E-02;  2.9044840E+04;  0.0000000E+00; -2.6324203E-03;  4.0000000E+04;  0.0000000E+00;  3.9811848E+04; -1.8829112E-01;  0.0000000E+00;  1.7724381E-01;  9.1848711E+03;
  1.1970910E+00;  9.9999998E-03; -3.0042576E-02;8878;  8.3693010E-01;  0.0000000E+00; -4.9924972E-03;  9.9447870E+02;  1.1693682E-01; -4.5236211E+03;3;  5.4806358E+01;  0.0000000E+00; -1.3807070E+00;0; -1.1125058E-02;  2.9058674E+04;  0.0000000E+00; -1.1503479E-02;  4.0000000E+04;  0.0000000E+00;  3.9811082E+04; -1.8729059E-01;  0.0000000E+00;  1.7616554E-01;  9.0728555E+03;
  1.1970910E+00;  9.9999998E-03;  3.0042563E-02;8884;  8.3693010E-01;  0.0000000E+00;  4.9923179E-03;  9.9447882E+02;  1.1693680E-01; -4.5235234E+03;3;  5.4806496E+01;  0.0000000E+00;  1.3807130E+00;0; -1.1124909E-02;  2.9058682E+04;  0.0000000E+00; -1.1505471E-02;  4.0000000E+04;  0.0000000E+00;  3.9811078E+04; -1.8729071E-01;  0.0000000E+00;  1.7616580E-01;  9.0728516E+03;
  1.1970745E+00;  9.9999998E-03; -4.0056799E-02;8877;  8.3821023E-01;  0.0000000E+00; -6.5926490E-03;  9.9475092E+02;  1.1693257E-01; -4.3006064E+03;3;  5.3571960E+01;  0.0000000E+00; -1.8003232E+00;0; -1.1093318E-02;  2.9077898E+04;  0.0000000E+00; -3.2792270E-02;  4.0000000E+04;  0.0000000E+00;  3.9809988E+04; -1.8601738E-01;  0.0000000E+00;  1.7492406E-01;  8.9162676E+03;
  1.1970745E+00;  9.9999998E-03;  4.0056784E-02;8885;  8.3821023E-01;  0.0000000E+00;  6.5924744E-03;  9.9475092E+02;  1.1693257E-01; -4.3006064E+03;3;  5.3571293E+01;  0.0000000E+00;  1.8003193E+00;0; -1.1093408E-02;  2.9077900E+04;  0.0000000E+00; -3.2796033E-02;  4.0000000E+04;  0.0000000E+00;  3.9809988E+04; -1.8601753E-01;  0.0000000E+00;  1.7492412E-01;  8.9162744E+03;
  1.1970568E+00;  9.9999998E-03; -5.0072458E-02;8876;  8.3982676E-01;  0.0000000E+00; -8.1313821E-03;  9.9509918E+02;  1.1692664E-01; -4.0152788E+03;3;  5.2029194E+01;  0.0000000E+00; -2.2413023E+00;0; -1.0792419E-02;  2.9102395E+04;  0.0000000E+00; -7.2140753E-02;  4.0000000E+04;  0.0000000E+00;  3.9808766E+04; -1.8458909E-01;  0.0000000E+00;  1.7379667E-01;  8.7218281E+03;
  1.1970568E+00;  9.9999998E-03;  5.0072446E-02;8886;  8.3982688E-01;  0.0000000E+00;  8.1312107E-03;  9.9509924E+02;  1.1692664E-01; -4.0152300E+03;3;  5.2029781E+01;  0.0000000E+00;  2.2413547E+00;0; -1.0791972E-02;  2.9102396E+04;  0.0000000E+00; -7.2144620E-02;  4.0000000E+04;  0.0000000E+00;  3.9808770E+04; -1.8458888E-01;  0.0000000E+00;  1.7379691E-01;  8.7218457E+03;
  1.1970400E+00;  9.9999998E-03; -6.0089987E-02;8875;  8.4175926E-01;  0.0000000E+00; -9.6025849E-03;  9.9552057E+02;  1.1691993E-01; -3.6700278E+03;3;  5.0179199E+01;  0.0000000E+00; -2.7450836E+00;0; -1.0002285E-02;  2.9131996E+04;  0.0000000E+00; -1.3282281E-01;  4.0000000E+04;  0.0000000E+00;  3.9807340E+04; -1.8314007E-01;  0.0000000E+00;  1.7313778E-01;  8.5030703E+03;
  1.1970400E+00;  9.9999998E-03;  6.0089976E-02;8887;  8.4175932E-01;  0.0000000E+00;  9.6024331E-03;  9.9552057E+02;  1.1691991E-01; -3.6700278E+03;3;  5.0180077E+01;  0.0000000E+00;  2.7451148E+00;0; -1.0001838E-02;  2.9131994E+04;  0.0000000E+00; -1.3282843E-01;  4.0000000E+04;  0.0000000E+00;  3.9807336E+04; -1.8314001E-01;  0.0000000E+00;  1.7313817E-01;  8.5030781E+03;
  1.1970278E+00;  9.9999998E-03; -7.0109144E-02;8874;  8.4398609E-01;  0.0000000E+00; -1.1012474E-02;  9.9600763E+02;  1.1691200E-01; -3.2710061E+03;3;  4.8090714E+01;  0.0000000E+00; -3.4162614E+00;0; -8.4421337E-03;  2.9166133E+04;  0.0000000E+00; -2.1383792E-01;  4.0000000E+04;  0.0000000E+00;  3.9805938E+04; -1.8180914E-01;  0.0000000E+00;  1.7336701E-01;  8.2788799E+03;
  1.1970261E+00;  9.9999998E-03; -8.0129951E-02;8873;  8.4649235E-01;  0.0000000E+00; -1.2380070E-02;  9.9654663E+02;  1.1690265E-01; -2.8293936E+03;3;  4.5865234E+01;  0.0000000E+00; -4.3370519E+00;0; -5.7774633E-03;  2.9203932E+04;  0.0000000E+00; -3.0874318E-01;  4.0000000E+04;  0.0000000E+00;  3.9804797E+04; -1.8072490E-01;  0.0000000E+00;  1.7494744E-01;  8.0686812E+03;
  1.1970340E+00;  9.9999998E-03; -9.0153493E-02;8872;  8.4925860E-01;  0.0000000E+00; -1.3731296E-02;  9.9712567E+02;  1.1689252E-01; -2.3549600E+03;3;  4.3504478E+01;  0.0000000E+00; -5.5248241E+00;0; -1.6179979E-03;  2.9244281E+04;  0.0000000E+00; -4.0569103E-01;  4.0000000E+04;  0.0000000E+00;  3.9803910E+04; -1.7998958E-01;  0.0000000E+00;  1.7837158E-01;  7.8850195E+03;
  1.1970479E+00;  9.9999998E-03; -1.0018320E-01;8871;  8.5227245E-01;  0.0000000E+00; -1.5109978E-02;  9.9771796E+02;  1.1688194E-01; -1.8696842E+03;3;  4.1084164E+01;  0.0000000E+00; -6.9903941E+00;0;  4.4295192E-03;  2.9285844E+04;  0.0000000E+00; -4.8858407E-01;  4.0000000E+04;  0.0000000E+00;  3.9803230E+04; -1.7965773E-01;  0.0000000E+00;  1.8408725E-01;  7.7279521E+03;
  1.2087349E+00;  9.9999998E-03; -2.0015109E-02;8939;  8.3314753E-01;  0.0000000E+00; -2.5443307E-03;  9.9441541E+02;  1.1556431E-01; -4.5659619E+03;3;  5.4837212E+01;  0.0000000E+00; -1.3514696E+00;0; -4.0176794E-02;  2.9749346E+04;  0.0000000E+00;  1.4378539E-02;  4.0000000E+04;  0.0000000E+00;  3.9815004E+04; -1.7158189E-01;  0.0000000E+00;  1.3140510E-01;  9.8855811E+03;
  1.2087468E+00;  9.9999998E-03; -1.0007554E-02;8940;  8.3256376E-01;  0.0000000E+00; -1.2807489E-03;  9.9432129E+02;  1.1556579E-01; -4.6429004E+03;3;  5.5370125E+01;  0.0000000E+00; -6.8655646E-01;0; -4.0082142E-02;  2.9741926E+04;  0.0000000E+00;  4.2023850E-03;  4.0000000E+04;  0.0000000E+00;  3.9815930E+04; -1.7187402E-01;  0.0000000E+00;  1.3179187E-01;  9.9939873E+03;
  1.2087511E+00;  9.9999998E-03; -6.3403567E-09;8941;  8.3236814E-01;  0.0000000E+00; -9.0037588E-08;  9.9428918E+02;  1.1556666E-01; -4.6691636E+03;3;  5.5551159E+01;  0.0000000E+00;  2.1029320E-05;0; -4.0046185E-02;  2.9739582E+04;  0.0000000E+00;  5.1617738E-12;  4.0000000E+04;  0.0000000E+00;  3.9816238E+04; -1.7197810E-01;  0.0000000E+00;  1.3193192E-01;  1.0030364E+04;
  1.2087468E+00;  9.9999998E-03;  1.0007542E-02;8942;  8.3256376E-01;  0.0000000E+00;  1.2805691E-03;  9.9432135E+02;  1.1556577E-01; -4.6428516E+03;3;  5.5370129E+01;  0.0000000E+00;  6.8657446E-01;0; -4.0081978E-02;  2.9741932E+04;  0.0000000E+00;  4.2016646E-03;  4.0000000E+04;  0.0000000E+00;  3.9815930E+04; -1.7187396E-01;  0.0000000E+00;  1.3179198E-01;  9.9939795E+03;
  1.2087349E+00;  9.9999998E-03;  2.0015098E-02;8943;  8.3314753E-01;  0.0000000E+00;  2.5441535E-03;  9.9441541E+02;  1.1556431E-01; -4.5659619E+03;3;  5.4837376E+01;  0.0000000E+00;  1.3515099E+00;0; -4.0176839E-02;  2.9749346E+04;  0.0000000E+00;  1.4377126E-02;  4.0000000E+04;  0.0000000E+00;  3.9815004E+04; -1.7158200E-01;  0.0000000E+00;  1.3140516E-01;  9.8855947E+03;
  1.2087152E+00;  9.9999998E-03; -3.0022766E-02;8938;  8.3411282E-01;  0.0000000E+00; -3.7750590E-03;  9.9458136E+02;  1.1556110E-01; -4.4303071E+03;3;  5.3972637E+01;  0.0000000E+00; -1.9590205E+00;0; -4.0281549E-02;  2.9761662E+04;  0.0000000E+00;  2.3771193E-02;  4.0000000E+04;  0.0000000E+00;  3.9813672E+04; -1.7116788E-01;  0.0000000E+00;  1.3088633E-01;  9.7082812E+03;
  1.2087152E+00;  9.9999998E-03;  3.0022753E-02;8944;  8.3411288E-01;  0.0000000E+00;  3.7748811E-03;  9.9458136E+02;  1.1556110E-01; -4.4303071E+03;3;  5.3973003E+01;  0.0000000E+00;  1.9590269E+00;0; -4.0281624E-02;  2.9761662E+04;  0.0000000E+00;  2.3768682E-02;  4.0000000E+04;  0.0000000E+00;  3.9813672E+04; -1.7116795E-01;  0.0000000E+00;  1.3088633E-01;  9.7082725E+03;
  1.2086899E+00;  9.9999998E-03; -4.0031541E-02;8937;  8.3544272E-01;  0.0000000E+00; -4.9591893E-03;  9.9481067E+02;  1.1555646E-01; -4.2428521E+03;3;  5.2748135E+01;  0.0000000E+00; -2.5609183E+00;0; -4.0310889E-02;  2.9779342E+04;  0.0000000E+00;  2.2839224E-02;  4.0000000E+04;  0.0000000E+00;  3.9811727E+04; -1.7072891E-01;  0.0000000E+00;  1.3041802E-01;  9.4698438E+03;
  1.2086899E+00;  9.9999998E-03;  4.0031526E-02;8945;  8.3544272E-01;  0.0000000E+00;  4.9590138E-03;  9.9481067E+02;  1.1555646E-01; -4.2428521E+03;3;  5.2748581E+01;  0.0000000E+00;  2.5609250E+00;0; -4.0310934E-02;  2.9779348E+04;  0.0000000E+00;  2.2835750E-02;  4.0000000E+04;  0.0000000E+00;  3.9811727E+04; -1.7072915E-01;  0.0000000E+00;  1.3041821E-01;  9.4698271E+03;
  1.2086606E+00;  9.9999998E-03; -5.0042477E-02;8936;  8.3711892E-01;  0.0000000E+00; -6.0831751E-03;  9.9512146E+02;  1.1555127E-01; -3.9887322E+03;3;  5.1199593E+01;  0.0000000E+00; -3.1555495E+00;0; -4.0126055E-02;  2.9802064E+04;  0.0000000E+00;  1.6710461E-03;  4.0000000E+04;  0.0000000E+00;  3.9809598E+04; -1.7039026E-01;  0.0000000E+00;  1.3026421E-01;  9.1850977E+03;
  1.2086606E+00;  9.9999998E-03;  5.0042462E-02;8946;  8.3711898E-01;  0.0000000E+00;  6.0829967E-03;  9.9512152E+02;  1.1555126E-01; -3.9886833E+03;3;  5.1200142E+01;  0.0000000E+00;  3.1556051E+00;0; -4.0125981E-02;  2.9802066E+04;  0.0000000E+00;  1.6648420E-03;  4.0000000E+04;  0.0000000E+00;  3.9809598E+04; -1.7039037E-01;  0.0000000E+00;  1.3026439E-01;  9.1850938E+03;
  1.2086263E+00;  9.9999998E-03; -6.0058378E-02;8935;  8.3911657E-01;  0.0000000E+00; -7.1409335E-03;  9.9550049E+02;  1.1554462E-01; -3.6788606E+03;3;  4.9323994E+01;  0.0000000E+00; -3.8123193E+00;0; -3.9522156E-02;  2.9830201E+04;  0.0000000E+00; -4.7179144E-02;  4.0000000E+04;  0.0000000E+00;  3.9807246E+04; -1.7029513E-01;  0.0000000E+00;  1.3077298E-01;  8.8757676E+03;
  1.2086263E+00;  9.9999998E-03;  6.0058363E-02;8947;  8.3911663E-01;  0.0000000E+00;  7.1407608E-03;  9.9550055E+02;  1.1554451E-01; -3.6788118E+03;3;  4.9323532E+01;  0.0000000E+00;  3.8122950E+00;0; -3.9522365E-02;  2.9830193E+04;  0.0000000E+00; -4.7186192E-02;  4.0000000E+04;  0.0000000E+00;  3.9807254E+04; -1.7029528E-01;  0.0000000E+00;  1.3077292E-01;  8.8757842E+03;
  1.2085912E+00;  9.9999998E-03; -7.0080794E-02;8934;  8.4141237E-01;  0.0000000E+00; -8.1358552E-03;  9.9595502E+02;  1.1553643E-01; -3.3072886E+03;3;  4.7198475E+01;  0.0000000E+00; -4.5531645E+00;0; -3.8238540E-02;  2.9863305E+04;  0.0000000E+00; -1.2596178E-01;  4.0000000E+04;  0.0000000E+00;  3.9805098E+04; -1.7057906E-01;  0.0000000E+00;  1.3234052E-01;  8.5692617E+03;
  1.2085580E+00;  9.9999998E-03; -8.0107860E-02;8933;  8.4397876E-01;  0.0000000E+00; -9.0864040E-03;  9.9648120E+02;  1.1552700E-01; -2.8770828E+03;3;  4.4861938E+01;  0.0000000E+00; -5.5494485E+00;0; -3.5948843E-02;  2.9900916E+04;  0.0000000E+00; -2.3006131E-01;  4.0000000E+04;  0.0000000E+00;  3.9803422E+04; -1.7136462E-01;  0.0000000E+00;  1.3541578E-01;  8.2925283E+03;
  1.2085289E+00;  9.9999998E-03; -9.0136513E-02;8932;  8.4679437E-01;  0.0000000E+00; -1.0020676E-02;  9.9706158E+02;  1.1551759E-01; -2.4025210E+03;3;  4.2438641E+01;  0.0000000E+00; -6.7178078E+00;0; -3.2294810E-02;  2.9941883E+04;  0.0000000E+00; -3.4769464E-01;  4.0000000E+04;  0.0000000E+00;  3.9802148E+04; -1.7274608E-01;  0.0000000E+00;  1.4045127E-01;  8.0646543E+03;
  1.2085044E+00;  9.9999998E-03; -1.0016583E-01;8931;  8.4983742E-01;  0.0000000E+00; -1.0973026E-02;  9.9767963E+02;  1.1550748E-01; -1.8972003E+03;3;  3.9920685E+01;  0.0000000E+00; -8.1607122E+00;0; -2.6916414E-02;  2.9985100E+04;  0.0000000E+00; -4.6127006E-01;  4.0000000E+04;  0.0000000E+00;  3.9801465E+04; -1.7477061E-01;  0.0000000E+00;  1.4785419E-01;  7.8888096E+03;
  1.2201687E+00;  9.9999998E-03; -1.0005024E-02;8999;  8.2991487E-01;  0.0000000E+00; -9.0204901E-04;  9.9471631E+02;  1.1431202E-01; -4.3095386E+03;3;  5.4459862E+01;  0.0000000E+00; -8.6155069E-01;0; -5.1375858E-02;  3.0424680E+04;  0.0000000E+00;  8.3618043E-03;  4.0000000E+04;  0.0000000E+00;  3.9815418E+04; -1.4074925E-01;  0.0000000E+00;  8.9373387E-02;  1.0339290E+04;
  1.2201725E+00;  9.9999998E-03; -6.5201853E-09;9000;  8.2971114E-01;  0.0000000E+00; -8.8687507E-08;  9.9469800E+02;  1.1431289E-01; -4.3244600E+03;3;  5.4623196E+01;  0.0000000E+00;  2.4169049E-05;0; -5.1265657E-02;  3.0422818E+04;  0.0000000E+00;  3.9631532E-12;  4.0000000E+04;  0.0000000E+00;  3.9815773E+04; -1.4067693E-01;  0.0000000E+00;  8.9411274E-02;  1.0382660E+04;
  1.2201687E+00;  9.9999998E-03;  1.0005011E-02;9001;  8.2991487E-01;  0.0000000E+00;  9.0186775E-04;  9.9471631E+02;  1.1431202E-01; -4.3095386E+03;3;  5.4459972E+01;  0.0000000E+00;  8.6159992E-01;0; -5.1375799E-02;  3.0424678E+04;  0.0000000E+00;  8.3608730E-03;  4.0000000E+04;  0.0000000E+00;  3.9815418E+04; -1.4074914E-01;  0.0000000E+00;  8.9373343E-02;  1.0339298E+04;
  1.2201570E+00;  9.9999998E-03; -2.0010240E-02;8998;  8.3052284E-01;  0.0000000E+00; -1.7863045E-03;  9.9478107E+02;  1.1431048E-01; -4.2567056E+03;3;  5.3923435E+01;  0.0000000E+00; -1.7197355E+00;0; -5.1696263E-02;  3.0430137E+04;  0.0000000E+00;  3.0498106E-02;  4.0000000E+04;  0.0000000E+00;  3.9814168E+04; -1.4099056E-01;  0.0000000E+00;  8.9294292E-02;  1.0210810E+04;
  1.2201570E+00;  9.9999998E-03;  2.0010229E-02;9002;  8.3052289E-01;  0.0000000E+00;  1.7861277E-03;  9.9478088E+02;  1.1431056E-01; -4.2568511E+03;3;  5.3924870E+01;  0.0000000E+00;  1.7197469E+00;0; -5.1696107E-02;  3.0430141E+04;  0.0000000E+00;  3.0496757E-02;  4.0000000E+04;  0.0000000E+00;  3.9814172E+04; -1.4099048E-01;  0.0000000E+00;  8.9294374E-02;  1.0210825E+04;
  1.2201380E+00;  9.9999998E-03; -3.0015789E-02;8997;  8.3152449E-01;  0.0000000E+00; -2.6355037E-03;  9.9488824E+02;  1.1430773E-01; -4.1693135E+03;3;  5.3026608E+01;  0.0000000E+00; -2.5709798E+00;0; -5.2192055E-02;  3.0439578E+04;  0.0000000E+00;  5.8160014E-02;  4.0000000E+04;  0.0000000E+00;  3.9812516E+04; -1.4147019E-01;  0.0000000E+00;  8.9278139E-02;  1.0002955E+04;
  1.2201380E+00;  9.9999998E-03;  3.0015776E-02;9003;  8.3152449E-01;  0.0000000E+00;  2.6353269E-03;  9.9488824E+02;  1.1430773E-01; -4.1693135E+03;3;  5.3025745E+01;  0.0000000E+00;  2.5710022E+00;0; -5.2191816E-02;  3.0439584E+04;  0.0000000E+00;  5.8156889E-02;  4.0000000E+04;  0.0000000E+00;  3.9812516E+04; -1.4147013E-01;  0.0000000E+00;  8.9278318E-02;  1.0002950E+04;
  1.2201135E+00;  9.9999998E-03; -4.0022675E-02;8996;  8.3290255E-01;  0.0000000E+00; -3.4348981E-03;  9.9504993E+02;  1.1430307E-01; -4.0374424E+03;3;  5.1794708E+01;  0.0000000E+00; -3.3969355E+00;0; -5.2793674E-02;  3.0453404E+04;  0.0000000E+00;  7.9477735E-02;  4.0000000E+04;  0.0000000E+00;  3.9810082E+04; -1.4228770E-01;  0.0000000E+00;  8.9494027E-02;  9.7267725E+03;
  1.2201135E+00;  9.9999998E-03;  4.0022660E-02;9004;  8.3290261E-01;  0.0000000E+00;  3.4347204E-03;  9.9504993E+02;  1.1430307E-01; -4.0374424E+03;3;  5.1796345E+01;  0.0000000E+00;  3.3969626E+00;0; -5.2793637E-02;  3.0453404E+04;  0.0000000E+00;  7.9473928E-02;  4.0000000E+04;  0.0000000E+00;  3.9810082E+04; -1.4228773E-01;  0.0000000E+00;  8.9494094E-02;  9.7267725E+03;
  1.2200831E+00;  9.9999998E-03; -5.0032493E-02;8995;  8.3463526E-01;  0.0000000E+00; -4.1758711E-03;  9.9527698E+02;  1.1429741E-01; -3.8522913E+03;3;  5.0220512E+01;  0.0000000E+00; -4.2183528E+00;0; -5.3380266E-02;  3.0471934E+04;  0.0000000E+00;  8.1521951E-02;  4.0000000E+04;  0.0000000E+00;  3.9807340E+04; -1.4357369E-01;  0.0000000E+00;  9.0193421E-02;  9.4001738E+03;
  1.2200831E+00;  9.9999998E-03;  5.0032482E-02;9005;  8.3463532E-01;  0.0000000E+00;  4.1757021E-03;  9.9527704E+02;  1.1429744E-01; -3.8522424E+03;3;  5.0221115E+01;  0.0000000E+00;  4.2183604E+00;0; -5.3380057E-02;  3.0471943E+04;  0.0000000E+00;  8.1520401E-02;  4.0000000E+04;  0.0000000E+00;  3.9807340E+04; -1.4357375E-01;  0.0000000E+00;  9.0193689E-02;  9.4001660E+03;
  1.2200475E+00;  9.9999998E-03; -6.0047254E-02;8994;  8.3669579E-01;  0.0000000E+00; -4.8536132E-03;  9.9557648E+02;  1.1429127E-01; -3.6080249E+03;3;  4.8311241E+01;  0.0000000E+00; -5.0614977E+00;0; -5.3763606E-02;  3.0495592E+04;  0.0000000E+00;  5.3430673E-02;  4.0000000E+04;  0.0000000E+00;  3.9804387E+04; -1.4545991E-01;  0.0000000E+00;  9.1696300E-02;  9.0477627E+03;
  1.2200475E+00;  9.9999998E-03;  6.0047239E-02;9006;  8.3669573E-01;  0.0000000E+00;  4.8534386E-03;  9.9557654E+02;  1.1429126E-01; -3.6079763E+03;3;  4.8310810E+01;  0.0000000E+00;  5.0614672E+00;0; -5.3763576E-02;  3.0495605E+04;  0.0000000E+00;  5.3429861E-02;  4.0000000E+04;  0.0000000E+00;  3.9804387E+04; -1.4545982E-01;  0.0000000E+00;  9.1696240E-02;  9.0477461E+03;
  1.2200072E+00;  9.9999998E-03; -7.0068918E-02;8993;  8.3905292E-01;  0.0000000E+00; -5.4743048E-03;  9.9595282E+02;  1.1428367E-01; -3.3010908E+03;3;  4.6157047E+01;  0.0000000E+00; -5.9089723E+00;0; -5.3681605E-02;  3.0524320E+04;  0.0000000E+00; -1.0594603E-02;  4.0000000E+04;  0.0000000E+00;  3.9801699E+04; -1.4806542E-01;  0.0000000E+00;  9.4383813E-02;  8.6986387E+03;
  1.2199596E+00;  9.9999998E-03; -8.0099732E-02;8992;  8.4167594E-01;  0.0000000E+00; -6.0517718E-03;  9.9640332E+02;  1.1427459E-01; -2.9336758E+03;3;  4.3745796E+01;  0.0000000E+00; -6.8520126E+00;0; -5.2796185E-02;  3.0558023E+04;  0.0000000E+00; -1.0923219E-01;  4.0000000E+04;  0.0000000E+00;  3.9799465E+04; -1.5148960E-01;  0.0000000E+00;  9.8693416E-02;  8.3815146E+03;
  1.2199063E+00;  9.9999998E-03; -9.0140224E-02;8991;  8.4454006E-01;  0.0000000E+00; -6.6064773E-03;  9.9692993E+02;  1.1426625E-01; -2.5041709E+03;3;  4.1254086E+01;  0.0000000E+00; -7.8794193E+00;0; -5.0722256E-02;  3.0595938E+04;  0.0000000E+00; -2.3335250E-01;  4.0000000E+04;  0.0000000E+00;  3.9797875E+04; -1.5577865E-01;  0.0000000E+00;  1.0505639E-01;  8.1178882E+03;
  1.2198529E+00;  9.9999998E-03; -1.0018108E-01;8990;  8.4761727E-01;  0.0000000E+00; -7.1707433E-03;  9.9750854E+02;  1.1425676E-01; -2.0322600E+03;3;  3.8711185E+01;  0.0000000E+00; -9.1996469E+00;0; -4.7071427E-02;  3.0637029E+04;  0.0000000E+00; -3.6670870E-01;  4.0000000E+04;  0.0000000E+00;  3.9796977E+04; -1.6091463E-01;  0.0000000E+00;  1.1384320E-01;  7.9126738E+03;
  1.2314154E+00;  9.9999998E-03; -1.0006933E-02;9058;  8.2748973E-01;  0.0000000E+00; -5.1686727E-04;  9.9518866E+02;  1.1317588E-01; -3.9133171E+03;3;  5.3410423E+01;  0.0000000E+00; -1.1550391E+00;0; -4.2651970E-02;  3.1072566E+04;  0.0000000E+00;  1.0804099E-02;  4.0000000E+04;  0.0000000E+00;  3.9810438E+04; -9.2820197E-02;  0.0000000E+00;  5.0168227E-02;  1.0312540E+04;
  1.2314175E+00;  9.9999998E-03; -6.7489432E-09;9059;  8.2727820E-01;  0.0000000E+00; -8.7716913E-08;  9.9518317E+02;  1.1317690E-01; -3.9177749E+03;3;  5.3575581E+01;  0.0000000E+00;  4.0198749E-05;0; -4.2377241E-02;  3.1071588E+04;  0.0000000E+00;  3.6447104E-12;  4.0000000E+04;  0.0000000E+00;  3.9810719E+04; -9.2486851E-02;  0.0000000E+00;  5.0109610E-02;  1.0355015E+04;
  1.2314154E+00;  9.9999998E-03;  1.0006920E-02;9060;  8.2748979E-01;  0.0000000E+00;  5.1668705E-04;  9.9518866E+02;  1.1317588E-01; -3.9133171E+03;3;  5.3410534E+01;  0.0000000E+00;  1.1551073E+00;0; -4.2652149E-02;  3.1072559E+04;  0.0000000E+00;  1.0803016E-02;  4.0000000E+04;  0.0000000E+00;  3.9810441E+04; -9.2820331E-02;  0.0000000E+00;  5.0168183E-02;  1.0312545E+04;
  1.2314091E+00;  9.9999998E-03; -2.0013850E-02;9057;  8.2812023E-01;  0.0000000E+00; -1.0163054E-03;  9.9521063E+02;  1.1317427E-01; -3.8954348E+03;3;  5.2923775E+01;  0.0000000E+00; -2.2630723E+00;0; -4.3470830E-02;  3.1075648E+04;  0.0000000E+00;  4.0271726E-02;  4.0000000E+04;  0.0000000E+00;  3.9809258E+04; -9.3845442E-02;  0.0000000E+00;  5.0374612E-02;  1.0187025E+04;
  1.2314091E+00;  9.9999998E-03;  2.0013837E-02;9061;  8.2812023E-01;  0.0000000E+00;  1.0161271E-03;  9.9521063E+02;  1.1317427E-01; -3.8954348E+03;3;  5.2922810E+01;  0.0000000E+00;  2.2631493E+00;0; -4.3470744E-02;  3.1075656E+04;  0.0000000E+00;  4.0270191E-02;  4.0000000E+04;  0.0000000E+00;  3.9809258E+04; -9.3845338E-02;  0.0000000E+00;  5.0374594E-02;  1.0187018E+04;
  1.2313992E+00;  9.9999998E-03; -3.0020699E-02;9056;  8.2915890E-01;  0.0000000E+00; -1.4866053E-03;  9.9525470E+02;  1.1317111E-01; -3.8596187E+03;3;  5.2059788E+01;  0.0000000E+00; -3.3710008E+00;0; -4.4810079E-02;  3.1081361E+04;  0.0000000E+00;  8.0100246E-02;  4.0000000E+04;  0.0000000E+00;  3.9807223E+04; -9.5630929E-02;  0.0000000E+00;  5.0820850E-02;  9.9843350E+03;
  1.2313992E+00;  9.9999998E-03;  3.0020686E-02;9062;  8.2915896E-01;  0.0000000E+00;  1.4864245E-03;  9.9525470E+02;  1.1317111E-01; -3.8596187E+03;3;  5.2060112E+01;  0.0000000E+00;  3.3710628E+00;0; -4.4809859E-02;  3.1081373E+04;  0.0000000E+00;  8.0097876E-02;  4.0000000E+04;  0.0000000E+00;  3.9807223E+04; -9.5630713E-02;  0.0000000E+00;  5.0820854E-02;  9.9843252E+03;
  1.2313843E+00;  9.9999998E-03; -4.0028673E-02;9055;  8.3058923E-01;  0.0000000E+00; -1.9166017E-03;  9.9533429E+02;  1.1316683E-01; -3.7949133E+03;3;  5.0814548E+01;  0.0000000E+00; -4.4315505E+00;0; -4.6616986E-02;  3.1090182E+04;  0.0000000E+00;  1.1817378E-01;  4.0000000E+04;  0.0000000E+00;  3.9804633E+04; -9.8287873E-02;  0.0000000E+00;  5.1670887E-02;  9.7154629E+03;
  1.2313843E+00;  9.9999998E-03;  4.0028661E-02;9063;  8.3058929E-01;  0.0000000E+00;  1.9164225E-03;  9.9533429E+02;  1.1316683E-01; -3.7949133E+03;3;  5.0815105E+01;  0.0000000E+00;  4.4315052E+00;0; -4.6617143E-02;  3.1090186E+04;  0.0000000E+00;  1.1817087E-01;  4.0000000E+04;  0.0000000E+00;  3.9804637E+04; -9.8288052E-02;  0.0000000E+00;  5.1670909E-02;  9.7154502E+03;
  1.2313628E+00;  9.9999998E-03; -5.0040051E-02;9054;  8.3238560E-01;  0.0000000E+00; -2.2992417E-03;  9.9546301E+02;  1.1316188E-01; -3.6902180E+03;3;  4.9209850E+01;  0.0000000E+00; -5.4218402E+00;0; -4.8785947E-02;  3.1102842E+04;  0.0000000E+00;  1.4086182E-01;  4.0000000E+04;  0.0000000E+00;  3.9801723E+04; -1.0194268E-01;  0.0000000E+00;  5.3156734E-02;  9.3966514E+03;
  1.2313628E+00;  9.9999998E-03;  5.0040036E-02;9064;  8.3238554E-01;  0.0000000E+00;  2.2990645E-03;  9.9546295E+02;  1.1316191E-01; -3.6902664E+03;3;  4.9209282E+01;  0.0000000E+00;  5.4218149E+00;0; -4.8785828E-02;  3.1102840E+04;  0.0000000E+00;  1.4085911E-01;  4.0000000E+04;  0.0000000E+00;  3.9801723E+04; -1.0194260E-01;  0.0000000E+00;  5.3156771E-02;  9.3966328E+03;
  1.2313330E+00;  9.9999998E-03; -6.0056876E-02;9053;  8.3451420E-01;  0.0000000E+00; -2.6347113E-03;  9.9565436E+02;  1.1315590E-01; -3.5346248E+03;3;  4.7239273E+01;  0.0000000E+00; -6.4129815E+00;0; -5.1131483E-02;  3.1119896E+04;  0.0000000E+00;  1.3577145E-01;  4.0000000E+04;  0.0000000E+00;  3.9798707E+04; -1.0670729E-01;  0.0000000E+00;  5.5575807E-02;  9.0494453E+03;
  1.2313330E+00;  9.9999998E-03;  6.0056861E-02;9065;  8.3451420E-01;  0.0000000E+00;  2.6345367E-03;  9.9565442E+02;  1.1315589E-01; -3.5345762E+03;3;  4.7238903E+01;  0.0000000E+00;  6.4130340E+00;0; -5.1131245E-02;  3.1119889E+04;  0.0000000E+00;  1.3577025E-01;  4.0000000E+04;  0.0000000E+00;  3.9798707E+04; -1.0670719E-01;  0.0000000E+00;  5.5575941E-02;  9.0494336E+03;
  1.2312952E+00;  9.9999998E-03; -7.0081003E-02;9052;  8.3694011E-01;  0.0000000E+00; -2.9234150E-03;  9.9591772E+02;  1.1314909E-01; -3.3204224E+03;3;  4.4991207E+01;  0.0000000E+00; -7.3518062E+00;0; -5.3375788E-02;  3.1141982E+04;  0.0000000E+00;  9.4516501E-02;  4.0000000E+04;  0.0000000E+00;  3.9795680E+04; -1.1265555E-01;  0.0000000E+00;  5.9279762E-02;  8.6986006E+03;
  1.2312489E+00;  9.9999998E-03; -8.0112778E-02;9051;  8.3962572E-01;  0.0000000E+00; -3.1766633E-03;  9.9626129E+02;  1.1314109E-01; -3.0410154E+03;3;  4.2565266E+01;  0.0000000E+00; -8.2781334E+00;0; -5.5150330E-02;  3.1169135E+04;  0.0000000E+00;  1.4756186E-02;  4.0000000E+04;  0.0000000E+00;  3.9793141E+04; -1.1981364E-01;  0.0000000E+00;  6.4663313E-02;  8.3689189E+03;
  1.2311894E+00;  9.9999998E-03; -9.0153657E-02;9050;  8.4253794E-01;  0.0000000E+00; -3.4133669E-03;  9.9668884E+02;  1.1313335E-01; -2.6932988E+03;3;  4.0004253E+01;  0.0000000E+00; -9.3133898E+00;0; -5.6013905E-02;  3.1201072E+04;  0.0000000E+00; -9.8835692E-02;  4.0000000E+04;  0.0000000E+00;  3.9791281E+04; -1.2815936E-01;  0.0000000E+00;  7.2145455E-02;  8.0799028E+03;
  1.2311136E+00;  9.9999998E-03; -1.0020442E-01;9049;  8.4564579E-01;  0.0000000E+00; -3.6650870E-03;  9.9718500E+02;  1.1312549E-01; -2.2897773E+03;3;  3.7376213E+01;  0.0000000E+00; -1.0516632E+01;0; -5.5484258E-02;  3.1236857E+04;  0.0000000E+00; -2.3452248E-01;  4.0000000E+04;  0.0000000E+00;  3.9789879E+04; -1.3759674E-01;  0.0000000E+00;  8.2112484E-02;  7.8376914E+03;
  1.2425394E+00;  9.9999998E-03; -1.0011656E-02;9117;  8.2531929E-01;  0.0000000E+00; -1.1452612E-04;  9.9559436E+02;  1.1214998E-01; -3.5717368E+03;3;  5.2190807E+01;  0.0000000E+00; -1.5999237E+00;0; -1.1349207E-02;  3.1676799E+04;  0.0000000E+00;  1.0728662E-02;  4.0000000E+04;  0.0000000E+00;  3.9801027E+04; -2.5075978E-02;  0.0000000E+00;  1.3726771E-02;  9.9777158E+03;
  1.2425399E+00;  9.9999998E-03; -7.0826793E-09;9118;  8.2509607E-01;  0.0000000E+00; -8.9759553E-08;  9.9560205E+02;  1.1215053E-01; -3.5655024E+03;3;  5.2386932E+01;  0.0000000E+00;  7.1778719E-05;0; -1.0798554E-02;  3.1676684E+04;  0.0000000E+00;  4.7368325E-12;  4.0000000E+04;  0.0000000E+00;  3.9801297E+04; -2.4367217E-02;  0.0000000E+00;  1.3568663E-02;  1.0012614E+04;
  1.2425394E+00;  9.9999998E-03;  1.0011642E-02;9119;  8.2531929E-01;  0.0000000E+00;  1.1434646E-04;  9.9559442E+02;  1.1214997E-01; -3.5716885E+03;3;  5.2190933E+01;  0.0000000E+00;  1.6000144E+00;0; -1.1349096E-02;  3.1676791E+04;  0.0000000E+00;  1.0727908E-02;  4.0000000E+04;  0.0000000E+00;  3.9801023E+04; -2.5075888E-02;  0.0000000E+00;  1.3726792E-02;  9.9777236E+03;
  1.2425357E+00;  9.9999998E-03; -3.0033987E-02;9115;  8.2706058E-01;  0.0000000E+00; -3.0379076E-04;  9.9555811E+02;  1.1214536E-01; -3.6011694E+03;3;  5.0711487E+01;  0.0000000E+00; -4.6598201E+00;0; -1.5726857E-02;  3.1678992E+04;  0.0000000E+00;  8.2683317E-02;  4.0000000E+04;  0.0000000E+00;  3.9798031E+04; -3.0878339E-02;  0.0000000E+00;  1.5151483E-02;  9.7062168E+03;
  1.2425383E+00;  9.9999998E-03; -2.0022731E-02;9116;  8.2597816E-01;  0.0000000E+00; -2.1660405E-04;  9.9557727E+02;  1.1214840E-01; -3.5856064E+03;3;  5.1624592E+01;  0.0000000E+00; -3.1996329E+00;0; -1.2995907E-02;  3.1677322E+04;  0.0000000E+00;  4.0545788E-02;  4.0000000E+04;  0.0000000E+00;  3.9799852E+04; -2.7222050E-02;  0.0000000E+00;  1.4226143E-02;  9.8741680E+03;
  1.2425383E+00;  9.9999998E-03;  2.0022718E-02;9120;  8.2597816E-01;  0.0000000E+00;  2.1642394E-04;  9.9557727E+02;  1.1214840E-01; -3.5856064E+03;3;  5.1624889E+01;  0.0000000E+00;  3.1996865E+00;0; -1.2995695E-02;  3.1677320E+04;  0.0000000E+00;  4.0544093E-02;  4.0000000E+04;  0.0000000E+00;  3.9799852E+04; -2.7221905E-02;  0.0000000E+00;  1.4226210E-02;  9.8741709E+03;
  1.2425357E+00;  9.9999998E-03;  3.0033974E-02;9121;  8.2706064E-01;  0.0000000E+00;  3.0360723E-04;  9.9555798E+02;  1.1214533E-01; -3.6012661E+03;3;  5.0713104E+01;  0.0000000E+00;  4.6598077E+00;0; -1.5726648E-02;  3.1678990E+04;  0.0000000E+00;  8.2682028E-02;  4.0000000E+04;  0.0000000E+00;  3.9798031E+04; -3.0878196E-02;  0.0000000E+00;  1.5151548E-02;  9.7062217E+03;
  1.2425301E+00;  9.9999998E-03; -4.0046569E-02;9114;  8.2854563E-01;  0.0000000E+00; -3.6847172E-04;  9.9555725E+02;  1.1214179E-01; -3.6018523E+03;3;  4.9486370E+01;  0.0000000E+00; -5.9405422E+00;0; -1.9500224E-02;  3.1682396E+04;  0.0000000E+00;  1.2700972E-01;  4.0000000E+04;  0.0000000E+00;  3.9795824E+04; -3.6147457E-02;  0.0000000E+00;  1.6647233E-02;  9.4812383E+03;
  1.2425301E+00;  9.9999998E-03;  4.0046558E-02;9122;  8.2854569E-01;  0.0000000E+00;  3.6828898E-04;  9.9555725E+02;  1.1214179E-01; -3.6018523E+03;3;  4.9485714E+01;  0.0000000E+00;  5.9404936E+00;0; -1.9500105E-02;  3.1682393E+04;  0.0000000E+00;  1.2700802E-01;  4.0000000E+04;  0.0000000E+00;  3.9795824E+04; -3.6147438E-02;  0.0000000E+00;  1.6647333E-02;  9.4812334E+03;
  1.2425196E+00;  9.9999998E-03; -5.0062194E-02;9113;  8.3040279E-01;  0.0000000E+00; -4.0901499E-04;  9.9558661E+02;  1.1213735E-01; -3.5780410E+03;3;  4.7895691E+01;  0.0000000E+00; -7.0638881E+00;0; -2.4212243E-02;  3.1688520E+04;  0.0000000E+00;  1.6169728E-01;  4.0000000E+04;  0.0000000E+00;  3.9792988E+04; -4.3130416E-02;  0.0000000E+00;  1.8918173E-02;  9.2101494E+03;
  1.2425196E+00;  9.9999998E-03;  5.0062180E-02;9123;  8.3040285E-01;  0.0000000E+00;  4.0883303E-04;  9.9558655E+02;  1.1213736E-01; -3.5780894E+03;3;  4.7895164E+01;  0.0000000E+00;  7.0638671E+00;0; -2.4211956E-02;  3.1688514E+04;  0.0000000E+00;  1.6169657E-01;  4.0000000E+04;  0.0000000E+00;  3.9792988E+04; -4.3130189E-02;  0.0000000E+00;  1.8918233E-02;  9.2101348E+03;
  1.2425010E+00;  9.9999998E-03; -6.0082629E-02;9112;  8.3259881E-01;  0.0000000E+00; -4.2606058E-04;  9.9566852E+02;  1.1213204E-01; -3.5116653E+03;3;  4.5990803E+01;  0.0000000E+00; -8.0670872E+00;0; -2.9670116E-02;  3.1698504E+04;  0.0000000E+00;  1.7521694E-01;  4.0000000E+04;  0.0000000E+00;  3.9790055E+04; -5.1902603E-02;  0.0000000E+00;  2.2232488E-02;  8.9069385E+03;
  1.2425010E+00;  9.9999998E-03;  6.0082618E-02;9124;  8.3259887E-01;  0.0000000E+00;  4.2587446E-04;  9.9566846E+02;  1.1213206E-01; -3.5117136E+03;3;  4.5991589E+01;  0.0000000E+00;  8.0670490E+00;0; -2.9669896E-02;  3.1698504E+04;  0.0000000E+00;  1.7521697E-01;  4.0000000E+04;  0.0000000E+00;  3.9790055E+04; -5.1902451E-02;  0.0000000E+00;  2.2232555E-02;  8.9069209E+03;
  1.2424712E+00;  9.9999998E-03; -7.0109777E-02;9111;  8.3509457E-01;  0.0000000E+00; -4.2437669E-04;  9.9581232E+02;  1.1212553E-01; -3.3951411E+03;3;  4.3762985E+01;  0.0000000E+00; -9.0124979E+00;0; -3.5565611E-02;  3.1712988E+04;  0.0000000E+00;  1.5824023E-01;  4.0000000E+04;  0.0000000E+00;  3.9787090E+04; -6.2477246E-02;  0.0000000E+00;  2.6911635E-02;  8.5875381E+03;
  1.2424271E+00;  9.9999998E-03; -8.0145441E-02;9110;  8.3784848E-01;  0.0000000E+00; -4.0714821E-04;  9.9604321E+02;  1.1211996E-01; -3.2079785E+03;3;  4.1253735E+01;  0.0000000E+00; -9.9173241E+00;0; -4.1467018E-02;  3.1732211E+04;  0.0000000E+00;  1.0524103E-01;  4.0000000E+04;  0.0000000E+00;  3.9784398E+04; -7.4783377E-02;  0.0000000E+00;  3.3316359E-02;  8.2681611E+03;
  1.2423697E+00;  9.9999998E-03; -9.0188801E-02;9109;  8.4080672E-01;  0.0000000E+00; -3.8066655E-04;  9.9635669E+02;  1.1211380E-01; -2.9538931E+03;3;  3.8564613E+01;  0.0000000E+00; -1.0827469E+01;0; -4.6827182E-02;  3.1756746E+04;  0.0000000E+00;  1.5883535E-02;  4.0000000E+04;  0.0000000E+00;  3.9781980E+04; -8.8642180E-02;  0.0000000E+00;  4.1814998E-02;  7.9625508E+03;
  1.2422909E+00;  9.9999998E-03; -1.0023785E-01;9108;  8.4393185E-01;  0.0000000E+00; -3.6371950E-04;  9.9674902E+02;  1.1210796E-01; -2.6358318E+03;3;  3.5912472E+01;  0.0000000E+00; -1.1804178E+01;0; -5.1045358E-02;  3.1785854E+04;  0.0000000E+00; -1.0403603E-01;  4.0000000E+04;  0.0000000E+00;  3.9780047E+04; -1.0382736E-01;  0.0000000E+00;  5.2782007E-02;  7.6752661E+03;
  1.2535645E+00;  9.9999998E-03; -1.0017821E-02;9175;  8.2352298E-01;  0.0000000E+00;  2.8464320E-04;  9.9587012E+02;  1.1122970E-01; -3.3356736E+03;3;  5.0453655E+01;  0.0000000E+00; -1.5512036E+00;0;  4.4794649E-02;  3.2231570E+04;  0.0000000E+00;  8.3516873E-03;  4.0000000E+04;  0.0000000E+00;  3.9787375E+04;  6.4902283E-02;  0.0000000E+00; -2.0107633E-02;  9.4160117E+03;
  1.2535633E+00;  9.9999998E-03; -7.4525417E-09;9176;  8.2329732E-01;  0.0000000E+00; -9.1263324E-08;  9.9588971E+02;  1.1123013E-01; -3.3198364E+03;3;  5.0564289E+01;  0.0000000E+00;  7.5978860E-05;0;  4.5746360E-02;  3.2232191E+04;  0.0000000E+00;  3.5527753E-12;  4.0000000E+04;  0.0000000E+00;  3.9787664E+04;  6.6117041E-02;  0.0000000E+00; -2.0370681E-02;  9.4390537E+03;
  1.2535645E+00;  9.9999998E-03;  1.0017807E-02;9177;  8.2352304E-01;  0.0000000E+00; -2.8483031E-04;  9.9587012E+02;  1.1122970E-01; -3.3356736E+03;3;  5.0453781E+01;  0.0000000E+00;  1.5512929E+00;0;  4.4794694E-02;  3.2231574E+04;  0.0000000E+00;  8.3510624E-03;  4.0000000E+04;  0.0000000E+00;  3.9787375E+04;  6.4902335E-02;  0.0000000E+00; -2.0107640E-02;  9.4160195E+03;
  1.2535672E+00;  9.9999998E-03; -2.0035399E-02;9174;  8.2419157E-01;  0.0000000E+00;  5.7249662E-04;  9.9581921E+02;  1.1122796E-01; -3.3767834E+03;3;  4.9988564E+01;  0.0000000E+00; -3.1012249E+00;0;  4.1937463E-02;  3.2229820E+04;  0.0000000E+00;  3.1966776E-02;  4.0000000E+04;  0.0000000E+00;  3.9786387E+04;  6.1231699E-02;  0.0000000E+00; -1.9294238E-02;  9.3470332E+03;
  1.2535672E+00;  9.9999998E-03;  2.0035384E-02;9178;  8.2419157E-01;  0.0000000E+00; -5.7268509E-04;  9.9581921E+02;  1.1122826E-01; -3.3767834E+03;3;  4.9988876E+01;  0.0000000E+00;  3.1012580E+00;0;  4.1937552E-02;  3.2229820E+04;  0.0000000E+00;  3.1965695E-02;  4.0000000E+04;  0.0000000E+00;  3.9786383E+04;  6.1231770E-02;  0.0000000E+00; -1.9294215E-02;  9.3470264E+03;
  1.2535712E+00;  9.9999998E-03; -3.0053629E-02;9173;  8.2529628E-01;  0.0000000E+00;  8.5765199E-04;  9.9575250E+02;  1.1122531E-01; -3.4306501E+03;3;  4.9203579E+01;  0.0000000E+00; -4.6369343E+00;0;  3.7184760E-02;  3.2227691E+04;  0.0000000E+00;  6.6656545E-02;  4.0000000E+04;  0.0000000E+00;  3.9785027E+04;  5.5045255E-02;  0.0000000E+00; -1.7860493E-02;  9.2328369E+03;
  1.2535712E+00;  9.9999998E-03;  3.0053614E-02;9179;  8.2529634E-01;  0.0000000E+00; -8.5783307E-04;  9.9575250E+02;  1.1122531E-01; -3.4306501E+03;3;  4.9203953E+01;  0.0000000E+00;  4.6369910E+00;0;  3.7184995E-02;  3.2227693E+04;  0.0000000E+00;  6.6654883E-02;  4.0000000E+04;  0.0000000E+00;  3.9785027E+04;  5.5045459E-02;  0.0000000E+00; -1.7860465E-02;  9.2328350E+03;
  1.2535729E+00;  9.9999998E-03; -4.0072907E-02;9172;  8.2681602E-01;  0.0000000E+00;  1.1414683E-03;  9.9568585E+02;  1.1122254E-01; -3.4844702E+03;3;  4.8040047E+01;  0.0000000E+00; -6.1506281E+00;0;  3.0569622E-02;  3.2226258E+04;  0.0000000E+00;  1.0589446E-01;  4.0000000E+04;  0.0000000E+00;  3.9783227E+04;  4.6250951E-02;  0.0000000E+00; -1.5681328E-02;  9.0749873E+03;
  1.2535729E+00;  9.9999998E-03;  4.0072892E-02;9180;  8.2681602E-01;  0.0000000E+00; -1.1416557E-03;  9.9568597E+02;  1.1122261E-01; -3.4843738E+03;3;  4.8039433E+01;  0.0000000E+00;  6.1506395E+00;0;  3.0569846E-02;  3.2226262E+04;  0.0000000E+00;  1.0589220E-01;  4.0000000E+04;  0.0000000E+00;  3.9783227E+04;  4.6251148E-02;  0.0000000E+00; -1.5681302E-02;  9.0749619E+03;
  1.2535715E+00;  9.9999998E-03; -5.0094690E-02;9171;  8.2872254E-01;  0.0000000E+00;  1.4234241E-03;  9.9563025E+02;  1.1121821E-01; -3.5293887E+03;3;  4.6480648E+01;  0.0000000E+00; -7.5939360E+00;0;  2.2210609E-02;  3.2226564E+04;  0.0000000E+00;  1.4159165E-01;  4.0000000E+04;  0.0000000E+00;  3.9780809E+04;  3.4796581E-02;  0.0000000E+00; -1.2585972E-02;  8.8757227E+03;
  1.2535715E+00;  9.9999998E-03;  5.0094675E-02;9181;  8.2872254E-01;  0.0000000E+00; -1.4236138E-03;  9.9563025E+02;  1.1121821E-01; -3.5293887E+03;3;  4.6481285E+01;  0.0000000E+00;  7.5938425E+00;0;  2.2210905E-02;  3.2226564E+04;  0.0000000E+00;  1.4158981E-01;  4.0000000E+04;  0.0000000E+00;  3.9780809E+04;  3.4796819E-02;  0.0000000E+00; -1.2585914E-02;  8.8757031E+03;
  1.2535623E+00;  9.9999998E-03; -6.0120180E-02;9170;  8.3098060E-01;  0.0000000E+00;  1.7013755E-03;  9.9561707E+02;  1.1121334E-01; -3.5400400E+03;3;  4.4544697E+01;  0.0000000E+00; -8.9745550E+00;0;  1.2325577E-02;  3.2229949E+04;  0.0000000E+00;  1.6502813E-01;  4.0000000E+04;  0.0000000E+00;  3.9778215E+04;  2.0670043E-02;  0.0000000E+00; -8.3444659E-03;  8.6383945E+03;
  1.2535623E+00;  9.9999998E-03;  6.0120165E-02;9182;  8.3098066E-01;  0.0000000E+00; -1.7015596E-03;  9.9561700E+02;  1.1121358E-01; -3.5400881E+03;3;  4.4544323E+01;  0.0000000E+00;  8.9745712E+00;0;  1.2325900E-02;  3.2229953E+04;  0.0000000E+00;  1.6502807E-01;  4.0000000E+04;  0.0000000E+00;  3.9778215E+04;  2.0670284E-02;  0.0000000E+00; -8.3443839E-03;  8.6383975E+03;
  1.2535419E+00;  9.9999998E-03; -7.0150286E-02;9169;  8.3354384E-01;  0.0000000E+00;  1.9774931E-03;  9.9566797E+02;  1.1120938E-01; -3.4989526E+03;3;  4.2280453E+01;  0.0000000E+00; -1.0205905E+01;0;  1.2879167E-03;  3.2237223E+04;  0.0000000E+00;  1.6769710E-01;  4.0000000E+04;  0.0000000E+00;  3.9775559E+04;  3.9719697E-03;  0.0000000E+00; -2.6840530E-03;  8.3676670E+03;
  1.2535061E+00;  9.9999998E-03; -8.0186918E-02;9168;  8.3635265E-01;  0.0000000E+00;  2.2493885E-03;  9.9578809E+02;  1.1120446E-01; -3.4019902E+03;3;  3.9796352E+01;  0.0000000E+00; -1.1308896E+01;0; -1.0374376E-02;  3.2249363E+04;  0.0000000E+00;  1.4230098E-01;  4.0000000E+04;  0.0000000E+00;  3.9772605E+04; -1.5084608E-02;  0.0000000E+00;  4.7102328E-03;  8.0692964E+03;
  1.2534511E+00;  9.9999998E-03; -9.0231255E-02;9167;  8.3936346E-01;  0.0000000E+00;  2.5133693E-03;  9.9598859E+02;  1.1119996E-01; -3.2401018E+03;3;  3.7014828E+01;  0.0000000E+00; -1.2367105E+01;0; -2.1978933E-02;  3.2266646E+04;  0.0000000E+00;  8.4155932E-02;  4.0000000E+04;  0.0000000E+00;  3.9769836E+04; -3.6156278E-02;  0.0000000E+00;  1.4177345E-02;  7.7492393E+03;
  1.2533766E+00;  9.9999998E-03; -1.0028207E-01;9166;  8.4251076E-01;  0.0000000E+00;  2.7624259E-03;  9.9628088E+02;  1.1119603E-01; -3.0040847E+03;3;  3.4257675E+01;  0.0000000E+00; -1.3388624E+01;0; -3.2727286E-02;  3.2289139E+04;  0.0000000E+00; -7.1483436E-03;  4.0000000E+04;  0.0000000E+00;  3.9767059E+04; -5.8776468E-02;  0.0000000E+00;  2.6049184E-02;  7.4088115E+03;
  1.2645074E+00;  9.9999998E-03; -1.0024897E-02;9232;  8.2202441E-01;  0.0000000E+00;  6.4753386E-04;  9.9598315E+02;  1.1040638E-01; -3.2303323E+03;3;  4.9627602E+01;  0.0000000E+00; -1.8028587E+00;0;  1.2690617E-01;  3.2734924E+04;  0.0000000E+00;  4.6703811E-03;  4.0000000E+04;  0.0000000E+00;  3.9769711E+04;  1.7816180E-01;  0.0000000E+00; -5.1255628E-02;  8.7071729E+03;
  1.2645049E+00;  9.9999998E-03; -7.7793603E-09;9233;  8.2179475E-01;  0.0000000E+00; -9.4585339E-08;  9.9600873E+02;  1.1040687E-01; -3.2097717E+03;3;  4.9760986E+01;  0.0000000E+00;  6.5618893E-05;0;  1.2838967E-01;  3.2736018E+04;  0.0000000E+00;  3.8306329E-12;  4.0000000E+04;  0.0000000E+00;  3.9769926E+04;  1.8002239E-01;  0.0000000E+00; -5.1632721E-02;  8.7167217E+03;
  1.2645074E+00;  9.9999998E-03;  1.0024882E-02;9234;  8.2202441E-01;  0.0000000E+00; -6.4772455E-04;  9.9598315E+02;  1.1040638E-01; -3.2303323E+03;3;  4.9627731E+01;  0.0000000E+00;  1.8029206E+00;0;  1.2690614E-01;  3.2734928E+04;  0.0000000E+00;  4.6700276E-03;  4.0000000E+04;  0.0000000E+00;  3.9769711E+04;  1.7816179E-01;  0.0000000E+00; -5.1255643E-02;  8.7071670E+03;
  1.2645258E+00;  9.9999998E-03; -3.0075546E-02;9230;  8.2384551E-01;  0.0000000E+00;  1.9252956E-03;  9.9581329E+02;  1.1040302E-01; -3.3669182E+03;3;  4.8571140E+01;  0.0000000E+00; -5.4287453E+00;0;  1.1503746E-01;  3.2726846E+04;  0.0000000E+00;  3.9218016E-02;  4.0000000E+04;  0.0000000E+00;  3.9768273E+04;  1.6316736E-01;  0.0000000E+00; -4.8129905E-02;  8.6235303E+03;
  1.2645142E+00;  9.9999998E-03; -2.0049987E-02;9231;  8.2271373E-01;  0.0000000E+00;  1.2887191E-03;  9.9591455E+02;  1.1040513E-01; -3.2854951E+03;3;  4.9279140E+01;  0.0000000E+00; -3.6382651E+00;0;  1.2245005E-01;  3.2731576E+04;  0.0000000E+00;  1.8217312E-02;  4.0000000E+04;  0.0000000E+00;  3.9769152E+04;  1.7255545E-01;  0.0000000E+00; -5.0105389E-02;  8.6773447E+03;
  1.2645142E+00;  9.9999998E-03;  2.0049971E-02;9235;  8.2271367E-01;  0.0000000E+00; -1.2889138E-03;  9.9591449E+02;  1.1040515E-01; -3.2855430E+03;3;  4.9278271E+01;  0.0000000E+00;  3.6383095E+00;0;  1.2245017E-01;  3.2731576E+04;  0.0000000E+00;  1.8216189E-02;  4.0000000E+04;  0.0000000E+00;  3.9769152E+04;  1.7255555E-01;  0.0000000E+00; -5.0105385E-02;  8.6773340E+03;
  1.2645258E+00;  9.9999998E-03;  3.0075530E-02;9236;  8.2384551E-01;  0.0000000E+00; -1.9254826E-03;  9.9581317E+02;  1.1040281E-01; -3.3670142E+03;3;  4.8571445E+01;  0.0000000E+00;  5.4287829E+00;0;  1.1503754E-01;  3.2726846E+04;  0.0000000E+00;  3.9217070E-02;  4.0000000E+04;  0.0000000E+00;  3.9768277E+04;  1.6316743E-01;  0.0000000E+00; -4.8129894E-02;  8.6235205E+03;
  1.2645383E+00;  9.9999998E-03; -4.0101837E-02;9229;  8.2540172E-01;  0.0000000E+00;  2.5483647E-03;  9.9570062E+02;  1.1040007E-01; -3.4575427E+03;3;  4.7478909E+01;  0.0000000E+00; -7.1478658E+00;0;  1.0469652E-01;  3.2721877E+04;  0.0000000E+00;  6.5228842E-02;  4.0000000E+04;  0.0000000E+00;  3.9766941E+04;  1.4992681E-01;  0.0000000E+00; -4.5230292E-02;  8.5396104E+03;
  1.2645383E+00;  9.9999998E-03;  4.0101822E-02;9237;  8.2540172E-01;  0.0000000E+00; -2.5485603E-03;  9.9570056E+02;  1.1040009E-01; -3.4575906E+03;3;  4.7478371E+01;  0.0000000E+00;  7.1478615E+00;0;  1.0469709E-01;  3.2721877E+04;  0.0000000E+00;  6.5226175E-02;  4.0000000E+04;  0.0000000E+00;  3.9766945E+04;  1.4992733E-01;  0.0000000E+00; -4.5230240E-02;  8.5395977E+03;
  1.2645479E+00;  9.9999998E-03; -5.0129786E-02;9228;  8.2735115E-01;  0.0000000E+00;  3.1515774E-03;  9.9559955E+02;  1.1039709E-01; -3.5387756E+03;3;  4.5886635E+01;  0.0000000E+00; -8.7937317E+00;0;  9.1550097E-02;  3.2717832E+04;  0.0000000E+00;  9.2672423E-02;  4.0000000E+04;  0.0000000E+00;  3.9765234E+04;  1.3281830E-01;  0.0000000E+00; -4.1268196E-02;  8.4175479E+03;
  1.2645479E+00;  9.9999998E-03;  5.0129768E-02;9238;  8.2735121E-01;  0.0000000E+00; -3.1517630E-03;  9.9559955E+02;  1.1039709E-01; -3.5387756E+03;3;  4.5886234E+01;  0.0000000E+00;  8.7938051E+00;0;  9.1550499E-02;  3.2717828E+04;  0.0000000E+00;  9.2672221E-02;  4.0000000E+04;  0.0000000E+00;  3.9765234E+04;  1.3281859E-01;  0.0000000E+00; -4.1268092E-02;  8.4175391E+03;
  1.2645506E+00;  9.9999998E-03; -6.0160220E-02;9227;  8.2965738E-01;  0.0000000E+00;  3.7319055E-03;  9.9552240E+02;  1.1039352E-01; -3.6008452E+03;3;  4.3843876E+01;  0.0000000E+00; -1.0326040E+01;0;  7.5869918E-02;  3.2716293E+04;  0.0000000E+00;  1.1663392E-01;  4.0000000E+04;  0.0000000E+00;  3.9763137E+04;  1.1193553E-01;  0.0000000E+00; -3.6065619E-02;  8.2486523E+03;
  1.2645506E+00;  9.9999998E-03;  6.0160205E-02;9239;  8.2965744E-01;  0.0000000E+00; -3.7320964E-03;  9.9552258E+02;  1.1039378E-01; -3.6007014E+03;3;  4.3843544E+01;  0.0000000E+00;  1.0325888E+01;0;  7.5870141E-02;  3.2716297E+04;  0.0000000E+00;  1.1663404E-01;  4.0000000E+04;  0.0000000E+00;  3.9763137E+04;  1.1193579E-01;  0.0000000E+00; -3.6065642E-02;  8.2486357E+03;
  1.2645426E+00;  9.9999998E-03; -7.0193596E-02;9226;  8.3227527E-01;  0.0000000E+00;  4.2888969E-03;  9.9549652E+02;  1.1038987E-01; -3.6216602E+03;3;  4.1322849E+01;  0.0000000E+00; -1.1663002E+01;0;  5.8123846E-02;  3.2718387E+04;  0.0000000E+00;  1.3074587E-01;  4.0000000E+04;  0.0000000E+00;  3.9760543E+04;  8.7530218E-02;  0.0000000E+00; -2.9406372E-02;  8.0254810E+03;
  1.2645210E+00;  9.9999998E-03; -8.0230430E-02;9225;  8.3514869E-01;  0.0000000E+00;  4.8227222E-03;  9.9553912E+02;  1.1038616E-01; -3.5874209E+03;3;  3.8575626E+01;  0.0000000E+00; -1.2869436E+01;0;  3.8992666E-02;  3.2725045E+04;  0.0000000E+00;  1.2759070E-01;  4.0000000E+04;  0.0000000E+00;  3.9757535E+04;  6.0029913E-02;  0.0000000E+00; -2.1037245E-02;  7.7433184E+03;
  1.2644236E+00;  9.9999998E-03; -1.0031506E-01;9223;  8.4135795E-01;  0.0000000E+00;  5.8075301E-03;  9.9586584E+02;  1.1038097E-01; -3.3248333E+03;3;  3.2672749E+01;  0.0000000E+00; -1.4897735E+01;0;  2.1890155E-04;  3.2754695E+04;  0.0000000E+00;  3.6337346E-02;  4.0000000E+04;  0.0000000E+00;  3.9750277E+04; -1.7806739E-03;  0.0000000E+00;  1.9995754E-03;  6.9954468E+03;
  1.2644814E+00;  9.9999998E-03; -9.0271004E-02;9224;  8.3819693E-01;  0.0000000E+00;  5.3307693E-03;  9.9565906E+02;  1.1038309E-01; -3.4910369E+03;3;  3.5777439E+01;  0.0000000E+00; -1.3910262E+01;0;  1.9346148E-02;  3.2737100E+04;  0.0000000E+00;  9.9579535E-02;  4.0000000E+04;  0.0000000E+00;  3.9754172E+04;  3.0014398E-02;  0.0000000E+00; -1.0668251E-02;  7.4003730E+03;
  1.2753872E+00;  9.9999998E-03; -1.0031709E-02;9289;  8.2080096E-01;  0.0000000E+00;  1.0166523E-03;  9.9596283E+02;  1.0967474E-01; -3.2304993E+03;3;  4.8908497E+01;  0.0000000E+00; -2.0272918E+00;0;  2.3433757E-01;  3.3188781E+04;  0.0000000E+00;  8.8484905E-04;  4.0000000E+04;  0.0000000E+00;  3.9748281E+04;  3.1375331E-01;  0.0000000E+00; -7.9415731E-02;  7.9114131E+03;
  1.2753832E+00;  9.9999998E-03; -8.0791045E-09;9290;  8.2056820E-01;  0.0000000E+00; -9.6191911E-08;  9.9598688E+02;  1.0967494E-01; -3.2112839E+03;3;  4.9017952E+01;  0.0000000E+00;  3.7854483E-05;0;  2.3647216E-01;  3.3190180E+04;  0.0000000E+00;  2.3622911E-12;  4.0000000E+04;  0.0000000E+00;  3.9748309E+04;  3.1638753E-01;  0.0000000E+00; -7.9915375E-02;  7.9083638E+03;
  1.2753872E+00;  9.9999998E-03;  1.0031693E-02;9291;  8.2080096E-01;  0.0000000E+00; -1.0168436E-03;  9.9596283E+02;  1.0967474E-01; -3.2304993E+03;3;  4.8908562E+01;  0.0000000E+00;  2.0273323E+00;0;  2.3433781E-01;  3.3188785E+04;  0.0000000E+00;  8.8463648E-04;  4.0000000E+04;  0.0000000E+00;  3.9748281E+04;  3.1375355E-01;  0.0000000E+00; -7.9415739E-02;  7.9114199E+03;
  1.2754171E+00;  9.9999998E-03; -3.0096764E-02;9287;  8.2263815E-01;  0.0000000E+00;  3.0257094E-03;  9.9578558E+02;  1.0967227E-01; -3.3722949E+03;3;  4.7766415E+01;  0.0000000E+00; -6.1144905E+00;0;  2.1725672E-01;  3.3178793E+04;  0.0000000E+00;  9.6862884E-03;  4.0000000E+04;  0.0000000E+00;  3.9747711E+04;  2.9260409E-01;  0.0000000E+00; -7.5347356E-02;  7.9187935E+03;
  1.2753990E+00;  9.9999998E-03; -2.0063957E-02;9288;  8.2149488E-01;  0.0000000E+00;  2.0271044E-03;  9.9589124E+02;  1.0967377E-01; -3.2878093E+03;3;  4.8548077E+01;  0.0000000E+00; -4.1338053E+00;0;  2.2793579E-01;  3.3184715E+04;  0.0000000E+00;  3.8392332E-03;  4.0000000E+04;  0.0000000E+00;  3.9748125E+04;  3.0584148E-01;  0.0000000E+00; -7.7905685E-02;  7.9178140E+03;
  1.2753990E+00;  9.9999998E-03;  2.0063940E-02;9292;  8.2149488E-01;  0.0000000E+00; -2.0273009E-03;  9.9589117E+02;  1.0967378E-01; -3.2878572E+03;3;  4.8547302E+01;  0.0000000E+00;  4.1338496E+00;0;  2.2793581E-01;  3.3184715E+04;  0.0000000E+00;  3.8389901E-03;  4.0000000E+04;  0.0000000E+00;  3.9748121E+04;  3.0584142E-01;  0.0000000E+00; -7.7905610E-02;  7.9178198E+03;
  1.2754171E+00;  9.9999998E-03;  3.0096747E-02;9293;  8.2263827E-01;  0.0000000E+00; -3.0259045E-03;  9.9578564E+02;  1.0967220E-01; -3.3722473E+03;3;  4.7765789E+01;  0.0000000E+00;  6.1145339E+00;0;  2.1725744E-01;  3.3178797E+04;  0.0000000E+00;  9.6856309E-03;  4.0000000E+04;  0.0000000E+00;  3.9747711E+04;  2.9260480E-01;  0.0000000E+00; -7.5347356E-02;  7.9187910E+03;
  1.2754377E+00;  9.9999998E-03; -4.0129788E-02;9286;  8.2421619E-01;  0.0000000E+00;  3.9920658E-03;  9.9565991E+02;  1.0966980E-01; -3.4728477E+03;3;  4.6638599E+01;  0.0000000E+00; -8.0650892E+00;0;  2.0233135E-01;  3.3172129E+04;  0.0000000E+00;  1.9443333E-02;  4.0000000E+04;  0.0000000E+00;  3.9747070E+04;  2.7400762E-01;  0.0000000E+00; -7.1676269E-02;  7.8999580E+03;
  1.2754378E+00;  9.9999998E-03;  4.0129773E-02;9294;  8.2421631E-01;  0.0000000E+00; -3.9922595E-03;  9.9565961E+02;  1.0966978E-01; -3.4730862E+03;3;  4.6638081E+01;  0.0000000E+00;  8.0650721E+00;0;  2.0233172E-01;  3.3172129E+04;  0.0000000E+00;  1.9442312E-02;  4.0000000E+04;  0.0000000E+00;  3.9747070E+04;  2.7400792E-01;  0.0000000E+00; -7.1676202E-02;  7.8999355E+03;
  1.2754573E+00;  9.9999998E-03; -5.0163317E-02;9285;  8.2620078E-01;  0.0000000E+00;  4.9170107E-03;  9.9553339E+02;  1.0966704E-01; -3.5740200E+03;3;  4.5105682E+01;  0.0000000E+00; -9.8683929E+00;0;  1.8330804E-01;  3.3166207E+04;  0.0000000E+00;  3.3590324E-02;  4.0000000E+04;  0.0000000E+00;  3.9745996E+04;  2.5011033E-01;  0.0000000E+00; -6.6802301E-02;  7.8426641E+03;
  1.2754573E+00;  9.9999998E-03;  5.0163299E-02;9295;  8.2620090E-01;  0.0000000E+00; -4.9172030E-03;  9.9553339E+02;  1.0966704E-01; -3.5740200E+03;3;  4.5105301E+01;  0.0000000E+00;  9.8683910E+00;0;  1.8330841E-01;  3.3166207E+04;  0.0000000E+00;  3.3588462E-02;  4.0000000E+04;  0.0000000E+00;  3.9746000E+04;  2.5011072E-01;  0.0000000E+00; -6.6802308E-02;  7.8426665E+03;
  1.2754726E+00;  9.9999998E-03; -6.0197819E-02;9284;  8.2855564E-01;  0.0000000E+00;  5.7950784E-03;  9.9543433E+02;  1.0966451E-01; -3.6532588E+03;3;  4.3225758E+01;  0.0000000E+00; -1.1636344E+01;0;  1.6053496E-01;  3.3162293E+04;  0.0000000E+00;  5.1025797E-02;  4.0000000E+04;  0.0000000E+00;  3.9744199E+04;  2.2114392E-01;  0.0000000E+00; -6.0608953E-02;  7.7264697E+03;
  1.2754726E+00;  9.9999998E-03;  6.0197804E-02;9296;  8.2855570E-01;  0.0000000E+00; -5.7952814E-03;  9.9543439E+02;  1.0966451E-01; -3.6532112E+03;3;  4.3225506E+01;  0.0000000E+00;  1.1636333E+01;0;  1.6053523E-01;  3.3162293E+04;  0.0000000E+00;  5.1024050E-02;  4.0000000E+04;  0.0000000E+00;  3.9744203E+04;  2.2114421E-01;  0.0000000E+00; -6.0608987E-02;  7.7264546E+03;
  1.2754807E+00;  9.9999998E-03; -7.0232682E-02;9283;  8.3122993E-01;  0.0000000E+00;  6.6237873E-03;  9.9537512E+02;  1.0966165E-01; -3.7006516E+03;3;  4.0813480E+01;  0.0000000E+00; -1.3106902E+01;0;  1.3460599E-01;  3.3161922E+04;  0.0000000E+00;  6.8179794E-02;  4.0000000E+04;  0.0000000E+00;  3.9741738E+04;  1.8755244E-01;  0.0000000E+00; -5.2946448E-02;  7.5328511E+03;
  1.2754774E+00;  9.9999998E-03; -8.0267772E-02;9282;  8.3415353E-01;  0.0000000E+00;  7.3978640E-03;  9.9537524E+02;  1.0965905E-01; -3.7005623E+03;3;  3.7819176E+01;  0.0000000E+00; -1.4354802E+01;0;  1.0637654E-01;  3.3166059E+04;  0.0000000E+00;  7.7864356E-02;  4.0000000E+04;  0.0000000E+00;  3.9738383E+04;  1.5000202E-01;  0.0000000E+00; -4.3625481E-02;  7.2480957E+03;
  1.2754596E+00;  9.9999998E-03; -9.0302907E-02;9281;  8.3726281E-01;  0.0000000E+00;  8.1238663E-03;  9.9545496E+02;  1.0965669E-01; -3.6367805E+03;3;  3.4622562E+01;  0.0000000E+00; -1.5402949E+01;0;  7.6968297E-02;  3.3175551E+04;  0.0000000E+00;  6.5289117E-02;  4.0000000E+04;  0.0000000E+00;  3.9734172E+04;  1.0938632E-01;  0.0000000E+00; -3.2418028E-02;  6.8658857E+03;
  1.2754251E+00;  9.9999998E-03; -1.0033730E-01;9280;  8.4044403E-01;  0.0000000E+00;  8.8078994E-03;  9.9560114E+02;  1.0965439E-01; -3.5198958E+03;3;  3.1488447E+01;  0.0000000E+00; -1.6302763E+01;0;  4.7693372E-02;  3.3190531E+04;  0.0000000E+00;  1.4822214E-02;  4.0000000E+04;  0.0000000E+00;  3.9729344E+04;  6.6757835E-02;  0.0000000E+00; -1.9064462E-02;  6.3917344E+03;
  1.2862078E+00;  9.9999998E-03; -8.2954745E-09;9346;  8.1960905E-01;  0.0000000E+00; -9.7782348E-08;  9.9588123E+02;  1.0902619E-01; -3.2769534E+03;3;  4.7520660E+01;  0.0000000E+00;  7.4629253E-07;0;  3.6692402E-01;  3.3599582E+04;  0.0000000E+00;  1.9176118E-13;  4.0000000E+04;  0.0000000E+00;  3.9722836E+04;  4.7158581E-01;  0.0000000E+00; -1.0466179E-01;  7.0478066E+03;
  1.2862322E+00;  9.9999998E-03; -2.0076359E-02;9344;  8.2053757E-01;  0.0000000E+00;  2.7910748E-03;  9.9579736E+02;  1.0902529E-01; -3.3436296E+03;3;  4.6983868E+01;  0.0000000E+00; -4.4455714E+00;0;  3.5544127E-01;  3.3594379E+04;  0.0000000E+00; -7.9432074E-03;  4.0000000E+04;  0.0000000E+00;  3.9723137E+04;  4.5758766E-01;  0.0000000E+00; -1.0214639E-01;  7.0937334E+03;
  1.2862144E+00;  9.9999998E-03; -1.0038191E-02;9345;  8.1984085E-01;  0.0000000E+00;  1.4047946E-03;  9.9585986E+02;  1.0902603E-01; -3.2939185E+03;3;  4.7385609E+01;  0.0000000E+00; -2.2375398E+00;0;  3.6406052E-01;  3.3598207E+04;  0.0000000E+00; -2.1805768E-03;  4.0000000E+04;  0.0000000E+00;  3.9722996E+04;  4.6809506E-01;  0.0000000E+00; -1.0403456E-01;  7.0604517E+03;
  1.2862144E+00;  9.9999998E-03;  1.0038174E-02;9347;  8.1984079E-01;  0.0000000E+00; -1.4049968E-03;  9.9585992E+02;  1.0902601E-01; -3.2938708E+03;3;  4.7385727E+01;  0.0000000E+00;  2.2375591E+00;0;  3.6406058E-01;  3.3598207E+04;  0.0000000E+00; -2.1807307E-03;  4.0000000E+04;  0.0000000E+00;  3.9722992E+04;  4.6809515E-01;  0.0000000E+00; -1.0403458E-01;  7.0604443E+03;
  1.2862322E+00;  9.9999998E-03;  2.0076342E-02;9348;  8.2053763E-01;  0.0000000E+00; -2.7912701E-03;  9.9579736E+02;  1.0902529E-01; -3.3436296E+03;3;  4.6984150E+01;  0.0000000E+00;  4.4456506E+00;0;  3.5544088E-01;  3.3594379E+04;  0.0000000E+00; -7.9435781E-03;  4.0000000E+04;  0.0000000E+00;  3.9723137E+04;  4.5758739E-01;  0.0000000E+00; -1.0214651E-01;  7.0937295E+03;
  1.2862877E+00;  9.9999998E-03; -4.0152647E-02;9342;  8.2327253E-01;  0.0000000E+00;  5.4657008E-03;  9.9559985E+02;  1.0902243E-01; -3.5006257E+03;3;  4.5237057E+01;  0.0000000E+00; -8.7078638E+00;0;  3.2084540E-01;  3.3582793E+04;  0.0000000E+00; -2.0177908E-02;  4.0000000E+04;  0.0000000E+00;  3.9723113E+04;  4.1536215E-01;  0.0000000E+00; -9.4516747E-02;  7.1586182E+03;
  1.2862580E+00;  9.9999998E-03; -3.0114703E-02;9343;  8.2168931E-01;  0.0000000E+00;  4.1475217E-03;  9.9570697E+02;  1.0902396E-01; -3.4154702E+03;3;  4.6340744E+01;  0.0000000E+00; -6.7023935E+00;0;  3.4102687E-01;  3.3588945E+04;  0.0000000E+00; -1.5039920E-02;  4.0000000E+04;  0.0000000E+00;  3.9723148E+04;  4.4000876E-01;  0.0000000E+00; -9.8981895E-02;  7.1338120E+03;
  1.2862580E+00;  9.9999998E-03;  3.0114686E-02;9349;  8.2168931E-01;  0.0000000E+00; -4.1477149E-03;  9.9570685E+02;  1.0902400E-01; -3.4155649E+03;3;  4.6341011E+01;  0.0000000E+00;  6.7025008E+00;0;  3.4102738E-01;  3.3588949E+04;  0.0000000E+00; -1.5040589E-02;  4.0000000E+04;  0.0000000E+00;  3.9723148E+04;  4.4000933E-01;  0.0000000E+00; -9.8981954E-02;  7.1338120E+03;
  1.2862877E+00;  9.9999998E-03;  4.0152632E-02;9350;  8.2327253E-01;  0.0000000E+00; -5.4658945E-03;  9.9559985E+02;  1.0902243E-01; -3.5006257E+03;3;  4.5237442E+01;  0.0000000E+00;  8.7078791E+00;0;  3.2084599E-01;  3.3582793E+04;  0.0000000E+00; -2.0179551E-02;  4.0000000E+04;  0.0000000E+00;  3.9723113E+04;  4.1536266E-01;  0.0000000E+00; -9.4516672E-02;  7.1586128E+03;
  1.2863197E+00;  9.9999998E-03; -5.0189793E-02;9341;  8.2527268E-01;  0.0000000E+00;  6.7174677E-03;  9.9549243E+02;  1.0902087E-01; -3.5860105E+03;3;  4.3828854E+01;  0.0000000E+00; -1.0768587E+01;0;  2.9509681E-01;  3.3577336E+04;  0.0000000E+00; -2.0005893E-02;  4.0000000E+04;  0.0000000E+00;  3.9722438E+04;  3.8381776E-01;  0.0000000E+00; -8.8720955E-02;  7.1399502E+03;
  1.2863197E+00;  9.9999998E-03;  5.0189778E-02;9351;  8.2527268E-01;  0.0000000E+00; -6.7176679E-03;  9.9549243E+02;  1.0902087E-01; -3.5860105E+03;3;  4.3828594E+01;  0.0000000E+00;  1.0768526E+01;0;  2.9509708E-01;  3.3577344E+04;  0.0000000E+00; -2.0005392E-02;  4.0000000E+04;  0.0000000E+00;  3.9722438E+04;  3.8381791E-01;  0.0000000E+00; -8.8720821E-02;  7.1399512E+03;
  1.2863510E+00;  9.9999998E-03; -6.0225792E-02;9340;  8.2765204E-01;  0.0000000E+00;  7.8936042E-03;  9.9540460E+02;  1.0901852E-01; -3.6558411E+03;3;  4.2051437E+01;  0.0000000E+00; -1.2706066E+01;0;  2.6419637E-01;  3.3573895E+04;  0.0000000E+00; -1.2725652E-02;  4.0000000E+04;  0.0000000E+00;  3.9720910E+04;  3.4573928E-01;  0.0000000E+00; -8.1542917E-02;  7.0477720E+03;
  1.2863510E+00;  9.9999998E-03;  6.0225774E-02;9352;  8.2765204E-01;  0.0000000E+00; -7.8938110E-03;  9.9540460E+02;  1.0901852E-01; -3.6558411E+03;3;  4.2051205E+01;  0.0000000E+00;  1.2706068E+01;0;  2.6419699E-01;  3.3573895E+04;  0.0000000E+00; -1.2728464E-02;  4.0000000E+04;  0.0000000E+00;  3.9720902E+04;  3.4573984E-01;  0.0000000E+00; -8.1542864E-02;  7.0477803E+03;
  1.2863768E+00;  9.9999998E-03; -7.0259914E-02;9339;  8.3036494E-01;  0.0000000E+00;  8.9835664E-03;  9.9535431E+02;  1.0901587E-01; -3.6958074E+03;3;  3.9847263E+01;  0.0000000E+00; -1.4288147E+01;0;  2.2885886E-01;  3.3574203E+04;  0.0000000E+00; -2.0034800E-03;  4.0000000E+04;  0.0000000E+00;  3.9718270E+04;  3.0176273E-01;  0.0000000E+00; -7.2903879E-02;  6.8553032E+03;
  1.2863933E+00;  9.9999998E-03; -8.0291629E-02;9338;  8.3334303E-01;  0.0000000E+00;  9.9808993E-03;  9.9535754E+02;  1.0901399E-01; -3.6931648E+03;3;  3.7209778E+01;  0.0000000E+00; -1.5647722E+01;0;  1.9015381E-01;  3.3578805E+04;  0.0000000E+00; -4.5315368E-04;  4.0000000E+04;  0.0000000E+00;  3.9714590E+04;  2.5284645E-01;  0.0000000E+00; -6.2692635E-02;  6.5455581E+03;
  1.2863964E+00;  9.9999998E-03; -9.0319991E-02;9337;  8.3649731E-01;  0.0000000E+00;  1.0896979E-02;  9.9542242E+02;  1.0901213E-01; -3.6415684E+03;3;  3.3989864E+01;  0.0000000E+00; -1.6691883E+01;0;  1.4949352E-01;  3.3588426E+04;  0.0000000E+00; -2.0847110E-02;  4.0000000E+04;  0.0000000E+00;  3.9709438E+04;  2.0025253E-01;  0.0000000E+00; -5.0759017E-02;  6.1170684E+03;
  1.2863833E+00;  9.9999998E-03; -1.0034523E-01;9336;  8.3971822E-01;  0.0000000E+00;  1.1744489E-02;  9.9553912E+02;  1.0901002E-01; -3.5487529E+03;3;  3.0563591E+01;  0.0000000E+00; -1.7366737E+01;0;  1.0852681E-01;  3.3602602E+04;  0.0000000E+00; -5.9587445E-02;  4.0000000E+04;  0.0000000E+00;  3.9703430E+04;  1.4543189E-01;  0.0000000E+00; -3.6905084E-02;  5.5903413E+03;
  1.2970083E+00;  9.9999998E-03; -1.0043863E-02;9400;  8.1932688E-01;  0.0000000E+00;  1.7864779E-03;  9.9577026E+02;  1.0845590E-01; -3.3430222E+03;3;  4.3878933E+01;  0.0000000E+00; -2.2514305E+00;0;  5.1045007E-01;  3.3970750E+04;  0.0000000E+00; -4.3094750E-03;  4.0000000E+04;  0.0000000E+00;  3.9693551E+04;  6.3482165E-01;  0.0000000E+00; -1.2437157E-01;  6.1562183E+03;
  1.2969983E+00;  9.9999998E-03; -8.3167935E-09;9401;  8.1909293E-01;  0.0000000E+00; -1.0126890E-07;  9.9578436E+02;  1.0845590E-01; -3.3319265E+03;3;  4.4055141E+01;  0.0000000E+00;  6.4959445E-06;0;  5.1409030E-01;  3.3971637E+04;  0.0000000E+00; -2.7672955E-12;  4.0000000E+04;  0.0000000E+00;  3.9693492E+04;  6.3921821E-01;  0.0000000E+00; -1.2512791E-01;  6.1387168E+03;
  1.2970083E+00;  9.9999998E-03;  1.0043846E-02;9402;  8.1932682E-01;  0.0000000E+00; -1.7866830E-03;  9.9577026E+02;  1.0845590E-01; -3.3430222E+03;3;  4.3879639E+01;  0.0000000E+00;  2.2513764E+00;0;  5.1045001E-01;  3.3970746E+04;  0.0000000E+00; -4.3092472E-03;  4.0000000E+04;  0.0000000E+00;  3.9693551E+04;  6.3482153E-01;  0.0000000E+00; -1.2437152E-01;  6.1562168E+03;
  1.2970705E+00;  9.9999998E-03; -3.0129222E-02;9398;  8.2117283E-01;  0.0000000E+00;  5.2825799E-03;  9.9566345E+02;  1.0845325E-01; -3.4273022E+03;3;  4.2402718E+01;  0.0000000E+00; -6.6818023E+00;0;  4.8105508E-01;  3.3964590E+04;  0.0000000E+00; -3.2955505E-02;  4.0000000E+04;  0.0000000E+00;  3.9694480E+04;  5.9939247E-01;  0.0000000E+00; -1.1833739E-01;  6.2596943E+03;
  1.2970339E+00;  9.9999998E-03; -2.0086804E-02;9399;  8.2002193E-01;  0.0000000E+00;  3.5559207E-03;  9.9572571E+02;  1.0845476E-01; -3.3782034E+03;3;  4.3294624E+01;  0.0000000E+00; -4.4352708E+00;0;  4.9945912E-01;  3.3968078E+04;  0.0000000E+00; -1.6243780E-02;  4.0000000E+04;  0.0000000E+00;  3.9693996E+04;  6.2156290E-01;  0.0000000E+00; -1.2210378E-01;  6.2026284E+03;
  1.2970339E+00;  9.9999998E-03;  2.0086788E-02;9403;  8.2002199E-01;  0.0000000E+00; -3.5561249E-03;  9.9572577E+02;  1.0845469E-01; -3.3781562E+03;3;  4.3294224E+01;  0.0000000E+00;  4.4353018E+00;0;  4.9945903E-01;  3.3968078E+04;  0.0000000E+00; -1.6244238E-02;  4.0000000E+04;  0.0000000E+00;  3.9693996E+04;  6.2156278E-01;  0.0000000E+00; -1.2210376E-01;  6.2026187E+03;
  1.2970705E+00;  9.9999998E-03;  3.0129205E-02;9404;  8.2117289E-01;  0.0000000E+00; -5.2827834E-03;  9.9566345E+02;  1.0845301E-01; -3.4273022E+03;3;  4.2402317E+01;  0.0000000E+00;  6.6818419E+00;0;  4.8105413E-01;  3.3964590E+04;  0.0000000E+00; -3.2955565E-02;  4.0000000E+04;  0.0000000E+00;  3.9694480E+04;  5.9939164E-01;  0.0000000E+00; -1.1833753E-01;  6.2596943E+03;
  1.2971150E+00;  9.9999998E-03; -4.0170778E-02;9397;  8.2276493E-01;  0.0000000E+00;  6.9375299E-03;  9.9559192E+02;  1.0845115E-01; -3.4837292E+03;3;  4.1180637E+01;  0.0000000E+00; -8.9482822E+00;0;  4.5526397E-01;  3.3960773E+04;  0.0000000E+00; -5.0414767E-02;  4.0000000E+04;  0.0000000E+00;  3.9694531E+04;  5.6836134E-01;  0.0000000E+00; -1.1309735E-01;  6.2992358E+03;
  1.2971150E+00;  9.9999998E-03;  4.0170759E-02;9405;  8.2276493E-01;  0.0000000E+00; -6.9377362E-03;  9.9559192E+02;  1.0845116E-01; -3.4837292E+03;3;  4.1180191E+01;  0.0000000E+00;  8.9482641E+00;0;  4.5526499E-01;  3.3960766E+04;  0.0000000E+00; -5.0415587E-02;  4.0000000E+04;  0.0000000E+00;  3.9694535E+04;  5.6836253E-01;  0.0000000E+00; -1.1309753E-01;  6.2992344E+03;
  1.2971648E+00;  9.9999998E-03; -5.0209899E-02;9396;  8.2476807E-01;  0.0000000E+00;  8.5159838E-03;  9.9552570E+02;  1.0844886E-01; -3.5359485E+03;3;  3.9512135E+01;  0.0000000E+00; -1.0986091E+01;0;  4.2230892E-01;  3.3958246E+04;  0.0000000E+00; -6.5014616E-02;  4.0000000E+04;  0.0000000E+00;  3.9694152E+04;  5.2872115E-01;  0.0000000E+00; -1.0641223E-01;  6.2865986E+03;
  1.2971648E+00;  9.9999998E-03;  5.0209880E-02;9406;  8.2476813E-01;  0.0000000E+00; -8.5161943E-03;  9.9552570E+02;  1.0844886E-01; -3.5359485E+03;3;  3.9511814E+01;  0.0000000E+00;  1.0985990E+01;0;  4.2230961E-01;  3.3958238E+04;  0.0000000E+00; -6.5013878E-02;  4.0000000E+04;  0.0000000E+00;  3.9694152E+04;  5.2872187E-01;  0.0000000E+00; -1.0641226E-01;  6.2865898E+03;
  1.2972146E+00;  9.9999998E-03; -6.0246013E-02;9395;  8.2715088E-01;  0.0000000E+00;  9.9781528E-03;  9.9548688E+02;  1.0844722E-01; -3.5665437E+03;3;  3.7723309E+01;  0.0000000E+00; -1.3040772E+01;0;  3.8264102E-01;  3.3958086E+04;  0.0000000E+00; -7.6912403E-02;  4.0000000E+04;  0.0000000E+00;  3.9692520E+04;  4.8094416E-01;  0.0000000E+00; -9.8303139E-02;  6.1866724E+03;
  1.2972146E+00;  9.9999998E-03;  6.0245994E-02;9407;  8.2715094E-01;  0.0000000E+00; -9.9783549E-03;  9.9548688E+02;  1.0844722E-01; -3.5665437E+03;3;  3.7723068E+01;  0.0000000E+00;  1.3040692E+01;0;  3.8264170E-01;  3.3958086E+04;  0.0000000E+00; -7.6915897E-02;  4.0000000E+04;  0.0000000E+00;  3.9692523E+04;  4.8094484E-01;  0.0000000E+00; -9.8303147E-02;  6.1866611E+03;
  1.2972929E+00;  9.9999998E-03; -8.0303684E-02;9393;  8.3281225E-01;  0.0000000E+00;  1.2508969E-02;  9.9550482E+02;  1.0844351E-01; -3.5521826E+03;3;  3.3808376E+01;  0.0000000E+00; -1.6343929E+01;0;  2.8701484E-01;  3.3968262E+04;  0.0000000E+00; -1.2101222E-01;  4.0000000E+04;  0.0000000E+00;  3.9685203E+04;  3.6487210E-01;  0.0000000E+00; -7.7857263E-02;  5.6320474E+03;
  1.2972596E+00;  9.9999998E-03; -7.0277393E-02;9394;  8.2985336E-01;  0.0000000E+00;  1.1311192E-02;  9.9547479E+02;  1.0844498E-01; -3.5759529E+03;3;  3.5855335E+01;  0.0000000E+00; -1.4907956E+01;0;  3.3711576E-01;  3.3961176E+04;  0.0000000E+00; -9.3372457E-02;  4.0000000E+04;  0.0000000E+00;  3.9689633E+04;  4.2590290E-01;  0.0000000E+00; -8.8787146E-02;  5.9724248E+03;
  1.2973094E+00;  9.9999998E-03; -9.0324514E-02;9392;  8.3594549E-01;  0.0000000E+00;  1.3573154E-02;  9.9557288E+02;  1.0844177E-01; -3.4983562E+03;3;  3.1888203E+01;  0.0000000E+00; -1.7487570E+01;0;  2.3405920E-01;  3.3979203E+04;  0.0000000E+00; -1.5444537E-01;  4.0000000E+04;  0.0000000E+00;  3.9679516E+04;  2.9951558E-01;  0.0000000E+00; -6.5456375E-02;  5.1746030E+03;
  1.2973045E+00;  9.9999998E-03; -1.0034192E-01;9391;  8.3913988E-01;  0.0000000E+00;  1.4540839E-02;  9.9567499E+02;  1.0844024E-01; -3.4176843E+03;3;  2.9433819E+01;  0.0000000E+00; -1.8021049E+01;0;  1.8024653E-01;  3.3992977E+04;  0.0000000E+00; -1.5560707E-01;  4.0000000E+04;  0.0000000E+00;  3.9672863E+04;  2.3170342E-01;  0.0000000E+00; -5.1456880E-02;  4.6354663E+03;
  1.3077874E+00;  9.9999998E-03; -1.0049034E-02;9454;  8.2081234E-01;  0.0000000E+00;  2.1254232E-03;  9.9573120E+02;  1.0795309E-01; -3.3484363E+03;3;  1.6945498E+01;  0.0000000E+00; -1.8887125E+00;0;  6.6515768E-01;  3.4313852E+04;  0.0000000E+00; -6.2591988E-03;  4.0000000E+04;  0.0000000E+00;  3.9659566E+04;  8.0467260E-01;  0.0000000E+00; -1.3951492E-01;  5.1806895E+03;
  1.3077724E+00;  9.9999998E-03; -8.4995397E-09;9455;  8.2055497E-01;  0.0000000E+00; -1.0425601E-07;  9.9573407E+02;  1.0795311E-01; -3.3461831E+03;3;  1.7424555E+01;  0.0000000E+00;  2.8124409E-06;0;  6.6957062E-01;  3.4314375E+04;  0.0000000E+00; -4.7994417E-12;  4.0000000E+04;  0.0000000E+00;  3.9659449E+04;  8.0996400E-01;  0.0000000E+00; -1.4039336E-01;  5.1634946E+03;
  1.3077874E+00;  9.9999998E-03;  1.0049017E-02;9456;  8.2081234E-01;  0.0000000E+00; -2.1256348E-03;  9.9573126E+02;  1.0795307E-01; -3.3483894E+03;3;  1.6945026E+01;  0.0000000E+00;  1.8886801E+00;0;  6.6515797E-01;  3.4313852E+04;  0.0000000E+00; -6.2592146E-03;  4.0000000E+04;  0.0000000E+00;  3.9659566E+04;  8.0467290E-01;  0.0000000E+00; -1.3951491E-01;  5.1806831E+03;
  1.3079365E+00;  9.9999998E-03; -4.0185031E-02;9451;  8.2439399E-01;  0.0000000E+00;  8.2418146E-03;  9.9568848E+02;  1.0794914E-01; -3.3815317E+03;3;  1.1841021E+01;  0.0000000E+00; -7.1133356E+00;0;  5.9787816E-01;  3.4312512E+04;  0.0000000E+00; -8.7554850E-02;  4.0000000E+04;  0.0000000E+00;  3.9660906E+04;  7.2448933E-01;  0.0000000E+00; -1.2661116E-01;  5.3055713E+03;
  1.3078760E+00;  9.9999998E-03; -3.0141635E-02;9452;  8.2277578E-01;  0.0000000E+00;  6.2749470E-03;  9.9570007E+02;  1.0795069E-01; -3.3726167E+03;3;  1.3791025E+01;  0.0000000E+00; -5.5881348E+00;0;  6.2936699E-01;  3.4312578E+04;  0.0000000E+00; -5.2237891E-02;  4.0000000E+04;  0.0000000E+00;  3.9660598E+04;  7.6192969E-01;  0.0000000E+00; -1.3256267E-01;  5.2773662E+03;
  1.3078246E+00;  9.9999998E-03; -2.0096205E-02;9453;  8.2156789E-01;  0.0000000E+00;  4.2257337E-03;  9.9571851E+02;  1.0795190E-01; -3.3583008E+03;3;  1.5602016E+01;  0.0000000E+00; -3.8229389E+00;0;  6.5179813E-01;  3.4313289E+04;  0.0000000E+00; -2.4317835E-02;  4.0000000E+04;  0.0000000E+00;  3.9660129E+04;  7.8868794E-01;  0.0000000E+00; -1.3688980E-01;  5.2254390E+03;
  1.3078246E+00;  9.9999998E-03;  2.0096187E-02;9457;  8.2156789E-01;  0.0000000E+00; -4.2259479E-03;  9.9571851E+02;  1.0795190E-01; -3.3583008E+03;3;  1.5602146E+01;  0.0000000E+00;  3.8229449E+00;0;  6.5179849E-01;  3.4313289E+04;  0.0000000E+00; -2.4317957E-02;  4.0000000E+04;  0.0000000E+00;  3.9660129E+04;  7.8868830E-01;  0.0000000E+00; -1.3688982E-01;  5.2254297E+03;
  1.3078760E+00;  9.9999998E-03;  3.0141618E-02;9458;  8.2277584E-01;  0.0000000E+00; -6.2751626E-03;  9.9570007E+02;  1.0795069E-01; -3.3726167E+03;3;  1.3791251E+01;  0.0000000E+00;  5.5880399E+00;0;  6.2936711E-01;  3.4312582E+04;  0.0000000E+00; -5.2238159E-02;  4.0000000E+04;  0.0000000E+00;  3.9660598E+04;  7.6192987E-01;  0.0000000E+00; -1.3256279E-01;  5.2773711E+03;
  1.3079365E+00;  9.9999998E-03;  4.0185012E-02;9459;  8.2439405E-01;  0.0000000E+00; -8.2420232E-03;  9.9568854E+02;  1.0794929E-01; -3.3814851E+03;3;  1.1840768E+01;  0.0000000E+00;  7.1133604E+00;0;  5.9787762E-01;  3.4312512E+04;  0.0000000E+00; -8.7554611E-02;  4.0000000E+04;  0.0000000E+00;  3.9660906E+04;  7.2448891E-01;  0.0000000E+00; -1.2661128E-01;  5.3055659E+03;
  1.3080015E+00;  9.9999998E-03; -5.0224874E-02;9450;  8.2636964E-01;  0.0000000E+00;  1.0100034E-02;  9.9568671E+02;  1.0794741E-01; -3.3827686E+03;3;  1.0223272E+01;  0.0000000E+00; -8.6983528E+00;0;  5.5754697E-01;  3.4314410E+04;  0.0000000E+00; -1.2896658E-01;  4.0000000E+04;  0.0000000E+00;  3.9660211E+04;  6.7668450E-01;  0.0000000E+00; -1.1913755E-01;  5.2742593E+03;
  1.3080015E+00;  9.9999998E-03;  5.0224856E-02;9460;  8.2636970E-01;  0.0000000E+00; -1.0100244E-02;  9.9568658E+02;  1.0794746E-01; -3.3828621E+03;3;  1.0223024E+01;  0.0000000E+00;  8.6984072E+00;0;  5.5754787E-01;  3.4314414E+04;  0.0000000E+00; -1.2896857E-01;  4.0000000E+04;  0.0000000E+00;  3.9660211E+04;  6.7668539E-01;  0.0000000E+00; -1.1913754E-01;  5.2742622E+03;
  1.3081158E+00;  9.9999998E-03; -7.0287772E-02;9448;  8.3095133E-01;  0.0000000E+00;  1.3397492E-02;  9.9574213E+02;  1.0794418E-01; -3.3390066E+03;3;  1.2014804E+01;  0.0000000E+00; -1.2300920E+01;0;  4.5294657E-01;  3.4325152E+04;  0.0000000E+00; -2.4120918E-01;  4.0000000E+04;  0.0000000E+00;  3.9655453E+04;  5.5307686E-01;  0.0000000E+00; -1.0013028E-01;  4.9154438E+03;
  1.3080631E+00;  9.9999998E-03; -6.0259577E-02;9449;  8.2856882E-01;  0.0000000E+00;  1.1831536E-02;  9.9570337E+02;  1.0794593E-01; -3.3695698E+03;3;  1.0248748E+01;  0.0000000E+00; -1.0534937E+01;0;  5.0889778E-01;  3.4318375E+04;  0.0000000E+00; -1.7956755E-01;  4.0000000E+04;  0.0000000E+00;  3.9658512E+04;  6.1916304E-01;  0.0000000E+00; -1.1026524E-01;  5.1510918E+03;
  1.3080631E+00;  9.9999998E-03;  6.0259558E-02;9461;  8.2856888E-01;  0.0000000E+00; -1.1831749E-02;  9.9570349E+02;  1.0794591E-01; -3.3694294E+03;3;  1.0248610E+01;  0.0000000E+00;  1.0534934E+01;0;  5.0889772E-01;  3.4318379E+04;  0.0000000E+00; -1.7957065E-01;  4.0000000E+04;  0.0000000E+00;  3.9658512E+04;  6.1916292E-01;  0.0000000E+00; -1.1026522E-01;  5.1510889E+03;
  1.3081518E+00;  9.9999998E-03; -8.0309205E-02;9447;  8.3339399E-01;  0.0000000E+00;  1.4785422E-02;  9.9580060E+02;  1.0794220E-01; -3.2930632E+03;3;  1.6196854E+01;  0.0000000E+00; -1.4101398E+01;0;  3.9119217E-01;  3.4334852E+04;  0.0000000E+00; -3.0304205E-01;  4.0000000E+04;  0.0000000E+00;  3.9650672E+04;  4.8003176E-01;  0.0000000E+00; -8.8839591E-02;  4.5639272E+03;
  1.3081653E+00;  9.9999998E-03; -9.0325363E-02;9446;  8.3600628E-01;  0.0000000E+00;  1.5994120E-02;  9.9587885E+02;  1.0794061E-01; -3.2317063E+03;3;  2.0812630E+01;  0.0000000E+00; -1.5916986E+01;0;  3.2561889E-01;  3.4346559E+04;  0.0000000E+00; -3.2624984E-01;  4.0000000E+04;  0.0000000E+00;  3.9644824E+04;  4.0205398E-01;  0.0000000E+00; -7.6435089E-02;  4.1165352E+03;
  1.3081524E+00;  9.9999998E-03; -1.0033972E-01;9445;  8.3880424E-01;  0.0000000E+00;  1.7032580E-02;  9.9596942E+02;  1.0793981E-01; -3.1606924E+03;3;  2.4401653E+01;  0.0000000E+00; -1.7272369E+01;0;  2.5853726E-01;  3.4359469E+04;  0.0000000E+00; -2.2309016E-01;  4.0000000E+04;  0.0000000E+00;  3.9638309E+04;  3.2139727E-01;  0.0000000E+00; -6.2860012E-02;  3.6235076E+03;
  1.3186098E+00;  9.9999998E-03; -2.0106617E-02;9506;  8.3449620E-01;  0.0000000E+00;  4.5704641E-03;  9.9582648E+02;  1.0751307E-01; -3.2452649E+03;3; -4.1994164E+01;  0.0000000E+00; -2.0876665E+00;0;  8.0173481E-01;  3.4635301E+04;  0.0000000E+00; -4.2847075E-02;  4.0000000E+04;  0.0000000E+00;  3.9620867E+04;  9.4726676E-01;  0.0000000E+00; -1.4553194E-01;  4.1557363E+03;
  1.3185657E+00;  9.9999998E-03; -1.0055044E-02;9507;  8.3378303E-01;  0.0000000E+00;  2.2934543E-03;  9.9581000E+02;  1.0751381E-01; -3.2582268E+03;3; -4.1928852E+01;  0.0000000E+00; -9.8604053E-01;0;  8.1750137E-01;  3.4633949E+04;  0.0000000E+00; -1.0785608E-02;  4.0000000E+04;  0.0000000E+00;  3.9620309E+04;  9.6595782E-01;  0.0000000E+00; -1.4845644E-01;  4.1218857E+03;
  1.3185476E+00;  9.9999998E-03; -8.7880814E-09;9508;  8.3349258E-01;  0.0000000E+00; -1.0658182E-07;  9.9580640E+02;  1.0751464E-01; -3.2610586E+03;3; -4.1872356E+01;  0.0000000E+00;  4.6899531E-06;0;  8.2270801E-01;  3.4633594E+04;  0.0000000E+00; -7.4981193E-12;  4.0000000E+04;  0.0000000E+00;  3.9620176E+04;  9.7214854E-01;  0.0000000E+00; -1.4944054E-01;  4.1084028E+03;
  1.3185657E+00;  9.9999998E-03;  1.0055026E-02;9509;  8.3378309E-01;  0.0000000E+00; -2.2936626E-03;  9.9581006E+02;  1.0751376E-01; -3.2581804E+03;3; -4.1929077E+01;  0.0000000E+00;  9.8604763E-01;0;  8.1750149E-01;  3.4633949E+04;  0.0000000E+00; -1.0785556E-02;  4.0000000E+04;  0.0000000E+00;  3.9620309E+04;  9.6595788E-01;  0.0000000E+00; -1.4845641E-01;  4.1218843E+03;
  1.3186098E+00;  9.9999998E-03;  2.0106601E-02;9510;  8.3449626E-01;  0.0000000E+00; -4.5706742E-03;  9.9582642E+02;  1.0751303E-01; -3.2453113E+03;3; -4.1994167E+01;  0.0000000E+00;  2.0876474E+00;0;  8.0173433E-01;  3.4635297E+04;  0.0000000E+00; -4.2847142E-02;  4.0000000E+04;  0.0000000E+00;  3.9620863E+04;  9.4726646E-01;  0.0000000E+00; -1.4553210E-01;  4.1557305E+03;
  1.3187354E+00;  9.9999998E-03; -4.0197570E-02;9504;  8.3686334E-01;  0.0000000E+00;  8.9040268E-03;  9.9589075E+02;  1.0751022E-01; -3.1949570E+03;3; -4.1785294E+01;  0.0000000E+00; -4.2886381E+00;0;  7.3819613E-01;  3.4641430E+04;  0.0000000E+00; -1.6751450E-01;  4.0000000E+04;  0.0000000E+00;  3.9621551E+04;  8.7246734E-01;  0.0000000E+00; -1.3427120E-01;  4.1960825E+03;
  1.3186685E+00;  9.9999998E-03; -3.0153777E-02;9505;  8.3555287E-01;  0.0000000E+00;  6.7765564E-03;  9.9585345E+02;  1.0751183E-01; -3.2241067E+03;3; -4.1938282E+01;  0.0000000E+00; -3.2014093E+00;0;  7.7528030E-01;  3.4637453E+04;  0.0000000E+00; -9.5318511E-02;  4.0000000E+04;  0.0000000E+00;  3.9621355E+04;  9.1603506E-01;  0.0000000E+00; -1.4075477E-01;  4.1901558E+03;
  1.3186685E+00;  9.9999998E-03;  3.0153759E-02;9511;  8.3555287E-01;  0.0000000E+00; -6.7767692E-03;  9.9585345E+02;  1.0751183E-01; -3.2241067E+03;3; -4.1938198E+01;  0.0000000E+00;  3.2014053E+00;0;  7.7528125E-01;  3.4637457E+04;  0.0000000E+00; -9.5318541E-02;  4.0000000E+04;  0.0000000E+00;  3.9621359E+04;  9.1603583E-01;  0.0000000E+00; -1.4075457E-01;  4.1901494E+03;
  1.3187355E+00;  9.9999998E-03;  4.0197551E-02;9512;  8.3686340E-01;  0.0000000E+00; -8.9042382E-03;  9.9589081E+02;  1.0751020E-01; -3.1949106E+03;3; -4.1785263E+01;  0.0000000E+00;  4.2886295E+00;0;  7.3819721E-01;  3.4641430E+04;  0.0000000E+00; -1.6751440E-01;  4.0000000E+04;  0.0000000E+00;  3.9621551E+04;  8.7246847E-01;  0.0000000E+00; -1.3427125E-01;  4.1960747E+03;
  1.3188682E+00;  9.9999998E-03; -6.0269345E-02;9502;  8.3902782E-01;  0.0000000E+00;  1.2896546E-02;  9.9601367E+02;  1.0750689E-01; -3.0989971E+03;3; -3.9473011E+01;  0.0000000E+00; -6.8890920E+00;0;  6.3368928E-01;  3.4655012E+04;  0.0000000E+00; -3.7109086E-01;  4.0000000E+04;  0.0000000E+00;  3.9619070E+04;  7.5070888E-01;  0.0000000E+00; -1.1701956E-01;  4.0051868E+03;
  1.3188051E+00;  9.9999998E-03; -5.0236672E-02;9503;  8.3811623E-01;  0.0000000E+00;  1.0967110E-02;  9.9594275E+02;  1.0750829E-01; -3.1543101E+03;3; -4.1175152E+01;  0.0000000E+00; -5.5240026E+00;0;  6.9078320E-01;  3.4647273E+04;  0.0000000E+00; -2.5988433E-01;  4.0000000E+04;  0.0000000E+00;  3.9620945E+04;  8.1706285E-01;  0.0000000E+00; -1.2627964E-01;  4.1423623E+03;
  1.3188051E+00;  9.9999998E-03;  5.0236654E-02;9513;  8.3811629E-01;  0.0000000E+00; -1.0967324E-02;  9.9594287E+02;  1.0750819E-01; -3.1542175E+03;3; -4.1175213E+01;  0.0000000E+00;  5.5239730E+00;0;  6.9078410E-01;  3.4647277E+04;  0.0000000E+00; -2.5988483E-01;  4.0000000E+04;  0.0000000E+00;  3.9620945E+04;  8.1706381E-01;  0.0000000E+00; -1.2627970E-01;  4.1423589E+03;
  1.3188682E+00;  9.9999998E-03;  6.0269326E-02;9514;  8.3902788E-01;  0.0000000E+00; -1.2896764E-02;  9.9601367E+02;  1.0750689E-01; -3.0989971E+03;3; -3.9473095E+01;  0.0000000E+00;  6.8890595E+00;0;  6.3369024E-01;  3.4655008E+04;  0.0000000E+00; -3.7108913E-01;  4.0000000E+04;  0.0000000E+00;  3.9619070E+04;  7.5070995E-01;  0.0000000E+00; -1.1701973E-01;  4.0051880E+03;
  1.3189169E+00;  9.9999998E-03; -7.0294730E-02;9501;  8.3937001E-01;  0.0000000E+00;  1.4683597E-02;  9.9609656E+02;  1.0750601E-01; -3.0344602E+03;3; -3.6172371E+01;  0.0000000E+00; -8.4117832E+00;0;  5.6804520E-01;  3.4664664E+04;  0.0000000E+00; -4.8572260E-01;  4.0000000E+04;  0.0000000E+00;  3.9615801E+04;  6.7478567E-01;  0.0000000E+00; -1.0674047E-01;  3.7722808E+03;
  1.3189430E+00;  9.9999998E-03; -8.0314144E-02;9500;  8.3917719E-01;  0.0000000E+00;  1.6254613E-02;  9.9618463E+02;  1.0750543E-01; -2.9659097E+03;3; -2.9008429E+01;  0.0000000E+00; -9.4272118E+00;0;  4.9544829E-01;  3.4675676E+04;  0.0000000E+00; -5.5981845E-01;  4.0000000E+04;  0.0000000E+00;  3.9611418E+04;  5.9110487E-01;  0.0000000E+00; -9.5656559E-02;  3.4477097E+03;
  1.3189418E+00;  9.9999998E-03; -9.0330645E-02;9499;  8.3881259E-01;  0.0000000E+00;  1.7674772E-02;  9.9626355E+02;  1.0750438E-01; -2.9045659E+03;3; -1.4370281E+01;  0.0000000E+00; -1.0186306E+01;0;  4.1793352E-01;  3.4687207E+04;  0.0000000E+00; -5.0393409E-01;  4.0000000E+04;  0.0000000E+00;  3.9606082E+04;  5.0184274E-01;  0.0000000E+00; -8.3909228E-02;  3.0585596E+03;
  1.3189150E+00;  9.9999998E-03; -1.0034771E-01;9498;  8.3949590E-01;  0.0000000E+00;  1.8900318E-02;  9.9633441E+02;  1.0750385E-01; -2.8495403E+03;3;  4.9232564E+00;  0.0000000E+00; -1.2034879E+01;0;  3.3804238E-01;  3.4697734E+04;  0.0000000E+00; -1.6570655E-01;  4.0000000E+04;  0.0000000E+00;  3.9600711E+04;  4.0955973E-01;  0.0000000E+00; -7.1517341E-02;  2.6899382E+03;
  1.3296165E+00;  9.9999998E-03; -1.0037544E-01;9550;  8.4377807E-01;  0.0000000E+00;  1.9644981E-02;  9.9665613E+02;  1.0712275E-01; -2.5739688E+03;3; -2.6072769E+01;  0.0000000E+00; -7.3841090E+00;0;  4.1433719E-01;  3.5002988E+04;  0.0000000E+00;  2.2665101E-01;  4.0000000E+04;  0.0000000E+00;  3.9561230E+04;  4.9221244E-01;  0.0000000E+00; -7.7875264E-02;  2.0490864E+03;
  1.3296528E+00;  9.9999998E-03; -9.0350606E-02;9551;  8.4803432E-01;  0.0000000E+00;  1.8637719E-02;  9.9663147E+02;  1.0712408E-01; -2.5928711E+03;3; -3.9150089E+01;  0.0000000E+00; -8.8632793E+00;0;  5.0598747E-01;  3.4996570E+04;  0.0000000E+00; -5.6242472E-01;  4.0000000E+04;  0.0000000E+00;  3.9564555E+04;  5.9429431E-01;  0.0000000E+00; -8.8306844E-02;  2.1193584E+03;
  1.3296673E+00;  9.9999998E-03; -8.0328919E-02;9552;  8.5212219E-01;  0.0000000E+00;  1.7442662E-02;  9.9656732E+02;  1.0712517E-01; -2.6422000E+03;3; -4.3753166E+01;  0.0000000E+00; -7.2113371E+00;0;  5.9361219E-01;  3.4987141E+04;  0.0000000E+00; -8.4023380E-01;  4.0000000E+04;  0.0000000E+00;  3.9568305E+04;  6.9221973E-01;  0.0000000E+00; -9.8607555E-02;  2.4046902E+03;
  1.3296560E+00;  9.9999998E-03; -7.0306353E-02;9553;  8.5503203E-01;  0.0000000E+00;  1.5768675E-02;  9.9647577E+02;  1.0712618E-01; -2.7126997E+03;3; -4.5954689E+01;  0.0000000E+00; -5.4674487E+00;0;  6.7504805E-01;  3.4976352E+04;  0.0000000E+00; -8.2921457E-01;  4.0000000E+04;  0.0000000E+00;  3.9571887E+04;  7.8377926E-01;  0.0000000E+00; -1.0873120E-01;  2.6658418E+03;
  1.3296187E+00;  9.9999998E-03; -6.0279675E-02;9554;  8.5652435E-01;  0.0000000E+00;  1.3789570E-02;  9.9636731E+02;  1.0712700E-01; -2.7962563E+03;3; -4.7331936E+01;  0.0000000E+00; -3.7796841E+00;0;  7.4844736E-01;  3.4965516E+04;  0.0000000E+00; -6.8467063E-01;  4.0000000E+04;  0.0000000E+00;  3.9574520E+04;  8.6692876E-01;  0.0000000E+00; -1.1848138E-01;  2.8583071E+03;
  1.3295616E+00;  9.9999998E-03; -5.0246626E-02;9555;  8.5677743E-01;  0.0000000E+00;  1.1619049E-02;  9.9625854E+02;  1.0712763E-01; -2.8801499E+03;3; -4.7769203E+01;  0.0000000E+00; -2.8066797E+00;0;  8.1230319E-01;  3.4955375E+04;  0.0000000E+00; -5.0195980E-01;  4.0000000E+04;  0.0000000E+00;  3.9576184E+04;  9.3985260E-01;  0.0000000E+00; -1.2754942E-01;  2.9792832E+03;
  1.3294942E+00;  9.9999998E-03; -4.0207412E-02;9556;  8.5634559E-01;  0.0000000E+00;  9.3532894E-03;  9.9616052E+02;  1.0712880E-01; -2.9558235E+03;3; -4.7782894E+01;  0.0000000E+00; -2.0759242E+00;0;  8.6548829E-01;  3.4946664E+04;  0.0000000E+00; -3.3055663E-01;  4.0000000E+04;  0.0000000E+00;  3.9576758E+04;  1.0010718E+00;  0.0000000E+00; -1.3558349E-01;  3.0364617E+03;
  1.3294257E+00;  9.9999998E-03; -3.0162662E-02;9557;  8.5561240E-01;  0.0000000E+00;  7.0586880E-03;  9.9607605E+02;  1.0713004E-01; -3.0210471E+03;3; -4.7679283E+01;  0.0000000E+00; -1.5968674E+00;0;  9.0723586E-01;  3.4939938E+04;  0.0000000E+00; -1.8957050E-01;  4.0000000E+04;  0.0000000E+00;  3.9576562E+04;  1.0494742E+00;  0.0000000E+00; -1.4223839E-01;  3.0452644E+03;
  1.3293642E+00;  9.9999998E-03; -2.0112613E-02;9558;  8.5487056E-01;  0.0000000E+00;  4.7435137E-03;  9.9600940E+02;  1.0713034E-01; -3.0725369E+03;3; -4.7665958E+01;  0.0000000E+00; -1.0518367E+00;0;  9.3712920E-01;  3.4934984E+04;  0.0000000E+00; -8.5269459E-02;  4.0000000E+04;  0.0000000E+00;  3.9576113E+04;  1.0843478E+00;  0.0000000E+00; -1.4721866E-01;  3.0273691E+03;
  1.3293146E+00;  9.9999998E-03; -1.0057918E-02;9559;  8.5430574E-01;  0.0000000E+00;  2.3853763E-03;  9.9597070E+02;  1.0713132E-01; -3.1024712E+03;3; -4.7595562E+01;  0.0000000E+00; -4.9700341E-01;0;  9.5497251E-01;  3.4932094E+04;  0.0000000E+00; -2.1503195E-02;  4.0000000E+04;  0.0000000E+00;  3.9575684E+04;  1.1052754E+00;  0.0000000E+00; -1.5030286E-01;  3.0060310E+03;
  1.3292940E+00;  9.9999998E-03; -9.0397156E-09;9560;  8.5406613E-01;  0.0000000E+00; -1.0468613E-07;  9.9595581E+02;  1.0713187E-01; -3.1140073E+03;3; -4.7517570E+01;  0.0000000E+00; -1.9517087E-05;0;  9.6088177E-01;  3.4931133E+04;  0.0000000E+00; -5.7548697E-12;  4.0000000E+04;  0.0000000E+00;  3.9575520E+04;  1.1122288E+00;  0.0000000E+00; -1.5134700E-01;  2.9971313E+03;
  1.3293146E+00;  9.9999998E-03;  1.0057899E-02;9561;  8.5430574E-01;  0.0000000E+00; -2.3855886E-03;  9.9597064E+02;  1.0713135E-01; -3.1025171E+03;3; -4.7595615E+01;  0.0000000E+00;  4.9698275E-01;0;  9.5497286E-01;  3.4932090E+04;  0.0000000E+00; -2.1502616E-02;  4.0000000E+04;  0.0000000E+00;  3.9575684E+04;  1.1052756E+00;  0.0000000E+00; -1.5030277E-01;  3.0060305E+03;
  1.3293642E+00;  9.9999998E-03;  2.0112595E-02;9562;  8.5487062E-01;  0.0000000E+00; -4.7437269E-03;  9.9600940E+02;  1.0713034E-01; -3.0725369E+03;3; -4.7665951E+01;  0.0000000E+00;  1.0517975E+00;0;  9.3712759E-01;  3.4934984E+04;  0.0000000E+00; -8.5268348E-02;  4.0000000E+04;  0.0000000E+00;  3.9576113E+04;  1.0843464E+00;  0.0000000E+00; -1.4721881E-01;  3.0273728E+03;
  1.3294257E+00;  9.9999998E-03;  3.0162644E-02;9563;  8.5561246E-01;  0.0000000E+00; -7.0589026E-03;  9.9607605E+02;  1.0713004E-01; -3.0210471E+03;3; -4.7679340E+01;  0.0000000E+00;  1.5968697E+00;0;  9.0723521E-01;  3.4939934E+04;  0.0000000E+00; -1.8956843E-01;  4.0000000E+04;  0.0000000E+00;  3.9576566E+04;  1.0494736E+00;  0.0000000E+00; -1.4223844E-01;  3.0452610E+03;
  1.3294942E+00;  9.9999998E-03;  4.0207393E-02;9564;  8.5634559E-01;  0.0000000E+00; -9.3535054E-03;  9.9616058E+02;  1.0712893E-01; -2.9557776E+03;3; -4.7782764E+01;  0.0000000E+00;  2.0758851E+00;0;  8.6548823E-01;  3.4946664E+04;  0.0000000E+00; -3.3055267E-01;  4.0000000E+04;  0.0000000E+00;  3.9576762E+04;  1.0010719E+00;  0.0000000E+00; -1.3558370E-01;  3.0364607E+03;
  1.3295616E+00;  9.9999998E-03;  5.0246608E-02;9565;  8.5677749E-01;  0.0000000E+00; -1.1619270E-02;  9.9625854E+02;  1.0712763E-01; -2.8801499E+03;3; -4.7769138E+01;  0.0000000E+00;  2.8066347E+00;0;  8.1230402E-01;  3.4955375E+04;  0.0000000E+00; -5.0195903E-01;  4.0000000E+04;  0.0000000E+00;  3.9576184E+04;  9.3985355E-01;  0.0000000E+00; -1.2754951E-01;  2.9792725E+03;
  1.3296187E+00;  9.9999998E-03;  6.0279656E-02;9566;  8.5652459E-01;  0.0000000E+00; -1.3789801E-02;  9.9636731E+02;  1.0712700E-01; -2.7962563E+03;3; -4.7332115E+01;  0.0000000E+00;  3.7796030E+00;0;  7.4844927E-01;  3.4965516E+04;  0.0000000E+00; -6.8467057E-01;  4.0000000E+04;  0.0000000E+00;  3.9574520E+04;  8.6693066E-01;  0.0000000E+00; -1.1848140E-01;  2.8582991E+03;
  1.3399760E+00;  9.9999998E-03; -9.1078869E-09;9610;  8.7399781E-01;  0.0000000E+00; -1.0849829E-07;  9.9616626E+02;  1.0680268E-01; -2.9193428E+03;3; -4.6268211E+01;  0.0000000E+00;  1.2793345E-05;0;  1.0754583E+00;  3.5205883E+04;  0.0000000E+00; -7.4148925E-12;  4.0000000E+04;  0.0000000E+00;  3.9525445E+04;  1.2211046E+00;  0.0000000E+00; -1.4564636E-01;  1.8913630E+03;
  1.3399978E+00;  9.9999998E-03; -1.0058328E-02;9609;  8.7420297E-01;  0.0000000E+00;  2.3999461E-03;  9.9618188E+02;  1.0680234E-01; -2.9073809E+03;3; -4.6437775E+01;  0.0000000E+00;  1.4726496E-01;0;  1.0690589E+00;  3.5207227E+04;  0.0000000E+00; -4.0618654E-02;  4.0000000E+04;  0.0000000E+00;  3.9525617E+04;  1.2136699E+00;  0.0000000E+00; -1.4461102E-01;  1.8975167E+03;
  1.3399978E+00;  9.9999998E-03;  1.0058309E-02;9611;  8.7420291E-01;  0.0000000E+00; -2.4001622E-03;  9.9618188E+02;  1.0680234E-01; -2.9073809E+03;3; -4.6437664E+01;  0.0000000E+00; -1.4728673E-01;0;  1.0690587E+00;  3.5207230E+04;  0.0000000E+00; -4.0617753E-02;  4.0000000E+04;  0.0000000E+00;  3.9525617E+04;  1.2136695E+00;  0.0000000E+00; -1.4461094E-01;  1.8975149E+03;
  1.3400501E+00;  9.9999998E-03; -2.0114394E-02;9608;  8.7458557E-01;  0.0000000E+00;  4.7841356E-03;  9.9623041E+02;  1.0680091E-01; -2.8702695E+03;3; -4.6714493E+01;  0.0000000E+00;  2.0262842E-01;0;  1.0497639E+00;  3.5211324E+04;  0.0000000E+00; -1.5953934E-01;  4.0000000E+04;  0.0000000E+00;  3.9526129E+04;  1.1913451E+00;  0.0000000E+00; -1.4158121E-01;  1.9130178E+03;
  1.3400501E+00;  9.9999998E-03;  2.0114377E-02;9612;  8.7458569E-01;  0.0000000E+00; -4.7843531E-03;  9.9623041E+02;  1.0680091E-01; -2.8702695E+03;3; -4.6714478E+01;  0.0000000E+00; -2.0262665E-01;0;  1.0497642E+00;  3.5211328E+04;  0.0000000E+00; -1.5953788E-01;  4.0000000E+04;  0.0000000E+00;  3.9526129E+04;  1.1913452E+00;  0.0000000E+00; -1.4158109E-01;  1.9130083E+03;
  1.3401152E+00;  9.9999998E-03; -3.0166527E-02;9607;  8.7522101E-01;  0.0000000E+00;  7.1398420E-03;  9.9631262E+02;  1.0679977E-01; -2.8074819E+03;3; -4.7134174E+01;  0.0000000E+00;  3.0237621E-01;0;  1.0176038E+00;  3.5217797E+04;  0.0000000E+00; -3.4725010E-01;  4.0000000E+04;  0.0000000E+00;  3.9526789E+04;  1.1543584E+00;  0.0000000E+00; -1.3675462E-01;  1.9287321E+03;
  1.3401152E+00;  9.9999998E-03;  3.0166509E-02;9613;  8.7522113E-01;  0.0000000E+00; -7.1400609E-03;  9.9631262E+02;  1.0679977E-01; -2.8074819E+03;3; -4.7134193E+01;  0.0000000E+00; -3.0236667E-01;0;  1.0176034E+00;  3.5217797E+04;  0.0000000E+00; -3.4724838E-01;  4.0000000E+04;  0.0000000E+00;  3.9526789E+04;  1.1543581E+00;  0.0000000E+00; -1.3675471E-01;  1.9287340E+03;
  1.3401877E+00;  9.9999998E-03; -4.0214930E-02;9606;  8.7605035E-01;  0.0000000E+00;  9.5389290E-03;  9.9642255E+02;  1.0679855E-01; -2.7235798E+03;3; -4.7971981E+01;  0.0000000E+00;  3.9294213E-01;0;  9.7290909E-01;  3.5226090E+04;  0.0000000E+00; -5.8713603E-01;  4.0000000E+04;  0.0000000E+00;  3.9527027E+04;  1.1033307E+00;  0.0000000E+00; -1.3042167E-01;  1.9314891E+03;
  1.3401877E+00;  9.9999998E-03;  4.0214911E-02;9614;  8.7605035E-01;  0.0000000E+00; -9.5391423E-03;  9.9642255E+02;  1.0679855E-01; -2.7235798E+03;3; -4.7971977E+01;  0.0000000E+00; -3.9296481E-01;0;  9.7290838E-01;  3.5226094E+04;  0.0000000E+00; -5.8713174E-01;  4.0000000E+04;  0.0000000E+00;  3.9527027E+04;  1.1033300E+00;  0.0000000E+00; -1.3042162E-01;  1.9314805E+03;
  1.3402574E+00;  9.9999998E-03; -5.0259206E-02;9605;  8.7660044E-01;  0.0000000E+00;  1.1950333E-02;  9.9654456E+02;  1.0679785E-01; -2.6304885E+03;3; -4.8930317E+01;  0.0000000E+00;  2.0723353E-01;0;  9.1620547E-01;  3.5235895E+04;  0.0000000E+00; -8.4969425E-01;  4.0000000E+04;  0.0000000E+00;  3.9526859E+04;  1.0391710E+00;  0.0000000E+00; -1.2296552E-01;  1.9081176E+03;
  1.3402574E+00;  9.9999998E-03;  5.0259188E-02;9615;  8.7660062E-01;  0.0000000E+00; -1.1950552E-02;  9.9654462E+02;  1.0679810E-01; -2.6304431E+03;3; -4.8930351E+01;  0.0000000E+00; -2.0722044E-01;0;  9.1620600E-01;  3.5235891E+04;  0.0000000E+00; -8.4969324E-01;  4.0000000E+04;  0.0000000E+00;  3.9526859E+04;  1.0391716E+00;  0.0000000E+00; -1.2296560E-01;  1.9081118E+03;
  1.3403140E+00;  9.9999998E-03; -6.0297932E-02;9604;  8.7582076E-01;  0.0000000E+00;  1.4412657E-02;  9.9666998E+02;  1.0679749E-01; -2.5348162E+03;3; -4.9748047E+01;  0.0000000E+00; -2.2753340E-01;0;  8.4821153E-01;  3.5246273E+04;  0.0000000E+00; -1.0779126E+00;  4.0000000E+04;  0.0000000E+00;  3.9525953E+04;  9.6303493E-01;  0.0000000E+00; -1.1482340E-01;  1.8424661E+03;
  1.3403140E+00;  9.9999998E-03;  6.0297914E-02;9616;  8.7582082E-01;  0.0000000E+00; -1.4412874E-02;  9.9666986E+02;  1.0679745E-01; -2.5349070E+03;3; -4.9747993E+01;  0.0000000E+00;  2.2752173E-01;0;  8.4821182E-01;  3.5246273E+04;  0.0000000E+00; -1.0779122E+00;  4.0000000E+04;  0.0000000E+00;  3.9525953E+04;  9.6303535E-01;  0.0000000E+00; -1.1482352E-01;  1.8424644E+03;
  1.3402700E+00;  9.9999998E-03; -1.0042494E-01;9600;  8.5286164E-01;  0.0000000E+00;  2.0010956E-02;  9.9686267E+02;  1.0679454E-01; -2.3882917E+03;3; -4.1763298E+01;  0.0000000E+00; -6.6348925E+00;0;  4.8500851E-01;  3.5269828E+04;  0.0000000E+00;  1.2815734E+00;  4.0000000E+04;  0.0000000E+00;  3.9520660E+04;  5.6761092E-01;  0.0000000E+00; -8.2602419E-02;  2.1309878E+03;
  1.3403243E+00;  9.9999998E-03; -9.0391196E-02;9601;  8.6115837E-01;  0.0000000E+00;  1.9599959E-02;  9.9689111E+02;  1.0679577E-01; -2.3664607E+03;3; -4.6407333E+01;  0.0000000E+00; -4.7875600E+00;0;  5.8683741E-01;  3.5269730E+04;  0.0000000E+00; -2.4244162E-01;  4.0000000E+04;  0.0000000E+00;  3.9520867E+04;  6.7708290E-01;  0.0000000E+00; -9.0245500E-02;  1.4643395E+03;
  1.3403500E+00;  9.9999998E-03; -8.0361307E-02;9602;  8.6795324E-01;  0.0000000E+00;  1.8454652E-02;  9.9685797E+02;  1.0679664E-01; -2.3916187E+03;3; -4.9038448E+01;  0.0000000E+00; -2.9453294E+00;0;  6.8224591E-01;  3.5264723E+04;  0.0000000E+00; -9.6692806E-01;  4.0000000E+04;  0.0000000E+00;  3.9522445E+04;  7.8041512E-01;  0.0000000E+00; -9.8169193E-02;  1.5267494E+03;
  1.3403463E+00;  9.9999998E-03; -7.0331126E-02;9603;  8.7303096E-01;  0.0000000E+00;  1.6640132E-02;  9.9677869E+02;  1.0679661E-01; -2.4520161E+03;3; -4.9906055E+01;  0.0000000E+00; -1.2962645E+00;0;  7.6985657E-01;  3.5256418E+04;  0.0000000E+00; -1.1705481E+00;  4.0000000E+04;  0.0000000E+00;  3.9524496E+04;  8.7628841E-01;  0.0000000E+00; -1.0643185E-01;  1.7146865E+03;
  1.3506036E+00;  9.9999998E-03; -1.0063425E-02;9657;  8.9352244E-01;  0.0000000E+00;  2.3767033E-03;  9.9637012E+02;  1.0651819E-01; -2.7299087E+03;3; -4.3438694E+01;  0.0000000E+00;  6.2433845E-01;0;  1.1567510E+00;  3.5458176E+04;  0.0000000E+00; -6.6286691E-02;  4.0000000E+04;  0.0000000E+00;  3.9471105E+04;  1.2882355E+00;  0.0000000E+00; -1.3148455E-01;  8.7443335E+02;
  1.3505785E+00;  9.9999998E-03; -9.1893968E-09;9658;  8.9320493E-01;  0.0000000E+00; -1.1157558E-07;  9.9635010E+02;  1.0651842E-01; -2.7450559E+03;3; -4.3183018E+01;  0.0000000E+00;  9.3989074E-06;0;  1.1633282E+00;  3.5456750E+04;  0.0000000E+00; -9.3912057E-12;  4.0000000E+04;  0.0000000E+00;  3.9470801E+04;  1.2957587E+00;  0.0000000E+00; -1.3243057E-01;  8.6691083E+02;
  1.3506036E+00;  9.9999998E-03;  1.0063406E-02;9659;  8.9352244E-01;  0.0000000E+00; -2.3769217E-03;  9.9637012E+02;  1.0651819E-01; -2.7299087E+03;3; -4.3438717E+01;  0.0000000E+00; -6.2431484E-01;0;  1.1567519E+00;  3.5458172E+04;  0.0000000E+00; -6.6285327E-02;  4.0000000E+04;  0.0000000E+00;  3.9471105E+04;  1.2882366E+00;  0.0000000E+00; -1.3148473E-01;  8.7443073E+02;
  1.3506644E+00;  9.9999998E-03; -2.0125087E-02;9656;  8.9455467E-01;  0.0000000E+00;  4.7607990E-03;  9.9642975E+02;  1.0651769E-01; -2.6848794E+03;3; -4.4090057E+01;  0.0000000E+00;  1.3026081E+00;0;  1.1370595E+00;  3.5462215E+04;  0.0000000E+00; -2.5657457E-01;  4.0000000E+04;  0.0000000E+00;  3.9471688E+04;  1.2658072E+00;  0.0000000E+00; -1.2874770E-01;  8.9959686E+02;
  1.3506644E+00;  9.9999998E-03;  2.0125069E-02;9660;  8.9455473E-01;  0.0000000E+00; -4.7610183E-03;  9.9642969E+02;  1.0651772E-01; -2.6849241E+03;3; -4.4090099E+01;  0.0000000E+00; -1.3025926E+00;0;  1.1370591E+00;  3.5462215E+04;  0.0000000E+00; -2.5657251E-01;  4.0000000E+04;  0.0000000E+00;  3.9471688E+04;  1.2658069E+00;  0.0000000E+00; -1.2874778E-01;  8.9959772E+02;
  1.3507379E+00;  9.9999998E-03; -3.0183822E-02;9655;  8.9622366E-01;  0.0000000E+00;  7.1540987E-03;  9.9652460E+02;  1.0651729E-01; -2.6133264E+03;3; -4.5269699E+01;  0.0000000E+00;  2.1068735E+00;0;  1.1044133E+00;  3.5468785E+04;  0.0000000E+00; -5.4447889E-01;  4.0000000E+04;  0.0000000E+00;  3.9472609E+04;  1.2288878E+00;  0.0000000E+00; -1.2447459E-01;  9.4577356E+02;
  1.3507379E+00;  9.9999998E-03;  3.0183803E-02;9661;  8.9622378E-01;  0.0000000E+00; -7.1543185E-03;  9.9652460E+02;  1.0651729E-01; -2.6133264E+03;3; -4.5269707E+01;  0.0000000E+00; -2.1068528E+00;0;  1.1044127E+00;  3.5468781E+04;  0.0000000E+00; -5.4447573E-01;  4.0000000E+04;  0.0000000E+00;  3.9472609E+04;  1.2288873E+00;  0.0000000E+00; -1.2447469E-01;  9.4576898E+02;
  1.3508362E+00;  9.9999998E-03; -1.0049912E-01;9648;  8.6380005E-01;  0.0000000E+00;  2.0053204E-02;  9.9689203E+02;  1.0651243E-01; -2.3367300E+03;3; -4.8364754E+01;  0.0000000E+00; -2.5680912E+00;0;  5.4844379E-01;  3.5496918E+04;  0.0000000E+00;  3.3686583E+00;  4.0000000E+04;  0.0000000E+00;  3.9479457E+04;  6.3463950E-01;  0.0000000E+00; -8.6195685E-02;  3.1367576E+03;
  1.3508158E+00;  9.9999998E-03; -4.0238794E-02;9654;  8.9785707E-01;  0.0000000E+00;  9.6394243E-03;  9.9664172E+02;  1.0651643E-01; -2.5250122E+03;3; -4.7197582E+01;  0.0000000E+00;  2.7660444E+00;0;  1.0591781E+00;  3.5476969E+04;  0.0000000E+00; -8.8465482E-01;  4.0000000E+04;  0.0000000E+00;  3.9473281E+04;  1.1781982E+00;  0.0000000E+00; -1.1902009E-01;  1.0079457E+03;
  1.3508158E+00;  9.9999998E-03;  4.0238775E-02;9662;  8.9785719E-01;  0.0000000E+00; -9.6396459E-03;  9.9664178E+02;  1.0651638E-01; -2.5249673E+03;3; -4.7197491E+01;  0.0000000E+00; -2.7660584E+00;0;  1.0591776E+00;  3.5476973E+04;  0.0000000E+00; -8.8465106E-01;  4.0000000E+04;  0.0000000E+00;  3.9473285E+04;  1.1781979E+00;  0.0000000E+00; -1.1902019E-01;  1.0079395E+03;
  1.3509196E+00;  9.9999998E-03; -9.0454549E-02;9649;  8.7536496E-01;  0.0000000E+00;  1.9990774E-02;  9.9695648E+02;  1.0651243E-01; -2.2880488E+03;3; -5.1395126E+01;  0.0000000E+00; -3.7417305E-01;0;  6.5943778E-01;  3.5503621E+04;  0.0000000E+00;  8.0589163E-01;  4.0000000E+04;  0.0000000E+00;  3.9476090E+04;  7.4967080E-01;  0.0000000E+00; -9.0233020E-02;  1.5255265E+03;
  1.3508854E+00;  9.9999998E-03; -5.0288722E-02;9653;  8.9809591E-01;  0.0000000E+00;  1.2203961E-02;  9.9676385E+02;  1.0651606E-01; -2.4329758E+03;3; -4.9189217E+01;  0.0000000E+00;  3.5017424E+00;0;  1.0016469E+00;  3.5486059E+04;  0.0000000E+00; -1.2055110E+00;  4.0000000E+04;  0.0000000E+00;  3.9473941E+04;  1.1144881E+00;  0.0000000E+00; -1.1284120E-01;  1.0616447E+03;
  1.3508854E+00;  9.9999998E-03;  5.0288703E-02;9663;  8.9809602E-01;  0.0000000E+00; -1.2204183E-02;  9.9676392E+02;  1.0651606E-01; -2.4328862E+03;3; -4.9189137E+01;  0.0000000E+00; -3.5017362E+00;0;  1.0016470E+00;  3.5486055E+04;  0.0000000E+00; -1.2055079E+00;  4.0000000E+04;  0.0000000E+00;  3.9473945E+04;  1.1144884E+00;  0.0000000E+00; -1.1284138E-01;  1.0616399E+03;
  1.3509599E+00;  9.9999998E-03; -8.0413990E-02;9650;  8.8467181E-01;  0.0000000E+00;  1.8965615E-02;  9.9698169E+02;  1.0651354E-01; -2.2689805E+03;3; -5.2630161E+01;  0.0000000E+00;  1.3973100E+00;0;  7.6060760E-01;  3.5504855E+04;  0.0000000E+00; -6.4108092E-01;  4.0000000E+04;  0.0000000E+00;  3.9474738E+04;  8.5547191E-01;  0.0000000E+00; -9.4864339E-02;  9.0341357E+02;
  1.3509374E+00;  9.9999998E-03; -6.0333215E-02;9652;  8.9616090E-01;  0.0000000E+00;  1.4831728E-02;  9.9686823E+02;  1.0651501E-01; -2.3543142E+03;3; -5.0770504E+01;  0.0000000E+00;  3.3145397E+00;0;  9.3230826E-01;  3.5494711E+04;  0.0000000E+00; -1.3933932E+00;  4.0000000E+04;  0.0000000E+00;  3.9474141E+04;  1.0387608E+00;  0.0000000E+00; -1.0645252E-01;  1.0603181E+03;
  1.3509374E+00;  9.9999998E-03;  6.0333196E-02;9664;  8.9616102E-01;  0.0000000E+00; -1.4831950E-02;  9.9686823E+02;  1.0651501E-01; -2.3543142E+03;3; -5.0770405E+01;  0.0000000E+00; -3.3145635E+00;0;  9.3230712E-01;  3.5494711E+04;  0.0000000E+00; -1.3933923E+00;  4.0000000E+04;  0.0000000E+00;  3.9474141E+04;  1.0387599E+00;  0.0000000E+00; -1.0645281E-01;  1.0603148E+03;
  1.3509643E+00;  9.9999998E-03; -7.0374280E-02;9651;  8.9173323E-01;  0.0000000E+00;  1.7171869E-02;  9.9694617E+02;  1.0651410E-01; -2.2956726E+03;3; -5.2473225E+01;  0.0000000E+00;  2.6107843E+00;0;  8.5179442E-01;  3.5501422E+04;  0.0000000E+00; -1.2809722E+00;  4.0000000E+04;  0.0000000E+00;  3.9474371E+04;  9.5212442E-01;  0.0000000E+00; -1.0032997E-01;  9.6182812E+02;
  1.3611580E+00;  9.9999998E-03; -1.0079458E-02;9704;  9.1604829E-01;  0.0000000E+00;  2.3191329E-03;  9.9654156E+02;  1.0627706E-01; -2.5652305E+03;3; -4.0574249E+01;  0.0000000E+00;  1.2158746E+00;0;  1.2210220E+00;  3.5685055E+04;  0.0000000E+00; -9.1670699E-02;  4.0000000E+04;  0.0000000E+00;  3.9412973E+04;  1.3324598E+00;  0.0000000E+00; -1.1143775E-01;  4.0858624E+01;
  1.3611345E+00;  9.9999998E-03; -9.2483479E-09;9705;  9.1557568E-01;  0.0000000E+00; -1.1080225E-07;  9.9652765E+02;  1.0627684E-01; -2.5756150E+03;3; -4.0193703E+01;  0.0000000E+00;  4.0866435E-06;0;  1.2273424E+00;  3.5684027E+04;  0.0000000E+00; -7.2183357E-12;  4.0000000E+04;  0.0000000E+00;  3.9412820E+04;  1.3395451E+00;  0.0000000E+00; -1.1220276E-01;  7.4957328E+00;
  1.3611580E+00;  9.9999998E-03;  1.0079441E-02;9706;  9.1604859E-01;  0.0000000E+00; -2.3193532E-03;  9.9654163E+02;  1.0627703E-01; -2.5651863E+03;3; -4.0574169E+01;  0.0000000E+00; -1.2158571E+00;0;  1.2210232E+00;  3.5685055E+04;  0.0000000E+00; -9.1668874E-02;  4.0000000E+04;  0.0000000E+00;  3.9412973E+04;  1.3324611E+00;  0.0000000E+00; -1.1143786E-01;  4.0857700E+01;
  1.3612170E+00;  9.9999998E-03; -2.0148331E-02;9703;  9.1727239E-01;  0.0000000E+00;  4.6333233E-03;  9.9658893E+02;  1.0627619E-01; -2.5298762E+03;3; -4.1449169E+01;  0.0000000E+00;  2.6177666E+00;0;  1.2021055E+00;  3.5688211E+04;  0.0000000E+00; -3.4789571E-01;  4.0000000E+04;  0.0000000E+00;  3.9413766E+04;  1.3113621E+00;  0.0000000E+00; -1.0925660E-01;  1.5629929E+02;
  1.3612170E+00;  9.9999998E-03;  2.0148313E-02;9707;  9.1727257E-01;  0.0000000E+00; -4.6335445E-03;  9.9658893E+02;  1.0627619E-01; -2.5298762E+03;3; -4.1449162E+01;  0.0000000E+00; -2.6177557E+00;0;  1.2021060E+00;  3.5688215E+04;  0.0000000E+00; -3.4789139E-01;  4.0000000E+04;  0.0000000E+00;  3.9413766E+04;  1.3113626E+00;  0.0000000E+00; -1.0925657E-01;  1.5629703E+02;
  1.3612891E+00;  9.9999998E-03; -3.0211970E-02;9702;  9.1899192E-01;  0.0000000E+00;  7.0194830E-03;  9.9666779E+02;  1.0627543E-01; -2.4711436E+03;3; -4.3060555E+01;  0.0000000E+00;  3.9347847E+00;0;  1.1708971E+00;  3.5693473E+04;  0.0000000E+00; -7.1515560E-01;  4.0000000E+04;  0.0000000E+00;  3.9415062E+04;  1.2768544E+00;  0.0000000E+00; -1.0595722E-01;  3.1583646E+02;
  1.3612891E+00;  9.9999998E-03;  3.0211952E-02;9708;  9.1899222E-01;  0.0000000E+00; -7.0197126E-03;  9.9666779E+02;  1.0627543E-01; -2.4711436E+03;3; -4.3060516E+01;  0.0000000E+00; -3.9347966E+00;0;  1.1708956E+00;  3.5693473E+04;  0.0000000E+00; -7.1515262E-01;  4.0000000E+04;  0.0000000E+00;  3.9415062E+04;  1.2768530E+00;  0.0000000E+00; -1.0595737E-01;  3.1583374E+02;
  1.3613642E+00;  9.9999998E-03; -4.0270895E-02;9701;  9.2005086E-01;  0.0000000E+00;  9.4986130E-03;  9.9675842E+02;  1.0627420E-01; -2.4037053E+03;3; -4.5506756E+01;  0.0000000E+00;  5.1535759E+00;0;  1.1274394E+00;  3.5699758E+04;  0.0000000E+00; -1.1040560E+00;  4.0000000E+04;  0.0000000E+00;  3.9416688E+04;  1.2293884E+00;  0.0000000E+00; -1.0194897E-01;  4.7143005E+02;
  1.3613642E+00;  9.9999998E-03;  4.0270876E-02;9709;  9.2005092E-01;  0.0000000E+00; -9.4988318E-03;  9.9675842E+02;  1.0627420E-01; -2.4037053E+03;3; -4.5506660E+01;  0.0000000E+00; -5.1535735E+00;0;  1.1274402E+00;  3.5699750E+04;  0.0000000E+00; -1.1040525E+00;  4.0000000E+04;  0.0000000E+00;  3.9416688E+04;  1.2293894E+00;  0.0000000E+00; -1.0194919E-01;  4.7142838E+02;
  1.3614334E+00;  9.9999998E-03; -5.0326131E-02;9700;  9.1937351E-01;  0.0000000E+00;  1.2199992E-02;  9.9684930E+02;  1.0627364E-01; -2.3360793E+03;3; -4.8219769E+01;  0.0000000E+00;  6.5944009E+00;0;  1.0717707E+00;  3.5705676E+04;  0.0000000E+00; -1.3843383E+00;  4.0000000E+04;  0.0000000E+00;  3.9418441E+04;  1.1695224E+00;  0.0000000E+00; -9.7751781E-02;  5.5693536E+02;
  1.3614334E+00;  9.9999998E-03;  5.0326113E-02;9710;  9.1937363E-01;  0.0000000E+00; -1.2200212E-02;  9.9684930E+02;  1.0627364E-01; -2.3360793E+03;3; -4.8219746E+01;  0.0000000E+00; -6.5943747E+00;0;  1.0717721E+00;  3.5705672E+04;  0.0000000E+00; -1.3843285E+00;  4.0000000E+04;  0.0000000E+00;  3.9418438E+04;  1.1695240E+00;  0.0000000E+00; -9.7751871E-02;  5.5693396E+02;
  1.3614849E+00;  9.9999998E-03; -6.0379617E-02;9699;  9.1634953E-01;  0.0000000E+00;  1.4858831E-02;  9.9691516E+02;  1.0627276E-01; -2.2870818E+03;3; -5.1315456E+01;  0.0000000E+00;  7.0616617E+00;0;  1.0040398E+00;  3.5709797E+04;  0.0000000E+00; -1.3778839E+00;  4.0000000E+04;  0.0000000E+00;  3.9420352E+04;  1.0979540E+00;  0.0000000E+00; -9.3914248E-02;  4.9930490E+02;
  1.3614849E+00;  9.9999998E-03;  6.0379598E-02;9711;  9.1634953E-01;  0.0000000E+00; -1.4859039E-02;  9.9691510E+02;  1.0627268E-01; -2.2871260E+03;3; -5.1315456E+01;  0.0000000E+00; -7.0616941E+00;0;  1.0040410E+00;  3.5709789E+04;  0.0000000E+00; -1.3778805E+00;  4.0000000E+04;  0.0000000E+00;  3.9420352E+04;  1.0979553E+00;  0.0000000E+00; -9.3914442E-02;  4.9929922E+02;
  1.3615071E+00;  9.9999998E-03; -7.0431508E-02;9698;  9.1031313E-01;  0.0000000E+00;  1.7158812E-02;  9.9693451E+02;  1.0627130E-01; -2.2726501E+03;3; -5.4345360E+01;  0.0000000E+00;  6.6626129E+00;0;  9.2390347E-01;  3.5710812E+04;  0.0000000E+00; -8.5155839E-01;  4.0000000E+04;  0.0000000E+00;  3.9422535E+04;  1.0148350E+00;  0.0000000E+00; -9.0931512E-02;  3.9396420E+02;
  1.3614875E+00;  9.9999998E-03; -8.0482610E-02;9697;  9.0123552E-01;  0.0000000E+00;  1.8841324E-02;  9.9691412E+02;  1.0627063E-01; -2.2878247E+03;3; -5.5829113E+01;  0.0000000E+00;  5.4280639E+00;0;  8.3099598E-01;  3.5707973E+04;  0.0000000E+00;  4.7781557E-01;  4.0000000E+04;  0.0000000E+00;  3.9425621E+04;  9.2015350E-01;  0.0000000E+00; -8.9157522E-02;  1.0278608E+03;
  1.3612844E+00;  9.9999998E-03; -1.0059423E-01;9695;  8.7464404E-01;  0.0000000E+00;  1.9070236E-02;  9.9683252E+02;  1.0627162E-01; -2.3490276E+03;3; -5.3090218E+01;  0.0000000E+00;  1.6560551E+00;0;  6.0425317E-01;  3.5692730E+04;  0.0000000E+00;  6.8000770E+00;  4.0000000E+04;  0.0000000E+00;  3.9437270E+04;  6.9279534E-01;  0.0000000E+00; -8.8542141E-02;  4.7757998E+03;
  1.3614156E+00;  9.9999998E-03; -9.0535492E-02;9696;  8.8920498E-01;  0.0000000E+00;  1.9587018E-02;  9.9687250E+02;  1.0627121E-01; -2.3189453E+03;3; -5.5720985E+01;  0.0000000E+00;  3.9423273E+00;0;  7.2463852E-01;  3.5701438E+04;  0.0000000E+00;  2.9235938E+00;  4.0000000E+04;  0.0000000E+00;  3.9430262E+04;  8.1321502E-01;  0.0000000E+00; -8.8576511E-02;  2.4856685E+03;
  1.3716599E+00;  9.9999998E-03; -9.1718997E-09;9751;  9.4147563E-01;  0.0000000E+00; -1.1277663E-07;  9.9665265E+02;  1.0607050E-01; -2.4451025E+03;3; -3.7734520E+01;  0.0000000E+00;  1.6126782E-05;0;  1.2764915E+00;  3.5888414E+04;  0.0000000E+00; -6.0504106E-12;  4.0000000E+04;  0.0000000E+00;  3.9352176E+04;  1.3623101E+00;  0.0000000E+00; -8.5818559E-02;  6.8129193E+02;
  1.3716772E+00;  9.9999998E-03; -1.0087457E-02;9750;  9.4176018E-01;  0.0000000E+00;  2.0977180E-03;  9.9666602E+02;  1.0607083E-01; -2.4352849E+03;3; -3.8130329E+01;  0.0000000E+00;  2.0581608E+00;0;  1.2708030E+00;  3.5889055E+04;  0.0000000E+00; -1.0556359E-01;  4.0000000E+04;  0.0000000E+00;  3.9352574E+04;  1.3561219E+00;  0.0000000E+00; -8.5318983E-02;  6.6601880E+02;
  1.3716772E+00;  9.9999998E-03;  1.0087438E-02;9752;  9.4176024E-01;  0.0000000E+00; -2.0979445E-03;  9.9666602E+02;  1.0607083E-01; -2.4352849E+03;3; -3.8130325E+01;  0.0000000E+00; -2.0581455E+00;0;  1.2708037E+00;  3.5889055E+04;  0.0000000E+00; -1.0556120E-01;  4.0000000E+04;  0.0000000E+00;  3.9352574E+04;  1.3561227E+00;  0.0000000E+00; -8.5319005E-02;  6.6601843E+02;
  1.3717278E+00;  9.9999998E-03; -2.0161165E-02;9749;  9.4256961E-01;  0.0000000E+00;  4.3074186E-03;  9.9669934E+02;  1.0607015E-01; -2.4107603E+03;3; -3.9052631E+01;  0.0000000E+00;  4.0084972E+00;0;  1.2539251E+00;  3.5890594E+04;  0.0000000E+00; -3.8851014E-01;  4.0000000E+04;  0.0000000E+00;  3.9353695E+04;  1.3378506E+00;  0.0000000E+00; -8.3925448E-02;  6.2892450E+02;
  1.3717278E+00;  9.9999998E-03;  2.0161144E-02;9753;  9.4256961E-01;  0.0000000E+00; -4.3076407E-03;  9.9669934E+02;  1.0607015E-01; -2.4107603E+03;3; -3.9052608E+01;  0.0000000E+00; -4.0084324E+00;0;  1.2539238E+00;  3.5890590E+04;  0.0000000E+00; -3.8850608E-01;  4.0000000E+04;  0.0000000E+00;  3.9353695E+04;  1.3378494E+00;  0.0000000E+00; -8.3925620E-02;  6.2892987E+02;
  1.3717963E+00;  9.9999998E-03; -3.0229917E-02;9748;  9.4354570E-01;  0.0000000E+00;  6.5755099E-03;  9.9674878E+02;  1.0607002E-01; -2.3743772E+03;3; -4.1060410E+01;  0.0000000E+00;  6.0572171E+00;0;  1.2261230E+00;  3.5892734E+04;  0.0000000E+00; -7.6072133E-01;  4.0000000E+04;  0.0000000E+00;  3.9355645E+04;  1.3080742E+00;  0.0000000E+00; -8.1951298E-02;  5.9290302E+02;
  1.3717963E+00;  9.9999998E-03;  3.0229898E-02;9754;  9.4354600E-01;  0.0000000E+00; -6.5757432E-03;  9.9674878E+02;  1.0607002E-01; -2.3743772E+03;3; -4.1060520E+01;  0.0000000E+00; -6.0572085E+00;0;  1.2261249E+00;  3.5892738E+04;  0.0000000E+00; -7.6071888E-01;  4.0000000E+04;  0.0000000E+00;  3.9355645E+04;  1.3080764E+00;  0.0000000E+00; -8.1951454E-02;  5.9290210E+02;
  1.3718712E+00;  9.9999998E-03; -4.0295843E-02;9747;  9.4349730E-01;  0.0000000E+00;  9.0213614E-03;  9.9679590E+02;  1.0606959E-01; -2.3397197E+03;3; -4.4033749E+01;  0.0000000E+00;  8.3387575E+00;0;  1.1868517E+00;  3.5894531E+04;  0.0000000E+00; -1.0818472E+00;  4.0000000E+04;  0.0000000E+00;  3.9358270E+04;  1.2667167E+00;  0.0000000E+00; -7.9864919E-02;  5.3967596E+02;
  1.3718712E+00;  9.9999998E-03;  4.0295824E-02;9755;  9.4349736E-01;  0.0000000E+00; -9.0215756E-03;  9.9679584E+02;  1.0606960E-01; -2.3397634E+03;3; -4.4033710E+01;  0.0000000E+00; -8.3387127E+00;0;  1.1868534E+00;  3.5894531E+04;  0.0000000E+00; -1.0818436E+00;  4.0000000E+04;  0.0000000E+00;  3.9358270E+04;  1.2667183E+00;  0.0000000E+00; -7.9864889E-02;  5.3967737E+02;
  1.3719389E+00;  9.9999998E-03; -5.0361190E-02;9746;  9.4147128E-01;  0.0000000E+00;  1.1722594E-02;  9.9682117E+02;  1.0606899E-01; -2.3210237E+03;3; -4.7622303E+01;  0.0000000E+00;  1.0058881E+01;0;  1.1355306E+00;  3.5894469E+04;  0.0000000E+00; -1.1611305E+00;  4.0000000E+04;  0.0000000E+00;  3.9361414E+04;  1.2137960E+00;  0.0000000E+00; -7.8265466E-02;  3.9052805E+02;
  1.3719389E+00;  9.9999998E-03;  5.0361171E-02;9756;  9.4147146E-01;  0.0000000E+00; -1.1722815E-02;  9.9682117E+02;  1.0606899E-01; -2.3210237E+03;3; -4.7622215E+01;  0.0000000E+00; -1.0058840E+01;0;  1.1355312E+00;  3.5894477E+04;  0.0000000E+00; -1.1611224E+00;  4.0000000E+04;  0.0000000E+00;  3.9361414E+04;  1.2137969E+00;  0.0000000E+00; -7.8265622E-02;  3.9052972E+02;
  1.3716320E+00;  9.9999998E-03; -1.0070932E-01;9741;  8.8611311E-01;  0.0000000E+00;  1.7304255E-02;  9.9687732E+02;  1.0606778E-01; -2.2811013E+03;3; -5.9580193E+01;  0.0000000E+00;  5.3072486E+00;0;  6.5655655E-01;  3.5874070E+04;  0.0000000E+00;  1.1599521E+01;  4.0000000E+04;  0.0000000E+00;  3.9393531E+04;  7.4611002E-01;  0.0000000E+00; -8.9553475E-02;  6.6909180E+03;
  1.3718075E+00;  9.9999998E-03; -9.0624340E-02;9742;  9.0243632E-01;  0.0000000E+00;  1.8168129E-02;  9.9679193E+02;  1.0606706E-01; -2.3428215E+03;3; -6.0755268E+01;  0.0000000E+00;  8.0277634E+00;0;  7.8561753E-01;  3.5876371E+04;  0.0000000E+00;  6.3302131E+00;  4.0000000E+04;  0.0000000E+00;  3.9384320E+04;  8.7072992E-01;  0.0000000E+00; -8.5112378E-02;  3.9491072E+03;
  1.3719816E+00;  9.9999998E-03; -6.0426578E-02;9745;  9.3676931E-01;  0.0000000E+00;  1.4325335E-02;  9.9681415E+02;  1.0606746E-01; -2.3260063E+03;3; -5.2485825E+01;  0.0000000E+00;  1.1126284E+01;0;  1.0714551E+00;  3.5892086E+04;  0.0000000E+00; -7.5909394E-01;  4.0000000E+04;  0.0000000E+00;  3.9365273E+04;  1.1491570E+00;  0.0000000E+00; -7.7701963E-02;  4.1920254E+01;
  1.3719816E+00;  9.9999998E-03;  6.0426559E-02;9757;  9.3676943E-01;  0.0000000E+00; -1.4325543E-02;  9.9681415E+02;  1.0606746E-01; -2.3260063E+03;3; -5.2485706E+01;  0.0000000E+00; -1.1126288E+01;0;  1.0714544E+00;  3.5892086E+04;  0.0000000E+00; -7.5908905E-01;  4.0000000E+04;  0.0000000E+00;  3.9365273E+04;  1.1491566E+00;  0.0000000E+00; -7.7702209E-02;  4.1921261E+01;
  1.3719279E+00;  9.9999998E-03; -8.0554560E-02;9743;  9.1684014E-01;  0.0000000E+00;  1.7841002E-02;  9.9676044E+02;  1.0606640E-01; -2.3654111E+03;3; -5.9805107E+01;  0.0000000E+00;  9.8261538E+00;0;  8.9754623E-01;  3.5881207E+04;  0.0000000E+00;  2.6703508E+00;  4.0000000E+04;  0.0000000E+00;  3.9376293E+04;  9.7872061E-01;  0.0000000E+00; -8.1174396E-02;  1.9928872E+03;
  1.3719829E+00;  9.9999998E-03; -7.0490614E-02;9744;  9.2856175E-01;  0.0000000E+00;  1.6476432E-02;  9.9678491E+02;  1.0606675E-01; -2.3473254E+03;3; -5.6804207E+01;  0.0000000E+00;  1.0925333E+01;0;  9.9266547E-01;  3.5887312E+04;  0.0000000E+00;  4.1117471E-01;  4.0000000E+04;  0.0000000E+00;  3.9370055E+04;  1.0712829E+00;  0.0000000E+00; -7.8617394E-02;  7.2145795E+02;
  1.3821846E+00;  9.9999998E-03; -9.1010337E-09;9795;  9.6913755E-01;  0.0000000E+00; -1.1422787E-07;  9.9669904E+02;  1.0589492E-01; -2.3707529E+03;3; -3.5684624E+01;  0.0000000E+00;  2.5313348E-05;0;  1.3255770E+00;  3.6068527E+04;  0.0000000E+00; -7.2766307E-12;  4.0000000E+04;  0.0000000E+00;  3.9290133E+04;  1.3799157E+00;  0.0000000E+00; -5.4338641E-02;  1.1048866E+03;
  1.3822000E+00;  9.9999998E-03; -1.0085531E-02;9794;  9.6925354E-01;  0.0000000E+00;  1.7389263E-03;  9.9670129E+02;  1.0589535E-01; -2.3690649E+03;3; -3.6032440E+01;  0.0000000E+00;  3.4152532E+00;0;  1.3210999E+00;  3.6068023E+04;  0.0000000E+00; -9.3341514E-02;  4.0000000E+04;  0.0000000E+00;  3.9290641E+04;  1.3752320E+00;  0.0000000E+00; -5.4132070E-02;  1.0762314E+03;
  1.3822000E+00;  9.9999998E-03;  1.0085512E-02;9796;  9.6925354E-01;  0.0000000E+00; -1.7391559E-03;  9.9670129E+02;  1.0589535E-01; -2.3690649E+03;3; -3.6032341E+01;  0.0000000E+00; -3.4152107E+00;0;  1.3210982E+00;  3.6068031E+04;  0.0000000E+00; -9.3338795E-02;  4.0000000E+04;  0.0000000E+00;  3.9290645E+04;  1.3752303E+00;  0.0000000E+00; -5.4132074E-02;  1.0762292E+03;
  1.3822438E+00;  9.9999998E-03; -2.0160450E-02;9793;  9.6931356E-01;  0.0000000E+00;  3.5460512E-03;  9.9669910E+02;  1.0589498E-01; -2.3704744E+03;3; -3.7216991E+01;  0.0000000E+00;  6.3908644E+00;0;  1.3073654E+00;  3.6066684E+04;  0.0000000E+00; -3.2369235E-01;  4.0000000E+04;  0.0000000E+00;  3.9292469E+04;  1.3609954E+00;  0.0000000E+00; -5.3629972E-02;  9.8893555E+02;
  1.3822438E+00;  9.9999998E-03;  2.0160433E-02;9797;  9.6931440E-01;  0.0000000E+00; -3.5463043E-03;  9.9669916E+02;  1.0589492E-01; -2.3704316E+03;3; -3.7217064E+01;  0.0000000E+00; -6.3909254E+00;0;  1.3073685E+00;  3.6066680E+04;  0.0000000E+00; -3.2369110E-01;  4.0000000E+04;  0.0000000E+00;  3.9292473E+04;  1.3609986E+00;  0.0000000E+00; -5.3630143E-02;  9.8893176E+02;
  1.3823065E+00;  9.9999998E-03; -3.0232687E-02;9792;  9.6877354E-01;  0.0000000E+00;  5.5225831E-03;  9.9668549E+02;  1.0589471E-01; -2.3799814E+03;3; -3.9782536E+01;  0.0000000E+00;  9.8297968E+00;0;  1.2839473E+00;  3.6063656E+04;  0.0000000E+00; -5.6970191E-01;  4.0000000E+04;  0.0000000E+00;  3.9295309E+04;  1.3371241E+00;  0.0000000E+00; -5.3176705E-02;  8.4256909E+02;
  1.3823065E+00;  9.9999998E-03;  3.0232668E-02;9798;  9.6877325E-01;  0.0000000E+00; -5.5227871E-03;  9.9668549E+02;  1.0589475E-01; -2.3799817E+03;3; -3.9782494E+01;  0.0000000E+00; -9.8297319E+00;0;  1.2839475E+00;  3.6063656E+04;  0.0000000E+00; -5.6969595E-01;  4.0000000E+04;  0.0000000E+00;  3.9295305E+04;  1.3371243E+00;  0.0000000E+00; -5.3176850E-02;  8.4257343E+02;
  1.3823704E+00;  9.9999998E-03; -4.0308874E-02;9791;  9.6671957E-01;  0.0000000E+00;  7.7986359E-03;  9.9666144E+02;  1.0589415E-01; -2.3970144E+03;3; -4.3409885E+01;  0.0000000E+00;  1.2624814E+01;0;  1.2495265E+00;  3.6059102E+04;  0.0000000E+00; -6.5385461E-01;  4.0000000E+04;  0.0000000E+00;  3.9299285E+04;  1.3028697E+00;  0.0000000E+00; -5.3343181E-02;  6.2941357E+02;
  1.3823704E+00;  9.9999998E-03;  4.0308852E-02;9799;  9.6671969E-01;  0.0000000E+00; -7.7988571E-03;  9.9666144E+02;  1.0589425E-01; -2.3970144E+03;3; -4.3409874E+01;  0.0000000E+00; -1.2624771E+01;0;  1.2495253E+00;  3.6059109E+04;  0.0000000E+00; -6.5384358E-01;  4.0000000E+04;  0.0000000E+00;  3.9299285E+04;  1.3028687E+00;  0.0000000E+00; -5.3343434E-02;  6.2941913E+02;
  1.3824170E+00;  9.9999998E-03; -5.0389308E-02;9790;  9.6230155E-01;  0.0000000E+00;  1.0201101E-02;  9.9662360E+02;  1.0589366E-01; -2.4239980E+03;3; -4.8636139E+01;  0.0000000E+00;  1.4770565E+01;0;  1.2025046E+00;  3.6053035E+04;  0.0000000E+00; -3.4075946E-01;  4.0000000E+04;  0.0000000E+00;  3.9304293E+04;  1.2572117E+00;  0.0000000E+00; -5.4707076E-02;  3.7993161E+02;
  1.3824170E+00;  9.9999998E-03;  5.0389286E-02;9800;  9.6230155E-01;  0.0000000E+00; -1.0201301E-02;  9.9662360E+02;  1.0589366E-01; -2.4239980E+03;3; -4.8635937E+01;  0.0000000E+00; -1.4770504E+01;0;  1.2025075E+00;  3.6053035E+04;  0.0000000E+00; -3.4075537E-01;  4.0000000E+04;  0.0000000E+00;  3.9304301E+04;  1.2572148E+00;  0.0000000E+00; -5.4707315E-02;  3.7993100E+02;
  1.3819870E+00;  9.9999998E-03; -1.0085969E-01;9785;  8.9870298E-01;  0.0000000E+00;  1.4889847E-02;  9.9690363E+02;  1.0589255E-01; -2.2245762E+03;3; -7.0688820E+01;  0.0000000E+00;  7.6745677E+00;0;  7.1417987E-01;  3.6039234E+04;  0.0000000E+00;  1.6545486E+01;  4.0000000E+04;  0.0000000E+00;  3.9344383E+04;  8.0312896E-01;  0.0000000E+00; -8.8949084E-02;  8.1577134E+03;
  1.3824270E+00;  9.9999998E-03; -6.0471125E-02;9789;  9.5498157E-01;  0.0000000E+00;  1.2442303E-02;  9.9659283E+02;  1.0589288E-01; -2.4460371E+03;3; -5.4760769E+01;  0.0000000E+00;  1.5527617E+01;0;  1.1409867E+00;  3.6046688E+04;  0.0000000E+00;  6.5578187E-01;  4.0000000E+04;  0.0000000E+00;  3.9310297E+04;  1.1987729E+00;  0.0000000E+00; -5.7786219E-02;  6.5579797E+02;
  1.3824270E+00;  9.9999998E-03;  6.0471106E-02;9801;  9.5498157E-01;  0.0000000E+00; -1.2442497E-02;  9.9659277E+02;  1.0589290E-01; -2.4460798E+03;3; -5.4760513E+01;  0.0000000E+00; -1.5527522E+01;0;  1.1409866E+00;  3.6046688E+04;  0.0000000E+00;  6.5578341E-01;  4.0000000E+04;  0.0000000E+00;  3.9310297E+04;  1.1987730E+00;  0.0000000E+00; -5.7786409E-02;  6.5579877E+02;
  1.3821496E+00;  9.9999998E-03; -9.0738282E-02;9786;  9.1590923E-01;  0.0000000E+00;  1.5688127E-02;  9.9680444E+02;  1.0589274E-01; -2.2952039E+03;3; -6.9131943E+01;  0.0000000E+00;  1.1519451E+01;0;  8.5070890E-01;  3.6039789E+04;  0.0000000E+00;  1.0608222E+01;  4.0000000E+04;  0.0000000E+00;  3.9336066E+04;  9.2995530E-01;  0.0000000E+00; -7.9246379E-02;  5.4236606E+03;
  1.3822874E+00;  9.9999998E-03; -8.0639370E-02;9787;  9.3134993E-01;  0.0000000E+00;  1.5411688E-02;  9.9668915E+02;  1.0589263E-01; -2.3774478E+03;3; -6.5917030E+01;  0.0000000E+00;  1.4023187E+01;0;  9.6649379E-01;  3.6039961E+04;  0.0000000E+00;  5.9177504E+00;  4.0000000E+04;  0.0000000E+00;  3.9326570E+04;  1.0366982E+00;  0.0000000E+00; -7.0204414E-02;  3.2303804E+03;
  1.3823854E+00;  9.9999998E-03; -7.0553243E-02;9788;  9.4454849E-01;  0.0000000E+00;  1.4244325E-02;  9.9660919E+02;  1.0589305E-01; -2.4344404E+03;3; -6.0737217E+01;  0.0000000E+00;  1.5365606E+01;0;  1.0628260E+00;  3.6041727E+04;  0.0000000E+00;  2.6458263E+00;  4.0000000E+04;  0.0000000E+00;  3.9317820E+04;  1.1257404E+00;  0.0000000E+00; -6.2914394E-02;  1.6517998E+03;
  1.3927315E+00;  9.9999998E-03; -8.9764667E-09;9837;  9.9373138E-01;  0.0000000E+00; -1.2011382E-07;  9.9651355E+02;  1.0574681E-01; -2.4578850E+03;3; -3.4930641E+01;  0.0000000E+00;  6.8768859E-06;0;  1.3852493E+00;  3.6214801E+04;  0.0000000E+00; -7.0067741E-12;  4.0000000E+04;  0.0000000E+00;  3.9227750E+04;  1.4042408E+00;  0.0000000E+00; -1.8991617E-02;  1.1927928E+03;
  1.3927424E+00;  9.9999998E-03; -1.0083963E-02;9836;  9.9333584E-01;  0.0000000E+00;  7.0899166E-04;  9.9650659E+02;  1.0574730E-01; -2.4627522E+03;3; -3.5422447E+01;  0.0000000E+00;  5.9416223E+00;0;  1.3814515E+00;  3.6213527E+04;  0.0000000E+00; -4.6076193E-02;  4.0000000E+04;  0.0000000E+00;  3.9228438E+04;  1.4004701E+00;  0.0000000E+00; -1.9018708E-02;  1.1496862E+03;
  1.3927424E+00;  9.9999998E-03;  1.0083945E-02;9838;  9.9333704E-01;  0.0000000E+00; -7.0923381E-04;  9.9650665E+02;  1.0574728E-01; -2.4627100E+03;3; -3.5422600E+01;  0.0000000E+00; -5.9419656E+00;0;  1.3814567E+00;  3.6213512E+04;  0.0000000E+00; -4.6074968E-02;  4.0000000E+04;  0.0000000E+00;  3.9228438E+04;  1.4004755E+00;  0.0000000E+00; -1.9018762E-02;  1.1496646E+03;
  1.3927717E+00;  9.9999998E-03; -2.0159636E-02;9835;  9.9182498E-01;  0.0000000E+00;  1.5769824E-03;  9.9648340E+02;  1.0574723E-01; -2.4789639E+03;3; -3.7592144E+01;  0.0000000E+00;  1.2168489E+01;0;  1.3692003E+00;  3.6209598E+04;  0.0000000E+00; -1.1956522E-01;  4.0000000E+04;  0.0000000E+00;  3.9231176E+04;  1.3884486E+00;  0.0000000E+00; -1.9248229E-02;  1.0172203E+03;
  1.3927717E+00;  9.9999998E-03;  2.0159617E-02;9839;  9.9182498E-01;  0.0000000E+00; -1.5772224E-03;  9.9648340E+02;  1.0574723E-01; -2.4789639E+03;3; -3.7592140E+01;  0.0000000E+00; -1.2168463E+01;0;  1.3691988E+00;  3.6209602E+04;  0.0000000E+00; -1.1956268E-01;  4.0000000E+04;  0.0000000E+00;  3.9231176E+04;  1.3884472E+00;  0.0000000E+00; -1.9248426E-02;  1.0172235E+03;
  1.3928094E+00;  9.9999998E-03; -3.0238146E-02;9834;  9.8863250E-01;  0.0000000E+00;  2.8085876E-03;  9.9644562E+02;  1.0574723E-01; -2.5054294E+03;3; -4.1537197E+01;  0.0000000E+00;  1.7082874E+01;0;  1.3466636E+00;  3.6203520E+04;  0.0000000E+00; -8.3393618E-02;  4.0000000E+04;  0.0000000E+00;  3.9235391E+04;  1.3668113E+00;  0.0000000E+00; -2.0147705E-02;  8.0614935E+02;
  1.3928094E+00;  9.9999998E-03;  3.0238127E-02;9840;  9.8863268E-01;  0.0000000E+00; -2.8088444E-03;  9.9644562E+02;  1.0574723E-01; -2.5054294E+03;3; -4.1537262E+01;  0.0000000E+00; -1.7082851E+01;0;  1.3466635E+00;  3.6203520E+04;  0.0000000E+00; -8.3388753E-02;  4.0000000E+04;  0.0000000E+00;  3.9235395E+04;  1.3668114E+00;  0.0000000E+00; -2.0147959E-02;  8.0615015E+02;
  1.3928388E+00;  9.9999998E-03; -4.0333088E-02;9833;  9.8346144E-01;  0.0000000E+00;  4.4714473E-03;  9.9640637E+02;  1.0574707E-01; -2.5329375E+03;3; -4.6406307E+01;  0.0000000E+00;  2.0283354E+01;0;  1.3124379E+00;  3.6196648E+04;  0.0000000E+00;  2.2022383E-01;  4.0000000E+04;  0.0000000E+00;  3.9240809E+04;  1.3348080E+00;  0.0000000E+00; -2.2370122E-02;  5.9547229E+02;
  1.3928388E+00;  9.9999998E-03;  4.0333070E-02;9841;  9.8346156E-01;  0.0000000E+00; -4.4716825E-03;  9.9640637E+02;  1.0574707E-01; -2.5329375E+03;3; -4.6406147E+01;  0.0000000E+00; -2.0283316E+01;0;  1.3124371E+00;  3.6196652E+04;  0.0000000E+00;  2.2022802E-01;  4.0000000E+04;  0.0000000E+00;  3.9240809E+04;  1.3348075E+00;  0.0000000E+00; -2.2370400E-02;  5.9547656E+02;
  1.3928421E+00;  9.9999998E-03; -5.0439037E-02;9832;  9.7636324E-01;  0.0000000E+00;  6.3009565E-03;  9.9638934E+02;  1.0574601E-01; -2.5449382E+03;3; -5.2102005E+01;  0.0000000E+00;  2.0883072E+01;0;  1.2660335E+00;  3.6190996E+04;  0.0000000E+00;  1.0276623E+00;  4.0000000E+04;  0.0000000E+00;  3.9247094E+04;  1.2925467E+00;  0.0000000E+00; -2.6513275E-02;  6.9228180E+02;
  1.3928421E+00;  9.9999998E-03;  5.0439019E-02;9842;  9.7636360E-01;  0.0000000E+00; -6.3012466E-03;  9.9638934E+02;  1.0574608E-01; -2.5449382E+03;3; -5.2102055E+01;  0.0000000E+00; -2.0882872E+01;0;  1.2660351E+00;  3.6190992E+04;  0.0000000E+00;  1.0276947E+00;  4.0000000E+04;  0.0000000E+00;  3.9247094E+04;  1.2925487E+00;  0.0000000E+00; -2.6513532E-02;  6.9229944E+02;
  1.3928124E+00;  9.9999998E-03; -6.0545966E-02;9831;  9.6734017E-01;  0.0000000E+00;  8.0528622E-03;  9.9641821E+02;  1.0574590E-01; -2.5247004E+03;3; -5.8915398E+01;  0.0000000E+00;  2.0264582E+01;0;  1.2064959E+00;  3.6186965E+04;  0.0000000E+00;  2.6381602E+00;  4.0000000E+04;  0.0000000E+00;  3.9254711E+04;  1.2394639E+00;  0.0000000E+00; -3.2968093E-02;  1.3598470E+03;
  1.3928124E+00;  9.9999998E-03;  6.0545947E-02;9843;  9.6733969E-01;  0.0000000E+00; -8.0529051E-03;  9.9641815E+02;  1.0574585E-01; -2.5247424E+03;3; -5.8914581E+01;  0.0000000E+00; -2.0264822E+01;0;  1.2064942E+00;  3.6186965E+04;  0.0000000E+00;  2.6381593E+00;  4.0000000E+04;  0.0000000E+00;  3.9254711E+04;  1.2394624E+00;  0.0000000E+00; -3.2968115E-02;  1.3598484E+03;
  1.3924247E+00;  9.9999998E-03; -1.0102814E-01;9827;  9.0521306E-01;  0.0000000E+00;  8.2620820E-03;  9.9653027E+02;  1.0574554E-01; -2.4474553E+03;3; -7.7653557E+01;  0.0000000E+00;  1.0307635E+01;0;  7.5237793E-01;  3.6163770E+04;  0.0000000E+00;  1.9081034E+01;  4.0000000E+04;  0.0000000E+00;  3.9288516E+04;  8.3005148E-01;  0.0000000E+00; -7.7673562E-02;  8.2891475E+03;
  1.3925455E+00;  9.9999998E-03; -9.0881489E-02;9828;  9.2465591E-01;  0.0000000E+00;  1.0015240E-02;  9.9661328E+02;  1.0574556E-01; -2.3884019E+03;3; -7.6768417E+01;  0.0000000E+00;  1.4051428E+01;0;  9.0637475E-01;  3.6174984E+04;  0.0000000E+00;  1.3989450E+01;  4.0000000E+04;  0.0000000E+00;  3.9282938E+04;  9.7239429E-01;  0.0000000E+00; -6.6019520E-02;  6.1692119E+03;
  1.3926554E+00;  9.9999998E-03; -8.0756150E-02;9829;  9.4171077E-01;  0.0000000E+00;  1.0302779E-02;  9.9658301E+02;  1.0574576E-01; -2.4092690E+03;3; -7.3097694E+01;  0.0000000E+00;  1.7149891E+01;0;  1.0315892E+00;  3.6181336E+04;  0.0000000E+00;  9.2129707E+00;  4.0000000E+04;  0.0000000E+00;  3.9273996E+04;  1.0849282E+00;  0.0000000E+00; -5.3339019E-02;  4.1754326E+03;
  1.3927478E+00;  9.9999998E-03; -7.0648089E-02;9830;  9.5598888E-01;  0.0000000E+00;  9.4948225E-03;  9.9649829E+02;  1.0574562E-01; -2.4685686E+03;3; -6.6525352E+01;  0.0000000E+00;  1.9182058E+01;0;  1.1303740E+00;  3.6184422E+04;  0.0000000E+00;  5.3436122E+00;  4.0000000E+04;  0.0000000E+00;  3.9263918E+04;  1.1723346E+00;  0.0000000E+00; -4.1960601E-02;  2.5353928E+03;
  1.4032426E+00;  9.9999998E-03; -9.0090522E-09;9876;  1.0047894E+00;  0.0000000E+00; -1.3087707E-07;  9.9611902E+02;  1.0562196E-01; -2.6815728E+03;3; -3.9955681E+01;  0.0000000E+00; -1.2822449E-04;0;  1.4210807E+00;  3.6330727E+04;  0.0000000E+00; -5.7817332E-12;  4.0000000E+04;  0.0000000E+00;  3.9165727E+04;  1.4024482E+00;  0.0000000E+00;  1.8632568E-02;  9.6088239E+02;
  1.4032516E+00;  9.9999998E-03; -2.0170921E-02;9874;  1.0013140E+00;  0.0000000E+00; -8.5414021E-04;  9.9613342E+02;  1.0562180E-01; -2.6715581E+03;3; -4.2144951E+01;  0.0000000E+00;  6.9155703E+00;0;  1.4042592E+00;  3.6328055E+04;  0.0000000E+00;  2.0193329E-01;  4.0000000E+04;  0.0000000E+00;  3.9170438E+04;  1.3865457E+00;  0.0000000E+00;  1.7713530E-02;  7.8206982E+02;
  1.4032452E+00;  9.9999998E-03; -1.0090026E-02;9875;  1.0039314E+00;  0.0000000E+00; -1.9512347E-04;  9.9612067E+02;  1.0562190E-01; -2.6804053E+03;3; -4.0282139E+01;  0.0000000E+00;  2.8897164E+00;0;  1.4168669E+00;  3.6330031E+04;  0.0000000E+00;  2.9482398E-02;  4.0000000E+04;  0.0000000E+00;  3.9166984E+04;  1.3984758E+00;  0.0000000E+00;  1.8391183E-02;  9.1601154E+02;
  1.4032452E+00;  9.9999998E-03;  1.0090007E-02;9877;  1.0039316E+00;  0.0000000E+00;  1.9484371E-04;  9.9612067E+02;  1.0562190E-01; -2.6804053E+03;3; -4.0282219E+01;  0.0000000E+00; -2.8897178E+00;0;  1.4168675E+00;  3.6330023E+04;  0.0000000E+00;  2.9482702E-02;  4.0000000E+04;  0.0000000E+00;  3.9166984E+04;  1.3984765E+00;  0.0000000E+00;  1.8391050E-02;  9.1600922E+02;
  1.4032516E+00;  9.9999998E-03;  2.0170903E-02;9878;  1.0013143E+00;  0.0000000E+00;  8.5380161E-04;  9.9613342E+02;  1.0562180E-01; -2.6715581E+03;3; -4.2145267E+01;  0.0000000E+00; -6.9158468E+00;0;  1.4042608E+00;  3.6328055E+04;  0.0000000E+00;  2.0193595E-01;  4.0000000E+04;  0.0000000E+00;  3.9170438E+04;  1.3865474E+00;  0.0000000E+00;  1.7713262E-02;  7.8207117E+02;
  1.4032559E+00;  9.9999998E-03; -3.0267786E-02;9873;  9.9671042E-01;  0.0000000E+00; -1.7731220E-03;  9.9615308E+02;  1.0562219E-01; -2.6579861E+03;3; -4.6581413E+01;  0.0000000E+00;  1.5382439E+01;0;  1.3820330E+00;  3.6325090E+04;  0.0000000E+00;  5.9522057E-01;  4.0000000E+04;  0.0000000E+00;  3.9175840E+04;  1.3655440E+00;  0.0000000E+00;  1.6488981E-02;  6.2946808E+02;
  1.4032559E+00;  9.9999998E-03;  3.0267769E-02;9879;  9.9671102E-01;  0.0000000E+00;  1.7728354E-03;  9.9615314E+02;  1.0562211E-01; -2.6579451E+03;3; -4.6581890E+01;  0.0000000E+00; -1.5383133E+01;0;  1.3820353E+00;  3.6325082E+04;  0.0000000E+00;  5.9521091E-01;  4.0000000E+04;  0.0000000E+00;  3.9175840E+04;  1.3655466E+00;  0.0000000E+00;  1.6488712E-02;  6.2943604E+02;
  1.4032512E+00;  9.9999998E-03; -4.0393062E-02;9872;  9.8988074E-01;  0.0000000E+00; -1.9901358E-03;  9.9617474E+02;  1.0562216E-01; -2.6430203E+03;3; -5.2836159E+01;  0.0000000E+00;  2.4509813E+01;0;  1.3473871E+00;  3.6321414E+04;  0.0000000E+00;  1.2502569E+00;  4.0000000E+04;  0.0000000E+00;  3.9182027E+04;  1.3335975E+00;  0.0000000E+00;  1.3789526E-02;  6.5333301E+02;
  1.4032512E+00;  9.9999998E-03;  4.0393043E-02;9880;  9.8988169E-01;  0.0000000E+00;  1.9896633E-03;  9.9617480E+02;  1.0562212E-01; -2.6429790E+03;3; -5.2836987E+01;  0.0000000E+00; -2.4510382E+01;0;  1.3473915E+00;  3.6321406E+04;  0.0000000E+00;  1.2502494E+00;  4.0000000E+04;  0.0000000E+00;  3.9182027E+04;  1.3336024E+00;  0.0000000E+00;  1.3789066E-02;  6.5332751E+02;
  1.4032288E+00;  9.9999998E-03; -5.0532877E-02;9871;  9.8109823E-01;  0.0000000E+00; -1.2660101E-03;  9.9620856E+02;  1.0562311E-01; -2.6197864E+03;3; -5.7933372E+01;  0.0000000E+00;  2.7374018E+01;0;  1.2990113E+00;  3.6318242E+04;  0.0000000E+00;  2.3348875E+00;  4.0000000E+04;  0.0000000E+00;  3.9188297E+04;  1.2905715E+00;  0.0000000E+00;  8.4398752E-03;  1.0196058E+03;
  1.4032288E+00;  9.9999998E-03;  5.0532859E-02;9881;  9.8109770E-01;  0.0000000E+00;  1.2659099E-03;  9.9620850E+02;  1.0562309E-01; -2.6198274E+03;3; -5.7933231E+01;  0.0000000E+00; -2.7373835E+01;0;  1.2990085E+00;  3.6318238E+04;  0.0000000E+00;  2.3348937E+00;  4.0000000E+04;  0.0000000E+00;  3.9188297E+04;  1.2905687E+00;  0.0000000E+00;  8.4397439E-03;  1.0196118E+03;
  1.4031267E+00;  9.9999998E-03; -7.0771627E-02;9869;  9.5944798E-01;  0.0000000E+00;  7.2135136E-04;  9.9631995E+02;  1.0562282E-01; -2.5433262E+03;3; -6.9734001E+01;  0.0000000E+00;  2.2883064E+01;0;  1.1645310E+00;  3.6309273E+04;  0.0000000E+00;  7.2076960E+00;  4.0000000E+04;  0.0000000E+00;  3.9207098E+04;  1.1755615E+00;  0.0000000E+00; -1.1030553E-02;  2.9176475E+03;
  1.4031864E+00;  9.9999998E-03; -6.0656615E-02;9870;  9.7127503E-01;  0.0000000E+00; -1.5356473E-04;  9.9626715E+02;  1.0562295E-01; -2.5795183E+03;3; -6.3195900E+01;  0.0000000E+00;  2.5167227E+01;0;  1.2404357E+00;  3.6314941E+04;  0.0000000E+00;  4.2837191E+00;  4.0000000E+04;  0.0000000E+00;  3.9196840E+04;  1.2403852E+00;  0.0000000E+00;  5.0580860E-05;  1.7815327E+03;
  1.4031864E+00;  9.9999998E-03;  6.0656596E-02;9882;  9.7127527E-01;  0.0000000E+00;  1.5329561E-04;  9.9626715E+02;  1.0562295E-01; -2.5795183E+03;3; -6.3195881E+01;  0.0000000E+00; -2.5167192E+01;0;  1.2404355E+00;  3.6314938E+04;  0.0000000E+00;  4.2836909E+00;  4.0000000E+04;  0.0000000E+00;  3.9196840E+04;  1.2403851E+00;  0.0000000E+00;  5.0390838E-05;  1.7815242E+03;
  1.4028679E+00;  9.9999998E-03; -1.0119204E-01;9866;  9.0534449E-01;  0.0000000E+00; -2.8998889E-03;  9.9599786E+02;  1.0562199E-01; -2.7673550E+03;3; -8.0313019E+01;  0.0000000E+00;  1.5038824E+01;0;  7.4430090E-01;  3.6266699E+04;  0.0000000E+00;  1.7528660E+01;  4.0000000E+04;  0.0000000E+00;  3.9227707E+04;  7.9090017E-01;  0.0000000E+00; -4.6599295E-02;  6.9065674E+03;
  1.4029673E+00;  9.9999998E-03; -9.1037780E-02;9867;  9.2635202E-01;  0.0000000E+00; -3.9290861E-04;  9.9619489E+02;  1.0562185E-01; -2.6305813E+03;3; -8.0121880E+01;  0.0000000E+00;  1.7355062E+01;0;  9.2163426E-01;  3.6284211E+04;  0.0000000E+00;  1.4431586E+01;  4.0000000E+04;  0.0000000E+00;  3.9224453E+04;  9.5832187E-01;  0.0000000E+00; -3.6687594E-02;  5.6956797E+03;
  1.4030532E+00;  9.9999998E-03; -8.0897495E-02;9868;  9.4464236E-01;  0.0000000E+00;  7.9672219E-04;  9.9630377E+02;  1.0562194E-01; -2.5548625E+03;3; -7.5617744E+01;  0.0000000E+00;  2.0037474E+01;0;  1.0612638E+00;  3.6299129E+04;  0.0000000E+00;  1.0754488E+01;  4.0000000E+04;  0.0000000E+00;  3.9216918E+04;  1.0851947E+00;  0.0000000E+00; -2.3930892E-02;  4.2818711E+03;
  1.4136443E+00;  9.9999998E-03; -2.0212753E-02;9910;  1.0011238E+00;  0.0000000E+00; -3.9014540E-04;  9.9606805E+02;  1.0551932E-01; -2.6593013E+03;3; -4.7445297E+01;  0.0000000E+00;  4.3661432E+00;0;  1.3760017E+00;  3.6451820E+04;  0.0000000E+00;  4.6017471E-01;  4.0000000E+04;  0.0000000E+00;  3.9110781E+04;  1.3214152E+00;  0.0000000E+00;  5.4586560E-02;  5.4237958E+02;
  1.4136493E+00;  9.9999998E-03; -1.0110127E-02;9911;  1.0039722E+00;  0.0000000E+00;  1.7444769E-04;  9.9601971E+02;  1.0551959E-01; -2.6919653E+03;3; -4.6778175E+01;  0.0000000E+00;  2.3975973E+00;0;  1.3890874E+00;  3.6451633E+04;  0.0000000E+00;  9.4026372E-02;  4.0000000E+04;  0.0000000E+00;  3.9106637E+04;  1.3327558E+00;  0.0000000E+00;  5.6331627E-02;  6.4369458E+02;
  1.4136506E+00;  9.9999998E-03; -9.2461896E-09;9912;  1.0049434E+00;  0.0000000E+00; -1.2436239E-07;  9.9600586E+02;  1.0551921E-01; -2.7013506E+03;3; -4.6524090E+01;  0.0000000E+00; -2.6375055E-06;0;  1.3936075E+00;  3.6451676E+04;  0.0000000E+00; -5.1655069E-12;  4.0000000E+04;  0.0000000E+00;  3.9105379E+04;  1.3366342E+00;  0.0000000E+00;  5.6973372E-02;  6.8312305E+02;
  1.4136493E+00;  9.9999998E-03;  1.0110108E-02;9913;  1.0039716E+00;  0.0000000E+00; -1.7467320E-04;  9.9601971E+02;  1.0551931E-01; -2.6919653E+03;3; -4.6778057E+01;  0.0000000E+00; -2.3975265E+00;0;  1.3890839E+00;  3.6451629E+04;  0.0000000E+00;  9.4027855E-02;  4.0000000E+04;  0.0000000E+00;  3.9106633E+04;  1.3327523E+00;  0.0000000E+00;  5.6331493E-02;  6.4368402E+02;
  1.4136443E+00;  9.9999998E-03;  2.0212734E-02;9914;  1.0011243E+00;  0.0000000E+00;  3.8984939E-04;  9.9606805E+02;  1.0551932E-01; -2.6593013E+03;3; -4.7445454E+01;  0.0000000E+00; -4.3663321E+00;0;  1.3760030E+00;  3.6451824E+04;  0.0000000E+00;  4.6017554E-01;  4.0000000E+04;  0.0000000E+00;  3.9110781E+04;  1.3214167E+00;  0.0000000E+00;  5.4586340E-02;  5.4238129E+02;
  1.4136333E+00;  9.9999998E-03; -3.0338500E-02;9909;  9.9666882E-01;  0.0000000E+00; -2.1994980E-03;  9.9613226E+02;  1.0551943E-01; -2.6159453E+03;3; -4.9138348E+01;  0.0000000E+00;  6.3480430E+00;0;  1.3564740E+00;  3.6451770E+04;  0.0000000E+00;  1.0431153E+00;  4.0000000E+04;  0.0000000E+00;  3.9116434E+04;  1.3042456E+00;  0.0000000E+00;  5.2228432E-02;  5.0806900E+02;
  1.4136332E+00;  9.9999998E-03;  3.0338481E-02;9915;  9.9666792E-01;  0.0000000E+00;  2.1991029E-03;  9.9613220E+02;  1.0551946E-01; -2.6159856E+03;3; -4.9138115E+01;  0.0000000E+00; -6.3475561E+00;0;  1.3564653E+00;  3.6451777E+04;  0.0000000E+00;  1.0431330E+00;  4.0000000E+04;  0.0000000E+00;  3.9116434E+04;  1.3042374E+00;  0.0000000E+00;  5.2227937E-02;  5.0809900E+02;
  1.4135818E+00;  9.9999998E-03; -5.0637763E-02;9907;  9.8237735E-01;  0.0000000E+00; -8.7433588E-03;  9.9625665E+02;  1.0551901E-01; -2.5320874E+03;3; -6.2403362E+01;  0.0000000E+00;  1.9319956E+01;0;  1.2937518E+00;  3.6449973E+04;  0.0000000E+00;  2.9292679E+00;  4.0000000E+04;  0.0000000E+00;  3.9128898E+04;  1.2461969E+00;  0.0000000E+00;  4.7554921E-02;  1.0746062E+03;
  1.4136140E+00;  9.9999998E-03; -4.0489830E-02;9908;  9.9058038E-01;  0.0000000E+00; -5.3343745E-03;  9.9618835E+02;  1.0551935E-01; -2.5781160E+03;3; -5.3650398E+01;  0.0000000E+00;  1.0901974E+01;0;  1.3307974E+00;  3.6450969E+04;  0.0000000E+00;  1.7785164E+00;  4.0000000E+04;  0.0000000E+00;  3.9122223E+04;  1.2808225E+00;  0.0000000E+00;  4.9974892E-02;  6.7298267E+02;
  1.4136140E+00;  9.9999998E-03;  4.0489811E-02;9916;  9.9058062E-01;  0.0000000E+00;  5.3340080E-03;  9.9618835E+02;  1.0551935E-01; -2.5781160E+03;3; -5.3650608E+01;  0.0000000E+00; -1.0902261E+01;0;  1.3307985E+00;  3.6450980E+04;  0.0000000E+00;  1.7785287E+00;  4.0000000E+04;  0.0000000E+00;  3.9122223E+04;  1.2808241E+00;  0.0000000E+00;  4.9974412E-02;  6.7298450E+02;
  1.4135818E+00;  9.9999998E-03;  5.0637744E-02;9917;  9.8237783E-01;  0.0000000E+00;  8.7428633E-03;  9.9625665E+02;  1.0551901E-01; -2.5320874E+03;3; -6.2403866E+01;  0.0000000E+00; -1.9320253E+01;0;  1.2937531E+00;  3.6449980E+04;  0.0000000E+00;  2.9292870E+00;  4.0000000E+04;  0.0000000E+00;  3.9128898E+04;  1.2461988E+00;  0.0000000E+00;  4.7554355E-02;  1.0746111E+03;
  1.4135396E+00;  9.9999998E-03; -6.0775716E-02;9906;  9.7205323E-01;  0.0000000E+00; -9.6697463E-03;  9.9630432E+02;  1.0551900E-01; -2.5000574E+03;3; -6.8841682E+01;  0.0000000E+00;  2.2769245E+01;0;  1.2369015E+00;  3.6445914E+04;  0.0000000E+00;  4.6777916E+00;  4.0000000E+04;  0.0000000E+00;  3.9137270E+04;  1.1961492E+00;  0.0000000E+00;  4.0752273E-02;  1.7127554E+03;
  1.4135396E+00;  9.9999998E-03;  6.0775697E-02;9918;  9.7205317E-01;  0.0000000E+00;  9.6695134E-03;  9.9630432E+02;  1.0551900E-01; -2.5000574E+03;3; -6.8841614E+01;  0.0000000E+00; -2.2768957E+01;0;  1.2368979E+00;  3.6445914E+04;  0.0000000E+00;  4.6778007E+00;  4.0000000E+04;  0.0000000E+00;  3.9137270E+04;  1.1961459E+00;  0.0000000E+00;  4.0752016E-02;  1.7127548E+03;
  1.4134905E+00;  9.9999998E-03; -7.0910074E-02;9905;  9.5949537E-01;  0.0000000E+00; -9.9573908E-03;  9.9627606E+02;  1.0551882E-01; -2.5194326E+03;3; -7.3884209E+01;  0.0000000E+00;  2.1596060E+01;0;  1.1567365E+00;  3.6435109E+04;  0.0000000E+00;  6.8942389E+00;  4.0000000E+04;  0.0000000E+00;  3.9146457E+04;  1.1261791E+00;  0.0000000E+00;  3.0557418E-02;  2.5274604E+03;
  1.4134310E+00;  9.9999998E-03; -8.1049487E-02;9904;  9.4377166E-01;  0.0000000E+00; -1.1276728E-02;  9.9616797E+02;  1.0551843E-01; -2.5929106E+03;3; -7.8356842E+01;  0.0000000E+00;  2.0146648E+01;0;  1.0430341E+00;  3.6419449E+04;  0.0000000E+00;  9.1381025E+00;  4.0000000E+04;  0.0000000E+00;  3.9154754E+04;  1.0226504E+00;  0.0000000E+00;  2.0383686E-02;  3.3676160E+03;
  1.4133573E+00;  9.9999998E-03; -9.1194592E-02;9903;  9.2458117E-01;  0.0000000E+00; -1.3738010E-02;  9.9601196E+02;  1.0551829E-01; -2.6988787E+03;3; -8.1066994E+01;  0.0000000E+00;  2.0203854E+01;0;  8.8637125E-01;  3.6402078E+04;  0.0000000E+00;  1.0925737E+01;  4.0000000E+04;  0.0000000E+00;  3.9160699E+04;  8.7389642E-01;  0.0000000E+00;  1.2474808E-02;  4.0691750E+03;
  1.4132663E+00;  9.9999998E-03; -1.0134242E-01;9902;  9.0354830E-01;  0.0000000E+00; -1.6183123E-02;  9.9585083E+02;  1.0551798E-01; -2.8084917E+03;3; -7.8587219E+01;  0.0000000E+00;  2.2940760E+01;0;  6.9258499E-01;  3.6387711E+04;  0.0000000E+00;  1.1766665E+01;  4.0000000E+04;  0.0000000E+00;  3.9163668E+04;  6.8631750E-01;  0.0000000E+00;  6.2674908E-03;  4.4644995E+03;
  1.4239682E+00;  9.9999998E-03; -4.0590335E-02;9942;  9.9782753E-01;  0.0000000E+00; -6.9805006E-03;  9.9640503E+02;  1.0543425E-01; -2.3771077E+03;3; -6.1755138E+01;  0.0000000E+00;  1.0936077E+01;0;  1.3444225E+00;  3.6582262E+04;  0.0000000E+00;  1.3038614E+00;  4.0000000E+04;  0.0000000E+00;  3.9062840E+04;  1.2588493E+00;  0.0000000E+00;  8.5573211E-02;  4.4944534E+02;
  1.4239883E+00;  9.9999998E-03; -3.0441312E-02;9943;  1.0031776E+00;  0.0000000E+00; -2.9373968E-03;  9.9635406E+02;  1.0543430E-01; -2.4106958E+03;3; -5.7949821E+01;  0.0000000E+00;  7.8407869E+00;0;  1.3576362E+00;  3.6584199E+04;  0.0000000E+00;  6.7896426E-01;  4.0000000E+04;  0.0000000E+00;  3.9056672E+04;  1.2694741E+00;  0.0000000E+00;  8.8162050E-02;  3.0096313E+02;
  1.4240007E+00;  9.9999998E-03; -2.0289635E-02;9944;  1.0068053E+00;  0.0000000E+00; -8.2492607E-04;  9.9631122E+02;  1.0543407E-01; -2.4389246E+03;3; -5.5810658E+01;  0.0000000E+00;  5.4406757E+00;0;  1.3660703E+00;  3.6585363E+04;  0.0000000E+00;  3.0239567E-01;  4.0000000E+04;  0.0000000E+00;  3.9051887E+04;  1.2744631E+00;  0.0000000E+00;  9.1607168E-02;  3.4364609E+02;
  1.4240077E+00;  9.9999998E-03; -1.0146014E-02;9945;  1.0090842E+00;  0.0000000E+00; -6.7816516E-05;  9.9627539E+02;  1.0543362E-01; -2.4626108E+03;3; -5.4556572E+01;  0.0000000E+00;  2.7887766E+00;0;  1.3723722E+00;  3.6585504E+04;  0.0000000E+00;  6.6306718E-02;  4.0000000E+04;  0.0000000E+00;  3.9048797E+04;  1.2781516E+00;  0.0000000E+00;  9.4220549E-02;  4.2306021E+02;
  1.4240097E+00;  9.9999998E-03; -1.0066223E-08;9946;  1.0098578E+00;  0.0000000E+00; -1.2959988E-07;  9.9626282E+02;  1.0543379E-01; -2.4709148E+03;3; -5.4143032E+01;  0.0000000E+00; -1.0192394E-05;0;  1.3746374E+00;  3.6585598E+04;  0.0000000E+00; -2.9796512E-12;  4.0000000E+04;  0.0000000E+00;  3.9047617E+04;  1.2794645E+00;  0.0000000E+00;  9.5172919E-02;  4.5461993E+02;
  1.4240077E+00;  9.9999998E-03;  1.0145995E-02;9947;  1.0090840E+00;  0.0000000E+00;  6.7569556E-05;  9.9627545E+02;  1.0543369E-01; -2.4625713E+03;3; -5.4556274E+01;  0.0000000E+00; -2.7887843E+00;0;  1.3723691E+00;  3.6585500E+04;  0.0000000E+00;  6.6311955E-02;  4.0000000E+04;  0.0000000E+00;  3.9048797E+04;  1.2781487E+00;  0.0000000E+00;  9.4220363E-02;  4.2304117E+02;
  1.4240007E+00;  9.9999998E-03;  2.0289615E-02;9948;  1.0068057E+00;  0.0000000E+00;  8.2464260E-04;  9.9631122E+02;  1.0543407E-01; -2.4389246E+03;3; -5.5810497E+01;  0.0000000E+00; -5.4406896E+00;0;  1.3660712E+00;  3.6585363E+04;  0.0000000E+00;  3.0241016E-01;  4.0000000E+04;  0.0000000E+00;  3.9051887E+04;  1.2744644E+00;  0.0000000E+00;  9.1606893E-02;  3.4364642E+02;
  1.4239883E+00;  9.9999998E-03;  3.0441292E-02;9949;  1.0031772E+00;  0.0000000E+00;  2.9368903E-03;  9.9635406E+02;  1.0543429E-01; -2.4106958E+03;3; -5.7949692E+01;  0.0000000E+00; -7.8408103E+00;0;  1.3576291E+00;  3.6584199E+04;  0.0000000E+00;  6.7899066E-01;  4.0000000E+04;  0.0000000E+00;  3.9056672E+04;  1.2694677E+00;  0.0000000E+00;  8.8161401E-02;  3.0097772E+02;
  1.4239682E+00;  9.9999998E-03;  4.0590316E-02;9950;  9.9782705E-01;  0.0000000E+00;  6.9801537E-03;  9.9640503E+02;  1.0543425E-01; -2.3771077E+03;3; -6.1755028E+01;  0.0000000E+00; -1.0936092E+01;0;  1.3444153E+00;  3.6582266E+04;  0.0000000E+00;  1.3038325E+00;  4.0000000E+04;  0.0000000E+00;  3.9062840E+04;  1.2588427E+00;  0.0000000E+00;  8.5572556E-02;  4.4943845E+02;
  1.4237998E+00;  9.9999998E-03; -8.1174493E-02;9938;  9.4414347E-01;  0.0000000E+00; -2.1202110E-02;  9.9631549E+02;  1.0543323E-01; -2.4372271E+03;3; -8.1017715E+01;  0.0000000E+00;  1.1345121E+01;0;  9.9388516E-01;  3.6547023E+04;  0.0000000E+00;  4.8652067E+00;  4.0000000E+04;  0.0000000E+00;  3.9093715E+04;  9.2399991E-01;  0.0000000E+00;  6.9885269E-02;  2.0001158E+03;
  1.4238575E+00;  9.9999998E-03; -7.1024947E-02;9939;  9.6170223E-01;  0.0000000E+00; -1.6664434E-02;  9.9640417E+02;  1.0543346E-01; -2.3782515E+03;3; -7.8769684E+01;  0.0000000E+00;  1.4602666E+01;0;  1.1277568E+00;  3.6559715E+04;  0.0000000E+00;  4.3207765E+00;  4.0000000E+04;  0.0000000E+00;  3.9087184E+04;  1.0565771E+00;  0.0000000E+00;  7.1179807E-02;  1.6712495E+03;
  1.4239037E+00;  9.9999998E-03; -6.0881570E-02;9940;  9.7700614E-01;  0.0000000E+00; -1.3340700E-02;  9.9644287E+02;  1.0543379E-01; -2.3524224E+03;3; -7.5873337E+01;  0.0000000E+00;  1.8264864E+01;0;  1.2346073E+00;  3.6570426E+04;  0.0000000E+00;  3.2583764E+00;  4.0000000E+04;  0.0000000E+00;  3.9078648E+04;  1.1581467E+00;  0.0000000E+00;  7.6460622E-02;  1.2124912E+03;
  1.4239396E+00;  9.9999998E-03; -5.0738998E-02;9941;  9.8933119E-01;  0.0000000E+00; -1.0990257E-02;  9.9644366E+02;  1.0543430E-01; -2.3516804E+03;3; -7.0116325E+01;  0.0000000E+00;  1.7497461E+01;0;  1.3093554E+00;  3.6578469E+04;  0.0000000E+00;  2.1470602E+00;  4.0000000E+04;  0.0000000E+00;  3.9070020E+04;  1.2265424E+00;  0.0000000E+00;  8.2813077E-02;  7.6778033E+02;
  1.4239396E+00;  9.9999998E-03;  5.0738983E-02;9951;  9.8933142E-01;  0.0000000E+00;  1.0989730E-02;  9.9644366E+02;  1.0543430E-01; -2.3516804E+03;3; -7.0116623E+01;  0.0000000E+00; -1.7497654E+01;0;  1.3093572E+00;  3.6578473E+04;  0.0000000E+00;  2.1470008E+00;  4.0000000E+04;  0.0000000E+00;  3.9070020E+04;  1.2265450E+00;  0.0000000E+00;  8.2812212E-02;  7.6776825E+02;
  1.4239036E+00;  9.9999998E-03;  6.0881551E-02;9952;  9.7700620E-01;  0.0000000E+00;  1.3340150E-02;  9.9644287E+02;  1.0543379E-01; -2.3524224E+03;3; -7.5873276E+01;  0.0000000E+00; -1.8264589E+01;0;  1.2346035E+00;  3.6570430E+04;  0.0000000E+00;  3.2584035E+00;  4.0000000E+04;  0.0000000E+00;  3.9078645E+04;  1.1581439E+00;  0.0000000E+00;  7.6459676E-02;  1.2124937E+03;
  1.4236419E+00;  9.9999998E-03; -1.0147405E-01;9936;  9.0446204E-01;  0.0000000E+00; -2.8771687E-02;  9.9612415E+02;  1.0543273E-01; -2.5646975E+03;3; -7.8233063E+01;  0.0000000E+00;  2.5523678E+01;0;  6.3923210E-01;  3.6528734E+04;  0.0000000E+00;  3.5770993E+00;  4.0000000E+04;  0.0000000E+00;  3.9098227E+04;  5.6496179E-01;  0.0000000E+00;  7.4270315E-02;  1.9976156E+03;
  1.4237286E+00;  9.9999998E-03; -9.1326840E-02;9937;  9.2455721E-01;  0.0000000E+00; -2.5856951E-02;  9.9620007E+02;  1.0543282E-01; -2.5139602E+03;3; -8.2762985E+01;  0.0000000E+00;  1.6406195E+01;0;  8.2932806E-01;  3.6535473E+04;  0.0000000E+00;  4.6180363E+00;  4.0000000E+04;  0.0000000E+00;  3.9097234E+04;  7.5649619E-01;  0.0000000E+00;  7.2831869E-02;  2.1112761E+03;
  1.4343771E+00;  9.9999998E-03; -1.0186261E-02;9976;  1.0172440E+00;  0.0000000E+00; -1.1283265E-03;  9.9651959E+02;  1.0536253E-01; -2.2468018E+03;3; -6.3964634E+01;  0.0000000E+00;  2.9105575E+00;0;  1.3795488E+00;  3.6705094E+04;  0.0000000E+00; -6.8601891E-02;  4.0000000E+04;  0.0000000E+00;  3.8993711E+04;  1.2479242E+00;  0.0000000E+00;  1.3162455E-01;  7.5296944E+01;
  1.4343787E+00;  9.9999998E-03; -9.8452109E-09;9977;  1.0179298E+00;  0.0000000E+00; -1.3024084E-07;  9.9652771E+02;  1.0536268E-01; -2.2415220E+03;3; -6.3426403E+01;  0.0000000E+00; -1.8253922E-05;0;  1.3796864E+00;  3.6706098E+04;  0.0000000E+00; -7.6782059E-13;  4.0000000E+04;  0.0000000E+00;  3.8993418E+04;  1.2470508E+00;  0.0000000E+00;  1.3263562E-01;  9.6054924E+01;
  1.4343771E+00;  9.9999998E-03;  1.0186242E-02;9978;  1.0172441E+00;  0.0000000E+00;  1.1280659E-03;  9.9651959E+02;  1.0536253E-01; -2.2468018E+03;3; -6.3964569E+01;  0.0000000E+00; -2.9105995E+00;0;  1.3795493E+00;  3.6705086E+04;  0.0000000E+00; -6.8602167E-02;  4.0000000E+04;  0.0000000E+00;  3.8993707E+04;  1.2479249E+00;  0.0000000E+00;  1.3162430E-01;  7.5292290E+01;
  1.4341037E+00;  9.9999998E-03; -9.1440864E-02;9968;  9.2976034E-01;  0.0000000E+00; -3.1292446E-02;  9.9646375E+02;  1.0536106E-01; -2.2843267E+03;3; -8.4382103E+01;  0.0000000E+00;  6.6150026E+00;0;  7.9362649E-01;  3.6665289E+04;  0.0000000E+00; -1.4115897E+00;  4.0000000E+04;  0.0000000E+00;  3.9033047E+04;  6.7508811E-01;  0.0000000E+00;  1.1853839E-01;  1.2733853E+03;
  1.4341749E+00;  9.9999998E-03; -8.1292823E-02;9969;  9.4784254E-01;  0.0000000E+00; -2.5470914E-02;  9.9647650E+02;  1.0536098E-01; -2.2756670E+03;3; -8.2815636E+01;  0.0000000E+00;  7.4068408E+00;0;  9.3886667E-01;  3.6668863E+04;  0.0000000E+00; -6.2127185E-01;  4.0000000E+04;  0.0000000E+00;  3.9030312E+04;  8.2931626E-01;  0.0000000E+00;  1.0955040E-01;  1.1648549E+03;
  1.4342341E+00;  9.9999998E-03; -7.1136609E-02;9970;  9.6510965E-01;  0.0000000E+00; -2.0207357E-02;  9.9650012E+02;  1.0536134E-01; -2.2601072E+03;3; -8.3694977E+01;  0.0000000E+00;  1.1783383E+01;0;  1.0758319E+00;  3.6674340E+04;  0.0000000E+00; -3.8968273E-03;  4.0000000E+04;  0.0000000E+00;  3.9026293E+04;  9.6802682E-01;  0.0000000E+00;  1.0780508E-01;  1.0327505E+03;
  1.4342802E+00;  9.9999998E-03; -6.0974315E-02;9971;  9.8109305E-01;  0.0000000E+00; -1.6726499E-02;  9.9654620E+02;  1.0536182E-01; -2.2301118E+03;3; -8.3181427E+01;  0.0000000E+00;  1.6107355E+01;0;  1.2009339E+00;  3.6681910E+04;  0.0000000E+00;  3.7947679E-01;  4.0000000E+04;  0.0000000E+00;  3.9021414E+04;  1.0877253E+00;  0.0000000E+00;  1.1320861E-01;  8.5919910E+02;
  1.4343140E+00;  9.9999998E-03; -5.0813615E-02;9972;  9.9456125E-01;  0.0000000E+00; -1.4164601E-02;  9.9658289E+02;  1.0536219E-01; -2.2062666E+03;3; -7.8403290E+01;  0.0000000E+00;  1.5459436E+01;0;  1.2954009E+00;  3.6690863E+04;  0.0000000E+00;  4.2942274E-01;  4.0000000E+04;  0.0000000E+00;  3.9014879E+04;  1.1754087E+00;  0.0000000E+00;  1.1999212E-01;  6.2424176E+02;
  1.4343401E+00;  9.9999998E-03; -4.0657330E-02;9973;  1.0045944E+00;  0.0000000E+00; -1.0735783E-02;  9.9657422E+02;  1.0536216E-01; -2.2117104E+03;3; -7.2257896E+01;  0.0000000E+00;  1.1545287E+01;0;  1.3500667E+00;  3.6696617E+04;  0.0000000E+00;  2.4662174E-01;  4.0000000E+04;  0.0000000E+00;  3.9007738E+04;  1.2260853E+00;  0.0000000E+00;  1.2398131E-01;  3.7876004E+02;
  1.4343599E+00;  9.9999998E-03; -3.0505134E-02;9974;  1.0110801E+00;  0.0000000E+00; -6.1060968E-03;  9.9653229E+02;  1.0536263E-01; -2.2386965E+03;3; -6.8108276E+01;  0.0000000E+00;  8.2465963E+00;0;  1.3707500E+00;  3.6699645E+04;  0.0000000E+00;  1.3385813E-02;  4.0000000E+04;  0.0000000E+00;  3.9001129E+04;  1.2448769E+00;  0.0000000E+00;  1.2587312E-01;  1.6679103E+02;
  1.4343716E+00;  9.9999998E-03; -2.0352334E-02;9975;  1.0150909E+00;  0.0000000E+00; -2.8987168E-03;  9.9651343E+02;  1.0536244E-01; -2.2507939E+03;3; -6.5571632E+01;  0.0000000E+00;  5.7069798E+00;0;  1.3780313E+00;  3.6702547E+04;  0.0000000E+00; -1.1450258E-01;  4.0000000E+04;  0.0000000E+00;  3.8996273E+04;  1.2490981E+00;  0.0000000E+00;  1.2893316E-01;  9.9125633E+00;
  1.4343716E+00;  9.9999998E-03;  2.0352313E-02;9979;  1.0150912E+00;  0.0000000E+00;  2.8984514E-03;  9.9651343E+02;  1.0536244E-01; -2.2507939E+03;3; -6.5571625E+01;  0.0000000E+00; -5.7070332E+00;0;  1.3780320E+00;  3.6702547E+04;  0.0000000E+00; -1.1449034E-01;  4.0000000E+04;  0.0000000E+00;  3.8996273E+04;  1.2490991E+00;  0.0000000E+00;  1.2893283E-01;  9.9154425E+00;
  1.4343599E+00;  9.9999998E-03;  3.0505119E-02;9980;  1.0110812E+00;  0.0000000E+00;  6.1061997E-03;  9.9653229E+02;  1.0536262E-01; -2.2386965E+03;3; -6.8108727E+01;  0.0000000E+00; -8.2465878E+00;0;  1.3707644E+00;  3.6699641E+04;  0.0000000E+00;  1.3353373E-02;  4.0000000E+04;  0.0000000E+00;  3.9001129E+04;  1.2448912E+00;  0.0000000E+00;  1.2587319E-01;  1.6683669E+02;
  1.4343401E+00;  9.9999998E-03;  4.0657312E-02;9981;  1.0045943E+00;  0.0000000E+00;  1.0735418E-02;  9.9657422E+02;  1.0536216E-01; -2.2117104E+03;3; -7.2257774E+01;  0.0000000E+00; -1.1545142E+01;0;  1.3500625E+00;  3.6696617E+04;  0.0000000E+00;  2.4663101E-01;  4.0000000E+04;  0.0000000E+00;  3.9007738E+04;  1.2260818E+00;  0.0000000E+00;  1.2398069E-01;  3.7875754E+02;
  1.4343140E+00;  9.9999998E-03;  5.0813600E-02;9982;  9.9456114E-01;  0.0000000E+00;  1.4164125E-02;  9.9658289E+02;  1.0536216E-01; -2.2062666E+03;3; -7.8403465E+01;  0.0000000E+00; -1.5459599E+01;0;  1.2953970E+00;  3.6690867E+04;  0.0000000E+00;  4.2937002E-01;  4.0000000E+04;  0.0000000E+00;  3.9014879E+04;  1.1754057E+00;  0.0000000E+00;  1.1999132E-01;  6.2423608E+02;
  1.4342802E+00;  9.9999998E-03;  6.0974300E-02;9983;  9.8109305E-01;  0.0000000E+00;  1.6725888E-02;  9.9654620E+02;  1.0536181E-01; -2.2301118E+03;3; -8.3181503E+01;  0.0000000E+00; -1.6107355E+01;0;  1.2009296E+00;  3.6681910E+04;  0.0000000E+00;  3.7944108E-01;  4.0000000E+04;  0.0000000E+00;  3.9021414E+04;  1.0877222E+00;  0.0000000E+00;  1.1320750E-01;  8.5920288E+02;
  1.4340206E+00;  9.9999998E-03; -1.0157637E-01;9967;  9.1090786E-01;  0.0000000E+00; -3.6257014E-02;  9.9649268E+02;  1.0536163E-01; -2.2660576E+03;3; -8.4132225E+01;  0.0000000E+00;  1.0636185E+01;0;  6.3141018E-01;  3.6664801E+04;  0.0000000E+00; -2.0743608E+00;  4.0000000E+04;  0.0000000E+00;  3.9035969E+04;  4.9949405E-01;  0.0000000E+00;  1.3191614E-01;  1.3846475E+03;
  1.4447368E+00;  9.9999998E-03; -2.0391645E-02;10002;  1.0182940E+00;  0.0000000E+00; -5.8994242E-03;  9.9679004E+02;  1.0530098E-01; -2.0212524E+03;3; -7.4443947E+01;  0.0000000E+00;  5.8137608E+00;0;  1.3173039E+00;  3.6814125E+04;  0.0000000E+00; -4.3506083E-01;  4.0000000E+04;  0.0000000E+00;  3.8944953E+04;  1.1512417E+00;  0.0000000E+00;  1.6606221E-01;  4.1674786E+02;
  1.4447436E+00;  9.9999998E-03; -1.0207257E-02;10003;  1.0209274E+00;  0.0000000E+00; -2.8067904E-03;  9.9679858E+02;  1.0530097E-01; -2.0158523E+03;3; -7.3080070E+01;  0.0000000E+00;  2.9502418E+00;0;  1.3232393E+00;  3.6816016E+04;  0.0000000E+00; -1.4842424E-01;  4.0000000E+04;  0.0000000E+00;  3.8943520E+04;  1.1552892E+00;  0.0000000E+00;  1.6795017E-01;  3.5826447E+02;
  1.4447458E+00;  9.9999998E-03; -9.5689563E-09;10004;  1.0217947E+00;  0.0000000E+00; -1.2772399E-07;  9.9681116E+02;  1.0530098E-01; -2.0079229E+03;3; -7.2603920E+01;  0.0000000E+00; -1.7806888E-05;0;  1.3249748E+00;  3.6816820E+04;  0.0000000E+00;  3.6183431E-15;  4.0000000E+04;  0.0000000E+00;  3.8943387E+04;  1.1563356E+00;  0.0000000E+00;  1.6863921E-01;  3.4799710E+02;
  1.4447436E+00;  9.9999998E-03;  1.0207240E-02;10005;  1.0209273E+00;  0.0000000E+00;  2.8065450E-03;  9.9679858E+02;  1.0530097E-01; -2.0158523E+03;3; -7.3080109E+01;  0.0000000E+00; -2.9502778E+00;0;  1.3232369E+00;  3.6816016E+04;  0.0000000E+00; -1.4842792E-01;  4.0000000E+04;  0.0000000E+00;  3.8943520E+04;  1.1552869E+00;  0.0000000E+00;  1.6794997E-01;  3.5826721E+02;
  1.4447368E+00;  9.9999998E-03;  2.0391628E-02;10006;  1.0182942E+00;  0.0000000E+00;  5.8987886E-03;  9.9679010E+02;  1.0530102E-01; -2.0212148E+03;3; -7.4442734E+01;  0.0000000E+00; -5.8137999E+00;0;  1.3173048E+00;  3.6814137E+04;  0.0000000E+00; -4.3506375E-01;  4.0000000E+04;  0.0000000E+00;  3.8944953E+04;  1.1512434E+00;  0.0000000E+00;  1.6606142E-01;  4.1668103E+02;
  1.4447052E+00;  9.9999998E-03; -4.0721688E-02;10000;  1.0064311E+00;  0.0000000E+00; -1.3607925E-02;  9.9682922E+02;  1.0530088E-01; -1.9967480E+03;3; -7.9714813E+01;  0.0000000E+00;  1.0794705E+01;0;  1.2703023E+00;  3.6808074E+04;  0.0000000E+00; -9.4352508E-01;  4.0000000E+04;  0.0000000E+00;  3.8954594E+04;  1.1093032E+00;  0.0000000E+00;  1.6099909E-01;  7.0385571E+02;
  1.4447241E+00;  9.9999998E-03; -3.0553475E-02;10001;  1.0136617E+00;  0.0000000E+00; -9.7269779E-03;  9.9681439E+02;  1.0530087E-01; -2.0060018E+03;3; -7.6657722E+01;  0.0000000E+00;  8.4383001E+00;0;  1.3033841E+00;  3.6811793E+04;  0.0000000E+00; -6.3765812E-01;  4.0000000E+04;  0.0000000E+00;  3.8949426E+04;  1.1395522E+00;  0.0000000E+00;  1.6383187E-01;  5.4487152E+02;
  1.4447241E+00;  9.9999998E-03;  3.0553456E-02;10007;  1.0136611E+00;  0.0000000E+00;  9.7267292E-03;  9.9681439E+02;  1.0530087E-01; -2.0060018E+03;3; -7.6657486E+01;  0.0000000E+00; -8.4383297E+00;0;  1.3033708E+00;  3.6811801E+04;  0.0000000E+00; -6.3765305E-01;  4.0000000E+04;  0.0000000E+00;  3.8949426E+04;  1.1395395E+00;  0.0000000E+00;  1.6383131E-01;  5.4486877E+02;
  1.4447052E+00;  9.9999998E-03;  4.0721677E-02;10008;  1.0064309E+00;  0.0000000E+00;  1.3607592E-02;  9.9682922E+02;  1.0530088E-01; -1.9967480E+03;3; -7.9714706E+01;  0.0000000E+00; -1.0794745E+01;0;  1.2702963E+00;  3.6808066E+04;  0.0000000E+00; -9.4361323E-01;  4.0000000E+04;  0.0000000E+00;  3.8954594E+04;  1.1092980E+00;  0.0000000E+00;  1.6099839E-01;  7.0385284E+02;
  1.4446791E+00;  9.9999998E-03; -5.0898463E-02;9999;  9.9617064E-01;  0.0000000E+00; -1.6723357E-02;  9.9680975E+02;  1.0530097E-01; -2.0091128E+03;3; -8.3054161E+01;  0.0000000E+00;  1.2612927E+01;0;  1.2062520E+00;  3.6803090E+04;  0.0000000E+00; -1.4516001E+00;  4.0000000E+04;  0.0000000E+00;  3.8958520E+04;  1.0503563E+00;  0.0000000E+00;  1.5589575E-01;  8.5620422E+02;
  1.4446791E+00;  9.9999998E-03;  5.0898448E-02;10009;  9.9617040E-01;  0.0000000E+00;  1.6723271E-02;  9.9680969E+02;  1.0530097E-01; -2.0091504E+03;3; -8.3054924E+01;  0.0000000E+00; -1.2613047E+01;0;  1.2062464E+00;  3.6803086E+04;  0.0000000E+00; -1.4516674E+00;  4.0000000E+04;  0.0000000E+00;  3.8958520E+04;  1.0503507E+00;  0.0000000E+00;  1.5589571E-01;  8.5622632E+02;
  1.4445971E+00;  9.9999998E-03; -7.1232080E-02;9997;  9.6865892E-01;  0.0000000E+00; -2.3399662E-02;  9.9679352E+02;  1.0530163E-01; -2.0197654E+03;3; -8.4942818E+01;  0.0000000E+00;  1.0804501E+01;0;  1.0024830E+00;  3.6794949E+04;  0.0000000E+00; -2.2358463E+00;  4.0000000E+04;  0.0000000E+00;  3.8965707E+04;  8.5736990E-01;  0.0000000E+00;  1.4511311E-01;  1.1329069E+03;
  1.4446437E+00;  9.9999998E-03; -6.1071102E-02;9998;  9.8325473E-01;  0.0000000E+00; -1.9587442E-02;  9.9678448E+02;  1.0530134E-01; -2.0252037E+03;3; -8.5637833E+01;  0.0000000E+00;  1.3204089E+01;0;  1.1124997E+00;  3.6797961E+04;  0.0000000E+00; -1.9617772E+00;  4.0000000E+04;  0.0000000E+00;  3.8961801E+04;  9.6329999E-01;  0.0000000E+00;  1.4919969E-01;  1.0014492E+03;
  1.4446437E+00;  9.9999998E-03;  6.1071083E-02;10010;  9.8325497E-01;  0.0000000E+00;  1.9586807E-02;  9.9678448E+02;  1.0530137E-01; -2.0252037E+03;3; -8.5637848E+01;  0.0000000E+00; -1.3204196E+01;0;  1.1124990E+00;  3.6797949E+04;  0.0000000E+00; -1.9617431E+00;  4.0000000E+04;  0.0000000E+00;  3.8961797E+04;  9.6330065E-01;  0.0000000E+00;  1.4919835E-01;  1.0014406E+03;
  1.4445390E+00;  9.9999998E-03; -8.1382886E-02;9996;  9.5328647E-01;  0.0000000E+00; -2.7875479E-02;  9.9683057E+02;  1.0530209E-01; -1.9966960E+03;3; -8.3341942E+01;  0.0000000E+00;  7.7262316E+00;0;  8.8918757E-01;  3.6793754E+04;  0.0000000E+00; -2.0823898E+00;  4.0000000E+04;  0.0000000E+00;  3.8969480E+04;  7.4401057E-01;  0.0000000E+00;  1.4517701E-01;  1.2281580E+03;
  1.4443805E+00;  9.9999998E-03; -1.0162757E-01;9994;  9.1943431E-01;  0.0000000E+00; -3.9451942E-02;  9.9723773E+02;  1.0530303E-01; -1.7408638E+03;3; -8.3708412E+01;  0.0000000E+00;  7.5367942E+00;0;  6.4399797E-01;  3.6806559E+04;  0.0000000E+00;  1.0527874E+00;  4.0000000E+04;  0.0000000E+00;  3.8987359E+04;  4.6785596E-01;  0.0000000E+00;  1.7614199E-01;  1.5144612E+03;
  1.4444667E+00;  9.9999998E-03; -9.1514997E-02;9995;  9.3693805E-01;  0.0000000E+00; -3.3446960E-02;  9.9697113E+02;  1.0530249E-01; -1.9084894E+03;3; -8.3166420E+01;  0.0000000E+00;  6.7059960E+00;0;  7.7176577E-01;  3.6797719E+04;  0.0000000E+00; -1.0944124E+00;  4.0000000E+04;  0.0000000E+00;  3.8976258E+04;  6.1676669E-01;  0.0000000E+00;  1.5499908E-01;  1.3263599E+03;
  1.4550689E+00;  9.9999998E-03; -3.0577809E-02;10023;  1.0178311E+00;  0.0000000E+00; -1.3766110E-02;  9.9740448E+02;  1.0525030E-01; -1.5930909E+03;3; -7.8267387E+01;  0.0000000E+00;  8.1721163E+00;0;  1.2400179E+00;  3.6933480E+04;  0.0000000E+00; -3.8984820E-01;  4.0000000E+04;  0.0000000E+00;  3.8903125E+04;  1.0377883E+00;  0.0000000E+00;  2.0222963E-01;  8.4452728E+02;
  1.4550812E+00;  9.9999998E-03; -2.0395081E-02;10024;  1.0227884E+00;  0.0000000E+00; -8.9628110E-03;  9.9740527E+02;  1.0525098E-01; -1.5925298E+03;3; -7.6417114E+01;  0.0000000E+00;  5.5882754E+00;0;  1.2573792E+00;  3.6936348E+04;  0.0000000E+00; -2.2549328E-01;  4.0000000E+04;  0.0000000E+00;  3.8900000E+04;  1.0552204E+00;  0.0000000E+00;  2.0215879E-01;  7.5136267E+02;
  1.4550881E+00;  9.9999998E-03; -1.0209438E-02;10025;  1.0255975E+00;  0.0000000E+00; -4.4070976E-03;  9.9741077E+02;  1.0525086E-01; -1.5891367E+03;3; -7.5236748E+01;  0.0000000E+00;  2.8372297E+00;0;  1.2645748E+00;  3.6938062E+04;  0.0000000E+00; -7.9987101E-02;  4.0000000E+04;  0.0000000E+00;  3.8898371E+04;  1.0621817E+00;  0.0000000E+00;  2.0239303E-01;  6.9549414E+02;
  1.4550900E+00;  9.9999998E-03; -9.3214094E-09;10026;  1.0265263E+00;  0.0000000E+00; -1.2652356E-07;  9.9742395E+02;  1.0525068E-01; -1.5810442E+03;3; -7.4798981E+01;  0.0000000E+00; -2.7969480E-05;0;  1.2667313E+00;  3.6939086E+04;  0.0000000E+00; -9.6750993E-13;  4.0000000E+04;  0.0000000E+00;  3.8898195E+04;  1.0642128E+00;  0.0000000E+00;  2.0251852E-01;  6.8493518E+02;
  1.4550881E+00;  9.9999998E-03;  1.0209420E-02;10027;  1.0255976E+00;  0.0000000E+00;  4.4068350E-03;  9.9741077E+02;  1.0525086E-01; -1.5891367E+03;3; -7.5236763E+01;  0.0000000E+00; -2.8372803E+00;0;  1.2645750E+00;  3.6938062E+04;  0.0000000E+00; -7.9989098E-02;  4.0000000E+04;  0.0000000E+00;  3.8898375E+04;  1.0621823E+00;  0.0000000E+00;  2.0239268E-01;  6.9549823E+02;
  1.4550812E+00;  9.9999998E-03;  2.0395063E-02;10028;  1.0227871E+00;  0.0000000E+00;  8.9628100E-03;  9.9740521E+02;  1.0525094E-01; -1.5925664E+03;3; -7.6418304E+01;  0.0000000E+00; -5.5883279E+00;0;  1.2573540E+00;  3.6936344E+04;  0.0000000E+00; -2.2549237E-01;  4.0000000E+04;  0.0000000E+00;  3.8900000E+04;  1.0551955E+00;  0.0000000E+00;  2.0215857E-01;  7.5141382E+02;
  1.4550689E+00;  9.9999998E-03;  3.0577788E-02;10029;  1.0178312E+00;  0.0000000E+00;  1.3765792E-02;  9.9740448E+02;  1.0525030E-01; -1.5930909E+03;3; -7.8267433E+01;  0.0000000E+00; -8.1721573E+00;0;  1.2400188E+00;  3.6933492E+04;  0.0000000E+00; -3.8983619E-01;  4.0000000E+04;  0.0000000E+00;  3.8903125E+04;  1.0377899E+00;  0.0000000E+00;  2.0222886E-01;  8.4453009E+02;
  1.4550501E+00;  9.9999998E-03; -4.0769808E-02;10022;  1.0104828E+00;  0.0000000E+00; -1.8074119E-02;  9.9737817E+02;  1.0525027E-01; -1.6093000E+03;3; -8.0513084E+01;  0.0000000E+00;  1.0635017E+01;0;  1.2055036E+00;  3.6930098E+04;  0.0000000E+00; -5.4154950E-01;  4.0000000E+04;  0.0000000E+00;  3.8904812E+04;  1.0039713E+00;  0.0000000E+00;  2.0153220E-01;  9.1831659E+02;
  1.4550502E+00;  9.9999998E-03;  4.0769797E-02;10030;  1.0104828E+00;  0.0000000E+00;  1.8074008E-02;  9.9737817E+02;  1.0525027E-01; -1.6093000E+03;3; -8.0513092E+01;  0.0000000E+00; -1.0635055E+01;0;  1.2055017E+00;  3.6930109E+04;  0.0000000E+00; -5.4158419E-01;  4.0000000E+04;  0.0000000E+00;  3.8904812E+04;  1.0039698E+00;  0.0000000E+00;  2.0153184E-01;  9.1833398E+02;
  1.4550227E+00;  9.9999998E-03; -5.0958440E-02;10021;  1.0008405E+00;  0.0000000E+00; -2.1389199E-02;  9.9735474E+02;  1.0525025E-01; -1.6237903E+03;3; -8.2712212E+01;  0.0000000E+00;  1.2977645E+01;0;  1.1505215E+00;  3.6927734E+04;  0.0000000E+00; -4.3739000E-01;  4.0000000E+04;  0.0000000E+00;  3.8905801E+04;  9.5232499E-01;  0.0000000E+00;  1.9819653E-01;  9.6197455E+02;
  1.4550226E+00;  9.9999998E-03;  5.0958421E-02;10031;  1.0008398E+00;  0.0000000E+00;  2.1387732E-02;  9.9735474E+02;  1.0525028E-01; -1.6237903E+03;3; -8.2711594E+01;  0.0000000E+00; -1.2977783E+01;0;  1.1505027E+00;  3.6927727E+04;  0.0000000E+00; -4.3737021E-01;  4.0000000E+04;  0.0000000E+00;  3.8905816E+04;  9.5231032E-01;  0.0000000E+00;  1.9819237E-01;  9.6192041E+02;
  1.4549862E+00;  9.9999998E-03; -6.1125048E-02;10020;  9.8890579E-01;  0.0000000E+00; -2.5162524E-02;  9.9737677E+02;  1.0525054E-01; -1.6103994E+03;3; -8.4984131E+01;  0.0000000E+00;  1.4857045E+01;0;  1.0752735E+00;  3.6925754E+04;  0.0000000E+00;  2.5672680E-01;  4.0000000E+04;  0.0000000E+00;  3.8909516E+04;  8.7900519E-01;  0.0000000E+00;  1.9626829E-01;  1.0636683E+03;
  1.4549862E+00;  9.9999998E-03;  6.1125029E-02;10032;  9.8890680E-01;  0.0000000E+00;  2.5162337E-02;  9.9737683E+02;  1.0525057E-01; -1.6103629E+03;3; -8.4983803E+01;  0.0000000E+00; -1.4857123E+01;0;  1.0752884E+00;  3.6925770E+04;  0.0000000E+00;  2.5672954E-01;  4.0000000E+04;  0.0000000E+00;  3.8909516E+04;  8.7902015E-01;  0.0000000E+00;  1.9626826E-01;  1.0636752E+03;
  1.4549387E+00;  9.9999998E-03; -7.1273185E-02;10019;  9.7475672E-01;  0.0000000E+00; -2.9181665E-02;  9.9747357E+02;  1.0525089E-01; -1.5511592E+03;3; -8.5926590E+01;  0.0000000E+00;  1.5463521E+01;0;  9.7702610E-01;  3.6926344E+04;  0.0000000E+00;  1.7762724E+00;  4.0000000E+04;  0.0000000E+00;  3.8916531E+04;  7.8068566E-01;  0.0000000E+00;  1.9634044E-01;  1.2465688E+03;
  1.4548777E+00;  9.9999998E-03; -8.1406340E-02;10018;  9.5942205E-01;  0.0000000E+00; -3.4390073E-02;  9.9766553E+02;  1.0525092E-01; -1.4335387E+03;3; -8.4769417E+01;  0.0000000E+00;  1.4652789E+01;0;  8.7499905E-01;  3.6931168E+04;  0.0000000E+00;  4.3894286E+00;  4.0000000E+04;  0.0000000E+00;  3.8926344E+04;  6.7039168E-01;  0.0000000E+00;  2.0460737E-01;  1.5548986E+03;
  1.4548032E+00;  9.9999998E-03; -9.1525160E-02;10017;  9.4314426E-01;  0.0000000E+00; -4.0221091E-02;  9.9794727E+02;  1.0525081E-01; -1.2607579E+03;3; -8.2931992E+01;  0.0000000E+00;  1.3776208E+01;0;  7.7168179E-01;  3.6939750E+04;  0.0000000E+00;  8.4811144E+00;  4.0000000E+04;  0.0000000E+00;  3.8939000E+04;  5.4909652E-01;  0.0000000E+00;  2.2258528E-01;  2.0902314E+03;
  1.4653780E+00;  9.9999998E-03; -4.0778771E-02;10037;  1.0223182E+00;  0.0000000E+00; -2.5855863E-02;  9.9818329E+02;  1.0520903E-01; -1.0864188E+03;3; -7.4416313E+01;  0.0000000E+00;  9.7917233E+00;0;  1.2798874E+00;  3.7056059E+04;  0.0000000E+00;  2.5818460E+00;  4.0000000E+04;  0.0000000E+00;  3.8863457E+04;  1.0270989E+00;  0.0000000E+00;  2.5278860E-01;  1.2051382E+03;
  1.4653990E+00;  9.9999998E-03; -3.0579211E-02;10038;  1.0291756E+00;  0.0000000E+00; -2.0347117E-02;  9.9819025E+02;  1.0520962E-01; -1.0822262E+03;3; -7.3314194E+01;  0.0000000E+00;  7.4382296E+00;0;  1.3000429E+00;  3.7056914E+04;  0.0000000E+00;  1.1953454E+00;  4.0000000E+04;  0.0000000E+00;  3.8862883E+04;  1.0540864E+00;  0.0000000E+00;  2.4595647E-01;  1.1334205E+03;
  1.4654138E+00;  9.9999998E-03; -2.0370448E-02;10039;  1.0336916E+00;  0.0000000E+00; -1.3772775E-02;  9.9818060E+02;  1.0520987E-01; -1.0879242E+03;3; -7.2587845E+01;  0.0000000E+00;  5.0293779E+00;0;  1.3045590E+00;  3.7056930E+04;  0.0000000E+00;  4.0146318E-01;  4.0000000E+04;  0.0000000E+00;  3.8861945E+04;  1.0651952E+00;  0.0000000E+00;  2.3936380E-01;  1.0991257E+03;
  1.4654230E+00;  9.9999998E-03; -1.0177825E-02;10040;  1.0361865E+00;  0.0000000E+00; -6.7504537E-03;  9.9813660E+02;  1.0520993E-01; -1.1142374E+03;3; -7.2182167E+01;  0.0000000E+00;  2.5663705E+00;0;  1.3027368E+00;  3.7056117E+04;  0.0000000E+00;  7.8486823E-02;  4.0000000E+04;  0.0000000E+00;  3.8859324E+04;  1.0676283E+00;  0.0000000E+00;  2.3510845E-01;  1.0490492E+03;
  1.4654261E+00;  9.9999998E-03; -8.6846432E-09;10041;  1.0369586E+00;  0.0000000E+00; -1.2375109E-07;  9.9811157E+02;  1.0521015E-01; -1.1291976E+03;3; -7.2061852E+01;  0.0000000E+00; -2.6606023E-05;0;  1.3011737E+00;  3.7055617E+04;  0.0000000E+00;  4.7604191E-12;  4.0000000E+04;  0.0000000E+00;  3.8857754E+04;  1.0673438E+00;  0.0000000E+00;  2.3382987E-01;  1.0237556E+03;
  1.4654230E+00;  9.9999998E-03;  1.0177808E-02;10042;  1.0361874E+00;  0.0000000E+00;  6.7501697E-03;  9.9813666E+02;  1.0520992E-01; -1.1142018E+03;3; -7.2181404E+01;  0.0000000E+00; -2.5664065E+00;0;  1.3027551E+00;  3.7056105E+04;  0.0000000E+00;  7.8491852E-02;  4.0000000E+04;  0.0000000E+00;  3.8859328E+04;  1.0676467E+00;  0.0000000E+00;  2.3510833E-01;  1.0490360E+03;
  1.4654138E+00;  9.9999998E-03;  2.0370422E-02;10043;  1.0336907E+00;  0.0000000E+00;  1.3772359E-02;  9.9818054E+02;  1.0520981E-01; -1.0879598E+03;3; -7.2588371E+01;  0.0000000E+00; -5.0294785E+00;0;  1.3045404E+00;  3.7056930E+04;  0.0000000E+00;  4.0143475E-01;  4.0000000E+04;  0.0000000E+00;  3.8861945E+04;  1.0651772E+00;  0.0000000E+00;  2.3936318E-01;  1.0991199E+03;
  1.4653991E+00;  9.9999998E-03;  3.0579196E-02;10044;  1.0291764E+00;  0.0000000E+00;  2.0347502E-02;  9.9819025E+02;  1.0520956E-01; -1.0822262E+03;3; -7.3314880E+01;  0.0000000E+00; -7.4382033E+00;0;  1.3000565E+00;  3.7056902E+04;  0.0000000E+00;  1.1953779E+00;  4.0000000E+04;  0.0000000E+00;  3.8862879E+04;  1.0540992E+00;  0.0000000E+00;  2.4595723E-01;  1.1334908E+03;
  1.4653780E+00;  9.9999998E-03;  4.0778752E-02;10045;  1.0223187E+00;  0.0000000E+00;  2.5855711E-02;  9.9818335E+02;  1.0520903E-01; -1.0863832E+03;3; -7.4415840E+01;  0.0000000E+00; -9.7916546E+00;0;  1.2798929E+00;  3.7056055E+04;  0.0000000E+00;  2.5818348E+00;  4.0000000E+04;  0.0000000E+00;  3.8863457E+04;  1.0271049E+00;  0.0000000E+00;  2.5278807E-01;  1.2051433E+03;
  1.4653494E+00;  9.9999998E-03; -5.0951984E-02;10036;  1.0129535E+00;  0.0000000E+00; -3.1662233E-02;  9.9822595E+02;  1.0520948E-01; -1.0610096E+03;3; -7.5950783E+01;  0.0000000E+00;  1.1844374E+01;0;  1.2419891E+00;  3.7054879E+04;  0.0000000E+00;  4.5478139E+00;  4.0000000E+04;  0.0000000E+00;  3.8868117E+04;  9.7893625E-01;  0.0000000E+00;  2.6305285E-01;  1.4166859E+03;
  1.4653494E+00;  9.9999998E-03;  5.0951969E-02;10046;  1.0129538E+00;  0.0000000E+00;  3.1661969E-02;  9.9822595E+02;  1.0520948E-01; -1.0610096E+03;3; -7.5950783E+01;  0.0000000E+00; -1.1844398E+01;0;  1.2419895E+00;  3.7054867E+04;  0.0000000E+00;  4.5479045E+00;  4.0000000E+04;  0.0000000E+00;  3.8868117E+04;  9.7893727E-01;  0.0000000E+00;  2.6305220E-01;  1.4166943E+03;
  3.5432582E-03;  9.9999998E-03;  6.9982558E-02;2484; -8.3805984E-03;  0.0000000E+00;  9.7179151E-04;  9.7096808E+02;  1.0000000E-01; -2.4052406E+04;3;  1.4939796E+02;  0.0000000E+00;  9.1146965E+00;0; -2.6004353E-01;  3.7730254E+04;  0.0000000E+00;  1.4000431E-04;  4.0000000E+04;  0.0000000E+00;  4.0018105E+04; -2.7066275E-01;  0.0000000E+00;  1.0619231E-02;  4.7096772E+03;
  3.5641177E-03;  9.9999998E-03;  7.9986192E-02;2485; -8.3696991E-03;  0.0000000E+00;  1.0975240E-03;  9.7082306E+02;  1.0000000E-01; -2.4172551E+04;3;  1.5113651E+02;  0.0000000E+00;  1.0388995E+01;0; -2.5953391E-01;  3.7719289E+04;  0.0000000E+00; -5.8012817E-04;  4.0000000E+04;  0.0000000E+00;  4.0018301E+04; -2.6974988E-01;  0.0000000E+00;  1.0215954E-02;  4.7437861E+03;
  3.5865435E-03;  9.9999998E-03;  8.9991346E-02;2486; -8.3532911E-03;  0.0000000E+00;  1.2141998E-03;  9.7067438E+02;  1.0000000E-01; -2.4295707E+04;3;  1.5302167E+02;  0.0000000E+00;  1.1577751E+01;0; -2.5861639E-01;  3.7707871E+04;  0.0000000E+00; -2.9723351E-03;  4.0000000E+04;  0.0000000E+00;  4.0018312E+04; -2.6847109E-01;  0.0000000E+00;  9.8547107E-03;  4.7737290E+03;
  3.6094470E-03;  9.9999998E-03;  9.9996984E-02;2487; -8.3208587E-03;  0.0000000E+00;  1.3206606E-03;  9.7052960E+02;  1.0000000E-01; -2.4415654E+04;3;  1.5514705E+02;  0.0000000E+00;  1.2640997E+01;0; -2.5712842E-01;  3.7696844E+04;  0.0000000E+00; -8.1274379E-03;  4.0000000E+04;  0.0000000E+00;  4.0018438E+04; -2.6672423E-01;  0.0000000E+00;  9.5958179E-03;  4.8062661E+03;
  3.6308542E-03;  9.9999998E-03;  1.1000121E-01;2488; -8.2586817E-03;  0.0000000E+00;  1.4194893E-03;  9.7040759E+02;  1.0000000E-01; -2.4516738E+04;3;  1.5758353E+02;  0.0000000E+00;  1.3559068E+01;0; -2.5489694E-01;  3.7687328E+04;  0.0000000E+00; -1.7185150E-02;  4.0000000E+04;  0.0000000E+00;  4.0018738E+04; -2.6439482E-01;  0.0000000E+00;  9.4978847E-03;  4.8550752E+03;
  3.6479877E-03;  9.9999998E-03;  1.2000197E-01;2489; -8.1508672E-03;  0.0000000E+00;  1.5152006E-03;  9.7032343E+02;  1.0000000E-01; -2.4586465E+04;3;  1.6047954E+02;  0.0000000E+00;  1.4313661E+01;0; -2.5175795E-01;  3.7680664E+04;  0.0000000E+00; -3.1094238E-02;  4.0000000E+04;  0.0000000E+00;  4.0019395E+04; -2.6136255E-01;  0.0000000E+00;  9.6046068E-03;  4.9407178E+03;
  3.6575429E-03;  9.9999998E-03;  1.2999792E-01;2490; -7.9810787E-03;  0.0000000E+00;  1.6183347E-03;  9.7030450E+02;  1.0000000E-01; -2.4602168E+04;3;  1.6391043E+02;  0.0000000E+00;  1.4928928E+01;0; -2.4757779E-01;  3.7678191E+04;  0.0000000E+00; -5.0312106E-02;  4.0000000E+04;  0.0000000E+00;  4.0020738E+04; -2.5750855E-01;  0.0000000E+00;  9.9307531E-03;  5.0885024E+03;
  3.6556057E-03;  9.9999998E-03;  1.3998857E-01;2491; -7.7368203E-03;  0.0000000E+00;  1.7370777E-03;  9.7037506E+02;  1.0000000E-01; -2.4543701E+04;3;  1.6792429E+02;  0.0000000E+00;  1.5400348E+01;0; -2.4227193E-01;  3.7681918E+04;  0.0000000E+00; -7.4479192E-02;  4.0000000E+04;  0.0000000E+00;  4.0022648E+04; -2.5272119E-01;  0.0000000E+00;  1.0449256E-02;  5.3244785E+03;
  3.6380300E-03;  9.9999998E-03;  1.4997531E-01;2492; -7.4059232E-03;  0.0000000E+00;  1.8946814E-03;  9.7056525E+02;  1.0000000E-01; -2.4386125E+04;3;  1.7247214E+02;  0.0000000E+00;  1.5795958E+01;0; -2.3582397E-01;  3.7693527E+04;  0.0000000E+00; -1.0227737E-01;  4.0000000E+04;  0.0000000E+00;  4.0025512E+04; -2.4690524E-01;  0.0000000E+00;  1.1081264E-02;  5.6679097E+03;
  3.6002870E-03;  9.9999998E-03;  1.5995851E-01;2493; -6.9859326E-03;  0.0000000E+00;  2.1037608E-03;  9.7090021E+02;  1.0000000E-01; -2.4108652E+04;3;  1.7731113E+02;  0.0000000E+00;  1.6008013E+01;0; -2.2829595E-01;  3.7715457E+04;  0.0000000E+00; -1.3169083E-01;  4.0000000E+04;  0.0000000E+00;  4.0029320E+04; -2.3998588E-01;  0.0000000E+00;  1.1689934E-02;  6.1179116E+03;
  3.5366428E-03;  9.9999998E-03;  1.6993731E-01;2494; -6.4824698E-03;  0.0000000E+00;  2.3733841E-03;  9.7140735E+02;  1.0000000E-01; -2.3688467E+04;3;  1.8190326E+02;  0.0000000E+00;  1.5775416E+01;0; -2.1982473E-01;  3.7749289E+04;  0.0000000E+00; -1.5974066E-01;  4.0000000E+04;  0.0000000E+00;  4.0033781E+04; -2.3191191E-01;  0.0000000E+00;  1.2087177E-02;  6.6444448E+03;
  3.4406104E-03;  9.9999998E-03;  1.7991179E-01;2495; -5.9061814E-03;  0.0000000E+00;  2.7165562E-03;  9.7210278E+02;  1.0000000E-01; -2.3112334E+04;3;  1.8552890E+02;  0.0000000E+00;  1.4815997E+01;0; -2.1060075E-01;  3.7797395E+04;  0.0000000E+00; -1.8228848E-01;  4.0000000E+04;  0.0000000E+00;  4.0038555E+04; -2.2265691E-01;  0.0000000E+00;  1.2056152E-02;  7.1862104E+03;
  3.3065975E-03;  9.9999998E-03;  1.8988261E-01;2496; -5.2787666E-03;  0.0000000E+00;  3.1287037E-03;  9.7300153E+02;  1.0000000E-01; -2.2367713E+04;3;  1.8712437E+02;  0.0000000E+00;  1.2702687E+01;0; -2.0084254E-01;  3.7860992E+04;  0.0000000E+00; -1.9428228E-01;  4.0000000E+04;  0.0000000E+00;  4.0042922E+04; -2.1222782E-01;  0.0000000E+00;  1.1385272E-02;  7.6529189E+03;
  3.1293118E-03;  9.9999998E-03;  1.9985099E-01;2497; -4.6333307E-03;  0.0000000E+00;  3.5731087E-03;  9.7410773E+02;  1.0000000E-01; -2.1451246E+04;3;  1.8549698E+02;  0.0000000E+00;  9.0786085E+00;0; -1.9075505E-01;  3.7941645E+04;  0.0000000E+00; -1.9065282E-01;  4.0000000E+04;  0.0000000E+00;  4.0045938E+04; -2.0066312E-01;  0.0000000E+00;  9.9080633E-03;  7.9327056E+03;
  2.9070743E-03;  9.9999998E-03;  2.0981757E-01;2498; -4.0097274E-03;  0.0000000E+00;  3.9904686E-03;  9.7541876E+02;  1.0000000E-01; -2.0365104E+04;3;  1.7950481E+02;  0.0000000E+00;  3.7430539E+00;0; -1.8050569E-01;  3.8039641E+04;  0.0000000E+00; -1.6783351E-01;  4.0000000E+04;  0.0000000E+00;  4.0046680E+04; -1.8804637E-01;  0.0000000E+00;  7.5406665E-03;  7.9040464E+03;
  2.6395761E-03;  9.9999998E-03;  2.1978335E-01;2499; -3.4535096E-03;  0.0000000E+00;  4.3083313E-03;  9.7691760E+02;  1.0000000E-01; -1.9123311E+04;3;  1.6849380E+02;  0.0000000E+00; -3.1023750E+00;0; -1.7019217E-01;  3.8155379E+04;  0.0000000E+00; -1.2550457E-01;  4.0000000E+04;  0.0000000E+00;  4.0043859E+04; -1.7449896E-01;  0.0000000E+00;  4.3067900E-03;  7.4537886E+03;
  2.3321598E-03;  9.9999998E-03;  2.2974984E-01;2500; -2.9919255E-03;  0.0000000E+00;  4.4970694E-03;  9.7858191E+02;  1.0000000E-01; -1.7744486E+04;3;  1.5222844E+02;  0.0000000E+00; -1.1180072E+01;0; -1.5984762E-01;  3.8287570E+04;  0.0000000E+00; -6.7803629E-02;  4.0000000E+04;  0.0000000E+00;  4.0037758E+04; -1.6018774E-01;  0.0000000E+00;  3.4011574E-04;  6.4981494E+03;
  1.3479039E-02;  9.9999998E-03;  6.9979660E-02;2544; -1.1983569E-02;  0.0000000E+00;  1.2522870E-03;  9.7278876E+02;  1.0000000E-01; -2.2544004E+04;3;  9.7309906E+01;  0.0000000E+00;  8.0029564E+00;0; -2.8483611E-01;  3.7862629E+04;  0.0000000E+00; -9.4212184E-04;  4.0000000E+04;  0.0000000E+00;  4.0022375E+04; -2.9716596E-01;  0.0000000E+00;  1.2329849E-02;  5.1125161E+03;
  1.3498211E-02;  9.9999998E-03;  7.9981111E-02;2545; -1.1981608E-02;  0.0000000E+00;  1.4164485E-03;  9.7263843E+02;  1.0000000E-01; -2.2668545E+04;3;  9.8908554E+01;  0.0000000E+00;  9.1358433E+00;0; -2.8439513E-01;  3.7851070E+04;  0.0000000E+00; -2.1335650E-03;  4.0000000E+04;  0.0000000E+00;  4.0022656E+04; -2.9620075E-01;  0.0000000E+00;  1.1805610E-02;  5.1413364E+03;
  1.3519851E-02;  9.9999998E-03;  8.9983873E-02;2546; -1.1975612E-02;  0.0000000E+00;  1.5668613E-03;  9.7247351E+02;  1.0000000E-01; -2.2805182E+04;3;  1.0061667E+02;  0.0000000E+00;  1.0185867E+01;0; -2.8354713E-01;  3.7838738E+04;  0.0000000E+00; -5.5636880E-03;  4.0000000E+04;  0.0000000E+00;  4.0022574E+04; -2.9486531E-01;  0.0000000E+00;  1.1318163E-02;  5.1456113E+03;
  1.3543081E-02;  9.9999998E-03;  9.9987201E-02;2547; -1.1953457E-02;  0.0000000E+00;  1.7010572E-03;  9.7231030E+02;  1.0000000E-01; -2.2940389E+04;3;  1.0246488E+02;  0.0000000E+00;  1.1113063E+01;0; -2.8211606E-01;  3.7826637E+04;  0.0000000E+00; -1.2696226E-02;  4.0000000E+04;  0.0000000E+00;  4.0022383E+04; -2.9305738E-01;  0.0000000E+00;  1.0941320E-02;  5.1307124E+03;
  1.3566418E-02;  9.9999998E-03;  1.0998986E-01;2548; -1.1898540E-02;  0.0000000E+00;  1.8204636E-03;  9.7215808E+02;  1.0000000E-01; -2.3066508E+04;3;  1.0461834E+02;  0.0000000E+00;  1.1890953E+01;0; -2.7991441E-01;  3.7815359E+04;  0.0000000E+00; -2.5042737E-02;  4.0000000E+04;  0.0000000E+00;  4.0022020E+04; -2.9066348E-01;  0.0000000E+00;  1.0749061E-02;  5.1124146E+03;
  1.3587641E-02;  9.9999998E-03;  1.1999065E-01;2549; -1.1791892E-02;  0.0000000E+00;  1.9286204E-03;  9.7203766E+02;  1.0000000E-01; -2.3166258E+04;3;  1.0722719E+02;  0.0000000E+00;  1.2493869E+01;0; -2.7676165E-01;  3.7806445E+04;  0.0000000E+00; -4.3786183E-02;  4.0000000E+04;  0.0000000E+00;  4.0022000E+04; -2.8756151E-01;  0.0000000E+00;  1.0799852E-02;  5.1175137E+03;
  1.3603593E-02;  9.9999998E-03;  1.2998863E-01;2550; -1.1613754E-02;  0.0000000E+00;  2.0367899E-03;  9.7196948E+02;  1.0000000E-01; -2.3222750E+04;3;  1.1048370E+02;  0.0000000E+00;  1.2936471E+01;0; -2.7250862E-01;  3.7800992E+04;  0.0000000E+00; -6.9309853E-02;  4.0000000E+04;  0.0000000E+00;  4.0022391E+04; -2.8362828E-01;  0.0000000E+00;  1.1119675E-02;  5.1815610E+03;
  1.3610298E-02;  9.9999998E-03;  1.3998368E-01;2551; -1.1344630E-02;  0.0000000E+00;  2.1615699E-03;  9.7198132E+02;  1.0000000E-01; -2.3212924E+04;3;  1.1453131E+02;  0.0000000E+00;  1.3254777E+01;0; -2.6705608E-01;  3.7800824E+04;  0.0000000E+00; -1.0066168E-01;  4.0000000E+04;  0.0000000E+00;  4.0023641E+04; -2.7874231E-01;  0.0000000E+00;  1.1686248E-02;  5.3438569E+03;
  1.3603184E-02;  9.9999998E-03;  1.4997582E-01;2552; -1.0971611E-02;  0.0000000E+00;  2.3186032E-03;  9.7209784E+02;  1.0000000E-01; -2.3116434E+04;3;  1.1943528E+02;  0.0000000E+00;  1.3453802E+01;0; -2.6037905E-01;  3.7807441E+04;  0.0000000E+00; -1.3520582E-01;  4.0000000E+04;  0.0000000E+00;  4.0026145E+04; -2.7279523E-01;  0.0000000E+00;  1.2416177E-02;  5.6375586E+03;
  1.3577443E-02;  9.9999998E-03;  1.5996547E-01;2553; -1.0484112E-02;  0.0000000E+00;  2.5344789E-03;  9.7234692E+02;  1.0000000E-01; -2.2910068E+04;3;  1.2508690E+02;  0.0000000E+00;  1.3496094E+01;0; -2.5253966E-01;  3.7823016E+04;  0.0000000E+00; -1.6878402E-01;  4.0000000E+04;  0.0000000E+00;  4.0029891E+04; -2.6569515E-01;  0.0000000E+00;  1.3155502E-02;  6.0730156E+03;
  1.3528169E-02;  9.9999998E-03;  1.6995296E-01;2554; -9.8842988E-03;  0.0000000E+00;  2.8217109E-03;  9.7275647E+02;  1.0000000E-01; -2.2570770E+04;3;  1.3107256E+02;  0.0000000E+00;  1.3153106E+01;0; -2.4368285E-01;  3.7849496E+04;  0.0000000E+00; -1.9552816E-01;  4.0000000E+04;  0.0000000E+00;  4.0034512E+04; -2.5736988E-01;  0.0000000E+00;  1.3687028E-02;  6.6278232E+03;
  1.3448651E-02;  9.9999998E-03;  1.7993687E-01;2555; -9.1845728E-03;  0.0000000E+00;  3.1780908E-03;  9.7333942E+02;  1.0000000E-01; -2.2087770E+04;3;  1.3676462E+02;  0.0000000E+00;  1.2065699E+01;0; -2.3401047E-01;  3.7888672E+04;  0.0000000E+00; -2.0800389E-01;  4.0000000E+04;  0.0000000E+00;  4.0039949E+04; -2.4776690E-01;  0.0000000E+00;  1.3756428E-02;  7.2419844E+03;
  1.3332987E-02;  9.9999998E-03;  1.8991639E-01;2556; -8.4045185E-03;  0.0000000E+00;  3.5921922E-03;  9.7411041E+02;  1.0000000E-01; -2.1449023E+04;3;  1.4123984E+02;  0.0000000E+00;  9.8879213E+00;0; -2.2375318E-01;  3.7942141E+04;  0.0000000E+00; -1.9804963E-01;  4.0000000E+04;  0.0000000E+00;  4.0044941E+04; -2.3686442E-01;  0.0000000E+00;  1.3111226E-02;  7.8186646E+03;
  1.3176317E-02;  9.9999998E-03;  1.9989166E-01;2557; -7.5812428E-03;  0.0000000E+00;  4.0343357E-03;  9.7507629E+02;  1.0000000E-01; -2.0648799E+04;3;  1.4329901E+02;  0.0000000E+00;  6.3348861E+00;0; -2.1312910E-01;  3.8011328E+04;  0.0000000E+00; -1.5855335E-01;  4.0000000E+04;  0.0000000E+00;  4.0048961E+04; -2.2467490E-01;  0.0000000E+00;  1.1545792E-02;  8.2315215E+03;
  1.2976561E-02;  9.9999998E-03;  2.0986299E-01;2558; -6.7633293E-03;  0.0000000E+00;  4.4412091E-03;  9.7623309E+02;  1.0000000E-01; -1.9690455E+04;3;  1.4167442E+02;  0.0000000E+00;  1.1761159E+00;0; -2.0230569E-01;  3.8097207E+04;  0.0000000E+00; -8.5977510E-02;  4.0000000E+04;  0.0000000E+00;  4.0050605E+04; -2.1125215E-01;  0.0000000E+00;  8.9464579E-03;  8.3385615E+03;
  1.2732734E-02;  9.9999998E-03;  2.1983041E-01;2559; -5.9954701E-03;  0.0000000E+00;  4.7536590E-03;  9.7756952E+02;  1.0000000E-01; -1.8583227E+04;3;  1.3537244E+02;  0.0000000E+00; -5.5508456E+00;0; -1.9137780E-01;  3.8200129E+04;  0.0000000E+00;  1.6986871E-02;  4.0000000E+04;  0.0000000E+00;  4.0048734E+04; -1.9669876E-01;  0.0000000E+00;  5.3209583E-03;  8.0014131E+03;
  1.2446821E-02;  9.9999998E-03;  2.2979453E-01;2560; -5.3114663E-03;  0.0000000E+00;  4.9338983E-03;  9.7906567E+02;  1.0000000E-01; -1.7343707E+04;3;  1.2388242E+02;  0.0000000E+00; -1.3683167E+01;0; -1.8035807E-01;  3.8319418E+04;  0.0000000E+00;  1.3984963E-01;  4.0000000E+04;  0.0000000E+00;  4.0042781E+04; -1.8116711E-01;  0.0000000E+00;  8.0904551E-04;  7.1104507E+03;
  2.3418099E-02;  9.9999998E-03;  6.9974810E-02;2605; -1.6189160E-02;  0.0000000E+00;  1.4909408E-03;  9.7565344E+02;  1.0000000E-01; -2.0170639E+04;3;  4.1801006E+01;  0.0000000E+00;  6.3573847E+00;0; -3.0366114E-01;  3.8075660E+04;  0.0000000E+00; -2.3134619E-03;  4.0000000E+04;  0.0000000E+00;  4.0027160E+04; -3.1753096E-01;  0.0000000E+00;  1.3869831E-02;  5.4545522E+03;
  2.3435868E-02;  9.9999998E-03;  7.9972647E-02;2606; -1.6195398E-02;  0.0000000E+00;  1.6906543E-03;  9.7549567E+02;  1.0000000E-01; -2.0301352E+04;3;  4.3226849E+01;  0.0000000E+00;  7.2776408E+00;0; -3.0332205E-01;  3.8063688E+04;  0.0000000E+00; -3.9152447E-03;  4.0000000E+04;  0.0000000E+00;  4.0027289E+04; -3.1653413E-01;  0.0000000E+00;  1.3212097E-02;  5.4772314E+03;
  2.3456799E-02;  9.9999998E-03;  8.9970544E-02;2607; -1.6198931E-02;  0.0000000E+00;  1.8716884E-03;  9.7532336E+02;  1.0000000E-01; -2.0444113E+04;3;  4.4632370E+01;  0.0000000E+00;  8.1245995E+00;0; -3.0259445E-01;  3.8050836E+04;  0.0000000E+00; -8.1413444E-03;  4.0000000E+04;  0.0000000E+00;  4.0026926E+04; -3.1517613E-01;  0.0000000E+00;  1.2581684E-02;  5.4491191E+03;
  2.3480209E-02;  9.9999998E-03;  9.9968448E-02;2608; -1.6185582E-02;  0.0000000E+00;  2.0300073E-03;  9.7513922E+02;  1.0000000E-01; -2.0596701E+04;3;  4.6129021E+01;  0.0000000E+00;  8.8621197E+00;0; -3.0129269E-01;  3.8037668E+04;  0.0000000E+00; -1.6757753E-02;  4.0000000E+04;  0.0000000E+00;  4.0026086E+04; -3.1335932E-01;  0.0000000E+00;  1.2066635E-02;  5.3728828E+03;
  2.3505127E-02;  9.9999998E-03;  1.0996657E-01;2609; -1.6136445E-02;  0.0000000E+00;  2.1656402E-03;  9.7496008E+02;  1.0000000E-01; -2.0745092E+04;3;  4.7833725E+01;  0.0000000E+00;  9.4610472E+00;0; -2.9921812E-01;  3.8025016E+04;  0.0000000E+00; -3.1594086E-02;  4.0000000E+04;  0.0000000E+00;  4.0025250E+04; -3.1097576E-01;  0.0000000E+00;  1.1757629E-02;  5.2657925E+03;
  2.3529425E-02;  9.9999998E-03;  1.1996505E-01;2610; -1.6028931E-02;  0.0000000E+00;  2.2802134E-03;  9.7479919E+02;  1.0000000E-01; -2.0878373E+04;3;  4.9973743E+01;  0.0000000E+00;  9.8913364E+00;0; -2.9617512E-01;  3.8013629E+04;  0.0000000E+00; -5.4068986E-02;  4.0000000E+04;  0.0000000E+00;  4.0024367E+04; -3.0790490E-01;  0.0000000E+00;  1.1729777E-02;  5.1612559E+03;
  2.3550645E-02;  9.9999998E-03;  1.2996343E-01;2611; -1.5839430E-02;  0.0000000E+00;  2.3853632E-03;  9.7467871E+02;  1.0000000E-01; -2.0978221E+04;3;  5.2779541E+01;  0.0000000E+00;  1.0154900E+01;0; -2.9200029E-01;  3.8004973E+04;  0.0000000E+00; -8.4576756E-02;  4.0000000E+04;  0.0000000E+00;  4.0023672E+04; -3.0402341E-01;  0.0000000E+00;  1.2023109E-02;  5.1067065E+03;
  2.3564750E-02;  9.9999998E-03;  1.3996132E-01;2612; -1.5544535E-02;  0.0000000E+00;  2.4965389E-03;  9.7462225E+02;  1.0000000E-01; -2.1024986E+04;3;  5.6490677E+01;  0.0000000E+00;  1.0263494E+01;0; -2.8658310E-01;  3.8000305E+04;  0.0000000E+00; -1.2176149E-01;  4.0000000E+04;  0.0000000E+00;  4.0023883E+04; -2.9920650E-01;  0.0000000E+00;  1.2623397E-02;  5.1574326E+03;
  2.3567092E-02;  9.9999998E-03;  1.4995858E-01;2613; -1.5125140E-02;  0.0000000E+00;  2.6346040E-03;  9.7465387E+02;  1.0000000E-01; -2.0998814E+04;3;  6.1283981E+01;  0.0000000E+00;  1.0225806E+01;0; -2.7988848E-01;  3.8001156E+04;  0.0000000E+00; -1.6189945E-01;  4.0000000E+04;  0.0000000E+00;  4.0025754E+04; -2.9333508E-01;  0.0000000E+00;  1.3446600E-02;  5.3642036E+03;
  2.3552846E-02;  9.9999998E-03;  1.5995501E-01;2614; -1.4565989E-02;  0.0000000E+00;  2.8290097E-03;  9.7479968E+02;  1.0000000E-01; -2.0877977E+04;3;  6.7171104E+01;  0.0000000E+00;  9.9719172E+00;0; -2.7197686E-01;  3.8009445E+04;  0.0000000E+00; -1.9890644E-01;  4.0000000E+04;  0.0000000E+00;  4.0028797E+04; -2.8630254E-01;  0.0000000E+00;  1.4325691E-02;  5.7525649E+03;
  2.3516862E-02;  9.9999998E-03;  1.6995074E-01;2615; -1.3864066E-02;  0.0000000E+00;  3.0953775E-03;  9.7508667E+02;  1.0000000E-01; -2.0640207E+04;3;  7.3883530E+01;  0.0000000E+00;  9.2743998E+00;0; -2.6299673E-01;  3.8026773E+04;  0.0000000E+00; -2.2423524E-01;  4.0000000E+04;  0.0000000E+00;  4.0033555E+04; -2.7801436E-01;  0.0000000E+00;  1.5017627E-02;  6.3107563E+03;
  2.3452906E-02;  9.9999998E-03;  1.7994550E-01;2616; -1.3024006E-02;  0.0000000E+00;  3.4454246E-03;  9.7552881E+02;  1.0000000E-01; -2.0273896E+04;3;  8.0958496E+01;  0.0000000E+00;  7.8662453E+00;0; -2.5315931E-01;  3.8054906E+04;  0.0000000E+00; -2.2732246E-01;  4.0000000E+04;  0.0000000E+00;  4.0039234E+04; -2.6839098E-01;  0.0000000E+00;  1.5231655E-02;  6.9836553E+03;
  2.3354424E-02;  9.9999998E-03;  1.8993796E-01;2617; -1.2067562E-02;  0.0000000E+00;  3.8619153E-03;  9.7613690E+02;  1.0000000E-01; -1.9770107E+04;3;  8.7597435E+01;  0.0000000E+00;  5.4593239E+00;0; -2.4270201E-01;  3.8095582E+04;  0.0000000E+00; -1.9706903E-01;  4.0000000E+04;  0.0000000E+00;  4.0045188E+04; -2.5737521E-01;  0.0000000E+00;  1.4673201E-02;  7.6712524E+03;
  2.3215422E-02;  9.9999998E-03;  1.9992624E-01;2618; -1.1027502E-02;  0.0000000E+00;  4.3322109E-03;  9.7692194E+02;  1.0000000E-01; -1.9119756E+04;3;  9.2726105E+01;  0.0000000E+00;  1.9497907E+00;0; -2.3184882E-01;  3.8150223E+04;  0.0000000E+00; -1.2439156E-01;  4.0000000E+04;  0.0000000E+00;  4.0050293E+04; -2.4494252E-01;  0.0000000E+00;  1.3093699E-02;  8.2342676E+03;
  2.3032704E-02;  9.9999998E-03;  2.0990938E-01;2619; -9.9567836E-03;  0.0000000E+00;  4.7925883E-03;  9.7787756E+02;  1.0000000E-01; -1.8328025E+04;3;  9.5119057E+01;  0.0000000E+00; -2.7868214E+00;0; -2.2076583E-01;  3.8219996E+04;  0.0000000E+00; -5.6608384E-03;  4.0000000E+04;  0.0000000E+00;  4.0053219E+04; -2.3110938E-01;  0.0000000E+00;  1.0343547E-02;  8.5093662E+03;
  2.2805519E-02;  9.9999998E-03;  2.1988672E-01;2620; -8.9177815E-03;  0.0000000E+00;  5.1519596E-03;  9.7899750E+02;  1.0000000E-01; -1.7400199E+04;3;  9.3534752E+01;  0.0000000E+00; -8.8954153E+00;0; -2.0953290E-01;  3.8305484E+04;  0.0000000E+00;  1.5387180E-01;  4.0000000E+04;  0.0000000E+00;  4.0052434E+04; -2.1594420E-01;  0.0000000E+00;  6.4112977E-03;  8.3318408E+03;
  2.2533998E-02;  9.9999998E-03;  2.2985806E-01;2621; -7.9549253E-03;  0.0000000E+00;  5.3610862E-03;  9.8026312E+02;  1.0000000E-01; -1.6351637E+04;3;  8.7239761E+01;  0.0000000E+00; -1.6368042E+01;0; -1.9813940E-01;  3.8406898E+04;  0.0000000E+00;  3.3800891E-01;  4.0000000E+04;  0.0000000E+00;  4.0047102E+04; -1.9957593E-01;  0.0000000E+00;  1.4365334E-03;  7.5645034E+03;
  3.3366781E-02;  9.9999998E-03;  6.9970623E-02;2666; -2.0683408E-02;  0.0000000E+00;  1.6904372E-03;  9.7915326E+02;  1.0000000E-01; -1.7271117E+04;3; -4.7945328E+00;  0.0000000E+00;  4.6889534E+00;0; -3.1602377E-01;  3.8339711E+04;  0.0000000E+00; -3.4951598E-03;  4.0000000E+04;  0.0000000E+00;  4.0031887E+04; -3.3117029E-01;  0.0000000E+00;  1.5146513E-02;  5.7395864E+03;
  3.3383626E-02;  9.9999998E-03;  7.9964876E-02;2667; -2.0696726E-02;  0.0000000E+00;  1.9228350E-03;  9.7899475E+02;  1.0000000E-01; -1.7402471E+04;3; -3.6047070E+00;  0.0000000E+00;  5.3884392E+00;0; -3.1580964E-01;  3.8327523E+04;  0.0000000E+00; -5.2958908E-03;  4.0000000E+04;  0.0000000E+00;  4.0031867E+04; -3.3015719E-01;  0.0000000E+00;  1.4347564E-02;  5.7553853E+03;
  3.3404335E-02;  9.9999998E-03;  8.9958400E-02;2668; -2.0707920E-02;  0.0000000E+00;  2.1310325E-03;  9.7880975E+02;  1.0000000E-01; -1.7555701E+04;3; -2.4775500E+00;  0.0000000E+00;  6.0279241E+00;0; -3.1524330E-01;  3.8314320E+04;  0.0000000E+00; -9.8364903E-03;  4.0000000E+04;  0.0000000E+00;  4.0031223E+04; -3.2880557E-01;  0.0000000E+00;  1.3562257E-02;  5.6896284E+03;
  3.3428468E-02;  9.9999998E-03;  9.9951528E-02;2669; -2.0701284E-02;  0.0000000E+00;  2.3084937E-03;  9.7861200E+02;  1.0000000E-01; -1.7719549E+04;3; -1.3859572E+00;  0.0000000E+00;  6.5748210E+00;0; -3.1413430E-01;  3.8300270E+04;  0.0000000E+00; -1.9033484E-02;  4.0000000E+04;  0.0000000E+00;  4.0029871E+04; -3.2702750E-01;  0.0000000E+00;  1.2893186E-02;  5.5415747E+03;
  3.3455260E-02;  9.9999998E-03;  1.0994522E-01;2670; -2.0655746E-02;  0.0000000E+00;  2.4510846E-03;  9.7840643E+02;  1.0000000E-01; -1.7889865E+04;3; -1.5727066E-01;  0.0000000E+00;  6.9971428E+00;0; -3.1227484E-01;  3.8286184E+04;  0.0000000E+00; -3.4891322E-02;  4.0000000E+04;  0.0000000E+00;  4.0028137E+04; -3.2472330E-01;  0.0000000E+00;  1.2448451E-02;  5.3295469E+03;
  3.3482891E-02;  9.9999998E-03;  1.1994023E-01;2671; -2.0545777E-02;  0.0000000E+00;  2.5645164E-03;  9.7820648E+02;  1.0000000E-01; -1.8055539E+04;3;  1.4342586E+00;  0.0000000E+00;  7.2796707E+00;0; -3.0945840E-01;  3.8272633E+04;  0.0000000E+00; -5.8961477E-02;  4.0000000E+04;  0.0000000E+00;  4.0026020E+04; -3.2177994E-01;  0.0000000E+00;  1.2321531E-02;  5.0937241E+03;
  3.3509199E-02;  9.9999998E-03;  1.2993714E-01;2672; -2.0343525E-02;  0.0000000E+00;  2.6563359E-03;  9.7803156E+02;  1.0000000E-01; -1.8200424E+04;3;  3.6608157E+00;  0.0000000E+00;  7.4064279E+00;0; -3.0550954E-01;  3.8260887E+04;  0.0000000E+00; -9.1633730E-02;  4.0000000E+04;  0.0000000E+00;  4.0024320E+04; -3.1807786E-01;  0.0000000E+00;  1.2568333E-02;  4.8940264E+03;
  3.3530679E-02;  9.9999998E-03;  1.3993579E-01;2673; -2.0023057E-02;  0.0000000E+00;  2.7424621E-03;  9.7790430E+02;  1.0000000E-01; -1.8305854E+04;3;  6.7989492E+00;  0.0000000E+00;  7.3809543E+00;0; -3.0030715E-01;  3.8251781E+04;  0.0000000E+00; -1.3129885E-01;  4.0000000E+04;  0.0000000E+00;  4.0023480E+04; -3.1349289E-01;  0.0000000E+00;  1.3185726E-02;  4.8035293E+03;
  3.3542551E-02;  9.9999998E-03;  1.4993577E-01;2674; -1.9558964E-02;  0.0000000E+00;  2.8477239E-03;  9.7784503E+02;  1.0000000E-01; -1.8354986E+04;3;  1.1120338E+01;  0.0000000E+00;  7.2061348E+00;0; -2.9380754E-01;  3.8246832E+04;  0.0000000E+00; -1.7345093E-01;  4.0000000E+04;  0.0000000E+00;  4.0024094E+04; -3.0790037E-01;  0.0000000E+00;  1.4092845E-02;  4.8933428E+03;
  3.3539392E-02;  9.9999998E-03;  1.5993682E-01;2675; -1.8933157E-02;  0.0000000E+00;  2.9984177E-03;  9.7788470E+02;  1.0000000E-01; -1.8322100E+04;3;  1.6687265E+01;  0.0000000E+00;  6.7785277E+00;0; -2.8606525E-01;  3.8247199E+04;  0.0000000E+00; -2.1050094E-01;  4.0000000E+04;  0.0000000E+00;  4.0026570E+04; -3.0117941E-01;  0.0000000E+00;  1.5114146E-02;  5.2079043E+03;
  3.3515766E-02;  9.9999998E-03;  1.6993865E-01;2676; -1.8134000E-02;  0.0000000E+00;  3.2254809E-03;  9.7803827E+02;  1.0000000E-01; -1.8194893E+04;3;  2.3437038E+01;  0.0000000E+00;  5.8919654E+00;0; -2.7723080E-01;  3.8254609E+04;  0.0000000E+00; -2.3186189E-01;  4.0000000E+04;  0.0000000E+00;  4.0031055E+04; -2.9321581E-01;  0.0000000E+00;  1.5985025E-02;  5.7493149E+03;
  3.3465657E-02;  9.9999998E-03;  1.7994066E-01;2677; -1.7164221E-02;  0.0000000E+00;  3.5415380E-03;  9.7832513E+02;  1.0000000E-01; -1.7957221E+04;3;  3.0986431E+01;  0.0000000E+00;  4.2762971E+00;0; -2.6751941E-01;  3.8270574E+04;  0.0000000E+00; -2.2469027E-01;  4.0000000E+04;  0.0000000E+00;  4.0037031E+04; -2.8390217E-01;  0.0000000E+00;  1.6382745E-02;  6.4690273E+03;
  3.3382423E-02;  9.9999998E-03;  1.8994184E-01;2678; -1.6038503E-02;  0.0000000E+00;  3.9444114E-03;  9.7875397E+02;  1.0000000E-01; -1.7601922E+04;3;  3.8711445E+01;  0.0000000E+00;  1.7159197E+00;0; -2.5717336E-01;  3.8296902E+04;  0.0000000E+00; -1.7580135E-01;  4.0000000E+04;  0.0000000E+00;  4.0043746E+04; -2.7314654E-01;  0.0000000E+00;  1.5973184E-02;  7.2655518E+03;
  3.3260882E-02;  9.9999998E-03;  1.9994023E-01;2679; -1.4785336E-02;  0.0000000E+00;  4.4341888E-03;  9.7933417E+02;  1.0000000E-01; -1.7121244E+04;3;  4.5705574E+01;  0.0000000E+00; -1.8014846E+00;0; -2.4641784E-01;  3.8334953E+04;  0.0000000E+00; -7.4879736E-02;  4.0000000E+04;  0.0000000E+00;  4.0049871E+04; -2.6088378E-01;  0.0000000E+00;  1.4465947E-02;  7.9889429E+03;
  3.3095825E-02;  9.9999998E-03;  2.0993343E-01;2680; -1.3457244E-02;  0.0000000E+00;  4.9546720E-03;  9.8006439E+02;  1.0000000E-01; -1.6516273E+04;3;  5.0839874E+01;  0.0000000E+00; -6.2300625E+00;0; -2.3541218E-01;  3.8386344E+04;  0.0000000E+00;  8.1452258E-02;  4.0000000E+04;  0.0000000E+00;  4.0054188E+04; -2.4708441E-01;  0.0000000E+00;  1.1672234E-02;  8.4554434E+03;
  3.2885253E-02;  9.9999998E-03;  2.1991993E-01;2681; -1.2119088E-02;  0.0000000E+00;  5.4156440E-03;  9.8093402E+02;  1.0000000E-01; -1.5795800E+04;3;  5.2971382E+01;  0.0000000E+00; -1.1552534E+01;0; -2.2421931E-01;  3.8452016E+04;  0.0000000E+00;  2.8567451E-01;  4.0000000E+04;  0.0000000E+00;  4.0054703E+04; -2.3177084E-01;  0.0000000E+00;  7.5515429E-03;  8.4732744E+03;
  3.2628249E-02;  9.9999998E-03;  2.2989890E-01;2682; -1.0838067E-02;  0.0000000E+00;  5.7171015E-03;  9.8193781E+02;  1.0000000E-01; -1.4964169E+04;3;  5.1090931E+01;  0.0000000E+00; -1.7972282E+01;0; -2.1279772E-01;  3.8532277E+04;  0.0000000E+00;  5.1704055E-01;  4.0000000E+04;  0.0000000E+00;  4.0050461E+04; -2.1503285E-01;  0.0000000E+00;  2.2351295E-03;  7.8755781E+03;
  4.3326046E-02;  9.9999998E-03;  6.9966458E-02;2727; -2.5193593E-02;  0.0000000E+00;  1.8454812E-03;  9.8288171E+02;  1.0000000E-01; -1.4182167E+04;3; -3.5841740E+01;  0.0000000E+00;  3.2270880E+00;0; -3.2196832E-01;  3.8624375E+04;  0.0000000E+00; -3.8927819E-03;  4.0000000E+04;  0.0000000E+00;  4.0036129E+04; -3.3805472E-01;  0.0000000E+00;  1.6086407E-02;  5.9670518E+03;
  4.3342572E-02;  9.9999998E-03;  7.9958238E-02;2728; -2.5211979E-02;  0.0000000E+00;  2.1059811E-03;  9.8272412E+02;  1.0000000E-01; -1.4312731E+04;3; -3.4886635E+01;  0.0000000E+00;  3.7254996E+00;0; -3.2188770E-01;  3.8612344E+04;  0.0000000E+00; -5.5244123E-03;  4.0000000E+04;  0.0000000E+00;  4.0036156E+04; -3.3703196E-01;  0.0000000E+00;  1.5144271E-02;  5.9755859E+03;
  4.3363389E-02;  9.9999998E-03;  8.9948893E-02;2729; -2.5228499E-02;  0.0000000E+00;  2.3361836E-03;  9.8254065E+02;  1.0000000E-01; -1.4464727E+04;3; -3.4079868E+01;  0.0000000E+00;  4.1784902E+00;0; -3.2150745E-01;  3.8598891E+04;  0.0000000E+00; -9.7130639E-03;  4.0000000E+04;  0.0000000E+00;  4.0035156E+04; -3.3570549E-01;  0.0000000E+00;  1.4198028E-02;  5.8692651E+03;
  4.3388877E-02;  9.9999998E-03;  9.9938758E-02;2730; -2.5226146E-02;  0.0000000E+00;  2.5274814E-03;  9.8232983E+02;  1.0000000E-01; -1.4639389E+04;3; -3.3341072E+01;  0.0000000E+00;  4.5605922E+00;0; -3.2063600E-01;  3.8584543E+04;  0.0000000E+00; -1.8338824E-02;  4.0000000E+04;  0.0000000E+00;  4.0033258E+04; -3.3400083E-01;  0.0000000E+00;  1.3364836E-02;  5.6436011E+03;
  4.3418154E-02;  9.9999998E-03;  1.0992885E-01;2731; -2.5181694E-02;  0.0000000E+00;  2.6752364E-03;  9.8210114E+02;  1.0000000E-01; -1.4828864E+04;3; -3.2542862E+01;  0.0000000E+00;  4.8477416E+00;0; -3.1906089E-01;  3.8569445E+04;  0.0000000E+00; -3.3367693E-02;  4.0000000E+04;  0.0000000E+00;  4.0030449E+04; -3.3183157E-01;  0.0000000E+00;  1.2770670E-02;  5.3178447E+03;
  4.3449517E-02;  9.9999998E-03;  1.1992032E-01;2732; -2.5067359E-02;  0.0000000E+00;  2.7798756E-03;  9.8186523E+02;  1.0000000E-01; -1.5024315E+04;3; -3.1466187E+01;  0.0000000E+00;  5.0183945E+00;0; -3.1656852E-01;  3.8554281E+04;  0.0000000E+00; -5.6280971E-02;  4.0000000E+04;  0.0000000E+00;  4.0027395E+04; -3.2909641E-01;  0.0000000E+00;  1.2527880E-02;  4.9386943E+03;
  4.3481000E-02;  9.9999998E-03;  1.2991454E-01;2733; -2.4853263E-02;  0.0000000E+00;  2.8504906E-03;  9.8164069E+02;  1.0000000E-01; -1.5210335E+04;3; -2.9850342E+01;  0.0000000E+00;  5.0614982E+00;0; -3.1297496E-01;  3.8539801E+04;  0.0000000E+00; -8.7317921E-02;  4.0000000E+04;  0.0000000E+00;  4.0024133E+04; -3.2568482E-01;  0.0000000E+00;  1.2709866E-02;  4.5787822E+03;
  4.3509521E-02;  9.9999998E-03;  1.3991232E-01;2734; -2.4508977E-02;  0.0000000E+00;  2.9043513E-03;  9.8144684E+02;  1.0000000E-01; -1.5370923E+04;3; -2.7388361E+01;  0.0000000E+00;  4.9746413E+00;0; -3.0815002E-01;  3.8526645E+04;  0.0000000E+00; -1.2458416E-01;  4.0000000E+04;  0.0000000E+00;  4.0022000E+04; -3.2147685E-01;  0.0000000E+00;  1.3326810E-02;  4.3293369E+03;
  4.3530513E-02;  9.9999998E-03;  1.4991356E-01;2735; -2.4006547E-02;  0.0000000E+00;  2.9673625E-03;  9.8130438E+02;  1.0000000E-01; -1.5488944E+04;3; -2.3797058E+01;  0.0000000E+00;  4.7542887E+00;0; -3.0204085E-01;  3.8516027E+04;  0.0000000E+00; -1.6297694E-01;  4.0000000E+04;  0.0000000E+00;  4.0021609E+04; -3.1634548E-01;  0.0000000E+00;  1.4304626E-02;  4.2838071E+03;
  4.3538239E-02;  9.9999998E-03;  1.5991744E-01;2736; -2.3323679E-02;  0.0000000E+00;  3.0667724E-03;  9.8123444E+02;  1.0000000E-01; -1.5546918E+04;3; -1.8908968E+01;  0.0000000E+00;  4.2939816E+00;0; -2.9469875E-01;  3.8508715E+04;  0.0000000E+00; -1.9380720E-01;  4.0000000E+04;  0.0000000E+00;  4.0023367E+04; -3.1016225E-01;  0.0000000E+00;  1.5463500E-02;  4.5082671E+03;
  4.3526780E-02;  9.9999998E-03;  1.6992408E-01;2737; -2.2440620E-02;  0.0000000E+00;  3.2465160E-03;  9.8125824E+02;  1.0000000E-01; -1.5527215E+04;3; -1.2720837E+01;  0.0000000E+00;  3.4003942E+00;0; -2.8627196E-01;  3.8506219E+04;  0.0000000E+00; -2.0522487E-01;  4.0000000E+04;  0.0000000E+00;  4.0027398E+04; -3.0279475E-01;  0.0000000E+00;  1.6522788E-02;  5.0214795E+03;
  4.3489546E-02;  9.9999998E-03;  1.7993207E-01;2738; -2.1361589E-02;  0.0000000E+00;  3.5134261E-03;  9.8138916E+02;  1.0000000E-01; -1.5418725E+04;3; -5.5067520E+00;  0.0000000E+00;  1.8020740E+00;0; -2.7697429E-01;  3.8510113E+04;  0.0000000E+00; -1.8333797E-01;  4.0000000E+04;  0.0000000E+00;  4.0033582E+04; -2.9410732E-01;  0.0000000E+00;  1.7133025E-02;  5.7840620E+03;
  4.3419693E-02;  9.9999998E-03;  1.8993925E-01;2739; -2.0084389E-02;  0.0000000E+00;  3.8983354E-03;  9.8163812E+02;  1.0000000E-01; -1.5212459E+04;3;  2.2942502E+00;  0.0000000E+00; -6.4325565E-01;0; -2.6704994E-01;  3.8521523E+04;  0.0000000E+00; -1.1445116E-01;  4.0000000E+04;  0.0000000E+00;  4.0041109E+04; -2.8397575E-01;  0.0000000E+00;  1.6925821E-02;  6.6936665E+03;
  4.3311924E-02;  9.9999998E-03;  1.9994372E-01;2740; -1.8648580E-02;  0.0000000E+00;  4.3773092E-03;  9.8200830E+02;  1.0000000E-01; -1.4905801E+04;3;  9.8736706E+00;  0.0000000E+00; -3.9660609E+00;0; -2.5671130E-01;  3.8542520E+04;  0.0000000E+00;  1.1437361E-02;  4.0000000E+04;  0.0000000E+00;  4.0048574E+04; -2.7228460E-01;  0.0000000E+00;  1.5573283E-02;  7.5894409E+03;
  4.3162473E-02;  9.9999998E-03;  2.0994323E-01;2741; -1.7090870E-02;  0.0000000E+00;  4.9312548E-03;  9.8250525E+02;  1.0000000E-01; -1.4494060E+04;3;  1.6289482E+01;  0.0000000E+00; -7.9877229E+00;0; -2.4610940E-01;  3.8574480E+04;  0.0000000E+00;  1.9631924E-01;  4.0000000E+04;  0.0000000E+00;  4.0054297E+04; -2.5895745E-01;  0.0000000E+00;  1.2848047E-02;  8.2673057E+03;
  4.2967852E-02;  9.9999998E-03;  2.1993510E-01;2742; -1.5475325E-02;  0.0000000E+00;  5.4803425E-03;  9.8312036E+02;  1.0000000E-01; -1.3984444E+04;3;  2.0500662E+01;  0.0000000E+00; -1.2563746E+01;0; -2.3528704E-01;  3.8619047E+04;  0.0000000E+00;  4.3004248E-01;  4.0000000E+04;  0.0000000E+00;  4.0056574E+04; -2.4396339E-01;  0.0000000E+00;  8.6763445E-03;  8.5074248E+03;
  4.2725969E-02;  9.9999998E-03;  2.2991814E-01;2743; -1.3877356E-02;  0.0000000E+00;  5.9056338E-03;  9.8384766E+02;  1.0000000E-01; -1.3381894E+04;3;  2.1532232E+01;  0.0000000E+00; -1.7848497E+01;0; -2.2417206E-01;  3.8677203E+04;  0.0000000E+00;  6.8820524E-01;  4.0000000E+04;  0.0000000E+00;  4.0053434E+04; -2.2734126E-01;  0.0000000E+00;  3.1692069E-03;  8.1118037E+03;
  5.3295981E-02;  9.9999998E-03;  6.9963261E-02;2788; -2.9509656E-02;  0.0000000E+00;  1.9513106E-03;  9.8648981E+02;  1.0000000E-01; -1.1192918E+04;3; -5.0414890E+01;  0.0000000E+00;  2.0663950E+00;0; -3.2203948E-01;  3.8902348E+04;  0.0000000E+00; -3.1150023E-03;  4.0000000E+04;  0.0000000E+00;  4.0040125E+04; -3.3867899E-01;  0.0000000E+00;  1.6639493E-02;  6.1326426E+03;
  5.3313412E-02;  9.9999998E-03;  7.9953454E-02;2789; -2.9530672E-02;  0.0000000E+00;  2.2360878E-03;  9.8633850E+02;  1.0000000E-01; -1.1318297E+04;3; -4.9686459E+01;  0.0000000E+00;  2.4006422E+00;0; -3.2208490E-01;  3.8890758E+04;  0.0000000E+00; -4.0978240E-03;  4.0000000E+04;  0.0000000E+00;  4.0039852E+04; -3.3764333E-01;  0.0000000E+00;  1.5558417E-02;  6.1346099E+03;
  5.3335629E-02;  9.9999998E-03;  8.9942351E-02;2790; -2.9549375E-02;  0.0000000E+00;  2.4819509E-03;  9.8615747E+02;  1.0000000E-01; -1.1468269E+04;3; -4.9131824E+01;  0.0000000E+00;  2.7011118E+00;0; -3.2189596E-01;  3.8877777E+04;  0.0000000E+00; -7.1903025E-03;  4.0000000E+04;  0.0000000E+00;  4.0038465E+04; -3.3634803E-01;  0.0000000E+00;  1.4452067E-02;  5.9878906E+03;
  5.3362738E-02;  9.9999998E-03;  9.9930324E-02;2791; -2.9547757E-02;  0.0000000E+00;  2.6800467E-03;  9.8594092E+02;  1.0000000E-01; -1.1647671E+04;3; -4.8680954E+01;  0.0000000E+00;  2.9508901E+00;0; -3.2128489E-01;  3.8863543E+04;  0.0000000E+00; -1.4061985E-02;  4.0000000E+04;  0.0000000E+00;  4.0036113E+04; -3.3473623E-01;  0.0000000E+00;  1.3451342E-02;  5.6842773E+03;
  5.3394925E-02;  9.9999998E-03;  1.0991807E-01;2792; -2.9501794E-02;  0.0000000E+00;  2.8269587E-03;  9.8569623E+02;  1.0000000E-01; -1.1850381E+04;3; -4.8226837E+01;  0.0000000E+00;  3.1348820E+00;0; -3.2003763E-01;  3.8848047E+04;  0.0000000E+00; -2.6418604E-02;  4.0000000E+04;  0.0000000E+00;  4.0032312E+04; -3.3273762E-01;  0.0000000E+00;  1.2699989E-02;  5.2437627E+03;
  5.3430691E-02;  9.9999998E-03;  1.1990669E-01;2793; -2.9382206E-02;  0.0000000E+00;  2.9181482E-03;  9.8543579E+02;  1.0000000E-01; -1.2066178E+04;3; -4.7591206E+01;  0.0000000E+00;  3.2332921E+00;0; -3.1793988E-01;  3.8831941E+04;  0.0000000E+00; -4.5422707E-02;  4.0000000E+04;  0.0000000E+00;  4.0027953E+04; -3.3026928E-01;  0.0000000E+00;  1.2329389E-02;  4.7192896E+03;
  5.3467583E-02;  9.9999998E-03;  1.2989831E-01;2794; -2.9156970E-02;  0.0000000E+00;  2.9637301E-03;  9.8517279E+02;  1.0000000E-01; -1.2284048E+04;3; -4.6524242E+01;  0.0000000E+00;  3.2362368E+00;0; -3.1480205E-01;  3.8815336E+04;  0.0000000E+00; -7.0907362E-02;  4.0000000E+04;  0.0000000E+00;  4.0023652E+04; -3.2723320E-01;  0.0000000E+00;  1.2431134E-02;  4.1959033E+03;
  5.3502705E-02;  9.9999998E-03;  1.3989444E-01;2795; -2.8793056E-02;  0.0000000E+00;  2.9814728E-03;  9.8492181E+02;  1.0000000E-01; -1.2491992E+04;3; -4.4729992E+01;  0.0000000E+00;  3.1393158E+00;0; -3.1048885E-01;  3.8799074E+04;  0.0000000E+00; -1.0047463E-01;  4.0000000E+04;  0.0000000E+00;  4.0020004E+04; -3.2351899E-01;  0.0000000E+00;  1.3030130E-02;  3.7830984E+03;
  5.3531863E-02;  9.9999998E-03;  1.4989574E-01;2796; -2.8261023E-02;  0.0000000E+00;  2.9967411E-03;  9.8470404E+02;  1.0000000E-01; -1.2672432E+04;3; -4.1941574E+01;  0.0000000E+00;  2.9335012E+00;0; -3.0494177E-01;  3.8783465E+04;  0.0000000E+00; -1.2841150E-01;  4.0000000E+04;  0.0000000E+00;  4.0018438E+04; -3.1900340E-01;  0.0000000E+00;  1.4061620E-02;  3.5969688E+03;
  5.3549085E-02;  9.9999998E-03;  1.5990153E-01;2797; -2.7534356E-02;  0.0000000E+00;  3.0404241E-03;  9.8453998E+02;  1.0000000E-01; -1.2808329E+04;3; -3.7969227E+01;  0.0000000E+00;  2.5220132E+00;0; -2.9820690E-01;  3.8769336E+04;  0.0000000E+00; -1.4515704E-01;  4.0000000E+04;  0.0000000E+00;  4.0019320E+04; -3.1355292E-01;  0.0000000E+00;  1.5346009E-02;  3.7273347E+03;
  5.3548064E-02;  9.9999998E-03;  1.6991098E-01;2798; -2.6590616E-02;  0.0000000E+00;  3.1591759E-03;  9.8444434E+02;  1.0000000E-01; -1.2887586E+04;3; -3.2750980E+01;  0.0000000E+00;  1.7184687E+00;0; -2.9042965E-01;  3.8757812E+04;  0.0000000E+00; -1.3826330E-01;  4.0000000E+04;  0.0000000E+00;  4.0022973E+04; -3.0702186E-01;  0.0000000E+00;  1.6592216E-02;  4.2117759E+03;
  5.3521805E-02;  9.9999998E-03;  1.7992359E-01;2799; -2.5422933E-02;  0.0000000E+00;  3.3786832E-03;  9.8443066E+02;  1.0000000E-01; -1.2898895E+04;3; -2.6447206E+01;  0.0000000E+00;  2.9123172E-01;0; -2.8181913E-01;  3.8749871E+04;  0.0000000E+00; -9.3995027E-02;  4.0000000E+04;  0.0000000E+00;  4.0029594E+04; -2.9925054E-01;  0.0000000E+00;  1.7431412E-02;  5.0217192E+03;
  5.3463031E-02;  9.9999998E-03;  1.8993607E-01;2800; -2.4032332E-02;  0.0000000E+00;  3.7265955E-03;  9.8450977E+02;  1.0000000E-01; -1.2833365E+04;3; -1.9424109E+01;  0.0000000E+00; -1.8832729E+00;0; -2.7260640E-01;  3.8747277E+04;  0.0000000E+00;  7.2854244E-05;  4.0000000E+04;  0.0000000E+00;  4.0037930E+04; -2.9007465E-01;  0.0000000E+00;  1.7468238E-02;  6.0553057E+03;
  5.3365767E-02;  9.9999998E-03;  1.9994530E-01;2801; -2.2444256E-02;  0.0000000E+00;  4.1911756E-03;  9.8468329E+02;  1.0000000E-01; -1.2689616E+04;3; -1.2297705E+01;  0.0000000E+00; -4.7844534E+00;0; -2.6299170E-01;  3.8751680E+04;  0.0000000E+00;  1.5155205E-01;  4.0000000E+04;  0.0000000E+00;  4.0046664E+04; -2.7933359E-01;  0.0000000E+00;  1.6341899E-02;  7.1397422E+03;
  5.3227231E-02;  9.9999998E-03;  2.0994854E-01;2802; -2.0689106E-02;  0.0000000E+00;  4.7747735E-03;  9.8495612E+02;  1.0000000E-01; -1.2463549E+04;3; -5.8485365E+00;  0.0000000E+00; -8.1718426E+00;0; -2.5310212E-01;  3.8764797E+04;  0.0000000E+00;  3.5916096E-01;  4.0000000E+04;  0.0000000E+00;  4.0054129E+04; -2.6689169E-01;  0.0000000E+00;  1.3789561E-02;  8.0486909E+03;
  5.3045284E-02;  9.9999998E-03;  2.1994342E-01;2803; -1.8833246E-02;  0.0000000E+00;  5.3952434E-03;  9.8532385E+02;  1.0000000E-01; -1.2158915E+04;3; -1.0176759E+00;  0.0000000E+00; -1.1849793E+01;0; -2.4295475E-01;  3.8788602E+04;  0.0000000E+00;  6.0901898E-01;  4.0000000E+04;  0.0000000E+00;  4.0057965E+04; -2.5265732E-01;  0.0000000E+00;  9.7025754E-03;  8.5327285E+03;
  5.2817233E-02;  9.9999998E-03;  2.2992782E-01;2804; -1.6955379E-02;  0.0000000E+00;  5.9276377E-03;  9.8578424E+02;  1.0000000E-01; -1.1777494E+04;3;  1.2885580E+00;  0.0000000E+00; -1.5937149E+01;0; -2.3244397E-01;  3.8824602E+04;  0.0000000E+00;  8.7289250E-01;  4.0000000E+04;  0.0000000E+00;  4.0056312E+04; -2.3660922E-01;  0.0000000E+00;  4.1652499E-03;  8.3609209E+03;
  6.3278273E-02;  9.9999998E-03;  6.9961682E-02;2849; -3.3493783E-02;  0.0000000E+00;  1.9988799E-03;  9.8969440E+02;  1.0000000E-01; -8.5379805E+03;3; -5.1534863E+01;  0.0000000E+00;  1.2125194E+00;0; -3.1720769E-01;  3.9151246E+04;  0.0000000E+00; -1.2341024E-03;  4.0000000E+04;  0.0000000E+00;  4.0042805E+04; -3.3398899E-01;  0.0000000E+00;  1.6781302E-02;  6.2298911E+03;
  6.3297883E-02;  9.9999998E-03;  7.9951130E-02;2850; -3.3514604E-02;  0.0000000E+00;  2.3023339E-03;  9.8955798E+02;  1.0000000E-01; -8.6510146E+03;3; -5.1012184E+01;  0.0000000E+00;  1.4218680E+00;0; -3.1735331E-01;  3.9140699E+04;  0.0000000E+00; -1.0931622E-03;  4.0000000E+04;  0.0000000E+00;  4.0042816E+04; -3.3292499E-01;  0.0000000E+00;  1.5571680E-02;  6.2275942E+03;
  6.3323058E-02;  9.9999998E-03;  8.9939006E-02;2851; -3.3532090E-02;  0.0000000E+00;  2.5578970E-03;  9.8938330E+02;  1.0000000E-01; -8.7957510E+03;3; -5.0643456E+01;  0.0000000E+00;  1.6079150E+00;0; -3.1733927E-01;  3.9128699E+04;  0.0000000E+00; -2.4124938E-03;  4.0000000E+04;  0.0000000E+00;  4.0041164E+04; -3.3165196E-01;  0.0000000E+00;  1.4312685E-02;  6.0441128E+03;
  6.3353583E-02;  9.9999998E-03;  9.9925667E-02;2852; -3.3528101E-02;  0.0000000E+00;  2.7591819E-03;  9.8917175E+02;  1.0000000E-01; -8.9710059E+03;3; -5.0404186E+01;  0.0000000E+00;  1.7627233E+00;0; -3.1698588E-01;  3.9115105E+04;  0.0000000E+00; -6.5384414E-03;  4.0000000E+04;  0.0000000E+00;  4.0038016E+04; -3.3013397E-01;  0.0000000E+00;  1.3148113E-02;  5.6676123E+03;
  6.3389011E-02;  9.9999998E-03;  1.0991193E-01;2853; -3.3477448E-02;  0.0000000E+00;  2.8973755E-03;  9.8892603E+02;  1.0000000E-01; -9.1745557E+03;3; -5.0202671E+01;  0.0000000E+00;  1.8733822E+00;0; -3.1608328E-01;  3.9100266E+04;  0.0000000E+00; -1.4755290E-02;  4.0000000E+04;  0.0000000E+00;  4.0033445E+04; -3.2832155E-01;  0.0000000E+00;  1.2238257E-02;  5.1186938E+03;
  6.3428730E-02;  9.9999998E-03;  1.1989877E-01;2854; -3.3351094E-02;  0.0000000E+00;  2.9722680E-03;  9.8865161E+02;  1.0000000E-01; -9.4019072E+03;3; -4.9883133E+01;  0.0000000E+00;  1.9276432E+00;0; -3.1441990E-01;  3.9084109E+04;  0.0000000E+00; -2.7696049E-02;  4.0000000E+04;  0.0000000E+00;  4.0028074E+04; -3.2615298E-01;  0.0000000E+00;  1.1733076E-02;  4.4561885E+03;
  6.3470803E-02;  9.9999998E-03;  1.2988809E-01;2855; -3.3115894E-02;  0.0000000E+00;  2.9874397E-03;  9.8836053E+02;  1.0000000E-01; -9.6430850E+03;3; -4.9239391E+01;  0.0000000E+00;  1.9157431E+00;0; -3.1180617E-01;  3.9066691E+04;  0.0000000E+00; -4.4516608E-02;  4.0000000E+04;  0.0000000E+00;  4.0022402E+04; -3.2354826E-01;  0.0000000E+00;  1.1742072E-02;  3.7770071E+03;
  6.3511685E-02;  9.9999998E-03;  1.3988271E-01;2856; -3.2738186E-02;  0.0000000E+00;  2.9668428E-03;  9.8806952E+02;  1.0000000E-01; -9.8841650E+03;3; -4.8033413E+01;  0.0000000E+00;  1.8348998E+00;0; -3.0810609E-01;  3.9048082E+04;  0.0000000E+00; -6.1997525E-02;  4.0000000E+04;  0.0000000E+00;  4.0017555E+04; -3.2041183E-01;  0.0000000E+00;  1.2305727E-02;  3.2082593E+03;
  6.3547164E-02;  9.9999998E-03;  1.4988384E-01;2857; -3.2185894E-02;  0.0000000E+00;  2.9351928E-03;  9.8779407E+02;  1.0000000E-01; -1.0112405E+04;3; -4.6017078E+01;  0.0000000E+00;  1.6737465E+00;0; -3.0325973E-01;  3.9028836E+04;  0.0000000E+00; -7.3647849E-02;  4.0000000E+04;  0.0000000E+00;  4.0014809E+04; -3.1663001E-01;  0.0000000E+00;  1.3370289E-02;  2.8885864E+03;
  6.3571461E-02;  9.9999998E-03;  1.5989079E-01;2858; -3.1430487E-02;  0.0000000E+00;  2.9247508E-03;  9.8755048E+02;  1.0000000E-01; -1.0314178E+04;3; -4.3004097E+01;  0.0000000E+00;  1.3487492E+00;0; -2.9730850E-01;  3.9009125E+04;  0.0000000E+00; -6.9084309E-02;  4.0000000E+04;  0.0000000E+00;  4.0015012E+04; -3.1206870E-01;  0.0000000E+00;  1.4760181E-02;  2.9326589E+03;
  6.3577838E-02;  9.9999998E-03;  1.6990241E-01;2859; -3.0447464E-02;  0.0000000E+00;  2.9786683E-03;  9.8735687E+02;  1.0000000E-01; -1.0474568E+04;3; -3.8933887E+01;  0.0000000E+00;  6.8121427E-01;0; -2.9039326E-01;  3.8989824E+04;  0.0000000E+00; -3.5608046E-02;  4.0000000E+04;  0.0000000E+00;  4.0018719E+04; -3.0657348E-01;  0.0000000E+00;  1.6180227E-02;  3.3985676E+03;
  6.3559398E-02;  9.9999998E-03;  1.7991771E-01;2860; -2.9220644E-02;  0.0000000E+00;  3.1445599E-03;  9.8721716E+02;  1.0000000E-01; -1.0590317E+04;3; -3.3877518E+01;  0.0000000E+00; -5.2043992E-01;0; -2.8271186E-01;  3.8971738E+04;  0.0000000E+00;  3.9453294E-02;  4.0000000E+04;  0.0000000E+00;  4.0025434E+04; -2.9996276E-01;  0.0000000E+00;  1.7250897E-02;  4.2693174E+03;
  6.3508563E-02;  9.9999998E-03;  1.8993455E-01;2861; -2.7753510E-02;  0.0000000E+00;  3.4466768E-03;  9.8714612E+02;  1.0000000E-01; -1.0649181E+04;3; -2.8143950E+01;  0.0000000E+00; -2.3531930E+00;0; -2.7447319E-01;  3.8956309E+04;  0.0000000E+00;  1.6584727E-01;  4.0000000E+04;  0.0000000E+00;  4.0034816E+04; -2.9203179E-01;  0.0000000E+00;  1.7558612E-02;  5.4425952E+03;
  6.3418843E-02;  9.9999998E-03;  1.9994810E-01;2862; -2.6050022E-02;  0.0000000E+00;  3.9016381E-03;  9.8714465E+02;  1.0000000E-01; -1.0650415E+04;3; -2.2176817E+01;  0.0000000E+00; -4.7309546E+00;0; -2.6585466E-01;  3.8945371E+04;  0.0000000E+00;  3.4697065E-01;  4.0000000E+04;  0.0000000E+00;  4.0045000E+04; -2.8257072E-01;  0.0000000E+00;  1.6716061E-02;  6.7328887E+03;
  6.3287452E-02;  9.9999998E-03;  2.0995457E-01;2863; -2.4141649E-02;  0.0000000E+00;  4.5024357E-03;  9.8721423E+02;  1.0000000E-01; -1.0592787E+04;3; -1.6624237E+01;  0.0000000E+00; -7.3697815E+00;0; -2.5695145E-01;  3.8940973E+04;  0.0000000E+00;  5.7621652E-01;  4.0000000E+04;  0.0000000E+00;  4.0054043E+04; -2.7137890E-01;  0.0000000E+00;  1.4427449E-02;  7.8901196E+03;
  6.3114017E-02;  9.9999998E-03;  2.1995115E-01;2864; -2.2093659E-02;  0.0000000E+00;  5.1777284E-03;  9.8735663E+02;  1.0000000E-01; -1.0474814E+04;3; -1.2302485E+01;  0.0000000E+00; -1.0037161E+01;0; -2.4774502E-01;  3.8945414E+04;  0.0000000E+00;  8.3405036E-01;  4.0000000E+04;  0.0000000E+00;  4.0059633E+04; -2.5829473E-01;  0.0000000E+00;  1.0549704E-02;  8.6338330E+03;
  6.2896721E-02;  9.9999998E-03;  2.2993577E-01;2865; -1.9975957E-02;  0.0000000E+00;  5.8156066E-03;  9.8757147E+02;  1.0000000E-01; -1.0296795E+04;3; -9.9955826E+00;  0.0000000E+00; -1.2826216E+01;0; -2.3809390E-01;  3.8960723E+04;  0.0000000E+00;  1.0871259E+00;  4.0000000E+04;  0.0000000E+00;  4.0060070E+04; -2.4323077E-01;  0.0000000E+00;  5.1368764E-03;  8.6987012E+03;
  7.3278002E-02;  9.9999998E-03;  6.9961846E-02;2910; -3.7081778E-02;  0.0000000E+00;  1.9844938E-03;  9.9230463E+02;  1.0000000E-01; -6.3754741E+03;3; -4.4075100E+01;  0.0000000E+00;  6.3226289E-01;0; -3.0874187E-01;  3.9355027E+04;  0.0000000E+00;  1.1951094E-03;  4.0000000E+04;  0.0000000E+00;  4.0044793E+04; -3.2525453E-01;  0.0000000E+00;  1.6512670E-02;  6.2517188E+03;
  7.3300511E-02;  9.9999998E-03;  7.9951294E-02;2911; -3.7098221E-02;  0.0000000E+00;  2.2983216E-03;  9.9218909E+02;  1.0000000E-01; -6.4711748E+03;3; -4.3713936E+01;  0.0000000E+00;  7.5179285E-01;0; -3.0895039E-01;  3.9346137E+04;  0.0000000E+00;  2.7488733E-03;  4.0000000E+04;  0.0000000E+00;  4.0044750E+04; -3.2414094E-01;  0.0000000E+00;  1.5190550E-02;  6.2491025E+03;
  7.3329367E-02;  9.9999998E-03;  8.9938842E-02;2912; -3.7110087E-02;  0.0000000E+00;  2.5552299E-03;  9.9203540E+02;  1.0000000E-01; -6.5985293E+03;3; -4.3489292E+01;  0.0000000E+00;  8.5795623E-01;0; -3.0907816E-01;  3.9335879E+04;  0.0000000E+00;  3.6137227E-03;  4.0000000E+04;  0.0000000E+00;  4.0042973E+04; -3.2287115E-01;  0.0000000E+00;  1.3792988E-02;  6.0357534E+03;
  7.3364325E-02;  9.9999998E-03;  9.9924758E-02;2913; -3.7099525E-02;  0.0000000E+00;  2.7549113E-03;  9.9183771E+02;  1.0000000E-01; -6.7623271E+03;3; -4.3376755E+01;  0.0000000E+00;  9.4733489E-01;0; -3.0895773E-01;  3.9324105E+04;  0.0000000E+00;  2.8085283E-03;  4.0000000E+04;  0.0000000E+00;  4.0039293E+04; -3.2143259E-01;  0.0000000E+00;  1.2474867E-02;  5.5962363E+03;
  7.3404163E-02;  9.9999998E-03;  1.0990980E-01;2914; -3.7041731E-02;  0.0000000E+00;  2.8790887E-03;  9.9160236E+02;  1.0000000E-01; -6.9572847E+03;3; -4.3322392E+01;  0.0000000E+00;  1.0092100E+00;0; -3.0838996E-01;  3.9310762E+04;  0.0000000E+00; -4.6153163E-04;  4.0000000E+04;  0.0000000E+00;  4.0034078E+04; -3.1980130E-01;  0.0000000E+00;  1.1411330E-02;  4.9515054E+03;
  7.3447451E-02;  9.9999998E-03;  1.1989528E-01;2915; -3.6906991E-02;  0.0000000E+00;  2.9282186E-03;  9.9132959E+02;  1.0000000E-01; -7.1832534E+03;3; -4.3204250E+01;  0.0000000E+00;  1.0367110E+00;0; -3.0717036E-01;  3.9295547E+04;  0.0000000E+00; -6.1787008E-03;  4.0000000E+04;  0.0000000E+00;  4.0027637E+04; -3.1793991E-01;  0.0000000E+00;  1.0769557E-02;  4.1657598E+03;
  7.3492818E-02;  9.9999998E-03;  1.2988313E-01;2916; -3.6663502E-02;  0.0000000E+00;  2.9144674E-03;  9.9103131E+02;  1.0000000E-01; -7.4304072E+03;3; -4.2868752E+01;  0.0000000E+00;  1.0251788E+00;0; -3.0511639E-01;  3.9278508E+04;  0.0000000E+00; -1.2649737E-02;  4.0000000E+04;  0.0000000E+00;  4.0020855E+04; -3.1579262E-01;  0.0000000E+00;  1.0676242E-02;  3.3471392E+03;
  7.3537119E-02;  9.9999998E-03;  1.3987623E-01;2917; -3.6276963E-02;  0.0000000E+00;  2.8576825E-03;  9.9071704E+02;  1.0000000E-01; -7.6907456E+03;3; -4.2119972E+01;  0.0000000E+00;  9.7020108E-01;0; -3.0209598E-01;  3.9259227E+04;  0.0000000E+00; -1.5597598E-02;  4.0000000E+04;  0.0000000E+00;  4.0014891E+04; -3.1328300E-01;  0.0000000E+00;  1.1187016E-02;  2.6396089E+03;
  7.3576018E-02;  9.9999998E-03;  1.4987707E-01;2918; -3.5714269E-02;  0.0000000E+00;  2.7845895E-03;  9.9040387E+02;  1.0000000E-01; -7.9501948E+03;3; -4.0765381E+01;  0.0000000E+00;  8.6172926E-01;0; -2.9805094E-01;  3.9237820E+04;  0.0000000E+00; -7.5205755E-03;  4.0000000E+04;  0.0000000E+00;  4.0011055E+04; -3.1031105E-01;  0.0000000E+00;  1.2260102E-02;  2.2035615E+03;
  7.3603898E-02;  9.9999998E-03;  1.5988515E-01;2919; -3.4945186E-02;  0.0000000E+00;  2.7267602E-03;  9.9010431E+02;  1.0000000E-01; -8.1983857E+03;3; -3.8645145E+01;  0.0000000E+00;  6.2384486E-01;0; -2.9302165E-01;  3.9214066E+04;  0.0000000E+00;  2.2711586E-02;  4.0000000E+04;  0.0000000E+00;  4.0010754E+04; -3.0674925E-01;  0.0000000E+00;  1.3727592E-02;  2.1789978E+03;
  7.3614232E-02;  9.9999998E-03;  1.6989851E-01;2920; -3.3943471E-02;  0.0000000E+00;  2.7246482E-03;  9.8983069E+02;  1.0000000E-01; -8.4250947E+03;3; -3.5695881E+01;  0.0000000E+00;  9.9135317E-02;0; -2.8713965E-01;  3.9188547E+04;  0.0000000E+00;  8.7964259E-02;  4.0000000E+04;  0.0000000E+00;  4.0014344E+04; -3.0243677E-01;  0.0000000E+00;  1.5297121E-02;  2.6455730E+03;
  7.3599808E-02;  9.9999998E-03;  1.7991577E-01;2921; -3.2688465E-02;  0.0000000E+00;  2.8247836E-03;  9.8959442E+02;  1.0000000E-01; -8.6208428E+03;3; -3.1981531E+01;  0.0000000E+00; -8.7833893E-01;0; -2.8058419E-01;  3.9161938E+04;  0.0000000E+00;  1.9956286E-01;  4.0000000E+04;  0.0000000E+00;  4.0021699E+04; -2.9717174E-01;  0.0000000E+00;  1.6587554E-02;  3.5963088E+03;
  7.3554054E-02;  9.9999998E-03;  1.8993555E-01;2922; -3.1179281E-02;  0.0000000E+00;  3.0752898E-03;  9.8939734E+02;  1.0000000E-01; -8.7840977E+03;3; -2.7717554E+01;  0.0000000E+00; -2.3653264E+00;0; -2.7353549E-01;  3.9135715E+04;  0.0000000E+00;  3.6404639E-01;  4.0000000E+04;  0.0000000E+00;  4.0031965E+04; -2.9071176E-01;  0.0000000E+00;  1.7176256E-02;  4.9258027E+03;
  7.3469520E-02;  9.9999998E-03;  1.9995275E-01;2923; -2.9406289E-02;  0.0000000E+00;  3.5162573E-03;  9.8924713E+02;  1.0000000E-01; -8.9085381E+03;3; -2.3257090E+01;  0.0000000E+00; -4.2138238E+00;0; -2.6613635E-01;  3.9111484E+04;  0.0000000E+00;  5.7973272E-01;  4.0000000E+04;  0.0000000E+00;  4.0043688E+04; -2.8279224E-01;  0.0000000E+00;  1.6655896E-02;  6.4350835E+03;
  7.3342957E-02;  9.9999998E-03;  2.0996232E-01;2924; -2.7393304E-02;  0.0000000E+00;  4.1285944E-03;  9.8914392E+02;  1.0000000E-01; -8.9940664E+03;3; -1.9119465E+01;  0.0000000E+00; -6.1124239E+00;0; -2.5844285E-01;  3.9091555E+04;  0.0000000E+00;  8.3315134E-01;  4.0000000E+04;  0.0000000E+00;  4.0054617E+04; -2.7314475E-01;  0.0000000E+00;  1.4701894E-02;  7.8512734E+03;
  7.3174842E-02;  9.9999998E-03;  2.1996039E-01;2925; -2.5204064E-02;  0.0000000E+00;  4.8446092E-03;  9.8908893E+02;  1.0000000E-01; -9.0395967E+03;3; -1.5979139E+01;  0.0000000E+00; -7.7728891E+00;0; -2.5039536E-01;  3.9078688E+04;  0.0000000E+00;  1.0971650E+00;  4.0000000E+04;  0.0000000E+00;  4.0062398E+04; -2.6153499E-01;  0.0000000E+00;  1.1139641E-02;  8.8632500E+03;
  7.2965302E-02;  9.9999998E-03;  2.2994491E-01;2926; -2.2896618E-02;  0.0000000E+00;  5.5753165E-03;  9.8908716E+02;  1.0000000E-01; -9.0410771E+03;3; -1.4505495E+01;  0.0000000E+00; -9.2547426E+00;0; -2.4181269E-01;  3.9075281E+04;  0.0000000E+00;  1.3368381E+00;  4.0000000E+04;  0.0000000E+00;  4.0064254E+04; -2.4780640E-01;  0.0000000E+00;  5.9937136E-03;  9.1722588E+03;
  8.3304912E-02;  9.9999998E-03;  6.9964200E-02;2971; -4.0271267E-02;  0.0000000E+00;  1.9071851E-03;  9.9421173E+02;  1.0000000E-01; -4.7954692E+03;3; -3.2870750E+01;  0.0000000E+00;  2.6697555E-01;0; -2.9806307E-01;  3.9504602E+04;  0.0000000E+00;  3.3921239E-03;  4.0000000E+04;  0.0000000E+00;  4.0045527E+04; -3.1392133E-01;  0.0000000E+00;  1.5858272E-02;  6.1921709E+03;
  8.3330087E-02;  9.9999998E-03;  7.9953864E-02;2972; -4.0278967E-02;  0.0000000E+00;  2.2215538E-03;  9.9412323E+02;  1.0000000E-01; -4.8688008E+03;3; -3.2632511E+01;  0.0000000E+00;  3.2646361E-01;0; -2.9828972E-01;  3.9497969E+04;  0.0000000E+00;  6.3199778E-03;  4.0000000E+04;  0.0000000E+00;  4.0045594E+04; -3.1273448E-01;  0.0000000E+00;  1.4444754E-02;  6.1946494E+03;
  8.3362237E-02;  9.9999998E-03;  8.9941636E-02;2973; -4.0279578E-02;  0.0000000E+00;  2.4746847E-03;  9.9399792E+02;  1.0000000E-01; -4.9726001E+03;3; -3.2498592E+01;  0.0000000E+00;  3.8153675E-01;0; -2.9851559E-01;  3.9490141E+04;  0.0000000E+00;  9.3474407E-03;  4.0000000E+04;  0.0000000E+00;  4.0043625E+04; -3.1144416E-01;  0.0000000E+00;  1.2928573E-02;  5.9606904E+03;
  8.3400644E-02;  9.9999998E-03;  9.9927485E-02;2974; -4.0257066E-02;  0.0000000E+00;  2.6600391E-03;  9.9383148E+02;  1.0000000E-01; -5.1105220E+03;3; -3.2460857E+01;  0.0000000E+00;  4.2821166E-01;0; -2.9858857E-01;  3.9481141E+04;  0.0000000E+00;  1.1854585E-02;  4.0000000E+04;  0.0000000E+00;  4.0039789E+04; -3.1006181E-01;  0.0000000E+00;  1.1473236E-02;  5.4715288E+03;
  8.3443560E-02;  9.9999998E-03;  1.0991190E-01;2975; -4.0188111E-02;  0.0000000E+00;  2.7647191E-03;  9.9362201E+02;  1.0000000E-01; -5.2840479E+03;3; -3.2478340E+01;  0.0000000E+00;  4.6113020E-01;0; -2.9832536E-01;  3.9470242E+04;  0.0000000E+00;  1.3529467E-02;  4.0000000E+04;  0.0000000E+00;  4.0033664E+04; -3.0859193E-01;  0.0000000E+00;  1.0266585E-02;  4.7481636E+03;
  8.3488479E-02;  9.9999998E-03;  1.1989619E-01;2976; -4.0043704E-02;  0.0000000E+00;  2.7900343E-03;  9.9337018E+02;  1.0000000E-01; -5.4926841E+03;3; -3.2471466E+01;  0.0000000E+00;  4.7569624E-01;0; -2.9753506E-01;  3.9457441E+04;  0.0000000E+00;  1.5040396E-02;  4.0000000E+04;  0.0000000E+00;  4.0026398E+04; -3.0702585E-01;  0.0000000E+00;  9.4907889E-03;  3.8593853E+03;
  8.3533533E-02;  9.9999998E-03;  1.2988286E-01;2977; -3.9792717E-02;  0.0000000E+00;  2.7468340E-03;  9.9308160E+02;  1.0000000E-01; -5.7317393E+03;3; -3.2328453E+01;  0.0000000E+00;  4.6912342E-01;0; -2.9604757E-01;  3.9442078E+04;  0.0000000E+00;  1.8956972E-02;  4.0000000E+04;  0.0000000E+00;  4.0018836E+04; -3.0533546E-01;  0.0000000E+00;  9.2878919E-03;  2.9235388E+03;
  8.3576865E-02;  9.9999998E-03;  1.3987477E-01;2978; -3.9401911E-02;  0.0000000E+00;  2.6568701E-03;  9.9276715E+02;  1.0000000E-01; -5.9922749E+03;3; -3.1911583E+01;  0.0000000E+00;  4.3770936E-01;0; -2.9373926E-01;  3.9423578E+04;  0.0000000E+00;  3.0650226E-02;  4.0000000E+04;  0.0000000E+00;  4.0012004E+04; -3.0346704E-01;  0.0000000E+00;  9.7277910E-03;  2.1007322E+03;
  8.3614446E-02;  9.9999998E-03;  1.4987484E-01;2979; -3.8837910E-02;  0.0000000E+00;  2.5466119E-03;  9.9243713E+02;  1.0000000E-01; -6.2656992E+03;3; -3.1073967E+01;  0.0000000E+00;  3.7248313E-01;0; -2.9055753E-01;  3.9401691E+04;  0.0000000E+00;  5.8737379E-02;  4.0000000E+04;  0.0000000E+00;  4.0007426E+04; -3.0133858E-01;  0.0000000E+00;  1.0781046E-02;  1.5730150E+03;
  8.3642282E-02;  9.9999998E-03;  1.5988401E-01;2980; -3.8069751E-02;  0.0000000E+00;  2.4472149E-03;  9.9210675E+02;  1.0000000E-01; -6.5394199E+03;3; -2.9699991E+01;  0.0000000E+00;  2.0534010E-01;0; -2.8654176E-01;  3.9375859E+04;  0.0000000E+00;  1.1487825E-01;  4.0000000E+04;  0.0000000E+00;  4.0006715E+04; -2.9883239E-01;  0.0000000E+00;  1.2290617E-02;  1.5053280E+03;
  8.3653472E-02;  9.9999998E-03;  1.6989921E-01;2981; -3.7069708E-02;  0.0000000E+00;  2.3973917E-03;  9.9178253E+02;  1.0000000E-01; -6.8080049E+03;3; -2.7738220E+01;  0.0000000E+00; -2.0169823E-01;0; -2.8181031E-01;  3.9346156E+04;  0.0000000E+00;  2.1198447E-01;  4.0000000E+04;  0.0000000E+00;  4.0010289E+04; -2.9578525E-01;  0.0000000E+00;  1.3974938E-02;  1.9960751E+03;
  8.3641455E-02;  9.9999998E-03;  1.7991836E-01;2982; -3.5814121E-02;  0.0000000E+00;  2.4458978E-03;  9.9147382E+02;  1.0000000E-01; -7.0638003E+03;3; -2.5242077E+01;  0.0000000E+00; -9.8574555E-01;0; -2.7651820E-01;  3.9313250E+04;  0.0000000E+00;  3.6032987E-01;  4.0000000E+04;  0.0000000E+00;  4.0018145E+04; -2.9197764E-01;  0.0000000E+00;  1.5459447E-02;  3.0433113E+03;
  8.3598725E-02;  9.9999998E-03;  1.8993999E-01;2983; -3.4298010E-02;  0.0000000E+00;  2.6332119E-03;  9.9118274E+02;  1.0000000E-01; -7.3049292E+03;3; -2.2385967E+01;  0.0000000E+00; -2.1701682E+00;0; -2.7081311E-01;  3.9278188E+04;  0.0000000E+00;  5.6394219E-01;  4.0000000E+04;  0.0000000E+00;  4.0029793E+04; -2.8713220E-01;  0.0000000E+00;  1.6319105E-02;  4.5387646E+03;
  8.3517641E-02;  9.9999998E-03;  1.9995978E-01;2984; -3.2499604E-02;  0.0000000E+00;  3.0465650E-03;  9.9091138E+02;  1.0000000E-01; -7.5297622E+03;3; -1.9443922E+01;  0.0000000E+00; -3.5501578E+00;0; -2.6479483E-01;  3.9242906E+04;  0.0000000E+00;  8.1646359E-01;  4.0000000E+04;  0.0000000E+00;  4.0043102E+04; -2.8093028E-01;  0.0000000E+00;  1.6135458E-02;  6.2722671E+03;
  8.3395019E-02;  9.9999998E-03;  2.0997170E-01;2985; -3.0433252E-02;  0.0000000E+00;  3.6617632E-03;  9.9066187E+02;  1.0000000E-01; -7.7364727E+03;3; -1.6836088E+01;  0.0000000E+00; -4.7587414E+00;0; -2.5847790E-01;  3.9209801E+04;  0.0000000E+00;  1.0984383E+00;  4.0000000E+04;  0.0000000E+00;  4.0055973E+04; -2.7304107E-01;  0.0000000E+00;  1.4563187E-02;  7.9504160E+03;
  8.3230242E-02;  9.9999998E-03;  2.1997109E-01;2986; -2.8148647E-02;  0.0000000E+00;  4.4175945E-03;  9.9044330E+02;  1.0000000E-01; -7.9175537E+03;3; -1.5119226E+01;  0.0000000E+00; -5.4792099E+00;0; -2.5176197E-01;  3.9181688E+04;  0.0000000E+00;  1.3845700E+00;  4.0000000E+04;  0.0000000E+00;  4.0065703E+04; -2.6316440E-01;  0.0000000E+00;  1.1402443E-02;  9.2365537E+03;
  8.3026059E-02;  9.9999998E-03;  2.2995532E-01;2987; -2.5704626E-02;  0.0000000E+00;  5.2242135E-03;  9.9025476E+02;  1.0000000E-01; -8.0737471E+03;3; -1.4866400E+01;  0.0000000E+00; -5.7735591E+00;0; -2.4442555E-01;  3.9161730E+04;  0.0000000E+00;  1.6518707E+00;  4.0000000E+04;  0.0000000E+00;  4.0069496E+04; -2.5107598E-01;  0.0000000E+00;  6.6504367E-03;  9.8058652E+03;
  9.3369797E-02;  9.9999998E-03;  6.9969691E-02;3032; -4.3105770E-02;  0.0000000E+00;  1.7697879E-03;  9.9537415E+02;  1.0000000E-01; -3.8324348E+03;3; -2.1613453E+01;  0.0000000E+00;  5.4484542E-02;0; -2.8659010E-01;  3.9596234E+04;  0.0000000E+00;  4.6782000E-03;  4.0000000E+04;  0.0000000E+00;  4.0045344E+04; -3.0145451E-01;  0.0000000E+00;  1.4864420E-02;  6.0484165E+03;
  9.3395509E-02;  9.9999998E-03;  7.9959802E-02;3033; -4.3098371E-02;  0.0000000E+00;  2.0727597E-03;  9.9532831E+02;  1.0000000E-01; -3.8704089E+03;3; -2.1471893E+01;  0.0000000E+00;  7.8865543E-02;0; -2.8679025E-01;  3.9592508E+04;  0.0000000E+00;  8.5854782E-03;  4.0000000E+04;  0.0000000E+00;  4.0045512E+04; -3.0017516E-01;  0.0000000E+00;  1.3384914E-02;  6.0621670E+03;
  9.3427703E-02;  9.9999998E-03;  8.9947976E-02;3034; -4.3081388E-02;  0.0000000E+00;  2.3130393E-03;  9.9524445E+02;  1.0000000E-01; -3.9398887E+03;3; -2.1399555E+01;  0.0000000E+00;  1.0301112E-01;0; -2.8706697E-01;  3.9588090E+04;  0.0000000E+00;  1.3282928E-02;  4.0000000E+04;  0.0000000E+00;  4.0043336E+04; -2.9884213E-01;  0.0000000E+00;  1.1775165E-02;  5.8183745E+03;
  9.3465209E-02;  9.9999998E-03;  9.9934146E-02;3035; -4.3040887E-02;  0.0000000E+00;  2.4817195E-03;  9.9512067E+02;  1.0000000E-01; -4.0424536E+03;3; -2.1396839E+01;  0.0000000E+00;  1.2459570E-01;0; -2.8728670E-01;  3.9582617E+04;  0.0000000E+00;  1.8486517E-02;  4.0000000E+04;  0.0000000E+00;  4.0039168E+04; -2.9749125E-01;  0.0000000E+00;  1.0204550E-02;  5.2951367E+03;
  9.3506016E-02;  9.9999998E-03;  1.0991848E-01;3036; -4.2955805E-02;  0.0000000E+00;  2.5657213E-03;  9.9495032E+02;  1.0000000E-01; -4.1835854E+03;3; -2.1438047E+01;  0.0000000E+00;  1.4109075E-01;0; -2.8728628E-01;  3.9575602E+04;  0.0000000E+00;  2.4312245E-02;  4.0000000E+04;  0.0000000E+00;  4.0032785E+04; -2.9615676E-01;  0.0000000E+00;  8.8704955E-03;  4.5129390E+03;
  9.3547300E-02;  9.9999998E-03;  1.1990200E-01;3037; -4.2798828E-02;  0.0000000E+00;  2.5664526E-03;  9.9473590E+02;  1.0000000E-01; -4.3612100E+03;3; -2.1477537E+01;  0.0000000E+00;  1.4924064E-01;0; -2.8689265E-01;  3.9566445E+04;  0.0000000E+00;  3.2000732E-02;  4.0000000E+04;  0.0000000E+00;  4.0024859E+04; -2.9485974E-01;  0.0000000E+00;  7.9670958E-03;  3.5441763E+03;
  9.3587011E-02;  9.9999998E-03;  1.2988721E-01;3038; -4.2540830E-02;  0.0000000E+00;  2.4958840E-03;  9.9448047E+02;  1.0000000E-01; -4.5728091E+03;3; -2.1444004E+01;  0.0000000E+00;  1.4787935E-01;0; -2.8595179E-01;  3.9554312E+04;  0.0000000E+00;  4.4864453E-02;  4.0000000E+04;  0.0000000E+00;  4.0016359E+04; -2.9360107E-01;  0.0000000E+00;  7.6492722E-03;  2.5160659E+03;
  9.3623862E-02;  9.9999998E-03;  1.3987771E-01;3039; -4.2149797E-02;  0.0000000E+00;  2.3752821E-03;  9.9418848E+02;  1.0000000E-01; -4.8147280E+03;3; -2.1244108E+01;  0.0000000E+00;  1.3323295E-01;0; -2.8435358E-01;  3.9538188E+04;  0.0000000E+00;  6.9166139E-02;  4.0000000E+04;  0.0000000E+00;  4.0008879E+04; -2.9235315E-01;  0.0000000E+00;  7.9995710E-03;  1.6041766E+03;
  9.3656361E-02;  9.9999998E-03;  1.4987679E-01;3040; -4.1593272E-02;  0.0000000E+00;  2.2315984E-03;  9.9386676E+02;  1.0000000E-01; -5.0812886E+03;3; -2.0777493E+01;  0.0000000E+00;  9.7157307E-02;0; -2.8205395E-01;  3.9517625E+04;  0.0000000E+00;  1.1441930E-01;  4.0000000E+04;  0.0000000E+00;  4.0003762E+04; -2.9105479E-01;  0.0000000E+00;  9.0008490E-03;  1.0143356E+03;
  9.3680814E-02;  9.9999998E-03;  1.5988673E-01;3041; -4.0839627E-02;  0.0000000E+00;  2.0955892E-03;  9.9352979E+02;  1.0000000E-01; -5.3604409E+03;3; -1.9967714E+01;  0.0000000E+00; -1.9837616E-02;0; -2.7909094E-01;  3.9491668E+04;  0.0000000E+00;  1.9252813E-01;  4.0000000E+04;  0.0000000E+00;  4.0002805E+04; -2.8960192E-01;  0.0000000E+00;  1.0510977E-02;  9.3705420E+02;
  9.3691669E-02;  9.9999998E-03;  1.6990428E-01;3042; -3.9860044E-02;  0.0000000E+00;  2.0066442E-03;  9.9318378E+02;  1.0000000E-01; -5.6470996E+03;3; -1.8784330E+01;  0.0000000E+00; -3.4167954E-01;0; -2.7556670E-01;  3.9459914E+04;  0.0000000E+00;  3.1606159E-01;  4.0000000E+04;  0.0000000E+00;  4.0006574E+04; -2.8783247E-01;  0.0000000E+00;  1.2265771E-02;  1.4688905E+03;
  9.3681410E-02;  9.9999998E-03;  1.7992544E-01;3043; -3.8629394E-02;  0.0000000E+00;  2.0110635E-03;  9.9283203E+02;  1.0000000E-01; -5.9385479E+03;3; -1.7277304E+01;  0.0000000E+00; -9.8224175E-01;0; -2.7161014E-01;  3.9422949E+04;  0.0000000E+00;  4.9490678E-01;  4.0000000E+04;  0.0000000E+00;  4.0015324E+04; -2.8551346E-01;  0.0000000E+00;  1.3903307E-02;  2.6132898E+03;
  9.3642294E-02;  9.9999998E-03;  1.8994848E-01;3044; -3.7135374E-02;  0.0000000E+00;  2.1509288E-03;  9.9247412E+02;  1.0000000E-01; -6.2350337E+03;3; -1.5589750E+01;  0.0000000E+00; -1.9261799E+00;0; -2.6733333E-01;  3.9381375E+04;  0.0000000E+00;  7.3197782E-01;  4.0000000E+04;  0.0000000E+00;  4.0028008E+04; -2.8233704E-01;  0.0000000E+00;  1.5003715E-02;  4.2711372E+03;
  9.3565337E-02;  9.9999998E-03;  1.9996972E-01;3045; -3.5352532E-02;  0.0000000E+00;  2.5143058E-03;  9.9211401E+02;  1.0000000E-01; -6.5333955E+03;3; -1.3957863E+01;  0.0000000E+00; -2.9290855E+00;0; -2.6279512E-01;  3.9337539E+04;  0.0000000E+00;  1.0195205E+00;  4.0000000E+04;  0.0000000E+00;  4.0043074E+04; -2.7794224E-01;  0.0000000E+00;  1.5147117E-02;  6.2250454E+03;
  9.3445130E-02;  9.9999998E-03;  2.0998281E-01;3046; -3.3280674E-02;  0.0000000E+00;  3.1248317E-03;  9.9175024E+02;  1.0000000E-01; -6.8347695E+03;3; -1.2726047E+01;  0.0000000E+00; -3.5522959E+00;0; -2.5797111E-01;  3.9293336E+04;  0.0000000E+00;  1.3460822E+00;  4.0000000E+04;  0.0000000E+00;  4.0057789E+04; -2.7195144E-01;  0.0000000E+00;  1.3980323E-02;  8.1670708E+03;
  9.3284585E-02;  9.9999998E-03;  2.1998212E-01;3047; -3.0952876E-02;  0.0000000E+00;  3.8982921E-03;  9.9139056E+02;  1.0000000E-01; -7.1327363E+03;3; -1.2342555E+01;  0.0000000E+00; -3.4464247E+00;0; -2.5272569E-01;  3.9252402E+04;  0.0000000E+00;  1.7074589E+00;  4.0000000E+04;  0.0000000E+00;  4.0069492E+04; -2.6401129E-01;  0.0000000E+00;  1.1285600E-02;  9.7437461E+03;
  9.3083613E-02;  9.9999998E-03;  2.2996525E-01;3048; -2.8418301E-02;  0.0000000E+00;  4.7719940E-03;  9.9104102E+02;  1.0000000E-01; -7.4223579E+03;3; -1.3316522E+01;  0.0000000E+00; -2.6730897E+00;0; -2.4679114E-01;  3.9217973E+04;  0.0000000E+00;  2.1090219E+00;  4.0000000E+04;  0.0000000E+00;  4.0075320E+04; -2.5382885E-01;  0.0000000E+00;  7.0377141E-03;  1.0618650E+04;
  1.0341883E-01;  9.9999998E-03;  6.9976650E-02;3093; -4.5645162E-02;  0.0000000E+00;  1.5766270E-03;  9.9581769E+02;  1.0000000E-01; -3.4649885E+03;3; -1.2525634E+01;  0.0000000E+00; -5.9199080E-02;0; -2.7566704E-01;  3.9630984E+04;  0.0000000E+00;  4.6847099E-03;  4.0000000E+04;  0.0000000E+00;  4.0043926E+04; -2.8927314E-01;  0.0000000E+00;  1.3606088E-02;  5.8259644E+03;
  1.0344475E-01;  9.9999998E-03;  7.9967394E-02;3094; -4.5616318E-02;  0.0000000E+00;  1.8606012E-03;  9.9581830E+02;  1.0000000E-01; -3.4644453E+03;3; -1.2445327E+01;  0.0000000E+00; -5.4157775E-02;0; -2.7579635E-01;  3.9630973E+04;  0.0000000E+00;  8.9035872E-03;  4.0000000E+04;  0.0000000E+00;  4.0044113E+04; -2.8788507E-01;  0.0000000E+00;  1.2088716E-02;  5.8573291E+03;
  1.0347720E-01;  9.9999998E-03;  8.9956224E-02;3095; -4.5575969E-02;  0.0000000E+00;  2.0833095E-03;  9.9578845E+02;  1.0000000E-01; -3.4891853E+03;3; -1.2407874E+01;  0.0000000E+00; -4.6488959E-02;0; -2.7607021E-01;  3.9630855E+04;  0.0000000E+00;  1.4399813E-02;  4.0000000E+04;  0.0000000E+00;  4.0042047E+04; -2.8648403E-01;  0.0000000E+00;  1.0413812E-02;  5.6148647E+03;
  1.0351470E-01;  9.9999998E-03;  9.9942997E-02;3096; -4.5512673E-02;  0.0000000E+00;  2.2319390E-03;  9.9571948E+02;  1.0000000E-01; -3.5463193E+03;3; -1.2412955E+01;  0.0000000E+00; -3.8775008E-02;0; -2.7637967E-01;  3.9629910E+04;  0.0000000E+00;  2.1195289E-02;  4.0000000E+04;  0.0000000E+00;  4.0037785E+04; -2.8513277E-01;  0.0000000E+00;  8.7530976E-03;  5.0735132E+03;
  1.0355475E-01;  9.9999998E-03;  1.0992777E-01;3097; -4.5407701E-02;  0.0000000E+00;  2.2940435E-03;  9.9561108E+02;  1.0000000E-01; -3.6361440E+03;3; -1.2450678E+01;  0.0000000E+00; -3.1202724E-02;0; -2.7658176E-01;  3.9627898E+04;  0.0000000E+00;  2.9782848E-02;  4.0000000E+04;  0.0000000E+00;  4.0031070E+04; -2.8389177E-01;  0.0000000E+00;  7.3099895E-03;  4.2526299E+03;
  1.0359445E-01;  9.9999998E-03;  1.1991133E-01;3098; -4.5236867E-02;  0.0000000E+00;  2.2713416E-03;  9.9545496E+02;  1.0000000E-01; -3.7654736E+03;3; -1.2493379E+01;  0.0000000E+00; -2.6414292E-02;0; -2.7652520E-01;  3.9623609E+04;  0.0000000E+00;  4.1849252E-02;  4.0000000E+04;  0.0000000E+00;  4.0022742E+04; -2.8281206E-01;  0.0000000E+00;  6.2868451E-03;  3.2267634E+03;
  1.0363097E-01;  9.9999998E-03;  1.2989551E-01;3099; -4.4972949E-02;  0.0000000E+00;  2.1767132E-03;  9.9525061E+02;  1.0000000E-01; -3.9348022E+03;3; -1.2500025E+01;  0.0000000E+00; -2.5452444E-02;0; -2.7607810E-01;  3.9616242E+04;  0.0000000E+00;  6.1208431E-02;  4.0000000E+04;  0.0000000E+00;  4.0013832E+04; -2.8192669E-01;  0.0000000E+00;  5.8485982E-03;  2.1303799E+03;
  1.0366359E-01;  9.9999998E-03;  1.3988446E-01;3100; -4.4586137E-02;  0.0000000E+00;  2.0306685E-03;  9.9500336E+02;  1.0000000E-01; -4.1396362E+03;3; -1.2417902E+01;  0.0000000E+00; -3.0102262E-02;0; -2.7514854E-01;  3.9604633E+04;  0.0000000E+00;  9.4612621E-02;  4.0000000E+04;  0.0000000E+00;  4.0005883E+04; -2.8123707E-01;  0.0000000E+00;  6.0885330E-03;  1.1539806E+03;
  1.0369220E-01;  9.9999998E-03;  1.4988230E-01;3101; -4.4045098E-02;  0.0000000E+00;  1.8579587E-03;  9.9472009E+02;  1.0000000E-01; -4.3742959E+03;3; -1.2187658E+01;  0.0000000E+00; -4.8020560E-02;0; -2.7370310E-01;  3.9587262E+04;  0.0000000E+00;  1.5190874E-01;  4.0000000E+04;  0.0000000E+00;  4.0000465E+04; -2.8070548E-01;  0.0000000E+00;  7.0023951E-03;  5.4051495E+02;
  1.0371500E-01;  9.9999998E-03;  1.5989247E-01;3102; -4.3318454E-02;  0.0000000E+00;  1.6917672E-03;  9.9440717E+02;  1.0000000E-01; -4.6335479E+03;3; -1.1762006E+01;  0.0000000E+00; -1.3437968E-01;0; -2.7177757E-01;  3.9563301E+04;  0.0000000E+00;  2.4481918E-01;  4.0000000E+04;  0.0000000E+00;  3.9999242E+04; -2.8024414E-01;  0.0000000E+00;  8.4665613E-03;  5.1145956E+02;
  1.0372716E-01;  9.9999998E-03;  1.6991319E-01;3103; -4.2376198E-02;  0.0000000E+00;  1.5692832E-03;  9.9406409E+02;  1.0000000E-01; -4.9177866E+03;3; -1.1128474E+01;  0.0000000E+00; -4.0108916E-01;0; -2.6945770E-01;  3.9531848E+04;  0.0000000E+00;  3.8512886E-01;  4.0000000E+04;  0.0000000E+00;  4.0003273E+04; -2.7969632E-01;  0.0000000E+00;  1.0238610E-02;  1.0594633E+03;
  1.0372024E-01;  9.9999998E-03;  1.7993677E-01;3104; -4.1191980E-02;  0.0000000E+00;  1.5370098E-03;  9.9369617E+02;  1.0000000E-01; -5.2226177E+03;3; -1.0338825E+01;  0.0000000E+00; -9.4177562E-01;0; -2.6684386E-01;  3.9492961E+04;  0.0000000E+00;  5.8281082E-01;  4.0000000E+04;  0.0000000E+00;  4.0012668E+04; -2.7881807E-01;  0.0000000E+00;  1.1974226E-02;  2.2725762E+03;
  1.0368539E-01;  9.9999998E-03;  1.8996070E-01;3105; -3.9745186E-02;  0.0000000E+00;  1.6427536E-03;  9.9330212E+02;  1.0000000E-01; -5.5490776E+03;3; -9.5195789E+00;  0.0000000E+00; -1.7095846E+00;0; -2.6401687E-01;  3.9447516E+04;  0.0000000E+00;  8.4200710E-01;  4.0000000E+04;  0.0000000E+00;  4.0026637E+04; -2.7728489E-01;  0.0000000E+00;  1.3268028E-02;  4.0763972E+03;
  1.0361382E-01;  9.9999998E-03;  1.9998235E-01;3106; -3.8010888E-02;  0.0000000E+00;  1.9568431E-03;  9.9287915E+02;  1.0000000E-01; -5.8994873E+03;3; -8.8775787E+00;  0.0000000E+00; -2.4288883E+00;0; -2.6100439E-01;  3.9397043E+04;  0.0000000E+00;  1.1664263E+00;  4.0000000E+04;  0.0000000E+00;  4.0043363E+04; -2.7471441E-01;  0.0000000E+00;  1.3710027E-02;  6.2433901E+03;
  1.0349973E-01;  9.9999998E-03;  2.0999421E-01;3107; -3.5977662E-02;  0.0000000E+00;  2.5366517E-03;  9.9242737E+02;  1.0000000E-01; -6.2737979E+03;3; -8.7072372E+00;  0.0000000E+00; -2.5990772E+00;0; -2.5775149E-01;  3.9344195E+04;  0.0000000E+00;  1.5740266E+00;  4.0000000E+04;  0.0000000E+00;  4.0060227E+04; -2.7070218E-01;  0.0000000E+00;  1.2950697E-02;  8.4569248E+03;
  1.0334069E-01;  9.9999998E-03;  2.1999209E-01;3108; -3.3658266E-02;  0.0000000E+00;  3.3010328E-03;  9.9194971E+02;  1.0000000E-01; -6.6695396E+03;3; -9.3827457E+00;  0.0000000E+00; -1.8159577E+00;0; -2.5408626E-01;  3.9292258E+04;  0.0000000E+00;  2.1056890E+00;  4.0000000E+04;  0.0000000E+00;  4.0073809E+04; -2.6485121E-01;  0.0000000E+00;  1.0764943E-02;  1.0362258E+04;
  1.0314578E-01;  9.9999998E-03;  2.2997189E-01;3109; -3.1095680E-02;  0.0000000E+00;  4.1919686E-03;  9.9146075E+02;  1.0000000E-01; -7.0746147E+03;3; -1.1346966E+01;  0.0000000E+00; -1.5030566E-01;0; -2.4969612E-01;  3.9245070E+04;  0.0000000E+00;  2.8158760E+00;  4.0000000E+04;  0.0000000E+00;  4.0081441E+04; -2.5680560E-01;  0.0000000E+00;  7.1094809E-03;  1.1640480E+04;
  1.1342473E-01;  9.9999998E-03;  6.9981657E-02;3154; -4.7975246E-02;  0.0000000E+00;  1.3425759E-03;  9.9561987E+02;  1.0000000E-01; -3.6288357E+03;3; -6.3396316E+00;  0.0000000E+00; -1.1576011E-01;0; -2.6631525E-01;  3.9615223E+04;  0.0000000E+00;  3.3178194E-03;  4.0000000E+04;  0.0000000E+00;  4.0041305E+04; -2.7848944E-01;  0.0000000E+00;  1.2174194E-02;  5.5364995E+03;
  1.1345291E-01;  9.9999998E-03;  7.9973347E-02;3155; -4.7919095E-02;  0.0000000E+00;  1.6025397E-03;  9.9567340E+02;  1.0000000E-01; -3.5844912E+03;3; -6.2956181E+00;  0.0000000E+00; -1.2098760E-01;0; -2.6633370E-01;  3.9619336E+04;  0.0000000E+00;  7.0426022E-03;  4.0000000E+04;  0.0000000E+00;  4.0041832E+04; -2.7698120E-01;  0.0000000E+00;  1.0647496E-02;  5.5913872E+03;
  1.1348793E-01;  9.9999998E-03;  8.9963235E-02;3156; -4.7849741E-02;  0.0000000E+00;  1.8033319E-03;  9.9570941E+02;  1.0000000E-01; -3.5546648E+03;3; -6.2741132E+00;  0.0000000E+00; -1.2273616E-01;0; -2.6655546E-01;  3.9624023E+04;  0.0000000E+00;  1.2243175E-02;  4.0000000E+04;  0.0000000E+00;  4.0040094E+04; -2.7549204E-01;  0.0000000E+00;  8.9365942E-03;  5.3608633E+03;
  1.1352835E-01;  9.9999998E-03;  9.9951133E-02;3157; -4.7758553E-02;  0.0000000E+00;  1.9301957E-03;  9.9570844E+02;  1.0000000E-01; -3.5555044E+03;3; -6.2743158E+00;  0.0000000E+00; -1.2167133E-01;0; -2.6689526E-01;  3.9628730E+04;  0.0000000E+00;  1.9224165E-02;  4.0000000E+04;  0.0000000E+00;  4.0035547E+04; -2.7410749E-01;  0.0000000E+00;  7.2122198E-03;  4.8165503E+03;
  1.1357143E-01;  9.9999998E-03;  1.0993695E-01;3158; -4.7629971E-02;  0.0000000E+00;  1.9716420E-03;  9.9567273E+02;  1.0000000E-01; -3.5850837E+03;3; -6.2929282E+00;  0.0000000E+00; -1.1830435E-01;0; -2.6723415E-01;  3.9632570E+04;  0.0000000E+00;  2.8814558E-02;  4.0000000E+04;  0.0000000E+00;  4.0028859E+04; -2.7291360E-01;  0.0000000E+00;  5.6794677E-03;  3.9758057E+03;
  1.1361377E-01;  9.9999998E-03;  1.1992114E-01;3159; -4.7443103E-02;  0.0000000E+00;  1.9270369E-03;  9.9558972E+02;  1.0000000E-01; -3.6538225E+03;3; -6.3165541E+00;  0.0000000E+00; -1.1611070E-01;0; -2.6744568E-01;  3.9634602E+04;  0.0000000E+00;  4.3031607E-02;  4.0000000E+04;  0.0000000E+00;  4.0020391E+04; -2.7199087E-01;  0.0000000E+00;  4.5451913E-03;  2.9137134E+03;
  1.1365239E-01;  9.9999998E-03;  1.2990531E-01;3160; -4.7173616E-02;  0.0000000E+00;  1.8109566E-03;  9.9546027E+02;  1.0000000E-01; -3.7610789E+03;3; -6.3263650E+00;  0.0000000E+00; -1.1421640E-01;0; -2.6742142E-01;  3.9633523E+04;  0.0000000E+00;  6.5914683E-02;  4.0000000E+04;  0.0000000E+00;  4.0011145E+04; -2.7140227E-01;  0.0000000E+00;  3.9808513E-03;  1.7697498E+03;
  1.1368650E-01;  9.9999998E-03;  1.3989335E-01;3161; -4.6793897E-02;  0.0000000E+00;  1.6431818E-03;  9.9528296E+02;  1.0000000E-01; -3.9079883E+03;3; -6.2950468E+00;  0.0000000E+00; -1.1457115E-01;0; -2.6709026E-01;  3.9627766E+04;  0.0000000E+00;  1.0420854E-01;  4.0000000E+04;  0.0000000E+00;  4.0002797E+04; -2.7117908E-01;  0.0000000E+00;  4.0888106E-03;  7.4950104E+02;
  1.1371534E-01;  9.9999998E-03;  1.4988971E-01;3162; -4.6274003E-02;  0.0000000E+00;  1.4496536E-03;  9.9505768E+02;  1.0000000E-01; -4.0946003E+03;3; -6.1922269E+00;  0.0000000E+00; -1.2360490E-01;0; -2.6643452E-01;  3.9615723E+04;  0.0000000E+00;  1.6736595E-01;  4.0000000E+04;  0.0000000E+00;  3.9997199E+04; -2.7131313E-01;  0.0000000E+00;  4.8786094E-03;  2.4495512E+02;
  1.1374051E-01;  9.9999998E-03;  1.5989989E-01;3163; -4.5583941E-02;  0.0000000E+00;  1.2581466E-03;  9.9479401E+02;  1.0000000E-01; -4.3130630E+03;3; -5.9957261E+00;  0.0000000E+00; -1.9333275E-01;0; -2.6548564E-01;  3.9595762E+04;  0.0000000E+00;  2.6621169E-01;  4.0000000E+04;  0.0000000E+00;  3.9995832E+04; -2.7173334E-01;  0.0000000E+00;  6.2477025E-03;  3.9344229E+02;
  1.1375780E-01;  9.9999998E-03;  1.6992423E-01;3164; -4.4692576E-02;  0.0000000E+00;  1.1091054E-03;  9.9448523E+02;  1.0000000E-01; -4.5688584E+03;3; -5.7095490E+00;  0.0000000E+00; -4.2726532E-01;0; -2.6431340E-01;  3.9567016E+04;  0.0000000E+00;  4.1167998E-01;  4.0000000E+04;  0.0000000E+00;  4.0000129E+04; -2.7229109E-01;  0.0000000E+00;  7.9776812E-03;  7.5485730E+02;
  1.1375752E-01;  9.9999998E-03;  1.7995097E-01;3165; -4.3571375E-02;  0.0000000E+00;  1.0470086E-03;  9.9413055E+02;  1.0000000E-01; -4.8627266E+03;3; -5.3861217E+00;  0.0000000E+00; -9.0479529E-01;0; -2.6299590E-01;  3.9528688E+04;  0.0000000E+00;  6.1365837E-01;  4.0000000E+04;  0.0000000E+00;  4.0010070E+04; -2.7274370E-01;  0.0000000E+00;  9.7477948E-03;  1.9684336E+03;
  1.1373043E-01;  9.9999998E-03;  1.8997605E-01;3166; -4.2194512E-02;  0.0000000E+00;  1.1224399E-03;  9.9372559E+02;  1.0000000E-01; -5.1982231E+03;3; -5.1400113E+00;  0.0000000E+00; -1.5509387E+00;0; -2.6158977E-01;  3.9481586E+04;  0.0000000E+00;  8.8461399E-01;  4.0000000E+04;  0.0000000E+00;  4.0025336E+04; -2.7276659E-01;  0.0000000E+00;  1.1176826E-02;  3.8952766E+03;
  1.1366551E-01;  9.9999998E-03;  1.9999669E-01;3167; -4.0536944E-02;  0.0000000E+00;  1.3887149E-03;  9.9326501E+02;  1.0000000E-01; -5.5797930E+03;3; -5.1572962E+00;  0.0000000E+00; -2.0498221E+00;0; -2.6010528E-01;  3.9426891E+04;  0.0000000E+00;  1.2563196E+00;  4.0000000E+04;  0.0000000E+00;  4.0043371E+04; -2.7198091E-01;  0.0000000E+00;  1.1875634E-02;  6.2668833E+03;
  1.1355988E-01;  9.9999998E-03;  2.1000573E-01;3168; -3.8579091E-02;  0.0000000E+00;  1.9088085E-03;  9.9274622E+02;  1.0000000E-01; -6.0096079E+03;3; -5.6917033E+00;  0.0000000E+00; -1.8860954E+00;0; -2.5846624E-01;  3.9367129E+04;  0.0000000E+00;  1.7994777E+00;  4.0000000E+04;  0.0000000E+00;  4.0062090E+04; -2.6997361E-01;  0.0000000E+00;  1.1507363E-02;  8.7647803E+03;
  1.1340933E-01;  9.9999998E-03;  2.1999909E-01;3169; -3.6317643E-02;  0.0000000E+00;  2.6390797E-03;  9.9217493E+02;  1.0000000E-01; -6.4829277E+03;3; -7.0613499E+00;  0.0000000E+00; -6.0363632E-01;0; -2.5646952E-01;  3.9305688E+04;  0.0000000E+00;  2.6274977E+00;  4.0000000E+04;  0.0000000E+00;  4.0077863E+04; -2.6632053E-01;  0.0000000E+00;  9.8510142E-03;  1.1061611E+04;
  1.1321682E-01;  9.9999998E-03;  2.2997457E-01;3170; -3.3787489E-02;  0.0000000E+00;  3.4830805E-03;  9.9155975E+02;  1.0000000E-01; -6.9925923E+03;3; -9.6292572E+00;  0.0000000E+00;  1.7561553E+00;0; -2.5375953E-01;  3.9246719E+04;  0.0000000E+00;  3.8698664E+00;  4.0000000E+04;  0.0000000E+00;  4.0087395E+04; -2.6060876E-01;  0.0000000E+00;  6.8492396E-03;  1.2922136E+04;
  1.2340459E-01;  9.9999998E-03;  6.9982156E-02;3215; -5.0193686E-02;  0.0000000E+00;  1.0901331E-03;  9.9489075E+02;  1.0000000E-01; -4.2329175E+03;3; -2.7769830E+00;  0.0000000E+00; -1.4584298E-01;0; -2.5914821E-01;  3.9557965E+04;  0.0000000E+00;  5.3374702E-04;  4.0000000E+04;  0.0000000E+00;  4.0038148E+04; -2.6980987E-01;  0.0000000E+00;  1.0661666E-02;  5.1943413E+03;
  1.2343595E-01;  9.9999998E-03;  7.9975255E-02;3216; -5.0104134E-02;  0.0000000E+00;  1.3190906E-03;  9.9500977E+02;  1.0000000E-01; -4.1343027E+03;3; -2.7536638E+00;  0.0000000E+00; -1.5574649E-01;0; -2.5903031E-01;  3.9566742E+04;  0.0000000E+00;  2.9464080E-03;  4.0000000E+04;  0.0000000E+00;  4.0038945E+04; -2.6818341E-01;  0.0000000E+00;  9.1531062E-03;  5.2783540E+03;
  1.2347505E-01;  9.9999998E-03;  8.9967005E-02;3217; -5.0000079E-02;  0.0000000E+00;  1.4950617E-03;  9.9511145E+02;  1.0000000E-01; -4.0500583E+03;3; -2.7383494E+00;  0.0000000E+00; -1.6227873E-01;0; -2.5916314E-01;  3.9576613E+04;  0.0000000E+00;  6.6810003E-03;  4.0000000E+04;  0.0000000E+00;  4.0037254E+04; -2.6659802E-01;  0.0000000E+00;  7.4348701E-03;  5.0696152E+03;
  1.2351966E-01;  9.9999998E-03;  9.9956803E-02;3218; -4.9875483E-02;  0.0000000E+00;  1.6003558E-03;  9.9519104E+02;  1.0000000E-01; -3.9841343E+03;3; -2.7319839E+00;  0.0000000E+00; -1.6397220E-01;0; -2.5948519E-01;  3.9587484E+04;  0.0000000E+00;  1.2287684E-02;  4.0000000E+04;  0.0000000E+00;  4.0033234E+04; -2.6515824E-01;  0.0000000E+00;  5.6730597E-03;  4.5361602E+03;
  1.2356701E-01;  9.9999998E-03;  1.0994413E-01;3219; -4.9717866E-02;  0.0000000E+00;  1.6221268E-03;  9.9523865E+02;  1.0000000E-01; -3.9446785E+03;3; -2.7329855E+00;  0.0000000E+00; -1.6434063E-01;0; -2.5990376E-01;  3.9598125E+04;  0.0000000E+00;  2.0901224E-02;  4.0000000E+04;  0.0000000E+00;  4.0026328E+04; -2.6397440E-01;  0.0000000E+00;  4.0706368E-03;  3.6924478E+03;
  1.2361396E-01;  9.9999998E-03;  1.1992949E-01;3220; -4.9510814E-02;  0.0000000E+00;  1.5597527E-03;  9.9524695E+02;  1.0000000E-01; -3.9378145E+03;3; -2.7369249E+00;  0.0000000E+00; -1.6270992E-01;0; -2.6031655E-01;  3.9607402E+04;  0.0000000E+00;  3.4787666E-02;  4.0000000E+04;  0.0000000E+00;  4.0017633E+04; -2.6315117E-01;  0.0000000E+00;  2.8346186E-03;  2.6123630E+03;
  1.2365726E-01;  9.9999998E-03;  1.2991440E-01;3221; -4.9233228E-02;  0.0000000E+00;  1.4263961E-03;  9.9520667E+02;  1.0000000E-01; -3.9711963E+03;3; -2.7361379E+00;  0.0000000E+00; -1.6113605E-01;0; -2.6064137E-01;  3.9613906E+04;  0.0000000E+00;  5.7982348E-02;  4.0000000E+04;  0.0000000E+00;  4.0008289E+04; -2.6278108E-01;  0.0000000E+00;  2.1397274E-03;  1.4377404E+03;
  1.2369436E-01;  9.9999998E-03;  1.3990188E-01;3222; -4.8860386E-02;  0.0000000E+00;  1.2411795E-03;  9.9511633E+02;  1.0000000E-01; -4.0460090E+03;3; -2.7203600E+00;  0.0000000E+00; -1.5955226E-01;0; -2.6082999E-01;  3.9615496E+04;  0.0000000E+00;  9.6777268E-02;  4.0000000E+04;  0.0000000E+00;  3.9999555E+04; -2.6292607E-01;  0.0000000E+00;  2.0960786E-03;  3.9158429E+02;
  1.2372657E-01;  9.9999998E-03;  1.4989725E-01;3223; -4.8364606E-02;  0.0000000E+00;  1.0286415E-03;  9.9497955E+02;  1.0000000E-01; -4.1593394E+03;3; -2.6771376E+00;  0.0000000E+00; -1.6517371E-01;0; -2.6087624E-01;  3.9610344E+04;  0.0000000E+00;  1.5956679E-01;  4.0000000E+04;  0.0000000E+00;  3.9993703E+04; -2.6360342E-01;  0.0000000E+00;  2.7271812E-03;  4.2346097E+02;
  1.2375605E-01;  9.9999998E-03;  1.5990695E-01;3224; -4.7716405E-02;  0.0000000E+00;  8.2015235E-04;  9.9478705E+02;  1.0000000E-01; -4.3188408E+03;3; -2.5994172E+00;  0.0000000E+00; -2.2785850E-01;0; -2.6081136E-01;  3.9596473E+04;  0.0000000E+00;  2.5562978E-01;  4.0000000E+04;  0.0000000E+00;  3.9992461E+04; -2.6476452E-01;  0.0000000E+00;  3.9531644E-03;  6.2606921E+02;
  1.2378132E-01;  9.9999998E-03;  1.6993535E-01;3225; -4.6884693E-02;  0.0000000E+00;  6.5016758E-04;  9.9453632E+02;  1.0000000E-01; -4.5265386E+03;3; -2.5035121E+00;  0.0000000E+00; -4.4648597E-01;0; -2.6069239E-01;  3.9572477E+04;  0.0000000E+00;  3.9460078E-01;  4.0000000E+04;  0.0000000E+00;  3.9996773E+04; -2.6627415E-01;  0.0000000E+00;  5.5817557E-03;  5.7104944E+02;
  1.2379163E-01;  9.9999998E-03;  1.7996670E-01;3226; -4.5838304E-02;  0.0000000E+00;  5.6531263E-04;  9.9421967E+02;  1.0000000E-01; -4.7889014E+03;3; -2.4453981E+00;  0.0000000E+00; -8.8741416E-01;0; -2.6058161E-01;  3.9537133E+04;  0.0000000E+00;  5.8819491E-01;  4.0000000E+04;  0.0000000E+00;  4.0007375E+04; -2.6790401E-01;  0.0000000E+00;  7.3223906E-03;  1.6525096E+03;
  1.2377631E-01;  9.9999998E-03;  1.8999386E-01;3227; -4.4548683E-02;  0.0000000E+00;  6.1266369E-04;  9.9383142E+02;  1.0000000E-01; -5.1105713E+03;3; -2.5318239E+00;  0.0000000E+00; -1.4518363E+00;0; -2.6052839E-01;  3.9490512E+04;  0.0000000E+00;  8.6553961E-01;  4.0000000E+04;  0.0000000E+00;  4.0023484E+04; -2.6935384E-01;  0.0000000E+00;  8.8254446E-03;  3.6752393E+03;
  1.2372357E-01;  9.9999998E-03;  2.0001295E-01;3228; -4.2990938E-02;  0.0000000E+00;  8.2762679E-04;  9.9335919E+02;  1.0000000E-01; -5.5017705E+03;3; -2.9246278E+00;  0.0000000E+00; -1.7904116E+00;0; -2.6053724E-01;  3.9433727E+04;  0.0000000E+00;  1.3017446E+00;  4.0000000E+04;  0.0000000E+00;  4.0043090E+04; -2.7026755E-01;  0.0000000E+00;  9.7303009E-03;  6.2352949E+03;
  1.2362716E-01;  9.9999998E-03;  2.1001777E-01;3229; -4.1139532E-02;  0.0000000E+00;  1.2687043E-03;  9.9279510E+02;  1.0000000E-01; -5.9691152E+03;3; -3.8352795E+00;  0.0000000E+00; -1.3552581E+00;0; -2.6052335E-01;  3.9368902E+04;  0.0000000E+00;  2.0420370E+00;  4.0000000E+04;  0.0000000E+00;  4.0063379E+04; -2.7024543E-01;  0.0000000E+00;  9.7220754E-03;  9.0278906E+03;
  1.2349090E-01;  9.9999998E-03;  2.2000523E-01;3230; -3.8981244E-02;  0.0000000E+00;  1.9167751E-03;  9.9213660E+02;  1.0000000E-01; -6.5146802E+03;3; -5.5141244E+00;  0.0000000E+00;  3.0823767E-01;0; -2.6026666E-01;  3.9299344E+04;  0.0000000E+00;  3.3002748E+00;  4.0000000E+04;  0.0000000E+00;  4.0081121E+04; -2.6885656E-01;  0.0000000E+00;  8.5898805E-03;  1.1804271E+04;
  1.2331045E-01;  9.9999998E-03;  2.2997357E-01;3231; -3.6537144E-02;  0.0000000E+00;  2.6701509E-03;  9.9140375E+02;  1.0000000E-01; -7.1218232E+03;3; -8.2362461E+00;  0.0000000E+00;  3.1325781E+00;0; -2.5937873E-01;  3.9229242E+04;  0.0000000E+00;  5.3138213E+00;  4.0000000E+04;  0.0000000E+00;  4.0092730E+04; -2.6565042E-01;  0.0000000E+00;  6.2716943E-03;  1.4519945E+04;
  1.3337915E-01;  9.9999998E-03;  6.9977097E-02;3276; -5.2390300E-02;  0.0000000E+00;  8.3899091E-04;  9.9377472E+02;  1.0000000E-01; -5.1575332E+03;3; -1.1072263E+00;  0.0000000E+00; -1.6401100E-01;0; -2.5442922E-01;  3.9470863E+04;  0.0000000E+00; -3.7761279E-03;  4.0000000E+04;  0.0000000E+00;  4.0034332E+04; -2.6359084E-01;  0.0000000E+00;  9.1616167E-03;  4.8169951E+03;
  1.3341369E-01;  9.9999998E-03;  7.9972357E-02;3277; -5.2261811E-02;  0.0000000E+00;  1.0346771E-03;  9.9395441E+02;  1.0000000E-01; -5.0086484E+03;3; -1.0944579E+00;  0.0000000E+00; -1.7685525E-01;0; -2.5416648E-01;  3.9484078E+04;  0.0000000E+00; -3.3512523E-03;  4.0000000E+04;  0.0000000E+00;  4.0035395E+04; -2.6186314E-01;  0.0000000E+00;  7.6966691E-03;  4.9354634E+03;
  1.3345699E-01;  9.9999998E-03;  8.9966379E-02;3278; -5.2117437E-02;  0.0000000E+00;  1.1854144E-03;  9.9412994E+02;  1.0000000E-01; -4.8632207E+03;3; -1.0824037E+00;  0.0000000E+00; -1.8540402E-01;0; -2.5418970E-01;  3.9499523E+04;  0.0000000E+00; -2.1507901E-03;  4.0000000E+04;  0.0000000E+00;  4.0034262E+04; -2.6018777E-01;  0.0000000E+00;  5.9980890E-03;  4.7575679E+03;
  1.3350561E-01;  9.9999998E-03;  9.9958807E-02;3279; -5.1953245E-02;  0.0000000E+00;  1.2688489E-03;  9.9429462E+02;  1.0000000E-01; -4.7267798E+03;3; -1.0719173E+00;  0.0000000E+00; -1.9087712E-01;0; -2.5446203E-01;  3.9516570E+04;  0.0000000E+00;  5.1843823E-04;  4.0000000E+04;  0.0000000E+00;  4.0030141E+04; -2.5868610E-01;  0.0000000E+00;  4.2240596E-03;  4.2474868E+03;
  1.3355596E-01;  9.9999998E-03;  1.0994831E-01;3280; -5.1760446E-02;  0.0000000E+00;  1.2724962E-03;  9.9443378E+02;  1.0000000E-01; -4.6115239E+03;3; -1.0628014E+00;  0.0000000E+00; -1.9244666E-01;0; -2.5491494E-01;  3.9534477E+04;  0.0000000E+00;  6.0374942E-03;  4.0000000E+04;  0.0000000E+00;  4.0023453E+04; -2.5748652E-01;  0.0000000E+00;  2.5715961E-03;  3.4158752E+03;
  1.3360564E-01;  9.9999998E-03;  1.1993532E-01;3281; -5.1527228E-02;  0.0000000E+00;  1.1954443E-03;  9.9454150E+02;  1.0000000E-01; -4.5222427E+03;3; -1.0540839E+00;  0.0000000E+00; -1.9187118E-01;0; -2.5547251E-01;  3.9551727E+04;  0.0000000E+00;  1.6848303E-02;  4.0000000E+04;  0.0000000E+00;  4.0014883E+04; -2.5671658E-01;  0.0000000E+00;  1.2440826E-03;  2.3337888E+03;
  1.3365176E-01;  9.9999998E-03;  1.2992136E-01;3282; -5.1236697E-02;  0.0000000E+00;  1.0488470E-03;  9.9460474E+02;  1.0000000E-01; -4.4698984E+03;3; -1.0439733E+00;  0.0000000E+00; -1.9051686E-01;0; -2.5607687E-01;  3.9566426E+04;  0.0000000E+00;  3.6845688E-02;  4.0000000E+04;  0.0000000E+00;  4.0005445E+04; -2.5649330E-01;  0.0000000E+00;  4.1642573E-04;  1.1422998E+03;
  1.3369237E-01;  9.9999998E-03;  1.3990913E-01;3283; -5.0867438E-02;  0.0000000E+00;  8.5059262E-04;  9.9462036E+02;  1.0000000E-01; -4.4569111E+03;3; -1.0295228E+00;  0.0000000E+00; -1.8863720E-01;0; -2.5670004E-01;  3.9576578E+04;  0.0000000E+00;  7.1612969E-02;  4.0000000E+04;  0.0000000E+00;  3.9996832E+04; -2.5690487E-01;  0.0000000E+00;  2.0484482E-04;  1.1277523E+02;
  1.3372934E-01;  9.9999998E-03;  1.4990398E-01;3284; -5.0394531E-02;  0.0000000E+00;  6.2595023E-04;  9.9458337E+02;  1.0000000E-01; -4.4875767E+03;3; -1.0074066E+00;  0.0000000E+00; -1.9318271E-01;0; -2.5734726E-01;  3.9579875E+04;  0.0000000E+00;  1.2812749E-01;  4.0000000E+04;  0.0000000E+00;  3.9990738E+04; -2.5799477E-01;  0.0000000E+00;  6.4751634E-04;  7.3239099E+02;
  1.3376275E-01;  9.9999998E-03;  1.5991290E-01;3285; -4.9789444E-02;  0.0000000E+00;  4.0277990E-04;  9.9448236E+02;  1.0000000E-01; -4.5712783E+03;3; -9.8074192E-01;  0.0000000E+00; -2.5391212E-01;0; -2.5805166E-01;  3.9573820E+04;  0.0000000E+00;  2.1376425E-01;  4.0000000E+04;  0.0000000E+00;  3.9989262E+04; -2.5973952E-01;  0.0000000E+00;  1.6878418E-03;  9.3769141E+02;
  1.3379757E-01;  9.9999998E-03;  1.6994518E-01;3286; -4.9021229E-02;  0.0000000E+00;  2.1843681E-04;  9.9431604E+02;  1.0000000E-01; -4.7090522E+03;3; -9.7199780E-01;  0.0000000E+00; -4.6577191E-01;0; -2.5886270E-01;  3.9556320E+04;  0.0000000E+00;  3.3653951E-01;  4.0000000E+04;  0.0000000E+00;  3.9993637E+04; -2.6202518E-01;  0.0000000E+00;  3.1624807E-03;  5.7877716E+02;
  1.3381945E-01;  9.9999998E-03;  1.7998306E-01;3287; -4.8056539E-02;  0.0000000E+00;  1.1389733E-04;  9.9406433E+02;  1.0000000E-01; -4.9175894E+03;3; -1.0407041E+00;  0.0000000E+00; -8.8474220E-01;0; -2.5984082E-01;  3.9525984E+04;  0.0000000E+00;  5.1335245E-01;  4.0000000E+04;  0.0000000E+00;  4.0004375E+04; -2.6465800E-01;  0.0000000E+00;  4.8171915E-03;  1.2937985E+03;
  1.3381849E-01;  9.9999998E-03;  1.9001397E-01;3288; -4.6865746E-02;  0.0000000E+00;  1.2928655E-04;  9.9371423E+02;  1.0000000E-01; -5.2076553E+03;3; -1.2880088E+00;  0.0000000E+00; -1.3941149E+00;0; -2.6104105E-01;  3.9482285E+04;  0.0000000E+00;  7.9701030E-01;  4.0000000E+04;  0.0000000E+00;  4.0021172E+04; -2.6737806E-01;  0.0000000E+00;  6.3370257E-03;  3.3768230E+03;
  1.3378429E-01;  9.9999998E-03;  2.0003244E-01;3289; -4.5421980E-02;  0.0000000E+00;  2.9734941E-04;  9.9324933E+02;  1.0000000E-01; -5.5927803E+03;3; -1.8473577E+00;  0.0000000E+00; -1.6170909E+00;0; -2.6247701E-01;  3.9425473E+04;  0.0000000E+00;  1.3162079E+00;  4.0000000E+04;  0.0000000E+00;  4.0041711E+04; -2.6987103E-01;  0.0000000E+00;  7.3940028E-03;  6.0932036E+03;
  1.3370699E-01;  9.9999998E-03;  2.1003264E-01;3290; -4.3701906E-02;  0.0000000E+00;  6.4135081E-04;  9.9265637E+02;  1.0000000E-01; -6.0840747E+03;3; -2.8705494E+00;  0.0000000E+00; -9.8621887E-01;0; -2.6407394E-01;  3.9357359E+04;  0.0000000E+00;  2.3067741E+00;  4.0000000E+04;  0.0000000E+00;  4.0063371E+04; -2.7177414E-01;  0.0000000E+00;  7.7002095E-03;  9.1782539E+03;
  1.3358577E-01;  9.9999998E-03;  2.2001362E-01;3291; -4.1691083E-02;  0.0000000E+00;  1.1506950E-03;  9.9192999E+02;  1.0000000E-01; -6.6858354E+03;3; -4.5116730E+00;  0.0000000E+00;  9.6952683E-01;0; -2.6561457E-01;  3.9280734E+04;  0.0000000E+00;  4.1074233E+00;  4.0000000E+04;  0.0000000E+00;  4.0082855E+04; -2.7267510E-01;  0.0000000E+00;  7.0605306E-03;  1.2535919E+04;
  1.3342020E-01;  9.9999998E-03;  2.2997491E-01;3292; -3.9388727E-02;  0.0000000E+00;  1.7625608E-03;  9.9108405E+02;  1.0000000E-01; -7.3867046E+03;3; -6.9179840E+00;  0.0000000E+00;  4.1905456E+00;0; -2.6669791E-01;  3.9200363E+04;  0.0000000E+00;  7.1004195E+00;  4.0000000E+04;  0.0000000E+00;  4.0096609E+04; -2.7211034E-01;  0.0000000E+00;  5.4124268E-03;  1.6437322E+04;
  1.4337032E-01;  9.9999998E-03;  6.9964252E-02;3337; -5.4639582E-02;  0.0000000E+00;  6.0335780E-04;  9.9243188E+02;  1.0000000E-01; -6.2700449E+03;3; -5.3278434E-01;  0.0000000E+00; -1.8061647E-01;0; -2.5211534E-01;  3.9366402E+04;  0.0000000E+00; -9.5714806E-03;  4.0000000E+04;  0.0000000E+00;  4.0030160E+04; -2.5987923E-01;  0.0000000E+00;  7.7638985E-03;  4.4245698E+03;
  1.4340708E-01;  9.9999998E-03;  7.9961896E-02;3338; -5.4467950E-02;  0.0000000E+00;  7.6843548E-04;  9.9266840E+02;  1.0000000E-01; -6.0740996E+03;3; -5.2487254E-01;  0.0000000E+00; -1.9533993E-01;0; -2.5171578E-01;  3.9383781E+04;  0.0000000E+00; -1.1446220E-02;  4.0000000E+04;  0.0000000E+00;  4.0031609E+04; -2.5808126E-01;  0.0000000E+00;  6.3654883E-03;  4.5820737E+03;
  1.4345133E-01;  9.9999998E-03;  8.9959055E-02;3339; -5.4277807E-02;  0.0000000E+00;  8.9570181E-04;  9.9291431E+02;  1.0000000E-01; -5.8703525E+03;3; -5.1536536E-01;  0.0000000E+00; -2.0608437E-01;0; -2.5162834E-01;  3.9404395E+04;  0.0000000E+00; -1.3472531E-02;  4.0000000E+04;  0.0000000E+00;  4.0030684E+04; -2.5633958E-01;  0.0000000E+00;  4.7112433E-03;  4.4434858E+03;
  1.4350078E-01;  9.9999998E-03;  9.9954568E-02;3340; -5.4067757E-02;  0.0000000E+00;  9.6046791E-04;  9.9316003E+02;  1.0000000E-01; -5.6668027E+03;3; -5.0419813E-01;  0.0000000E+00; -2.1145840E-01;0; -2.5183547E-01;  3.9427523E+04;  0.0000000E+00; -1.5031437E-02;  4.0000000E+04;  0.0000000E+00;  4.0026969E+04; -2.5478387E-01;  0.0000000E+00;  2.9484183E-03;  3.9682744E+03;
  1.4355177E-01;  9.9999998E-03;  1.0994748E-01;3341; -5.3833470E-02;  0.0000000E+00;  9.4906107E-04;  9.9339331E+02;  1.0000000E-01; -5.4735244E+03;3; -4.9156308E-01;  0.0000000E+00; -2.1549502E-01;0; -2.5229278E-01;  3.9452520E+04;  0.0000000E+00; -1.4693642E-02;  4.0000000E+04;  0.0000000E+00;  4.0020777E+04; -2.5355715E-01;  0.0000000E+00;  1.2643621E-03;  3.1625027E+03;
  1.4360109E-01;  9.9999998E-03;  1.1993705E-01;3342; -5.3567197E-02;  0.0000000E+00;  8.6012518E-04;  9.9360437E+02;  1.0000000E-01; -5.2986650E+03;3; -4.7766641E-01;  0.0000000E+00; -2.1590687E-01;0; -2.5294974E-01;  3.9477668E+04;  0.0000000E+00; -9.9723917E-03;  4.0000000E+04;  0.0000000E+00;  4.0012512E+04; -2.5280562E-01;  0.0000000E+00; -1.4413717E-04;  2.0931008E+03;
  1.4364712E-01;  9.9999998E-03;  1.2992479E-01;3343; -5.3256821E-02;  0.0000000E+00;  7.0352142E-04;  9.9377899E+02;  1.0000000E-01; -5.1539775E+03;3; -4.6269664E-01;  0.0000000E+00; -2.1464238E-01;0; -2.5376970E-01;  3.9501145E+04;  0.0000000E+00;  2.8100896E-03;  4.0000000E+04;  0.0000000E+00;  4.0002867E+04; -2.5266528E-01;  0.0000000E+00; -1.1044189E-03;  8.9730585E+02;
  1.4368866E-01;  9.9999998E-03;  1.3991374E-01;3344; -5.2885067E-02;  0.0000000E+00;  4.9618707E-04;  9.9390613E+02;  1.0000000E-01; -5.0486475E+03;3; -4.4671959E-01;  0.0000000E+00; -2.1308337E-01;0; -2.5474375E-01;  3.9520426E+04;  0.0000000E+00;  2.8510673E-02;  4.0000000E+04;  0.0000000E+00;  3.9994078E+04; -2.5324890E-01;  0.0000000E+00; -1.4948642E-03;  2.2319876E+02;
  1.4372694E-01;  9.9999998E-03;  1.4990883E-01;3345; -5.2429952E-02;  0.0000000E+00;  2.6196550E-04;  9.9398267E+02;  1.0000000E-01; -4.9852417E+03;3; -4.2984083E-01;  0.0000000E+00; -2.1718413E-01;0; -2.5588614E-01;  3.9532988E+04;  0.0000000E+00;  7.2774835E-02;  4.0000000E+04;  0.0000000E+00;  3.9987812E+04; -2.5462398E-01;  0.0000000E+00; -1.2621703E-03;  1.0122192E+03;
  1.4376473E-01;  9.9999998E-03;  1.5991832E-01;3346; -5.1864740E-02;  0.0000000E+00;  3.0484420E-05;  9.9399237E+02;  1.0000000E-01; -4.9771924E+03;3; -4.1891387E-01;  0.0000000E+00; -2.7714470E-01;0; -2.5723106E-01;  3.9535895E+04;  0.0000000E+00;  1.4109410E-01;  4.0000000E+04;  0.0000000E+00;  3.9986047E+04; -2.5679094E-01;  0.0000000E+00; -4.4011563E-04;  1.2422582E+03;
  1.4380595E-01;  9.9999998E-03;  1.6995378E-01;3347; -5.1158719E-02;  0.0000000E+00; -1.6684312E-04;  9.9392383E+02;  1.0000000E-01; -5.0339810E+03;3; -4.4104120E-01;  0.0000000E+00; -4.8447281E-01;0; -2.5883123E-01;  3.9526637E+04;  0.0000000E+00;  2.4074665E-01;  4.0000000E+04;  0.0000000E+00;  3.9990391E+04; -2.5967246E-01;  0.0000000E+00;  8.4123231E-04;  7.7464911E+02;
  1.4384282E-01;  9.9999998E-03;  1.8000041E-01;3348; -5.0278395E-02;  0.0000000E+00; -2.9257714E-04;  9.9375580E+02;  1.0000000E-01; -5.1731870E+03;3; -5.5705285E-01;  0.0000000E+00; -8.8629872E-01;0; -2.6075840E-01;  3.9503316E+04;  0.0000000E+00;  3.9676303E-01;  4.0000000E+04;  0.0000000E+00;  4.0001004E+04; -2.6312292E-01;  0.0000000E+00;  2.3645076E-03;  8.8183942E+02;
  1.4385717E-01;  9.9999998E-03;  1.9003645E-01;3349; -4.9190346E-02;  0.0000000E+00; -3.0926670E-04;  9.9346570E+02;  1.0000000E-01; -5.4135259E+03;3; -8.5926664E-01;  0.0000000E+00; -1.3506191E+00;0; -2.6308563E-01;  3.9464387E+04;  0.0000000E+00;  6.8961495E-01;  4.0000000E+04;  0.0000000E+00;  4.0017969E+04; -2.6693791E-01;  0.0000000E+00;  3.8522764E-03;  2.9750151E+03;
  1.4384279E-01;  9.9999998E-03;  2.0005552E-01;3350; -4.7870856E-02;  0.0000000E+00; -2.0434405E-04;  9.9302826E+02;  1.0000000E-01; -5.7759355E+03;3; -1.4495087E+00;  0.0000000E+00; -1.4920818E+00;0; -2.6585549E-01;  3.9409523E+04;  0.0000000E+00;  1.3052930E+00;  4.0000000E+04;  0.0000000E+00;  4.0039035E+04; -2.7086446E-01;  0.0000000E+00;  5.0089583E-03;  5.7950239E+03;
  1.4379275E-01;  9.9999998E-03;  2.1005192E-01;3351; -4.6299510E-02;  0.0000000E+00;  3.8095990E-05;  9.9242407E+02;  1.0000000E-01; -6.2765137E+03;3; -2.4019320E+00;  0.0000000E+00; -7.3317111E-01;0; -2.6902345E-01;  3.9339941E+04;  0.0000000E+00;  2.5758996E+00;  4.0000000E+04;  0.0000000E+00;  4.0061785E+04; -2.7459720E-01;  0.0000000E+00;  5.5737388E-03;  9.1494404E+03;
  1.4369532E-01;  9.9999998E-03;  2.2002764E-01;3352; -4.4464171E-02;  0.0000000E+00;  4.0493757E-04;  9.9164276E+02;  1.0000000E-01; -6.9238042E+03;3; -3.7391202E+00;  0.0000000E+00;  1.4173188E+00;0; -2.7240047E-01;  3.9258070E+04;  0.0000000E+00;  4.9810534E+00;  4.0000000E+04;  0.0000000E+00;  4.0082434E+04; -2.7777088E-01;  0.0000000E+00;  5.3703994E-03;  1.3173020E+04;
  1.4354944E-01;  9.9999998E-03;  2.2998342E-01;3353; -4.2363256E-02;  0.0000000E+00;  8.2150003E-04;  9.9069061E+02;  1.0000000E-01; -7.7126709E+03;3; -5.4065146E+00;  0.0000000E+00;  4.9127579E+00;0; -2.7561876E-01;  3.9167785E+04;  0.0000000E+00;  9.0820580E+00;  4.0000000E+04;  0.0000000E+00;  4.0098020E+04; -2.7994734E-01;  0.0000000E+00;  4.3285708E-03;  1.8551529E+04;
  1.5339954E-01;  9.9999998E-03;  6.9962583E-02;3398; -5.6996614E-02;  0.0000000E+00;  4.0120599E-04;  9.9102808E+02;  1.0000000E-01; -7.4330737E+03;3; -4.2750469E-01;  0.0000000E+00; -1.9146526E-01;0; -2.5191596E-01;  3.9257953E+04;  0.0000000E+00; -1.6048746E-02;  4.0000000E+04;  0.0000000E+00;  4.0026254E+04; -2.5846502E-01;  0.0000000E+00;  6.5490478E-03;  4.0441318E+03;
  1.5344107E-01;  9.9999998E-03;  7.9955503E-02;3399; -5.6780215E-02;  0.0000000E+00;  5.3933903E-04;  9.9131116E+02;  1.0000000E-01; -7.1985620E+03;3; -4.2175126E-01;  0.0000000E+00; -2.1169798E-01;0; -2.5140730E-01;  3.9278668E+04;  0.0000000E+00; -1.9859480E-02;  4.0000000E+04;  0.0000000E+00;  4.0028016E+04; -2.5664416E-01;  0.0000000E+00;  5.2368511E-03;  4.2421943E+03;
  1.5348597E-01;  9.9999998E-03;  8.9948207E-02;3400; -5.6540512E-02;  0.0000000E+00;  6.4543984E-04;  9.9161731E+02;  1.0000000E-01; -6.9448901E+03;3; -4.1396520E-01;  0.0000000E+00; -2.2511750E-01;0; -2.5122485E-01;  3.9303309E+04;  0.0000000E+00; -2.5044501E-02;  4.0000000E+04;  0.0000000E+00;  4.0027402E+04; -2.5487414E-01;  0.0000000E+00;  3.6493044E-03;  4.1479805E+03;
  1.5353377E-01;  9.9999998E-03;  9.9942043E-02;3401; -5.6279574E-02;  0.0000000E+00;  6.9444667E-04;  9.9193463E+02;  1.0000000E-01; -6.6819839E+03;3; -4.0360677E-01;  0.0000000E+00; -2.3450164E-01;0; -2.5137043E-01;  3.9331848E+04;  0.0000000E+00; -3.1443521E-02;  4.0000000E+04;  0.0000000E+00;  4.0024316E+04; -2.5328973E-01;  0.0000000E+00;  1.9193081E-03;  3.7167908E+03;
  1.5358040E-01;  9.9999998E-03;  1.0993686E-01;3402; -5.5997066E-02;  0.0000000E+00;  6.7096303E-04;  9.9225403E+02;  1.0000000E-01; -6.4173989E+03;3; -3.9082077E-01;  0.0000000E+00; -2.4012396E-01;0; -2.5181958E-01;  3.9363113E+04;  0.0000000E+00; -3.7945926E-02;  4.0000000E+04;  0.0000000E+00;  4.0018238E+04; -2.5204089E-01;  0.0000000E+00;  2.2131215E-04;  2.9494070E+03;
  1.5362322E-01;  9.9999998E-03;  1.1992988E-01;3403; -5.5689875E-02;  0.0000000E+00;  5.7335495E-04;  9.9256122E+02;  1.0000000E-01; -6.1628872E+03;3; -3.7604734E-01;  0.0000000E+00; -2.4053094E-01;0; -2.5254437E-01;  3.9395664E+04;  0.0000000E+00; -4.2327680E-02;  4.0000000E+04;  0.0000000E+00;  4.0010281E+04; -2.5128722E-01;  0.0000000E+00; -1.2571381E-03;  1.9072638E+03;
  1.5366280E-01;  9.9999998E-03;  1.2992063E-01;3404; -5.5351131E-02;  0.0000000E+00;  4.0918219E-04;  9.9284436E+02;  1.0000000E-01; -5.9283262E+03;3; -3.5983795E-01;  0.0000000E+00; -2.3964480E-01;0; -2.5352716E-01;  3.9427359E+04;  0.0000000E+00; -4.1260973E-02;  4.0000000E+04;  0.0000000E+00;  4.0000844E+04; -2.5118050E-01;  0.0000000E+00; -2.3466791E-03;  7.2276129E+02;
  1.5369888E-01;  9.9999998E-03;  1.3991238E-01;3405; -5.4968111E-02;  0.0000000E+00;  1.9522323E-04;  9.9308600E+02;  1.0000000E-01; -5.7281343E+03;3; -3.4281904E-01;  0.0000000E+00; -2.3712116E-01;0; -2.5477305E-01;  3.9455648E+04;  0.0000000E+00; -3.0482169E-02;  4.0000000E+04;  0.0000000E+00;  3.9992117E+04; -2.5185290E-01;  0.0000000E+00; -2.9201629E-03;  4.1037051E+02;
  1.5373369E-01;  9.9999998E-03;  1.4990957E-01;3406; -5.4522250E-02;  0.0000000E+00; -4.5324763E-05;  9.9327777E+02;  1.0000000E-01; -5.5692251E+03;3; -3.2593322E-01;  0.0000000E+00; -2.4132900E-01;0; -2.5630367E-01;  3.9477609E+04;  0.0000000E+00; -5.2507734E-03;  4.0000000E+04;  0.0000000E+00;  3.9985492E+04; -2.5339437E-01;  0.0000000E+00; -2.9092988E-03;  1.2322703E+03;
  1.5377222E-01;  9.9999998E-03;  1.5992096E-01;3407; -5.3989455E-02;  0.0000000E+00; -2.8506335E-04;  9.9340442E+02;  1.0000000E-01; -5.4642900E+03;3; -3.1767851E-01;  0.0000000E+00; -3.0054674E-01;0; -2.5815564E-01;  3.9490297E+04;  0.0000000E+00;  3.8769510E-02;  4.0000000E+04;  0.0000000E+00;  3.9983578E+04; -2.5583166E-01;  0.0000000E+00; -2.3239905E-03;  1.5094358E+03;
  1.5381856E-01;  9.9999998E-03;  1.6996048E-01;3408; -5.3339586E-02;  0.0000000E+00; -4.9421343E-04;  9.9344568E+02;  1.0000000E-01; -5.4301182E+03;3; -3.4690979E-01;  0.0000000E+00; -4.9932143E-01;0; -2.6039571E-01;  3.9490457E+04;  0.0000000E+00;  1.1028183E-01;  4.0000000E+04;  0.0000000E+00;  3.9987227E+04; -2.5913528E-01;  0.0000000E+00; -1.2604371E-03;  1.0554718E+03;
  1.5386234E-01;  9.9999998E-03;  1.8001640E-01;3409; -5.2538268E-02;  0.0000000E+00; -6.4212520E-04;  9.9337476E+02;  1.0000000E-01; -5.4888818E+03;3; -4.7402671E-01;  0.0000000E+00; -8.7719691E-01;0; -2.6311699E-01;  3.9475543E+04;  0.0000000E+00;  2.4497668E-01;  4.0000000E+04;  0.0000000E+00;  3.9997484E+04; -2.6321906E-01;  0.0000000E+00;  1.0206050E-04;  4.3578656E+02;
  1.5389284E-01;  9.9999998E-03;  1.9006039E-01;3410; -5.1554918E-02;  0.0000000E+00; -7.0178800E-04;  9.9316254E+02;  1.0000000E-01; -5.6647285E+03;3; -7.8031486E-01;  0.0000000E+00; -1.2981898E+00;0; -2.6642725E-01;  3.9443277E+04;  0.0000000E+00;  5.5065852E-01;  4.0000000E+04;  0.0000000E+00;  4.0014043E+04; -2.6794600E-01;  0.0000000E+00;  1.5187488E-03;  2.4660908E+03;
  1.5390435E-01;  9.9999998E-03;  2.0008147E-01;3411; -5.0366405E-02;  0.0000000E+00; -6.5600348E-04;  9.9277380E+02;  1.0000000E-01; -5.9867441E+03;3; -1.3279444E+00;  0.0000000E+00; -1.3743314E+00;0; -2.7041265E-01;  3.9392586E+04;  0.0000000E+00;  1.2661762E+00;  4.0000000E+04;  0.0000000E+00;  4.0034969E+04; -2.7313769E-01;  0.0000000E+00;  2.7250457E-03;  5.3136538E+03;
  1.5387173E-01;  9.9999998E-03;  2.1007581E-01;3412; -4.8955251E-02;  0.0000000E+00; -5.0587993E-04;  9.9217706E+02;  1.0000000E-01; -6.4811499E+03;3; -2.1049836E+00;  0.0000000E+00; -5.4040146E-01;0; -2.7507189E-01;  3.9323691E+04;  0.0000000E+00;  2.8137536E+00;  4.0000000E+04;  0.0000000E+00;  4.0057844E+04; -2.7856141E-01;  0.0000000E+00;  3.4895288E-03;  8.8856270E+03;
  1.5380521E-01;  9.9999998E-03;  2.2005075E-01;3413; -4.7317993E-02;  0.0000000E+00; -2.7202064E-04;  9.9135315E+02;  1.0000000E-01; -7.1637480E+03;3; -2.9746604E+00;  0.0000000E+00;  1.6936114E+00;0; -2.8029573E-01;  3.9237980E+04;  0.0000000E+00;  5.8133268E+00;  4.0000000E+04;  0.0000000E+00;  4.0079438E+04; -2.8393993E-01;  0.0000000E+00;  3.6441989E-03;  1.3598097E+04;
  1.5370607E-01;  9.9999998E-03;  2.3000312E-01;3414; -4.5451351E-02;  0.0000000E+00; -1.8415578E-05;  9.9030457E+02;  1.0000000E-01; -8.0324644E+03;3; -3.6220284E+00;  0.0000000E+00;  5.3300920E+00;0; -2.8580266E-01;  3.9138754E+04;  0.0000000E+00;  1.1026300E+01;  4.0000000E+04;  0.0000000E+00;  4.0096566E+04; -2.8891563E-01;  0.0000000E+00;  3.1129699E-03;  2.0586275E+04;
  1.6353539E-01;  9.9999998E-03;  6.9994532E-02;3459; -5.9506077E-02;  0.0000000E+00;  2.4490731E-04;  9.8972314E+02;  1.0000000E-01; -8.5141787E+03;3; -4.3214160E-01;  0.0000000E+00; -2.0517904E-01;0; -2.5337625E-01;  3.9157852E+04;  0.0000000E+00; -2.1189731E-02;  4.0000000E+04;  0.0000000E+00;  4.0022602E+04; -2.5896031E-01;  0.0000000E+00;  5.5840528E-03;  3.7103606E+03;
  1.6357711E-01;  9.9999998E-03;  7.9987019E-02;3460; -5.9242710E-02;  0.0000000E+00;  3.6194589E-04;  9.9003485E+02;  1.0000000E-01; -8.2559141E+03;3; -4.2893788E-01;  0.0000000E+00; -2.2879732E-01;0; -2.5280294E-01;  3.9180320E+04;  0.0000000E+00; -2.5451938E-02;  4.0000000E+04;  0.0000000E+00;  4.0024836E+04; -2.5717631E-01;  0.0000000E+00;  4.3733786E-03;  3.9502561E+03;
  1.6362004E-01;  9.9999998E-03;  8.9977987E-02;3461; -5.8950368E-02;  0.0000000E+00;  4.5003652E-04;  9.9038116E+02;  1.0000000E-01; -7.9690088E+03;3; -4.2232028E-01;  0.0000000E+00; -2.4514061E-01;0; -2.5256205E-01;  3.9207727E+04;  0.0000000E+00; -3.2387156E-02;  4.0000000E+04;  0.0000000E+00;  4.0024688E+04; -2.5543168E-01;  0.0000000E+00;  2.8696335E-03;  3.9050928E+03;
  1.6366079E-01;  9.9999998E-03;  9.9967860E-02;3462; -5.8633827E-02;  0.0000000E+00;  4.8674431E-04;  9.9075366E+02;  1.0000000E-01; -7.6604248E+03;3; -4.1254273E-01;  0.0000000E+00; -2.5873667E-01;0; -2.5266877E-01;  3.9239859E+04;  0.0000000E+00; -4.2831481E-02;  4.0000000E+04;  0.0000000E+00;  4.0021805E+04; -2.5385976E-01;  0.0000000E+00;  1.1910001E-03;  3.5248989E+03;
  1.6369599E-01;  9.9999998E-03;  1.0995672E-01;3463; -5.8296733E-02;  0.0000000E+00;  4.5637228E-04;  9.9114026E+02;  1.0000000E-01; -7.3401377E+03;3; -4.0028876E-01;  0.0000000E+00; -2.6539877E-01;0; -2.5311649E-01;  3.9275938E+04;  0.0000000E+00; -5.6632973E-02;  4.0000000E+04;  0.0000000E+00;  4.0016684E+04; -2.5261337E-01;  0.0000000E+00; -5.0313742E-04;  2.8048184E+03;
  1.6372360E-01;  9.9999998E-03;  1.1994381E-01;3464; -5.7940591E-02;  0.0000000E+00;  3.5516571E-04;  9.9152686E+02;  1.0000000E-01; -7.0198501E+03;3; -3.8594791E-01;  0.0000000E+00; -2.6708576E-01;0; -2.5389308E-01;  3.9314344E+04;  0.0000000E+00; -7.2378606E-02;  4.0000000E+04;  0.0000000E+00;  4.0008648E+04; -2.5185576E-01;  0.0000000E+00; -2.0373263E-03;  1.8011720E+03;
  1.6374484E-01;  9.9999998E-03;  1.2992962E-01;3465; -5.7563454E-02;  0.0000000E+00;  1.8831537E-04;  9.9190271E+02;  1.0000000E-01; -6.7084517E+03;3; -3.6945277E-01;  0.0000000E+00; -2.6813662E-01;0; -2.5499916E-01;  3.9353027E+04;  0.0000000E+00; -8.7390110E-02;  4.0000000E+04;  0.0000000E+00;  3.9999430E+04; -2.5175250E-01;  0.0000000E+00; -3.2466587E-03;  6.4522504E+02;
  1.6376223E-01;  9.9999998E-03;  1.3991812E-01;3466; -5.7157744E-02;  0.0000000E+00; -3.0304767E-05;  9.9225006E+02;  1.0000000E-01; -6.4206572E+03;3; -3.5168409E-01;  0.0000000E+00; -2.6644585E-01;0; -2.5644660E-01;  3.9389594E+04;  0.0000000E+00; -9.7911686E-02;  4.0000000E+04;  0.0000000E+00;  3.9990809E+04; -2.5244844E-01;  0.0000000E+00; -3.9981729E-03;  5.1842517E+02;
  1.6378345E-01;  9.9999998E-03;  1.4991419E-01;3467; -5.6709949E-02;  0.0000000E+00; -2.7582113E-04;  9.9255237E+02;  1.0000000E-01; -6.1702446E+03;3; -3.3408386E-01;  0.0000000E+00; -2.6966012E-01;0; -2.5826338E-01;  3.9420527E+04;  0.0000000E+00; -9.9560104E-02;  4.0000000E+04;  0.0000000E+00;  3.9984102E+04; -2.5405458E-01;  0.0000000E+00; -4.2088022E-03;  1.3666733E+03;
  1.6381340E-01;  9.9999998E-03;  1.5992621E-01;3468; -5.6198291E-02;  0.0000000E+00; -5.2044657E-04;  9.9279242E+02;  1.0000000E-01; -5.9713369E+03;3; -3.2490173E-01;  0.0000000E+00; -3.2458267E-01;0; -2.6049268E-01;  3.9442691E+04;  0.0000000E+00; -8.7539509E-02;  4.0000000E+04;  0.0000000E+00;  3.9981410E+04; -2.5662926E-01;  0.0000000E+00; -3.8634262E-03;  1.7088652E+03;
  1.6385259E-01;  9.9999998E-03;  1.6996925E-01;3469; -5.5593528E-02;  0.0000000E+00; -7.3776318E-04;  9.9294708E+02;  1.0000000E-01; -5.8431924E+03;3; -3.5415015E-01;  0.0000000E+00; -5.0841522E-01;0; -2.6321957E-01;  3.9452598E+04;  0.0000000E+00; -4.8449654E-02;  4.0000000E+04;  0.0000000E+00;  3.9984484E+04; -2.6019457E-01;  0.0000000E+00; -3.0250025E-03;  1.3384783E+03;
  1.6389574E-01;  9.9999998E-03;  1.8003234E-01;3470; -5.4863475E-02;  0.0000000E+00; -9.0405357E-04;  9.9298248E+02;  1.0000000E-01; -5.8138599E+03;3; -4.8082387E-01;  0.0000000E+00; -8.4935778E-01;0; -2.6657203E-01;  3.9446977E+04;  0.0000000E+00;  6.6029616E-02;  4.0000000E+04;  0.0000000E+00;  3.9993996E+04; -2.6473257E-01;  0.0000000E+00; -1.8394723E-03;  1.8591257E+02;
  1.6394129E-01;  9.9999998E-03;  1.9008300E-01;3471; -5.3981513E-02;  0.0000000E+00; -9.9717465E-04;  9.9285687E+02;  1.0000000E-01; -5.9179556E+03;3; -7.7378762E-01;  0.0000000E+00; -1.2107365E+00;0; -2.7070436E-01;  3.9422805E+04;  0.0000000E+00;  3.8739803E-01;  4.0000000E+04;  0.0000000E+00;  4.0009488E+04; -2.7018246E-01;  0.0000000E+00; -5.2188587E-04;  1.8757401E+03;
  1.6394705E-01;  9.9999998E-03;  2.0010427E-01;3472; -5.2919690E-02;  0.0000000E+00; -1.0037625E-03;  9.9253308E+02;  1.0000000E-01; -6.1861948E+03;3; -1.2558690E+00;  0.0000000E+00; -1.2222328E+00;0; -2.7574056E-01;  3.9378250E+04;  0.0000000E+00;  1.1951494E+00;  4.0000000E+04;  0.0000000E+00;  4.0029602E+04; -2.7643743E-01;  0.0000000E+00;  6.9687422E-04;  4.6590596E+03;
  1.6393177E-01;  9.9999998E-03;  2.1010342E-01;3473; -5.1674925E-02;  0.0000000E+00; -9.2914497E-04;  9.9196411E+02;  1.0000000E-01; -6.6575889E+03;3; -1.8297565E+00;  0.0000000E+00; -3.5316190E-01;0; -2.8177705E-01;  3.9312230E+04;  0.0000000E+00;  2.9819055E+00;  4.0000000E+04;  0.0000000E+00;  4.0051695E+04; -2.8337583E-01;  0.0000000E+00;  1.5987623E-03;  8.3606201E+03;
  1.6390833E-01;  9.9999998E-03;  2.2008291E-01;3474; -5.0249733E-02;  0.0000000E+00; -7.9011911E-04;  9.9111792E+02;  1.0000000E-01; -7.3586558E+03;3; -2.1925323E+00;  0.0000000E+00;  1.8697824E+00;0; -2.8880596E-01;  3.9225203E+04;  0.0000000E+00;  6.4868183E+00;  4.0000000E+04;  0.0000000E+00;  4.0073234E+04; -2.9083246E-01;  0.0000000E+00;  2.0264890E-03;  1.3685916E+04;
  1.6387378E-01;  9.9999998E-03;  2.3003846E-01;3475; -4.8647355E-02;  0.0000000E+00; -6.6016044E-04;  9.8998511E+02;  1.0000000E-01; -8.2971475E+03;3; -1.7408828E+00;  0.0000000E+00;  5.4534798E+00;0; -2.9668686E-01;  3.9118926E+04;  0.0000000E+00;  1.2658085E+01;  4.0000000E+04;  0.0000000E+00;  4.0091195E+04; -2.9857865E-01;  0.0000000E+00;  1.8917780E-03;  2.2157855E+04;
  1.7369273E-01;  9.9999998E-03;  7.0053346E-02;3520; -6.2152848E-02;  0.0000000E+00;  1.3853173E-04;  9.8867230E+02;  1.0000000E-01; -9.3847705E+03;3; -4.3910426E-01;  0.0000000E+00; -2.2353938E-01;0; -2.5591615E-01;  3.9077543E+04;  0.0000000E+00; -2.1876492E-02;  4.0000000E+04;  0.0000000E+00;  4.0019809E+04; -2.6085681E-01;  0.0000000E+00;  4.9406714E-03;  3.4493225E+03;
  1.7373095E-01;  9.9999998E-03;  8.0049522E-02;3521; -6.1843537E-02;  0.0000000E+00;  2.4067378E-04;  9.8898547E+02;  1.0000000E-01; -9.1253213E+03;3; -4.3726897E-01;  0.0000000E+00; -2.5190482E-01;0; -2.5533527E-01;  3.9099676E+04;  0.0000000E+00; -2.3868114E-02;  4.0000000E+04;  0.0000000E+00;  4.0022293E+04; -2.5917825E-01;  0.0000000E+00;  3.8429690E-03;  3.7290623E+03;
  1.7377296E-01;  9.9999998E-03;  9.0041213E-02;3522; -6.1499562E-02;  0.0000000E+00;  3.1975537E-04;  9.8934161E+02;  1.0000000E-01; -8.8302686E+03;3; -4.3212983E-01;  0.0000000E+00; -2.7112961E-01;0; -2.5508881E-01;  3.9127621E+04;  0.0000000E+00; -2.9466068E-02;  4.0000000E+04;  0.0000000E+00;  4.0022531E+04; -2.5752515E-01;  0.0000000E+00;  2.4363259E-03;  3.7349673E+03;
  1.7381573E-01;  9.9999998E-03;  1.0002974E-01;3523; -6.1128568E-02;  0.0000000E+00;  3.5048719E-04;  9.8973737E+02;  1.0000000E-01; -8.5023760E+03;3; -4.2371157E-01;  0.0000000E+00; -2.8553382E-01;0; -2.5520164E-01;  3.9161000E+04;  0.0000000E+00; -4.1068118E-02;  4.0000000E+04;  0.0000000E+00;  4.0020289E+04; -2.5602475E-01;  0.0000000E+00;  8.2312326E-04;  3.4120796E+03;
  1.7385489E-01;  9.9999998E-03;  1.1001600E-01;3524; -6.0737539E-02;  0.0000000E+00;  3.1824037E-04;  9.9016187E+02;  1.0000000E-01; -8.1507319E+03;3; -4.1224962E-01;  0.0000000E+00; -2.9485926E-01;0; -2.5567919E-01;  3.9199398E+04;  0.0000000E+00; -6.0259815E-02;  4.0000000E+04;  0.0000000E+00;  4.0015270E+04; -2.5482595E-01;  0.0000000E+00; -8.5323758E-04;  2.7497817E+03;
  1.7388444E-01;  9.9999998E-03;  1.1999997E-01;3525; -6.0331244E-02;  0.0000000E+00;  2.1808292E-04;  9.9060071E+02;  1.0000000E-01; -7.7871372E+03;3; -3.9807898E-01;  0.0000000E+00; -2.9989859E-01;0; -2.5652111E-01;  3.9241398E+04;  0.0000000E+00; -8.7302640E-02;  4.0000000E+04;  0.0000000E+00;  4.0007695E+04; -2.5409132E-01;  0.0000000E+00; -2.4297826E-03;  1.7982789E+03;
  1.7389947E-01;  9.9999998E-03;  1.2998283E-01;3526; -5.9911113E-02;  0.0000000E+00;  5.3663418E-05;  9.9104156E+02;  1.0000000E-01; -7.4219131E+03;3; -3.8158524E-01;  0.0000000E+00; -3.0222407E-01;0; -2.5773290E-01;  3.9285031E+04;  0.0000000E+00; -1.2085421E-01;  4.0000000E+04;  0.0000000E+00;  3.9999211E+04; -2.5398701E-01;  0.0000000E+00; -3.7458956E-03;  6.8663690E+02;
  1.7390507E-01;  9.9999998E-03;  1.3996799E-01;3527; -5.9475176E-02;  0.0000000E+00; -1.6180699E-04;  9.9146875E+02;  1.0000000E-01; -7.0679971E+03;3; -3.6350387E-01;  0.0000000E+00; -3.0021045E-01;0; -2.5933325E-01;  3.9327523E+04;  0.0000000E+00; -1.5792859E-01;  4.0000000E+04;  0.0000000E+00;  3.9990598E+04; -2.5467065E-01;  0.0000000E+00; -4.6626017E-03;  5.1109531E+02;
  1.7391028E-01;  9.9999998E-03;  1.4995889E-01;3528; -5.9014779E-02;  0.0000000E+00; -4.0568016E-04;  9.9186578E+02;  1.0000000E-01; -6.7390684E+03;3; -3.4498996E-01;  0.0000000E+00; -3.0444202E-01;0; -2.6135075E-01;  3.9365984E+04;  0.0000000E+00; -1.9409896E-01;  4.0000000E+04;  0.0000000E+00;  3.9983707E+04; -2.5626898E-01;  0.0000000E+00; -5.0817733E-03;  1.3762341E+03;
  1.7392266E-01;  9.9999998E-03;  1.5996328E-01;3529; -5.8512241E-02;  0.0000000E+00; -6.5091508E-04;  9.9220728E+02;  1.0000000E-01; -6.4561133E+03;3; -3.3429748E-01;  0.0000000E+00; -3.5219806E-01;0; -2.6383948E-01;  3.9396480E+04;  0.0000000E+00; -2.2189797E-01;  4.0000000E+04;  0.0000000E+00;  3.9980621E+04; -2.5887483E-01;  0.0000000E+00; -4.9646413E-03;  1.7974220E+03;
  1.7394534E-01;  9.9999998E-03;  1.6999181E-01;3530; -5.7941739E-02;  0.0000000E+00; -8.7243045E-04;  9.9246576E+02;  1.0000000E-01; -6.2419956E+03;3; -3.6130658E-01;  0.0000000E+00; -5.0937784E-01;0; -2.6690373E-01;  3.9415660E+04;  0.0000000E+00; -2.1946275E-01;  4.0000000E+04;  0.0000000E+00;  3.9982633E+04; -2.6255754E-01;  0.0000000E+00; -4.3461854E-03;  1.5581183E+03;
  1.7396599E-01;  9.9999998E-03;  1.8004581E-01;3531; -5.7270858E-02;  0.0000000E+00; -1.0483996E-03;  9.9260370E+02;  1.0000000E-01; -6.1276782E+03;3; -4.8319158E-01;  0.0000000E+00; -7.9258484E-01;0; -2.7071300E-01;  3.9419410E+04;  0.0000000E+00; -1.2409563E-01;  4.0000000E+04;  0.0000000E+00;  3.9990895E+04; -2.6737207E-01;  0.0000000E+00; -3.3409379E-03;  5.4650208E+02;
  1.7396750E-01;  9.9999998E-03;  1.9009309E-01;3532; -5.6470789E-02;  0.0000000E+00; -1.1623843E-03;  9.9257471E+02;  1.0000000E-01; -6.1517266E+03;3; -7.5936496E-01;  0.0000000E+00; -1.0693494E+00;0; -2.7546346E-01;  3.9404422E+04;  0.0000000E+00;  2.1369429E-01;  4.0000000E+04;  0.0000000E+00;  4.0004812E+04; -2.7333146E-01;  0.0000000E+00; -2.1319867E-03;  1.2656624E+03;
  1.7396462E-01;  9.9999998E-03;  2.0012240E-01;3533; -5.5530187E-02;  0.0000000E+00; -1.2036385E-03;  9.9232581E+02;  1.0000000E-01; -6.3579434E+03;3; -1.1838264E+00;  0.0000000E+00; -1.0001442E+00;0; -2.8137353E-01;  3.9367457E+04;  0.0000000E+00;  1.0972214E+00;  4.0000000E+04;  0.0000000E+00;  4.0023098E+04; -2.8043866E-01;  0.0000000E+00; -9.3485543E-04;  3.8852261E+03;
  1.7397127E-01;  9.9999998E-03;  2.1013105E-01;3534; -5.4451760E-02;  0.0000000E+00; -1.1746216E-03;  9.9180328E+02;  1.0000000E-01; -6.7908198E+03;3; -1.5885617E+00;  0.0000000E+00; -1.0088824E-01;0; -2.8862625E-01;  3.9307031E+04;  0.0000000E+00;  3.0592282E+00;  4.0000000E+04;  0.0000000E+00;  4.0043703E+04; -2.8867623E-01;  0.0000000E+00;  4.9973256E-05;  7.6053486E+03;
  1.7399105E-01;  9.9999998E-03;  2.2012144E-01;3535; -5.3244162E-02;  0.0000000E+00; -1.0990925E-03;  9.9096259E+02;  1.0000000E-01; -7.4873433E+03;3; -1.5352434E+00;  0.0000000E+00;  2.0345125E+00;0; -2.9733372E-01;  3.9221805E+04;  0.0000000E+00;  6.9143367E+00;  4.0000000E+04;  0.0000000E+00;  4.0063883E+04; -2.9800612E-01;  0.0000000E+00;  6.7239936E-04;  1.3360041E+04;
  1.7401820E-01;  9.9999998E-03;  2.3008984E-01;3536; -5.1911883E-02;  0.0000000E+00; -1.0349000E-03;  9.8976654E+02;  1.0000000E-01; -8.4782285E+03;3; -1.7557360E-01;  0.0000000E+00;  5.3309245E+00;0; -3.0752343E-01;  3.9111730E+04;  0.0000000E+00;  1.3741711E+01;  4.0000000E+04;  0.0000000E+00;  4.0081105E+04; -3.0835813E-01;  0.0000000E+00;  8.3470356E-04;  2.2914928E+04;
  1.8393818E-01;  9.9999998E-03;  7.0094340E-02;3581; -6.4942062E-02;  0.0000000E+00;  7.7697267E-05;  9.8797931E+02;  1.0000000E-01; -9.9589277E+03;3; -4.4248608E-01;  0.0000000E+00; -2.4282229E-01;0; -2.5892493E-01;  3.9024770E+04;  0.0000000E+00; -1.4332748E-02;  4.0000000E+04;  0.0000000E+00;  4.0018070E+04; -2.6358786E-01;  0.0000000E+00;  4.6629338E-03;  3.2762275E+03;
  1.8392952E-01;  9.9999998E-03;  8.0093645E-02;3582; -6.4579427E-02;  0.0000000E+00;  1.7410537E-04;  9.8825714E+02;  1.0000000E-01; -9.7287119E+03;3; -4.4213280E-01;  0.0000000E+00; -2.7612710E-01;0; -2.5838691E-01;  3.9044145E+04;  0.0000000E+00; -1.0277843E-02;  4.0000000E+04;  0.0000000E+00;  4.0020688E+04; -2.6207668E-01;  0.0000000E+00;  3.6897734E-03;  3.5866055E+03;
  1.8393481E-01;  9.9999998E-03;  9.0086639E-02;3583; -6.4178266E-02;  0.0000000E+00;  2.5151062E-04;  9.8859479E+02;  1.0000000E-01; -9.4490156E+03;3; -4.3873048E-01;  0.0000000E+00; -3.0127442E-01;0; -2.5818413E-01;  3.9069809E+04;  0.0000000E+00; -9.8576052E-03;  4.0000000E+04;  0.0000000E+00;  4.0021371E+04; -2.6057711E-01;  0.0000000E+00;  2.3929700E-03;  3.6398816E+03;
  1.8395311E-01;  9.9999998E-03;  1.0007507E-01;3584; -6.3748591E-02;  0.0000000E+00;  2.8485936E-04;  9.8897717E+02;  1.0000000E-01; -9.1321855E+03;3; -4.3157762E-01;  0.0000000E+00; -3.1866738E-01;0; -2.5834873E-01;  3.9101730E+04;  0.0000000E+00; -1.7437080E-02;  4.0000000E+04;  0.0000000E+00;  4.0019387E+04; -2.5920776E-01;  0.0000000E+00;  8.5903454E-04;  3.3762356E+03;
  1.8397643E-01;  9.9999998E-03;  1.1006056E-01;3585; -6.3299343E-02;  0.0000000E+00;  2.5867671E-04;  9.8940271E+02;  1.0000000E-01; -8.7796523E+03;3; -4.2113239E-01;  0.0000000E+00; -3.3132800E-01;0; -2.5889260E-01;  3.9139645E+04;  0.0000000E+00; -3.7038945E-02;  4.0000000E+04;  0.0000000E+00;  4.0015078E+04; -2.5810814E-01;  0.0000000E+00; -7.8446907E-04;  2.7792332E+03;
  1.8399644E-01;  9.9999998E-03;  1.2004416E-01;3586; -6.2838502E-02;  0.0000000E+00;  1.6674119E-04;  9.8985773E+02;  1.0000000E-01; -8.4026758E+03;3; -4.0749240E-01;  0.0000000E+00; -3.3813441E-01;0; -2.5981963E-01;  3.9182332E+04;  0.0000000E+00; -7.1551122E-02;  4.0000000E+04;  0.0000000E+00;  4.0008230E+04; -2.5743315E-01;  0.0000000E+00; -2.3864852E-03;  1.8917725E+03;
  1.8400939E-01;  9.9999998E-03;  1.3002677E-01;3587; -6.2372174E-02;  0.0000000E+00;  1.2187865E-05;  9.9033087E+02;  1.0000000E-01; -8.0106865E+03;3; -3.9127514E-01;  0.0000000E+00; -3.4115896E-01;0; -2.6113901E-01;  3.9227828E+04;  0.0000000E+00; -1.2199905E-01;  4.0000000E+04;  0.0000000E+00;  3.9999910E+04; -2.5734910E-01;  0.0000000E+00; -3.7899001E-03;  8.3184576E+02;
  1.8401629E-01;  9.9999998E-03;  1.4000987E-01;3588; -6.1902229E-02;  0.0000000E+00; -1.9240806E-04;  9.9080280E+02;  1.0000000E-01; -7.6196851E+03;3; -3.7301597E-01;  0.0000000E+00; -3.4053203E-01;0; -2.6286533E-01;  3.9273734E+04;  0.0000000E+00; -1.8694806E-01;  4.0000000E+04;  0.0000000E+00;  3.9991492E+04; -2.5801557E-01;  0.0000000E+00; -4.8497729E-03;  3.8866364E+02;
  1.8401738E-01;  9.9999998E-03;  1.4999659E-01;3589; -6.1422780E-02;  0.0000000E+00; -4.2576707E-04;  9.9126141E+02;  1.0000000E-01; -7.2397451E+03;3; -3.5370636E-01;  0.0000000E+00; -3.4455511E-01;0; -2.6502407E-01;  3.9316984E+04;  0.0000000E+00; -2.6206666E-01;  4.0000000E+04;  0.0000000E+00;  3.9984445E+04; -2.5957015E-01;  0.0000000E+00; -5.4539237E-03;  1.2435402E+03;
  1.8401553E-01;  9.9999998E-03;  1.5999305E-01;3590; -6.0919594E-02;  0.0000000E+00; -6.6345627E-04;  9.9167926E+02;  1.0000000E-01; -6.8935825E+03;3; -3.4097844E-01;  0.0000000E+00; -3.8293979E-01;0; -2.6767558E-01;  3.9353957E+04;  0.0000000E+00; -3.3531883E-01;  4.0000000E+04;  0.0000000E+00;  3.9980832E+04; -2.6213378E-01;  0.0000000E+00; -5.5418112E-03;  1.7450090E+03;
  1.8401295E-01;  9.9999998E-03;  1.7000714E-01;3591; -6.0370293E-02;  0.0000000E+00; -8.8143267E-04;  9.9202399E+02;  1.0000000E-01; -6.6079609E+03;3; -3.6345902E-01;  0.0000000E+00; -5.0361848E-01;0; -2.7094877E-01;  3.9380887E+04;  0.0000000E+00; -3.7312904E-01;  4.0000000E+04;  0.0000000E+00;  3.9981984E+04; -2.6582450E-01;  0.0000000E+00; -5.1242574E-03;  1.6600820E+03;
  1.8399924E-01;  9.9999998E-03;  1.8004160E-01;3592; -5.9745904E-02;  0.0000000E+00; -1.0608429E-03;  9.9225500E+02;  1.0000000E-01; -6.4165586E+03;3; -4.7722155E-01;  0.0000000E+00; -7.0746577E-01;0; -2.7505055E-01;  3.9393211E+04;  0.0000000E+00; -2.9746091E-01;  4.0000000E+04;  0.0000000E+00;  3.9988602E+04; -2.7075890E-01;  0.0000000E+00; -4.2916476E-03;  8.7372308E+02;
  1.8396969E-01;  9.9999998E-03;  1.9009002E-01;3593; -5.9022147E-02;  0.0000000E+00; -1.1858796E-03;  9.9231580E+02;  1.0000000E-01; -6.3662393E+03;3; -7.3860753E-01;  0.0000000E+00; -8.6682981E-01;0; -2.8024825E-01;  3.9387379E+04;  0.0000000E+00;  5.3510915E-02;  4.0000000E+04;  0.0000000E+00;  4.0000469E+04; -2.7704707E-01;  0.0000000E+00; -3.2011769E-03;  7.2611298E+02;
  1.8395998E-01;  9.9999998E-03;  2.0013183E-01;3594; -5.8196522E-02;  0.0000000E+00; -1.2479044E-03;  9.9214880E+02;  1.0000000E-01; -6.5045562E+03;3; -1.1294661E+00;  0.0000000E+00; -6.7875499E-01;0; -2.8683895E-01;  3.9359574E+04;  0.0000000E+00;  9.8989868E-01;  4.0000000E+04;  0.0000000E+00;  4.0016555E+04; -2.8478965E-01;  0.0000000E+00; -2.0492948E-03;  3.0930046E+03;
  1.8398321E-01;  9.9999998E-03;  2.1015443E-01;3595; -5.7276305E-02;  0.0000000E+00; -1.2477145E-03;  9.9169281E+02;  1.0000000E-01; -6.8823726E+03;3; -1.4484320E+00;  0.0000000E+00;  2.7791592E-01;0; -2.9509461E-01;  3.9306941E+04;  0.0000000E+00;  3.0505641E+00;  4.0000000E+04;  0.0000000E+00;  4.0034508E+04; -2.9407102E-01;  0.0000000E+00; -1.0236007E-03;  6.7177310E+03;
  1.8403633E-01;  9.9999998E-03;  2.2016089E-01;3596; -5.6274917E-02;  0.0000000E+00; -1.2088699E-03;  9.9088434E+02;  1.0000000E-01; -7.5521313E+03;3; -1.1898396E+00;  0.0000000E+00;  2.2838948E+00;0; -3.0525491E-01;  3.9227109E+04;  0.0000000E+00;  7.0671067E+00;  4.0000000E+04;  0.0000000E+00;  4.0052066E+04; -3.0498323E-01;  0.0000000E+00; -2.7167343E-04;  1.2645902E+04;
  1.8411042E-01;  9.9999998E-03;  2.3015039E-01;3597; -5.5193264E-02;  0.0000000E+00; -1.1740429E-03;  9.8966663E+02;  1.0000000E-01; -8.5609922E+03;3;  6.2810183E-01;  0.0000000E+00;  5.1005659E+00;0; -3.1752983E-01;  3.9117969E+04;  0.0000000E+00;  1.4163533E+01;  4.0000000E+04;  0.0000000E+00;  4.0066523E+04; -3.1762874E-01;  0.0000000E+00;  9.8909833E-05;  2.2702762E+04;
  1.9424096E-01;  9.9999998E-03;  7.0104815E-02;3642; -6.7844361E-02;  0.0000000E+00;  5.6636363E-05;  9.8772125E+02;  1.0000000E-01; -1.0172699E+04;3; -4.4035521E-01;  0.0000000E+00; -2.6266348E-01;0; -2.6179981E-01;  3.9005469E+04;  0.0000000E+00;  3.6136990E-03;  4.0000000E+04;  0.0000000E+00;  4.0017328E+04; -2.6657769E-01;  0.0000000E+00;  4.7778762E-03;  3.2167778E+03;
  1.9420236E-01;  9.9999998E-03;  8.0105349E-02;3643; -6.7438260E-02;  0.0000000E+00;  1.5780325E-04;  9.8793268E+02;  1.0000000E-01; -9.9975439E+03;3; -4.4255260E-01;  0.0000000E+00; -3.0577460E-01;0; -2.6137570E-01;  3.9019258E+04;  0.0000000E+00;  1.7460436E-02;  4.0000000E+04;  0.0000000E+00;  4.0020141E+04; -2.6531285E-01;  0.0000000E+00;  3.9371606E-03;  3.5441426E+03;
  1.9416340E-01;  9.9999998E-03;  9.0100259E-02;3644; -6.6983216E-02;  0.0000000E+00;  2.4117190E-04;  9.8820477E+02;  1.0000000E-01; -9.7721182E+03;3; -4.4069922E-01;  0.0000000E+00; -3.3539170E-01;0; -2.6127982E-01;  3.9039504E+04;  0.0000000E+00;  2.9218767E-02;  4.0000000E+04;  0.0000000E+00;  4.0020992E+04; -2.6404005E-01;  0.0000000E+00;  2.7602415E-03;  3.6380005E+03;
  1.9413152E-01;  9.9999998E-03;  1.0009081E-01;3645; -6.6492558E-02;  0.0000000E+00;  2.8477382E-04;  9.8853271E+02;  1.0000000E-01; -9.5004219E+03;3; -4.3519127E-01;  0.0000000E+00; -3.5673159E-01;0; -2.6154804E-01;  3.9066832E+04;  0.0000000E+00;  3.2616843E-02;  4.0000000E+04;  0.0000000E+00;  4.0019598E+04; -2.6286522E-01;  0.0000000E+00;  1.3171670E-03;  3.4331265E+03;
  1.9411120E-01;  9.9999998E-03;  1.1007816E-01;3646; -6.5980896E-02;  0.0000000E+00;  2.7263444E-04;  9.8891382E+02;  1.0000000E-01; -9.1846777E+03;3; -4.2602122E-01;  0.0000000E+00; -3.7176183E-01;0; -2.6219937E-01;  3.9100762E+04;  0.0000000E+00;  2.0732421E-02;  4.0000000E+04;  0.0000000E+00;  4.0015742E+04; -2.6192006E-01;  0.0000000E+00; -2.7929526E-04;  2.9063440E+03;
  1.9410133E-01;  9.9999998E-03;  1.2006352E-01;3647; -6.5461420E-02;  0.0000000E+00;  1.9682216E-04;  9.8934424E+02;  1.0000000E-01; -8.8280957E+03;3; -4.1340348E-01;  0.0000000E+00; -3.8234404E-01;0; -2.6324028E-01;  3.9140547E+04;  0.0000000E+00; -1.2836510E-02;  4.0000000E+04;  0.0000000E+00;  4.0009465E+04; -2.6135224E-01;  0.0000000E+00; -1.8880279E-03;  2.0918713E+03;
  1.9409493E-01;  9.9999998E-03;  1.3004771E-01;3648; -6.4943232E-02;  0.0000000E+00;  5.9664297E-05;  9.8980634E+02;  1.0000000E-01; -8.4452422E+03;3; -3.9751935E-01;  0.0000000E+00; -3.8702887E-01;0; -2.6467490E-01;  3.9184570E+04;  0.0000000E+00; -7.2647542E-02;  4.0000000E+04;  0.0000000E+00;  4.0001848E+04; -2.6132047E-01;  0.0000000E+00; -3.3544302E-03;  1.0900316E+03;
  1.9408666E-01;  9.9999998E-03;  1.4003177E-01;3649; -6.4431153E-02;  0.0000000E+00; -1.2703965E-04;  9.9028619E+02;  1.0000000E-01; -8.0477222E+03;3; -3.7928230E-01;  0.0000000E+00; -3.8823074E-01;0; -2.6651052E-01;  3.9230570E+04;  0.0000000E+00; -1.6009012E-01;  4.0000000E+04;  0.0000000E+00;  3.9993621E+04; -2.6198235E-01;  0.0000000E+00; -4.5281653E-03;  2.3217964E+02;
  1.9407386E-01;  9.9999998E-03;  1.5001765E-01;3650; -6.3923411E-02;  0.0000000E+00; -3.4231128E-04;  9.9077081E+02;  1.0000000E-01; -7.6462031E+03;3; -3.5936245E-01;  0.0000000E+00; -3.9019698E-01;0; -2.6876810E-01;  3.9275715E+04;  0.0000000E+00; -2.7180830E-01;  4.0000000E+04;  0.0000000E+00;  3.9986934E+04; -2.6348406E-01;  0.0000000E+00; -5.2840398E-03;  9.4621051E+02;
  1.9405714E-01;  9.9999998E-03;  1.6000940E-01;3651; -6.3410155E-02;  0.0000000E+00; -5.6422374E-04;  9.9123077E+02;  1.0000000E-01; -7.2651274E+03;3; -3.4432530E-01;  0.0000000E+00; -4.1686687E-01;0; -2.7151456E-01;  3.9316516E+04;  0.0000000E+00; -3.9074460E-01;  4.0000000E+04;  0.0000000E+00;  3.9982777E+04; -2.6597106E-01;  0.0000000E+00; -5.5435039E-03;  1.5180411E+03;
  1.9403473E-01;  9.9999998E-03;  1.7001221E-01;3652; -6.2872663E-02;  0.0000000E+00; -7.7147834E-04;  9.9163263E+02;  1.0000000E-01; -6.9321982E+03;3; -3.6085415E-01;  0.0000000E+00; -4.9291116E-01;0; -2.7489990E-01;  3.9348742E+04;  0.0000000E+00; -4.7035795E-01;  4.0000000E+04;  0.0000000E+00;  3.9982848E+04; -2.6960132E-01;  0.0000000E+00; -5.2985712E-03;  1.5877537E+03;
  1.9400394E-01;  9.9999998E-03;  1.8003222E-01;3653; -6.2287703E-02;  0.0000000E+00; -9.4655436E-04;  9.9193665E+02;  1.0000000E-01; -6.6803540E+03;3; -4.6516484E-01;  0.0000000E+00; -6.0003102E-01;0; -2.7917096E-01;  3.9368418E+04;  0.0000000E+00; -4.1744801E-01;  4.0000000E+04;  0.0000000E+00;  3.9987793E+04; -2.7455059E-01;  0.0000000E+00; -4.6203602E-03;  1.0298134E+03;
  1.9396472E-01;  9.9999998E-03;  1.9007502E-01;3654; -6.1634898E-02;  0.0000000E+00; -1.0766126E-03;  9.9208002E+02;  1.0000000E-01; -6.5615425E+03;3; -7.1715105E-01;  0.0000000E+00; -6.0616249E-01;0; -2.8465286E-01;  3.9371180E+04;  0.0000000E+00; -6.2496342E-02;  4.0000000E+04;  0.0000000E+00;  3.9997465E+04; -2.8100756E-01;  0.0000000E+00; -3.6452941E-03;  3.6921347E+02;
  1.9394562E-01;  9.9999998E-03;  2.0012647E-01;3655; -6.0912516E-02;  0.0000000E+00; -1.1524766E-03;  9.9199884E+02;  1.0000000E-01; -6.6287998E+03;3; -1.1090435E+00;  0.0000000E+00; -2.3885615E-01;0; -2.9171181E-01;  3.9352926E+04;  0.0000000E+00;  8.9697188E-01;  4.0000000E+04;  0.0000000E+00;  4.0010691E+04; -2.8916243E-01;  0.0000000E+00; -2.5493787E-03;  2.4154553E+03;
  1.9397625E-01;  9.9999998E-03;  2.1016157E-01;3656; -6.0135946E-02;  0.0000000E+00; -1.1749788E-03;  9.9162726E+02;  1.0000000E-01; -6.9366426E+03;3; -1.4545497E+00;  0.0000000E+00;  8.4946817E-01;0; -3.0070883E-01;  3.9310312E+04;  0.0000000E+00;  2.9757950E+00;  4.0000000E+04;  0.0000000E+00;  4.0025504E+04; -2.9919642E-01;  0.0000000E+00; -1.5124202E-03;  5.8556270E+03;
  1.9404452E-01;  9.9999998E-03;  2.2018780E-01;3657; -5.9315287E-02;  0.0000000E+00; -1.1602616E-03;  9.9088306E+02;  1.0000000E-01; -7.5532178E+03;3; -1.2673653E+00;  0.0000000E+00;  2.8094831E+00;0; -3.1200826E-01;  3.9239355E+04;  0.0000000E+00;  6.9685512E+00;  4.0000000E+04;  0.0000000E+00;  4.0039176E+04; -3.1132436E-01;  0.0000000E+00; -6.8389683E-04;  1.1686856E+04;
  1.9414100E-01;  9.9999998E-03;  2.3020163E-01;3658; -5.8445450E-02;  0.0000000E+00; -1.1503106E-03;  9.8968536E+02;  1.0000000E-01; -8.5454863E+03;3;  3.9729586E-01;  0.0000000E+00;  5.1374431E+00;0; -3.2599619E-01;  3.9136695E+04;  0.0000000E+00;  1.3954807E+01;  4.0000000E+04;  0.0000000E+00;  4.0048863E+04; -3.2579964E-01;  0.0000000E+00; -1.9654958E-04;  2.1649369E+04;
  2.0455654E-01;  9.9999998E-03;  7.0080601E-02;3703; -7.0817500E-02;  0.0000000E+00;  7.2274495E-05;  9.8793378E+02;  1.0000000E-01; -9.9966553E+03;3; -4.3213052E-01;  0.0000000E+00; -2.8583777E-01;0; -2.6404294E-01;  3.9021430E+04;  0.0000000E+00;  2.9405426E-02;  4.0000000E+04;  0.0000000E+00;  4.0018051E+04; -2.6932862E-01;  0.0000000E+00;  5.2856924E-03;  3.2954326E+03;
  2.0449801E-01;  9.9999998E-03;  8.0088019E-02;3704; -7.0379056E-02;  0.0000000E+00;  1.8310349E-04;  9.8804706E+02;  1.0000000E-01; -9.9027812E+03;3; -4.3620926E-01;  0.0000000E+00; -3.3507589E-01;0; -2.6379496E-01;  3.9027652E+04;  0.0000000E+00;  5.5263612E-02;  4.0000000E+04;  0.0000000E+00;  4.0020941E+04; -2.6837975E-01;  0.0000000E+00;  4.5847837E-03;  3.6275684E+03;
  2.0443101E-01;  9.9999998E-03;  9.0088338E-02;3705; -6.9881469E-02;  0.0000000E+00;  2.8319570E-04;  9.8821826E+02;  1.0000000E-01; -9.7609580E+03;3; -4.3740717E-01;  0.0000000E+00; -3.7435135E-01;0; -2.6387331E-01;  3.9040027E+04;  0.0000000E+00;  8.2518868E-02;  4.0000000E+04;  0.0000000E+00;  4.0021953E+04; -2.6741156E-01;  0.0000000E+00;  3.5382432E-03;  3.7546760E+03;
  2.0436147E-01;  9.9999998E-03;  1.0008322E-01;3706; -6.9340073E-02;  0.0000000E+00;  3.4345497E-04;  9.8845251E+02;  1.0000000E-01; -9.5668896E+03;3; -4.3361145E-01;  0.0000000E+00; -3.9984465E-01;0; -2.6431128E-01;  3.9059426E+04;  0.0000000E+00;  1.0378265E-01;  4.0000000E+04;  0.0000000E+00;  4.0020879E+04; -2.6651105E-01;  0.0000000E+00;  2.1997567E-03;  3.6072886E+03;
  2.0429663E-01;  9.9999998E-03;  1.1007432E-01;3707; -6.8771407E-02;  0.0000000E+00;  3.5173874E-04;  9.8874701E+02;  1.0000000E-01; -9.3228965E+03;3; -4.2613295E-01;  0.0000000E+00; -4.1924867E-01;0; -2.6512513E-01;  3.9085871E+04;  0.0000000E+00;  1.0951135E-01;  4.0000000E+04;  0.0000000E+00;  4.0017621E+04; -2.6579255E-01;  0.0000000E+00;  6.6740927E-04;  3.1554998E+03;
  2.0424041E-01;  9.9999998E-03;  1.2006345E-01;3708; -6.8192601E-02;  0.0000000E+00;  2.9923828E-04;  9.8909961E+02;  1.0000000E-01; -9.0307559E+03;3; -4.1437396E-01;  0.0000000E+00; -4.3210942E-01;0; -2.6631886E-01;  3.9119074E+04;  0.0000000E+00;  8.9365572E-02;  4.0000000E+04;  0.0000000E+00;  4.0012008E+04; -2.6539215E-01;  0.0000000E+00; -9.2669117E-04;  2.4237783E+03;
  2.0419453E-01;  9.9999998E-03;  1.3005078E-01;3709; -6.7618698E-02;  0.0000000E+00;  1.8666610E-04;  9.8950232E+02;  1.0000000E-01; -8.6971357E+03;3; -3.9974076E-01;  0.0000000E+00; -4.4020170E-01;0; -2.6788875E-01;  3.9157934E+04;  0.0000000E+00;  3.4139954E-02;  4.0000000E+04;  0.0000000E+00;  4.0004941E+04; -2.6545998E-01;  0.0000000E+00; -2.4287580E-03;  1.4950752E+03;
  2.0415844E-01;  9.9999998E-03;  1.4003724E-01;3710; -6.7059927E-02;  0.0000000E+00;  2.4488532E-05;  9.8994751E+02;  1.0000000E-01; -8.3283066E+03;3; -3.8161722E-01;  0.0000000E+00; -4.4315350E-01;0; -2.6983532E-01;  3.9200316E+04;  0.0000000E+00; -6.1955262E-02;  4.0000000E+04;  0.0000000E+00;  3.9997188E+04; -2.6615253E-01;  0.0000000E+00; -3.6828029E-03;  5.1601495E+02;
  2.0412575E-01;  9.9999998E-03;  1.5002394E-01;3711; -6.6518329E-02;  0.0000000E+00; -1.6766629E-04;  9.9041302E+02;  1.0000000E-01; -7.9426392E+03;3; -3.6144322E-01;  0.0000000E+00; -4.4430453E-01;0; -2.7217403E-01;  3.9243680E+04;  0.0000000E+00; -1.9833936E-01;  4.0000000E+04;  0.0000000E+00;  3.9990570E+04; -2.6762167E-01;  0.0000000E+00; -4.5523643E-03;  4.6366638E+02;
  2.0409073E-01;  9.9999998E-03;  1.6001371E-01;3712; -6.5987557E-02;  0.0000000E+00; -3.6931731E-04;  9.9087408E+02;  1.0000000E-01; -7.5606250E+03;3; -3.4400293E-01;  0.0000000E+00; -4.5683384E-01;0; -2.7497339E-01;  3.9284938E+04;  0.0000000E+00; -3.5473448E-01;  4.0000000E+04;  0.0000000E+00;  3.9986363E+04; -2.7002880E-01;  0.0000000E+00; -4.9446011E-03;  1.0794371E+03;
  2.0404978E-01;  9.9999998E-03;  1.7001066E-01;3713; -6.5453604E-02;  0.0000000E+00; -5.6314247E-04;  9.9130334E+02;  1.0000000E-01; -7.2050303E+03;3; -3.5482925E-01;  0.0000000E+00; -4.8442978E-01;0; -2.7840102E-01;  3.9319984E+04;  0.0000000E+00; -4.7336027E-01;  4.0000000E+04;  0.0000000E+00;  3.9985340E+04; -2.7356416E-01;  0.0000000E+00; -4.8368657E-03;  1.2878363E+03;
  2.0400515E-01;  9.9999998E-03;  1.8002014E-01;3714; -6.4898655E-02;  0.0000000E+00; -7.3404808E-04;  9.9165228E+02;  1.0000000E-01; -6.9159028E+03;3; -4.5013225E-01;  0.0000000E+00; -4.8292884E-01;0; -2.8273520E-01;  3.9344578E+04;  0.0000000E+00; -4.4783005E-01;  4.0000000E+04;  0.0000000E+00;  3.9988902E+04; -2.7845073E-01;  0.0000000E+00; -4.2844652E-03;  9.4554413E+02;
  2.0395878E-01;  9.9999998E-03;  1.9005135E-01;3715; -6.4305030E-02;  0.0000000E+00; -8.6934428E-04;  9.9186597E+02;  1.0000000E-01; -6.7388706E+03;3; -7.0083016E-01;  0.0000000E+00; -3.0695343E-01;0; -2.8834248E-01;  3.9354758E+04;  0.0000000E+00; -1.0491113E-01;  4.0000000E+04;  0.0000000E+00;  3.9996285E+04; -2.8493431E-01;  0.0000000E+00; -3.4081596E-03;  2.6274396E+02;
  2.0392565E-01;  9.9999998E-03;  2.0010448E-01;3716; -6.3668281E-02;  0.0000000E+00; -9.6240191E-04;  9.9187018E+02;  1.0000000E-01; -6.7354141E+03;3; -1.1294421E+00;  0.0000000E+00;  3.0205715E-01;0; -2.9565015E-01;  3.9346211E+04;  0.0000000E+00;  8.4052712E-01;  4.0000000E+04;  0.0000000E+00;  4.0006746E+04; -2.9328066E-01;  0.0000000E+00; -2.3694823E-03;  1.9777610E+03;
  2.0395283E-01;  9.9999998E-03;  2.1014445E-01;3717; -6.3008286E-02;  0.0000000E+00; -1.0135891E-03;  9.9159729E+02;  1.0000000E-01; -6.9614814E+03;3; -1.6059858E+00;  0.0000000E+00;  1.6521800E+00;0; -3.0509603E-01;  3.9314512E+04;  0.0000000E+00;  2.8574564E+00;  4.0000000E+04;  0.0000000E+00;  4.0018309E+04; -3.0375066E-01;  0.0000000E+00; -1.3453742E-03;  5.1666147E+03;
  2.0402490E-01;  9.9999998E-03;  2.2018269E-01;3718; -6.2331192E-02;  0.0000000E+00; -1.0432019E-03;  9.9095239E+02;  1.0000000E-01; -7.4957876E+03;3; -1.7517539E+00;  0.0000000E+00;  3.7890708E+00;0; -3.1716868E-01;  3.9255523E+04;  0.0000000E+00;  6.6633043E+00;  4.0000000E+04;  0.0000000E+00;  4.0027980E+04; -3.1666034E-01;  0.0000000E+00; -5.0834205E-04;  1.0678175E+04;
  2.0412661E-01;  9.9999998E-03;  2.3021385E-01;3719; -6.1626438E-02;  0.0000000E+00; -1.1045064E-03;  9.8983447E+02;  1.0000000E-01; -8.4219336E+03;3; -8.0022401E-01;  0.0000000E+00;  5.9943194E+00;0; -3.3244562E-01;  3.9164445E+04;  0.0000000E+00;  1.3232759E+01;  4.0000000E+04;  0.0000000E+00;  4.0032707E+04; -3.3238065E-01;  0.0000000E+00; -6.4975582E-05;  2.0073404E+04;
  2.1488577E-01;  9.9999998E-03;  7.0009515E-02;3764; -7.3830746E-02;  0.0000000E+00;  1.1896576E-04;  9.8858063E+02;  1.0000000E-01; -9.4607197E+03;3; -4.1525701E-01;  0.0000000E+00; -3.0653742E-01;0; -2.6532862E-01;  3.9070336E+04;  0.0000000E+00;  5.6294847E-02;  4.0000000E+04;  0.0000000E+00;  4.0020422E+04; -2.7149439E-01;  0.0000000E+00;  6.1657820E-03;  3.5196172E+03;
  2.1486567E-01;  9.9999998E-03;  8.0014065E-02;3765; -7.3386319E-02;  0.0000000E+00;  2.4446304E-04;  9.8859161E+02;  1.0000000E-01; -9.4516328E+03;3; -4.2177087E-01;  0.0000000E+00; -3.6396050E-01;0; -2.6530525E-01;  3.9068633E+04;  0.0000000E+00;  9.3181878E-02;  4.0000000E+04;  0.0000000E+00;  4.0022891E+04; -2.7092516E-01;  0.0000000E+00;  5.6199054E-03;  3.8443218E+03;
  2.1480799E-01;  9.9999998E-03;  9.0016447E-02;3766; -7.2866544E-02;  0.0000000E+00;  3.6602968E-04;  9.8864734E+02;  1.0000000E-01; -9.4054619E+03;3; -4.2586574E-01;  0.0000000E+00; -4.1202581E-01;0; -2.6561099E-01;  3.9071707E+04;  0.0000000E+00;  1.3660538E-01;  4.0000000E+04;  0.0000000E+00;  4.0024180E+04; -2.7033308E-01;  0.0000000E+00;  4.7220904E-03;  3.9991970E+03;
  2.1470995E-01;  9.9999998E-03;  1.0002054E-01;3767; -7.2285131E-02;  0.0000000E+00;  4.5228531E-04;  9.8875494E+02;  1.0000000E-01; -9.3163281E+03;3; -4.2460740E-01;  0.0000000E+00; -4.4532162E-01;0; -2.6627308E-01;  3.9080934E+04;  0.0000000E+00;  1.7967175E-01;  4.0000000E+04;  0.0000000E+00;  4.0023434E+04; -2.6977971E-01;  0.0000000E+00;  3.5066251E-03;  3.9113767E+03;
  2.1457924E-01;  9.9999998E-03;  1.1002954E-01;3768; -7.1660884E-02;  0.0000000E+00;  4.8632012E-04;  9.8892450E+02;  1.0000000E-01; -9.1758389E+03;3; -4.2007193E-01;  0.0000000E+00; -4.7405538E-01;0; -2.6729947E-01;  3.9096902E+04;  0.0000000E+00;  2.1150193E-01;  4.0000000E+04;  0.0000000E+00;  4.0020773E+04; -2.6935479E-01;  0.0000000E+00;  2.0553151E-03;  3.5431711E+03;
  2.1444792E-01;  9.9999998E-03;  1.2003749E-01;3769; -7.1020499E-02;  0.0000000E+00;  4.6376779E-04;  9.8915808E+02;  1.0000000E-01; -8.9823135E+03;3; -4.1056919E-01;  0.0000000E+00; -4.9220759E-01;0; -2.6868695E-01;  3.9120094E+04;  0.0000000E+00;  2.1836166E-01;  4.0000000E+04;  0.0000000E+00;  4.0015699E+04; -2.6918310E-01;  0.0000000E+00;  4.9614074E-04;  2.9072126E+03;
  2.1434212E-01;  9.9999998E-03;  1.3003764E-01;3770; -7.0389360E-02;  0.0000000E+00;  3.8197506E-04;  9.8945520E+02;  1.0000000E-01; -8.7361475E+03;3; -3.9659917E-01;  0.0000000E+00; -5.0214547E-01;0; -2.7042291E-01;  3.9149922E+04;  0.0000000E+00;  1.8605039E-01;  4.0000000E+04;  0.0000000E+00;  4.0009207E+04; -2.6940948E-01;  0.0000000E+00; -1.0134223E-03;  2.0723225E+03;
  2.1425734E-01;  9.9999998E-03;  1.4003262E-01;3771; -6.9779932E-02;  0.0000000E+00;  2.5002466E-04;  9.8980981E+02;  1.0000000E-01; -8.4423779E+03;3; -3.7906078E-01;  0.0000000E+00; -5.0718278E-01;0; -2.7249581E-01;  3.9184859E+04;  0.0000000E+00;  1.0280883E-01;  4.0000000E+04;  0.0000000E+00;  4.0002230E+04; -2.7018231E-01;  0.0000000E+00; -2.3135096E-03;  1.1537133E+03;
  2.1418808E-01;  9.9999998E-03;  1.5002331E-01;3772; -6.9198824E-02;  0.0000000E+00;  8.6077627E-05;  9.9021100E+02;  1.0000000E-01; -8.1099922E+03;3; -3.5870823E-01;  0.0000000E+00; -5.0942630E-01;0; -2.7491403E-01;  3.9222773E+04;  0.0000000E+00; -3.6018264E-02;  4.0000000E+04;  0.0000000E+00;  3.9995855E+04; -2.7165619E-01;  0.0000000E+00; -3.2578290E-03;  3.1271295E+02;
  2.1412855E-01;  9.9999998E-03;  1.6001281E-01;3773; -6.8644673E-02;  0.0000000E+00; -9.1408496E-05;  9.9063470E+02;  1.0000000E-01; -7.7589897E+03;3; -3.3978471E-01;  0.0000000E+00; -5.0869071E-01;0; -2.7774718E-01;  3.9260820E+04;  0.0000000E+00; -2.1114084E-01;  4.0000000E+04;  0.0000000E+00;  3.9991277E+04; -2.7400547E-01;  0.0000000E+00; -3.7417088E-03;  4.2062924E+02;
  2.1407202E-01;  9.9999998E-03;  1.7000514E-01;3774; -6.8107694E-02;  0.0000000E+00; -2.6836249E-04;  9.9105005E+02;  1.0000000E-01; -7.4148516E+03;3; -3.4546468E-01;  0.0000000E+00; -4.9075162E-01;0; -2.8117248E-01;  3.9295312E+04;  0.0000000E+00; -3.5888711E-01;  4.0000000E+04;  0.0000000E+00;  3.9989781E+04; -2.7744117E-01;  0.0000000E+00; -3.7313085E-03;  7.3638013E+02;
  2.1401556E-01;  9.9999998E-03;  1.8000618E-01;3775; -6.7572914E-02;  0.0000000E+00; -4.3411343E-04;  9.9141132E+02;  1.0000000E-01; -7.1155513E+03;3; -4.3418217E-01;  0.0000000E+00; -3.8556889E-01;0; -2.8548381E-01;  3.9322484E+04;  0.0000000E+00; -3.6458063E-01;  4.0000000E+04;  0.0000000E+00;  3.9991656E+04; -2.8221413E-01;  0.0000000E+00; -3.2696621E-03;  6.0122394E+02;
  2.1396424E-01;  9.9999998E-03;  1.9002253E-01;3776; -6.7025989E-02;  0.0000000E+00; -5.7932583E-04;  9.9167206E+02;  1.0000000E-01; -6.8995576E+03;3; -6.9120914E-01;  0.0000000E+00; -2.8152013E-02;0; -2.9107410E-01;  3.9338176E+04;  0.0000000E+00; -5.5556897E-02;  4.0000000E+04;  0.0000000E+00;  3.9997309E+04; -2.8860852E-01;  0.0000000E+00; -2.4655822E-03;  3.7444675E+02;
  2.1392123E-01;  9.9999998E-03;  2.0006339E-01;3777; -6.6458777E-02;  0.0000000E+00; -6.9982157E-04;  9.9175952E+02;  1.0000000E-01; -6.8270654E+03;3; -1.1817561E+00;  0.0000000E+00;  8.4908038E-01;0; -2.9841518E-01;  3.9338074E+04;  0.0000000E+00;  8.3013934E-01;  4.0000000E+04;  0.0000000E+00;  4.0005410E+04; -2.9693976E-01;  0.0000000E+00; -1.4754294E-03;  1.8527275E+03;
  2.1393096E-01;  9.9999998E-03;  2.1010292E-01;3778; -6.5883666E-02;  0.0000000E+00; -7.9257897E-04;  9.9159137E+02;  1.0000000E-01; -6.9663701E+03;3; -1.8683318E+00;  0.0000000E+00;  2.5311391E+00;0; -3.0801448E-01;  3.9317652E+04;  0.0000000E+00;  2.7050846E+00;  4.0000000E+04;  0.0000000E+00;  4.0014270E+04; -3.0753362E-01;  0.0000000E+00; -4.8085267E-04;  4.7045732E+03;
  2.1399501E-01;  9.9999998E-03;  2.2013912E-01;3779; -6.5306105E-02;  0.0000000E+00; -8.7754783E-04;  9.9108203E+02;  1.0000000E-01; -7.3883833E+03;3; -2.5246928E+00;  0.0000000E+00;  5.0727606E+00;0; -3.2045260E-01;  3.9272246E+04;  0.0000000E+00;  6.1883774E+00;  4.0000000E+04;  0.0000000E+00;  4.0021043E+04; -3.2076156E-01;  0.0000000E+00;  3.0895739E-04;  9.7186562E+03;
  2.1409416E-01;  9.9999998E-03;  2.3017308E-01;3780; -6.4708173E-02;  0.0000000E+00; -1.0167400E-03;  9.9011926E+02;  1.0000000E-01; -8.1859902E+03;3; -2.6491859E+00;  0.0000000E+00;  7.7521601E+00;0; -3.3648047E-01;  3.9196270E+04;  0.0000000E+00;  1.2113193E+01;  4.0000000E+04;  0.0000000E+00;  4.0022793E+04; -3.3707017E-01;  0.0000000E+00;  5.8971316E-04;  1.8200203E+04;
  2.2502665E-01;  9.9999998E-03;  6.9973126E-02;3825; -7.6794453E-02;  0.0000000E+00;  1.9274332E-04;  9.8955164E+02;  1.0000000E-01; -8.6562480E+03;3; -3.9174107E-01;  0.0000000E+00; -3.3319911E-01;0; -2.6550585E-01;  3.9143496E+04;  0.0000000E+00;  7.7252693E-02;  4.0000000E+04;  0.0000000E+00;  4.0023949E+04; -2.7285784E-01;  0.0000000E+00;  7.3519871E-03;  3.8852673E+03;
  2.2505097E-01;  9.9999998E-03;  7.9970732E-02;3826; -7.6357499E-02;  0.0000000E+00;  3.3191097E-04;  9.8947278E+02;  1.0000000E-01; -8.7215801E+03;3; -3.9980024E-01;  0.0000000E+00; -3.9703268E-01;0; -2.6571393E-01;  3.9134980E+04;  0.0000000E+00;  1.2013679E-01;  4.0000000E+04;  0.0000000E+00;  4.0026418E+04; -2.7268025E-01;  0.0000000E+00;  6.9663222E-03;  4.1976777E+03;
  2.2504674E-01;  9.9999998E-03;  8.9963429E-02;3827; -7.5840250E-02;  0.0000000E+00;  4.7519722E-04;  9.8942151E+02;  1.0000000E-01; -8.7640967E+03;3; -4.0412000E-01;  0.0000000E+00; -4.4537488E-01;0; -2.6626316E-01;  3.9129715E+04;  0.0000000E+00;  1.7491300E-01;  4.0000000E+04;  0.0000000E+00;  4.0027719E+04; -2.7249750E-01;  0.0000000E+00;  6.2343418E-03;  4.3764404E+03;
  2.2500637E-01;  9.9999998E-03;  9.9955365E-02;3828; -7.5254753E-02;  0.0000000E+00;  5.9450354E-04;  9.8940930E+02;  1.0000000E-01; -8.7741709E+03;3; -4.0671703E-01;  0.0000000E+00; -4.9422798E-01;0; -2.6717690E-01;  3.9128965E+04;  0.0000000E+00;  2.3739481E-01;  4.0000000E+04;  0.0000000E+00;  4.0027379E+04; -2.7235186E-01;  0.0000000E+00;  5.1749679E-03;  4.3481069E+03;
  2.2492097E-01;  9.9999998E-03;  1.0995160E-01;3829; -7.4616387E-02;  0.0000000E+00;  6.6754152E-04;  9.8944043E+02;  1.0000000E-01; -8.7483936E+03;3; -4.0601543E-01;  0.0000000E+00; -5.3649932E-01;0; -2.6845661E-01;  3.9133473E+04;  0.0000000E+00;  2.9819989E-01;  4.0000000E+04;  0.0000000E+00;  4.0025059E+04; -2.7230892E-01;  0.0000000E+00;  3.8523122E-03;  4.0697168E+03;
  2.2478630E-01;  9.9999998E-03;  1.1995796E-01;3830; -7.3943846E-02;  0.0000000E+00;  6.8080967E-04;  9.8952826E+02;  1.0000000E-01; -8.6756553E+03;3; -3.9871913E-01;  0.0000000E+00; -5.6029117E-01;0; -2.7008075E-01;  3.9144480E+04;  0.0000000E+00;  3.4236842E-01;  4.0000000E+04;  0.0000000E+00;  4.0020941E+04; -2.7245569E-01;  0.0000000E+00;  2.3749387E-03;  3.5432996E+03;
  2.2460695E-01;  9.9999998E-03;  1.2997846E-01;3831; -7.3257633E-02;  0.0000000E+00;  6.3443877E-04;  9.8968121E+02;  1.0000000E-01; -8.5489424E+03;3; -3.8698906E-01;  0.0000000E+00; -5.7433784E-01;0; -2.7201769E-01;  3.9162098E+04;  0.0000000E+00;  3.5093480E-01;  4.0000000E+04;  0.0000000E+00;  4.0015324E+04; -2.7290705E-01;  0.0000000E+00;  8.8935910E-04;  2.8202695E+03;
  2.2443311E-01;  9.9999998E-03;  1.4000103E-01;3832; -7.2590046E-02;  0.0000000E+00;  5.3632230E-04;  9.8990393E+02;  1.0000000E-01; -8.3644043E+03;3; -3.7068367E-01;  0.0000000E+00; -5.8155745E-01;0; -2.7424330E-01;  3.9185949E+04;  0.0000000E+00;  3.0534458E-01;  4.0000000E+04;  0.0000000E+00;  4.0008762E+04; -2.7381456E-01;  0.0000000E+00; -4.2874372E-04;  1.9971388E+03;
  2.2430132E-01;  9.9999998E-03;  1.5000831E-01;3833; -7.1963973E-02;  0.0000000E+00;  4.0418591E-04;  9.9019196E+02;  1.0000000E-01; -8.1257944E+03;3; -3.5082909E-01;  0.0000000E+00; -5.8486098E-01;0; -2.7675688E-01;  3.9214742E+04;  0.0000000E+00;  1.9363385E-01;  4.0000000E+04;  0.0000000E+00;  4.0002648E+04; -2.7534318E-01;  0.0000000E+00; -1.4137046E-03;  1.1984059E+03;
  2.2420013E-01;  9.9999998E-03;  1.6000371E-01;3834; -7.1380652E-02;  0.0000000E+00;  2.5419242E-04;  9.9053149E+02;  1.0000000E-01; -7.8444688E+03;3; -3.3075330E-01;  0.0000000E+00; -5.7789522E-01;0; -2.7962282E-01;  3.9246023E+04;  0.0000000E+00;  2.8183019E-02;  4.0000000E+04;  0.0000000E+00;  3.9998160E+04; -2.7767074E-01;  0.0000000E+00; -1.9520704E-03;  5.6491589E+02;
  2.2411770E-01;  9.9999998E-03;  1.6999507E-01;3835; -7.0833325E-02;  0.0000000E+00;  9.7957549E-05;  9.9088989E+02;  1.0000000E-01; -7.5475391E+03;3; -3.3227983E-01;  0.0000000E+00; -5.3250194E-01;0; -2.8301948E-01;  3.9276766E+04;  0.0000000E+00; -1.2999430E-01;  4.0000000E+04;  0.0000000E+00;  3.9995840E+04; -2.8101820E-01;  0.0000000E+00; -2.0012876E-03;  3.1591000E+02;
  2.2404644E-01;  9.9999998E-03;  1.7998958E-01;3836; -7.0308916E-02;  0.0000000E+00; -5.5713481E-05;  9.9123352E+02;  1.0000000E-01; -7.2628560E+03;3; -4.1374213E-01;  0.0000000E+00; -3.6395371E-01;0; -2.8724277E-01;  3.9303426E+04;  0.0000000E+00; -1.6601786E-01;  4.0000000E+04;  0.0000000E+00;  3.9996711E+04; -2.8564885E-01;  0.0000000E+00; -1.5939049E-03;  4.0058325E+02;
  2.2398597E-01;  9.9999998E-03;  1.8999383E-01;3837; -6.9793940E-02;  0.0000000E+00; -2.0176430E-04;  9.9150879E+02;  1.0000000E-01; -7.0348130E+03;3; -6.7431784E-01;  0.0000000E+00;  1.0192642E-01;0; -2.9269519E-01;  3.9321969E+04;  0.0000000E+00;  8.6767778E-02;  4.0000000E+04;  0.0000000E+00;  4.0000652E+04; -2.9186663E-01;  0.0000000E+00; -8.2856521E-04;  8.1052527E+02;
  2.2394042E-01;  9.9999998E-03;  2.0001553E-01;3838; -6.9278441E-02;  0.0000000E+00; -3.3665824E-04;  9.9165796E+02;  1.0000000E-01; -6.9112114E+03;3; -1.2248892E+00;  0.0000000E+00;  1.1341203E+00;0; -2.9986638E-01;  3.9328352E+04;  0.0000000E+00;  8.6345696E-01;  4.0000000E+04;  0.0000000E+00;  4.0006898E+04; -3.0000952E-01;  0.0000000E+00;  1.4315316E-04;  2.0316376E+03;
  2.2392882E-01;  9.9999998E-03;  2.1004736E-01;3839; -6.8762183E-02;  0.0000000E+00; -4.6052597E-04;  9.9159534E+02;  1.0000000E-01; -6.9631113E+03;3; -2.1272771E+00;  0.0000000E+00;  3.0163345E+00;0; -3.0931476E-01;  3.9318074E+04;  0.0000000E+00;  2.5168395E+00;  4.0000000E+04;  0.0000000E+00;  4.0013707E+04; -3.1044254E-01;  0.0000000E+00;  1.1277910E-03;  4.4420889E+03;
  2.2397481E-01;  9.9999998E-03;  2.2007442E-01;3840; -6.8249524E-02;  0.0000000E+00; -5.8765715E-04;  9.9124261E+02;  1.0000000E-01; -7.2553496E+03;3; -3.3259485E+00;  0.0000000E+00;  5.8449817E+00;0; -3.2167891E-01;  3.9286504E+04;  0.0000000E+00;  5.5636606E+00;  4.0000000E+04;  0.0000000E+00;  4.0019223E+04; -3.2356012E-01;  0.0000000E+00;  1.8812214E-03;  8.7796055E+03;
  2.2406685E-01;  9.9999998E-03;  2.3010105E-01;3841; -6.7716092E-02;  0.0000000E+00; -7.7171985E-04;  9.9048541E+02;  1.0000000E-01; -7.8826406E+03;3; -4.5895901E+00;  0.0000000E+00;  9.0698462E+00;0; -3.3781156E-01;  3.9227438E+04;  0.0000000E+00;  1.0675614E+01;  4.0000000E+04;  0.0000000E+00;  4.0020230E+04; -3.3983251E-01;  0.0000000E+00;  2.0209556E-03;  1.6070082E+04;
  2.3506251E-01;  9.9999998E-03;  6.9964729E-02;3886; -7.9703040E-02;  0.0000000E+00;  2.9138452E-04;  9.9072003E+02;  1.0000000E-01; -7.6882759E+03;3; -3.6075059E-01;  0.0000000E+00; -3.7296540E-01;0; -2.6462787E-01;  3.9231422E+04;  0.0000000E+00;  8.9124717E-02;  4.0000000E+04;  0.0000000E+00;  4.0028418E+04; -2.7342373E-01;  0.0000000E+00;  8.7958500E-03;  4.3472573E+03;
  2.3511301E-01;  9.9999998E-03;  7.9959325E-02;3887; -7.9280272E-02;  0.0000000E+00;  4.4464562E-04;  9.9057471E+02;  1.0000000E-01; -7.8086675E+03;3; -3.6806703E-01;  0.0000000E+00; -4.3249083E-01;0; -2.6505440E-01;  3.9217828E+04;  0.0000000E+00;  1.3090508E-01;  4.0000000E+04;  0.0000000E+00;  4.0030727E+04; -2.7362460E-01;  0.0000000E+00;  8.5701998E-03;  4.6480962E+03;
  2.3514219E-01;  9.9999998E-03;  8.9946739E-02;3888; -7.8773506E-02;  0.0000000E+00;  6.0702732E-04;  9.9044159E+02;  1.0000000E-01; -7.9189854E+03;3; -3.7476531E-01;  0.0000000E+00; -4.8868024E-01;0; -2.6583230E-01;  3.9205691E+04;  0.0000000E+00;  1.8822245E-01;  4.0000000E+04;  0.0000000E+00;  4.0032312E+04; -2.7384189E-01;  0.0000000E+00;  8.0095958E-03;  4.8527422E+03;
  2.3514615E-01;  9.9999998E-03;  9.9930093E-02;3889; -7.8193821E-02;  0.0000000E+00;  7.5752364E-04;  9.9032452E+02;  1.0000000E-01; -8.0159702E+03;3; -3.8050988E-01;  0.0000000E+00; -5.5011910E-01;0; -2.6698345E-01;  3.9196375E+04;  0.0000000E+00;  2.6099998E-01;  4.0000000E+04;  0.0000000E+00;  4.0032262E+04; -2.7410480E-01;  0.0000000E+00;  7.1213446E-03;  4.8878516E+03;
  2.3511523E-01;  9.9999998E-03;  1.0991435E-01;3890; -7.7556215E-02;  0.0000000E+00;  8.7362819E-04;  9.9023230E+02;  1.0000000E-01; -8.0923633E+03;3; -3.8110471E-01;  0.0000000E+00; -5.9486932E-01;0; -2.6850331E-01;  3.9190711E+04;  0.0000000E+00;  3.4390640E-01;  4.0000000E+04;  0.0000000E+00;  4.0030742E+04; -2.7445987E-01;  0.0000000E+00;  5.9565478E-03;  4.7056689E+03;
  2.3503834E-01;  9.9999998E-03;  1.1990495E-01;3891; -7.6879688E-02;  0.0000000E+00;  9.3356863E-04;  9.9017609E+02;  1.0000000E-01; -8.1389297E+03;3; -3.7888244E-01;  0.0000000E+00; -6.3293344E-01;0; -2.7036154E-01;  3.9189660E+04;  0.0000000E+00;  4.2464685E-01;  4.0000000E+04;  0.0000000E+00;  4.0027223E+04; -2.7497274E-01;  0.0000000E+00;  4.6111816E-03;  4.2986416E+03;
  2.3490655E-01;  9.9999998E-03;  1.2990674E-01;3892; -7.6183848E-02;  0.0000000E+00;  9.2953473E-04;  9.9017346E+02;  1.0000000E-01; -8.1411025E+03;3; -3.6988190E-01;  0.0000000E+00; -6.5568566E-01;0; -2.7251267E-01;  3.9194188E+04;  0.0000000E+00;  4.8384446E-01;  4.0000000E+04;  0.0000000E+00;  4.0022188E+04; -2.7573341E-01;  0.0000000E+00;  3.2207286E-03;  3.7042600E+03;
  2.3471846E-01;  9.9999998E-03;  1.3992794E-01;3893; -7.5486965E-02;  0.0000000E+00;  8.7101263E-04;  9.9023737E+02;  1.0000000E-01; -8.0881655E+03;3; -3.5481000E-01;  0.0000000E+00; -6.6523278E-01;0; -2.7491361E-01;  3.9204715E+04;  0.0000000E+00;  4.9745962E-01;  4.0000000E+04;  0.0000000E+00;  4.0016570E+04; -2.7685788E-01;  0.0000000E+00;  1.9442758E-03;  2.9985808E+03;
  2.3451044E-01;  9.9999998E-03;  1.4996000E-01;3894; -7.4815467E-02;  0.0000000E+00;  7.7446242E-04;  9.9037671E+02;  1.0000000E-01; -7.9727124E+03;3; -3.3617824E-01;  0.0000000E+00; -6.7056680E-01;0; -2.7754858E-01;  3.9221211E+04;  0.0000000E+00;  4.4329706E-01;  4.0000000E+04;  0.0000000E+00;  4.0010969E+04; -2.7850056E-01;  0.0000000E+00;  9.5197675E-04;  2.2830378E+03;
  2.3434006E-01;  9.9999998E-03;  1.5997638E-01;3895; -7.4196160E-02;  0.0000000E+00;  6.5510033E-04;  9.9058704E+02;  1.0000000E-01; -7.7984453E+03;3; -3.1557181E-01;  0.0000000E+00; -6.6423988E-01;0; -2.8046444E-01;  3.9242527E+04;  0.0000000E+00;  3.2105508E-01;  4.0000000E+04;  0.0000000E+00;  4.0006500E+04; -2.8085178E-01;  0.0000000E+00;  3.8734125E-04;  1.6698728E+03;
  2.3420961E-01;  9.9999998E-03;  1.6997589E-01;3896; -7.3630236E-02;  0.0000000E+00;  5.2314304E-04;  9.9085333E+02;  1.0000000E-01; -7.5778594E+03;3; -3.1247631E-01;  0.0000000E+00; -6.1124545E-01;0; -2.8382605E-01;  3.9266109E+04;  0.0000000E+00;  1.7918862E-01;  4.0000000E+04;  0.0000000E+00;  4.0003773E+04; -2.8413361E-01;  0.0000000E+00;  3.0755257E-04;  1.2771094E+03;
  2.3411031E-01;  9.9999998E-03;  1.7996894E-01;3897; -7.3107667E-02;  0.0000000E+00;  3.8470232E-04;  9.9113629E+02;  1.0000000E-01; -7.3433965E+03;3; -3.8259241E-01;  0.0000000E+00; -4.2186072E-01;0; -2.8791988E-01;  3.9288930E+04;  0.0000000E+00;  1.2223125E-01;  4.0000000E+04;  0.0000000E+00;  4.0003559E+04; -2.8861076E-01;  0.0000000E+00;  6.9086318E-04;  1.2154915E+03;
  2.3403317E-01;  9.9999998E-03;  1.8996504E-01;3898; -7.2613373E-02;  0.0000000E+00;  2.4328205E-04;  9.9139618E+02;  1.0000000E-01; -7.1280942E+03;3; -6.3349605E-01;  0.0000000E+00;  7.2941072E-02;0; -2.9314134E-01;  3.9307555E+04;  0.0000000E+00;  3.0343026E-01;  4.0000000E+04;  0.0000000E+00;  4.0006051E+04; -2.9458889E-01;  0.0000000E+00;  1.4475491E-03;  1.5582739E+03;
  2.3397897E-01;  9.9999998E-03;  1.9997106E-01;3899; -7.2135471E-02;  0.0000000E+00;  9.9834033E-05;  9.9157635E+02;  1.0000000E-01; -6.9788145E+03;3; -1.2095715E+00;  0.0000000E+00;  1.1322516E+00;0; -2.9998001E-01;  3.9317859E+04;  0.0000000E+00;  9.2880613E-01;  4.0000000E+04;  0.0000000E+00;  4.0010809E+04; -3.0240971E-01;  0.0000000E+00;  2.4297065E-03;  2.4883958E+03;
  2.3395513E-01;  9.9999998E-03;  2.0998879E-01;3900; -7.1662851E-02;  0.0000000E+00; -4.1420724E-05;  9.9160687E+02;  1.0000000E-01; -6.9535312E+03;3; -2.2595565E+00;  0.0000000E+00;  3.0381906E+00;0; -3.0901030E-01;  3.9315867E+04;  0.0000000E+00;  2.2903888E+00;  4.0000000E+04;  0.0000000E+00;  4.0016531E+04; -3.1244510E-01;  0.0000000E+00;  3.4348203E-03;  4.3760723E+03;
  2.3398186E-01;  9.9999998E-03;  2.2000609E-01;3901; -7.1192294E-02;  0.0000000E+00; -1.9142222E-04;  9.9140613E+02;  1.0000000E-01; -7.1198477E+03;3; -3.8781204E+00;  0.0000000E+00;  5.9367509E+00;0; -3.2090575E-01;  3.9296820E+04;  0.0000000E+00;  4.8038435E+00;  4.0000000E+04;  0.0000000E+00;  4.0021410E+04; -3.2509315E-01;  0.0000000E+00;  4.1874037E-03;  7.8617119E+03;
  2.3405716E-01;  9.9999998E-03;  2.3002218E-01;3902; -7.0695192E-02;  0.0000000E+00; -3.8573964E-04;  9.9087555E+02;  1.0000000E-01; -7.5594399E+03;3; -6.0670543E+00;  0.0000000E+00;  9.4929819E+00;0; -3.3654237E-01;  3.9254777E+04;  0.0000000E+00;  8.9941502E+00;  4.0000000E+04;  0.0000000E+00;  4.0023410E+04; -3.4080192E-01;  0.0000000E+00;  4.2595705E-03;  1.3763135E+04;
  2.4505936E-01;  9.9999998E-03;  6.9963582E-02;3947; -8.2552657E-02;  0.0000000E+00;  4.0907101E-04;  9.9195612E+02;  1.0000000E-01; -6.6642061E+03;3; -3.1985724E-01;  0.0000000E+00; -4.1235381E-01;0; -2.6282799E-01;  3.9324840E+04;  0.0000000E+00;  9.1415375E-02;  4.0000000E+04;  0.0000000E+00;  4.0033375E+04; -2.7327794E-01;  0.0000000E+00;  1.0449940E-02;  4.8531841E+03;
  2.4512301E-01;  9.9999998E-03;  7.9958588E-02;3948; -8.2152180E-02;  0.0000000E+00;  5.7463709E-04;  9.9177533E+02;  1.0000000E-01; -6.8139795E+03;3; -3.2780027E-01;  0.0000000E+00; -4.7550187E-01;0; -2.6344633E-01;  3.9308395E+04;  0.0000000E+00;  1.2551183E-01;  4.0000000E+04;  0.0000000E+00;  4.0035484E+04; -2.7382886E-01;  0.0000000E+00;  1.0382520E-02;  5.1432925E+03;
  2.4517067E-01;  9.9999998E-03;  8.9945890E-02;3949; -8.1664607E-02;  0.0000000E+00;  7.5514481E-04;  9.9158716E+02;  1.0000000E-01; -6.9698765E+03;3; -3.3695698E-01;  0.0000000E+00; -5.4063970E-01;0; -2.6442468E-01;  3.9291762E+04;  0.0000000E+00;  1.7607522E-01;  4.0000000E+04;  0.0000000E+00;  4.0037102E+04; -2.7442190E-01;  0.0000000E+00;  9.9972133E-03;  5.3757935E+03;
  2.4519894E-01;  9.9999998E-03;  9.9927671E-02;3950; -8.1098989E-02;  0.0000000E+00;  9.3523302E-04;  9.9139478E+02;  1.0000000E-01; -7.1292793E+03;3; -3.4415346E-01;  0.0000000E+00; -6.0321558E-01;0; -2.6578236E-01;  3.9275863E+04;  0.0000000E+00;  2.4738139E-01;  4.0000000E+04;  0.0000000E+00;  4.0037785E+04; -2.7507302E-01;  0.0000000E+00;  9.2906523E-03;  5.4785459E+03;
  2.4520355E-01;  9.9999998E-03;  1.0990664E-01;3951; -8.0471694E-02;  0.0000000E+00;  1.0906445E-03;  9.9120392E+02;  1.0000000E-01; -7.2873984E+03;3; -3.4811983E-01;  0.0000000E+00; -6.5738243E-01;0; -2.6750982E-01;  3.9261762E+04;  0.0000000E+00;  3.3942384E-01;  4.0000000E+04;  0.0000000E+00;  4.0037039E+04; -2.7581343E-01;  0.0000000E+00;  8.3036255E-03;  5.3987939E+03;
  2.4517603E-01;  9.9999998E-03;  1.1988629E-01;3952; -7.9802759E-02;  0.0000000E+00;  1.1980494E-03;  9.9102765E+02;  1.0000000E-01; -7.4334189E+03;3; -3.4710988E-01;  0.0000000E+00; -7.0081288E-01;0; -2.6956943E-01;  3.9250332E+04;  0.0000000E+00;  4.4522792E-01;  4.0000000E+04;  0.0000000E+00;  4.0034324E+04; -2.7669147E-01;  0.0000000E+00;  7.1220510E-03;  5.1185728E+03;
  2.4510168E-01;  9.9999998E-03;  1.2987341E-01;3953; -7.9110824E-02;  0.0000000E+00;  1.2466982E-03;  9.9088489E+02;  1.0000000E-01; -7.5516870E+03;3; -3.4166855E-01;  0.0000000E+00; -7.3406619E-01;0; -2.7190712E-01;  3.9242738E+04;  0.0000000E+00;  5.4919124E-01;  4.0000000E+04;  0.0000000E+00;  4.0030395E+04; -2.7777740E-01;  0.0000000E+00;  5.8702910E-03;  4.6612930E+03;
  2.4497196E-01;  9.9999998E-03;  1.3987339E-01;3954; -7.8415692E-02;  0.0000000E+00;  1.2374616E-03;  9.9079199E+02;  1.0000000E-01; -7.6286724E+03;3; -3.3078238E-01;  0.0000000E+00; -7.5806922E-01;0; -2.7446702E-01;  3.9240125E+04;  0.0000000E+00;  6.2740922E-01;  4.0000000E+04;  0.0000000E+00;  4.0025676E+04; -2.7916688E-01;  0.0000000E+00;  4.6998691E-03;  4.0873181E+03;
  2.4478452E-01;  9.9999998E-03;  1.4989218E-01;3955; -7.7735081E-02;  0.0000000E+00;  1.1825020E-03;  9.9076917E+02;  1.0000000E-01; -7.6475854E+03;3; -3.1362370E-01;  0.0000000E+00; -7.6880282E-01;0; -2.7722263E-01;  3.9243066E+04;  0.0000000E+00;  6.5146649E-01;  4.0000000E+04;  0.0000000E+00;  4.0020516E+04; -2.8099015E-01;  0.0000000E+00;  3.7675321E-03;  3.4792847E+03;
  2.4457189E-01;  9.9999998E-03;  1.5991983E-01;3956; -7.7091083E-02;  0.0000000E+00;  1.0985209E-03;  9.9082306E+02;  1.0000000E-01; -7.6029448E+03;3; -2.9267406E-01;  0.0000000E+00; -7.6492947E-01;0; -2.8020334E-01;  3.9251746E+04;  0.0000000E+00;  6.0354334E-01;  4.0000000E+04;  0.0000000E+00;  4.0016094E+04; -2.8341806E-01;  0.0000000E+00;  3.2147027E-03;  2.9266377E+03;
  2.4438162E-01;  9.9999998E-03;  1.6993603E-01;3957; -7.6503582E-02;  0.0000000E+00;  9.9496439E-04;  9.9095728E+02;  1.0000000E-01; -7.4917383E+03;3; -2.8474033E-01;  0.0000000E+00; -7.2134835E-01;0; -2.8354055E-01;  3.9265328E+04;  0.0000000E+00;  5.0891727E-01;  4.0000000E+04;  0.0000000E+00;  4.0013039E+04; -2.8666681E-01;  0.0000000E+00;  3.1262778E-03;  2.5216948E+03;
  2.4423149E-01;  9.9999998E-03;  1.7993754E-01;3958; -7.5973742E-02;  0.0000000E+00;  8.7767746E-04;  9.9114465E+02;  1.0000000E-01; -7.3364834E+03;3; -3.3818653E-01;  0.0000000E+00; -5.4806560E-01;0; -2.8748995E-01;  3.9281348E+04;  0.0000000E+00;  4.5027798E-01;  4.0000000E+04;  0.0000000E+00;  4.0012098E+04; -2.9099262E-01;  0.0000000E+00;  3.5026637E-03;  2.3626018E+03;
  2.4412116E-01;  9.9999998E-03;  1.8993218E-01;3959; -7.5490296E-02;  0.0000000E+00;  7.4977335E-04;  9.9135138E+02;  1.0000000E-01; -7.1652290E+03;3; -5.5827355E-01;  0.0000000E+00; -9.2250079E-02;0; -2.9242140E-01;  3.9296855E+04;  0.0000000E+00;  5.5883294E-01;  4.0000000E+04;  0.0000000E+00;  4.0013371E+04; -2.9669082E-01;  0.0000000E+00;  4.2694192E-03;  2.5465557E+03;
  2.4404442E-01;  9.9999998E-03;  1.9992949E-01;3960; -7.5038381E-02;  0.0000000E+00;  6.1178778E-04;  9.9153247E+02;  1.0000000E-01; -7.0152085E+03;3; -1.1090688E+00;  0.0000000E+00;  8.8046861E-01;0; -2.9880422E-01;  3.9308336E+04;  0.0000000E+00;  1.0091038E+00;  4.0000000E+04;  0.0000000E+00;  4.0016855E+04; -3.0408940E-01;  0.0000000E+00;  5.2851592E-03;  3.1958101E+03;
  2.4400844E-01;  9.9999998E-03;  2.0993285E-01;3961; -7.4601702E-02;  0.0000000E+00;  4.7289816E-04;  9.9162506E+02;  1.0000000E-01; -6.9384697E+03;3; -2.1908970E+00;  0.0000000E+00;  2.6424341E+00;0; -3.0719861E-01;  3.9311965E+04;  0.0000000E+00;  2.0352912E+00;  4.0000000E+04;  0.0000000E+00;  4.0021844E+04; -3.1354657E-01;  0.0000000E+00;  6.3479398E-03;  4.5647324E+03;
  2.4402034E-01;  9.9999998E-03;  2.1994029E-01;3962; -7.4169174E-02;  0.0000000E+00;  3.2536010E-04;  9.9155731E+02;  1.0000000E-01; -6.9946167E+03;3; -4.0107937E+00;  0.0000000E+00;  5.3741012E+00;0; -3.1827986E-01;  3.9303160E+04;  0.0000000E+00;  3.9562678E+00;  4.0000000E+04;  0.0000000E+00;  4.0026695E+04; -3.2544342E-01;  0.0000000E+00;  7.1635596E-03;  7.1191304E+03;
  2.4408264E-01;  9.9999998E-03;  2.2994629E-01;3963; -7.3710144E-02;  0.0000000E+00;  1.6255793E-04;  9.9124310E+02;  1.0000000E-01; -7.2549053E+03;3; -6.7347350E+00;  0.0000000E+00;  8.9495039E+00;0; -3.3287355E-01;  3.9276316E+04;  0.0000000E+00;  7.1526017E+00;  4.0000000E+04;  0.0000000E+00;  4.0030551E+04; -3.4018627E-01;  0.0000000E+00;  7.3127137E-03;  1.1508303E+04;
  2.5504977E-01;  9.9999998E-03;  6.9962919E-02;4008; -8.5338473E-02;  0.0000000E+00;  5.3803826E-04;  9.9315796E+02;  1.0000000E-01; -5.6684814E+03;3; -2.6959509E-01;  0.0000000E+00; -4.5624483E-01;0; -2.6030093E-01;  3.9415516E+04;  0.0000000E+00;  8.4644496E-02;  4.0000000E+04;  0.0000000E+00;  4.0038133E+04; -2.7256352E-01;  0.0000000E+00;  1.2262593E-02;  5.3561191E+03;
  2.5511628E-01;  9.9999998E-03;  7.9959624E-02;4009; -8.4966980E-02;  0.0000000E+00;  7.1558333E-04;  9.9297015E+02;  1.0000000E-01; -5.8240815E+03;3; -2.7857986E-01;  0.0000000E+00; -5.2601653E-01;0; -2.6107055E-01;  3.9398688E+04;  0.0000000E+00;  1.0679140E-01;  4.0000000E+04;  0.0000000E+00;  4.0040062E+04; -2.7341932E-01;  0.0000000E+00;  1.2348776E-02;  5.6338462E+03;
  2.5517204E-01;  9.9999998E-03;  8.9949042E-02;4010; -8.4507152E-02;  0.0000000E+00;  9.1380818E-04;  9.9275836E+02;  1.0000000E-01; -5.9995830E+03;3; -2.8943455E-01;  0.0000000E+00; -5.9829509E-01;0; -2.6220560E-01;  3.9379953E+04;  0.0000000E+00;  1.4358887E-01;  4.0000000E+04;  0.0000000E+00;  4.0042074E+04; -2.7434561E-01;  0.0000000E+00;  1.2140018E-02;  5.8926064E+03;
  2.5521436E-01;  9.9999998E-03;  9.9932380E-02;4011; -8.3966397E-02;  0.0000000E+00;  1.1195320E-03;  9.9252295E+02;  1.0000000E-01; -6.1945898E+03;3; -2.9793465E-01;  0.0000000E+00; -6.6308922E-01;0; -2.6372328E-01;  3.9360156E+04;  0.0000000E+00;  2.0289677E-01;  4.0000000E+04;  0.0000000E+00;  4.0043363E+04; -2.7534723E-01;  0.0000000E+00;  1.1623941E-02;  6.0632310E+03;
  2.5523978E-01;  9.9999998E-03;  1.0991123E-01;4012; -8.3359845E-02;  0.0000000E+00;  1.3109794E-03;  9.9226550E+02;  1.0000000E-01; -6.4078677E+03;3; -3.0422246E-01;  0.0000000E+00; -7.2408420E-01;0; -2.6561105E-01;  3.9339852E+04;  0.0000000E+00;  2.8995201E-01;  4.0000000E+04;  0.0000000E+00;  4.0043340E+04; -2.7644172E-01;  0.0000000E+00;  1.0830678E-02;  6.0886724E+03;
  2.5524256E-01;  9.9999998E-03;  1.1988739E-01;4013; -8.2707420E-02;  0.0000000E+00;  1.4657152E-03;  9.9200177E+02;  1.0000000E-01; -6.6263799E+03;3; -3.0613735E-01;  0.0000000E+00; -7.7723372E-01;0; -2.6782638E-01;  3.9320461E+04;  0.0000000E+00;  4.0412652E-01;  4.0000000E+04;  0.0000000E+00;  4.0041828E+04; -2.7766174E-01;  0.0000000E+00;  9.8353680E-03;  5.9397642E+03;
  2.5521249E-01;  9.9999998E-03;  1.2986511E-01;4014; -8.2029976E-02;  0.0000000E+00;  1.5678785E-03;  9.9174536E+02;  1.0000000E-01; -6.8388184E+03;3; -3.0512151E-01;  0.0000000E+00; -8.2366353E-01;0; -2.7030638E-01;  3.9302836E+04;  0.0000000E+00;  5.3615290E-01;  4.0000000E+04;  0.0000000E+00;  4.0039020E+04; -2.7905920E-01;  0.0000000E+00;  8.7528126E-03;  5.6245020E+03;
  2.5513610E-01;  9.9999998E-03;  1.3985130E-01;4015; -8.1347212E-02;  0.0000000E+00;  1.6124777E-03;  9.9151544E+02;  1.0000000E-01; -7.0292822E+03;3; -2.9495281E-01;  0.0000000E+00; -8.5077858E-01;0; -2.7298963E-01;  3.9288395E+04;  0.0000000E+00;  6.6666609E-01;  4.0000000E+04;  0.0000000E+00;  4.0035047E+04; -2.8071412E-01;  0.0000000E+00;  7.7244947E-03;  5.1869595E+03;
  2.5500497E-01;  9.9999998E-03;  1.4985092E-01;4016; -8.0677055E-02;  0.0000000E+00;  1.6091400E-03;  9.9133948E+02;  1.0000000E-01; -7.1750557E+03;3; -2.8084642E-01;  0.0000000E+00; -8.7198389E-01;0; -2.7583829E-01;  3.9278559E+04;  0.0000000E+00;  7.6737297E-01;  4.0000000E+04;  0.0000000E+00;  4.0030543E+04; -2.8273860E-01;  0.0000000E+00;  6.9003217E-03;  4.6957808E+03;
  2.5482255E-01;  9.9999998E-03;  1.5986472E-01;4017; -8.0036744E-02;  0.0000000E+00;  1.5689476E-03;  9.9123492E+02;  1.0000000E-01; -7.2617202E+03;3; -2.6094171E-01;  0.0000000E+00; -8.7767923E-01;0; -2.7886933E-01;  3.9274301E+04;  0.0000000E+00;  8.0896413E-01;  4.0000000E+04;  0.0000000E+00;  4.0026527E+04; -2.8528020E-01;  0.0000000E+00;  6.4108567E-03;  4.2264868E+03;
  2.5461718E-01;  9.9999998E-03;  1.6988228E-01;4018; -7.9443485E-02;  0.0000000E+00;  1.5024621E-03;  9.9121899E+02;  1.0000000E-01; -7.2749048E+03;3; -2.4774517E-01;  0.0000000E+00; -8.5292995E-01;0; -2.8218162E-01;  3.9276031E+04;  0.0000000E+00;  7.8838009E-01;  4.0000000E+04;  0.0000000E+00;  4.0023402E+04; -2.8852716E-01;  0.0000000E+00;  6.3455338E-03;  3.8511372E+03;
  2.5442630E-01;  9.9999998E-03;  1.7989187E-01;4019; -7.8909375E-02;  0.0000000E+00;  1.4143228E-03;  9.9128064E+02;  1.0000000E-01; -7.2238447E+03;3; -2.7957499E-01;  0.0000000E+00; -7.2038651E-01;0; -2.8598499E-01;  3.9282633E+04;  0.0000000E+00;  7.5479317E-01;  4.0000000E+04;  0.0000000E+00;  4.0021871E+04; -2.9271379E-01;  0.0000000E+00;  6.7287902E-03;  3.6453694E+03;
  2.5427034E-01;  9.9999998E-03;  1.8989189E-01;4020; -7.8430772E-02;  0.0000000E+00;  1.3104581E-03;  9.9140070E+02;  1.0000000E-01; -7.1243413E+03;3; -4.5208171E-01;  0.0000000E+00; -3.5368225E-01;0; -2.9060090E-01;  3.9292137E+04;  0.0000000E+00;  8.0755705E-01;  4.0000000E+04;  0.0000000E+00;  4.0022184E+04; -2.9811126E-01;  0.0000000E+00;  7.5103673E-03;  3.6962974E+03;
  2.5415766E-01;  9.9999998E-03;  1.9988729E-01;4021; -7.7998720E-02;  0.0000000E+00;  1.1888416E-03;  9.9154358E+02;  1.0000000E-01; -7.0059741E+03;3; -9.2426348E-01;  0.0000000E+00;  4.5122880E-01;0; -2.9645789E-01;  3.9301832E+04;  0.0000000E+00;  1.0858048E+00;  4.0000000E+04;  0.0000000E+00;  4.0024418E+04; -3.0502361E-01;  0.0000000E+00;  8.5657388E-03;  4.1071445E+03;
  2.5409105E-01;  9.9999998E-03;  2.0988396E-01;4022; -7.7593431E-02;  0.0000000E+00;  1.0639767E-03;  9.9166241E+02;  1.0000000E-01; -6.9075078E+03;3; -1.9188038E+00;  0.0000000E+00;  1.9363176E+00;0; -3.0408061E-01;  3.9308066E+04;  0.0000000E+00;  1.7733884E+00;  4.0000000E+04;  0.0000000E+00;  4.0028633E+04; -3.1377921E-01;  0.0000000E+00;  9.6985959E-03;  5.0299438E+03;
  2.5408581E-01;  9.9999998E-03;  2.1988130E-01;4023; -7.7199839E-02;  0.0000000E+00;  9.4655319E-04;  9.9169824E+02;  1.0000000E-01; -6.8778296E+03;3; -3.6962080E+00;  0.0000000E+00;  4.3049908E+00;0; -3.1408966E-01;  3.9306668E+04;  0.0000000E+00;  3.1029902E+00;  4.0000000E+04;  0.0000000E+00;  4.0034035E+04; -3.2472315E-01;  0.0000000E+00;  1.0633488E-02;  6.7703203E+03;
  2.5413451E-01;  9.9999998E-03;  2.2987908E-01;4024; -7.6791070E-02;  0.0000000E+00;  8.4873004E-04;  9.9157153E+02;  1.0000000E-01; -6.9828145E+03;3; -6.5142140E+00;  0.0000000E+00;  7.5745821E+00;0; -3.2721782E-01;  3.9292629E+04;  0.0000000E+00;  5.3339396E+00;  4.0000000E+04;  0.0000000E+00;  4.0040031E+04; -3.3821660E-01;  0.0000000E+00;  1.0998799E-02;  9.7543740E+03;
  2.6504412E-01;  9.9999998E-03;  6.9961369E-02;4069; -8.8058688E-02;  0.0000000E+00;  6.7272398E-04;  9.9423615E+02;  1.0000000E-01; -4.7752227E+03;3; -2.1008408E-01;  0.0000000E+00; -5.0161117E-01;0; -2.5728220E-01;  3.9496938E+04;  0.0000000E+00;  6.9558620E-02;  4.0000000E+04;  0.0000000E+00;  4.0042477E+04; -2.7146146E-01;  0.0000000E+00;  1.4179272E-02;  5.8177090E+03;
  2.6510835E-01;  9.9999998E-03;  7.9959944E-02;4070; -8.7721467E-02;  0.0000000E+00;  8.6267013E-04;  9.9406909E+02;  1.0000000E-01; -4.9136387E+03;3; -2.2046071E-01;  0.0000000E+00; -5.8251178E-01;0; -2.5815043E-01;  3.9481875E+04;  0.0000000E+00;  7.8404739E-02;  4.0000000E+04;  0.0000000E+00;  4.0044562E+04; -2.7256128E-01;  0.0000000E+00;  1.4410865E-02;  6.0782661E+03;
  2.6516551E-01;  9.9999998E-03;  8.9952424E-02;4071; -8.7296426E-02;  0.0000000E+00;  1.0773414E-03;  9.9386469E+02;  1.0000000E-01; -5.0830161E+03;3; -2.3247062E-01;  0.0000000E+00; -6.6207922E-01;0; -2.5938457E-01;  3.9463523E+04;  0.0000000E+00;  9.8162510E-02;  4.0000000E+04;  0.0000000E+00;  4.0046762E+04; -2.7376044E-01;  0.0000000E+00;  1.4375858E-02;  6.3568179E+03;
  2.6521423E-01;  9.9999998E-03;  9.9938989E-02;4072; -8.6789705E-02;  0.0000000E+00;  1.3049445E-03;  9.9361548E+02;  1.0000000E-01; -5.2894302E+03;3; -2.4292254E-01;  0.0000000E+00; -7.3734391E-01;0; -2.6100141E-01;  3.9442449E+04;  0.0000000E+00;  1.3882053E-01;  4.0000000E+04;  0.0000000E+00;  4.0048285E+04; -2.7505556E-01;  0.0000000E+00;  1.4054143E-02;  6.5892563E+03;
  2.6525205E-01;  9.9999998E-03;  1.0991982E-01;4073; -8.6214550E-02;  0.0000000E+00;  1.5281140E-03;  9.9333057E+02;  1.0000000E-01; -5.5255225E+03;3; -2.5081593E-01;  0.0000000E+00; -8.0023509E-01;0; -2.6298797E-01;  3.9418949E+04;  0.0000000E+00;  2.0960665E-01;  4.0000000E+04;  0.0000000E+00;  4.0049176E+04; -2.7645367E-01;  0.0000000E+00;  1.3465688E-02;  6.7158730E+03;
  2.6527369E-01;  9.9999998E-03;  1.1989624E-01;4074; -8.5589163E-02;  0.0000000E+00;  1.7282943E-03;  9.9301245E+02;  1.0000000E-01; -5.7890703E+03;3; -2.5657848E-01;  0.0000000E+00; -8.6136305E-01;0; -2.6529920E-01;  3.9394188E+04;  0.0000000E+00;  3.1575865E-01;  4.0000000E+04;  0.0000000E+00;  4.0048695E+04; -2.7797270E-01;  0.0000000E+00;  1.2673509E-02;  6.6969883E+03;
  2.6527169E-01;  9.9999998E-03;  1.2987100E-01;4075; -8.4935218E-02;  0.0000000E+00;  1.8859779E-03;  9.9267694E+02;  1.0000000E-01; -6.0670376E+03;3; -2.5678837E-01;  0.0000000E+00; -9.1433668E-01;0; -2.6786864E-01;  3.9369141E+04;  0.0000000E+00;  4.5507777E-01;  4.0000000E+04;  0.0000000E+00;  4.0046910E+04; -2.7964887E-01;  0.0000000E+00;  1.1780245E-02;  6.5244204E+03;
  2.6523533E-01;  9.9999998E-03;  1.3984886E-01;4076; -8.4273964E-02;  0.0000000E+00;  1.9893243E-03;  9.9234357E+02;  1.0000000E-01; -6.3432275E+03;3; -2.5125995E-01;  0.0000000E+00; -9.5435071E-01;0; -2.7062672E-01;  3.9345449E+04;  0.0000000E+00;  6.1516953E-01;  4.0000000E+04;  0.0000000E+00;  4.0043965E+04; -2.8154382E-01;  0.0000000E+00;  1.0917101E-02;  6.2242778E+03;
  2.6515386E-01;  9.9999998E-03;  1.4983542E-01;4077; -8.3624512E-02;  0.0000000E+00;  2.0413385E-03;  9.9204077E+02;  1.0000000E-01; -6.5940845E+03;3; -2.3881923E-01;  0.0000000E+00; -9.8296684E-01;0; -2.7352983E-01;  3.9324688E+04;  0.0000000E+00;  7.7251273E-01;  4.0000000E+04;  0.0000000E+00;  4.0040355E+04; -2.8375515E-01;  0.0000000E+00;  1.0225325E-02;  5.8501558E+03;
  2.6502100E-01;  9.9999998E-03;  1.5983373E-01;4078; -8.3002917E-02;  0.0000000E+00;  2.0514894E-03;  9.9179401E+02;  1.0000000E-01; -6.7985234E+03;3; -2.1961279E-01;  0.0000000E+00; -9.9836272E-01;0; -2.7658260E-01;  3.9308578E+04;  0.0000000E+00;  8.9538187E-01;  4.0000000E+04;  0.0000000E+00;  4.0036816E+04; -2.8640985E-01;  0.0000000E+00;  9.8272618E-03;  5.4684043E+03;
  2.6484534E-01;  9.9999998E-03;  1.6984038E-01;4079; -8.2423180E-02;  0.0000000E+00;  2.0310658E-03;  9.9162512E+02;  1.0000000E-01; -6.9384204E+03;3; -2.0166241E-01;  0.0000000E+00; -9.9397856E-01;0; -2.7985430E-01;  3.9298312E+04;  0.0000000E+00;  9.5913774E-01;  4.0000000E+04;  0.0000000E+00;  4.0033734E+04; -2.8966525E-01;  0.0000000E+00;  9.8109636E-03;  5.1421006E+03;
  2.6465213E-01;  9.9999998E-03;  1.7984767E-01;4080; -8.1898533E-02;  0.0000000E+00;  1.9826065E-03;  9.9154993E+02;  1.0000000E-01; -7.0007397E+03;3; -2.1139672E-01;  0.0000000E+00; -9.1340798E-01;0; -2.8350568E-01;  3.9294270E+04;  0.0000000E+00;  9.7584009E-01;  4.0000000E+04;  0.0000000E+00;  4.0031965E+04; -2.9371902E-01;  0.0000000E+00;  1.0213344E-02;  4.9294810E+03;
  2.6447010E-01;  9.9999998E-03;  1.8985008E-01;4081; -8.1431434E-02;  0.0000000E+00;  1.9142970E-03;  9.9155914E+02;  1.0000000E-01; -6.9930854E+03;3; -3.2502374E-01;  0.0000000E+00; -6.5632069E-01;0; -2.8779927E-01;  3.9295566E+04;  0.0000000E+00;  1.0045170E+00;  4.0000000E+04;  0.0000000E+00;  4.0031555E+04; -2.9880747E-01;  0.0000000E+00;  1.1008210E-02;  4.8972056E+03;
  2.6432139E-01;  9.9999998E-03;  1.9984724E-01;4082; -8.1017323E-02;  0.0000000E+00;  1.8288360E-03;  9.9163306E+02;  1.0000000E-01; -6.9318530E+03;3; -6.8394262E-01;  0.0000000E+00; -6.3688986E-02;0; -2.9309991E-01;  3.9300492E+04;  0.0000000E+00;  1.1439248E+00;  4.0000000E+04;  0.0000000E+00;  4.0032992E+04; -3.0519772E-01;  0.0000000E+00;  1.2097804E-02;  5.1277822E+03;
  2.6421988E-01;  9.9999998E-03;  2.0984071E-01;4083; -8.0644585E-02;  0.0000000E+00;  1.7323889E-03;  9.9173730E+02;  1.0000000E-01; -6.8454849E+03;3; -1.4949535E+00;  0.0000000E+00;  1.0794960E+00;0; -2.9987764E-01;  3.9306258E+04;  0.0000000E+00;  1.5295571E+00;  4.0000000E+04;  0.0000000E+00;  4.0036523E+04; -3.1317821E-01;  0.0000000E+00;  1.3300567E-02;  5.7353013E+03;
  2.6417705E-01;  9.9999998E-03;  2.1983375E-01;4084; -8.0291077E-02;  0.0000000E+00;  1.6592774E-03;  9.9182526E+02;  1.0000000E-01; -6.7725981E+03;3; -3.0322707E+00;  0.0000000E+00;  2.9539230E+00;0; -3.0867627E-01;  3.9309242E+04;  0.0000000E+00;  2.3347309E+00;  4.0000000E+04;  0.0000000E+00;  4.0042004E+04; -3.2305139E-01;  0.0000000E+00;  1.4375133E-02;  6.8823105E+03;
  2.6420233E-01;  9.9999998E-03;  2.2982521E-01;4085; -7.9941355E-02;  0.0000000E+00;  1.6421909E-03;  9.9184357E+02;  1.0000000E-01; -6.7574380E+03;3; -5.5825200E+00;  0.0000000E+00;  5.6596146E+00;0; -3.2008082E-01;  3.9304723E+04;  0.0000000E+00;  3.7286134E+00;  4.0000000E+04;  0.0000000E+00;  4.0049520E+04; -3.3512267E-01;  0.0000000E+00;  1.5041868E-02;  8.8432227E+03;
  2.7504459E-01;  9.9999998E-03;  6.9959022E-02;4130; -9.0717204E-02;  0.0000000E+00;  8.0146454E-04;  9.9512903E+02;  1.0000000E-01; -4.0354905E+03;3; -1.3998310E-01;  0.0000000E+00; -5.5298579E-01;0; -2.5402141E-01;  3.9564555E+04;  0.0000000E+00;  4.7357552E-02;  4.0000000E+04;  0.0000000E+00;  4.0046367E+04; -2.7016717E-01;  0.0000000E+00;  1.6145760E-02;  6.2102046E+03;
  2.7510434E-01;  9.9999998E-03;  7.9959139E-02;4131; -9.0417519E-02;  0.0000000E+00;  1.0103247E-03;  9.9500580E+02;  1.0000000E-01; -4.1376108E+03;3; -1.5191986E-01;  0.0000000E+00; -6.4249587E-01;0; -2.5492525E-01;  3.9552969E+04;  0.0000000E+00;  4.4034436E-02;  4.0000000E+04;  0.0000000E+00;  4.0048031E+04; -2.7143526E-01;  0.0000000E+00;  1.6510021E-02;  6.4458794E+03;
  2.7515972E-01;  9.9999998E-03;  8.9954838E-02;4132; -9.0032272E-02;  0.0000000E+00;  1.2428019E-03;  9.9483527E+02;  1.0000000E-01; -4.2788911E+03;3; -1.6520700E-01;  0.0000000E+00; -7.3545998E-01;0; -2.5619134E-01;  3.9537418E+04;  0.0000000E+00;  4.7148895E-02;  4.0000000E+04;  0.0000000E+00;  4.0050273E+04; -2.7283221E-01;  0.0000000E+00;  1.6640874E-02;  6.7328711E+03;
  2.7520999E-01;  9.9999998E-03;  9.9944867E-02;4133; -8.9566253E-02;  0.0000000E+00;  1.4905625E-03;  9.9460870E+02;  1.0000000E-01; -4.4665894E+03;3; -1.7745282E-01;  0.0000000E+00; -8.1405407E-01;0; -2.5783741E-01;  3.9517449E+04;  0.0000000E+00;  6.7169666E-02;  4.0000000E+04;  0.0000000E+00;  4.0052336E+04; -2.7434874E-01;  0.0000000E+00;  1.6511312E-02;  7.0140205E+03;
  2.7525362E-01;  9.9999998E-03;  1.0992891E-01;4134; -8.9030847E-02;  0.0000000E+00;  1.7413447E-03;  9.9432507E+02;  1.0000000E-01; -4.7015459E+03;3; -1.8790913E-01;  0.0000000E+00; -8.8761288E-01;0; -2.5985104E-01;  3.9493488E+04;  0.0000000E+00;  1.1545676E-01;  4.0000000E+04;  0.0000000E+00;  4.0053918E+04; -2.7598235E-01;  0.0000000E+00;  1.6131299E-02;  7.2293726E+03;
  2.7528626E-01;  9.9999998E-03;  1.1990765E-01;4135; -8.8442199E-02;  0.0000000E+00;  1.9796668E-03;  9.9398865E+02;  1.0000000E-01; -4.9803032E+03;3; -1.9527373E-01;  0.0000000E+00; -9.5440209E-01;0; -2.6218909E-01;  3.9466352E+04;  0.0000000E+00;  2.0146136E-01;  4.0000000E+04;  0.0000000E+00;  4.0054520E+04; -2.7773988E-01;  0.0000000E+00;  1.5550802E-02;  7.3308789E+03;
  2.7530175E-01;  9.9999998E-03;  1.2988272E-01;4136; -8.7821335E-02;  0.0000000E+00;  2.1867976E-03;  9.9361017E+02;  1.0000000E-01; -5.2938745E+03;3; -1.9795527E-01;  0.0000000E+00; -1.0121301E+00;0; -2.6478285E-01;  3.9436875E+04;  0.0000000E+00;  3.2920879E-01;  4.0000000E+04;  0.0000000E+00;  4.0053793E+04; -2.7964097E-01;  0.0000000E+00;  1.4858129E-02;  7.2950332E+03;
  2.7529156E-01;  9.9999998E-03;  1.3985740E-01;4137; -8.7190099E-02;  0.0000000E+00;  2.3513073E-03;  9.9321021E+02;  1.0000000E-01; -5.6252231E+03;3; -1.9542766E-01;  0.0000000E+00; -1.0594385E+00;0; -2.6756102E-01;  3.9406730E+04;  0.0000000E+00;  4.9376163E-01;  4.0000000E+04;  0.0000000E+00;  4.0052051E+04; -2.8173235E-01;  0.0000000E+00;  1.4171336E-02;  7.1292192E+03;
  2.7524692E-01;  9.9999998E-03;  1.4983603E-01;4138; -8.6568736E-02;  0.0000000E+00;  2.4681406E-03;  9.9281329E+02;  1.0000000E-01; -5.9540532E+03;3; -1.8609041E-01;  0.0000000E+00; -1.0996027E+00;0; -2.7047026E-01;  3.9377586E+04;  0.0000000E+00;  6.7878199E-01;  4.0000000E+04;  0.0000000E+00;  4.0049410E+04; -2.8409183E-01;  0.0000000E+00;  1.3621566E-02;  6.8695850E+03;
  2.7515963E-01;  9.9999998E-03;  1.5982281E-01;4139; -8.5974544E-02;  0.0000000E+00;  2.5397039E-03;  9.9245050E+02;  1.0000000E-01; -6.2546372E+03;3; -1.6961530E-01;  0.0000000E+00; -1.1293612E+00;0; -2.7350670E-01;  3.9351613E+04;  0.0000000E+00;  8.5706306E-01;  4.0000000E+04;  0.0000000E+00;  4.0046426E+04; -2.8683013E-01;  0.0000000E+00;  1.3323419E-02;  6.5722563E+03;
  2.7502763E-01;  9.9999998E-03;  1.6981794E-01;4140; -8.5421123E-02;  0.0000000E+00;  2.5734217E-03;  9.9215131E+02;  1.0000000E-01; -6.5024824E+03;3; -1.4803584E-01;  0.0000000E+00; -1.1409087E+00;0; -2.7671587E-01;  3.9330566E+04;  0.0000000E+00;  9.9497277E-01;  4.0000000E+04;  0.0000000E+00;  4.0043555E+04; -2.9007789E-01;  0.0000000E+00;  1.3362034E-02;  6.2974141E+03;
  2.7486145E-01;  9.9999998E-03;  1.7981775E-01;4141; -8.4918827E-02;  0.0000000E+00;  2.5779859E-03;  9.9194281E+02;  1.0000000E-01; -6.6752183E+03;3; -1.3755763E-01;  0.0000000E+00; -1.1052891E+00;0; -2.8020847E-01;  3.9316062E+04;  0.0000000E+00;  1.0749400E+00;  4.0000000E+04;  0.0000000E+00;  4.0041582E+04; -2.9399183E-01;  0.0000000E+00;  1.3783371E-02;  6.0971606E+03;
  2.7468440E-01;  9.9999998E-03;  1.8981753E-01;4142; -8.4475078E-02;  0.0000000E+00;  2.5561673E-03;  9.9182928E+02;  1.0000000E-01; -6.7692896E+03;3; -1.9452778E-01;  0.0000000E+00; -9.5869982E-01;0; -2.8418308E-01;  3.9308082E+04;  0.0000000E+00;  1.1150155E+00;  4.0000000E+04;  0.0000000E+00;  4.0040758E+04; -2.9876450E-01;  0.0000000E+00;  1.4581414E-02;  6.0225571E+03;
  2.7451923E-01;  9.9999998E-03;  1.9981489E-01;4143; -8.4086820E-02;  0.0000000E+00;  2.5184369E-03;  9.9180811E+02;  1.0000000E-01; -6.7868198E+03;3; -4.2647138E-01;  0.0000000E+00; -5.7426953E-01;0; -2.8893098E-01;  3.9306367E+04;  0.0000000E+00;  1.1704903E+00;  4.0000000E+04;  0.0000000E+00;  4.0041508E+04; -3.0461711E-01;  0.0000000E+00;  1.5686113E-02;  6.1348926E+03;
  2.7438828E-01;  9.9999998E-03;  2.0980862E-01;4144; -8.3747663E-02;  0.0000000E+00;  2.4741923E-03;  9.9186066E+02;  1.0000000E-01; -6.7433149E+03;3; -1.0096750E+00;  0.0000000E+00;  2.1250448E-01;0; -2.9484028E-01;  3.9308758E+04;  0.0000000E+00;  1.3300282E+00;  4.0000000E+04;  0.0000000E+00;  4.0044156E+04; -3.1179118E-01;  0.0000000E+00;  1.6950911E-02;  6.5212788E+03;
  2.7430987E-01;  9.9999998E-03;  2.1979904E-01;4145; -8.3441131E-02;  0.0000000E+00;  2.4614858E-03;  9.9195874E+02;  1.0000000E-01; -6.6620332E+03;3; -2.1888318E+00;  0.0000000E+00;  1.5574617E+00;0; -3.0235940E-01;  3.9312504E+04;  0.0000000E+00;  1.7136953E+00;  4.0000000E+04;  0.0000000E+00;  4.0049262E+04; -3.2053855E-01;  0.0000000E+00;  1.8179161E-02;  7.3089512E+03;
  2.7429625E-01;  9.9999998E-03;  2.2978652E-01;4146; -8.3152138E-02;  0.0000000E+00;  2.5433842E-03;  9.9206024E+02;  1.0000000E-01; -6.5779370E+03;3; -4.2376966E+00;  0.0000000E+00;  3.5873859E+00;0; -3.1188393E-01;  3.9313984E+04;  0.0000000E+00;  2.4424105E+00;  4.0000000E+04;  0.0000000E+00;  4.0057695E+04; -3.3111227E-01;  0.0000000E+00;  1.9228350E-02;  8.6852178E+03;
  2.8505167E-01;  9.9999998E-03;  6.9956578E-02;4191; -9.3324348E-02;  0.0000000E+00;  9.3018427E-04;  9.9580066E+02;  1.0000000E-01; -3.4790618E+03;3; -6.0012642E-02;  0.0000000E+00; -6.0966569E-01;0; -2.5075343E-01;  3.9615367E+04;  0.0000000E+00;  2.0314213E-02;  4.0000000E+04;  0.0000000E+00;  4.0049164E+04; -2.6886478E-01;  0.0000000E+00;  1.8111348E-02;  6.5164756E+03;
  2.8510582E-01;  9.9999998E-03;  7.9957478E-02;4192; -9.3061902E-02;  0.0000000E+00;  1.1496071E-03;  9.9573877E+02;  1.0000000E-01; -3.5303691E+03;3; -7.3902100E-02;  0.0000000E+00; -7.0685083E-01;0; -2.5162736E-01;  3.9609156E+04;  0.0000000E+00;  7.4301218E-03;  4.0000000E+04;  0.0000000E+00;  4.0050793E+04; -2.7021736E-01;  0.0000000E+00;  1.8590011E-02;  6.7177744E+03;
  2.8515774E-01;  9.9999998E-03;  8.9955553E-02;4193; -9.2718564E-02;  0.0000000E+00;  1.4008454E-03;  9.9562207E+02;  1.0000000E-01; -3.6270083E+03;3; -8.7204695E-02;  0.0000000E+00; -8.0100167E-01;0; -2.5285321E-01;  3.9597883E+04;  0.0000000E+00; -3.1567577E-03;  4.0000000E+04;  0.0000000E+00;  4.0052852E+04; -2.7172562E-01;  0.0000000E+00;  1.8872399E-02;  6.9981777E+03;
  2.8520688E-01;  9.9999998E-03;  9.9948853E-02;4194; -9.2297144E-02;  0.0000000E+00;  1.6727427E-03;  9.9544312E+02;  1.0000000E-01; -3.7753003E+03;3; -1.0114432E-01;  0.0000000E+00; -8.9704424E-01;0; -2.5445309E-01;  3.9581285E+04;  0.0000000E+00; -1.9100885E-03;  4.0000000E+04;  0.0000000E+00;  4.0055375E+04; -2.7337867E-01;  0.0000000E+00;  1.8925590E-02;  7.3089727E+03;
  2.8525189E-01;  9.9999998E-03;  1.0993657E-01;4195; -9.1806665E-02;  0.0000000E+00;  1.9492819E-03;  9.9519269E+02;  1.0000000E-01; -3.9827512E+03;3; -1.1499098E-01;  0.0000000E+00; -9.8281169E-01;0; -2.5641733E-01;  3.9559398E+04;  0.0000000E+00;  2.2777647E-02;  4.0000000E+04;  0.0000000E+00;  4.0057355E+04; -2.7516657E-01;  0.0000000E+00;  1.8749235E-02;  7.5925659E+03;
  2.8528935E-01;  9.9999998E-03;  1.1991864E-01;4196; -9.1261812E-02;  0.0000000E+00;  2.2225177E-03;  9.9487006E+02;  1.0000000E-01; -4.2500522E+03;3; -1.2510300E-01;  0.0000000E+00; -1.0574683E+00;0; -2.5870684E-01;  3.9532445E+04;  0.0000000E+00;  8.2453847E-02;  4.0000000E+04;  0.0000000E+00;  4.0058902E+04; -2.7708644E-01;  0.0000000E+00;  1.8379606E-02;  7.7957378E+03;
  2.8531420E-01;  9.9999998E-03;  1.2989600E-01;4197; -9.0682149E-02;  0.0000000E+00;  2.4744095E-03;  9.9448529E+02;  1.0000000E-01; -4.5688086E+03;3; -1.2982424E-01;  0.0000000E+00; -1.1212897E+00;0; -2.6125619E-01;  3.9501414E+04;  0.0000000E+00;  1.8547501E-01;  4.0000000E+04;  0.0000000E+00;  4.0059211E+04; -2.7914500E-01;  0.0000000E+00;  1.7888805E-02;  7.8822632E+03;
  2.8531995E-01;  9.9999998E-03;  1.3987060E-01;4198; -9.0088688E-02;  0.0000000E+00;  2.6921064E-03;  9.9405328E+02;  1.0000000E-01; -4.9267246E+03;3; -1.2965809E-01;  0.0000000E+00; -1.1790730E+00;0; -2.6399273E-01;  3.9467832E+04;  0.0000000E+00;  3.3334395E-01;  4.0000000E+04;  0.0000000E+00;  4.0058570E+04; -2.8137174E-01;  0.0000000E+00;  1.7379006E-02;  7.8418765E+03;
  2.8529978E-01;  9.9999998E-03;  1.4984608E-01;4199; -8.9502454E-02;  0.0000000E+00;  2.8689525E-03;  9.9359772E+02;  1.0000000E-01; -5.3041460E+03;3; -1.2252136E-01;  0.0000000E+00; -1.2215831E+00;0; -2.6685762E-01;  3.9433281E+04;  0.0000000E+00;  5.1741880E-01;  4.0000000E+04;  0.0000000E+00;  4.0056773E+04; -2.8382620E-01;  0.0000000E+00;  1.6968567E-02;  7.6922598E+03;
  2.8524682E-01;  9.9999998E-03;  1.5982576E-01;4200; -8.8942014E-02;  0.0000000E+00;  3.0056380E-03;  9.9315289E+02;  1.0000000E-01; -5.6726787E+03;3; -1.0775812E-01;  0.0000000E+00; -1.2605093E+00;0; -2.6983529E-01;  3.9399996E+04;  0.0000000E+00;  7.1793091E-01;  4.0000000E+04;  0.0000000E+00;  4.0054523E+04; -2.8659949E-01;  0.0000000E+00;  1.6764209E-02;  7.4759438E+03;
  2.8515676E-01;  9.9999998E-03;  1.6981207E-01;4201; -8.8421926E-02;  0.0000000E+00;  3.1049822E-03;  9.9275183E+02;  1.0000000E-01; -6.0049653E+03;3; -8.6073741E-02;  0.0000000E+00; -1.2875935E+00;0; -2.7295262E-01;  3.9370480E+04;  0.0000000E+00;  9.0419930E-01;  4.0000000E+04;  0.0000000E+00;  4.0052020E+04; -2.8980061E-01;  0.0000000E+00;  1.6847992E-02;  7.2498467E+03;
  2.8503054E-01;  9.9999998E-03;  1.7980412E-01;4202; -8.7952375E-02;  0.0000000E+00;  3.1737266E-03;  9.9242438E+02;  1.0000000E-01; -6.2762666E+03;3; -6.4080879E-02;  0.0000000E+00; -1.2929165E+00;0; -2.7627790E-01;  3.9346570E+04;  0.0000000E+00;  1.0432501E+00;  4.0000000E+04;  0.0000000E+00;  4.0050031E+04; -2.9355052E-01;  0.0000000E+00;  1.7272621E-02;  7.0674907E+03;
  2.8487766E-01;  9.9999998E-03;  1.8979935E-01;4203; -8.7539278E-02;  0.0000000E+00;  3.2152643E-03;  9.9219543E+02;  1.0000000E-01; -6.4659399E+03;3; -7.3233970E-02;  0.0000000E+00; -1.2280632E+00;0; -2.7994606E-01;  3.9329617E+04;  0.0000000E+00;  1.1209071E+00;  4.0000000E+04;  0.0000000E+00;  4.0048883E+04; -2.9799578E-01;  0.0000000E+00;  1.8049719E-02;  6.9728911E+03;
  2.8472114E-01;  9.9999998E-03;  1.9979404E-01;4204; -8.7184727E-02;  0.0000000E+00;  3.2408806E-03;  9.9206909E+02;  1.0000000E-01; -6.5706284E+03;3; -1.9021003E-01;  0.0000000E+00; -1.0185714E+00;0; -2.8416607E-01;  3.9320043E+04;  0.0000000E+00;  1.1520437E+00;  4.0000000E+04;  0.0000000E+00;  4.0049043E+04; -3.0330676E-01;  0.0000000E+00;  1.9140694E-02;  7.0170088E+03;
  2.8457928E-01;  9.9999998E-03;  2.0978653E-01;4205; -8.6884759E-02;  0.0000000E+00;  3.2636356E-03;  9.9204602E+02;  1.0000000E-01; -6.5897393E+03;3; -5.4842627E-01;  0.0000000E+00; -5.5120772E-01;0; -2.8923383E-01;  3.9316992E+04;  0.0000000E+00;  1.1814672E+00;  4.0000000E+04;  0.0000000E+00;  4.0050988E+04; -3.0967402E-01;  0.0000000E+00;  2.0440200E-02;  7.2719355E+03;
  2.8447074E-01;  9.9999998E-03;  2.1977599E-01;4206; -8.6624786E-02;  0.0000000E+00;  3.3232505E-03;  9.9210895E+02;  1.0000000E-01; -6.5375923E+03;3; -1.3396983E+00;  0.0000000E+00;  3.0675611E-01;0; -2.9548821E-01;  3.9318633E+04;  0.0000000E+00;  1.2838528E+00;  4.0000000E+04;  0.0000000E+00;  4.0055480E+04; -3.1729752E-01;  0.0000000E+00;  2.1809297E-02;  7.8508530E+03;
  2.8441808E-01;  9.9999998E-03;  2.2976078E-01;4207; -8.6390600E-02;  0.0000000E+00;  3.5181085E-03;  9.9223871E+02;  1.0000000E-01; -6.4300894E+03;3; -2.7942338E+00;  0.0000000E+00;  1.6743180E+00;0; -3.0308783E-01;  3.9322094E+04;  0.0000000E+00;  1.5441362E+00;  4.0000000E+04;  0.0000000E+00;  4.0063875E+04; -3.2637554E-01;  0.0000000E+00;  2.3287728E-02;  8.9607822E+03;
  2.9506534E-01;  9.9999998E-03;  6.9954358E-02;4252; -9.5893994E-02;  0.0000000E+00;  1.0620225E-03;  9.9624371E+02;  1.0000000E-01; -3.1120105E+03;3;  3.1119317E-02;  0.0000000E+00; -6.7342031E-01;0; -2.4767411E-01;  3.9649039E+04;  0.0000000E+00; -7.8497604E-03;  4.0000000E+04;  0.0000000E+00;  4.0051215E+04; -2.6770428E-01;  0.0000000E+00;  2.0030174E-02;  6.7290005E+03;
  2.9511297E-01;  9.9999998E-03;  7.9954892E-02;4253; -9.5665567E-02;  0.0000000E+00;  1.2887585E-03;  9.9625043E+02;  1.0000000E-01; -3.1064304E+03;3;  1.6242322E-02;  0.0000000E+00; -7.7820891E-01;0; -2.4845573E-01;  3.9648660E+04;  0.0000000E+00; -2.7262976E-02;  4.0000000E+04;  0.0000000E+00;  4.0052477E+04; -2.6905516E-01;  0.0000000E+00;  2.0599429E-02;  6.8859565E+03;
  2.9516032E-01;  9.9999998E-03;  8.9954220E-02;4254; -9.5362596E-02;  0.0000000E+00;  1.5496794E-03;  9.9620300E+02;  1.0000000E-01; -3.1457380E+03;3;  1.1057172E-03;  0.0000000E+00; -8.7711400E-01;0; -2.4957293E-01;  3.9643020E+04;  0.0000000E+00; -4.7565401E-02;  4.0000000E+04;  0.0000000E+00;  4.0054445E+04; -2.7058500E-01;  0.0000000E+00;  2.1012064E-02;  7.1431196E+03;
  2.9520664E-01;  9.9999998E-03;  9.9950314E-02;4255; -9.4986141E-02;  0.0000000E+00;  1.8389380E-03;  9.9608875E+02;  1.0000000E-01; -3.2404019E+03;3; -1.4275233E-02;  0.0000000E+00; -9.7615331E-01;0; -2.5105286E-01;  3.9631469E+04;  0.0000000E+00; -6.1047103E-02;  4.0000000E+04;  0.0000000E+00;  4.0056945E+04; -2.7228329E-01;  0.0000000E+00;  2.1230416E-02;  7.4609634E+03;
  2.9524997E-01;  9.9999998E-03;  1.0994163E-01;4256; -9.4543040E-02;  0.0000000E+00;  2.1450999E-03;  9.9589215E+02;  1.0000000E-01; -3.4032615E+03;3; -2.9476414E-02;  0.0000000E+00; -1.0746723E+00;0; -2.5289357E-01;  3.9613480E+04;  0.0000000E+00; -5.7332404E-02;  4.0000000E+04;  0.0000000E+00;  4.0059441E+04; -2.7413759E-01;  0.0000000E+00;  2.1244032E-02;  7.7866123E+03;
  2.9528749E-01;  9.9999998E-03;  1.1992741E-01;4257; -9.4045609E-02;  0.0000000E+00;  2.4530631E-03;  9.9561151E+02;  1.0000000E-01; -3.6357981E+03;3; -4.2452075E-02;  0.0000000E+00; -1.1636838E+00;0; -2.5506052E-01;  3.9589176E+04;  0.0000000E+00; -2.4729365E-02;  4.0000000E+04;  0.0000000E+00;  4.0061469E+04; -2.7613524E-01;  0.0000000E+00;  2.1074716E-02;  8.0650884E+03;
  2.9531559E-01;  9.9999998E-03;  1.2990798E-01;4258; -9.3512081E-02;  0.0000000E+00;  2.7469059E-03;  9.9525134E+02;  1.0000000E-01; -3.9341602E+03;3; -5.2202426E-02;  0.0000000E+00; -1.2407366E+00;0; -2.5749558E-01;  3.9559219E+04;  0.0000000E+00;  4.7292605E-02;  4.0000000E+04;  0.0000000E+00;  4.0062684E+04; -2.7827269E-01;  0.0000000E+00;  2.0777121E-02;  8.2514648E+03;
  2.9533023E-01;  9.9999998E-03;  1.3988464E-01;4259; -9.2962496E-02;  0.0000000E+00;  3.0167389E-03;  9.9482074E+02;  1.0000000E-01; -4.2909399E+03;3; -5.4696791E-02;  0.0000000E+00; -1.3055366E+00;0; -2.6012734E-01;  3.9524844E+04;  0.0000000E+00;  1.6482031E-01;  4.0000000E+04;  0.0000000E+00;  4.0063051E+04; -2.8056297E-01;  0.0000000E+00;  2.0435620E-02;  8.3208623E+03;
  2.9532611E-01;  9.9999998E-03;  1.4985998E-01;4260; -9.2417687E-02;  0.0000000E+00;  3.2532683E-03;  9.9434491E+02;  1.0000000E-01; -4.6851509E+03;3; -4.9079876E-02;  0.0000000E+00; -1.3598617E+00;0; -2.6289380E-01;  3.9487750E+04;  0.0000000E+00;  3.2598832E-01;  4.0000000E+04;  0.0000000E+00;  4.0062148E+04; -2.8304678E-01;  0.0000000E+00;  2.0152977E-02;  8.2734863E+03;
  2.9529718E-01;  9.9999998E-03;  1.5983726E-01;4261; -9.1896079E-02;  0.0000000E+00;  3.4526468E-03;  9.9385248E+02;  1.0000000E-01; -5.0930903E+03;3; -3.6473185E-02;  0.0000000E+00; -1.4080887E+00;0; -2.6576892E-01;  3.9450102E+04;  0.0000000E+00;  5.1883835E-01;  4.0000000E+04;  0.0000000E+00;  4.0060641E+04; -2.8579542E-01;  0.0000000E+00;  2.0026496E-02;  8.1361616E+03;
  2.9523981E-01;  9.9999998E-03;  1.6981861E-01;4262; -9.1413416E-02;  0.0000000E+00;  3.6175922E-03;  9.9337970E+02;  1.0000000E-01; -5.4847827E+03;3; -1.5928069E-02;  0.0000000E+00; -1.4442419E+00;0; -2.6876253E-01;  3.9414465E+04;  0.0000000E+00;  7.2131521E-01;  4.0000000E+04;  0.0000000E+00;  4.0058531E+04; -2.8889769E-01;  0.0000000E+00;  2.0135174E-02;  7.9578389E+03;
  2.9515228E-01;  9.9999998E-03;  1.7980498E-01;4263; -9.0980954E-02;  0.0000000E+00;  3.7534193E-03;  9.9296198E+02;  1.0000000E-01; -5.8308472E+03;3;  1.1945238E-02;  0.0000000E+00; -1.4729683E+00;0; -2.7191001E-01;  3.9383320E+04;  0.0000000E+00;  9.0021461E-01;  4.0000000E+04;  0.0000000E+00;  4.0056633E+04; -2.9244673E-01;  0.0000000E+00;  2.0536710E-02;  7.7935186E+03;
  2.9503566E-01;  9.9999998E-03;  1.8979509E-01;4264; -9.0604760E-02;  0.0000000E+00;  3.8656695E-03;  9.9263123E+02;  1.0000000E-01; -6.1049131E+03;3;  3.1299531E-02;  0.0000000E+00; -1.4712220E+00;0; -2.7528688E-01;  3.9358434E+04;  0.0000000E+00;  1.0236156E+00;  4.0000000E+04;  0.0000000E+00;  4.0055328E+04; -2.9654685E-01;  0.0000000E+00;  2.1259975E-02;  7.6900605E+03;
  2.9489949E-01;  9.9999998E-03;  1.9978702E-01;4265; -9.0286516E-02;  0.0000000E+00;  3.9649922E-03;  9.9240308E+02;  1.0000000E-01; -6.2938955E+03;3;  1.4819715E-03;  0.0000000E+00; -1.3843334E+00;0; -2.7902603E-01;  3.9341117E+04;  0.0000000E+00;  1.0763884E+00;  4.0000000E+04;  0.0000000E+00;  4.0054988E+04; -3.0132160E-01;  0.0000000E+00;  2.2295577E-02;  7.6881538E+03;
  2.9476729E-01;  9.9999998E-03;  2.0977692E-01;4266; -9.0026960E-02;  0.0000000E+00;  4.0643322E-03;  9.9228998E+02;  1.0000000E-01; -6.3876211E+03;3; -1.6807258E-01;  0.0000000E+00; -1.1498878E+00;0; -2.8331915E-01;  3.9331543E+04;  0.0000000E+00;  1.0663645E+00;  4.0000000E+04;  0.0000000E+00;  4.0056309E+04; -3.0690622E-01;  0.0000000E+00;  2.3587065E-02;  7.8614683E+03;
  2.9465148E-01;  9.9999998E-03;  2.1976452E-01;4267; -8.9813583E-02;  0.0000000E+00;  4.2023617E-03;  9.9228931E+02;  1.0000000E-01; -6.3881646E+03;3; -6.1438543E-01;  0.0000000E+00; -6.7834902E-01;0; -2.8838977E-01;  3.9328785E+04;  0.0000000E+00;  1.0267437E+00;  4.0000000E+04;  0.0000000E+00;  4.0060164E+04; -3.1344977E-01;  0.0000000E+00;  2.5060009E-02;  8.3188066E+03;
  2.9456732E-01;  9.9999998E-03;  2.2974935E-01;4268; -8.9627877E-02;  0.0000000E+00;  4.4711651E-03;  9.9239172E+02;  1.0000000E-01; -6.3033276E+03;3; -1.5134302E+00;  0.0000000E+00;  1.1899342E-01;0; -2.9426995E-01;  3.9330789E+04;  0.0000000E+00;  1.0123802E+00;  4.0000000E+04;  0.0000000E+00;  4.0067715E+04; -3.2110292E-01;  0.0000000E+00;  2.6832977E-02;  9.2370703E+03;
  3.0508584E-01;  9.9999998E-03;  6.9951937E-02;4313; -9.8442003E-02;  0.0000000E+00;  1.1991669E-03;  9.9646594E+02;  1.0000000E-01; -2.9279170E+03;3;  1.3381441E-01;  0.0000000E+00; -7.3995519E-01;0; -2.4492703E-01;  3.9666148E+04;  0.0000000E+00; -3.2311764E-02;  4.0000000E+04;  0.0000000E+00;  4.0052355E+04; -2.6678938E-01;  0.0000000E+00;  2.1862349E-02;  6.8477119E+03;
  3.0512604E-01;  9.9999998E-03;  7.9951458E-02;4314; -9.8241709E-02;  0.0000000E+00;  1.4325180E-03;  9.9654718E+02;  1.0000000E-01; -2.8606104E+03;3;  1.1706911E-01;  0.0000000E+00; -8.5761738E-01;0; -2.4556264E-01;  3.9671824E+04;  0.0000000E+00; -5.5538539E-02;  4.0000000E+04;  0.0000000E+00;  4.0053172E+04; -2.6805601E-01;  0.0000000E+00;  2.2493364E-02;  6.9516143E+03;
  3.0516759E-01;  9.9999998E-03;  8.9951135E-02;4315; -9.7974382E-02;  0.0000000E+00;  1.6993482E-03;  9.9657690E+02;  1.0000000E-01; -2.8359690E+03;3;  1.0107221E-01;  0.0000000E+00; -9.6708000E-01;0; -2.4651305E-01;  3.9672410E+04;  0.0000000E+00; -8.1777573E-02;  4.0000000E+04;  0.0000000E+00;  4.0055000E+04; -2.6952159E-01;  0.0000000E+00;  2.3008535E-02;  7.1696006E+03;
  3.0520889E-01;  9.9999998E-03;  9.9949114E-02;4316; -9.7639680E-02;  0.0000000E+00;  1.9983840E-03;  9.9653094E+02;  1.0000000E-01; -2.8740420E+03;3;  8.4942326E-02;  0.0000000E+00; -1.0709996E+00;0; -2.4781013E-01;  3.9666738E+04;  0.0000000E+00; -1.0546450E-01;  4.0000000E+04;  0.0000000E+00;  4.0057375E+04; -2.7117655E-01;  0.0000000E+00;  2.3366414E-02;  7.4713652E+03;
  3.0524781E-01;  9.9999998E-03;  1.0994349E-01;4317; -9.7242706E-02;  0.0000000E+00;  2.3230971E-03;  9.9640155E+02;  1.0000000E-01; -2.9812488E+03;3;  6.9552295E-02;  0.0000000E+00; -1.1675539E+00;0; -2.4945918E-01;  3.9654039E+04;  0.0000000E+00; -1.1828335E-01;  4.0000000E+04;  0.0000000E+00;  4.0059871E+04; -2.7300620E-01;  0.0000000E+00;  2.3547018E-02;  7.8106694E+03;
  3.0528235E-01;  9.9999998E-03;  1.1993295E-01;4318; -9.6793726E-02;  0.0000000E+00;  2.6618396E-03;  9.9618140E+02;  1.0000000E-01; -3.1636633E+03;3;  5.4220948E-02;  0.0000000E+00; -1.2647924E+00;0; -2.5143683E-01;  3.9634207E+04;  0.0000000E+00; -1.0979805E-01;  4.0000000E+04;  0.0000000E+00;  4.0062445E+04; -2.7499476E-01;  0.0000000E+00;  2.3557920E-02;  8.1339585E+03;
  3.0531064E-01;  9.9999998E-03;  1.2991722E-01;4319; -9.6308649E-02;  0.0000000E+00;  2.9985774E-03;  9.9586713E+02;  1.0000000E-01; -3.4240017E+03;3;  3.9837625E-02;  0.0000000E+00; -1.3608375E+00;0; -2.5369233E-01;  3.9607348E+04;  0.0000000E+00; -6.9111936E-02;  4.0000000E+04;  0.0000000E+00;  4.0064227E+04; -2.7712840E-01;  0.0000000E+00;  2.3436069E-02;  8.3918799E+03;
  3.0532968E-01;  9.9999998E-03;  1.3989739E-01;4320; -9.5806241E-02;  0.0000000E+00;  3.3183950E-03;  9.9546906E+02;  1.0000000E-01; -3.7538196E+03;3;  3.2517657E-02;  0.0000000E+00; -1.4446943E+00;0; -2.5616053E-01;  3.9574539E+04;  0.0000000E+00;  1.2476740E-02;  4.0000000E+04;  0.0000000E+00;  4.0065160E+04; -2.7940658E-01;  0.0000000E+00;  2.3246046E-02;  8.5491328E+03;
  3.0533552E-01;  9.9999998E-03;  1.4987485E-01;4321; -9.5306493E-02;  0.0000000E+00;  3.6103975E-03;  9.9500598E+02;  1.0000000E-01; -4.1374629E+03;3;  3.4043219E-02;  0.0000000E+00; -1.5090381E+00;0; -2.5877824E-01;  3.9537629E+04;  0.0000000E+00;  1.3820201E-01;  4.0000000E+04;  0.0000000E+00;  4.0065188E+04; -2.8185096E-01;  0.0000000E+00;  2.3072716E-02;  8.5916504E+03;
  3.0532336E-01;  9.9999998E-03;  1.5985239E-01;4322; -9.4827473E-02;  0.0000000E+00;  3.8729298E-03;  9.9449982E+02;  1.0000000E-01; -4.5568091E+03;3;  4.5193397E-02;  0.0000000E+00; -1.5639275E+00;0; -2.6150885E-01;  3.9498340E+04;  0.0000000E+00;  3.0314147E-01;  4.0000000E+04;  0.0000000E+00;  4.0064379E+04; -2.8451148E-01;  0.0000000E+00;  2.3002623E-02;  8.5307119E+03;
  3.0528915E-01;  9.9999998E-03;  1.6983247E-01;4323; -9.4384871E-02;  0.0000000E+00;  4.1049798E-03;  9.9399042E+02;  1.0000000E-01; -4.9788218E+03;3;  6.3870795E-02;  0.0000000E+00; -1.6115867E+00;0; -2.6434571E-01;  3.9459355E+04;  0.0000000E+00;  4.9342468E-01;  4.0000000E+04;  0.0000000E+00;  4.0062820E+04; -2.8745708E-01;  0.0000000E+00;  2.3111384E-02;  8.4028145E+03;
  3.0523154E-01;  9.9999998E-03;  1.7981581E-01;4324; -9.3990907E-02;  0.0000000E+00;  4.3102140E-03;  9.9351331E+02;  1.0000000E-01; -5.3741191E+03;3;  9.2408046E-02;  0.0000000E+00; -1.6531324E+00;0; -2.6730031E-01;  3.9423082E+04;  0.0000000E+00;  6.8516016E-01;  4.0000000E+04;  0.0000000E+00;  4.0061180E+04; -2.9076144E-01;  0.0000000E+00;  2.3461130E-02;  8.2597529E+03;
  3.0515096E-01;  9.9999998E-03;  1.8980241E-01;4325; -9.3652822E-02;  0.0000000E+00;  4.4911643E-03;  9.9310211E+02;  1.0000000E-01; -5.7147515E+03;3;  1.2597835E-01;  0.0000000E+00; -1.6819905E+00;0; -2.7040017E-01;  3.9392098E+04;  0.0000000E+00;  8.4413958E-01;  4.0000000E+04;  0.0000000E+00;  4.0059711E+04; -2.9449555E-01;  0.0000000E+00;  2.4095373E-02;  8.1515610E+03;
  3.0504671E-01;  9.9999998E-03;  1.9979182E-01;4326; -9.3372084E-02;  0.0000000E+00;  4.6593775E-03;  9.9278467E+02;  1.0000000E-01; -5.9777563E+03;3;  1.4582980E-01;  0.0000000E+00; -1.6792821E+00;0; -2.7371085E-01;  3.9367938E+04;  0.0000000E+00;  9.3902361E-01;  4.0000000E+04;  0.0000000E+00;  4.0058988E+04; -2.9874179E-01;  0.0000000E+00;  2.5030943E-02;  8.1166895E+03;
  3.0493274E-01;  9.9999998E-03;  2.0978041E-01;4327; -9.3148150E-02;  0.0000000E+00;  4.8275511E-03;  9.9258026E+02;  1.0000000E-01; -6.1471343E+03;3;  1.0626389E-01;  0.0000000E+00; -1.5944138E+00;0; -2.7733597E-01;  3.9351723E+04;  0.0000000E+00;  9.5260853E-01;  4.0000000E+04;  0.0000000E+00;  4.0059621E+04; -3.0358809E-01;  0.0000000E+00;  2.6252130E-02;  8.2162207E+03;
  3.0482417E-01;  9.9999998E-03;  2.1976672E-01;4328; -9.2973150E-02;  0.0000000E+00;  5.0316206E-03;  9.9249670E+02;  1.0000000E-01; -6.2163174E+03;3; -8.2103364E-02;  0.0000000E+00; -1.3863397E+00;0; -2.8138900E-01;  3.9343258E+04;  0.0000000E+00;  8.8722277E-01;  4.0000000E+04;  0.0000000E+00;  4.0062449E+04; -3.0913225E-01;  0.0000000E+00;  2.7743259E-02;  8.5592158E+03;
  3.0473137E-01;  9.9999998E-03;  2.2975112E-01;4329; -9.2827529E-02;  0.0000000E+00;  5.3499183E-03;  9.9253693E+02;  1.0000000E-01; -6.1830347E+03;3; -5.3661120E-01;  0.0000000E+00; -9.9551016E-01;0; -2.8580987E-01;  3.9341492E+04;  0.0000000E+00;  7.6485747E-01;  4.0000000E+04;  0.0000000E+00;  4.0068738E+04; -3.1547701E-01;  0.0000000E+00;  2.9667130E-02;  9.3062979E+03;
  3.1511402E-01;  9.9999998E-03;  6.9948904E-02;4374; -1.0098413E-01;  0.0000000E+00;  1.3408364E-03;  9.9649609E+02;  1.0000000E-01; -2.9029299E+03;3;  2.4755275E-01;  0.0000000E+00; -8.1448567E-01;0; -2.4259123E-01;  3.9668363E+04;  0.0000000E+00; -4.8240896E-02;  4.0000000E+04;  0.0000000E+00;  4.0052555E+04; -2.6616579E-01;  0.0000000E+00;  2.3574559E-02;  6.8778071E+03;
  3.1514585E-01;  9.9999998E-03;  7.9947412E-02;4375; -1.0080386E-01;  0.0000000E+00;  1.5802040E-03;  9.9664349E+02;  1.0000000E-01; -2.7808101E+03;3;  2.2988781E-01;  0.0000000E+00; -9.3894106E-01;0; -2.4304433E-01;  3.9679938E+04;  0.0000000E+00; -7.3156968E-02;  4.0000000E+04;  0.0000000E+00;  4.0053016E+04; -2.6727921E-01;  0.0000000E+00;  2.4234874E-02;  6.9226040E+03;
  3.1517947E-01;  9.9999998E-03;  8.9946732E-02;4376; -1.0056484E-01;  0.0000000E+00;  1.8517621E-03;  9.9674182E+02;  1.0000000E-01; -2.6993308E+03;3;  2.1111554E-01;  0.0000000E+00; -1.0614419E+00;0; -2.4378455E-01;  3.9686582E+04;  0.0000000E+00; -1.0243114E-01;  4.0000000E+04;  0.0000000E+00;  4.0054453E+04; -2.6860392E-01;  0.0000000E+00;  2.4819382E-02;  7.0883105E+03;
  3.1521326E-01;  9.9999998E-03;  9.9945523E-02;4377; -1.0026575E-01;  0.0000000E+00;  2.1576239E-03;  9.9677130E+02;  1.0000000E-01; -2.6749365E+03;3;  1.9265351E-01;  0.0000000E+00; -1.1707978E+00;0; -2.4485011E-01;  3.9686996E+04;  0.0000000E+00; -1.3246699E-01;  4.0000000E+04;  0.0000000E+00;  4.0056500E+04; -2.7013430E-01;  0.0000000E+00;  2.5284190E-02;  7.3535757E+03;
  3.1524581E-01;  9.9999998E-03;  1.0994206E-01;4378; -9.9910513E-02;  0.0000000E+00;  2.4935212E-03;  9.9671698E+02;  1.0000000E-01; -2.7199229E+03;3;  1.7630747E-01;  0.0000000E+00; -1.2766621E+00;0; -2.4625653E-01;  3.9680195E+04;  0.0000000E+00; -1.5719247E-01;  4.0000000E+04;  0.0000000E+00;  4.0059059E+04; -2.7185768E-01;  0.0000000E+00;  2.5601147E-02;  7.6795396E+03;
  3.1527579E-01;  9.9999998E-03;  1.1993485E-01;4379; -9.9507615E-02;  0.0000000E+00;  2.8514159E-03;  9.9656604E+02;  1.0000000E-01; -2.8449563E+03;3;  1.5824531E-01;  0.0000000E+00; -1.3806639E+00;0; -2.4799040E-01;  3.9665633E+04;  0.0000000E+00; -1.6808850E-01;  4.0000000E+04;  0.0000000E+00;  4.0061668E+04; -2.7375436E-01;  0.0000000E+00;  2.5763953E-02;  8.0169893E+03;
  3.1530210E-01;  9.9999998E-03;  1.2992314E-01;4380; -9.9070676E-02;  0.0000000E+00;  3.2206138E-03;  9.9631433E+02;  1.0000000E-01; -3.0534937E+03;3;  1.4185263E-01;  0.0000000E+00; -1.4843832E+00;0; -2.5001293E-01;  3.9643508E+04;  0.0000000E+00; -1.5508503E-01;  4.0000000E+04;  0.0000000E+00;  4.0063906E+04; -2.7580485E-01;  0.0000000E+00;  2.5791921E-02;  8.3160166E+03;
  3.1532237E-01;  9.9999998E-03;  1.3990736E-01;4381; -9.8616086E-02;  0.0000000E+00;  3.5858580E-03;  9.9596490E+02;  1.0000000E-01; -3.3430164E+03;3;  1.3003229E-01;  0.0000000E+00; -1.5817744E+00;0; -2.5226736E-01;  3.9614277E+04;  0.0000000E+00; -1.0849033E-01;  4.0000000E+04;  0.0000000E+00;  4.0065488E+04; -2.7799705E-01;  0.0000000E+00;  2.5729693E-02;  8.5355332E+03;
  3.1533360E-01;  9.9999998E-03;  1.4988834E-01;4382; -9.8162733E-02;  0.0000000E+00;  3.9329957E-03;  9.9553802E+02;  1.0000000E-01; -3.6966853E+03;3;  1.2565967E-01;  0.0000000E+00; -1.6699461E+00;0; -2.5469187E-01;  3.9579566E+04;  0.0000000E+00; -2.1797989E-02;  4.0000000E+04;  0.0000000E+00;  4.0066070E+04; -2.8033462E-01;  0.0000000E+00;  2.5642760E-02;  8.6512090E+03;
  3.1533286E-01;  9.9999998E-03;  1.5986788E-01;4383; -9.7727992E-02;  0.0000000E+00;  4.2546596E-03;  9.9505286E+02;  1.0000000E-01; -4.0985996E+03;3;  1.3515915E-01;  0.0000000E+00; -1.7339875E+00;0; -2.5724187E-01;  3.9541230E+04;  0.0000000E+00;  1.0557737E-01;  4.0000000E+04;  0.0000000E+00;  4.0065766E+04; -2.8284711E-01;  0.0000000E+00;  2.5605233E-02;  8.6610938E+03;
  3.1531587E-01;  9.9999998E-03;  1.6984856E-01;4384; -9.7326368E-02;  0.0000000E+00;  4.5485264E-03;  9.9453729E+02;  1.0000000E-01; -4.5257480E+03;3;  1.5340234E-01;  0.0000000E+00; -1.7886059E+00;0; -2.5989440E-01;  3.9501266E+04;  0.0000000E+00;  2.6658374E-01;  4.0000000E+04;  0.0000000E+00;  4.0064898E+04; -2.8558335E-01;  0.0000000E+00;  2.5688957E-02;  8.5882217E+03;
  3.1528059E-01;  9.9999998E-03;  1.7983164E-01;4385; -9.6970104E-02;  0.0000000E+00;  4.8174001E-03;  9.9403137E+02;  1.0000000E-01; -4.9448970E+03;3;  1.8011212E-01;  0.0000000E+00; -1.8389534E+00;0; -2.6264000E-01;  3.9462531E+04;  0.0000000E+00;  4.4615451E-01;  4.0000000E+04;  0.0000000E+00;  4.0063453E+04; -2.8859985E-01;  0.0000000E+00;  2.5959836E-02;  8.4747646E+03;
  3.1522775E-01;  9.9999998E-03;  1.8981707E-01;4386; -9.6667551E-02;  0.0000000E+00;  5.0665792E-03;  9.9357031E+02;  1.0000000E-01; -5.3268613E+03;3;  2.1697719E-01;  0.0000000E+00; -1.8849974E+00;0; -2.6547244E-01;  3.9427461E+04;  0.0000000E+00;  6.1903387E-01;  4.0000000E+04;  0.0000000E+00;  4.0062113E+04; -2.9194751E-01;  0.0000000E+00;  2.6475072E-02;  8.3690098E+03;
  3.1515756E-01;  9.9999998E-03;  1.9980502E-01;4387; -9.6421376E-02;  0.0000000E+00;  5.2970005E-03;  9.9318573E+02;  1.0000000E-01; -5.6454697E+03;3;  2.5873727E-01;  0.0000000E+00; -1.9209062E+00;0; -2.6840189E-01;  3.9398141E+04;  0.0000000E+00;  7.5178456E-01;  4.0000000E+04;  0.0000000E+00;  4.0061246E+04; -2.9567468E-01;  0.0000000E+00;  2.7272800E-02;  8.3103076E+03;
  3.1507158E-01;  9.9999998E-03;  2.0979346E-01;4388; -9.6228167E-02;  0.0000000E+00;  5.5233282E-03;  9.9289807E+02;  1.0000000E-01; -5.8838330E+03;3;  2.8742597E-01;  0.0000000E+00; -1.9261529E+00;0; -2.7146333E-01;  3.9376000E+04;  0.0000000E+00;  8.1472051E-01;  4.0000000E+04;  0.0000000E+00;  4.0061184E+04; -2.9983431E-01;  0.0000000E+00;  2.8370978E-02;  8.3431104E+03;
  3.1498003E-01;  9.9999998E-03;  2.1977980E-01;4389; -9.6080534E-02;  0.0000000E+00;  5.7733827E-03;  9.9272833E+02;  1.0000000E-01; -6.0244219E+03;3;  2.5913665E-01;  0.0000000E+00; -1.8699204E+00;0; -2.7469048E-01;  3.9361559E+04;  0.0000000E+00;  7.9094809E-01;  4.0000000E+04;  0.0000000E+00;  4.0062941E+04; -3.0448020E-01;  0.0000000E+00;  2.9789722E-02;  8.5636807E+03;
  3.1489220E-01;  9.9999998E-03;  2.2976358E-01;4390; -9.5961884E-02;  0.0000000E+00;  6.1132624E-03;  9.9268530E+02;  1.0000000E-01; -6.0600752E+03;3;  1.0239287E-01;  0.0000000E+00; -1.7276438E+00;0; -2.7796552E-01;  3.9354598E+04;  0.0000000E+00;  6.7953032E-01;  4.0000000E+04;  0.0000000E+00;  4.0067676E+04; -3.0967122E-01;  0.0000000E+00;  3.1705718E-02;  9.1377412E+03;
  3.2515028E-01;  9.9999998E-03;  6.9944754E-02;4435; -1.0353482E-01;  0.0000000E+00;  1.4909586E-03;  9.9636261E+02;  1.0000000E-01; -3.0134949E+03;3;  3.7422118E-01;  0.0000000E+00; -8.9667410E-01;0; -2.4068499E-01;  3.9658660E+04;  0.0000000E+00; -5.2303161E-02;  4.0000000E+04;  0.0000000E+00;  4.0052098E+04; -2.6582494E-01;  0.0000000E+00;  2.5139954E-02;  6.8281787E+03;
  3.2517207E-01;  9.9999998E-03;  7.9942331E-02;4436; -1.0336502E-01;  0.0000000E+00;  1.7343046E-03;  9.9656531E+02;  1.0000000E-01; -2.8455984E+03;3;  3.5516596E-01;  0.0000000E+00; -1.0259867E+00;0; -2.4093533E-01;  3.9674961E+04;  0.0000000E+00; -7.7250227E-02;  4.0000000E+04;  0.0000000E+00;  4.0052082E+04; -2.6673064E-01;  0.0000000E+00;  2.5795311E-02;  6.8112788E+03;
  3.2519570E-01;  9.9999998E-03;  8.9940973E-02;4437; -1.0314492E-01;  0.0000000E+00;  2.0079080E-03;  9.9672467E+02;  1.0000000E-01; -2.7135527E+03;3;  3.3326727E-01;  0.0000000E+00; -1.1583384E+00;0; -2.4144119E-01;  3.9686848E+04;  0.0000000E+00; -1.0753877E-01;  4.0000000E+04;  0.0000000E+00;  4.0053059E+04; -2.6785380E-01;  0.0000000E+00;  2.6412604E-02;  6.9161445E+03;
  3.2522023E-01;  9.9999998E-03;  9.9939965E-02;4438; -1.0287324E-01;  0.0000000E+00;  2.3156961E-03;  9.9682037E+02;  1.0000000E-01; -2.6342463E+03;3;  3.1180012E-01;  0.0000000E+00; -1.2788228E+00;0; -2.4224716E-01;  3.9692863E+04;  0.0000000E+00; -1.4109200E-01;  4.0000000E+04;  0.0000000E+00;  4.0054746E+04; -2.6919428E-01;  0.0000000E+00;  2.6947116E-02;  7.1291870E+03;
  3.2524520E-01;  9.9999998E-03;  1.0993794E-01;4439; -1.0255298E-01;  0.0000000E+00;  2.6574710E-03;  9.9683240E+02;  1.0000000E-01; -2.6243206E+03;3;  2.9042125E-01;  0.0000000E+00; -1.3964015E+00;0; -2.4337810E-01;  3.9691836E+04;  0.0000000E+00; -1.7375433E-01;  4.0000000E+04;  0.0000000E+00;  4.0057156E+04; -2.7074185E-01;  0.0000000E+00;  2.7363740E-02;  7.4194941E+03;
  3.2526955E-01;  9.9999998E-03;  1.1993351E-01;4440; -1.0219109E-01;  0.0000000E+00;  3.0282573E-03;  9.9675244E+02;  1.0000000E-01; -2.6905410E+03;3;  2.7251902E-01;  0.0000000E+00; -1.5045326E+00;0; -2.4483274E-01;  3.9683062E+04;  0.0000000E+00; -1.9895297E-01;  4.0000000E+04;  0.0000000E+00;  4.0059688E+04; -2.7247643E-01;  0.0000000E+00;  2.7643701E-02;  7.7440459E+03;
  3.2529238E-01;  9.9999998E-03;  1.2992541E-01;4441; -1.0179897E-01;  0.0000000E+00;  3.4188789E-03;  9.9657257E+02;  1.0000000E-01; -2.8395737E+03;3;  2.5366485E-01;  0.0000000E+00; -1.6182854E+00;0; -2.4658528E-01;  3.9666387E+04;  0.0000000E+00; -2.0798691E-01;  4.0000000E+04;  0.0000000E+00;  4.0062102E+04; -2.7437478E-01;  0.0000000E+00;  2.7789507E-02;  8.0556050E+03;
  3.2531166E-01;  9.9999998E-03;  1.3991348E-01;4442; -1.0139035E-01;  0.0000000E+00;  3.8163413E-03;  9.9629272E+02;  1.0000000E-01; -3.0714192E+03;3;  2.3736989E-01;  0.0000000E+00; -1.7307165E+00;0; -2.4858835E-01;  3.9642031E+04;  0.0000000E+00; -1.9129889E-01;  4.0000000E+04;  0.0000000E+00;  4.0063883E+04; -2.7641478E-01;  0.0000000E+00;  2.7826430E-02;  8.3114951E+03;
  3.2532522E-01;  9.9999998E-03;  1.4989834E-01;4443; -1.0098208E-01;  0.0000000E+00;  4.2078556E-03;  9.9591882E+02;  1.0000000E-01; -3.3811880E+03;3;  2.2919382E-01;  0.0000000E+00; -1.8332398E+00;0; -2.5078627E-01;  3.9611359E+04;  0.0000000E+00; -1.4068387E-01;  4.0000000E+04;  0.0000000E+00;  4.0065020E+04; -2.7858701E-01;  0.0000000E+00;  2.7800743E-02;  8.4812900E+03;
  3.2533115E-01;  9.9999998E-03;  1.5988116E-01;4444; -1.0059038E-01;  0.0000000E+00;  4.5822444E-03;  9.9547418E+02;  1.0000000E-01; -3.7495728E+03;3;  2.3279436E-01;  0.0000000E+00; -1.9152031E+00;0; -2.5312942E-01;  3.9575664E+04;  0.0000000E+00; -5.1745731E-02;  4.0000000E+04;  0.0000000E+00;  4.0065344E+04; -2.8090209E-01;  0.0000000E+00;  2.7772656E-02;  8.5531494E+03;
  3.2532680E-01;  9.9999998E-03;  1.6986385E-01;4445; -1.0022943E-01;  0.0000000E+00;  4.9337065E-03;  9.9498431E+02;  1.0000000E-01; -4.1553882E+03;3;  2.4876608E-01;  0.0000000E+00; -1.9837162E+00;0; -2.5557792E-01;  3.9537258E+04;  0.0000000E+00;  7.3835835E-02;  4.0000000E+04;  0.0000000E+00;  4.0064773E+04; -2.8338748E-01;  0.0000000E+00;  2.7809545E-02;  8.5379043E+03;
  3.2531020E-01;  9.9999998E-03;  1.7984816E-01;4446; -9.9909648E-02;  0.0000000E+00;  5.2597485E-03;  9.9448114E+02;  1.0000000E-01; -4.5722656E+03;3;  2.7495784E-01;  0.0000000E+00; -2.0383821E+00;0; -2.5810221E-01;  3.9498301E+04;  0.0000000E+00;  2.2696275E-01;  4.0000000E+04;  0.0000000E+00;  4.0063820E+04; -2.8608319E-01;  0.0000000E+00;  2.7980978E-02;  8.4659531E+03;
  3.2527924E-01;  9.9999998E-03;  1.8983455E-01;4447; -9.9638723E-02;  0.0000000E+00;  5.5629835E-03;  9.9399866E+02;  1.0000000E-01; -4.9720073E+03;3;  3.1087962E-01;  0.0000000E+00; -2.0906057E+00;0; -2.6067385E-01;  3.9461320E+04;  0.0000000E+00;  3.9146435E-01;  4.0000000E+04;  0.0000000E+00;  4.0062734E+04; -2.8902727E-01;  0.0000000E+00;  2.8353430E-02;  8.3765830E+03;
  3.2523534E-01;  9.9999998E-03;  1.9982302E-01;4448; -9.9420220E-02;  0.0000000E+00;  5.8486401E-03;  9.9356854E+02;  1.0000000E-01; -5.3283428E+03;3;  3.5753387E-01;  0.0000000E+00; -2.1401813E+00;0; -2.6326391E-01;  3.9428590E+04;  0.0000000E+00;  5.4230964E-01;  4.0000000E+04;  0.0000000E+00;  4.0061754E+04; -2.9224980E-01;  0.0000000E+00;  2.8985901E-02;  8.3045234E+03;
  3.2518122E-01;  9.9999998E-03;  2.0981221E-01;4449; -9.9251337E-02;  0.0000000E+00;  6.1198119E-03;  9.9322089E+02;  1.0000000E-01; -5.6163838E+03;3;  4.1241220E-01;  0.0000000E+00; -2.1809344E+00;0; -2.6585671E-01;  3.9401844E+04;  0.0000000E+00;  6.4920086E-01;  4.0000000E+04;  0.0000000E+00;  4.0061141E+04; -2.9577535E-01;  0.0000000E+00;  2.9918632E-02;  8.2836699E+03;
  3.2511771E-01;  9.9999998E-03;  2.1979925E-01;4450; -9.9123046E-02;  0.0000000E+00;  6.3993870E-03;  9.9297284E+02;  1.0000000E-01; -5.8218594E+03;3;  4.5849109E-01;  0.0000000E+00; -2.2032287E+00;0; -2.6843271E-01;  3.9382180E+04;  0.0000000E+00;  6.8673748E-01;  4.0000000E+04;  0.0000000E+00;  4.0061801E+04; -2.9962695E-01;  0.0000000E+00;  3.1194238E-02;  8.3945762E+03;
  3.2504606E-01;  9.9999998E-03;  2.2978318E-01;4451; -9.9017896E-02;  0.0000000E+00;  6.7407899E-03;  9.9284332E+02;  1.0000000E-01; -5.9291650E+03;3;  4.6282244E-01;  0.0000000E+00; -2.1905091E+00;0; -2.7085239E-01;  3.9369867E+04;  0.0000000E+00;  6.4053518E-01;  4.0000000E+04;  0.0000000E+00;  4.0065035E+04; -3.0383044E-01;  0.0000000E+00;  3.2978043E-02;  8.7929463E+03;
  3.3519417E-01;  9.9999998E-03;  6.9940113E-02;4496; -1.0610600E-01;  0.0000000E+00;  1.6491291E-03;  9.9610352E+02;  1.0000000E-01; -3.2281553E+03;3;  5.1359725E-01;  0.0000000E+00; -9.8654777E-01;0; -2.3916547E-01;  3.9639590E+04;  0.0000000E+00; -4.3887824E-02;  4.0000000E+04;  0.0000000E+00;  4.0050934E+04; -2.6570395E-01;  0.0000000E+00;  2.6538473E-02;  6.7100854E+03;
  3.3520451E-01;  9.9999998E-03;  7.9936706E-02;4497; -1.0593659E-01;  0.0000000E+00;  1.8955498E-03;  9.9634271E+02;  1.0000000E-01; -3.0299880E+03;3;  4.9120390E-01;  0.0000000E+00; -1.1242900E+00;0; -2.3921476E-01;  3.9659082E+04;  0.0000000E+00; -6.7335211E-02;  4.0000000E+04;  0.0000000E+00;  4.0050500E+04; -2.6636976E-01;  0.0000000E+00;  2.7155001E-02;  6.6327930E+03;
  3.3521697E-01;  9.9999998E-03;  8.9934558E-02;4498; -1.0572544E-01;  0.0000000E+00;  2.1689814E-03;  9.9654681E+02;  1.0000000E-01; -2.8609065E+03;3;  4.6699739E-01;  0.0000000E+00; -1.2597039E+00;0; -2.3948370E-01;  3.9674996E+04;  0.0000000E+00; -9.7070545E-02;  4.0000000E+04;  0.0000000E+00;  4.0050934E+04; -2.6725158E-01;  0.0000000E+00;  2.7767884E-02;  6.6732837E+03;
  3.3523142E-01;  9.9999998E-03;  9.9933259E-02;4499; -1.0547186E-01;  0.0000000E+00;  2.4750775E-03;  9.9669678E+02;  1.0000000E-01; -2.7366631E+03;3;  4.4206074E-01;  0.0000000E+00; -1.3917156E+00;0; -2.4002361E-01;  3.9685754E+04;  0.0000000E+00; -1.3201229E-01;  4.0000000E+04;  0.0000000E+00;  4.0052285E+04; -2.6835623E-01;  0.0000000E+00;  2.8332619E-02;  6.8246357E+03;
  3.3524796E-01;  9.9999998E-03;  1.0993195E-01;4500; -1.0517822E-01;  0.0000000E+00;  2.8167292E-03;  9.9677191E+02;  1.0000000E-01; -2.6743933E+03;3;  4.1629401E-01;  0.0000000E+00; -1.5236603E+00;0; -2.4086851E-01;  3.9689855E+04;  0.0000000E+00; -1.6937080E-01;  4.0000000E+04;  0.0000000E+00;  4.0054211E+04; -2.6967731E-01;  0.0000000E+00;  2.8808804E-02;  7.0636182E+03;
  3.3526576E-01;  9.9999998E-03;  1.1992937E-01;4501; -1.0485002E-01;  0.0000000E+00;  3.1926171E-03;  9.9675696E+02;  1.0000000E-01; -2.6867881E+03;3;  3.9438784E-01;  0.0000000E+00; -1.6419607E+00;0; -2.4202928E-01;  3.9686680E+04;  0.0000000E+00; -2.0415527E-01;  4.0000000E+04;  0.0000000E+00;  4.0056398E+04; -2.7119634E-01;  0.0000000E+00;  2.9167056E-02;  7.3544551E+03;
  3.3528370E-01;  9.9999998E-03;  1.2992416E-01;4502; -1.0449677E-01;  0.0000000E+00;  3.5936139E-03;  9.9664618E+02;  1.0000000E-01; -2.7785879E+03;3;  3.7291938E-01;  0.0000000E+00; -1.7647502E+00;0; -2.4349277E-01;  3.9675512E+04;  0.0000000E+00; -2.2909257E-01;  4.0000000E+04;  0.0000000E+00;  4.0058777E+04; -2.7288777E-01;  0.0000000E+00;  2.9394999E-02;  7.6550483E+03;
  3.3530051E-01;  9.9999998E-03;  1.3991559E-01;4503; -1.0412998E-01;  0.0000000E+00;  4.0115276E-03;  9.9643628E+02;  1.0000000E-01; -2.9524595E+03;3;  3.5524592E-01;  0.0000000E+00; -1.8851552E+00;0; -2.4522433E-01;  3.9656742E+04;  0.0000000E+00; -2.3535469E-01;  4.0000000E+04;  0.0000000E+00;  4.0060793E+04; -2.7472442E-01;  0.0000000E+00;  2.9500103E-02;  7.9242700E+03;
  3.3531466E-01;  9.9999998E-03;  1.4990398E-01;4504; -1.0376380E-01;  0.0000000E+00;  4.4339579E-03;  9.9612891E+02;  1.0000000E-01; -3.2071189E+03;3;  3.4218368E-01;  0.0000000E+00; -1.9983135E+00;0; -2.4717565E-01;  3.9631027E+04;  0.0000000E+00; -2.1417300E-01;  4.0000000E+04;  0.0000000E+00;  4.0062250E+04; -2.7668616E-01;  0.0000000E+00;  2.9510509E-02;  8.1294092E+03;
  3.3532497E-01;  9.9999998E-03;  1.5989017E-01;4505; -1.0341258E-01;  0.0000000E+00;  4.8482413E-03;  9.9574243E+02;  1.0000000E-01; -3.5273074E+03;3;  3.4061709E-01;  0.0000000E+00; -2.0970676E+00;0; -2.4929425E-01;  3.9599477E+04;  0.0000000E+00; -1.5893409E-01;  4.0000000E+04;  0.0000000E+00;  4.0062965E+04; -2.7876636E-01;  0.0000000E+00;  2.9472107E-02;  8.2524297E+03;
  3.3532941E-01;  9.9999998E-03;  1.6987585E-01;4506; -1.0308877E-01;  0.0000000E+00;  5.2425703E-03;  9.9529712E+02;  1.0000000E-01; -3.8962351E+03;3;  3.5101449E-01;  0.0000000E+00; -2.1778052E+00;0; -2.5152957E-01;  3.9564023E+04;  0.0000000E+00; -6.7532115E-02;  4.0000000E+04;  0.0000000E+00;  4.0063078E+04; -2.8097552E-01;  0.0000000E+00;  2.9445937E-02;  8.2945654E+03;
  3.3532670E-01;  9.9999998E-03;  1.7986235E-01;4507; -1.0280224E-01;  0.0000000E+00;  5.6169531E-03;  9.9481976E+02;  1.0000000E-01; -4.2917300E+03;3;  3.7630811E-01;  0.0000000E+00; -2.2397158E+00;0; -2.5383180E-01;  3.9526887E+04;  0.0000000E+00;  5.5588573E-02;  4.0000000E+04;  0.0000000E+00;  4.0062582E+04; -2.8333610E-01;  0.0000000E+00;  2.9504292E-02;  8.2751777E+03;
  3.3531564E-01;  9.9999998E-03;  1.8985061E-01;4508; -1.0255980E-01;  0.0000000E+00;  5.9679993E-03;  9.9434558E+02;  1.0000000E-01; -4.6845586E+03;3;  4.1007340E-01;  0.0000000E+00; -2.3023312E+00;0; -2.5614935E-01;  3.9490250E+04;  0.0000000E+00;  1.9911027E-01;  4.0000000E+04;  0.0000000E+00;  4.0061777E+04; -2.8587252E-01;  0.0000000E+00;  2.9723169E-02;  8.2224668E+03;
  3.3529553E-01;  9.9999998E-03;  1.9984122E-01;4509; -1.0236354E-01;  0.0000000E+00;  6.2949588E-03;  9.9390460E+02;  1.0000000E-01; -5.0499307E+03;3;  4.5469904E-01;  0.0000000E+00; -2.3612115E+00;0; -2.5843266E-01;  3.9456152E+04;  0.0000000E+00;  3.4625563E-01;  4.0000000E+04;  0.0000000E+00;  4.0060977E+04; -2.8860754E-01;  0.0000000E+00;  3.0174881E-02;  8.1585752E+03;
  3.3526850E-01;  9.9999998E-03;  2.0983277E-01;4510; -1.0221095E-01;  0.0000000E+00;  6.5976083E-03;  9.9351715E+02;  1.0000000E-01; -5.3709092E+03;3;  5.1237792E-01;  0.0000000E+00; -2.4134667E+00;0; -2.6063535E-01;  3.9426668E+04;  0.0000000E+00;  4.7467151E-01;  4.0000000E+04;  0.0000000E+00;  4.0060137E+04; -2.9155135E-01;  0.0000000E+00;  3.0916004E-02;  8.1009702E+03;
  3.3523646E-01;  9.9999998E-03;  2.1982217E-01;4511; -1.0209409E-01;  0.0000000E+00;  6.8889079E-03;  9.9320813E+02;  1.0000000E-01; -5.6269517E+03;3;  5.8101469E-01;  0.0000000E+00; -2.4586287E+00;0; -2.6271519E-01;  3.9402938E+04;  0.0000000E+00;  5.5982155E-01;  4.0000000E+04;  0.0000000E+00;  4.0059836E+04; -2.9470763E-01;  0.0000000E+00;  3.1992428E-02;  8.1077798E+03;
  3.3519229E-01;  9.9999998E-03;  2.2980729E-01;4512; -1.0199451E-01;  0.0000000E+00;  7.2080931E-03;  9.9300110E+02;  1.0000000E-01; -5.7984526E+03;3;  6.4931512E-01;  0.0000000E+00; -2.4972432E+00;0; -2.6455683E-01;  3.9385754E+04;  0.0000000E+00;  5.8240891E-01;  4.0000000E+04;  0.0000000E+00;  4.0061555E+04; -2.9807997E-01;  0.0000000E+00;  3.3523135E-02;  8.3309541E+03;
  3.4524366E-01;  9.9999998E-03;  6.9935635E-02;4557; -1.0870606E-01;  0.0000000E+00;  1.8122103E-03;  9.9575702E+02;  1.0000000E-01; -3.5152090E+03;3;  6.6419399E-01;  0.0000000E+00; -1.0821525E+00;0; -2.3794290E-01;  3.9613836E+04;  0.0000000E+00; -2.5404548E-02;  4.0000000E+04;  0.0000000E+00;  4.0049316E+04; -2.6569882E-01;  0.0000000E+00;  2.7755918E-02;  6.5358618E+03;
  3.4524244E-01;  9.9999998E-03;  7.9931319E-02;4558; -1.0852748E-01;  0.0000000E+00;  2.0622220E-03;  9.9601129E+02;  1.0000000E-01; -3.3045483E+03;3;  6.3891017E-01;  0.0000000E+00; -1.2226815E+00;0; -2.3781036E-01;  3.9635055E+04;  0.0000000E+00; -4.5700133E-02;  4.0000000E+04;  0.0000000E+00;  4.0048453E+04; -2.6611370E-01;  0.0000000E+00;  2.8303340E-02;  6.4034648E+03;
  3.4524387E-01;  9.9999998E-03;  8.9928463E-02;4559; -1.0831565E-01;  0.0000000E+00;  2.3340194E-03;  9.9624225E+02;  1.0000000E-01; -3.1132451E+03;3;  6.1199719E-01;  0.0000000E+00; -1.3658841E+00;0; -2.3786154E-01;  3.9653387E+04;  0.0000000E+00; -7.3240779E-02;  4.0000000E+04;  0.0000000E+00;  4.0048395E+04; -2.6673809E-01;  0.0000000E+00;  2.8876549E-02;  6.3814419E+03;
  3.4524846E-01;  9.9999998E-03;  9.9926747E-02;4560; -1.0807061E-01;  0.0000000E+00;  2.6358047E-03;  9.9642780E+02;  1.0000000E-01; -2.9595210E+03;3;  5.8439285E-01;  0.0000000E+00; -1.5057133E+00;0; -2.3815158E-01;  3.9667414E+04;  0.0000000E+00; -1.0756374E-01;  4.0000000E+04;  0.0000000E+00;  4.0049203E+04; -2.6758429E-01;  0.0000000E+00;  2.9432714E-02;  6.4682290E+03;
  3.4525636E-01;  9.9999998E-03;  1.0992556E-01;4561; -1.0779452E-01;  0.0000000E+00;  2.9724813E-03;  9.9654755E+02;  1.0000000E-01; -2.8603140E+03;3;  5.5410242E-01;  0.0000000E+00; -1.6521161E+00;0; -2.3872216E-01;  3.9675617E+04;  0.0000000E+00; -1.4673437E-01;  4.0000000E+04;  0.0000000E+00;  4.0050730E+04; -2.6865011E-01;  0.0000000E+00;  2.9927948E-02;  6.6477397E+03;
  3.4526715E-01;  9.9999998E-03;  1.1992386E-01;4562; -1.0749184E-01;  0.0000000E+00;  3.3450525E-03;  9.9659100E+02;  1.0000000E-01; -2.8242656E+03;3;  5.2712154E-01;  0.0000000E+00; -1.7868404E+00;0; -2.3959574E-01;  3.9677109E+04;  0.0000000E+00; -1.8687133E-01;  4.0000000E+04;  0.0000000E+00;  4.0052699E+04; -2.6992038E-01;  0.0000000E+00;  3.0324636E-02;  6.8917773E+03;
  3.4527943E-01;  9.9999998E-03;  1.2992042E-01;4563; -1.0717016E-01;  0.0000000E+00;  3.7473787E-03;  9.9654138E+02;  1.0000000E-01; -2.8654001E+03;3;  5.0228173E-01;  0.0000000E+00; -1.9176509E+00;0; -2.4077222E-01;  3.9671168E+04;  0.0000000E+00; -2.2191365E-01;  4.0000000E+04;  0.0000000E+00;  4.0054805E+04; -2.7137017E-01;  0.0000000E+00;  3.0597949E-02;  7.1646270E+03;
  3.4529275E-01;  9.9999998E-03;  1.3991430E-01;4564; -1.0683884E-01;  0.0000000E+00;  4.1727833E-03;  9.9639874E+02;  1.0000000E-01; -2.9835698E+03;3;  4.8180857E-01;  0.0000000E+00; -2.0453186E+00;0; -2.4222949E-01;  3.9657852E+04;  0.0000000E+00; -2.4393858E-01;  4.0000000E+04;  0.0000000E+00;  4.0056852E+04; -2.7296984E-01;  0.0000000E+00;  3.0740354E-02;  7.4291035E+03;
  3.4530652E-01;  9.9999998E-03;  1.4990550E-01;4565; -1.0650980E-01;  0.0000000E+00;  4.6098731E-03;  9.9616077E+02;  1.0000000E-01; -3.1807493E+03;3;  4.6424249E-01;  0.0000000E+00; -2.1687260E+00;0; -2.4392714E-01;  3.9637480E+04;  0.0000000E+00; -2.4429733E-01;  4.0000000E+04;  0.0000000E+00;  4.0058453E+04; -2.7469054E-01;  0.0000000E+00;  3.0763406E-02;  7.6532354E+03;
  3.4532014E-01;  9.9999998E-03;  1.5989479E-01;4566; -1.0619481E-01;  0.0000000E+00;  5.0459038E-03;  9.9584143E+02;  1.0000000E-01; -3.4452849E+03;3;  4.5845219E-01;  0.0000000E+00; -2.2743013E+00;0; -2.4581584E-01;  3.9610977E+04;  0.0000000E+00; -2.1539651E-01;  4.0000000E+04;  0.0000000E+00;  4.0059594E+04; -2.7651513E-01;  0.0000000E+00;  3.0699275E-02;  7.8162437E+03;
  3.4533170E-01;  9.9999998E-03;  1.6988347E-01;4567; -1.0590440E-01;  0.0000000E+00;  5.4713008E-03;  9.9545758E+02;  1.0000000E-01; -3.7633008E+03;3;  4.6331549E-01;  0.0000000E+00; -2.3684607E+00;0; -2.4783656E-01;  3.9579863E+04;  0.0000000E+00; -1.5292214E-01;  4.0000000E+04;  0.0000000E+00;  4.0060105E+04; -2.7843833E-01;  0.0000000E+00;  3.0601773E-02;  7.9130464E+03;
  3.4534064E-01;  9.9999998E-03;  1.7987266E-01;4568; -1.0564729E-01;  0.0000000E+00;  5.8787758E-03;  9.9502747E+02;  1.0000000E-01; -4.1196362E+03;3;  4.8294258E-01;  0.0000000E+00; -2.4457235E+00;0; -2.4992391E-01;  3.9546059E+04;  0.0000000E+00; -5.8051672E-02;  4.0000000E+04;  0.0000000E+00;  4.0060137E+04; -2.8046674E-01;  0.0000000E+00;  3.0542813E-02;  7.9540020E+03;
  3.4534594E-01;  9.9999998E-03;  1.8986347E-01;4569; -1.0542886E-01;  0.0000000E+00;  6.2612193E-03;  9.9458563E+02;  1.0000000E-01; -4.4857002E+03;3;  5.1299292E-01;  0.0000000E+00; -2.5147378E+00;0; -2.5200880E-01;  3.9511266E+04;  0.0000000E+00;  6.1640751E-02;  4.0000000E+04;  0.0000000E+00;  4.0059875E+04; -2.8261325E-01;  0.0000000E+00;  3.0604441E-02;  7.9566460E+03;
  3.4534749E-01;  9.9999998E-03;  1.9985679E-01;4570; -1.0524999E-01;  0.0000000E+00;  6.6164928E-03;  9.9415381E+02;  1.0000000E-01; -4.8434678E+03;3;  5.5504072E-01;  0.0000000E+00; -2.5770504E+00;0; -2.5402141E-01;  3.9477746E+04;  0.0000000E+00;  1.9304836E-01;  4.0000000E+04;  0.0000000E+00;  4.0059391E+04; -2.8489083E-01;  0.0000000E+00;  3.0869426E-02;  7.9291143E+03;
  3.4534547E-01;  9.9999998E-03;  2.0985173E-01;4571; -1.0510816E-01;  0.0000000E+00;  6.9427988E-03;  9.9375525E+02;  1.0000000E-01; -5.1736807E+03;3;  6.0904557E-01;  0.0000000E+00; -2.6381664E+00;0; -2.5589588E-01;  3.9447262E+04;  0.0000000E+00;  3.2003200E-01;  4.0000000E+04;  0.0000000E+00;  4.0058438E+04; -2.8730518E-01;  0.0000000E+00;  3.1409290E-02;  7.8650186E+03;
  3.4533769E-01;  9.9999998E-03;  2.1984474E-01;4572; -1.0499477E-01;  0.0000000E+00;  7.2401008E-03;  9.9340991E+02;  1.0000000E-01; -5.4597466E+03;3;  6.7659229E-01;  0.0000000E+00; -2.6883843E+00;0; -2.5758970E-01;  3.9421105E+04;  0.0000000E+00;  4.2508087E-01;  4.0000000E+04;  0.0000000E+00;  4.0057578E+04; -2.8985712E-01;  0.0000000E+00;  3.2267407E-02;  7.7922109E+03;
  3.4531736E-01;  9.9999998E-03;  2.2983220E-01;4573; -1.0489364E-01;  0.0000000E+00;  7.5301481E-03;  9.9314362E+02;  1.0000000E-01; -5.6803823E+03;3;  7.5622463E-01;  0.0000000E+00; -2.7353437E+00;0; -2.5903803E-01;  3.9400340E+04;  0.0000000E+00;  4.9041590E-01;  4.0000000E+04;  0.0000000E+00;  4.0057840E+04; -2.9253840E-01;  0.0000000E+00;  3.3500366E-02;  7.8565718E+03;
  3.5529706E-01;  9.9999998E-03;  6.9932587E-02;4618; -1.1133943E-01;  0.0000000E+00;  1.9744772E-03;  9.9535529E+02;  1.0000000E-01; -3.8480391E+03;3;  8.2666647E-01;  0.0000000E+00; -1.1757580E+00;0; -2.3689011E-01;  3.9584090E+04;  0.0000000E+00; -1.4455329E-03;  4.0000000E+04;  0.0000000E+00;  4.0047340E+04; -2.6567408E-01;  0.0000000E+00;  2.8783981E-02;  6.3180967E+03;
  3.5528591E-01;  9.9999998E-03;  7.9928041E-02;4619; -1.1114381E-01;  0.0000000E+00;  2.2281299E-03;  9.9560663E+02;  1.0000000E-01; -3.6398474E+03;3;  7.9975981E-01;  0.0000000E+00; -1.3310405E+00;0; -2.3661384E-01;  3.9605336E+04;  0.0000000E+00; -1.6804760E-02;  4.0000000E+04;  0.0000000E+00;  4.0046156E+04; -2.6585177E-01;  0.0000000E+00;  2.9237920E-02;  6.1397046E+03;
  3.5527796E-01;  9.9999998E-03;  8.9924790E-02;4620; -1.1092285E-01;  0.0000000E+00;  2.4983557E-03;  9.9584265E+02;  1.0000000E-01; -3.4442974E+03;3;  7.6898736E-01;  0.0000000E+00; -1.4805146E+00;0; -2.3648489E-01;  3.9624500E+04;  0.0000000E+00; -4.0200591E-02;  4.0000000E+04;  0.0000000E+00;  4.0045590E+04; -2.6622599E-01;  0.0000000E+00;  2.9741107E-02;  6.0620576E+03;
  3.5527363E-01;  9.9999998E-03;  9.9922605E-02;4621; -1.1067745E-01;  0.0000000E+00;  2.7940564E-03;  9.9604224E+02;  1.0000000E-01; -3.2789194E+03;3;  7.3709023E-01;  0.0000000E+00; -1.6302888E+00;0; -2.3656088E-01;  3.9640117E+04;  0.0000000E+00; -7.1622372E-02;  4.0000000E+04;  0.0000000E+00;  4.0045883E+04; -2.6681447E-01;  0.0000000E+00;  3.0253597E-02;  6.0878296E+03;
  3.5527357E-01;  9.9999998E-03;  1.0992101E-01;4622; -1.1040996E-01;  0.0000000E+00;  3.1219625E-03;  9.9619171E+02;  1.0000000E-01; -3.1550710E+03;3;  7.0233715E-01;  0.0000000E+00; -1.7876048E+00;0; -2.3689012E-01;  3.9651078E+04;  0.0000000E+00; -1.0969679E-01;  4.0000000E+04;  0.0000000E+00;  4.0047000E+04; -2.6762015E-01;  0.0000000E+00;  3.0730026E-02;  6.2070532E+03;
  3.5527733E-01;  9.9999998E-03;  1.1991927E-01;4623; -1.1012400E-01;  0.0000000E+00;  3.4851753E-03;  9.9627521E+02;  1.0000000E-01; -3.0859373E+03;3;  6.7185032E-01;  0.0000000E+00; -1.9282169E+00;0; -2.3750396E-01;  3.9656242E+04;  0.0000000E+00; -1.5129137E-01;  4.0000000E+04;  0.0000000E+00;  4.0048441E+04; -2.6863122E-01;  0.0000000E+00;  3.1127263E-02;  6.3987544E+03;
  3.5528404E-01;  9.9999998E-03;  1.2991634E-01;4624; -1.0982586E-01;  0.0000000E+00;  3.8801560E-03;  9.9627972E+02;  1.0000000E-01; -3.0821841E+03;3;  6.4250016E-01;  0.0000000E+00; -2.0684643E+00;0; -2.3841400E-01;  3.9654680E+04;  0.0000000E+00; -1.9125448E-01;  4.0000000E+04;  0.0000000E+00;  4.0050457E+04; -2.6982513E-01;  0.0000000E+00;  3.1411130E-02;  6.6342622E+03;
  3.5529414E-01;  9.9999998E-03;  1.3991152E-01;4625; -1.0952321E-01;  0.0000000E+00;  4.3017124E-03;  9.9619531E+02;  1.0000000E-01; -3.1521082E+03;3;  6.1671597E-01;  0.0000000E+00; -2.2053576E+00;0; -2.3961027E-01;  3.9646324E+04;  0.0000000E+00; -2.2252710E-01;  4.0000000E+04;  0.0000000E+00;  4.0052383E+04; -2.7117205E-01;  0.0000000E+00;  3.1561773E-02;  6.8817446E+03;
  3.5530752E-01;  9.9999998E-03;  1.4990470E-01;4626; -1.0922550E-01;  0.0000000E+00;  4.7400305E-03;  9.9602710E+02;  1.0000000E-01; -3.2914622E+03;3;  5.9760225E-01;  0.0000000E+00; -2.3320379E+00;0; -2.4106306E-01;  3.9631059E+04;  0.0000000E+00; -2.3691019E-01;  4.0000000E+04;  0.0000000E+00;  4.0054039E+04; -2.7264014E-01;  0.0000000E+00;  3.1577088E-02;  7.1122681E+03;
  3.5532331E-01;  9.9999998E-03;  1.5989637E-01;4627; -1.0894150E-01;  0.0000000E+00;  5.1845894E-03;  9.9577460E+02;  1.0000000E-01; -3.5006414E+03;3;  5.8740860E-01;  0.0000000E+00; -2.4482653E+00;0; -2.4272643E-01;  3.9609891E+04;  0.0000000E+00; -2.2664981E-01;  4.0000000E+04;  0.0000000E+00;  4.0055496E+04; -2.7420330E-01;  0.0000000E+00;  3.1476874E-02;  7.3051831E+03;
  3.5534036E-01;  9.9999998E-03;  1.6988768E-01;4628; -1.0867994E-01;  0.0000000E+00;  5.6224274E-03;  9.9545929E+02;  1.0000000E-01; -3.7618687E+03;3;  5.8626354E-01;  0.0000000E+00; -2.5525584E+00;0; -2.4453866E-01;  3.9583711E+04;  0.0000000E+00; -1.8651307E-01;  4.0000000E+04;  0.0000000E+00;  4.0056348E+04; -2.7584550E-01;  0.0000000E+00;  3.1306826E-02;  7.4521914E+03;
  3.5535881E-01;  9.9999998E-03;  1.7987967E-01;4629; -1.0844790E-01;  0.0000000E+00;  6.0440279E-03;  9.9508832E+02;  1.0000000E-01; -4.0692180E+03;3;  5.9779143E-01;  0.0000000E+00; -2.6460266E+00;0; -2.4642482E-01;  3.9554023E+04;  0.0000000E+00; -1.1581177E-01;  4.0000000E+04;  0.0000000E+00;  4.0056996E+04; -2.7756062E-01;  0.0000000E+00;  3.1135799E-02;  7.5570142E+03;
  3.5537764E-01;  9.9999998E-03;  1.8987341E-01;4630; -1.0824895E-01;  0.0000000E+00;  6.4437967E-03;  9.9469440E+02;  1.0000000E-01; -4.3955791E+03;3;  6.2173182E-01;  0.0000000E+00; -2.7229638E+00;0; -2.4830192E-01;  3.9522449E+04;  0.0000000E+00; -1.9514721E-02;  4.0000000E+04;  0.0000000E+00;  4.0057418E+04; -2.7935028E-01;  0.0000000E+00;  3.1048357E-02;  7.6272715E+03;
  3.5539553E-01;  9.9999998E-03;  1.9986977E-01;4631; -1.0808301E-01;  0.0000000E+00;  6.8133185E-03;  9.9429480E+02;  1.0000000E-01; -4.7266313E+03;3;  6.5720630E-01;  0.0000000E+00; -2.7952478E+00;0; -2.5008717E-01;  3.9490898E+04;  0.0000000E+00;  9.2224717E-02;  4.0000000E+04;  0.0000000E+00;  4.0057211E+04; -2.8121966E-01;  0.0000000E+00;  3.1132484E-02;  7.6577422E+03;
  3.5540986E-01;  9.9999998E-03;  2.0986797E-01;4632; -1.0794637E-01;  0.0000000E+00;  7.1505508E-03;  9.9390723E+02;  1.0000000E-01; -5.0477583E+03;3;  7.0630449E-01;  0.0000000E+00; -2.8565302E+00;0; -2.5170374E-01;  3.9460977E+04;  0.0000000E+00;  2.0599225E-01;  4.0000000E+04;  0.0000000E+00;  4.0056758E+04; -2.8317180E-01;  0.0000000E+00;  3.1468078E-02;  7.6217871E+03;
  3.5541582E-01;  9.9999998E-03;  2.1986437E-01;4633; -1.0783090E-01;  0.0000000E+00;  7.4471622E-03;  9.9354779E+02;  1.0000000E-01; -5.3455273E+03;3;  7.6723683E-01;  0.0000000E+00; -2.9129376E+00;0; -2.5310957E-01;  3.9434020E+04;  0.0000000E+00;  3.0748397E-01;  4.0000000E+04;  0.0000000E+00;  4.0055578E+04; -2.8520626E-01;  0.0000000E+00;  3.2096699E-02;  7.5181494E+03;
  3.5540602E-01;  9.9999998E-03;  2.2985464E-01;4634; -1.0772303E-01;  0.0000000E+00;  7.7077416E-03;  9.9324615E+02;  1.0000000E-01; -5.5954463E+03;3;  8.4106201E-01;  0.0000000E+00; -2.9605327E+00;0; -2.5430283E-01;  3.9411023E+04;  0.0000000E+00;  3.8361138E-01;  4.0000000E+04;  0.0000000E+00;  4.0054914E+04; -2.8731778E-01;  0.0000000E+00;  3.3014949E-02;  7.4702637E+03;
  3.6535746E-01;  9.9999998E-03;  6.9932126E-02;4679; -1.1400768E-01;  0.0000000E+00;  2.1287049E-03;  9.9493231E+02;  1.0000000E-01; -4.1984980E+03;3;  1.0039147E+00;  0.0000000E+00; -1.2712027E+00;0; -2.3586339E-01;  3.9552914E+04;  0.0000000E+00;  2.2930605E-02;  4.0000000E+04;  0.0000000E+00;  4.0045160E+04; -2.6548275E-01;  0.0000000E+00;  2.9619368E-02;  6.0694395E+03;
  3.6533776E-01;  9.9999998E-03;  7.9928041E-02;4680; -1.1378907E-01;  0.0000000E+00;  2.3874403E-03;  9.9516089E+02;  1.0000000E-01; -4.0091208E+03;3;  9.7205830E-01;  0.0000000E+00; -1.4389963E+00;0; -2.3549296E-01;  3.9572574E+04;  0.0000000E+00;  1.4064316E-02;  4.0000000E+04;  0.0000000E+00;  4.0043539E+04; -2.6545629E-01;  0.0000000E+00;  2.9963333E-02;  5.8577021E+03;
  3.6532167E-01;  9.9999998E-03;  8.9924783E-02;4681; -1.1355186E-01;  0.0000000E+00;  2.6565136E-03;  9.9538208E+02;  1.0000000E-01; -3.8258667E+03;3;  9.3806529E-01;  0.0000000E+00; -1.5949674E+00;0; -2.3523614E-01;  3.9590863E+04;  0.0000000E+00; -3.1446563E-03;  4.0000000E+04;  0.0000000E+00;  4.0042672E+04; -2.6560962E-01;  0.0000000E+00;  3.0373480E-02;  5.7356826E+03;
  3.6530995E-01;  9.9999998E-03;  9.9922277E-02;4682; -1.1329842E-01;  0.0000000E+00;  2.9457894E-03;  9.9558228E+02;  1.0000000E-01; -3.6599949E+03;3;  9.0206337E-01;  0.0000000E+00; -1.7546848E+00;0; -2.3515028E-01;  3.9606812E+04;  0.0000000E+00; -2.9168433E-02;  4.0000000E+04;  0.0000000E+00;  4.0042570E+04; -2.6596400E-01;  0.0000000E+00;  3.0813722E-02;  5.7091631E+03;
  3.6530298E-01;  9.9999998E-03;  1.0992014E-01;4683; -1.1303134E-01;  0.0000000E+00;  3.2633329E-03;  9.9574194E+02;  1.0000000E-01; -3.5277024E+03;3;  8.6252719E-01;  0.0000000E+00; -1.9206696E+00;0; -2.3528762E-01;  3.9618941E+04;  0.0000000E+00; -6.3139088E-02;  4.0000000E+04;  0.0000000E+00;  4.0043211E+04; -2.6652694E-01;  0.0000000E+00;  3.1239320E-02;  5.7733540E+03;
  3.6529988E-01;  9.9999998E-03;  1.1991771E-01;4684; -1.1275394E-01;  0.0000000E+00;  3.6128529E-03;  9.9584778E+02;  1.0000000E-01; -3.4400505E+03;3;  8.2526022E-01;  0.0000000E+00; -2.0753887E+00;0; -2.3568606E-01;  3.9626215E+04;  0.0000000E+00; -1.0251270E-01;  4.0000000E+04;  0.0000000E+00;  4.0044430E+04; -2.6729020E-01;  0.0000000E+00;  3.1604137E-02;  5.9139263E+03;
  3.6530152E-01;  9.9999998E-03;  1.2991442E-01;4685; -1.1247153E-01;  0.0000000E+00;  3.9924206E-03;  9.9588922E+02;  1.0000000E-01; -3.4056812E+03;3;  7.9106569E-01;  0.0000000E+00; -2.2204986E+00;0; -2.3636730E-01;  3.9628027E+04;  0.0000000E+00; -1.4285244E-01;  4.0000000E+04;  0.0000000E+00;  4.0045871E+04; -2.6823521E-01;  0.0000000E+00;  3.1867910E-02;  6.1089536E+03;
  3.6530861E-01;  9.9999998E-03;  1.3990992E-01;4686; -1.1218998E-01;  0.0000000E+00;  4.3991865E-03;  9.9585663E+02;  1.0000000E-01; -3.4326929E+03;3;  7.5946498E-01;  0.0000000E+00; -2.3642893E+00;0; -2.3733193E-01;  3.9623598E+04;  0.0000000E+00; -1.7787381E-01;  4.0000000E+04;  0.0000000E+00;  4.0047785E+04; -2.6933366E-01;  0.0000000E+00;  3.2001726E-02;  6.3329014E+03;
  3.6532134E-01;  9.9999998E-03;  1.4990413E-01;4687; -1.1191646E-01;  0.0000000E+00;  4.8268996E-03;  9.9574438E+02;  1.0000000E-01; -3.5256777E+03;3;  7.3615354E-01;  0.0000000E+00; -2.4965143E+00;0; -2.3856048E-01;  3.9613156E+04;  0.0000000E+00; -1.9999935E-01;  4.0000000E+04;  0.0000000E+00;  4.0049355E+04; -2.7055317E-01;  0.0000000E+00;  3.1992693E-02;  6.5613809E+03;
  3.6533833E-01;  9.9999998E-03;  1.5989746E-01;4688; -1.1165792E-01;  0.0000000E+00;  5.2650566E-03;  9.9555981E+02;  1.0000000E-01; -3.6786118E+03;3;  7.1874398E-01;  0.0000000E+00; -2.6240821E+00;0; -2.4001366E-01;  3.9596992E+04;  0.0000000E+00; -2.0179825E-01;  4.0000000E+04;  0.0000000E+00;  4.0051012E+04; -2.7186424E-01;  0.0000000E+00;  3.1850576E-02;  6.7760508E+03;
  3.6535951E-01;  9.9999998E-03;  1.6989082E-01;4689; -1.1142083E-01;  0.0000000E+00;  5.6996653E-03;  9.9530688E+02;  1.0000000E-01; -3.8881367E+03;3;  7.1137542E-01;  0.0000000E+00; -2.7402706E+00;0; -2.4163049E-01;  3.9575672E+04;  0.0000000E+00; -1.7797846E-01;  4.0000000E+04;  0.0000000E+00;  4.0052449E+04; -2.7324334E-01;  0.0000000E+00;  3.1612851E-02;  6.9676089E+03;
  3.6538470E-01;  9.9999998E-03;  1.7988534E-01;4690; -1.1120941E-01;  0.0000000E+00;  6.1216331E-03;  9.9500427E+02;  1.0000000E-01; -4.1388457E+03;3;  7.1652496E-01;  0.0000000E+00; -2.8401291E+00;0; -2.4333160E-01;  3.9550500E+04;  0.0000000E+00; -1.2716252E-01;  4.0000000E+04;  0.0000000E+00;  4.0053578E+04; -2.7467477E-01;  0.0000000E+00;  3.1343173E-02;  7.1351138E+03;
  3.6541146E-01;  9.9999998E-03;  1.8988186E-01;4691; -1.1102611E-01;  0.0000000E+00;  6.5215067E-03;  9.9466589E+02;  1.0000000E-01; -4.4191831E+03;3;  7.3203731E-01;  0.0000000E+00; -2.9291565E+00;0; -2.4502893E-01;  3.9522812E+04;  0.0000000E+00; -5.2790757E-02;  4.0000000E+04;  0.0000000E+00;  4.0054520E+04; -2.7615261E-01;  0.0000000E+00;  3.1123685E-02;  7.2779766E+03;
  3.6543646E-01;  9.9999998E-03;  1.9988082E-01;4692; -1.1086861E-01;  0.0000000E+00;  6.8926243E-03;  9.9430945E+02;  1.0000000E-01; -4.7145332E+03;3;  7.6088870E-01;  0.0000000E+00; -3.0030046E+00;0; -2.4663121E-01;  3.9494199E+04;  0.0000000E+00;  3.7200410E-02;  4.0000000E+04;  0.0000000E+00;  4.0055113E+04; -2.7767465E-01;  0.0000000E+00;  3.1043440E-02;  7.3802227E+03;
  3.6545616E-01;  9.9999998E-03;  2.0988140E-01;4693; -1.1073357E-01;  0.0000000E+00;  7.2275773E-03;  9.9395203E+02;  1.0000000E-01; -5.0106235E+03;3;  8.0156779E-01;  0.0000000E+00; -3.0724137E+00;0; -2.4805966E-01;  3.9466000E+04;  0.0000000E+00;  1.3181823E-01;  4.0000000E+04;  0.0000000E+00;  4.0055031E+04; -2.7924147E-01;  0.0000000E+00;  3.1181814E-02;  7.4015898E+03;
  3.6546457E-01;  9.9999998E-03;  2.1988028E-01;4694; -1.1061307E-01;  0.0000000E+00;  7.5178249E-03;  9.9360236E+02;  1.0000000E-01; -5.3003438E+03;3;  8.5520035E-01;  0.0000000E+00; -3.1273999E+00;0; -2.4927287E-01;  3.9439297E+04;  0.0000000E+00;  2.1879953E-01;  4.0000000E+04;  0.0000000E+00;  4.0054082E+04; -2.8085196E-01;  0.0000000E+00;  3.1579088E-02;  7.3168760E+03;
  3.6545438E-01;  9.9999998E-03;  2.2987348E-01;4695; -1.1049598E-01;  0.0000000E+00;  7.7550905E-03;  9.9328375E+02;  1.0000000E-01; -5.5642866E+03;3;  9.2438871E-01;  0.0000000E+00; -3.1611545E+00;0; -2.5031385E-01;  3.9415324E+04;  0.0000000E+00;  2.8638443E-01;  4.0000000E+04;  0.0000000E+00;  4.0052859E+04; -2.8250310E-01;  0.0000000E+00;  3.2189261E-02;  7.2062256E+03;
  3.7542456E-01;  9.9999998E-03;  6.9934092E-02;4740; -1.1670712E-01;  0.0000000E+00;  2.2668706E-03;  9.9452014E+02;  1.0000000E-01; -4.5399702E+03;3;  1.1955274E+00;  0.0000000E+00; -1.3683840E+00;0; -2.3471746E-01;  3.9522688E+04;  0.0000000E+00;  4.3873325E-02;  4.0000000E+04;  0.0000000E+00;  4.0042562E+04; -2.6497933E-01;  0.0000000E+00;  3.0261876E-02;  5.8030215E+03;
  3.7539959E-01;  9.9999998E-03;  7.9930700E-02;4741; -1.1646225E-01;  0.0000000E+00;  2.5312172E-03;  9.9471198E+02;  1.0000000E-01; -4.3810117E+03;3;  1.1578604E+00;  0.0000000E+00; -1.5459599E+00;0; -2.3431139E-01;  3.9539598E+04;  0.0000000E+00;  4.2337228E-02;  4.0000000E+04;  0.0000000E+00;  4.0040895E+04; -2.6480061E-01;  0.0000000E+00;  3.0489225E-02;  5.5732490E+03;
  3.7537715E-01;  9.9999998E-03;  8.9928135E-02;4742; -1.1620405E-01;  0.0000000E+00;  2.7999228E-03;  9.9490326E+02;  1.0000000E-01; -4.2225469E+03;3;  1.1178203E+00;  0.0000000E+00; -1.7224344E+00;0; -2.3398834E-01;  3.9555707E+04;  0.0000000E+00;  3.2896101E-02;  4.0000000E+04;  0.0000000E+00;  4.0039910E+04; -2.6478118E-01;  0.0000000E+00;  3.0792829E-02;  5.4211099E+03;
  3.7535888E-01;  9.9999998E-03;  9.9925809E-02;4743; -1.1593661E-01;  0.0000000E+00;  3.0834472E-03;  9.9508209E+02;  1.0000000E-01; -4.0744031E+03;3;  1.0745615E+00;  0.0000000E+00; -1.8945825E+00;0; -2.3380288E-01;  3.9570289E+04;  0.0000000E+00;  1.4509780E-02;  4.0000000E+04;  0.0000000E+00;  4.0039410E+04; -2.6494417E-01;  0.0000000E+00;  3.1141283E-02;  5.3548667E+03;
  3.7534514E-01;  9.9999998E-03;  1.0992328E-01;4744; -1.1566313E-01;  0.0000000E+00;  3.3896100E-03;  9.9523657E+02;  1.0000000E-01; -3.9464065E+03;3;  1.0300335E+00;  0.0000000E+00; -2.0639994E+00;0; -2.3380876E-01;  3.9582164E+04;  0.0000000E+00; -1.2553137E-02;  4.0000000E+04;  0.0000000E+00;  4.0039719E+04; -2.6530099E-01;  0.0000000E+00;  3.1492226E-02;  5.3739136E+03;
  3.7533650E-01;  9.9999998E-03;  1.1992032E-01;4745; -1.1538716E-01;  0.0000000E+00;  3.7228488E-03;  9.9535040E+02;  1.0000000E-01; -3.8520884E+03;3;  9.8832500E-01;  0.0000000E+00; -2.2203619E+00;0; -2.3404811E-01;  3.9590449E+04;  0.0000000E+00; -4.6384543E-02;  4.0000000E+04;  0.0000000E+00;  4.0040418E+04; -2.6584736E-01;  0.0000000E+00;  3.1799238E-02;  5.4694795E+03;
  3.7533364E-01;  9.9999998E-03;  1.2991662E-01;4746; -1.1511298E-01;  0.0000000E+00;  4.0829415E-03;  9.9541309E+02;  1.0000000E-01; -3.8001885E+03;3;  9.4830543E-01;  0.0000000E+00; -2.3710661E+00;0; -2.3455028E-01;  3.9594102E+04;  0.0000000E+00; -8.3259419E-02;  4.0000000E+04;  0.0000000E+00;  4.0041793E+04; -2.6656902E-01;  0.0000000E+00;  3.2018736E-02;  5.6260928E+03;
  3.7533808E-01;  9.9999998E-03;  1.3991204E-01;4747; -1.1484549E-01;  0.0000000E+00;  4.4692112E-03;  9.9541339E+02;  1.0000000E-01; -3.7999417E+03;3;  9.0984356E-01;  0.0000000E+00; -2.5249474E+00;0; -2.3532349E-01;  3.9592727E+04;  0.0000000E+00; -1.1767693E-01;  4.0000000E+04;  0.0000000E+00;  4.0043363E+04; -2.6743957E-01;  0.0000000E+00;  3.2116085E-02;  5.8247476E+03;
  3.7534869E-01;  9.9999998E-03;  1.4990664E-01;4748; -1.1458962E-01;  0.0000000E+00;  4.8764036E-03;  9.9535242E+02;  1.0000000E-01; -3.8504587E+03;3;  8.7881458E-01;  0.0000000E+00; -2.6709280E+00;0; -2.3635943E-01;  3.9586051E+04;  0.0000000E+00; -1.4282745E-01;  4.0000000E+04;  0.0000000E+00;  4.0045090E+04; -2.6843038E-01;  0.0000000E+00;  3.2070950E-02;  6.0467246E+03;
  3.7536573E-01;  9.9999998E-03;  1.5990098E-01;4749; -1.1435086E-01;  0.0000000E+00;  5.2945446E-03;  9.9522107E+02;  1.0000000E-01; -3.9592458E+03;3;  8.5493553E-01;  0.0000000E+00; -2.8094933E+00;0; -2.3762582E-01;  3.9573949E+04;  0.0000000E+00; -1.5189236E-01;  4.0000000E+04;  0.0000000E+00;  4.0046895E+04; -2.6951107E-01;  0.0000000E+00;  3.1885255E-02;  6.2767578E+03;
  3.7538937E-01;  9.9999998E-03;  1.6989593E-01;4750; -1.1413272E-01;  0.0000000E+00;  5.7131830E-03;  9.9502838E+02;  1.0000000E-01; -4.1188955E+03;3;  8.4119081E-01;  0.0000000E+00; -2.9239933E+00;0; -2.3906456E-01;  3.9557324E+04;  0.0000000E+00; -1.4001879E-01;  4.0000000E+04;  0.0000000E+00;  4.0048594E+04; -2.7065346E-01;  0.0000000E+00;  3.1588897E-02;  6.5059321E+03;
  3.7541613E-01;  9.9999998E-03;  1.7989241E-01;4751; -1.1393762E-01;  0.0000000E+00;  6.1202059E-03;  9.9478931E+02;  1.0000000E-01; -4.3169639E+03;3;  8.3733261E-01;  0.0000000E+00; -3.0352550E+00;0; -2.4059992E-01;  3.9536562E+04;  0.0000000E+00; -1.0588517E-01;  4.0000000E+04;  0.0000000E+00;  4.0050195E+04; -2.7183872E-01;  0.0000000E+00;  3.1238804E-02;  6.7302769E+03;
  3.7544253E-01;  9.9999998E-03;  1.8989092E-01;4752; -1.1376560E-01;  0.0000000E+00;  6.5077073E-03;  9.9451007E+02;  1.0000000E-01; -4.5483154E+03;3;  8.4485286E-01;  0.0000000E+00; -3.1251707E+00;0; -2.4214280E-01;  3.9512945E+04;  0.0000000E+00; -5.2175466E-02;  4.0000000E+04;  0.0000000E+00;  4.0051688E+04; -2.7305397E-01;  0.0000000E+00;  3.0911181E-02;  6.9425830E+03;
  3.7546632E-01;  9.9999998E-03;  1.9989157E-01;4753; -1.1361417E-01;  0.0000000E+00;  6.8655279E-03;  9.9420374E+02;  1.0000000E-01; -4.8020859E+03;3;  8.6334419E-01;  0.0000000E+00; -3.2082775E+00;0; -2.4360365E-01;  3.9487523E+04;  0.0000000E+00;  1.4842235E-02;  4.0000000E+04;  0.0000000E+00;  4.0052887E+04; -2.7429229E-01;  0.0000000E+00;  3.0688647E-02;  7.1185425E+03;
  3.7548360E-01;  9.9999998E-03;  2.0989344E-01;4754; -1.1347950E-01;  0.0000000E+00;  7.1890284E-03;  9.9388507E+02;  1.0000000E-01; -5.0660786E+03;3;  8.9529741E-01;  0.0000000E+00; -3.2761228E+00;0; -2.4490410E-01;  3.9461590E+04;  0.0000000E+00;  8.6430982E-02;  4.0000000E+04;  0.0000000E+00;  4.0053449E+04; -2.7555010E-01;  0.0000000E+00;  3.0646002E-02;  7.2094160E+03;
  3.7548774E-01;  9.9999998E-03;  2.1989357E-01;4755; -1.1335421E-01;  0.0000000E+00;  7.4676387E-03;  9.9355682E+02;  1.0000000E-01; -5.3380708E+03;3;  9.4246292E-01;  0.0000000E+00; -3.3215873E+00;0; -2.4601012E-01;  3.9436129E+04;  0.0000000E+00;  1.5260862E-01;  4.0000000E+04;  0.0000000E+00;  4.0052918E+04; -2.7682623E-01;  0.0000000E+00;  3.0816102E-02;  7.1756802E+03;
  3.7547448E-01;  9.9999998E-03;  2.2988854E-01;4756; -1.1323057E-01;  0.0000000E+00;  7.6898900E-03;  9.9323895E+02;  1.0000000E-01; -5.6014214E+03;3;  9.9932992E-01;  0.0000000E+00; -3.3579364E+00;0; -2.4697816E-01;  3.9412039E+04;  0.0000000E+00;  2.0377439E-01;  4.0000000E+04;  0.0000000E+00;  4.0051766E+04; -2.7811682E-01;  0.0000000E+00;  3.1138653E-02;  7.0621875E+03;
  3.8549149E-01;  9.9999998E-03;  6.9940582E-02;4801; -1.1942783E-01;  0.0000000E+00;  2.3810749E-03;  9.9415063E+02;  1.0000000E-01; -4.8460850E+03;3;  1.4002655E+00;  0.0000000E+00; -1.4672198E+00;0; -2.3332861E-01;  3.9495812E+04;  0.0000000E+00;  5.9691995E-02;  4.0000000E+04;  0.0000000E+00;  4.0040246E+04; -2.6404282E-01;  0.0000000E+00;  3.0714219E-02;  5.5322871E+03;
  3.8546640E-01;  9.9999998E-03;  7.9937108E-02;4802; -1.1915639E-01;  0.0000000E+00;  2.6518239E-03;  9.9429626E+02;  1.0000000E-01; -4.7254463E+03;3;  1.3551923E+00;  0.0000000E+00; -1.6569105E+00;0; -2.3294437E-01;  3.9508879E+04;  0.0000000E+00;  6.5293044E-02;  4.0000000E+04;  0.0000000E+00;  4.0038434E+04; -2.6377317E-01;  0.0000000E+00;  3.0828806E-02;  5.3012061E+03;
  3.8544118E-01;  9.9999998E-03;  8.9934796E-02;4803; -1.1887537E-01;  0.0000000E+00;  2.9217347E-03;  9.9444684E+02;  1.0000000E-01; -4.6007090E+03;3;  1.3090733E+00;  0.0000000E+00; -1.8446656E+00;0; -2.3261762E-01;  3.9522047E+04;  0.0000000E+00;  6.4173020E-02;  4.0000000E+04;  0.0000000E+00;  4.0037227E+04; -2.6364082E-01;  0.0000000E+00;  3.1023202E-02;  5.1351421E+03;
  3.8541865E-01;  9.9999998E-03;  9.9932715E-02;4804; -1.1859043E-01;  0.0000000E+00;  3.2004658E-03;  9.9459326E+02;  1.0000000E-01; -4.4793789E+03;3;  1.2607876E+00;  0.0000000E+00; -2.0213101E+00;0; -2.3239870E-01;  3.9534121E+04;  0.0000000E+00;  5.4754499E-02;  4.0000000E+04;  0.0000000E+00;  4.0036633E+04; -2.6366988E-01;  0.0000000E+00;  3.1271175E-02;  5.0439038E+03;
  3.8539991E-01;  9.9999998E-03;  1.0993028E-01;4805; -1.1830600E-01;  0.0000000E+00;  3.4958043E-03;  9.9472333E+02;  1.0000000E-01; -4.3716289E+03;3;  1.2093604E+00;  0.0000000E+00; -2.1990452E+00;0; -2.3233870E-01;  3.9544445E+04;  0.0000000E+00;  3.6609735E-02;  4.0000000E+04;  0.0000000E+00;  4.0036605E+04; -2.6387271E-01;  0.0000000E+00;  3.1534016E-02;  5.0303276E+03;
  3.8538682E-01;  9.9999998E-03;  1.1992711E-01;4806; -1.1802596E-01;  0.0000000E+00;  3.8126260E-03;  9.9483124E+02;  1.0000000E-01; -4.2821997E+03;3;  1.1613227E+00;  0.0000000E+00; -2.3624375E+00;0; -2.3248170E-01;  3.9552172E+04;  0.0000000E+00;  1.0855408E-02;  4.0000000E+04;  0.0000000E+00;  4.0037180E+04; -2.6424882E-01;  0.0000000E+00;  3.1767119E-02;  5.0902563E+03;
  3.8538077E-01;  9.9999998E-03;  1.2992330E-01;4807; -1.1775435E-01;  0.0000000E+00;  4.1523124E-03;  9.9489728E+02;  1.0000000E-01; -4.2274849E+03;3;  1.1134838E+00;  0.0000000E+00; -2.5233574E+00;0; -2.3285994E-01;  3.9556520E+04;  0.0000000E+00; -1.9650228E-02;  4.0000000E+04;  0.0000000E+00;  4.0038156E+04; -2.6478627E-01;  0.0000000E+00;  3.1926326E-02;  5.2141089E+03;
  3.8538131E-01;  9.9999998E-03;  1.3991889E-01;4808; -1.1749464E-01;  0.0000000E+00;  4.5131361E-03;  9.9491895E+02;  1.0000000E-01; -4.2095596E+03;3;  1.0677177E+00;  0.0000000E+00; -2.6896501E+00;0; -2.3349081E-01;  3.9556953E+04;  0.0000000E+00; -5.0357822E-02;  4.0000000E+04;  0.0000000E+00;  4.0039613E+04; -2.6546514E-01;  0.0000000E+00;  3.1974334E-02;  5.3892925E+03;
  3.8538909E-01;  9.9999998E-03;  1.4991401E-01;4809; -1.1725050E-01;  0.0000000E+00;  4.8926617E-03;  9.9488910E+02;  1.0000000E-01; -4.2342998E+03;3;  1.0286345E+00;  0.0000000E+00; -2.8443499E+00;0; -2.3437229E-01;  3.9552785E+04;  0.0000000E+00; -7.5403199E-02;  4.0000000E+04;  0.0000000E+00;  4.0041207E+04; -2.6625866E-01;  0.0000000E+00;  3.1886373E-02;  5.6026738E+03;
  3.8540518E-01;  9.9999998E-03;  1.5990923E-01;4810; -1.1702544E-01;  0.0000000E+00;  5.2843075E-03;  9.9480426E+02;  1.0000000E-01; -4.3045693E+03;3;  9.9764258E-01;  0.0000000E+00; -2.9766002E+00;0; -2.3547959E-01;  3.9544168E+04;  0.0000000E+00; -8.8838927E-02;  4.0000000E+04;  0.0000000E+00;  4.0043109E+04; -2.6713863E-01;  0.0000000E+00;  3.1659033E-02;  5.8428506E+03;
  3.8542631E-01;  9.9999998E-03;  1.6990532E-01;4811; -1.1682115E-01;  0.0000000E+00;  5.6772614E-03;  9.9466541E+02;  1.0000000E-01; -4.4196279E+03;3;  9.7389972E-01;  0.0000000E+00; -3.1080010E+00;0; -2.3676342E-01;  3.9531309E+04;  0.0000000E+00; -8.6506546E-02;  4.0000000E+04;  0.0000000E+00;  4.0045070E+04; -2.6807928E-01;  0.0000000E+00;  3.1315867E-02;  6.1016230E+03;
  3.8544858E-01;  9.9999998E-03;  1.7990294E-01;4812; -1.1663770E-01;  0.0000000E+00;  6.0580783E-03;  9.9447723E+02;  1.0000000E-01; -4.5755244E+03;3;  9.6055263E-01;  0.0000000E+00; -3.2169547E+00;0; -2.3815158E-01;  3.9514453E+04;  0.0000000E+00; -6.7346483E-02;  4.0000000E+04;  0.0000000E+00;  4.0047102E+04; -2.6905751E-01;  0.0000000E+00;  3.0905934E-02;  6.3723965E+03;
  3.8547054E-01;  9.9999998E-03;  1.8990242E-01;4813; -1.1647464E-01;  0.0000000E+00;  6.4205588E-03;  9.9425049E+02;  1.0000000E-01; -4.7633711E+03;3;  9.5754248E-01;  0.0000000E+00; -3.3191602E+00;0; -2.3956126E-01;  3.9494480E+04;  0.0000000E+00; -3.3528563E-02;  4.0000000E+04;  0.0000000E+00;  4.0049094E+04; -2.7005750E-01;  0.0000000E+00;  3.0496247E-02;  6.6422900E+03;
  3.8548902E-01;  9.9999998E-03;  1.9990367E-01;4814; -1.1632868E-01;  0.0000000E+00;  6.7557362E-03;  9.9399597E+02;  1.0000000E-01; -4.9742295E+03;3;  9.6650612E-01;  0.0000000E+00; -3.3988674E+00;0; -2.4090947E-01;  3.9472414E+04;  0.0000000E+00;  1.0097601E-02;  4.0000000E+04;  0.0000000E+00;  4.0050871E+04; -2.7106825E-01;  0.0000000E+00;  3.0158773E-02;  6.8814009E+03;
  3.8549960E-01;  9.9999998E-03;  2.0990551E-01;4815; -1.1619518E-01;  0.0000000E+00;  7.0591555E-03;  9.9371277E+02;  1.0000000E-01; -5.2088398E+03;3;  9.8991913E-01;  0.0000000E+00; -3.4579301E+00;0; -2.4212845E-01;  3.9449047E+04;  0.0000000E+00;  5.6904685E-02;  4.0000000E+04;  0.0000000E+00;  4.0051945E+04; -2.7208468E-01;  0.0000000E+00;  2.9956236E-02;  7.0385913E+03;
  3.8549846E-01;  9.9999998E-03;  2.1990551E-01;4816; -1.1606832E-01;  0.0000000E+00;  7.3232213E-03;  9.9341534E+02;  1.0000000E-01; -5.4552529E+03;3;  1.0241606E+00;  0.0000000E+00; -3.5044765E+00;0; -2.4318734E-01;  3.9425164E+04;  0.0000000E+00;  9.9486917E-02;  4.0000000E+04;  0.0000000E+00;  4.0051941E+04; -2.7310291E-01;  0.0000000E+00;  2.9915579E-02;  7.0677070E+03;
  3.8548240E-01;  9.9999998E-03;  2.2990063E-01;4817; -1.1594394E-01;  0.0000000E+00;  7.5309617E-03;  9.9311169E+02;  1.0000000E-01; -5.7068506E+03;3;  1.0702814E+00;  0.0000000E+00; -3.5426002E+00;0; -2.4416398E-01;  3.9401906E+04;  0.0000000E+00;  1.3078582E-01;  4.0000000E+04;  0.0000000E+00;  4.0051211E+04; -2.7411953E-01;  0.0000000E+00;  2.9955553E-02;  6.9983921E+03;
  3.9555758E-01;  9.9999998E-03;  6.9950059E-02;4862; -1.2215755E-01;  0.0000000E+00;  2.4641869E-03;  9.9385364E+02;  1.0000000E-01; -5.0921519E+03;3;  1.6145022E+00;  0.0000000E+00; -1.5688759E+00;0; -2.3160276E-01;  3.9474438E+04;  0.0000000E+00;  7.0548430E-02;  4.0000000E+04;  0.0000000E+00;  4.0037828E+04; -2.6258495E-01;  0.0000000E+00;  3.0982200E-02;  5.2698457E+03;
  3.9553562E-01;  9.9999998E-03;  7.9946317E-02;4863; -1.2186119E-01;  0.0000000E+00;  2.7418970E-03;  9.9395032E+02;  1.0000000E-01; -5.0120552E+03;3;  1.5636526E+00;  0.0000000E+00; -1.7655983E+00;0; -2.3129483E-01;  3.9483605E+04;  0.0000000E+00;  8.2216121E-02;  4.0000000E+04;  0.0000000E+00;  4.0036203E+04; -2.6229283E-01;  0.0000000E+00;  3.0998008E-02;  5.0544404E+03;
  3.9551166E-01;  9.9999998E-03;  8.9943923E-02;4864; -1.2155807E-01;  0.0000000E+00;  3.0141787E-03;  9.9405200E+02;  1.0000000E-01; -4.9278110E+03;3;  1.5118425E+00;  0.0000000E+00; -1.9608941E+00;0; -2.3102367E-01;  3.9492738E+04;  0.0000000E+00;  8.8782892E-02;  4.0000000E+04;  0.0000000E+00;  4.0035016E+04; -2.6211527E-01;  0.0000000E+00;  3.1091601E-02;  4.8910332E+03;
  3.9548793E-01;  9.9999998E-03;  9.9942088E-02;4865; -1.2125495E-01;  0.0000000E+00;  3.2895505E-03;  9.9415643E+02;  1.0000000E-01; -4.8412949E+03;3;  1.4559060E+00;  0.0000000E+00; -2.1529410E+00;0; -2.3083349E-01;  3.9501578E+04;  0.0000000E+00;  8.8315740E-02;  4.0000000E+04;  0.0000000E+00;  4.0034297E+04; -2.6207516E-01;  0.0000000E+00;  3.1241665E-02;  4.7904287E+03;
  3.9546713E-01;  9.9999998E-03;  1.0994004E-01;4866; -1.2095762E-01;  0.0000000E+00;  3.5755404E-03;  9.9425421E+02;  1.0000000E-01; -4.7602603E+03;3;  1.3964061E+00;  0.0000000E+00; -2.3395722E+00;0; -2.3077089E-01;  3.9509348E+04;  0.0000000E+00;  7.9731427E-02;  4.0000000E+04;  0.0000000E+00;  4.0034160E+04; -2.6218492E-01;  0.0000000E+00;  3.1414028E-02;  4.7578164E+03;
  3.9545122E-01;  9.9999998E-03;  1.1993737E-01;4867; -1.2067036E-01;  0.0000000E+00;  3.8769459E-03;  9.9433759E+02;  1.0000000E-01; -4.6912251E+03;3;  1.3389348E+00;  0.0000000E+00; -2.5150750E+00;0; -2.3087847E-01;  3.9515660E+04;  0.0000000E+00;  6.3249931E-02;  4.0000000E+04;  0.0000000E+00;  4.0034379E+04; -2.6244605E-01;  0.0000000E+00;  3.1567570E-02;  4.7931509E+03;
  3.9544111E-01;  9.9999998E-03;  1.2993394E-01;4868; -1.2039659E-01;  0.0000000E+00;  4.1957237E-03;  9.9439496E+02;  1.0000000E-01; -4.6436709E+03;3;  1.2848301E+00;  0.0000000E+00; -2.6853395E+00;0; -2.3119035E-01;  3.9519359E+04;  0.0000000E+00;  4.0658869E-02;  4.0000000E+04;  0.0000000E+00;  4.0035215E+04; -2.6285005E-01;  0.0000000E+00;  3.1659696E-02;  4.8919336E+03;
  3.9543757E-01;  9.9999998E-03;  1.3992995E-01;4869; -1.2013946E-01;  0.0000000E+00;  4.5318985E-03;  9.9442316E+02;  1.0000000E-01; -4.6203135E+03;3;  1.2320765E+00;  0.0000000E+00; -2.8473120E+00;0; -2.3172797E-01;  3.9520219E+04;  0.0000000E+00;  1.5348571E-02;  4.0000000E+04;  0.0000000E+00;  4.0036523E+04; -2.6338086E-01;  0.0000000E+00;  3.1652883E-02;  5.0471533E+03;
  3.9544231E-01;  9.9999998E-03;  1.4992575E-01;4870; -1.1990178E-01;  0.0000000E+00;  4.8832064E-03;  9.9440948E+02;  1.0000000E-01; -4.6316216E+03;3;  1.1858240E+00;  0.0000000E+00; -2.9999375E+00;0; -2.3249610E-01;  3.9517531E+04;  0.0000000E+00; -7.9921568E-03;  4.0000000E+04;  0.0000000E+00;  4.0038195E+04; -2.6401681E-01;  0.0000000E+00;  3.1520713E-02;  5.2512651E+03;
  3.9545360E-01;  9.9999998E-03;  1.5992191E-01;4871; -1.1968508E-01;  0.0000000E+00;  5.2444423E-03;  9.9435815E+02;  1.0000000E-01; -4.6741392E+03;3;  1.1430317E+00;  0.0000000E+00; -3.1486707E+00;0; -2.3347673E-01;  3.9511309E+04;  0.0000000E+00; -2.4515983E-02;  4.0000000E+04;  0.0000000E+00;  4.0040039E+04; -2.6473346E-01;  0.0000000E+00;  3.1256728E-02;  5.4965776E+03;
  3.9546776E-01;  9.9999998E-03;  1.6991894E-01;4872; -1.1948958E-01;  0.0000000E+00;  5.6052762E-03;  9.9425598E+02;  1.0000000E-01; -4.7588281E+03;3;  1.1102434E+00;  0.0000000E+00; -3.2764630E+00;0; -2.3462759E-01;  3.9501133E+04;  0.0000000E+00; -3.0829754E-02;  4.0000000E+04;  0.0000000E+00;  4.0042285E+04; -2.6550698E-01;  0.0000000E+00;  3.0879389E-02;  5.7754082E+03;
  3.9548424E-01;  9.9999998E-03;  1.7991734E-01;4873; -1.1931500E-01;  0.0000000E+00;  5.9543052E-03;  9.9411163E+02;  1.0000000E-01; -4.8783804E+03;3;  1.0852242E+00;  0.0000000E+00; -3.3979642E+00;0; -2.3588549E-01;  3.9487516E+04;  0.0000000E+00; -2.5967428E-02;  4.0000000E+04;  0.0000000E+00;  4.0044566E+04; -2.6631531E-01;  0.0000000E+00;  3.0429820E-02;  6.0778960E+03;
  3.9549980E-01;  9.9999998E-03;  1.8991710E-01;4874; -1.1915944E-01;  0.0000000E+00;  6.2848302E-03;  9.9393121E+02;  1.0000000E-01; -5.0278574E+03;3;  1.0729550E+00;  0.0000000E+00; -3.4907138E+00;0; -2.3717709E-01;  3.9470840E+04;  0.0000000E+00; -1.1449502E-02;  4.0000000E+04;  0.0000000E+00;  4.0046934E+04; -2.6714081E-01;  0.0000000E+00;  2.9963722E-02;  6.3867388E+03;
  3.9551103E-01;  9.9999998E-03;  1.9991787E-01;4875; -1.1901889E-01;  0.0000000E+00;  6.5921424E-03;  9.9371674E+02;  1.0000000E-01; -5.2055806E+03;3;  1.0721496E+00;  0.0000000E+00; -3.5640197E+00;0; -2.3843114E-01;  3.9451605E+04;  0.0000000E+00;  9.3047433E-03;  4.0000000E+04;  0.0000000E+00;  4.0048988E+04; -2.6797137E-01;  0.0000000E+00;  2.9540231E-02;  6.6689590E+03;
  3.9551562E-01;  9.9999998E-03;  2.0991866E-01;4876; -1.1888935E-01;  0.0000000E+00;  6.8707513E-03;  9.9347369E+02;  1.0000000E-01; -5.4069082E+03;3;  1.0805506E+00;  0.0000000E+00; -3.6301358E+00;0; -2.3959304E-01;  3.9430777E+04;  0.0000000E+00;  3.1785913E-02;  4.0000000E+04;  0.0000000E+00;  4.0050457E+04; -2.6879939E-01;  0.0000000E+00;  2.9206356E-02;  6.8733672E+03;
  3.9551055E-01;  9.9999998E-03;  2.1991725E-01;4877; -1.1876678E-01;  0.0000000E+00;  7.1126195E-03;  9.9320526E+02;  1.0000000E-01; -5.6293218E+03;3;  1.1023675E+00;  0.0000000E+00; -3.6792424E+00;0; -2.4065195E-01;  3.9409039E+04;  0.0000000E+00;  5.1114719E-02;  4.0000000E+04;  0.0000000E+00;  4.0050988E+04; -2.6962060E-01;  0.0000000E+00;  2.8968642E-02;  6.9581504E+03;
  3.9549366E-01;  9.9999998E-03;  2.2991078E-01;4878; -1.1864822E-01;  0.0000000E+00;  7.3023736E-03;  9.9292456E+02;  1.0000000E-01; -5.8618584E+03;3;  1.1368542E+00;  0.0000000E+00; -3.7205579E+00;0; -2.4170187E-01;  3.9386742E+04;  0.0000000E+00;  6.2821865E-02;  4.0000000E+04;  0.0000000E+00;  4.0050816E+04; -2.7043092E-01;  0.0000000E+00;  2.8729046E-02;  6.9599502E+03;
  4.0562558E-01;  9.9999998E-03;  6.9960386E-02;4923; -1.2488148E-01;  0.0000000E+00;  2.5106992E-03;  9.9366174E+02;  1.0000000E-01; -5.2511104E+03;3;  1.8427299E+00;  0.0000000E+00; -1.6634206E+00;0; -2.2949220E-01;  3.9460852E+04;  0.0000000E+00;  7.7262037E-02;  4.0000000E+04;  0.0000000E+00;  4.0035781E+04; -2.6056626E-01;  0.0000000E+00;  3.1074058E-02;  5.0271250E+03;
  4.0560764E-01;  9.9999998E-03;  7.9956599E-02;4924; -1.2456374E-01;  0.0000000E+00;  2.7950674E-03;  9.9370502E+02;  1.0000000E-01; -5.2152593E+03;3;  1.7851706E+00;  0.0000000E+00; -1.8694935E+00;0; -2.2930461E-01;  3.9465781E+04;  0.0000000E+00;  9.3457207E-02;  4.0000000E+04;  0.0000000E+00;  4.0034480E+04; -2.6031864E-01;  0.0000000E+00;  3.1014033E-02;  4.8428687E+03;
  4.0558699E-01;  9.9999998E-03;  8.9954056E-02;4925; -1.2424128E-01;  0.0000000E+00;  3.0704641E-03;  9.9375854E+02;  1.0000000E-01; -5.1709150E+03;3;  1.7249473E+00;  0.0000000E+00; -2.0764484E+00;0; -2.2913803E-01;  3.9470848E+04;  0.0000000E+00;  1.0616940E-01;  4.0000000E+04;  0.0000000E+00;  4.0033352E+04; -2.6016340E-01;  0.0000000E+00;  3.1025371E-02;  4.6978799E+03;
  4.0556505E-01;  9.9999998E-03;  9.9952415E-02;4926; -1.2392174E-01;  0.0000000E+00;  3.3442511E-03;  9.9381317E+02;  1.0000000E-01; -5.1256816E+03;3;  1.6607094E+00;  0.0000000E+00; -2.2811587E+00;0; -2.2902991E-01;  3.9475938E+04;  0.0000000E+00;  1.1332107E-01;  4.0000000E+04;  0.0000000E+00;  4.0032480E+04; -2.6012093E-01;  0.0000000E+00;  3.1091023E-02;  4.6029497E+03;
  4.0554422E-01;  9.9999998E-03;  1.0995097E-01;4927; -1.2361148E-01;  0.0000000E+00;  3.6229971E-03;  9.9387006E+02;  1.0000000E-01; -5.0785225E+03;3;  1.5949874E+00;  0.0000000E+00; -2.4744384E+00;0; -2.2901990E-01;  3.9480520E+04;  0.0000000E+00;  1.1335957E-01;  4.0000000E+04;  0.0000000E+00;  4.0032332E+04; -2.6020154E-01;  0.0000000E+00;  3.1181645E-02;  4.5649990E+03;
  4.0552640E-01;  9.9999998E-03;  1.1994909E-01;4928; -1.2331531E-01;  0.0000000E+00;  3.9117080E-03;  9.9392279E+02;  1.0000000E-01; -5.0348696E+03;3;  1.5289656E+00;  0.0000000E+00; -2.6575770E+00;0; -2.2914767E-01;  3.9484234E+04;  0.0000000E+00;  1.0567472E-01;  4.0000000E+04;  0.0000000E+00;  4.0032414E+04; -2.6040804E-01;  0.0000000E+00;  3.1260379E-02;  4.5870181E+03;
  4.0551290E-01;  9.9999998E-03;  1.2994660E-01;4929; -1.2303670E-01;  0.0000000E+00;  4.2128842E-03;  9.9396027E+02;  1.0000000E-01; -5.0038086E+03;3;  1.4648772E+00;  0.0000000E+00; -2.8319407E+00;0; -2.2944547E-01;  3.9486512E+04;  0.0000000E+00;  9.0923920E-02;  4.0000000E+04;  0.0000000E+00;  4.0033160E+04; -2.6073319E-01;  0.0000000E+00;  3.1287715E-02;  4.6686787E+03;
  4.0550631E-01;  9.9999998E-03;  1.3994357E-01;4930; -1.2277886E-01;  0.0000000E+00;  4.5268158E-03;  9.9397833E+02;  1.0000000E-01; -4.9888462E+03;3;  1.4039152E+00;  0.0000000E+00; -2.9993095E+00;0; -2.2993676E-01;  3.9486742E+04;  0.0000000E+00;  7.1190119E-02;  4.0000000E+04;  0.0000000E+00;  4.0034320E+04; -2.6116472E-01;  0.0000000E+00;  3.1227967E-02;  4.8077695E+03;
  4.0550581E-01;  9.9999998E-03;  1.4994028E-01;4931; -1.2254313E-01;  0.0000000E+00;  4.8516430E-03;  9.9397211E+02;  1.0000000E-01; -4.9939819E+03;3;  1.3455199E+00;  0.0000000E+00; -3.1574395E+00;0; -2.3063131E-01;  3.9484488E+04;  0.0000000E+00;  4.9796011E-02;  4.0000000E+04;  0.0000000E+00;  4.0035770E+04; -2.6168656E-01;  0.0000000E+00;  3.1055253E-02;  5.0018760E+03;
  4.0550938E-01;  9.9999998E-03;  1.5993719E-01;4932; -1.2233031E-01;  0.0000000E+00;  5.1826173E-03;  9.9393201E+02;  1.0000000E-01; -5.0272153E+03;3;  1.2946069E+00;  0.0000000E+00; -3.3050866E+00;0; -2.3151648E-01;  3.9479316E+04;  0.0000000E+00;  3.0382017E-02;  4.0000000E+04;  0.0000000E+00;  4.0037730E+04; -2.6227844E-01;  0.0000000E+00;  3.0761955E-02;  5.2465381E+03;
  4.0551770E-01;  9.9999998E-03;  1.6993487E-01;4933; -1.2214067E-01;  0.0000000E+00;  5.5114492E-03;  9.9385693E+02;  1.0000000E-01; -5.0894360E+03;3;  1.2482160E+00;  0.0000000E+00; -3.4420636E+00;0; -2.3255627E-01;  3.9471219E+04;  0.0000000E+00;  1.5658127E-02;  4.0000000E+04;  0.0000000E+00;  4.0039973E+04; -2.6291886E-01;  0.0000000E+00;  3.0362587E-02;  5.5341553E+03;
  4.0552780E-01;  9.9999998E-03;  1.7993358E-01;4934; -1.2197270E-01;  0.0000000E+00;  5.8272490E-03;  9.9374561E+02;  1.0000000E-01; -5.1816309E+03;3;  1.2121879E+00;  0.0000000E+00; -3.5586226E+00;0; -2.3369855E-01;  3.9459945E+04;  0.0000000E+00;  6.7119077E-03;  4.0000000E+04;  0.0000000E+00;  4.0042430E+04; -2.6358959E-01;  0.0000000E+00;  2.9891042E-02;  5.8523252E+03;
  4.0553749E-01;  9.9999998E-03;  1.8993323E-01;4935; -1.2182340E-01;  0.0000000E+00;  6.1262855E-03;  9.9360114E+02;  1.0000000E-01; -5.3013311E+03;3;  1.1888279E+00;  0.0000000E+00; -3.6469646E+00;0; -2.3488095E-01;  3.9445809E+04;  0.0000000E+00;  2.9710205E-03;  4.0000000E+04;  0.0000000E+00;  4.0045020E+04; -2.6427308E-01;  0.0000000E+00;  2.9392129E-02;  6.1793198E+03;
  4.0554389E-01;  9.9999998E-03;  1.9993319E-01;4936; -1.2168983E-01;  0.0000000E+00;  6.4033857E-03;  9.9342078E+02;  1.0000000E-01; -5.4507588E+03;3;  1.1721712E+00;  0.0000000E+00; -3.7327404E+00;0; -2.3604764E-01;  3.9429273E+04;  0.0000000E+00;  2.6179031E-03;  4.0000000E+04;  0.0000000E+00;  4.0047246E+04; -2.6495802E-01;  0.0000000E+00;  2.8910380E-02;  6.4796924E+03;
  4.0554491E-01;  9.9999998E-03;  2.0993245E-01;4937; -1.2156819E-01;  0.0000000E+00;  6.6529708E-03;  9.9320837E+02;  1.0000000E-01; -5.6267539E+03;3;  1.1694502E+00;  0.0000000E+00; -3.7943616E+00;0; -2.3716335E-01;  3.9410715E+04;  0.0000000E+00;  3.1895186E-03;  4.0000000E+04;  0.0000000E+00;  4.0049008E+04; -2.6563543E-01;  0.0000000E+00;  2.8472079E-02;  6.7052910E+03;
  4.0553850E-01;  9.9999998E-03;  2.1992888E-01;4938; -1.2145485E-01;  0.0000000E+00;  6.8680053E-03;  9.9297028E+02;  1.0000000E-01; -5.8239829E+03;3;  1.1784762E+00;  0.0000000E+00; -3.8459194E+00;0; -2.3824105E-01;  3.9390809E+04;  0.0000000E+00;  2.1191547E-03;  4.0000000E+04;  0.0000000E+00;  4.0049770E+04; -2.6630110E-01;  0.0000000E+00;  2.8060047E-02;  6.8252495E+03;
  4.0552279E-01;  9.9999998E-03;  2.2991943E-01;4939; -1.2134817E-01;  0.0000000E+00;  7.0392415E-03;  9.9271729E+02;  1.0000000E-01; -6.0336064E+03;3;  1.1993337E+00;  0.0000000E+00; -3.8821394E+00;0; -2.3938771E-01;  3.9370086E+04;  0.0000000E+00; -2.7391808E-03;  4.0000000E+04;  0.0000000E+00;  4.0050195E+04; -2.6695153E-01;  0.0000000E+00;  2.7563820E-02;  6.9073232E+03;
  4.1570285E-01;  9.9999998E-03;  6.9970012E-02;4984; -1.2758464E-01;  0.0000000E+00;  2.5164618E-03;  9.9359485E+02;  1.0000000E-01; -5.3065649E+03;3;  2.0834429E+00;  0.0000000E+00; -1.7509422E+00;0; -2.2699614E-01;  3.9457133E+04;  0.0000000E+00;  8.0443799E-02;  4.0000000E+04;  0.0000000E+00;  4.0034086E+04; -2.5799590E-01;  0.0000000E+00;  3.0999763E-02;  4.8136860E+03;
  4.1568741E-01;  9.9999998E-03;  7.9966404E-02;4985; -1.2725018E-01;  0.0000000E+00;  2.8066537E-03;  9.9359229E+02;  1.0000000E-01; -5.3086885E+03;3;  2.0181351E+00;  0.0000000E+00; -1.9712509E+00;0; -2.2695953E-01;  3.9457879E+04;  0.0000000E+00;  9.9417537E-02;  4.0000000E+04;  0.0000000E+00;  4.0032828E+04; -2.5785369E-01;  0.0000000E+00;  3.0894157E-02;  4.6731968E+03;
  4.1566867E-01;  9.9999998E-03;  8.9963824E-02;4986; -1.2691225E-01;  0.0000000E+00;  3.0859835E-03;  9.9359528E+02;  1.0000000E-01; -5.3061699E+03;3;  1.9480522E+00;  0.0000000E+00; -2.1870294E+00;0; -2.2693449E-01;  3.9458895E+04;  0.0000000E+00;  1.1619356E-01;  4.0000000E+04;  0.0000000E+00;  4.0032113E+04; -2.5778469E-01;  0.0000000E+00;  3.0850196E-02;  4.5601421E+03;
  4.1564900E-01;  9.9999998E-03;  9.9962257E-02;4987; -1.2657928E-01;  0.0000000E+00;  3.3604386E-03;  9.9360382E+02;  1.0000000E-01; -5.2991084E+03;3;  1.8771768E+00;  0.0000000E+00; -2.3957415E+00;0; -2.2694831E-01;  3.9460012E+04;  0.0000000E+00;  1.2870876E-01;  4.0000000E+04;  0.0000000E+00;  4.0031426E+04; -2.5780255E-01;  0.0000000E+00;  3.0854236E-02;  4.4842783E+03;
  4.1562864E-01;  9.9999998E-03;  1.0996128E-01;4988; -1.2625770E-01;  0.0000000E+00;  3.6352715E-03;  9.9361505E+02;  1.0000000E-01; -5.2898247E+03;3;  1.8042307E+00;  0.0000000E+00; -2.5968075E+00;0; -2.2703478E-01;  3.9461082E+04;  0.0000000E+00;  1.3514610E-01;  4.0000000E+04;  0.0000000E+00;  4.0031281E+04; -2.5791621E-01;  0.0000000E+00;  3.0881435E-02;  4.4533081E+03;
  4.1560993E-01;  9.9999998E-03;  1.1996018E-01;4989; -1.2595290E-01;  0.0000000E+00;  3.9149011E-03;  9.9362769E+02;  1.0000000E-01; -5.2793560E+03;3;  1.7298470E+00;  0.0000000E+00; -2.7873664E+00;0; -2.2722578E-01;  3.9461770E+04;  0.0000000E+00;  1.3427493E-01;  4.0000000E+04;  0.0000000E+00;  4.0031242E+04; -2.5812519E-01;  0.0000000E+00;  3.0899411E-02;  4.4722275E+03;
  4.1559574E-01;  9.9999998E-03;  1.2995867E-01;4990; -1.2566909E-01;  0.0000000E+00;  4.2019845E-03;  9.9363635E+02;  1.0000000E-01; -5.2721465E+03;3;  1.6548784E+00;  0.0000000E+00; -2.9689224E+00;0; -2.2755270E-01;  3.9461797E+04;  0.0000000E+00;  1.2578134E-01;  4.0000000E+04;  0.0000000E+00;  4.0031938E+04; -2.5842547E-01;  0.0000000E+00;  3.0872779E-02;  4.5438364E+03;
  4.1558549E-01;  9.9999998E-03;  1.3995670E-01;4991; -1.2540829E-01;  0.0000000E+00;  4.4973828E-03;  9.9363660E+02;  1.0000000E-01; -5.2719487E+03;3;  1.5828122E+00;  0.0000000E+00; -3.1399872E+00;0; -2.2803830E-01;  3.9460566E+04;  0.0000000E+00;  1.1046860E-01;  4.0000000E+04;  0.0000000E+00;  4.0032891E+04; -2.5880712E-01;  0.0000000E+00;  3.0768830E-02;  4.6700962E+03;
  4.1557953E-01;  9.9999998E-03;  1.4995439E-01;4992; -1.2517203E-01;  0.0000000E+00;  4.7995131E-03;  9.9362012E+02;  1.0000000E-01; -5.2856274E+03;3;  1.5136076E+00;  0.0000000E+00; -3.3070788E+00;0; -2.2869402E-01;  3.9457895E+04;  0.0000000E+00;  9.0296984E-02;  4.0000000E+04;  0.0000000E+00;  4.0034301E+04; -2.5925770E-01;  0.0000000E+00;  3.0563679E-02;  4.8525327E+03;
  4.1557887E-01;  9.9999998E-03;  1.5995215E-01;4993; -1.2496094E-01;  0.0000000E+00;  5.1049716E-03;  9.9358112E+02;  1.0000000E-01; -5.3179229E+03;3;  1.4509885E+00;  0.0000000E+00; -3.4519835E+00;0; -2.2951077E-01;  3.9452977E+04;  0.0000000E+00;  6.7748107E-02;  4.0000000E+04;  0.0000000E+00;  4.0036293E+04; -2.5976056E-01;  0.0000000E+00;  3.0249784E-02;  5.0894385E+03;
  4.1558221E-01;  9.9999998E-03;  1.6995038E-01;4994; -1.2477478E-01;  0.0000000E+00;  5.4049459E-03;  9.9351978E+02;  1.0000000E-01; -5.3687363E+03;3;  1.3911390E+00;  0.0000000E+00; -3.5934074E+00;0; -2.3046011E-01;  3.9445715E+04;  0.0000000E+00;  4.4974595E-02;  4.0000000E+04;  0.0000000E+00;  4.0038492E+04; -2.6029941E-01;  0.0000000E+00;  2.9839309E-02;  5.3737031E+03;
  4.1558826E-01;  9.9999998E-03;  1.7994919E-01;4995; -1.2461150E-01;  0.0000000E+00;  5.6931353E-03;  9.9343225E+02;  1.0000000E-01; -5.4412773E+03;3;  1.3423220E+00;  0.0000000E+00; -3.7061942E+00;0; -2.3149890E-01;  3.9435992E+04;  0.0000000E+00;  2.3380274E-02;  4.0000000E+04;  0.0000000E+00;  4.0040957E+04; -2.6085907E-01;  0.0000000E+00;  2.9360183E-02;  5.6908569E+03;
  4.1559428E-01;  9.9999998E-03;  1.8994845E-01;4996; -1.2446848E-01;  0.0000000E+00;  5.9638987E-03;  9.9331226E+02;  1.0000000E-01; -5.5406821E+03;3;  1.3030001E+00;  0.0000000E+00; -3.8034627E+00;0; -2.3257707E-01;  3.9423914E+04;  0.0000000E+00;  3.5258739E-03;  4.0000000E+04;  0.0000000E+00;  4.0043480E+04; -2.6142454E-01;  0.0000000E+00;  2.8847473E-02;  6.0160596E+03;
  4.1559866E-01;  9.9999998E-03;  1.9994763E-01;4997; -1.2434315E-01;  0.0000000E+00;  6.2121558E-03;  9.9316101E+02;  1.0000000E-01; -5.6659624E+03;3;  1.2736320E+00;  0.0000000E+00; -3.8886576E+00;0; -2.3365535E-01;  3.9409602E+04;  0.0000000E+00; -1.4751209E-02;  4.0000000E+04;  0.0000000E+00;  4.0045773E+04; -2.6198608E-01;  0.0000000E+00;  2.8330732E-02;  6.3111924E+03;
  4.1559926E-01;  9.9999998E-03;  2.0994547E-01;4998; -1.2423170E-01;  0.0000000E+00;  6.4351289E-03;  9.9297858E+02;  1.0000000E-01; -5.8171187E+03;3;  1.2565043E+00;  0.0000000E+00; -3.9494338E+00;0; -2.3471718E-01;  3.9393242E+04;  0.0000000E+00; -3.1992082E-02;  4.0000000E+04;  0.0000000E+00;  4.0047492E+04; -2.6253575E-01;  0.0000000E+00;  2.7818570E-02;  6.5308086E+03;
  4.1559458E-01;  9.9999998E-03;  2.1993947E-01;4999; -1.2413195E-01;  0.0000000E+00;  6.6237799E-03;  9.9276642E+02;  1.0000000E-01; -5.9928667E+03;3;  1.2510103E+00;  0.0000000E+00; -4.0001264E+00;0; -2.3580341E-01;  3.9375426E+04;  0.0000000E+00; -4.8849899E-02;  4.0000000E+04;  0.0000000E+00;  4.0048227E+04; -2.6307014E-01;  0.0000000E+00;  2.7266720E-02;  6.6625630E+03;
  4.1558439E-01;  9.9999998E-03;  2.2992645E-01;5000; -1.2404347E-01;  0.0000000E+00;  6.7774430E-03;  9.9254297E+02;  1.0000000E-01; -6.1779971E+03;3;  1.2565782E+00;  0.0000000E+00; -4.0415483E+00;0; -2.3703051E-01;  3.9356613E+04;  0.0000000E+00; -6.5694273E-02;  4.0000000E+04;  0.0000000E+00;  4.0049363E+04; -2.6358655E-01;  0.0000000E+00;  2.6556049E-02;  6.8170903E+03;
  4.2579770E-01;  9.9999998E-03;  6.9978468E-02;5045; -1.3025182E-01;  0.0000000E+00;  2.4803386E-03;  9.9367914E+02;  1.0000000E-01; -5.2366904E+03;3;  2.3376460E+00;  0.0000000E+00; -1.8291211E+00;0; -2.2416356E-01;  3.9464609E+04;  0.0000000E+00;  8.0133617E-02;  4.0000000E+04;  0.0000000E+00;  4.0032680E+04; -2.5493434E-01;  0.0000000E+00;  3.0770781E-02;  4.6358818E+03;
  4.2578256E-01;  9.9999998E-03;  7.9975121E-02;5046; -1.2990664E-01;  0.0000000E+00;  2.7752519E-03;  9.9363000E+02;  1.0000000E-01; -5.2774302E+03;3;  2.2628374E+00;  0.0000000E+00; -2.0606394E+00;0; -2.2429354E-01;  3.9461516E+04;  0.0000000E+00;  1.0005490E-01;  4.0000000E+04;  0.0000000E+00;  4.0031910E+04; -2.5494799E-01;  0.0000000E+00;  3.0654442E-02;  4.5479800E+03;
  4.2576554E-01;  9.9999998E-03;  8.9972474E-02;5047; -1.2955886E-01;  0.0000000E+00;  3.0590424E-03;  9.9358746E+02;  1.0000000E-01; -5.3126885E+03;3;  2.1829536E+00;  0.0000000E+00; -2.2851567E+00;0; -2.2442982E-01;  3.9458668E+04;  0.0000000E+00;  1.1857388E-01;  4.0000000E+04;  0.0000000E+00;  4.0031363E+04; -2.5501776E-01;  0.0000000E+00;  3.0587943E-02;  4.4770020E+03;
  4.2574546E-01;  9.9999998E-03;  9.9970773E-02;5048; -1.2921639E-01;  0.0000000E+00;  3.3359760E-03;  9.9354962E+02;  1.0000000E-01; -5.3439961E+03;3;  2.1030982E+00;  0.0000000E+00; -2.5003097E+00;0; -2.2459099E-01;  3.9455871E+04;  0.0000000E+00;  1.3373473E-01;  4.0000000E+04;  0.0000000E+00;  4.0030914E+04; -2.5515112E-01;  0.0000000E+00;  3.0560128E-02;  4.4309775E+03;
  4.2572445E-01;  9.9999998E-03;  1.0996974E-01;5049; -1.2888661E-01;  0.0000000E+00;  3.6100608E-03;  9.9351727E+02;  1.0000000E-01; -5.3708101E+03;3;  2.0206177E+00;  0.0000000E+00; -2.7073636E+00;0; -2.2480112E-01;  3.9453262E+04;  0.0000000E+00;  1.4364018E-01;  4.0000000E+04;  0.0000000E+00;  4.0030730E+04; -2.5535080E-01;  0.0000000E+00;  3.0549670E-02;  4.4170947E+03;
  4.2570543E-01;  9.9999998E-03;  1.1996891E-01;5050; -1.2857537E-01;  0.0000000E+00;  3.8847453E-03;  9.9348785E+02;  1.0000000E-01; -5.3952046E+03;3;  1.9364196E+00;  0.0000000E+00; -2.9054575E+00;0; -2.2508729E-01;  3.9450727E+04;  0.0000000E+00;  1.4670618E-01;  4.0000000E+04;  0.0000000E+00;  4.0030945E+04; -2.5561583E-01;  0.0000000E+00;  3.0528547E-02;  4.4412622E+03;
  4.2568913E-01;  9.9999998E-03;  1.2996788E-01;5051; -1.2828642E-01;  0.0000000E+00;  4.1623889E-03;  9.9346118E+02;  1.0000000E-01; -5.4172778E+03;3;  1.8510158E+00;  0.0000000E+00; -3.0963020E+00;0; -2.2547431E-01;  3.9447996E+04;  0.0000000E+00;  1.4193216E-01;  4.0000000E+04;  0.0000000E+00;  4.0031516E+04; -2.5593987E-01;  0.0000000E+00;  3.0465556E-02;  4.5086562E+03;
  4.2567667E-01;  9.9999998E-03;  1.3996658E-01;5052; -1.2802243E-01;  0.0000000E+00;  4.4441451E-03;  9.9343683E+02;  1.0000000E-01; -5.4374751E+03;3;  1.7662503E+00;  0.0000000E+00; -3.2754219E+00;0; -2.2598439E-01;  3.9444887E+04;  0.0000000E+00;  1.2912841E-01;  4.0000000E+04;  0.0000000E+00;  4.0032367E+04; -2.5631604E-01;  0.0000000E+00;  3.0331647E-02;  4.6239854E+03;
  4.2566928E-01;  9.9999998E-03;  1.4996503E-01;5053; -1.2778504E-01;  0.0000000E+00;  4.7294307E-03;  9.9340393E+02;  1.0000000E-01; -5.4647334E+03;3;  1.6846145E+00;  0.0000000E+00; -3.4411848E+00;0; -2.2662726E-01;  3.9440844E+04;  0.0000000E+00;  1.0908291E-01;  4.0000000E+04;  0.0000000E+00;  4.0033758E+04; -2.5673285E-01;  0.0000000E+00;  3.0105585E-02;  4.7920747E+03;
  4.2566663E-01;  9.9999998E-03;  1.5996341E-01;5054; -1.2757444E-01;  0.0000000E+00;  5.0152214E-03;  9.9336017E+02;  1.0000000E-01; -5.5009795E+03;3;  1.6062003E+00;  0.0000000E+00; -3.5956879E+00;0; -2.2739920E-01;  3.9435633E+04;  0.0000000E+00;  8.3282396E-02;  4.0000000E+04;  0.0000000E+00;  4.0035508E+04; -2.5718033E-01;  0.0000000E+00;  2.9781137E-02;  5.0137910E+03;
  4.2566800E-01;  9.9999998E-03;  1.6996205E-01;5055; -1.2739022E-01;  0.0000000E+00;  5.2945814E-03;  9.9330219E+02;  1.0000000E-01; -5.5490273E+03;3;  1.5346519E+00;  0.0000000E+00; -3.7351999E+00;0; -2.2827555E-01;  3.9428746E+04;  0.0000000E+00;  5.3520504E-02;  4.0000000E+04;  0.0000000E+00;  4.0037590E+04; -2.5764462E-01;  0.0000000E+00;  2.9369067E-02;  5.2828750E+03;
  4.2567241E-01;  9.9999998E-03;  1.7996097E-01;5056; -1.2723066E-01;  0.0000000E+00;  5.5614081E-03;  9.9322168E+02;  1.0000000E-01; -5.6156924E+03;3;  1.4718182E+00;  0.0000000E+00; -3.8503881E+00;0; -2.2922084E-01;  3.9420113E+04;  0.0000000E+00;  2.1613332E-02;  4.0000000E+04;  0.0000000E+00;  4.0039984E+04; -2.5811383E-01;  0.0000000E+00;  2.8893000E-02;  5.5839600E+03;
  4.2567846E-01;  9.9999998E-03;  1.8995997E-01;5057; -1.2709363E-01;  0.0000000E+00;  5.8106356E-03;  9.9312366E+02;  1.0000000E-01; -5.6969243E+03;3;  1.4174353E+00;  0.0000000E+00; -3.9511521E+00;0; -2.3019736E-01;  3.9409465E+04;  0.0000000E+00; -1.0793719E-02;  4.0000000E+04;  0.0000000E+00;  4.0042363E+04; -2.5857753E-01;  0.0000000E+00;  2.8380167E-02;  5.8903906E+03;
  4.2568409E-01;  9.9999998E-03;  1.9995837E-01;5058; -1.2697646E-01;  0.0000000E+00;  6.0390173E-03;  9.9299219E+02;  1.0000000E-01; -5.8058594E+03;3;  1.3741187E+00;  0.0000000E+00; -4.0313363E+00;0; -2.3117845E-01;  3.9396996E+04;  0.0000000E+00; -4.2359479E-02;  4.0000000E+04;  0.0000000E+00;  4.0044379E+04; -2.5902805E-01;  0.0000000E+00;  2.7849603E-02;  6.1637305E+03;
  4.2568809E-01;  9.9999998E-03;  2.0995474E-01;5059; -1.2687716E-01;  0.0000000E+00;  6.2407856E-03;  9.9283496E+02;  1.0000000E-01; -5.9360781E+03;3;  1.3413615E+00;  0.0000000E+00; -4.0954328E+00;0; -2.3216745E-01;  3.9382816E+04;  0.0000000E+00; -7.2047479E-02;  4.0000000E+04;  0.0000000E+00;  4.0045953E+04; -2.5946048E-01;  0.0000000E+00;  2.7293032E-02;  6.3643882E+03;
  4.2568994E-01;  9.9999998E-03;  2.1994646E-01;5060; -1.2679408E-01;  0.0000000E+00;  6.4107873E-03;  9.9264899E+02;  1.0000000E-01; -6.0901973E+03;3;  1.3192146E+00;  0.0000000E+00; -4.1481962E+00;0; -2.3322234E-01;  3.9367141E+04;  0.0000000E+00; -9.9104643E-02;  4.0000000E+04;  0.0000000E+00;  4.0046941E+04; -2.5987223E-01;  0.0000000E+00;  2.6649887E-02;  6.4982070E+03;
  4.2569083E-01;  9.9999998E-03;  2.2993027E-01;5061; -1.2672734E-01;  0.0000000E+00;  6.5515386E-03;  9.9245984E+02;  1.0000000E-01; -6.2468843E+03;3;  1.3106196E+00;  0.0000000E+00; -4.1906300E+00;0; -2.3447138E-01;  3.9350492E+04;  0.0000000E+00; -1.2287339E-01;  4.0000000E+04;  0.0000000E+00;  4.0048559E+04; -2.6026139E-01;  0.0000000E+00;  2.5790002E-02;  6.7149917E+03;
  4.3590984E-01;  9.9999998E-03;  6.9985092E-02;5106; -1.3286777E-01;  0.0000000E+00;  2.4034467E-03;  9.9390991E+02;  1.0000000E-01; -5.0455356E+03;3;  2.6038859E+00;  0.0000000E+00; -1.8993860E+00;0; -2.2108929E-01;  3.9483641E+04;  0.0000000E+00;  7.5826712E-02;  4.0000000E+04;  0.0000000E+00;  4.0031785E+04; -2.5148913E-01;  0.0000000E+00;  3.0399840E-02;  4.4957197E+03;
  4.3589452E-01;  9.9999998E-03;  7.9981998E-02;5107; -1.3251920E-01;  0.0000000E+00;  2.7017044E-03;  9.9382605E+02;  1.0000000E-01; -5.1150151E+03;3;  2.5189309E+00;  0.0000000E+00; -2.1378012E+00;0; -2.2138560E-01;  3.9477184E+04;  0.0000000E+00;  9.4864681E-02;  4.0000000E+04;  0.0000000E+00;  4.0031461E+04; -2.5169489E-01;  0.0000000E+00;  3.0309284E-02;  4.4650425E+03;
  4.3587676E-01;  9.9999998E-03;  8.9979276E-02;5108; -1.3216755E-01;  0.0000000E+00;  2.9899576E-03;  9.9374280E+02;  1.0000000E-01; -5.1839512E+03;3;  2.4292231E+00;  0.0000000E+00; -2.3708639E+00;0; -2.2168672E-01;  3.9470668E+04;  0.0000000E+00;  1.1281311E-01;  4.0000000E+04;  0.0000000E+00;  4.0031191E+04; -2.5194266E-01;  0.0000000E+00;  3.0255949E-02;  4.4424331E+03;
  4.3585756E-01;  9.9999998E-03;  9.9977121E-02;5109; -1.3182165E-01;  0.0000000E+00;  3.2707776E-03;  9.9366168E+02;  1.0000000E-01; -5.2511592E+03;3;  2.3391290E+00;  0.0000000E+00; -2.5941045E+00;0; -2.2200194E-01;  3.9464332E+04;  0.0000000E+00;  1.2789337E-01;  4.0000000E+04;  0.0000000E+00;  4.0031145E+04; -2.5223163E-01;  0.0000000E+00;  3.0229686E-02;  4.4334395E+03;
  4.3583739E-01;  9.9999998E-03;  1.0997552E-01;5110; -1.3148867E-01;  0.0000000E+00;  3.5467823E-03;  9.9358630E+02;  1.0000000E-01; -5.3136265E+03;3;  2.2450969E+00;  0.0000000E+00; -2.8083031E+00;0; -2.2234742E-01;  3.9458332E+04;  0.0000000E+00;  1.3828503E-01;  4.0000000E+04;  0.0000000E+00;  4.0031055E+04; -2.5255936E-01;  0.0000000E+00;  3.0211937E-02;  4.4439604E+03;
  4.3581712E-01;  9.9999998E-03;  1.1997417E-01;5111; -1.3117400E-01;  0.0000000E+00;  3.8207066E-03;  9.9352014E+02;  1.0000000E-01; -5.3684399E+03;3;  2.1490581E+00;  0.0000000E+00; -3.0130606E+00;0; -2.2274268E-01;  3.9452555E+04;  0.0000000E+00;  1.4229810E-01;  4.0000000E+04;  0.0000000E+00;  4.0031301E+04; -2.5292090E-01;  0.0000000E+00;  3.0178227E-02;  4.4798760E+03;
  4.3579924E-01;  9.9999998E-03;  1.2997286E-01;5112; -1.3088216E-01;  0.0000000E+00;  4.0943585E-03;  9.9345801E+02;  1.0000000E-01; -5.4198955E+03;3;  2.0516939E+00;  0.0000000E+00; -3.2070236E+00;0; -2.2320887E-01;  3.9447086E+04;  0.0000000E+00;  1.3860156E-01;  4.0000000E+04;  0.0000000E+00;  4.0031801E+04; -2.5331008E-01;  0.0000000E+00;  3.0101208E-02;  4.5472778E+03;
  4.3578556E-01;  9.9999998E-03;  1.3997154E-01;5113; -1.3061601E-01;  0.0000000E+00;  4.3688444E-03;  9.9340009E+02;  1.0000000E-01; -5.4678940E+03;3;  1.9544951E+00;  0.0000000E+00; -3.3928080E+00;0; -2.2376223E-01;  3.9441562E+04;  0.0000000E+00;  1.2640190E-01;  4.0000000E+04;  0.0000000E+00;  4.0032602E+04; -2.5371766E-01;  0.0000000E+00;  2.9955432E-02;  4.6528975E+03;
  4.3577704E-01;  9.9999998E-03;  1.4997007E-01;5114; -1.3037728E-01;  0.0000000E+00;  4.6441020E-03;  9.9334631E+02;  1.0000000E-01; -5.5124360E+03;3;  1.8592030E+00;  0.0000000E+00; -3.5657005E+00;0; -2.2441289E-01;  3.9435961E+04;  0.0000000E+00;  1.0567178E-01;  4.0000000E+04;  0.0000000E+00;  4.0033754E+04; -2.5413564E-01;  0.0000000E+00;  2.9722754E-02;  4.8039150E+03;
  4.3577421E-01;  9.9999998E-03;  1.5996855E-01;5115; -1.3016665E-01;  0.0000000E+00;  4.9177809E-03;  9.9329138E+02;  1.0000000E-01; -5.5579653E+03;3;  1.7665044E+00;  0.0000000E+00; -3.7258759E+00;0; -2.2515570E-01;  3.9429836E+04;  0.0000000E+00;  7.7165782E-02;  4.0000000E+04;  0.0000000E+00;  4.0035402E+04; -2.5455418E-01;  0.0000000E+00;  2.9398490E-02;  5.0035376E+03;
  4.3577620E-01;  9.9999998E-03;  1.6996723E-01;5116; -1.2998362E-01;  0.0000000E+00;  5.1845955E-03;  9.9322900E+02;  1.0000000E-01; -5.6096182E+03;3;  1.6803761E+00;  0.0000000E+00; -3.8658385E+00;0; -2.2597209E-01;  3.9423043E+04;  0.0000000E+00;  4.2463757E-02;  4.0000000E+04;  0.0000000E+00;  4.0037285E+04; -2.5496519E-01;  0.0000000E+00;  2.8993102E-02;  5.2471943E+03;
  4.3578216E-01;  9.9999998E-03;  1.7996606E-01;5117; -1.2982683E-01;  0.0000000E+00;  5.4387995E-03;  9.9315784E+02;  1.0000000E-01; -5.6685796E+03;3;  1.6029042E+00;  0.0000000E+00; -3.9829922E+00;0; -2.2683294E-01;  3.9415047E+04;  0.0000000E+00;  3.7688192E-03;  4.0000000E+04;  0.0000000E+00;  4.0039473E+04; -2.5536039E-01;  0.0000000E+00;  2.8527448E-02;  5.5205659E+03;
  4.3579084E-01;  9.9999998E-03;  1.8996455E-01;5118; -1.2969464E-01;  0.0000000E+00;  5.6765131E-03;  9.9306799E+02;  1.0000000E-01; -5.7430464E+03;3;  1.5337812E+00;  0.0000000E+00; -4.0804272E+00;0; -2.2770882E-01;  3.9405637E+04;  0.0000000E+00; -3.6404163E-02;  4.0000000E+04;  0.0000000E+00;  4.0041672E+04; -2.5573272E-01;  0.0000000E+00;  2.8023893E-02;  5.7982427E+03;
  4.3580067E-01;  9.9999998E-03;  1.9996196E-01;5119; -1.2958546E-01;  0.0000000E+00;  5.8940356E-03;  9.9295679E+02;  1.0000000E-01; -5.8351919E+03;3;  1.4723911E+00;  0.0000000E+00; -4.1670136E+00;0; -2.2858365E-01;  3.9394891E+04;  0.0000000E+00; -7.5607091E-02;  4.0000000E+04;  0.0000000E+00;  4.0043457E+04; -2.5607833E-01;  0.0000000E+00;  2.7494688E-02;  6.0455073E+03;
  4.3581095E-01;  9.9999998E-03;  2.0995684E-01;5120; -1.2949802E-01;  0.0000000E+00;  6.0869670E-03;  9.9282379E+02;  1.0000000E-01; -5.9453618E+03;3;  1.4239583E+00;  0.0000000E+00; -4.2325921E+00;0; -2.2947079E-01;  3.9382727E+04;  0.0000000E+00; -1.1172227E-01;  4.0000000E+04;  0.0000000E+00;  4.0044848E+04; -2.5639501E-01;  0.0000000E+00;  2.6924217E-02;  6.2321216E+03;
  4.3582150E-01;  9.9999998E-03;  2.1994668E-01;5121; -1.2943175E-01;  0.0000000E+00;  6.2521105E-03;  9.9267053E+02;  1.0000000E-01; -6.0723213E+03;3;  1.3856354E+00;  0.0000000E+00; -4.2883124E+00;0; -2.3043555E-01;  3.9369512E+04;  0.0000000E+00; -1.4312930E-01;  4.0000000E+04;  0.0000000E+00;  4.0046031E+04; -2.5668326E-01;  0.0000000E+00;  2.6247706E-02;  6.3809941E+03;
  4.3583262E-01;  9.9999998E-03;  2.2992861E-01;5122; -1.2938692E-01;  0.0000000E+00;  6.3992380E-03;  9.9251831E+02;  1.0000000E-01; -6.1984409E+03;3;  1.3597453E+00;  0.0000000E+00; -4.3269887E+00;0; -2.3158661E-01;  3.9355129E+04;  0.0000000E+00; -1.6863129E-01;  4.0000000E+04;  0.0000000E+00;  4.0048027E+04; -2.5694314E-01;  0.0000000E+00;  2.5356529E-02;  6.6604443E+03;
  4.4602334E-01;  9.9999998E-03;  6.9988348E-02;5167; -1.3541739E-01;  0.0000000E+00;  2.2902063E-03;  9.9427820E+02;  1.0000000E-01; -4.7404082E+03;3;  2.8796761E+00;  0.0000000E+00; -1.9555931E+00;0; -2.1790713E-01;  3.9512969E+04;  0.0000000E+00;  6.6807188E-02;  4.0000000E+04;  0.0000000E+00;  4.0031172E+04; -2.4780917E-01;  0.0000000E+00;  2.9902047E-02;  4.3911196E+03;
  4.4600990E-01;  9.9999998E-03;  7.9985432E-02;5168; -1.3507351E-01;  0.0000000E+00;  2.5898735E-03;  9.9416302E+02;  1.0000000E-01; -4.8358130E+03;3;  2.7855783E+00;  0.0000000E+00; -2.2021155E+00;0; -2.1835321E-01;  3.9503668E+04;  0.0000000E+00;  8.3218485E-02;  4.0000000E+04;  0.0000000E+00;  4.0031262E+04; -2.4822496E-01;  0.0000000E+00;  2.9871749E-02;  4.4178330E+03;
  4.4599396E-01;  9.9999998E-03;  8.9982770E-02;5169; -1.3472581E-01;  0.0000000E+00;  2.8819642E-03;  9.9404370E+02;  1.0000000E-01; -4.9346743E+03;3;  2.6861343E+00;  0.0000000E+00; -2.4432843E+00;0; -2.1880519E-01;  3.9494109E+04;  0.0000000E+00;  9.8543793E-02;  4.0000000E+04;  0.0000000E+00;  4.0031410E+04; -2.4867170E-01;  0.0000000E+00;  2.9866498E-02;  4.4455679E+03;
  4.4597626E-01;  9.9999998E-03;  9.9980265E-02;5170; -1.3438299E-01;  0.0000000E+00;  3.1673503E-03;  9.9392737E+02;  1.0000000E-01; -5.0310669E+03;3;  2.5841522E+00;  0.0000000E+00; -2.6753395E+00;0; -2.1926543E-01;  3.9484680E+04;  0.0000000E+00;  1.1122150E-01;  4.0000000E+04;  0.0000000E+00;  4.0031559E+04; -2.4914119E-01;  0.0000000E+00;  2.9875748E-02;  4.4771826E+03;
  4.4595757E-01;  9.9999998E-03;  1.0997771E-01;5171; -1.3405222E-01;  0.0000000E+00;  3.4474831E-03;  9.9381702E+02;  1.0000000E-01; -5.1224717E+03;3;  2.4778612E+00;  0.0000000E+00; -2.8976898E+00;0; -2.1974178E-01;  3.9475516E+04;  0.0000000E+00;  1.1963078E-01;  4.0000000E+04;  0.0000000E+00;  4.0031762E+04; -2.4962422E-01;  0.0000000E+00;  2.9882448E-02;  4.5164980E+03;
  4.4593927E-01;  9.9999998E-03;  1.1997519E-01;5172; -1.3373916E-01;  0.0000000E+00;  3.7240351E-03;  9.9371289E+02;  1.0000000E-01; -5.2087407E+03;3;  2.3690522E+00;  0.0000000E+00; -3.1092093E+00;0; -2.2024646E-01;  3.9466824E+04;  0.0000000E+00;  1.2221956E-01;  4.0000000E+04;  0.0000000E+00;  4.0032250E+04; -2.5011101E-01;  0.0000000E+00;  2.9864542E-02;  4.5684595E+03;
  4.4592220E-01;  9.9999998E-03;  1.2997286E-01;5173; -1.3344797E-01;  0.0000000E+00;  3.9982889E-03;  9.9361633E+02;  1.0000000E-01; -5.2887383E+03;3;  2.2593143E+00;  0.0000000E+00; -3.3085842E+00;0; -2.2079462E-01;  3.9458824E+04;  0.0000000E+00;  1.1762572E-01;  4.0000000E+04;  0.0000000E+00;  4.0032695E+04; -2.5059262E-01;  0.0000000E+00;  2.9797997E-02;  4.6392192E+03;
  4.4590893E-01;  9.9999998E-03;  1.3997075E-01;5174; -1.3318188E-01;  0.0000000E+00;  4.2714761E-03;  9.9353278E+02;  1.0000000E-01; -5.3579712E+03;3;  2.1489248E+00;  0.0000000E+00; -3.4956050E+00;0; -2.2139889E-01;  3.9451145E+04;  0.0000000E+00;  1.0484990E-01;  4.0000000E+04;  0.0000000E+00;  4.0033406E+04; -2.5105938E-01;  0.0000000E+00;  2.9660491E-02;  4.7363750E+03;
  4.4590062E-01;  9.9999998E-03;  1.4996864E-01;5175; -1.3294296E-01;  0.0000000E+00;  4.5441161E-03;  9.9345758E+02;  1.0000000E-01; -5.4202905E+03;3;  2.0381308E+00;  0.0000000E+00; -3.6749969E+00;0; -2.2206573E-01;  3.9443895E+04;  0.0000000E+00;  8.3445206E-02;  4.0000000E+04;  0.0000000E+00;  4.0034371E+04; -2.5150242E-01;  0.0000000E+00;  2.9436698E-02;  4.8685581E+03;
  4.4589809E-01;  9.9999998E-03;  1.5996648E-01;5176; -1.3273217E-01;  0.0000000E+00;  4.8140432E-03;  9.9338495E+02;  1.0000000E-01; -5.4804365E+03;3;  1.9301863E+00;  0.0000000E+00; -3.8407819E+00;0; -2.2279130E-01;  3.9436793E+04;  0.0000000E+00;  5.3728823E-02;  4.0000000E+04;  0.0000000E+00;  4.0035777E+04; -2.5191492E-01;  0.0000000E+00;  2.9123621E-02;  5.0411206E+03;
  4.4590136E-01;  9.9999998E-03;  1.6996449E-01;5177; -1.3254957E-01;  0.0000000E+00;  5.0768238E-03;  9.9331689E+02;  1.0000000E-01; -5.5368301E+03;3;  1.8296499E+00;  0.0000000E+00; -3.9818268E+00;0; -2.2355829E-01;  3.9429582E+04;  0.0000000E+00;  1.7112626E-02;  4.0000000E+04;  0.0000000E+00;  4.0037383E+04; -2.5229019E-01;  0.0000000E+00;  2.8731897E-02;  5.2523032E+03;
  4.4590983E-01;  9.9999998E-03;  1.7996258E-01;5178; -1.3239455E-01;  0.0000000E+00;  5.3279400E-03;  9.9324646E+02;  1.0000000E-01; -5.5951987E+03;3;  1.7341326E+00;  0.0000000E+00; -4.1054797E+00;0; -2.2434202E-01;  3.9422102E+04;  0.0000000E+00; -2.3981180E-02;  4.0000000E+04;  0.0000000E+00;  4.0039137E+04; -2.5262326E-01;  0.0000000E+00;  2.8281244E-02;  5.4911660E+03;
  4.4592243E-01;  9.9999998E-03;  1.8996018E-01;5179; -1.3226597E-01;  0.0000000E+00;  5.5641006E-03;  9.9316675E+02;  1.0000000E-01; -5.6612217E+03;3;  1.6480745E+00;  0.0000000E+00; -4.2053494E+00;0; -2.2511990E-01;  3.9413730E+04;  0.0000000E+00; -6.6556334E-02;  4.0000000E+04;  0.0000000E+00;  4.0041125E+04; -2.5291198E-01;  0.0000000E+00;  2.7792081E-02;  5.7372681E+03;
  4.4593766E-01;  9.9999998E-03;  1.9995642E-01;5180; -1.3216308E-01;  0.0000000E+00;  5.7825688E-03;  9.9307538E+02;  1.0000000E-01; -5.7369233E+03;3;  1.5714061E+00;  0.0000000E+00; -4.2890735E+00;0; -2.2588043E-01;  3.9404539E+04;  0.0000000E+00; -1.0757459E-01;  4.0000000E+04;  0.0000000E+00;  4.0042891E+04; -2.5315535E-01;  0.0000000E+00;  2.7274916E-02;  5.9641572E+03;
  4.4595411E-01;  9.9999998E-03;  2.0995007E-01;5181; -1.3208534E-01;  0.0000000E+00;  5.9803491E-03;  9.9296692E+02;  1.0000000E-01; -5.8267974E+03;3;  1.5041878E+00;  0.0000000E+00; -4.3603463E+00;0; -2.2663832E-01;  3.9394469E+04;  0.0000000E+00; -1.4438620E-01;  4.0000000E+04;  0.0000000E+00;  4.0044402E+04; -2.5335491E-01;  0.0000000E+00;  2.6716584E-02;  6.1530156E+03;
  4.4597116E-01;  9.9999998E-03;  2.1993920E-01;5182; -1.3203293E-01;  0.0000000E+00;  6.1587575E-03;  9.9284882E+02;  1.0000000E-01; -5.9246216E+03;3;  1.4482780E+00;  0.0000000E+00; -4.4147491E+00;0; -2.2744739E-01;  3.9383547E+04;  0.0000000E+00; -1.7497768E-01;  4.0000000E+04;  0.0000000E+00;  4.0045656E+04; -2.5351486E-01;  0.0000000E+00;  2.6067464E-02;  6.3337769E+03;
  4.4598812E-01;  9.9999998E-03;  2.2992200E-01;5183; -1.3200572E-01;  0.0000000E+00;  6.3298047E-03;  9.9273224E+02;  1.0000000E-01; -6.0212114E+03;3;  1.4045714E+00;  0.0000000E+00; -4.4560523E+00;0; -2.2838078E-01;  3.9371914E+04;  0.0000000E+00; -1.9788150E-01;  4.0000000E+04;  0.0000000E+00;  4.0048031E+04; -2.5363898E-01;  0.0000000E+00;  2.5258204E-02;  6.6500781E+03;
  4.5612341E-01;  9.9999998E-03;  6.9987170E-02;5228; -1.3789101E-01;  0.0000000E+00;  2.1481421E-03;  9.9473315E+02;  1.0000000E-01; -4.3634810E+03;3;  3.1676326E+00;  0.0000000E+00; -1.9953251E+00;0; -2.1476811E-01;  3.9549137E+04;  0.0000000E+00;  5.2586865E-02;  4.0000000E+04;  0.0000000E+00;  4.0030898E+04; -2.4406189E-01;  0.0000000E+00;  2.9293768E-02;  4.3156196E+03;
  4.5611107E-01;  9.9999998E-03;  7.9984032E-02;5229; -1.3755924E-01;  0.0000000E+00;  2.4470240E-03;  9.9459448E+02;  1.0000000E-01; -4.4783911E+03;3;  3.0630553E+00;  0.0000000E+00; -2.2514267E+00;0; -2.1533540E-01;  3.9537539E+04;  0.0000000E+00;  6.4888962E-02;  4.0000000E+04;  0.0000000E+00;  4.0031441E+04; -2.4468899E-01;  0.0000000E+00;  2.9353581E-02;  4.3963774E+03;
  4.5609725E-01;  9.9999998E-03;  8.9980967E-02;5230; -1.3722263E-01;  0.0000000E+00;  2.7412849E-03;  9.9445148E+02;  1.0000000E-01; -4.5968569E+03;3;  2.9530678E+00;  0.0000000E+00; -2.5009372E+00;0; -2.1591190E-01;  3.9525816E+04;  0.0000000E+00;  7.5995333E-02;  4.0000000E+04;  0.0000000E+00;  4.0032016E+04; -2.4533923E-01;  0.0000000E+00;  2.9427329E-02;  4.4728008E+03;
  4.5608220E-01;  9.9999998E-03;  9.9977843E-02;5231; -1.3688958E-01;  0.0000000E+00;  3.0311102E-03;  9.9430896E+02;  1.0000000E-01; -4.7149277E+03;3;  2.8382773E+00;  0.0000000E+00; -2.7438421E+00;0; -2.1649341E-01;  3.9513828E+04;  0.0000000E+00;  8.4654100E-02;  4.0000000E+04;  0.0000000E+00;  4.0032422E+04; -2.4599658E-01;  0.0000000E+00;  2.9503161E-02;  4.5449321E+03;
  4.5606673E-01;  9.9999998E-03;  1.0997450E-01;5232; -1.3656700E-01;  0.0000000E+00;  3.3165908E-03;  9.9416949E+02;  1.0000000E-01; -4.8304800E+03;3;  2.7191956E+00;  0.0000000E+00; -2.9737616E+00;0; -2.1708147E-01;  3.9502250E+04;  0.0000000E+00;  8.9550316E-02;  4.0000000E+04;  0.0000000E+00;  4.0032828E+04; -2.4664553E-01;  0.0000000E+00;  2.9564053E-02;  4.6144912E+03;
  4.5605236E-01;  9.9999998E-03;  1.1997100E-01;5233; -1.3626058E-01;  0.0000000E+00;  3.5982542E-03;  9.9403632E+02;  1.0000000E-01; -4.9407979E+03;3;  2.5969782E+00;  0.0000000E+00; -3.1932578E+00;0; -2.1768123E-01;  3.9491289E+04;  0.0000000E+00;  8.9425050E-02;  4.0000000E+04;  0.0000000E+00;  4.0033324E+04; -2.4727064E-01;  0.0000000E+00;  2.9589415E-02;  4.6848506E+03;
  4.5604014E-01;  9.9999998E-03;  1.2996732E-01;5234; -1.3597463E-01;  0.0000000E+00;  3.8769220E-03;  9.9391302E+02;  1.0000000E-01; -5.0429185E+03;3;  2.4725072E+00;  0.0000000E+00; -3.3990581E+00;0; -2.1830247E-01;  3.9480965E+04;  0.0000000E+00;  8.3130807E-02;  4.0000000E+04;  0.0000000E+00;  4.0033887E+04; -2.4785988E-01;  0.0000000E+00;  2.9557409E-02;  4.7615669E+03;
  4.5603076E-01;  9.9999998E-03;  1.3996369E-01;5235; -1.3571207E-01;  0.0000000E+00;  4.1536237E-03;  9.9380634E+02;  1.0000000E-01; -5.1313110E+03;3;  2.3476331E+00;  0.0000000E+00; -3.5912106E+00;0; -2.1895355E-01;  3.9471516E+04;  0.0000000E+00;  6.9746509E-02;  4.0000000E+04;  0.0000000E+00;  4.0034480E+04; -2.4840173E-01;  0.0000000E+00;  2.9448176E-02;  4.8521626E+03;
  4.5602578E-01;  9.9999998E-03;  1.4996020E-01;5236; -1.3547520E-01;  0.0000000E+00;  4.4295043E-03;  9.9370905E+02;  1.0000000E-01; -5.2119507E+03;3;  2.2233450E+00;  0.0000000E+00; -3.7682884E+00;0; -2.1963809E-01;  3.9462922E+04;  0.0000000E+00;  4.8727818E-02;  4.0000000E+04;  0.0000000E+00;  4.0035430E+04; -2.4888673E-01;  0.0000000E+00;  2.9248638E-02;  4.9658530E+03;
  4.5602643E-01;  9.9999998E-03;  1.5995686E-01;5237; -1.3526534E-01;  0.0000000E+00;  4.7034444E-03;  9.9362219E+02;  1.0000000E-01; -5.2838989E+03;3;  2.1017950E+00;  0.0000000E+00; -3.9292166E+00;0; -2.2035080E-01;  3.9454938E+04;  0.0000000E+00;  2.0186877E-02;  4.0000000E+04;  0.0000000E+00;  4.0036379E+04; -2.4930787E-01;  0.0000000E+00;  2.8957069E-02;  5.1097544E+03;
  4.5603290E-01;  9.9999998E-03;  1.6995363E-01;5238; -1.3508344E-01;  0.0000000E+00;  4.9708695E-03;  9.9354926E+02;  1.0000000E-01; -5.3443418E+03;3;  1.9808750E+00;  0.0000000E+00; -4.0834484E+00;0; -2.2107510E-01;  3.9447414E+04;  0.0000000E+00; -1.4660834E-02;  4.0000000E+04;  0.0000000E+00;  4.0037734E+04; -2.4965979E-01;  0.0000000E+00;  2.8584691E-02;  5.2858389E+03;
  4.5604470E-01;  9.9999998E-03;  1.7995033E-01;5239; -1.3492928E-01;  0.0000000E+00;  5.2277525E-03;  9.9347650E+02;  1.0000000E-01; -5.4045869E+03;3;  1.8677440E+00;  0.0000000E+00; -4.2133613E+00;0; -2.2178912E-01;  3.9440125E+04;  0.0000000E+00; -5.3495143E-02;  4.0000000E+04;  0.0000000E+00;  4.0039418E+04; -2.4994043E-01;  0.0000000E+00;  2.8151300E-02;  5.4892197E+03;
  4.5606104E-01;  9.9999998E-03;  1.8994664E-01;5240; -1.3480268E-01;  0.0000000E+00;  5.4719322E-03;  9.9340552E+02;  1.0000000E-01; -5.4634004E+03;3;  1.7635456E+00;  0.0000000E+00; -4.3175988E+00;0; -2.2247258E-01;  3.9432656E+04;  0.0000000E+00; -9.3329124E-02;  4.0000000E+04;  0.0000000E+00;  4.0041031E+04; -2.5015059E-01;  0.0000000E+00;  2.7678007E-02;  5.7079160E+03;
  4.5608094E-01;  9.9999998E-03;  1.9994189E-01;5241; -1.3470352E-01;  0.0000000E+00;  5.7020062E-03;  9.9333087E+02;  1.0000000E-01; -5.5252256E+03;3;  1.6680545E+00;  0.0000000E+00; -4.4043369E+00;0; -2.2311470E-01;  3.9425023E+04;  0.0000000E+00; -1.3112256E-01;  4.0000000E+04;  0.0000000E+00;  4.0042758E+04; -2.5029337E-01;  0.0000000E+00;  2.7178682E-02;  5.9258892E+03;
  4.5610344E-01;  9.9999998E-03;  2.0993516E-01;5242; -1.3463207E-01;  0.0000000E+00;  5.9178392E-03;  9.9324982E+02;  1.0000000E-01; -5.5923843E+03;3;  1.5824800E+00;  0.0000000E+00; -4.4741173E+00;0; -2.2372283E-01;  3.9416863E+04;  0.0000000E+00; -1.6425635E-01;  4.0000000E+04;  0.0000000E+00;  4.0044316E+04; -2.5037414E-01;  0.0000000E+00;  2.6651312E-02;  6.1343081E+03;
  4.5612720E-01;  9.9999998E-03;  2.1992537E-01;5243; -1.3458899E-01;  0.0000000E+00;  6.1237477E-03;  9.9316248E+02;  1.0000000E-01; -5.6647773E+03;3;  1.5080125E+00;  0.0000000E+00; -4.5275741E+00;0; -2.2432533E-01;  3.9408145E+04;  0.0000000E+00; -1.9073913E-01;  4.0000000E+04;  0.0000000E+00;  4.0046121E+04; -2.5040063E-01;  0.0000000E+00;  2.6075305E-02;  6.3551953E+03;
  4.5614982E-01;  9.9999998E-03;  2.2991191E-01;5244; -1.3457325E-01;  0.0000000E+00;  6.3322023E-03;  9.9308173E+02;  1.0000000E-01; -5.7316396E+03;3;  1.4449594E+00;  0.0000000E+00; -4.5689993E+00;0; -2.2494614E-01;  3.9399141E+04;  0.0000000E+00; -2.0905115E-01;  4.0000000E+04;  0.0000000E+00;  4.0048531E+04; -2.5038126E-01;  0.0000000E+00;  2.5435120E-02;  6.6718721E+03;
  4.6620139E-01;  9.9999998E-03;  6.9982544E-02;5289; -1.4028683E-01;  0.0000000E+00;  1.9865362E-03;  9.9521210E+02;  1.0000000E-01; -3.9667017E+03;3;  3.4631832E+00;  0.0000000E+00; -2.0212152E+00;0; -2.1181917E-01;  3.9587055E+04;  0.0000000E+00;  3.3258632E-02;  4.0000000E+04;  0.0000000E+00;  4.0030758E+04; -2.4041112E-01;  0.0000000E+00;  2.8591949E-02;  4.2594087E+03;
  4.6619013E-01;  9.9999998E-03;  7.9978526E-02;5290; -1.3997377E-01;  0.0000000E+00;  2.2817843E-03;  9.9506165E+02;  1.0000000E-01; -4.0913401E+03;3;  3.3498945E+00;  0.0000000E+00; -2.2900357E+00;0; -2.1247004E-01;  3.9574203E+04;  0.0000000E+00;  4.0364992E-02;  4.0000000E+04;  0.0000000E+00;  4.0031680E+04; -2.4123429E-01;  0.0000000E+00;  2.8764248E-02;  4.3877402E+03;
  4.6617773E-01;  9.9999998E-03;  8.9974456E-02;5291; -1.3965461E-01;  0.0000000E+00;  2.5766310E-03;  9.9490167E+02;  1.0000000E-01; -4.2238794E+03;3;  3.2294335E+00;  0.0000000E+00; -2.5499473E+00;0; -2.1313481E-01;  3.9560777E+04;  0.0000000E+00;  4.6295494E-02;  4.0000000E+04;  0.0000000E+00;  4.0032523E+04; -2.4207626E-01;  0.0000000E+00;  2.8941447E-02;  4.5080396E+03;
  4.6616510E-01;  9.9999998E-03;  9.9970281E-02;5292; -1.3933718E-01;  0.0000000E+00;  2.8698447E-03;  9.9474182E+02;  1.0000000E-01; -4.3563203E+03;3;  3.1018047E+00;  0.0000000E+00; -2.7998390E+00;0; -2.1380465E-01;  3.9547242E+04;  0.0000000E+00;  5.0179038E-02;  4.0000000E+04;  0.0000000E+00;  4.0033199E+04; -2.4291375E-01;  0.0000000E+00;  2.9109100E-02;  4.6177881E+03;
  4.6615335E-01;  9.9999998E-03;  1.0996586E-01;5293; -1.3902827E-01;  0.0000000E+00;  3.1607081E-03;  9.9458435E+02;  1.0000000E-01; -4.4867856E+03;3;  2.9685328E+00;  0.0000000E+00; -3.0397243E+00;0; -2.1447451E-01;  3.9534035E+04;  0.0000000E+00;  5.1117949E-02;  4.0000000E+04;  0.0000000E+00;  4.0033898E+04; -2.4372388E-01;  0.0000000E+00;  2.9249366E-02;  4.7166338E+03;
  4.6614292E-01;  9.9999998E-03;  1.1996105E-01;5294; -1.3873315E-01;  0.0000000E+00;  3.4489797E-03;  9.9443433E+02;  1.0000000E-01; -4.6110786E+03;3;  2.8319230E+00;  0.0000000E+00; -3.2658644E+00;0; -2.1514615E-01;  3.9521379E+04;  0.0000000E+00;  4.8243415E-02;  4.0000000E+04;  0.0000000E+00;  4.0034617E+04; -2.4448799E-01;  0.0000000E+00;  2.9341828E-02;  4.8063662E+03;
  4.6613553E-01;  9.9999998E-03;  1.2995595E-01;5295; -1.3845618E-01;  0.0000000E+00;  3.7346112E-03;  9.9429370E+02;  1.0000000E-01; -4.7275688E+03;3;  2.6931360E+00;  0.0000000E+00; -3.4774933E+00;0; -2.1582237E-01;  3.9509664E+04;  0.0000000E+00;  4.0734578E-02;  4.0000000E+04;  0.0000000E+00;  4.0035141E+04; -2.4518815E-01;  0.0000000E+00;  2.9365776E-02;  4.8913267E+03;
  4.6613169E-01;  9.9999998E-03;  1.3995068E-01;5296; -1.3820045E-01;  0.0000000E+00;  4.0185694E-03;  9.9416693E+02;  1.0000000E-01; -4.8326030E+03;3;  2.5524070E+00;  0.0000000E+00; -3.6762793E+00;0; -2.1650809E-01;  3.9498832E+04;  0.0000000E+00;  2.7900835E-02;  4.0000000E+04;  0.0000000E+00;  4.0035848E+04; -2.4581103E-01;  0.0000000E+00;  2.9302942E-02;  4.9784980E+03;
  4.6613237E-01;  9.9999998E-03;  1.4994536E-01;5297; -1.3796832E-01;  0.0000000E+00;  4.3017678E-03;  9.9405469E+02;  1.0000000E-01; -4.9255879E+03;3;  2.4121709E+00;  0.0000000E+00; -3.8592205E+00;0; -2.1720399E-01;  3.9489242E+04;  0.0000000E+00;  9.2662945E-03;  4.0000000E+04;  0.0000000E+00;  4.0036625E+04; -2.4634543E-01;  0.0000000E+00;  2.9141447E-02;  5.0767266E+03;
  4.6613902E-01;  9.9999998E-03;  1.5994017E-01;5298; -1.3776155E-01;  0.0000000E+00;  4.5841597E-03;  9.9395911E+02;  1.0000000E-01; -5.0047461E+03;3;  2.2739775E+00;  0.0000000E+00; -4.0231714E+00;0; -2.1790220E-01;  3.9480668E+04;  0.0000000E+00; -1.5164761E-02;  4.0000000E+04;  0.0000000E+00;  4.0037281E+04; -2.4678265E-01;  0.0000000E+00;  2.8880442E-02;  5.1948120E+03;
  4.6615180E-01;  9.9999998E-03;  1.6993514E-01;5299; -1.3758130E-01;  0.0000000E+00;  4.8624841E-03;  9.9387695E+02;  1.0000000E-01; -5.0728433E+03;3;  2.1383979E+00;  0.0000000E+00; -4.1718464E+00;0; -2.1858719E-01;  3.9472984E+04;  0.0000000E+00; -4.4471242E-02;  4.0000000E+04;  0.0000000E+00;  4.0038539E+04; -2.4711882E-01;  0.0000000E+00;  2.8531628E-02;  5.3390913E+03;
  4.6617046E-01;  9.9999998E-03;  1.7993037E-01;5300; -1.3742818E-01;  0.0000000E+00;  5.1330985E-03;  9.9380530E+02;  1.0000000E-01; -5.1321992E+03;3;  2.0069928E+00;  0.0000000E+00; -4.3013749E+00;0; -2.1923742E-01;  3.9465793E+04;  0.0000000E+00; -7.6798171E-02;  4.0000000E+04;  0.0000000E+00;  4.0039727E+04; -2.4735326E-01;  0.0000000E+00;  2.8115831E-02;  5.5123525E+03;
  4.6619377E-01;  9.9999998E-03;  1.8992586E-01;5301; -1.3730256E-01;  0.0000000E+00;  5.3941263E-03;  9.9374249E+02;  1.0000000E-01; -5.1842471E+03;3;  1.8805141E+00;  0.0000000E+00; -4.4168687E+00;0; -2.1983179E-01;  3.9459184E+04;  0.0000000E+00; -1.0970733E-01;  4.0000000E+04;  0.0000000E+00;  4.0041324E+04; -2.4748914E-01;  0.0000000E+00;  2.7657337E-02;  5.7121025E+03;
  4.6622029E-01;  9.9999998E-03;  1.9992116E-01;5302; -1.3720490E-01;  0.0000000E+00;  5.6439959E-03;  9.9368201E+02;  1.0000000E-01; -5.2343198E+03;3;  1.7653210E+00;  0.0000000E+00; -4.5050378E+00;0; -2.2035664E-01;  3.9452605E+04;  0.0000000E+00; -1.4071332E-01;  4.0000000E+04;  0.0000000E+00;  4.0043066E+04; -2.4753328E-01;  0.0000000E+00;  2.7176632E-02;  5.9316436E+03;
  4.6624869E-01;  9.9999998E-03;  2.0991592E-01;5303; -1.3713554E-01;  0.0000000E+00;  5.8861747E-03;  9.9362256E+02;  1.0000000E-01; -5.2836025E+03;3;  1.6596911E+00;  0.0000000E+00; -4.5730996E+00;0; -2.2080703E-01;  3.9446070E+04;  0.0000000E+00; -1.6767843E-01;  4.0000000E+04;  0.0000000E+00;  4.0044891E+04; -2.4749558E-01;  0.0000000E+00;  2.6688550E-02;  6.1623296E+03;
  4.6627635E-01;  9.9999998E-03;  2.1990973E-01;5304; -1.3709496E-01;  0.0000000E+00;  6.1265440E-03;  9.9356232E+02;  1.0000000E-01; -5.3334775E+03;3;  1.5645062E+00;  0.0000000E+00; -4.6281672E+00;0; -2.2118032E-01;  3.9439387E+04;  0.0000000E+00; -1.8888232E-01;  4.0000000E+04;  0.0000000E+00;  4.0046719E+04; -2.4738760E-01;  0.0000000E+00;  2.6207283E-02;  6.4010410E+03;
  4.6630123E-01;  9.9999998E-03;  2.2990233E-01;5305; -1.3708179E-01;  0.0000000E+00;  6.3717510E-03;  9.9350262E+02;  1.0000000E-01; -5.3829575E+03;3;  1.4817357E+00;  0.0000000E+00; -4.6659207E+00;0; -2.2146332E-01;  3.9432566E+04;  0.0000000E+00; -2.0260929E-01;  4.0000000E+04;  0.0000000E+00;  4.0048738E+04; -2.4722239E-01;  0.0000000E+00;  2.5759073E-02;  6.6592944E+03;
  4.7624043E-01;  9.9999998E-03;  6.9977745E-02;5350; -1.4260696E-01;  0.0000000E+00;  1.8161224E-03;  9.9563348E+02;  1.0000000E-01; -3.6175759E+03;3;  3.7680268E+00;  0.0000000E+00; -2.0371318E+00;0; -2.0918916E-01;  3.9620719E+04;  0.0000000E+00;  9.7454628E-03;  4.0000000E+04;  0.0000000E+00;  4.0030676E+04; -2.3700313E-01;  0.0000000E+00;  2.7813971E-02;  4.2111279E+03;
  4.7623324E-01;  9.9999998E-03;  7.9972602E-02;5351; -1.4231853E-01;  0.0000000E+00;  2.1050470E-03;  9.9548102E+02;  1.0000000E-01; -3.7438933E+03;3;  3.6458411E+00;  0.0000000E+00; -2.3175595E+00;0; -2.0988095E-01;  3.9607383E+04;  0.0000000E+00;  1.1105330E-02;  4.0000000E+04;  0.0000000E+00;  4.0031902E+04; -2.3799300E-01;  0.0000000E+00;  2.8112048E-02;  4.3779434E+03;
  4.7622564E-01;  9.9999998E-03;  8.9967236E-02;5352; -1.4202286E-01;  0.0000000E+00;  2.3980408E-03;  9.9531915E+02;  1.0000000E-01; -3.8780129E+03;3;  3.5142944E+00;  0.0000000E+00; -2.5874963E+00;0; -2.1059158E-01;  3.9593391E+04;  0.0000000E+00;  1.1584262E-02;  4.0000000E+04;  0.0000000E+00;  4.0033004E+04; -2.3899996E-01;  0.0000000E+00;  2.8408382E-02;  4.5346235E+03;
  4.7621781E-01;  9.9999998E-03;  9.9961616E-02;5353; -1.4172679E-01;  0.0000000E+00;  2.6930645E-03;  9.9515399E+02;  1.0000000E-01; -4.0148484E+03;3;  3.3751879E+00;  0.0000000E+00; -2.8480246E+00;0; -2.1130875E-01;  3.9579090E+04;  0.0000000E+00;  1.0794551E-02;  4.0000000E+04;  0.0000000E+00;  4.0034004E+04; -2.3999421E-01;  0.0000000E+00;  2.8685471E-02;  4.6766821E+03;
  4.7621092E-01;  9.9999998E-03;  1.0995565E-01;5354; -1.4143650E-01;  0.0000000E+00;  2.9884919E-03;  9.9498950E+02;  1.0000000E-01; -4.1510913E+03;3;  3.2290211E+00;  0.0000000E+00; -3.0947945E+00;0; -2.1202496E-01;  3.9565184E+04;  0.0000000E+00;  8.3125392E-03;  4.0000000E+04;  0.0000000E+00;  4.0034922E+04; -2.4094844E-01;  0.0000000E+00;  2.8923487E-02;  4.8020376E+03;
  4.7620606E-01;  9.9999998E-03;  1.1994918E-01;5355; -1.4115725E-01;  0.0000000E+00;  3.2832983E-03;  9.9482990E+02;  1.0000000E-01; -4.2833345E+03;3;  3.0775590E+00;  0.0000000E+00; -3.3269415E+00;0; -2.1273613E-01;  3.9551828E+04;  0.0000000E+00;  3.6948419E-03;  4.0000000E+04;  0.0000000E+00;  4.0035680E+04; -2.4183738E-01;  0.0000000E+00;  2.9101253E-02;  4.9109556E+03;
  4.7620422E-01;  9.9999998E-03;  1.2994231E-01;5356; -1.4089315E-01;  0.0000000E+00;  3.5770615E-03;  9.9468048E+02;  1.0000000E-01; -4.4071338E+03;3;  2.9225941E+00;  0.0000000E+00; -3.5461638E+00;0; -2.1344231E-01;  3.9539141E+04;  0.0000000E+00; -3.5187679E-03;  4.0000000E+04;  0.0000000E+00;  4.0036312E+04; -2.4264047E-01;  0.0000000E+00;  2.9198153E-02;  5.0066504E+03;
  4.7620606E-01;  9.9999998E-03;  1.3993511E-01;5357; -1.4064729E-01;  0.0000000E+00;  3.8703717E-03;  9.9454541E+02;  1.0000000E-01; -4.5190317E+03;3;  2.7649596E+00;  0.0000000E+00; -3.7491629E+00;0; -2.1414383E-01;  3.9527840E+04;  0.0000000E+00; -1.3784260E-02;  4.0000000E+04;  0.0000000E+00;  4.0036957E+04; -2.4334012E-01;  0.0000000E+00;  2.9196292E-02;  5.0950337E+03;
  4.7621226E-01;  9.9999998E-03;  1.4992785E-01;5358; -1.4042230E-01;  0.0000000E+00;  4.1640629E-03;  9.9442572E+02;  1.0000000E-01; -4.6181895E+03;3;  2.6068225E+00;  0.0000000E+00; -3.9352391E+00;0; -2.1483867E-01;  3.9517691E+04;  0.0000000E+00; -2.7501868E-02;  4.0000000E+04;  0.0000000E+00;  4.0037574E+04; -2.4392281E-01;  0.0000000E+00;  2.9084148E-02;  5.1842598E+03;
  4.7622365E-01;  9.9999998E-03;  1.5992093E-01;5359; -1.4022009E-01;  0.0000000E+00;  4.4584721E-03;  9.9432275E+02;  1.0000000E-01; -4.7034707E+03;3;  2.4500897E+00;  0.0000000E+00; -4.1032910E+00;0; -2.1551824E-01;  3.9508727E+04;  0.0000000E+00; -4.4834569E-02;  4.0000000E+04;  0.0000000E+00;  4.0038344E+04; -2.4437915E-01;  0.0000000E+00;  2.8860908E-02;  5.2841060E+03;
  4.7624061E-01;  9.9999998E-03;  1.6991468E-01;5360; -1.4004216E-01;  0.0000000E+00;  4.7512916E-03;  9.9423529E+02;  1.0000000E-01; -4.7759624E+03;3;  2.2955637E+00;  0.0000000E+00; -4.2520418E+00;0; -2.1616568E-01;  3.9500887E+04;  0.0000000E+00; -6.5344222E-02;  4.0000000E+04;  0.0000000E+00;  4.0039176E+04; -2.4470413E-01;  0.0000000E+00;  2.8538456E-02;  5.4049009E+03;
  4.7626278E-01;  9.9999998E-03;  1.7990932E-01;5361; -1.3988961E-01;  0.0000000E+00;  5.0388677E-03;  9.9416455E+02;  1.0000000E-01; -4.8345781E+03;3;  2.1441696E+00;  0.0000000E+00; -4.3823905E+00;0; -2.1675847E-01;  3.9493879E+04;  0.0000000E+00; -8.7961234E-02;  4.0000000E+04;  0.0000000E+00;  4.0040371E+04; -2.4489775E-01;  0.0000000E+00;  2.8139278E-02;  5.5560103E+03;
  4.7628909E-01;  9.9999998E-03;  1.8990502E-01;5362; -1.3976298E-01;  0.0000000E+00;  5.3207031E-03;  9.9410284E+02;  1.0000000E-01; -4.8856880E+03;3;  1.9992901E+00;  0.0000000E+00; -4.4931221E+00;0; -2.1727325E-01;  3.9487578E+04;  0.0000000E+00; -1.1123157E-01;  4.0000000E+04;  0.0000000E+00;  4.0041812E+04; -2.4496515E-01;  0.0000000E+00;  2.7691906E-02;  5.7424541E+03;
  4.7631699E-01;  9.9999998E-03;  1.9990174E-01;5363; -1.3966292E-01;  0.0000000E+00;  5.5946875E-03;  9.9405237E+02;  1.0000000E-01; -4.9275137E+03;3;  1.8613110E+00;  0.0000000E+00; -4.5898023E+00;0; -2.1769074E-01;  3.9481820E+04;  0.0000000E+00; -1.3361484E-01;  4.0000000E+04;  0.0000000E+00;  4.0043492E+04; -2.4491684E-01;  0.0000000E+00;  2.7226098E-02;  5.9612236E+03;
  4.7634393E-01;  9.9999998E-03;  2.0989931E-01;5364; -1.3958947E-01;  0.0000000E+00;  5.8653429E-03;  9.9400629E+02;  1.0000000E-01; -4.9656855E+03;3;  1.7332398E+00;  0.0000000E+00; -4.6618080E+00;0; -2.1799186E-01;  3.9476312E+04;  0.0000000E+00; -1.5365200E-01;  4.0000000E+04;  0.0000000E+00;  4.0045340E+04; -2.4476632E-01;  0.0000000E+00;  2.6774464E-02;  6.1977197E+03;
  4.7636694E-01;  9.9999998E-03;  2.1989757E-01;5365; -1.3954256E-01;  0.0000000E+00;  6.1386274E-03;  9.9396051E+02;  1.0000000E-01; -5.0036104E+03;3;  1.6146747E+00;  0.0000000E+00; -4.7169194E+00;0; -2.1814750E-01;  3.9470965E+04;  0.0000000E+00; -1.6980787E-01;  4.0000000E+04;  0.0000000E+00;  4.0047164E+04; -2.4452992E-01;  0.0000000E+00;  2.6382418E-02;  6.4204614E+03;
  4.7638392E-01;  9.9999998E-03;  2.2989632E-01;5366; -1.3952063E-01;  0.0000000E+00;  6.4104875E-03;  9.9391119E+02;  1.0000000E-01; -5.0444487E+03;3;  1.5114954E+00;  0.0000000E+00; -4.7486653E+00;0; -2.1813008E-01;  3.9465746E+04;  0.0000000E+00; -1.7990084E-01;  4.0000000E+04;  0.0000000E+00;  4.0048391E+04; -2.4422510E-01;  0.0000000E+00;  2.6095010E-02;  6.5793110E+03;
  4.8623830E-01;  9.9999998E-03;  1.0994796E-01;5415; -1.4379740E-01;  0.0000000E+00;  2.8081704E-03;  9.9531873E+02;  1.0000146E-01; -3.8783586E+03;3;  3.4921484E+00;  0.0000000E+00; -3.1199129E+00;0; -2.0981604E-01;  3.9589629E+04;  0.0000000E+00; -3.4435645E-02;  4.0000000E+04;  0.0000000E+00;  4.0035531E+04; -2.3838343E-01;  0.0000000E+00;  2.8567394E-02;  4.8527407E+03;
  4.8624015E-01;  9.9999998E-03;  1.1994015E-01;5416; -1.4353773E-01;  0.0000000E+00;  3.1083857E-03;  9.9516272E+02;  1.0000150E-01; -4.0075894E+03;3;  3.3251972E+00;  0.0000000E+00; -3.3576107E+00;0; -2.1053153E-01;  3.9576457E+04;  0.0000000E+00; -3.9146002E-02;  4.0000000E+04;  0.0000000E+00;  4.0036398E+04; -2.3937370E-01;  0.0000000E+00;  2.8842160E-02;  4.9799985E+03;
  4.8623824E-01;  9.9999998E-03;  9.9955216E-02;5414; -1.4406484E-01;  0.0000000E+00;  2.5100862E-03;  9.9548016E+02;  1.0000148E-01; -3.7445847E+03;3;  3.6517172E+00;  0.0000000E+00; -2.8652959E+00;0; -2.0909420E-01;  3.9603398E+04;  0.0000000E+00; -2.9764084E-02;  4.0000000E+04;  0.0000000E+00;  4.0034441E+04; -2.3731501E-01;  0.0000000E+00;  2.8220821E-02;  4.7051387E+03;
  4.8624438E-01;  9.9999998E-03;  1.2993181E-01;5417; -1.4328964E-01;  0.0000000E+00;  3.4097729E-03;  9.9501593E+02;  1.0000146E-01; -4.1292158E+03;3;  3.1548171E+00;  0.0000000E+00; -3.5821788E+00;0; -2.1123727E-01;  3.9563871E+04;  0.0000000E+00; -4.4059303E-02;  4.0000000E+04;  0.0000000E+00;  4.0037258E+04; -2.4026069E-01;  0.0000000E+00;  2.9023429E-02;  5.0891685E+03;
  4.8623919E-01;  9.9999998E-03;  8.9962013E-02;5413; -1.4433531E-01;  0.0000000E+00;  2.2156623E-03;  9.9564050E+02;  1.0000148E-01; -3.6117488E+03;3;  3.8046610E+00;  0.0000000E+00; -2.5990496E+00;0; -2.0837155E-01;  3.9617520E+04;  0.0000000E+00; -2.5106819E-02;  4.0000000E+04;  0.0000000E+00;  4.0033184E+04; -2.3619671E-01;  0.0000000E+00;  2.7825156E-02;  4.5378730E+03;
  4.8624057E-01;  9.9999998E-03;  7.9968348E-02;5412; -1.4460345E-01;  0.0000000E+00;  1.9272610E-03;  9.9579388E+02;  1.0000142E-01; -3.4846907E+03;3;  3.9479036E+00;  0.0000000E+00; -2.3225319E+00;0; -2.0765826E-01;  3.9630988E+04;  0.0000000E+00; -2.0542890E-02;  4.0000000E+04;  0.0000000E+00;  4.0031914E+04; -2.3506102E-01;  0.0000000E+00;  2.7402751E-02;  4.3541396E+03;
  4.8625124E-01;  9.9999998E-03;  1.3992317E-01;5418; -1.4305635E-01;  0.0000000E+00;  3.7125337E-03;  9.9487878E+02;  1.0000150E-01; -4.2428418E+03;3;  2.9799542E+00;  0.0000000E+00; -3.7925498E+00;0; -2.1193141E-01;  3.9552508E+04;  0.0000000E+00; -4.9478639E-02;  4.0000000E+04;  0.0000000E+00;  4.0037793E+04; -2.4102429E-01;  0.0000000E+00;  2.9092878E-02;  5.1850713E+03;
  4.8624167E-01;  9.9999998E-03;  6.9974259E-02;5411; -1.4486295E-01;  0.0000000E+00;  1.6474038E-03;  9.9593933E+02;  1.0000142E-01; -3.3642004E+03;3;  4.0807519E+00;  0.0000000E+00; -2.0320611E+00;0; -2.0696768E-01;  3.9644129E+04;  0.0000000E+00; -1.6196789E-02;  4.0000000E+04;  0.0000000E+00;  4.0030441E+04; -2.3394233E-01;  0.0000000E+00;  2.6974654E-02;  4.1596602E+03;
  4.8626110E-01;  9.9999998E-03;  1.4991461E-01;5419; -1.4284039E-01;  0.0000000E+00;  4.0175463E-03;  9.9475800E+02;  1.0000141E-01; -4.3428887E+03;3;  2.8037081E+00;  0.0000000E+00; -3.9840882E+00;0; -2.1260989E-01;  3.9542219E+04;  0.0000000E+00; -5.5842780E-02;  4.0000000E+04;  0.0000000E+00;  4.0038531E+04; -2.4164796E-01;  0.0000000E+00;  2.9038070E-02;  5.2748467E+03;
  4.8627415E-01;  9.9999998E-03;  1.5990658E-01;5420; -1.4264388E-01;  0.0000000E+00;  4.3250644E-03;  9.9465137E+02;  1.0000144E-01; -4.4312319E+03;3;  2.6274052E+00;  0.0000000E+00; -4.1580644E+00;0; -2.1326214E-01;  3.9532992E+04;  0.0000000E+00; -6.3645683E-02;  4.0000000E+04;  0.0000000E+00;  4.0039191E+04; -2.4211967E-01;  0.0000000E+00;  2.8857524E-02;  5.3683955E+03;
  4.8629066E-01;  9.9999998E-03;  1.6989954E-01;5421; -1.4246854E-01;  0.0000000E+00;  4.6332013E-03;  9.9456165E+02;  1.0000145E-01; -4.5055508E+03;3;  2.4533222E+00;  0.0000000E+00; -4.3093791E+00;0; -2.1387057E-01;  3.9524992E+04;  0.0000000E+00; -7.3163860E-02;  4.0000000E+04;  0.0000000E+00;  4.0040000E+04; -2.4243358E-01;  0.0000000E+00;  2.8563004E-02;  5.4783179E+03;
  4.8630983E-01;  9.9999998E-03;  1.7989397E-01;5422; -1.4231564E-01;  0.0000000E+00;  4.9386150E-03;  9.9448572E+02;  1.0000140E-01; -4.5684624E+03;3;  2.2823009E+00;  0.0000000E+00; -4.4419346E+00;0; -2.1441151E-01;  3.9518027E+04;  0.0000000E+00; -8.4370583E-02;  4.0000000E+04;  0.0000000E+00;  4.0041055E+04; -2.4259020E-01;  0.0000000E+00;  2.8178688E-02;  5.6179243E+03;
  4.8633000E-01;  9.9999998E-03;  1.8989015E-01;5423; -1.4218555E-01;  0.0000000E+00;  5.2408585E-03;  9.9442523E+02;  1.0000148E-01; -4.6185845E+03;3;  2.1158226E+00;  0.0000000E+00; -4.5534277E+00;0; -2.1485783E-01;  3.9511699E+04;  0.0000000E+00; -9.7000532E-02;  4.0000000E+04;  0.0000000E+00;  4.0042477E+04; -2.4259558E-01;  0.0000000E+00;  2.7737753E-02;  5.7965728E+03;
  4.8634857E-01;  9.9999998E-03;  1.9988827E-01;5424; -1.4207871E-01;  0.0000000E+00;  5.5383677E-03;  9.9437518E+02;  1.0000140E-01; -4.6600645E+03;3;  1.9565297E+00;  0.0000000E+00; -4.6507192E+00;0; -2.1518353E-01;  3.9505941E+04;  0.0000000E+00; -1.1055428E-01;  4.0000000E+04;  0.0000000E+00;  4.0044176E+04; -2.4246295E-01;  0.0000000E+00;  2.7279429E-02;  6.0121948E+03;
  4.8636222E-01;  9.9999998E-03;  2.0988803E-01;5425; -1.4199470E-01;  0.0000000E+00;  5.8359792E-03;  9.9433417E+02;  1.0000147E-01; -4.6940391E+03;3;  1.8058527E+00;  0.0000000E+00; -4.7217579E+00;0; -2.1535549E-01;  3.9500797E+04;  0.0000000E+00; -1.2418934E-01;  4.0000000E+04;  0.0000000E+00;  4.0045918E+04; -2.4220927E-01;  0.0000000E+00;  2.6853792E-02;  6.2460850E+03;
  4.8637095E-01;  9.9999998E-03;  2.1988913E-01;5426; -1.4193328E-01;  0.0000000E+00;  6.1384845E-03;  9.9429199E+02;  1.0000146E-01; -4.7289517E+03;3;  1.6650196E+00;  0.0000000E+00; -4.7734203E+00;0; -2.1532111E-01;  3.9496016E+04;  0.0000000E+00; -1.3643652E-01;  4.0000000E+04;  0.0000000E+00;  4.0047633E+04; -2.4185467E-01;  0.0000000E+00;  2.6533553E-02;  6.4544102E+03;
  4.8637632E-01;  9.9999998E-03;  2.2989182E-01;5427; -1.4189401E-01;  0.0000000E+00;  6.4357738E-03;  9.9424524E+02;  1.0000141E-01; -4.7677158E+03;3;  1.5364103E+00;  0.0000000E+00; -4.8045902E+00;0; -2.1502991E-01;  3.9491453E+04;  0.0000000E+00; -1.4483444E-01;  4.0000000E+04;  0.0000000E+00;  4.0048363E+04; -2.4141978E-01;  0.0000000E+00;  2.6389871E-02;  6.5462266E+03;
  4.9621922E-01;  9.9999998E-03;  6.9972426E-02;5472; -1.4707348E-01;  0.0000000E+00;  1.4898489E-03;  9.9604529E+02;  1.0000208E-01; -3.2763999E+03;3;  4.4009342E+00;  0.0000000E+00; -2.0234632E+00;0; -2.0520420E-01;  3.9652277E+04;  0.0000000E+00; -4.2204015E-02;  4.0000000E+04;  0.0000000E+00;  4.0029984E+04; -2.3128900E-01;  0.0000000E+00;  2.6084799E-02;  4.0967920E+03;
  4.9622443E-01;  9.9999998E-03;  7.9966143E-02;5473; -1.4684458E-01;  0.0000000E+00;  1.7584454E-03;  9.9591583E+02;  1.0000209E-01; -3.3836560E+03;3;  4.2586050E+00;  0.0000000E+00; -2.3119447E+00;0; -2.0585324E-01;  3.9640547E+04;  0.0000000E+00; -5.1609047E-02;  4.0000000E+04;  0.0000000E+00;  4.0031465E+04; -2.3249230E-01;  0.0000000E+00;  2.6639059E-02;  4.3072021E+03;
  4.9622995E-01;  9.9999998E-03;  8.9959383E-02;5474; -1.4660621E-01;  0.0000000E+00;  2.0391571E-03;  9.9577887E+02;  1.0000204E-01; -3.4971343E+03;3;  4.1046281E+00;  0.0000000E+00; -2.6004231E+00;0; -2.0652741E-01;  3.9628125E+04;  0.0000000E+00; -6.0237892E-02;  4.0000000E+04;  0.0000000E+00;  4.0033109E+04; -2.3371358E-01;  0.0000000E+00;  2.7186166E-02;  4.5076177E+03;
  4.9623612E-01;  9.9999998E-03;  9.9952102E-02;5475; -1.4636368E-01;  0.0000000E+00;  2.3297453E-03;  9.9563538E+02;  1.0000208E-01; -3.6159951E+03;3;  3.9373913E+00;  0.0000000E+00; -2.8733165E+00;0; -2.0721363E-01;  3.9615449E+04;  0.0000000E+00; -6.7443706E-02;  4.0000000E+04;  0.0000000E+00;  4.0034535E+04; -2.3491523E-01;  0.0000000E+00;  2.7701607E-02;  4.6920068E+03;
  4.9624306E-01;  9.9999998E-03;  1.0994428E-01;5476; -1.4612140E-01;  0.0000000E+00;  2.6276789E-03;  9.9549091E+02;  1.0000202E-01; -3.7356953E+03;3;  3.7637591E+00;  0.0000000E+00; -3.1349018E+00;0; -2.0790158E-01;  3.9602789E+04;  0.0000000E+00; -7.2706938E-02;  4.0000000E+04;  0.0000000E+00;  4.0035652E+04; -2.3606184E-01;  0.0000000E+00;  2.8160254E-02;  4.8567852E+03;
  4.9625131E-01;  9.9999998E-03;  1.1993587E-01;5477; -1.4588366E-01;  0.0000000E+00;  2.9309418E-03;  9.9534723E+02;  1.0000196E-01; -3.8547537E+03;3;  3.5814650E+00;  0.0000000E+00; -3.3789034E+00;0; -2.0858477E-01;  3.9590395E+04;  0.0000000E+00; -7.5703874E-02;  4.0000000E+04;  0.0000000E+00;  4.0036793E+04; -2.3712185E-01;  0.0000000E+00;  2.8537083E-02;  5.0010806E+03;
  4.9626097E-01;  9.9999998E-03;  1.2992689E-01;5478; -1.4565398E-01;  0.0000000E+00;  3.2380531E-03;  9.9521045E+02;  1.0000198E-01; -3.9680344E+03;3;  3.3925486E+00;  0.0000000E+00; -3.6084251E+00;0; -2.0925829E-01;  3.9578531E+04;  0.0000000E+00; -7.6403983E-02;  4.0000000E+04;  0.0000000E+00;  4.0037703E+04; -2.3806708E-01;  0.0000000E+00;  2.8808784E-02;  5.1267017E+03;
  4.9627170E-01;  9.9999998E-03;  1.3991760E-01;5479; -1.4543521E-01;  0.0000000E+00;  3.5487639E-03;  9.9508173E+02;  1.0000201E-01; -4.0746980E+03;3;  3.1997111E+00;  0.0000000E+00; -3.8243647E+00;0; -2.0991847E-01;  3.9567637E+04;  0.0000000E+00; -7.5096980E-02;  4.0000000E+04;  0.0000000E+00;  4.0038414E+04; -2.3887376E-01;  0.0000000E+00;  2.8955298E-02;  5.2376035E+03;
  4.9628338E-01;  9.9999998E-03;  1.4990847E-01;5480; -1.4522998E-01;  0.0000000E+00;  3.8638129E-03;  9.9496307E+02;  1.0000207E-01; -4.1730161E+03;3;  3.0046659E+00;  0.0000000E+00; -4.0188565E+00;0; -2.1056013E-01;  3.9557523E+04;  0.0000000E+00; -7.2409511E-02;  4.0000000E+04;  0.0000000E+00;  4.0039133E+04; -2.3952293E-01;  0.0000000E+00;  2.8962802E-02;  5.3398286E+03;
  4.9629608E-01;  9.9999998E-03;  1.5989998E-01;5481; -1.4504051E-01;  0.0000000E+00;  4.1828612E-03;  9.9485742E+02;  1.0000201E-01; -4.2605200E+03;3;  2.8084772E+00;  0.0000000E+00; -4.1951747E+00;0; -2.1117282E-01;  3.9548293E+04;  0.0000000E+00; -6.9359317E-02;  4.0000000E+04;  0.0000000E+00;  4.0039824E+04; -2.4000087E-01;  0.0000000E+00;  2.8828060E-02;  5.4423779E+03;
  4.9630919E-01;  9.9999998E-03;  1.6989279E-01;5482; -1.4486849E-01;  0.0000000E+00;  4.5043416E-03;  9.9476593E+02;  1.0000210E-01; -4.3363203E+03;3;  2.6130979E+00;  0.0000000E+00; -4.3504491E+00;0; -2.1173657E-01;  3.9540117E+04;  0.0000000E+00; -6.7128383E-02;  4.0000000E+04;  0.0000000E+00;  4.0040809E+04; -2.4029894E-01;  0.0000000E+00;  2.8562365E-02;  5.5577407E+03;
  4.9632201E-01;  9.9999998E-03;  1.7988732E-01;5483; -1.4471525E-01;  0.0000000E+00;  4.8248288E-03;  9.9468579E+02;  1.0000210E-01; -4.4027378E+03;3;  2.4201479E+00;  0.0000000E+00; -4.4852271E+00;0; -2.1222702E-01;  3.9532641E+04;  0.0000000E+00; -6.6873237E-02;  4.0000000E+04;  0.0000000E+00;  4.0041844E+04; -2.4041814E-01;  0.0000000E+00;  2.8191112E-02;  5.6997075E+03;
  4.9633199E-01;  9.9999998E-03;  1.8988389E-01;5484; -1.4458081E-01;  0.0000000E+00;  5.1436527E-03;  9.9461725E+02;  1.0000215E-01; -4.4595264E+03;3;  2.2325227E+00;  0.0000000E+00; -4.5958228E+00;0; -2.1261305E-01;  3.9525777E+04;  0.0000000E+00; -6.9513962E-02;  4.0000000E+04;  0.0000000E+00;  4.0043238E+04; -2.4036469E-01;  0.0000000E+00;  2.7751638E-02;  5.8784414E+03;
  4.9633697E-01;  9.9999998E-03;  1.9988197E-01;5485; -1.4446521E-01;  0.0000000E+00;  5.4592071E-03;  9.9455920E+02;  1.0000195E-01; -4.5075747E+03;3;  2.0500829E+00;  0.0000000E+00; -4.6896663E+00;0; -2.1286280E-01;  3.9519590E+04;  0.0000000E+00; -7.5458542E-02;  4.0000000E+04;  0.0000000E+00;  4.0044938E+04; -2.4015382E-01;  0.0000000E+00;  2.7291020E-02;  6.0960977E+03;
  4.9633902E-01;  9.9999998E-03;  2.0988177E-01;5486; -1.4436866E-01;  0.0000000E+00;  5.7764901E-03;  9.9451111E+02;  1.0000203E-01; -4.5474253E+03;3;  1.8761982E+00;  0.0000000E+00; -4.7609882E+00;0; -2.1293136E-01;  3.9513938E+04;  0.0000000E+00; -8.4357060E-02;  4.0000000E+04;  0.0000000E+00;  4.0046844E+04; -2.3980424E-01;  0.0000000E+00;  2.6872870E-02;  6.3368184E+03;
  4.9633807E-01;  9.9999998E-03;  2.1988367E-01;5487; -1.4429015E-01;  0.0000000E+00;  6.1012222E-03;  9.9446655E+02;  1.0000205E-01; -4.5843623E+03;3;  1.7110962E+00;  0.0000000E+00; -4.8097501E+00;0; -2.1274684E-01;  3.9508668E+04;  0.0000000E+00; -9.4870239E-02;  4.0000000E+04;  0.0000000E+00;  4.0048512E+04; -2.3933989E-01;  0.0000000E+00;  2.6593044E-02;  6.5491396E+03;
  4.9633408E-01;  9.9999998E-03;  2.2988792E-01;5488; -1.4422849E-01;  0.0000000E+00;  6.4176656E-03;  9.9441522E+02;  1.0000207E-01; -4.6268799E+03;3;  1.5591526E+00;  0.0000000E+00; -4.8372898E+00;0; -2.1224375E-01;  3.9503996E+04;  0.0000000E+00; -1.0442249E-01;  4.0000000E+04;  0.0000000E+00;  4.0049082E+04; -2.3878609E-01;  0.0000000E+00;  2.6542338E-02;  6.6239434E+03;
  5.0618833E-01;  9.9999998E-03;  6.9972597E-02;5533; -1.4925949E-01;  0.0000000E+00;  1.3512885E-03;  9.9593866E+02;  1.0000388E-01; -3.3647432E+03;3;  4.7292457E+00;  0.0000000E+00; -2.0231469E+00;0; -2.0390929E-01;  3.9643184E+04;  0.0000000E+00; -6.5560251E-02;  4.0000000E+04;  0.0000000E+00;  4.0029336E+04; -2.2905993E-01;  0.0000000E+00;  2.5150647E-02;  4.0197764E+03;
  5.0619924E-01;  9.9999998E-03;  7.9966486E-02;5534; -1.4906113E-01;  0.0000000E+00;  1.6077220E-03;  9.9583618E+02;  1.0000373E-01; -3.4496296E+03;3;  4.5783119E+00;  0.0000000E+00; -2.3069470E+00;0; -2.0448032E-01;  3.9633141E+04;  0.0000000E+00; -7.8812853E-02;  4.0000000E+04;  0.0000000E+00;  4.0030859E+04; -2.3030083E-01;  0.0000000E+00;  2.5820505E-02;  4.2342866E+03;
  5.0621128E-01;  9.9999998E-03;  8.9959845E-02;5535; -1.4885293E-01;  0.0000000E+00;  1.8789115E-03;  9.9572241E+02;  1.0000387E-01; -3.5438984E+03;3;  4.4116316E+00;  0.0000000E+00; -2.5889273E+00;0; -2.0507732E-01;  3.9622961E+04;  0.0000000E+00; -9.0056650E-02;  4.0000000E+04;  0.0000000E+00;  4.0032504E+04; -2.3156138E-01;  0.0000000E+00;  2.6484054E-02;  4.4406914E+03;
  5.0622386E-01;  9.9999998E-03;  9.9952742E-02;5536; -1.4863881E-01;  0.0000000E+00;  2.1628353E-03;  9.9560474E+02;  1.0000372E-01; -3.6413772E+03;3;  4.2337584E+00;  0.0000000E+00; -2.8679354E+00;0; -2.0568815E-01;  3.9612164E+04;  0.0000000E+00; -9.8218575E-02;  4.0000000E+04;  0.0000000E+00;  4.0033980E+04; -2.3280182E-01;  0.0000000E+00;  2.7113680E-02;  4.6335029E+03;
  5.0623703E-01;  9.9999998E-03;  1.0994511E-01;5537; -1.4842272E-01;  0.0000000E+00;  2.4573773E-03;  9.9548486E+02;  1.0000384E-01; -3.7406829E+03;3;  4.0425606E+00;  0.0000000E+00; -3.1337731E+00;0; -2.0630418E-01;  3.9601223E+04;  0.0000000E+00; -1.0243188E-01;  4.0000000E+04;  0.0000000E+00;  4.0035266E+04; -2.3398551E-01;  0.0000000E+00;  2.7681338E-02;  4.8098950E+03;
  5.0625050E-01;  9.9999998E-03;  1.1993687E-01;5538; -1.4820799E-01;  0.0000000E+00;  2.7601523E-03;  9.9536285E+02;  1.0000389E-01; -3.8417664E+03;3;  3.8437247E+00;  0.0000000E+00; -3.3893480E+00;0; -2.0691839E-01;  3.9590461E+04;  0.0000000E+00; -1.0216295E-01;  4.0000000E+04;  0.0000000E+00;  4.0036512E+04; -2.3507801E-01;  0.0000000E+00;  2.8159626E-02;  4.9695396E+03;
  5.0626403E-01;  9.9999998E-03;  1.2992802E-01;5539; -1.4799789E-01;  0.0000000E+00;  3.0698779E-03;  9.9524261E+02;  1.0000384E-01; -3.9414180E+03;3;  3.6362669E+00;  0.0000000E+00; -3.6229362E+00;0; -2.0752670E-01;  3.9580016E+04;  0.0000000E+00; -9.7323366E-02;  4.0000000E+04;  0.0000000E+00;  4.0037539E+04; -2.3604956E-01;  0.0000000E+00;  2.8522866E-02;  5.1144473E+03;
  5.0627708E-01;  9.9999998E-03;  1.3991888E-01;5540; -1.4779496E-01;  0.0000000E+00;  3.3857140E-03;  9.9512830E+02;  1.0000389E-01; -4.0361313E+03;3;  3.4252782E+00;  0.0000000E+00; -3.8401227E+00;0; -2.0812389E-01;  3.9569824E+04;  0.0000000E+00; -8.8319317E-02;  4.0000000E+04;  0.0000000E+00;  4.0038570E+04; -2.3687269E-01;  0.0000000E+00;  2.8748797E-02;  5.2481323E+03;
  5.0628936E-01;  9.9999998E-03;  1.4990988E-01;5541; -1.4760180E-01;  0.0000000E+00;  3.7079067E-03;  9.9501868E+02;  1.0000379E-01; -4.1269434E+03;3;  3.2102947E+00;  0.0000000E+00; -4.0373816E+00;0; -2.0870617E-01;  3.9560195E+04;  0.0000000E+00; -7.6101087E-02;  4.0000000E+04;  0.0000000E+00;  4.0039398E+04; -2.3752710E-01;  0.0000000E+00;  2.8820937E-02;  5.3754409E+03;
  5.0630057E-01;  9.9999998E-03;  1.5990165E-01;5542; -1.4742066E-01;  0.0000000E+00;  4.0356130E-03;  9.9491406E+02;  1.0000366E-01; -4.2136074E+03;3;  2.9928639E+00;  0.0000000E+00; -4.2142229E+00;0; -2.0926125E-01;  3.9551051E+04;  0.0000000E+00; -6.2320750E-02;  4.0000000E+04;  0.0000000E+00;  4.0040496E+04; -2.3799519E-01;  0.0000000E+00;  2.8733941E-02;  5.5034556E+03;
  5.0631011E-01;  9.9999998E-03;  1.6989475E-01;5543; -1.4725323E-01;  0.0000000E+00;  4.3666870E-03;  9.9481812E+02;  1.0000373E-01; -4.2931113E+03;3;  2.7757072E+00;  0.0000000E+00; -4.3697906E+00;0; -2.0976987E-01;  3.9542434E+04;  0.0000000E+00; -4.9150452E-02;  4.0000000E+04;  0.0000000E+00;  4.0041562E+04; -2.3826790E-01;  0.0000000E+00;  2.8498024E-02;  5.6420342E+03;
  5.0631678E-01;  9.9999998E-03;  1.7988949E-01;5544; -1.4710064E-01;  0.0000000E+00;  4.6976446E-03;  9.9473242E+02;  1.0000380E-01; -4.3640723E+03;3;  2.5595191E+00;  0.0000000E+00; -4.5050187E+00;0; -2.1020488E-01;  3.9534320E+04;  0.0000000E+00; -3.8914260E-02;  4.0000000E+04;  0.0000000E+00;  4.0042707E+04; -2.3834430E-01;  0.0000000E+00;  2.8139409E-02;  5.8022949E+03;
  5.0631922E-01;  9.9999998E-03;  1.8988565E-01;5545; -1.4696294E-01;  0.0000000E+00;  5.0269547E-03;  9.9465320E+02;  1.0000368E-01; -4.4297002E+03;3;  2.3477533E+00;  0.0000000E+00; -4.6171331E+00;0; -2.1053261E-01;  3.9526559E+04;  0.0000000E+00; -3.3579733E-02;  4.0000000E+04;  0.0000000E+00;  4.0044164E+04; -2.3823109E-01;  0.0000000E+00;  2.7698493E-02;  5.9930952E+03;
  5.0631815E-01;  9.9999998E-03;  1.9988316E-01;5546; -1.4684018E-01;  0.0000000E+00;  5.3527257E-03;  9.9458069E+02;  1.0000372E-01; -4.4897974E+03;3;  2.1412508E+00;  0.0000000E+00; -4.7081103E+00;0; -2.1071514E-01;  3.9519090E+04;  0.0000000E+00; -3.4272451E-02;  4.0000000E+04;  0.0000000E+00;  4.0045934E+04; -2.3794286E-01;  0.0000000E+00;  2.7227718E-02;  6.2165269E+03;
  5.0631410E-01;  9.9999998E-03;  2.0988210E-01;5547; -1.4673120E-01;  0.0000000E+00;  5.6795608E-03;  9.9451776E+02;  1.0000365E-01; -4.5419438E+03;3;  1.9436917E+00;  0.0000000E+00; -4.7769179E+00;0; -2.1070415E-01;  3.9512367E+04;  0.0000000E+00; -4.0982373E-02;  4.0000000E+04;  0.0000000E+00;  4.0047906E+04; -2.3750252E-01;  0.0000000E+00;  2.6798373E-02;  6.4606436E+03;
  5.0630671E-01;  9.9999998E-03;  2.1988298E-01;5548; -1.4663447E-01;  0.0000000E+00;  6.0132369E-03;  9.9445996E+02;  1.0000384E-01; -4.5897944E+03;3;  1.7540566E+00;  0.0000000E+00; -4.8229227E+00;0; -2.1041946E-01;  3.9506027E+04;  0.0000000E+00; -5.2434955E-02;  4.0000000E+04;  0.0000000E+00;  4.0049531E+04; -2.3693682E-01;  0.0000000E+00;  2.6517356E-02;  6.6811694E+03;
  5.0629574E-01;  9.9999998E-03;  2.2988650E-01;5549; -1.4654808E-01;  0.0000000E+00;  6.3377409E-03;  9.9439819E+02;  1.0000373E-01; -4.6410029E+03;3;  1.5756955E+00;  0.0000000E+00; -4.8442492E+00;0; -2.0978656E-01;  3.9500281E+04;  0.0000000E+00; -6.6058688E-02;  4.0000000E+04;  0.0000000E+00;  4.0050332E+04; -2.3627526E-01;  0.0000000E+00;  2.6488690E-02;  6.7692896E+03;
  5.1616418E-01;  9.9999998E-03;  6.9974616E-02;5594; -1.5144181E-01;  0.0000000E+00;  1.2388122E-03;  9.9562225E+02;  1.0000610E-01; -3.6268586E+03;3;  5.0682430E+00;  0.0000000E+00; -1.9991118E+00;0; -2.0306183E-01;  3.9616750E+04;  0.0000000E+00; -8.3369918E-02;  4.0000000E+04;  0.0000000E+00;  4.0028309E+04; -2.2723451E-01;  0.0000000E+00;  2.4172682E-02;  3.9330391E+03;
  5.1617879E-01;  9.9999998E-03;  7.9969451E-02;5595; -1.5127218E-01;  0.0000000E+00;  1.4816531E-03;  9.9554907E+02;  1.0000617E-01; -3.6874990E+03;3;  4.9045410E+00;  0.0000000E+00; -2.2971473E+00;0; -2.0352300E-01;  3.9609367E+04;  0.0000000E+00; -9.8756984E-02;  4.0000000E+04;  0.0000000E+00;  4.0029965E+04; -2.2846568E-01;  0.0000000E+00;  2.4942676E-02;  4.1403081E+03;
  5.1619548E-01;  9.9999998E-03;  8.9963697E-02;5596; -1.5109248E-01;  0.0000000E+00;  1.7417935E-03;  9.9546918E+02;  1.0000612E-01; -3.7537192E+03;3;  4.7263222E+00;  0.0000000E+00; -2.5793834E+00;0; -2.0400858E-01;  3.9601426E+04;  0.0000000E+00; -1.1085217E-01;  4.0000000E+04;  0.0000000E+00;  4.0031441E+04; -2.2971787E-01;  0.0000000E+00;  2.5709281E-02;  4.3420498E+03;
  5.1621312E-01;  9.9999998E-03;  9.9957369E-02;5597; -1.5090583E-01;  0.0000000E+00;  2.0169390E-03;  9.9538220E+02;  1.0000619E-01; -3.8257666E+03;3;  4.5337563E+00;  0.0000000E+00; -2.8529642E+00;0; -2.0450911E-01;  3.9593215E+04;  0.0000000E+00; -1.1829113E-01;  4.0000000E+04;  0.0000000E+00;  4.0032969E+04; -2.3095141E-01;  0.0000000E+00;  2.6442299E-02;  4.5344873E+03;
  5.1623082E-01;  9.9999998E-03;  1.0995053E-01;5598; -1.5071525E-01;  0.0000000E+00;  2.3048453E-03;  9.9528955E+02;  1.0000629E-01; -3.9025051E+03;3;  4.3290501E+00;  0.0000000E+00; -3.1219354E+00;0; -2.0501699E-01;  3.9584660E+04;  0.0000000E+00; -1.2004011E-01;  4.0000000E+04;  0.0000000E+00;  4.0034309E+04; -2.3212817E-01;  0.0000000E+00;  2.7111188E-02;  4.7164639E+03;
  5.1624805E-01;  9.9999998E-03;  1.1994312E-01;5599; -1.5052345E-01;  0.0000000E+00;  2.6038212E-03;  9.9519409E+02;  1.0000619E-01; -3.9816140E+03;3;  4.1115642E+00;  0.0000000E+00; -3.3778923E+00;0; -2.0552728E-01;  3.9575828E+04;  0.0000000E+00; -1.1552231E-01;  4.0000000E+04;  0.0000000E+00;  4.0035770E+04; -2.3321323E-01;  0.0000000E+00;  2.7685950E-02;  4.8891270E+03;
  5.1626432E-01;  9.9999998E-03;  1.2993515E-01;5600; -1.5033315E-01;  0.0000000E+00;  2.9122534E-03;  9.9509753E+02;  1.0000630E-01; -4.0616116E+03;3;  3.8869543E+00;  0.0000000E+00; -3.6201007E+00;0; -2.0603596E-01;  3.9566863E+04;  0.0000000E+00; -1.0472771E-01;  4.0000000E+04;  0.0000000E+00;  4.0036992E+04; -2.3417430E-01;  0.0000000E+00;  2.8138345E-02;  5.0552290E+03;
  5.1627892E-01;  9.9999998E-03;  1.3992688E-01;5601; -1.5014687E-01;  0.0000000E+00;  3.2295005E-03;  9.9500055E+02;  1.0000619E-01; -4.1419551E+03;3;  3.6548507E+00;  0.0000000E+00; -3.8369823E+00;0; -2.0654017E-01;  3.9557949E+04;  0.0000000E+00; -8.8285469E-02;  4.0000000E+04;  0.0000000E+00;  4.0038227E+04; -2.3498334E-01;  0.0000000E+00;  2.8443176E-02;  5.2182710E+03;
  5.1629168E-01;  9.9999998E-03;  1.4991879E-01;5602; -1.4996687E-01;  0.0000000E+00;  3.5549246E-03;  9.9490112E+02;  1.0000607E-01; -4.2243232E+03;3;  3.4190314E+00;  0.0000000E+00; -4.0355000E+00;0; -2.0703517E-01;  3.9548930E+04;  0.0000000E+00; -6.7511164E-02;  4.0000000E+04;  0.0000000E+00;  4.0039484E+04; -2.3561609E-01;  0.0000000E+00;  2.8580921E-02;  5.3817573E+03;
  5.1630217E-01;  9.9999998E-03;  1.5991132E-01;5603; -1.4979540E-01;  0.0000000E+00;  3.8871893E-03;  9.9480298E+02;  1.0000635E-01; -4.3056543E+03;3;  3.1798198E+00;  0.0000000E+00; -4.2123637E+00;0; -2.0751099E-01;  3.9539883E+04;  0.0000000E+00; -4.4671256E-02;  4.0000000E+04;  0.0000000E+00;  4.0040711E+04; -2.3605438E-01;  0.0000000E+00;  2.8543381E-02;  5.5498618E+03;
  5.1630974E-01;  9.9999998E-03;  1.6990484E-01;5604; -1.4963406E-01;  0.0000000E+00;  4.2231861E-03;  9.9470654E+02;  1.0000616E-01; -4.3855034E+03;3;  2.9393103E+00;  0.0000000E+00; -4.3680773E+00;0; -2.0794722E-01;  3.9530898E+04;  0.0000000E+00; -2.2856809E-02;  4.0000000E+04;  0.0000000E+00;  4.0042129E+04; -2.3628639E-01;  0.0000000E+00;  2.8339168E-02;  5.7276602E+03;
  5.1631349E-01;  9.9999998E-03;  1.7989945E-01;5605; -1.4948373E-01;  0.0000000E+00;  4.5587467E-03;  9.9461053E+02;  1.0000625E-01; -4.4650566E+03;3;  2.6998963E+00;  0.0000000E+00; -4.5018640E+00;0; -2.0831451E-01;  3.9521941E+04;  0.0000000E+00; -5.3866687E-03;  4.0000000E+04;  0.0000000E+00;  4.0043570E+04; -2.3630917E-01;  0.0000000E+00;  2.7994659E-02;  5.9207935E+03;
  5.1631349E-01;  9.9999998E-03;  1.8989509E-01;5606; -1.4934477E-01;  0.0000000E+00;  4.8910528E-03;  9.9451697E+02;  1.0000610E-01; -4.5425854E+03;3;  2.4625430E+00;  0.0000000E+00; -4.6150866E+00;0; -2.0857753E-01;  3.9512910E+04;  0.0000000E+00;  4.9461941E-03;  4.0000000E+04;  0.0000000E+00;  4.0045215E+04; -2.3612951E-01;  0.0000000E+00;  2.7551973E-02;  6.1331299E+03;
  5.1631027E-01;  9.9999998E-03;  1.9989157E-01;5607; -1.4921626E-01;  0.0000000E+00;  5.2177673E-03;  9.9442755E+02;  1.0000618E-01; -4.6166572E+03;3;  2.2309849E+00;  0.0000000E+00; -4.7019939E+00;0; -2.0869705E-01;  3.9504160E+04;  0.0000000E+00;  6.5138764E-03;  4.0000000E+04;  0.0000000E+00;  4.0046996E+04; -2.3576306E-01;  0.0000000E+00;  2.7066015E-02;  6.3645020E+03;
  5.1630366E-01;  9.9999998E-03;  2.0988888E-01;5608; -1.4909598E-01;  0.0000000E+00;  5.5426154E-03;  9.9434741E+02;  1.0000617E-01; -4.6830752E+03;3;  2.0074136E+00;  0.0000000E+00; -4.7696652E+00;0; -2.0862435E-01;  3.9495723E+04;  0.0000000E+00; -8.6202828E-04;  4.0000000E+04;  0.0000000E+00;  4.0048883E+04; -2.3523393E-01;  0.0000000E+00;  2.6609579E-02;  6.6066196E+03;
  5.1629370E-01;  9.9999998E-03;  2.1988723E-01;5609; -1.4898221E-01;  0.0000000E+00;  5.8695450E-03;  9.9426892E+02;  1.0000622E-01; -4.7481104E+03;3;  1.7919087E+00;  0.0000000E+00; -4.8122892E+00;0; -2.0828746E-01;  3.9487844E+04;  0.0000000E+00; -1.5935246E-02;  4.0000000E+04;  0.0000000E+00;  4.0050656E+04; -2.3457216E-01;  0.0000000E+00;  2.6284691E-02;  6.8339404E+03;
  5.1628023E-01;  9.9999998E-03;  2.2988781E-01;5610; -1.4887209E-01;  0.0000000E+00;  6.1884206E-03;  9.9418976E+02;  1.0000625E-01; -4.8136890E+03;3;  1.5882202E+00;  0.0000000E+00; -4.8298564E+00;0; -2.0761004E-01;  3.9480719E+04;  0.0000000E+00; -3.6135159E-02;  4.0000000E+04;  0.0000000E+00;  4.0051621E+04; -2.3381126E-01;  0.0000000E+00;  2.6201222E-02;  6.9610630E+03;
  5.2615732E-01;  9.9999998E-03;  6.9978982E-02;5655; -1.5363717E-01;  0.0000000E+00;  1.1544958E-03;  9.9515002E+02;  1.0001037E-01; -4.0181064E+03;3;  5.4174924E+00;  0.0000000E+00; -1.9783690E+00;0; -2.0261924E-01;  3.9576430E+04;  0.0000000E+00; -9.2664219E-02;  4.0000000E+04;  0.0000000E+00;  4.0027340E+04; -2.2576393E-01;  0.0000000E+00;  2.3144690E-02;  3.8485352E+03;
  5.2617395E-01;  9.9999998E-03;  7.9975180E-02;5656; -1.5349311E-01;  0.0000000E+00;  1.3844904E-03;  9.9510828E+02;  1.0001046E-01; -4.0527227E+03;3;  5.2407255E+00;  0.0000000E+00; -2.2681170E+00;0; -2.0294368E-01;  3.9571719E+04;  0.0000000E+00; -1.0807890E-01;  4.0000000E+04;  0.0000000E+00;  4.0028770E+04; -2.2694005E-01;  0.0000000E+00;  2.3996370E-02;  4.0381226E+03;
  5.2619296E-01;  9.9999998E-03;  8.9970812E-02;5657; -1.5333898E-01;  0.0000000E+00;  1.6321936E-03;  9.9506201E+02;  1.0001046E-01; -4.0910427E+03;3;  5.0482216E+00;  0.0000000E+00; -2.5583205E+00;0; -2.0328797E-01;  3.9566586E+04;  0.0000000E+00; -1.1908456E-01;  4.0000000E+04;  0.0000000E+00;  4.0030277E+04; -2.2813769E-01;  0.0000000E+00;  2.4849717E-02;  4.2251504E+03;
  5.2621329E-01;  9.9999998E-03;  9.9965848E-02;5658; -1.5317732E-01;  0.0000000E+00;  1.8963878E-03;  9.9500989E+02;  1.0001040E-01; -4.1342017E+03;3;  4.8410082E+00;  0.0000000E+00; -2.8354316E+00;0; -2.0364624E-01;  3.9561012E+04;  0.0000000E+00; -1.2424491E-01;  4.0000000E+04;  0.0000000E+00;  4.0031730E+04; -2.2931848E-01;  0.0000000E+00;  2.5672246E-02;  4.4084341E+03;
  5.2623379E-01;  9.9999998E-03;  1.0996032E-01;5659; -1.5301037E-01;  0.0000000E+00;  2.1752461E-03;  9.9495038E+02;  1.0001045E-01; -4.1835337E+03;3;  4.6191411E+00;  0.0000000E+00; -3.0976341E+00;0; -2.0401274E-01;  3.9555008E+04;  0.0000000E+00; -1.2256301E-01;  4.0000000E+04;  0.0000000E+00;  4.0033070E+04; -2.3044427E-01;  0.0000000E+00;  2.6431534E-02;  4.5894580E+03;
  5.2625352E-01;  9.9999998E-03;  1.1995429E-01;5660; -1.5284035E-01;  0.0000000E+00;  2.4669671E-03;  9.9488330E+02;  1.0001054E-01; -4.2390879E+03;3;  4.3866291E+00;  0.0000000E+00; -3.3517857E+00;0; -2.0438446E-01;  3.9548516E+04;  0.0000000E+00; -1.1358944E-01;  4.0000000E+04;  0.0000000E+00;  4.0034570E+04; -2.3147966E-01;  0.0000000E+00;  2.7095197E-02;  4.7715347E+03;
  5.2627188E-01;  9.9999998E-03;  1.2994781E-01;5661; -1.5266949E-01;  0.0000000E+00;  2.7704539E-03;  9.9481061E+02;  1.0001041E-01; -4.2993330E+03;3;  4.1424589E+00;  0.0000000E+00; -3.5896006E+00;0; -2.0476028E-01;  3.9541344E+04;  0.0000000E+00; -9.7518794E-02;  4.0000000E+04;  0.0000000E+00;  4.0036023E+04; -2.3239258E-01;  0.0000000E+00;  2.7632296E-02;  4.9587402E+03;
  5.2628821E-01;  9.9999998E-03;  1.3994105E-01;5662; -1.5249994E-01;  0.0000000E+00;  3.0847804E-03;  9.9473169E+02;  1.0001052E-01; -4.3647139E+03;3;  3.8901117E+00;  0.0000000E+00; -3.8133750E+00;0; -2.0513795E-01;  3.9533754E+04;  0.0000000E+00; -7.5245723E-02;  4.0000000E+04;  0.0000000E+00;  4.0037496E+04; -2.3315243E-01;  0.0000000E+00;  2.8014477E-02;  5.1547104E+03;
  5.2630210E-01;  9.9999998E-03;  1.4993429E-01;5663; -1.5233384E-01;  0.0000000E+00;  3.4093256E-03;  9.9464905E+02;  1.0001054E-01; -4.4331562E+03;3;  3.6306663E+00;  0.0000000E+00; -4.0118637E+00;0; -2.0551562E-01;  3.9525465E+04;  0.0000000E+00; -4.8387311E-02;  4.0000000E+04;  0.0000000E+00;  4.0039133E+04; -2.3373421E-01;  0.0000000E+00;  2.8218586E-02;  5.3615767E+03;
  5.2631307E-01;  9.9999998E-03;  1.5992777E-01;5664; -1.5217306E-01;  0.0000000E+00;  3.7414797E-03;  9.9455603E+02;  1.0001034E-01; -4.5102402E+03;3;  3.3683710E+00;  0.0000000E+00; -4.1908708E+00;0; -2.0588396E-01;  3.9516578E+04;  0.0000000E+00; -1.9637672E-02;  4.0000000E+04;  0.0000000E+00;  4.0040766E+04; -2.3411706E-01;  0.0000000E+00;  2.8233094E-02;  5.5795210E+03;
  5.2632040E-01;  9.9999998E-03;  1.6992167E-01;5665; -1.5201901E-01;  0.0000000E+00;  4.0775710E-03;  9.9445831E+02;  1.0001042E-01; -4.5911763E+03;3;  3.1043723E+00;  0.0000000E+00; -4.3441811E+00;0; -2.0622334E-01;  3.9507207E+04;  0.0000000E+00;  7.2506592E-03;  4.0000000E+04;  0.0000000E+00;  4.0042516E+04; -2.3428760E-01;  0.0000000E+00;  2.8064258E-02;  5.8071934E+03;
  5.2632427E-01;  9.9999998E-03;  1.7991611E-01;5666; -1.5187263E-01;  0.0000000E+00;  4.4114827E-03;  9.9435474E+02;  1.0001040E-01; -4.6770010E+03;3;  2.8390365E+00;  0.0000000E+00; -4.4795012E+00;0; -2.0650329E-01;  3.9497324E+04;  0.0000000E+00;  2.8261771E-02;  4.0000000E+04;  0.0000000E+00;  4.0044324E+04; -2.3424138E-01;  0.0000000E+00;  2.7738092E-02;  6.0422256E+03;
  5.2632475E-01;  9.9999998E-03;  1.8991107E-01;5667; -1.5173392E-01;  0.0000000E+00;  4.7393227E-03;  9.9424847E+02;  1.0001057E-01; -4.7650479E+03;3;  2.5769968E+00;  0.0000000E+00; -4.5879974E+00;0; -2.0668724E-01;  3.9487000E+04;  0.0000000E+00;  4.0081233E-02;  4.0000000E+04;  0.0000000E+00;  4.0046176E+04; -2.3398422E-01;  0.0000000E+00;  2.7296983E-02;  6.2808613E+03;
  5.2632219E-01;  9.9999998E-03;  1.9990617E-01;5668; -1.5160117E-01;  0.0000000E+00;  5.0587817E-03;  9.9414056E+02;  1.0001054E-01; -4.8544282E+03;3;  2.3188632E+00;  0.0000000E+00; -4.6722369E+00;0; -2.0673554E-01;  3.9476703E+04;  0.0000000E+00;  4.0788237E-02;  4.0000000E+04;  0.0000000E+00;  4.0047934E+04; -2.3353170E-01;  0.0000000E+00;  2.6796162E-02;  6.5184722E+03;
  5.2631664E-01;  9.9999998E-03;  2.0990126E-01;5669; -1.5147199E-01;  0.0000000E+00;  5.3690826E-03;  9.9403461E+02;  1.0001054E-01; -4.9422280E+03;3;  2.0677426E+00;  0.0000000E+00; -4.7376447E+00;0; -2.0660909E-01;  3.9466633E+04;  0.0000000E+00;  3.0135047E-02;  4.0000000E+04;  0.0000000E+00;  4.0049836E+04; -2.3291042E-01;  0.0000000E+00;  2.6301339E-02;  6.7500356E+03;
  5.2630824E-01;  9.9999998E-03;  2.1989638E-01;5670; -1.5134381E-01;  0.0000000E+00;  5.6748600E-03;  9.9393555E+02;  1.0001040E-01; -5.0242998E+03;3;  1.8269087E+00;  0.0000000E+00; -4.7760553E+00;0; -2.0625347E-01;  3.9457145E+04;  0.0000000E+00;  9.4218319E-03;  4.0000000E+04;  0.0000000E+00;  4.0051410E+04; -2.3215276E-01;  0.0000000E+00;  2.5899298E-02;  6.9687471E+03;
  5.2629721E-01;  9.9999998E-03;  2.2989260E-01;5671; -1.5121378E-01;  0.0000000E+00;  5.9726639E-03;  9.9383990E+02;  1.0001051E-01; -5.1035073E+03;3;  1.5954020E+00;  0.0000000E+00; -4.7925386E+00;0; -2.0560555E-01;  3.9448277E+04;  0.0000000E+00; -1.8667676E-02;  4.0000000E+04;  0.0000000E+00;  4.0052688E+04; -2.3129448E-01;  0.0000000E+00;  2.5688926E-02;  7.1338882E+03;
  5.3617418E-01;  9.9999998E-03;  6.9985971E-02;5716; -1.5585603E-01;  0.0000000E+00;  1.0974040E-03;  9.9460413E+02;  1.0001725E-01; -4.4703896E+03;3;  5.7725039E+00;  0.0000000E+00; -1.9549683E+00;0; -2.0253171E-01;  3.9528098E+04;  0.0000000E+00; -9.0608515E-02;  4.0000000E+04;  0.0000000E+00;  4.0026391E+04; -2.2458416E-01;  0.0000000E+00;  2.2052456E-02;  3.7845217E+03;
  5.3619140E-01;  9.9999998E-03;  7.9983570E-02;5717; -1.5573317E-01;  0.0000000E+00;  1.3155460E-03;  9.9459357E+02;  1.0001741E-01; -4.4791304E+03;3;  5.5873685E+00;  0.0000000E+00; -2.2402558E+00;0; -2.0269692E-01;  3.9526102E+04;  0.0000000E+00; -1.0369209E-01;  4.0000000E+04;  0.0000000E+00;  4.0027676E+04; -2.2566368E-01;  0.0000000E+00;  2.2966757E-02;  3.9473489E+03;
  5.3621083E-01;  9.9999998E-03;  8.9980744E-02;5718; -1.5560088E-01;  0.0000000E+00;  1.5509616E-03;  9.9457947E+02;  1.0001743E-01; -4.4907842E+03;3;  5.3790722E+00;  0.0000000E+00; -2.5208902E+00;0; -2.0287427E-01;  3.9523645E+04;  0.0000000E+00; -1.1167675E-01;  4.0000000E+04;  0.0000000E+00;  4.0028980E+04; -2.2676373E-01;  0.0000000E+00;  2.3889456E-02;  4.1103647E+03;
  5.3623205E-01;  9.9999998E-03;  9.9977329E-02;5719; -1.5546088E-01;  0.0000000E+00;  1.8027631E-03;  9.9455829E+02;  1.0001730E-01; -4.5083638E+03;3;  5.1554990E+00;  0.0000000E+00; -2.7999022E+00;0; -2.0306143E-01;  3.9520762E+04;  0.0000000E+00; -1.1329877E-01;  4.0000000E+04;  0.0000000E+00;  4.0030215E+04; -2.2784825E-01;  0.0000000E+00;  2.4786822E-02;  4.2759258E+03;
  5.3625375E-01;  9.9999998E-03;  1.0997346E-01;5720; -1.5531491E-01;  0.0000000E+00;  2.0702281E-03;  9.9452966E+02;  1.0001743E-01; -4.5320669E+03;3;  4.9171829E+00;  0.0000000E+00; -3.0633347E+00;0; -2.0325540E-01;  3.9517219E+04;  0.0000000E+00; -1.0782187E-01;  4.0000000E+04;  0.0000000E+00;  4.0031648E+04; -2.2888018E-01;  0.0000000E+00;  2.5624787E-02;  4.4487822E+03;
  5.3627503E-01;  9.9999998E-03;  1.1996921E-01;5721; -1.5516473E-01;  0.0000000E+00;  2.3519103E-03;  9.9449091E+02;  1.0001743E-01; -4.5641650E+03;3;  4.6644607E+00;  0.0000000E+00; -3.3098848E+00;0; -2.0345634E-01;  3.9512914E+04;  0.0000000E+00; -9.5091321E-02;  4.0000000E+04;  0.0000000E+00;  4.0033105E+04; -2.2982556E-01;  0.0000000E+00;  2.6369216E-02;  4.6349307E+03;
  5.3629506E-01;  9.9999998E-03;  1.2996458E-01;5722; -1.5501209E-01;  0.0000000E+00;  2.6469459E-03;  9.9444421E+02;  1.0001732E-01; -4.6028799E+03;3;  4.4016719E+00;  0.0000000E+00; -3.5467422E+00;0; -2.0366433E-01;  3.9507535E+04;  0.0000000E+00; -7.5572655E-02;  4.0000000E+04;  0.0000000E+00;  4.0034750E+04; -2.3065083E-01;  0.0000000E+00;  2.6986489E-02;  4.8400034E+03;
  5.3631294E-01;  9.9999998E-03;  1.3995947E-01;5723; -1.5485881E-01;  0.0000000E+00;  2.9546989E-03;  9.9438623E+02;  1.0001726E-01; -4.6508784E+03;3;  4.1279941E+00;  0.0000000E+00; -3.7628260E+00;0; -2.0388065E-01;  3.9501195E+04;  0.0000000E+00; -5.0380927E-02;  4.0000000E+04;  0.0000000E+00;  4.0036449E+04; -2.3132558E-01;  0.0000000E+00;  2.7444933E-02;  5.0678398E+03;
  5.3632808E-01;  9.9999998E-03;  1.4995399E-01;5724; -1.5470649E-01;  0.0000000E+00;  3.2736519E-03;  9.9431470E+02;  1.0001729E-01; -4.7101851E+03;3;  3.8462548E+00;  0.0000000E+00; -3.9673910E+00;0; -2.0410623E-01;  3.9493758E+04;  0.0000000E+00; -2.1264214E-02;  4.0000000E+04;  0.0000000E+00;  4.0038484E+04; -2.3182355E-01;  0.0000000E+00;  2.7717320E-02;  5.3190708E+03;
  5.3634000E-01;  9.9999998E-03;  1.5994838E-01;5725; -1.5455678E-01;  0.0000000E+00;  3.6016174E-03;  9.9423157E+02;  1.0001763E-01; -4.7790229E+03;3;  3.5590343E+00;  0.0000000E+00; -4.1432528E+00;0; -2.0433404E-01;  3.9485148E+04;  0.0000000E+00;  8.9875581E-03;  4.0000000E+04;  0.0000000E+00;  4.0040602E+04; -2.3212233E-01;  0.0000000E+00;  2.7788296E-02;  5.5893555E+03;
  5.3634876E-01;  9.9999998E-03;  1.6994274E-01;5726; -1.5441090E-01;  0.0000000E+00;  3.9325552E-03;  9.9413434E+02;  1.0001736E-01; -4.8595635E+03;3;  3.2687542E+00;  0.0000000E+00; -4.3018332E+00;0; -2.0454526E-01;  3.9475461E+04;  0.0000000E+00;  3.6411460E-02;  4.0000000E+04;  0.0000000E+00;  4.0042797E+04; -2.3220664E-01;  0.0000000E+00;  2.7661379E-02;  5.8697065E+03;
  5.3635442E-01;  9.9999998E-03;  1.7993709E-01;5727; -1.5426938E-01;  0.0000000E+00;  4.2596427E-03;  9.9402728E+02;  1.0001744E-01; -4.9483018E+03;3;  2.9786642E+00;  0.0000000E+00; -4.4291272E+00;0; -2.0470878E-01;  3.9464742E+04;  0.0000000E+00;  5.6725312E-02;  4.0000000E+04;  0.0000000E+00;  4.0044840E+04; -2.3207009E-01;  0.0000000E+00;  2.7361296E-02;  6.1481914E+03;
  5.3635734E-01;  9.9999998E-03;  1.8993135E-01;5728; -1.5413193E-01;  0.0000000E+00;  4.5776144E-03;  9.9390869E+02;  1.0001754E-01; -5.0465215E+03;3;  2.6891897E+00;  0.0000000E+00; -4.5389032E+00;0; -2.0478749E-01;  3.9453648E+04;  0.0000000E+00;  6.6433884E-02;  4.0000000E+04;  0.0000000E+00;  4.0046914E+04; -2.3171768E-01;  0.0000000E+00;  2.6930189E-02;  6.4115938E+03;
  5.3635800E-01;  9.9999998E-03;  1.9992514E-01;5729; -1.5399671E-01;  0.0000000E+00;  4.8817275E-03;  9.9378528E+02;  1.0001753E-01; -5.1487900E+03;3;  2.4042690E+00;  0.0000000E+00; -4.6184325E+00;0; -2.0474558E-01;  3.9442195E+04;  0.0000000E+00;  6.3555293E-02;  4.0000000E+04;  0.0000000E+00;  4.0048777E+04; -2.3116584E-01;  0.0000000E+00;  2.6420260E-02;  6.6479863E+03;
  5.3635687E-01;  9.9999998E-03;  2.0991808E-01;5730; -1.5386088E-01;  0.0000000E+00;  5.1699434E-03;  9.9365997E+02;  1.0001735E-01; -5.2525894E+03;3;  2.1264780E+00;  0.0000000E+00; -4.6749573E+00;0; -2.0455380E-01;  3.9430723E+04;  0.0000000E+00;  4.7886040E-02;  4.0000000E+04;  0.0000000E+00;  4.0050211E+04; -2.3044175E-01;  0.0000000E+00;  2.5887955E-02;  6.8524551E+03;
  5.3635448E-01;  9.9999998E-03;  2.1990967E-01;5731; -1.5372196E-01;  0.0000000E+00;  5.4430915E-03;  9.9353766E+02;  1.0001730E-01; -5.3539199E+03;3;  1.8564970E+00;  0.0000000E+00; -4.7112632E+00;0; -2.0418729E-01;  3.9419664E+04;  0.0000000E+00;  2.0872930E-02;  4.0000000E+04;  0.0000000E+00;  4.0051688E+04; -2.2957997E-01;  0.0000000E+00;  2.5392676E-02;  7.0393965E+03;
  5.3635049E-01;  9.9999998E-03;  2.2990073E-01;5732; -1.5357740E-01;  0.0000000E+00;  5.7037040E-03;  9.9342542E+02;  1.0001736E-01; -5.4469048E+03;3;  1.5969727E+00;  0.0000000E+00; -4.7225308E+00;0; -2.0362066E-01;  3.9409492E+04;  0.0000000E+00; -1.4458465E-02;  4.0000000E+04;  0.0000000E+00;  4.0053098E+04; -2.2861934E-01;  0.0000000E+00;  2.4998683E-02;  7.2241035E+03;
  5.4622018E-01;  9.9999998E-03;  6.9994524E-02;5777; -1.5810105E-01;  0.0000000E+00;  1.0628765E-03;  9.9410931E+02;  1.0002947E-01; -4.8803037E+03;3;  6.1328526E+00;  0.0000000E+00; -1.9375459E+00;0; -2.0275927E-01;  3.9479293E+04;  0.0000000E+00; -7.4880965E-02;  4.0000000E+04;  0.0000000E+00;  4.0025840E+04; -2.2363226E-01;  0.0000000E+00;  2.0872999E-02;  3.7627485E+03;
  5.4623675E-01;  9.9999998E-03;  7.9993397E-02;5778; -1.5799479E-01;  0.0000000E+00;  1.2707497E-03;  9.9412378E+02;  1.0002926E-01; -4.8683530E+03;3;  5.9371948E+00;  0.0000000E+00; -2.2049961E+00;0; -2.0274660E-01;  3.9479457E+04;  0.0000000E+00; -8.3226644E-02;  4.0000000E+04;  0.0000000E+00;  4.0026883E+04; -2.2457878E-01;  0.0000000E+00;  2.1832181E-02;  3.8915432E+03;
  5.4625553E-01;  9.9999998E-03;  8.9992017E-02;5779; -1.5787992E-01;  0.0000000E+00;  1.4942598E-03;  9.9413483E+02;  1.0002936E-01; -4.8591685E+03;3;  5.7179589E+00;  0.0000000E+00; -2.4818480E+00;0; -2.0273528E-01;  3.9479355E+04;  0.0000000E+00; -8.6460561E-02;  4.0000000E+04;  0.0000000E+00;  4.0027879E+04; -2.2554344E-01;  0.0000000E+00;  2.2808162E-02;  4.0226428E+03;
  5.4627639E-01;  9.9999998E-03;  9.9990241E-02;5780; -1.5775786E-01;  0.0000000E+00;  1.7334709E-03;  9.9413910E+02;  1.0002934E-01; -4.8556621E+03;3;  5.4766412E+00;  0.0000000E+00; -2.7486637E+00;0; -2.0272595E-01;  3.9478641E+04;  0.0000000E+00; -8.3758101E-02;  4.0000000E+04;  0.0000000E+00;  4.0028965E+04; -2.2649270E-01;  0.0000000E+00;  2.3766749E-02;  4.1622749E+03;
  5.4629815E-01;  9.9999998E-03;  1.0998803E-01;5781; -1.5762973E-01;  0.0000000E+00;  1.9877683E-03;  9.9413544E+02;  1.0002936E-01; -4.8586743E+03;3;  5.2199531E+00;  0.0000000E+00; -3.0131788E+00;0; -2.0271884E-01;  3.9477266E+04;  0.0000000E+00; -7.4846789E-02;  4.0000000E+04;  0.0000000E+00;  4.0030309E+04; -2.2739184E-01;  0.0000000E+00;  2.4673006E-02;  4.3189561E+03;
  5.4631948E-01;  9.9999998E-03;  1.1998537E-01;5782; -1.5749685E-01;  0.0000000E+00;  2.2571720E-03;  9.9412146E+02;  1.0002952E-01; -4.8702793E+03;3;  4.9476790E+00;  0.0000000E+00; -3.2576385E+00;0; -2.0271605E-01;  3.9474832E+04;  0.0000000E+00; -5.9973825E-02;  4.0000000E+04;  0.0000000E+00;  4.0031719E+04; -2.2820741E-01;  0.0000000E+00;  2.5491357E-02;  4.5015757E+03;
  5.4633975E-01;  9.9999998E-03;  1.2998222E-01;5783; -1.5736049E-01;  0.0000000E+00;  2.5409071E-03;  9.9409613E+02;  1.0002955E-01; -4.8912168E+03;3;  4.6626716E+00;  0.0000000E+00; -3.4850268E+00;0; -2.0272145E-01;  3.9471039E+04;  0.0000000E+00; -3.9881699E-02;  4.0000000E+04;  0.0000000E+00;  4.0033484E+04; -2.2890727E-01;  0.0000000E+00;  2.6185824E-02;  4.7174189E+03;
  5.4635805E-01;  9.9999998E-03;  1.3997853E-01;5784; -1.5722200E-01;  0.0000000E+00;  2.8384030E-03;  9.9405304E+02;  1.0002943E-01; -4.9269194E+03;3;  4.3672833E+00;  0.0000000E+00; -3.7018757E+00;0; -2.0274019E-01;  3.9465867E+04;  0.0000000E+00; -1.5754610E-02;  4.0000000E+04;  0.0000000E+00;  4.0035336E+04; -2.2946149E-01;  0.0000000E+00;  2.6721304E-02;  4.9704097E+03;
  5.4637408E-01;  9.9999998E-03;  1.4997427E-01;5785; -1.5708275E-01;  0.0000000E+00;  3.1485399E-03;  9.9399329E+02;  1.0002962E-01; -4.9764487E+03;3;  4.0623965E+00;  0.0000000E+00; -3.8951800E+00;0; -2.0277536E-01;  3.9459188E+04;  0.0000000E+00;  1.0814960E-02;  4.0000000E+04;  0.0000000E+00;  4.0037656E+04; -2.2984175E-01;  0.0000000E+00;  2.7066402E-02;  5.2594897E+03;
  5.4638737E-01;  9.9999998E-03;  1.5996958E-01;5786; -1.5694375E-01;  0.0000000E+00;  3.4682390E-03;  9.9391943E+02;  1.0002933E-01; -5.0376323E+03;3;  3.7503970E+00;  0.0000000E+00; -4.0734863E+00;0; -2.0282415E-01;  3.9450762E+04;  0.0000000E+00;  3.7372086E-02;  4.0000000E+04;  0.0000000E+00;  4.0040074E+04; -2.3002541E-01;  0.0000000E+00;  2.7201261E-02;  5.5757896E+03;
  5.4639804E-01;  9.9999998E-03;  1.6996451E-01;5787; -1.5680599E-01;  0.0000000E+00;  3.7904333E-03;  9.9382739E+02;  1.0002951E-01; -5.1138770E+03;3;  3.4347827E+00;  0.0000000E+00; -4.2256641E+00;0; -2.0286816E-01;  3.9441133E+04;  0.0000000E+00;  6.0315777E-02;  4.0000000E+04;  0.0000000E+00;  4.0042676E+04; -2.2999454E-01;  0.0000000E+00;  2.7126376E-02;  5.9024478E+03;
  5.4640651E-01;  9.9999998E-03;  1.7995901E-01;5788; -1.5666951E-01;  0.0000000E+00;  4.1073719E-03;  9.9372119E+02;  1.0002954E-01; -5.2018745E+03;3;  3.1167960E+00;  0.0000000E+00; -4.3542113E+00;0; -2.0287730E-01;  3.9430234E+04;  0.0000000E+00;  7.5641580E-02;  4.0000000E+04;  0.0000000E+00;  4.0045223E+04; -2.2974209E-01;  0.0000000E+00;  2.6864799E-02;  6.2175283E+03;
  5.4641354E-01;  9.9999998E-03;  1.8995292E-01;5789; -1.5653394E-01;  0.0000000E+00;  4.4116448E-03;  9.9359778E+02;  1.0002946E-01; -5.3040938E+03;3;  2.8010130E+00;  0.0000000E+00; -4.4574871E+00;0; -2.0281425E-01;  3.9418523E+04;  0.0000000E+00;  8.0063760E-02;  4.0000000E+04;  0.0000000E+00;  4.0047250E+04; -2.2927172E-01;  0.0000000E+00;  2.6457475E-02;  6.4970718E+03;
  5.4642016E-01;  9.9999998E-03;  1.9994575E-01;5790; -1.5639725E-01;  0.0000000E+00;  4.6980223E-03;  9.9346295E+02;  1.0002949E-01; -5.4157939E+03;3;  2.4879243E+00;  0.0000000E+00; -4.5309906E+00;0; -2.0264642E-01;  3.9406395E+04;  0.0000000E+00;  7.1774304E-02;  4.0000000E+04;  0.0000000E+00;  4.0049055E+04; -2.2860044E-01;  0.0000000E+00;  2.5954029E-02;  6.7202739E+03;
  5.4642725E-01;  9.9999998E-03;  2.0993680E-01;5791; -1.5625709E-01;  0.0000000E+00;  4.9605947E-03;  9.9332458E+02;  1.0002949E-01; -5.5304575E+03;3;  2.1800036E+00;  0.0000000E+00; -4.5852642E+00;0; -2.0235585E-01;  3.9394273E+04;  0.0000000E+00;  5.0746087E-02;  4.0000000E+04;  0.0000000E+00;  4.0050184E+04; -2.2775580E-01;  0.0000000E+00;  2.5399959E-02;  6.8806289E+03;
  5.4643500E-01;  9.9999998E-03;  2.1992515E-01;5792; -1.5611094E-01;  0.0000000E+00;  5.1964712E-03;  9.9318652E+02;  1.0002942E-01; -5.6448247E+03;3;  1.8819785E+00;  0.0000000E+00; -4.6130295E+00;0; -2.0195174E-01;  3.9382512E+04;  0.0000000E+00;  1.8695574E-02;  4.0000000E+04;  0.0000000E+00;  4.0051098E+04; -2.2677474E-01;  0.0000000E+00;  2.4823003E-02;  7.0101587E+03;
  5.4644251E-01;  9.9999998E-03;  2.2991101E-01;5793; -1.5595725E-01;  0.0000000E+00;  5.4144096E-03;  9.9306195E+02;  1.0002951E-01; -5.7480317E+03;3;  1.5925934E+00;  0.0000000E+00; -4.6237211E+00;0; -2.0144865E-01;  3.9371438E+04;  0.0000000E+00; -2.0939706E-02;  4.0000000E+04;  0.0000000E+00;  4.0052398E+04; -2.2569802E-01;  0.0000000E+00;  2.4249373E-02;  7.1853545E+03;
  5.5630130E-01;  9.9999998E-03;  7.0001923E-02;5838; -1.6036747E-01;  0.0000000E+00;  1.0434075E-03;  9.9377197E+02;  1.0004856E-01; -5.1598003E+03;3;  6.4962692E+00;  0.0000000E+00; -1.9175267E+00;0; -2.0328869E-01;  3.9436742E+04;  0.0000000E+00; -4.4414319E-02;  4.0000000E+04;  0.0000000E+00;  4.0025812E+04; -2.2286354E-01;  0.0000000E+00;  1.9574856E-02;  3.8051704E+03;
  5.5631691E-01;  9.9999998E-03;  8.0001719E-02;5839; -1.6027351E-01;  0.0000000E+00;  1.2415019E-03;  9.9380115E+02;  1.0004842E-01; -5.1356035E+03;3;  6.2888985E+00;  0.0000000E+00; -2.1816802E+00;0; -2.0308305E-01;  3.9438336E+04;  0.0000000E+00; -4.5868613E-02;  4.0000000E+04;  0.0000000E+00;  4.0026566E+04; -2.2364709E-01;  0.0000000E+00;  2.0564029E-02;  3.8950918E+03;
  5.5633372E-01;  9.9999998E-03;  9.0001427E-02;5840; -1.6017158E-01;  0.0000000E+00;  1.4542724E-03;  9.9382495E+02;  1.0004833E-01; -5.1159004E+03;3;  6.0595360E+00;  0.0000000E+00; -2.4297569E+00;0; -2.0286387E-01;  3.9439840E+04;  0.0000000E+00; -4.3075137E-02;  4.0000000E+04;  0.0000000E+00;  4.0027297E+04; -2.2444417E-01;  0.0000000E+00;  2.1580296E-02;  3.9881624E+03;
  5.5635202E-01;  9.9999998E-03;  1.0000085E-01;5841; -1.6006324E-01;  0.0000000E+00;  1.6805959E-03;  9.9384540E+02;  1.0004845E-01; -5.0989629E+03;3;  5.8038187E+00;  0.0000000E+00; -2.6918955E+00;0; -2.0263445E-01;  3.9440469E+04;  0.0000000E+00; -3.5900969E-02;  4.0000000E+04;  0.0000000E+00;  4.0028105E+04; -2.2522397E-01;  0.0000000E+00;  2.2589518E-02;  4.0946462E+03;
  5.5637121E-01;  9.9999998E-03;  1.0999975E-01;5842; -1.5994930E-01;  0.0000000E+00;  1.9212628E-03;  9.9385809E+02;  1.0004858E-01; -5.0884443E+03;3;  5.5264645E+00;  0.0000000E+00; -2.9427490E+00;0; -2.0239855E-01;  3.9440426E+04;  0.0000000E+00; -2.4677116E-02;  4.0000000E+04;  0.0000000E+00;  4.0029258E+04; -2.2595510E-01;  0.0000000E+00;  2.3556542E-02;  4.2266890E+03;
  5.5639035E-01;  9.9999998E-03;  1.1999821E-01;5843; -1.5983051E-01;  0.0000000E+00;  2.1764147E-03;  9.9385693E+02;  1.0004846E-01; -5.0894321E+03;3;  5.2344751E+00;  0.0000000E+00; -3.1878965E+00;0; -2.0216173E-01;  3.9439254E+04;  0.0000000E+00; -1.0077436E-02;  4.0000000E+04;  0.0000000E+00;  4.0030484E+04; -2.2660662E-01;  0.0000000E+00;  2.4444886E-02;  4.3960610E+03;
  5.5640894E-01;  9.9999998E-03;  1.2999617E-01;5844; -1.5970796E-01;  0.0000000E+00;  2.4467302E-03;  9.9384357E+02;  1.0004845E-01; -5.1004937E+03;3;  4.9273171E+00;  0.0000000E+00; -3.4094751E+00;0; -2.0193049E-01;  3.9436719E+04;  0.0000000E+00;  6.9988985E-03;  4.0000000E+04;  0.0000000E+00;  4.0032297E+04; -2.2714700E-01;  0.0000000E+00;  2.5216501E-02;  4.6114619E+03;
  5.5642623E-01;  9.9999998E-03;  1.3999362E-01;5845; -1.5958235E-01;  0.0000000E+00;  2.7313929E-03;  9.9381824E+02;  1.0004857E-01; -5.1214805E+03;3;  4.6076698E+00;  0.0000000E+00; -3.6172149E+00;0; -2.0171309E-01;  3.9432383E+04;  0.0000000E+00;  2.5548657E-02;  4.0000000E+04;  0.0000000E+00;  4.0034371E+04; -2.2754607E-01;  0.0000000E+00;  2.5832983E-02;  4.8767432E+03;
  5.5644208E-01;  9.9999998E-03;  1.4999051E-01;5846; -1.5945454E-01;  0.0000000E+00;  3.0300815E-03;  9.9376880E+02;  1.0004828E-01; -5.1624175E+03;3;  4.2799134E+00;  0.0000000E+00; -3.8062696E+00;0; -2.0151746E-01;  3.9426332E+04;  0.0000000E+00;  4.4493910E-02;  4.0000000E+04;  0.0000000E+00;  4.0036848E+04; -2.2777595E-01;  0.0000000E+00;  2.6258485E-02;  5.1894727E+03;
  5.5645633E-01;  9.9999998E-03;  1.5998682E-01;5847; -1.5932527E-01;  0.0000000E+00;  3.3386671E-03;  9.9370337E+02;  1.0004862E-01; -5.2166382E+03;3;  3.9420819E+00;  0.0000000E+00; -3.9784930E+00;0; -2.0134397E-01;  3.9418496E+04;  0.0000000E+00;  6.2169891E-02;  4.0000000E+04;  0.0000000E+00;  4.0039602E+04; -2.2781259E-01;  0.0000000E+00;  2.6468614E-02;  5.5365771E+03;
  5.5646920E-01;  9.9999998E-03;  1.6998252E-01;5848; -1.5919483E-01;  0.0000000E+00;  3.6502795E-03;  9.9361768E+02;  1.0004863E-01; -5.2876484E+03;3;  3.6007280E+00;  0.0000000E+00; -4.1230888E+00;0; -2.0117709E-01;  3.9409082E+04;  0.0000000E+00;  7.5918987E-02;  4.0000000E+04;  0.0000000E+00;  4.0042340E+04; -2.2763723E-01;  0.0000000E+00;  2.6460147E-02;  5.8942754E+03;
  5.5648184E-01;  9.9999998E-03;  1.7997752E-01;5849; -1.5906307E-01;  0.0000000E+00;  3.9551836E-03;  9.9351355E+02;  1.0004853E-01; -5.3739175E+03;3;  3.2544937E+00;  0.0000000E+00; -4.2506175E+00;0; -2.0098639E-01;  3.9398395E+04;  0.0000000E+00;  8.2587190E-02;  4.0000000E+04;  0.0000000E+00;  4.0045008E+04; -2.2724070E-01;  0.0000000E+00;  2.6254315E-02;  6.2313608E+03;
  5.5649549E-01;  9.9999998E-03;  1.8997152E-01;5850; -1.5892938E-01;  0.0000000E+00;  4.2457683E-03;  9.9339355E+02;  1.0004846E-01; -5.4733223E+03;3;  2.9099336E+00;  0.0000000E+00; -4.3433375E+00;0; -2.0073496E-01;  3.9386770E+04;  0.0000000E+00;  7.9519361E-02;  4.0000000E+04;  0.0000000E+00;  4.0047152E+04; -2.2662616E-01;  0.0000000E+00;  2.5891202E-02;  6.5137632E+03;
  5.5651128E-01;  9.9999998E-03;  1.9996396E-01;5851; -1.5879162E-01;  0.0000000E+00;  4.5141461E-03;  9.9325909E+02;  1.0004871E-01; -5.5847261E+03;3;  2.5670972E+00;  0.0000000E+00; -4.4139013E+00;0; -2.0039314E-01;  3.9374699E+04;  0.0000000E+00;  6.5334216E-02;  4.0000000E+04;  0.0000000E+00;  4.0048617E+04; -2.2581112E-01;  0.0000000E+00;  2.5417976E-02;  6.7112012E+03;
  5.5653036E-01;  9.9999998E-03;  2.0995358E-01;5852; -1.5864857E-01;  0.0000000E+00;  4.7525917E-03;  9.9311328E+02;  1.0004868E-01; -5.7055127E+03;3;  2.2303426E+00;  0.0000000E+00; -4.4613981E+00;0; -1.9995271E-01;  3.9362758E+04;  0.0000000E+00;  4.0345654E-02;  4.0000000E+04;  0.0000000E+00;  4.0049410E+04; -2.2482413E-01;  0.0000000E+00;  2.4871422E-02;  6.8161689E+03;
  5.5655217E-01;  9.9999998E-03;  2.1993910E-01;5853; -1.5849829E-01;  0.0000000E+00;  4.9570967E-03;  9.9296875E+02;  1.0004873E-01; -5.8252627E+03;3;  1.9016626E+00;  0.0000000E+00; -4.4855561E+00;0; -1.9944374E-01;  3.9351047E+04;  0.0000000E+00;  6.5278024E-03;  4.0000000E+04;  0.0000000E+00;  4.0049867E+04; -2.2370258E-01;  0.0000000E+00;  2.4258833E-02;  6.8775669E+03;
  5.5657554E-01;  9.9999998E-03;  2.2992042E-01;5854; -1.5833972E-01;  0.0000000E+00;  5.1357099E-03;  9.9284155E+02;  1.0004845E-01; -5.9306421E+03;3;  1.5832349E+00;  0.0000000E+00; -4.4964390E+00;0; -1.9892575E-01;  3.9340129E+04;  0.0000000E+00; -3.2687150E-02;  4.0000000E+04;  0.0000000E+00;  4.0050906E+04; -2.2248994E-01;  0.0000000E+00;  2.3564195E-02;  7.0258281E+03;
  5.6643081E-01;  9.9999998E-03;  7.0002787E-02;5899; -1.6264626E-01;  0.0000000E+00;  1.0282093E-03;  9.9367767E+02;  1.0007960E-01; -5.2379214E+03;3;  6.8686419E+00;  0.0000000E+00; -1.8791492E+00;0; -2.0414601E-01;  3.9403746E+04;  0.0000000E+00; -6.9781760E-04;  4.0000000E+04;  0.0000000E+00;  4.0026516E+04; -2.2226442E-01;  0.0000000E+00;  1.8118413E-02;  3.9302415E+03;
  5.6644356E-01;  9.9999998E-03;  8.0002658E-02;5900; -1.6256045E-01;  0.0000000E+00;  1.2165153E-03;  9.9370892E+02;  1.0007960E-01; -5.2120454E+03;3;  6.6465511E+00;  0.0000000E+00; -2.1424398E+00;0; -2.0373465E-01;  3.9405691E+04;  0.0000000E+00;  6.1829458E-03;  4.0000000E+04;  0.0000000E+00;  4.0026992E+04; -2.2286181E-01;  0.0000000E+00;  1.9127160E-02;  3.9796860E+03;
  5.6645626E-01;  9.9999998E-03;  9.0002649E-02;5901; -1.6246760E-01;  0.0000000E+00;  1.4175480E-03;  9.9373566E+02;  1.0007951E-01; -5.1898730E+03;3;  6.3989091E+00;  0.0000000E+00; -2.3949726E+00;0; -2.0329040E-01;  3.9407398E+04;  0.0000000E+00;  1.5473744E-02;  4.0000000E+04;  0.0000000E+00;  4.0027359E+04; -2.2346511E-01;  0.0000000E+00;  2.0174719E-02;  4.0314238E+03;
  5.6646931E-01;  9.9999998E-03;  1.0000263E-01;5902; -1.6236877E-01;  0.0000000E+00;  1.6314780E-03;  9.9375598E+02;  1.0007958E-01; -5.1730342E+03;3;  6.1280909E+00;  0.0000000E+00; -2.6317859E+00;0; -2.0281975E-01;  3.9408574E+04;  0.0000000E+00;  2.6482165E-02;  4.0000000E+04;  0.0000000E+00;  4.0027957E+04; -2.2404785E-01;  0.0000000E+00;  2.1228103E-02;  4.0990571E+03;
  5.6648290E-01;  9.9999998E-03;  1.1000237E-01;5903; -1.6226494E-01;  0.0000000E+00;  1.8585630E-03;  9.9376819E+02;  1.0007960E-01; -5.1629111E+03;3;  5.8380246E+00;  0.0000000E+00; -2.8613608E+00;0; -2.0232996E-01;  3.9408945E+04;  0.0000000E+00;  3.8238704E-02;  4.0000000E+04;  0.0000000E+00;  4.0028586E+04; -2.2458239E-01;  0.0000000E+00;  2.2252420E-02;  4.1981963E+03;
  5.6649703E-01;  9.9999998E-03;  1.2000172E-01;5904; -1.6215703E-01;  0.0000000E+00;  2.0987964E-03;  9.9377429E+02;  1.0007966E-01; -5.1578740E+03;3;  5.5233035E+00;  0.0000000E+00; -3.0934978E+00;0; -2.0182867E-01;  3.9408121E+04;  0.0000000E+00;  4.9732551E-02;  4.0000000E+04;  0.0000000E+00;  4.0029914E+04; -2.2503938E-01;  0.0000000E+00;  2.3210706E-02;  4.3428442E+03;
  5.6651133E-01;  9.9999998E-03;  1.3000065E-01;5905; -1.6204533E-01;  0.0000000E+00;  2.3539313E-03;  9.9376587E+02;  1.0007964E-01; -5.1648369E+03;3;  5.1928215E+00;  0.0000000E+00; -3.3163431E+00;0; -2.0132649E-01;  3.9406016E+04;  0.0000000E+00;  6.0130768E-02;  4.0000000E+04;  0.0000000E+00;  4.0031520E+04; -2.2538969E-01;  0.0000000E+00;  2.4063203E-02;  4.5430630E+03;
  5.6652498E-01;  9.9999998E-03;  1.3999926E-01;5906; -1.6193004E-01;  0.0000000E+00;  2.6246293E-03;  9.9374188E+02;  1.0007980E-01; -5.1847378E+03;3;  4.8492846E+00;  0.0000000E+00; -3.5143783E+00;0; -2.0083547E-01;  3.9402129E+04;  0.0000000E+00;  6.8940394E-02;  4.0000000E+04;  0.0000000E+00;  4.0033379E+04; -2.2560389E-01;  0.0000000E+00;  2.4768420E-02;  4.8027671E+03;
  5.6653816E-01;  9.9999998E-03;  1.4999749E-01;5907; -1.6181146E-01;  0.0000000E+00;  2.9101705E-03;  9.9369855E+02;  1.0007989E-01; -5.2206377E+03;3;  4.4963765E+00;  0.0000000E+00; -3.6970210E+00;0; -2.0036773E-01;  3.9396652E+04;  0.0000000E+00;  7.5964212E-02;  4.0000000E+04;  0.0000000E+00;  4.0036008E+04; -2.2565384E-01;  0.0000000E+00;  2.5286106E-02;  5.1182080E+03;
  5.6655204E-01;  9.9999998E-03;  1.5999524E-01;5908; -1.6169009E-01;  0.0000000E+00;  3.2066775E-03;  9.9364178E+02;  1.0007964E-01; -5.2676489E+03;3;  4.1327782E+00;  0.0000000E+00; -3.8592043E+00;0; -1.9992702E-01;  3.9389277E+04;  0.0000000E+00;  8.0703780E-02;  4.0000000E+04;  0.0000000E+00;  4.0038820E+04; -2.2551395E-01;  0.0000000E+00;  2.5586935E-02;  5.4733555E+03;
  5.6656814E-01;  9.9999998E-03;  1.6999222E-01;5909; -1.6156577E-01;  0.0000000E+00;  3.5071145E-03;  9.9356451E+02;  1.0007987E-01; -5.3316963E+03;3;  3.7640049E+00;  0.0000000E+00; -3.9959898E+00;0; -1.9950156E-01;  3.9380402E+04;  0.0000000E+00;  8.1872500E-02;  4.0000000E+04;  0.0000000E+00;  4.0041660E+04; -2.2516552E-01;  0.0000000E+00;  2.5663955E-02;  5.8392412E+03;
  5.6658727E-01;  9.9999998E-03;  1.7998818E-01;5910; -1.6143790E-01;  0.0000000E+00;  3.8001011E-03;  9.9347064E+02;  1.0007997E-01; -5.4094224E+03;3;  3.3898730E+00;  0.0000000E+00; -4.1148372E+00;0; -1.9906107E-01;  3.9370543E+04;  0.0000000E+00;  7.7660181E-02;  4.0000000E+04;  0.0000000E+00;  4.0044340E+04; -2.2459726E-01;  0.0000000E+00;  2.5536191E-02;  6.1778472E+03;
  5.6661052E-01;  9.9999998E-03;  1.8998273E-01;5911; -1.6130523E-01;  0.0000000E+00;  4.0778057E-03;  9.9335730E+02;  1.0007988E-01; -5.5033457E+03;3;  3.0155444E+00;  0.0000000E+00; -4.2010021E+00;0; -1.9856994E-01;  3.9359762E+04;  0.0000000E+00;  6.6447966E-02;  4.0000000E+04;  0.0000000E+00;  4.0046422E+04; -2.2381315E-01;  0.0000000E+00;  2.5243213E-02;  6.4472666E+03;
  5.6663865E-01;  9.9999998E-03;  1.9997516E-01;5912; -1.6116656E-01;  0.0000000E+00;  4.3334872E-03;  9.9323254E+02;  1.0007979E-01; -5.6067007E+03;3;  2.6433592E+00;  0.0000000E+00; -4.2676849E+00;0; -1.9799680E-01;  3.9348723E+04;  0.0000000E+00;  4.7558084E-02;  4.0000000E+04;  0.0000000E+00;  4.0047688E+04; -2.2283000E-01;  0.0000000E+00;  2.4833202E-02;  6.6106519E+03;
  5.6667238E-01;  9.9999998E-03;  2.0996384E-01;5913; -1.6102090E-01;  0.0000000E+00;  4.5560971E-03;  9.9309546E+02;  1.0007975E-01; -5.7202773E+03;3;  2.2767491E+00;  0.0000000E+00; -4.3071284E+00;0; -1.9733715E-01;  3.9337621E+04;  0.0000000E+00;  2.1705190E-02;  4.0000000E+04;  0.0000000E+00;  4.0047973E+04; -2.2167723E-01;  0.0000000E+00;  2.4340082E-02;  6.6609858E+03;
  5.6671119E-01;  9.9999998E-03;  2.1994731E-01;5914; -1.6086754E-01;  0.0000000E+00;  4.7393069E-03;  9.9295685E+02;  1.0008001E-01; -5.8350889E+03;3;  1.9169542E+00;  0.0000000E+00; -4.3277159E+00;0; -1.9663416E-01;  3.9327062E+04;  0.0000000E+00; -9.3858056E-03;  4.0000000E+04;  0.0000000E+00;  4.0047910E+04; -2.2039378E-01;  0.0000000E+00;  2.3759618E-02;  6.6626978E+03;
  5.6675208E-01;  9.9999998E-03;  2.2992544E-01;5915; -1.6070573E-01;  0.0000000E+00;  4.8923111E-03;  9.9283856E+02;  1.0007983E-01; -5.9331108E+03;3;  1.5660321E+00;  0.0000000E+00; -4.3370256E+00;0; -1.9596669E-01;  3.9316961E+04;  0.0000000E+00; -4.3714456E-02;  4.0000000E+04;  0.0000000E+00;  4.0048727E+04; -2.1902296E-01;  0.0000000E+00;  2.3056274E-02;  6.7836685E+03;
  5.7662505E-01;  9.9999998E-03;  6.9992810E-02;5960; -1.6492680E-01;  0.0000000E+00;  1.0043873E-03;  9.9387256E+02;  1.0013084E-01; -5.0764438E+03;3;  7.2454877E+00;  0.0000000E+00; -1.8269944E+00;0; -2.0540696E-01;  3.9377137E+04;  0.0000000E+00;  5.0549444E-02;  4.0000000E+04;  0.0000000E+00;  4.0028023E+04; -2.2186580E-01;  0.0000000E+00;  1.6458832E-02;  4.1489248E+03;
  5.7662970E-01;  9.9999998E-03;  7.9991929E-02;5961; -1.6484506E-01;  0.0000000E+00;  1.1814899E-03;  9.9388721E+02;  1.0013099E-01; -5.0643457E+03;3;  7.0104494E+00;  0.0000000E+00; -2.0784926E+00;0; -2.0477699E-01;  3.9378086E+04;  0.0000000E+00;  6.5829568E-02;  4.0000000E+04;  0.0000000E+00;  4.0028223E+04; -2.2225866E-01;  0.0000000E+00;  1.7481672E-02;  4.1601914E+03;
  5.7663399E-01;  9.9999998E-03;  8.9991540E-02;5962; -1.6475730E-01;  0.0000000E+00;  1.3697136E-03;  9.9389850E+02;  1.0013097E-01; -5.0549634E+03;3;  6.7457047E+00;  0.0000000E+00; -2.3266757E+00;0; -2.0409104E-01;  3.9378844E+04;  0.0000000E+00;  8.0907226E-02;  4.0000000E+04;  0.0000000E+00;  4.0028223E+04; -2.2264753E-01;  0.0000000E+00;  1.8556487E-02;  4.1706099E+03;
  5.7663804E-01;  9.9999998E-03;  9.9991582E-02;5963; -1.6466440E-01;  0.0000000E+00;  1.5699405E-03;  9.9390363E+02;  1.0013086E-01; -5.0507163E+03;3;  6.4558973E+00;  0.0000000E+00; -2.5594141E+00;0; -2.0335877E-01;  3.9379297E+04;  0.0000000E+00;  9.4250143E-02;  4.0000000E+04;  0.0000000E+00;  4.0028422E+04; -2.2301073E-01;  0.0000000E+00;  1.9651970E-02;  4.1964321E+03;
  5.7664192E-01;  9.9999998E-03;  1.0999192E-01;5964; -1.6456716E-01;  0.0000000E+00;  1.7824644E-03;  9.9390570E+02;  1.0013118E-01; -5.0489883E+03;3;  6.1440506E+00;  0.0000000E+00; -2.7799647E+00;0; -2.0259015E-01;  3.9378883E+04;  0.0000000E+00;  1.0435803E-01;  4.0000000E+04;  0.0000000E+00;  4.0028926E+04; -2.2332455E-01;  0.0000000E+00;  2.0734400E-02;  4.2554165E+03;
  5.7664645E-01;  9.9999998E-03;  1.1999218E-01;5965; -1.6446616E-01;  0.0000000E+00;  2.0084146E-03;  9.9389972E+02;  1.0013115E-01; -5.0539756E+03;3;  5.8099055E+00;  0.0000000E+00; -2.9912498E+00;0; -2.0179588E-01;  3.9377570E+04;  0.0000000E+00;  1.1010890E-01;  4.0000000E+04;  0.0000000E+00;  4.0029715E+04; -2.2356246E-01;  0.0000000E+00;  2.1766592E-02;  4.3636562E+03;
  5.7665223E-01;  9.9999998E-03;  1.2999217E-01;5966; -1.6436172E-01;  0.0000000E+00;  2.2489727E-03;  9.9388336E+02;  1.0013101E-01; -5.0675059E+03;3;  5.4626975E+00;  0.0000000E+00; -3.1890187E+00;0; -2.0099027E-01;  3.9375105E+04;  0.0000000E+00;  1.1102449E-01;  4.0000000E+04;  0.0000000E+00;  4.0031168E+04; -2.2369775E-01;  0.0000000E+00;  2.2707473E-02;  4.5320806E+03;
  5.7665980E-01;  9.9999998E-03;  1.3999204E-01;5967; -1.6425404E-01;  0.0000000E+00;  2.5052144E-03;  9.9385742E+02;  1.0013114E-01; -5.0889868E+03;3;  5.0936685E+00;  0.0000000E+00; -3.3835034E+00;0; -2.0018908E-01;  3.9371051E+04;  0.0000000E+00;  1.0743409E-01;  4.0000000E+04;  0.0000000E+00;  4.0032922E+04; -2.2370176E-01;  0.0000000E+00;  2.3512671E-02;  4.7649941E+03;
  5.7667053E-01;  9.9999998E-03;  1.4999159E-01;5968; -1.6414285E-01;  0.0000000E+00;  2.7773944E-03;  9.9381720E+02;  1.0013122E-01; -5.1223193E+03;3;  4.7113476E+00;  0.0000000E+00; -3.5658259E+00;0; -1.9940901E-01;  3.9365719E+04;  0.0000000E+00;  1.0025714E-01;  4.0000000E+04;  0.0000000E+00;  4.0035230E+04; -2.2354662E-01;  0.0000000E+00;  2.4137618E-02;  5.0578442E+03;
  5.7668531E-01;  9.9999998E-03;  1.5999071E-01;5969; -1.6402762E-01;  0.0000000E+00;  3.0622927E-03;  9.9376459E+02;  1.0013103E-01; -5.1659229E+03;3;  4.3217330E+00;  0.0000000E+00; -3.7175827E+00;0; -1.9865812E-01;  3.9359066E+04;  0.0000000E+00;  9.0328991E-02;  4.0000000E+04;  0.0000000E+00;  4.0038000E+04; -2.2320653E-01;  0.0000000E+00;  2.4548411E-02;  5.3932896E+03;
  5.7670534E-01;  9.9999998E-03;  1.6998906E-01;5970; -1.6390759E-01;  0.0000000E+00;  3.3514609E-03;  9.9369818E+02;  1.0013123E-01; -5.2209336E+03;3;  3.9233418E+00;  0.0000000E+00; -3.8471706E+00;0; -1.9792657E-01;  3.9351180E+04;  0.0000000E+00;  7.7961825E-02;  4.0000000E+04;  0.0000000E+00;  4.0040645E+04; -2.2266087E-01;  0.0000000E+00;  2.4734298E-02;  5.7402207E+03;
  5.7673174E-01;  9.9999998E-03;  1.7998616E-01;5971; -1.6378181E-01;  0.0000000E+00;  3.6352016E-03;  9.9361572E+02;  1.0013138E-01; -5.2892280E+03;3;  3.5216367E+00;  0.0000000E+00; -3.9513624E+00;0; -1.9718742E-01;  3.9342395E+04;  0.0000000E+00;  6.2977813E-02;  4.0000000E+04;  0.0000000E+00;  4.0043125E+04; -2.2189958E-01;  0.0000000E+00;  2.4712164E-02;  6.0575425E+03;
  5.7676494E-01;  9.9999998E-03;  1.8998152E-01;5972; -1.6364871E-01;  0.0000000E+00;  3.9050716E-03;  9.9352216E+02;  1.0013139E-01; -5.3667563E+03;3;  3.1179063E+00;  0.0000000E+00; -4.0297656E+00;0; -1.9640326E-01;  3.9333086E+04;  0.0000000E+00;  4.5083817E-02;  4.0000000E+04;  0.0000000E+00;  4.0044973E+04; -2.2092533E-01;  0.0000000E+00;  2.4522059E-02;  6.3004346E+03;
  5.7680535E-01;  9.9999998E-03;  1.9997434E-01;5973; -1.6350737E-01;  0.0000000E+00;  4.1541755E-03;  9.9341010E+02;  1.0013146E-01; -5.4595933E+03;3;  2.7149231E+00;  0.0000000E+00; -4.0889487E+00;0; -1.9554102E-01;  3.9323516E+04;  0.0000000E+00;  2.4436742E-02;  4.0000000E+04;  0.0000000E+00;  4.0046078E+04; -2.1975605E-01;  0.0000000E+00;  2.4215030E-02;  6.4301440E+03;
  5.7685286E-01;  9.9999998E-03;  2.0996283E-01;5974; -1.6335718E-01;  0.0000000E+00;  4.3701832E-03;  9.9328912E+02;  1.0013153E-01; -5.5598374E+03;3;  2.3174884E+00;  0.0000000E+00; -4.1220403E+00;0; -1.9459185E-01;  3.9314012E+04;  0.0000000E+00;  1.8045275E-03;  4.0000000E+04;  0.0000000E+00;  4.0045953E+04; -2.1842106E-01;  0.0000000E+00;  2.3829212E-02;  6.4429932E+03;
  5.7690603E-01;  9.9999998E-03;  2.1994531E-01;5975; -1.6319840E-01;  0.0000000E+00;  4.5485673E-03;  9.9316925E+02;  1.0013144E-01; -5.6591431E+03;3;  1.9262099E+00;  0.0000000E+00; -4.1362734E+00;0; -1.9359019E-01;  3.9304895E+04;  0.0000000E+00; -2.2384645E-02;  4.0000000E+04;  0.0000000E+00;  4.0045777E+04; -2.1695900E-01;  0.0000000E+00;  2.3368811E-02;  6.4180029E+03;
  5.7696104E-01;  9.9999998E-03;  2.2992237E-01;5976; -1.6303085E-01;  0.0000000E+00;  4.6999883E-03;  9.9307031E+02;  1.0013144E-01; -5.7411157E+03;3;  1.5431443E+00;  0.0000000E+00; -4.1416793E+00;0; -1.9259956E-01;  3.9296578E+04;  0.0000000E+00; -4.9703266E-02;  4.0000000E+04;  0.0000000E+00;  4.0046539E+04; -2.1541370E-01;  0.0000000E+00;  2.2814143E-02;  6.5348599E+03;
  5.8686012E-01;  9.9999998E-03;  6.9975786E-02;6021; -1.6719151E-01;  0.0000000E+00;  9.5687411E-04;  9.9431335E+02;  1.0021388E-01; -4.7112686E+03;3;  7.6243382E+00;  0.0000000E+00; -1.7674930E+00;0; -2.0718555E-01;  3.9344832E+04;  0.0000000E+00;  9.8948576E-02;  4.0000000E+04;  0.0000000E+00;  4.0030223E+04; -2.2174269E-01;  0.0000000E+00;  1.4557134E-02;  4.4598892E+03;
  5.8685201E-01;  9.9999998E-03;  7.9973921E-02;6022; -1.6711034E-01;  0.0000000E+00;  1.1210450E-03;  9.9429370E+02;  1.0021397E-01; -4.7275645E+03;3;  7.3745852E+00;  0.0000000E+00; -2.0026581E+00;0; -2.0632231E-01;  3.9343531E+04;  0.0000000E+00;  1.2078735E-01;  4.0000000E+04;  0.0000000E+00;  4.0030102E+04; -2.2191527E-01;  0.0000000E+00;  1.5592961E-02;  4.4393701E+03;
  5.8684081E-01;  9.9999998E-03;  8.9973338E-02;6023; -1.6702367E-01;  0.0000000E+00;  1.2947520E-03;  9.9427350E+02;  1.0021431E-01; -4.7443047E+03;3;  7.0953703E+00;  0.0000000E+00; -2.2326937E+00;0; -2.0537797E-01;  3.9342105E+04;  0.0000000E+00;  1.3947277E-01;  4.0000000E+04;  0.0000000E+00;  4.0029910E+04; -2.2207357E-01;  0.0000000E+00;  1.6695611E-02;  4.4126323E+03;
  5.8682829E-01;  9.9999998E-03;  9.9973805E-02;6024; -1.6693270E-01;  0.0000000E+00;  1.4795451E-03;  9.9424878E+02;  1.0021400E-01; -4.7647485E+03;3;  6.7864909E+00;  0.0000000E+00; -2.4590056E+00;0; -2.0436420E-01;  3.9340289E+04;  0.0000000E+00;  1.5283474E-01;  4.0000000E+04;  0.0000000E+00;  4.0029672E+04; -2.2219983E-01;  0.0000000E+00;  1.7835632E-02;  4.3969341E+03;
  5.8681762E-01;  9.9999998E-03;  1.0997489E-01;6025; -1.6683854E-01;  0.0000000E+00;  1.6765662E-03;  9.9422235E+02;  1.0021417E-01; -4.7866738E+03;3;  6.4524870E+00;  0.0000000E+00; -2.6724679E+00;0; -2.0329429E-01;  3.9338039E+04;  0.0000000E+00;  1.5914160E-01;  4.0000000E+04;  0.0000000E+00;  4.0029738E+04; -2.2227462E-01;  0.0000000E+00;  1.8980328E-02;  4.4112534E+03;
  5.8681089E-01;  9.9999998E-03;  1.1997619E-01;6026; -1.6674180E-01;  0.0000000E+00;  1.8874930E-03;  9.9419269E+02;  1.0021426E-01; -4.8112656E+03;3;  6.0972285E+00;  0.0000000E+00; -2.8690727E+00;0; -2.0218232E-01;  3.9335141E+04;  0.0000000E+00;  1.5745507E-01;  4.0000000E+04;  0.0000000E+00;  4.0030223E+04; -2.2227502E-01;  0.0000000E+00;  2.0092702E-02;  4.4728545E+03;
  5.8680916E-01;  9.9999998E-03;  1.2997739E-01;6027; -1.6664247E-01;  0.0000000E+00;  2.1139088E-03;  9.9416058E+02;  1.0021437E-01; -4.8378325E+03;3;  5.7234893E+00;  0.0000000E+00; -3.0610437E+00;0; -2.0104483E-01;  3.9331719E+04;  0.0000000E+00;  1.4792551E-01;  4.0000000E+04;  0.0000000E+00;  4.0031246E+04; -2.2217579E-01;  0.0000000E+00;  2.1130964E-02;  4.5937632E+03;
  5.8681345E-01;  9.9999998E-03;  1.3997820E-01;6028; -1.6654035E-01;  0.0000000E+00;  2.3573251E-03;  9.9412317E+02;  1.0021447E-01; -4.8688442E+03;3;  5.3324194E+00;  0.0000000E+00; -3.2341509E+00;0; -1.9990203E-01;  3.9327270E+04;  0.0000000E+00;  1.3182148E-01;  4.0000000E+04;  0.0000000E+00;  4.0032637E+04; -2.2195058E-01;  0.0000000E+00;  2.2048548E-02;  4.7787007E+03;
  5.8682418E-01;  9.9999998E-03;  1.4997856E-01;6029; -1.6643445E-01;  0.0000000E+00;  2.6177780E-03;  9.9408057E+02;  1.0021443E-01; -4.9041519E+03;3;  4.9285450E+00;  0.0000000E+00; -3.3934019E+00;0; -1.9877490E-01;  3.9321961E+04;  0.0000000E+00;  1.1116876E-01;  4.0000000E+04;  0.0000000E+00;  4.0034668E+04; -2.2157264E-01;  0.0000000E+00;  2.2797728E-02;  5.0231709E+03;
  5.8684182E-01;  9.9999998E-03;  1.5997839E-01;6030; -1.6632354E-01;  0.0000000E+00;  2.8924886E-03;  9.9403247E+02;  1.0021445E-01; -4.9440024E+03;3;  4.5094690E+00;  0.0000000E+00; -3.5422671E+00;0; -1.9767530E-01;  3.9315875E+04;  0.0000000E+00;  8.8086836E-02;  4.0000000E+04;  0.0000000E+00;  4.0036910E+04; -2.2101568E-01;  0.0000000E+00;  2.3340378E-02;  5.3095938E+03;
  5.8686727E-01;  9.9999998E-03;  1.6997734E-01;6031; -1.6620567E-01;  0.0000000E+00;  3.1731853E-03;  9.9397375E+02;  1.0021455E-01; -4.9926431E+03;3;  4.0812650E+00;  0.0000000E+00; -3.6674001E+00;0; -1.9659722E-01;  3.9308949E+04;  0.0000000E+00;  6.4418405E-02;  4.0000000E+04;  0.0000000E+00;  4.0039223E+04; -2.2025900E-01;  0.0000000E+00;  2.3661770E-02;  5.6072134E+03;
  5.8690107E-01;  9.9999998E-03;  1.7997494E-01;6032; -1.6607948E-01;  0.0000000E+00;  3.4512368E-03;  9.9390637E+02;  1.0021462E-01; -5.0484438E+03;3;  3.6501069E+00;  0.0000000E+00; -3.7606378E+00;0; -1.9551586E-01;  3.9301578E+04;  0.0000000E+00;  4.1552946E-02;  4.0000000E+04;  0.0000000E+00;  4.0041270E+04; -2.1929269E-01;  0.0000000E+00;  2.3776824E-02;  5.8758110E+03;
  5.8694333E-01;  9.9999998E-03;  1.8997072E-01;6033; -1.6594303E-01;  0.0000000E+00;  3.7173457E-03;  9.9382678E+02;  1.0021471E-01; -5.1143677E+03;3;  3.2161667E+00;  0.0000000E+00; -3.8289855E+00;0; -1.9439414E-01;  3.9293906E+04;  0.0000000E+00;  2.0463567E-02;  4.0000000E+04;  0.0000000E+00;  4.0042781E+04; -2.1812037E-01;  0.0000000E+00;  2.3726227E-02;  6.0722368E+03;
  5.8699334E-01;  9.9999998E-03;  1.9996357E-01;6034; -1.6579552E-01;  0.0000000E+00;  3.9650160E-03;  9.9373566E+02;  1.0021479E-01; -5.1898716E+03;3;  2.7834842E+00;  0.0000000E+00; -3.8758461E+00;0; -1.9319350E-01;  3.9286316E+04;  0.0000000E+00;  1.9417569E-03;  4.0000000E+04;  0.0000000E+00;  4.0043520E+04; -2.1675873E-01;  0.0000000E+00;  2.3565238E-02;  6.1626221E+03;
  5.8705020E-01;  9.9999998E-03;  2.0995176E-01;6035; -1.6563685E-01;  0.0000000E+00;  4.1820370E-03;  9.9363635E+02;  1.0021475E-01; -5.2721406E+03;3;  2.3538477E+00;  0.0000000E+00; -3.9014797E+00;0; -1.9189712E-01;  3.9278895E+04;  0.0000000E+00; -1.3759251E-02;  4.0000000E+04;  0.0000000E+00;  4.0043355E+04; -2.1523798E-01;  0.0000000E+00;  2.3340845E-02;  6.1523755E+03;
  5.8711100E-01;  9.9999998E-03;  2.1993402E-01;6036; -1.6546731E-01;  0.0000000E+00;  4.3665301E-03;  9.9354175E+02;  1.0021487E-01; -5.3505088E+03;3;  1.9289799E+00;  0.0000000E+00; -3.9087336E+00;0; -1.9051899E-01;  3.9271602E+04;  0.0000000E+00; -2.8367862E-02;  4.0000000E+04;  0.0000000E+00;  4.0043105E+04; -2.1359584E-01;  0.0000000E+00;  2.3076842E-02;  6.1307334E+03;
  5.8717144E-01;  9.9999998E-03;  2.2991180E-01;6037; -1.6528799E-01;  0.0000000E+00;  4.5329481E-03;  9.9346771E+02;  1.0021494E-01; -5.4118896E+03;3;  1.5124110E+00;  0.0000000E+00; -3.9043009E+00;0; -1.8907794E-01;  3.9264992E+04;  0.0000000E+00; -4.7901608E-02;  4.0000000E+04;  0.0000000E+00;  4.0044078E+04; -2.1187368E-01;  0.0000000E+00;  2.2795739E-02;  6.2674380E+03;
  5.9707093E-01;  9.9999998E-03;  6.9961153E-02;6082; -1.6941802E-01;  0.0000000E+00;  8.7332574E-04;  9.9488068E+02;  1.0034806E-01; -4.2412568E+03;3;  8.0050468E+00;  0.0000000E+00; -1.6836072E+00;0; -2.0960249E-01;  3.9283246E+04;  0.0000000E+00;  1.3154641E-01;  4.0000000E+04;  0.0000000E+00;  4.0032809E+04; -2.2199064E-01;  0.0000000E+00;  1.2388150E-02;  4.8486470E+03;
  5.9704983E-01;  9.9999998E-03;  7.9957291E-02;6083; -1.6933565E-01;  0.0000000E+00;  1.0204380E-03;  9.9482227E+02;  1.0034810E-01; -4.2896504E+03;3;  7.7389255E+00;  0.0000000E+00; -1.9147975E+00;0; -2.0849392E-01;  3.9278922E+04;  0.0000000E+00;  1.5604694E-01;  4.0000000E+04;  0.0000000E+00;  4.0032512E+04; -2.2193232E-01;  0.0000000E+00;  1.3438397E-02;  4.8059863E+03;
  5.9702623E-01;  9.9999998E-03;  8.9954913E-02;6084; -1.6924876E-01;  0.0000000E+00;  1.1771801E-03;  9.9475903E+02;  1.0034801E-01; -4.3420439E+03;3;  7.4400897E+00;  0.0000000E+00; -2.1304584E+00;0; -2.0727675E-01;  3.9274316E+04;  0.0000000E+00;  1.7478082E-01;  4.0000000E+04;  0.0000000E+00;  4.0031891E+04; -2.2184689E-01;  0.0000000E+00;  1.4570142E-02;  4.7495874E+03;
  5.9700227E-01;  9.9999998E-03;  9.9954359E-02;6085; -1.6915853E-01;  0.0000000E+00;  1.3448703E-03;  9.9469354E+02;  1.0034835E-01; -4.3963140E+03;3;  7.1140022E+00;  0.0000000E+00; -2.3368816E+00;0; -2.0596561E-01;  3.9269594E+04;  0.0000000E+00;  1.8534817E-01;  4.0000000E+04;  0.0000000E+00;  4.0031484E+04; -2.2172250E-01;  0.0000000E+00;  1.5756885E-02;  4.6962563E+03;
  5.9698009E-01;  9.9999998E-03;  1.0995573E-01;6086; -1.6906594E-01;  0.0000000E+00;  1.5249010E-03;  9.9463141E+02;  1.0034828E-01; -4.4477695E+03;3;  6.7605681E+00;  0.0000000E+00; -2.5339513E+00;0; -2.0457648E-01;  3.9264711E+04;  0.0000000E+00;  1.8613937E-01;  4.0000000E+04;  0.0000000E+00;  4.0031141E+04; -2.2154441E-01;  0.0000000E+00;  1.6967932E-02;  4.6652178E+03;
  5.9696275E-01;  9.9999998E-03;  1.1995850E-01;6087; -1.6897132E-01;  0.0000000E+00;  1.7195747E-03;  9.9457129E+02;  1.0034828E-01; -4.4975952E+03;3;  6.3822184E+00;  0.0000000E+00; -2.7234674E+00;0; -2.0312686E-01;  3.9259969E+04;  0.0000000E+00;  1.7669499E-01;  4.0000000E+04;  0.0000000E+00;  4.0031262E+04; -2.2129408E-01;  0.0000000E+00;  1.8167207E-02;  4.6742896E+03;
  5.9695321E-01;  9.9999998E-03;  1.2996182E-01;6088; -1.6887479E-01;  0.0000000E+00;  1.9316536E-03;  9.9451611E+02;  1.0034844E-01; -4.5432729E+03;3;  5.9837394E+00;  0.0000000E+00; -2.9048746E+00;0; -2.0163663E-01;  3.9254938E+04;  0.0000000E+00;  1.5791292E-01;  4.0000000E+04;  0.0000000E+00;  4.0031605E+04; -2.2094913E-01;  0.0000000E+00;  1.9312503E-02;  4.7365391E+03;
  5.9695351E-01;  9.9999998E-03;  1.3996476E-01;6089; -1.6877565E-01;  0.0000000E+00;  2.1632113E-03;  9.9446271E+02;  1.0034855E-01; -4.5875186E+03;3;  5.5683007E+00;  0.0000000E+00; -3.0667717E+00;0; -2.0013021E-01;  3.9249695E+04;  0.0000000E+00;  1.3190122E-01;  4.0000000E+04;  0.0000000E+00;  4.0032633E+04; -2.2048603E-01;  0.0000000E+00;  2.0355817E-02;  4.8572725E+03;
  5.9696370E-01;  9.9999998E-03;  1.4996690E-01;6090; -1.6867220E-01;  0.0000000E+00;  2.4139206E-03;  9.9441205E+02;  1.0034860E-01; -4.6294922E+03;3;  5.1365099E+00;  0.0000000E+00; -3.2130265E+00;0; -1.9863123E-01;  3.9244250E+04;  0.0000000E+00;  1.0156756E-01;  4.0000000E+04;  0.0000000E+00;  4.0033953E+04; -2.1987830E-01;  0.0000000E+00;  2.1247081E-02;  5.0319170E+03;
  5.9698373E-01;  9.9999998E-03;  1.5996802E-01;6091; -1.6856241E-01;  0.0000000E+00;  2.6813641E-03;  9.9436279E+02;  1.0034893E-01; -4.6703306E+03;3;  4.6921148E+00;  0.0000000E+00; -3.3355658E+00;0; -1.9715610E-01;  3.9238656E+04;  0.0000000E+00;  6.9974370E-02;  4.0000000E+04;  0.0000000E+00;  4.0035738E+04; -2.1910056E-01;  0.0000000E+00;  2.1944469E-02;  5.2430376E+03;
  5.9701347E-01;  9.9999998E-03;  1.6996793E-01;6092; -1.6844347E-01;  0.0000000E+00;  2.9571522E-03;  9.9431110E+02;  1.0034908E-01; -4.7131440E+03;3;  4.2375803E+00;  0.0000000E+00; -3.4428589E+00;0; -1.9570425E-01;  3.9232891E+04;  0.0000000E+00;  4.0052436E-02;  4.0000000E+04;  0.0000000E+00;  4.0037387E+04; -2.1813390E-01;  0.0000000E+00;  2.2429638E-02;  5.4604810E+03;
  5.9705269E-01;  9.9999998E-03;  1.7996617E-01;6093; -1.6831307E-01;  0.0000000E+00;  3.2322817E-03;  9.9425684E+02;  1.0034906E-01; -4.7580811E+03;3;  3.7759984E+00;  0.0000000E+00; -3.5289061E+00;0; -1.9425249E-01;  3.9226996E+04;  0.0000000E+00;  1.4289211E-02;  4.0000000E+04;  0.0000000E+00;  4.0038766E+04; -2.1696758E-01;  0.0000000E+00;  2.2715094E-02;  5.6452266E+03;
  5.9710068E-01;  9.9999998E-03;  1.8996218E-01;6094; -1.6816911E-01;  0.0000000E+00;  3.4991354E-03;  9.9419177E+02;  1.0034942E-01; -4.8120054E+03;3;  3.3102496E+00;  0.0000000E+00; -3.5895808E+00;0; -1.9276331E-01;  3.9221219E+04;  0.0000000E+00; -5.4504541E-03;  4.0000000E+04;  0.0000000E+00;  4.0039691E+04; -2.1560557E-01;  0.0000000E+00;  2.2842258E-02;  5.7567451E+03;
  5.9715569E-01;  9.9999998E-03;  1.9995496E-01;6095; -1.6801043E-01;  0.0000000E+00;  3.7477864E-03;  9.9411548E+02;  1.0034940E-01; -4.8752134E+03;3;  2.8456826E+00;  0.0000000E+00; -3.6283371E+00;0; -1.9119576E-01;  3.9215320E+04;  0.0000000E+00; -1.8013787E-02;  4.0000000E+04;  0.0000000E+00;  4.0039738E+04; -2.1406543E-01;  0.0000000E+00;  2.2869684E-02;  5.7666675E+03;
  5.9721571E-01;  9.9999998E-03;  2.0994236E-01;6096; -1.6783734E-01;  0.0000000E+00;  3.9663143E-03;  9.9403534E+02;  1.0034940E-01; -4.9415820E+03;3;  2.3845949E+00;  0.0000000E+00; -3.6432130E+00;0; -1.8952399E-01;  3.9209480E+04;  0.0000000E+00; -2.3644090E-02;  4.0000000E+04;  0.0000000E+00;  4.0038965E+04; -2.1237516E-01;  0.0000000E+00;  2.2851167E-02;  5.6954009E+03;
  5.9727734E-01;  9.9999998E-03;  2.1992366E-01;6097; -1.6765013E-01;  0.0000000E+00;  4.1528326E-03;  9.9395770E+02;  1.0034967E-01; -5.0059258E+03;3;  1.9268707E+00;  0.0000000E+00; -3.6416755E+00;0; -1.8774909E-01;  3.9204086E+04;  0.0000000E+00; -2.5711302E-02;  4.0000000E+04;  0.0000000E+00;  4.0038680E+04; -2.1057065E-01;  0.0000000E+00;  2.2821557E-02;  5.6506802E+03;
  5.9733576E-01;  9.9999998E-03;  2.2990181E-01;6098; -1.6745085E-01;  0.0000000E+00;  4.3256492E-03;  9.9390222E+02;  1.0034961E-01; -5.0518994E+03;3;  1.4767221E+00;  0.0000000E+00; -3.6338820E+00;0; -1.8586034E-01;  3.9199082E+04;  0.0000000E+00; -3.3083886E-02;  4.0000000E+04;  0.0000000E+00;  4.0039762E+04; -2.0869102E-01;  0.0000000E+00;  2.2830682E-02;  5.7904517E+03;
  6.0719371E-01;  9.9999998E-03;  6.9956496E-02;6143; -1.7159079E-01;  0.0000000E+00;  7.4473798E-04;  9.9542560E+02;  1.0056140E-01; -3.7898125E+03;3;  8.3836164E+00;  0.0000000E+00; -1.5843039E+00;0; -2.1275210E-01;  3.9158949E+04;  0.0000000E+00;  1.3769916E-01;  4.0000000E+04;  0.0000000E+00;  4.0035395E+04; -2.2269131E-01;  0.0000000E+00;  9.9392068E-03;  5.2901802E+03;
  6.0717267E-01;  9.9999998E-03;  7.9949148E-02;6144; -1.7150839E-01;  0.0000000E+00;  8.7097607E-04;  9.9532812E+02;  1.0056169E-01; -3.8705508E+03;3;  8.1003380E+00;  0.0000000E+00; -1.7969306E+00;0; -2.1139030E-01;  3.9151605E+04;  0.0000000E+00;  1.5940505E-01;  4.0000000E+04;  0.0000000E+00;  4.0034855E+04; -2.2239390E-01;  0.0000000E+00;  1.1003598E-02;  5.2356533E+03;
  6.0715032E-01;  9.9999998E-03;  8.9942873E-02;6145; -1.7142232E-01;  0.0000000E+00;  1.0065775E-03;  9.9522607E+02;  1.0056166E-01; -3.9550916E+03;3;  7.7854624E+00;  0.0000000E+00; -2.0045276E+00;0; -2.0989287E-01;  3.9144027E+04;  0.0000000E+00;  1.7359191E-01;  4.0000000E+04;  0.0000000E+00;  4.0034180E+04; -2.2205672E-01;  0.0000000E+00;  1.2163841E-02;  5.1591953E+03;
  6.0712779E-01;  9.9999998E-03;  9.9938564E-02;6146; -1.7133376E-01;  0.0000000E+00;  1.1534611E-03;  9.9512531E+02;  1.0056184E-01; -4.0385952E+03;3;  7.4386683E+00;  0.0000000E+00; -2.1948762E+00;0; -2.0827702E-01;  3.9136543E+04;  0.0000000E+00;  1.7814650E-01;  4.0000000E+04;  0.0000000E+00;  4.0033367E+04; -2.2167403E-01;  0.0000000E+00;  1.3397003E-02;  5.0760742E+03;
  6.0710633E-01;  9.9999998E-03;  1.0993686E-01;6147; -1.7124313E-01;  0.0000000E+00;  1.3135490E-03;  9.9502954E+02;  1.0056213E-01; -4.1179014E+03;3;  7.0626106E+00;  0.0000000E+00; -2.3849578E+00;0; -2.0656033E-01;  3.9129453E+04;  0.0000000E+00;  1.7202456E-01;  4.0000000E+04;  0.0000000E+00;  4.0032777E+04; -2.2123551E-01;  0.0000000E+00;  1.4675179E-02;  5.0046626E+03;
  6.0708773E-01;  9.9999998E-03;  1.1993783E-01;6148; -1.7115027E-01;  0.0000000E+00;  1.4906969E-03;  9.9493927E+02;  1.0056242E-01; -4.1927139E+03;3;  6.6635771E+00;  0.0000000E+00; -2.5541141E+00;0; -2.0476425E-01;  3.9122461E+04;  0.0000000E+00;  1.5553212E-01;  4.0000000E+04;  0.0000000E+00;  4.0032305E+04; -2.2072867E-01;  0.0000000E+00;  1.5964417E-02;  4.9627856E+03;
  6.0707414E-01;  9.9999998E-03;  1.2994112E-01;6149; -1.7105485E-01;  0.0000000E+00;  1.6872350E-03;  9.9486053E+02;  1.0056223E-01; -4.2579468E+03;3;  6.2416291E+00;  0.0000000E+00; -2.7184975E+00;0; -2.0291206E-01;  3.9115941E+04;  0.0000000E+00;  1.3030612E-01;  4.0000000E+04;  0.0000000E+00;  4.0032309E+04; -2.2013570E-01;  0.0000000E+00;  1.7223636E-02;  4.9636533E+03;
  6.0706812E-01;  9.9999998E-03;  1.3994594E-01;6150; -1.7095576E-01;  0.0000000E+00;  1.9062549E-03;  9.9478912E+02;  1.0056274E-01; -4.3171055E+03;3;  5.7996140E+00;  0.0000000E+00; -2.8674593E+00;0; -2.0103109E-01;  3.9109828E+04;  0.0000000E+00;  9.9053062E-02;  4.0000000E+04;  0.0000000E+00;  4.0032668E+04; -2.1943589E-01;  0.0000000E+00;  1.8404795E-02;  5.0127036E+03;
  6.0707247E-01;  9.9999998E-03;  1.4995106E-01;6151; -1.7085093E-01;  0.0000000E+00;  2.1476769E-03;  9.9472974E+02;  1.0056295E-01; -4.3662891E+03;3;  5.3397741E+00;  0.0000000E+00; -3.0032952E+00;0; -1.9914939E-01;  3.9104289E+04;  0.0000000E+00;  6.5081775E-02;  4.0000000E+04;  0.0000000E+00;  4.0033320E+04; -2.1860527E-01;  0.0000000E+00;  1.9455886E-02;  5.1049658E+03;
  6.0708874E-01;  9.9999998E-03;  1.5995516E-01;6152; -1.7073768E-01;  0.0000000E+00;  2.4083673E-03;  9.9467822E+02;  1.0056322E-01; -4.4090039E+03;3;  4.8672662E+00;  0.0000000E+00; -3.1128852E+00;0; -1.9728912E-01;  3.9099121E+04;  0.0000000E+00;  3.1740561E-02;  4.0000000E+04;  0.0000000E+00;  4.0034328E+04; -2.1762060E-01;  0.0000000E+00;  2.0331470E-02;  5.2233569E+03;
  6.0711724E-01;  9.9999998E-03;  1.6995741E-01;6153; -1.7061290E-01;  0.0000000E+00;  2.6808942E-03;  9.9462994E+02;  1.0056351E-01; -4.4490024E+03;3;  4.3833938E+00;  0.0000000E+00; -3.2060571E+00;0; -1.9545271E-01;  3.9094219E+04;  0.0000000E+00;  2.2945972E-03;  4.0000000E+04;  0.0000000E+00;  4.0035090E+04; -2.1646184E-01;  0.0000000E+00;  2.1009138E-02;  5.3386626E+03;
  6.0715669E-01;  9.9999998E-03;  1.7995733E-01;6154; -1.7047346E-01;  0.0000000E+00;  2.9570381E-03;  9.9458124E+02;  1.0056404E-01; -4.4893472E+03;3;  3.8917582E+00;  0.0000000E+00; -3.2697973E+00;0; -1.9362165E-01;  3.9089738E+04;  0.0000000E+00; -2.0365050E-02;  4.0000000E+04;  0.0000000E+00;  4.0035852E+04; -2.1512038E-01;  0.0000000E+00;  2.1498729E-02;  5.4135576E+03;
  6.0720515E-01;  9.9999998E-03;  1.8995440E-01;6155; -1.7031637E-01;  0.0000000E+00;  3.2269836E-03;  9.9452490E+02;  1.0056406E-01; -4.5360122E+03;3;  3.3969712E+00;  0.0000000E+00; -3.3173842E+00;0; -1.9175930E-01;  3.9085234E+04;  0.0000000E+00; -3.3945933E-02;  4.0000000E+04;  0.0000000E+00;  4.0035688E+04; -2.1360041E-01;  0.0000000E+00;  2.1841103E-02;  5.4104854E+03;
  6.0725993E-01;  9.9999998E-03;  1.9994751E-01;6156; -1.7014013E-01;  0.0000000E+00;  3.4767438E-03;  9.9445551E+02;  1.0056403E-01; -4.5934922E+03;3;  2.9006424E+00;  0.0000000E+00; -3.3403478E+00;0; -1.8982174E-01;  3.9080840E+04;  0.0000000E+00; -3.6906198E-02;  4.0000000E+04;  0.0000000E+00;  4.0034879E+04; -2.1191747E-01;  0.0000000E+00;  2.2095740E-02;  5.3080693E+03;
  6.0731792E-01;  9.9999998E-03;  2.0993461E-01;6157; -1.6994511E-01;  0.0000000E+00;  3.6940023E-03;  9.9438324E+02;  1.0056417E-01; -4.6533916E+03;3;  2.4071970E+00;  0.0000000E+00; -3.3496103E+00;0; -1.8777892E-01;  3.9076414E+04;  0.0000000E+00; -2.9333232E-02;  4.0000000E+04;  0.0000000E+00;  4.0033363E+04; -2.1009809E-01;  0.0000000E+00;  2.2319170E-02;  5.1407271E+03;
  6.0737455E-01;  9.9999998E-03;  2.1991506E-01;6158; -1.6973208E-01;  0.0000000E+00;  3.8766870E-03;  9.9431732E+02;  1.0056438E-01; -4.7080073E+03;3;  1.9175348E+00;  0.0000000E+00; -3.3440127E+00;0; -1.8562748E-01;  3.9072289E+04;  0.0000000E+00; -1.4388267E-02;  4.0000000E+04;  0.0000000E+00;  4.0032504E+04; -2.0817512E-01;  0.0000000E+00;  2.2547644E-02;  5.0415181E+03;
  6.0742503E-01;  9.9999998E-03;  2.2989319E-01;6159; -1.6950415E-01;  0.0000000E+00;  4.0465435E-03;  9.9428088E+02;  1.0056425E-01; -4.7381792E+03;3;  1.4336016E+00;  0.0000000E+00; -3.3215239E+00;0; -1.8334284E-01;  3.9068496E+04;  0.0000000E+00; -4.5887483E-04;  4.0000000E+04;  0.0000000E+00;  4.0033645E+04; -2.0618214E-01;  0.0000000E+00;  2.2839297E-02;  5.1700044E+03;
  6.1722296E-01;  9.9999998E-03;  6.9959581E-02;6204; -1.7371407E-01;  0.0000000E+00;  5.6801544E-04;  9.9583588E+02;  1.0089495E-01; -3.4498708E+03;3;  8.7571735E+00;  0.0000000E+00; -1.4734496E+00;0; -2.1668077E-01;  3.8933348E+04;  0.0000000E+00;  1.1289919E-01;  4.0000000E+04;  0.0000000E+00;  4.0037148E+04; -2.2387703E-01;  0.0000000E+00;  7.1962606E-03;  5.7526328E+03;
  6.1721015E-01;  9.9999998E-03;  7.9950370E-02;6205; -1.7363194E-01;  0.0000000E+00;  6.6817185E-04;  9.9570953E+02;  1.0089531E-01; -3.5545591E+03;3;  8.4585552E+00;  0.0000000E+00; -1.6613399E+00;0; -2.1506175E-01;  3.8923566E+04;  0.0000000E+00;  1.2577555E-01;  4.0000000E+04;  0.0000000E+00;  4.0036648E+04; -2.2333710E-01;  0.0000000E+00;  8.2753450E-03;  5.6960977E+03;
  6.1719596E-01;  9.9999998E-03;  8.9941643E-02;6206; -1.7354660E-01;  0.0000000E+00;  7.7747158E-04;  9.9557910E+02;  1.0089567E-01; -3.6626052E+03;3;  8.1241198E+00;  0.0000000E+00; -1.8493493E+00;0; -2.1328172E-01;  3.8913836E+04;  0.0000000E+00;  1.3051793E-01;  4.0000000E+04;  0.0000000E+00;  4.0035719E+04; -2.2274585E-01;  0.0000000E+00;  9.4641251E-03;  5.6104644E+03;
  6.1718106E-01;  9.9999998E-03;  9.9934161E-02;6207; -1.7345886E-01;  0.0000000E+00;  8.9910679E-04;  9.9545294E+02;  1.0089583E-01; -3.7671453E+03;3;  7.7585320E+00;  0.0000000E+00; -2.0356154E+00;0; -2.1136020E-01;  3.8904484E+04;  0.0000000E+00;  1.2585917E-01;  4.0000000E+04;  0.0000000E+00;  4.0034875E+04; -2.2210342E-01;  0.0000000E+00;  1.0743211E-02;  5.5089819E+03;
  6.1716670E-01;  9.9999998E-03;  1.0992859E-01;6208; -1.7336917E-01;  0.0000000E+00;  1.0364087E-03;  9.9533521E+02;  1.0089607E-01; -3.8646733E+03;3;  7.3624177E+00;  0.0000000E+00; -2.2023773E+00;0; -2.0931914E-01;  3.8895547E+04;  0.0000000E+00;  1.1175162E-01;  4.0000000E+04;  0.0000000E+00;  4.0034000E+04; -2.2140682E-01;  0.0000000E+00;  1.2087671E-02;  5.4085308E+03;
  6.1715478E-01;  9.9999998E-03;  1.1992521E-01;6209; -1.7327742E-01;  0.0000000E+00;  1.1923324E-03;  9.9522827E+02;  1.0089671E-01; -3.9532632E+03;3;  6.9411836E+00;  0.0000000E+00; -2.3563528E+00;0; -2.0718257E-01;  3.8887441E+04;  0.0000000E+00;  8.9430101E-02;  4.0000000E+04;  0.0000000E+00;  4.0033227E+04; -2.2064877E-01;  0.0000000E+00;  1.3466193E-02;  5.3257144E+03;
  6.1714709E-01;  9.9999998E-03;  1.2992413E-01;6210; -1.7318255E-01;  0.0000000E+00;  1.3699797E-03;  9.9513483E+02;  1.0089687E-01; -4.0306929E+03;3;  6.4945111E+00;  0.0000000E+00; -2.5079854E+00;0; -2.0497631E-01;  3.8880168E+04;  0.0000000E+00;  6.1193340E-02;  4.0000000E+04;  0.0000000E+00;  4.0032801E+04; -2.1981655E-01;  0.0000000E+00;  1.4840242E-02;  5.2727754E+03;
  6.1714530E-01;  9.9999998E-03;  1.3992535E-01;6211; -1.7308269E-01;  0.0000000E+00;  1.5735467E-03;  9.9505682E+02;  1.0089706E-01; -4.0953330E+03;3;  6.0239272E+00;  0.0000000E+00; -2.6486473E+00;0; -2.0273092E-01;  3.8873902E+04;  0.0000000E+00;  3.0024782E-02;  4.0000000E+04;  0.0000000E+00;  4.0032617E+04; -2.1889496E-01;  0.0000000E+00;  1.6164031E-02;  5.2537407E+03;
  6.1715138E-01;  9.9999998E-03;  1.4992826E-01;6212; -1.7297462E-01;  0.0000000E+00;  1.8026655E-03;  9.9499109E+02;  1.0089783E-01; -4.1498003E+03;3;  5.5379496E+00;  0.0000000E+00; -2.7637413E+00;0; -2.0047720E-01;  3.8868441E+04;  0.0000000E+00; -9.2566933E-04;  4.0000000E+04;  0.0000000E+00;  4.0032531E+04; -2.1786340E-01;  0.0000000E+00;  1.7386196E-02;  5.2622725E+03;
  6.1716735E-01;  9.9999998E-03;  1.5993172E-01;6213; -1.7285511E-01;  0.0000000E+00;  2.0544096E-03;  9.9493951E+02;  1.0089833E-01; -4.1925151E+03;3;  5.0364118E+00;  0.0000000E+00; -2.8601561E+00;0; -1.9824113E-01;  3.8863898E+04;  0.0000000E+00; -2.8782034E-02;  4.0000000E+04;  0.0000000E+00;  4.0032684E+04; -2.1670029E-01;  0.0000000E+00;  1.8459151E-02;  5.2821641E+03;
  6.1719418E-01;  9.9999998E-03;  1.6993457E-01;6214; -1.7272051E-01;  0.0000000E+00;  2.3218493E-03;  9.9489484E+02;  1.0089871E-01; -4.2295020E+03;3;  4.5220828E+00;  0.0000000E+00; -2.9387619E+00;0; -1.9603181E-01;  3.8859969E+04;  0.0000000E+00; -5.0804701E-02;  4.0000000E+04;  0.0000000E+00;  4.0032738E+04; -2.1538755E-01;  0.0000000E+00;  1.9355750E-02;  5.2883179E+03;
  6.1723125E-01;  9.9999998E-03;  1.7993556E-01;6215; -1.7256683E-01;  0.0000000E+00;  2.5976680E-03;  9.9485126E+02;  1.0089894E-01; -4.2656489E+03;3;  4.0012584E+00;  0.0000000E+00; -2.9923763E+00;0; -1.9383661E-01;  3.8856488E+04;  0.0000000E+00; -6.4459778E-02;  4.0000000E+04;  0.0000000E+00;  4.0032324E+04; -2.1391767E-01;  0.0000000E+00;  2.0081056E-02;  5.2499292E+03;
  6.1727637E-01;  9.9999998E-03;  1.8993363E-01;6216; -1.7239036E-01;  0.0000000E+00;  2.8690633E-03;  9.9479761E+02;  1.0089947E-01; -4.3100918E+03;3;  3.4750972E+00;  0.0000000E+00; -3.0254872E+00;0; -1.9162044E-01;  3.8852996E+04;  0.0000000E+00; -6.7377530E-02;  4.0000000E+04;  0.0000000E+00;  4.0031422E+04; -2.1229334E-01;  0.0000000E+00;  2.0672901E-02;  5.1386650E+03;
  6.1732608E-01;  9.9999998E-03;  1.9992740E-01;6217; -1.7218979E-01;  0.0000000E+00;  3.1222943E-03;  9.9473615E+02;  1.0089987E-01; -4.3610039E+03;3;  2.9481113E+00;  0.0000000E+00; -3.0330207E+00;0; -1.8933798E-01;  3.8849625E+04;  0.0000000E+00; -5.7527985E-02;  4.0000000E+04;  0.0000000E+00;  4.0029875E+04; -2.1052930E-01;  0.0000000E+00;  2.1191318E-02;  4.9468467E+03;
  6.1737692E-01;  9.9999998E-03;  2.0991464E-01;6218; -1.7196523E-01;  0.0000000E+00;  3.3444050E-03;  9.9466949E+02;  1.0089972E-01; -4.4162119E+03;3;  2.4215562E+00;  0.0000000E+00; -3.0248413E+00;0; -1.8695104E-01;  3.8846102E+04;  0.0000000E+00; -3.4043431E-02;  4.0000000E+04;  0.0000000E+00;  4.0028035E+04; -2.0864746E-01;  0.0000000E+00;  2.1696426E-02;  4.7314780E+03;
  6.1742371E-01;  9.9999998E-03;  2.1989539E-01;6219; -1.7171806E-01;  0.0000000E+00;  3.5356130E-03;  9.9461493E+02;  1.0089993E-01; -4.4613960E+03;3;  1.8995023E+00;  0.0000000E+00; -3.0046499E+00;0; -1.8443778E-01;  3.8842656E+04;  0.0000000E+00;  1.4516941E-03;  4.0000000E+04;  0.0000000E+00;  4.0027242E+04; -2.0667510E-01;  0.0000000E+00;  2.2237308E-02;  4.6476021E+03;
  6.1746210E-01;  9.9999998E-03;  2.2987492E-01;6220; -1.7145267E-01;  0.0000000E+00;  3.7254877E-03;  9.9459772E+02;  1.0090013E-01; -4.4756670E+03;3;  1.3843417E+00;  0.0000000E+00; -2.9636383E+00;0; -1.8172352E-01;  3.8839699E+04;  0.0000000E+00;  4.3038692E-02;  4.0000000E+04;  0.0000000E+00;  4.0029055E+04; -2.0463952E-01;  0.0000000E+00;  2.2916010E-02;  4.8566558E+03;
  6.2717831E-01;  9.9999998E-03;  6.9963947E-02;6265; -1.7580673E-01;  0.0000000E+00;  3.4406889E-04;  9.9609979E+02;  1.0140128E-01; -3.2312593E+03;3;  9.1280441E+00;  0.0000000E+00; -1.3312656E+00;0; -2.2135876E-01;  3.8567527E+04;  0.0000000E+00;  5.9239887E-02;  4.0000000E+04;  0.0000000E+00;  4.0037535E+04; -2.2550648E-01;  0.0000000E+00;  4.1477168E-03;  6.2056060E+03;
  6.2717563E-01;  9.9999998E-03;  7.9953447E-02;6266; -1.7572363E-01;  0.0000000E+00;  4.1208978E-04;  9.9595892E+02;  1.0140149E-01; -3.3479470E+03;3;  8.8136225E+00;  0.0000000E+00; -1.5075907E+00;0; -2.1948200E-01;  3.8556469E+04;  0.0000000E+00;  5.8061402E-02;  4.0000000E+04;  0.0000000E+00;  4.0036965E+04; -2.2472455E-01;  0.0000000E+00;  5.2425456E-03;  6.1556860E+03;
  6.2717217E-01;  9.9999998E-03;  8.9942992E-02;6267; -1.7563748E-01;  0.0000000E+00;  4.9038226E-04;  9.9581934E+02;  1.0140219E-01; -3.4635979E+03;3;  8.4611950E+00;  0.0000000E+00; -1.6788962E+00;0; -2.1742325E-01;  3.8545879E+04;  0.0000000E+00;  4.9353279E-02;  4.0000000E+04;  0.0000000E+00;  4.0036273E+04; -2.2388236E-01;  0.0000000E+00;  6.4591239E-03;  6.0721455E+03;
  6.2716830E-01;  9.9999998E-03;  9.9933274E-02;6268; -1.7554912E-01;  0.0000000E+00;  5.8258843E-04;  9.9568481E+02;  1.0140278E-01; -3.5750513E+03;3;  8.0746441E+00;  0.0000000E+00; -1.8401897E+00;0; -2.1520630E-01;  3.8535738E+04;  0.0000000E+00;  3.3095386E-02;  4.0000000E+04;  0.0000000E+00;  4.0035297E+04; -2.2298780E-01;  0.0000000E+00;  7.7815065E-03;  5.9660059E+03;
  6.2716478E-01;  9.9999998E-03;  1.0992505E-01;6269; -1.7545857E-01;  0.0000000E+00;  6.9060869E-04;  9.9556097E+02;  1.0140337E-01; -3.6776160E+03;3;  7.6585522E+00;  0.0000000E+00; -1.9944612E+00;0; -2.1285568E-01;  3.8526539E+04;  0.0000000E+00;  1.0456800E-02;  4.0000000E+04;  0.0000000E+00;  4.0034336E+04; -2.2204416E-01;  0.0000000E+00;  9.1884723E-03;  5.8521167E+03;
  6.2716275E-01;  9.9999998E-03;  1.1991860E-01;6270; -1.7536563E-01;  0.0000000E+00;  8.2013791E-04;  9.9545331E+02;  1.0140344E-01; -3.7668479E+03;3;  7.2116628E+00;  0.0000000E+00; -2.1434388E+00;0; -2.1039845E-01;  3.8518363E+04;  0.0000000E+00; -1.6323602E-02;  4.0000000E+04;  0.0000000E+00;  4.0033426E+04; -2.2105101E-01;  0.0000000E+00;  1.0652552E-02;  5.7449585E+03;
  6.2716407E-01;  9.9999998E-03;  1.2991399E-01;6271; -1.7526834E-01;  0.0000000E+00;  9.7387424E-04;  9.9536316E+02;  1.0140459E-01; -3.8415122E+03;3;  6.7395558E+00;  0.0000000E+00; -2.2822015E+00;0; -2.0786422E-01;  3.8511414E+04;  0.0000000E+00; -4.4384554E-02;  4.0000000E+04;  0.0000000E+00;  4.0032512E+04; -2.2000343E-01;  0.0000000E+00;  1.2139195E-02;  5.6543452E+03;
  6.2717074E-01;  9.9999998E-03;  1.3991098E-01;6272; -1.7516461E-01;  0.0000000E+00;  1.1560046E-03;  9.9529047E+02;  1.0140541E-01; -3.9017573E+03;3;  6.2458048E+00;  0.0000000E+00; -2.3989184E+00;0; -2.0528439E-01;  3.8505734E+04;  0.0000000E+00; -7.0762120E-02;  4.0000000E+04;  0.0000000E+00;  4.0031926E+04; -2.1889071E-01;  0.0000000E+00;  1.3606329E-02;  5.5813130E+03;
  6.2718445E-01;  9.9999998E-03;  1.4990921E-01;6273; -1.7505087E-01;  0.0000000E+00;  1.3667546E-03;  9.9523346E+02;  1.0140602E-01; -3.9489658E+03;3;  5.7305980E+00;  0.0000000E+00; -2.5017374E+00;0; -2.0269181E-01;  3.8501129E+04;  0.0000000E+00; -9.2917971E-02;  4.0000000E+04;  0.0000000E+00;  4.0031328E+04; -2.1769729E-01;  0.0000000E+00;  1.5005490E-02;  5.5165391E+03;
  6.2720639E-01;  9.9999998E-03;  1.5990834E-01;6274; -1.7492269E-01;  0.0000000E+00;  1.6040239E-03;  9.9518823E+02;  1.0140680E-01; -3.9864460E+03;3;  5.1990490E+00;  0.0000000E+00; -2.5879662E+00;0; -2.0011565E-01;  3.8497602E+04;  0.0000000E+00; -1.0911932E-01;  4.0000000E+04;  0.0000000E+00;  4.0030773E+04; -2.1640423E-01;  0.0000000E+00;  1.6288577E-02;  5.4437773E+03;
  6.2723672E-01;  9.9999998E-03;  1.6990773E-01;6275; -1.7477505E-01;  0.0000000E+00;  1.8620358E-03;  9.9514978E+02;  1.0140770E-01; -4.0182971E+03;3;  4.6535959E+00;  0.0000000E+00; -2.6436036E+00;0; -1.9757247E-01;  3.8494820E+04;  0.0000000E+00; -1.1798902E-01;  4.0000000E+04;  0.0000000E+00;  4.0029871E+04; -2.1499653E-01;  0.0000000E+00;  1.7424069E-02;  5.3439775E+03;
  6.2727422E-01;  9.9999998E-03;  1.7990632E-01;6276; -1.7460285E-01;  0.0000000E+00;  2.1315746E-03;  9.9511035E+02;  1.0140860E-01; -4.0509873E+03;3;  4.1022811E+00;  0.0000000E+00; -2.6809716E+00;0; -1.9505630E-01;  3.8492305E+04;  0.0000000E+00; -1.1794321E-01;  4.0000000E+04;  0.0000000E+00;  4.0028754E+04; -2.1346687E-01;  0.0000000E+00;  1.8410560E-02;  5.1987114E+03;
  6.2731642E-01;  9.9999998E-03;  1.8990274E-01;6277; -1.7440222E-01;  0.0000000E+00;  2.4015685E-03;  9.9506293E+02;  1.0140942E-01; -4.0902454E+03;3;  3.5447931E+00;  0.0000000E+00; -2.7042489E+00;0; -1.9253632E-01;  3.8489719E+04;  0.0000000E+00; -1.0672336E-01;  4.0000000E+04;  0.0000000E+00;  4.0027082E+04; -2.1181698E-01;  0.0000000E+00;  1.9280659E-02;  4.9979668E+03;
  6.2736005E-01;  9.9999998E-03;  1.9989538E-01;6278; -1.7417155E-01;  0.0000000E+00;  2.6589162E-03;  9.9500647E+02;  1.0140961E-01; -4.1370586E+03;3;  2.9869289E+00;  0.0000000E+00; -2.6955683E+00;0; -1.8996526E-01;  3.8486898E+04;  0.0000000E+00; -8.1594490E-02;  4.0000000E+04;  0.0000000E+00;  4.0025105E+04; -2.1005775E-01;  0.0000000E+00;  2.0092491E-02;  4.7587295E+03;
  6.2740189E-01;  9.9999998E-03;  2.0988236E-01;6279; -1.7391182E-01;  0.0000000E+00;  2.8939785E-03;  9.9495135E+02;  1.0141014E-01; -4.1826870E+03;3;  2.4298859E+00;  0.0000000E+00; -2.6763709E+00;0; -1.8729077E-01;  3.8483879E+04;  0.0000000E+00; -4.0398967E-02;  4.0000000E+04;  0.0000000E+00;  4.0023605E+04; -2.0820530E-01;  0.0000000E+00;  2.0914523E-02;  4.5648931E+03;
  6.2743700E-01;  9.9999998E-03;  2.1986483E-01;6280; -1.7362483E-01;  0.0000000E+00;  3.1137601E-03;  9.9491058E+02;  1.0141039E-01; -4.2164639E+03;3;  1.8763466E+00;  0.0000000E+00; -2.6439650E+00;0; -1.8444909E-01;  3.8480871E+04;  0.0000000E+00;  1.6782578E-02;  4.0000000E+04;  0.0000000E+00;  4.0023617E+04; -2.0627859E-01;  0.0000000E+00;  2.1829506E-02;  4.5791475E+03;
  6.2746221E-01;  9.9999998E-03;  2.2984879E-01;6281; -1.7331639E-01;  0.0000000E+00;  3.3552255E-03;  9.9490729E+02;  1.0141005E-01; -4.2192290E+03;3;  1.3293033E+00;  0.0000000E+00; -2.5815530E+00;0; -1.8127194E-01;  3.8478172E+04;  0.0000000E+00;  8.6333074E-02;  4.0000000E+04;  0.0000000E+00;  4.0026387E+04; -2.0429571E-01;  0.0000000E+00;  2.3023762E-02;  4.9281484E+03;
  6.3709545E-01;  9.9999998E-03;  6.9962539E-02;6326; -1.7789994E-01;  0.0000000E+00;  8.0684484E-05;  9.9627020E+02;  1.0213829E-01; -3.0900774E+03;3;  9.4967346E+00;  0.0000000E+00; -1.1574897E+00;0; -2.2666058E-01;  3.8027578E+04;  0.0000000E+00; -1.3890998E-02;  4.0000000E+04;  0.0000000E+00;  4.0036055E+04; -2.2744457E-01;  0.0000000E+00;  7.8399212E-04;  6.6214233E+03;
  6.3710141E-01;  9.9999998E-03;  7.9951942E-02;6327; -1.7781319E-01;  0.0000000E+00;  1.1104775E-04;  9.9613489E+02;  1.0213865E-01; -3.2021726E+03;3;  9.1648998E+00;  0.0000000E+00; -1.3161258E+00;0; -2.2453088E-01;  3.8016879E+04;  0.0000000E+00; -3.1987544E-02;  4.0000000E+04;  0.0000000E+00;  4.0035727E+04; -2.2642697E-01;  0.0000000E+00;  1.8960983E-03;  6.5849658E+03;
  6.3710707E-01;  9.9999998E-03;  8.9940973E-02;6328; -1.7772309E-01;  0.0000000E+00;  1.5233240E-04;  9.9600262E+02;  1.0213952E-01; -3.3117495E+03;3;  8.7941160E+00;  0.0000000E+00; -1.4659574E+00;0; -2.2220498E-01;  3.8006484E+04;  0.0000000E+00; -5.6100834E-02;  4.0000000E+04;  0.0000000E+00;  4.0034984E+04; -2.2534440E-01;  0.0000000E+00;  3.1394165E-03;  6.5139458E+03;
  6.3711286E-01;  9.9999998E-03;  9.9930465E-02;6329; -1.7763059E-01;  0.0000000E+00;  2.0767910E-04;  9.9588470E+02;  1.0214072E-01; -3.4094255E+03;3;  8.3879814E+00;  0.0000000E+00; -1.6186541E+00;0; -2.1971093E-01;  3.7997371E+04;  0.0000000E+00; -8.4845692E-02;  4.0000000E+04;  0.0000000E+00;  4.0034219E+04; -2.2421236E-01;  0.0000000E+00;  4.5014312E-03;  6.4175239E+03;
  6.3711935E-01;  9.9999998E-03;  1.0992097E-01;6330; -1.7753562E-01;  0.0000000E+00;  2.8063371E-04;  9.9577979E+02;  1.0214174E-01; -3.4963364E+03;3;  7.9495449E+00;  0.0000000E+00; -1.7686480E+00;0; -2.1707799E-01;  3.7989328E+04;  0.0000000E+00; -1.1576188E-01;  4.0000000E+04;  0.0000000E+00;  4.0033199E+04; -2.2304285E-01;  0.0000000E+00;  5.9648589E-03;  6.3082319E+03;
  6.3712788E-01;  9.9999998E-03;  1.1991282E-01;6331; -1.7743759E-01;  0.0000000E+00;  3.7762171E-04;  9.9569257E+02;  1.0214268E-01; -3.5686304E+03;3;  7.4794011E+00;  0.0000000E+00; -1.9028875E+00;0; -2.1433607E-01;  3.7982422E+04;  0.0000000E+00; -1.4565554E-01;  4.0000000E+04;  0.0000000E+00;  4.0032227E+04; -2.2184308E-01;  0.0000000E+00;  7.5070113E-03;  6.1976748E+03;
  6.3713986E-01;  9.9999998E-03;  1.2990601E-01;6332; -1.7733453E-01;  0.0000000E+00;  4.9994764E-04;  9.9562555E+02;  1.0214432E-01; -3.6241348E+03;3;  6.9814849E+00;  0.0000000E+00; -2.0165892E+00;0; -2.1151686E-01;  3.7976980E+04;  0.0000000E+00; -1.7123421E-01;  4.0000000E+04;  0.0000000E+00;  4.0031336E+04; -2.2061589E-01;  0.0000000E+00;  9.0990439E-03;  6.0917192E+03;
  6.3715631E-01;  9.9999998E-03;  1.3990030E-01;6333; -1.7722303E-01;  0.0000000E+00;  6.5149670E-04;  9.9557446E+02;  1.0214541E-01; -3.6664546E+03;3;  6.4578533E+00;  0.0000000E+00; -2.1239948E+00;0; -2.0865229E-01;  3.7973004E+04;  0.0000000E+00; -1.8973990E-01;  4.0000000E+04;  0.0000000E+00;  4.0030434E+04; -2.1935757E-01;  0.0000000E+00;  1.0705281E-02;  5.9868174E+03;
  6.3717806E-01;  9.9999998E-03;  1.4989531E-01;6334; -1.7709917E-01;  0.0000000E+00;  8.3525339E-04;  9.9553973E+02;  1.0214674E-01; -3.6952437E+03;3;  5.9145994E+00;  0.0000000E+00; -2.2164490E+00;0; -2.0577499E-01;  3.7969891E+04;  0.0000000E+00; -1.9954479E-01;  4.0000000E+04;  0.0000000E+00;  4.0029414E+04; -2.1805744E-01;  0.0000000E+00;  1.2282453E-02;  5.8691934E+03;
  6.3720572E-01;  9.9999998E-03;  1.5989077E-01;6335; -1.7695761E-01;  0.0000000E+00;  1.0497724E-03;  9.9551129E+02;  1.0214814E-01; -3.7187986E+03;3;  5.3533893E+00;  0.0000000E+00; -2.2819812E+00;0; -2.0291853E-01;  3.7967793E+04;  0.0000000E+00; -2.0044813E-01;  4.0000000E+04;  0.0000000E+00;  4.0028180E+04; -2.1670181E-01;  0.0000000E+00;  1.3783270E-02;  5.7212197E+03;
  6.3723904E-01;  9.9999998E-03;  1.6988635E-01;6336; -1.7679258E-01;  0.0000000E+00;  1.2869671E-03;  9.9548730E+02;  1.0214947E-01; -3.7386499E+03;3;  4.7791638E+00;  0.0000000E+00; -2.3265033E+00;0; -2.0010617E-01;  3.7966328E+04;  0.0000000E+00; -1.9284570E-01;  4.0000000E+04;  0.0000000E+00;  4.0026531E+04; -2.1527764E-01;  0.0000000E+00;  1.5171465E-02;  5.5288252E+03;
  6.3727641E-01;  9.9999998E-03;  1.7988141E-01;6337; -1.7659847E-01;  0.0000000E+00;  1.5440936E-03;  9.9545575E+02;  1.0215106E-01; -3.7648218E+03;3;  4.1950369E+00;  0.0000000E+00; -2.3546867E+00;0; -1.9734003E-01;  3.7965129E+04;  0.0000000E+00; -1.7629460E-01;  4.0000000E+04;  0.0000000E+00;  4.0024664E+04; -2.1377796E-01;  0.0000000E+00;  1.6437933E-02;  5.2867266E+03;
  6.3731503E-01;  9.9999998E-03;  1.8987492E-01;6338; -1.7637053E-01;  0.0000000E+00;  1.8105004E-03;  9.9541565E+02;  1.0215215E-01; -3.7980554E+03;3;  3.6057575E+00;  0.0000000E+00; -2.3556373E+00;0; -1.9459443E-01;  3.7963336E+04;  0.0000000E+00; -1.4866315E-01;  4.0000000E+04;  0.0000000E+00;  4.0022453E+04; -2.1220240E-01;  0.0000000E+00;  1.7607968E-02;  5.0062900E+03;
  6.3735199E-01;  9.9999998E-03;  1.9986551E-01;6339; -1.7610672E-01;  0.0000000E+00;  2.0729308E-03;  9.9536395E+02;  1.0215345E-01; -3.8408689E+03;3;  3.0144212E+00;  0.0000000E+00; -2.3265030E+00;0; -1.9182006E-01;  3.7961000E+04;  0.0000000E+00; -1.0665831E-01;  4.0000000E+04;  0.0000000E+00;  4.0020254E+04; -2.1055631E-01;  0.0000000E+00;  1.8736253E-02;  4.7329048E+03;
  6.3738424E-01;  9.9999998E-03;  2.0985255E-01;6340; -1.7580888E-01;  0.0000000E+00;  2.3255153E-03;  9.9531738E+02;  1.0215411E-01; -3.8794355E+03;3;  2.4268684E+00;  0.0000000E+00; -2.2970717E+00;0; -1.8894720E-01;  3.7958188E+04;  0.0000000E+00; -4.7446508E-02;  4.0000000E+04;  0.0000000E+00;  4.0018836E+04; -2.0884712E-01;  0.0000000E+00;  1.9899923E-02;  4.5704497E+03;
  6.3740796E-01;  9.9999998E-03;  2.1983862E-01;6341; -1.7547922E-01;  0.0000000E+00;  2.5845647E-03;  9.9528668E+02;  1.0215443E-01; -3.9048669E+03;3;  1.8398511E+00;  0.0000000E+00; -2.2416067E+00;0; -1.8586005E-01;  3.7955281E+04;  0.0000000E+00;  2.8706467E-02;  4.0000000E+04;  0.0000000E+00;  4.0019555E+04; -2.0708340E-01;  0.0000000E+00;  2.1223348E-02;  4.6643521E+03;
  6.3742137E-01;  9.9999998E-03;  2.2982922E-01;6342; -1.7512429E-01;  0.0000000E+00;  2.8865957E-03;  9.9528906E+02;  1.0215427E-01; -3.9028916E+03;3;  1.2611362E+00;  0.0000000E+00; -2.1618798E+00;0; -1.8229847E-01;  3.7952461E+04;  0.0000000E+00;  1.1735859E-01;  4.0000000E+04;  0.0000000E+00;  4.0022973E+04; -2.0527257E-01;  0.0000000E+00;  2.2974104E-02;  5.0893833E+03;
  6.4700109E-01;  9.9999998E-03;  6.9954820E-02;6387; -1.8002889E-01;  0.0000000E+00; -2.1153838E-04;  9.9637488E+02;  1.0315575E-01; -3.0033135E+03;3;  9.8639326E+00;  0.0000000E+00; -9.6410620E-01;0; -2.3234347E-01;  3.7289180E+04;  0.0000000E+00; -9.1965713E-02;  4.0000000E+04;  0.0000000E+00;  4.0032246E+04; -2.2944787E-01;  0.0000000E+00; -2.8955962E-03;  6.9747637E+03;
  6.4701509E-01;  9.9999998E-03;  7.9944246E-02;6388; -1.7993498E-01;  0.0000000E+00; -2.2316331E-04;  9.9627283E+02;  1.0315677E-01; -3.0879033E+03;3;  9.5153017E+00;  0.0000000E+00; -1.0973194E+00;0; -2.2997490E-01;  3.7280441E+04;  0.0000000E+00; -1.2688480E-01;  4.0000000E+04;  0.0000000E+00;  4.0031988E+04; -2.2820973E-01;  0.0000000E+00; -1.7651592E-03;  6.9566870E+03;
  6.4702934E-01;  9.9999998E-03;  8.9933537E-02;6389; -1.7983714E-01;  0.0000000E+00; -2.2413822E-04;  9.9617688E+02;  1.0315824E-01; -3.1673577E+03;3;  9.1256533E+00;  0.0000000E+00; -1.2316072E+00;0; -2.2740328E-01;  3.7272621E+04;  0.0000000E+00; -1.6579115E-01;  4.0000000E+04;  0.0000000E+00;  4.0031574E+04; -2.2690609E-01;  0.0000000E+00; -4.9719459E-04;  6.9070435E+03;
  6.4704370E-01;  9.9999998E-03;  9.9923231E-02;6390; -1.7973603E-01;  0.0000000E+00; -2.1093411E-04;  9.9609985E+02;  1.0315981E-01; -3.2312075E+03;3;  8.6987057E+00;  0.0000000E+00; -1.3689357E+00;0; -2.2466257E-01;  3.7265766E+04;  0.0000000E+00; -2.0590690E-01;  4.0000000E+04;  0.0000000E+00;  4.0030941E+04; -2.2556157E-01;  0.0000000E+00;  8.9899462E-04;  6.8337944E+03;
  6.4705873E-01;  9.9999998E-03;  1.0991366E-01;6391; -1.7963195E-01;  0.0000000E+00; -1.7838538E-04;  9.9603809E+02;  1.0316182E-01; -3.2823665E+03;3;  8.2357101E+00;  0.0000000E+00; -1.4972948E+00;0; -2.2178714E-01;  3.7260336E+04;  0.0000000E+00; -2.4357890E-01;  4.0000000E+04;  0.0000000E+00;  4.0029973E+04; -2.2419772E-01;  0.0000000E+00;  2.4105737E-03;  6.7472705E+03;
  6.4707541E-01;  9.9999998E-03;  1.1990504E-01;6392; -1.7952339E-01;  0.0000000E+00; -1.2435002E-04;  9.9599835E+02;  1.0316372E-01; -3.3153037E+03;3;  7.7403994E+00;  0.0000000E+00; -1.6172143E+00;0; -2.1881056E-01;  3.7256184E+04;  0.0000000E+00; -2.7479571E-01;  4.0000000E+04;  0.0000000E+00;  4.0029375E+04; -2.2283131E-01;  0.0000000E+00;  4.0207505E-03;  6.6555200E+03;
  6.4709491E-01;  9.9999998E-03;  1.2989725E-01;6393; -1.7940837E-01;  0.0000000E+00; -4.4706278E-05;  9.9597357E+02;  1.0316589E-01; -3.3357969E+03;3;  7.2177401E+00;  0.0000000E+00; -1.7313846E+00;0; -2.1576484E-01;  3.7253598E+04;  0.0000000E+00; -2.9600421E-01;  4.0000000E+04;  0.0000000E+00;  4.0028410E+04; -2.2147293E-01;  0.0000000E+00;  5.7081003E-03;  6.5596738E+03;
  6.4711827E-01;  9.9999998E-03;  1.3989003E-01;6394; -1.7928402E-01;  0.0000000E+00;  6.8517540E-05;  9.9596613E+02;  1.0316832E-01; -3.3419695E+03;3;  6.6669002E+00;  0.0000000E+00; -1.8256532E+00;0; -2.1268268E-01;  3.7252086E+04;  0.0000000E+00; -3.0488169E-01;  4.0000000E+04;  0.0000000E+00;  4.0027527E+04; -2.2012760E-01;  0.0000000E+00;  7.4449140E-03;  6.4503003E+03;
  6.4714599E-01;  9.9999998E-03;  1.4988312E-01;6395; -1.7914513E-01;  0.0000000E+00;  2.1326775E-04;  9.9596716E+02;  1.0317081E-01; -3.3411299E+03;3;  6.0927258E+00;  0.0000000E+00; -1.8988366E+00;0; -2.0959575E-01;  3.7251566E+04;  0.0000000E+00; -3.0092791E-01;  4.0000000E+04;  0.0000000E+00;  4.0026391E+04; -2.1879102E-01;  0.0000000E+00;  9.1952672E-03;  6.3080698E+03;
  6.4717770E-01;  9.9999998E-03;  1.5987611E-01;6396; -1.7898573E-01;  0.0000000E+00;  3.8956237E-04;  9.9596973E+02;  1.0317308E-01; -3.3390066E+03;3;  5.5008793E+00;  0.0000000E+00; -1.9581438E+00;0; -2.0654052E-01;  3.7251523E+04;  0.0000000E+00; -2.8560939E-01;  4.0000000E+04;  0.0000000E+00;  4.0024777E+04; -2.1745476E-01;  0.0000000E+00;  1.0914241E-02;  6.1127544E+03;
  6.4721203E-01;  9.9999998E-03;  1.6986896E-01;6397; -1.7879966E-01;  0.0000000E+00;  5.9924758E-04;  9.9596796E+02;  1.0317568E-01; -3.3404387E+03;3;  4.8943548E+00;  0.0000000E+00; -1.9875267E+00;0; -2.0354693E-01;  3.7251699E+04;  0.0000000E+00; -2.6095438E-01;  4.0000000E+04;  0.0000000E+00;  4.0022688E+04; -2.1610831E-01;  0.0000000E+00;  1.2561384E-02;  5.8540371E+03;
  6.4724714E-01;  9.9999998E-03;  1.7986138E-01;6398; -1.7858066E-01;  0.0000000E+00;  8.3147769E-04;  9.9595612E+02;  1.0317802E-01; -3.3502656E+03;3;  4.2778244E+00;  0.0000000E+00; -1.9957814E+00;0; -2.0062670E-01;  3.7251629E+04;  0.0000000E+00; -2.2737889E-01;  4.0000000E+04;  0.0000000E+00;  4.0020121E+04; -2.1474472E-01;  0.0000000E+00;  1.4118011E-02;  5.5387148E+03;
  6.4728057E-01;  9.9999998E-03;  1.8985297E-01;6399; -1.7832398E-01;  0.0000000E+00;  1.0850633E-03;  9.9592725E+02;  1.0318033E-01; -3.3741660E+03;3;  3.6551607E+00;  0.0000000E+00; -1.9782182E+00;0; -1.9776037E-01;  3.7250629E+04;  0.0000000E+00; -1.8295971E-01;  4.0000000E+04;  0.0000000E+00;  4.0017395E+04; -2.1335968E-01;  0.0000000E+00;  1.5599317E-02;  5.1976548E+03;
  6.4731020E-01;  9.9999998E-03;  1.9984317E-01;6400; -1.7802738E-01;  0.0000000E+00;  1.3536075E-03;  9.9588544E+02;  1.0318195E-01; -3.4088315E+03;3;  3.0321105E+00;  0.0000000E+00; -1.9421632E+00;0; -1.9489259E-01;  3.7249000E+04;  0.0000000E+00; -1.2457784E-01;  4.0000000E+04;  0.0000000E+00;  4.0015074E+04; -2.1195066E-01;  0.0000000E+00;  1.7058074E-02;  4.8974824E+03;
  6.4733344E-01;  9.9999998E-03;  2.0983337E-01;6401; -1.7769204E-01;  0.0000000E+00;  1.6315877E-03;  9.9584430E+02;  1.0318346E-01; -3.4429045E+03;3;  2.4095280E+00;  0.0000000E+00; -1.8844063E+00;0; -1.9193184E-01;  3.7246355E+04;  0.0000000E+00; -5.1127270E-02;  4.0000000E+04;  0.0000000E+00;  4.0013785E+04; -2.1051474E-01;  0.0000000E+00;  1.8582901E-02;  4.7391826E+03;
  6.4734715E-01;  9.9999998E-03;  2.1982586E-01;6402; -1.7731975E-01;  0.0000000E+00;  1.9347288E-03;  9.9581799E+02;  1.0318432E-01; -3.4646816E+03;3;  1.7908806E+00;  0.0000000E+00; -1.8069687E+00;0; -1.8871383E-01;  3.7243566E+04;  0.0000000E+00;  3.3996213E-02;  4.0000000E+04;  0.0000000E+00;  4.0014531E+04; -2.0904821E-01;  0.0000000E+00;  2.0334372E-02;  4.8357017E+03;
  6.4735031E-01;  9.9999998E-03;  2.2982562E-01;6403; -1.7691571E-01;  0.0000000E+00;  2.2910093E-03;  9.9580902E+02;  1.0318419E-01; -3.4721382E+03;3;  1.1817682E+00;  0.0000000E+00; -1.7078751E+00;0; -1.8491925E-01;  3.7240641E+04;  0.0000000E+00;  1.1883030E-01;  4.0000000E+04;  0.0000000E+00;  4.0017211E+04; -2.0754696E-01;  0.0000000E+00;  2.2627717E-02;  5.1842256E+03;
  6.5691602E-01;  9.9999998E-03;  6.9943868E-02;6448; -1.8223259E-01;  0.0000000E+00; -5.3805910E-04;  9.9631555E+02;  1.0447749E-01; -3.0524956E+03;3;  1.0228681E+01;  0.0000000E+00; -8.3948565E-01;0; -2.3804617E-01;  3.6344418E+04;  0.0000000E+00; -1.5905412E-01;  4.0000000E+04;  0.0000000E+00;  4.0025586E+04; -2.3116150E-01;  0.0000000E+00; -6.8846699E-03;  7.2429253E+03;
  6.5693718E-01;  9.9999998E-03;  7.9933055E-02;6449; -1.8212637E-01;  0.0000000E+00; -5.9138285E-04;  9.9626813E+02;  1.0447980E-01; -3.0917537E+03;3;  9.8625526E+00;  0.0000000E+00; -9.4329023E-01;0; -2.3546125E-01;  3.6339027E+04;  0.0000000E+00; -2.0759371E-01;  4.0000000E+04;  0.0000000E+00;  4.0025621E+04; -2.2972757E-01;  0.0000000E+00; -5.7336879E-03;  7.2459751E+03;
  6.5695935E-01;  9.9999998E-03;  8.9922383E-02;6450; -1.8201499E-01;  0.0000000E+00; -6.3465844E-04;  9.9623761E+02;  1.0448258E-01; -3.1170369E+03;3;  9.4543982E+00;  0.0000000E+00; -1.0436033E+00;0; -2.3267569E-01;  3.6334855E+04;  0.0000000E+00; -2.5789359E-01;  4.0000000E+04;  0.0000000E+00;  4.0025273E+04; -2.2823301E-01;  0.0000000E+00; -4.4426820E-03;  7.2241890E+03;
  6.5698200E-01;  9.9999998E-03;  9.9912323E-02;6451; -1.8189973E-01;  0.0000000E+00; -6.6430023E-04;  9.9622809E+02;  1.0448533E-01; -3.1249377E+03;3;  9.0053034E+00;  0.0000000E+00; -1.1392958E+00;0; -2.2973077E-01;  3.6332199E+04;  0.0000000E+00; -3.0592209E-01;  4.0000000E+04;  0.0000000E+00;  4.0024883E+04; -2.2671267E-01;  0.0000000E+00; -3.0181014E-03;  7.1850332E+03;
  6.5700543E-01;  9.9999998E-03;  1.0990320E-01;6452; -1.8178046E-01;  0.0000000E+00; -6.7768374E-04;  9.9623712E+02;  1.0448868E-01; -3.1174812E+03;3;  8.5190639E+00;  0.0000000E+00; -1.2345982E+00;0; -2.2666582E-01;  3.6330855E+04;  0.0000000E+00; -3.4700683E-01;  4.0000000E+04;  0.0000000E+00;  4.0024426E+04; -2.2519787E-01;  0.0000000E+00; -1.4679581E-03;  7.1369214E+03;
  6.5702969E-01;  9.9999998E-03;  1.1989488E-01;6453; -1.8165624E-01;  0.0000000E+00; -6.6975702E-04;  9.9626538E+02;  1.0449199E-01; -3.0940747E+03;3;  7.9977450E+00;  0.0000000E+00; -1.3283932E+00;0; -2.2351773E-01;  3.6330852E+04;  0.0000000E+00; -3.7657675E-01;  4.0000000E+04;  0.0000000E+00;  4.0024051E+04; -2.2371580E-01;  0.0000000E+00;  1.9807099E-04;  7.0844834E+03;
  6.5705544E-01;  9.9999998E-03;  1.2988698E-01;6454; -1.8152370E-01;  0.0000000E+00; -6.3896057E-04;  9.9631030E+02;  1.0449578E-01; -3.0568413E+03;3;  7.4462080E+00;  0.0000000E+00; -1.4163703E+00;0; -2.2031949E-01;  3.6332160E+04;  0.0000000E+00; -3.9112216E-01;  4.0000000E+04;  0.0000000E+00;  4.0023570E+04; -2.2228688E-01;  0.0000000E+00;  1.9673905E-03;  7.0236602E+03;
  6.5708315E-01;  9.9999998E-03;  1.3987903E-01;6455; -1.8137990E-01;  0.0000000E+00; -5.7924044E-04;  9.9636688E+02;  1.0449931E-01; -3.0099785E+03;3;  6.8659573E+00;  0.0000000E+00; -1.4922831E+00;0; -2.1710207E-01;  3.6334066E+04;  0.0000000E+00; -3.8903055E-01;  4.0000000E+04;  0.0000000E+00;  4.0022883E+04; -2.2092427E-01;  0.0000000E+00;  3.8222023E-03;  6.9388159E+03;
  6.5711278E-01;  9.9999998E-03;  1.4987066E-01;6456; -1.8122011E-01;  0.0000000E+00; -4.8645094E-04;  9.9642566E+02;  1.0450318E-01; -2.9612393E+03;3;  6.2625847E+00;  0.0000000E+00; -1.5549064E+00;0; -2.1389692E-01;  3.6336516E+04;  0.0000000E+00; -3.7111214E-01;  4.0000000E+04;  0.0000000E+00;  4.0021855E+04; -2.1963277E-01;  0.0000000E+00;  5.7358528E-03;  6.8043735E+03;
  6.5714407E-01;  9.9999998E-03;  1.5986176E-01;6457; -1.8103856E-01;  0.0000000E+00; -3.5730997E-04;  9.9647339E+02;  1.0450774E-01; -2.9217344E+03;3;  5.6387157E+00;  0.0000000E+00; -1.5908636E+00;0; -2.1074177E-01;  3.6339027E+04;  0.0000000E+00; -3.4039980E-01;  4.0000000E+04;  0.0000000E+00;  4.0020086E+04; -2.1840872E-01;  0.0000000E+00;  7.6669417E-03;  6.5971411E+03;
  6.5717566E-01;  9.9999998E-03;  1.6985272E-01;6458; -1.8082835E-01;  0.0000000E+00; -1.9777023E-04;  9.9650781E+02;  1.0451177E-01; -2.8931921E+03;3;  5.0039792E+00;  0.0000000E+00; -1.6213827E+00;0; -2.0767519E-01;  3.6341203E+04;  0.0000000E+00; -3.0004215E-01;  4.0000000E+04;  0.0000000E+00;  4.0017961E+04; -2.1724568E-01;  0.0000000E+00;  9.5705017E-03;  6.3100249E+03;
  6.5720618E-01;  9.9999998E-03;  1.7984369E-01;6459; -1.8058319E-01;  0.0000000E+00; -2.0668219E-06;  9.9652173E+02;  1.0451554E-01; -2.8816863E+03;3;  4.3539042E+00;  0.0000000E+00; -1.6257343E+00;0; -2.0471737E-01;  3.6342531E+04;  0.0000000E+00; -2.5087920E-01;  4.0000000E+04;  0.0000000E+00;  4.0015160E+04; -2.1613497E-01;  0.0000000E+00;  1.1417595E-02;  5.9608325E+03;
  6.5723377E-01;  9.9999998E-03;  1.8983501E-01;6460; -1.8029903E-01;  0.0000000E+00;  2.2611707E-04;  9.9651617E+02;  1.0451923E-01; -2.8862788E+03;3;  3.6997080E+00;  0.0000000E+00; -1.6026244E+00;0; -2.0185675E-01;  3.6342852E+04;  0.0000000E+00; -1.9138819E-01;  4.0000000E+04;  0.0000000E+00;  4.0012293E+04; -2.1506737E-01;  0.0000000E+00;  1.3210626E-02;  5.5972568E+03;
  6.5725577E-01;  9.9999998E-03;  1.9982789E-01;6461; -1.7997223E-01;  0.0000000E+00;  4.8955227E-04;  9.9649310E+02;  1.0452238E-01; -2.9053892E+03;3;  3.0417318E+00;  0.0000000E+00; -1.5471659E+00;0; -1.9903442E-01;  3.6341652E+04;  0.0000000E+00; -1.2058461E-01;  4.0000000E+04;  0.0000000E+00;  4.0009836E+04; -2.1403034E-01;  0.0000000E+00;  1.4995913E-02;  5.2943379E+03;
  6.5726972E-01;  9.9999998E-03;  2.0982426E-01;6462; -1.7960201E-01;  0.0000000E+00;  7.8763260E-04;  9.9646100E+02;  1.0452454E-01; -2.9320056E+03;3;  2.3823278E+00;  0.0000000E+00; -1.4651335E+00;0; -1.9613537E-01;  3.6339617E+04;  0.0000000E+00; -4.1676924E-02;  4.0000000E+04;  0.0000000E+00;  4.0008520E+04; -2.1300846E-01;  0.0000000E+00;  1.6873097E-02;  5.1369639E+03;
  6.5727425E-01;  9.9999998E-03;  2.1982646E-01;6463; -1.7918970E-01;  0.0000000E+00;  1.1364287E-03;  9.9643219E+02;  1.0452637E-01; -2.9558567E+03;3;  1.7317828E+00;  0.0000000E+00; -1.3685834E+00;0; -1.9294150E-01;  3.6336703E+04;  0.0000000E+00;  3.2792173E-02;  4.0000000E+04;  0.0000000E+00;  4.0008848E+04; -2.1198454E-01;  0.0000000E+00;  1.9043041E-02;  5.1754702E+03;
  6.5726894E-01;  9.9999998E-03;  2.2983804E-01;6464; -1.7873560E-01;  0.0000000E+00;  1.5396000E-03;  9.9640289E+02;  1.0452678E-01; -2.9801028E+03;3;  1.0897634E+00;  0.0000000E+00; -1.2461666E+00;0; -1.8910889E-01;  3.6333938E+04;  0.0000000E+00;  7.5707577E-02;  4.0000000E+04;  0.0000000E+00;  4.0009797E+04; -2.1094219E-01;  0.0000000E+00;  2.1833306E-02;  5.3085200E+03;
  6.6685832E-01;  9.9999998E-03;  6.9932409E-02;6509; -1.8455245E-01;  0.0000000E+00; -9.0238394E-04;  9.9582190E+02;  1.0609541E-01; -3.4614685E+03;3;  1.0590926E+01;  0.0000000E+00; -6.8057752E-01;0; -2.4329598E-01;  3.5204402E+04;  0.0000000E+00; -2.0094277E-01;  4.0000000E+04;  0.0000000E+00;  4.0015984E+04; -2.3212393E-01;  0.0000000E+00; -1.1172051E-02;  7.4061836E+03;
  6.6688716E-01;  9.9999998E-03;  7.9921439E-02;6510; -1.8442695E-01;  0.0000000E+00; -1.0019074E-03;  9.9585266E+02;  1.0609907E-01; -3.4359878E+03;3;  1.0207268E+01;  0.0000000E+00; -7.6567113E-01;0; -2.4052593E-01;  3.5203781E+04;  0.0000000E+00; -2.5706089E-01;  4.0000000E+04;  0.0000000E+00;  4.0016102E+04; -2.3052973E-01;  0.0000000E+00; -9.9962046E-03;  7.4309741E+03;
  6.6691750E-01;  9.9999998E-03;  8.9911081E-02;6511; -1.8429531E-01;  0.0000000E+00; -1.0891617E-03;  9.9590912E+02;  1.0610341E-01; -3.3892239E+03;3;  9.7787933E+00;  0.0000000E+00; -8.4574455E-01;0; -2.3756665E-01;  3.5204520E+04;  0.0000000E+00; -3.1272000E-01;  4.0000000E+04;  0.0000000E+00;  4.0016188E+04; -2.2888520E-01;  0.0000000E+00; -8.6814463E-03;  7.4403208E+03;
  6.6694838E-01;  9.9999998E-03;  9.9901631E-02;6512; -1.8415867E-01;  0.0000000E+00; -1.1626544E-03;  9.9598926E+02;  1.0610805E-01; -3.3228064E+03;3;  9.3076792E+00;  0.0000000E+00; -9.1934872E-01;0; -2.3446797E-01;  3.5206789E+04;  0.0000000E+00; -3.6283112E-01;  4.0000000E+04;  0.0000000E+00;  4.0016211E+04; -2.2723605E-01;  0.0000000E+00; -7.2319144E-03;  7.4420068E+03;
  6.6697937E-01;  9.9999998E-03;  1.0989312E-01;6513; -1.8401736E-01;  0.0000000E+00; -1.2198356E-03;  9.9609204E+02;  1.0611327E-01; -3.2376733E+03;3;  8.7976055E+00;  0.0000000E+00; -9.9162191E-01;0; -2.3127514E-01;  3.5210617E+04;  0.0000000E+00; -4.0196410E-01;  4.0000000E+04;  0.0000000E+00;  4.0016156E+04; -2.2562453E-01;  0.0000000E+00; -5.6506102E-03;  7.4432188E+03;
  6.6701049E-01;  9.9999998E-03;  1.1988554E-01;6514; -1.8387015E-01;  0.0000000E+00; -1.2592024E-03;  9.9621539E+02;  1.0611916E-01; -3.1354543E+03;3;  8.2492599E+00;  0.0000000E+00; -1.0509692E+00;0; -2.2802831E-01;  3.5215582E+04;  0.0000000E+00; -4.2533651E-01;  4.0000000E+04;  0.0000000E+00;  4.0016211E+04; -2.2408858E-01;  0.0000000E+00; -3.9397301E-03;  7.4455938E+03;
  6.6704154E-01;  9.9999998E-03;  1.2987845E-01;6515; -1.8371478E-01;  0.0000000E+00; -1.2771233E-03;  9.9635126E+02;  1.0612490E-01; -3.0229148E+03;3;  7.6706190E+00;  0.0000000E+00; -1.1114908E+00;0; -2.2476111E-01;  3.5221215E+04;  0.0000000E+00; -4.2989898E-01;  4.0000000E+04;  0.0000000E+00;  4.0016156E+04; -2.2265916E-01;  0.0000000E+00; -2.1019618E-03;  7.4404536E+03;
  6.6707242E-01;  9.9999998E-03;  1.3987094E-01;6516; -1.8354671E-01;  0.0000000E+00; -1.2729480E-03;  9.9648969E+02;  1.0613119E-01; -2.9082024E+03;3;  7.0604930E+00;  0.0000000E+00; -1.1600062E+00;0; -2.2150339E-01;  3.5227160E+04;  0.0000000E+00; -4.1514304E-01;  4.0000000E+04;  0.0000000E+00;  4.0016008E+04; -2.2135952E-01;  0.0000000E+00; -1.4387324E-04;  7.4065522E+03;
  6.6710287E-01;  9.9999998E-03;  1.4986232E-01;6517; -1.8336193E-01;  0.0000000E+00; -1.2404545E-03;  9.9661951E+02;  1.0613792E-01; -2.8006504E+03;3;  6.4247074E+00;  0.0000000E+00; -1.1983101E+00;0; -2.1828374E-01;  3.5233043E+04;  0.0000000E+00; -3.8335404E-01;  4.0000000E+04;  0.0000000E+00;  4.0015352E+04; -2.2020209E-01;  0.0000000E+00;  1.9183513E-03;  7.3125732E+03;
  6.6713232E-01;  9.9999998E-03;  1.5985252E-01;6518; -1.8315463E-01;  0.0000000E+00; -1.1767208E-03;  9.9672839E+02;  1.0614445E-01; -2.7104309E+03;3;  5.7685251E+00;  0.0000000E+00; -1.2235582E+00;0; -2.1514288E-01;  3.5238391E+04;  0.0000000E+00; -3.3875439E-01;  4.0000000E+04;  0.0000000E+00;  4.0013949E+04; -2.1919115E-01;  0.0000000E+00;  4.0482706E-03;  7.1320029E+03;
  6.6715974E-01;  9.9999998E-03;  1.6984221E-01;6519; -1.8291913E-01;  0.0000000E+00; -1.0760429E-03;  9.9681354E+02;  1.0615030E-01; -2.6399148E+03;3;  5.0999207E+00;  0.0000000E+00; -1.2343642E+00;0; -2.1212545E-01;  3.5242805E+04;  0.0000000E+00; -2.8485379E-01;  4.0000000E+04;  0.0000000E+00;  4.0011824E+04; -2.1832266E-01;  0.0000000E+00;  6.1972174E-03;  6.8601411E+03;
  6.6718400E-01;  9.9999998E-03;  1.7983229E-01;6520; -1.8264942E-01;  0.0000000E+00; -9.3710364E-04;  9.9687036E+02;  1.0615633E-01; -2.5928545E+03;3;  4.4186888E+00;  0.0000000E+00; -1.2244381E+00;0; -2.0926279E-01;  3.5245844E+04;  0.0000000E+00; -2.2267489E-01;  4.0000000E+04;  0.0000000E+00;  4.0009211E+04; -2.1758752E-01;  0.0000000E+00;  8.3247283E-03;  6.5245439E+03;
  6.6720349E-01;  9.9999998E-03;  1.8982480E-01;6521; -1.8234009E-01;  0.0000000E+00; -7.5633358E-04;  9.9689630E+02;  1.0616195E-01; -2.5713245E+03;3;  3.7303216E+00;  0.0000000E+00; -1.1859909E+00;0; -2.0655169E-01;  3.5247293E+04;  0.0000000E+00; -1.5232401E-01;  4.0000000E+04;  0.0000000E+00;  4.0006539E+04; -2.1696855E-01;  0.0000000E+00;  1.0416867E-02;  6.1848247E+03;
  6.6721654E-01;  9.9999998E-03;  1.9982237E-01;6522; -1.8198846E-01;  0.0000000E+00; -5.2425807E-04;  9.9689874E+02;  1.0616702E-01; -2.5692998E+03;3;  3.0354083E+00;  0.0000000E+00; -1.1278689E+00;0; -2.0393786E-01;  3.5247137E+04;  0.0000000E+00; -7.6761037E-02;  4.0000000E+04;  0.0000000E+00;  4.0004418E+04; -2.1644223E-01;  0.0000000E+00;  1.2504375E-02;  5.9149595E+03;
  6.6722196E-01;  9.9999998E-03;  2.0982718E-01;6523; -1.8159057E-01;  0.0000000E+00; -2.2588708E-04;  9.9688257E+02;  1.0617077E-01; -2.5827314E+03;3;  2.3429925E+00;  0.0000000E+00; -1.0290178E+00;0; -2.0128724E-01;  3.5245410E+04;  0.0000000E+00; -7.2572348E-03;  4.0000000E+04;  0.0000000E+00;  4.0003148E+04; -2.1597925E-01;  0.0000000E+00;  1.4692008E-02;  5.7673965E+03;
  6.6721958E-01;  9.9999998E-03;  2.1984123E-01;6524; -1.8114315E-01;  0.0000000E+00;  1.4303203E-04;  9.9685431E+02;  1.0617387E-01; -2.6061382E+03;3;  1.6561432E+00;  0.0000000E+00; -9.1258216E-01;0; -1.9835682E-01;  3.5242758E+04;  0.0000000E+00;  2.9536605E-02;  4.0000000E+04;  0.0000000E+00;  4.0002562E+04; -2.1554796E-01;  0.0000000E+00;  1.7191142E-02;  5.7096938E+03;
  6.6720873E-01;  9.9999998E-03;  2.2986449E-01;6525; -1.8064258E-01;  0.0000000E+00;  5.6997041E-04;  9.9680151E+02;  1.0617617E-01; -2.6498896E+03;3;  9.8251146E-01;  0.0000000E+00; -7.7915388E-01;0; -1.9479100E-01;  3.5239934E+04;  0.0000000E+00; -1.7345335E-02;  4.0000000E+04;  0.0000000E+00;  4.0001637E+04; -2.1511626E-01;  0.0000000E+00;  2.0325260E-02;  5.5823491E+03;
  6.7684883E-01;  9.9999998E-03;  6.9921933E-02;6570; -1.8702421E-01;  0.0000000E+00; -1.2953182E-03;  9.9464343E+02;  1.0798099E-01; -4.4377798E+03;3;  1.0952168E+01;  0.0000000E+00; -4.9382949E-01;0; -2.4751690E-01;  3.3901098E+04;  0.0000000E+00; -2.0733514E-01;  4.0000000E+04;  0.0000000E+00;  4.0003379E+04; -2.3177084E-01;  0.0000000E+00; -1.5746057E-02;  7.4488804E+03;
  6.7688638E-01;  9.9999998E-03;  7.9911463E-02;6571; -1.8687183E-01;  0.0000000E+00; -1.4450270E-03;  9.9477020E+02;  1.0798736E-01; -4.3327461E+03;3;  1.0549706E+01;  0.0000000E+00; -5.5372047E-01;0; -2.4459684E-01;  3.3905359E+04;  0.0000000E+00; -2.6248893E-01;  4.0000000E+04;  0.0000000E+00;  4.0003805E+04; -2.3006082E-01;  0.0000000E+00; -1.4536019E-02;  7.4939629E+03;
  6.7692536E-01;  9.9999998E-03;  8.9902058E-02;6572; -1.8671191E-01;  0.0000000E+00; -1.5811421E-03;  9.9492810E+02;  1.0799401E-01; -4.2019355E+03;3;  1.0100103E+01;  0.0000000E+00; -6.1004072E-01;0; -2.4150857E-01;  3.3911242E+04;  0.0000000E+00; -3.1503353E-01;  4.0000000E+04;  0.0000000E+00;  4.0004004E+04; -2.2831722E-01;  0.0000000E+00; -1.3191359E-02;  7.5340938E+03;
  6.7696470E-01;  9.9999998E-03;  9.9893875E-02;6573; -1.8654628E-01;  0.0000000E+00; -1.7023359E-03;  9.9511456E+02;  1.0800125E-01; -4.0474714E+03;3;  9.6056051E+00;  0.0000000E+00; -6.6246158E-01;0; -2.3831022E-01;  3.3918820E+04;  0.0000000E+00; -3.5925570E-01;  4.0000000E+04;  0.0000000E+00;  4.0004418E+04; -2.2659552E-01;  0.0000000E+00; -1.1714692E-02;  7.5780688E+03;
  6.7700315E-01;  9.9999998E-03;  1.0988683E-01;6574; -1.8637535E-01;  0.0000000E+00; -1.8073635E-03;  9.9533038E+02;  1.0800922E-01; -3.8686626E+03;3;  9.0692167E+00;  0.0000000E+00; -7.0905882E-01;0; -2.3505467E-01;  3.3927914E+04;  0.0000000E+00; -3.8948554E-01;  4.0000000E+04;  0.0000000E+00;  4.0004969E+04; -2.2495036E-01;  0.0000000E+00; -1.0104313E-02;  7.6327998E+03;
  6.7704028E-01;  9.9999998E-03;  1.1988097E-01;6575; -1.8619864E-01;  0.0000000E+00; -1.8949471E-03;  9.9556104E+02;  1.0801826E-01; -3.6775579E+03;3;  8.4952688E+00;  0.0000000E+00; -7.5250351E-01;0; -2.3178466E-01;  3.3937887E+04;  0.0000000E+00; -4.0125570E-01;  4.0000000E+04;  0.0000000E+00;  4.0005605E+04; -2.2342983E-01;  0.0000000E+00; -8.3548250E-03;  7.6980210E+03;
  6.7707551E-01;  9.9999998E-03;  1.2987572E-01;6576; -1.8601382E-01;  0.0000000E+00; -1.9640299E-03;  9.9579663E+02;  1.0802711E-01; -3.4824038E+03;3;  7.8846712E+00;  0.0000000E+00; -7.8495324E-01;0; -2.2853483E-01;  3.3948102E+04;  0.0000000E+00; -3.9238256E-01;  4.0000000E+04;  0.0000000E+00;  4.0006266E+04; -2.2207615E-01;  0.0000000E+00; -6.4586811E-03;  7.7619458E+03;
  6.7710841E-01;  9.9999998E-03;  1.3986990E-01;6577; -1.8581778E-01;  0.0000000E+00; -2.0120526E-03;  9.9603180E+02;  1.0803656E-01; -3.2875459E+03;3;  7.2455316E+00;  0.0000000E+00; -8.1351852E-01;0; -2.2533368E-01;  3.3958062E+04;  0.0000000E+00; -3.6355549E-01;  4.0000000E+04;  0.0000000E+00;  4.0006582E+04; -2.2092277E-01;  0.0000000E+00; -4.4109025E-03;  7.7992217E+03;
  6.7713851E-01;  9.9999998E-03;  1.4986244E-01;6578; -1.8560548E-01;  0.0000000E+00; -2.0395461E-03;  9.9624200E+02;  1.0804617E-01; -3.1134282E+03;3;  6.5784454E+00;  0.0000000E+00; -8.3123314E-01;0; -2.2220832E-01;  3.3967340E+04;  0.0000000E+00; -3.1826684E-01;  4.0000000E+04;  0.0000000E+00;  4.0006609E+04; -2.1999206E-01;  0.0000000E+00; -2.2162583E-03;  7.7740239E+03;
  6.7716569E-01;  9.9999998E-03;  1.5985313E-01;6579; -1.8537277E-01;  0.0000000E+00; -2.0410693E-03;  9.9642389E+02;  1.0805565E-01; -2.9627173E+03;3;  5.8875575E+00;  0.0000000E+00; -8.3193642E-01;0; -2.1920082E-01;  3.3975309E+04;  0.0000000E+00; -2.6137644E-01;  4.0000000E+04;  0.0000000E+00;  4.0005867E+04; -2.1929520E-01;  0.0000000E+00;  9.4389063E-05;  7.6569526E+03;
  6.7718959E-01;  9.9999998E-03;  1.6984285E-01;6580; -1.8511400E-01;  0.0000000E+00; -2.0132635E-03;  9.9656549E+02;  1.0806517E-01; -2.8454370E+03;3;  5.1855960E+00;  0.0000000E+00; -8.3243841E-01;0; -2.1636257E-01;  3.3981613E+04;  0.0000000E+00; -1.9637631E-01;  4.0000000E+04;  0.0000000E+00;  4.0004172E+04; -2.1883197E-01;  0.0000000E+00;  2.4694102E-03;  7.4444956E+03;
  6.7720926E-01;  9.9999998E-03;  1.7983378E-01;6581; -1.8482362E-01;  0.0000000E+00; -1.9501705E-03;  9.9666418E+02;  1.0807344E-01; -2.7636621E+03;3;  4.4667225E+00;  0.0000000E+00; -8.0714661E-01;0; -2.1373294E-01;  3.3985840E+04;  0.0000000E+00; -1.2511972E-01;  4.0000000E+04;  0.0000000E+00;  4.0002031E+04; -2.1858956E-01;  0.0000000E+00;  4.8566130E-03;  7.1698745E+03;
  6.7722332E-01;  9.9999998E-03;  1.8982926E-01;6582; -1.8449710E-01;  0.0000000E+00; -1.8364307E-03;  9.9673059E+02;  1.0808218E-01; -2.7086514E+03;3;  3.7398341E+00;  0.0000000E+00; -7.5104827E-01;0; -2.1131963E-01;  3.3988172E+04;  0.0000000E+00; -5.0619856E-02;  4.0000000E+04;  0.0000000E+00;  3.9999957E+04; -2.1854331E-01;  0.0000000E+00;  7.2236857E-03;  6.8971196E+03;
  6.7723119E-01;  9.9999998E-03;  1.9983214E-01;6583; -1.8412949E-01;  0.0000000E+00; -1.6608048E-03;  9.9676379E+02;  1.0808983E-01; -2.6811462E+03;3;  3.0137501E+00;  0.0000000E+00; -6.7896950E-01;0; -2.0907770E-01;  3.3988402E+04;  0.0000000E+00;  1.8216986E-02;  4.0000000E+04;  0.0000000E+00;  3.9998207E+04; -2.1865538E-01;  0.0000000E+00;  9.5776739E-03;  6.6938433E+03;
  6.7723256E-01;  9.9999998E-03;  2.0984489E-01;6584; -1.8371329E-01;  0.0000000E+00; -1.4147907E-03;  9.9676929E+02;  1.0809674E-01; -2.6765537E+03;3;  2.2858858E+00;  0.0000000E+00; -5.7578433E-01;0; -2.0689173E-01;  3.3986883E+04;  0.0000000E+00;  5.9644561E-02;  4.0000000E+04;  0.0000000E+00;  3.9997180E+04; -2.1888046E-01;  0.0000000E+00;  1.1988728E-02;  6.5786016E+03;
  6.7722678E-01;  9.9999998E-03;  2.1986917E-01;6585; -1.8324201E-01;  0.0000000E+00; -1.0746365E-03;  9.9674817E+02;  1.0810242E-01; -2.6940840E+03;3;  1.5646811E+00;  0.0000000E+00; -4.3767178E-01;0; -2.0450960E-01;  3.3984285E+04;  0.0000000E+00;  2.9862478E-02;  4.0000000E+04;  0.0000000E+00;  3.9996191E+04; -2.1916884E-01;  0.0000000E+00;  1.4659245E-02;  6.4470542E+03;
  6.7721248E-01;  9.9999998E-03;  2.2989994E-01;6586; -1.8270528E-01;  0.0000000E+00; -6.6624972E-04;  9.9668774E+02;  1.0810652E-01; -2.7441072E+03;3;  8.5634929E-01;  0.0000000E+00; -2.8428504E-01;0; -2.0159739E-01;  3.3981402E+04;  0.0000000E+00; -1.5121722E-01;  4.0000000E+04;  0.0000000E+00;  3.9993699E+04; -2.1947058E-01;  0.0000000E+00;  1.7873175E-02;  6.1621914E+03;
  6.8693680E-01;  9.9999998E-03;  6.9918960E-02;6631; -1.8966094E-01;  0.0000000E+00; -1.7068664E-03;  9.9279926E+02;  1.1011620E-01; -5.9656260E+03;3;  1.1314481E+01;  0.0000000E+00; -2.8383657E-01;0; -2.5001356E-01;  3.2480096E+04;  0.0000000E+00; -1.7330024E-01;  4.0000000E+04;  0.0000000E+00;  3.9988039E+04; -2.2940104E-01;  0.0000000E+00; -2.0612521E-02;  7.3637642E+03;
  6.8698388E-01;  9.9999998E-03;  7.9910129E-02;6632; -1.8947396E-01;  0.0000000E+00; -1.9113523E-03;  9.9302313E+02;  1.1012526E-01; -5.7801509E+03;3;  1.0892116E+01;  0.0000000E+00; -3.1534994E-01;0; -2.4697217E-01;  3.2488490E+04;  0.0000000E+00; -2.1728940E-01;  4.0000000E+04;  0.0000000E+00;  3.9988570E+04; -2.2762176E-01;  0.0000000E+00; -1.9350410E-02;  7.4254077E+03;
  6.8703228E-01;  9.9999998E-03;  8.9902543E-02;6633; -1.8927808E-01;  0.0000000E+00; -2.1010120E-03;  9.9328674E+02;  1.1013574E-01; -5.5617876E+03;3;  1.0419919E+01;  0.0000000E+00; -3.4307820E-01;0; -2.4379025E-01;  3.2498980E+04;  0.0000000E+00; -2.5671604E-01;  4.0000000E+04;  0.0000000E+00;  3.9989316E+04; -2.2582991E-01;  0.0000000E+00; -1.7960338E-02;  7.4916382E+03;
  6.8708044E-01;  9.9999998E-03;  9.9896275E-02;6634; -1.8907602E-01;  0.0000000E+00; -2.2750958E-03;  9.9358459E+02;  1.1014680E-01; -5.3150308E+03;3;  9.9007549E+00;  0.0000000E+00; -3.6796564E-01;0; -2.4053681E-01;  3.2510877E+04;  0.0000000E+00; -2.8603604E-01;  4.0000000E+04;  0.0000000E+00;  3.9989961E+04; -2.2409238E-01;  0.0000000E+00; -1.6444428E-02;  7.5731001E+03;
  6.8712705E-01;  9.9999998E-03;  1.0989162E-01;6635; -1.8886922E-01;  0.0000000E+00; -2.4331328E-03;  9.9390839E+02;  1.1015870E-01; -5.0467437E+03;3;  9.3376493E+00;  0.0000000E+00; -3.8910377E-01;0; -2.3727053E-01;  3.2524240E+04;  0.0000000E+00; -3.0010846E-01;  4.0000000E+04;  0.0000000E+00;  3.9991023E+04; -2.2247304E-01;  0.0000000E+00; -1.4797489E-02;  7.6776270E+03;
  6.8717098E-01;  9.9999998E-03;  1.1988856E-01;6636; -1.8865773E-01;  0.0000000E+00; -2.5747973E-03;  9.9424768E+02;  1.1017163E-01; -4.7656665E+03;3;  8.7329988E+00;  0.0000000E+00; -4.0334064E-01;0; -2.3403874E-01;  3.2538141E+04;  0.0000000E+00; -2.9537204E-01;  4.0000000E+04;  0.0000000E+00;  3.9992145E+04; -2.2103177E-01;  0.0000000E+00; -1.3006966E-02;  7.8047695E+03;
  6.8721139E-01;  9.9999998E-03;  1.2988600E-01;6637; -1.8844001E-01;  0.0000000E+00; -2.6997426E-03;  9.9458667E+02;  1.1018492E-01; -4.4848364E+03;3;  8.0939827E+00;  0.0000000E+00; -4.1828576E-01;0; -2.3087801E-01;  3.2551855E+04;  0.0000000E+00; -2.7071467E-01;  4.0000000E+04;  0.0000000E+00;  3.9993402E+04; -2.1982226E-01;  0.0000000E+00; -1.1055756E-02;  7.9415732E+03;
  6.8724805E-01;  9.9999998E-03;  1.3988271E-01;6638; -1.8821375E-01;  0.0000000E+00; -2.8063273E-03;  9.9490863E+02;  1.1019832E-01; -4.2180801E+03;3;  7.4203019E+00;  0.0000000E+00; -4.2276189E-01;0; -2.2781458E-01;  3.2564785E+04;  0.0000000E+00; -2.2778031E-01;  4.0000000E+04;  0.0000000E+00;  3.9994508E+04; -2.1888697E-01;  0.0000000E+00; -8.9276079E-03;  8.0604888E+03;
  6.8728077E-01;  9.9999998E-03;  1.4987752E-01;6639; -1.8797517E-01;  0.0000000E+00; -2.8935755E-03;  9.9519873E+02;  1.1021196E-01; -3.9777424E+03;3;  6.7194533E+00;  0.0000000E+00; -4.2049316E-01;0; -2.2487380E-01;  3.2576068E+04;  0.0000000E+00; -1.7064488E-01;  4.0000000E+04;  0.0000000E+00;  3.9995152E+04; -2.1825746E-01;  0.0000000E+00; -6.6163386E-03;  8.1232349E+03;
  6.8730944E-01;  9.9999998E-03;  1.5986979E-01;6640; -1.8772033E-01;  0.0000000E+00; -2.9592721E-03;  9.9544366E+02;  1.1022558E-01; -3.7748357E+03;3;  5.9961281E+00;  0.0000000E+00; -4.1227499E-01;0; -2.2209688E-01;  3.2585365E+04;  0.0000000E+00; -1.0407625E-01;  4.0000000E+04;  0.0000000E+00;  3.9995074E+04; -2.1795021E-01;  0.0000000E+00; -4.1466705E-03;  8.0985518E+03;
  6.8733448E-01;  9.9999998E-03;  1.6986035E-01;6641; -1.8744460E-01;  0.0000000E+00; -3.0017600E-03;  9.9563702E+02;  1.1023886E-01; -3.6146436E+03;3;  5.2558575E+00;  0.0000000E+00; -3.9297321E-01;0; -2.1953717E-01;  3.2592184E+04;  0.0000000E+00; -3.1623241E-02;  4.0000000E+04;  0.0000000E+00;  3.9994320E+04; -2.1796499E-01;  0.0000000E+00; -1.5721697E-03;  7.9830171E+03;
  6.8735534E-01;  9.9999998E-03;  1.7985250E-01;6642; -1.8714368E-01;  0.0000000E+00; -3.0143240E-03;  9.9577655E+02;  1.1025222E-01; -3.4990425E+03;3;  4.5010905E+00;  0.0000000E+00; -3.5490522E-01;0; -2.1723925E-01;  3.2596504E+04;  0.0000000E+00;  4.3094907E-02;  4.0000000E+04;  0.0000000E+00;  3.9993047E+04; -2.1828407E-01;  0.0000000E+00;  1.0448238E-03;  7.8120918E+03;
  6.8737090E-01;  9.9999998E-03;  1.8984985E-01;6643; -1.8681148E-01;  0.0000000E+00; -2.9879082E-03;  9.9587476E+02;  1.1026461E-01; -3.4176626E+03;3;  3.7371640E+00;  0.0000000E+00; -2.9780170E-01;0; -2.1521997E-01;  3.2598279E+04;  0.0000000E+00;  1.1284310E-01;  4.0000000E+04;  0.0000000E+00;  3.9991598E+04; -2.1886995E-01;  0.0000000E+00;  3.6499826E-03;  7.6516206E+03;
  6.8738055E-01;  9.9999998E-03;  1.9985604E-01;6644; -1.8644004E-01;  0.0000000E+00; -2.9072252E-03;  9.9593854E+02;  1.1027633E-01; -3.3648250E+03;3;  2.9720643E+00;  0.0000000E+00; -2.1786384E-01;0; -2.1345672E-01;  3.2597834E+04;  0.0000000E+00;  1.6190206E-01;  4.0000000E+04;  0.0000000E+00;  3.9990910E+04; -2.1967064E-01;  0.0000000E+00;  6.2139155E-03;  7.5623911E+03;
  6.8738407E-01;  9.9999998E-03;  2.0987499E-01;6645; -1.8602164E-01;  0.0000000E+00; -2.7441042E-03;  9.9596863E+02;  1.1028686E-01; -3.3398875E+03;3;  2.2066107E+00;  0.0000000E+00; -8.6203426E-02;0; -2.1185395E-01;  3.2595559E+04;  0.0000000E+00;  1.5853208E-01;  4.0000000E+04;  0.0000000E+00;  3.9990469E+04; -2.2062351E-01;  0.0000000E+00;  8.7695504E-03;  7.5249307E+03;
  6.8738395E-01;  9.9999998E-03;  2.1990672E-01;6646; -1.8554145E-01;  0.0000000E+00; -2.4938730E-03;  9.9596063E+02;  1.1029725E-01; -3.3465044E+03;3;  1.4545189E+00;  0.0000000E+00;  3.8878825E-02;0; -2.1022356E-01;  3.2592049E+04;  0.0000000E+00;  4.2840574E-02;  4.0000000E+04;  0.0000000E+00;  3.9989496E+04; -2.2165738E-01;  0.0000000E+00;  1.1433830E-02;  7.3875630E+03;
  6.8737972E-01;  9.9999998E-03;  2.2994024E-01;6647; -1.8498997E-01;  0.0000000E+00; -2.1638672E-03;  9.9591522E+02;  1.1030611E-01; -3.3841328E+03;3;  7.0921409E-01;  0.0000000E+00;  2.0960137E-01;0; -2.0828553E-01;  3.2588004E+04;  0.0000000E+00; -2.9009089E-01;  4.0000000E+04;  0.0000000E+00;  3.9986875E+04; -2.2270310E-01;  0.0000000E+00;  1.4417572E-02;  7.1171885E+03;
  6.9761002E-01;  9.9999998E-03;  6.9949999E-02;6692; -1.9253488E-01;  0.0000000E+00; -2.1466983E-03;  9.9050684E+02;  1.1257739E-01; -7.8648628E+03;3;  1.1692863E+01;  0.0000000E+00; -4.4672217E-02;0; -2.4972600E-01;  3.0944299E+04;  0.0000000E+00; -9.5929950E-02;  4.0000000E+04;  0.0000000E+00;  3.9969711E+04; -2.2370641E-01;  0.0000000E+00; -2.6019584E-02;  7.1557227E+03;
  6.9768637E-01;  9.9999998E-03;  7.9947539E-02;6693; -1.9231066E-01;  0.0000000E+00; -2.4127841E-03;  9.9081665E+02;  1.1259387E-01; -7.6081807E+03;3;  1.1248943E+01;  0.0000000E+00; -4.2232458E-02;0; -2.4654767E-01;  3.0953549E+04;  0.0000000E+00; -1.1741805E-01;  4.0000000E+04;  0.0000000E+00;  3.9970492E+04; -2.2186702E-01;  0.0000000E+00; -2.4680641E-02;  7.2258906E+03;
  6.9775891E-01;  9.9999998E-03;  8.9945771E-02;6694; -1.9207500E-01;  0.0000000E+00; -2.6641272E-03;  9.9117273E+02;  1.1261101E-01; -7.3131782E+03;3;  1.0752266E+01;  0.0000000E+00; -3.6426857E-02;0; -2.4325840E-01;  3.0965359E+04;  0.0000000E+00; -1.3303417E-01;  4.0000000E+04;  0.0000000E+00;  3.9971293E+04; -2.2003940E-01;  0.0000000E+00; -2.3219008E-02;  7.3073340E+03;
  6.9782478E-01;  9.9999998E-03;  9.9945217E-02;6695; -1.9183181E-01;  0.0000000E+00; -2.9000388E-03;  9.9156531E+02;  1.1262824E-01; -6.9879551E+03;3;  1.0205549E+01;  0.0000000E+00; -2.7075244E-02;0; -2.3993751E-01;  3.0979305E+04;  0.0000000E+00; -1.3849270E-01;  4.0000000E+04;  0.0000000E+00;  3.9972262E+04; -2.1829994E-01;  0.0000000E+00; -2.1637576E-02;  7.4132793E+03;
  6.9788277E-01;  9.9999998E-03;  1.0994624E-01;6696; -1.9158387E-01;  0.0000000E+00; -3.1204075E-03;  9.9198694E+02;  1.1264565E-01; -6.6386338E+03;3;  9.6124983E+00;  0.0000000E+00; -1.5923552E-02;0; -2.3665102E-01;  3.0994902E+04;  0.0000000E+00; -1.3014317E-01;  4.0000000E+04;  0.0000000E+00;  3.9973637E+04; -2.1672179E-01;  0.0000000E+00; -1.9929230E-02;  7.5539829E+03;
  6.9793171E-01;  9.9999998E-03;  1.1994806E-01;6697; -1.9133294E-01;  0.0000000E+00; -3.3252921E-03;  9.9241370E+02;  1.1266258E-01; -6.2850659E+03;3;  8.9764156E+00;  0.0000000E+00; -1.0976954E-03;0; -2.3344977E-01;  3.1011148E+04;  0.0000000E+00; -1.0588646E-01;  4.0000000E+04;  0.0000000E+00;  3.9975066E+04; -2.1537372E-01;  0.0000000E+00; -1.8076053E-02;  7.7305806E+03;
  6.9797206E-01;  9.9999998E-03;  1.2994938E-01;6698; -1.9107904E-01;  0.0000000E+00; -3.5144552E-03;  9.9283386E+02;  1.1267971E-01; -5.9369790E+03;3;  8.3012228E+00;  0.0000000E+00;  1.6243979E-02;0; -2.3036677E-01;  3.1027131E+04;  0.0000000E+00; -6.5674640E-02;  4.0000000E+04;  0.0000000E+00;  3.9976895E+04; -2.1431349E-01;  0.0000000E+00; -1.6053269E-02;  7.9308018E+03;
  6.9800484E-01;  9.9999998E-03;  1.3994874E-01;6699; -1.9082114E-01;  0.0000000E+00; -3.6874660E-03;  9.9322711E+02;  1.1269658E-01; -5.6111636E+03;3;  7.5921907E+00;  0.0000000E+00;  3.6406580E-02;0; -2.2742353E-01;  3.1041709E+04;  0.0000000E+00; -1.1555411E-02;  4.0000000E+04;  0.0000000E+00;  3.9978711E+04; -2.1358810E-01;  0.0000000E+00; -1.3835435E-02;  8.1275542E+03;
  6.9803250E-01;  9.9999998E-03;  1.4994499E-01;6700; -1.9055715E-01;  0.0000000E+00; -3.8434186E-03;  9.9357520E+02;  1.1271380E-01; -5.3227783E+03;3;  6.8539157E+00;  0.0000000E+00;  6.0412705E-02;0; -2.2463445E-01;  3.1054123E+04;  0.0000000E+00;  5.2780639E-02;  4.0000000E+04;  0.0000000E+00;  3.9980102E+04; -2.1322690E-01;  0.0000000E+00; -1.1407548E-02;  8.2824727E+03;
  6.9805706E-01;  9.9999998E-03;  1.5993792E-01;6701; -1.9028427E-01;  0.0000000E+00; -3.9809207E-03;  9.9386310E+02;  1.1273097E-01; -5.0842681E+03;3;  6.0921445E+00;  0.0000000E+00;  9.3334056E-02;0; -2.2203356E-01;  3.1063619E+04;  0.0000000E+00;  1.2347775E-01;  4.0000000E+04;  0.0000000E+00;  3.9980797E+04; -2.1324393E-01;  0.0000000E+00; -8.7896306E-03;  8.3619785E+03;
  6.9808018E-01;  9.9999998E-03;  1.6992925E-01;6702; -1.8999942E-01;  0.0000000E+00; -4.0976955E-03;  9.9409106E+02;  1.1274828E-01; -4.8953857E+03;3;  5.3094072E+00;  0.0000000E+00;  1.3561679E-01;0; -2.1967083E-01;  3.1069668E+04;  0.0000000E+00;  1.9697519E-01;  4.0000000E+04;  0.0000000E+00;  3.9980848E+04; -2.1363369E-01;  0.0000000E+00; -6.0371519E-03;  8.3572363E+03;
  6.9810200E-01;  9.9999998E-03;  1.7992209E-01;6703; -1.8969794E-01;  0.0000000E+00; -4.1908827E-03;  9.9425806E+02;  1.1276640E-01; -4.7570693E+03;3;  4.5154085E+00;  0.0000000E+00;  1.8238503E-01;0; -2.1759501E-01;  3.1072449E+04;  0.0000000E+00;  2.6763359E-01;  4.0000000E+04;  0.0000000E+00;  3.9980281E+04; -2.1437259E-01;  0.0000000E+00; -3.2224150E-03;  8.2946924E+03;
  6.9812369E-01;  9.9999998E-03;  1.8992029E-01;6704; -1.8937442E-01;  0.0000000E+00; -4.2546452E-03;  9.9436963E+02;  1.1278452E-01; -4.6646284E+03;3;  3.7115612E+00;  0.0000000E+00;  2.4632844E-01;0; -2.1583556E-01;  3.1071932E+04;  0.0000000E+00;  3.2493269E-01;  4.0000000E+04;  0.0000000E+00;  3.9979781E+04; -2.1541528E-01;  0.0000000E+00; -4.2027101E-04;  8.2268242E+03;
  6.9814795E-01;  9.9999998E-03;  1.9992909E-01;6705; -1.8901974E-01;  0.0000000E+00; -4.2796605E-03;  9.9444067E+02;  1.1280330E-01; -4.6057661E+03;3;  2.9031565E+00;  0.0000000E+00;  3.2784408E-01;0; -2.1439372E-01;  3.1068311E+04;  0.0000000E+00;  3.4990138E-01;  4.0000000E+04;  0.0000000E+00;  3.9979414E+04; -2.1669622E-01;  0.0000000E+00;  2.3024913E-03;  8.1858892E+03;
  6.9818044E-01;  9.9999998E-03;  2.0995185E-01;6706; -1.8862104E-01;  0.0000000E+00; -4.2535383E-03;  9.9446838E+02;  1.1282314E-01; -4.5828042E+03;3;  2.1055670E+00;  0.0000000E+00;  4.1753957E-01;0; -2.1323512E-01;  3.1061639E+04;  0.0000000E+00;  3.0819190E-01;  4.0000000E+04;  0.0000000E+00;  3.9978668E+04; -2.1813217E-01;  0.0000000E+00;  4.8970473E-03;  8.1096172E+03;
  6.9822776E-01;  9.9999998E-03;  2.1998319E-01;6707; -1.8816206E-01;  0.0000000E+00; -4.1741179E-03;  9.9445660E+02;  1.1284604E-01; -4.5925815E+03;3;  1.3136504E+00;  0.0000000E+00;  5.6489110E-01;0; -2.1230562E-01;  3.1052299E+04;  0.0000000E+00;  1.3907650E-01;  4.0000000E+04;  0.0000000E+00;  3.9976785E+04; -2.1963175E-01;  0.0000000E+00;  7.3261308E-03;  7.8797998E+03;
  6.9829160E-01;  9.9999998E-03;  2.3000339E-01;6708; -1.8763781E-01;  0.0000000E+00; -4.0071546E-03;  9.9443597E+02;  1.1287148E-01; -4.6096670E+03;3;  5.3267676E-01;  0.0000000E+00;  7.4349874E-01;0; -2.1145131E-01;  3.1040848E+04;  0.0000000E+00; -2.5646445E-01;  4.0000000E+04;  0.0000000E+00;  3.9975719E+04; -2.2112811E-01;  0.0000000E+00;  9.6767992E-03;  7.8102910E+03;
  7.1004224E-01;  9.9999998E-03;  7.0089586E-02;6753; -1.9583899E-01;  0.0000000E+00; -2.6586675E-03;  9.8835010E+02;  1.1565191E-01; -9.6516533E+03;3;  1.2123253E+01;  0.0000000E+00;  2.5951201E-01;0; -2.4349202E-01;  2.9218564E+04;  0.0000000E+00;  3.3987764E-02;  4.0000000E+04;  0.0000000E+00;  3.9947391E+04; -2.1080473E-01;  0.0000000E+00; -3.2687292E-02;  6.8109307E+03;
  7.1008998E-01;  9.9999998E-03;  8.0098204E-02;6754; -1.9555447E-01;  0.0000000E+00; -2.9937627E-03;  9.8873236E+02;  1.1566561E-01; -9.3349736E+03;3;  1.1651559E+01;  0.0000000E+00;  3.0245394E-01;0; -2.4005644E-01;  2.9232941E+04;  0.0000000E+00;  4.6873912E-02;  4.0000000E+04;  0.0000000E+00;  3.9948168E+04; -2.0888685E-01;  0.0000000E+00; -3.1169595E-02;  6.8766016E+03;
  7.1012682E-01;  9.9999998E-03;  9.0107538E-02;6755; -1.9525641E-01;  0.0000000E+00; -3.3146169E-03;  9.8916113E+02;  1.1567856E-01; -8.9797266E+03;3;  1.1123392E+01;  0.0000000E+00;  3.4821278E-01;0; -2.3652402E-01;  2.9250250E+04;  0.0000000E+00;  6.4697392E-02;  4.0000000E+04;  0.0000000E+00;  3.9948961E+04; -2.0698987E-01;  0.0000000E+00; -2.9534148E-02;  6.9543882E+03;
  7.1015048E-01;  9.9999998E-03;  1.0011779E-01;6756; -1.9495097E-01;  0.0000000E+00; -3.6211528E-03;  9.8961957E+02;  1.1569041E-01; -8.5999385E+03;3;  1.0541923E+01;  0.0000000E+00;  3.9661252E-01;0; -2.3298025E-01;  2.9270072E+04;  0.0000000E+00;  8.8994429E-02;  4.0000000E+04;  0.0000000E+00;  3.9949988E+04; -2.0519218E-01;  0.0000000E+00; -2.7788078E-02;  7.0603545E+03;
  7.1016145E-01;  9.9999998E-03;  1.1012796E-01;6757; -1.9464324E-01;  0.0000000E+00; -3.9136037E-03;  9.9010260E+02;  1.1570216E-01; -8.1997549E+03;3;  9.9112644E+00;  0.0000000E+00;  4.4760159E-01;0; -2.2949070E-01;  2.9291184E+04;  0.0000000E+00;  1.2090196E-01;  4.0000000E+04;  0.0000000E+00;  3.9951414E+04; -2.0356499E-01;  0.0000000E+00; -2.5925705E-02;  7.2077573E+03;
  7.1016121E-01;  9.9999998E-03;  1.2013669E-01;6758; -1.9433735E-01;  0.0000000E+00; -4.1921576E-03;  9.9058435E+02;  1.1571330E-01; -7.8006089E+03;3;  9.2351589E+00;  0.0000000E+00;  5.0002038E-01;0; -2.2609702E-01;  2.9312553E+04;  0.0000000E+00;  1.6084656E-01;  4.0000000E+04;  0.0000000E+00;  3.9953258E+04; -2.0216958E-01;  0.0000000E+00; -2.3927437E-02;  7.4011792E+03;
  7.1015376E-01;  9.9999998E-03;  1.3014227E-01;6759; -1.9403607E-01;  0.0000000E+00; -4.4568744E-03;  9.9104193E+02;  1.1572482E-01; -7.4215112E+03;3;  8.5174742E+00;  0.0000000E+00;  5.5347544E-01;0; -2.2281669E-01;  2.9332703E+04;  0.0000000E+00;  2.0857546E-01;  4.0000000E+04;  0.0000000E+00;  3.9955293E+04; -2.0105186E-01;  0.0000000E+00; -2.1764828E-02;  7.6318882E+03;
  7.1014410E-01;  9.9999998E-03;  1.4014323E-01;6760; -1.9374053E-01;  0.0000000E+00; -4.7073984E-03;  9.9146069E+02;  1.1573748E-01; -7.0746104E+03;3;  7.7641854E+00;  0.0000000E+00;  6.0966998E-01;0; -2.1965040E-01;  2.9350137E+04;  0.0000000E+00;  2.6318860E-01;  4.0000000E+04;  0.0000000E+00;  3.9957480E+04; -2.0024350E-01;  0.0000000E+00; -1.9406902E-02;  7.8767554E+03;
  7.1013689E-01;  9.9999998E-03;  1.5013911E-01;6761; -1.9345054E-01;  0.0000000E+00; -4.9428134E-03;  9.9182452E+02;  1.1575201E-01; -6.7731890E+03;3;  6.9807644E+00;  0.0000000E+00;  6.6442347E-01;0; -2.1659784E-01;  2.9363732E+04;  0.0000000E+00;  3.2317340E-01;  4.0000000E+04;  0.0000000E+00;  3.9959379E+04; -1.9976601E-01;  0.0000000E+00; -1.6831830E-02;  8.1011445E+03;
  7.1013767E-01;  9.9999998E-03;  1.6013046E-01;6762; -1.9316547E-01;  0.0000000E+00; -5.1633883E-03;  9.9211548E+02;  1.1576968E-01; -6.5321113E+03;3;  6.1659188E+00;  0.0000000E+00;  7.2332245E-01;0; -2.1368608E-01;  2.9372561E+04;  0.0000000E+00;  3.8696855E-01;  4.0000000E+04;  0.0000000E+00;  3.9960793E+04; -1.9962931E-01;  0.0000000E+00; -1.4056774E-02;  8.2659062E+03;
  7.1014780E-01;  9.9999998E-03;  1.7012018E-01;6763; -1.9288267E-01;  0.0000000E+00; -5.3687622E-03;  9.9233435E+02;  1.1579003E-01; -6.3507842E+03;3;  5.3320050E+00;  0.0000000E+00;  7.8504735E-01;0; -2.1097338E-01;  2.9376404E+04;  0.0000000E+00;  4.5162988E-01;  4.0000000E+04;  0.0000000E+00;  3.9961332E+04; -1.9983512E-01;  0.0000000E+00; -1.1138254E-02;  8.3412051E+03;
  7.1016890E-01;  9.9999998E-03;  1.8011200E-01;6764; -1.9259715E-01;  0.0000000E+00; -5.5585243E-03;  9.9247528E+02;  1.1581288E-01; -6.2340479E+03;3;  4.4869995E+00;  0.0000000E+00;  8.6228836E-01;0; -2.0851767E-01;  2.9375311E+04;  0.0000000E+00;  5.1103044E-01;  4.0000000E+04;  0.0000000E+00;  3.9960973E+04; -2.0036088E-01;  0.0000000E+00; -8.1567932E-03;  8.3174648E+03;
  7.1020395E-01;  9.9999998E-03;  1.9011003E-01;6765; -1.9230251E-01;  0.0000000E+00; -5.7304841E-03;  9.9255713E+02;  1.1583933E-01; -6.1662471E+03;3;  3.6407161E+00;  0.0000000E+00;  9.4973296E-01;0; -2.0636049E-01;  2.9369576E+04;  0.0000000E+00;  5.5537438E-01;  4.0000000E+04;  0.0000000E+00;  3.9959832E+04; -2.0115539E-01;  0.0000000E+00; -5.2050967E-03;  8.1955977E+03;
  7.1025157E-01;  9.9999998E-03;  2.0011793E-01;6766; -1.9198734E-01;  0.0000000E+00; -5.8830231E-03;  9.9259052E+02;  1.1586834E-01; -6.1385938E+03;3;  2.7921121E+00;  0.0000000E+00;  1.0377144E+00;0; -2.0453307E-01;  2.9360111E+04;  0.0000000E+00;  5.6904048E-01;  4.0000000E+04;  0.0000000E+00;  3.9957766E+04; -2.0214529E-01;  0.0000000E+00; -2.3877842E-03;  7.9472017E+03;
  7.1032733E-01;  9.9999998E-03;  2.1013205E-01;6767; -1.9163907E-01;  0.0000000E+00; -6.0266918E-03;  9.9257324E+02;  1.1590404E-01; -6.1528652E+03;3;  1.9468346E+00;  0.0000000E+00;  1.1350563E+00;0; -2.0307104E-01;  2.9346098E+04;  0.0000000E+00;  5.2555627E-01;  4.0000000E+04;  0.0000000E+00;  3.9954309E+04; -2.0321405E-01;  0.0000000E+00;  1.4301285E-04;  7.5155376E+03;
  7.1043700E-01;  9.9999998E-03;  2.2013497E-01;6768; -1.9124675E-01;  0.0000000E+00; -6.1634844E-03;  9.9254279E+02;  1.1594670E-01; -6.1780986E+03;3;  1.1137521E+00;  0.0000000E+00;  1.2530160E+00;0; -2.0210771E-01;  2.9327908E+04;  0.0000000E+00;  3.7934002E-01;  4.0000000E+04;  0.0000000E+00;  3.9950797E+04; -2.0427510E-01;  0.0000000E+00;  2.1673935E-03;  7.0870176E+03;
  7.1055895E-01;  9.9999998E-03;  2.3011060E-01;6769; -1.9080003E-01;  0.0000000E+00; -6.2112994E-03;  9.9260297E+02;  1.1599178E-01; -6.1282734E+03;3;  3.0340260E-01;  0.0000000E+00;  1.3893896E+00;0; -2.0173645E-01;  2.9308957E+04;  0.0000000E+00;  5.3336944E-02;  4.0000000E+04;  0.0000000E+00;  3.9953676E+04; -2.0534295E-01;  0.0000000E+00;  3.6064913E-03;  7.4893315E+03;
  7.2329330E-01;  9.9999998E-03;  7.0191741E-02;6814; -1.9920368E-01;  0.0000000E+00; -3.1942257E-03;  9.8760516E+02;  1.1924312E-01; -1.0268800E+04;3;  1.2584589E+01;  0.0000000E+00;  6.2587482E-01;0; -2.2543532E-01;  2.7471549E+04;  0.0000000E+00;  1.8740183E-01;  4.0000000E+04;  0.0000000E+00;  3.9922727E+04; -1.8495762E-01;  0.0000000E+00; -4.0477689E-02;  6.3773218E+03;
  7.2327894E-01;  9.9999998E-03;  8.0212817E-02;6815; -1.9885045E-01;  0.0000000E+00; -3.5976530E-03;  9.8797827E+02;  1.1924423E-01; -9.9596748E+03;3;  1.2082407E+01;  0.0000000E+00;  7.1574932E-01;0; -2.2142500E-01;  2.7490205E+04;  0.0000000E+00;  2.3680016E-01;  4.0000000E+04;  0.0000000E+00;  3.9923336E+04; -1.8276145E-01;  0.0000000E+00; -3.8663555E-02;  6.4316265E+03;
  7.2325164E-01;  9.9999998E-03;  9.0232760E-02;6816; -1.9848406E-01;  0.0000000E+00; -3.9872485E-03;  9.8838409E+02;  1.1924452E-01; -9.6234902E+03;3;  1.1520139E+01;  0.0000000E+00;  8.0656838E-01;0; -2.1724863E-01;  2.7511367E+04;  0.0000000E+00;  2.8679961E-01;  4.0000000E+04;  0.0000000E+00;  3.9924066E+04; -1.8051314E-01;  0.0000000E+00; -3.6735490E-02;  6.4871919E+03;
  7.2321081E-01;  9.9999998E-03;  1.0025146E-01;6817; -1.9811296E-01;  0.0000000E+00; -4.3642656E-03;  9.8881512E+02;  1.1924442E-01; -9.2663682E+03;3;  1.0901670E+01;  0.0000000E+00;  8.9826065E-01;0; -2.1298277E-01;  2.7534324E+04;  0.0000000E+00;  3.3514473E-01;  4.0000000E+04;  0.0000000E+00;  3.9924836E+04; -1.7827390E-01;  0.0000000E+00; -3.4708872E-02;  6.5609399E+03;
  7.2315741E-01;  9.9999998E-03;  1.1026825E-01;6818; -1.9774479E-01;  0.0000000E+00; -4.7298018E-03;  9.8925177E+02;  1.1924344E-01; -8.9046035E+03;3;  1.0230412E+01;  0.0000000E+00;  9.9076968E-01;0; -2.0867960E-01;  2.7557838E+04;  0.0000000E+00;  3.8014558E-01;  4.0000000E+04;  0.0000000E+00;  3.9925883E+04; -1.7609625E-01;  0.0000000E+00; -3.2583356E-02;  6.6692905E+03;
  7.2309345E-01;  9.9999998E-03;  1.2028206E-01;6819; -1.9738659E-01;  0.0000000E+00; -5.0842059E-03;  9.8967987E+02;  1.1924306E-01; -8.5499502E+03;3;  9.4921913E+00;  0.0000000E+00;  1.0862259E+00;0; -2.0436767E-01;  2.7580918E+04;  0.0000000E+00;  4.2128676E-01;  4.0000000E+04;  0.0000000E+00;  3.9927242E+04; -1.7402594E-01;  0.0000000E+00; -3.0341737E-02;  6.8224907E+03;
  7.2302413E-01;  9.9999998E-03;  1.3029145E-01;6820; -1.9704451E-01;  0.0000000E+00; -5.4270993E-03;  9.9007788E+02;  1.1924304E-01; -8.2202344E+03;3;  8.7028522E+00;  0.0000000E+00;  1.1844811E+00;0; -2.0005070E-01;  2.7601926E+04;  0.0000000E+00;  4.5966539E-01;  4.0000000E+04;  0.0000000E+00;  3.9929207E+04; -1.7209508E-01;  0.0000000E+00; -2.7955616E-02;  7.0204009E+03;
  7.2295672E-01;  9.9999998E-03;  1.4029567E-01;6821; -1.9672146E-01;  0.0000000E+00; -5.7576583E-03;  9.9042737E+02;  1.1924560E-01; -7.9306650E+03;3;  7.8871379E+00;  0.0000000E+00;  1.2824168E+00;0; -1.9571915E-01;  2.7619645E+04;  0.0000000E+00;  4.9763101E-01;  4.0000000E+04;  0.0000000E+00;  3.9931156E+04; -1.7032737E-01;  0.0000000E+00; -2.5391787E-02;  7.2508140E+03;
  7.2289908E-01;  9.9999998E-03;  1.5029459E-01;6822; -1.9641806E-01;  0.0000000E+00; -6.0752700E-03;  9.9071875E+02;  1.1925213E-01; -7.6892920E+03;3;  7.0514746E+00;  0.0000000E+00;  1.3740281E+00;0; -1.9137028E-01;  2.7632320E+04;  0.0000000E+00;  5.3780204E-01;  4.0000000E+04;  0.0000000E+00;  3.9933262E+04; -1.6874531E-01;  0.0000000E+00; -2.2624977E-02;  7.4901313E+03;
  7.2285694E-01;  9.9999998E-03;  1.6029027E-01;6823; -1.9613393E-01;  0.0000000E+00; -6.3804109E-03;  9.9093713E+02;  1.1926365E-01; -7.5083604E+03;3;  6.1937757E+00;  0.0000000E+00;  1.4646809E+00;0; -1.8704149E-01;  2.7639334E+04;  0.0000000E+00;  5.8181244E-01;  4.0000000E+04;  0.0000000E+00;  3.9935000E+04; -1.6737501E-01;  0.0000000E+00; -1.9666472E-02;  7.7014932E+03;
  7.2283298E-01;  9.9999998E-03;  1.7028637E-01;6824; -1.9586739E-01;  0.0000000E+00; -6.6742338E-03;  9.9108136E+02;  1.1928001E-01; -7.3888589E+03;3;  5.3240790E+00;  0.0000000E+00;  1.5594411E+00;0; -1.8280399E-01;  2.7640486E+04;  0.0000000E+00;  6.2794060E-01;  4.0000000E+04;  0.0000000E+00;  3.9936074E+04; -1.6623648E-01;  0.0000000E+00; -1.6567519E-02;  7.8407158E+03;
  7.2283065E-01;  9.9999998E-03;  1.8028462E-01;6825; -1.9561495E-01;  0.0000000E+00; -6.9586216E-03;  9.9115442E+02;  1.1930218E-01; -7.3283179E+03;3;  4.4343190E+00;  0.0000000E+00;  1.6576961E+00;0; -1.7872293E-01;  2.7635953E+04;  0.0000000E+00;  6.7069125E-01;  4.0000000E+04;  0.0000000E+00;  3.9936145E+04; -1.6531420E-01;  0.0000000E+00; -1.3408735E-02;  7.8648037E+03;
  7.2285211E-01;  9.9999998E-03;  1.9028646E-01;6826; -1.9536962E-01;  0.0000000E+00; -7.2364421E-03;  9.9117023E+02;  1.1933076E-01; -7.3152319E+03;3;  3.5421503E+00;  0.0000000E+00;  1.7403685E+00;0; -1.7484982E-01;  2.7626133E+04;  0.0000000E+00;  7.0149094E-01;  4.0000000E+04;  0.0000000E+00;  3.9935012E+04; -1.6455510E-01;  0.0000000E+00; -1.0294722E-02;  7.7296084E+03;
  7.2289735E-01;  9.9999998E-03;  2.0028955E-01;6827; -1.9512084E-01;  0.0000000E+00; -7.5141452E-03;  9.9113940E+02;  1.1936532E-01; -7.3407617E+03;3;  2.6591275E+00;  0.0000000E+00;  1.8302664E+00;0; -1.7126256E-01;  2.7612338E+04;  0.0000000E+00;  7.0692712E-01;  4.0000000E+04;  0.0000000E+00;  3.9932129E+04; -1.6389628E-01;  0.0000000E+00; -7.3662843E-03;  7.3911646E+03;
  7.2295773E-01;  9.9999998E-03;  2.1028507E-01;6828; -1.9485518E-01;  0.0000000E+00; -7.8005809E-03;  9.9108282E+02;  1.1940344E-01; -7.3876235E+03;3;  1.7678875E+00;  0.0000000E+00;  1.9487312E+00;0; -1.6816445E-01;  2.7596445E+04;  0.0000000E+00;  6.6293758E-01;  4.0000000E+04;  0.0000000E+00;  3.9927941E+04; -1.6333008E-01;  0.0000000E+00; -4.8343651E-03;  6.8864346E+03;
  7.2302639E-01;  9.9999998E-03;  2.2025530E-01;6829; -1.9455598E-01;  0.0000000E+00; -8.0906861E-03;  9.9106885E+02;  1.1944293E-01; -7.3992280E+03;3;  8.9211977E-01;  0.0000000E+00;  2.0597911E+00;0; -1.6590355E-01;  2.7580465E+04;  0.0000000E+00;  5.2610922E-01;  4.0000000E+04;  0.0000000E+00;  3.9926293E+04; -1.6288422E-01;  0.0000000E+00; -3.0193306E-03;  6.6695361E+03;
  7.2310460E-01;  9.9999998E-03;  2.3020591E-01;6830; -1.9422132E-01;  0.0000000E+00; -8.2811033E-03;  9.9117877E+02;  1.1948452E-01; -7.3081699E+03;3;  2.7810983E-02;  0.0000000E+00;  2.1985991E+00;0; -1.6470325E-01;  2.7564725E+04;  0.0000000E+00;  2.2224079E-01;  4.0000000E+04;  0.0000000E+00;  3.9932637E+04; -1.6259557E-01;  0.0000000E+00; -2.1076729E-03;  7.4893555E+03;
  7.3555934E-01;  9.9999998E-03;  7.0183910E-02;6875; -2.0210031E-01;  0.0000000E+00; -3.6776401E-03;  9.8813910E+02;  1.2284016E-01; -9.8264268E+03;3;  1.2987270E+01;  0.0000000E+00;  1.0175337E+00;0; -1.9164433E-01;  2.5936111E+04;  0.0000000E+00;  2.9901582E-01;  4.0000000E+04;  0.0000000E+00;  3.9899309E+04; -1.4283900E-01;  0.0000000E+00; -4.8805330E-02;  5.9637637E+03;
  7.3554009E-01;  9.9999998E-03;  8.0209777E-02;6876; -2.0170315E-01;  0.0000000E+00; -4.1399184E-03;  9.8841986E+02;  1.2284232E-01; -9.5937939E+03;3;  1.2429718E+01;  0.0000000E+00;  1.1617577E+00;0; -1.8632561E-01;  2.5949260E+04;  0.0000000E+00;  3.7272161E-01;  4.0000000E+04;  0.0000000E+00;  3.9899754E+04; -1.3967475E-01;  0.0000000E+00; -4.6650860E-02;  6.0082031E+03;
  7.3550767E-01;  9.9999998E-03;  9.0235874E-02;6877; -2.0129609E-01;  0.0000000E+00; -4.5879167E-03;  9.8871863E+02;  1.2284366E-01; -9.3462979E+03;3;  1.1806736E+01;  0.0000000E+00;  1.3054599E+00;0; -1.8062291E-01;  2.5964039E+04;  0.0000000E+00;  4.4112056E-01;  4.0000000E+04;  0.0000000E+00;  3.9899965E+04; -1.3624932E-01;  0.0000000E+00; -4.4373587E-02;  6.0304185E+03;
  7.3546261E-01;  9.9999998E-03;  1.0026144E-01;6878; -2.0088916E-01;  0.0000000E+00; -5.0241011E-03;  9.8902887E+02;  1.2284395E-01; -9.0892715E+03;3;  1.1138423E+01;  0.0000000E+00;  1.4477316E+00;0; -1.7459849E-01;  2.5979832E+04;  0.0000000E+00;  4.9832341E-01;  4.0000000E+04;  0.0000000E+00;  3.9900066E+04; -1.3259852E-01;  0.0000000E+00; -4.1999962E-02;  6.0440630E+03;
  7.3540395E-01;  9.9999998E-03;  1.1028537E-01;6879; -2.0049226E-01;  0.0000000E+00; -5.4506278E-03;  9.8933124E+02;  1.2284402E-01; -8.8387627E+03;3;  1.0409162E+01;  0.0000000E+00;  1.5855749E+00;0; -1.6830844E-01;  2.5995709E+04;  0.0000000E+00;  5.4041684E-01;  4.0000000E+04;  0.0000000E+00;  3.9900410E+04; -1.2877095E-01;  0.0000000E+00; -3.9537493E-02;  6.0670278E+03;
  7.3533475E-01;  9.9999998E-03;  1.2030710E-01;6880; -2.0011297E-01;  0.0000000E+00; -5.8684992E-03;  9.8961621E+02;  1.2284365E-01; -8.6026729E+03;3;  9.6403961E+00;  0.0000000E+00;  1.7257291E+00;0; -1.6178150E-01;  2.6010717E+04;  0.0000000E+00;  5.6703967E-01;  4.0000000E+04;  0.0000000E+00;  3.9900918E+04; -1.2480460E-01;  0.0000000E+00; -3.6976904E-02;  6.1172656E+03;
  7.3526263E-01;  9.9999998E-03;  1.3032587E-01;6881; -1.9975740E-01;  0.0000000E+00; -6.2782476E-03;  9.8986694E+02;  1.2284561E-01; -8.3949287E+03;3;  8.8312902E+00;  0.0000000E+00;  1.8627506E+00;0; -1.5501954E-01;  2.6023279E+04;  0.0000000E+00;  5.8190507E-01;  4.0000000E+04;  0.0000000E+00;  3.9901855E+04; -1.2072414E-01;  0.0000000E+00; -3.4295395E-02;  6.2084897E+03;
  7.3519707E-01;  9.9999998E-03;  1.4034086E-01;6882; -1.9943061E-01;  0.0000000E+00; -6.6790874E-03;  9.9007227E+02;  1.2285104E-01; -8.2248613E+03;3;  7.9874039E+00;  0.0000000E+00;  1.9958726E+00;0; -1.4801797E-01;  2.6031840E+04;  0.0000000E+00;  5.9167397E-01;  4.0000000E+04;  0.0000000E+00;  3.9903102E+04; -1.1655620E-01;  0.0000000E+00; -3.1461779E-02;  6.3463970E+03;
  7.3514920E-01;  9.9999998E-03;  1.5035318E-01;6883; -1.9913687E-01;  0.0000000E+00; -7.0703309E-03;  9.9022247E+02;  1.2286255E-01; -8.1004219E+03;3;  7.1179371E+00;  0.0000000E+00;  2.1252272E+00;0; -1.4077128E-01;  2.6034896E+04;  0.0000000E+00;  6.0359240E-01;  4.0000000E+04;  0.0000000E+00;  3.9904688E+04; -1.1232453E-01;  0.0000000E+00; -2.8446751E-02;  6.5254795E+03;
  7.3512912E-01;  9.9999998E-03;  1.6036382E-01;6884; -1.9888006E-01;  0.0000000E+00; -7.4529620E-03;  9.9030878E+02;  1.2288254E-01; -8.0289185E+03;3;  6.2215319E+00;  0.0000000E+00;  2.2519078E+00;0; -1.3330826E-01;  2.6031164E+04;  0.0000000E+00;  6.2225008E-01;  4.0000000E+04;  0.0000000E+00;  3.9906309E+04; -1.0805779E-01;  0.0000000E+00; -2.5250470E-02;  6.7206289E+03;
  7.3514414E-01;  9.9999998E-03;  1.7037444E-01;6885; -1.9866104E-01;  0.0000000E+00; -7.8283390E-03;  9.9033496E+02;  1.2291300E-01; -8.0071909E+03;3;  5.3027329E+00;  0.0000000E+00;  2.3748930E+00;0; -1.2568238E-01;  2.6020266E+04;  0.0000000E+00;  6.4693260E-01;  4.0000000E+04;  0.0000000E+00;  3.9907531E+04; -1.0377096E-01;  0.0000000E+00; -2.1911420E-02;  6.8872095E+03;
  7.3519474E-01;  9.9999998E-03;  1.8038291E-01;6886; -1.9847745E-01;  0.0000000E+00; -8.1989113E-03;  9.9030347E+02;  1.2295335E-01; -8.0333135E+03;3;  4.3927369E+00;  0.0000000E+00;  2.4933193E+00;0; -1.1797836E-01;  2.6002730E+04;  0.0000000E+00;  6.7213637E-01;  4.0000000E+04;  0.0000000E+00;  3.9908039E+04; -9.9476628E-02;  0.0000000E+00; -1.8501729E-02;  6.9703022E+03;
  7.3526716E-01;  9.9999998E-03;  1.9038753E-01;6887; -1.9832341E-01;  0.0000000E+00; -8.5704243E-03;  9.9022748E+02;  1.2299915E-01; -8.0962739E+03;3;  3.4506466E+00;  0.0000000E+00;  2.6111314E+00;0; -1.1037880E-01;  2.5981078E+04;  0.0000000E+00;  6.8854183E-01;  4.0000000E+04;  0.0000000E+00;  3.9907273E+04; -9.5256910E-02;  0.0000000E+00; -1.5121889E-02;  6.9187417E+03;
  7.3534030E-01;  9.9999998E-03;  2.0038687E-01;6888; -1.9817941E-01;  0.0000000E+00; -8.9474125E-03;  9.9012250E+02;  1.2304549E-01; -8.1832329E+03;3;  2.5065925E+00;  0.0000000E+00;  2.7180936E+00;0; -1.0319231E-01;  2.5958967E+04;  0.0000000E+00;  6.8158168E-01;  4.0000000E+04;  0.0000000E+00;  3.9905340E+04; -9.1275454E-02;  0.0000000E+00; -1.1916862E-02;  6.7018438E+03;
  7.3538041E-01;  9.9999998E-03;  2.1036758E-01;6889; -1.9802696E-01;  0.0000000E+00; -9.3337921E-03;  9.9002515E+02;  1.2308227E-01; -8.2638711E+03;3;  1.5674495E+00;  0.0000000E+00;  2.8313978E+00;0; -9.6980482E-02;  2.5941254E+04;  0.0000000E+00;  6.2672615E-01;  4.0000000E+04;  0.0000000E+00;  3.9903441E+04; -8.7858789E-02;  0.0000000E+00; -9.1216974E-03;  6.4719312E+03;
  7.3538762E-01;  9.9999998E-03;  2.2032906E-01;6890; -1.9785573E-01;  0.0000000E+00; -9.7217895E-03;  9.8998975E+02;  1.2310816E-01; -8.2932041E+03;3;  6.4234751E-01;  0.0000000E+00;  2.9386711E+00;0; -9.2235595E-02;  2.5928771E+04;  0.0000000E+00;  4.8254114E-01;  4.0000000E+04;  0.0000000E+00;  3.9904625E+04; -8.5127294E-02;  0.0000000E+00; -7.1082977E-03;  6.6252515E+03;
  7.3536599E-01;  9.9999998E-03;  2.3028095E-01;6891; -1.9765778E-01;  0.0000000E+00; -1.0016103E-02;  9.9008105E+02;  1.2312578E-01; -8.2175527E+03;3; -2.7278888E-01;  0.0000000E+00;  3.0733669E+00;0; -8.9347303E-02;  2.5921275E+04;  0.0000000E+00;  1.8200143E-01;  4.0000000E+04;  0.0000000E+00;  3.9913379E+04; -8.3172776E-02;  0.0000000E+00; -6.1745308E-03;  7.7220376E+03;
  7.4791580E-01;  9.9999998E-03;  7.0164829E-02;6936; -2.0468885E-01;  0.0000000E+00; -4.1631008E-03;  9.8966650E+02;  1.2658776E-01; -8.5609766E+03;3;  1.3249786E+01;  0.0000000E+00;  1.4668791E+00;0; -1.3244694E-01;  2.4514533E+04;  0.0000000E+00;  3.4555095E-01;  4.0000000E+04;  0.0000000E+00;  3.9876469E+04; -7.3401041E-02;  0.0000000E+00; -5.9045896E-02;  5.5599092E+03;
  7.4787283E-01;  9.9999998E-03;  8.0194511E-02;6937; -2.0425531E-01;  0.0000000E+00; -4.6781041E-03;  9.8978558E+02;  1.2658545E-01; -8.4623135E+03;3;  1.2687842E+01;  0.0000000E+00;  1.6653138E+00;0; -1.2485906E-01;  2.4521980E+04;  0.0000000E+00;  4.2640299E-01;  4.0000000E+04;  0.0000000E+00;  3.9876648E+04; -6.8435557E-02;  0.0000000E+00; -5.6423504E-02;  5.5992832E+03;
  7.4781942E-01;  9.9999998E-03;  9.0225220E-02;6938; -2.0381422E-01;  0.0000000E+00; -5.1755034E-03;  9.8990527E+02;  1.2658341E-01; -8.3631572E+03;3;  1.2047421E+01;  0.0000000E+00;  1.8671447E+00;0; -1.1650535E-01;  2.4529836E+04;  0.0000000E+00;  4.9575883E-01;  4.0000000E+04;  0.0000000E+00;  3.9876266E+04; -6.2849052E-02;  0.0000000E+00; -5.3656306E-02;  5.5790049E+03;
  7.4775517E-01;  9.9999998E-03;  1.0025717E-01;6939; -2.0337780E-01;  0.0000000E+00; -5.6601330E-03;  9.9001825E+02;  1.2658194E-01; -8.2695811E+03;3;  1.1356232E+01;  0.0000000E+00;  2.0576742E+00;0; -1.0745700E-01;  2.4537602E+04;  0.0000000E+00;  5.4505301E-01;  4.0000000E+04;  0.0000000E+00;  3.9875531E+04; -5.6676008E-02;  0.0000000E+00; -5.0780989E-02;  5.5073257E+03;
  7.4768418E-01;  9.9999998E-03;  1.1028883E-01;6940; -2.0295878E-01;  0.0000000E+00; -6.1345934E-03;  9.9012189E+02;  1.2658197E-01; -8.1837080E+03;3;  1.0602449E+01;  0.0000000E+00;  2.2492378E+00;0; -9.7758442E-02;  2.4544344E+04;  0.0000000E+00;  5.6929815E-01;  4.0000000E+04;  0.0000000E+00;  3.9874664E+04; -4.9938411E-02;  0.0000000E+00; -4.7820028E-02;  5.4029849E+03;
  7.4761385E-01;  9.9999998E-03;  1.2031989E-01;6941; -2.0256604E-01;  0.0000000E+00; -6.6017397E-03;  9.9019653E+02;  1.2658547E-01; -8.1218843E+03;3;  9.8037701E+00;  0.0000000E+00;  2.4333377E+00;0; -8.7428778E-02;  2.4548652E+04;  0.0000000E+00;  5.6934917E-01;  4.0000000E+04;  0.0000000E+00;  3.9873996E+04; -4.2652141E-02;  0.0000000E+00; -4.4776633E-02;  5.2935938E+03;
  7.4755222E-01;  9.9999998E-03;  1.3034955E-01;6942; -2.0220798E-01;  0.0000000E+00; -7.0622624E-03;  9.9024567E+02;  1.2659399E-01; -8.0811943E+03;3;  8.9583778E+00;  0.0000000E+00;  2.6133916E+00;0; -7.6484784E-02;  2.4549398E+04;  0.0000000E+00;  5.5224067E-01;  4.0000000E+04;  0.0000000E+00;  3.9873426E+04; -3.4850668E-02;  0.0000000E+00; -4.1634120E-02;  5.2110244E+03;
  7.4750686E-01;  9.9999998E-03;  1.4037521E-01;6943; -2.0189136E-01;  0.0000000E+00; -7.5159245E-03;  9.9025922E+02;  1.2660937E-01; -8.0699355E+03;3;  8.0743675E+00;  0.0000000E+00;  2.7892673E+00;0; -6.4954609E-02;  2.4545684E+04;  0.0000000E+00;  5.2918196E-01;  4.0000000E+04;  0.0000000E+00;  3.9873387E+04; -2.6595980E-02;  0.0000000E+00; -3.8358632E-02;  5.1846885E+03;
  7.4748445E-01;  9.9999998E-03;  1.5039383E-01;6944; -2.0162311E-01;  0.0000000E+00; -7.9622734E-03;  9.9022900E+02;  1.2663202E-01; -8.0949717E+03;3;  7.1676874E+00;  0.0000000E+00;  2.9616008E+00;0; -5.2883454E-02;  2.4536676E+04;  0.0000000E+00;  5.1174098E-01;  4.0000000E+04;  0.0000000E+00;  3.9873848E+04; -1.7977851E-02;  0.0000000E+00; -3.4905601E-02;  5.2328540E+03;
  7.4748677E-01;  9.9999998E-03;  1.6040614E-01;6945; -2.0140706E-01;  0.0000000E+00; -8.4006963E-03;  9.9015350E+02;  1.2666202E-01; -8.1575371E+03;3;  6.2316070E+00;  0.0000000E+00;  3.1236286E+00;0; -4.0383954E-02;  2.4522359E+04;  0.0000000E+00;  5.0700051E-01;  4.0000000E+04;  0.0000000E+00;  3.9874754E+04; -9.1340616E-03;  0.0000000E+00; -3.1249892E-02;  5.3498828E+03;
  7.4750942E-01;  9.9999998E-03;  1.7041367E-01;6946; -2.0124696E-01;  0.0000000E+00; -8.8335965E-03;  9.9003870E+02;  1.2669678E-01; -8.2526445E+03;3;  5.2927184E+00;  0.0000000E+00;  3.2820885E+00;0; -2.7645137E-02;  2.4503783E+04;  0.0000000E+00;  5.1492381E-01;  4.0000000E+04;  0.0000000E+00;  3.9875875E+04; -2.3770044E-04;  0.0000000E+00; -2.7407438E-02;  5.5066235E+03;
  7.4754924E-01;  9.9999998E-03;  1.8041733E-01;6947; -2.0113893E-01;  0.0000000E+00; -9.2635341E-03;  9.8988861E+02;  1.2673625E-01; -8.3769844E+03;3;  4.3155599E+00;  0.0000000E+00;  3.4215813E+00;0; -1.4849643E-02;  2.4481875E+04;  0.0000000E+00;  5.2832180E-01;  4.0000000E+04;  0.0000000E+00;  3.9876863E+04;  8.5867560E-03;  0.0000000E+00; -2.3436399E-02;  5.6643613E+03;
  7.4760526E-01;  9.9999998E-03;  1.9041866E-01;6948; -2.0107360E-01;  0.0000000E+00; -9.6936636E-03;  9.8972546E+02;  1.2677889E-01; -8.5121396E+03;3;  3.3270934E+00;  0.0000000E+00;  3.5568237E+00;0; -2.1928847E-03;  2.4457982E+04;  0.0000000E+00;  5.3436834E-01;  4.0000000E+04;  0.0000000E+00;  3.9877660E+04;  1.7237308E-02;  0.0000000E+00; -1.9430192E-02;  5.7881333E+03;
  7.4763739E-01;  9.9999998E-03;  2.0040730E-01;6949; -2.0103629E-01;  0.0000000E+00; -1.0124863E-02;  9.8956952E+02;  1.2681335E-01; -8.6413193E+03;3;  2.3360093E+00;  0.0000000E+00;  3.6841075E+00;0;  9.6019879E-03;  2.4437172E+04;  0.0000000E+00;  5.1630014E-01;  4.0000000E+04;  0.0000000E+00;  3.9878664E+04;  2.5126958E-02;  0.0000000E+00; -1.5524970E-02;  5.9251904E+03;
  7.4763602E-01;  9.9999998E-03;  2.1038483E-01;6950; -2.0101656E-01;  0.0000000E+00; -1.0562112E-02;  9.8944128E+02;  1.2683651E-01; -8.7475859E+03;3;  1.3470756E+00;  0.0000000E+00;  3.8001933E+00;0;  1.9999556E-02;  2.4421070E+04;  0.0000000E+00;  4.5327523E-01;  4.0000000E+04;  0.0000000E+00;  3.9880875E+04;  3.1957991E-02;  0.0000000E+00; -1.1958434E-02;  6.2202871E+03;
  7.4761260E-01;  9.9999998E-03;  2.2036022E-01;6951; -2.0100634E-01;  0.0000000E+00; -1.0991604E-02;  9.8937976E+02;  1.2685390E-01; -8.7985469E+03;3;  3.7282199E-01;  0.0000000E+00;  3.9162273E+00;0;  2.8591704E-02;  2.4408594E+04;  0.0000000E+00;  3.2064918E-01;  4.0000000E+04;  0.0000000E+00;  3.9885824E+04;  3.7680630E-02;  0.0000000E+00; -9.0889269E-03;  6.8480776E+03;
  7.4755430E-01;  9.9999998E-03;  2.3033629E-01;6952; -2.0098394E-01;  0.0000000E+00; -1.1362471E-02;  9.8940619E+02;  1.2686205E-01; -8.7766719E+03;3; -5.9195173E-01;  0.0000000E+00;  4.0476122E+00;0;  3.4647860E-02;  2.4401033E+04;  0.0000000E+00;  9.0184830E-02;  4.0000000E+04;  0.0000000E+00;  3.9895352E+04;  4.1982424E-02;  0.0000000E+00; -7.3345648E-03;  8.0728506E+03;
  7.6105982E-01;  9.9999998E-03;  7.0182756E-02;6997; -2.0689900E-01;  0.0000000E+00; -4.7105243E-03;  9.9250116E+02;  1.3063323E-01; -6.2125620E+03;3;  1.3567659E+01;  0.0000000E+00;  1.9891392E+00;0; -3.1076219E-02;  2.3161943E+04;  0.0000000E+00;  3.0649447E-01;  4.0000000E+04;  0.0000000E+00;  3.9852691E+04;  4.2075578E-02;  0.0000000E+00; -7.3151797E-02;  5.0574546E+03;
  7.6101410E-01;  9.9999998E-03;  8.0213331E-02;6998; -2.0644215E-01;  0.0000000E+00; -5.2792826E-03;  9.9242731E+02;  1.3063481E-01; -6.2737446E+03;3;  1.2972377E+01;  0.0000000E+00;  2.2537909E+00;0; -1.9669231E-02;  2.3160531E+04;  0.0000000E+00;  3.7459016E-01;  4.0000000E+04;  0.0000000E+00;  3.9852859E+04;  5.0239693E-02;  0.0000000E+00; -6.9908924E-02;  5.1037476E+03;
  7.6093847E-01;  9.9999998E-03;  9.0247117E-02;6999; -2.0597900E-01;  0.0000000E+00; -5.8242753E-03;  9.9232233E+02;  1.3063176E-01; -6.3607036E+03;3;  1.2301137E+01;  0.0000000E+00;  2.5213745E+00;0; -7.1763434E-03;  2.3159818E+04;  0.0000000E+00;  4.2719132E-01;  4.0000000E+04;  0.0000000E+00;  3.9851957E+04;  5.9266347E-02;  0.0000000E+00; -6.6442691E-02;  5.0401484E+03;
  7.6084059E-01;  9.9999998E-03;  1.0028135E-01;7000; -2.0552553E-01;  0.0000000E+00; -6.3499636E-03;  9.9218805E+02;  1.3062681E-01; -6.4719580E+03;3;  1.1572641E+01;  0.0000000E+00;  2.7726347E+00;0;  6.3553602E-03;  2.3159205E+04;  0.0000000E+00;  4.5476118E-01;  4.0000000E+04;  0.0000000E+00;  3.9850453E+04;  6.9169007E-02;  0.0000000E+00; -6.2813647E-02;  4.8685474E+03;
  7.6073271E-01;  9.9999998E-03;  1.1031099E-01;7001; -2.0509478E-01;  0.0000000E+00; -6.8600974E-03;  9.9202924E+02;  1.3062266E-01; -6.6035083E+03;3;  1.0786852E+01;  0.0000000E+00;  3.0193465E+00;0;  2.0910930E-02;  2.3157562E+04;  0.0000000E+00;  4.5246321E-01;  4.0000000E+04;  0.0000000E+00;  3.9848289E+04;  7.9980478E-02;  0.0000000E+00; -5.9069548E-02;  4.6122812E+03;
  7.6062143E-01;  9.9999998E-03;  1.2033458E-01;7002; -2.0469771E-01;  0.0000000E+00; -7.3573808E-03;  9.9185150E+02;  1.3062011E-01; -6.7507607E+03;3;  9.9501648E+00;  0.0000000E+00;  3.2565975E+00;0;  3.6411975E-02;  2.3154203E+04;  0.0000000E+00;  4.2304283E-01;  4.0000000E+04;  0.0000000E+00;  3.9846047E+04;  9.1638267E-02;  0.0000000E+00; -5.5226292E-02;  4.3133042E+03;
  7.6051605E-01;  9.9999998E-03;  1.3035555E-01;7003; -2.0434380E-01;  0.0000000E+00; -7.8447387E-03;  9.9165521E+02;  1.3062081E-01; -6.9133706E+03;3;  9.0654039E+00;  0.0000000E+00;  3.4862704E+00;0;  5.2811205E-02;  2.3148674E+04;  0.0000000E+00;  3.7681738E-01;  4.0000000E+04;  0.0000000E+00;  3.9843938E+04;  1.0408290E-01;  0.0000000E+00; -5.1271699E-02;  4.0256787E+03;
  7.6042759E-01;  9.9999998E-03;  1.4037457E-01;7004; -2.0404235E-01;  0.0000000E+00; -8.3226096E-03;  9.9144183E+02;  1.3062629E-01; -7.0901528E+03;3;  8.1403265E+00;  0.0000000E+00;  3.7098022E+00;0;  7.0082009E-02;  2.3140047E+04;  0.0000000E+00;  3.2862455E-01;  4.0000000E+04;  0.0000000E+00;  3.9842379E+04;  1.1724446E-01;  0.0000000E+00; -4.7162451E-02;  3.8049460E+03;
  7.6036507E-01;  9.9999998E-03;  1.5039004E-01;7005; -2.0380318E-01;  0.0000000E+00; -8.7922653E-03;  9.9121576E+02;  1.3063776E-01; -7.2774546E+03;3;  7.1787958E+00;  0.0000000E+00;  3.9327865E+00;0;  8.8168584E-02;  2.3127914E+04;  0.0000000E+00;  2.9284433E-01;  4.0000000E+04;  0.0000000E+00;  3.9841566E+04;  1.3099886E-01;  0.0000000E+00; -4.2830281E-02;  3.6946931E+03;
  7.6036686E-01;  9.9999998E-03;  1.6040030E-01;7006; -2.0363957E-01;  0.0000000E+00; -9.2567569E-03;  9.9099640E+02;  1.3066614E-01; -7.4591748E+03;3;  6.2159195E+00;  0.0000000E+00;  4.1522889E+00;0;  1.0739791E-01;  2.3109441E+04;  0.0000000E+00;  2.7727354E-01;  4.0000000E+04;  0.0000000E+00;  3.9841520E+04;  1.4564636E-01;  0.0000000E+00; -3.8248450E-02;  3.7069094E+03;
  7.6044637E-01;  9.9999998E-03;  1.7040358E-01;7007; -2.0356002E-01;  0.0000000E+00; -9.7186621E-03;  9.9078894E+02;  1.3071340E-01; -7.6310674E+03;3;  5.2123618E+00;  0.0000000E+00;  4.3431902E+00;0;  1.2780797E-01;  2.3084018E+04;  0.0000000E+00;  2.8111771E-01;  4.0000000E+04;  0.0000000E+00;  3.9842152E+04;  1.6122065E-01;  0.0000000E+00; -3.3412684E-02;  3.8291375E+03;
  7.6056051E-01;  9.9999998E-03;  1.8040362E-01;7008; -2.0354928E-01;  0.0000000E+00; -1.0172199E-02;  9.9059216E+02;  1.3076892E-01; -7.7940723E+03;3;  4.1833758E+00;  0.0000000E+00;  4.5282431E+00;0;  1.4862402E-01;  2.3055348E+04;  0.0000000E+00;  2.9499236E-01;  4.0000000E+04;  0.0000000E+00;  3.9843621E+04;  1.7694756E-01;  0.0000000E+00; -2.8323544E-02;  4.0544736E+03;
  7.6068807E-01;  9.9999998E-03;  1.9040345E-01;7009; -2.0360070E-01;  0.0000000E+00; -1.0619869E-02;  9.9041266E+02;  1.3082686E-01; -7.9428066E+03;3;  3.1422269E+00;  0.0000000E+00;  4.7005463E+00;0;  1.6926223E-01;  2.3025541E+04;  0.0000000E+00;  3.0229521E-01;  4.0000000E+04;  0.0000000E+00;  3.9845848E+04;  1.9229335E-01;  0.0000000E+00; -2.3031117E-02;  4.3870693E+03;
  7.6080328E-01;  9.9999998E-03;  2.0040093E-01;7010; -2.0370628E-01;  0.0000000E+00; -1.1066048E-02;  9.9025861E+02;  1.3088137E-01; -8.0704053E+03;3;  2.1039855E+00;  0.0000000E+00;  4.8381886E+00;0;  1.8894923E-01;  2.2997293E+04;  0.0000000E+00;  2.8430378E-01;  4.0000000E+04;  0.0000000E+00;  3.9849297E+04;  2.0658681E-01;  0.0000000E+00; -1.7637582E-02;  4.8670586E+03;
  7.6089054E-01;  9.9999998E-03;  2.1040267E-01;7011; -2.0385729E-01;  0.0000000E+00; -1.1515037E-02;  9.9014154E+02;  1.3092782E-01; -8.1674380E+03;3;  1.0640081E+00;  0.0000000E+00;  4.9654188E+00;0;  2.0697618E-01;  2.2972270E+04;  0.0000000E+00;  2.2643070E-01;  4.0000000E+04;  0.0000000E+00;  3.9854051E+04;  2.1930838E-01;  0.0000000E+00; -1.2332194E-02;  5.5110684E+03;
  7.6094949E-01;  9.9999998E-03;  2.2041050E-01;7012; -2.0404483E-01;  0.0000000E+00; -1.1959820E-02;  9.9006274E+02;  1.3096708E-01; -8.2326689E+03;3;  3.4383763E-02;  0.0000000E+00;  5.0917087E+00;0;  2.2277272E-01;  2.2950900E+04;  0.0000000E+00;  1.2558356E-01;  4.0000000E+04;  0.0000000E+00;  3.9859820E+04;  2.3020649E-01;  0.0000000E+00; -7.4337777E-03;  6.2936328E+03;
  7.6097047E-01;  9.9999998E-03;  2.3041946E-01;7013; -2.0425041E-01;  0.0000000E+00; -1.2381803E-02;  9.9002368E+02;  1.3099538E-01; -8.2650635E+03;3; -9.7495288E-01;  0.0000000E+00;  5.1999860E+00;0;  2.3552755E-01;  2.2934016E+04;  0.0000000E+00;  2.5263804E-04;  4.0000000E+04;  0.0000000E+00;  3.9867148E+04;  2.3894368E-01;  0.0000000E+00; -3.4161371E-03;  7.2600254E+03;
  7.7527815E-01;  9.9999998E-03;  7.0052251E-02;7058; -2.0859170E-01;  0.0000000E+00; -5.3599994E-03;  9.9685712E+02;  1.3503462E-01; -2.6037749E+03;3;  1.3761539E+01;  0.0000000E+00;  2.6269739E+00;0;  1.3597170E-01;  2.1874371E+04;  0.0000000E+00;  1.6756450E-01;  4.0000000E+04;  0.0000000E+00;  3.9827672E+04;  2.2984676E-01;  0.0000000E+00; -9.3875058E-02;  4.3711973E+03;
  7.7516001E-01;  9.9999998E-03;  8.0066219E-02;7059; -2.0812179E-01;  0.0000000E+00; -5.9836493E-03;  9.9657648E+02;  1.3502334E-01; -2.8362576E+03;3;  1.3141639E+01;  0.0000000E+00;  2.9705865E+00;0;  1.5158045E-01;  2.1869537E+04;  0.0000000E+00;  2.0348349E-01;  4.0000000E+04;  0.0000000E+00;  3.9828148E+04;  2.4124819E-01;  0.0000000E+00; -8.9667730E-02;  4.4645420E+03;
  7.7500981E-01;  9.9999998E-03;  9.0085328E-02;7060; -2.0765111E-01;  0.0000000E+00; -6.5723024E-03;  9.9623669E+02;  1.3500555E-01; -3.1177747E+03;3;  1.2437198E+01;  0.0000000E+00;  3.3157480E+00;0;  1.6865221E-01;  2.1865162E+04;  0.0000000E+00;  2.2581652E-01;  4.0000000E+04;  0.0000000E+00;  3.9827426E+04;  2.5377828E-01;  0.0000000E+00; -8.5126072E-02;  4.3928838E+03;
  7.7482820E-01;  9.9999998E-03;  1.0010969E-01;7061; -2.0719948E-01;  0.0000000E+00; -7.1278419E-03;  9.9585309E+02;  1.3498254E-01; -3.4355867E+03;3;  1.1658377E+01;  0.0000000E+00;  3.6526246E+00;0;  1.8699917E-01;  2.1861445E+04;  0.0000000E+00;  2.2667113E-01;  4.0000000E+04;  0.0000000E+00;  3.9825453E+04;  2.6731235E-01;  0.0000000E+00; -8.0313168E-02;  4.1493833E+03;
  7.7462828E-01;  9.9999998E-03;  1.1014221E-01;7062; -2.0677730E-01;  0.0000000E+00; -7.6567610E-03;  9.9543616E+02;  1.3495699E-01; -3.7810024E+03;3;  1.0846290E+01;  0.0000000E+00;  3.9675777E+00;0;  2.0660064E-01;  2.1857887E+04;  0.0000000E+00;  2.0222101E-01;  4.0000000E+04;  0.0000000E+00;  3.9822262E+04;  2.8189459E-01;  0.0000000E+00; -7.5293966E-02;  3.7626421E+03;
  7.7443719E-01;  9.9999998E-03;  1.2017854E-01;7063; -2.0639542E-01;  0.0000000E+00; -8.1619136E-03;  9.9501752E+02;  1.3493460E-01; -4.1278003E+03;3;  9.9612770E+00;  0.0000000E+00;  4.2727222E+00;0;  2.2764432E-01;  2.1852934E+04;  0.0000000E+00;  1.5541796E-01;  4.0000000E+04;  0.0000000E+00;  3.9818594E+04;  2.9776764E-01;  0.0000000E+00; -7.0123315E-02;  3.2941411E+03;
  7.7430910E-01;  9.9999998E-03;  1.3021398E-01;7064; -2.0606783E-01;  0.0000000E+00; -8.6496761E-03;  9.9462341E+02;  1.3492905E-01; -4.4543037E+03;3;  9.0336866E+00;  0.0000000E+00;  4.5668254E+00;0;  2.5080165E-01;  2.1843424E+04;  0.0000000E+00;  9.6475452E-02;  4.0000000E+04;  0.0000000E+00;  3.9814859E+04;  3.1563473E-01;  0.0000000E+00; -6.4833075E-02;  2.8211309E+03;
  7.7430075E-01;  9.9999998E-03;  1.4024715E-01;7065; -2.0580898E-01;  0.0000000E+00; -9.1254991E-03;  9.9430304E+02;  1.3495569E-01; -4.7197231E+03;3;  8.0734301E+00;  0.0000000E+00;  4.8440590E+00;0;  2.7690849E-01;  2.1825883E+04;  0.0000000E+00;  4.0477566E-02;  4.0000000E+04;  0.0000000E+00;  3.9811445E+04;  3.3628696E-01;  0.0000000E+00; -5.9378468E-02;  2.4178567E+03;
  7.7432352E-01;  9.9999998E-03;  1.5027815E-01;7066; -2.0562594E-01;  0.0000000E+00; -9.5850565E-03;  9.9400854E+02;  1.3498800E-01; -4.9637114E+03;3;  7.0850630E+00;  0.0000000E+00;  5.1361809E+00;0;  3.0431861E-01;  2.1806252E+04;  0.0000000E+00;  3.6921520E-03;  4.0000000E+04;  0.0000000E+00;  3.9809008E+04;  3.5784879E-01;  0.0000000E+00; -5.3530186E-02;  2.1544854E+03;
  7.7435380E-01;  9.9999998E-03;  1.6030642E-01;7067; -2.0552789E-01;  0.0000000E+00; -1.0033288E-02;  9.9373315E+02;  1.3501954E-01; -5.1918486E+03;3;  6.0921507E+00;  0.0000000E+00;  5.4091768E+00;0;  3.3233738E-01;  2.1786195E+04;  0.0000000E+00; -5.7763164E-03;  4.0000000E+04;  0.0000000E+00;  3.9807996E+04;  3.7952951E-01;  0.0000000E+00; -4.7192141E-02;  2.0690984E+03;
  7.7439117E-01;  9.9999998E-03;  1.7033412E-01;7068; -2.0552009E-01;  0.0000000E+00; -1.0469360E-02;  9.9348407E+02;  1.3505131E-01; -5.3982080E+03;3;  5.0507002E+00;  0.0000000E+00;  5.6386142E+00;0;  3.6061200E-01;  2.1765744E+04;  0.0000000E+00;  9.6928701E-03;  4.0000000E+04;  0.0000000E+00;  3.9808145E+04;  4.0096074E-01;  0.0000000E+00; -4.0348731E-02;  2.1705439E+03;
  7.7449208E-01;  9.9999998E-03;  1.8035506E-01;7069; -2.0559672E-01;  0.0000000E+00; -1.0888354E-02;  9.9330170E+02;  1.3509877E-01; -5.5493120E+03;3;  3.9904015E+00;  0.0000000E+00;  5.8492527E+00;0;  3.8984659E-01;  2.1741504E+04;  0.0000000E+00;  3.7113059E-02;  4.0000000E+04;  0.0000000E+00;  3.9810016E+04;  4.2288184E-01;  0.0000000E+00; -3.3035237E-02;  2.4603491E+03;
  7.7462560E-01;  9.9999998E-03;  1.9037622E-01;7070; -2.0575538E-01;  0.0000000E+00; -1.1291274E-02;  9.9317743E+02;  1.3515364E-01; -5.6522700E+03;3;  2.9155793E+00;  0.0000000E+00;  6.0278530E+00;0;  4.1912314E-01;  2.1715725E+04;  0.0000000E+00;  5.6961153E-02;  4.0000000E+04;  0.0000000E+00;  3.9813617E+04;  4.4435340E-01;  0.0000000E+00; -2.5230253E-02;  2.9596555E+03;
  7.7476364E-01;  9.9999998E-03;  2.0040004E-01;7071; -2.0598969E-01;  0.0000000E+00; -1.1674995E-02;  9.9310455E+02;  1.3520896E-01; -5.7126123E+03;3;  1.8312995E+00;  0.0000000E+00;  6.1892996E+00;0;  4.4750920E-01;  2.1690523E+04;  0.0000000E+00;  4.8599180E-02;  4.0000000E+04;  0.0000000E+00;  3.9818918E+04;  4.6445706E-01;  0.0000000E+00; -1.6947865E-02;  3.6796965E+03;
  7.7489662E-01;  9.9999998E-03;  2.1043730E-01;7072; -2.0629378E-01;  0.0000000E+00; -1.2035876E-02;  9.9307422E+02;  1.3526216E-01; -5.7377471E+03;3;  7.4770433E-01;  0.0000000E+00;  6.3318453E+00;0;  4.7446051E-01;  2.1666746E+04;  0.0000000E+00; -7.7180046E-04;  4.0000000E+04;  0.0000000E+00;  3.9824965E+04;  4.8269808E-01;  0.0000000E+00; -8.2375789E-03;  4.4894458E+03;
  7.7501988E-01;  9.9999998E-03;  2.2048472E-01;7073; -2.0666675E-01;  0.0000000E+00; -1.2372715E-02;  9.9304901E+02;  1.3531382E-01; -5.7586343E+03;3; -3.4032845E-01;  0.0000000E+00;  6.4598999E+00;0;  4.9952540E-01;  2.1644543E+04;  0.0000000E+00; -8.6969323E-02;  4.0000000E+04;  0.0000000E+00;  3.9829723E+04;  4.9875692E-01;  0.0000000E+00;  7.6849305E-04;  5.1440889E+03;
  7.7507943E-01;  9.9999998E-03;  2.3053321E-01;7074; -2.0707400E-01;  0.0000000E+00; -1.2724902E-02;  9.9297406E+02;  1.3534781E-01; -5.8207549E+03;3; -1.4016113E+00;  0.0000000E+00;  6.5540528E+00;0;  5.2098984E-01;  2.1627295E+04;  0.0000000E+00; -1.7376685E-01;  4.0000000E+04;  0.0000000E+00;  3.9831328E+04;  5.1137245E-01;  0.0000000E+00;  9.6174078E-03;  5.3900596E+03;
  7.8903264E-01;  9.9999998E-03;  7.0035338E-02;7119; -2.0937221E-01;  0.0000000E+00; -6.1296886E-03;  1.0012357E+03;  1.3924560E-01;  1.0237479E+03;3;  1.3971447E+01;  0.0000000E+00;  3.2801480E+00;0;  3.6716822E-01;  2.0758814E+04;  0.0000000E+00; -1.5205608E-02;  4.0000000E+04;  0.0000000E+00;  3.9802672E+04;  4.8801851E-01;  0.0000000E+00; -1.2085030E-01;  3.4753494E+03;
  7.8898996E-01;  9.9999998E-03;  8.0016926E-02;7120; -2.0893578E-01;  0.0000000E+00; -6.8208445E-03;  1.0009268E+03;  1.3925320E-01;  7.6776172E+02;3;  1.3312304E+01;  0.0000000E+00;  3.7288716E+00;0;  3.8892615E-01;  2.0747889E+04;  0.0000000E+00; -2.0190580E-02;  4.0000000E+04;  0.0000000E+00;  3.9804172E+04;  5.0465459E-01;  0.0000000E+00; -1.1572842E-01;  3.6830374E+03;
  7.8903151E-01;  9.9999998E-03;  9.0005726E-02;7121; -2.0850675E-01;  0.0000000E+00; -7.4687707E-03;  1.0006155E+03;  1.3928621E-01;  5.0989877E+02;3;  1.2586241E+01;  0.0000000E+00;  4.1642118E+00;0;  4.1478866E-01;  2.0730500E+04;  0.0000000E+00; -3.4745689E-02;  4.0000000E+04;  0.0000000E+00;  3.9803914E+04;  5.2510887E-01;  0.0000000E+00; -1.1032023E-01;  3.6832097E+03;
  7.8907317E-01;  9.9999998E-03;  1.0001101E-01;7122; -2.0810378E-01;  0.0000000E+00; -8.0719953E-03;  1.0002690E+03;  1.3932313E-01;  2.2280295E+02;3;  1.1772914E+01;  0.0000000E+00;  4.6123681E+00;0;  4.4291484E-01;  2.0711689E+04;  0.0000000E+00; -6.1955247E-02;  4.0000000E+04;  0.0000000E+00;  3.9801730E+04;  5.4739219E-01;  0.0000000E+00; -1.0447735E-01;  3.4559387E+03;
  7.8907001E-01;  9.9999998E-03;  1.1003619E-01;7123; -2.0773956E-01;  0.0000000E+00; -8.6276401E-03;  9.9987000E+02;  1.3935000E-01; -1.0769797E+02;3;  1.0904218E+01;  0.0000000E+00;  5.0189586E+00;0;  4.7212306E-01;  2.0694488E+04;  0.0000000E+00; -1.0246479E-01;  4.0000000E+04;  0.0000000E+00;  3.9798008E+04;  5.7026827E-01;  0.0000000E+00; -9.8145224E-02;  3.0310413E+03;
  7.8903896E-01;  9.9999998E-03;  1.2007710E-01;7124; -2.0741880E-01;  0.0000000E+00; -9.1402559E-03;  9.9945660E+02;  1.3936938E-01; -4.5019824E+02;3;  9.9856491E+00;  0.0000000E+00;  5.4147487E+00;0;  5.0245237E-01;  2.0678998E+04;  0.0000000E+00; -1.5311231E-01;  4.0000000E+04;  0.0000000E+00;  3.9793324E+04;  5.9381849E-01;  0.0000000E+00; -9.1366135E-02;  2.4873027E+03;
  7.8900146E-01;  9.9999998E-03;  1.3012381E-01;7125; -2.0715792E-01;  0.0000000E+00; -9.6059693E-03;  9.9905695E+02;  1.3938460E-01; -7.8129175E+02;3;  9.0134993E+00;  0.0000000E+00;  5.7818651E+00;0;  5.3406245E-01;  2.0664809E+04;  0.0000000E+00; -2.0553967E-01;  4.0000000E+04;  0.0000000E+00;  3.9788277E+04;  6.1818051E-01;  0.0000000E+00; -8.4118061E-02;  1.9341886E+03;
  7.8897393E-01;  9.9999998E-03;  1.4017233E-01;7126; -2.0696475E-01;  0.0000000E+00; -1.0032018E-02;  9.9869843E+02;  1.3939886E-01; -1.0783131E+03;3;  7.9891338E+00;  0.0000000E+00;  6.1451049E+00;0;  5.6705821E-01;  2.0651270E+04;  0.0000000E+00; -2.4827357E-01;  4.0000000E+04;  0.0000000E+00;  3.9783480E+04;  6.4335227E-01;  0.0000000E+00; -7.6294094E-02;  1.4892007E+03;
  7.8895926E-01;  9.9999998E-03;  1.5021761E-01;7127; -2.0684415E-01;  0.0000000E+00; -1.0420235E-02;  9.9838776E+02;  1.3941394E-01; -1.3356821E+03;3;  6.9281964E+00;  0.0000000E+00;  6.4844871E+00;0;  6.0122961E-01;  2.0638174E+04;  0.0000000E+00; -2.7079356E-01;  4.0000000E+04;  0.0000000E+00;  3.9779895E+04;  6.6898096E-01;  0.0000000E+00; -6.7751348E-02;  1.2417355E+03;
  7.8896058E-01;  9.9999998E-03;  1.6025850E-01;7128; -2.0680811E-01;  0.0000000E+00; -1.0779893E-02;  9.9813879E+02;  1.3943009E-01; -1.5419427E+03;3;  5.9028959E+00;  0.0000000E+00;  6.8070183E+00;0;  6.3630599E-01;  2.0625131E+04;  0.0000000E+00; -2.6762095E-01;  4.0000000E+04;  0.0000000E+00;  3.9777777E+04;  6.9471163E-01;  0.0000000E+00; -5.8405627E-02;  1.1865790E+03;
  7.8898889E-01;  9.9999998E-03;  1.7030372E-01;7129; -2.0689097E-01;  0.0000000E+00; -1.1130244E-02;  9.9796100E+02;  1.3945043E-01; -1.6892437E+03;3;  4.8555050E+00;  0.0000000E+00;  7.1031394E+00;0;  6.7215967E-01;  2.0611531E+04;  0.0000000E+00; -2.4145880E-01;  4.0000000E+04;  0.0000000E+00;  3.9777598E+04;  7.2038054E-01;  0.0000000E+00; -4.8220892E-02;  1.2532791E+03;
  7.8905922E-01;  9.9999998E-03;  1.8035488E-01;7130; -2.0706803E-01;  0.0000000E+00; -1.1449236E-02;  9.9786786E+02;  1.3948053E-01; -1.7663751E+03;3;  3.7666953E+00;  0.0000000E+00;  7.3487659E+00;0;  7.0870638E-01;  2.0596596E+04;  0.0000000E+00; -2.0399170E-01;  4.0000000E+04;  0.0000000E+00;  3.9779605E+04;  7.4586821E-01;  0.0000000E+00; -3.7161857E-02;  1.4480096E+03;
  7.8919214E-01;  9.9999998E-03;  1.9040707E-01;7131; -2.0733587E-01;  0.0000000E+00; -1.1729477E-02;  9.9787061E+02;  1.3952468E-01; -1.7641036E+03;3;  2.6596622E+00;  0.0000000E+00;  7.5583663E+00;0;  7.4604422E-01;  2.0579182E+04;  0.0000000E+00; -1.7323197E-01;  4.0000000E+04;  0.0000000E+00;  3.9783605E+04;  7.7119523E-01;  0.0000000E+00; -2.5151042E-02;  1.8535586E+03;
  7.8937626E-01;  9.9999998E-03;  2.0045912E-01;7132; -2.0768957E-01;  0.0000000E+00; -1.1962617E-02;  9.9795795E+02;  1.3958286E-01; -1.6917616E+03;3;  1.5455024E+00;  0.0000000E+00;  7.7360373E+00;0;  7.8365028E-01;  2.0559758E+04;  0.0000000E+00; -1.6772142E-01;  4.0000000E+04;  0.0000000E+00;  3.9789066E+04;  7.9568708E-01;  0.0000000E+00; -1.2036813E-02;  2.4936113E+03;
  7.8959519E-01;  9.9999998E-03;  2.1052565E-01;7133; -2.0813455E-01;  0.0000000E+00; -1.2136427E-02;  9.9808997E+02;  1.3964921E-01; -1.5823846E+03;3;  4.0724123E-01;  0.0000000E+00;  7.8835902E+00;0;  8.2109326E-01;  2.0539018E+04;  0.0000000E+00; -2.0037995E-01;  4.0000000E+04;  0.0000000E+00;  3.9794121E+04;  8.1868881E-01;  0.0000000E+00;  2.4044535E-03;  3.1353896E+03;
  7.8980744E-01;  9.9999998E-03;  2.2060768E-01;7134; -2.0866029E-01;  0.0000000E+00; -1.2268154E-02;  9.9817657E+02;  1.3971573E-01; -1.5106353E+03;3; -7.0277166E-01;  0.0000000E+00;  7.9881587E+00;0;  8.5738391E-01;  2.0519047E+04;  0.0000000E+00; -2.7187371E-01;  4.0000000E+04;  0.0000000E+00;  3.9794645E+04;  8.3905256E-01;  0.0000000E+00;  1.8331360E-02;  3.2673630E+03;
  7.8995132E-01;  9.9999998E-03;  2.3068868E-01;7135; -2.0923907E-01;  0.0000000E+00; -1.2465900E-02;  9.9812427E+02;  1.3976556E-01; -1.5539910E+03;3; -1.7843925E+00;  0.0000000E+00;  8.0228767E+00;0;  8.9065850E-01;  2.0502621E+04;  0.0000000E+00; -3.6020306E-01;  4.0000000E+04;  0.0000000E+00;  3.9786992E+04;  8.5527468E-01;  0.0000000E+00;  3.5383843E-02;  2.4511929E+03;
  8.0334175E-01;  9.9999998E-03;  7.0150360E-02;7180; -2.0901962E-01;  0.0000000E+00; -7.2639277E-03;  1.0042650E+03;  1.4322926E-01;  3.5333220E+03;3;  1.4330494E+01;  0.0000000E+00;  4.0168638E+00;0;  6.9031602E-01;  1.9751314E+04;  0.0000000E+00; -2.0152108E-01;  4.0000000E+04;  0.0000000E+00;  3.9776219E+04;  8.4753919E-01;  0.0000000E+00; -1.5722318E-01;  2.3883865E+03;
  8.0334711E-01;  9.9999998E-03;  8.0126680E-02;7181; -2.0861560E-01;  0.0000000E+00; -8.0109937E-03;  1.0040421E+03;  1.4325775E-01;  3.3487402E+03;3;  1.3614979E+01;  0.0000000E+00;  4.5481200E+00;0;  7.1665752E-01;  1.9738193E+04;  0.0000000E+00; -2.4399258E-01;  4.0000000E+04;  0.0000000E+00;  3.9778824E+04;  8.6749971E-01;  0.0000000E+00; -1.5084219E-01;  2.7755120E+03;
  8.0336142E-01;  9.9999998E-03;  9.0102665E-02;7182; -2.0823407E-01;  0.0000000E+00; -8.7045813E-03;  1.0037836E+03;  1.4328738E-01;  3.1345308E+03;3;  1.2768185E+01;  0.0000000E+00;  5.0072927E+00;0;  7.4556929E-01;  1.9724174E+04;  0.0000000E+00; -2.8626162E-01;  4.0000000E+04;  0.0000000E+00;  3.9780070E+04;  8.8934344E-01;  0.0000000E+00; -1.4377414E-01;  2.9688813E+03;
  8.0338085E-01;  9.9999998E-03;  1.0009445E-01;7183; -2.0789984E-01;  0.0000000E+00; -9.3564894E-03;  1.0034982E+03;  1.4331752E-01;  2.8981001E+03;3;  1.1919974E+01;  0.0000000E+00;  5.5508256E+00;0;  7.7667272E-01;  1.9710014E+04;  0.0000000E+00; -3.2895523E-01;  4.0000000E+04;  0.0000000E+00;  3.9779246E+04;  9.1270357E-01;  0.0000000E+00; -1.3603087E-01;  2.9138174E+03;
  8.0341035E-01;  9.9999998E-03;  1.1011216E-01;7184; -2.0762117E-01;  0.0000000E+00; -9.9376533E-03;  1.0032056E+03;  1.4334729E-01;  2.6556455E+03;3;  1.0980337E+01;  0.0000000E+00;  6.0634022E+00;0;  8.0983210E-01;  1.9696270E+04;  0.0000000E+00; -3.7226734E-01;  4.0000000E+04;  0.0000000E+00;  3.9776082E+04;  9.3745786E-01;  0.0000000E+00; -1.2762579E-01;  2.6254082E+03;
  8.0342925E-01;  9.9999998E-03;  1.2015507E-01;7185; -2.0740424E-01;  0.0000000E+00; -1.0453830E-02;  1.0029150E+03;  1.4337181E-01;  2.4149683E+03;3;  1.0007676E+01;  0.0000000E+00;  6.5459971E+00;0;  8.4425390E-01;  1.9684465E+04;  0.0000000E+00; -4.1438895E-01;  4.0000000E+04;  0.0000000E+00;  3.9771625E+04;  9.6271741E-01;  0.0000000E+00; -1.1846351E-01;  2.1925361E+03;
  8.0341554E-01;  9.9999998E-03;  1.3020909E-01;7186; -2.0725279E-01;  0.0000000E+00; -1.0894880E-02;  1.0026398E+03;  1.4338453E-01;  2.1869324E+03;3;  8.9830809E+00;  0.0000000E+00;  6.9989161E+00;0;  8.7915909E-01;  1.9675818E+04;  0.0000000E+00; -4.5145333E-01;  4.0000000E+04;  0.0000000E+00;  3.9766438E+04;  9.8754078E-01;  0.0000000E+00; -1.0838167E-01;  1.7581625E+03;
  8.0338037E-01;  9.9999998E-03;  1.4025693E-01;7187; -2.0717327E-01;  0.0000000E+00; -1.1252243E-02;  1.0024061E+03;  1.4338991E-01;  1.9933636E+03;3;  7.8988185E+00;  0.0000000E+00;  7.4211631E+00;0;  9.1465151E-01;  1.9669787E+04;  0.0000000E+00; -4.7855043E-01;  4.0000000E+04;  0.0000000E+00;  3.9761621E+04;  1.0118948E+00;  0.0000000E+00; -9.7243324E-02;  1.4718372E+03;
  8.0335504E-01;  9.9999998E-03;  1.5030698E-01;7188; -2.0716311E-01;  0.0000000E+00; -1.1527303E-02;  1.0022350E+03;  1.4339484E-01;  1.8516436E+03;3;  6.7799373E+00;  0.0000000E+00;  7.8175588E+00;0;  9.5141017E-01;  1.9664605E+04;  0.0000000E+00; -4.9148402E-01;  4.0000000E+04;  0.0000000E+00;  3.9757637E+04;  1.0363325E+00;  0.0000000E+00; -8.4922321E-02;  1.3974644E+03;
  8.0337393E-01;  9.9999998E-03;  1.6036633E-01;7189; -2.0722412E-01;  0.0000000E+00; -1.1727447E-02;  1.0021492E+03;  1.4340642E-01;  1.7805366E+03;3;  5.6616077E+00;  0.0000000E+00;  8.1802416E+00;0;  9.9007297E-01;  1.9658957E+04;  0.0000000E+00; -4.8798653E-01;  4.0000000E+04;  0.0000000E+00;  3.9755008E+04;  1.0614197E+00;  0.0000000E+00; -7.1346730E-02;  1.4401605E+03;
  8.0346692E-01;  9.9999998E-03;  1.7043456E-01;7190; -2.0737311E-01;  0.0000000E+00; -1.1880145E-02;  1.0021740E+03;  1.4343259E-01;  1.8009797E+03;3;  4.5761752E+00;  0.0000000E+00;  8.5918941E+00;0;  1.0310073E+00;  1.9651053E+04;  0.0000000E+00; -4.6965811E-01;  4.0000000E+04;  0.0000000E+00;  3.9754430E+04;  1.0874619E+00;  0.0000000E+00; -5.6454714E-02;  1.4668300E+03;
  8.0365133E-01;  9.9999998E-03;  1.8051021E-01;7191; -2.0765463E-01;  0.0000000E+00; -1.2035944E-02;  1.0023043E+03;  1.4347771E-01;  1.9090227E+03;3;  3.4913521E+00;  0.0000000E+00;  8.9293633E+00;0;  1.0742533E+00;  1.9640305E+04;  0.0000000E+00; -4.4301984E-01;  4.0000000E+04;  0.0000000E+00;  3.9755535E+04;  1.1143621E+00;  0.0000000E+00; -4.0108822E-02;  1.4533510E+03;
  8.0392611E-01;  9.9999998E-03;  1.9059183E-01;7192; -2.0803127E-01;  0.0000000E+00; -1.2136031E-02;  1.0025325E+03;  1.4354120E-01;  2.0980481E+03;3;  2.3489873E+00;  0.0000000E+00;  9.1967535E+00;0;  1.1195081E+00;  1.9626703E+04;  0.0000000E+00; -4.1752061E-01;  4.0000000E+04;  0.0000000E+00;  3.9757598E+04;  1.1415535E+00;  0.0000000E+00; -2.2045394E-02;  1.4616686E+03;
  8.0426526E-01;  9.9999998E-03;  2.0067157E-01;7193; -2.0848927E-01;  0.0000000E+00; -1.2156792E-02;  1.0028161E+03;  1.4361696E-01;  2.3329968E+03;3;  1.2013264E+00;  0.0000000E+00;  9.4230347E+00;0;  1.1660525E+00;  1.9611396E+04;  0.0000000E+00; -4.0132898E-01;  4.0000000E+04;  0.0000000E+00;  3.9759090E+04;  1.1679331E+00;  0.0000000E+00; -1.8806008E-03;  1.4916823E+03;
  8.0463040E-01;  9.9999998E-03;  2.1075785E-01;7194; -2.0902902E-01;  0.0000000E+00; -1.2106247E-02;  1.0030877E+03;  1.4369901E-01;  2.5580693E+03;3;  7.1513586E-02;  0.0000000E+00;  9.5946484E+00;0;  1.2132123E+00;  1.9595480E+04;  0.0000000E+00; -3.9964721E-01;  4.0000000E+04;  0.0000000E+00;  3.9756984E+04;  1.1923249E+00;  0.0000000E+00;  2.0887347E-02;  1.3759541E+03;
  8.0495185E-01;  9.9999998E-03;  2.2084253E-01;7195; -2.0963942E-01;  0.0000000E+00; -1.2035343E-02;  1.0032424E+03;  1.4377224E-01;  2.6861602E+03;3; -1.0514123E+00;  0.0000000E+00;  9.6883926E+00;0;  1.2596090E+00;  1.9580955E+04;  0.0000000E+00; -4.1670656E-01;  4.0000000E+04;  0.0000000E+00;  3.9747863E+04;  1.2130121E+00;  0.0000000E+00;  4.6596922E-02;  1.4788031E+03;
  8.0517131E-01;  9.9999998E-03;  2.3090591E-01;7196; -2.1029685E-01;  0.0000000E+00; -1.2107172E-02;  1.0032162E+03;  1.4382675E-01;  2.6645315E+03;3; -2.1455402E+00;  0.0000000E+00;  9.6623545E+00;0;  1.3036549E+00;  1.9569158E+04;  0.0000000E+00; -4.5301101E-01;  4.0000000E+04;  0.0000000E+00;  3.9730508E+04;  1.2288307E+00;  0.0000000E+00;  7.4824259E-02;  3.1090837E+03;
  8.1772864E-01;  9.9999998E-03;  7.0375144E-02;7241; -2.0722260E-01;  0.0000000E+00; -9.1949329E-03;  1.0040745E+03;  1.4651106E-01;  3.3755776E+03;3;  1.5223652E+01;  0.0000000E+00;  4.3917952E+00;0;  1.1028068E+00;  1.8889107E+04;  0.0000000E+00; -3.5930696E-01;  4.0000000E+04;  0.0000000E+00;  3.9750578E+04;  1.3050100E+00;  0.0000000E+00; -2.0220320E-01;  1.5007627E+03;
  8.1771034E-01;  9.9999998E-03;  8.0350615E-02;7242; -2.0691851E-01;  0.0000000E+00; -1.0117254E-02;  1.0040026E+03;  1.4652050E-01;  3.3159272E+03;3;  1.4426797E+01;  0.0000000E+00;  4.9444799E+00;0;  1.1272612E+00;  1.8885234E+04;  0.0000000E+00; -4.2732841E-01;  4.0000000E+04;  0.0000000E+00;  3.9754660E+04;  1.3212762E+00;  0.0000000E+00; -1.9401506E-01;  2.0263834E+03;
  8.1771040E-01;  9.9999998E-03;  9.0319380E-02;7243; -2.0658588E-01;  0.0000000E+00; -1.0920622E-02;  1.0039197E+03;  1.4653395E-01;  3.2472898E+03;3;  1.3688493E+01;  0.0000000E+00;  5.4317331E+00;0;  1.1537156E+00;  1.8880338E+04;  0.0000000E+00; -4.8620084E-01;  4.0000000E+04;  0.0000000E+00;  3.9757637E+04;  1.3385696E+00;  0.0000000E+00; -1.8485405E-01;  2.4270715E+03;
  8.1773943E-01;  9.9999998E-03;  1.0028327E-01;7244; -2.0623672E-01;  0.0000000E+00; -1.1584557E-02;  1.0038273E+03;  1.4655373E-01;  3.1707517E+03;3;  1.2832103E+01;  0.0000000E+00;  5.9946318E+00;0;  1.1820796E+00;  1.8874326E+04;  0.0000000E+00; -5.3453809E-01;  4.0000000E+04;  0.0000000E+00;  3.9758715E+04;  1.3568406E+00;  0.0000000E+00; -1.7476103E-01;  2.6171160E+03;
  8.1771070E-01;  9.9999998E-03;  1.1026520E-01;7245; -2.0592104E-01;  0.0000000E+00; -1.2150558E-02;  1.0037251E+03;  1.4656952E-01;  3.0860166E+03;3;  1.1877512E+01;  0.0000000E+00;  6.1766763E+00;0;  1.2095079E+00;  1.8869719E+04;  0.0000000E+00; -5.7279521E-01;  4.0000000E+04;  0.0000000E+00;  3.9757648E+04;  1.3729596E+00;  0.0000000E+00; -1.6345173E-01;  2.5742883E+03;
  8.1763959E-01;  9.9999998E-03;  1.2028461E-01;7246; -2.0575853E-01;  0.0000000E+00; -1.2783416E-02;  1.0036260E+03;  1.4657953E-01;  3.0039482E+03;3;  1.0884892E+01;  0.0000000E+00;  6.6011014E+00;0;  1.2364882E+00;  1.8867041E+04;  0.0000000E+00; -6.0136980E-01;  4.0000000E+04;  0.0000000E+00;  3.9754836E+04;  1.3873744E+00;  0.0000000E+00; -1.5088622E-01;  2.3480662E+03;
  8.1758046E-01;  9.9999998E-03;  1.3032910E-01;7247; -2.0568258E-01;  0.0000000E+00; -1.3328887E-02;  1.0035654E+03;  1.4658682E-01;  2.9536799E+03;3;  9.7939463E+00;  0.0000000E+00;  7.1339288E+00;0;  1.2646893E+00;  1.8866262E+04;  0.0000000E+00; -6.2052327E-01;  4.0000000E+04;  0.0000000E+00;  3.9750938E+04;  1.4017072E+00;  0.0000000E+00; -1.3701788E-01;  2.0482378E+03;
  8.1751978E-01;  9.9999998E-03;  1.4038788E-01;7248; -2.0570417E-01;  0.0000000E+00; -1.3763804E-02;  1.0035582E+03;  1.4658707E-01;  2.9478533E+03;3;  8.5884523E+00;  0.0000000E+00;  7.6309342E+00;0;  1.2938379E+00;  1.8868352E+04;  0.0000000E+00; -6.3187206E-01;  4.0000000E+04;  0.0000000E+00;  3.9746957E+04;  1.4154150E+00;  0.0000000E+00; -1.2157720E-01;  1.7973137E+03;
  8.1750369E-01;  9.9999998E-03;  1.5045984E-01;7249; -2.0580626E-01;  0.0000000E+00; -1.4083852E-02;  1.0036290E+03;  1.4658810E-01;  3.0064177E+03;3;  7.3286915E+00;  0.0000000E+00;  8.1314697E+00;0;  1.3252965E+00;  1.8871529E+04;  0.0000000E+00; -6.3732672E-01;  4.0000000E+04;  0.0000000E+00;  3.9743441E+04;  1.4297277E+00;  0.0000000E+00; -1.0443116E-01;  1.6647802E+03;
  8.1759799E-01;  9.9999998E-03;  1.6054454E-01;7250; -2.0599343E-01;  0.0000000E+00; -1.4286250E-02;  1.0038018E+03;  1.4660236E-01;  3.1496177E+03;3;  6.0325642E+00;  0.0000000E+00;  8.6001024E+00;0;  1.3606158E+00;  1.8873188E+04;  0.0000000E+00; -6.3737804E-01;  4.0000000E+04;  0.0000000E+00;  3.9741430E+04;  1.4461319E+00;  0.0000000E+00; -8.5516065E-02;  1.6200702E+03;
  8.1782180E-01;  9.9999998E-03;  1.7063849E-01;7251; -2.0626248E-01;  0.0000000E+00; -1.4339788E-02;  1.0040791E+03;  1.4663370E-01;  3.3793306E+03;3;  4.6913757E+00;  0.0000000E+00;  9.0790377E+00;0;  1.3998191E+00;  1.8872459E+04;  0.0000000E+00; -6.3057214E-01;  4.0000000E+04;  0.0000000E+00;  3.9740719E+04;  1.4645109E+00;  0.0000000E+00; -6.4691819E-02;  1.5867701E+03;
  8.1815571E-01;  9.9999998E-03;  1.8073070E-01;7252; -2.0661266E-01;  0.0000000E+00; -1.4174896E-02;  1.0044431E+03;  1.4667884E-01;  3.6809395E+03;3;  3.3341098E+00;  0.0000000E+00;  9.5477190E+00;0;  1.4419476E+00;  1.8869846E+04;  0.0000000E+00; -6.1380965E-01;  4.0000000E+04;  0.0000000E+00;  3.9740785E+04;  1.4836594E+00;  0.0000000E+00; -4.1711781E-02;  1.5258658E+03;
  8.1855190E-01;  9.9999998E-03;  1.9081347E-01;7253; -2.0706360E-01;  0.0000000E+00; -1.3814353E-02;  1.0048587E+03;  1.4673284E-01;  4.0252117E+03;3;  2.0326350E+00;  0.0000000E+00;  1.0403980E+01;0;  1.4857271E+00;  1.8866576E+04;  0.0000000E+00; -5.8208293E-01;  4.0000000E+04;  0.0000000E+00;  3.9740363E+04;  1.5018848E+00;  0.0000000E+00; -1.6157757E-02;  1.4221876E+03;
  8.1898040E-01;  9.9999998E-03;  2.0087232E-01;7254; -2.0766327E-01;  0.0000000E+00; -1.3358871E-02;  1.0052788E+03;  1.4679138E-01;  4.3732363E+03;3;  7.5066727E-01;  0.0000000E+00;  1.0954989E+01;0;  1.5308181E+00;  1.8862592E+04;  0.0000000E+00; -5.2939546E-01;  4.0000000E+04;  0.0000000E+00;  3.9738406E+04;  1.5182739E+00;  0.0000000E+00;  1.2544182E-02;  1.2822208E+03;
  8.1938899E-01;  9.9999998E-03;  2.1092267E-01;7255; -2.0829183E-01;  0.0000000E+00; -1.2695270E-02;  1.0056420E+03;  1.4684734E-01;  4.6740547E+03;3; -4.1650084E-01;  0.0000000E+00;  1.1286785E+01;0;  1.5771185E+00;  1.8858551E+04;  0.0000000E+00; -4.5254380E-01;  4.0000000E+04;  0.0000000E+00;  3.9733000E+04;  1.5317831E+00;  0.0000000E+00;  4.5335364E-02;  1.3723635E+03;
  8.1974190E-01;  9.9999998E-03;  2.2096871E-01;7256; -2.0890220E-01;  0.0000000E+00; -1.2061739E-02;  1.0058865E+03;  1.4689761E-01;  4.8766079E+03;3; -1.4670423E+00;  0.0000000E+00;  1.1476824E+01;0;  1.6250298E+00;  1.8854742E+04;  0.0000000E+00; -3.5341606E-01;  4.0000000E+04;  0.0000000E+00;  3.9721891E+04;  1.5420719E+00;  0.0000000E+00;  8.2957804E-02;  2.4087354E+03;
  8.2000983E-01;  9.9999998E-03;  2.3100910E-01;7257; -2.0948127E-01;  0.0000000E+00; -1.1734790E-02;  1.0059437E+03;  1.4693743E-01;  4.9241104E+03;3; -2.4824138E+00;  0.0000000E+00;  1.1495293E+01;0;  1.6743383E+00;  1.8851170E+04;  0.0000000E+00; -2.3752129E-01;  4.0000000E+04;  0.0000000E+00;  3.9702738E+04;  1.5491886E+00;  0.0000000E+00;  1.2514971E-01;  4.6827026E+03;
  8.3153355E-01;  9.9999998E-03;  7.0470631E-02;7302; -2.0171697E-01;  0.0000000E+00; -1.3099617E-02;  1.0006971E+03;  1.4881496E-01;  5.7753674E+02;3;  2.0318415E+01;  0.0000000E+00;  2.4335444E+00;0;  1.5741132E+00;  1.8211434E+04;  0.0000000E+00; -4.6837580E-01;  4.0000000E+04;  0.0000000E+00;  3.9729594E+04;  1.8256530E+00;  0.0000000E+00; -2.5153968E-01;  1.3860188E+03;
  8.3174759E-01;  9.9999998E-03;  8.0474384E-02;7303; -2.0096686E-01;  0.0000000E+00; -1.4862478E-02;  1.0007745E+03;  1.4884792E-01;  6.4163055E+02;3;  2.0131701E+01;  0.0000000E+00;  2.6651671E+00;0;  1.5982274E+00;  1.8204982E+04;  0.0000000E+00; -5.5765694E-01;  4.0000000E+04;  0.0000000E+00;  3.9734223E+04;  1.8403744E+00;  0.0000000E+00; -2.4214700E-01;  1.7890165E+03;
  8.3199245E-01;  9.9999998E-03;  9.0451770E-02;7304; -2.0007360E-01;  0.0000000E+00; -1.6544923E-02;  1.0008582E+03;  1.4888406E-01;  7.1095850E+02;3;  1.9714939E+01;  0.0000000E+00;  3.1931226E+00;0;  1.6224005E+00;  1.8198324E+04;  0.0000000E+00; -6.3004804E-01;  4.0000000E+04;  0.0000000E+00;  3.9738461E+04;  1.8537792E+00;  0.0000000E+00; -2.3137873E-01;  2.2273718E+03;
  8.3225352E-01;  9.9999998E-03;  1.0040560E-01;7305; -1.9909407E-01;  0.0000000E+00; -1.8081535E-02;  1.0009626E+03;  1.4892006E-01;  7.9747034E+02;3;  1.9072147E+01;  0.0000000E+00;  3.8112133E+00;0;  1.6455352E+00;  1.8192486E+04;  0.0000000E+00; -6.8047321E-01;  4.0000000E+04;  0.0000000E+00;  3.9741340E+04;  1.8646793E+00;  0.0000000E+00; -2.1914408E-01;  2.5525464E+03;
  8.3231896E-01;  9.9999998E-03;  1.1038424E-01;7306; -1.9825318E-01;  0.0000000E+00; -1.9309517E-02;  1.0011343E+03;  1.4893086E-01;  9.3968176E+02;3;  1.7997921E+01;  0.0000000E+00;  4.6314754E+00;0;  1.6606169E+00;  1.8195838E+04;  0.0000000E+00; -7.0651078E-01;  4.0000000E+04;  0.0000000E+00;  3.9742637E+04;  1.8652943E+00;  0.0000000E+00; -2.0467745E-01;  2.6821953E+03;
  8.3231103E-01;  9.9999998E-03;  1.2039621E-01;7307; -1.9750501E-01;  0.0000000E+00; -2.0244040E-02;  1.0013531E+03;  1.4892967E-01;  1.1210013E+03;3;  1.6694479E+01;  0.0000000E+00;  5.4066973E+00;0;  1.6723360E+00;  1.8203834E+04;  0.0000000E+00; -7.1162558E-01;  4.0000000E+04;  0.0000000E+00;  3.9742195E+04;  1.8605963E+00;  0.0000000E+00; -1.8826027E-01;  2.6098813E+03;
  8.3238924E-01;  9.9999998E-03;  1.3043907E-01;7308; -1.9667746E-01;  0.0000000E+00; -2.0951025E-02;  1.0016114E+03;  1.4893655E-01;  1.3349109E+03;3;  1.5129198E+01;  0.0000000E+00;  6.2698169E+00;0;  1.6860089E+00;  1.8211262E+04;  0.0000000E+00; -7.0154995E-01;  4.0000000E+04;  0.0000000E+00;  3.9740523E+04;  1.8560613E+00;  0.0000000E+00; -1.7005239E-01;  2.3931758E+03;
  8.3253050E-01;  9.9999998E-03;  1.4050494E-01;7309; -1.9595057E-01;  0.0000000E+00; -2.1506898E-02;  1.0019221E+03;  1.4894852E-01;  1.5923727E+03;3;  1.3256912E+01;  0.0000000E+00;  7.1172509E+00;0;  1.7011305E+00;  1.8219088E+04;  0.0000000E+00; -6.8252158E-01;  4.0000000E+04;  0.0000000E+00;  3.9738332E+04;  1.8507612E+00;  0.0000000E+00; -1.4963064E-01;  2.1197832E+03;
  8.3266604E-01;  9.9999998E-03;  1.5058023E-01;7310; -1.9558252E-01;  0.0000000E+00; -2.2126079E-02;  1.0023009E+03;  1.4895624E-01;  1.9061263E+03;3;  1.1078842E+01;  0.0000000E+00;  7.7463593E+00;0;  1.7162426E+00;  1.8229055E+04;  0.0000000E+00; -6.6021496E-01;  4.0000000E+04;  0.0000000E+00;  3.9736562E+04;  1.8428425E+00;  0.0000000E+00; -1.2659989E-01;  1.8665092E+03;
  8.3277524E-01;  9.9999998E-03;  1.6065724E-01;7311; -1.9547638E-01;  0.0000000E+00; -2.2679036E-02;  1.0027442E+03;  1.4896001E-01;  2.2734070E+03;3;  8.7784004E+00;  0.0000000E+00;  8.6319408E+00;0;  1.7312970E+00;  1.8241256E+04;  0.0000000E+00; -6.3619101E-01;  4.0000000E+04;  0.0000000E+00;  3.9735504E+04;  1.8322221E+00;  0.0000000E+00; -1.0092506E-01;  1.6706473E+03;
  8.3291423E-01;  9.9999998E-03;  1.7072605E-01;7312; -1.9550489E-01;  0.0000000E+00; -2.3089902E-02;  1.0032504E+03;  1.4896156E-01;  2.6927324E+03;3;  6.3670025E+00;  0.0000000E+00;  9.5272093E+00;0;  1.7477633E+00;  1.8254521E+04;  0.0000000E+00; -6.0627300E-01;  4.0000000E+04;  0.0000000E+00;  3.9735359E+04;  1.8205973E+00;  0.0000000E+00; -7.2834022E-02;  1.5219673E+03;
  8.3309716E-01;  9.9999998E-03;  1.8078752E-01;7313; -1.9560027E-01;  0.0000000E+00; -2.3331437E-02;  1.0037918E+03;  1.4896527E-01;  3.1412905E+03;3;  3.8718274E+00;  0.0000000E+00;  1.0489614E+01;0;  1.7658652E+00;  1.8268049E+04;  0.0000000E+00; -5.6003630E-01;  4.0000000E+04;  0.0000000E+00;  3.9735492E+04;  1.8082937E+00;  0.0000000E+00; -4.2428523E-02;  1.3704316E+03;
  8.3333415E-01;  9.9999998E-03;  1.9084151E-01;7314; -1.9569397E-01;  0.0000000E+00; -2.3399230E-02;  1.0043401E+03;  1.4897315E-01;  3.5955762E+03;3;  1.2994208E+00;  0.0000000E+00;  1.1367133E+01;0;  1.7858598E+00;  1.8280637E+04;  0.0000000E+00; -4.8342684E-01;  4.0000000E+04;  0.0000000E+00;  3.9735062E+04;  1.7955210E+00;  0.0000000E+00; -9.6612098E-03;  1.1258147E+03;
  8.3363783E-01;  9.9999998E-03;  2.0087063E-01;7315; -1.9548494E-01;  0.0000000E+00; -2.3338336E-02;  1.0048578E+03;  1.4898999E-01;  4.0244807E+03;3; -1.6116785E+00;  0.0000000E+00;  1.2342730E+01;0;  1.8082083E+00;  1.8290641E+04;  0.0000000E+00; -3.6507210E-01;  4.0000000E+04;  0.0000000E+00;  3.9733570E+04;  1.7825618E+00;  0.0000000E+00;  2.5646601E-02;  7.3460999E+02;
  8.3391482E-01;  9.9999998E-03;  2.1089137E-01;7316; -1.9371246E-01;  0.0000000E+00; -2.3377320E-02;  1.0053143E+03;  1.4900577E-01;  4.4025249E+03;3; -6.0452638E+00;  0.0000000E+00;  1.3346906E+01;0;  1.8318102E+00;  1.8299525E+04;  0.0000000E+00; -2.0098883E-01;  4.0000000E+04;  0.0000000E+00;  3.9730742E+04;  1.7682989E+00;  0.0000000E+00;  6.3511401E-02;  1.5821266E+02;
  8.3411658E-01;  9.9999998E-03;  2.2092108E-01;7317; -1.8768714E-01;  0.0000000E+00; -2.3714017E-02;  1.0056641E+03;  1.4901504E-01;  4.6923784E+03;3; -1.1934001E+01;  0.0000000E+00;  1.3733418E+01;0;  1.8558964E+00;  1.8308059E+04;  0.0000000E+00;  8.6126439E-03;  4.0000000E+04;  0.0000000E+00;  3.9724508E+04;  1.7527221E+00;  0.0000000E+00;  1.0317416E-01;  8.4677289E+02;
  8.3416545E-01;  9.9999998E-03;  2.3097008E-01;7318; -1.7973049E-01;  0.0000000E+00; -2.3569940E-02;  1.0058209E+03;  1.4901230E-01;  4.8222446E+03;3; -1.5266477E+01;  0.0000000E+00;  1.3528242E+01;0;  1.8812075E+00;  1.8317533E+04;  0.0000000E+00;  2.6068905E-01;  4.0000000E+04;  0.0000000E+00;  3.9709164E+04;  1.7364706E+00;  0.0000000E+00;  1.4473689E-01;  2.8668247E+03;
  8.4663218E-01;  9.9999998E-03;  7.0411883E-02;7363; -1.8664981E-01;  0.0000000E+00; -2.1408103E-02;  9.9521002E+02;  1.5039816E-01; -3.9681475E+03;3;  3.0143560E+01;  0.0000000E+00;  9.5408869E-01;0;  2.1592736E+00;  1.7664639E+04;  0.0000000E+00; -5.1514375E-01;  4.0000000E+04;  0.0000000E+00;  3.9712559E+04;  2.4669039E+00;  0.0000000E+00; -3.0763018E-01;  1.6410381E+03;
  8.4671718E-01;  9.9999998E-03;  8.0481902E-02;7364; -1.8411700E-01;  0.0000000E+00; -2.4575541E-02;  9.9550903E+02;  1.5040384E-01; -3.7204648E+03;3;  3.0442982E+01;  0.0000000E+00;  1.1146930E+00;0;  2.1590538E+00;  1.7669766E+04;  0.0000000E+00; -6.1363006E-01;  4.0000000E+04;  0.0000000E+00;  3.9717566E+04;  2.4541855E+00;  0.0000000E+00; -2.9513177E-01;  1.8137225E+03;
  8.4684467E-01;  9.9999998E-03;  9.0527527E-02;7365; -1.8098158E-01;  0.0000000E+00; -2.7749995E-02;  9.9584595E+02;  1.5041198E-01; -3.4413284E+03;3;  3.0566631E+01;  0.0000000E+00;  1.5863285E+00;0;  2.1560791E+00;  1.7675309E+04;  0.0000000E+00; -6.8921053E-01;  4.0000000E+04;  0.0000000E+00;  3.9722914E+04;  2.4369268E+00;  0.0000000E+00; -2.8084776E-01;  2.1342949E+03;
  8.4701693E-01;  9.9999998E-03;  1.0055551E-01;7366; -1.7722656E-01;  0.0000000E+00; -3.0949373E-02;  9.9620734E+02;  1.5042222E-01; -3.1419468E+03;3;  3.0357357E+01;  0.0000000E+00;  2.0807772E+00;0;  2.1497793E+00;  1.7681406E+04;  0.0000000E+00; -7.3264796E-01;  4.0000000E+04;  0.0000000E+00;  3.9727727E+04;  2.4144852E+00;  0.0000000E+00; -2.6470602E-01;  2.4786704E+03;
  8.4719437E-01;  9.9999998E-03;  1.1055532E-01;7367; -1.7294277E-01;  0.0000000E+00; -3.4137636E-02;  9.9661169E+02;  1.5043139E-01; -2.8069631E+03;3;  2.9812538E+01;  0.0000000E+00;  2.7166159E+00;0;  2.1385913E+00;  1.7689531E+04;  0.0000000E+00; -7.3866141E-01;  4.0000000E+04;  0.0000000E+00;  3.9731547E+04;  2.3850739E+00;  0.0000000E+00; -2.4648270E-01;  2.7169683E+03;
  8.4732211E-01;  9.9999998E-03;  1.2057137E-01;7368; -1.6821709E-01;  0.0000000E+00; -3.7227605E-02;  9.9707892E+02;  1.5043479E-01; -2.4199353E+03;3;  2.8971579E+01;  0.0000000E+00;  3.5426776E+00;0;  2.1212804E+00;  1.7701439E+04;  0.0000000E+00; -7.0800102E-01;  4.0000000E+04;  0.0000000E+00;  3.9733758E+04;  2.3470082E+00;  0.0000000E+00; -2.2572778E-01;  2.7906543E+03;
  8.4739977E-01;  9.9999998E-03;  1.3060188E-01;7369; -1.6309248E-01;  0.0000000E+00; -4.0132336E-02;  9.9761322E+02;  1.5043335E-01; -1.9773074E+03;3;  2.7760778E+01;  0.0000000E+00;  4.3695884E+00;0;  2.0991824E+00;  1.7717104E+04;  0.0000000E+00; -6.4692825E-01;  4.0000000E+04;  0.0000000E+00;  3.9734836E+04;  2.3013506E+00;  0.0000000E+00; -2.0216823E-01;  2.7139209E+03;
  8.4740031E-01;  9.9999998E-03;  1.4064163E-01;7370; -1.5752023E-01;  0.0000000E+00; -4.2750865E-02;  9.9822046E+02;  1.5042363E-01; -1.4742406E+03;3;  2.6133850E+01;  0.0000000E+00;  5.3168120E+00;0;  2.0733645E+00;  1.7737225E+04;  0.0000000E+00; -5.6617141E-01;  4.0000000E+04;  0.0000000E+00;  3.9735418E+04;  2.2488790E+00;  0.0000000E+00; -1.7551449E-01;  2.5431111E+03;
  8.4737158E-01;  9.9999998E-03;  1.5068904E-01;7371; -1.5075098E-01;  0.0000000E+00; -4.5184944E-02;  9.9888788E+02;  1.5040818E-01; -9.2130170E+02;3;  2.4040283E+01;  0.0000000E+00;  6.2746830E+00;0;  2.0468276E+00;  1.7760199E+04;  0.0000000E+00; -4.7671160E-01;  4.0000000E+04;  0.0000000E+00;  3.9735418E+04;  2.1925564E+00;  0.0000000E+00; -1.4572875E-01;  2.3493552E+03;
  8.4736717E-01;  9.9999998E-03;  1.6072620E-01;7372; -1.4153996E-01;  0.0000000E+00; -4.7518320E-02;  9.9958514E+02;  1.5039192E-01; -3.4367346E+02;3;  2.1720629E+01;  0.0000000E+00;  7.5220160E+00;0;  2.0217955E+00;  1.7784293E+04;  0.0000000E+00; -3.8494012E-01;  4.0000000E+04;  0.0000000E+00;  3.9735621E+04;  2.1349325E+00;  0.0000000E+00; -1.1313706E-01;  2.1859185E+03;
  8.4743184E-01;  9.9999998E-03;  1.7075333E-01;7373; -1.2833051E-01;  0.0000000E+00; -4.9779553E-02;  1.0002901E+03;  1.5037820E-01;  2.4037390E+02;3;  1.9404802E+01;  0.0000000E+00;  8.4734459E+00;0;  1.9992098E+00;  1.7807807E+04;  0.0000000E+00; -2.8773087E-01;  4.0000000E+04;  0.0000000E+00;  3.9735777E+04;  2.0775876E+00;  0.0000000E+00; -7.8377835E-02;  2.0624395E+03;
  8.4753835E-01;  9.9999998E-03;  2.3090164E-01;7379; -1.6843438E-02;  0.0000000E+00; -5.5942010E-02;  1.0036791E+03;  1.5029579E-01;  3.0479287E+03;3;  4.6605525E+00;  0.0000000E+00;  1.4959594E+01;0;  1.8839446E+00;  1.7930668E+04;  0.0000000E+00;  9.3564188E-01;  4.0000000E+04;  0.0000000E+00;  3.9721367E+04;  1.7813269E+00;  0.0000000E+00;  1.0261779E-01;  2.9247695E+03;
  8.4754133E-01;  9.9999998E-03;  1.8077542E-01;7374; -1.1127799E-01;  0.0000000E+00; -5.1978525E-02;  1.0009873E+03;  1.5036729E-01;  8.1790320E+02;3;  1.7313511E+01;  0.0000000E+00;  9.5127821E+00;0;  1.9784491E+00;  1.7830377E+04;  0.0000000E+00; -1.7503059E-01;  4.0000000E+04;  0.0000000E+00;  3.9735758E+04;  2.0208039E+00;  0.0000000E+00; -4.2354789E-02;  1.9663188E+03;
  8.4764385E-01;  9.9999998E-03;  1.9079660E-01;7375; -9.1352493E-02;  0.0000000E+00; -5.3722970E-02;  1.0016594E+03;  1.5035571E-01;  1.3746935E+03;3;  1.5925215E+01;  0.0000000E+00;  1.0252256E+01;0;  1.9588546E+00;  1.7852414E+04;  0.0000000E+00; -3.5385333E-02;  4.0000000E+04;  0.0000000E+00;  3.9735363E+04;  1.9651591E+00;  0.0000000E+00; -6.3044876E-03;  1.8908672E+03;
  8.4761637E-01;  9.9999998E-03;  2.2084868E-01;7378; -2.7208509E-02;  0.0000000E+00; -5.5894915E-02;  1.0033849E+03;  1.5030755E-01;  2.8041970E+03;3;  1.1954956E+01;  0.0000000E+00;  1.2638408E+01;0;  1.9049124E+00;  1.7914895E+04;  0.0000000E+00;  6.2703514E-01;  4.0000000E+04;  0.0000000E+00;  3.9731504E+04;  1.8193940E+00;  0.0000000E+00;  8.5518315E-02;  2.4350056E+03;
  8.4769809E-01;  9.9999998E-03;  2.0080397E-01;7376; -7.0097186E-02;  0.0000000E+00; -5.4922868E-02;  1.0023018E+03;  1.5034246E-01;  1.9068933E+03;3;  1.5035807E+01;  0.0000000E+00;  1.1023577E+01;0;  1.9403063E+00;  1.7874160E+04;  0.0000000E+00;  1.4067002E-01;  4.0000000E+04;  0.0000000E+00;  3.9735000E+04;  1.9120638E+00;  0.0000000E+00;  2.8242467E-02;  1.9376299E+03;
  8.4768164E-01;  9.9999998E-03;  2.1081446E-01;7377; -4.8201092E-02;  0.0000000E+00; -5.5529144E-02;  1.0028969E+03;  1.5032554E-01;  2.3998870E+03;3;  1.4297953E+01;  0.0000000E+00;  1.1910626E+01;0;  1.9227064E+00;  1.7895428E+04;  0.0000000E+00;  3.6030793E-01;  4.0000000E+04;  0.0000000E+00;  3.9734625E+04;  1.8630440E+00;  0.0000000E+00;  5.9662286E-02;  2.1715515E+03;
  8.6260271E-01;  9.9999998E-03;  7.0309550E-02;7424; -1.1728903E-01;  0.0000000E+00; -3.6335941E-02;  9.8981122E+02;  1.5132883E-01; -8.4405596E+03;3;  9.9705181E+00;  0.0000000E+00;  5.9911504E+00;0;  2.8387036E+00;  1.7285590E+04;  0.0000000E+00; -4.5869601E-01;  4.0000000E+04;  0.0000000E+00;  3.9699637E+04;  3.1993301E+00;  0.0000000E+00; -3.6062649E-01;  1.7927190E+03;
  8.6265683E-01;  9.9999998E-03;  8.0408789E-02;7425; -1.1184923E-01;  0.0000000E+00; -4.1452270E-02;  9.9028192E+02;  1.5132050E-01; -8.0506240E+03;3;  1.0992702E+01;  0.0000000E+00;  6.6177807E+00;0;  2.8030939E+00;  1.7297180E+04;  0.0000000E+00; -5.4809654E-01;  4.0000000E+04;  0.0000000E+00;  3.9704574E+04;  3.1481318E+00;  0.0000000E+00; -3.4503794E-01;  1.7320674E+03;
  8.6274654E-01;  9.9999998E-03;  9.0480238E-02;7426; -1.0497093E-01;  0.0000000E+00; -4.6538260E-02;  9.9082556E+02;  1.5131277E-01; -7.6002998E+03;3;  1.1934968E+01;  0.0000000E+00;  7.2049885E+00;0;  2.7594626E+00;  1.7310572E+04;  0.0000000E+00; -6.1209202E-01;  4.0000000E+04;  0.0000000E+00;  3.9710660E+04;  3.0865972E+00;  0.0000000E+00; -3.2713452E-01;  1.8293213E+03;
  8.6286324E-01;  9.9999998E-03;  1.0053702E-01;7427; -9.6837588E-02;  0.0000000E+00; -5.1551521E-02;  9.9143408E+02;  1.5130554E-01; -7.0961538E+03;3;  1.2757627E+01;  0.0000000E+00;  7.7825131E+00;0;  2.7069981E+00;  1.7325867E+04;  0.0000000E+00; -6.3714671E-01;  4.0000000E+04;  0.0000000E+00;  3.9716945E+04;  3.0138264E+00;  0.0000000E+00; -3.0682832E-01;  2.0968831E+03;
  8.6296016E-01;  9.9999998E-03;  1.1056992E-01;7428; -8.7734014E-02;  0.0000000E+00; -5.6363538E-02;  9.9210785E+02;  1.5129639E-01; -6.5379883E+03;3;  1.3491712E+01;  0.0000000E+00;  8.3968296E+00;0;  2.6445394E+00;  1.7343938E+04;  0.0000000E+00; -6.1447716E-01;  4.0000000E+04;  0.0000000E+00;  3.9722676E+04;  2.9284778E+00;  0.0000000E+00; -2.8393829E-01;  2.4028337E+03;
  8.6299896E-01;  9.9999998E-03;  1.2060645E-01;7429; -7.7709265E-02;  0.0000000E+00; -6.0872957E-02;  9.9285229E+02;  1.5128618E-01; -5.9213110E+03;3;  1.4147288E+01;  0.0000000E+00;  9.0020494E+00;0;  2.5723460E+00;  1.7365348E+04;  0.0000000E+00; -5.4214275E-01;  4.0000000E+04;  0.0000000E+00;  3.9727309E+04;  2.8304877E+00;  0.0000000E+00; -2.5814170E-01;  2.6398604E+03;
  8.6296213E-01;  9.9999998E-03;  1.3063063E-01;7430; -6.6836633E-02;  0.0000000E+00; -6.5039776E-02;  9.9365491E+02;  1.5127259E-01; -5.2563931E+03;3;  1.4753953E+01;  0.0000000E+00;  9.4581528E+00;0;  2.4927454E+00;  1.7390092E+04;  0.0000000E+00; -4.2602250E-01;  4.0000000E+04;  0.0000000E+00;  3.9730879E+04;  2.7219641E+00;  0.0000000E+00; -2.2921866E-01;  2.7788789E+03;
  8.6291683E-01;  9.9999998E-03;  1.4064948E-01;7431; -5.4162793E-02;  0.0000000E+00; -6.8979807E-02;  9.9448651E+02;  1.5125847E-01; -4.5674771E+03;3;  1.5122036E+01;  0.0000000E+00;  9.9773941E+00;0;  2.4103885E+00;  1.7416711E+04;  0.0000000E+00; -2.7751914E-01;  4.0000000E+04;  0.0000000E+00;  3.9733426E+04;  2.6074204E+00;  0.0000000E+00; -1.9703186E-01;  2.8563577E+03;
  8.6286992E-01;  9.9999998E-03;  1.5066674E-01;7432; -3.9173994E-02;  0.0000000E+00; -7.2528839E-02;  9.9533490E+02;  1.5124309E-01; -3.8646367E+03;3;  1.5478414E+01;  0.0000000E+00;  1.0604503E+01;0;  2.3280926E+00;  1.7444549E+04;  0.0000000E+00; -1.1167089E-01;  4.0000000E+04;  0.0000000E+00;  3.9735137E+04;  2.4895711E+00;  0.0000000E+00; -1.6147844E-01;  2.9262107E+03;
  8.6282957E-01;  9.9999998E-03;  1.6068138E-01;7433; -2.1802202E-02;  0.0000000E+00; -7.5874172E-02;  9.9618579E+02;  1.5122789E-01; -3.1597715E+03;3;  1.4904654E+01;  0.0000000E+00;  1.0668183E+01;0;  2.2482905E+00;  1.7473018E+04;  0.0000000E+00;  5.8034804E-02;  4.0000000E+04;  0.0000000E+00;  3.9736301E+04;  2.3712740E+00;  0.0000000E+00; -1.2298348E-01;  3.0164536E+03;
  8.6278385E-01;  9.9999998E-03;  1.7069499E-01;7434; -3.4839215E-03;  0.0000000E+00; -7.9253413E-02;  9.9701947E+02;  1.5121165E-01; -2.4691272E+03;3;  1.1128130E+01;  0.0000000E+00;  1.0546279E+01;0;  2.1724494E+00;  1.7501533E+04;  0.0000000E+00;  2.2368243E-01;  4.0000000E+04;  0.0000000E+00;  3.9736773E+04;  2.2551301E+00;  0.0000000E+00; -8.2680680E-02;  3.1227417E+03;
  8.6269462E-01;  9.9999998E-03;  1.8071009E-01;7435;  8.4570162E-03;  0.0000000E+00; -8.3307110E-02;  9.9782538E+02;  1.5119563E-01; -1.8014927E+03;3; -2.9791319E+00;  0.0000000E+00;  1.0849859E+01;0;  2.1008043E+00;  1.7529881E+04;  0.0000000E+00;  3.8411152E-01;  4.0000000E+04;  0.0000000E+00;  3.9736949E+04;  2.1432588E+00;  0.0000000E+00; -4.2454366E-02;  3.2320483E+03;
  8.6252505E-01;  9.9999998E-03;  1.9073214E-01;7436;  9.4117885E-03;  0.0000000E+00; -8.5989967E-02;  9.9859320E+02;  1.5117742E-01; -1.1654106E+03;3; -8.7859583E+00;  0.0000000E+00;  1.3346575E+01;0;  2.0327132E+00;  1.7557779E+04;  0.0000000E+00;  5.4505336E-01;  4.0000000E+04;  0.0000000E+00;  3.9736594E+04;  2.0375273E+00;  0.0000000E+00; -4.8142001E-03;  3.3363738E+03;
  8.6229712E-01;  9.9999998E-03;  2.0075032E-01;7437;  7.0130182E-03;  0.0000000E+00; -8.7335169E-02;  9.9930536E+02;  1.5116060E-01; -5.7544690E+02;3; -6.5903711E+00;  0.0000000E+00;  1.4084204E+01;0;  1.9682570E+00;  1.7584318E+04;  0.0000000E+00;  7.1787691E-01;  4.0000000E+04;  0.0000000E+00;  3.9736250E+04;  1.9406682E+00;  0.0000000E+00;  2.7588725E-02;  3.4852786E+03;
  8.6205500E-01;  9.9999998E-03;  2.1076074E-01;7438;  3.9364337E-03;  0.0000000E+00; -8.7895654E-02;  9.9995538E+02;  1.5114483E-01; -3.6983852E+01;3; -3.4199955E+00;  0.0000000E+00;  1.4592716E+01;0;  1.9059463E+00;  1.7608398E+04;  0.0000000E+00;  9.1272825E-01;  4.0000000E+04;  0.0000000E+00;  3.9736523E+04;  1.8543189E+00;  0.0000000E+00;  5.1627446E-02;  3.7988733E+03;
  8.6181885E-01;  9.9999998E-03;  2.2078538E-01;7439;  5.4775458E-04;  0.0000000E+00; -8.7427802E-02;  1.0005026E+03;  1.5113217E-01;  4.1635242E+02;3;  1.0260216E-01;  0.0000000E+00;  1.5223581E+01;0;  1.8431621E+00;  1.7629014E+04;  0.0000000E+00;  1.1298798E+00;  4.0000000E+04;  0.0000000E+00;  3.9736941E+04;  1.7789038E+00;  0.0000000E+00;  6.4258166E-02;  4.1743682E+03;
  8.6161071E-01;  9.9999998E-03;  2.3082750E-01;7440; -3.0188463E-03;  0.0000000E+00; -8.5110061E-02;  1.0008946E+03;  1.5112641E-01;  7.4106006E+02;3;  3.3188677E+00;  0.0000000E+00;  1.6345669E+01;0;  1.7790411E+00;  1.7645195E+04;  0.0000000E+00;  1.3511591E+00;  4.0000000E+04;  0.0000000E+00;  3.9734352E+04;  1.7143668E+00;  0.0000000E+00;  6.4674281E-02;  4.3892344E+03;
  8.7829375E-01;  9.9999998E-03;  7.0273973E-02;7485; -5.0971556E-02;  0.0000000E+00; -4.3685619E-02;  9.8687372E+02;  1.5179388E-01; -1.0873821E+04;3; -1.9476482E+01;  0.0000000E+00;  5.3885241E+00;0;  3.5252683E+00;  1.7091912E+04;  0.0000000E+00; -2.8033596E-01;  4.0000000E+04;  0.0000000E+00;  3.9690172E+04;  3.9221854E+00;  0.0000000E+00; -3.9691707E-01;  1.8955778E+03;
  8.7833303E-01;  9.9999998E-03;  8.0378614E-02;7486; -4.4141810E-02;  0.0000000E+00; -4.9669635E-02;  9.8739282E+02;  1.5177813E-01; -1.0443799E+04;3; -1.7409140E+01;  0.0000000E+00;  6.1895380E+00;0;  3.4475176E+00;  1.7105346E+04;  0.0000000E+00; -3.3818284E-01;  4.0000000E+04;  0.0000000E+00;  3.9694938E+04;  3.8266108E+00;  0.0000000E+00; -3.7909308E-01;  1.5248049E+03;
  8.7842929E-01;  9.9999998E-03;  9.0457864E-02;7487; -3.6144346E-02;  0.0000000E+00; -5.5508077E-02;  9.8801074E+02;  1.5176281E-01; -9.9319102E+03;3; -1.5230683E+01;  0.0000000E+00;  6.9198651E+00;0;  3.3571308E+00;  1.7121332E+04;  0.0000000E+00; -3.7471893E-01;  4.0000000E+04;  0.0000000E+00;  3.9701227E+04;  3.7156794E+00;  0.0000000E+00; -3.5854855E-01;  1.1828142E+03;
  8.7855756E-01;  9.9999998E-03;  1.0050352E-01;7488; -2.7367627E-02;  0.0000000E+00; -6.1125200E-02;  9.8871985E+02;  1.5174770E-01; -9.3445244E+03;3; -1.2963608E+01;  0.0000000E+00;  7.5553083E+00;0;  3.2531085E+00;  1.7139965E+04;  0.0000000E+00; -3.7608919E-01;  4.0000000E+04;  0.0000000E+00;  3.9708125E+04;  3.5883846E+00;  0.0000000E+00; -3.3527604E-01;  1.1954540E+03;
  8.7868071E-01;  9.9999998E-03;  1.1053532E-01;7489; -1.8215058E-02;  0.0000000E+00; -6.6425160E-02;  9.8950507E+02;  1.5173353E-01; -8.6940352E+03;3; -1.0621270E+01;  0.0000000E+00;  8.2609053E+00;0;  3.1349475E+00;  1.7161301E+04;  0.0000000E+00; -3.3208436E-01;  4.0000000E+04;  0.0000000E+00;  3.9714891E+04;  3.4441049E+00;  0.0000000E+00; -3.0915731E-01;  1.5660857E+03;
  8.7876207E-01;  9.9999998E-03;  1.2056110E-01;7490; -8.8487938E-03;  0.0000000E+00; -7.1296401E-02;  9.9035266E+02;  1.5171918E-01; -7.9918491E+03;3; -8.5687380E+00;  0.0000000E+00;  8.7730331E+00;0;  3.0037782E+00;  1.7185504E+04;  0.0000000E+00; -2.3919676E-01;  4.0000000E+04;  0.0000000E+00;  3.9720738E+04;  3.2837913E+00;  0.0000000E+00; -2.8001314E-01;  2.0255494E+03;
  8.7877154E-01;  9.9999998E-03;  1.3058639E-01;7491;  5.8586959E-04;  0.0000000E+00; -7.5619414E-02;  9.9124316E+02;  1.5170448E-01; -7.2541626E+03;3; -6.6921949E+00;  0.0000000E+00;  9.2767181E+00;0;  2.8624022E+00;  1.7212283E+04;  0.0000000E+00; -1.0247931E-01;  4.0000000E+04;  0.0000000E+00;  3.9725477E+04;  3.1100249E+00;  0.0000000E+00; -2.4762267E-01;  2.4592903E+03;
  8.7871289E-01;  9.9999998E-03;  1.4060953E-01;7492;  1.0173393E-02;  0.0000000E+00; -7.9422452E-02;  9.9216327E+02;  1.5169068E-01; -6.4919858E+03;3; -6.4919515E+00;  0.0000000E+00;  9.6971664E+00;0;  2.7155719E+00;  1.7241021E+04;  0.0000000E+00;  6.5687902E-02;  4.0000000E+04;  0.0000000E+00;  3.9729246E+04;  2.9274030E+00;  0.0000000E+00; -2.1183109E-01;  2.8575911E+03;
  8.7860495E-01;  9.9999998E-03;  1.5062836E-01;7493;  1.8961303E-02;  0.0000000E+00; -8.2962900E-02;  9.9308612E+02;  1.5167725E-01; -5.7274893E+03;3; -1.0573341E+01;  0.0000000E+00;  9.4017601E+00;0;  2.5685844E+00;  1.7270943E+04;  0.0000000E+00;  2.4918488E-01;  4.0000000E+04;  0.0000000E+00;  3.9732043E+04;  2.7411990E+00;  0.0000000E+00; -1.7261453E-01;  3.2288184E+03;
  8.7848073E-01;  9.9999998E-03;  1.6064148E-01;7494;  2.3625201E-02;  0.0000000E+00; -8.6940289E-02;  9.9398566E+02;  1.5166427E-01; -4.9822983E+03;3; -1.9409876E+01;  0.0000000E+00;  1.0422585E+01;0;  2.4261098E+00;  1.7300809E+04;  0.0000000E+00;  4.3189833E-01;  4.0000000E+04;  0.0000000E+00;  3.9733980E+04;  2.5566087E+00;  0.0000000E+00; -1.3049895E-01;  3.5635801E+03;
  8.7838274E-01;  9.9999998E-03;  1.7064998E-01;7495;  2.1961154E-02;  0.0000000E+00; -8.9691788E-02;  9.9483191E+02;  1.5165548E-01; -4.2812495E+03;3; -2.1211748E+01;  0.0000000E+00;  1.2561914E+01;0;  2.2911072E+00;  1.7329525E+04;  0.0000000E+00;  5.9991801E-01;  4.0000000E+04;  0.0000000E+00;  3.9734949E+04;  2.3779953E+00;  0.0000000E+00; -8.6888187E-02;  3.8397988E+03;
  8.7828988E-01;  9.9999998E-03;  1.8065575E-01;7496;  1.8331513E-02;  0.0000000E+00; -9.1554850E-02;  9.9560956E+02;  1.5164791E-01; -3.6370334E+03;3; -1.7746258E+01;  0.0000000E+00;  1.3559671E+01;0;  2.1650980E+00;  1.7356271E+04;  0.0000000E+00;  7.4346596E-01;  4.0000000E+04;  0.0000000E+00;  3.9735438E+04;  2.2086816E+00;  0.0000000E+00; -4.3583587E-02;  4.0481738E+03;
  8.7815595E-01;  9.9999998E-03;  1.9066258E-01;7497;  1.4201313E-02;  0.0000000E+00; -9.2969745E-02;  9.9631665E+02;  1.5164332E-01; -3.0512788E+03;3; -1.3080871E+01;  0.0000000E+00;  1.3948086E+01;0;  2.0488377E+00;  1.7380980E+04;  0.0000000E+00;  8.5888308E-01;  4.0000000E+04;  0.0000000E+00;  3.9735777E+04;  2.0516429E+00;  0.0000000E+00; -2.8051906E-03;  4.2085425E+03;
  8.7796104E-01;  9.9999998E-03;  2.0067140E-01;7498;  1.0389153E-02;  0.0000000E+00; -9.3271367E-02;  9.9695459E+02;  1.5164134E-01; -2.5228508E+03;3; -8.2792320E+00;  0.0000000E+00;  1.4681096E+01;0;  1.9427674E+00;  1.7403336E+04;  0.0000000E+00;  9.4943666E-01;  4.0000000E+04;  0.0000000E+00;  3.9736738E+04;  1.9096174E+00;  0.0000000E+00;  3.3149958E-02;  4.3811333E+03;
  8.7770927E-01;  9.9999998E-03;  2.1067350E-01;7499;  6.1248057E-03;  0.0000000E+00; -9.3062617E-02;  9.9753754E+02;  1.5164000E-01; -2.0398984E+03;3; -4.1360445E+00;  0.0000000E+00;  1.4167959E+01;0;  1.8456653E+00;  1.7422951E+04;  0.0000000E+00;  1.0241503E+00;  4.0000000E+04;  0.0000000E+00;  3.9740422E+04;  1.7843338E+00;  0.0000000E+00;  6.1331484E-02;  4.7624224E+03;
  8.7741673E-01;  9.9999998E-03;  2.2069134E-01;7500;  1.5448754E-03;  0.0000000E+00; -9.1983080E-02;  9.9805798E+02;  1.5164176E-01; -1.6087914E+03;3;  6.8246694E-03;  0.0000000E+00;  1.3505983E+01;0;  1.7550285E+00;  1.7439436E+04;  0.0000000E+00;  1.0938737E+00;  4.0000000E+04;  0.0000000E+00;  3.9746348E+04;  1.6761094E+00;  0.0000000E+00;  7.8919016E-02;  5.3824951E+03;
  8.7707156E-01;  9.9999998E-03;  2.3073408E-01;7501; -3.0591730E-03;  0.0000000E+00; -8.9394331E-02;  9.9847400E+02;  1.5164553E-01; -1.2641427E+03;3;  4.2924638E+00;  0.0000000E+00;  1.3197542E+01;0;  1.6692184E+00;  1.7452652E+04;  0.0000000E+00;  1.1623560E+00;  4.0000000E+04;  0.0000000E+00;  3.9751848E+04;  1.5847570E+00;  0.0000000E+00;  8.4461413E-02;  5.9608013E+03;
  8.9417219E-01;  9.9999998E-03;  7.0254005E-02;7546;  1.0979718E-03;  0.0000000E+00; -4.8955232E-02;  9.8692822E+02;  1.5195836E-01; -1.0828414E+04;3; -4.8685505E+01;  0.0000000E+00;  3.0649054E+00;0;  4.2160625E+00;  1.7057951E+04;  0.0000000E+00; -1.9083703E-02;  4.0000000E+04;  0.0000000E+00;  3.9682332E+04;  4.6247821E+00;  0.0000000E+00; -4.0871963E-01;  2.3975359E+03;
  8.9424217E-01;  9.9999998E-03;  8.0364831E-02;7547;  7.4522696E-03;  0.0000000E+00; -5.5270009E-02;  9.8738086E+02;  1.5194093E-01; -1.0453455E+04;3; -4.6167023E+01;  0.0000000E+00;  3.4177027E+00;0;  4.0984807E+00;  1.7069311E+04;  0.0000000E+00; -2.6786130E-02;  4.0000000E+04;  0.0000000E+00;  3.9686961E+04;  4.4888859E+00;  0.0000000E+00; -3.9040533E-01;  1.8554221E+03;
  8.9431643E-01;  9.9999998E-03;  9.0443082E-02;7548;  1.3381671E-02;  0.0000000E+00; -6.1218057E-02;  9.8794702E+02;  1.5192257E-01; -9.9844385E+03;3; -4.3505768E+01;  0.0000000E+00;  3.7978003E+00;0;  3.9618614E+00;  1.7083869E+04;  0.0000000E+00; -2.7497170E-02;  4.0000000E+04;  0.0000000E+00;  3.9693016E+04;  4.3309093E+00;  0.0000000E+00; -3.6904794E-01;  1.1246165E+03;
  8.9438581E-01;  9.9999998E-03;  1.0048898E-01;7549;  1.8625267E-02;  0.0000000E+00; -6.6588879E-02;  9.8861304E+02;  1.5190388E-01; -9.4327656E+03;3; -4.0136238E+01;  0.0000000E+00;  4.3685846E+00;0;  3.8066685E+00;  1.7101576E+04;  0.0000000E+00; -1.4038969E-02;  4.0000000E+04;  0.0000000E+00;  3.9699844E+04;  4.1513972E+00;  0.0000000E+00; -3.4472877E-01;  3.3077408E+02;
  8.9443517E-01;  9.9999998E-03;  1.1050952E-01;7550;  2.2918796E-02;  0.0000000E+00; -7.1388431E-02;  9.8936017E+02;  1.5188628E-01; -8.8138447E+03;3; -3.6597462E+01;  0.0000000E+00;  4.7312121E+00;0;  3.6341839E+00;  1.7122176E+04;  0.0000000E+00;  1.9874424E-02;  4.0000000E+04;  0.0000000E+00;  3.9706582E+04;  3.9516697E+00;  0.0000000E+00; -3.1748569E-01;  5.4593713E+02;
  8.9443940E-01;  9.9999998E-03;  1.2053029E-01;7551;  2.6016707E-02;  0.0000000E+00; -7.5573996E-02;  9.9016614E+02;  1.5187004E-01; -8.1461909E+03;3; -3.3047726E+01;  0.0000000E+00;  5.5310407E+00;0;  3.4463451E+00;  1.7145488E+04;  0.0000000E+00;  7.7529594E-02;  4.0000000E+04;  0.0000000E+00;  3.9712523E+04;  3.7335613E+00;  0.0000000E+00; -2.8721625E-01;  1.2535929E+03;
  8.9439285E-01;  9.9999998E-03;  1.3055637E-01;7552;  2.8296188E-02;  0.0000000E+00; -7.9173468E-02;  9.9101312E+02;  1.5185648E-01; -7.4445679E+03;3; -3.0153273E+01;  0.0000000E+00;  6.0851321E+00;0;  3.2472537E+00;  1.7170916E+04;  0.0000000E+00;  1.5771526E-01;  4.0000000E+04;  0.0000000E+00;  3.9717336E+04;  3.5010540E+00;  0.0000000E+00; -2.5380048E-01;  1.8642179E+03;
  8.9430487E-01;  9.9999998E-03;  1.4058214E-01;7553;  2.9804099E-02;  0.0000000E+00; -8.2286693E-02;  9.9187451E+02;  1.5184538E-01; -6.7309971E+03;3; -2.8557701E+01;  0.0000000E+00;  6.5083909E+00;0;  3.0425899E+00;  1.7197826E+04;  0.0000000E+00;  2.5463477E-01;  4.0000000E+04;  0.0000000E+00;  3.9721180E+04;  3.2597470E+00;  0.0000000E+00; -2.1715719E-01;  2.3739517E+03;
  8.9418918E-01;  9.9999998E-03;  1.5060256E-01;7554;  2.9271398E-02;  0.0000000E+00; -8.4879816E-02;  9.9273016E+02;  1.5183653E-01; -6.0222148E+03;3; -2.9979872E+01;  0.0000000E+00;  7.6469307E+00;0;  2.8384807E+00;  1.7225332E+04;  0.0000000E+00;  3.5972148E-01;  4.0000000E+04;  0.0000000E+00;  3.9724148E+04;  3.0158153E+00;  0.0000000E+00; -1.7733446E-01;  2.7943755E+03;
  8.9406681E-01;  9.9999998E-03;  1.6061500E-01;7555;  2.6042713E-02;  0.0000000E+00; -8.6670972E-02;  9.9355347E+02;  1.5183105E-01; -5.3401943E+03;3; -2.8239292E+01;  0.0000000E+00;  8.5649643E+00;0;  2.6405451E+00;  1.7252494E+04;  0.0000000E+00;  4.6312541E-01;  4.0000000E+04;  0.0000000E+00;  3.9726297E+04;  2.7754564E+00;  0.0000000E+00; -1.3491124E-01;  3.1281257E+03;
  8.9395714E-01;  9.9999998E-03;  1.7062041E-01;7556;  2.2129735E-02;  0.0000000E+00; -8.8016577E-02;  9.9432410E+02;  1.5182947E-01; -4.7018213E+03;3; -2.2549473E+01;  0.0000000E+00;  9.2630901E+00;0;  2.4532368E+00;  1.7278402E+04;  0.0000000E+00;  5.5409658E-01;  4.0000000E+04;  0.0000000E+00;  3.9727719E+04;  2.5443199E+00;  0.0000000E+00; -9.1083094E-02;  3.3714319E+03;
  8.9384824E-01;  9.9999998E-03;  1.8061936E-01;7557;  1.8151294E-02;  0.0000000E+00; -8.8901654E-02;  9.9502301E+02;  1.5183175E-01; -4.1228457E+03;3; -1.7683256E+01;  0.0000000E+00;  8.9820337E+00;0;  2.2795529E+00;  1.7302250E+04;  0.0000000E+00;  6.2491637E-01;  4.0000000E+04;  0.0000000E+00;  3.9728887E+04;  2.3270235E+00;  0.0000000E+00; -4.7470614E-02;  3.5436433E+03;
  8.9372563E-01;  9.9999998E-03;  1.9061704E-01;7558;  1.3568061E-02;  0.0000000E+00; -8.9665681E-02;  9.9564172E+02;  1.5183818E-01; -3.6103301E+03;3; -1.2854935E+01;  0.0000000E+00;  8.6563663E+00;0;  2.1212785E+00;  1.7323336E+04;  0.0000000E+00;  6.7307848E-01;  4.0000000E+04;  0.0000000E+00;  3.9730395E+04;  2.1272571E+00;  0.0000000E+00; -5.9785224E-03;  3.7080261E+03;
  8.9357728E-01;  9.9999998E-03;  2.0061615E-01;7559;  8.8104634E-03;  0.0000000E+00; -9.0228982E-02;  9.9617896E+02;  1.5184730E-01; -3.1652607E+03;3; -7.5154772E+00;  0.0000000E+00;  8.5406408E+00;0;  1.9788365E+00;  1.7341102E+04;  0.0000000E+00;  7.0011640E-01;  4.0000000E+04;  0.0000000E+00;  3.9733527E+04;  1.9476732E+00;  0.0000000E+00;  3.1163288E-02;  3.9928967E+03;
  8.9339411E-01;  9.9999998E-03;  2.1060838E-01;7560;  4.2278497E-03;  0.0000000E+00; -9.0154827E-02;  9.9666486E+02;  1.5185852E-01; -2.7627532E+03;3; -2.9686525E+00;  0.0000000E+00;  8.6317549E+00;0;  1.8514373E+00;  1.7355295E+04;  0.0000000E+00;  7.1060479E-01;  4.0000000E+04;  0.0000000E+00;  3.9740781E+04;  1.7898499E+00;  0.0000000E+00;  6.1587397E-02;  4.7189487E+03;
  8.9317107E-01;  9.9999998E-03;  2.2061764E-01;7561; -6.0903537E-04;  0.0000000E+00; -8.9146279E-02;  9.9710779E+02;  1.5187187E-01; -2.3958455E+03;3;  1.2394071E+00;  0.0000000E+00;  8.4693708E+00;0;  1.7365726E+00;  1.7365916E+04;  0.0000000E+00;  7.1093869E-01;  4.0000000E+04;  0.0000000E+00;  3.9752812E+04;  1.6535162E+00;  0.0000000E+00;  8.3056435E-02;  6.0449590E+03;
  8.9286911E-01;  9.9999998E-03;  2.3066264E-01;7562; -5.4986766E-03;  0.0000000E+00; -8.6603455E-02;  9.9745959E+02;  1.5188707E-01; -2.1044326E+03;3;  5.6407189E+00;  0.0000000E+00;  8.2479935E+00;0;  1.6323388E+00;  1.7373182E+04;  0.0000000E+00;  7.0797068E-01;  4.0000000E+04;  0.0000000E+00;  3.9765449E+04;  1.5375193E+00;  0.0000000E+00;  9.4819389E-02;  7.5118569E+03;
  9.1022891E-01;  9.9999998E-03;  7.0294477E-02;7607;  7.0605412E-02;  0.0000000E+00; -4.9375094E-02;  9.8971271E+02;  1.5190768E-01; -8.5215146E+03;3; -8.4646194E+01;  0.0000000E+00; -1.2431251E+00;0;  4.8681931E+00;  1.7154748E+04;  0.0000000E+00;  2.3564394E-01;  4.0000000E+04;  0.0000000E+00;  3.9673922E+04;  5.2572546E+00;  0.0000000E+00; -3.8906148E-01;  3.5743953E+03;
  9.1023785E-01;  9.9999998E-03;  8.0381155E-02;7608;  7.1590692E-02;  0.0000000E+00; -5.5202357E-02;  9.8997626E+02;  1.5189177E-01; -8.3031836E+03;3; -8.1801064E+01;  0.0000000E+00; -1.0213388E+00;0;  4.7196069E+00;  1.7160309E+04;  0.0000000E+00;  2.7992660E-01;  4.0000000E+04;  0.0000000E+00;  3.9678551E+04;  5.0927563E+00;  0.0000000E+00; -3.7314954E-01;  3.1177295E+03;
  9.1022772E-01;  9.9999998E-03;  9.0448327E-02;7609;  6.9952741E-02;  0.0000000E+00; -6.0495973E-02;  9.9033551E+02;  1.5187474E-01; -8.0056079E+03;3; -7.7981194E+01;  0.0000000E+00; -7.0955789E-01;0;  4.5497780E+00;  1.7168816E+04;  0.0000000E+00;  3.0979910E-01;  4.0000000E+04;  0.0000000E+00;  3.9684379E+04;  4.9038844E+00;  0.0000000E+00; -3.5410652E-01;  2.5728638E+03;
  9.1019505E-01;  9.9999998E-03;  1.0048955E-01;7610;  6.5344490E-02;  0.0000000E+00; -6.5334387E-02;  9.9078833E+02;  1.5185754E-01; -7.6305161E+03;3; -7.3571259E+01;  0.0000000E+00; -4.1829753E-01;0;  4.3598151E+00;  1.7180270E+04;  0.0000000E+00;  3.1965682E-01;  4.0000000E+04;  0.0000000E+00;  3.9690633E+04;  4.6917720E+00;  0.0000000E+00; -3.3195707E-01;  2.0581807E+03;
  9.1013271E-01;  9.9999998E-03;  1.1050228E-01;7611;  5.8043797E-02;  0.0000000E+00; -6.9448948E-02;  9.9131061E+02;  1.5184201E-01; -7.1979048E+03;3; -6.7756264E+01;  0.0000000E+00; -2.2535369E-01;0;  4.1515355E+00;  1.7194654E+04;  0.0000000E+00;  3.0770671E-01;  4.0000000E+04;  0.0000000E+00;  3.9696473E+04;  4.4583397E+00;  0.0000000E+00; -3.0680415E-01;  1.6827421E+03;
  9.1002530E-01;  9.9999998E-03;  1.2051995E-01;7612;  4.9017627E-02;  0.0000000E+00; -7.2928756E-02;  9.9189764E+02;  1.5182775E-01; -6.7116235E+03;3; -6.0846062E+01;  0.0000000E+00;  9.8831832E-02;0;  3.9267833E+00;  1.7211768E+04;  0.0000000E+00;  2.7719834E-01;  4.0000000E+04;  0.0000000E+00;  3.9701422E+04;  4.2053995E+00;  0.0000000E+00; -2.7861619E-01;  1.4787625E+03;
  9.0988356E-01;  9.9999998E-03;  1.3054509E-01;7613;  3.9698765E-02;  0.0000000E+00; -7.5778343E-02;  9.9253204E+02;  1.5181610E-01; -6.1861411E+03;3; -5.2221470E+01;  0.0000000E+00;  1.8496671E-01;0;  3.6899941E+00;  1.7231258E+04;  0.0000000E+00;  2.3521644E-01;  4.0000000E+04;  0.0000000E+00;  3.9705434E+04;  3.9373739E+00;  0.0000000E+00; -2.4737974E-01;  1.4016832E+03;
  9.0973145E-01;  9.9999998E-03;  1.4057234E-01;7614;  3.1884614E-02;  0.0000000E+00; -7.8168742E-02;  9.9319867E+02;  1.5180764E-01; -5.6338970E+03;3; -4.2338409E+01;  0.0000000E+00;  1.3989154E-01;0;  3.4472063E+00;  1.7252562E+04;  0.0000000E+00;  1.9069672E-01;  4.0000000E+04;  0.0000000E+00;  3.9708539E+04;  3.6603324E+00;  0.0000000E+00; -2.1312614E-01;  1.3908851E+03;
  9.0959436E-01;  9.9999998E-03;  1.5059383E-01;7615;  2.6646726E-02;  0.0000000E+00; -8.0110379E-02;  9.9387811E+02;  1.5180424E-01; -5.0710869E+03;3; -3.1913731E+01;  0.0000000E+00;  8.5613769E-01;0;  3.2052221E+00;  1.7274883E+04;  0.0000000E+00;  1.5196215E-01;  4.0000000E+04;  0.0000000E+00;  3.9710941E+04;  3.3812566E+00;  0.0000000E+00; -1.7603457E-01;  1.4142303E+03;
  9.0949351E-01;  9.9999998E-03;  1.6060701E-01;7616;  2.3336444E-02;  0.0000000E+00; -8.1578791E-02;  9.9454895E+02;  1.5180272E-01; -4.5153853E+03;3; -2.5866308E+01;  0.0000000E+00;  8.9153010E-01;0;  2.9704528E+00;  1.7297289E+04;  0.0000000E+00;  1.2420160E-01;  4.0000000E+04;  0.0000000E+00;  3.9712859E+04;  3.1071947E+00;  0.0000000E+00; -1.3674180E-01;  1.4599397E+03;
  9.0942985E-01;  9.9999998E-03;  1.7061131E-01;7617;  1.9822914E-02;  0.0000000E+00; -8.2791619E-02;  9.9518207E+02;  1.5180637E-01; -3.9909370E+03;3; -2.1488497E+01;  0.0000000E+00;  1.1376119E+00;0;  2.7480690E+00;  1.7318818E+04;  0.0000000E+00;  1.0838867E-01;  4.0000000E+04;  0.0000000E+00;  3.9714516E+04;  2.8444946E+00;  0.0000000E+00; -9.6425474E-02;  1.5298119E+03;
  9.0939867E-01;  9.9999998E-03;  1.8060976E-01;7618;  1.5991364E-02;  0.0000000E+00; -8.3605930E-02;  9.9576288E+02;  1.5181430E-01; -3.5098384E+03;3; -1.6722836E+01;  0.0000000E+00;  1.3548433E+00;0;  2.5420055E+00;  1.7338615E+04;  0.0000000E+00;  1.0337909E-01;  4.0000000E+04;  0.0000000E+00;  3.9716500E+04;  2.5985706E+00;  0.0000000E+00; -5.6565098E-02;  1.6566230E+03;
  9.0938437E-01;  9.9999998E-03;  1.9060810E-01;7619;  1.1639491E-02;  0.0000000E+00; -8.3907850E-02;  9.9627686E+02;  1.5182625E-01; -3.0840879E+03;3; -1.1805943E+01;  0.0000000E+00;  1.8932298E+00;0;  2.3547215E+00;  1.7355736E+04;  0.0000000E+00;  1.0875586E-01;  4.0000000E+04;  0.0000000E+00;  3.9719309E+04;  2.3734446E+00;  0.0000000E+00; -1.8722935E-02;  1.9258057E+03;
  9.0936726E-01;  9.9999998E-03;  2.0060886E-01;7620;  6.9090533E-03;  0.0000000E+00; -8.3881035E-02;  9.9671851E+02;  1.5184149E-01; -2.7182278E+03;3; -6.6954618E+00;  0.0000000E+00;  1.4876008E+00;0;  2.1870775E+00;  1.7369434E+04;  0.0000000E+00;  1.2465037E-01;  4.0000000E+04;  0.0000000E+00;  3.9724473E+04;  2.1716783E+00;  0.0000000E+00;  1.5399234E-02;  2.4819922E+03;
  9.0931487E-01;  9.9999998E-03;  2.1060464E-01;7621;  1.9708374E-03;  0.0000000E+00; -8.3453365E-02;  9.9710760E+02;  1.5185928E-01; -2.3959155E+03;3; -2.2094479E+00;  0.0000000E+00;  1.2075924E+00;0;  2.0380287E+00;  1.7379324E+04;  0.0000000E+00;  1.5070111E-01;  4.0000000E+04;  0.0000000E+00;  3.9733750E+04;  1.9941028E+00;  0.0000000E+00;  4.3925811E-02;  3.6225212E+03;
  9.0921408E-01;  9.9999998E-03;  2.2061947E-01;7622; -3.1656048E-03;  0.0000000E+00; -8.2268476E-02;  9.9745050E+02;  1.5187912E-01; -2.1119177E+03;3;  2.2826881E+00;  0.0000000E+00;  1.1681780E+00;0;  1.9052722E+00;  1.7385443E+04;  0.0000000E+00;  1.8604308E-01;  4.0000000E+04;  0.0000000E+00;  3.9748070E+04;  1.8399655E+00;  0.0000000E+00;  6.5306790E-02;  5.3901318E+03;
  9.0902066E-01;  9.9999998E-03;  2.3067817E-01;7623; -8.4621245E-03;  0.0000000E+00; -7.9830796E-02;  9.9768079E+02;  1.5189953E-01; -1.9211381E+03;3;  6.5673904E+00;  0.0000000E+00;  1.2216617E+00;0;  1.7862372E+00;  1.7387988E+04;  0.0000000E+00;  2.2895937E-01;  4.0000000E+04;  0.0000000E+00;  3.9761223E+04;  1.7068781E+00;  0.0000000E+00;  7.9359233E-02;  7.0053110E+03;
  9.2644268E-01;  9.9999998E-03;  7.0315145E-02;7668;  2.0377879E-01;  0.0000000E+00; -4.2920619E-02;  9.9416229E+02;  1.5167239E-01; -4.8354609E+03;3; -1.2217889E+02;  0.0000000E+00; -3.2619109E+00;0;  5.3881326E+00;  1.7345697E+04;  0.0000000E+00;  3.9108512E-01;  4.0000000E+04;  0.0000000E+00;  3.9663492E+04;  5.7227077E+00;  0.0000000E+00; -3.3457506E-01;  5.2172007E+03;
  9.2636985E-01;  9.9999998E-03;  8.0380343E-02;7669;  1.9614005E-01;  0.0000000E+00; -4.8566889E-02;  9.9412408E+02;  1.5166239E-01; -4.8671592E+03;3; -1.1796198E+02;  0.0000000E+00; -3.4633968E+00;0;  5.2326956E+00;  1.7341725E+04;  0.0000000E+00;  4.7172654E-01;  4.0000000E+04;  0.0000000E+00;  3.9668402E+04;  5.5573997E+00;  0.0000000E+00; -3.2470423E-01;  4.7899434E+03;
  9.2624772E-01;  9.9999998E-03;  9.0425335E-02;7670;  1.8338893E-01;  0.0000000E+00; -5.3813405E-02;  9.9414270E+02;  1.5165083E-01; -4.8517070E+03;3; -1.1290706E+02;  0.0000000E+00; -3.7770185E+00;0;  5.0573878E+00;  1.7339549E+04;  0.0000000E+00;  5.1714605E-01;  4.0000000E+04;  0.0000000E+00;  3.9673891E+04;  5.3692513E+00;  0.0000000E+00; -3.1186324E-01;  4.3331294E+03;
  9.2607635E-01;  9.9999998E-03;  1.0045806E-01;7671;  1.6490117E-01;  0.0000000E+00; -5.8669835E-02;  9.9422607E+02;  1.5163986E-01; -4.7826387E+03;3; -1.0741427E+02;  0.0000000E+00; -3.6706243E+00;0;  4.8628244E+00;  1.7339865E+04;  0.0000000E+00;  5.0789750E-01;  4.0000000E+04;  0.0000000E+00;  3.9679328E+04;  5.1587014E+00;  0.0000000E+00; -2.9587686E-01;  3.8645996E+03;
  9.2586225E-01;  9.9999998E-03;  1.1046007E-01;7672;  1.4223284E-01;  0.0000000E+00; -6.2805377E-02;  9.9438116E+02;  1.5162876E-01; -4.6541763E+03;3; -1.0060868E+02;  0.0000000E+00; -3.7101786E+00;0;  4.6505885E+00;  1.7343180E+04;  0.0000000E+00;  4.3355319E-01;  4.0000000E+04;  0.0000000E+00;  3.9683949E+04;  4.9273429E+00;  0.0000000E+00; -2.7675447E-01;  3.3680137E+03;
  9.2560869E-01;  9.9999998E-03;  1.2046892E-01;7673;  1.1670291E-01;  0.0000000E+00; -6.6090941E-02;  9.9460382E+02;  1.5161878E-01; -4.4697759E+03;3; -9.2694313E+01;  0.0000000E+00; -3.5022135E+00;0;  4.4220181E+00;  1.7349582E+04;  0.0000000E+00;  2.9837137E-01;  4.0000000E+04;  0.0000000E+00;  3.9687543E+04;  4.6765070E+00;  0.0000000E+00; -2.5448883E-01;  2.8210513E+03;
  9.2534614E-01;  9.9999998E-03;  1.3048877E-01;7674;  9.0053670E-02;  0.0000000E+00; -6.8480551E-02;  9.9490167E+02;  1.5161207E-01; -4.2230684E+03;3; -8.3628654E+01;  0.0000000E+00; -3.3751276E+00;0;  4.1810870E+00;  1.7359213E+04;  0.0000000E+00;  1.2019794E-01;  4.0000000E+04;  0.0000000E+00;  3.9690203E+04;  4.4102216E+00;  0.0000000E+00; -2.2913459E-01;  2.2361257E+03;
  9.2511737E-01;  9.9999998E-03;  1.4051530E-01;7675;  6.4504214E-02;  0.0000000E+00; -6.9867499E-02;  9.9527209E+02;  1.5160644E-01; -3.9162251E+03;3; -7.3271210E+01;  0.0000000E+00; -3.2768126E+00;0;  3.9336133E+00;  1.7371777E+04;  0.0000000E+00; -7.3861651E-02;  4.0000000E+04;  0.0000000E+00;  3.9692012E+04;  4.1344786E+00;  0.0000000E+00; -2.0086528E-01;  1.6769865E+03;
  9.2495996E-01;  9.9999998E-03;  1.5054241E-01;7676;  4.0741846E-02;  0.0000000E+00; -7.0590280E-02;  9.9570032E+02;  1.5160456E-01; -3.5615393E+03;3; -6.1884281E+01;  0.0000000E+00; -4.3901620E+00;0;  3.6864522E+00;  1.7386689E+04;  0.0000000E+00; -2.5530463E-01;  4.0000000E+04;  0.0000000E+00;  3.9693629E+04;  3.8564911E+00;  0.0000000E+00; -1.7003883E-01;  1.2536729E+03;
  9.2487693E-01;  9.9999998E-03;  1.6056737E-01;7677;  2.2941673E-02;  0.0000000E+00; -7.2486229E-02;  9.9616443E+02;  1.5160595E-01; -3.1770813E+03;3; -3.6145988E+01;  0.0000000E+00; -8.4819498E+00;0;  3.4452467E+00;  1.7402861E+04;  0.0000000E+00; -4.0109849E-01;  4.0000000E+04;  0.0000000E+00;  3.9695285E+04;  3.5827096E+00;  0.0000000E+00; -1.3746296E-01;  1.0669913E+03;
  9.2485911E-01;  9.9999998E-03;  1.7058945E-01;7678;  1.7442139E-02;  0.0000000E+00; -7.3826209E-02;  9.9663916E+02;  1.5160999E-01; -2.7838835E+03;3; -2.1192810E+01;  0.0000000E+00; -6.7109151E+00;0;  3.2147131E+00;  1.7419455E+04;  0.0000000E+00; -4.9700373E-01;  4.0000000E+04;  0.0000000E+00;  3.9697621E+04;  3.3190448E+00;  0.0000000E+00; -1.0433167E-01;  1.0758075E+03;
  9.2489946E-01;  9.9999998E-03;  1.8060887E-01;7679;  1.3478211E-02;  0.0000000E+00; -7.4612834E-02;  9.9710583E+02;  1.5161796E-01; -2.3973015E+03;3; -1.6062374E+01;  0.0000000E+00; -6.9285145E+00;0;  3.0001891E+00;  1.7435260E+04;  0.0000000E+00; -5.3725433E-01;  4.0000000E+04;  0.0000000E+00;  3.9700492E+04;  3.0721984E+00;  0.0000000E+00; -7.2009429E-02;  1.1265248E+03;
  9.2498946E-01;  9.9999998E-03;  1.9062585E-01;7680;  9.0122130E-03;  0.0000000E+00; -7.5054526E-02;  9.9753674E+02;  1.5162888E-01; -2.0403915E+03;3; -1.1208102E+01;  0.0000000E+00; -6.9177947E+00;0;  2.8050709E+00;  1.7449227E+04;  0.0000000E+00; -5.2148193E-01;  4.0000000E+04;  0.0000000E+00;  3.9704836E+04;  2.8470280E+00;  0.0000000E+00; -4.1957069E-02;  1.1695103E+03;
  9.2511219E-01;  9.9999998E-03;  2.0064297E-01;7681;  4.4321907E-03;  0.0000000E+00; -7.5065799E-02;  9.9791742E+02;  1.5164319E-01; -1.7250527E+03;3; -5.9247775E+00;  0.0000000E+00; -7.1912093E+00;0;  2.6305523E+00;  1.7460389E+04;  0.0000000E+00; -4.5154557E-01;  4.0000000E+04;  0.0000000E+00;  3.9711352E+04;  2.6461625E+00;  0.0000000E+00; -1.5610270E-02;  1.4150068E+03;
  9.2523021E-01;  9.9999998E-03;  2.1065679E-01;7682; -5.5619021E-04;  0.0000000E+00; -7.4424207E-02;  9.9825372E+02;  1.5165906E-01; -1.4464962E+03;3; -1.7569010E+00;  0.0000000E+00; -6.8151298E+00;0;  2.4755933E+00;  1.7468230E+04;  0.0000000E+00; -3.3289763E-01;  4.0000000E+04;  0.0000000E+00;  3.9721582E+04;  2.4697874E+00;  0.0000000E+00;  5.8059110E-03;  2.3110552E+03;
  9.2531359E-01;  9.9999998E-03;  2.2069716E-01;7683; -5.8795321E-03;  0.0000000E+00; -7.2735868E-02;  9.9851709E+02;  1.5167594E-01; -1.2283218E+03;3;  2.8756044E+00;  0.0000000E+00; -6.6478596E+00;0;  2.3382490E+00;  1.7472449E+04;  0.0000000E+00; -1.7494239E-01;  4.0000000E+04;  0.0000000E+00;  3.9733734E+04;  2.3161619E+00;  0.0000000E+00;  2.2087187E-02;  3.6780281E+03;
  9.2532766E-01;  9.9999998E-03;  2.3078196E-01;7684; -1.1207104E-02;  0.0000000E+00; -7.0518069E-02;  9.9860443E+02;  1.5169670E-01; -1.1559921E+03;3;  7.5696421E+00;  0.0000000E+00; -6.7083278E+00;0;  2.2147145E+00;  1.7473098E+04;  0.0000000E+00;  6.4014713E-03;  4.0000000E+04;  0.0000000E+00;  3.9739723E+04;  2.1824341E+00;  0.0000000E+00;  3.2280475E-02;  4.3922734E+03;
  9.4165671E-01;  9.9999998E-03;  7.0345260E-02;7729;  3.2068196E-01;  0.0000000E+00; -3.4499757E-02;  9.9846680E+02;  1.5125501E-01; -1.2699238E+03;3; -1.3101814E+02;  0.0000000E+00; -7.3278489E+00;0;  5.6869683E+00;  1.7577645E+04;  0.0000000E+00;  3.9071965E-01;  4.0000000E+04;  0.0000000E+00;  3.9652242E+04;  5.9395471E+00;  0.0000000E+00; -2.5257877E-01;  6.8006904E+03;
  9.4155526E-01;  9.9999998E-03;  8.0387086E-02;7730;  3.1076816E-01;  0.0000000E+00; -3.9285924E-02;  9.9814417E+02;  1.5125263E-01; -1.5371598E+03;3; -1.2717544E+02;  0.0000000E+00; -7.9846768E+00;0;  5.5498486E+00;  1.7564125E+04;  0.0000000E+00;  4.7824538E-01;  4.0000000E+04;  0.0000000E+00;  3.9657711E+04;  5.8011217E+00;  0.0000000E+00; -2.5127295E-01;  6.2804019E+03;
  9.4141084E-01;  9.9999998E-03;  9.0411633E-02;7731;  2.9685783E-01;  0.0000000E+00; -4.3853935E-02;  9.9784491E+02;  1.5124987E-01; -1.7849941E+03;3; -1.2300160E+02;  0.0000000E+00; -8.4774828E+00;0;  5.3975306E+00;  1.7551596E+04;  0.0000000E+00;  5.2113485E-01;  4.0000000E+04;  0.0000000E+00;  3.9662969E+04;  5.6448903E+00;  0.0000000E+00; -2.4735977E-01;  5.8038359E+03;
  9.4122475E-01;  9.9999998E-03;  1.0043647E-01;7732;  2.7815166E-01;  0.0000000E+00; -4.8161384E-02;  9.9757794E+02;  1.5124719E-01; -2.0061204E+03;3; -1.1840884E+02;  0.0000000E+00; -8.8631363E+00;0;  5.2303143E+00;  1.7540812E+04;  0.0000000E+00;  4.9071202E-01;  4.0000000E+04;  0.0000000E+00;  3.9667320E+04;  5.4707599E+00;  0.0000000E+00; -2.4044538E-01;  5.3568438E+03;
  9.4099689E-01;  9.9999998E-03;  1.1044425E-01;7733;  2.5459546E-01;  0.0000000E+00; -5.2099053E-02;  9.9736713E+02;  1.5124334E-01; -2.1807412E+03;3; -1.1312186E+02;  0.0000000E+00; -9.0783920E+00;0;  5.0490589E+00;  1.7532721E+04;  0.0000000E+00;  3.6981189E-01;  4.0000000E+04;  0.0000000E+00;  3.9670523E+04;  5.2794409E+00;  0.0000000E+00; -2.3038211E-01;  4.8953892E+03;
  9.4075173E-01;  9.9999998E-03;  1.2044689E-01;7734;  2.2682223E-01;  0.0000000E+00; -5.5486515E-02;  9.9723315E+02;  1.5123984E-01; -2.2917258E+03;3; -1.0707508E+02;  0.0000000E+00; -9.2528534E+00;0;  4.8550901E+00;  1.7528012E+04;  0.0000000E+00;  1.6143835E-01;  4.0000000E+04;  0.0000000E+00;  3.9672598E+04;  5.0722051E+00;  0.0000000E+00; -2.1711515E-01;  4.4138218E+03;
  9.4051474E-01;  9.9999998E-03;  1.3045546E-01;7735;  1.9414914E-01;  0.0000000E+00; -5.8354896E-02;  9.9719153E+02;  1.5123703E-01; -2.3261875E+03;3; -1.0023830E+02;  0.0000000E+00; -9.2553759E+00;0;  4.6508460E+00;  1.7527260E+04;  0.0000000E+00; -1.1019464E-01;  4.0000000E+04;  0.0000000E+00;  3.9673742E+04;  4.8516402E+00;  0.0000000E+00; -2.0079410E-01;  3.9747234E+03;
  9.4031447E-01;  9.9999998E-03;  1.4047393E-01;7736;  1.5760957E-01;  0.0000000E+00; -6.0361683E-02;  9.9725653E+02;  1.5123475E-01; -2.2723765E+03;3; -9.2120430E+01;  0.0000000E+00; -9.1078711E+00;0;  4.4399781E+00;  1.7530504E+04;  0.0000000E+00; -4.0550527E-01;  4.0000000E+04;  0.0000000E+00;  3.9674355E+04;  4.6217241E+00;  0.0000000E+00; -1.8174598E-01;  3.6781213E+03;
  9.4018286E-01;  9.9999998E-03;  1.5050523E-01;7737;  1.1841093E-01;  0.0000000E+00; -6.1373524E-02;  9.9742413E+02;  1.5123324E-01; -2.1335508E+03;3; -8.2952049E+01;  0.0000000E+00; -8.9509220E+00;0;  4.2274642E+00;  1.7537475E+04;  0.0000000E+00; -6.8111020E-01;  4.0000000E+04;  0.0000000E+00;  3.9675285E+04;  4.3879452E+00;  0.0000000E+00; -1.6048111E-01;  3.5696616E+03;
  9.4013083E-01;  9.9999998E-03;  1.6054945E-01;7738;  7.8197397E-02;  0.0000000E+00; -6.0935453E-02;  9.9767987E+02;  1.5123336E-01; -1.9217068E+03;3; -7.2539810E+01;  0.0000000E+00; -8.8549290E+00;0;  4.0184450E+00;  1.7547324E+04;  0.0000000E+00; -9.0025419E-01;  4.0000000E+04;  0.0000000E+00;  3.9676957E+04;  4.1563063E+00;  0.0000000E+00; -1.3786119E-01;  3.5698154E+03;
  9.4016725E-01;  9.9999998E-03;  1.7059864E-01;7739;  3.8457777E-02;  0.0000000E+00; -5.8578264E-02;  9.9800433E+02;  1.5123445E-01; -1.6529883E+03;3; -6.0230995E+01;  0.0000000E+00; -1.0014044E+01;0;  3.8186450E+00;  1.7558906E+04;  0.0000000E+00; -1.0388621E+00;  4.0000000E+04;  0.0000000E+00;  3.9679891E+04;  3.9336040E+00;  0.0000000E+00; -1.1495894E-01;  3.5300359E+03;
  9.4029737E-01;  9.9999998E-03;  1.8064976E-01;7740;  1.3835239E-02;  0.0000000E+00; -6.0174283E-02;  9.9836127E+02;  1.5123646E-01; -1.3573140E+03;3; -2.0407133E+01;  0.0000000E+00; -1.7021055E+01;0;  3.6318130E+00;  1.7571066E+04;  0.0000000E+00; -1.0867152E+00;  4.0000000E+04;  0.0000000E+00;  3.9684070E+04;  3.7250967E+00;  0.0000000E+00; -9.3283705E-02;  3.3311311E+03;
  9.4051862E-01;  9.9999998E-03;  1.9069599E-01;7741;  7.9170875E-03;  0.0000000E+00; -6.1270393E-02;  9.9872498E+02;  1.5124011E-01; -1.0560609E+03;3; -1.1547458E+01;  0.0000000E+00; -1.5446088E+01;0;  3.4605000E+00;  1.7582721E+04;  0.0000000E+00; -1.0414515E+00;  4.0000000E+04;  0.0000000E+00;  3.9689629E+04;  3.5346310E+00;  0.0000000E+00; -7.4130960E-02;  2.9015278E+03;
  9.4079417E-01;  9.9999998E-03;  2.0074210E-01;7742;  2.6921802E-03;  0.0000000E+00; -6.1705589E-02;  9.9906378E+02;  1.5124604E-01; -7.7544440E+02;3; -6.0993714E+00;  0.0000000E+00; -1.5298105E+01;0;  3.3068407E+00;  1.7592619E+04;  0.0000000E+00; -9.0122402E-01;  4.0000000E+04;  0.0000000E+00;  3.9696730E+04;  3.3654914E+00;  0.0000000E+00; -5.8650650E-02;  2.2287979E+03;
  9.4107956E-01;  9.9999998E-03;  2.1078229E-01;7743; -2.8079743E-03;  0.0000000E+00; -6.1407913E-02;  9.9935901E+02;  1.5125297E-01; -5.3091748E+02;3; -1.3827909E+00;  0.0000000E+00; -1.4340588E+01;0;  3.1697192E+00;  1.7599949E+04;  0.0000000E+00; -6.6708916E-01;  4.0000000E+04;  0.0000000E+00;  3.9705426E+04;  3.2174397E+00;  0.0000000E+00; -4.7720347E-02;  1.4344275E+03;
  9.4134688E-01;  9.9999998E-03;  2.2084013E-01;7744; -8.3659273E-03;  0.0000000E+00; -6.0287125E-02;  9.9957013E+02;  1.5126076E-01; -3.5605106E+02;3;  3.6788568E+00;  0.0000000E+00; -1.3987304E+01;0;  3.0473118E+00;  1.7604332E+04;  0.0000000E+00; -3.4797251E-01;  4.0000000E+04;  0.0000000E+00;  3.9713160E+04;  3.0887949E+00;  0.0000000E+00; -4.1483078E-02;  1.2013657E+03;
  9.4157708E-01;  9.9999998E-03;  2.3093592E-01;7745; -1.3901355E-02;  0.0000000E+00; -5.9092969E-02;  9.9956659E+02;  1.5127239E-01; -3.5896353E+02;3;  8.6649952E+00;  0.0000000E+00; -1.3674134E+01;0;  2.9359164E+00;  1.7605584E+04;  0.0000000E+00;  2.8885897E-02;  4.0000000E+04;  0.0000000E+00;  3.9710930E+04;  2.9773431E+00;  0.0000000E+00; -4.1426584E-02;  9.8939056E+02;
  9.5646125E-01;  9.9999998E-03;  7.0324026E-02;7790;  4.3929970E-01;  0.0000000E+00; -2.0422433E-02;  1.0015676E+03;  1.5063110E-01;  1.2983307E+03;3; -1.2436030E+02;  0.0000000E+00; -1.3039315E+01;0;  5.7542238E+00;  1.7823324E+04;  0.0000000E+00;  2.3789284E-01;  4.0000000E+04;  0.0000000E+00;  3.9640066E+04;  5.9020772E+00;  0.0000000E+00; -1.4785336E-01;  8.3530254E+03;
  9.5626181E-01;  9.9999998E-03;  8.0342963E-02;7791;  4.2297730E-01;  0.0000000E+00; -2.3536030E-02;  1.0010334E+03;  1.5063906E-01;  8.5591168E+02;3; -1.2163822E+02;  0.0000000E+00; -1.4120386E+01;0;  5.6557522E+00;  1.7802109E+04;  0.0000000E+00;  3.0158344E-01;  4.0000000E+04;  0.0000000E+00;  3.9646312E+04;  5.8132033E+00;  0.0000000E+00; -1.5745093E-01;  7.6345791E+03;
  9.5600295E-01;  9.9999998E-03;  9.0355545E-02;7792;  4.0232593E-01;  0.0000000E+00; -2.6779275E-02;  1.0004764E+03;  1.5064587E-01;  3.9453537E+02;3; -1.1866644E+02;  0.0000000E+00; -1.4991932E+01;0;  5.5476737E+00;  1.7780648E+04;  0.0000000E+00;  3.2859287E-01;  4.0000000E+04;  0.0000000E+00;  3.9651660E+04;  5.7128205E+00;  0.0000000E+00; -1.6514696E-01;  7.0360752E+03;
  9.5570421E-01;  9.9999998E-03;  1.0037968E-01;7793;  3.7715396E-01;  0.0000000E+00; -3.0023629E-02;  9.9992688E+02;  1.5065224E-01; -6.0572517E+01;3; -1.1514220E+02;  0.0000000E+00; -1.5655558E+01;0;  5.4298334E+00;  1.7760494E+04;  0.0000000E+00;  2.8874552E-01;  4.0000000E+04;  0.0000000E+00;  3.9655680E+04;  5.5999660E+00;  0.0000000E+00; -1.7013273E-01;  6.5739688E+03;
  9.5539105E-01;  9.9999998E-03;  1.1041021E-01;7794;  3.4754568E-01;  0.0000000E+00; -3.3100657E-02;  9.9942554E+02;  1.5065834E-01; -4.7579358E+02;3; -1.1081560E+02;  0.0000000E+00; -1.6138382E+01;0;  5.3024549E+00;  1.7742785E+04;  0.0000000E+00;  1.6041386E-01;  4.0000000E+04;  0.0000000E+00;  3.9657898E+04;  5.4743462E+00;  0.0000000E+00; -1.7189144E-01;  6.2204902E+03;
  9.5509267E-01;  9.9999998E-03;  1.2044432E-01;7795;  3.1359994E-01;  0.0000000E+00; -3.5966981E-02;  9.9899933E+02;  1.5066265E-01; -8.2876471E+02;3; -1.0576311E+02;  0.0000000E+00; -1.6540279E+01;0;  5.1663170E+00;  1.7728760E+04;  0.0000000E+00; -5.8413178E-02;  4.0000000E+04;  0.0000000E+00;  3.9658844E+04;  5.3365951E+00;  0.0000000E+00; -1.7027827E-01;  5.9531157E+03;
  9.5482373E-01;  9.9999998E-03;  1.3049972E-01;7796;  2.7633074E-01;  0.0000000E+00; -3.8433596E-02;  9.9868268E+02;  1.5066542E-01; -1.0910502E+03;3; -9.9738976E+01;  0.0000000E+00; -1.6925398E+01;0;  5.0224142E+00;  1.7719197E+04;  0.0000000E+00; -3.4659678E-01;  4.0000000E+04;  0.0000000E+00;  3.9658680E+04;  5.1879268E+00;  0.0000000E+00; -1.6551268E-01;  5.7755200E+03;
  9.5461506E-01;  9.9999998E-03;  1.4056584E-01;7797;  2.3631494E-01;  0.0000000E+00; -4.0334549E-02;  9.9849652E+02;  1.5066592E-01; -1.2452229E+03;3; -9.2728722E+01;  0.0000000E+00; -1.7332607E+01;0;  4.8733616E+00;  1.7714604E+04;  0.0000000E+00; -6.6442734E-01;  4.0000000E+04;  0.0000000E+00;  3.9658516E+04;  5.0313883E+00;  0.0000000E+00; -1.5802683E-01;  5.6853706E+03;
  9.5453250E-01;  9.9999998E-03;  1.5063305E-01;7798;  1.9459841E-01;  0.0000000E+00; -4.1513793E-02;  9.9845551E+02;  1.5066302E-01; -1.2791876E+03;3; -8.5008202E+01;  0.0000000E+00; -1.7768814E+01;0;  4.7240677E+00;  1.7714928E+04;  0.0000000E+00; -9.6577257E-01;  4.0000000E+04;  0.0000000E+00;  3.9659062E+04;  4.8725247E+00;  0.0000000E+00; -1.4845695E-01;  5.6365562E+03;
  9.5458859E-01;  9.9999998E-03;  1.6070829E-01;7799;  1.5142305E-01;  0.0000000E+00; -4.1819390E-02;  9.9854181E+02;  1.5065894E-01; -1.2077046E+03;3; -7.6487305E+01;  0.0000000E+00; -1.8240383E+01;0;  4.5788894E+00;  1.7719430E+04;  0.0000000E+00; -1.2099863E+00;  4.0000000E+04;  0.0000000E+00;  3.9661207E+04;  4.7167082E+00;  0.0000000E+00; -1.3781875E-01;  5.5321499E+03;
  9.5476741E-01;  9.9999998E-03;  1.7078958E-01;7800;  1.0636700E-01;  0.0000000E+00; -4.1285843E-02;  9.9873035E+02;  1.5065295E-01; -1.0515571E+03;3; -6.7371063E+01;  0.0000000E+00; -1.8698322E+01;0;  4.4415960E+00;  1.7726736E+04;  0.0000000E+00; -1.3694751E+00;  4.0000000E+04;  0.0000000E+00;  3.9664828E+04;  4.5688424E+00;  0.0000000E+00; -1.2724641E-01;  5.2872676E+03;
  9.5503598E-01;  9.9999998E-03;  1.8086830E-01;7801;  6.0290504E-02;  0.0000000E+00; -4.0052250E-02;  9.9897626E+02;  1.5064506E-01; -8.4791901E+02;3; -5.7713127E+01;  0.0000000E+00; -1.9279116E+01;0;  4.3150511E+00;  1.7735641E+04;  0.0000000E+00; -1.4320523E+00;  4.0000000E+04;  0.0000000E+00;  3.9669598E+04;  4.4326596E+00;  0.0000000E+00; -1.1760865E-01;  4.8833872E+03;
  9.5534801E-01;  9.9999998E-03;  1.9093539E-01;7802;  1.8108349E-02;  0.0000000E+00; -4.0328167E-02;  9.9922925E+02;  1.5063718E-01; -6.3835736E+02;3; -3.3726612E+01;  0.0000000E+00; -2.4575195E+01;0;  4.1999230E+00;  1.7744564E+04;  0.0000000E+00; -1.3960876E+00;  4.0000000E+04;  0.0000000E+00;  3.9674816E+04;  4.3096290E+00;  0.0000000E+00; -1.0970587E-01;  4.3556831E+03;
  9.5568442E-01;  9.9999998E-03;  2.0098385E-01;7803;  4.5737484E-03;  0.0000000E+00; -4.3111105E-02;  9.9944720E+02;  1.5062900E-01; -4.5782361E+02;3; -8.3922968E+00;  0.0000000E+00; -2.3009052E+01;0;  4.0918155E+00;  1.7752258E+04;  0.0000000E+00; -1.2626076E+00;  4.0000000E+04;  0.0000000E+00;  3.9679445E+04;  4.1974611E+00;  0.0000000E+00; -1.0564549E-01;  3.7299841E+03;
  9.5602947E-01;  9.9999998E-03;  2.1100931E-01;7804; -2.8298213E-03;  0.0000000E+00; -4.4783622E-02;  9.9961212E+02;  1.5062098E-01; -3.2127579E+02;3; -1.9477549E+00;  0.0000000E+00; -2.2031071E+01;0;  3.9920504E+00;  1.7757723E+04;  0.0000000E+00; -1.0310240E+00;  4.0000000E+04;  0.0000000E+00;  3.9684289E+04;  4.0979700E+00;  0.0000000E+00; -1.0591952E-01;  2.9350342E+03;
  9.5636600E-01;  9.9999998E-03;  2.2104615E-01;7805; -9.5030954E-03;  0.0000000E+00; -4.6135750E-02;  9.9967633E+02;  1.5061386E-01; -2.6805850E+02;3;  3.5554593E+00;  0.0000000E+00; -2.1229347E+01;0;  3.8987842E+00;  1.7760551E+04;  0.0000000E+00; -7.0311391E-01;  4.0000000E+04;  0.0000000E+00;  3.9686594E+04;  4.0109496E+00;  0.0000000E+00; -1.1216544E-01;  2.3295759E+03;
  9.5663649E-01;  9.9999998E-03;  2.3111004E-01;7806; -1.5555715E-02;  0.0000000E+00; -4.7580250E-02;  9.9954486E+02;  1.5061189E-01; -3.7695987E+02;3;  8.5546608E+00;  0.0000000E+00; -2.0460562E+01;0;  3.8055902E+00;  1.7760209E+04;  0.0000000E+00; -2.9987583E-01;  4.0000000E+04;  0.0000000E+00;  3.9679531E+04;  3.9322326E+00;  0.0000000E+00; -1.2664245E-01;  3.1424158E+03;
  9.7109336E-01;  9.9999998E-03;  7.0309319E-02;7851;  5.5741286E-01;  0.0000000E+00; -6.2700978E-04;  1.0031313E+03;  1.4976795E-01;  2.5932083E+03;3; -1.0603708E+02;  0.0000000E+00; -2.3827568E+01;0;  5.5911541E+00;  1.8082883E+04;  0.0000000E+00; -4.5845780E-04;  4.0000000E+04;  0.0000000E+00;  3.9628488E+04;  5.6172872E+00;  0.0000000E+00; -2.6133137E-02;  9.8258818E+03;
  9.7096431E-01;  9.9999998E-03;  8.0315284E-02;7852;  5.3894907E-01;  0.0000000E+00; -2.2157317E-03;  1.0025503E+03;  1.4978473E-01;  2.1120244E+03;3; -1.0513117E+02;  0.0000000E+00; -2.3788458E+01;0;  5.5423427E+00;  1.8059312E+04;  0.0000000E+00;  1.5024051E-02;  4.0000000E+04;  0.0000000E+00;  3.9635352E+04;  5.5886440E+00;  0.0000000E+00; -4.6301428E-02;  8.9424707E+03;
  9.7078848E-01;  9.9999998E-03;  9.0322815E-02;7853;  5.1631963E-01;  0.0000000E+00; -4.0492686E-03;  1.0019136E+03;  1.4980194E-01;  1.5848342E+03;3; -1.0395383E+02;  0.0000000E+00; -2.3894049E+01;0;  5.4919562E+00;  1.8034562E+04;  0.0000000E+00;  1.3619764E-02;  4.0000000E+04;  0.0000000E+00;  3.9641184E+04;  5.5576849E+00;  0.0000000E+00; -6.5728888E-02;  8.2136035E+03;
  9.7053456E-01;  9.9999998E-03;  1.0034276E-01;7854;  4.8887154E-01;  0.0000000E+00; -6.1456668E-03;  1.0012474E+03;  1.4981939E-01;  1.0330612E+03;3; -1.0225610E+02;  0.0000000E+00; -2.3989746E+01;0;  5.4401674E+00;  1.8009461E+04;  0.0000000E+00; -2.5631575E-02;  4.0000000E+04;  0.0000000E+00;  3.9645133E+04;  5.5238390E+00;  0.0000000E+00; -8.3671689E-02;  7.6986445E+03;
  9.7022629E-01;  9.9999998E-03;  1.1037148E-01;7855;  4.5685905E-01;  0.0000000E+00; -8.5339881E-03;  1.0005865E+03;  1.4983593E-01;  4.8572913E+02;3; -9.9949379E+01;  0.0000000E+00; -2.4034353E+01;0;  5.3859596E+00;  1.7985701E+04;  0.0000000E+00; -1.2201649E-01;  4.0000000E+04;  0.0000000E+00;  3.9647207E+04;  5.4851952E+00;  0.0000000E+00; -9.9235334E-02;  7.4017588E+03;
  9.6991915E-01;  9.9999998E-03;  1.2040978E-01;7856;  4.2083856E-01;  0.0000000E+00; -1.0939060E-02;  9.9998523E+02;  1.4984825E-01; -1.2241975E+01;3; -9.6785164E+01;  0.0000000E+00; -2.4238482E+01;0;  5.3284459E+00;  1.7965137E+04;  0.0000000E+00; -2.8335136E-01;  4.0000000E+04;  0.0000000E+00;  3.9647539E+04;  5.4402452E+00;  0.0000000E+00; -1.1179905E-01;  7.2765640E+03;
  9.6975827E-01;  9.9999998E-03;  1.3048191E-01;7857;  3.8212740E-01;  0.0000000E+00; -1.2819419E-02;  9.9949280E+02;  1.4985351E-01; -4.2002844E+02;3; -9.2556412E+01;  0.0000000E+00; -2.4605413E+01;0;  5.2685614E+00;  1.7949990E+04;  0.0000000E+00; -5.0011647E-01;  4.0000000E+04;  0.0000000E+00;  3.9647125E+04;  5.3895674E+00;  0.0000000E+00; -1.2100600E-01;  7.2518945E+03;
  9.6970522E-01;  9.9999998E-03;  1.4057833E-01;7858;  3.4077454E-01;  0.0000000E+00; -1.4221380E-02;  9.9914117E+02;  1.4985305E-01; -7.1126953E+02;3; -8.7342430E+01;  0.0000000E+00; -2.5089027E+01;0;  5.2078958E+00;  1.7940248E+04;  0.0000000E+00; -7.4316061E-01;  4.0000000E+04;  0.0000000E+00;  3.9646898E+04;  5.3356023E+00;  0.0000000E+00; -1.2770642E-01;  7.2183823E+03;
  9.6969992E-01;  9.9999998E-03;  1.5068544E-01;7859;  2.9697284E-01;  0.0000000E+00; -1.5421975E-02;  9.9893121E+02;  1.4984481E-01; -8.8512555E+02;3; -8.1421791E+01;  0.0000000E+00; -2.5643059E+01;0;  5.1468544E+00;  1.7935373E+04;  0.0000000E+00; -9.7650260E-01;  4.0000000E+04;  0.0000000E+00;  3.9647957E+04;  5.2795892E+00;  0.0000000E+00; -1.3273464E-01;  7.0560952E+03;
  9.6974379E-01;  9.9999998E-03;  1.6078538E-01;7860;  2.5172973E-01;  0.0000000E+00; -1.6331697E-02;  9.9885553E+02;  1.4983234E-01; -9.4781610E+02;3; -7.4658768E+01;  0.0000000E+00; -2.6212301E+01;0;  5.0862956E+00;  1.7934723E+04;  0.0000000E+00; -1.1660849E+00;  4.0000000E+04;  0.0000000E+00;  3.9651090E+04;  5.2229667E+00;  0.0000000E+00; -1.3667126E-01;  6.6788218E+03;
  9.6987718E-01;  9.9999998E-03;  1.7086512E-01;7861;  2.0598541E-01;  0.0000000E+00; -1.6976062E-02;  9.9889050E+02;  1.4981432E-01; -9.1883942E+02;3; -6.7334229E+01;  0.0000000E+00; -2.6827879E+01;0;  5.0284901E+00;  1.7937201E+04;  0.0000000E+00; -1.2873969E+00;  4.0000000E+04;  0.0000000E+00;  3.9656469E+04;  5.1686025E+00;  0.0000000E+00; -1.4011239E-01;  6.0710137E+03;
  9.7013575E-01;  9.9999998E-03;  1.8093999E-01;7862;  1.6097978E-01;  0.0000000E+00; -1.7373713E-02;  9.9899213E+02;  1.4979382E-01; -8.3467462E+02;3; -5.9527740E+01;  0.0000000E+00; -2.7465679E+01;0;  4.9762630E+00;  1.7941518E+04;  0.0000000E+00; -1.3294011E+00;  4.0000000E+04;  0.0000000E+00;  3.9663094E+04;  5.1199741E+00;  0.0000000E+00; -1.4371116E-01;  5.2896528E+03;
  9.7042173E-01;  9.9999998E-03;  1.9100222E-01;7863;  1.1713827E-01;  0.0000000E+00; -1.8032461E-02;  9.9910321E+02;  1.4977093E-01; -7.4271063E+02;3; -5.1429108E+01;  0.0000000E+00; -2.8114527E+01;0;  4.9272747E+00;  1.7945822E+04;  0.0000000E+00; -1.2918316E+00;  4.0000000E+04;  0.0000000E+00;  3.9669957E+04;  5.0750976E+00;  0.0000000E+00; -1.4782290E-01;  4.4482725E+03;
  9.7069150E-01;  9.9999998E-03;  2.0105724E-01;7864;  7.4960217E-02;  0.0000000E+00; -1.9248202E-02;  9.9916516E+02;  1.4974706E-01; -6.9137238E+02;3; -4.2692398E+01;  0.0000000E+00; -2.8745600E+01;0;  4.8795724E+00;  1.7948807E+04;  0.0000000E+00; -1.1770289E+00;  4.0000000E+04;  0.0000000E+00;  3.9675734E+04;  5.0324135E+00;  0.0000000E+00; -1.5284087E-01;  3.7011211E+03;
  9.7091645E-01;  9.9999998E-03;  2.1109791E-01;7865;  3.5750099E-02;  0.0000000E+00; -2.1235561E-02;  9.9914752E+02;  1.4972509E-01; -7.0598279E+02;3; -3.2875420E+01;  0.0000000E+00; -2.9327003E+01;0;  4.8308206E+00;  1.7949238E+04;  0.0000000E+00; -9.8986679E-01;  4.0000000E+04;  0.0000000E+00;  3.9679719E+04;  4.9905286E+00;  0.0000000E+00; -1.5970820E-01;  3.1506836E+03;
  9.7109222E-01;  9.9999998E-03;  2.2114073E-01;7866;  3.7914249E-03;  0.0000000E+00; -2.5008846E-02;  9.9900269E+02;  1.4970575E-01; -8.2593292E+02;3; -1.8679337E+01;  0.0000000E+00; -3.0293137E+01;0;  4.7762656E+00;  1.7946760E+04;  0.0000000E+00; -7.3584199E-01;  4.0000000E+04;  0.0000000E+00;  3.9679523E+04;  4.9484615E+00;  0.0000000E+00; -1.7219596E-01;  3.1426929E+03;
  9.7126257E-01;  9.9999998E-03;  2.3118706E-01;7867; -1.1611212E-02;  0.0000000E+00; -3.0207580E-02;  9.9869849E+02;  1.4968944E-01; -1.0778779E+03;3;  3.0530572E+00;  0.0000000E+00; -2.9084803E+01;0;  4.7106714E+00;  1.7941576E+04;  0.0000000E+00; -4.1613135E-01;  4.0000000E+04;  0.0000000E+00;  3.9672117E+04;  4.9072719E+00;  0.0000000E+00; -1.9660024E-01;  4.1106665E+03;
  9.8562354E-01;  9.9999998E-03;  7.0371218E-02;7912;  6.5478200E-01;  0.0000000E+00;  2.5987679E-02;  1.0033734E+03;  1.4864984E-01;  2.7934590E+03;3; -8.1521477E+01;  0.0000000E+00; -2.4607748E+01;0;  5.2251644E+00;  1.8374855E+04;  0.0000000E+00; -2.3864338E-01;  4.0000000E+04;  0.0000000E+00;  3.9621324E+04;  5.1211753E+00;  0.0000000E+00;  1.0398901E-01;  1.0848352E+04;
  9.8574901E-01;  9.9999998E-03;  8.0379650E-02;7913;  6.3828206E-01;  0.0000000E+00;  2.5169577E-02;  1.0028901E+03;  1.4866294E-01;  2.3932632E+03;3; -8.2408585E+01;  0.0000000E+00; -2.6269747E+01;0;  5.2208047E+00;  1.8355420E+04;  0.0000000E+00; -2.7941546E-01;  4.0000000E+04;  0.0000000E+00;  3.9628164E+04;  5.1456795E+00;  0.0000000E+00;  7.5125113E-02;  9.9567490E+03;
  9.8577976E-01;  9.9999998E-03;  9.0377055E-02;7914;  6.1772180E-01;  0.0000000E+00;  2.3973780E-02;  1.0023245E+03;  1.4867803E-01;  1.9248568E+03;3; -8.3138206E+01;  0.0000000E+00; -2.6407263E+01;0;  5.2253456E+00;  1.8333334E+04;  0.0000000E+00; -3.1484154E-01;  4.0000000E+04;  0.0000000E+00;  3.9633988E+04;  5.1805086E+00;  0.0000000E+00;  4.4836976E-02;  9.1894951E+03;
  9.8567206E-01;  9.9999998E-03;  1.0037767E-01;7915;  5.9235913E-01;  0.0000000E+00;  2.2543063E-02;  1.0016982E+03;  1.4869647E-01;  1.4063044E+03;3; -8.3529137E+01;  0.0000000E+00; -2.6336927E+01;0;  5.2395396E+00;  1.8309451E+04;  0.0000000E+00; -3.4893146E-01;  4.0000000E+04;  0.0000000E+00;  3.9638168E+04;  5.2254052E+00;  0.0000000E+00;  1.4134604E-02;  8.6283936E+03;
  9.8566616E-01;  9.9999998E-03;  1.1040398E-01;7916;  5.6363279E-01;  0.0000000E+00;  2.1363769E-02;  1.0010648E+03;  1.4870806E-01;  8.8172900E+02;3; -8.3135948E+01;  0.0000000E+00; -2.6364147E+01;0;  5.2580919E+00;  1.8287801E+04;  0.0000000E+00; -3.9183375E-01;  4.0000000E+04;  0.0000000E+00;  3.9640281E+04;  5.2725515E+00;  0.0000000E+00; -1.4459594E-02;  8.3153008E+03;
  9.8582637E-01;  9.9999998E-03;  1.2046684E-01;7917;  5.3208214E-01;  0.0000000E+00;  2.0664744E-02;  1.0004747E+03;  1.4871033E-01;  3.9308566E+02;3; -8.1844200E+01;  0.0000000E+00; -2.6749285E+01;0;  5.2813330E+00;  1.8270279E+04;  0.0000000E+00; -4.4449657E-01;  4.0000000E+04;  0.0000000E+00;  3.9640914E+04;  5.3218160E+00;  0.0000000E+00; -4.0482949E-02;  8.2057334E+03;
  9.8586166E-01;  9.9999998E-03;  1.3053362E-01;7918;  4.9634776E-01;  0.0000000E+00;  1.9597357E-02;  9.9993591E+02;  1.4871065E-01; -5.3059635E+01;3; -7.9941734E+01;  0.0000000E+00; -2.7178743E+01;0;  5.3121705E+00;  1.8254383E+04;  0.0000000E+00; -4.9902233E-01;  4.0000000E+04;  0.0000000E+00;  3.9641016E+04;  5.3774667E+00;  0.0000000E+00; -6.5296389E-02;  8.1704775E+03;
  9.8576891E-01;  9.9999998E-03;  1.4059985E-01;7919;  4.5711997E-01;  0.0000000E+00;  1.8251201E-02;  9.9948199E+02;  1.4870813E-01; -4.2896893E+02;3; -7.7180084E+01;  0.0000000E+00; -2.7608646E+01;0;  5.3469291E+00;  1.8240572E+04;  0.0000000E+00; -5.5197626E-01;  4.0000000E+04;  0.0000000E+00;  3.9641480E+04;  5.4355383E+00;  0.0000000E+00; -8.8609129E-02;  8.0876865E+03;
  9.8562771E-01;  9.9999998E-03;  1.5066276E-01;7920;  4.1613284E-01;  0.0000000E+00;  1.6793307E-02;  9.9913867E+02;  1.4869961E-01; -7.1327081E+02;3; -7.3453903E+01;  0.0000000E+00; -2.8166138E+01;0;  5.3817663E+00;  1.8229939E+04;  0.0000000E+00; -5.9591341E-01;  4.0000000E+04;  0.0000000E+00;  3.9643410E+04;  5.4918780E+00;  0.0000000E+00; -1.1011165E-01;  7.8384565E+03;
  9.8555201E-01;  9.9999998E-03;  1.6072930E-01;7921;  3.7452307E-01;  0.0000000E+00;  1.5329450E-02;  9.9890656E+02;  1.4868310E-01; -9.0547095E+02;3; -6.9058777E+01;  0.0000000E+00; -2.8947372E+01;0;  5.4150205E+00;  1.8222949E+04;  0.0000000E+00; -6.1646777E-01;  4.0000000E+04;  0.0000000E+00;  3.9647508E+04;  5.5447154E+00;  0.0000000E+00; -1.2969477E-01;  7.3333228E+03;
  9.8554277E-01;  9.9999998E-03;  1.7081529E-01;7922;  3.3268556E-01;  0.0000000E+00;  1.3696776E-02;  9.9876001E+02;  1.4865904E-01; -1.0268422E+03;3; -6.4271408E+01;  0.0000000E+00; -2.9530949E+01;0;  5.4456553E+00;  1.8218494E+04;  0.0000000E+00; -6.0350853E-01;  4.0000000E+04;  0.0000000E+00;  3.9654051E+04;  5.5931768E+00;  0.0000000E+00; -1.4752132E-01;  6.5504517E+03;
  9.8549950E-01;  9.9999998E-03;  1.8090715E-01;7923;  2.9092929E-01;  0.0000000E+00;  1.1656300E-02;  9.9865051E+02;  1.4863053E-01; -1.1175129E+03;3; -5.9143456E+01;  0.0000000E+00; -2.9994053E+01;0;  5.4702644E+00;  1.8214432E+04;  0.0000000E+00; -5.6064939E-01;  4.0000000E+04;  0.0000000E+00;  3.9662035E+04;  5.6338420E+00;  0.0000000E+00; -1.6357747E-01;  5.5800571E+03;
  9.8539102E-01;  9.9999998E-03;  1.9099970E-01;7924;  2.4969898E-01;  0.0000000E+00;  9.1412077E-03;  9.9852704E+02;  1.4860250E-01; -1.2197341E+03;3; -5.3811253E+01;  0.0000000E+00; -3.0381538E+01;0;  5.4855471E+00;  1.8209240E+04;  0.0000000E+00; -4.9412301E-01;  4.0000000E+04;  0.0000000E+00;  3.9670270E+04;  5.6633396E+00;  0.0000000E+00; -1.7779273E-01;  4.6218213E+03;
  9.8530853E-01;  9.9999998E-03;  2.0108069E-01;7925;  2.1086344E-01;  0.0000000E+00;  6.4101089E-03;  9.9834460E+02;  1.4857516E-01; -1.3708196E+03;3; -4.8430595E+01;  0.0000000E+00; -3.0576778E+01;0;  5.4923811E+00;  1.8202682E+04;  0.0000000E+00; -3.9982235E-01;  4.0000000E+04;  0.0000000E+00;  3.9676699E+04;  5.6828761E+00;  0.0000000E+00; -1.9049498E-01;  3.9243499E+03;
  9.8523587E-01;  9.9999998E-03;  2.1113230E-01;7926;  1.7540146E-01;  0.0000000E+00;  3.2701469E-03;  9.9808301E+02;  1.4854954E-01; -1.5874528E+03;3; -4.3136814E+01;  0.0000000E+00; -3.0903959E+01;0;  5.4898162E+00;  1.8193875E+04;  0.0000000E+00; -2.7653247E-01;  4.0000000E+04;  0.0000000E+00;  3.9680512E+04;  5.6921549E+00;  0.0000000E+00; -2.0233852E-01;  3.5595381E+03;
  9.8523271E-01;  9.9999998E-03;  2.2116202E-01;7927;  1.4408606E-01;  0.0000000E+00; -3.0901740E-04;  9.9773206E+02;  1.4852563E-01; -1.8780729E+03;3; -3.8358257E+01;  0.0000000E+00; -3.1369925E+01;0;  5.4798398E+00;  1.8182945E+04;  0.0000000E+00; -1.1355602E-01;  4.0000000E+04;  0.0000000E+00;  3.9681949E+04;  5.6947184E+00;  0.0000000E+00; -2.1487843E-01;  3.5195950E+03;
  9.8528659E-01;  9.9999998E-03;  2.3118313E-01;7928;  1.1689267E-01;  0.0000000E+00; -4.6335147E-03;  9.9729071E+02;  1.4850432E-01; -2.2435188E+03;3; -3.4384785E+01;  0.0000000E+00; -3.1282595E+01;0;  5.4607949E+00;  1.8169928E+04;  0.0000000E+00;  9.9683359E-02;  4.0000000E+04;  0.0000000E+00;  3.9680660E+04;  5.6919951E+00;  0.0000000E+00; -2.3120041E-01;  3.8311528E+03;
  1.0000099E+00;  9.9999998E-03;  7.0418745E-02;7973;  7.2533900E-01;  0.0000000E+00;  4.4759065E-02;  1.0030335E+03;  1.4726849E-01;  2.5117334E+03;3; -5.5475861E+01;  0.0000000E+00; -1.0828128E+01;0;  4.7073345E+00;  1.8722951E+04;  0.0000000E+00; -4.3863335E-01;  4.0000000E+04;  0.0000000E+00;  3.9619051E+04;  4.4766703E+00;  0.0000000E+00;  2.3066430E-01;  1.1346908E+04;
  9.9895591E-01;  9.9999998E-03;  2.3115669E-01;7989;  2.9509127E-01;  0.0000000E+00;  1.8576626E-02;  9.9594702E+02;  1.4710912E-01; -3.3558853E+03;3; -4.8109238E+01;  0.0000000E+00; -2.7673529E+01;0;  5.9439168E+00;  1.8466654E+04;  0.0000000E+00;  8.9993984E-01;  4.0000000E+04;  0.0000000E+00;  3.9688336E+04;  6.1975079E+00;  0.0000000E+00; -2.5359088E-01;  4.5393989E+03;
  9.9909192E-01;  9.9999998E-03;  2.2116044E-01;7988;  3.1213930E-01;  0.0000000E+00;  2.3396669E-02;  9.9656537E+02;  1.4712705E-01; -2.8438970E+03;3; -4.9291317E+01;  0.0000000E+00; -2.7533890E+01;0;  5.9207745E+00;  1.8490363E+04;  0.0000000E+00;  8.3568412E-01;  4.0000000E+04;  0.0000000E+00;  3.9683973E+04;  6.1611519E+00;  0.0000000E+00; -2.4037720E-01;  4.8726802E+03;
  1.0003281E+00;  9.9999998E-03;  8.0443576E-02;7974;  7.1200824E-01;  0.0000000E+00;  4.8282702E-02;  1.0027498E+03;  1.4726822E-01;  2.2768103E+03;3; -5.8304497E+01;  0.0000000E+00; -1.9389051E+01;0;  4.7393456E+00;  1.8713520E+04;  0.0000000E+00; -5.2585268E-01;  4.0000000E+04;  0.0000000E+00;  3.9625570E+04;  4.5451317E+00;  0.0000000E+00;  1.9421370E-01;  1.0519946E+04;
  9.9930131E-01;  9.9999998E-03;  2.1116093E-01;7987;  3.3354992E-01;  0.0000000E+00;  2.7410787E-02;  9.9714478E+02;  1.4714570E-01; -2.3641355E+03;3; -5.0891369E+01;  0.0000000E+00; -2.7477129E+01;0;  5.8828344E+00;  1.8512605E+04;  0.0000000E+00;  7.9084951E-01;  4.0000000E+04;  0.0000000E+00;  3.9679844E+04;  6.1098080E+00;  0.0000000E+00; -2.2697340E-01;  5.2213604E+03;
  9.9956650E-01;  9.9999998E-03;  2.0113949E-01;7986;  3.5890490E-01;  0.0000000E+00;  3.1049546E-02;  9.9767383E+02;  1.4716479E-01; -1.9260779E+03;3; -5.2829079E+01;  0.0000000E+00; -2.7523973E+01;0;  5.8296971E+00;  1.8533350E+04;  0.0000000E+00;  7.4884009E-01;  4.0000000E+04;  0.0000000E+00;  3.9675895E+04;  6.0406208E+00;  0.0000000E+00; -2.1092352E-01;  5.5783735E+03;
  1.0006417E+00;  9.9999998E-03;  9.0457171E-02;7975;  6.9565427E-01;  0.0000000E+00;  4.8736684E-02;  1.0023950E+03;  1.4726759E-01;  1.9829624E+03;3; -6.0730957E+01;  0.0000000E+00; -2.3762768E+01;0;  4.7843680E+00;  1.8702199E+04;  0.0000000E+00; -5.8924633E-01;  4.0000000E+04;  0.0000000E+00;  3.9631488E+04;  4.6292377E+00;  0.0000000E+00;  1.5513019E-01;  9.7836396E+03;
  9.9983287E-01;  9.9999998E-03;  1.9109532E-01;7985;  3.8758704E-01;  0.0000000E+00;  3.4347679E-02;  9.9813422E+02;  1.4718536E-01; -1.5448760E+03;3; -5.4957973E+01;  0.0000000E+00; -2.7301819E+01;0;  5.7602048E+00;  1.8552059E+04;  0.0000000E+00;  6.8546808E-01;  4.0000000E+04;  0.0000000E+00;  3.9670188E+04;  5.9517293E+00;  0.0000000E+00; -1.9152464E-01;  6.0538022E+03;
  1.0000803E+00;  9.9999998E-03;  1.8103841E-01;7984;  4.1903904E-01;  0.0000000E+00;  3.7355196E-02;  9.9853156E+02;  1.4720669E-01; -1.2158413E+03;3; -5.7171066E+01;  0.0000000E+00; -2.6997002E+01;0;  5.6752081E+00;  1.8568930E+04;  0.0000000E+00;  5.8184445E-01;  4.0000000E+04;  0.0000000E+00;  3.9662980E+04;  5.8437743E+00;  0.0000000E+00; -1.6856599E-01;  6.6537407E+03;
  1.0003872E+00;  9.9999998E-03;  1.7097443E-01;7983;  4.5340261E-01;  0.0000000E+00;  4.0172275E-02;  9.9889587E+02;  1.4722334E-01; -9.1419806E+02;3; -5.9299927E+01;  0.0000000E+00; -2.6687376E+01;0;  5.5769677E+00;  1.8585221E+04;  0.0000000E+00;  4.3670434E-01;  4.0000000E+04;  0.0000000E+00;  3.9655500E+04;  5.7189841E+00;  0.0000000E+00; -1.4201637E-01;  7.2764878E+03;
  1.0009781E+00;  9.9999998E-03;  1.0047758E-01;7976;  6.7601925E-01;  0.0000000E+00;  4.8494838E-02;  1.0019868E+03;  1.4726320E-01;  1.6449951E+03;3; -6.2561382E+01;  0.0000000E+00; -2.4353132E+01;0;  4.8429189E+00;  1.8690598E+04;  0.0000000E+00; -6.1512083E-01;  4.0000000E+04;  0.0000000E+00;  3.9635742E+04;  4.7279420E+00;  0.0000000E+00;  1.1497691E-01;  9.2139189E+03;
  1.0007662E+00;  9.9999998E-03;  1.6089851E-01;7982;  4.8927480E-01;  0.0000000E+00;  4.2682856E-02;  9.9926874E+02;  1.4723364E-01; -6.0549872E+02;3; -6.1492279E+01;  0.0000000E+00; -2.6253523E+01;0;  5.4674687E+00;  1.8602170E+04;  0.0000000E+00;  2.5499871E-01;  4.0000000E+04;  0.0000000E+00;  3.9649285E+04;  5.5793424E+00;  0.0000000E+00; -1.1187380E-01;  7.8055347E+03;
  1.0012680E+00;  9.9999998E-03;  1.1051656E-01;7977;  6.5251434E-01;  0.0000000E+00;  4.8307844E-02;  1.0015315E+03;  1.4725740E-01;  1.2680425E+03;3; -6.3927902E+01;  0.0000000E+00; -2.4471458E+01;0;  4.9177403E+00;  1.8678492E+04;  0.0000000E+00; -5.8886623E-01;  4.0000000E+04;  0.0000000E+00;  3.9638531E+04;  4.8432584E+00;  0.0000000E+00;  7.4482016E-02;  8.8357646E+03;
  1.0010866E+00;  9.9999998E-03;  1.5080427E-01;7981;  5.2464408E-01;  0.0000000E+00;  4.4608533E-02;  9.9966693E+02;  1.4724128E-01; -2.7577771E+02;3; -6.3393860E+01;  0.0000000E+00; -2.5562635E+01;0;  5.3505187E+00;  1.8618625E+04;  0.0000000E+00;  4.5315824E-02;  4.0000000E+04;  0.0000000E+00;  3.9644789E+04;  5.4291077E+00;  0.0000000E+00; -7.8588776E-02;  8.1738555E+03;
  1.0014064E+00;  9.9999998E-03;  1.2056877E-01;7978;  6.2466991E-01;  0.0000000E+00;  4.7894273E-02;  1.0010507E+03;  1.4725362E-01;  8.6997064E+02;3; -6.4832062E+01;  0.0000000E+00; -2.4621798E+01;0;  5.0102634E+00;  1.8664697E+04;  0.0000000E+00; -5.0158191E-01;  4.0000000E+04;  0.0000000E+00;  3.9639996E+04;  4.9761572E+00;  0.0000000E+00;  3.4106039E-02;  8.6163281E+03;
  1.0013114E+00;  9.9999998E-03;  1.4071147E-01;7980;  5.5952477E-01;  0.0000000E+00;  4.5996018E-02;  1.0000996E+03;  1.4724584E-01;  8.2516006E+01;3; -6.4769104E+01;  0.0000000E+00; -2.5108206E+01;0;  5.2315631E+00;  1.8634568E+04;  0.0000000E+00; -1.6721095E-01;  4.0000000E+04;  0.0000000E+00;  3.9642188E+04;  5.2744069E+00;  0.0000000E+00; -4.2843673E-02;  8.3796963E+03;
  1.0014164E+00;  9.9999998E-03;  1.3063261E-01;7979;  5.9334397E-01;  0.0000000E+00;  4.7141183E-02;  1.0005646E+03;  1.4725052E-01;  4.6745868E+02;3; -6.5145645E+01;  0.0000000E+00; -2.4817579E+01;0;  5.1164274E+00;  1.8649891E+04;  0.0000000E+00; -3.5663760E-01;  4.0000000E+04;  0.0000000E+00;  3.9640820E+04;  5.1216106E+00;  0.0000000E+00; -5.1831580E-03;  8.4933594E+03;
  1.0132998E+00;  9.9999998E-03;  2.3109666E-01;8050;  4.6617728E-01;  0.0000000E+00;  3.7873343E-02;  9.9540149E+02;  1.4549035E-01; -3.8070322E+03;3; -6.1461246E+01;  0.0000000E+00; -2.3168955E+01;0;  6.0948167E+00;  1.8863424E+04;  0.0000000E+00;  1.2818141E+00;  4.0000000E+04;  0.0000000E+00;  3.9697727E+04;  6.3601680E+00;  0.0000000E+00; -2.6535147E-01;  4.1908325E+03;
  1.0135098E+00;  9.9999998E-03;  2.2110102E-01;8049;  4.7370982E-01;  0.0000000E+00;  4.2269006E-02;  9.9624738E+02;  1.4549550E-01; -3.1067583E+03;3; -5.9416912E+01;  0.0000000E+00; -2.3192711E+01;0;  6.0308690E+00;  1.8900451E+04;  0.0000000E+00;  1.4662369E+00;  4.0000000E+04;  0.0000000E+00;  3.9689906E+04;  6.2815046E+00;  0.0000000E+00; -2.5063562E-01;  5.1300747E+03;
  1.0137643E+00;  9.9999998E-03;  2.1111406E-01;8048;  4.8433387E-01;  0.0000000E+00;  4.6076160E-02;  9.9706592E+02;  1.4550050E-01; -2.4290864E+03;3; -5.7855968E+01;  0.0000000E+00; -2.3155373E+01;0;  5.9484310E+00;  1.8936375E+04;  0.0000000E+00;  1.6169866E+00;  4.0000000E+04;  0.0000000E+00;  3.9683059E+04;  6.1811728E+00;  0.0000000E+00; -2.3274176E-01;  5.9913789E+03;
  1.0140727E+00;  9.9999998E-03;  2.0111541E-01;8047;  4.9854478E-01;  0.0000000E+00;  4.9705286E-02;  9.9785779E+02;  1.4550516E-01; -1.7734750E+03;3; -5.6620022E+01;  0.0000000E+00; -2.3151554E+01;0;  5.8463850E+00;  1.8970830E+04;  0.0000000E+00;  1.7083927E+00;  4.0000000E+04;  0.0000000E+00;  3.9677750E+04;  6.0569582E+00;  0.0000000E+00; -2.1057323E-01;  6.6421177E+03;
  1.0144771E+00;  9.9999998E-03;  1.9109899E-01;8046;  5.1693535E-01;  0.0000000E+00;  5.3211533E-02;  9.9859760E+02;  1.4550719E-01; -1.1609943E+03;3; -5.5365559E+01;  0.0000000E+00; -2.3051743E+01;0;  5.7233195E+00;  1.9004320E+04;  0.0000000E+00;  1.7136500E+00;  4.0000000E+04;  0.0000000E+00;  3.9672262E+04;  5.9073439E+00;  0.0000000E+00; -1.8402454E-01;  7.1504658E+03;
  1.0147703E+00;  9.9999998E-03;  7.0508264E-02;8034;  7.7494925E-01;  0.0000000E+00;  5.3537130E-02;  1.0029789E+03;  1.4561380E-01;  2.4661675E+03;3; -3.0424126E+01;  0.0000000E+00; -6.0711770E+00;0;  4.0801167E+00;  1.9162656E+04;  0.0000000E+00; -5.9681267E-01;  4.0000000E+04;  0.0000000E+00;  3.9621977E+04;  3.7317851E+00;  0.0000000E+00;  3.4833172E-01;  1.1333742E+04;
  1.0148950E+00;  9.9999998E-03;  1.8106951E-01;8045;  5.3873706E-01;  0.0000000E+00;  5.6552563E-02;  9.9927228E+02;  1.4550875E-01; -6.0245300E+02;3; -5.4290855E+01;  0.0000000E+00; -2.2756229E+01;0;  5.5809464E+00;  1.9035633E+04;  0.0000000E+00;  1.6067187E+00;  4.0000000E+04;  0.0000000E+00;  3.9666012E+04;  5.7340446E+00;  0.0000000E+00; -1.5309803E-01;  7.5607427E+03;
  1.0150495E+00;  9.9999998E-03;  8.0552727E-02;8035;  7.6502365E-01;  0.0000000E+00;  6.1487272E-02;  1.0029438E+03;  1.4560184E-01;  2.4371448E+03;3; -3.4142784E+01;  0.0000000E+00; -8.2542601E+00;0;  4.1461701E+00;  1.9163980E+04;  0.0000000E+00; -7.1065098E-01;  4.0000000E+04;  0.0000000E+00;  3.9627781E+04;  3.8418891E+00;  0.0000000E+00;  3.0428118E-01;  1.0645336E+04;
  1.0153158E+00;  9.9999998E-03;  1.7102368E-01;8044;  5.6387770E-01;  0.0000000E+00;  5.9578530E-02;  9.9988245E+02;  1.4550975E-01; -9.7307877E+01;3; -5.3446007E+01;  0.0000000E+00; -2.2487654E+01;0;  5.4219317E+00;  1.9064689E+04;  0.0000000E+00;  1.3770620E+00;  4.0000000E+04;  0.0000000E+00;  3.9659676E+04;  5.5397711E+00;  0.0000000E+00; -1.1783945E-01;  7.8650376E+03;
  1.0153931E+00;  9.9999998E-03;  9.0584747E-02;8036;  7.5292933E-01;  0.0000000E+00;  6.6298336E-02;  1.0028494E+03;  1.4558522E-01;  2.3588748E+03;3; -3.8067307E+01;  0.0000000E+00; -1.5978554E+01;0;  4.2256160E+00;  1.9164816E+04;  0.0000000E+00; -7.8430945E-01;  4.0000000E+04;  0.0000000E+00;  3.9633328E+04;  3.9686320E+00;  0.0000000E+00;  2.5698394E-01;  9.9779619E+03;
  1.0157220E+00;  9.9999998E-03;  1.6096018E-01;8043;  5.9144646E-01;  0.0000000E+00;  6.2127821E-02;  1.0004424E+03;  1.4550620E-01;  3.6623517E+02;3; -5.2754448E+01;  0.0000000E+00; -2.2305716E+01;0;  5.2504601E+00;  1.9091609E+04;  0.0000000E+00;  1.0377809E+00;  4.0000000E+04;  0.0000000E+00;  3.9654105E+04;  5.3289285E+00;  0.0000000E+00; -7.8468435E-02;  8.0680718E+03;
  1.0157235E+00;  9.9999998E-03;  1.0061221E-01;8037;  7.3797238E-01;  0.0000000E+00;  6.7187600E-02;  1.0026918E+03;  1.4556774E-01;  2.2283992E+03;3; -4.1580814E+01;  0.0000000E+00; -2.0650881E+01;0;  4.3228760E+00;  1.9163773E+04;  0.0000000E+00; -7.8923881E-01;  4.0000000E+04;  0.0000000E+00;  3.9638078E+04;  4.1155310E+00;  0.0000000E+00;  2.0734486E-01;  9.4025010E+03;
  1.0160400E+00;  9.9999998E-03;  1.5088448E-01;8042;  6.1932790E-01;  0.0000000E+00;  6.3968323E-02;  1.0009506E+03;  1.4550537E-01;  7.8694391E+02;3; -5.2087357E+01;  0.0000000E+00; -2.2078821E+01;0;  5.0733657E+00;  1.9114510E+04;  0.0000000E+00;  6.2548435E-01;  4.0000000E+04;  0.0000000E+00;  3.9649824E+04;  5.1090250E+00;  0.0000000E+00; -3.5659328E-02;  8.1926582E+03;
  1.0159971E+00;  9.9999998E-03;  1.1064219E-01;8038;  7.1967292E-01;  0.0000000E+00;  6.6963620E-02;  1.0024652E+03;  1.4555135E-01;  2.0408838E+03;3; -4.4645531E+01;  0.0000000E+00; -2.1549215E+01;0;  4.4398899E+00;  1.9160459E+04;  0.0000000E+00; -6.9952315E-01;  4.0000000E+04;  0.0000000E+00;  3.9641398E+04;  4.2831421E+00;  0.0000000E+00;  1.5674767E-01;  8.9485840E+03;
  1.0162205E+00;  9.9999998E-03;  1.4080827E-01;8041;  6.4661813E-01;  0.0000000E+00;  6.5173462E-02;  1.0014117E+03;  1.4551070E-01;  1.1687682E+03;3; -5.1114258E+01;  0.0000000E+00; -2.1697704E+01;0;  4.8980160E+00;  1.9132256E+04;  0.0000000E+00;  1.9600981E-01;  4.0000000E+04;  0.0000000E+00;  3.9647043E+04;  4.8882685E+00;  0.0000000E+00;  9.7474121E-03;  8.2842119E+03;
  1.0161811E+00;  9.9999998E-03;  1.2068111E-01;8039;  6.9778585E-01;  0.0000000E+00;  6.6625156E-02;  1.0021714E+03;  1.4553507E-01;  1.7976122E+03;3; -4.7245579E+01;  0.0000000E+00; -2.1481846E+01;0;  4.5766230E+00;  1.9154281E+04;  0.0000000E+00; -5.0008374E-01;  4.0000000E+04;  0.0000000E+00;  3.9643734E+04;  4.4702177E+00;  0.0000000E+00;  1.0640526E-01;  8.6200234E+03;
  1.0162568E+00;  9.9999998E-03;  1.3073738E-01;8040;  6.7309201E-01;  0.0000000E+00;  6.6091776E-02;  1.0018181E+03;  1.4552176E-01;  1.5050980E+03;3; -4.9404053E+01;  0.0000000E+00; -2.1540314E+01;0;  4.7308130E+00;  1.9145109E+04;  0.0000000E+00; -1.9363780E-01;  4.0000000E+04;  0.0000000E+00;  3.9645238E+04;  4.6736159E+00;  0.0000000E+00;  5.7197165E-02;  8.4078740E+03;
  1.0294749E+00;  9.9999998E-03;  7.0501432E-02;8095;  8.0966836E-01;  0.0000000E+00;  5.9295967E-02;  1.0036555E+03;  1.4370802E-01;  3.0257844E+03;3; -7.5267420E+00;  0.0000000E+00; -4.4990067E+00;0;  3.4234405E+00;  1.9707471E+04;  0.0000000E+00; -6.7261630E-01;  4.0000000E+04;  0.0000000E+00;  3.9630723E+04;  2.9770589E+00;  0.0000000E+00;  4.4638166E-01;  1.0747626E+04;
  1.0296416E+00;  9.9999998E-03;  8.0567360E-02;8096;  8.0351835E-01;  0.0000000E+00;  6.8374321E-02;  1.0038108E+03;  1.4368874E-01;  3.1542485E+03;3; -1.1580237E+01;  0.0000000E+00; -4.2978301E+00;0;  3.5116305E+00;  1.9716787E+04;  0.0000000E+00; -7.9842544E-01;  4.0000000E+04;  0.0000000E+00;  3.9635449E+04;  3.1141682E+00;  0.0000000E+00;  3.9746234E-01;  1.0234146E+04;
  1.0298487E+00;  9.9999998E-03;  9.0611704E-02;8097;  7.9596692E-01;  0.0000000E+00;  7.6826930E-02;  1.0039208E+03;  1.4366540E-01;  3.2453135E+03;3; -1.5736808E+01;  0.0000000E+00; -6.3292251E+00;0;  3.6151528E+00;  1.9725355E+04;  0.0000000E+00; -8.7440944E-01;  4.0000000E+04;  0.0000000E+00;  3.9640449E+04;  3.2707360E+00;  0.0000000E+00;  3.4441686E-01;  9.6742510E+03;
  1.0301034E+00;  9.9999998E-03;  1.0064050E-01;8098;  7.8659254E-01;  0.0000000E+00;  8.1177078E-02;  1.0039796E+03;  1.4363815E-01;  3.2939473E+03;3; -2.0077560E+01;  0.0000000E+00; -1.3972446E+01;0;  3.7347095E+00;  1.9733369E+04;  0.0000000E+00; -8.6810207E-01;  4.0000000E+04;  0.0000000E+00;  3.9644953E+04;  3.4457586E+00;  0.0000000E+00;  2.8895086E-01;  9.1352324E+03;
  1.0285211E+00;  9.9999998E-03;  2.3103637E-01;8111;  6.1167842E-01;  0.0000000E+00;  5.4213732E-02;  9.9624359E+02;  1.4361951E-01; -3.1093015E+03;3; -7.5633636E+01;  0.0000000E+00; -1.9221218E+01;0;  5.8574734E+00;  1.9401080E+04;  0.0000000E+00;  8.5846233E-01;  4.0000000E+04;  0.0000000E+00;  3.9700438E+04;  6.1126390E+00;  0.0000000E+00; -2.5516558E-01;  2.4964988E+03;
  1.0286922E+00;  9.9999998E-03;  2.2104816E-01;8110;  6.1454785E-01;  0.0000000E+00;  5.7941318E-02;  9.9725452E+02;  1.4360917E-01; -2.2725447E+03;3; -6.9912575E+01;  0.0000000E+00; -1.8746647E+01;0;  5.7689171E+00;  1.9449398E+04;  0.0000000E+00;  1.3286192E+00;  4.0000000E+04;  0.0000000E+00;  3.9689938E+04;  6.0044208E+00;  0.0000000E+00; -2.3550348E-01;  4.3192783E+03;
  1.0288815E+00;  9.9999998E-03;  2.1106830E-01;8109;  6.1852163E-01;  0.0000000E+00;  6.1364282E-02;  9.9826025E+02;  1.4359926E-01; -1.4400345E+03;3; -6.4609749E+01;  0.0000000E+00; -1.8580055E+01;0;  5.6604910E+00;  1.9495777E+04;  0.0000000E+00;  1.7042217E+00;  4.0000000E+04;  0.0000000E+00;  3.9682785E+04;  5.8721361E+00;  0.0000000E+00; -2.1164496E-01;  5.6918813E+03;
  1.0291004E+00;  9.9999998E-03;  2.0107177E-01;8108;  6.2385738E-01;  0.0000000E+00;  6.4623237E-02;  9.9924707E+02;  1.4358941E-01; -6.2321710E+02;3; -5.9563416E+01;  0.0000000E+00; -1.8243896E+01;0;  5.5301857E+00;  1.9539996E+04;  0.0000000E+00;  1.9546787E+00;  4.0000000E+04;  0.0000000E+00;  3.9678645E+04;  5.7137666E+00;  0.0000000E+00; -1.8358079E-01;  6.5741440E+03;
  1.0304343E+00;  9.9999998E-03;  1.1067311E-01;8099;  7.7507418E-01;  0.0000000E+00;  8.1746772E-02;  1.0039729E+03;  1.4360096E-01;  3.2884065E+03;3; -2.4032055E+01;  0.0000000E+00; -1.7613455E+01;0;  3.8696592E+00;  1.9741895E+04;  0.0000000E+00; -7.4949688E-01;  4.0000000E+04;  0.0000000E+00;  3.9648805E+04;  3.6367936E+00;  0.0000000E+00;  2.3286553E-01;  8.6585605E+03;
  1.0294074E+00;  9.9999998E-03;  1.9105276E-01;8107;  6.3260901E-01;  0.0000000E+00;  6.7746095E-02;  1.0001756E+03;  1.4357428E-01;  1.4534436E+02;3; -5.4961567E+01;  0.0000000E+00; -1.8166607E+01;0;  5.3758106E+00;  1.9583715E+04;  0.0000000E+00;  2.0527956E+00;  4.0000000E+04;  0.0000000E+00;  3.9674676E+04;  5.5270157E+00;  0.0000000E+00; -1.5120485E-01;  7.1575830E+03;
  1.0297394E+00;  9.9999998E-03;  1.8101873E-01;8106;  6.4471883E-01;  0.0000000E+00;  7.0719756E-02;  1.0010083E+03;  1.4355834E-01;  8.3456683E+02;3; -5.0495403E+01;  0.0000000E+00; -1.7863335E+01;0;  5.2008247E+00;  1.9624242E+04;  0.0000000E+00;  1.9818319E+00;  4.0000000E+04;  0.0000000E+00;  3.9670086E+04;  5.3154535E+00;  0.0000000E+00; -1.1462878E-01;  7.5423511E+03;
  1.0307143E+00;  9.9999998E-03;  1.2070581E-01;8100;  7.6063615E-01;  0.0000000E+00;  8.1396982E-02;  1.0038801E+03;  1.4356674E-01;  3.2115295E+03;3; -2.7716812E+01;  0.0000000E+00; -1.8073147E+01;0;  4.0243902E+00;  1.9746891E+04;  0.0000000E+00; -5.0025100E-01;  4.0000000E+04;  0.0000000E+00;  3.9651383E+04;  3.8472831E+00;  0.0000000E+00;  1.7710729E-01;  8.2730078E+03;
  1.0300699E+00;  9.9999998E-03;  1.7096800E-01;8105;  6.6055918E-01;  0.0000000E+00;  7.3382527E-02;  1.0017440E+03;  1.4354506E-01;  1.4434646E+03;3; -4.6449062E+01;  0.0000000E+00; -1.7675901E+01;0;  5.0092049E+00;  1.9660645E+04;  0.0000000E+00;  1.7395843E+00;  4.0000000E+04;  0.0000000E+00;  3.9665078E+04;  5.0831332E+00;  0.0000000E+00; -7.3928319E-02;  7.7509932E+03;
  1.0308428E+00;  9.9999998E-03;  1.3074075E-01;8101;  7.4294102E-01;  0.0000000E+00;  8.0693193E-02;  1.0036752E+03;  1.4354271E-01;  3.0420081E+03;3; -3.1422527E+01;  0.0000000E+00; -1.7882017E+01;0;  4.2004652E+00;  1.9744857E+04;  0.0000000E+00; -1.2434058E-01;  4.0000000E+04;  0.0000000E+00;  3.9653367E+04;  4.0780549E+00;  0.0000000E+00;  1.2241028E-01;  8.0057158E+03;
  1.0303783E+00;  9.9999998E-03;  1.6090617E-01;8104;  6.7979580E-01;  0.0000000E+00;  7.5711019E-02;  1.0023828E+03;  1.4353445E-01;  1.9722363E+03;3; -4.2745667E+01;  0.0000000E+00; -1.7530077E+01;0;  4.8062820E+00;  1.9691852E+04;  0.0000000E+00;  1.3492725E+00;  4.0000000E+04;  0.0000000E+00;  3.9660598E+04;  4.8356137E+00;  0.0000000E+00; -2.9331822E-02;  7.8257119E+03;
  1.0306407E+00;  9.9999998E-03;  1.5084054E-01;8103;  7.0094693E-01;  0.0000000E+00;  7.7658258E-02;  1.0029198E+03;  1.4352755E-01;  2.4167405E+03;3; -3.9196266E+01;  0.0000000E+00; -1.7623850E+01;0;  4.5985799E+00;  1.9717068E+04;  0.0000000E+00;  8.6202949E-01;  4.0000000E+04;  0.0000000E+00;  3.9657359E+04;  4.5798869E+00;  0.0000000E+00;  1.8693089E-02;  7.8359160E+03;
  1.0307950E+00;  9.9999998E-03;  1.4078455E-01;8102;  7.2258168E-01;  0.0000000E+00;  7.9408742E-02;  1.0033495E+03;  1.4353113E-01;  2.7724424E+03;3; -3.5319870E+01;  0.0000000E+00; -1.7691841E+01;0;  4.3946247E+00;  1.9734572E+04;  0.0000000E+00;  3.4771991E-01;  4.0000000E+04;  0.0000000E+00;  3.9654898E+04;  4.3252330E+00;  0.0000000E+00;  6.9391735E-02;  7.8710850E+03;
  1.0440605E+00;  9.9999998E-03;  7.0418216E-02;8156;  8.3560604E-01;  0.0000000E+00;  6.3686319E-02;  1.0049971E+03;  1.4158463E-01;  4.1352188E+03;3;  1.4663326E+01;  0.0000000E+00; -2.8146868E+00;0;  2.7904286E+00;  2.0354547E+04;  0.0000000E+00; -6.1766106E-01;  4.0000000E+04;  0.0000000E+00;  3.9644641E+04;  2.2712328E+00;  0.0000000E+00;  5.1919568E-01;  9.6225771E+03;
  1.0442039E+00;  9.9999998E-03;  8.0483541E-02;8157;  8.3367985E-01;  0.0000000E+00;  7.3128201E-02;  1.0052415E+03;  1.4155257E-01;  4.3375400E+03;3;  1.0870076E+01;  0.0000000E+00; -2.4690783E+00;0;  2.8809149E+00;  2.0370463E+04;  0.0000000E+00; -7.4272203E-01;  4.0000000E+04;  0.0000000E+00;  3.9648160E+04;  2.4111707E+00;  0.0000000E+00;  4.6974424E-01;  9.2782246E+03;
  1.0441853E+00;  9.9999998E-03;  2.3096791E-01;8172;  7.2124082E-01;  0.0000000E+00;  7.1857058E-02;  9.9885956E+02;  1.4146581E-01; -9.4373517E+02;3; -8.4206345E+01;  0.0000000E+00; -1.5101862E+01;0;  5.2962108E+00;  2.0109867E+04;  0.0000000E+00;  1.0000329E-01;  4.0000000E+04;  0.0000000E+00;  3.9699633E+04;  5.5005641E+00;  0.0000000E+00; -2.0435330E-01;  2.3962793E+03;
  1.0444235E+00;  9.9999998E-03;  9.0535738E-02;8158;  8.3122295E-01;  0.0000000E+00;  8.2545258E-02;  1.0054736E+03;  1.4151311E-01;  4.5295942E+03;3;  6.9141064E+00;  0.0000000E+00; -2.0896397E+00;0;  2.9848769E+00;  2.0387814E+04;  0.0000000E+00; -8.2327628E-01;  4.0000000E+04;  0.0000000E+00;  3.9652520E+04;  2.5690160E+00;  0.0000000E+00;  4.1586086E-01;  8.8439990E+03;
  1.0441771E+00;  9.9999998E-03;  2.2094923E-01;8171;  7.3018163E-01;  0.0000000E+00;  7.4762285E-02;  9.9986993E+02;  1.4145482E-01; -1.0762715E+02;3; -7.5671516E+01;  0.0000000E+00; -1.4713375E+01;0;  5.1968484E+00;  2.0156072E+04;  0.0000000E+00;  6.5770471E-01;  4.0000000E+04;  0.0000000E+00;  3.9692855E+04;  5.3803587E+00;  0.0000000E+00; -1.8351053E-01;  3.5049524E+03;
  1.0442095E+00;  9.9999998E-03;  2.1094203E-01;8170;  7.3570794E-01;  0.0000000E+00;  7.7381581E-02;  1.0008433E+03;  1.4143905E-01;  6.9784967E+02;3; -6.6851456E+01;  0.0000000E+00; -1.4246655E+01;0;  5.0779300E+00;  2.0201844E+04;  0.0000000E+00;  1.1134462E+00;  4.0000000E+04;  0.0000000E+00;  3.9686750E+04;  5.2357736E+00;  0.0000000E+00; -1.5784372E-01;  4.7063291E+03;
  1.0446507E+00;  9.9999998E-03;  1.0057532E-01;8159;  8.2786381E-01;  0.0000000E+00;  9.0317488E-02;  1.0056585E+03;  1.4147250E-01;  4.6825815E+03;3;  2.7458556E+00;  0.0000000E+00; -4.9739132E+00;0;  3.1061132E+00;  2.0403688E+04;  0.0000000E+00; -8.2884914E-01;  4.0000000E+04;  0.0000000E+00;  3.9656566E+04;  2.7471468E+00;  0.0000000E+00;  3.5896641E-01;  8.3926035E+03;
  1.0442648E+00;  9.9999998E-03;  2.0092535E-01;8169;  7.3837376E-01;  0.0000000E+00;  7.9714462E-02;  1.0017784E+03;  1.4142230E-01;  1.4717572E+03;3; -5.8170902E+01;  0.0000000E+00; -1.3782662E+01;0;  4.9386759E+00;  2.0245580E+04;  0.0000000E+00;  1.4323072E+00;  4.0000000E+04;  0.0000000E+00;  3.9682824E+04;  5.0665197E+00;  0.0000000E+00; -1.2784372E-01;  5.5958145E+03;
  1.0448595E+00;  9.9999998E-03;  1.1060506E-01;8160;  8.2309741E-01;  0.0000000E+00;  9.3281530E-02;  1.0057693E+03;  1.4143410E-01;  4.7743076E+03;3; -1.6777313E+00;  0.0000000E+00; -1.1154983E+01;0;  3.2462025E+00;  2.0416363E+04;  0.0000000E+00; -7.3204821E-01;  4.0000000E+04;  0.0000000E+00;  3.9659973E+04;  2.9452763E+00;  0.0000000E+00;  3.0092624E-01;  7.9710889E+03;
  1.0443379E+00;  9.9999998E-03;  1.9089632E-01;8168;  7.4067926E-01;  0.0000000E+00;  8.1874609E-02;  1.0026389E+03;  1.4140700E-01;  2.1837104E+03;3; -5.0220482E+01;  0.0000000E+00; -1.3383951E+01;0;  4.7792730E+00;  2.0286211E+04;  0.0000000E+00;  1.5926292E+00;  4.0000000E+04;  0.0000000E+00;  3.9679035E+04;  4.8730011E+00;  0.0000000E+00; -9.3728244E-02;  6.2540376E+03;
  1.0450335E+00;  9.9999998E-03;  1.2062784E-01;8161;  8.1610346E-01;  0.0000000E+00;  9.3189932E-02;  1.0057885E+03;  1.4140046E-01;  4.7901763E+03;3; -6.3468857E+00;  0.0000000E+00; -1.3402575E+01;0;  3.4052351E+00;  2.0424727E+04;  0.0000000E+00; -5.1750761E-01;  4.0000000E+04;  0.0000000E+00;  3.9662488E+04;  3.1618998E+00;  0.0000000E+00;  2.4333531E-01;  7.6129858E+03;
  1.0444279E+00;  9.9999998E-03;  1.8085724E-01;8167;  7.4450278E-01;  0.0000000E+00;  8.3977558E-02;  1.0034045E+03;  1.4139268E-01;  2.8173330E+03;3; -4.2837723E+01;  0.0000000E+00; -1.3227592E+01;0;  4.6013598E+00;  2.0322916E+04;  0.0000000E+00;  1.5832697E+00;  4.0000000E+04;  0.0000000E+00;  3.9675121E+04;  4.6570263E+00;  0.0000000E+00; -5.5666618E-02;  6.7172393E+03;
  1.0445621E+00;  9.9999998E-03;  1.7080978E-01;8166;  7.5177634E-01;  0.0000000E+00;  8.5881703E-02;  1.0040751E+03;  1.4137936E-01;  3.3722295E+03;3; -3.5865486E+01;  0.0000000E+00; -1.2984500E+01;0;  4.4067545E+00;  2.0355541E+04;  0.0000000E+00;  1.4059671E+00;  4.0000000E+04;  0.0000000E+00;  3.9671570E+04;  4.4204412E+00;  0.0000000E+00; -1.3686535E-02;  6.9929619E+03;
  1.0451274E+00;  9.9999998E-03;  1.3064778E-01;8162;  8.0582398E-01;  0.0000000E+00;  9.2319936E-02;  1.0056924E+03;  1.4137453E-01;  4.7106577E+03;3; -1.1375832E+01;  0.0000000E+00; -1.3435270E+01;0;  3.5833158E+00;  2.0426793E+04;  0.0000000E+00; -1.9003820E-01;  4.0000000E+04;  0.0000000E+00;  3.9664078E+04;  3.3960822E+00;  0.0000000E+00;  1.8723364E-01;  7.3522578E+03;
  1.0447450E+00;  9.9999998E-03;  1.6075958E-01;8165;  7.6331747E-01;  0.0000000E+00;  8.7753668E-02;  1.0046496E+03;  1.4136843E-01;  3.8477070E+03;3; -2.9305475E+01;  0.0000000E+00; -1.3006707E+01;0;  4.1998057E+00;  2.0383479E+04;  0.0000000E+00;  1.0849515E+00;  4.0000000E+04;  0.0000000E+00;  3.9668586E+04;  4.1677170E+00;  0.0000000E+00;  3.2088634E-02;  7.1151465E+03;
  1.0450666E+00;  9.9999998E-03;  1.4067894E-01;8163;  7.9235333E-01;  0.0000000E+00;  9.1065772E-02;  1.0054659E+03;  1.4136370E-01;  4.5232305E+03;3; -1.6930868E+01;  0.0000000E+00; -1.3267944E+01;0;  3.7805805E+00;  2.0419828E+04;  0.0000000E+00;  2.2266842E-01;  4.0000000E+04;  0.0000000E+00;  3.9665258E+04;  3.6476228E+00;  0.0000000E+00;  1.3295764E-01;  7.2095791E+03;
  1.0449289E+00;  9.9999998E-03;  1.5071656E-01;8164;  7.7763492E-01;  0.0000000E+00;  8.9529254E-02;  1.0051146E+03;  1.4136145E-01;  4.2325234E+03;3; -2.2914299E+01;  0.0000000E+00; -1.2986391E+01;0;  3.9884133E+00;  2.0405293E+04;  0.0000000E+00;  6.6916066E-01;  4.0000000E+04;  0.0000000E+00;  3.9666469E+04;  3.9072802E+00;  0.0000000E+00;  8.1133023E-02;  7.1556997E+03;
  1.0585759E+00;  9.9999998E-03;  7.0308514E-02;8217;  8.5301995E-01;  0.0000000E+00;  6.6147082E-02;  1.0065477E+03;  1.3926211E-01;  5.4169629E+03;3;  3.5798809E+01;  0.0000000E+00; -1.1656522E+00;0;  2.2118576E+00;  2.1093223E+04;  0.0000000E+00; -4.1163588E-01;  4.0000000E+04;  0.0000000E+00;  3.9662234E+04;  1.6474850E+00;  0.0000000E+00;  5.6437248E-01;  8.0762979E+03;
  1.0586262E+00;  9.9999998E-03;  8.0370501E-02;8218;  8.5411602E-01;  0.0000000E+00;  7.5754650E-02;  1.0067458E+03;  1.3923217E-01;  5.5808682E+03;3;  3.2806713E+01;  0.0000000E+00; -8.3441067E-01;0;  2.2952752E+00;  2.1107182E+04;  0.0000000E+00; -5.1879519E-01;  4.0000000E+04;  0.0000000E+00;  3.9664363E+04;  1.7778637E+00;  0.0000000E+00;  5.1741153E-01;  7.8924834E+03;
  1.0586853E+00;  9.9999998E-03;  9.0418018E-02;8219;  8.5520703E-01;  0.0000000E+00;  8.5309789E-02;  1.0069421E+03;  1.3920122E-01;  5.7431938E+03;3;  2.9407318E+01;  0.0000000E+00; -1.8716745E-01;0;  2.3933892E+00;  2.1120822E+04;  0.0000000E+00; -6.0471261E-01;  4.0000000E+04;  0.0000000E+00;  3.9667535E+04;  1.9275175E+00;  0.0000000E+00;  4.6587160E-01;  7.6028501E+03;
  1.0587496E+00;  9.9999998E-03;  1.0045607E-01;8220;  8.5624552E-01;  0.0000000E+00;  9.4485499E-02;  1.0071121E+03;  1.3917096E-01;  5.8839204E+03;3;  2.5646416E+01;  0.0000000E+00;  5.3509939E-01;0;  2.5073907E+00;  2.1133270E+04;  0.0000000E+00; -6.4661747E-01;  4.0000000E+04;  0.0000000E+00;  3.9670789E+04;  2.0961435E+00;  0.0000000E+00;  4.1124719E-01;  7.2778384E+03;
  1.0588174E+00;  9.9999998E-03;  1.1048988E-01;8221;  8.5729080E-01;  0.0000000E+00;  1.0166364E-01;  1.0072322E+03;  1.3914114E-01;  5.9832246E+03;3;  2.1612684E+01;  0.0000000E+00; -1.1996684E+00;0;  2.6379907E+00;  2.1143895E+04;  0.0000000E+00; -6.2317508E-01;  4.0000000E+04;  0.0000000E+00;  3.9673535E+04;  2.2826295E+00;  0.0000000E+00;  3.5536131E-01;  6.9721021E+03;
  1.0588948E+00;  9.9999998E-03;  1.2051255E-01;8222;  8.5832089E-01;  0.0000000E+00;  1.0415769E-01;  1.0072867E+03;  1.3911313E-01;  6.0282852E+03;3;  1.7069065E+01;  0.0000000E+00; -5.6694694E+00;0;  2.7845612E+00;  2.1151760E+04;  0.0000000E+00; -5.2126843E-01;  4.0000000E+04;  0.0000000E+00;  3.9675438E+04;  2.4844663E+00;  0.0000000E+00;  3.0009493E-01;  6.7219409E+03;
  1.0589713E+00;  9.9999998E-03;  1.3052337E-01;8223;  8.5866094E-01;  0.0000000E+00;  1.0411646E-01;  1.0072567E+03;  1.3908912E-01;  6.0034224E+03;3;  1.1557837E+01;  0.0000000E+00; -7.0577440E+00;0;  2.9459226E+00;  2.1155832E+04;  0.0000000E+00; -3.4213325E-01;  4.0000000E+04;  0.0000000E+00;  3.9676484E+04;  2.6992764E+00;  0.0000000E+00;  2.4664624E-01;  6.5458975E+03;
  1.0590745E+00;  9.9999998E-03;  2.2082254E-01;8232;  7.9701465E-01;  0.0000000E+00;  9.4099440E-02;  1.0032710E+03;  1.3912530E-01;  2.7060857E+03;3; -6.9604530E+01;  0.0000000E+00; -8.7736139E+00;0;  4.4761844E+00;  2.0975693E+04;  0.0000000E+00; -2.6344482E-02;  4.0000000E+04;  0.0000000E+00;  3.9699266E+04;  4.5758667E+00;  0.0000000E+00; -9.9682398E-02;  3.3870894E+03;
  1.0592796E+00;  9.9999998E-03;  2.3087363E-01;8233;  7.8389466E-01;  0.0000000E+00;  9.2758097E-02;  1.0025449E+03;  1.3912079E-01;  2.1053706E+03;3; -8.0014542E+01;  0.0000000E+00; -8.6855745E+00;0;  4.5877328E+00;  2.0946551E+04;  0.0000000E+00; -3.8919178E-01;  4.0000000E+04;  0.0000000E+00;  3.9703254E+04;  4.6996474E+00;  0.0000000E+00; -1.1191482E-01;  2.9818494E+03;
  1.0589308E+00;  9.9999998E-03;  2.1079513E-01;8231;  8.0928111E-01;  0.0000000E+00;  9.5426165E-02;  1.0039386E+03;  1.3912253E-01;  3.2583782E+03;3; -5.9150436E+01;  0.0000000E+00; -8.4417973E+00;0;  4.3508258E+00;  2.1005998E+04;  0.0000000E+00;  2.8710487E-01;  4.0000000E+04;  0.0000000E+00;  3.9692734E+04;  4.4298134E+00;  0.0000000E+00; -7.8987695E-02;  4.2700576E+03;
  1.0589678E+00;  9.9999998E-03;  1.4053592E-01;8224;  8.5685533E-01;  0.0000000E+00;  1.0349278E-01;  1.0071266E+03;  1.3907616E-01;  5.8959248E+03;3;  5.0934567E+00;  0.0000000E+00; -7.0878448E+00;0;  3.1232719E+00;  2.1153691E+04;  0.0000000E+00; -1.0365667E-01;  4.0000000E+04;  0.0000000E+00;  3.9676973E+04;  2.9279735E+00;  0.0000000E+00;  1.9529842E-01;  6.4472012E+03;
  1.0588084E+00;  9.9999998E-03;  2.0076077E-01;8230;  8.2014692E-01;  0.0000000E+00;  9.6803665E-02;  1.0045800E+03;  1.3911699E-01;  3.7890740E+03;3; -4.8771404E+01;  0.0000000E+00; -8.4065113E+00;0;  4.2108908E+00;  2.1034949E+04;  0.0000000E+00;  5.2321661E-01;  4.0000000E+04;  0.0000000E+00;  3.9688348E+04;  4.2629099E+00;  0.0000000E+00; -5.2018940E-02;  4.9388413E+03;
  1.0587118E+00;  9.9999998E-03;  1.9071949E-01;8229;  8.2881868E-01;  0.0000000E+00;  9.8068796E-02;  1.0051720E+03;  1.3910931E-01;  4.2788418E+03;3; -3.8543312E+01;  0.0000000E+00; -7.9607553E+00;0;  4.0555844E+00;  2.1062074E+04;  0.0000000E+00;  6.5833366E-01;  4.0000000E+04;  0.0000000E+00;  3.9684648E+04;  4.0758014E+00;  0.0000000E+00; -2.0217067E-02;  5.4735356E+03;
  1.0588586E+00;  9.9999998E-03;  1.5055986E-01;8225;  8.5147589E-01;  0.0000000E+00;  1.0263016E-01;  1.0068909E+03;  1.3907500E-01;  5.7008638E+03;3; -2.2914217E+00;  0.0000000E+00; -7.0812612E+00;0;  3.3145795E+00;  2.1144100E+04;  0.0000000E+00;  1.6135520E-01;  4.0000000E+04;  0.0000000E+00;  3.9677074E+04;  3.1685424E+00;  0.0000000E+00;  1.4603719E-01;  6.3946675E+03;
  1.0586464E+00;  9.9999998E-03;  1.8067430E-01;8228;  8.3580226E-01;  0.0000000E+00;  9.9344142E-02;  1.0057019E+03;  1.3910128E-01;  4.7172261E+03;3; -2.8746002E+01;  0.0000000E+00; -7.4745760E+00;0;  3.8859429E+00;  2.1086723E+04;  0.0000000E+00;  6.8124706E-01;  4.0000000E+04;  0.0000000E+00;  3.9681590E+04;  3.8701296E+00;  0.0000000E+00;  1.5813265E-02;  5.8893003E+03;
  1.0586290E+00;  9.9999998E-03;  1.7062722E-01;8227;  8.4029365E-01;  0.0000000E+00;  1.0051325E-01;  1.0061620E+03;  1.3909236E-01;  5.0979121E+03;3; -1.9357178E+01;  0.0000000E+00; -7.1770678E+00;0;  3.7042570E+00;  2.1108693E+04;  0.0000000E+00;  5.9328592E-01;  4.0000000E+04;  0.0000000E+00;  3.9679141E+04;  3.6485794E+00;  0.0000000E+00;  5.5677768E-02;  6.1708086E+03;
  1.0587246E+00;  9.9999998E-03;  1.6058752E-01;8226;  8.4495091E-01;  0.0000000E+00;  1.0160750E-01;  1.0065667E+03;  1.3908067E-01;  5.4326265E+03;3; -1.0469843E+01;  0.0000000E+00; -7.1310277E+00;0;  3.5110209E+00;  2.1128781E+04;  0.0000000E+00;  4.0796772E-01;  4.0000000E+04;  0.0000000E+00;  3.9677730E+04;  3.4116919E+00;  0.0000000E+00;  9.9329039E-02;  6.3250835E+03;
  1.0724844E+00;  9.9999998E-03;  7.0275657E-02;8278;  8.5918117E-01;  0.0000000E+00;  6.4251944E-02;  1.0075886E+03;  1.3685657E-01;  6.2759834E+03;3;  4.4654739E+01;  0.0000000E+00; -2.3692958E+00;0;  1.7257538E+00;  2.1870420E+04;  0.0000000E+00; -1.1777113E-01;  4.0000000E+04;  0.0000000E+00;  3.9681328E+04;  1.1441606E+00;  0.0000000E+00;  5.8159322E-01;  6.3062832E+03;
  1.0724295E+00;  9.9999998E-03;  8.0335513E-02;8279;  8.6071873E-01;  0.0000000E+00;  7.3076524E-02;  1.0076614E+03;  1.3684158E-01;  6.3362314E+03;3;  4.1902824E+01;  0.0000000E+00; -2.5770965E+00;0;  1.7964262E+00;  2.1875057E+04;  0.0000000E+00; -1.9108467E-01;  4.0000000E+04;  0.0000000E+00;  3.9682203E+04;  1.2569118E+00;  0.0000000E+00;  5.3951442E-01;  6.2394995E+03;
  1.0723965E+00;  9.9999998E-03;  9.0374619E-02;8280;  8.6232835E-01;  0.0000000E+00;  8.1554741E-02;  1.0077459E+03;  1.3682434E-01;  6.4061377E+03;3;  3.9099873E+01;  0.0000000E+00; -2.4454343E+00;0;  1.8791522E+00;  2.1880625E+04;  0.0000000E+00; -2.7473375E-01;  4.0000000E+04;  0.0000000E+00;  3.9684121E+04;  1.3857896E+00;  0.0000000E+00;  4.9336255E-01;  6.0614590E+03;
  1.0723882E+00;  9.9999998E-03;  1.0039587E-01;8281;  8.6404043E-01;  0.0000000E+00;  8.9543566E-02;  1.0078234E+03;  1.3680302E-01;  6.4703213E+03;3;  3.6115486E+01;  0.0000000E+00; -1.8250237E+00;0;  1.9748483E+00;  2.1886730E+04;  0.0000000E+00; -3.5785607E-01;  4.0000000E+04;  0.0000000E+00;  3.9686406E+04;  1.5303438E+00;  0.0000000E+00;  4.4450450E-01;  5.8523428E+03;
  1.0723732E+00;  9.9999998E-03;  1.1041176E-01;8282;  8.6586767E-01;  0.0000000E+00;  9.6933901E-02;  1.0078746E+03;  1.3678287E-01;  6.5126201E+03;3;  3.3102512E+01;  0.0000000E+00; -6.5586984E-01;0;  2.0854995E+00;  2.1892090E+04;  0.0000000E+00; -4.2871854E-01;  4.0000000E+04;  0.0000000E+00;  3.9688359E+04;  1.6910892E+00;  0.0000000E+00;  3.9441031E-01;  5.6836602E+03;
  1.0723091E+00;  9.9999998E-03;  1.2043521E-01;8283;  8.6796528E-01;  0.0000000E+00;  1.0340048E-01;  1.0078863E+03;  1.3676624E-01;  6.5222925E+03;3;  2.9885687E+01;  0.0000000E+00;  1.0459722E+00;0;  2.2131736E+00;  2.1895422E+04;  0.0000000E+00; -4.7670829E-01;  4.0000000E+04;  0.0000000E+00;  3.9689418E+04;  1.8687408E+00;  0.0000000E+00;  3.4443286E-01;  5.6006362E+03;
  1.0726346E+00;  9.9999998E-03;  2.1066868E-01;8292;  8.5535944E-01;  0.0000000E+00;  1.1046879E-01;  1.0064267E+03;  1.3674572E-01;  5.3150986E+03;3; -4.2396885E+01;  0.0000000E+00; -6.3207817E-01;0;  3.6097350E+00;  2.1843596E+04;  0.0000000E+00; -5.5555773E-01;  4.0000000E+04;  0.0000000E+00;  3.9698648E+04;  3.6043224E+00;  0.0000000E+00;  5.4126401E-03;  4.4016250E+03;
  1.0729356E+00;  9.9999998E-03;  2.2070800E-01;8293;  8.4598935E-01;  0.0000000E+00;  1.1044243E-01;  1.0061964E+03;  1.3672990E-01;  5.1245815E+03;3; -5.3765053E+01;  0.0000000E+00; -9.6733725E-01;0;  3.7350905E+00;  2.1836197E+04;  0.0000000E+00; -6.4921999E-01;  4.0000000E+04;  0.0000000E+00;  3.9705930E+04;  3.7436264E+00;  0.0000000E+00; -8.5357772E-03;  3.5563440E+03;
  1.0733351E+00;  9.9999998E-03;  2.3079669E-01;8294;  8.3530056E-01;  0.0000000E+00;  1.1033519E-01;  1.0058564E+03;  1.3670488E-01;  4.8433535E+03;3; -6.4987137E+01;  0.0000000E+00; -1.1592282E+00;0;  3.8524413E+00;  2.1831852E+04;  0.0000000E+00; -7.5468659E-01;  4.0000000E+04;  0.0000000E+00;  3.9704902E+04;  3.8635962E+00;  0.0000000E+00; -1.1154921E-02;  3.6923933E+03;
  1.0723888E+00;  9.9999998E-03;  2.0064129E-01;8291;  8.6364937E-01;  0.0000000E+00;  1.1079216E-01;  1.0066572E+03;  1.3675448E-01;  5.5058071E+03;3; -3.0964201E+01;  0.0000000E+00; -3.8488868E-01;0;  3.4753668E+00;  2.1851566E+04;  0.0000000E+00; -4.7260913E-01;  4.0000000E+04;  0.0000000E+00;  3.9693148E+04;  3.4477282E+00;  0.0000000E+00;  2.7638657E-02;  5.0616216E+03;
  1.0722322E+00;  9.9999998E-03;  1.3045390E-01;8284;  8.7094784E-01;  0.0000000E+00;  1.0729449E-01;  1.0078493E+03;  1.3675240E-01;  6.4917427E+03;3;  2.6718340E+01;  0.0000000E+00;  2.6759541E+00;0;  2.3555715E+00;  2.1897191E+04;  0.0000000E+00; -4.9490005E-01;  4.0000000E+04;  0.0000000E+00;  3.9689762E+04;  2.0596409E+00;  0.0000000E+00;  2.9593053E-01;  5.6098169E+03;
  1.0721970E+00;  9.9999998E-03;  1.9061343E-01;8290;  8.7049067E-01;  0.0000000E+00;  1.1123881E-01;  1.0068829E+03;  1.3675688E-01;  5.6924678E+03;3; -1.9626396E+01;  0.0000000E+00; -5.7287533E-02;0;  3.3304157E+00;  2.1860102E+04;  0.0000000E+00; -4.1309142E-01;  4.0000000E+04;  0.0000000E+00;  3.9689766E+04;  3.2748017E+00;  0.0000000E+00;  5.5614024E-02;  5.4691030E+03;
  1.0721492E+00;  9.9999998E-03;  1.4046130E-01;8285;  8.7414110E-01;  0.0000000E+00;  1.0985874E-01;  1.0077630E+03;  1.3674244E-01;  6.4203765E+03;3;  2.2875231E+01;  0.0000000E+00;  3.8705070E+00;0;  2.5103712E+00;  2.1896475E+04;  0.0000000E+00; -4.8471981E-01;  4.0000000E+04;  0.0000000E+00;  3.9688898E+04;  2.2608070E+00;  0.0000000E+00;  2.4956416E-01;  5.6862427E+03;
  1.0720630E+00;  9.9999998E-03;  1.8058081E-01;8289;  8.7537348E-01;  0.0000000E+00;  1.1176913E-01;  1.0070992E+03;  1.3675474E-01;  5.8714316E+03;3; -8.5824375E+00;  0.0000000E+00;  2.1980311E-01;0;  3.1754363E+00;  2.1868969E+04;  0.0000000E+00; -3.8683602E-01;  4.0000000E+04;  0.0000000E+00;  3.9687887E+04;  3.0873969E+00;  0.0000000E+00;  8.8039309E-02;  5.7047866E+03;
  1.0720254E+00;  9.9999998E-03;  1.5048099E-01;8286;  8.7679160E-01;  0.0000000E+00;  1.1161061E-01;  1.0076339E+03;  1.3674267E-01;  6.3136221E+03;3;  1.7822073E+01;  0.0000000E+00;  3.5742974E+00;0;  2.6765404E+00;  2.1891744E+04;  0.0000000E+00; -4.5424432E-01;  4.0000000E+04;  0.0000000E+00;  3.9687867E+04;  2.4713609E+00;  0.0000000E+00;  2.0517956E-01;  5.7829185E+03;
  1.0719968E+00;  9.9999998E-03;  1.7054465E-01;8288;  8.7798661E-01;  0.0000000E+00;  1.1222177E-01;  1.0072973E+03;  1.3674888E-01;  6.0352026E+03;3;  1.8924401E+00;  0.0000000E+00;  8.4362811E-01;0;  3.0121882E+00;  2.1878064E+04;  0.0000000E+00; -3.9287734E-01;  4.0000000E+04;  0.0000000E+00;  3.9687121E+04;  2.8880401E+00;  0.0000000E+00;  1.2414814E-01;  5.8218354E+03;
  1.0719734E+00;  9.9999998E-03;  1.6050756E-01;8287;  8.7829930E-01;  0.0000000E+00;  1.1229548E-01;  1.0074774E+03;  1.3674423E-01;  6.1841787E+03;3;  1.0915424E+01;  0.0000000E+00;  2.0472889E+00;0;  2.8451698E+00;  2.1885596E+04;  0.0000000E+00; -4.1891414E-01;  4.0000000E+04;  0.0000000E+00;  3.9687273E+04;  2.6818852E+00;  0.0000000E+00;  1.6328453E-01;  5.8400776E+03;
  1.0859194E+00;  9.9999998E-03;  7.0248887E-02;8339;  8.6112374E-01;  0.0000000E+00;  5.8311027E-02;  1.0077202E+03;  1.3444269E-01;  6.3824492E+03;3;  4.8042557E+01;  0.0000000E+00; -5.0124927E+00;0;  1.3262171E+00;  2.2649289E+04;  0.0000000E+00;  1.4889294E-01;  4.0000000E+04;  0.0000000E+00;  3.9701090E+04;  7.5016767E-01;  0.0000000E+00;  5.7604939E-01;  4.4015957E+03;
  1.0858040E+00;  9.9999998E-03;  8.0321990E-02;8340;  8.6292052E-01;  0.0000000E+00;  6.5845504E-02;  1.0076484E+03;  1.3444005E-01;  6.3231445E+03;3;  4.5649136E+01;  0.0000000E+00; -5.6474314E+00;0;  1.3808095E+00;  2.2644307E+04;  0.0000000E+00;  1.1984320E-01;  4.0000000E+04;  0.0000000E+00;  3.9701109E+04;  8.4062517E-01;  0.0000000E+00;  5.4018444E-01;  4.4063306E+03;
  1.0856634E+00;  9.9999998E-03;  9.0361677E-02;8341;  8.6490023E-01;  0.0000000E+00;  7.2885610E-02;  1.0075895E+03;  1.3443993E-01;  6.2744873E+03;3;  4.3263615E+01;  0.0000000E+00; -5.8162465E+00;0;  1.4464145E+00;  2.2638988E+04;  0.0000000E+00;  5.1983047E-02;  4.0000000E+04;  0.0000000E+00;  3.9701887E+04;  9.4546360E-01;  0.0000000E+00;  5.0095081E-01;  4.3137583E+03;
  1.0855415E+00;  9.9999998E-03;  1.0038152E-01;8342;  8.6713052E-01;  0.0000000E+00;  7.9332173E-02;  1.0075379E+03;  1.3443664E-01;  6.2318379E+03;3;  4.0842377E+01;  0.0000000E+00; -5.4100842E+00;0;  1.5229839E+00;  2.2634895E+04;  0.0000000E+00; -5.6929957E-02;  4.0000000E+04;  0.0000000E+00;  3.9703160E+04;  1.0635430E+00;  0.0000000E+00;  4.5944095E-01;  4.1991367E+03;
  1.0854499E+00;  9.9999998E-03;  1.1038326E-01;8343;  8.6960632E-01;  0.0000000E+00;  8.5229099E-02;  1.0074832E+03;  1.3442923E-01;  6.1866201E+03;3;  3.8201588E+01;  0.0000000E+00; -4.3398743E+00;0;  1.6109908E+00;  2.2632359E+04;  0.0000000E+00; -2.0419024E-01;  4.0000000E+04;  0.0000000E+00;  3.9704031E+04;  1.1939865E+00;  0.0000000E+00;  4.1700426E-01;  4.1487646E+03;
  1.0853634E+00;  9.9999998E-03;  1.2037728E-01;8344;  8.7229562E-01;  0.0000000E+00;  9.0722412E-02;  1.0074216E+03;  1.3442051E-01;  6.1356841E+03;3;  3.5528416E+01;  0.0000000E+00; -2.5754347E+00;0;  1.7117099E+00;  2.2631020E+04;  0.0000000E+00; -3.8287815E-01;  4.0000000E+04;  0.0000000E+00;  3.9704152E+04;  1.3368505E+00;  0.0000000E+00;  3.7485930E-01;  4.2270933E+03;
  1.0852432E+00;  9.9999998E-03;  1.3038059E-01;8345;  8.7516135E-01;  0.0000000E+00;  9.5973589E-02;  1.0073511E+03;  1.3441308E-01;  6.0774619E+03;3;  3.2672886E+01;  0.0000000E+00; -1.9648249E-01;0;  1.8265126E+00;  2.2629967E+04;  0.0000000E+00; -5.8214980E-01;  4.0000000E+04;  0.0000000E+00;  3.9703312E+04;  1.4926964E+00;  0.0000000E+00;  3.3381623E-01;  4.4541494E+03;
  1.0851063E+00;  9.9999998E-03;  1.4039080E-01;8346;  8.7824881E-01;  0.0000000E+00;  1.0085114E-01;  1.0072867E+03;  1.3440722E-01;  6.0242681E+03;3;  2.9453547E+01;  0.0000000E+00;  2.8300350E+00;0;  1.9537747E+00;  2.2629686E+04;  0.0000000E+00; -7.8766567E-01;  4.0000000E+04;  0.0000000E+00;  3.9701637E+04;  1.6594027E+00;  0.0000000E+00;  2.9437196E-01;  4.7958276E+03;
  1.0849806E+00;  9.9999998E-03;  1.5042904E-01;8347;  8.8144058E-01;  0.0000000E+00;  1.0552173E-01;  1.0072419E+03;  1.3440463E-01;  5.9872354E+03;3;  2.5984970E+01;  0.0000000E+00;  6.1263933E+00;0;  2.0906603E+00;  2.2630295E+04;  0.0000000E+00; -9.8495287E-01;  4.0000000E+04;  0.0000000E+00;  3.9699547E+04;  1.8341534E+00;  0.0000000E+00;  2.5650692E-01;  5.1833989E+03;
  1.0849441E+00;  9.9999998E-03;  1.6048211E-01;8348;  8.8467348E-01;  0.0000000E+00;  1.1001845E-01;  1.0072254E+03;  1.3440108E-01;  5.9735430E+03;3;  2.2479607E+01;  0.0000000E+00;  9.4315977E+00;0;  2.2309284E+00;  2.2633209E+04;  0.0000000E+00; -1.1579245E+00;  4.0000000E+04;  0.0000000E+00;  3.9697562E+04;  2.0104401E+00;  0.0000000E+00;  2.2048835E-01;  5.5380625E+03;
  1.0849973E+00;  9.9999998E-03;  1.7052449E-01;8349;  8.8768196E-01;  0.0000000E+00;  1.1402977E-01;  1.0072507E+03;  1.3439721E-01;  5.9945249E+03;3;  1.8038960E+01;  0.0000000E+00;  1.1413334E+01;0;  2.3711262E+00;  2.2638389E+04;  0.0000000E+00; -1.2904124E+00;  4.0000000E+04;  0.0000000E+00;  3.9695836E+04;  2.1844761E+00;  0.0000000E+00;  1.8665010E-01;  5.8015977E+03;
  1.0850719E+00;  9.9999998E-03;  1.8055499E-01;8350;  8.8992703E-01;  0.0000000E+00;  1.1724450E-01;  1.0073132E+03;  1.3439646E-01;  6.0461538E+03;3;  1.1940483E+01;  0.0000000E+00;  1.1563835E+01;0;  2.5118723E+00;  2.2644111E+04;  0.0000000E+00; -1.3756689E+00;  4.0000000E+04;  0.0000000E+00;  3.9695008E+04;  2.3566372E+00;  0.0000000E+00;  1.5523493E-01;  5.9486221E+03;
  1.0851953E+00;  9.9999998E-03;  1.9057857E-01;8351;  8.9069444E-01;  0.0000000E+00;  1.1944026E-01;  1.0074057E+03;  1.3439362E-01;  6.1226089E+03;3;  3.2116458E+00;  0.0000000E+00;  1.0303321E+01;0;  2.6500273E+00;  2.2651553E+04;  0.0000000E+00; -1.4197522E+00;  4.0000000E+04;  0.0000000E+00;  3.9694816E+04;  2.5228655E+00;  0.0000000E+00;  1.2716182E-01;  5.9542373E+03;
  1.0853999E+00;  9.9999998E-03;  2.0059969E-01;8352;  8.8952392E-01;  0.0000000E+00;  1.2084408E-01;  1.0075240E+03;  1.3438183E-01;  6.2203350E+03;3; -7.5699930E+00;  0.0000000E+00;  8.3454657E+00;0;  2.7826788E+00;  2.2662023E+04;  0.0000000E+00; -1.4292980E+00;  4.0000000E+04;  0.0000000E+00;  3.9696289E+04;  2.6789136E+00;  0.0000000E+00;  1.0376517E-01;  5.7667354E+03;
  1.0856907E+00;  9.9999998E-03;  2.1062899E-01;8353;  8.8654917E-01;  0.0000000E+00;  1.2195296E-01;  1.0076664E+03;  1.3436092E-01;  6.3379497E+03;3; -1.8954124E+01;  0.0000000E+00;  6.7207742E+00;0;  2.9095433E+00;  2.2675418E+04;  0.0000000E+00; -1.4121761E+00;  4.0000000E+04;  0.0000000E+00;  3.9699598E+04;  2.8225632E+00;  0.0000000E+00;  8.6980127E-02;  5.3655962E+03;
  1.0860555E+00;  9.9999998E-03;  2.2067688E-01;8354;  8.8224518E-01;  0.0000000E+00;  1.2306389E-01;  1.0078106E+03;  1.3433222E-01;  6.4571245E+03;3; -3.0090141E+01;  0.0000000E+00;  5.0391421E+00;0;  3.0330930E+00;  2.2690924E+04;  0.0000000E+00; -1.3821316E+00;  4.0000000E+04;  0.0000000E+00;  3.9703297E+04;  2.9531693E+00;  0.0000000E+00;  7.9923645E-02;  4.8971138E+03;
  1.0864877E+00;  9.9999998E-03;  2.3076846E-01;8355;  8.7669432E-01;  0.0000000E+00;  1.2367402E-01;  1.0078434E+03;  1.3429622E-01;  6.4841362E+03;3; -4.0959507E+01;  0.0000000E+00;  3.9038422E+00;0;  3.1562910E+00;  2.2708252E+04;  0.0000000E+00; -1.3750887E+00;  4.0000000E+04;  0.0000000E+00;  3.9698832E+04;  3.0707469E+00;  0.0000000E+00;  8.5544027E-02;  5.3595576E+03;
  1.0986630E+00;  9.9999998E-03;  7.0150726E-02;8400;  8.6168069E-01;  0.0000000E+00;  5.0691880E-02;  1.0068972E+03;  1.3212495E-01;  5.6994946E+03;3;  4.9905884E+01;  0.0000000E+00; -6.3983884E+00;0;  1.0109351E+00;  2.3392895E+04;  0.0000000E+00;  2.9801375E-01;  4.0000000E+04;  0.0000000E+00;  3.9720254E+04;  4.5729598E-01;  0.0000000E+00;  5.5363911E-01;  2.5065886E+03;
  1.0986202E+00;  9.9999998E-03;  8.0226250E-02;8401;  8.6370182E-01;  0.0000000E+00;  5.7016790E-02;  1.0067052E+03;  1.3212048E-01;  5.5408071E+03;3;  4.7828697E+01;  0.0000000E+00; -7.0550919E+00;0;  1.0476832E+00;  2.3383926E+04;  0.0000000E+00;  3.0981225E-01;  4.0000000E+04;  0.0000000E+00;  3.9719809E+04;  5.2360636E-01;  0.0000000E+00;  5.2407682E-01;  2.5305203E+03;
  1.0985376E+00;  9.9999998E-03;  9.0307578E-02;8402;  8.6600709E-01;  0.0000000E+00;  6.2890574E-02;  1.0065213E+03;  1.3211995E-01;  5.3889243E+03;3;  4.5639526E+01;  0.0000000E+00; -7.0944552E+00;0;  1.0932916E+00;  2.3373920E+04;  0.0000000E+00;  2.7147341E-01;  4.0000000E+04;  0.0000000E+00;  3.9720191E+04;  6.0133231E-01;  0.0000000E+00;  4.9195933E-01;  2.4760801E+03;
  1.0984324E+00;  9.9999998E-03;  1.0035236E-01;8403;  8.6859912E-01;  0.0000000E+00;  6.8302490E-02;  1.0063408E+03;  1.3211870E-01;  5.2398032E+03;3;  4.3288410E+01;  0.0000000E+00; -6.4796491E+00;0;  1.1483834E+00;  2.3364350E+04;  0.0000000E+00;  1.6777416E-01;  4.0000000E+04;  0.0000000E+00;  3.9720379E+04;  6.9002360E-01;  0.0000000E+00;  4.5835984E-01;  2.4070732E+03;
  1.0983155E+00;  9.9999998E-03;  1.1037273E-01;8404;  8.7147439E-01;  0.0000000E+00;  7.3311135E-02;  1.0061672E+03;  1.3211636E-01;  5.0963960E+03;3;  4.0775696E+01;  0.0000000E+00; -5.2221622E+00;0;  1.2137735E+00;  2.3356084E+04;  0.0000000E+00; -1.0337287E-02;  4.0000000E+04;  0.0000000E+00;  3.9720320E+04;  7.8947234E-01;  0.0000000E+00;  4.2430112E-01;  2.4241184E+03;
  1.0981826E+00;  9.9999998E-03;  1.2037259E-01;8405;  8.7457865E-01;  0.0000000E+00;  7.8031279E-02;  1.0060153E+03;  1.3211477E-01;  4.9708218E+03;3;  3.8108288E+01;  0.0000000E+00; -3.4389522E+00;0;  1.2902874E+00;  2.3349357E+04;  0.0000000E+00; -2.6255617E-01;  4.0000000E+04;  0.0000000E+00;  3.9719371E+04;  8.9955539E-01;  0.0000000E+00;  3.9073196E-01;  2.6343420E+03;
  1.0980203E+00;  9.9999998E-03;  1.3036495E-01;8406;  8.7786627E-01;  0.0000000E+00;  8.2603961E-02;  1.0058961E+03;  1.3211419E-01;  4.8723423E+03;3;  3.5358250E+01;  0.0000000E+00; -1.1914226E+00;0;  1.3786278E+00;  2.3344816E+04;  0.0000000E+00; -5.7734329E-01;  4.0000000E+04;  0.0000000E+00;  3.9717344E+04;  1.0203838E+00;  0.0000000E+00;  3.5824400E-01;  3.0789089E+03;
  1.0978756E+00;  9.9999998E-03;  1.4037059E-01;8407;  8.8129318E-01;  0.0000000E+00;  8.7123558E-02;  1.0058248E+03;  1.3211116E-01;  4.8134590E+03;3;  3.2450218E+01;  0.0000000E+00;  1.3725940E+00;0;  1.4770137E+00;  2.3344557E+04;  0.0000000E+00; -9.3177480E-01;  4.0000000E+04;  0.0000000E+00;  3.9714758E+04;  1.1499550E+00;  0.0000000E+00;  3.2705867E-01;  3.7013740E+03;
  1.0977749E+00;  9.9999998E-03;  1.5041405E-01;8408;  8.8484251E-01;  0.0000000E+00;  9.1579512E-02;  1.0058329E+03;  1.3210586E-01;  4.8201763E+03;3;  2.9460400E+01;  0.0000000E+00;  4.2565713E+00;0;  1.5834255E+00;  2.3349375E+04;  0.0000000E+00; -1.2952230E+00;  4.0000000E+04;  0.0000000E+00;  3.9711613E+04;  1.2864305E+00;  0.0000000E+00;  2.9699510E-01;  4.4031943E+03;
  1.0977355E+00;  9.9999998E-03;  1.6047414E-01;8409;  8.8843727E-01;  0.0000000E+00;  9.6168101E-02;  1.0059226E+03;  1.3209683E-01;  4.8942642E+03;3;  2.6402126E+01;  0.0000000E+00;  7.6534328E+00;0;  1.6950815E+00;  2.3359891E+04;  0.0000000E+00; -1.6289790E+00;  4.0000000E+04;  0.0000000E+00;  3.9708656E+04;  1.4272184E+00;  0.0000000E+00;  2.6786304E-01;  5.0771548E+03;
  1.0977484E+00;  9.9999998E-03;  1.7053294E-01;8410;  8.9200604E-01;  0.0000000E+00;  1.0121583E-01;  1.0061122E+03;  1.3208486E-01;  5.0509941E+03;3;  2.3487139E+01;  0.0000000E+00;  1.1406176E+01;0;  1.8100287E+00;  2.3376117E+04;  0.0000000E+00; -1.8972750E+00;  4.0000000E+04;  0.0000000E+00;  3.9705723E+04;  1.5704825E+00;  0.0000000E+00;  2.3954618E-01;  5.6491729E+03;
  1.0977919E+00;  9.9999998E-03;  1.8057993E-01;8411;  8.9550102E-01;  0.0000000E+00;  1.0697554E-01;  1.0063837E+03;  1.3207227E-01;  5.2753950E+03;3;  2.0292944E+01;  0.0000000E+00;  1.5238882E+01;0;  1.9272650E+00;  2.3396600E+04;  0.0000000E+00; -2.0803862E+00;  4.0000000E+04;  0.0000000E+00;  3.9702910E+04;  1.7149469E+00;  0.0000000E+00;  2.1231817E-01;  6.0953125E+03;
  1.0978764E+00;  9.9999998E-03;  1.9061024E-01;8412;  8.9884609E-01;  0.0000000E+00;  1.1332751E-01;  1.0067258E+03;  1.3205996E-01;  5.5580073E+03;3;  1.6906858E+01;  0.0000000E+00;  1.8140278E+01;0;  2.0454400E+00;  2.3420285E+04;  0.0000000E+00; -2.1756399E+00;  4.0000000E+04;  0.0000000E+00;  3.9700375E+04;  1.8579792E+00;  0.0000000E+00;  1.8746074E-01;  6.4080288E+03;
  1.0980335E+00;  9.9999998E-03;  2.0062922E-01;8413;  9.0185964E-01;  0.0000000E+00;  1.1941588E-01;  1.0071217E+03;  1.3204151E-01;  5.8851279E+03;3;  1.2352325E+01;  0.0000000E+00;  1.8339901E+01;0;  2.1633098E+00;  2.3447475E+04;  0.0000000E+00; -2.2029378E+00;  4.0000000E+04;  0.0000000E+00;  3.9698496E+04;  1.9959695E+00;  0.0000000E+00;  1.6734023E-01;  6.5703564E+03;
  1.0982696E+00;  9.9999998E-03;  2.1064791E-01;8414;  9.0424359E-01;  0.0000000E+00;  1.2410706E-01;  1.0075575E+03;  1.3201661E-01;  6.2452271E+03;3;  5.9518871E+00;  0.0000000E+00;  1.5663352E+01;0;  2.2811692E+00;  2.3478059E+04;  0.0000000E+00; -2.1993618E+00;  4.0000000E+04;  0.0000000E+00;  3.9698242E+04;  2.1266975E+00;  0.0000000E+00;  1.5447168E-01;  6.5587031E+03;
  1.0985625E+00;  9.9999998E-03;  2.2068530E-01;8415;  9.0575111E-01;  0.0000000E+00;  1.2718108E-01;  1.0079941E+03;  1.3198602E-01;  6.6058950E+03;3; -2.2534494E+00;  0.0000000E+00;  1.2285954E+01;0;  2.4011958E+00;  2.3510049E+04;  0.0000000E+00; -2.2133641E+00;  4.0000000E+04;  0.0000000E+00;  3.9698461E+04;  2.2498941E+00;  0.0000000E+00;  1.5130164E-01;  6.5396724E+03;
  1.0989245E+00;  9.9999998E-03;  2.3075946E-01;8416;  9.0647519E-01;  0.0000000E+00;  1.2862296E-01;  1.0083303E+03;  1.3194880E-01;  6.8836929E+03;3; -1.1236213E+01;  0.0000000E+00;  9.8336916E+00;0;  2.5238543E+00;  2.3543197E+04;  0.0000000E+00; -2.3069339E+00;  4.0000000E+04;  0.0000000E+00;  3.9692164E+04;  2.3638496E+00;  0.0000000E+00;  1.6000456E-01;  7.2579302E+03;
  1.1112163E+00;  9.9999998E-03;  7.0123307E-02;8461;  8.6112440E-01;  0.0000000E+00;  4.3149184E-02;  1.0053164E+03;  1.2988421E-01;  4.3908408E+03;3;  5.0750507E+01;  0.0000000E+00; -6.3435392E+00;0;  7.5783157E-01;  2.4113027E+04;  0.0000000E+00;  3.2237276E-01;  4.0000000E+04;  0.0000000E+00;  3.9738246E+04;  2.3961313E-01;  0.0000000E+00;  5.1821846E-01;  7.8106244E+02;
  1.1112058E+00;  9.9999998E-03;  8.0169342E-02;8462;  8.6328077E-01;  0.0000000E+00;  4.8552576E-02;  1.0050608E+03;  1.2988293E-01;  4.1797529E+03;3;  4.8739605E+01;  0.0000000E+00; -6.6865411E+00;0;  7.8109378E-01;  2.4100678E+04;  0.0000000E+00;  3.5763964E-01;  4.0000000E+04;  0.0000000E+00;  3.9737910E+04;  2.8630173E-01;  0.0000000E+00;  4.9479204E-01;  8.2989331E+02;
  1.1111782E+00;  9.9999998E-03;  9.0235502E-02;8463;  8.6573666E-01;  0.0000000E+00;  5.3638753E-02;  1.0047913E+03;  1.2988289E-01;  3.9571492E+03;3;  4.6520500E+01;  0.0000000E+00; -6.4302216E+00;0;  8.1055450E-01;  2.4087500E+04;  0.0000000E+00;  3.4744310E-01;  4.0000000E+04;  0.0000000E+00;  3.9737809E+04;  3.4087607E-01;  0.0000000E+00;  4.6967840E-01;  7.9840326E+02;
  1.1111223E+00;  9.9999998E-03;  1.0030998E-01;8464;  8.6847287E-01;  0.0000000E+00;  5.8425866E-02;  1.0045209E+03;  1.2988356E-01;  3.7338604E+03;3;  4.4147419E+01;  0.0000000E+00; -5.5340195E+00;0;  8.4753531E-01;  2.4074045E+04;  0.0000000E+00;  2.6971915E-01;  4.0000000E+04;  0.0000000E+00;  3.9737273E+04;  4.0375617E-01;  0.0000000E+00;  4.4377914E-01;  6.9717578E+02;
  1.1110301E+00;  9.9999998E-03;  1.1034451E-01;8465;  8.7149656E-01;  0.0000000E+00;  6.2958471E-02;  1.0042651E+03;  1.2988552E-01;  3.5226863E+03;3;  4.1607407E+01;  0.0000000E+00; -4.0719876E+00;0;  8.9307117E-01;  2.4061615E+04;  0.0000000E+00;  1.0710838E-01;  4.0000000E+04;  0.0000000E+00;  3.9736402E+04;  4.7498408E-01;  0.0000000E+00;  4.1808712E-01;  6.5073273E+02;
  1.1109182E+00;  9.9999998E-03;  1.2035230E-01;8466;  8.7475389E-01;  0.0000000E+00;  6.7271389E-02;  1.0040405E+03;  1.2988698E-01;  3.3371125E+03;3;  3.8985363E+01;  0.0000000E+00; -2.2145126E+00;0;  9.4760466E-01;  2.4051537E+04;  0.0000000E+00; -1.4808500E-01;  4.0000000E+04;  0.0000000E+00;  3.9734641E+04;  5.5436033E-01;  0.0000000E+00;  3.9324436E-01;  9.3165808E+02;
  1.1108317E+00;  9.9999998E-03;  1.3035162E-01;8467;  8.7822443E-01;  0.0000000E+00;  7.1408711E-02;  1.0038629E+03;  1.2988414E-01;  3.1904241E+03;3;  3.6292938E+01;  0.0000000E+00;  9.3518496E-03;0;  1.0104008E+00;  2.4046230E+04;  0.0000000E+00; -4.8946255E-01;  4.0000000E+04;  0.0000000E+00;  3.9731906E+04;  6.4078367E-01;  0.0000000E+00;  3.6961716E-01;  1.5598267E+03;
  1.1107918E+00;  9.9999998E-03;  1.4037123E-01;8468;  8.8187695E-01;  0.0000000E+00;  7.5498834E-02;  1.0037661E+03;  1.2987608E-01;  3.1104819E+03;3;  3.3433475E+01;  0.0000000E+00;  2.3672760E+00;0;  1.0807209E+00;  2.4047447E+04;  0.0000000E+00; -8.9499480E-01;  4.0000000E+04;  0.0000000E+00;  3.9728512E+04;  7.3349738E-01;  0.0000000E+00;  3.4722358E-01;  2.3874846E+03;
  1.1107429E+00;  9.9999998E-03;  1.5041810E-01;8469;  8.8569081E-01;  0.0000000E+00;  7.9559013E-02;  1.0037816E+03;  1.2986501E-01;  3.1232883E+03;3;  3.0674494E+01;  0.0000000E+00;  4.9573226E+00;0;  1.1592572E+00;  2.4055559E+04;  0.0000000E+00; -1.3287396E+00;  4.0000000E+04;  0.0000000E+00;  3.9724949E+04;  8.3365262E-01;  0.0000000E+00;  3.2560462E-01;  3.3009236E+03;
  1.1106339E+00;  9.9999998E-03;  1.6047598E-01;8470;  8.8966155E-01;  0.0000000E+00;  8.3733641E-02;  1.0039431E+03;  1.2985525E-01;  3.2567158E+03;3;  2.8105608E+01;  0.0000000E+00;  7.8835287E+00;0;  1.2464641E+00;  2.4070533E+04;  0.0000000E+00; -1.7446190E+00;  4.0000000E+04;  0.0000000E+00;  3.9721059E+04;  9.4247454E-01;  0.0000000E+00;  3.0398959E-01;  4.1991934E+03;
  1.1105388E+00;  9.9999998E-03;  1.7052735E-01;8471;  8.9376795E-01;  0.0000000E+00;  8.8146463E-02;  1.0042426E+03;  1.2984069E-01;  3.5041575E+03;3;  2.5663759E+01;  0.0000000E+00;  1.1095223E+01;0;  1.3388615E+00;  2.4093742E+04;  0.0000000E+00; -2.0961730E+00;  4.0000000E+04;  0.0000000E+00;  3.9717059E+04;  1.0569253E+00;  0.0000000E+00;  2.8193620E-01;  4.9900371E+03;
  1.1105011E+00;  9.9999998E-03;  1.8056901E-01;8472;  8.9798373E-01;  0.0000000E+00;  9.2989653E-02;  1.0046648E+03;  1.2981966E-01;  3.8528079E+03;3;  2.3168528E+01;  0.0000000E+00;  1.4376542E+01;0;  1.4336553E+00;  2.4124928E+04;  0.0000000E+00; -2.3483694E+00;  4.0000000E+04;  0.0000000E+00;  3.9713191E+04;  1.1742548E+00;  0.0000000E+00;  2.5940055E-01;  5.6277427E+03;
  1.1105416E+00;  9.9999998E-03;  1.9060485E-01;8473;  9.0231681E-01;  0.0000000E+00;  9.8510504E-02;  1.0051815E+03;  1.2979320E-01;  4.2796206E+03;3;  2.0938911E+01;  0.0000000E+00;  1.8043003E+01;0;  1.5290936E+00;  2.4163000E+04;  0.0000000E+00; -2.4991076E+00;  4.0000000E+04;  0.0000000E+00;  3.9708922E+04;  1.2920619E+00;  0.0000000E+00;  2.3703167E-01;  6.1383179E+03;
  1.1106337E+00;  9.9999998E-03;  2.0063449E-01;8474;  9.0680385E-01;  0.0000000E+00;  1.0517422E-01;  1.0057694E+03;  1.2976411E-01;  4.7651016E+03;3;  1.8942923E+01;  0.0000000E+00;  2.2036930E+01;0;  1.6263342E+00;  2.4205193E+04;  0.0000000E+00; -2.5846989E+00;  4.0000000E+04;  0.0000000E+00;  3.9704562E+04;  1.4095999E+00;  0.0000000E+00;  2.1673433E-01;  6.5904263E+03;
  1.1107591E+00;  9.9999998E-03;  2.1066274E-01;8475;  9.1131753E-01;  0.0000000E+00;  1.1308078E-01;  1.0063985E+03;  1.2973517E-01;  5.2846377E+03;3;  1.7080345E+01;  0.0000000E+00;  2.4419695E+01;0;  1.7288251E+00;  2.4249178E+04;  0.0000000E+00; -2.6701779E+00;  4.0000000E+04;  0.0000000E+00;  3.9700422E+04;  1.5260019E+00;  0.0000000E+00;  2.0282312E-01;  7.0527290E+03;
  1.1109262E+00;  9.9999998E-03;  2.2069633E-01;8476;  9.1584533E-01;  0.0000000E+00;  1.2048495E-01;  1.0070347E+03;  1.2970679E-01;  5.8100630E+03;3;  1.5206488E+01;  0.0000000E+00;  2.1246662E+01;0;  1.8398687E+00;  2.4292902E+04;  0.0000000E+00; -2.8321016E+00;  4.0000000E+04;  0.0000000E+00;  3.9696289E+04;  1.6393723E+00;  0.0000000E+00;  2.0049636E-01;  7.6046260E+03;
  1.1110903E+00;  9.9999998E-03;  2.3074624E-01;8477;  9.2061627E-01;  0.0000000E+00;  1.2451397E-01;  1.0076070E+03;  1.2968305E-01;  6.2827085E+03;3;  1.2970612E+01;  0.0000000E+00;  1.5884351E+01;0;  1.9592688E+00;  2.4333361E+04;  0.0000000E+00; -3.1371493E+00;  4.0000000E+04;  0.0000000E+00;  3.9689910E+04;  1.7503796E+00;  0.0000000E+00;  2.0888923E-01;  8.5456299E+03;
  1.1237669E+00;  9.9999998E-03;  7.0172749E-02;8522;  8.5977834E-01;  0.0000000E+00;  3.6362231E-02;  1.0032664E+03;  1.2772001E-01;  2.6959661E+03;3;  5.1086071E+01;  0.0000000E+00; -5.2364626E+00;0;  5.5497104E-01;  2.4820430E+04;  0.0000000E+00;  2.5330150E-01;  4.0000000E+04;  0.0000000E+00;  3.9754770E+04;  8.1653900E-02;  0.0000000E+00;  4.7331712E-01;  1.4599940E+03;
  1.1238111E+00;  9.9999998E-03;  8.0190450E-02;8523;  8.6200088E-01;  0.0000000E+00;  4.1046690E-02;  1.0030134E+03;  1.2771930E-01;  2.4871702E+03;3;  4.8987141E+01;  0.0000000E+00; -5.1775002E+00;0;  5.6802875E-01;  2.4808783E+04;  0.0000000E+00;  2.9229799E-01;  4.0000000E+04;  0.0000000E+00;  3.9754793E+04;  1.1259957E-01;  0.0000000E+00;  4.5542920E-01;  1.5079708E+03;
  1.1238471E+00;  9.9999998E-03;  9.0217710E-02;8524;  8.6449265E-01;  0.0000000E+00;  4.5576241E-02;  1.0027408E+03;  1.2771919E-01;  2.2621416E+03;3;  4.6692680E+01;  0.0000000E+00; -4.6146183E+00;0;  5.8548588E-01;  2.4796379E+04;  0.0000000E+00;  2.9893976E-01;  4.0000000E+04;  0.0000000E+00;  3.9754543E+04;  1.4871527E-01;  0.0000000E+00;  4.3677062E-01;  1.5020334E+03;
  1.1238708E+00;  9.9999998E-03;  1.0025693E-01;8525;  8.6725605E-01;  0.0000000E+00;  4.9897376E-02;  1.0024538E+03;  1.2771916E-01;  2.0253080E+03;3;  4.4337177E+01;  0.0000000E+00; -3.5191290E+00;0;  6.0837448E-01;  2.4783588E+04;  0.0000000E+00;  2.5298312E-01;  4.0000000E+04;  0.0000000E+00;  3.9753598E+04;  1.9026195E-01;  0.0000000E+00;  4.1811255E-01;  1.4056011E+03;
  1.1238806E+00;  9.9999998E-03;  1.1030585E-01;8526;  8.7031490E-01;  0.0000000E+00;  5.4047611E-02;  1.0021679E+03;  1.2771975E-01;  1.7893622E+03;3;  4.1792217E+01;  0.0000000E+00; -1.9594741E+00;0;  6.3762188E-01;  2.4771352E+04;  0.0000000E+00;  1.3493602E-01;  4.0000000E+04;  0.0000000E+00;  3.9752082E+04;  2.3743495E-01;  0.0000000E+00;  4.0018690E-01;  1.1921812E+03;
  1.1238772E+00;  9.9999998E-03;  1.2033550E-01;8527;  8.7361413E-01;  0.0000000E+00;  5.8018133E-02;  1.0019083E+03;  1.2772010E-01;  1.5750641E+03;3;  3.9171871E+01;  0.0000000E+00; -6.4461820E-02;0;  6.7379487E-01;  2.4761105E+04;  0.0000000E+00; -6.7846566E-02;  4.0000000E+04;  0.0000000E+00;  3.9749609E+04;  2.9022229E-01;  0.0000000E+00;  3.8357255E-01;  9.0479016E+02;
  1.1238980E+00;  9.9999998E-03;  1.3036774E-01;8528;  8.7715977E-01;  0.0000000E+00;  6.1855868E-02;  1.0017047E+03;  1.2771779E-01;  1.4070084E+03;3;  3.6620529E+01;  0.0000000E+00;  2.2177825E+00;0;  7.1654928E-01;  2.4755334E+04;  0.0000000E+00; -3.5585770E-01;  4.0000000E+04;  0.0000000E+00;  3.9746422E+04;  3.4814495E-01;  0.0000000E+00;  3.6840430E-01;  8.4190863E+02;
  1.1239051E+00;  9.9999998E-03;  1.4042443E-01;8529;  8.8092911E-01;  0.0000000E+00;  6.5726615E-02;  1.0015941E+03;  1.2771371E-01;  1.3157000E+03;3;  3.3844975E+01;  0.0000000E+00;  4.5094266E+00;0;  7.6656854E-01;  2.4755363E+04;  0.0000000E+00; -7.1444654E-01;  4.0000000E+04;  0.0000000E+00;  3.9742703E+04;  4.1208673E-01;  0.0000000E+00;  3.5448185E-01;  1.3267755E+03;
  1.1238686E+00;  9.9999998E-03;  1.5047595E-01;8530;  8.8490576E-01;  0.0000000E+00;  6.9576062E-02;  1.0016173E+03;  1.2770776E-01;  1.3348892E+03;3;  3.1208231E+01;  0.0000000E+00;  7.0080233E+00;0;  8.2386464E-01;  2.4762770E+04;  0.0000000E+00; -1.1124381E+00;  4.0000000E+04;  0.0000000E+00;  3.9738613E+04;  4.8272806E-01;  0.0000000E+00;  3.4113657E-01;  2.1080220E+03;
  1.1237442E+00;  9.9999998E-03;  1.6051464E-01;8531;  8.8908511E-01;  0.0000000E+00;  7.3536173E-02;  1.0017997E+03;  1.2769930E-01;  1.4854397E+03;3;  2.8819160E+01;  0.0000000E+00;  9.6439247E+00;0;  8.8879943E-01;  2.4778309E+04;  0.0000000E+00; -1.5103916E+00;  4.0000000E+04;  0.0000000E+00;  3.9734305E+04;  5.6145746E-01;  0.0000000E+00;  3.2734200E-01;  2.9617004E+03;
  1.1235027E+00;  9.9999998E-03;  1.7055060E-01;8532;  8.9346051E-01;  0.0000000E+00;  7.7721156E-02;  1.0021484E+03;  1.2769170E-01;  1.7732633E+03;3;  2.6467831E+01;  0.0000000E+00;  1.2309428E+01;0;  9.6168512E-01;  2.4801961E+04;  0.0000000E+00; -1.8644927E+00;  4.0000000E+04;  0.0000000E+00;  3.9729629E+04;  6.4961755E-01;  0.0000000E+00;  3.1206757E-01;  3.7790881E+03;
  1.1232680E+00;  9.9999998E-03;  1.8058644E-01;8533;  8.9804465E-01;  0.0000000E+00;  8.2128726E-02;  1.0026441E+03;  1.2767847E-01;  2.1824155E+03;3;  2.4359015E+01;  0.0000000E+00;  1.5106923E+01;0;  1.0389009E+00;  2.4834932E+04;  0.0000000E+00; -2.1361625E+00;  4.0000000E+04;  0.0000000E+00;  3.9724406E+04;  7.4398905E-01;  0.0000000E+00;  2.9491174E-01;  4.5002759E+03;
  1.1231327E+00;  9.9999998E-03;  1.9061978E-01;8534;  9.0285534E-01;  0.0000000E+00;  8.6870745E-02;  1.0032518E+03;  1.2765606E-01;  2.6840566E+03;3;  2.2494736E+01;  0.0000000E+00;  1.7985304E+01;0;  1.1170806E+00;  2.4876939E+04;  0.0000000E+00; -2.3149834E+00;  4.0000000E+04;  0.0000000E+00;  3.9718504E+04;  8.4091038E-01;  0.0000000E+00;  2.7617016E-01;  5.1440508E+03;
  1.1230748E+00;  9.9999998E-03;  2.0064889E-01;8535;  9.0802795E-01;  0.0000000E+00;  9.2277080E-02;  1.0039379E+03;  1.2762848E-01;  3.2503386E+03;3;  2.1340801E+01;  0.0000000E+00;  2.1431416E+01;0;  1.1963911E+00;  2.4925320E+04;  0.0000000E+00; -2.4350655E+00;  4.0000000E+04;  0.0000000E+00;  3.9711750E+04;  9.3952233E-01;  0.0000000E+00;  2.5686875E-01;  5.8067109E+03;
  1.1230762E+00;  9.9999998E-03;  2.1067236E-01;8536;  9.1358942E-01;  0.0000000E+00;  9.8626167E-02;  1.0046659E+03;  1.2759683E-01;  3.8512471E+03;3;  2.0342850E+01;  0.0000000E+00;  2.4911709E+01;0;  1.2786087E+00;  2.4977232E+04;  0.0000000E+00; -2.5712242E+00;  4.0000000E+04;  0.0000000E+00;  3.9704746E+04;  1.0388443E+00;  0.0000000E+00;  2.3976430E-01;  6.5657080E+03;
  1.1231169E+00;  9.9999998E-03;  2.2069678E-01;8537;  9.1936123E-01;  0.0000000E+00;  1.0592716E-01;  1.0054044E+03;  1.2756535E-01;  4.4609028E+03;3;  1.9302837E+01;  0.0000000E+00;  2.6998133E+01;0;  1.3684146E+00;  2.5029492E+04;  0.0000000E+00; -2.8201764E+00;  4.0000000E+04;  0.0000000E+00;  3.9697801E+04;  1.1381190E+00;  0.0000000E+00;  2.3029570E-01;  7.4643037E+03;
  1.1232097E+00;  9.9999998E-03;  2.3072593E-01;8538;  9.2519695E-01;  0.0000000E+00;  1.1288930E-01;  1.0061071E+03;  1.2753467E-01;  5.0408257E+03;3;  1.9025280E+01;  0.0000000E+00;  2.3060047E+01;0;  1.4701281E+00;  2.5079514E+04;  0.0000000E+00; -3.2650785E+00;  4.0000000E+04;  0.0000000E+00;  3.9691609E+04;  1.2354074E+00;  0.0000000E+00;  2.3472065E-01;  8.5184561E+03;
  1.1363305E+00;  9.9999998E-03;  7.0252143E-02;8583;  8.5766625E-01;  0.0000000E+00;  3.0757995E-02;  1.0011005E+03;  1.2564217E-01;  9.0766205E+02;3;  5.1057587E+01;  0.0000000E+00; -3.5154974E+00;0;  3.9405492E-01;  2.5526539E+04;  0.0000000E+00;  1.3437270E-01;  4.0000000E+04;  0.0000000E+00;  3.9769656E+04; -2.8478412E-02;  0.0000000E+00;  4.2253333E-01;  3.1459719E+03;
  1.1364307E+00;  9.9999998E-03;  8.0248877E-02;8584;  8.5993558E-01;  0.0000000E+00;  3.4836806E-02;  1.0009448E+03;  1.2563956E-01;  7.7925482E+02;3;  4.8903313E+01;  0.0000000E+00; -3.2763791E+00;0;  4.0043277E-01;  2.5520725E+04;  0.0000000E+00;  1.6148855E-01;  4.0000000E+04;  0.0000000E+00;  3.9769938E+04; -9.0311226E-03;  0.0000000E+00;  4.0946388E-01;  3.2141401E+03;
  1.1365464E+00;  9.9999998E-03;  9.0243787E-02;8585;  8.6246181E-01;  0.0000000E+00;  3.8791254E-02;  1.0007535E+03;  1.2563615E-01;  6.2145233E+02;3;  4.6613777E+01;  0.0000000E+00; -2.5513945E+00;0;  4.0983152E-01;  2.5514488E+04;  0.0000000E+00;  1.7086531E-01;  4.0000000E+04;  0.0000000E+00;  3.9769676E+04;  1.3465746E-02;  0.0000000E+00;  3.9636579E-01;  3.2086018E+03;
  1.1366733E+00;  9.9999998E-03;  1.0024465E-01;8586;  8.6525357E-01;  0.0000000E+00;  4.2584524E-02;  1.0005383E+03;  1.2563166E-01;  4.4389075E+02;3;  4.4318264E+01;  0.0000000E+00; -1.3781122E+00;0;  4.2310593E-01;  2.5507891E+04;  0.0000000E+00;  1.4863661E-01;  4.0000000E+04;  0.0000000E+00;  3.9768672E+04;  3.9156355E-02;  0.0000000E+00;  3.8394958E-01;  3.1090764E+03;
  1.1368103E+00;  9.9999998E-03;  1.1026434E-01;8587;  8.6832589E-01;  0.0000000E+00;  4.6254613E-02;  1.0003126E+03;  1.2562674E-01;  2.5777866E+02;3;  4.1806721E+01;  0.0000000E+00;  2.6874116E-01;0;  4.4102594E-01;  2.5501715E+04;  0.0000000E+00;  8.0572218E-02;  4.0000000E+04;  0.0000000E+00;  3.9766801E+04;  6.8194538E-02;  0.0000000E+00;  3.7283140E-01;  2.9018286E+03;
  1.1369485E+00;  9.9999998E-03;  1.2031384E-01;8588;  8.7165380E-01;  0.0000000E+00;  4.9815334E-02;  1.0000984E+03;  1.2562215E-01;  8.1108086E+01;3;  3.9210732E+01;  0.0000000E+00;  2.2110703E+00;0;  4.6428266E-01;  2.5496705E+04;  0.0000000E+00; -4.4373799E-02;  4.0000000E+04;  0.0000000E+00;  3.9764035E+04;  1.0085297E-01;  0.0000000E+00;  3.6342970E-01;  2.5942327E+03;
  1.1370505E+00;  9.9999998E-03;  1.3038793E-01;8589;  8.7524313E-01;  0.0000000E+00;  5.3372458E-02;  9.9993188E+02;  1.2561801E-01; -5.6185398E+01;3;  3.6571327E+01;  0.0000000E+00;  4.5889006E+00;0;  4.9366373E-01;  2.5494061E+04;  0.0000000E+00; -2.2971724E-01;  4.0000000E+04;  0.0000000E+00;  3.9760691E+04;  1.3781132E-01;  0.0000000E+00;  3.5585240E-01;  2.2306631E+03;
  1.1370589E+00;  9.9999998E-03;  1.4045244E-01;8590;  8.7908936E-01;  0.0000000E+00;  5.7025019E-02;  9.9984290E+02;  1.2561627E-01; -1.2957535E+02;3;  3.3908836E+01;  0.0000000E+00;  7.0327783E+00;0;  5.2988088E-01;  2.5494670E+04;  0.0000000E+00; -4.6787798E-01;  4.0000000E+04;  0.0000000E+00;  3.9756738E+04;  1.8017232E-01;  0.0000000E+00;  3.4970859E-01;  1.9133340E+03;
  1.1369290E+00;  9.9999998E-03;  1.5050979E-01;8591;  8.8318902E-01;  0.0000000E+00;  6.0759265E-02;  9.9987286E+02;  1.2561959E-01; -1.0485078E+02;3;  3.1423727E+01;  0.0000000E+00;  9.5495310E+00;0;  5.7339251E-01;  2.5499020E+04;  0.0000000E+00; -7.4240309E-01;  4.0000000E+04;  0.0000000E+00;  3.9752438E+04;  2.2938998E-01;  0.0000000E+00;  3.4400254E-01;  1.7868082E+03;
  1.1367188E+00;  9.9999998E-03;  1.6055131E-01;8592;  8.8751775E-01;  0.0000000E+00;  6.4618893E-02;  1.0000384E+03;  1.2562248E-01;  3.1657227E+01;3;  2.9014374E+01;  0.0000000E+00;  1.2119797E+01;0;  6.2288630E-01;  2.5509924E+04;  0.0000000E+00; -1.0287495E+00;  4.0000000E+04;  0.0000000E+00;  3.9747773E+04;  2.8541651E-01;  0.0000000E+00;  3.3746976E-01;  1.9492079E+03;
  1.1364795E+00;  9.9999998E-03;  1.7058004E-01;8593;  8.9205348E-01;  0.0000000E+00;  6.8650670E-02;  1.0003535E+03;  1.2562194E-01;  2.9160513E+02;3;  2.6797422E+01;  0.0000000E+00;  1.4634784E+01;0;  6.7697686E-01;  2.5529553E+04;  0.0000000E+00; -1.2940567E+00;  4.0000000E+04;  0.0000000E+00;  3.9742520E+04;  3.4791192E-01;  0.0000000E+00;  3.2906494E-01;  2.3311980E+03;
  1.1362211E+00;  9.9999998E-03;  1.8061192E-01;8594;  8.9684123E-01;  0.0000000E+00;  7.2848342E-02;  1.0008109E+03;  1.2561581E-01;  6.6875677E+02;3;  2.4914701E+01;  0.0000000E+00;  1.6933743E+01;0;  7.3499036E-01;  2.5558814E+04;  0.0000000E+00; -1.5067121E+00;  4.0000000E+04;  0.0000000E+00;  3.9736195E+04;  4.1691467E-01;  0.0000000E+00;  3.1807572E-01;  2.8275447E+03;
  1.1359617E+00;  9.9999998E-03;  1.9064590E-01;8595;  9.0192944E-01;  0.0000000E+00;  7.7231251E-02;  1.0013895E+03;  1.2560500E-01;  1.1460107E+03;3;  2.3278784E+01;  0.0000000E+00;  1.9226963E+01;0;  7.9605871E-01;  2.5596621E+04;  0.0000000E+00; -1.6598096E+00;  4.0000000E+04;  0.0000000E+00;  3.9728430E+04;  4.9180818E-01;  0.0000000E+00;  3.0425054E-01;  3.4570122E+03;
  1.1357265E+00;  9.9999998E-03;  2.0067507E-01;8596;  9.0739900E-01;  0.0000000E+00;  8.1928864E-02;  1.0020536E+03;  1.2559018E-01;  1.6937747E+03;3;  2.2222591E+01;  0.0000000E+00;  2.1743574E+01;0;  8.5934591E-01;  2.5641166E+04;  0.0000000E+00; -1.7829522E+00;  4.0000000E+04;  0.0000000E+00;  3.9718992E+04;  5.7132602E-01;  0.0000000E+00;  2.8801990E-01;  4.3262969E+03;
  1.1355578E+00;  9.9999998E-03;  2.1069744E-01;8597;  9.1342777E-01;  0.0000000E+00;  8.7040640E-02;  1.0027649E+03;  1.2557125E-01;  2.2804812E+03;3;  2.1809027E+01;  0.0000000E+00;  2.4576344E+01;0;  9.2428756E-01;  2.5690367E+04;  0.0000000E+00; -1.9311833E+00;  4.0000000E+04;  0.0000000E+00;  3.9708117E+04;  6.5334868E-01;  0.0000000E+00;  2.7093884E-01;  5.4711123E+03;
  1.1354887E+00;  9.9999998E-03;  2.2071351E-01;8598;  9.1984040E-01;  0.0000000E+00;  9.2303999E-02;  1.0034828E+03;  1.2554696E-01;  2.8725898E+03;3;  2.1376841E+01;  0.0000000E+00;  2.6501932E+01;0;  9.9135435E-01;  2.5742209E+04;  0.0000000E+00; -2.1707106E+00;  4.0000000E+04;  0.0000000E+00;  3.9697453E+04;  7.3559338E-01;  0.0000000E+00;  2.5576097E-01;  6.7664619E+03;
  1.1354904E+00;  9.9999998E-03;  2.3072715E-01;8599;  9.2648906E-01;  0.0000000E+00;  9.7543895E-02;  1.0041943E+03;  1.2552154E-01;  3.4594766E+03;3;  2.1191843E+01;  0.0000000E+00;  2.6996397E+01;0;  1.0639393E+00;  2.5793096E+04;  0.0000000E+00; -2.5658305E+00;  4.0000000E+04;  0.0000000E+00;  3.9688648E+04;  8.1737626E-01;  0.0000000E+00;  2.4656309E-01;  7.9941104E+03;
  1.1488236E+00;  9.9999998E-03;  7.0298240E-02;8644;  8.5521126E-01;  0.0000000E+00;  2.5762716E-02;  9.9917700E+02;  1.2366328E-01; -6.7815295E+02;3;  5.0655827E+01;  0.0000000E+00; -1.8476568E+00;0;  2.6800171E-01;  2.6241426E+04;  0.0000000E+00;  9.3457440E-04;  4.0000000E+04;  0.0000000E+00;  3.9782234E+04; -1.0131681E-01;  0.0000000E+00;  3.6931852E-01;  4.6990903E+03;
  1.1489531E+00;  9.9999998E-03;  8.0291517E-02;8645;  8.5749912E-01;  0.0000000E+00;  2.9265448E-02;  9.9917523E+02;  1.2365776E-01; -6.7957007E+02;3;  4.8496708E+01;  0.0000000E+00; -1.3738441E+00;0;  2.7088898E-01;  2.6245605E+04;  0.0000000E+00;  6.7955023E-03;  4.0000000E+04;  0.0000000E+00;  3.9782828E+04; -8.9473411E-02;  0.0000000E+00;  3.6036241E-01;  4.7659009E+03;
  1.1491109E+00;  9.9999998E-03;  9.0274319E-02;8646;  8.6004674E-01;  0.0000000E+00;  3.2675579E-02;  9.9914539E+02;  1.2365037E-01; -7.0416638E+02;3;  4.6248329E+01;  0.0000000E+00; -4.7731763E-01;0;  2.7606246E-01;  2.6249582E+04;  0.0000000E+00;  7.3351953E-03;  4.0000000E+04;  0.0000000E+00;  3.9782602E+04; -7.5912148E-02;  0.0000000E+00;  3.5197461E-01;  4.7481431E+03;
  1.1492985E+00;  9.9999998E-03;  1.0026083E-01;8647;  8.6285192E-01;  0.0000000E+00;  3.5969738E-02;  9.9909247E+02;  1.2364177E-01; -7.4776636E+02;3;  4.3854454E+01;  0.0000000E+00;  8.0410749E-01;0;  2.8421062E-01;  2.6253697E+04;  0.0000000E+00; -3.8840207E-03;  4.0000000E+04;  0.0000000E+00;  3.9781586E+04; -6.0571421E-02;  0.0000000E+00;  3.4478205E-01;  4.6318599E+03;
  1.1495050E+00;  9.9999998E-03;  1.1026049E-01;8648;  8.6592674E-01;  0.0000000E+00;  3.9184019E-02;  9.9901447E+02;  1.2363148E-01; -8.1203918E+02;3;  4.1367531E+01;  0.0000000E+00;  2.5890477E+00;0;  2.9605681E-01;  2.6257762E+04;  0.0000000E+00; -3.3352476E-02;  4.0000000E+04;  0.0000000E+00;  3.9779703E+04; -4.3288548E-02;  0.0000000E+00;  3.3934537E-01;  4.4149199E+03;
  1.1497164E+00;  9.9999998E-03;  1.2028652E-01;8649;  8.6926442E-01;  0.0000000E+00;  4.2367041E-02;  9.9893579E+02;  1.2362103E-01; -8.7680048E+02;3;  3.8817028E+01;  0.0000000E+00;  4.6598201E+00;0;  3.1219280E-01;  2.6262426E+04;  0.0000000E+00; -8.5366465E-02;  4.0000000E+04;  0.0000000E+00;  3.9776887E+04; -2.3791425E-02;  0.0000000E+00;  3.3598423E-01;  4.1093813E+03;
  1.1498722E+00;  9.9999998E-03;  1.3034162E-01;8650;  8.7287295E-01;  0.0000000E+00;  4.5624375E-02;  9.9886993E+02;  1.2361272E-01; -9.3105450E+02;3;  3.6286598E+01;  0.0000000E+00;  7.0691910E+00;0;  3.3343333E-01;  2.6266922E+04;  0.0000000E+00; -1.5964852E-01;  4.0000000E+04;  0.0000000E+00;  3.9773566E+04; -1.3077388E-03;  0.0000000E+00;  3.3474106E-01;  3.7327000E+03;
  1.1499126E+00;  9.9999998E-03;  1.4041507E-01;8651;  8.7675977E-01;  0.0000000E+00;  4.9016446E-02;  9.9884186E+02;  1.2361071E-01; -9.5418158E+02;3;  3.3728142E+01;  0.0000000E+00;  9.6020250E+00;0;  3.6032102E-01;  2.6271008E+04;  0.0000000E+00; -2.5234967E-01;  4.0000000E+04;  0.0000000E+00;  3.9769879E+04;  2.5217066E-02;  0.0000000E+00;  3.3510396E-01;  3.3022041E+03;
  1.1498049E+00;  9.9999998E-03;  1.5048319E-01;8652;  8.8091397E-01;  0.0000000E+00;  5.2548625E-02;  9.9887933E+02;  1.2361505E-01; -9.2334955E+02;3;  3.1367788E+01;  0.0000000E+00;  1.2103348E+01;0;  3.9285824E-01;  2.6275352E+04;  0.0000000E+00; -3.5850179E-01;  4.0000000E+04;  0.0000000E+00;  3.9765527E+04;  5.6875110E-02;  0.0000000E+00;  3.3598313E-01;  2.8275791E+03;
  1.1495570E+00;  9.9999998E-03;  1.6053478E-01;8653;  8.8533169E-01;  0.0000000E+00;  5.6305837E-02;  9.9900592E+02;  1.2362389E-01; -8.1905841E+02;3;  2.9152536E+01;  0.0000000E+00;  1.4735735E+01;0;  4.3053824E-01;  2.6282008E+04;  0.0000000E+00; -4.7050688E-01;  4.0000000E+04;  0.0000000E+00;  3.9760582E+04;  9.4533727E-02;  0.0000000E+00;  3.3600450E-01;  2.3090603E+03;
  1.1492541E+00;  9.9999998E-03;  1.7057399E-01;8654;  8.9000118E-01;  0.0000000E+00;  6.0281269E-02;  9.9924622E+02;  1.2363319E-01; -6.2106189E+02;3;  2.7080503E+01;  0.0000000E+00;  1.7170034E+01;0;  4.7191882E-01;  2.6294668E+04;  0.0000000E+00; -5.7106841E-01;  4.0000000E+04;  0.0000000E+00;  3.9754754E+04;  1.3800804E-01;  0.0000000E+00;  3.3391079E-01;  1.7500691E+03;
  1.1489334E+00;  9.9999998E-03;  1.8060821E-01;8655;  8.9493734E-01;  0.0000000E+00;  6.4433776E-02;  9.9959869E+02;  1.2363968E-01; -3.3067517E+02;3;  2.5232641E+01;  0.0000000E+00;  1.9423084E+01;0;  5.1607835E-01;  2.6314322E+04;  0.0000000E+00; -6.4696670E-01;  4.0000000E+04;  0.0000000E+00;  3.9747465E+04;  1.8721579E-01;  0.0000000E+00;  3.2886255E-01;  1.2443787E+03;
  1.1486396E+00;  9.9999998E-03;  1.9063000E-01;8656;  9.0016568E-01;  0.0000000E+00;  6.8710908E-02;  1.0000609E+03;  1.2364139E-01;  5.0194279E+01;3;  2.3766329E+01;  0.0000000E+00;  2.1322874E+01;0;  5.6188732E-01;  2.6342186E+04;  0.0000000E+00; -7.0393777E-01;  4.0000000E+04;  0.0000000E+00;  3.9738531E+04;  2.4140783E-01;  0.0000000E+00;  3.2047948E-01;  1.3218607E+03;
  1.1484163E+00;  9.9999998E-03;  2.0064098E-01;8657;  9.0579045E-01;  0.0000000E+00;  7.3085427E-02;  1.0005970E+03;  1.2363486E-01;  4.9193243E+02;3;  2.2857927E+01;  0.0000000E+00;  2.3289040E+01;0;  6.0826284E-01;  2.6378193E+04;  0.0000000E+00; -7.7090031E-01;  4.0000000E+04;  0.0000000E+00;  3.9728250E+04;  2.9934528E-01;  0.0000000E+00;  3.0891755E-01;  2.2292913E+03;
  1.1482466E+00;  9.9999998E-03;  2.1064667E-01;8658;  9.1192526E-01;  0.0000000E+00;  7.7648647E-02;  1.0011962E+03;  1.2362310E-01;  9.8574475E+02;3;  2.2565729E+01;  0.0000000E+00;  2.5325243E+01;0;  6.5551203E-01;  2.6419674E+04;  0.0000000E+00; -9.0278816E-01;  4.0000000E+04;  0.0000000E+00;  3.9717660E+04;  3.6051419E-01;  0.0000000E+00;  2.9499784E-01;  3.4630908E+03;
  1.1481292E+00;  9.9999998E-03;  2.2065336E-01;8659;  9.1860318E-01;  0.0000000E+00;  8.2380176E-02;  1.0018348E+03;  1.2360808E-01;  1.5118824E+03;3;  2.2554684E+01;  0.0000000E+00;  2.6974043E+01;0;  7.0458686E-01;  2.6463824E+04;  0.0000000E+00; -1.1612254E+00;  4.0000000E+04;  0.0000000E+00;  3.9708000E+04;  4.2404264E-01;  0.0000000E+00;  2.8054422E-01;  4.7104492E+03;
  1.1480712E+00;  9.9999998E-03;  2.3066413E-01;8660;  9.2552972E-01;  0.0000000E+00;  8.7204829E-02;  1.0024868E+03;  1.2359118E-01;  2.0491204E+03;3;  2.2500370E+01;  0.0000000E+00;  2.7304234E+01;0;  7.5756109E-01;  2.6507789E+04;  0.0000000E+00; -1.6064130E+00;  4.0000000E+04;  0.0000000E+00;  3.9701023E+04;  4.8873821E-01;  0.0000000E+00;  2.6882285E-01;  5.7737485E+03;
  1.1611942E+00;  9.9999998E-03;  7.0272110E-02;8705;  8.5246313E-01;  0.0000000E+00;  2.1486420E-02;  9.9770056E+02;  1.2179165E-01; -1.8926008E+03;3;  5.0253181E+01;  0.0000000E+00; -3.7197053E-01;0;  1.6976865E-01;  2.6969652E+04;  0.0000000E+00; -1.2234978E-01;  4.0000000E+04;  0.0000000E+00;  3.9792484E+04; -1.4652972E-01;  0.0000000E+00;  3.1629837E-01;  6.0193911E+03;
  1.1613066E+00;  9.9999998E-03;  8.0282740E-02;8706;  8.5480618E-01;  0.0000000E+00;  2.4389856E-02;  9.9789191E+02;  1.2178488E-01; -1.7351023E+03;3;  4.8118095E+01;  0.0000000E+00;  1.9673839E-01;0;  1.7153507E-01;  2.6985180E+04;  0.0000000E+00; -1.4246115E-01;  4.0000000E+04;  0.0000000E+00;  3.9792805E+04; -1.3932061E-01;  0.0000000E+00;  3.1085569E-01;  6.0439175E+03;
  1.1614459E+00;  9.9999998E-03;  9.0281174E-02;8707;  8.5741186E-01;  0.0000000E+00;  2.7229594E-02;  9.9806177E+02;  1.2177621E-01; -1.5952637E+03;3;  4.5847687E+01;  0.0000000E+00;  1.1701366E+00;0;  1.7525721E-01;  2.7000861E+04;  0.0000000E+00; -1.5905781E-01;  4.0000000E+04;  0.0000000E+00;  3.9792535E+04; -1.3120422E-01;  0.0000000E+00;  3.0646142E-01;  5.9928896E+03;
  1.1616204E+00;  9.9999998E-03;  1.0027160E-01;8708;  8.6026931E-01;  0.0000000E+00;  3.0003779E-02;  9.9821399E+02;  1.2176576E-01; -1.4699447E+03;3;  4.3456947E+01;  0.0000000E+00;  2.5064671E+00;0;  1.8147734E-01;  2.7016783E+04;  0.0000000E+00; -1.7162973E-01;  4.0000000E+04;  0.0000000E+00;  3.9791656E+04; -1.2217256E-01;  0.0000000E+00;  3.0364990E-01;  5.8612554E+03;
  1.1618208E+00;  9.9999998E-03;  1.1027002E-01;8709;  8.6338264E-01;  0.0000000E+00;  3.2756574E-02;  9.9834058E+02;  1.2175409E-01; -1.3657699E+03;3;  4.0988094E+01;  0.0000000E+00;  4.3958435E+00;0;  1.9078726E-01;  2.7032465E+04;  0.0000000E+00; -1.7901796E-01;  4.0000000E+04;  0.0000000E+00;  3.9789926E+04; -1.1210246E-01;  0.0000000E+00;  3.0288970E-01;  5.6465239E+03;
  1.1620274E+00;  9.9999998E-03;  1.2028348E-01;8710;  8.6674941E-01;  0.0000000E+00;  3.5568934E-02;  9.9843677E+02;  1.2174120E-01; -1.2865673E+03;3;  3.8448639E+01;  0.0000000E+00;  6.5979948E+00;0;  2.0368008E-01;  2.7047551E+04;  0.0000000E+00; -1.7830251E-01;  4.0000000E+04;  0.0000000E+00;  3.9787516E+04; -1.0075267E-01;  0.0000000E+00;  3.0443275E-01;  5.3573809E+03;
  1.1622002E+00;  9.9999998E-03;  1.3030940E-01;8711;  8.7036824E-01;  0.0000000E+00;  3.8467269E-02;  9.9851935E+02;  1.2173075E-01; -1.2185562E+03;3;  3.5946308E+01;  0.0000000E+00;  9.0325909E+00;0;  2.2054085E-01;  2.7061002E+04;  0.0000000E+00; -1.6477446E-01;  4.0000000E+04;  0.0000000E+00;  3.9784648E+04; -8.7663263E-02;  0.0000000E+00;  3.0820411E-01;  5.0041357E+03;
  1.1622955E+00;  9.9999998E-03;  1.4035639E-01;8712;  8.7426865E-01;  0.0000000E+00;  4.1519038E-02;  9.9858820E+02;  1.2172394E-01; -1.1618877E+03;3;  3.3492802E+01;  0.0000000E+00;  1.1698563E+01;0;  2.4152657E-01;  2.7071916E+04;  0.0000000E+00; -1.3430339E-01;  4.0000000E+04;  0.0000000E+00;  3.9781164E+04; -7.2135545E-02;  0.0000000E+00;  3.1366211E-01;  4.5861875E+03;
  1.1622699E+00;  9.9999998E-03;  1.5042336E-01;8713;  8.7844205E-01;  0.0000000E+00;  4.4762641E-02;  9.9866425E+02;  1.2172407E-01; -1.0992979E+03;3;  3.1225874E+01;  0.0000000E+00;  1.4290676E+01;0;  2.6653320E-01;  2.7080096E+04;  0.0000000E+00; -8.7362856E-02;  4.0000000E+04;  0.0000000E+00;  3.9776992E+04; -5.3248249E-02;  0.0000000E+00;  3.1978145E-01;  4.0889287E+03;
  1.1621138E+00;  9.9999998E-03;  1.6049300E-01;8714;  8.8290066E-01;  0.0000000E+00;  4.8291925E-02;  9.9877380E+02;  1.2173098E-01; -1.0091523E+03;3;  2.9125952E+01;  0.0000000E+00;  1.7015488E+01;0;  2.9505771E-01;  2.7087283E+04;  0.0000000E+00; -2.1239391E-02;  4.0000000E+04;  0.0000000E+00;  3.9771969E+04; -3.0182092E-02;  0.0000000E+00;  3.2523981E-01;  3.4822390E+03;
  1.1618512E+00;  9.9999998E-03;  1.7055371E-01;8715;  8.8763362E-01;  0.0000000E+00;  5.2123670E-02;  9.9893158E+02;  1.2174156E-01; -8.7932733E+02;3;  2.7210264E+01;  0.0000000E+00;  1.9537945E+01;0;  3.2635844E-01;  2.7095662E+04;  0.0000000E+00;  7.3718131E-02;  4.0000000E+04;  0.0000000E+00;  3.9765668E+04; -2.3837355E-03;  0.0000000E+00;  3.2874218E-01;  2.7180728E+03;
  1.1615410E+00;  9.9999998E-03;  1.8059069E-01;8716;  8.9265275E-01;  0.0000000E+00;  5.6201812E-02;  9.9915289E+02;  1.2175220E-01; -6.9720392E+02;3;  2.5541058E+01;  0.0000000E+00;  2.1889347E+01;0;  3.5942316E-01;  2.7108062E+04;  0.0000000E+00;  1.9749738E-01;  4.0000000E+04;  0.0000000E+00;  3.9757453E+04;  3.0147796E-02;  0.0000000E+00;  3.2927537E-01;  1.7670393E+03;
  1.1612310E+00;  9.9999998E-03;  1.9060698E-01;8717;  8.9795637E-01;  0.0000000E+00;  6.0473304E-02;  9.9944470E+02;  1.2176008E-01; -4.5703262E+02;3;  2.4022726E+01;  0.0000000E+00;  2.3868322E+01;0;  3.9343613E-01;  2.7125936E+04;  0.0000000E+00;  3.2548243E-01;  4.0000000E+04;  0.0000000E+00;  3.9747277E+04;  6.7138992E-02;  0.0000000E+00;  3.2629713E-01;  8.2977441E+02;
  1.1609592E+00;  9.9999998E-03;  2.0060879E-01;8718;  9.0365010E-01;  0.0000000E+00;  6.4845726E-02;  9.9980585E+02;  1.2176418E-01; -1.5978902E+02;3;  2.3222668E+01;  0.0000000E+00;  2.5383984E+01;0;  4.2776543E-01;  2.7149727E+04;  0.0000000E+00;  4.0501842E-01;  4.0000000E+04;  0.0000000E+00;  3.9735930E+04;  1.0800894E-01;  0.0000000E+00;  3.1975648E-01;  1.2358027E+03;
  1.1607581E+00;  9.9999998E-03;  2.1059842E-01;8719;  9.0982658E-01;  0.0000000E+00;  6.9306619E-02;  1.0002377E+03;  1.2176196E-01;  1.9565584E+02;3;  2.2961475E+01;  0.0000000E+00;  2.6856955E+01;0;  4.6207350E-01;  2.7178832E+04;  0.0000000E+00;  3.6148253E-01;  4.0000000E+04;  0.0000000E+00;  3.9725613E+04;  1.5186240E-01;  0.0000000E+00;  3.1021109E-01;  2.3223083E+03;
  1.1606272E+00;  9.9999998E-03;  2.2058710E-01;8720;  9.1654998E-01;  0.0000000E+00;  7.4101336E-02;  1.0007332E+03;  1.2175506E-01;  6.0345966E+02;3;  2.3228298E+01;  0.0000000E+00;  2.8053587E+01;0;  4.9757695E-01;  2.7211189E+04;  0.0000000E+00;  9.8594055E-02;  4.0000000E+04;  0.0000000E+00;  3.9718656E+04;  1.9805105E-01;  0.0000000E+00;  2.9952589E-01;  3.0448308E+03;
  1.1605655E+00;  9.9999998E-03;  2.3058863E-01;8721;  9.2361116E-01;  0.0000000E+00;  7.9648912E-02;  1.0012767E+03;  1.2174408E-01;  1.0509092E+03;3;  2.3602289E+01;  0.0000000E+00;  2.7826906E+01;0;  5.3848344E-01;  2.7244551E+04;  0.0000000E+00; -5.1401854E-01;  4.0000000E+04;  0.0000000E+00;  3.9716539E+04;  2.4585830E-01;  0.0000000E+00;  2.9262513E-01;  3.3008198E+03;
  1.1731474E+00;  9.9999998E-03;  2.3050857E-01;8782;  9.2132282E-01;  0.0000000E+00;  7.3213935E-02;  1.0006065E+03;  1.1997667E-01;  4.9859125E+02;3;  2.5176569E+01;  0.0000000E+00;  2.7090851E+01;0;  3.8128328E-01;  2.8007061E+04;  0.0000000E+00;  3.6603443E-02;  4.0000000E+04;  0.0000000E+00;  3.9734398E+04;  6.6665247E-02;  0.0000000E+00;  3.1461805E-01;  1.3817096E+03;
  1.1731907E+00;  9.9999998E-03;  2.2050378E-01;8781;  9.1409212E-01;  0.0000000E+00;  6.6734850E-02;  1.0002521E+03;  1.1998533E-01;  2.0725534E+02;3;  2.4005064E+01;  0.0000000E+00;  2.9654779E+01;0;  3.4724036E-01;  2.7986859E+04;  0.0000000E+00;  1.1769379E+00;  4.0000000E+04;  0.0000000E+00;  3.9731895E+04;  3.4094151E-02;  0.0000000E+00;  3.1314620E-01;  2.9680427E+03;
  1.1732655E+00;  9.9999998E-03;  2.1051449E-01;8780;  9.0737355E-01;  0.0000000E+00;  6.1465237E-02;  9.9994940E+02;  1.1999170E-01; -4.1597698E+01;3;  2.3717495E+01;  0.0000000E+00;  2.8879652E+01;0;  3.2170042E-01;  2.7966121E+04;  0.0000000E+00;  1.5541903E+00;  4.0000000E+04;  0.0000000E+00;  3.9735641E+04;  3.7623188E-03;  0.0000000E+00;  3.1793812E-01;  3.2265688E+03;
  1.1733955E+00;  9.9999998E-03;  2.0052400E-01;8779;  9.0117103E-01;  0.0000000E+00;  5.6851715E-02;  9.9971783E+02;  1.1999431E-01; -2.3194408E+02;3;  2.3790009E+01;  0.0000000E+00;  2.7671774E+01;0;  2.9800561E-01;  2.7947098E+04;  0.0000000E+00;  1.4716847E+00;  4.0000000E+04;  0.0000000E+00;  3.9744504E+04; -2.4280634E-02;  0.0000000E+00;  3.2228625E-01;  2.8112566E+03;
  1.1733600E+00;  9.9999998E-03;  7.0212372E-02;8766;  8.4960270E-01;  0.0000000E+00;  1.7652590E-02;  9.9673895E+02;  1.2004004E-01; -2.6805967E+03;3;  4.9711613E+01;  0.0000000E+00;  9.4839424E-01;0;  9.3671396E-02;  2.7706904E+04;  0.0000000E+00; -2.1175507E-01;  4.0000000E+04;  0.0000000E+00;  3.9799676E+04; -1.7174344E-01;  0.0000000E+00;  2.6541483E-01;  7.0476982E+03;
  1.1735824E+00;  9.9999998E-03;  1.9052765E-01;8778;  8.9544517E-01;  0.0000000E+00;  5.2457225E-02;  9.9952795E+02;  1.1999199E-01; -3.8803485E+02;3;  2.4575727E+01;  0.0000000E+00;  2.6151735E+01;0;  2.7400154E-01;  2.7931426E+04;  0.0000000E+00;  1.1725721E+00;  4.0000000E+04;  0.0000000E+00;  3.9755168E+04; -4.9714789E-02;  0.0000000E+00;  3.2371634E-01;  2.6177271E+03;
  1.1734475E+00;  9.9999998E-03;  8.0231532E-02;8767;  8.5199863E-01;  0.0000000E+00;  1.9989084E-02;  9.9709937E+02;  1.2003057E-01; -2.3843452E+03;3;  4.7565380E+01;  0.0000000E+00;  1.6216992E+00;0;  9.5475584E-02;  2.7733039E+04;  0.0000000E+00; -2.5980932E-01;  4.0000000E+04;  0.0000000E+00;  3.9799828E+04; -1.6733795E-01;  0.0000000E+00;  2.6281354E-01;  7.0040898E+03;
  1.1735551E+00;  9.9999998E-03;  9.0247929E-02;8768;  8.5465932E-01;  0.0000000E+00;  2.2280116E-02;  9.9746698E+02;  1.2002098E-01; -2.0821174E+03;3;  4.5250008E+01;  0.0000000E+00;  2.6807289E+00;0;  9.9044666E-02;  2.7760400E+04;  0.0000000E+00; -3.0042854E-01;  4.0000000E+04;  0.0000000E+00;  3.9799387E+04; -1.6258664E-01;  0.0000000E+00;  2.6163131E-01;  6.9121650E+03;
  1.1738094E+00;  9.9999998E-03;  1.8051846E-01;8777;  8.9009160E-01;  0.0000000E+00;  4.8244748E-02;  9.9937878E+02;  1.1998489E-01; -5.1060507E+02;3;  2.5683138E+01;  0.0000000E+00;  2.4176598E+01;0;  2.4945500E-01;  2.7919889E+04;  0.0000000E+00;  8.1335497E-01;  4.0000000E+04;  0.0000000E+00;  3.9765531E+04; -7.2201252E-02;  0.0000000E+00;  3.2165626E-01;  3.0581033E+03;
  1.1736802E+00;  9.9999998E-03;  1.0026056E-01;8769;  8.5757411E-01;  0.0000000E+00;  2.4557298E-02;  9.9781775E+02;  1.2000983E-01; -1.7937588E+03;3;  4.2854729E+01;  0.0000000E+00;  4.1292863E+00;0;  1.0490876E-01;  2.7787621E+04;  0.0000000E+00; -3.2648343E-01;  4.0000000E+04;  0.0000000E+00;  3.9798570E+04; -1.5747496E-01;  0.0000000E+00;  2.6238373E-01;  6.7687422E+03;
  1.1738203E+00;  9.9999998E-03;  1.1026902E-01;8770;  8.6074311E-01;  0.0000000E+00;  2.6877200E-02;  9.9814197E+02;  1.1999902E-01; -1.5272568E+03;3;  4.0428852E+01;  0.0000000E+00;  6.0096812E+00;0;  1.1350664E-01;  2.7813801E+04;  0.0000000E+00; -3.2996410E-01;  4.0000000E+04;  0.0000000E+00;  3.9797207E+04; -1.5192959E-01;  0.0000000E+00;  2.6543623E-01;  6.5720903E+03;
  1.1740412E+00;  9.9999998E-03;  1.7048769E-01;8776;  8.8506293E-01;  0.0000000E+00;  4.4287894E-02;  9.9925256E+02;  1.1997496E-01; -6.1435559E+02;3;  2.7155426E+01;  0.0000000E+00;  2.1747679E+01;0;  2.2473887E-01;  2.7911371E+04;  0.0000000E+00;  4.8286724E-01;  4.0000000E+04;  0.0000000E+00;  3.9774102E+04; -9.1490500E-02;  0.0000000E+00;  3.1622937E-01;  3.8042922E+03;
  1.1739591E+00;  9.9999998E-03;  1.2027723E-01;8771;  8.6415464E-01;  0.0000000E+00;  2.9286396E-02;  9.9842340E+02;  1.1998810E-01; -1.2958911E+03;3;  3.7912846E+01;  0.0000000E+00;  8.2205658E+00;0;  1.2519088E-01;  2.7837889E+04;  0.0000000E+00; -3.0240473E-01;  4.0000000E+04;  0.0000000E+00;  3.9795473E+04; -1.4576349E-01;  0.0000000E+00;  2.7095437E-01;  6.3186235E+03;
  1.1740847E+00;  9.9999998E-03;  1.3029246E-01;8772;  8.6780864E-01;  0.0000000E+00;  3.1811599E-02;  9.9865704E+02;  1.1997879E-01; -1.1038258E+03;3;  3.5490467E+01;  0.0000000E+00;  1.0667592E+01;0;  1.4005503E-01;  2.7858955E+04;  0.0000000E+00; -2.3623355E-01;  4.0000000E+04;  0.0000000E+00;  3.9793059E+04; -1.3869166E-01;  0.0000000E+00;  2.7874669E-01;  6.0010747E+03;
  1.1742073E+00;  9.9999998E-03;  1.6043089E-01;8775;  8.8031894E-01;  0.0000000E+00;  4.0665198E-02;  9.9913306E+02;  1.1996713E-01; -7.1256995E+02;3;  2.8983551E+01;  0.0000000E+00;  1.9004498E+01;0;  2.0067611E-01;  2.7903086E+04;  0.0000000E+00;  2.1899621E-01;  4.0000000E+04;  0.0000000E+00;  3.9780848E+04; -1.0741829E-01;  0.0000000E+00;  3.0809441E-01;  4.5250757E+03;
  1.1741897E+00;  9.9999998E-03;  1.4031917E-01;8773;  8.7171525E-01;  0.0000000E+00;  3.4505881E-02;  9.9885065E+02;  1.1997091E-01; -9.4468988E+02;3;  3.3156895E+01;  0.0000000E+00;  1.3454454E+01;0;  1.5785989E-01;  2.7876994E+04;  0.0000000E+00; -1.2797135E-01;  4.0000000E+04;  0.0000000E+00;  3.9789973E+04; -1.3033468E-01;  0.0000000E+00;  2.8819457E-01;  5.6084287E+03;
  1.1742468E+00;  9.9999998E-03;  1.5036349E-01;8774;  8.7586856E-01;  0.0000000E+00;  3.7425309E-02;  9.9900415E+02;  1.1996637E-01; -8.1853302E+02;3;  3.0906099E+01;  0.0000000E+00;  1.6125486E+01;0;  1.7820504E-01;  2.7891848E+04;  0.0000000E+00;  2.0925034E-02;  4.0000000E+04;  0.0000000E+00;  3.9785988E+04; -1.2014309E-01;  0.0000000E+00;  2.9834813E-01;  5.1231997E+03;
  1.1853652E+00;  9.9999998E-03;  2.3043372E-01;8843;  9.1930360E-01;  0.0000000E+00;  6.6258952E-02;  1.0004734E+03;  1.1833256E-01;  3.8862753E+02;3;  2.6775755E+01;  0.0000000E+00;  2.2965946E+01;0;  2.6950961E-01;  2.8770930E+04;  0.0000000E+00;  3.5912105E-01;  4.0000000E+04;  0.0000000E+00;  3.9753883E+04; -5.9893876E-02;  0.0000000E+00;  3.2940349E-01;  2.4787446E+03;
  1.1853528E+00;  9.9999998E-03;  2.2040282E-01;8842;  9.1146106E-01;  0.0000000E+00;  6.0254045E-02;  1.0003533E+03;  1.1834200E-01;  2.8990567E+02;3;  2.5107265E+01;  0.0000000E+00;  3.1052736E+01;0;  2.4256103E-01;  2.8763705E+04;  0.0000000E+00;  2.1471086E+00;  4.0000000E+04;  0.0000000E+00;  3.9749695E+04; -7.9668477E-02;  0.0000000E+00;  3.2222950E-01;  4.7292202E+03;
  1.1853614E+00;  9.9999998E-03;  2.1040019E-01;8841;  9.0471667E-01;  0.0000000E+00;  5.4057378E-02;  1.0002250E+03;  1.1834984E-01;  1.8462753E+02;3;  2.4411110E+01;  0.0000000E+00;  3.0903036E+01;0;  2.2248349E-01;  2.8754268E+04;  0.0000000E+00;  2.6010888E+00;  4.0000000E+04;  0.0000000E+00;  3.9748582E+04; -9.7013779E-02;  0.0000000E+00;  3.1949726E-01;  5.1304966E+03;
  1.1852950E+00;  9.9999998E-03;  7.0152283E-02;8827;  8.4674180E-01;  0.0000000E+00;  1.4179680E-02;  9.9621881E+02;  1.1841295E-01; -3.1034734E+03;3;  4.8961571E+01;  0.0000000E+00;  2.2403803E+00;0;  3.5205811E-02;  2.8443113E+04;  0.0000000E+00; -2.4558802E-01;  4.0000000E+04;  0.0000000E+00;  3.9804246E+04; -1.8248239E-01;  0.0000000E+00;  2.1768820E-01;  7.7876470E+03;
  1.1854166E+00;  9.9999998E-03;  2.0041142E-01;8840;  8.9852208E-01;  0.0000000E+00;  4.9055986E-02;  1.0001230E+03;  1.1835397E-01;  1.0097200E+02;3;  2.4413425E+01;  0.0000000E+00;  2.9679008E+01;0;  2.0606515E-01;  2.8744305E+04;  0.0000000E+00;  2.3214078E+00;  4.0000000E+04;  0.0000000E+00;  3.9753008E+04; -1.1235008E-01;  0.0000000E+00;  3.1841522E-01;  4.5297920E+03;
  1.1853380E+00;  9.9999998E-03;  8.0172226E-02;8828;  8.4918791E-01;  0.0000000E+00;  1.6001642E-02;  9.9670740E+02;  1.1840293E-01; -2.7024490E+03;3;  4.6748466E+01;  0.0000000E+00;  3.0205989E+00;0;  3.7544340E-02;  2.8477051E+04;  0.0000000E+00; -3.2004496E-01;  4.0000000E+04;  0.0000000E+00;  3.9803668E+04; -1.7986228E-01;  0.0000000E+00;  2.1740662E-01;  7.6601597E+03;
  1.1855217E+00;  9.9999998E-03;  1.9042121E-01;8839;  8.9279169E-01;  0.0000000E+00;  4.4611156E-02;  1.0000536E+03;  1.1835308E-01;  4.4027847E+01;3;  2.4883274E+01;  0.0000000E+00;  2.8104584E+01;0;  1.8938975E-01;  2.8735008E+04;  0.0000000E+00;  1.7537695E+00;  4.0000000E+04;  0.0000000E+00;  3.9761320E+04; -1.2570797E-01;  0.0000000E+00;  3.1509772E-01;  3.9208950E+03;
  1.1853950E+00;  9.9999998E-03;  9.0196431E-02;8829;  8.5190171E-01;  0.0000000E+00;  1.7798452E-02;  9.9720801E+02;  1.1839271E-01; -2.2915427E+03;3;  4.4447838E+01;  0.0000000E+00;  4.1641650E+00;0;  4.1505978E-02;  2.8512787E+04;  0.0000000E+00; -3.8891348E-01;  4.0000000E+04;  0.0000000E+00;  3.9803066E+04; -1.7729564E-01;  0.0000000E+00;  2.1880162E-01;  7.5227793E+03;
  1.1854637E+00;  9.9999998E-03;  1.0022210E-01;8830;  8.5487777E-01;  0.0000000E+00;  1.9617125E-02;  9.9771838E+02;  1.1838268E-01; -1.8726172E+03;3;  4.2083408E+01;  0.0000000E+00;  5.6572490E+00;0;  4.7533482E-02;  2.8548951E+04;  0.0000000E+00; -4.3979907E-01;  4.0000000E+04;  0.0000000E+00;  3.9802371E+04; -1.7481066E-01;  0.0000000E+00;  2.2234415E-01;  7.3739238E+03;
  1.1856629E+00;  9.9999998E-03;  1.8041945E-01;8838;  8.8745654E-01;  0.0000000E+00;  4.0501770E-02;  9.9998853E+02;  1.1834861E-01; -9.4413414E+00;3;  2.5884865E+01;  0.0000000E+00;  2.5978395E+01;0;  1.7153974E-01;  2.8726830E+04;  0.0000000E+00;  1.1532805E+00;  4.0000000E+04;  0.0000000E+00;  3.9770906E+04; -1.3705306E-01;  0.0000000E+00;  3.0859280E-01;  3.9540435E+03;
  1.1855398E+00;  9.9999998E-03;  1.1024413E-01;8831;  8.5809278E-01;  0.0000000E+00;  2.1496369E-02;  9.9820068E+02;  1.1837187E-01; -1.4767881E+03;3;  3.9639950E+01;  0.0000000E+00;  7.4514217E+00;0;  5.5997208E-02;  2.8583943E+04;  0.0000000E+00; -4.5895988E-01;  4.0000000E+04;  0.0000000E+00;  3.9801539E+04; -1.7236550E-01;  0.0000000E+00;  2.2836271E-01;  7.2048784E+03;
  1.1856180E+00;  9.9999998E-03;  1.2025939E-01;8832;  8.6154264E-01;  0.0000000E+00;  2.3476887E-02;  9.9863916E+02;  1.1836200E-01; -1.1168735E+03;3;  3.7238087E+01;  0.0000000E+00;  9.5914927E+00;0;  6.7112789E-02;  2.8616268E+04;  0.0000000E+00; -4.3319264E-01;  4.0000000E+04;  0.0000000E+00;  3.9800332E+04; -1.6983590E-01;  0.0000000E+00;  2.3694868E-01;  6.9972710E+03;
  1.1857861E+00;  9.9999998E-03;  1.7039955E-01;8837;  8.8243806E-01;  0.0000000E+00;  3.6756016E-02;  9.9990289E+02;  1.1834307E-01; -7.9687469E+01;3;  2.7206078E+01;  0.0000000E+00;  2.3405972E+01;0;  1.5274525E-01;  2.8718166E+04;  0.0000000E+00;  6.4167923E-01;  4.0000000E+04;  0.0000000E+00;  3.9779590E+04; -1.4630738E-01;  0.0000000E+00;  2.9905263E-01;  4.5298799E+03;
  1.1856884E+00;  9.9999998E-03;  1.3027239E-01;8833;  8.6522126E-01;  0.0000000E+00;  2.5603291E-02;  9.9902368E+02;  1.1835387E-01; -8.0128821E+02;3;  3.4871632E+01;  0.0000000E+00;  1.2043532E+01;0;  8.0892712E-02;  2.8644691E+04;  0.0000000E+00; -3.5234010E-01;  4.0000000E+04;  0.0000000E+00;  3.9798715E+04; -1.6699761E-01;  0.0000000E+00;  2.4789032E-01;  6.7235542E+03;
  1.1857513E+00;  9.9999998E-03;  1.4029139E-01;8834;  8.6914247E-01;  0.0000000E+00;  2.7934620E-02;  9.9933624E+02;  1.1834784E-01; -5.4475378E+02;3;  3.2665230E+01;  0.0000000E+00;  1.4762845E+01;0;  9.7012252E-02;  2.8668961E+04;  0.0000000E+00; -2.1354900E-01;  4.0000000E+04;  0.0000000E+00;  3.9795969E+04; -1.6355062E-01;  0.0000000E+00;  2.6056287E-01;  6.3531094E+03;
  1.1858355E+00;  9.9999998E-03;  1.6036253E-01;8836;  8.7772107E-01;  0.0000000E+00;  3.3432953E-02;  9.9977167E+02;  1.1834035E-01; -1.8740367E+02;3;  2.8763344E+01;  0.0000000E+00;  2.0436733E+01;0;  1.3362582E-01;  2.8706217E+04;  0.0000000E+00;  2.5627777E-01;  4.0000000E+04;  0.0000000E+00;  3.9786617E+04; -1.5356855E-01;  0.0000000E+00;  2.8719437E-01;  5.2358291E+03;
  1.1858088E+00;  9.9999998E-03;  1.5032287E-01;8835;  8.7329823E-01;  0.0000000E+00;  3.0529393E-02;  9.9958661E+02;  1.1834285E-01; -3.3929437E+02;3;  3.0536522E+01;  0.0000000E+00;  1.7484615E+01;0;  1.1483680E-01;  2.8689467E+04;  0.0000000E+00; -1.7344180E-02;  4.0000000E+04;  0.0000000E+00;  3.9791988E+04; -1.5917934E-01;  0.0000000E+00;  2.7401614E-01;  5.8594653E+03;
  1.1970279E+00;  9.9999998E-03;  7.0109129E-02;8888;  8.4398621E-01;  0.0000000E+00;  1.1012313E-02;  9.9600781E+02;  1.1691198E-01; -3.2708596E+03;3;  4.8091667E+01;  0.0000000E+00;  3.4163308E+00;0; -8.4419399E-03;  2.9166127E+04;  0.0000000E+00; -2.1384177E-01;  4.0000000E+04;  0.0000000E+00;  3.9805945E+04; -1.8180934E-01;  0.0000000E+00;  1.7336740E-01;  8.2788799E+03;
  1.1970261E+00;  9.9999998E-03;  8.0129944E-02;8889;  8.4649247E-01;  0.0000000E+00;  1.2379919E-02;  9.9654651E+02;  1.1690268E-01; -2.8294912E+03;3;  4.5865162E+01;  0.0000000E+00;  4.3370724E+00;0; -5.7772100E-03;  2.9203932E+04;  0.0000000E+00; -3.0874854E-01;  4.0000000E+04;  0.0000000E+00;  3.9804801E+04; -1.8072481E-01;  0.0000000E+00;  1.7494760E-01;  8.0686699E+03;
  1.1970340E+00;  9.9999998E-03;  9.0153478E-02;8890;  8.4925866E-01;  0.0000000E+00;  1.3731142E-02;  9.9712573E+02;  1.1689252E-01; -2.3549111E+03;3;  4.3504509E+01;  0.0000000E+00;  5.5248141E+00;0; -1.6177297E-03;  2.9244283E+04;  0.0000000E+00; -4.0569934E-01;  4.0000000E+04;  0.0000000E+00;  3.9803914E+04; -1.7998947E-01;  0.0000000E+00;  1.7837174E-01;  7.8850054E+03;
  1.1970479E+00;  9.9999998E-03;  1.0018320E-01;8891;  8.5227251E-01;  0.0000000E+00;  1.5109831E-02;  9.9771802E+02;  1.1688194E-01; -1.8696354E+03;3;  4.1083141E+01;  0.0000000E+00;  6.9903827E+00;0;  4.4298470E-03;  2.9285846E+04;  0.0000000E+00; -4.8858833E-01;  4.0000000E+04;  0.0000000E+00;  3.9803230E+04; -1.7965752E-01;  0.0000000E+00;  1.8408737E-01;  7.7279414E+03;
  1.1970701E+00;  9.9999998E-03;  1.1021452E-01;8892;  8.5551846E-01;  0.0000000E+00;  1.6550099E-02;  9.9830878E+02;  1.1687136E-01; -1.3856300E+03;3;  3.8664715E+01;  0.0000000E+00;  8.7409468E+00;0;  1.2664542E-02;  2.9326916E+04;  0.0000000E+00; -5.3922129E-01;  4.0000000E+04;  0.0000000E+00;  3.9802789E+04; -1.7971739E-01;  0.0000000E+00;  1.9238193E-01;  7.5812671E+03;
  1.1970968E+00;  9.9999998E-03;  1.2023722E-01;8893;  8.5898745E-01;  0.0000000E+00;  1.8093256E-02;  9.9886285E+02;  1.1686246E-01; -9.3166040E+02;3;  3.6319611E+01;  0.0000000E+00;  1.0791461E+01;0;  2.3253798E-02;  2.9365674E+04;  0.0000000E+00; -5.4020858E-01;  4.0000000E+04;  0.0000000E+00;  3.9802164E+04; -1.8007812E-01;  0.0000000E+00;  2.0333192E-01;  7.4118882E+03;
  1.1971233E+00;  9.9999998E-03;  1.3025165E-01;8894;  8.6268079E-01;  0.0000000E+00;  1.9807098E-02;  9.9936115E+02;  1.1685440E-01; -5.2340350E+02;3;  3.4113911E+01;  0.0000000E+00;  1.3133758E+01;0;  3.6147222E-02;  2.9400779E+04;  0.0000000E+00; -4.7879767E-01;  4.0000000E+04;  0.0000000E+00;  3.9800871E+04; -1.8056463E-01;  0.0000000E+00;  2.1671185E-01;  7.1738296E+03;
  1.1971494E+00;  9.9999998E-03;  1.4026545E-01;8895;  8.6660284E-01;  0.0000000E+00;  2.1750331E-02;  9.9978333E+02;  1.1684832E-01; -1.7751108E+02;3;  3.2065590E+01;  0.0000000E+00;  1.5723963E+01;0;  5.0997168E-02;  2.9431619E+04;  0.0000000E+00; -3.5201496E-01;  4.0000000E+04;  0.0000000E+00;  3.9798375E+04; -1.8093261E-01;  0.0000000E+00;  2.3192978E-01;  6.8159399E+03;
  1.1971765E+00;  9.9999998E-03;  1.5028280E-01;8896;  8.7074959E-01;  0.0000000E+00;  2.3986965E-02;  1.0001294E+03;  1.1684355E-01;  1.0596899E+02;3;  3.0086346E+01;  0.0000000E+00;  1.8473480E+01;0;  6.7124769E-02;  2.9457848E+04;  0.0000000E+00; -1.5468524E-01;  4.0000000E+04;  0.0000000E+00;  3.9794590E+04; -1.8097678E-01;  0.0000000E+00;  2.4810155E-01;  6.2991333E+03;
  1.1971451E+00;  9.9999998E-03;  1.9032486E-01;8900;  8.9006180E-01;  0.0000000E+00;  3.6983486E-02;  1.0006794E+03;  1.1683898E-01;  5.5670636E+02;3;  2.5190592E+01;  0.0000000E+00;  2.9595652E+01;0;  1.2732583E-01;  2.9517119E+04;  0.0000000E+00;  2.1502633E+00;  4.0000000E+04;  0.0000000E+00;  3.9764805E+04; -1.7529806E-01;  0.0000000E+00;  3.0262390E-01;  4.8422578E+03;
  1.1971213E+00;  9.9999998E-03;  2.0032060E-01;8901;  8.9575732E-01;  0.0000000E+00;  4.1445449E-02;  1.0006724E+03;  1.1683694E-01;  5.5084851E+02;3;  2.4941706E+01;  0.0000000E+00;  3.1327671E+01;0;  1.3881803E-01;  2.9522221E+04;  0.0000000E+00;  3.0323527E+00;  4.0000000E+04;  0.0000000E+00;  3.9758801E+04; -1.7145425E-01;  0.0000000E+00;  3.1027228E-01;  6.0245532E+03;
  1.1971172E+00;  9.9999998E-03;  2.1032505E-01;8902;  9.0194887E-01;  0.0000000E+00;  4.6797216E-02;  1.0006472E+03;  1.1683195E-01;  5.3024084E+02;3;  2.5344061E+01;  0.0000000E+00;  3.2536079E+01;0;  1.5044598E-01;  2.9524361E+04;  0.0000000E+00;  3.5856595E+00;  4.0000000E+04;  0.0000000E+00;  3.9757191E+04; -1.6614939E-01;  0.0000000E+00;  3.1659538E-01;  7.1773823E+03;
  1.1971263E+00;  9.9999998E-03;  2.2035173E-01;8903;  9.0894860E-01;  0.0000000E+00;  5.3139150E-02;  1.0006057E+03;  1.1682629E-01;  4.9625156E+02;3;  2.6943758E+01;  0.0000000E+00;  2.9894455E+01;0;  1.6642360E-01;  2.9522652E+04;  0.0000000E+00;  3.1951170E+00;  4.0000000E+04;  0.0000000E+00;  3.9759844E+04; -1.5893306E-01;  0.0000000E+00;  3.2535666E-01;  7.1443799E+03;
  1.1971079E+00;  9.9999998E-03;  2.3040751E-01;8904;  9.1715813E-01;  0.0000000E+00;  5.7862639E-02;  1.0005175E+03;  1.1682216E-01;  4.2397845E+02;3;  2.7938147E+01;  0.0000000E+00;  2.2680916E+01;0;  1.8449354E-01;  2.9517113E+04;  0.0000000E+00;  1.1719500E+00;  4.0000000E+04;  0.0000000E+00;  3.9763008E+04; -1.4881530E-01;  0.0000000E+00;  3.3330885E-01;  4.9016729E+03;
  1.1971992E+00;  9.9999998E-03;  1.6030052E-01;8897;  8.7513745E-01;  0.0000000E+00;  2.6544612E-02;  1.0003879E+03;  1.1684050E-01;  3.1780814E+02;3;  2.8473705E+01;  0.0000000E+00;  2.1387362E+01;0;  8.3621696E-02;  2.9479756E+04;  0.0000000E+00;  1.4821137E-01;  4.0000000E+04;  0.0000000E+00;  3.9788836E+04; -1.8058638E-01;  0.0000000E+00;  2.6420808E-01;  5.6242739E+03;
  1.1971781E+00;  9.9999998E-03;  1.8032633E-01;8899;  8.8476545E-01;  0.0000000E+00;  3.3043686E-02;  1.0006507E+03;  1.1683930E-01;  5.3306781E+02;3;  2.5976925E+01;  0.0000000E+00;  2.7359436E+01;0;  1.1430736E-01;  2.9508875E+04;  0.0000000E+00;  1.2939576E+00;  4.0000000E+04;  0.0000000E+00;  3.9773051E+04; -1.7794834E-01;  0.0000000E+00;  2.9225570E-01;  4.4564468E+03;
  1.1972040E+00;  9.9999998E-03;  1.7031725E-01;8898;  8.7980324E-01;  0.0000000E+00;  2.9545225E-02;  1.0005593E+03;  1.1683899E-01;  4.5815512E+02;3;  2.7086477E+01;  0.0000000E+00;  2.4541775E+01;0;  9.9582151E-02;  2.9496838E+04;  0.0000000E+00;  6.1712629E-01;  4.0000000E+04;  0.0000000E+00;  3.9781562E+04; -1.7964543E-01;  0.0000000E+00;  2.7922758E-01;  4.8950981E+03;
  1.2085912E+00;  9.9999998E-03;  7.0080779E-02;8948;  8.4141237E-01;  0.0000000E+00;  8.1356820E-03;  9.9595520E+02;  1.1553640E-01; -3.3070938E+03;3;  4.7198158E+01;  0.0000000E+00;  4.5531335E+00;0; -3.8238198E-02;  2.9863303E+04;  0.0000000E+00; -1.2596492E-01;  4.0000000E+04;  0.0000000E+00;  3.9805098E+04; -1.7057879E-01;  0.0000000E+00;  1.3234060E-01;  8.5692656E+03;
  1.2085580E+00;  9.9999998E-03;  8.0107845E-02;8949;  8.4397882E-01;  0.0000000E+00;  9.0862345E-03;  9.9648126E+02;  1.1552707E-01; -2.8770339E+03;3;  4.4861809E+01;  0.0000000E+00;  5.5493712E+00;0; -3.5948902E-02;  2.9900912E+04;  0.0000000E+00; -2.3006602E-01;  4.0000000E+04;  0.0000000E+00;  3.9803422E+04; -1.7136481E-01;  0.0000000E+00;  1.3541591E-01;  8.2925254E+03;
  1.2085289E+00;  9.9999998E-03;  9.0136498E-02;8950;  8.4679443E-01;  0.0000000E+00;  1.0020520E-02;  9.9706158E+02;  1.1551761E-01; -2.4025210E+03;3;  4.2439846E+01;  0.0000000E+00;  6.7178001E+00;0; -3.2294720E-02;  2.9941891E+04;  0.0000000E+00; -3.4769812E-01;  4.0000000E+04;  0.0000000E+00;  3.9802145E+04; -1.7274600E-01;  0.0000000E+00;  1.4045128E-01;  8.0646445E+03;
  1.2085044E+00;  9.9999998E-03;  1.0016582E-01;8951;  8.4983754E-01;  0.0000000E+00;  1.0972876E-02;  9.9767963E+02;  1.1550748E-01; -1.8972002E+03;3;  3.9920799E+01;  0.0000000E+00;  8.1607285E+00;0; -2.6916310E-02;  2.9985098E+04;  0.0000000E+00; -4.6127608E-01;  4.0000000E+04;  0.0000000E+00;  3.9801469E+04; -1.7477046E-01;  0.0000000E+00;  1.4785415E-01;  7.8887920E+03;
  1.2084786E+00;  9.9999998E-03;  1.1019927E-01;8952;  8.5309905E-01;  0.0000000E+00;  1.1987506E-02;  9.9831122E+02;  1.1549748E-01; -1.3808125E+03;3;  3.7512661E+01;  0.0000000E+00;  9.8432646E+00;0; -1.9493699E-02;  3.0028797E+04;  0.0000000E+00; -5.4997480E-01;  4.0000000E+04;  0.0000000E+00;  3.9801164E+04; -1.7742838E-01;  0.0000000E+00;  1.5793468E-01;  7.7458467E+03;
  1.2084553E+00;  9.9999998E-03;  1.2023189E-01;8953;  8.5657597E-01;  0.0000000E+00;  1.3120623E-02;  9.9892474E+02;  1.1548851E-01; -8.7918567E+02;3;  3.5267155E+01;  0.0000000E+00;  1.1800019E+01;0; -9.8722428E-03;  3.0071154E+04;  0.0000000E+00; -5.9330279E-01;  4.0000000E+04;  0.0000000E+00;  3.9800773E+04; -1.8062928E-01;  0.0000000E+00;  1.7075704E-01;  7.5924121E+03;
  1.2084382E+00;  9.9999998E-03;  1.3024975E-01;8954;  8.6025810E-01;  0.0000000E+00;  1.4432453E-02;  9.9949298E+02;  1.1548073E-01; -4.1454425E+02;3;  3.3128681E+01;  0.0000000E+00;  1.4073365E+01;0;  1.8681437E-03;  3.0111016E+04;  0.0000000E+00; -5.7598758E-01;  4.0000000E+04;  0.0000000E+00;  3.9799488E+04; -1.8420836E-01;  0.0000000E+00;  1.8607651E-01;  7.3659507E+03;
  1.2084236E+00;  9.9999998E-03;  1.4025928E-01;8955;  8.6414742E-01;  0.0000000E+00;  1.5975602E-02;  1.0000043E+03;  1.1547523E-01;  3.5089667E+00;3;  3.1192720E+01;  0.0000000E+00;  1.6557758E+01;0;  1.5379176E-02;  3.0147049E+04;  0.0000000E+00; -4.9412292E-01;  4.0000000E+04;  0.0000000E+00;  3.9797305E+04; -1.8797264E-01;  0.0000000E+00;  2.0335181E-01;  7.0006548E+03;
  1.2084078E+00;  9.9999998E-03;  1.5026402E-01;8956;  8.6825943E-01;  0.0000000E+00;  1.7834060E-02;  1.0004277E+03;  1.1547127E-01;  3.4972809E+02;3;  2.9487030E+01;  0.0000000E+00;  1.9302284E+01;0;  2.9961899E-02;  3.0178543E+04;  0.0000000E+00; -3.3040220E-01;  4.0000000E+04;  0.0000000E+00;  3.9793121E+04; -1.9182508E-01;  0.0000000E+00;  2.2178698E-01;  6.4506929E+03;
  1.2083952E+00;  9.9999998E-03;  2.3043588E-01;8964;  9.1478527E-01;  0.0000000E+00;  4.8961658E-02;  1.0004862E+03;  1.1544472E-01;  3.9758759E+02;3;  2.8963696E+01;  0.0000000E+00;  2.3616022E+01;0;  1.1803490E-01;  3.0229209E+04;  0.0000000E+00;  3.5383630E+00;  4.0000000E+04;  0.0000000E+00;  3.9757531E+04; -2.1213970E-01;  0.0000000E+00;  3.3017460E-01;  8.9137842E+03;
  1.2083951E+00;  9.9999998E-03;  1.6026610E-01;8957;  8.7259239E-01;  0.0000000E+00;  2.0042278E-02;  1.0007590E+03;  1.1546910E-01;  6.2060309E+02;3;  2.7995134E+01;  0.0000000E+00;  2.2091208E+01;0;  4.4635266E-02;  3.0204936E+04;  0.0000000E+00; -2.0733360E-02;  4.0000000E+04;  0.0000000E+00;  3.9787180E+04; -1.9578525E-01;  0.0000000E+00;  2.4042052E-01;  5.7247173E+03;
  1.2083884E+00;  9.9999998E-03;  1.7026819E-01;8958;  8.7719518E-01;  0.0000000E+00;  2.2711990E-02;  1.0009809E+03;  1.1546648E-01;  8.0199921E+02;3;  2.6882963E+01;  0.0000000E+00;  2.5218023E+01;0;  5.8369592E-02;  3.0226021E+04;  0.0000000E+00;  5.2546477E-01;  4.0000000E+04;  0.0000000E+00;  3.9779652E+04; -1.9987603E-01;  0.0000000E+00;  2.5824562E-01;  4.9786284E+03;
  1.2083873E+00;  9.9999998E-03;  1.8027082E-01;8959;  8.8209766E-01;  0.0000000E+00;  2.5929779E-02;  1.0010992E+03;  1.1546398E-01;  8.9878912E+02;3;  2.5986183E+01;  0.0000000E+00;  2.8187529E+01;0;  7.0345134E-02;  3.0241324E+04;  0.0000000E+00;  1.3851564E+00;  4.0000000E+04;  0.0000000E+00;  3.9771664E+04; -2.0402160E-01;  0.0000000E+00;  2.7436674E-01;  4.7112217E+03;
  1.2083969E+00;  9.9999998E-03;  1.9027397E-01;8960;  8.8733333E-01;  0.0000000E+00;  2.9697677E-02;  1.0011277E+03;  1.1546060E-01;  9.2208313E+02;3;  2.5473686E+01;  0.0000000E+00;  3.0570168E+01;0;  8.0147922E-02;  3.0250969E+04;  0.0000000E+00;  2.5613890E+00;  4.0000000E+04;  0.0000000E+00;  3.9764562E+04; -2.0802361E-01;  0.0000000E+00;  2.8817153E-01;  5.6137246E+03;
  1.2084190E+00;  9.9999998E-03;  2.0028295E-01;8961;  8.9297676E-01;  0.0000000E+00;  3.4145229E-02;  1.0010721E+03;  1.1545547E-01;  8.7665759E+02;3;  2.5560667E+01;  0.0000000E+00;  3.2386650E+01;0;  8.8174373E-02;  3.0254395E+04;  0.0000000E+00;  3.8952873E+00;  4.0000000E+04;  0.0000000E+00;  3.9760113E+04; -2.1154889E-01;  0.0000000E+00;  2.9972327E-01;  7.5657671E+03;
  1.2084460E+00;  9.9999998E-03;  2.1030948E-01;8962;  8.9919883E-01;  0.0000000E+00;  3.9589956E-02;  1.0009486E+03;  1.1544931E-01;  7.7567316E+02;3;  2.6504999E+01;  0.0000000E+00;  3.2905148E+01;0;  9.6594557E-02;  3.0251666E+04;  0.0000000E+00;  4.9626026E+00;  4.0000000E+04;  0.0000000E+00;  3.9759082E+04; -2.1409173E-01;  0.0000000E+00;  3.1068629E-01;  9.5911523E+03;
  1.2084483E+00;  9.9999998E-03;  2.2036107E-01;8963;  9.0648556E-01;  0.0000000E+00;  4.5033395E-02;  1.0007517E+03;  1.1544535E-01;  6.1465100E+02;3;  2.8176573E+01;  0.0000000E+00;  2.8848242E+01;0;  1.0748330E-01;  3.0242385E+04;  0.0000000E+00;  5.0736432E+00;  4.0000000E+04;  0.0000000E+00;  3.9759605E+04; -2.1469969E-01;  0.0000000E+00;  3.2218298E-01;  1.0434934E+04;
  1.2200072E+00;  9.9999998E-03;  7.0068911E-02;9007;  8.3905292E-01;  0.0000000E+00;  5.4741232E-03;  9.9595288E+02;  1.1428366E-01; -3.3010422E+03;3;  4.6156765E+01;  0.0000000E+00;  5.9088826E+00;0; -5.3681567E-02;  3.0524324E+04;  0.0000000E+00; -1.0595585E-02;  4.0000000E+04;  0.0000000E+00;  3.9801699E+04; -1.4806533E-01;  0.0000000E+00;  9.4383761E-02;  8.6986309E+03;
  1.2199596E+00;  9.9999998E-03;  8.0099724E-02;9008;  8.4167606E-01;  0.0000000E+00;  6.0516023E-03;  9.9640338E+02;  1.1427458E-01; -2.9336272E+03;3;  4.3745613E+01;  0.0000000E+00;  6.8520508E+00;0; -5.2795917E-02;  3.0558027E+04;  0.0000000E+00; -1.0923575E-01;  4.0000000E+04;  0.0000000E+00;  3.9799465E+04; -1.5148948E-01;  0.0000000E+00;  9.8693565E-02;  8.3814854E+03;
  1.2199063E+00;  9.9999998E-03;  9.0140209E-02;9009;  8.4454012E-01;  0.0000000E+00;  6.6063064E-03;  9.9692993E+02;  1.1426625E-01; -2.5041709E+03;3;  4.1254112E+01;  0.0000000E+00;  7.8794322E+00;0; -5.0721869E-02;  3.0595947E+04;  0.0000000E+00; -2.3335104E-01;  4.0000000E+04;  0.0000000E+00;  3.9797875E+04; -1.5577857E-01;  0.0000000E+00;  1.0505670E-01;  8.1178672E+03;
  1.2198529E+00;  9.9999998E-03;  1.0018107E-01;9010;  8.4761733E-01;  0.0000000E+00;  7.1705724E-03;  9.9750854E+02;  1.1425676E-01; -2.0322600E+03;3;  3.8711269E+01;  0.0000000E+00;  9.1996202E+00;0; -4.7071278E-02;  3.0637029E+04;  0.0000000E+00; -3.6670777E-01;  4.0000000E+04;  0.0000000E+00;  3.9796977E+04; -1.6091451E-01;  0.0000000E+00;  1.1384323E-01;  7.9126396E+03;
  1.2197975E+00;  9.9999998E-03;  1.1021574E-01;9011;  8.5089087E-01;  0.0000000E+00;  7.8003430E-03;  9.9812494E+02;  1.1424803E-01; -1.5294650E+03;3;  3.6282078E+01;  0.0000000E+00;  1.0836454E+01;0; -4.1500226E-02;  3.0679658E+04;  0.0000000E+00; -4.8840931E-01;  4.0000000E+04;  0.0000000E+00;  3.9796547E+04; -1.6683614E-01;  0.0000000E+00;  1.2533592E-01;  7.7469678E+03;
  1.2197299E+00;  9.9999998E-03;  1.2025072E-01;9012;  8.5435551E-01;  0.0000000E+00;  8.5522374E-03;  9.9874622E+02;  1.1423984E-01; -1.0227221E+03;3;  3.3984695E+01;  0.0000000E+00;  1.2688722E+01;0; -3.3771560E-02;  3.0722576E+04;  0.0000000E+00; -5.7675439E-01;  4.0000000E+04;  0.0000000E+00;  3.9796039E+04; -1.7343387E-01;  0.0000000E+00;  1.3966231E-01;  7.5751841E+03;
  1.2196540E+00;  9.9999998E-03;  1.3028073E-01;9013;  8.5800248E-01;  0.0000000E+00;  9.4759408E-03;  9.9934442E+02;  1.1423378E-01; -5.3478082E+02;3;  3.1909220E+01;  0.0000000E+00;  1.4820418E+01;0; -2.3893610E-02;  3.0764191E+04;  0.0000000E+00; -6.1658597E-01;  4.0000000E+04;  0.0000000E+00;  3.9794742E+04; -1.8051051E-01;  0.0000000E+00;  1.5661690E-01;  7.3273286E+03;
  1.2195799E+00;  9.9999998E-03;  1.4029336E-01;9014;  8.6183900E-01;  0.0000000E+00;  1.0634315E-02;  9.9989905E+02;  1.1422948E-01; -8.2365128E+01;3;  3.0136703E+01;  0.0000000E+00;  1.7129797E+01;0; -1.2239590E-02;  3.0802971E+04;  0.0000000E+00; -5.9739399E-01;  4.0000000E+04;  0.0000000E+00;  3.9792137E+04; -1.8789284E-01;  0.0000000E+00;  1.7565325E-01;  6.9312661E+03;
  1.2195120E+00;  9.9999998E-03;  1.5029280E-01;9015;  8.6588049E-01;  0.0000000E+00;  1.2103278E-02;  1.0003752E+03;  1.1422625E-01;  3.0612680E+02;3;  2.8670719E+01;  0.0000000E+00;  1.9738411E+01;0;  4.4922531E-04;  3.0837934E+04;  0.0000000E+00; -4.7178817E-01;  4.0000000E+04;  0.0000000E+00;  3.9787527E+04; -1.9558252E-01;  0.0000000E+00;  1.9603175E-01;  6.3404106E+03;
  1.2194563E+00;  9.9999998E-03;  1.6028710E-01;9016;  8.7013495E-01;  0.0000000E+00;  1.3956685E-02;  1.0007576E+03;  1.1422451E-01;  6.1799884E+02;3;  2.7396255E+01;  0.0000000E+00;  2.2506800E+01;0;  1.3167515E-02;  3.0868193E+04;  0.0000000E+00; -1.4545192E-01;  4.0000000E+04;  0.0000000E+00;  3.9781184E+04; -2.0368853E-01;  0.0000000E+00;  2.1685605E-01;  5.5713359E+03;
  1.2194258E+00;  9.9999998E-03;  1.7028217E-01;9017;  8.7464267E-01;  0.0000000E+00;  1.6265640E-02;  1.0010259E+03;  1.1422184E-01;  8.3690558E+02;3;  2.6520414E+01;  0.0000000E+00;  2.5523127E+01;0;  2.4819121E-02;  3.0892930E+04;  0.0000000E+00;  5.0884598E-01;  4.0000000E+04;  0.0000000E+00;  3.9773562E+04; -2.1231192E-01;  0.0000000E+00;  2.3713104E-01;  4.8441094E+03;
  1.2194265E+00;  9.9999998E-03;  1.8028103E-01;9018;  8.7945044E-01;  0.0000000E+00;  1.9158395E-02;  1.0011804E+03;  1.1421749E-01;  9.6293719E+02;3;  2.5942558E+01;  0.0000000E+00;  2.8502125E+01;0;  3.4509465E-02;  3.0911457E+04;  0.0000000E+00;  1.6158929E+00;  4.0000000E+04;  0.0000000E+00;  3.9765926E+04; -2.2145273E-01;  0.0000000E+00;  2.5596219E-01;  4.8818345E+03;
  1.2194535E+00;  9.9999998E-03;  1.9028753E-01;9019;  8.8459945E-01;  0.0000000E+00;  2.2712806E-02;  1.0012125E+03;  1.1421161E-01;  9.8909058E+02;3;  2.5731451E+01;  0.0000000E+00;  3.1028378E+01;0;  4.1855663E-02;  3.0922822E+04;  0.0000000E+00;  3.2247763E+00;  4.0000000E+04;  0.0000000E+00;  3.9759363E+04; -2.3094121E-01;  0.0000000E+00;  2.7279687E-01;  6.5261865E+03;
  1.2194885E+00;  9.9999998E-03;  2.0030805E-01;9020;  8.9017034E-01;  0.0000000E+00;  2.7056558E-02;  1.0011279E+03;  1.1420540E-01;  9.2013580E+02;3;  2.6184368E+01;  0.0000000E+00;  3.2762764E+01;0;  4.7434792E-02;  3.0925494E+04;  0.0000000E+00;  5.1938329E+00;  4.0000000E+04;  0.0000000E+00;  3.9755281E+04; -2.4038787E-01;  0.0000000E+00;  2.8782266E-01;  9.4884346E+03;
  1.2195073E+00;  9.9999998E-03;  2.1035056E-01;9021;  8.9651215E-01;  0.0000000E+00;  3.2002322E-02;  1.0009280E+03;  1.1420033E-01;  7.5695477E+02;3;  2.7637712E+01;  0.0000000E+00;  3.2053951E+01;0;  5.2963242E-02;  3.0919195E+04;  0.0000000E+00;  7.0877304E+00;  4.0000000E+04;  0.0000000E+00;  3.9753145E+04; -2.4903829E-01;  0.0000000E+00;  3.0200154E-01;  1.2759764E+04;
  1.2194804E+00;  9.9999998E-03;  2.2041732E-01;9022;  9.0392900E-01;  0.0000000E+00;  3.6457479E-02;  1.0006226E+03;  1.1419860E-01;  5.0781628E+02;3;  2.9201494E+01;  0.0000000E+00;  2.8576973E+01;0;  5.8742791E-02;  3.0905490E+04;  0.0000000E+00;  8.2261457E+00;  4.0000000E+04;  0.0000000E+00;  3.9749789E+04; -2.5563461E-01;  0.0000000E+00;  3.1437740E-01;  1.5168584E+04;
  1.2193733E+00;  9.9999998E-03;  2.3049940E-01;9023;  9.1224104E-01;  0.0000000E+00;  3.9704286E-02;  1.0002824E+03;  1.1420293E-01;  2.3038031E+02;3;  2.9805904E+01;  0.0000000E+00;  2.4782547E+01;0;  6.2066406E-02;  3.0889920E+04;  0.0000000E+00;  8.1055851E+00;  4.0000000E+04;  0.0000000E+00;  3.9741809E+04; -2.5867277E-01;  0.0000000E+00;  3.2073918E-01;  1.5859810E+04;
  1.2312952E+00;  9.9999998E-03;  7.0080988E-02;9066;  8.3694011E-01;  0.0000000E+00;  2.9232418E-03;  9.9591766E+02;  1.1314891E-01; -3.3204707E+03;3;  4.4992142E+01;  0.0000000E+00;  7.3518562E+00;0; -5.3375628E-02;  3.1141988E+04;  0.0000000E+00;  9.4518624E-02;  4.0000000E+04;  0.0000000E+00;  3.9795680E+04; -1.1265569E-01;  0.0000000E+00;  5.9280064E-02;  8.6985928E+03;
  1.2312489E+00;  9.9999998E-03;  8.0112770E-02;9067;  8.3962572E-01;  0.0000000E+00;  3.1764840E-03;  9.9626123E+02;  1.1314110E-01; -3.0410637E+03;3;  4.2565136E+01;  0.0000000E+00;  8.2781210E+00;0; -5.5150129E-02;  3.1169135E+04;  0.0000000E+00;  1.4754562E-02;  4.0000000E+04;  0.0000000E+00;  3.9793145E+04; -1.1981355E-01;  0.0000000E+00;  6.4663418E-02;  8.3689053E+03;
  1.2311894E+00;  9.9999998E-03;  9.0153642E-02;9068;  8.4253794E-01;  0.0000000E+00;  3.4131808E-03;  9.9668890E+02;  1.1313348E-01; -2.6932502E+03;3;  4.0002972E+01;  0.0000000E+00;  9.3133497E+00;0; -5.6013726E-02;  3.1201076E+04;  0.0000000E+00; -9.8837428E-02;  4.0000000E+04;  0.0000000E+00;  3.9791281E+04; -1.2815924E-01;  0.0000000E+00;  7.2145514E-02;  8.0799048E+03;
  1.2311136E+00;  9.9999998E-03;  1.0020440E-01;9069;  8.4564584E-01;  0.0000000E+00;  3.6649124E-03;  9.9718488E+02;  1.1312549E-01; -2.2898743E+03;3;  3.7376209E+01;  0.0000000E+00;  1.0516664E+01;0; -5.5484056E-02;  3.1236863E+04;  0.0000000E+00; -2.3452035E-01;  4.0000000E+04;  0.0000000E+00;  3.9789883E+04; -1.3759652E-01;  0.0000000E+00;  8.2112461E-02;  7.8376943E+03;
  1.2310264E+00;  9.9999998E-03;  1.1025678E-01;9070;  8.4892023E-01;  0.0000000E+00;  3.9634383E-03;  9.9774103E+02;  1.1311869E-01; -1.8375177E+03;3;  3.4881031E+01;  0.0000000E+00;  1.1829674E+01;0; -5.3108826E-02;  3.1275625E+04;  0.0000000E+00; -3.7452918E-01;  4.0000000E+04;  0.0000000E+00;  3.9788938E+04; -1.4793827E-01;  0.0000000E+00;  9.4829440E-02;  7.6252017E+03;
  1.2309294E+00;  9.9999998E-03;  1.2029572E-01;9071;  8.5234982E-01;  0.0000000E+00;  4.3529305E-03;  9.9832239E+02;  1.1311282E-01; -1.3646829E+03;3;  3.2568638E+01;  0.0000000E+00;  1.3426575E+01;0; -4.8568390E-02;  3.1316018E+04;  0.0000000E+00; -4.9920675E-01;  4.0000000E+04;  0.0000000E+00;  3.9787930E+04; -1.5894867E-01;  0.0000000E+00;  1.1038028E-01;  7.3974727E+03;
  1.2308108E+00;  9.9999998E-03;  1.3032779E-01;9072;  8.5593802E-01;  0.0000000E+00;  4.9092309E-03;  9.9890881E+02;  1.1310843E-01; -8.8765863E+02;3;  3.0536085E+01;  0.0000000E+00;  1.5360006E+01;0; -4.1761458E-02;  3.1356572E+04;  0.0000000E+00; -5.9489655E-01;  4.0000000E+04;  0.0000000E+00;  3.9785980E+04; -1.7041676E-01;  0.0000000E+00;  1.2865530E-01;  7.0915342E+03;
  1.2306803E+00;  9.9999998E-03;  1.4034972E-01;9073;  8.5969085E-01;  0.0000000E+00;  5.7026730E-03;  9.9947156E+02;  1.1310583E-01; -4.2990411E+02;3;  2.8878098E+01;  0.0000000E+00;  1.7588587E+01;0; -3.2992870E-02;  3.1396029E+04;  0.0000000E+00; -6.2685990E-01;  4.0000000E+04;  0.0000000E+00;  3.9782754E+04; -1.8219599E-01;  0.0000000E+00;  1.4920312E-01;  6.6422578E+03;
  1.2305560E+00;  9.9999998E-03;  1.5035629E-01;9074;  8.6362213E-01;  0.0000000E+00;  6.7913835E-03;  9.9996649E+02;  1.1310383E-01; -2.7251759E+01;3;  2.7648157E+01;  0.0000000E+00;  1.9982744E+01;0; -2.3009300E-02;  3.1432635E+04;  0.0000000E+00; -5.1377338E-01;  4.0000000E+04;  0.0000000E+00;  3.9777688E+04; -1.9430117E-01;  0.0000000E+00;  1.7129187E-01;  6.0027446E+03;
  1.2304568E+00;  9.9999998E-03;  1.6035099E-01;9075;  8.6775714E-01;  0.0000000E+00;  8.2770577E-03;  1.0003752E+03;  1.1310210E-01;  3.0530530E+02;3;  2.6622547E+01;  0.0000000E+00;  2.2704737E+01;0; -1.2846708E-02;  3.1465193E+04;  0.0000000E+00; -1.2330741E-01;  4.0000000E+04;  0.0000000E+00;  3.9770945E+04; -2.0687023E-01;  0.0000000E+00;  1.9402352E-01;  5.2091938E+03;
  1.2303967E+00;  9.9999998E-03;  1.7034484E-01;9076;  8.7212729E-01;  0.0000000E+00;  1.0204935E-02;  1.0006755E+03;  1.1309902E-01;  5.4961646E+02;3;  2.6030214E+01;  0.0000000E+00;  2.5475815E+01;0; -3.6243945E-03;  3.1492609E+04;  0.0000000E+00;  7.2038609E-01;  4.0000000E+04;  0.0000000E+00;  3.9763289E+04; -2.2005421E-01;  0.0000000E+00;  2.1642981E-01;  4.6172124E+03;
  1.2303817E+00;  9.9999998E-03;  1.8034293E-01;9077;  8.7679827E-01;  0.0000000E+00;  1.2748191E-02;  1.0008456E+03;  1.1309392E-01;  6.8801746E+02;3;  2.5783903E+01;  0.0000000E+00;  2.8419704E+01;0;  3.7289411E-03;  3.1513568E+04;  0.0000000E+00;  2.2028637E+00;  4.0000000E+04;  0.0000000E+00;  3.9755684E+04; -2.3389471E-01;  0.0000000E+00;  2.3762365E-01;  5.2904868E+03;
  1.2304049E+00;  9.9999998E-03;  1.9035083E-01;9078;  8.8181716E-01;  0.0000000E+00;  1.6028944E-02;  1.0008856E+03;  1.1308677E-01;  7.2050323E+02;3;  2.5956560E+01;  0.0000000E+00;  3.0986393E+01;0;  8.8342130E-03;  3.1526020E+04;  0.0000000E+00;  4.4249592E+00;  4.0000000E+04;  0.0000000E+00;  3.9749508E+04; -2.4825478E-01;  0.0000000E+00;  2.5708899E-01;  8.0159731E+03;
  1.2302842E+00;  9.9999998E-03;  2.3056801E-01;9082;  9.0953726E-01;  0.0000000E+00;  3.0844098E-02;  9.9980719E+02;  1.1308448E-01; -1.5687862E+02;3;  3.0979105E+01;  0.0000000E+00;  2.5699144E+01;0;  1.3875365E-02;  3.1486504E+04;  0.0000000E+00;  1.4069440E+01;  4.0000000E+04;  0.0000000E+00;  3.9725559E+04; -2.9462817E-01;  0.0000000E+00;  3.0850354E-01;  2.4138646E+04;
  1.2304424E+00;  9.9999998E-03;  2.0037667E-01;9079;  8.8735092E-01;  0.0000000E+00;  2.0021884E-02;  1.0007730E+03;  1.1308002E-01;  6.2884601E+02;3;  2.6933327E+01;  0.0000000E+00;  3.2049603E+01;0;  1.2209147E-02;  3.1527900E+04;  0.0000000E+00;  7.2508998E+00;  4.0000000E+04;  0.0000000E+00;  3.9745047E+04; -2.6270786E-01;  0.0000000E+00;  2.7491701E-01;  1.2242107E+04;
  1.2304584E+00;  9.9999998E-03;  2.1042503E-01;9080;  8.9375615E-01;  0.0000000E+00;  2.4163559E-02;  1.0005136E+03;  1.1307566E-01;  4.1780646E+02;3;  2.8540773E+01;  0.0000000E+00;  3.1074059E+01;0;  1.4562249E-02;  3.1519000E+04;  0.0000000E+00;  1.0205787E+01;  4.0000000E+04;  0.0000000E+00;  3.9741453E+04; -2.7630004E-01;  0.0000000E+00;  2.9086229E-01;  1.6985834E+04;
  1.2304181E+00;  9.9999998E-03;  2.2049351E-01;9081;  9.0121084E-01;  0.0000000E+00;  2.7821977E-02;  1.0001455E+03;  1.1307695E-01;  1.1841856E+02;3;  3.0135956E+01;  0.0000000E+00;  2.8387484E+01;0;  1.5575141E-02;  3.1502318E+04;  0.0000000E+00;  1.2593837E+01;  4.0000000E+04;  0.0000000E+00;  3.9735246E+04; -2.8753108E-01;  0.0000000E+00;  3.0310622E-01;  2.1160277E+04;
  1.2424712E+00;  9.9999998E-03;  7.0109762E-02;9125;  8.3509463E-01;  0.0000000E+00;  4.2420224E-04;  9.9581232E+02;  1.1212553E-01; -3.3951411E+03;3;  4.3762691E+01;  0.0000000E+00;  9.0125189E+00;0; -3.5565335E-02;  3.1712988E+04;  0.0000000E+00;  1.5824175E-01;  4.0000000E+04;  0.0000000E+00;  3.9787086E+04; -6.2477056E-02;  0.0000000E+00;  2.6911721E-02;  8.5875254E+03;
  1.2424271E+00;  9.9999998E-03;  8.0145426E-02;9126;  8.3784848E-01;  0.0000000E+00;  4.0696716E-04;  9.9604333E+02;  1.1211980E-01; -3.2078818E+03;3;  4.1253578E+01;  0.0000000E+00;  9.9172945E+00;0; -4.1466832E-02;  3.1732207E+04;  0.0000000E+00;  1.0524188E-01;  4.0000000E+04;  0.0000000E+00;  3.9784398E+04; -7.4783199E-02;  0.0000000E+00;  3.3316366E-02;  8.2681533E+03;
  1.2423697E+00;  9.9999998E-03;  9.0188786E-02;9127;  8.4080678E-01;  0.0000000E+00;  3.8048715E-04;  9.9635651E+02;  1.1211368E-01; -2.9540381E+03;3;  3.8564571E+01;  0.0000000E+00;  1.0827440E+01;0; -4.6827253E-02;  3.1756742E+04;  0.0000000E+00;  1.5884636E-02;  4.0000000E+04;  0.0000000E+00;  3.9781980E+04; -8.8642210E-02;  0.0000000E+00;  4.1814957E-02;  7.9625303E+03;
  1.2422909E+00;  9.9999998E-03;  1.0023783E-01;9128;  8.4393191E-01;  0.0000000E+00;  3.6353551E-04;  9.9674908E+02;  1.1210795E-01; -2.6357834E+03;3;  3.5912533E+01;  0.0000000E+00;  1.1804185E+01;0; -5.1045042E-02;  3.1785857E+04;  0.0000000E+00; -1.0403259E-01;  4.0000000E+04;  0.0000000E+00;  3.9780047E+04; -1.0382703E-01;  0.0000000E+00;  5.2781988E-02;  7.6752490E+03;
  1.2421896E+00;  9.9999998E-03;  1.1029258E-01;9129;  8.4720206E-01;  0.0000000E+00;  3.8238018E-04;  9.9721393E+02;  1.1210319E-01; -2.2590037E+03;3;  3.3372429E+01;  0.0000000E+00;  1.2911897E+01;0; -5.3510807E-02;  3.1818971E+04;  0.0000000E+00; -2.4283172E-01;  4.0000000E+04;  0.0000000E+00;  3.9778270E+04; -1.2001637E-01;  0.0000000E+00;  6.6505566E-02;  7.3933120E+03;
  1.2420743E+00;  9.9999998E-03;  1.2034187E-01;9130;  8.5057628E-01;  0.0000000E+00;  4.8317373E-04;  9.9772729E+02;  1.1209913E-01; -1.8428196E+03;3;  3.0944721E+01;  0.0000000E+00;  1.4309766E+01;0; -5.3727672E-02;  3.1855074E+04;  0.0000000E+00; -3.8863033E-01;  4.0000000E+04;  0.0000000E+00;  3.9776266E+04; -1.3681041E-01;  0.0000000E+00;  8.3082736E-02;  7.0799795E+03;
  1.2419366E+00;  9.9999998E-03;  1.3037696E-01;9131;  8.5406977E-01;  0.0000000E+00;  7.1647024E-04;  9.9826709E+02;  1.1209652E-01; -1.4051559E+03;3;  2.8957796E+01;  0.0000000E+00;  1.5899109E+01;0; -5.1491193E-02;  3.1892943E+04;  0.0000000E+00; -5.1916254E-01;  4.0000000E+04;  0.0000000E+00;  3.9773441E+04; -1.5392120E-01;  0.0000000E+00;  1.0243001E-01;  6.6877896E+03;
  1.2417831E+00;  9.9999998E-03;  1.4040339E-01;9132;  8.5769397E-01;  0.0000000E+00;  1.1591150E-03;  9.9879498E+02;  1.1209507E-01; -9.7717456E+02;3;  2.7468950E+01;  0.0000000E+00;  1.7948992E+01;0; -4.7019973E-02;  3.1930807E+04;  0.0000000E+00; -5.6426924E-01;  4.0000000E+04;  0.0000000E+00;  3.9769359E+04; -1.7121014E-01;  0.0000000E+00;  1.2419017E-01;  6.1682803E+03;
  1.2416341E+00;  9.9999998E-03;  1.5041582E-01;9133;  8.6146235E-01;  0.0000000E+00;  1.8711311E-03;  9.9927515E+02;  1.1209434E-01; -5.8782062E+02;3;  2.6402222E+01;  0.0000000E+00;  1.9944227E+01;0; -4.0992782E-02;  3.1966865E+04;  0.0000000E+00; -4.0054968E-01;  4.0000000E+04;  0.0000000E+00;  3.9763789E+04; -1.8866506E-01;  0.0000000E+00;  1.4767228E-01;  5.4874463E+03;
  1.2415092E+00;  9.9999998E-03;  1.6041721E-01;9134;  8.6541665E-01;  0.0000000E+00;  2.9665139E-03;  9.9967487E+02;  1.1209179E-01; -2.6368604E+02;3;  2.5730742E+01;  0.0000000E+00;  2.2612955E+01;0; -3.4409896E-02;  3.1999693E+04;  0.0000000E+00;  1.5208752E-01;  4.0000000E+04;  0.0000000E+00;  3.9756805E+04; -2.0641175E-01;  0.0000000E+00;  1.7200185E-01;  4.7525737E+03;
  1.2414258E+00;  9.9999998E-03;  1.7041503E-01;9135;  8.6959338E-01;  0.0000000E+00;  4.5154174E-03;  9.9997498E+02;  1.1208867E-01; -2.0302658E+01;3;  2.5400526E+01;  0.0000000E+00;  2.5214317E+01;0; -2.8400585E-02;  3.2027615E+04;  0.0000000E+00;  1.3273304E+00;  4.0000000E+04;  0.0000000E+00;  3.9749234E+04; -2.2460768E-01;  0.0000000E+00;  1.9620709E-01;  4.6278672E+03;
  1.2413899E+00;  9.9999998E-03;  1.8041517E-01;9136;  8.7406808E-01;  0.0000000E+00;  6.6803563E-03;  1.0001439E+03;  1.1208289E-01;  1.1669324E+02;3;  2.5525173E+01;  0.0000000E+00;  2.7995371E+01;0; -2.3924544E-02;  3.2048635E+04;  0.0000000E+00;  3.3677850E+00;  4.0000000E+04;  0.0000000E+00;  3.9742023E+04; -2.4331991E-01;  0.0000000E+00;  2.1939537E-01;  6.4295615E+03;
  1.2413931E+00;  9.9999998E-03;  1.9042508E-01;9137;  8.7893414E-01;  0.0000000E+00;  9.6071884E-03;  1.0001692E+03;  1.1207668E-01;  1.3718933E+02;3;  2.6171663E+01;  0.0000000E+00;  3.0254257E+01;0; -2.1364331E-02;  3.2059752E+04;  0.0000000E+00;  6.4005637E+00;  4.0000000E+04;  0.0000000E+00;  3.9736473E+04; -2.6242411E-01;  0.0000000E+00;  2.4105978E-01;  1.0448333E+04;
  1.2412519E+00;  9.9999998E-03;  2.3062728E-01;9141;  9.0662265E-01;  0.0000000E+00;  2.2791408E-02;  9.9900757E+02;  1.1208069E-01; -8.0489856E+02;3;  3.2002048E+01;  0.0000000E+00;  2.6229902E+01;0; -2.8461039E-02;  3.2008402E+04;  0.0000000E+00;  2.0085068E+01;  4.0000000E+04;  0.0000000E+00;  3.9715250E+04; -3.2387653E-01;  0.0000000E+00;  2.9541549E-01;  3.1342072E+04;
  1.2414113E+00;  9.9999998E-03;  2.0045200E-01;9138;  8.8443285E-01;  0.0000000E+00;  1.3048733E-02;  1.0000339E+03;  1.1207125E-01;  2.7457048E+01;3;  2.7525452E+01;  0.0000000E+00;  3.0893150E+01;0; -2.0533651E-02;  3.2059152E+04;  0.0000000E+00;  1.0256001E+01;  4.0000000E+04;  0.0000000E+00;  3.9732684E+04; -2.8140849E-01;  0.0000000E+00;  2.6087484E-01;  1.6000801E+04;
  1.2413737E+00;  9.9999998E-03;  2.2056247E-01;9140;  8.9828730E-01;  0.0000000E+00;  1.9696809E-02;  9.9933307E+02;  1.1207195E-01; -5.4088116E+02;3;  3.0958561E+01;  0.0000000E+00;  2.7915613E+01;0; -2.4143666E-02;  3.2026240E+04;  0.0000000E+00;  1.7792904E+01;  4.0000000E+04;  0.0000000E+00;  3.9723176E+04; -3.1402019E-01;  0.0000000E+00;  2.8987652E-01;  2.7520301E+04;
  1.2414162E+00;  9.9999998E-03;  2.1049932E-01;9139;  8.9084136E-01;  0.0000000E+00;  1.6542679E-02;  9.9973901E+02;  1.1206904E-01; -2.1167999E+02;3;  2.9392864E+01;  0.0000000E+00;  2.9759857E+01;0; -2.1251738E-02;  3.2046566E+04;  0.0000000E+00;  1.4339311E+01;  4.0000000E+04;  0.0000000E+00;  3.9729125E+04; -2.9918393E-01;  0.0000000E+00;  2.7793220E-01;  2.2100467E+04;
  1.2535419E+00;  9.9999998E-03;  7.0150271E-02;9183;  8.3354390E-01;  0.0000000E+00; -1.9776765E-03;  9.9566803E+02;  1.1120936E-01; -3.4989045E+03;3;  4.2280243E+01;  0.0000000E+00;  1.0205860E+01;0;  1.2882887E-03;  3.2237227E+04;  0.0000000E+00;  1.6769575E-01;  4.0000000E+04;  0.0000000E+00;  3.9775559E+04;  3.9722845E-03;  0.0000000E+00; -2.6839958E-03;  8.3676543E+03;
  1.2535061E+00;  9.9999998E-03;  8.0186903E-02;9184;  8.3635271E-01;  0.0000000E+00; -2.2495782E-03;  9.9578815E+02;  1.1120445E-01; -3.4019421E+03;3;  3.9796223E+01;  0.0000000E+00;  1.1308862E+01;0; -1.0374117E-02;  3.2249367E+04;  0.0000000E+00;  1.4230435E-01;  4.0000000E+04;  0.0000000E+00;  3.9772605E+04; -1.5084393E-02;  0.0000000E+00;  4.7102766E-03;  8.0692822E+03;
  1.2534511E+00;  9.9999998E-03;  9.0231240E-02;9185;  8.3936352E-01;  0.0000000E+00; -2.5135546E-03;  9.9598859E+02;  1.1119996E-01; -3.2401018E+03;3;  3.7014824E+01;  0.0000000E+00;  1.2367056E+01;0; -2.1978648E-02;  3.2266646E+04;  0.0000000E+00;  8.4160052E-02;  4.0000000E+04;  0.0000000E+00;  3.9769836E+04; -3.6156032E-02;  0.0000000E+00;  1.4177384E-02;  7.7492231E+03;
  1.2533766E+00;  9.9999998E-03;  1.0028205E-01;9186;  8.4251082E-01;  0.0000000E+00; -2.7626106E-03;  9.9628088E+02;  1.1119603E-01; -3.0040847E+03;3;  3.4257679E+01;  0.0000000E+00;  1.3388587E+01;0; -3.2727025E-02;  3.2289135E+04;  0.0000000E+00; -7.1449303E-03;  4.0000000E+04;  0.0000000E+00;  3.9767055E+04; -5.8776256E-02;  0.0000000E+00;  2.6049232E-02;  7.4088081E+03;
  1.2532809E+00;  9.9999998E-03;  1.1033318E-01;9187;  8.4574890E-01;  0.0000000E+00; -2.9703414E-03;  9.9664825E+02;  1.1119311E-01; -2.7074590E+03;3;  3.1579384E+01;  0.0000000E+00;  1.4499030E+01;0; -4.1805495E-02;  3.2316594E+04;  0.0000000E+00; -1.3090767E-01;  4.0000000E+04;  0.0000000E+00;  3.9764160E+04; -8.2410261E-02;  0.0000000E+00;  4.0604766E-02;  7.0387329E+03;
  1.2531691E+00;  9.9999998E-03;  1.2038166E-01;9188;  8.4905607E-01;  0.0000000E+00; -3.1115692E-03;  9.9708032E+02;  1.1119045E-01; -2.3585361E+03;3;  2.9245153E+01;  0.0000000E+00;  1.5663467E+01;0; -4.8524629E-02;  3.2348031E+04;  0.0000000E+00; -2.8077513E-01;  4.0000000E+04;  0.0000000E+00;  3.9760773E+04; -1.0651807E-01;  0.0000000E+00;  5.7993438E-02;  6.6218525E+03;
  1.2530470E+00;  9.9999998E-03;  1.3041829E-01;9189;  8.5241044E-01;  0.0000000E+00; -3.1356085E-03;  9.9754803E+02;  1.1118910E-01; -1.9807983E+03;3;  2.7196428E+01;  0.0000000E+00;  1.7027460E+01;0; -5.2530229E-02;  3.2381957E+04;  0.0000000E+00; -4.0474588E-01;  4.0000000E+04;  0.0000000E+00;  3.9756836E+04; -1.3068751E-01;  0.0000000E+00;  7.8157276E-02;  6.1350557E+03;
  1.2529088E+00;  9.9999998E-03;  1.4044289E-01;9190;  8.5585111E-01;  0.0000000E+00; -2.9962661E-03;  9.9800897E+02;  1.1118831E-01; -1.6085254E+03;3;  2.5806055E+01;  0.0000000E+00;  1.8383633E+01;0; -5.3942539E-02;  3.2416422E+04;  0.0000000E+00; -3.8961309E-01;  4.0000000E+04;  0.0000000E+00;  3.9751930E+04; -1.5475075E-01;  0.0000000E+00;  1.0080821E-01;  5.5502319E+03;
  1.2527726E+00;  9.9999998E-03;  1.5045474E-01;9191;  8.5939676E-01;  0.0000000E+00; -2.6295581E-03;  9.9843494E+02;  1.1118715E-01; -1.2644336E+03;3;  2.4964014E+01;  0.0000000E+00;  1.9889608E+01;0; -5.3336129E-02;  3.2449734E+04;  0.0000000E+00; -6.3832946E-02;  4.0000000E+04;  0.0000000E+00;  3.9746090E+04; -1.7864870E-01;  0.0000000E+00;  1.2531257E-01;  4.8882832E+03;
  1.2526548E+00;  9.9999998E-03;  1.6045760E-01;9192;  8.6309612E-01;  0.0000000E+00; -1.9351264E-03;  9.9878796E+02;  1.1118475E-01; -9.7929517E+02;3;  2.4590796E+01;  0.0000000E+00;  2.2031431E+01;0; -5.1652461E-02;  3.2479809E+04;  0.0000000E+00;  8.0536777E-01;  4.0000000E+04;  0.0000000E+00;  3.9739395E+04; -2.0247464E-01;  0.0000000E+00;  1.5082218E-01;  4.4817119E+03;
  1.2525673E+00;  9.9999998E-03;  1.7045781E-01;9193;  8.6700952E-01;  0.0000000E+00; -7.7803544E-04;  9.9904358E+02;  1.1118063E-01; -7.7276953E+02;3;  2.4643993E+01;  0.0000000E+00;  2.4504646E+01;0; -4.9995288E-02;  3.2504656E+04;  0.0000000E+00;  2.5022511E+00;  4.0000000E+04;  0.0000000E+00;  3.9732910E+04; -2.2638159E-01;  0.0000000E+00;  1.7638630E-01;  5.4100752E+03;
  1.2525145E+00;  9.9999998E-03;  1.8046218E-01;9194;  8.7122571E-01;  0.0000000E+00;  9.9813147E-04;  9.9918274E+02;  1.1117690E-01; -6.6032941E+02;3;  2.5174131E+01;  0.0000000E+00;  2.7064671E+01;0; -4.9331829E-02;  3.2521572E+04;  0.0000000E+00;  5.2912149E+00;  4.0000000E+04;  0.0000000E+00;  3.9727270E+04; -2.5044870E-01;  0.0000000E+00;  2.0111687E-01;  8.5987959E+03;
  1.2524940E+00;  9.9999998E-03;  1.9047606E-01;9195;  8.7592137E-01;  0.0000000E+00;  3.4449901E-03;  9.9916150E+02;  1.1117128E-01; -6.7752771E+02;3;  2.6317249E+01;  0.0000000E+00;  2.8962843E+01;0; -5.0162435E-02;  3.2527625E+04;  0.0000000E+00;  9.2531290E+00;  4.0000000E+04;  0.0000000E+00;  3.9724031E+04; -2.7451697E-01;  0.0000000E+00;  2.2435454E-01;  1.3822391E+04;
  1.2524856E+00;  9.9999998E-03;  2.0050496E-01;9196;  8.8134670E-01;  0.0000000E+00;  6.3621309E-03;  9.9898468E+02;  1.1116859E-01; -8.2037543E+02;3;  2.8093689E+01;  0.0000000E+00;  2.9282673E+01;0; -5.2483752E-02;  3.2520844E+04;  0.0000000E+00;  1.4083385E+01;  4.0000000E+04;  0.0000000E+00;  3.9722918E+04; -2.9796609E-01;  0.0000000E+00;  2.4548234E-01;  2.0396414E+04;
  1.2523061E+00;  9.9999998E-03;  2.3067197E-01;9199;  9.0344220E-01;  0.0000000E+00;  1.6153283E-02;  9.9788135E+02;  1.1117981E-01; -1.7119956E+03;3;  3.3002571E+01;  0.0000000E+00;  2.6168045E+01;0; -6.3723922E-02;  3.2453100E+04;  0.0000000E+00;  2.4501637E+01;  4.0000000E+04;  0.0000000E+00;  3.9715816E+04; -3.4873998E-01;  0.0000000E+00;  2.8501606E-01;  3.5346789E+04;
  1.2524675E+00;  9.9999998E-03;  2.1055089E-01;9197;  8.8772583E-01;  0.0000000E+00;  9.3440339E-03;  9.9864935E+02;  1.1116803E-01; -1.0913367E+03;3;  2.9983461E+01;  0.0000000E+00;  2.8423887E+01;0; -5.6516409E-02;  3.2501600E+04;  0.0000000E+00;  1.8967369E+01;  4.0000000E+04;  0.0000000E+00;  3.9722535E+04; -3.1951189E-01;  0.0000000E+00;  2.6299548E-01;  2.7191998E+04;
  1.2524115E+00;  9.9999998E-03;  2.2061080E-01;9198;  8.9512742E-01;  0.0000000E+00;  1.2534777E-02;  9.9823248E+02;  1.1117270E-01; -1.4282062E+03;3;  3.1693153E+01;  0.0000000E+00;  2.7398134E+01;0; -6.1223060E-02;  3.2475740E+04;  0.0000000E+00;  2.2789608E+01;  4.0000000E+04;  0.0000000E+00;  3.9720039E+04; -3.3722064E-01;  0.0000000E+00;  2.7599758E-01;  3.2694514E+04;
  1.2645426E+00;  9.9999998E-03;  7.0193581E-02;9240;  8.3227527E-01;  0.0000000E+00; -4.2890850E-03;  9.9549664E+02;  1.1038984E-01; -3.6215642E+03;3;  4.1322632E+01;  0.0000000E+00;  1.1662949E+01;0;  5.8124207E-02;  3.2718379E+04;  0.0000000E+00;  1.3074471E-01;  4.0000000E+04;  0.0000000E+00;  3.9760543E+04;  8.7530576E-02;  0.0000000E+00; -2.9406369E-02;  8.0254653E+03;
  1.2645210E+00;  9.9999998E-03;  8.0230415E-02;9241;  8.3514875E-01;  0.0000000E+00; -4.8229098E-03;  9.9553912E+02;  1.1038622E-01; -3.5874209E+03;3;  3.8575535E+01;  0.0000000E+00;  1.2869476E+01;0;  3.8992826E-02;  3.2725045E+04;  0.0000000E+00;  1.2759224E-01;  4.0000000E+04;  0.0000000E+00;  3.9757535E+04;  6.0030077E-02;  0.0000000E+00; -2.1037251E-02;  7.7433101E+03;
  1.2644814E+00;  9.9999998E-03;  9.0270989E-02;9242;  8.3819699E-01;  0.0000000E+00; -5.3309565E-03;  9.9565894E+02;  1.1038286E-01; -3.4911326E+03;3;  3.5777401E+01;  0.0000000E+00;  1.3910321E+01;0;  1.9346394E-02;  3.2737100E+04;  0.0000000E+00;  9.9583462E-02;  4.0000000E+04;  0.0000000E+00;  3.9754176E+04;  3.0014642E-02;  0.0000000E+00; -1.0668249E-02;  7.4003623E+03;
  1.2644236E+00;  9.9999998E-03;  1.0031504E-01;9243;  8.4135801E-01;  0.0000000E+00; -5.8077169E-03;  9.9586578E+02;  1.1038098E-01; -3.3248811E+03;3;  3.2672791E+01;  0.0000000E+00;  1.4897787E+01;0;  2.1922356E-04;  3.2754695E+04;  0.0000000E+00;  3.6337752E-02;  4.0000000E+04;  0.0000000E+00;  3.9750277E+04; -1.7803481E-03;  0.0000000E+00;  1.9995717E-03;  6.9954473E+03;
  1.2641370E+00;  9.9999998E-03;  1.3044156E-01;9246;  8.5095489E-01;  0.0000000E+00; -6.8103406E-03;  9.9688269E+02;  1.1037676E-01; -2.5073521E+03;3;  2.5416428E+01;  0.0000000E+00;  1.8445309E+01;0; -4.4397019E-02;  3.2834168E+04;  0.0000000E+00; -2.3875667E-01;  4.0000000E+04;  0.0000000E+00;  3.9736230E+04; -1.0043077E-01;  0.0000000E+00;  5.6033753E-02;  5.4526787E+03;
  1.2640271E+00;  9.9999998E-03;  1.4046104E-01;9247;  8.5416365E-01;  0.0000000E+00; -6.8797353E-03;  9.9725574E+02;  1.1037549E-01; -2.2073875E+03;3;  2.4116533E+01;  0.0000000E+00;  1.9690327E+01;0; -5.3320229E-02;  3.2864039E+04;  0.0000000E+00; -5.0619740E-02;  4.0000000E+04;  0.0000000E+00;  3.9730809E+04; -1.3256101E-01;  0.0000000E+00;  7.9240784E-02;  4.8587021E+03;
  1.2643440E+00;  9.9999998E-03;  1.1036190E-01;9244;  8.4456003E-01;  0.0000000E+00; -6.2359967E-03;  9.9615723E+02;  1.1037938E-01; -3.0905793E+03;3;  2.9840626E+01;  0.0000000E+00;  1.5961913E+01;0; -1.7336993E-02;  3.2777676E+04;  0.0000000E+00; -7.0743203E-02;  4.0000000E+04;  0.0000000E+00;  3.9746125E+04; -3.4590211E-02;  0.0000000E+00;  1.7253218E-02;  6.5313569E+03;
  1.2642455E+00;  9.9999998E-03;  1.2040690E-01;9245;  8.4776449E-01;  0.0000000E+00; -6.5819025E-03;  9.9649939E+02;  1.1037749E-01; -2.8154878E+03;3;  2.7407995E+01;  0.0000000E+00;  1.7180723E+01;0; -3.2394819E-02;  3.2804617E+04;  0.0000000E+00; -1.9252095E-01;  4.0000000E+04;  0.0000000E+00;  3.9741461E+04; -6.7669414E-02;  0.0000000E+00;  3.5274595E-02;  6.0162852E+03;
  1.2639203E+00;  9.9999998E-03;  1.5046722E-01;9248;  8.5743451E-01;  0.0000000E+00; -6.7362464E-03;  9.9759937E+02;  1.1037403E-01; -1.9310780E+03;3;  2.3557940E+01;  0.0000000E+00;  2.0813673E+01;0; -5.9648439E-02;  3.2892250E+04;  0.0000000E+00;  5.9718281E-01;  4.0000000E+04;  0.0000000E+00;  3.9725066E+04; -1.6399559E-01;  0.0000000E+00;  1.0434715E-01;  4.4266060E+03;
  1.2638259E+00;  9.9999998E-03;  1.6046698E-01;9249;  8.6081606E-01;  0.0000000E+00; -6.3274824E-03;  9.9787152E+02;  1.1037107E-01; -1.7122242E+03;3;  2.3388037E+01;  0.0000000E+00;  2.1998716E+01;0; -6.4259082E-02;  3.2916602E+04;  0.0000000E+00;  1.9857488E+00;  4.0000000E+04;  0.0000000E+00;  3.9719707E+04; -1.9481890E-01;  0.0000000E+00;  1.3055982E-01;  4.8995835E+03;
  1.2637497E+00;  9.9999998E-03;  1.7046785E-01;9250;  8.6439121E-01;  0.0000000E+00; -5.5558570E-03;  9.9804712E+02;  1.1036752E-01; -1.5710199E+03;3;  2.3713276E+01;  0.0000000E+00;  2.3496965E+01;0; -6.8262964E-02;  3.2934285E+04;  0.0000000E+00;  4.4181724E+00;  4.0000000E+04;  0.0000000E+00;  3.9715570E+04; -2.2519875E-01;  0.0000000E+00;  1.5693578E-01;  7.2841611E+03;
  1.2636919E+00;  9.9999998E-03;  1.8047585E-01;9251;  8.6831278E-01;  0.0000000E+00; -4.2416519E-03;  9.9810114E+02;  1.1036392E-01; -1.5276150E+03;3;  2.4773561E+01;  0.0000000E+00;  2.5622204E+01;0; -7.2680488E-02;  3.2942695E+04;  0.0000000E+00;  8.1102724E+00;  4.0000000E+04;  0.0000000E+00;  3.9714078E+04; -2.5521499E-01;  0.0000000E+00;  1.8253450E-01;  1.1754729E+04;
  1.2633231E+00;  9.9999998E-03;  2.3072560E-01;9256;  8.9996231E-01;  0.0000000E+00;  1.0560846E-02;  9.9658667E+02;  1.1037173E-01; -2.7463730E+03;3;  3.3902260E+01;  0.0000000E+00;  2.5697880E+01;0; -9.5234573E-02;  3.2841398E+04;  0.0000000E+00;  2.7516348E+01;  4.0000000E+04;  0.0000000E+00;  3.9717508E+04; -3.7018949E-01;  0.0000000E+00;  2.7495492E-01;  3.7005852E+04;
  1.2636437E+00;  9.9999998E-03;  1.9049601E-01;9252;  8.7280881E-01;  0.0000000E+00; -2.3186123E-03;  9.9801660E+02;  1.1036033E-01; -1.5956414E+03;3;  2.6371962E+01;  0.0000000E+00;  2.7054655E+01;0; -7.8071058E-02;  3.2939230E+04;  0.0000000E+00;  1.3010802E+01;  4.0000000E+04;  0.0000000E+00;  3.9715449E+04; -2.8462982E-01;  0.0000000E+00;  2.0655876E-01;  1.7942824E+04;
  1.2634192E+00;  9.9999998E-03;  2.2066021E-01;9255;  8.9173782E-01;  0.0000000E+00;  6.5214494E-03;  9.9698950E+02;  1.1036588E-01; -2.4221738E+03;3;  3.2379112E+01;  0.0000000E+00;  2.6669436E+01;0; -9.5994264E-02;  3.2868371E+04;  0.0000000E+00;  2.7589447E+01;  4.0000000E+04;  0.0000000E+00;  3.9720688E+04; -3.5785857E-01;  0.0000000E+00;  2.6186430E-01;  3.6823590E+04;
  1.2635870E+00;  9.9999998E-03;  2.0053279E-01;9253;  8.7811255E-01;  0.0000000E+00;  9.7067408E-05;  9.9778955E+02;  1.1035921E-01; -1.7783318E+03;3;  2.8368509E+01;  0.0000000E+00;  2.7537603E+01;0; -8.4568441E-02;  3.2923527E+04;  0.0000000E+00;  1.8646400E+01;  4.0000000E+04;  0.0000000E+00;  3.9719316E+04; -3.1266314E-01;  0.0000000E+00;  2.2809470E-01;  2.5145039E+04;
  1.2635118E+00;  9.9999998E-03;  2.1058905E-01;9254;  8.8439870E-01;  0.0000000E+00;  3.0507299E-03;  9.9743518E+02;  1.1036076E-01; -2.0635249E+03;3;  3.0446213E+01;  0.0000000E+00;  2.7303139E+01;0; -9.1214061E-02;  3.2898160E+04;  0.0000000E+00;  2.4015732E+01;  4.0000000E+04;  0.0000000E+00;  3.9722582E+04; -3.3782145E-01;  0.0000000E+00;  2.4660739E-01;  3.2090668E+04;
  1.2754807E+00;  9.9999998E-03;  7.0232667E-02;9297;  8.3122998E-01;  0.0000000E+00; -6.6239773E-03;  9.9537506E+02;  1.0966174E-01; -3.7006992E+03;3;  4.0814201E+01;  0.0000000E+00;  1.3106987E+01;0;  1.3460632E-01;  3.3161922E+04;  0.0000000E+00;  6.8180606E-02;  4.0000000E+04;  0.0000000E+00;  3.9741738E+04;  1.8755277E-01;  0.0000000E+00; -5.2946445E-02;  7.5328452E+03;
  1.2754774E+00;  9.9999998E-03;  8.0267757E-02;9298;  8.3415359E-01;  0.0000000E+00; -7.3980531E-03;  9.9537524E+02;  1.0965905E-01; -3.7005623E+03;3;  3.7819084E+01;  0.0000000E+00;  1.4354837E+01;0;  1.0637707E-01;  3.3166055E+04;  0.0000000E+00;  7.7865712E-02;  4.0000000E+04;  0.0000000E+00;  3.9738379E+04;  1.5000251E-01;  0.0000000E+00; -4.3625440E-02;  7.2480928E+03;
  1.2754596E+00;  9.9999998E-03;  9.0302885E-02;9299;  8.3726287E-01;  0.0000000E+00; -8.1240609E-03;  9.9545508E+02;  1.0965674E-01; -3.6366853E+03;3;  3.4622547E+01;  0.0000000E+00;  1.5402881E+01;0;  7.6968491E-02;  3.3175551E+04;  0.0000000E+00;  6.5290295E-02;  4.0000000E+04;  0.0000000E+00;  3.9734176E+04;  1.0938649E-01;  0.0000000E+00; -3.2417998E-02;  6.8658555E+03;
  1.2754251E+00;  9.9999998E-03;  1.0033728E-01;9300;  8.4044409E-01;  0.0000000E+00; -8.8080969E-03;  9.9560114E+02;  1.0965460E-01; -3.5198958E+03;3;  3.1488499E+01;  0.0000000E+00;  1.6302803E+01;0;  4.7693729E-02;  3.3190535E+04;  0.0000000E+00;  1.4820244E-02;  4.0000000E+04;  0.0000000E+00;  3.9729344E+04;  6.6758208E-02;  0.0000000E+00; -1.9064479E-02;  6.3917168E+03;
  1.2753739E+00;  9.9999998E-03;  1.1037196E-01;9301;  8.4360641E-01;  0.0000000E+00; -9.4374083E-03;  9.9581976E+02;  1.0965284E-01; -3.3450374E+03;3;  2.8173052E+01;  0.0000000E+00;  1.7254196E+01;0;  1.9911136E-02;  3.3210398E+04;  0.0000000E+00; -6.2255718E-02;  4.0000000E+04;  0.0000000E+00;  3.9723570E+04;  2.3211494E-02;  0.0000000E+00; -3.3003583E-03;  5.8485376E+03;
  1.2753024E+00;  9.9999998E-03;  1.2040851E-01;9302;  8.4667778E-01;  0.0000000E+00; -9.9659506E-03;  9.9609082E+02;  1.0965153E-01; -3.1282280E+03;3;  2.5429083E+01;  0.0000000E+00;  1.8503410E+01;0; -5.2314773E-03;  3.3233738E+04;  0.0000000E+00; -1.0097960E-01;  4.0000000E+04;  0.0000000E+00;  3.9717871E+04; -2.0311458E-02;  0.0000000E+00;  1.5079981E-02;  5.2680903E+03;
  1.2752178E+00;  9.9999998E-03;  1.3043781E-01;9303;  8.4966743E-01;  0.0000000E+00; -1.0368558E-02;  9.9638080E+02;  1.0965071E-01; -2.8963013E+03;3;  2.3633356E+01;  0.0000000E+00;  1.9642717E+01;0; -2.6942473E-02;  3.3258574E+04;  0.0000000E+00;  3.3102285E-02;  4.0000000E+04;  0.0000000E+00;  3.9712043E+04; -6.3012958E-02;  0.0000000E+00;  3.6070485E-02;  4.6923667E+03;
  1.2751287E+00;  9.9999998E-03;  1.4045219E-01;9304;  8.5259742E-01;  0.0000000E+00; -1.0603765E-02;  9.9666730E+02;  1.0964993E-01; -2.6671279E+03;3;  2.2483511E+01;  0.0000000E+00;  2.0697309E+01;0; -4.5012191E-02;  3.3282801E+04;  0.0000000E+00;  5.4830706E-01;  4.0000000E+04;  0.0000000E+00;  3.9706453E+04; -1.0442362E-01;  0.0000000E+00;  5.9411429E-02;  4.2713955E+03;
  1.2750413E+00;  9.9999998E-03;  1.5045570E-01;9305;  8.5553676E-01;  0.0000000E+00; -1.0615062E-02;  9.9690308E+02;  1.0964720E-01; -2.4785754E+03;3;  2.2152405E+01;  0.0000000E+00;  2.1667603E+01;0; -5.9811749E-02;  3.3303969E+04;  0.0000000E+00;  1.7220933E+00;  4.0000000E+04;  0.0000000E+00;  3.9702020E+04; -1.4443128E-01;  0.0000000E+00;  8.4619530E-02;  4.5470669E+03;
  1.2749612E+00;  9.9999998E-03;  1.6045627E-01;9306;  8.5856271E-01;  0.0000000E+00; -1.0366108E-02;  9.9707166E+02;  1.0964482E-01; -2.3437144E+03;3;  2.2340223E+01;  0.0000000E+00;  2.2505121E+01;0; -7.2156757E-02;  3.3319305E+04;  0.0000000E+00;  3.8623276E+00;  4.0000000E+04;  0.0000000E+00;  3.9699238E+04; -1.8312964E-01;  0.0000000E+00;  1.1097288E-01;  6.3971353E+03;
  1.2748860E+00;  9.9999998E-03;  1.7046154E-01;9307;  8.6179399E-01;  0.0000000E+00; -9.8079462E-03;  9.9713275E+02;  1.0964058E-01; -2.2949011E+03;3;  2.3025673E+01;  0.0000000E+00;  2.3229687E+01;0; -8.3133340E-02;  3.3326324E+04;  0.0000000E+00;  7.2370582E+00;  4.0000000E+04;  0.0000000E+00;  3.9699527E+04; -2.2070768E-01;  0.0000000E+00;  1.3757434E-01;  1.0173861E+04;
  1.2748088E+00;  9.9999998E-03;  1.8047836E-01;9308;  8.6541116E-01;  0.0000000E+00; -8.8999253E-03;  9.9708301E+02;  1.0963766E-01; -2.3348250E+03;3;  2.4374304E+01;  0.0000000E+00;  2.3943295E+01;0; -9.3896702E-02;  3.3322652E+04;  0.0000000E+00;  1.1943713E+01;  4.0000000E+04;  0.0000000E+00;  3.9703320E+04; -2.5724512E-01;  0.0000000E+00;  1.6334842E-01;  1.5727949E+04;
  1.2743071E+00;  9.9999998E-03;  2.3079254E-01;9313;  8.9597774E-01;  0.0000000E+00;  5.4873535E-03;  9.9518469E+02;  1.0964880E-01; -3.8552017E+03;3;  3.4766327E+01;  0.0000000E+00;  2.4973316E+01;0; -1.2780428E-01;  3.3181211E+04;  0.0000000E+00;  2.7736486E+01;  4.0000000E+04;  0.0000000E+00;  3.9717379E+04; -3.8893944E-01;  0.0000000E+00;  2.6113516E-01;  3.5292949E+04;
  1.2747190E+00;  9.9999998E-03;  1.9051181E-01;9309;  8.6964792E-01;  0.0000000E+00; -7.4635935E-03;  9.9691211E+02;  1.0963655E-01; -2.4717151E+03;3;  2.6293739E+01;  0.0000000E+00;  2.4989298E+01;0; -1.0514760E-01;  3.3307145E+04;  0.0000000E+00;  1.7751028E+01;  4.0000000E+04;  0.0000000E+00;  3.9710562E+04; -2.9243395E-01;  0.0000000E+00;  1.8728635E-01;  2.2650574E+04;
  1.2743971E+00;  9.9999998E-03;  2.2072750E-01;9312;  8.8804120E-01;  0.0000000E+00;  1.3709406E-03;  9.9563904E+02;  1.0964557E-01; -3.4913225E+03;3;  3.3042244E+01;  0.0000000E+00;  2.5674770E+01;0; -1.3035665E-01;  3.3212766E+04;  0.0000000E+00;  3.0957140E+01;  4.0000000E+04;  0.0000000E+00;  3.9718910E+04; -3.7614077E-01;  0.0000000E+00;  2.4578412E-01;  3.8679008E+04;
  1.2746142E+00;  9.9999998E-03;  2.0056677E-01;9310;  8.7473387E-01;  0.0000000E+00; -5.2452576E-03;  9.9661743E+02;  1.0963756E-01; -2.7077368E+03;3;  2.8535427E+01;  0.0000000E+00;  2.5839539E+01;0; -1.1628737E-01;  3.3281418E+04;  0.0000000E+00;  2.3920366E+01;  4.0000000E+04;  0.0000000E+00;  3.9718801E+04; -3.2532400E-01;  0.0000000E+00;  2.0903663E-01;  3.0039316E+04;
  1.2744999E+00;  9.9999998E-03;  2.1064377E-01;9311;  8.8085800E-01;  0.0000000E+00; -2.2030713E-03;  9.9618817E+02;  1.0964108E-01; -3.0515393E+03;3;  3.0858006E+01;  0.0000000E+00;  2.6014605E+01;0; -1.2534639E-01;  3.3248641E+04;  0.0000000E+00;  2.9047169E+01;  4.0000000E+04;  0.0000000E+00;  3.9722395E+04; -3.5409373E-01;  0.0000000E+00;  2.2874734E-01;  3.6225859E+04;
  1.2863768E+00;  9.9999998E-03;  7.0259891E-02;9353;  8.3036500E-01;  0.0000000E+00; -8.9837722E-03;  9.9535437E+02;  1.0901607E-01; -3.6957600E+03;3;  3.9847080E+01;  0.0000000E+00;  1.4288164E+01;0;  2.2885938E-01;  3.3574203E+04;  0.0000000E+00; -2.0003754E-03;  4.0000000E+04;  0.0000000E+00;  3.9718273E+04;  3.0176327E-01;  0.0000000E+00; -7.2903886E-02;  6.8552876E+03;
  1.2863933E+00;  9.9999998E-03;  8.0291614E-02;9354;  8.3334309E-01;  0.0000000E+00; -9.9811032E-03;  9.9535754E+02;  1.0901399E-01; -3.6931648E+03;3;  3.7209675E+01;  0.0000000E+00;  1.5647652E+01;0;  1.9015431E-01;  3.3578805E+04;  0.0000000E+00; -4.5273820E-04;  4.0000000E+04;  0.0000000E+00;  3.9714594E+04;  2.5284696E-01;  0.0000000E+00; -6.2692635E-02;  6.5455332E+03;
  1.2863964E+00;  9.9999998E-03;  9.0319976E-02;9355;  8.3649737E-01;  0.0000000E+00; -1.0897184E-02;  9.9542255E+02;  1.0901209E-01; -3.6414736E+03;3;  3.3989864E+01;  0.0000000E+00;  1.6691813E+01;0;  1.4949408E-01;  3.3588418E+04;  0.0000000E+00; -2.0851687E-02;  4.0000000E+04;  0.0000000E+00;  3.9709434E+04;  2.0025310E-01;  0.0000000E+00; -5.0759021E-02;  6.1170654E+03;
  1.2863833E+00;  9.9999998E-03;  1.0034521E-01;9356;  8.3971828E-01;  0.0000000E+00; -1.1744685E-02;  9.9553900E+02;  1.0901010E-01; -3.5488479E+03;3;  3.0563656E+01;  0.0000000E+00;  1.7366776E+01;0;  1.0852721E-01;  3.3602602E+04;  0.0000000E+00; -5.9591647E-02;  4.0000000E+04;  0.0000000E+00;  3.9703430E+04;  1.4543229E-01;  0.0000000E+00; -3.6905084E-02;  5.5903247E+03;
  1.2863535E+00;  9.9999998E-03;  1.1036919E-01;9357;  8.4284568E-01;  0.0000000E+00; -1.2533116E-02;  9.9570605E+02;  1.0900835E-01; -3.4159954E+03;3;  2.6893787E+01;  0.0000000E+00;  1.8172039E+01;0;  6.8941355E-02;  3.3620453E+04;  0.0000000E+00; -7.0268005E-02;  4.0000000E+04;  0.0000000E+00;  3.9696840E+04;  8.9842863E-02;  0.0000000E+00; -2.0901510E-02;  5.0071191E+03;
  1.2863071E+00;  9.9999998E-03;  1.2039367E-01;9358;  8.4577364E-01;  0.0000000E+00; -1.3204745E-02;  9.9590594E+02;  1.0900693E-01; -3.2570891E+03;3;  2.3593283E+01;  0.0000000E+00;  1.9443653E+01;0;  3.2186680E-02;  3.3640234E+04;  0.0000000E+00;  5.7517298E-02;  4.0000000E+04;  0.0000000E+00;  3.9690289E+04;  3.4747466E-02;  0.0000000E+00; -2.5607855E-03;  4.4306787E+03;
  1.2862482E+00;  9.9999998E-03;  1.3041510E-01;9359;  8.4852844E-01;  0.0000000E+00; -1.3750038E-02;  9.9610858E+02;  1.0900551E-01; -3.0959675E+03;3;  2.1946171E+01;  0.0000000E+00;  2.0239613E+01;0; -7.3662214E-04;  3.3659867E+04;  0.0000000E+00;  5.0998861E-01;  4.0000000E+04;  0.0000000E+00;  3.9684629E+04; -1.8886397E-02;  0.0000000E+00;  1.8149775E-02;  4.0047681E+03;
  1.2861834E+00;  9.9999998E-03;  1.4042647E-01;9360;  8.5113394E-01;  0.0000000E+00; -1.4107947E-02;  9.9628467E+02;  1.0900311E-01; -2.9559954E+03;3;  2.0885416E+01;  0.0000000E+00;  2.1189234E+01;0; -2.9438622E-02;  3.3676676E+04;  0.0000000E+00;  1.5445122E+00;  4.0000000E+04;  0.0000000E+00;  3.9680309E+04; -7.0463315E-02;  0.0000000E+00;  4.1024692E-02;  4.1667451E+03;
  1.2861160E+00;  9.9999998E-03;  1.5043132E-01;9361;  8.5369718E-01;  0.0000000E+00; -1.4241351E-02;  9.9640057E+02;  1.0900085E-01; -2.8638682E+03;3;  2.0813395E+01;  0.0000000E+00;  2.1964609E+01;0; -5.4181933E-02;  3.3688223E+04;  0.0000000E+00;  3.4698887E+00;  4.0000000E+04;  0.0000000E+00;  3.9678438E+04; -1.1984108E-01;  0.0000000E+00;  6.5659150E-02;  5.6662930E+03;
  1.2860466E+00;  9.9999998E-03;  1.6043676E-01;9362;  8.5633081E-01;  0.0000000E+00; -1.4105137E-02;  9.9643231E+02;  1.0899777E-01; -2.8387505E+03;3;  2.1393726E+01;  0.0000000E+00;  2.2505033E+01;0; -7.5712524E-02;  3.3691285E+04;  0.0000000E+00;  6.5727391E+00;  4.0000000E+04;  0.0000000E+00;  3.9680129E+04; -1.6714016E-01;  0.0000000E+00;  9.1427632E-02;  8.8962051E+03;
  1.2859634E+00;  9.9999998E-03;  1.7045252E-01;9363;  8.5920197E-01;  0.0000000E+00; -1.3699909E-02;  9.9636285E+02;  1.0899551E-01; -2.8941392E+03;3;  2.2465836E+01;  0.0000000E+00;  2.2854494E+01;0; -9.5094964E-02;  3.3683895E+04;  0.0000000E+00;  1.1009022E+01;  4.0000000E+04;  0.0000000E+00;  3.9686121E+04; -2.1256819E-01;  0.0000000E+00;  1.1747323E-01;  1.3806456E+04;
  1.2858518E+00;  9.9999998E-03;  1.8048564E-01;9364;  8.6249459E-01;  0.0000000E+00; -1.2961501E-02;  9.9619055E+02;  1.0899386E-01; -3.0314475E+03;3;  2.4077383E+01;  0.0000000E+00;  2.3017202E+01;0; -1.1342137E-01;  3.3665234E+04;  0.0000000E+00;  1.6703434E+01;  4.0000000E+04;  0.0000000E+00;  3.9696438E+04; -2.5617829E-01;  0.0000000E+00;  1.4275692E-01;  2.0172641E+04;
  1.2857152E+00;  9.9999998E-03;  1.9054025E-01;9365;  8.6640894E-01;  0.0000000E+00; -1.1683224E-02;  9.9592371E+02;  1.0899527E-01; -3.2440498E+03;3;  2.6137180E+01;  0.0000000E+00;  2.3341579E+01;0; -1.3124144E-01;  3.3636844E+04;  0.0000000E+00;  2.3179573E+01;  4.0000000E+04;  0.0000000E+00;  3.9709234E+04; -2.9757985E-01;  0.0000000E+00;  1.6633841E-01;  2.7425787E+04;
  1.2855650E+00;  9.9999998E-03;  2.0062235E-01;9366;  8.7120217E-01;  0.0000000E+00; -9.5334724E-03;  9.9552203E+02;  1.0899762E-01; -3.5640188E+03;3;  2.8659794E+01;  0.0000000E+00;  2.3973164E+01;0; -1.4737813E-01;  3.3601418E+04;  0.0000000E+00;  2.9313103E+01;  4.0000000E+04;  0.0000000E+00;  3.9718598E+04; -3.3559966E-01;  0.0000000E+00;  1.8822153E-01;  3.4301430E+04;
  1.2854241E+00;  9.9999998E-03;  2.1072108E-01;9367;  8.7710929E-01;  0.0000000E+00; -6.4543518E-03;  9.9497186E+02;  1.0900138E-01; -4.0022019E+03;3;  3.1238268E+01;  0.0000000E+00;  2.4517208E+01;0; -1.5884836E-01;  3.3561766E+04;  0.0000000E+00;  3.3142315E+01;  4.0000000E+04;  0.0000000E+00;  3.9719141E+04; -3.6786306E-01;  0.0000000E+00;  2.0901470E-01;  3.8658551E+04;
  1.2853128E+00;  9.9999998E-03;  2.2080919E-01;9368;  8.8399106E-01;  0.0000000E+00; -2.9301713E-03;  9.9434955E+02;  1.0900535E-01; -4.4978374E+03;3;  3.3642128E+01;  0.0000000E+00;  2.4315672E+01;0; -1.6434331E-01;  3.3520930E+04;  0.0000000E+00;  3.2196873E+01;  4.0000000E+04;  0.0000000E+00;  3.9714641E+04; -3.9166528E-01;  0.0000000E+00;  2.2732197E-01;  3.7933648E+04;
  1.2851973E+00;  9.9999998E-03;  2.3086946E-01;9369;  8.9152455E-01;  0.0000000E+00;  1.2837636E-03;  9.9398480E+02;  1.0900697E-01; -4.7884712E+03;3;  3.5615871E+01;  0.0000000E+00;  2.3946253E+01;0; -1.5891524E-01;  3.3493477E+04;  0.0000000E+00;  2.5879271E+01;  4.0000000E+04;  0.0000000E+00;  3.9716160E+04; -4.0459621E-01;  0.0000000E+00;  2.4568097E-01;  3.1662529E+04;
  1.2972596E+00;  9.9999998E-03;  7.0277371E-02;9408;  8.2985342E-01;  0.0000000E+00; -1.1311390E-02;  9.9547485E+02;  1.0844515E-01; -3.5759058E+03;3;  3.5855183E+01;  0.0000000E+00;  1.4908051E+01;0;  3.3711657E-01;  3.3961191E+04;  0.0000000E+00; -9.3371667E-02;  4.0000000E+04;  0.0000000E+00;  3.9689633E+04;  4.2590377E-01;  0.0000000E+00; -8.8787206E-02;  5.9724111E+03;
  1.2972929E+00;  9.9999998E-03;  8.0303669E-02;9409;  8.3281231E-01;  0.0000000E+00; -1.2509169E-02;  9.9550488E+02;  1.0844347E-01; -3.5521355E+03;3;  3.3808292E+01;  0.0000000E+00;  1.6343962E+01;0;  2.8701538E-01;  3.3968262E+04;  0.0000000E+00; -1.2101515E-01;  4.0000000E+04;  0.0000000E+00;  3.9685199E+04;  3.6487272E-01;  0.0000000E+00; -7.7857338E-02;  5.6320283E+03;
  1.2973094E+00;  9.9999998E-03;  9.0324491E-02;9410;  8.3594561E-01;  0.0000000E+00; -1.3573361E-02;  9.9557294E+02;  1.0844176E-01; -3.4983091E+03;3;  3.1888229E+01;  0.0000000E+00;  1.7487501E+01;0;  2.3405965E-01;  3.3979207E+04;  0.0000000E+00; -1.5444548E-01;  4.0000000E+04;  0.0000000E+00;  3.9679516E+04;  2.9951614E-01;  0.0000000E+00; -6.5456495E-02;  5.1745903E+03;
  1.2973045E+00;  9.9999998E-03;  1.0034191E-01;9411;  8.3913994E-01;  0.0000000E+00; -1.4541048E-02;  9.9567505E+02;  1.0844021E-01; -3.4176372E+03;3;  2.9433884E+01;  0.0000000E+00;  1.8021021E+01;0;  1.8024710E-01;  3.3992977E+04;  0.0000000E+00; -1.5560521E-01;  4.0000000E+04;  0.0000000E+00;  3.9672863E+04;  2.3170410E-01;  0.0000000E+00; -5.1456999E-02;  4.6354546E+03;
  1.2972765E+00;  9.9999998E-03;  1.1035913E-01;9412;  8.4222728E-01;  0.0000000E+00; -1.5419617E-02;  9.9580402E+02;  1.0843874E-01; -3.3157737E+03;3;  2.5746145E+01;  0.0000000E+00;  1.8556807E+01;0;  1.2762511E-01;  3.4008621E+04;  0.0000000E+00; -3.0218959E-02;  4.0000000E+04;  0.0000000E+00;  3.9666027E+04;  1.6329260E-01;  0.0000000E+00; -3.5667494E-02;  4.0790076E+03;
  1.2972325E+00;  9.9999998E-03;  1.2037845E-01;9413;  8.4502470E-01;  0.0000000E+00; -1.6200414E-02;  9.9593713E+02;  1.0843758E-01; -3.2106899E+03;3;  2.2289158E+01;  0.0000000E+00;  1.9353817E+01;0;  7.8007460E-02;  3.4024145E+04;  0.0000000E+00;  3.8844678E-01;  4.0000000E+04;  0.0000000E+00;  3.9659820E+04;  9.5918134E-02;  0.0000000E+00; -1.7910676E-02;  3.6432107E+03;
  1.2971795E+00;  9.9999998E-03;  1.3039908E-01;9414;  8.4752244E-01;  0.0000000E+00; -1.6847799E-02;  9.9604608E+02;  1.0843516E-01; -3.1246960E+03;3;  2.0432571E+01;  0.0000000E+00;  2.0035858E+01;0;  3.2638464E-02;  3.4037238E+04;  0.0000000E+00;  1.3418437E+00;  4.0000000E+04;  0.0000000E+00;  3.9655379E+04;  3.0755885E-02;  0.0000000E+00;  1.8825793E-03;  3.7081113E+03;
  1.2971219E+00;  9.9999998E-03;  1.4041509E-01;9415;  8.4977710E-01;  0.0000000E+00; -1.7297028E-02;  9.9611053E+02;  1.0843290E-01; -3.0738455E+03;3;  1.9408318E+01;  0.0000000E+00;  2.0911226E+01;0; -7.9344306E-03;  3.4045148E+04;  0.0000000E+00;  3.1241689E+00;  4.0000000E+04;  0.0000000E+00;  3.9653496E+04; -3.1519406E-02;  0.0000000E+00;  2.3584975E-02;  4.9451997E+03;
  1.2970587E+00;  9.9999998E-03;  1.5042749E-01;9416;  8.5192996E-01;  0.0000000E+00; -1.7512195E-02;  9.9609845E+02;  1.0843018E-01; -3.0835361E+03;3;  1.9555466E+01;  0.0000000E+00;  2.1495169E+01;0; -4.3876536E-02;  3.4044805E+04;  0.0000000E+00;  6.0327249E+00;  4.0000000E+04;  0.0000000E+00;  3.9655434E+04; -9.0756536E-02;  0.0000000E+00;  4.6879999E-02;  7.7490806E+03;
  1.2969826E+00;  9.9999998E-03;  1.6044407E-01;9417;  8.5415405E-01;  0.0000000E+00; -1.7459560E-02;  9.9599884E+02;  1.0842885E-01; -3.1624111E+03;3;  2.0497950E+01;  0.0000000E+00;  2.1832453E+01;0; -7.5875096E-02;  3.4033809E+04;  0.0000000E+00;  1.0274789E+01;  4.0000000E+04;  0.0000000E+00;  3.9662504E+04; -1.4712845E-01;  0.0000000E+00;  7.1253352E-02;  1.2132352E+04;
  1.2968805E+00;  9.9999998E-03;  1.7047319E-01;9418;  8.5661048E-01;  0.0000000E+00; -1.7111959E-02;  9.9579095E+02;  1.0842714E-01; -3.3269541E+03;3;  2.1924984E+01;  0.0000000E+00;  2.1999445E+01;0; -1.0491443E-01;  3.4010805E+04;  0.0000000E+00;  1.5841191E+01;  4.0000000E+04;  0.0000000E+00;  3.9674879E+04; -2.0086646E-01;  0.0000000E+00;  9.5952034E-02;  1.7955301E+04;
  1.2967384E+00;  9.9999998E-03;  1.8052682E-01;9419;  8.5951018E-01;  0.0000000E+00; -1.6325340E-02;  9.9549200E+02;  1.0842710E-01; -3.5636062E+03;3;  2.3838495E+01;  0.0000000E+00;  2.1961409E+01;0; -1.3175613E-01;  3.3978270E+04;  0.0000000E+00;  2.2414379E+01;  4.0000000E+04;  0.0000000E+00;  3.9690777E+04; -2.5198624E-01;  0.0000000E+00;  1.2023011E-01;  2.4835688E+04;
  1.2965628E+00;  9.9999998E-03;  1.9061306E-01;9420;  8.6308086E-01;  0.0000000E+00; -1.4961227E-02;  9.9510986E+02;  1.0843025E-01; -3.8661208E+03;3;  2.6058825E+01;  0.0000000E+00;  2.1995888E+01;0; -1.5652336E-01;  3.3939348E+04;  0.0000000E+00;  2.9183363E+01;  4.0000000E+04;  0.0000000E+00;  3.9704570E+04; -2.9990885E-01;  0.0000000E+00;  1.4338548E-01;  3.1902150E+04;
  1.2963841E+00;  9.9999998E-03;  2.0072457E-01;9421;  8.6759150E-01;  0.0000000E+00; -1.2833674E-02;  9.9457819E+02;  1.0843388E-01; -4.2869585E+03;3;  2.8749014E+01;  0.0000000E+00;  2.2335836E+01;0; -1.7769936E-01;  3.3897445E+04;  0.0000000E+00;  3.4507633E+01;  4.0000000E+04;  0.0000000E+00;  3.9709051E+04; -3.4300223E-01;  0.0000000E+00;  1.6530287E-01;  3.7469164E+04;
  1.2962321E+00;  9.9999998E-03;  2.1083359E-01;9422;  8.7317717E-01;  0.0000000E+00; -1.0013368E-02;  9.9391968E+02;  1.0843796E-01; -4.8081104E+03;3;  3.1512102E+01;  0.0000000E+00;  2.2780291E+01;0; -1.9278580E-01;  3.3854141E+04;  0.0000000E+00;  3.6019917E+01;  4.0000000E+04;  0.0000000E+00;  3.9704367E+04; -3.7852168E-01;  0.0000000E+00;  1.8573588E-01;  3.9224715E+04;
  1.2960985E+00;  9.9999998E-03;  2.2091290E-01;9423;  8.7964177E-01;  0.0000000E+00; -6.6818758E-03;  9.9337140E+02;  1.0844032E-01; -5.2420967E+03;3;  3.4208694E+01;  0.0000000E+00;  2.2748064E+01;0; -1.9956242E-01;  3.3817605E+04;  0.0000000E+00;  3.2119755E+01;  4.0000000E+04;  0.0000000E+00;  3.9701391E+04; -4.0375456E-01;  0.0000000E+00;  2.0419215E-01;  3.5718199E+04;
  1.2959341E+00;  9.9999998E-03;  2.3096596E-01;9424;  8.8680238E-01;  0.0000000E+00; -2.4323903E-03;  9.9331390E+02;  1.0844089E-01; -5.2881479E+03;3;  3.6395924E+01;  0.0000000E+00;  2.2543030E+01;0; -1.9072285E-01;  3.3809625E+04;  0.0000000E+00;  2.3887049E+01;  4.0000000E+04;  0.0000000E+00;  3.9705199E+04; -4.1607001E-01;  0.0000000E+00;  2.2534716E-01;  2.8124004E+04;
  1.3081158E+00;  9.9999998E-03;  7.0287757E-02;9462;  8.3095139E-01;  0.0000000E+00; -1.3397700E-02;  9.9574213E+02;  1.0794418E-01; -3.3390066E+03;3;  1.2014135E+01;  0.0000000E+00;  1.2300865E+01;0;  4.5294690E-01;  3.4325152E+04;  0.0000000E+00; -2.4121065E-01;  4.0000000E+04;  0.0000000E+00;  3.9655453E+04;  5.5307728E-01;  0.0000000E+00; -1.0013039E-01;  4.9154326E+03;
  1.3081518E+00;  9.9999998E-03;  8.0309190E-02;9463;  8.3339405E-01;  0.0000000E+00; -1.4785633E-02;  9.9580060E+02;  1.0794220E-01; -3.2930632E+03;3;  1.6196861E+01;  0.0000000E+00;  1.4101347E+01;0;  3.9119262E-01;  3.4334844E+04;  0.0000000E+00; -3.0304480E-01;  4.0000000E+04;  0.0000000E+00;  3.9650676E+04;  4.8003227E-01;  0.0000000E+00; -8.8839650E-02;  4.5639087E+03;
  1.3081653E+00;  9.9999998E-03;  9.0325348E-02;9464;  8.3600634E-01;  0.0000000E+00; -1.5994340E-02;  9.9587891E+02;  1.0794057E-01; -3.2316128E+03;3;  2.0812611E+01;  0.0000000E+00;  1.5916951E+01;0;  3.2561985E-01;  3.4346566E+04;  0.0000000E+00; -3.2625097E-01;  4.0000000E+04;  0.0000000E+00;  3.9644824E+04;  4.0205500E-01;  0.0000000E+00; -7.6435141E-02;  4.1165239E+03;
  1.3081524E+00;  9.9999998E-03;  1.0033970E-01;9465;  8.3880430E-01;  0.0000000E+00; -1.7032787E-02;  9.9596960E+02;  1.0793985E-01; -3.1605520E+03;3;  2.4401707E+01;  0.0000000E+00;  1.7272419E+01;0;  2.5853813E-01;  3.4359469E+04;  0.0000000E+00; -2.2309530E-01;  4.0000000E+04;  0.0000000E+00;  3.9638309E+04;  3.2139835E-01;  0.0000000E+00; -6.2860206E-02;  3.6234893E+03;
  1.3081162E+00;  9.9999998E-03;  1.1035564E-01;9466;  8.4168392E-01;  0.0000000E+00; -1.7951770E-02;  9.9605670E+02;  1.0793879E-01; -3.0923486E+03;3;  2.4383101E+01;  0.0000000E+00;  1.7877522E+01;0;  1.9238770E-01;  3.4371867E+04;  0.0000000E+00;  1.6163395E-01;  4.0000000E+04;  0.0000000E+00;  3.9632289E+04;  2.4034251E-01;  0.0000000E+00; -4.7954805E-02;  3.2030537E+03;
  1.3080666E+00;  9.9999998E-03;  1.2037689E-01;9467;  8.4436607E-01;  0.0000000E+00; -1.8810140E-02;  9.9611682E+02;  1.0793696E-01; -3.0453003E+03;3;  2.1648472E+01;  0.0000000E+00;  1.7950745E+01;0;  1.2931657E-01;  3.4381910E+04;  0.0000000E+00;  1.0566614E+00;  4.0000000E+04;  0.0000000E+00;  3.9627621E+04;  1.6084704E-01;  0.0000000E+00; -3.1530473E-02;  3.1926870E+03;
  1.3080091E+00;  9.9999998E-03;  1.3040262E-01;9468;  8.4662473E-01;  0.0000000E+00; -1.9543825E-02;  9.9613892E+02;  1.0793521E-01; -3.0280898E+03;3;  1.9210875E+01;  0.0000000E+00;  1.8758972E+01;0;  7.0776865E-02;  3.4386965E+04;  0.0000000E+00;  2.7473798E+00;  4.0000000E+04;  0.0000000E+00;  3.9625414E+04;  8.4244817E-02;  0.0000000E+00; -1.3467950E-02;  4.2218208E+03;
  1.3079438E+00;  9.9999998E-03;  1.4042854E-01;9469;  8.4850419E-01;  0.0000000E+00; -2.0043509E-02;  9.9608777E+02;  1.0793343E-01; -3.0683489E+03;3;  1.8066963E+01;  0.0000000E+00;  1.9701914E+01;0;  1.7469388E-02;  3.4384211E+04;  0.0000000E+00;  5.5308790E+00;  4.0000000E+04;  0.0000000E+00;  3.9627039E+04;  1.1237523E-02;  0.0000000E+00;  6.2318649E-03;  6.6801157E+03;
  1.3078630E+00;  9.9999998E-03;  1.5045488E-01;9470;  8.5022706E-01;  0.0000000E+00; -2.0308120E-02;  9.9594940E+02;  1.0793108E-01; -3.1770911E+03;3;  1.8447521E+01;  0.0000000E+00;  2.0089838E+01;0; -3.0650744E-02;  3.4371191E+04;  0.0000000E+00;  9.6409588E+00;  4.0000000E+04;  0.0000000E+00;  3.9633793E+04; -5.8015987E-02;  0.0000000E+00;  2.7365243E-02;  1.0601241E+04;
  1.3077581E+00;  9.9999998E-03;  1.6048807E-01;9471;  8.5197741E-01;  0.0000000E+00; -2.0251123E-02;  9.9572748E+02;  1.0793006E-01; -3.3514089E+03;3;  1.9586449E+01;  0.0000000E+00;  2.0380930E+01;0; -7.4122712E-02;  3.4346594E+04;  0.0000000E+00;  1.5157701E+01;  4.0000000E+04;  0.0000000E+00;  3.9646137E+04; -1.2370963E-01;  0.0000000E+00;  4.9586926E-02;  1.5933132E+04;
  1.3076187E+00;  9.9999998E-03;  1.7053927E-01;9472;  8.5397971E-01;  0.0000000E+00; -1.9809602E-02;  9.9542090E+02;  1.0793089E-01; -3.5922903E+03;3;  2.1375156E+01;  0.0000000E+00;  2.0457207E+01;0; -1.1363813E-01;  3.4311574E+04;  0.0000000E+00;  2.1878773E+01;  4.0000000E+04;  0.0000000E+00;  3.9663344E+04; -1.8606737E-01;  0.0000000E+00;  7.2429247E-02;  2.2438133E+04;
  1.3074436E+00;  9.9999998E-03;  1.8061988E-01;9473;  8.5646749E-01;  0.0000000E+00; -1.8871553E-02;  9.9503583E+02;  1.0793222E-01; -3.8948677E+03;3;  2.3574062E+01;  0.0000000E+00;  2.0447487E+01;0; -1.4951697E-01;  3.4270020E+04;  0.0000000E+00;  2.9156397E+01;  4.0000000E+04;  0.0000000E+00;  3.9681020E+04; -2.4493884E-01;  0.0000000E+00;  9.5421858E-02;  2.9476363E+04;
  1.3072544E+00;  9.9999998E-03;  1.9073589E-01;9474;  8.5970372E-01;  0.0000000E+00; -1.7360957E-02;  9.9451862E+02;  1.0793544E-01; -4.3012612E+03;3;  2.6066004E+01;  0.0000000E+00;  2.0436056E+01;0; -1.8124714E-01;  3.4225246E+04;  0.0000000E+00;  3.5541958E+01;  4.0000000E+04;  0.0000000E+00;  3.9690320E+04; -2.9935184E-01;  0.0000000E+00;  1.1810470E-01;  3.5654438E+04;
  1.3070800E+00;  9.9999998E-03;  2.0086426E-01;9475;  8.6391842E-01;  0.0000000E+00; -1.5326093E-02;  9.9384479E+02;  1.0793976E-01; -4.8306494E+03;3;  2.8865812E+01;  0.0000000E+00;  2.0580214E+01;0; -2.0745067E-01;  3.4179594E+04;  0.0000000E+00;  3.8855110E+01;  4.0000000E+04;  0.0000000E+00;  3.9686516E+04; -3.4711224E-01;  0.0000000E+00;  1.3966157E-01;  3.8966262E+04;
  1.3069228E+00;  9.9999998E-03;  2.1096569E-01;9476;  8.6909378E-01;  0.0000000E+00; -1.2888324E-02;  9.9320428E+02;  1.0794286E-01; -5.3339536E+03;3;  3.1840034E+01;  0.0000000E+00;  2.0890202E+01;0; -2.2667578E-01;  3.4139156E+04;  0.0000000E+00;  3.7398308E+01;  4.0000000E+04;  0.0000000E+00;  3.9679656E+04; -3.8544935E-01;  0.0000000E+00;  1.5877357E-01;  3.7924445E+04;
  1.3067504E+00;  9.9999998E-03;  2.2103105E-01;9477;  8.7513119E-01;  0.0000000E+00; -9.7802300E-03;  9.9297705E+02;  1.0794430E-01; -5.5130464E+03;3;  3.4693386E+01;  0.0000000E+00;  2.0936941E+01;0; -2.3417662E-01;  3.4121793E+04;  0.0000000E+00;  3.1261822E+01;  4.0000000E+04;  0.0000000E+00;  3.9679836E+04; -4.1144362E-01;  0.0000000E+00;  1.7726700E-01;  3.2661789E+04;
  1.3065391E+00;  9.9999998E-03;  2.3107779E-01;9478;  8.8190043E-01;  0.0000000E+00; -5.9000589E-03;  9.9337085E+02;  1.0794394E-01; -5.2047231E+03;3;  3.7138451E+01;  0.0000000E+00;  2.0963276E+01;0; -2.2480103E-01;  3.4145965E+04;  0.0000000E+00;  2.1910524E+01;  4.0000000E+04;  0.0000000E+00;  3.9683473E+04; -4.2260766E-01;  0.0000000E+00;  1.9780663E-01;  2.4605293E+04;
  1.3189169E+00;  9.9999998E-03;  7.0294708E-02;9515;  8.3937001E-01;  0.0000000E+00; -1.4683815E-02;  9.9609631E+02;  1.0750600E-01; -3.0346458E+03;3; -3.6172253E+01;  0.0000000E+00;  8.4117699E+00;0;  5.6804526E-01;  3.4664664E+04;  0.0000000E+00; -4.8571864E-01;  4.0000000E+04;  0.0000000E+00;  3.9615801E+04;  6.7478573E-01;  0.0000000E+00; -1.0674049E-01;  3.7722798E+03;
  1.3189431E+00;  9.9999998E-03;  8.0314122E-02;9516;  8.3917713E-01;  0.0000000E+00; -1.6254829E-02;  9.9618463E+02;  1.0750541E-01; -2.9659097E+03;3; -2.9007761E+01;  0.0000000E+00;  9.4271402E+00;0;  4.9544942E-01;  3.4675680E+04;  0.0000000E+00; -5.5981898E-01;  4.0000000E+04;  0.0000000E+00;  3.9611418E+04;  5.9110606E-01;  0.0000000E+00; -9.5656648E-02;  3.4477026E+03;
  1.3189418E+00;  9.9999998E-03;  9.0330623E-02;9517;  8.3881265E-01;  0.0000000E+00; -1.7674990E-02;  9.9626349E+02;  1.0750441E-01; -2.9046123E+03;3; -1.4370213E+01;  0.0000000E+00;  1.0186279E+01;0;  4.1793433E-01;  3.4687203E+04;  0.0000000E+00; -5.0393897E-01;  4.0000000E+04;  0.0000000E+00;  3.9606082E+04;  5.0184369E-01;  0.0000000E+00; -8.3909370E-02;  3.0585537E+03;
  1.3189150E+00;  9.9999998E-03;  1.0034769E-01;9518;  8.3949596E-01;  0.0000000E+00; -1.8900536E-02;  9.9633441E+02;  1.0750385E-01; -2.8495403E+03;3;  4.9227462E+00;  0.0000000E+00;  1.2034899E+01;0;  3.3804360E-01;  3.4697734E+04;  0.0000000E+00; -1.6570503E-01;  4.0000000E+04;  0.0000000E+00;  3.9600715E+04;  4.0956098E-01;  0.0000000E+00; -7.1517378E-02;  2.6899402E+03;
  1.3188709E+00;  9.9999998E-03;  1.1036889E-01;9519;  8.4135252E-01;  0.0000000E+00; -1.9918222E-02;  9.9636493E+02;  1.0750175E-01; -2.8259243E+03;3;  1.8156460E+01;  0.0000000E+00;  1.4445472E+01;0;  2.5862911E-01;  3.4705598E+04;  0.0000000E+00;  6.7856890E-01;  4.0000000E+04;  0.0000000E+00;  3.9596508E+04;  3.1696978E-01;  0.0000000E+00; -5.8340676E-02;  2.6346250E+03;
  1.3188138E+00;  9.9999998E-03;  1.2039713E-01;9520;  8.4372032E-01;  0.0000000E+00; -2.0822885E-02;  9.9635071E+02;  1.0749974E-01; -2.8371384E+03;3;  2.0835894E+01;  0.0000000E+00;  1.5431570E+01;0;  1.8225603E-01;  3.4708543E+04;  0.0000000E+00;  2.3091693E+00;  4.0000000E+04;  0.0000000E+00;  3.9594508E+04;  2.2639339E-01;  0.0000000E+00; -4.4137355E-02;  3.5047744E+03;
  1.3187412E+00;  9.9999998E-03;  1.3043083E-01;9521;  8.4574544E-01;  0.0000000E+00; -2.1599839E-02;  9.9628320E+02;  1.0749892E-01; -2.8898223E+03;3;  1.8222599E+01;  0.0000000E+00;  1.6089325E+01;0;  1.1051974E-01;  3.4704129E+04;  0.0000000E+00;  5.0220265E+00;  4.0000000E+04;  0.0000000E+00;  3.9595934E+04;  1.3921817E-01;  0.0000000E+00; -2.8698429E-02;  5.6894829E+03;
  1.3186492E+00;  9.9999998E-03;  1.4046904E-01;9522;  8.4728181E-01;  0.0000000E+00; -2.2171099E-02;  9.9613513E+02;  1.0749787E-01; -3.0051746E+03;3;  1.7016907E+01;  0.0000000E+00;  1.6938126E+01;0;  4.4149153E-02;  3.4690254E+04;  0.0000000E+00;  9.0708294E+00;  4.0000000E+04;  0.0000000E+00;  3.9602051E+04;  5.6044281E-02;  0.0000000E+00; -1.1895127E-02;  9.2225996E+03;
  1.3185304E+00;  9.9999998E-03;  1.5051340E-01;9523;  8.4854323E-01;  0.0000000E+00; -2.2430820E-02;  9.9590637E+02;  1.0749682E-01; -3.1833765E+03;3;  1.7342030E+01;  0.0000000E+00;  1.7560291E+01;0; -1.6678037E-02;  3.4665945E+04;  0.0000000E+00;  1.4582299E+01;  4.0000000E+04;  0.0000000E+00;  3.9613395E+04; -2.2971699E-02;  0.0000000E+00;  6.2936614E-03;  1.4090844E+04;
  1.3183765E+00;  9.9999998E-03;  1.6057158E-01;9524;  8.4978443E-01;  0.0000000E+00; -2.2289174E-02;  9.9561804E+02;  1.0749756E-01; -3.4080256E+03;3;  1.8608789E+01;  0.0000000E+00;  1.8122381E+01;0; -7.2204217E-02;  3.4632621E+04;  0.0000000E+00;  2.1476595E+01;  4.0000000E+04;  0.0000000E+00;  3.9629707E+04; -9.8004796E-02;  0.0000000E+00;  2.5800580E-02;  2.0178812E+04;
  1.3181902E+00;  9.9999998E-03;  1.7065299E-01;9525;  8.5132164E-01;  0.0000000E+00; -2.1668049E-02;  9.9528351E+02;  1.0749955E-01; -3.6688127E+03;3;  2.0732975E+01;  0.0000000E+00;  1.8313467E+01;0; -1.2249811E-01;  3.4593195E+04;  0.0000000E+00;  2.9294115E+01;  4.0000000E+04;  0.0000000E+00;  3.9648109E+04; -1.6903570E-01;  0.0000000E+00;  4.6537589E-02;  2.7070268E+04;
  1.3179938E+00;  9.9999998E-03;  1.8076698E-01;9526;  8.5343224E-01;  0.0000000E+00; -2.0552065E-02;  9.9483392E+02;  1.0750203E-01; -4.0191680E+03;3;  2.3241417E+01;  0.0000000E+00;  1.8445538E+01;0; -1.6729441E-01;  3.4550422E+04;  0.0000000E+00;  3.6767242E+01;  4.0000000E+04;  0.0000000E+00;  3.9660695E+04; -2.3550498E-01;  0.0000000E+00;  6.8210565E-02;  3.3663020E+04;
  1.3178164E+00;  9.9999998E-03;  1.9090471E-01;9527;  8.5636282E-01;  0.0000000E+00; -1.9036636E-02;  9.9417749E+02;  1.0750505E-01; -4.5305962E+03;3;  2.6016781E+01;  0.0000000E+00;  1.8566929E+01;0; -2.0587486E-01;  3.4504625E+04;  0.0000000E+00;  4.1619034E+01;  4.0000000E+04;  0.0000000E+00;  3.9659738E+04; -2.9584762E-01;  0.0000000E+00;  8.9972757E-02;  3.8036629E+04;
  1.3176557E+00;  9.9999998E-03;  2.0102772E-01;9528;  8.6024809E-01;  0.0000000E+00; -1.7307794E-02;  9.9347186E+02;  1.0750820E-01; -5.0803276E+03;3;  2.9035528E+01;  0.0000000E+00;  1.8490908E+01;0; -2.3751742E-01;  3.4461945E+04;  0.0000000E+00;  4.2017906E+01;  4.0000000E+04;  0.0000000E+00;  3.9650031E+04; -3.4747162E-01;  0.0000000E+00;  1.0995421E-01;  3.8661305E+04;
  1.3174827E+00;  9.9999998E-03;  2.1110968E-01;9529;  8.6501652E-01;  0.0000000E+00; -1.5217626E-02;  9.9309662E+02;  1.0750955E-01; -5.3731606E+03;3;  3.2156208E+01;  0.0000000E+00;  1.8800959E+01;0; -2.6010376E-01;  3.4438844E+04;  0.0000000E+00;  3.7862957E+01;  4.0000000E+04;  0.0000000E+00;  3.9645145E+04; -3.8768536E-01;  0.0000000E+00;  1.2758160E-01;  3.5425953E+04;
  1.3172742E+00;  9.9999998E-03;  2.2116128E-01;9530;  8.7062156E-01;  0.0000000E+00; -1.2506391E-02;  9.9337469E+02;  1.0750999E-01; -5.1576050E+03;3;  3.5206593E+01;  0.0000000E+00;  1.9095230E+01;0; -2.6896080E-01;  3.4454656E+04;  0.0000000E+00;  3.0031338E+01;  4.0000000E+04;  0.0000000E+00;  3.9647820E+04; -4.1366997E-01;  0.0000000E+00;  1.4470917E-01;  2.9101633E+04;
  1.3170342E+00;  9.9999998E-03;  2.3120379E-01;9531;  8.7713027E-01;  0.0000000E+00; -9.2146220E-03;  9.9426385E+02;  1.0751057E-01; -4.4663535E+03;3;  3.7847672E+01;  0.0000000E+00;  1.9228157E+01;0; -2.5999662E-01;  3.4516754E+04;  0.0000000E+00;  1.9503130E+01;  4.0000000E+04;  0.0000000E+00;  3.9648191E+04; -4.2219824E-01;  0.0000000E+00;  1.6220161E-01;  2.0500115E+04;
  1.3296560E+00;  9.9999998E-03;  7.0306338E-02;9567;  8.5503215E-01;  0.0000000E+00; -1.5768904E-02;  9.9647577E+02;  1.0712618E-01; -2.7126997E+03;3; -4.5954647E+01;  0.0000000E+00;  5.4674668E+00;0;  6.7504925E-01;  3.4976359E+04;  0.0000000E+00; -8.2921326E-01;  4.0000000E+04;  0.0000000E+00;  3.9571887E+04;  7.8378057E-01;  0.0000000E+00; -1.0873131E-01;  2.6658379E+03;
  1.3296673E+00;  9.9999998E-03;  8.0328897E-02;9568;  8.5212231E-01;  0.0000000E+00; -1.7442893E-02;  9.9656732E+02;  1.0712517E-01; -2.6422000E+03;3; -4.3753208E+01;  0.0000000E+00;  7.2113242E+00;0;  5.9361291E-01;  3.4987137E+04;  0.0000000E+00; -8.4023660E-01;  4.0000000E+04;  0.0000000E+00;  3.9568297E+04;  6.9222057E-01;  0.0000000E+00; -9.8607667E-02;  2.4046846E+03;
  1.3296528E+00;  9.9999998E-03;  9.0350583E-02;9569;  8.4803426E-01;  0.0000000E+00; -1.8637940E-02;  9.9663135E+02;  1.0712419E-01; -2.5929629E+03;3; -3.9150028E+01;  0.0000000E+00;  8.8631668E+00;0;  5.0598860E-01;  3.4996570E+04;  0.0000000E+00; -5.6242818E-01;  4.0000000E+04;  0.0000000E+00;  3.9564555E+04;  5.9429562E-01;  0.0000000E+00; -8.8307001E-02;  2.1193477E+03;
  1.3296165E+00;  9.9999998E-03;  1.0037542E-01;9570;  8.4377813E-01;  0.0000000E+00; -1.9645210E-02;  9.9665613E+02;  1.0712275E-01; -2.5739688E+03;3; -2.6072706E+01;  0.0000000E+00;  7.3841596E+00;0;  4.1433802E-01;  3.5002992E+04;  0.0000000E+00;  2.2665672E-01;  4.0000000E+04;  0.0000000E+00;  3.9561227E+04;  4.9221337E-01;  0.0000000E+00; -7.7875338E-02;  2.0490833E+03;
  1.3295600E+00;  9.9999998E-03;  1.1040540E-01;9571;  8.4202570E-01;  0.0000000E+00; -2.0873126E-02;  9.9663721E+02;  1.0712214E-01; -2.5886562E+03;3; -5.1675092E-02;  0.0000000E+00;  7.0861406E+00;0;  3.2183009E-01;  3.5004344E+04;  0.0000000E+00;  1.8064758E+00;  4.0000000E+04;  0.0000000E+00;  3.9559891E+04;  3.8914549E-01;  0.0000000E+00; -6.7315385E-02;  2.7988577E+03;
  1.3294791E+00;  9.9999998E-03;  1.2044136E-01;9572;  8.4310776E-01;  0.0000000E+00; -2.1944201E-02;  9.9656494E+02;  1.0712197E-01; -2.6445227E+03;3;  1.6100664E+01;  0.0000000E+00;  1.0217205E+01;0;  2.3236558E-01;  3.4998926E+04;  0.0000000E+00;  4.4802256E+00;  4.0000000E+04;  0.0000000E+00;  3.9561543E+04;  2.8867400E-01;  0.0000000E+00; -5.6308419E-02;  4.7636045E+03;
  1.3293715E+00;  9.9999998E-03;  1.3048437E-01;9573;  8.4485477E-01;  0.0000000E+00; -2.2832349E-02;  9.9641144E+02;  1.0712020E-01; -2.7629731E+03;3;  1.7606995E+01;  0.0000000E+00;  1.1630495E+01;0;  1.4800462E-01;  3.4985191E+04;  0.0000000E+00;  8.5196857E+00;  4.0000000E+04;  0.0000000E+00;  3.9567387E+04;  1.9242416E-01;  0.0000000E+00; -4.4419538E-02;  7.9707163E+03;
  1.3292302E+00;  9.9999998E-03;  1.4053725E-01;9574;  8.4606010E-01;  0.0000000E+00; -2.3452176E-02;  9.9621082E+02;  1.0712018E-01; -2.9178486E+03;3;  1.6044765E+01;  0.0000000E+00;  1.2974467E+01;0;  6.8954751E-02;  3.4962934E+04;  0.0000000E+00;  1.4104110E+01;  4.0000000E+04;  0.0000000E+00;  3.9578098E+04;  1.0029165E-01;  0.0000000E+00; -3.1336904E-02;  1.2442997E+04;
  1.3290526E+00;  9.9999998E-03;  1.5060580E-01;9575;  8.4685081E-01;  0.0000000E+00; -2.3658821E-02;  9.9597906E+02;  1.0712126E-01; -3.0968376E+03;3;  1.6179770E+01;  0.0000000E+00;  1.4104609E+01;0; -4.4542253E-03;  3.4933977E+04;  0.0000000E+00;  2.1226213E+01;  4.0000000E+04;  0.0000000E+00;  3.9593184E+04;  1.2218691E-02;  0.0000000E+00; -1.6672917E-02;  1.8129596E+04;
  1.3288438E+00;  9.9999998E-03;  1.6069576E-01;9576;  8.4760207E-01;  0.0000000E+00; -2.3380585E-02;  9.9572028E+02;  1.0712232E-01; -3.2968323E+03;3;  1.7533260E+01;  0.0000000E+00;  1.5014043E+01;0; -7.1841359E-02;  3.4901496E+04;  0.0000000E+00;  2.9549789E+01;  4.0000000E+04;  0.0000000E+00;  3.9610039E+04; -7.1699917E-02;  0.0000000E+00; -1.4144270E-04;  2.4748648E+04;
  1.3286271E+00;  9.9999998E-03;  1.7081349E-01;9577;  8.4871757E-01;  0.0000000E+00; -2.2612978E-02;  9.9540479E+02;  1.0712521E-01; -3.5406084E+03;3;  1.9972672E+01;  0.0000000E+00;  1.5502909E+01;0; -1.3254406E-01;  3.4867066E+04;  0.0000000E+00;  3.8037228E+01;  4.0000000E+04;  0.0000000E+00;  3.9623121E+04; -1.5093917E-01;  0.0000000E+00;  1.8395105E-02;  3.1486623E+04;
  1.3284439E+00;  9.9999998E-03;  1.8095750E-01;9578;  8.5050470E-01;  0.0000000E+00; -2.1471422E-02;  9.9486340E+02;  1.0712812E-01; -3.9584497E+03;3;  2.2850233E+01;  0.0000000E+00;  1.5918306E+01;0; -1.8577608E-01;  3.4827535E+04;  0.0000000E+00;  4.4355663E+01;  4.0000000E+04;  0.0000000E+00;  3.9623918E+04; -2.2419541E-01;  0.0000000E+00;  3.8419329E-02;  3.6577719E+04;
  1.3282899E+00;  9.9999998E-03;  1.9109854E-01;9579;  8.5314715E-01;  0.0000000E+00; -2.0207489E-02;  9.9414459E+02;  1.0713025E-01; -4.5130327E+03;3;  2.5924368E+01;  0.0000000E+00;  1.6217503E+01;0; -2.3111196E-01;  3.4786387E+04;  0.0000000E+00;  4.6295479E+01;  4.0000000E+04;  0.0000000E+00;  3.9612082E+04; -2.8929016E-01;  0.0000000E+00;  5.8178201E-02;  3.8339223E+04;
  1.3281318E+00;  9.9999998E-03;  2.0119941E-01;9580;  8.5666746E-01;  0.0000000E+00; -1.8887594E-02;  9.9364642E+02;  1.0713217E-01; -4.8977476E+03;3;  2.9231060E+01;  0.0000000E+00;  1.6323088E+01;0; -2.6799169E-01;  3.4759238E+04;  0.0000000E+00;  4.3526157E+01;  4.0000000E+04;  0.0000000E+00;  3.9601512E+04; -3.4362644E-01;  0.0000000E+00;  7.5634740E-02;  3.6455223E+04;
  1.3279394E+00;  9.9999998E-03;  2.1125868E-01;9581;  8.6109221E-01;  0.0000000E+00; -1.7140662E-02;  9.9378253E+02;  1.0713258E-01; -4.7937383E+03;3;  3.2527126E+01;  0.0000000E+00;  1.6493675E+01;0; -2.9240996E-01;  3.4767680E+04;  0.0000000E+00;  3.6967133E+01;  4.0000000E+04;  0.0000000E+00;  3.9601273E+04; -3.8417706E-01;  0.0000000E+00;  9.1767110E-02;  3.1566951E+04;
  1.3277099E+00;  9.9999998E-03;  2.2129898E-01;9582;  8.6643761E-01;  0.0000000E+00; -1.4855659E-02;  9.9462640E+02;  1.0713297E-01; -4.1440098E+03;3;  3.5684834E+01;  0.0000000E+00;  1.6933313E+01;0; -3.0063376E-01;  3.4823297E+04;  0.0000000E+00;  2.7173677E+01;  4.0000000E+04;  0.0000000E+00;  3.9605156E+04; -4.0803578E-01;  0.0000000E+00;  1.0740203E-01;  2.4188154E+04;
  1.3274609E+00;  9.9999998E-03;  2.3133805E-01;9583;  8.7269551E-01;  0.0000000E+00; -1.2402078E-02;  9.9592059E+02;  1.0713451E-01; -3.1467024E+03;3;  3.8476879E+01;  0.0000000E+00;  1.7236599E+01;0; -2.9401952E-01;  3.4919449E+04;  0.0000000E+00;  1.5074665E+01;  4.0000000E+04;  0.0000000E+00;  3.9600969E+04; -4.1294765E-01;  0.0000000E+00;  1.1892814E-01;  1.4654896E+04;
  1.3378712E+00;  9.9999998E-03;  2.3147245E-01;9633;  8.6900336E-01;  0.0000000E+00; -1.4722042E-02;  9.9799048E+02;  1.0680999E-01; -1.5337469E+03;3;  3.9049152E+01;  0.0000000E+00;  1.4363822E+01;0; -3.1162518E-01;  3.5328363E+04;  0.0000000E+00;  7.4292216E+00;  4.0000000E+04;  0.0000000E+00;  3.9547207E+04; -3.9074716E-01;  0.0000000E+00;  7.9121962E-02;  6.7203169E+03;
  1.3381125E+00;  9.9999998E-03;  2.2143768E-01;9632;  8.6263794E-01;  0.0000000E+00; -1.6801184E-02;  9.9648547E+02;  1.0680690E-01; -2.6817429E+03;3;  3.6151310E+01;  0.0000000E+00;  1.4294272E+01;0; -3.2638487E-01;  3.5213621E+04;  0.0000000E+00;  2.0529011E+01;  4.0000000E+04;  0.0000000E+00;  3.9555199E+04; -3.9344168E-01;  0.0000000E+00;  6.7056812E-02;  1.6835037E+04;
  1.3383539E+00;  9.9999998E-03;  2.1140462E-01;9631;  8.5734278E-01;  0.0000000E+00; -1.8787213E-02;  9.9512500E+02;  1.0680567E-01; -3.7188755E+03;3;  3.2831280E+01;  0.0000000E+00;  1.3914374E+01;0; -3.2356042E-01;  3.5119172E+04;  0.0000000E+00;  3.2454567E+01;  4.0000000E+04;  0.0000000E+00;  3.9552094E+04; -3.7457836E-01;  0.0000000E+00;  5.1017944E-02;  2.5308393E+04;
  1.3385617E+00;  9.9999998E-03;  2.0136441E-01;9630;  8.5321212E-01;  0.0000000E+00; -2.0189999E-02;  9.9438843E+02;  1.0680500E-01; -4.2798169E+03;3;  2.9319048E+01;  0.0000000E+00;  1.3502327E+01;0; -2.9911476E-01;  3.5072297E+04;  0.0000000E+00;  4.1652157E+01;  4.0000000E+04;  0.0000000E+00;  3.9546945E+04; -3.3543915E-01;  0.0000000E+00;  3.6324378E-02;  3.1656428E+04;
  1.3387297E+00;  9.9999998E-03;  1.9129378E-01;9629;  8.5005265E-01;  0.0000000E+00; -2.1085164E-02;  9.9442133E+02;  1.0680486E-01; -4.2539458E+03;3;  2.5789377E+01;  0.0000000E+00;  1.3244055E+01;0; -2.5821781E-01;  3.5070844E+04;  0.0000000E+00;  4.7566391E+01;  4.0000000E+04;  0.0000000E+00;  3.9551906E+04; -2.7999708E-01;  0.0000000E+00;  2.1779282E-02;  3.5640871E+04;
  1.3388689E+00;  9.9999998E-03;  1.8117295E-01;9628;  8.4775501E-01;  0.0000000E+00; -2.1845868E-02;  9.9501544E+02;  1.0680357E-01; -3.8003186E+03;3;  2.2314688E+01;  0.0000000E+00;  1.2854545E+01;0; -2.0603788E-01;  3.5099430E+04;  0.0000000E+00;  4.9543724E+01;  4.0000000E+04;  0.0000000E+00;  3.9568184E+04; -2.1158314E-01;  0.0000000E+00;  5.5452632E-03;  3.6774168E+04;
  1.3390162E+00;  9.9999998E-03;  1.7101774E-01;9627;  8.4628087E-01;  0.0000000E+00; -2.2716366E-02;  9.9567883E+02;  1.0680193E-01; -3.2940005E+03;3;  1.9033623E+01;  0.0000000E+00;  1.2248206E+01;0; -1.4485027E-01;  3.5135262E+04;  0.0000000E+00;  4.6490135E+01;  4.0000000E+04;  0.0000000E+00;  3.9581375E+04; -1.3302085E-01;  0.0000000E+00; -1.1829427E-02;  3.4410188E+04;
  1.3392094E+00;  9.9999998E-03;  1.6086733E-01;9626;  8.4553498E-01;  0.0000000E+00; -2.3494765E-02;  9.9606390E+02;  1.0679889E-01; -2.9998477E+03;3;  1.6240206E+01;  0.0000000E+00;  1.1147736E+01;0; -7.4763320E-02;  3.5164309E+04;  0.0000000E+00;  3.9040623E+01;  4.0000000E+04;  0.0000000E+00;  3.9580492E+04; -4.6865761E-02;  0.0000000E+00; -2.7897561E-02;  2.9052592E+04;
  1.3394454E+00;  9.9999998E-03;  1.5074131E-01;9625;  8.4521598E-01;  0.0000000E+00; -2.3841806E-02;  9.9623718E+02;  1.0679699E-01; -2.8670503E+03;3;  1.4895555E+01;  0.0000000E+00;  9.4119778E+00;0;  3.5314746E-03;  3.5187395E+04;  0.0000000E+00;  2.9785261E+01;  4.0000000E+04;  0.0000000E+00;  3.9568832E+04;  4.4759523E-02;  0.0000000E+00; -4.1228049E-02;  2.2469721E+04;
  1.3396810E+00;  9.9999998E-03;  1.4064272E-01;9624;  8.4480995E-01;  0.0000000E+00; -2.3601711E-02;  9.9637256E+02;  1.0679569E-01; -2.7631511E+03;3;  1.5077896E+01;  0.0000000E+00;  7.7227659E+00;0;  8.8524625E-02;  3.5210109E+04;  0.0000000E+00;  2.0980852E+01;  4.0000000E+04;  0.0000000E+00;  3.9553453E+04;  1.4041014E-01;  0.0000000E+00; -5.1885515E-02;  1.6190021E+04;
  1.3398879E+00;  9.9999998E-03;  1.3056806E-01;9623;  8.4388548E-01;  0.0000000E+00; -2.2924859E-02;  9.9651813E+02;  1.0679501E-01; -2.6516721E+03;3;  1.5045119E+01;  0.0000000E+00;  5.8143744E+00;0;  1.7899802E-01;  3.5232348E+04;  0.0000000E+00;  1.3616706E+01;  4.0000000E+04;  0.0000000E+00;  3.9539238E+04;  2.3966444E-01;  0.0000000E+00; -6.0666416E-02;  1.0903726E+04;
  1.3400569E+00;  9.9999998E-03;  1.2051029E-01;9622;  8.4305507E-01;  0.0000000E+00; -2.1879887E-02;  9.9666339E+02;  1.0679465E-01; -2.5405754E+03;3;  4.5759678E+00;  0.0000000E+00;  2.8798752E+00;0;  2.7568939E-01;  3.5250746E+04;  0.0000000E+00;  7.9486251E+00;  4.0000000E+04;  0.0000000E+00;  3.9528973E+04;  3.4384868E-01;  0.0000000E+00; -6.8159275E-02;  6.8114370E+03;
  1.3401823E+00;  9.9999998E-03;  1.1046401E-01;9621;  8.4518909E-01;  0.0000000E+00; -2.0558197E-02;  9.9678229E+02;  1.0679402E-01; -2.4496938E+03;3; -2.2692738E+01;  0.0000000E+00;  2.6221564E+00;0;  3.7898904E-01;  3.5263594E+04;  0.0000000E+00;  3.9134040E+00;  4.0000000E+04;  0.0000000E+00;  3.9523031E+04;  4.5412502E-01;  0.0000000E+00; -7.5135969E-02;  3.9068452E+03;
  1.3402700E+00;  9.9999998E-03;  1.0042492E-01;9620;  8.5286182E-01;  0.0000000E+00; -2.0011203E-02;  9.9686279E+02;  1.0679451E-01; -2.3882012E+03;3; -4.1763302E+01;  0.0000000E+00;  6.6348891E+00;0;  4.8500943E-01;  3.5269816E+04;  0.0000000E+00;  1.2815700E+00;  4.0000000E+04;  0.0000000E+00;  3.9520656E+04;  5.6761193E-01;  0.0000000E+00; -8.2602508E-02;  2.1309851E+03;
  1.3403463E+00;  9.9999998E-03;  7.0331112E-02;9617;  8.7303108E-01;  0.0000000E+00; -1.6640356E-02;  9.9677856E+02;  1.0679677E-01; -2.4521069E+03;3; -4.9906063E+01;  0.0000000E+00;  1.2962656E+00;0;  7.6985765E-01;  3.5256418E+04;  0.0000000E+00; -1.1705455E+00;  4.0000000E+04;  0.0000000E+00;  3.9524496E+04;  8.7628955E-01;  0.0000000E+00; -1.0643190E-01;  1.7146803E+03;
  1.3403500E+00;  9.9999998E-03;  8.0361292E-02;9618;  8.6795336E-01;  0.0000000E+00; -1.8454880E-02;  9.9685791E+02;  1.0679657E-01; -2.3917095E+03;3; -4.9038589E+01;  0.0000000E+00;  2.9453306E+00;0;  6.8224728E-01;  3.5264719E+04;  0.0000000E+00; -9.6692252E-01;  4.0000000E+04;  0.0000000E+00;  3.9522445E+04;  7.8041655E-01;  0.0000000E+00; -9.8169282E-02;  1.5267377E+03;
  1.3403243E+00;  9.9999998E-03;  9.0391174E-02;9619;  8.6115849E-01;  0.0000000E+00; -1.9600188E-02;  9.9689117E+02;  1.0679574E-01; -2.3664155E+03;3; -4.6407211E+01;  0.0000000E+00;  4.7875237E+00;0;  5.8683896E-01;  3.5269730E+04;  0.0000000E+00; -2.4243335E-01;  4.0000000E+04;  0.0000000E+00;  3.9520867E+04;  6.7708457E-01;  0.0000000E+00; -9.0245582E-02;  1.4643301E+03;
  1.3483211E+00;  9.9999998E-03;  2.3159745E-01;9681;  8.6599630E-01;  0.0000000E+00; -1.5481047E-02;  9.9980554E+02;  1.0652918E-01; -1.4663467E+02;3;  3.9736412E+01;  0.0000000E+00;  1.0984234E+01;0; -3.0026332E-01;  3.5690832E+04;  0.0000000E+00; -1.1824143E+00;  4.0000000E+04;  0.0000000E+00;  3.9495625E+04; -3.5518926E-01;  0.0000000E+00;  5.4925945E-02;  1.7873361E+03;
  1.3485436E+00;  9.9999998E-03;  2.2156858E-01;9680;  8.5924345E-01;  0.0000000E+00; -1.7918656E-02;  9.9840631E+02;  1.0652719E-01; -1.2016128E+03;3;  3.6526672E+01;  0.0000000E+00;  1.0709604E+01;0; -3.3876041E-01;  3.5582727E+04;  0.0000000E+00;  9.5827579E+00;  4.0000000E+04;  0.0000000E+00;  3.9504750E+04; -3.6957854E-01;  0.0000000E+00;  3.0818131E-02;  7.4349927E+03;
  1.3487759E+00;  9.9999998E-03;  2.1154067E-01;9679;  8.5384375E-01;  0.0000000E+00; -1.9828036E-02;  9.9682593E+02;  1.0652448E-01; -2.3924839E+03;3;  3.3107101E+01;  0.0000000E+00;  1.0484783E+01;0; -3.4844682E-01;  3.5470645E+04;  0.0000000E+00;  2.2728994E+01;  4.0000000E+04;  0.0000000E+00;  3.9502867E+04; -3.5874054E-01;  0.0000000E+00;  1.0293734E-02;  1.6415637E+04;
  1.3489980E+00;  9.9999998E-03;  2.0151249E-01;9678;  8.4979928E-01;  0.0000000E+00; -2.1098094E-02;  9.9552350E+02;  1.0652291E-01; -3.3732839E+03;3;  2.9387638E+01;  0.0000000E+00;  1.0206008E+01;0; -3.3030933E-01;  3.5385539E+04;  0.0000000E+00;  3.4267033E+01;  4.0000000E+04;  0.0000000E+00;  3.9493738E+04; -3.2416606E-01;  0.0000000E+00; -6.1432603E-03;  2.3810043E+04;
  1.3491844E+00;  9.9999998E-03;  1.9146872E-01;9677;  8.4696436E-01;  0.0000000E+00; -2.1721287E-02;  9.9492523E+02;  1.0652258E-01; -3.8232297E+03;3;  2.5555151E+01;  0.0000000E+00;  9.8933134E+00;0; -2.8877866E-01;  3.5347289E+04;  0.0000000E+00;  4.3127052E+01;  4.0000000E+04;  0.0000000E+00;  3.9489555E+04; -2.6949281E-01;  0.0000000E+00; -1.9285861E-02;  2.9369115E+04;
  1.3493279E+00;  9.9999998E-03;  1.8138611E-01;9676;  8.4508812E-01;  0.0000000E+00; -2.2033485E-02;  9.9511377E+02;  1.0652205E-01; -3.6805491E+03;3;  2.1612587E+01;  0.0000000E+00;  9.4557800E+00;0; -2.3121224E-01;  3.5353098E+04;  0.0000000E+00;  4.9000484E+01;  4.0000000E+04;  0.0000000E+00;  3.9498641E+04; -1.9925602E-01;  0.0000000E+00; -3.1956222E-02;  3.2892156E+04;
  1.3494488E+00;  9.9999998E-03;  1.7125273E-01;9675;  8.4403664E-01;  0.0000000E+00; -2.2359155E-02;  9.9577039E+02;  1.0652129E-01; -3.1854880E+03;3;  1.7949093E+01;  0.0000000E+00;  8.3821077E+00;0; -1.6197400E-01;  3.5383172E+04;  0.0000000E+00;  5.0702808E+01;  4.0000000E+04;  0.0000000E+00;  3.9517547E+04; -1.1700849E-01;  0.0000000E+00; -4.4965506E-02;  3.3701617E+04;
  1.3495847E+00;  9.9999998E-03;  1.6109116E-01;9674;  8.4368372E-01;  0.0000000E+00; -2.2759378E-02;  9.9637946E+02;  1.0651997E-01; -2.7263406E+03;3;  1.4689253E+01;  0.0000000E+00;  6.9900713E+00;0; -8.2961738E-02;  3.5415422E+04;  0.0000000E+00;  4.7159302E+01;  4.0000000E+04;  0.0000000E+00;  3.9530945E+04; -2.5783813E-02;  0.0000000E+00; -5.7177924E-02;  3.1255895E+04;
  1.3497761E+00;  9.9999998E-03;  1.5093657E-01;9673;  8.4377438E-01;  0.0000000E+00; -2.2941291E-02;  9.9665442E+02;  1.0651771E-01; -2.5187019E+03;3;  1.2878890E+01;  0.0000000E+00;  4.4636002E+00;0;  4.9421862E-03;  3.5435953E+04;  0.0000000E+00;  3.9214607E+01;  4.0000000E+04;  0.0000000E+00;  3.9530898E+04;  7.1591601E-02;  0.0000000E+00; -6.6649415E-02;  2.6138465E+04;
  1.3500218E+00;  9.9999998E-03;  1.4080313E-01;9672;  8.4365731E-01;  0.0000000E+00; -2.2592826E-02;  9.9669183E+02;  1.0651579E-01; -2.4897688E+03;3;  1.3124644E+01;  0.0000000E+00;  1.8612379E+00;0;  9.9455759E-02;  3.5447445E+04;  0.0000000E+00;  2.9593344E+01;  4.0000000E+04;  0.0000000E+00;  3.9521461E+04;  1.7231551E-01;  0.0000000E+00; -7.2859749E-02;  2.0014270E+04;
  1.3502791E+00;  9.9999998E-03;  1.3069513E-01;9671;  8.4321290E-01;  0.0000000E+00; -2.1806866E-02;  9.9668579E+02;  1.0651392E-01; -2.4935078E+03;3;  8.5507317E+00;  0.0000000E+00; -4.2266309E-01;0;  2.0000538E-01;  3.5458750E+04;  0.0000000E+00;  2.0543419E+01;  4.0000000E+04;  0.0000000E+00;  3.9508465E+04;  2.7687341E-01;  0.0000000E+00; -7.6868035E-02;  1.4242776E+04;
  1.3505114E+00;  9.9999998E-03;  1.2061427E-01;9670;  8.4412229E-01;  0.0000000E+00; -2.0503916E-02;  9.9672296E+02;  1.0651343E-01; -2.4648601E+03;3; -7.5729413E+00;  0.0000000E+00; -3.3431180E+00;0;  3.0902019E-01;  3.5472262E+04;  0.0000000E+00;  1.3042799E+01;  4.0000000E+04;  0.0000000E+00;  3.9495551E+04;  3.8831186E-01;  0.0000000E+00; -7.9291679E-02;  9.4231865E+03;
  1.3507011E+00;  9.9999998E-03;  1.1055107E-01;9669;  8.5104549E-01;  0.0000000E+00; -1.9323638E-02;  9.9680328E+02;  1.0651315E-01; -2.4038613E+03;3; -3.8849438E+01;  0.0000000E+00;  1.3800472E+00;0;  4.2861181E-01;  3.5485816E+04;  0.0000000E+00;  7.3572392E+00;  4.0000000E+04;  0.0000000E+00;  3.9485668E+04;  5.1059961E-01;  0.0000000E+00; -8.1987791E-02;  5.7367114E+03;
  1.3508362E+00;  9.9999998E-03;  1.0049910E-01;9668;  8.6380029E-01;  0.0000000E+00; -2.0053441E-02;  9.9689203E+02;  1.0651243E-01; -2.3367300E+03;3; -4.8364632E+01;  0.0000000E+00;  2.5679574E+00;0;  5.4844528E-01;  3.5496918E+04;  0.0000000E+00;  3.3686683E+00;  4.0000000E+04;  0.0000000E+00;  3.9479457E+04;  6.3464099E-01;  0.0000000E+00; -8.6195707E-02;  3.1367522E+03;
  1.3509196E+00;  9.9999998E-03;  9.0454534E-02;9667;  8.7536514E-01;  0.0000000E+00; -1.9991018E-02;  9.9695648E+02;  1.0651243E-01; -2.2880488E+03;3; -5.1395008E+01;  0.0000000E+00;  3.7420583E-01;0;  6.5943891E-01;  3.5503629E+04;  0.0000000E+00;  8.0589700E-01;  4.0000000E+04;  0.0000000E+00;  3.9476086E+04;  7.4967211E-01;  0.0000000E+00; -9.0233199E-02;  1.5255173E+03;
  1.3509599E+00;  9.9999998E-03;  8.0413975E-02;9666;  8.8467205E-01;  0.0000000E+00; -1.8965859E-02;  9.9698175E+02;  1.0651352E-01; -2.2689355E+03;3; -5.2630169E+01;  0.0000000E+00; -1.3973594E+00;0;  7.6060802E-01;  3.5504855E+04;  0.0000000E+00; -6.4107537E-01;  4.0000000E+04;  0.0000000E+00;  3.9474738E+04;  8.5547245E-01;  0.0000000E+00; -9.4864443E-02;  9.0340784E+02;
  1.3509643E+00;  9.9999998E-03;  7.0374258E-02;9665;  8.9173341E-01;  0.0000000E+00; -1.7172106E-02;  9.9694623E+02;  1.0651401E-01; -2.2956279E+03;3; -5.2473335E+01;  0.0000000E+00; -2.6107728E+00;0;  8.5179663E-01;  3.5501418E+04;  0.0000000E+00; -1.2809727E+00;  4.0000000E+04;  0.0000000E+00;  3.9474371E+04;  9.5212662E-01;  0.0000000E+00; -1.0033002E-01;  9.6182208E+02;
  1.3588501E+00;  9.9999998E-03;  2.3170818E-01;9728;  8.6164939E-01;  0.0000000E+00; -1.6421819E-02;  1.0005129E+03;  1.0628419E-01;  3.8159045E+02;3;  4.0252083E+01;  0.0000000E+00;  6.2829738E+00;0; -3.0599210E-01;  3.5943555E+04;  0.0000000E+00; -1.6494628E+00;  4.0000000E+04;  0.0000000E+00;  3.9450168E+04; -3.3066553E-01;  0.0000000E+00;  2.4673438E-02;  3.7158455E+03;
  1.3590572E+00;  9.9999998E-03;  2.2168607E-01;9727;  8.5564256E-01;  0.0000000E+00; -1.8049521E-02;  9.9948798E+02;  1.0628690E-01; -3.8086285E+02;3;  3.6917885E+01;  0.0000000E+00;  6.4472589E+00;0; -3.4093425E-01;  3.5863062E+04;  0.0000000E+00; -4.4580519E-01;  4.0000000E+04;  0.0000000E+00;  3.9459090E+04; -3.4415776E-01;  0.0000000E+00;  3.2234984E-03;  1.4263949E+03;
  1.3592618E+00;  9.9999998E-03;  2.1166450E-01;9726;  8.5032594E-01;  0.0000000E+00; -2.0074636E-02;  9.9813892E+02;  1.0628482E-01; -1.3840237E+03;3;  3.3295616E+01;  0.0000000E+00;  6.2840939E+00;0; -3.6649451E-01;  3.5768391E+04;  0.0000000E+00;  8.9450598E+00;  4.0000000E+04;  0.0000000E+00;  3.9456555E+04; -3.4052643E-01;  0.0000000E+00; -2.5968079E-02;  6.3699512E+03;
  1.3594692E+00;  9.9999998E-03;  2.0164423E-01;9725;  8.4638619E-01;  0.0000000E+00; -2.1322716E-02;  9.9668707E+02;  1.0628153E-01; -2.4630129E+03;3;  2.9358982E+01;  0.0000000E+00;  5.9303608E+00;0; -3.5905284E-01;  3.5674586E+04;  0.0000000E+00;  2.1118322E+01;  4.0000000E+04;  0.0000000E+00;  3.9444453E+04; -3.1208864E-01;  0.0000000E+00; -4.6964191E-02;  1.3771930E+04;
  1.3596644E+00;  9.9999998E-03;  1.9161777E-01;9724;  8.4377277E-01;  0.0000000E+00; -2.1804504E-02;  9.9557874E+02;  1.0627987E-01; -3.2861423E+03;3;  2.5214293E+01;  0.0000000E+00;  5.5577712E+00;0; -3.2198930E-01;  3.5606383E+04;  0.0000000E+00;  3.2287277E+01;  4.0000000E+04;  0.0000000E+00;  3.9431828E+04; -2.6084617E-01;  0.0000000E+00; -6.1143145E-02;  2.0218166E+04;
  1.3598294E+00;  9.9999998E-03;  1.8156883E-01;9723;  8.4228158E-01;  0.0000000E+00; -2.1867121E-02;  9.9515894E+02;  1.0627926E-01; -3.5973469E+03;3;  2.0892906E+01;  0.0000000E+00;  5.1103439E+00;0; -2.6323974E-01;  3.5579457E+04;  0.0000000E+00;  4.1083134E+01;  4.0000000E+04;  0.0000000E+00;  3.9428938E+04; -1.9098435E-01;  0.0000000E+00; -7.2255388E-02;  2.5171035E+04;
  1.3599581E+00;  9.9999998E-03;  1.7147632E-01;9722;  8.4173417E-01;  0.0000000E+00; -2.1767149E-02;  9.9546716E+02;  1.0627858E-01; -3.3676797E+03;3;  1.6564585E+01;  0.0000000E+00;  4.3431468E+00;0; -1.8822564E-01;  3.5591316E+04;  0.0000000E+00;  4.7015759E+01;  4.0000000E+04;  0.0000000E+00;  3.9440680E+04; -1.0663313E-01;  0.0000000E+00; -8.1592508E-02;  2.8331668E+04;
  1.3600677E+00;  9.9999998E-03;  1.6133745E-01;9721;  8.4197277E-01;  0.0000000E+00; -2.1644352E-02;  9.9615076E+02;  1.0627736E-01; -2.8594060E+03;3;  1.2581932E+01;  0.0000000E+00;  2.3569481E+00;0; -1.0052957E-01;  3.5623746E+04;  0.0000000E+00;  4.8763557E+01;  4.0000000E+04;  0.0000000E+00;  3.9459715E+04; -1.1633563E-02;  0.0000000E+00; -8.8896014E-02;  2.9056061E+04;
  1.3601930E+00;  9.9999998E-03;  1.5117709E-01;9720;  8.4263879E-01;  0.0000000E+00; -2.1352047E-02;  9.9674390E+02;  1.0627639E-01; -2.4183469E+03;3;  1.0034406E+01;  0.0000000E+00; -6.2819964E-01;0; -3.3439472E-03;  3.5655297E+04;  0.0000000E+00;  4.5348743E+01;  4.0000000E+04;  0.0000000E+00;  3.9472277E+04;  8.9728810E-02;  0.0000000E+00; -9.3072757E-02;  2.6920697E+04;
  1.3603677E+00;  9.9999998E-03;  1.4102088E-01;9719;  8.4296852E-01;  0.0000000E+00; -2.0662395E-02;  9.9701849E+02;  1.0627650E-01; -2.2138674E+03;3;  9.0583792E+00;  0.0000000E+00; -3.4813561E+00;0;  9.9107116E-02;  3.5673383E+04;  0.0000000E+00;  3.7814758E+01;  4.0000000E+04;  0.0000000E+00;  3.9473863E+04;  1.9294974E-01;  0.0000000E+00; -9.3842626E-02;  2.2550252E+04;
  1.3605975E+00;  9.9999998E-03;  1.3088116E-01;9718;  8.4347194E-01;  0.0000000E+00; -1.9528737E-02;  9.9701294E+02;  1.0627522E-01; -2.2173276E+03;3;  2.6727441E-01;  0.0000000E+00; -6.4475560E+00;0;  2.0911063E-01;  3.5678766E+04;  0.0000000E+00;  2.8562931E+01;  4.0000000E+04;  0.0000000E+00;  3.9467504E+04;  3.0121171E-01;  0.0000000E+00; -9.2101082E-02;  1.7268311E+04;
  1.3608544E+00;  9.9999998E-03;  1.2076064E-01;9717;  8.4676117E-01;  0.0000000E+00; -1.7841239E-02;  9.9690826E+02;  1.0627374E-01; -2.2942092E+03;3; -2.0450233E+01;  0.0000000E+00; -7.6095891E+00;0;  3.3171141E-01;  3.5680320E+04;  0.0000000E+00;  1.9728455E+01;  4.0000000E+04;  0.0000000E+00;  3.9457406E+04;  4.2053467E-01;  0.0000000E+00; -8.8823251E-02;  1.2234238E+04;
  1.3615071E+00;  9.9999998E-03;  7.0431486E-02;9712;  9.1031313E-01;  0.0000000E+00; -1.7159007E-02;  9.9693445E+02;  1.0627134E-01; -2.2726943E+03;3; -5.4345150E+01;  0.0000000E+00; -6.6626592E+00;0;  9.2390311E-01;  3.5710809E+04;  0.0000000E+00; -8.5155553E-01;  4.0000000E+04;  0.0000000E+00;  3.9422535E+04;  1.0148348E+00;  0.0000000E+00; -9.0931654E-02;  3.9395517E+02;
  1.3614875E+00;  9.9999998E-03;  8.0482587E-02;9713;  9.0123576E-01;  0.0000000E+00; -1.8841572E-02;  9.9691412E+02;  1.0627063E-01; -2.2878247E+03;3; -5.5829033E+01;  0.0000000E+00; -5.4280562E+00;0;  8.3099663E-01;  3.5707973E+04;  0.0000000E+00;  4.7781771E-01;  4.0000000E+04;  0.0000000E+00;  3.9425621E+04;  9.2015409E-01;  0.0000000E+00; -8.9157492E-02;  1.0278534E+03;
  1.3610934E+00;  9.9999998E-03;  1.1066637E-01;9716;  8.5839820E-01;  0.0000000E+00; -1.7349411E-02;  9.9683441E+02;  1.0627253E-01; -2.3482339E+03;3; -4.7664303E+01;  0.0000000E+00; -3.9050031E-01;0;  4.7008178E-01;  3.5684906E+04;  0.0000000E+00;  1.2369083E+01;  4.0000000E+04;  0.0000000E+00;  3.9446684E+04;  5.5779117E-01;  0.0000000E+00; -8.7709405E-02;  8.0120854E+03;
  1.3614156E+00;  9.9999998E-03;  9.0535477E-02;9714;  8.8920510E-01;  0.0000000E+00; -1.9587250E-02;  9.9687256E+02;  1.0627118E-01; -2.3189011E+03;3; -5.5720772E+01;  0.0000000E+00; -3.9421766E+00;0;  7.2463870E-01;  3.5701438E+04;  0.0000000E+00;  2.9236026E+00;  4.0000000E+04;  0.0000000E+00;  3.9430266E+04;  8.1321526E-01;  0.0000000E+00; -8.8576533E-02;  2.4856665E+03;
  1.3612844E+00;  9.9999998E-03;  1.0059422E-01;9715;  8.7464446E-01;  0.0000000E+00; -1.9070551E-02;  9.9683258E+02;  1.0627180E-01; -2.3489392E+03;3; -5.3090466E+01;  0.0000000E+00; -1.6560612E+00;0;  6.0425520E-01;  3.5692723E+04;  0.0000000E+00;  6.8000379E+00;  4.0000000E+04;  0.0000000E+00;  3.9437273E+04;  6.9279742E-01;  0.0000000E+00; -8.8542253E-02;  4.7757852E+03;
  1.3695977E+00;  9.9999998E-03;  2.2179459E-01;9773;  8.5099775E-01;  0.0000000E+00; -1.8420609E-02;  9.9972540E+02;  1.0607784E-01; -2.0121255E+02;3;  3.7234356E+01;  0.0000000E+00;  1.1696119E+00;0; -3.6296517E-01;  3.6061441E+04;  0.0000000E+00;  1.7605245E+00;  4.0000000E+04;  0.0000000E+00;  3.9411973E+04; -3.3264336E-01;  0.0000000E+00; -3.0321810E-02;  1.7101326E+03;
  1.3698055E+00;  9.9999998E-03;  2.1177582E-01;9772;  8.4643149E-01;  0.0000000E+00; -1.9436685E-02;  9.9860474E+02;  1.0608017E-01; -1.0220778E+03;3;  3.3423752E+01;  0.0000000E+00;  1.1461747E+00;0; -3.8160455E-01;  3.5980844E+04;  0.0000000E+00; -2.6302126E-01;  4.0000000E+04;  0.0000000E+00;  3.9412578E+04; -3.2763469E-01;  0.0000000E+00; -5.3969860E-02;  1.5917959E+03;
  1.3699934E+00;  9.9999998E-03;  2.0175917E-01;9771;  8.4277332E-01;  0.0000000E+00; -2.0484706E-02;  9.9738367E+02;  1.0607859E-01; -1.9159896E+03;3;  2.9283155E+01;  0.0000000E+00;  8.8322592E-01;0; -3.8362321E-01;  3.5902914E+04;  0.0000000E+00;  6.3409228E+00;  4.0000000E+04;  0.0000000E+00;  3.9400863E+04; -3.0435213E-01;  0.0000000E+00; -7.9271078E-02;  4.4432661E+03;
  1.3701761E+00;  9.9999998E-03;  1.9174063E-01;9770;  8.4040910E-01;  0.0000000E+00; -2.0851020E-02;  9.9618262E+02;  1.0607556E-01; -2.7947539E+03;3;  2.4791603E+01;  0.0000000E+00;  5.4841304E-01;0; -3.5493401E-01;  3.5831188E+04;  0.0000000E+00;  1.6852671E+01;  4.0000000E+04;  0.0000000E+00;  3.9383934E+04; -2.5818050E-01;  0.0000000E+00; -9.6753500E-02;  1.0144617E+04;
  1.3703465E+00;  9.9999998E-03;  1.8170968E-01;9769;  8.3923602E-01;  0.0000000E+00; -2.0776596E-02;  9.9534253E+02;  1.0607307E-01; -3.4088992E+03;3;  2.0100410E+01;  0.0000000E+00;  2.3111808E-01;0; -3.0056465E-01;  3.5782656E+04;  0.0000000E+00;  2.7399157E+01;  4.0000000E+04;  0.0000000E+00;  3.9371305E+04; -1.9157834E-01;  0.0000000E+00; -1.0898630E-01;  1.5604239E+04;
  1.3704963E+00;  9.9999998E-03;  1.7165324E-01;9768;  8.3917165E-01;  0.0000000E+00; -2.0494305E-02;  9.9509723E+02;  1.0607190E-01; -3.5876509E+03;3;  1.5199383E+01;  0.0000000E+00; -5.0323725E-01;0; -2.2497430E-01;  3.5766973E+04;  0.0000000E+00;  3.5922253E+01;  4.0000000E+04;  0.0000000E+00;  3.9369242E+04; -1.0766090E-01;  0.0000000E+00; -1.1731341E-01;  1.9887572E+04;
  1.3706229E+00;  9.9999998E-03;  1.6155452E-01;9767;  8.4006995E-01;  0.0000000E+00; -1.9990999E-02;  9.9544562E+02;  1.0607135E-01; -3.3320740E+03;3;  1.0163863E+01;  0.0000000E+00; -2.3967593E+00;0; -1.3163581E-01;  3.5781535E+04;  0.0000000E+00;  4.1641117E+01;  4.0000000E+04;  0.0000000E+00;  3.9381012E+04; -1.0696708E-02;  0.0000000E+00; -1.2093911E-01;  2.2598299E+04;
  1.3707397E+00;  9.9999998E-03;  1.5141894E-01;9766;  8.4155059E-01;  0.0000000E+00; -1.9176299E-02;  9.9606531E+02;  1.0607160E-01; -2.8781733E+03;3;  6.6756153E+00;  0.0000000E+00; -6.2670069E+00;0; -2.5848500E-02;  3.5811758E+04;  0.0000000E+00;  4.3286949E+01;  4.0000000E+04;  0.0000000E+00;  3.9397012E+04;  9.3621433E-02;  0.0000000E+00; -1.1946993E-01;  2.3197533E+04;
  1.3708603E+00;  9.9999998E-03;  1.4126612E-01;9765;  8.4283274E-01;  0.0000000E+00; -1.7810030E-02;  9.9664648E+02;  1.0607053E-01; -2.4526223E+03;3;  2.0780253E+00;  0.0000000E+00; -9.6700239E+00;0;  8.5598417E-02;  3.5844316E+04;  0.0000000E+00;  4.0506100E+01;  4.0000000E+04;  0.0000000E+00;  3.9407547E+04;  1.9892785E-01;  0.0000000E+00; -1.1332943E-01;  2.1593152E+04;
  1.3710086E+00;  9.9999998E-03;  1.3110887E-01;9764;  8.4563941E-01;  0.0000000E+00; -1.6021781E-02;  9.9700818E+02;  1.0607023E-01; -2.1875679E+03;3; -1.4908646E+01;  0.0000000E+00; -1.1914858E+01;0;  2.1049881E-01;  3.5866922E+04;  0.0000000E+00;  3.4279568E+01;  4.0000000E+04;  0.0000000E+00;  3.9411246E+04;  3.1513619E-01;  0.0000000E+00; -1.0463738E-01;  1.8315164E+04;
  1.3712013E+00;  9.9999998E-03;  1.2095568E-01;9763;  8.5373783E-01;  0.0000000E+00; -1.4436901E-02;  9.9708716E+02;  1.0606931E-01; -2.1291960E+03;3; -4.3539238E+01;  0.0000000E+00; -7.3243065E+00;0;  3.5629874E-01;  3.5874816E+04;  0.0000000E+00;  2.6356762E+01;  4.0000000E+04;  0.0000000E+00;  3.9409168E+04;  4.5285109E-01;  0.0000000E+00; -9.6552342E-02;  1.4242521E+04;
  1.3714212E+00;  9.9999998E-03;  1.1081917E-01;9762;  8.6904418E-01;  0.0000000E+00; -1.5414588E-02;  9.9699554E+02;  1.0606845E-01; -2.1954250E+03;3; -5.6322144E+01;  0.0000000E+00; -2.6499569E+00;0;  5.1191497E-01;  3.5874324E+04;  0.0000000E+00;  1.8430988E+01;  4.0000000E+04;  0.0000000E+00;  3.9402672E+04;  6.0495830E-01;  0.0000000E+00; -9.3043357E-02;  1.0195442E+04;
  1.3716320E+00;  9.9999998E-03;  1.0070930E-01;9761;  8.8611287E-01;  0.0000000E+00; -1.7304348E-02;  9.9687726E+02;  1.0606760E-01; -2.2811450E+03;3; -5.9580002E+01;  0.0000000E+00; -5.3076253E+00;0;  6.5655768E-01;  3.5874070E+04;  0.0000000E+00;  1.1599542E+01;  4.0000000E+04;  0.0000000E+00;  3.9393531E+04;  7.4611092E-01;  0.0000000E+00; -8.9553252E-02;  6.6909316E+03;
  1.3718075E+00;  9.9999998E-03;  9.0624318E-02;9760;  9.0243661E-01;  0.0000000E+00; -1.8168388E-02;  9.9679199E+02;  1.0606702E-01; -2.3427778E+03;3; -6.0755234E+01;  0.0000000E+00; -8.0277596E+00;0;  7.8561956E-01;  3.5876371E+04;  0.0000000E+00;  6.3301830E+00;  4.0000000E+04;  0.0000000E+00;  3.9384320E+04;  8.7073183E-01;  0.0000000E+00; -8.5112274E-02;  3.9490925E+03;
  1.3719829E+00;  9.9999998E-03;  7.0490599E-02;9758;  9.2856199E-01;  0.0000000E+00; -1.6476665E-02;  9.9678491E+02;  1.0606675E-01; -2.3473254E+03;3; -5.6804180E+01;  0.0000000E+00; -1.0925218E+01;0;  9.9266672E-01;  3.5887312E+04;  0.0000000E+00;  4.1117004E-01;  4.0000000E+04;  0.0000000E+00;  3.9370055E+04;  1.0712842E+00;  0.0000000E+00; -7.8617476E-02;  7.2145319E+02;
  1.3719279E+00;  9.9999998E-03;  8.0554537E-02;9759;  9.1684031E-01;  0.0000000E+00; -1.7841231E-02;  9.9676044E+02;  1.0606640E-01; -2.3654111E+03;3; -5.9804810E+01;  0.0000000E+00; -9.8261414E+00;0;  8.9754784E-01;  3.5881211E+04;  0.0000000E+00;  2.6703527E+00;  4.0000000E+04;  0.0000000E+00;  3.9376293E+04;  9.7872221E-01;  0.0000000E+00; -8.1174396E-02;  1.9928801E+03;
  1.3803083E+00;  9.9999998E-03;  2.1187581E-01;9816;  8.4236467E-01;  0.0000000E+00; -1.7773997E-02;  9.9896307E+02;  1.0590187E-01; -7.4707080E+02;3;  3.3496403E+01;  0.0000000E+00; -4.8471603E+00;0; -3.9285713E-01;  3.6166211E+04;  0.0000000E+00;  4.9479880E+00;  4.0000000E+04;  0.0000000E+00;  3.9367699E+04; -3.2336503E-01;  0.0000000E+00; -6.9492117E-02;  1.5071582E+03;
  1.3805137E+00;  9.9999998E-03;  2.0185854E-01;9815;  8.3925509E-01;  0.0000000E+00; -1.8082190E-02;  9.9780530E+02;  1.0590383E-01; -1.5806472E+03;3;  2.9125790E+01;  0.0000000E+00; -4.9394817E+00;0; -3.9550781E-01;  3.6088727E+04;  0.0000000E+00; -2.6238602E-01;  4.0000000E+04;  0.0000000E+00;  3.9361410E+04; -3.0194587E-01;  0.0000000E+00; -9.3561947E-02;  1.8371327E+03;
  1.3806887E+00;  9.9999998E-03;  1.9184090E-01;9814;  8.3707058E-01;  0.0000000E+00; -1.8368449E-02;  9.9674164E+02;  1.0590224E-01; -2.3460127E+03;3;  2.4411324E+01;  0.0000000E+00; -5.2176666E+00;0; -3.8032216E-01;  3.6026070E+04;  0.0000000E+00;  3.4344819E+00;  4.0000000E+04;  0.0000000E+00;  3.9345523E+04; -2.6345855E-01;  0.0000000E+00; -1.1686362E-01;  2.8050845E+03;
  1.3808542E+00;  9.9999998E-03;  1.8181707E-01;9813;  8.3612525E-01;  0.0000000E+00; -1.8304447E-02;  9.9577771E+02;  1.0589968E-01; -3.0392034E+03;3;  1.9310223E+01;  0.0000000E+00; -5.4750962E+00;0; -3.3780152E-01;  3.5972344E+04;  0.0000000E+00;  1.1926236E+01;  4.0000000E+04;  0.0000000E+00;  3.9327457E+04; -2.0386313E-01;  0.0000000E+00; -1.3393839E-01;  6.7894292E+03;
  1.3810130E+00;  9.9999998E-03;  1.7177828E-01;9812;  8.3643764E-01;  0.0000000E+00; -1.7946158E-02;  9.9511481E+02;  1.0589750E-01; -3.5154458E+03;3;  1.3939248E+01;  0.0000000E+00; -6.0898838E+00;0; -2.6879326E-01;  3.5935598E+04;  0.0000000E+00;  2.1108805E+01;  4.0000000E+04;  0.0000000E+00;  3.9314957E+04; -1.2460230E-01;  0.0000000E+00; -1.4419097E-01;  1.1039118E+04;
  1.3812881E+00;  9.9999998E-03;  1.5161231E-01;9810;  8.4026742E-01;  0.0000000E+00; -1.6036306E-02;  9.9524768E+02;  1.0589639E-01; -3.4182693E+03;3;  2.9082942E+00;  0.0000000E+00; -1.1848253E+01;0; -6.5324590E-02;  3.5938836E+04;  0.0000000E+00;  3.4038136E+01;  4.0000000E+04;  0.0000000E+00;  3.9322039E+04;  7.5940922E-02;  0.0000000E+00; -1.4126551E-01;  1.6696707E+04;
  1.3811582E+00;  9.9999998E-03;  1.6171353E-01;9811;  8.3791608E-01;  0.0000000E+00; -1.7277563E-02;  9.9494348E+02;  1.0589668E-01; -3.6378364E+03;3;  8.1138592E+00;  0.0000000E+00; -7.8640332E+00;0; -1.7633548E-01;  3.5925059E+04;  0.0000000E+00;  2.8797348E+01;  4.0000000E+04;  0.0000000E+00;  3.9312945E+04; -2.9322708E-02;  0.0000000E+00; -1.4701277E-01;  1.4479806E+04;
  1.3814129E+00;  9.9999998E-03;  1.4148198E-01;9809;  8.4298295E-01;  0.0000000E+00; -1.3905651E-02;  9.9574719E+02;  1.0589542E-01; -3.0583162E+03;3; -6.0075397E+00;  0.0000000E+00; -1.6569723E+01;0;  5.7042152E-02;  3.5964637E+04;  0.0000000E+00;  3.5690460E+01;  4.0000000E+04;  0.0000000E+00;  3.9333930E+04;  1.8481635E-01;  0.0000000E+00; -1.2777419E-01;  1.7250420E+04;
  1.3815359E+00;  9.9999998E-03;  1.3133386E-01;9808;  8.4879041E-01;  0.0000000E+00; -1.1374069E-02;  9.9627783E+02;  1.0589477E-01; -2.6761929E+03;3; -3.0195454E+01;  0.0000000E+00; -1.6511978E+01;0;  2.0361552E-01;  3.5994797E+04;  0.0000000E+00;  3.3774158E+01;  4.0000000E+04;  0.0000000E+00;  3.9342742E+04;  3.1557870E-01;  0.0000000E+00; -1.1196318E-01;  1.6208111E+04;
  1.3816686E+00;  9.9999998E-03;  1.2117139E-01;9807;  8.6217958E-01;  0.0000000E+00; -1.0578535E-02;  9.9669598E+02;  1.0589401E-01; -2.3749958E+03;3; -5.9451626E+01;  0.0000000E+00; -6.4525604E+00;0;  3.8152471E-01;  3.6020137E+04;  0.0000000E+00;  2.9212757E+01;  4.0000000E+04;  0.0000000E+00;  3.9348273E+04;  4.8342532E-01;  0.0000000E+00; -1.0190060E-01;  1.4014419E+04;
  1.3818207E+00;  9.9999998E-03;  1.1100692E-01;9806;  8.8047224E-01;  0.0000000E+00; -1.2834962E-02;  9.9689618E+02;  1.0589293E-01; -2.2305093E+03;3; -6.8321899E+01;  0.0000000E+00; -4.0693808E+00;0;  5.5748820E-01;  3.6034441E+04;  0.0000000E+00;  2.3093565E+01;  4.0000000E+04;  0.0000000E+00;  3.9349145E+04;  6.5439343E-01;  0.0000000E+00; -9.6905254E-02;  1.1167225E+04;
  1.3819870E+00;  9.9999998E-03;  1.0085968E-01;9805;  8.9870316E-01;  0.0000000E+00; -1.4890070E-02;  9.9690356E+02;  1.0589256E-01; -2.2246189E+03;3; -7.0688683E+01;  0.0000000E+00; -7.6746697E+00;0;  7.1418130E-01;  3.6039238E+04;  0.0000000E+00;  1.6545521E+01;  4.0000000E+04;  0.0000000E+00;  3.9344379E+04;  8.0313021E-01;  0.0000000E+00; -8.8948898E-02;  8.1577026E+03;
  1.3823854E+00;  9.9999998E-03;  7.0553228E-02;9802;  9.4454885E-01;  0.0000000E+00; -1.4244583E-02;  9.9660919E+02;  1.0589305E-01; -2.4344404E+03;3; -6.0737316E+01;  0.0000000E+00; -1.5365553E+01;0;  1.0628289E+00;  3.6041730E+04;  0.0000000E+00;  2.6458070E+00;  4.0000000E+04;  0.0000000E+00;  3.9317820E+04;  1.1257434E+00;  0.0000000E+00; -6.2914483E-02;  1.6517905E+03;
  1.3822874E+00;  9.9999998E-03;  8.0639347E-02;9803;  9.3135035E-01;  0.0000000E+00; -1.5411975E-02;  9.9668915E+02;  1.0589263E-01; -2.3774478E+03;3; -6.5917107E+01;  0.0000000E+00; -1.4023203E+01;0;  9.6649498E-01;  3.6039961E+04;  0.0000000E+00;  5.9177289E+00;  4.0000000E+04;  0.0000000E+00;  3.9326570E+04;  1.0366994E+00;  0.0000000E+00; -7.0204437E-02;  3.2303770E+03;
  1.3821496E+00;  9.9999998E-03;  9.0738259E-02;9804;  9.1590959E-01;  0.0000000E+00; -1.5688401E-02;  9.9680444E+02;  1.0589274E-01; -2.2952039E+03;3; -6.9131981E+01;  0.0000000E+00; -1.1519469E+01;0;  8.5070997E-01;  3.6039793E+04;  0.0000000E+00;  1.0608239E+01;  4.0000000E+04;  0.0000000E+00;  3.9336066E+04;  9.2995644E-01;  0.0000000E+00; -7.9246439E-02;  5.4236714E+03;
  1.3919039E+00;  9.9999998E-03;  1.4163847E-01;9851;  8.4347594E-01;  0.0000000E+00; -8.3834138E-03;  9.9529901E+02;  1.0574692E-01; -3.3191582E+03;3; -1.2405035E+01;  0.0000000E+00; -2.3071808E+01;0;  1.8060371E-02;  3.6093793E+04;  0.0000000E+00;  2.6117373E+01;  4.0000000E+04;  0.0000000E+00;  3.9267359E+04;  1.4806429E-01;  0.0000000E+00; -1.3000391E-01;  1.1605606E+04;
  1.3917706E+00;  9.9999998E-03;  1.5174612E-01;9852;  8.3921856E-01;  0.0000000E+00; -1.1032978E-02;  9.9510266E+02;  1.0574744E-01; -3.4586233E+03;3; -1.9970335E+00;  0.0000000E+00; -1.8641075E+01;0; -1.1184211E-01;  3.6086102E+04;  0.0000000E+00;  2.1393312E+01;  4.0000000E+04;  0.0000000E+00;  3.9260297E+04;  3.6292523E-02;  0.0000000E+00; -1.4813463E-01;  9.8157949E+03;
  1.3916372E+00;  9.9999998E-03;  1.6182028E-01;9853;  8.3596784E-01;  0.0000000E+00; -1.2563271E-02;  9.9518213E+02;  1.0574882E-01; -3.4032971E+03;3;  5.7462950E+00;  0.0000000E+00; -1.4784272E+01;0; -2.2215685E-01;  3.6089312E+04;  0.0000000E+00;  1.4541742E+01;  4.0000000E+04;  0.0000000E+00;  3.9263043E+04; -6.7007087E-02;  0.0000000E+00; -1.5514977E-01;  7.1069819E+03;
  1.3920412E+00;  9.9999998E-03;  1.3150622E-01;9850;  8.5059696E-01;  0.0000000E+00; -5.2052392E-03;  9.9558441E+02;  1.0574638E-01; -3.1168364E+03;3; -3.3888165E+01;  0.0000000E+00; -2.2826271E+01;0;  1.7436913E-01;  3.6106281E+04;  0.0000000E+00;  2.7785772E+01;  4.0000000E+04;  0.0000000E+00;  3.9276543E+04;  2.8252852E-01;  0.0000000E+00; -1.0815940E-01;  1.2139264E+04;
  1.3914948E+00;  9.9999998E-03;  1.7186755E-01;9854;  8.3396900E-01;  0.0000000E+00; -1.3375814E-02;  9.9565094E+02;  1.0575154E-01; -3.0729431E+03;3;  1.2443022E+01;  0.0000000E+00; -1.3010372E+01;0; -3.0622989E-01;  3.6111082E+04;  0.0000000E+00;  6.9496369E+00;  4.0000000E+04;  0.0000000E+00;  3.9276539E+04; -1.5588832E-01;  0.0000000E+00; -1.5034159E-01;  4.0658423E+03;
  1.3927478E+00;  9.9999998E-03;  7.0648074E-02;9844;  9.5598924E-01;  0.0000000E+00; -9.4950981E-03;  9.9649829E+02;  1.0574562E-01; -2.4685686E+03;3; -6.6525230E+01;  0.0000000E+00; -1.9182079E+01;0;  1.1303746E+00;  3.6184426E+04;  0.0000000E+00;  5.3436151E+00;  4.0000000E+04;  0.0000000E+00;  3.9263914E+04;  1.1723353E+00;  0.0000000E+00; -4.1960735E-02;  2.5353894E+03;
  1.3926554E+00;  9.9999998E-03;  8.0756128E-02;9845;  9.4171119E-01;  0.0000000E+00; -1.0303061E-02;  9.9658301E+02;  1.0574576E-01; -2.4092690E+03;3; -7.3097618E+01;  0.0000000E+00; -1.7149960E+01;0;  1.0315913E+00;  3.6181332E+04;  0.0000000E+00;  9.2129145E+00;  4.0000000E+04;  0.0000000E+00;  3.9274000E+04;  1.0849303E+00;  0.0000000E+00; -5.3339005E-02;  4.1754175E+03;
  1.3925455E+00;  9.9999998E-03;  9.0881467E-02;9846;  9.2465621E-01;  0.0000000E+00; -1.0015484E-02;  9.9661328E+02;  1.0574556E-01; -2.3884019E+03;3; -7.6768303E+01;  0.0000000E+00; -1.4051410E+01;0;  9.0637600E-01;  3.6174984E+04;  0.0000000E+00;  1.3989430E+01;  4.0000000E+04;  0.0000000E+00;  3.9282938E+04;  9.7239536E-01;  0.0000000E+00; -6.6019364E-02;  6.1692046E+03;
  1.3924248E+00;  9.9999998E-03;  1.0102812E-01;9847;  9.0521348E-01;  0.0000000E+00; -8.2623716E-03;  9.9653033E+02;  1.0574582E-01; -2.4474131E+03;3; -7.7653770E+01;  0.0000000E+00; -1.0307614E+01;0;  7.5238055E-01;  3.6163770E+04;  0.0000000E+00;  1.9080809E+01;  4.0000000E+04;  0.0000000E+00;  3.9288516E+04;  8.3005393E-01;  0.0000000E+00; -7.7673376E-02;  8.2890713E+03;
  1.3922999E+00;  9.9999998E-03;  1.1119261E-01;9848;  8.8422459E-01;  0.0000000E+00; -5.3729643E-03;  9.9629376E+02;  1.0574585E-01; -2.6148833E+03;3; -7.3925781E+01;  0.0000000E+00; -8.7756500E+00;0;  5.6953388E-01;  3.6146836E+04;  0.0000000E+00;  2.3569994E+01;  4.0000000E+04;  0.0000000E+00;  3.9288469E+04;  6.5519542E-01;  0.0000000E+00; -8.5661523E-02;  1.0185400E+04;
  1.3921732E+00;  9.9999998E-03;  1.2135690E-01;9849;  8.6447573E-01;  0.0000000E+00; -3.6260816E-03;  9.9594171E+02;  1.0574604E-01; -2.8639570E+03;3; -6.1037247E+01;  0.0000000E+00; -1.4675100E+01;0;  3.6758015E-01;  3.6125801E+04;  0.0000000E+00;  2.6677158E+01;  4.0000000E+04;  0.0000000E+00;  3.9283758E+04;  4.6038765E-01;  0.0000000E+00; -9.2807502E-02;  1.1555012E+04;
  1.3913391E+00;  9.9999998E-03;  1.8189898E-01;9855;  8.3336431E-01;  0.0000000E+00; -1.3708468E-02;  9.9645709E+02;  1.0575406E-01; -2.5040422E+03;3;  1.8399811E+01;  0.0000000E+00; -1.2301552E+01;0; -3.6003825E-01;  3.6152355E+04;  0.0000000E+00;  9.2522818E-01;  4.0000000E+04;  0.0000000E+00;  3.9295605E+04; -2.2563872E-01;  0.0000000E+00; -1.3439953E-01;  2.0842817E+03;
  1.3909662E+00;  9.9999998E-03;  2.0194182E-01;9857;  8.3595085E-01;  0.0000000E+00; -1.3790061E-02;  9.9858478E+02;  1.0575281E-01; -1.0009039E+03;3;  2.8914005E+01;  0.0000000E+00; -1.1571105E+01;0; -3.8810897E-01;  3.6279738E+04;  0.0000000E+00;  7.8266201E+00;  4.0000000E+04;  0.0000000E+00;  3.9324734E+04; -3.0645928E-01;  0.0000000E+00; -8.1649706E-02;  2.4031418E+03;
  1.3911673E+00;  9.9999998E-03;  1.9192289E-01;9856;  8.3419776E-01;  0.0000000E+00; -1.3679024E-02;  9.9744183E+02;  1.0575542E-01; -1.8086228E+03;3;  2.3915857E+01;  0.0000000E+00; -1.1798437E+01;0; -3.8267553E-01;  3.6207840E+04;  0.0000000E+00;  5.3852212E-02;  4.0000000E+04;  0.0000000E+00;  3.9313090E+04; -2.7371183E-01;  0.0000000E+00; -1.0896371E-01;  2.1780056E+03;
  1.4017771E+00;  9.9999998E-03;  1.8196464E-01;9894;  8.3158100E-01;  0.0000000E+00; -6.4275637E-03;  9.9747095E+02;  1.0563115E-01; -1.7525040E+03;3;  1.7116467E+01;  0.0000000E+00; -2.0021976E+01;0; -3.4548014E-01;  3.6336805E+04;  0.0000000E+00;  1.3649752E+00;  4.0000000E+04;  0.0000000E+00;  3.9267516E+04; -2.4772348E-01;  0.0000000E+00; -9.7756684E-02;  2.5243979E+03;
  1.4023570E+00;  9.9999998E-03;  1.4174506E-01;9890;  8.4444052E-01;  0.0000000E+00; -6.9661997E-04;  9.9544208E+02;  1.0562383E-01; -3.1548264E+03;3; -1.7579773E+01;  0.0000000E+00; -2.9958431E+01;0; -1.9645572E-02;  3.6238254E+04;  0.0000000E+00;  1.3785465E+01;  4.0000000E+04;  0.0000000E+00;  3.9214000E+04;  9.0863101E-02;  0.0000000E+00; -1.1050867E-01;  5.9621621E+03;
  1.4022269E+00;  9.9999998E-03;  1.5183087E-01;9891;  8.3871162E-01;  0.0000000E+00; -3.4574892E-03;  9.9554608E+02;  1.0562576E-01; -3.0836248E+03;3; -6.4025664E+00;  0.0000000E+00; -2.6070992E+01;0; -1.4948687E-01;  3.6242676E+04;  0.0000000E+00;  8.1731596E+00;  4.0000000E+04;  0.0000000E+00;  3.9217324E+04; -2.1356888E-02;  0.0000000E+00; -1.2812997E-01;  4.0554727E+03;
  1.4020909E+00;  9.9999998E-03;  1.6189146E-01;9892;  8.3471334E-01;  0.0000000E+00; -5.1852763E-03;  9.9592291E+02;  1.0562828E-01; -2.8234922E+03;3;  2.6900306E+00;  0.0000000E+00; -2.3034449E+01;0; -2.4923709E-01;  3.6259109E+04;  0.0000000E+00;  2.5941660E+00;  4.0000000E+04;  0.0000000E+00;  3.9229465E+04; -1.1676666E-01;  0.0000000E+00; -1.3247043E-01;  2.3985095E+03;
  1.4019437E+00;  9.9999998E-03;  1.7193320E-01;9893;  8.3236265E-01;  0.0000000E+00; -6.0950578E-03;  9.9658649E+02;  1.0563057E-01; -2.3646306E+03;3;  1.0395774E+01;  0.0000000E+00; -2.1182312E+01;0; -3.1470475E-01;  3.6290023E+04;  0.0000000E+00; -6.9370812E-01;  4.0000000E+04;  0.0000000E+00;  3.9248465E+04; -1.9266401E-01;  0.0000000E+00; -1.2204074E-01;  2.2210449E+03;
  1.4024869E+00;  9.9999998E-03;  1.3163067E-01;9889;  8.5270494E-01;  0.0000000E+00;  2.7636164E-03;  9.9552173E+02;  1.0562225E-01; -3.0989119E+03;3; -3.5404358E+01;  0.0000000E+00; -2.9979630E+01;0;  1.3883990E-01;  3.6240676E+04;  0.0000000E+00;  1.8012360E+01;  4.0000000E+04;  0.0000000E+00;  3.9218133E+04;  2.2515438E-01;  0.0000000E+00; -8.6314477E-02;  7.3821763E+03;
  1.4031267E+00;  9.9999998E-03;  7.0771612E-02;9883;  9.5944792E-01;  0.0000000E+00; -7.2150299E-04;  9.9631995E+02;  1.0562268E-01; -2.5433262E+03;3; -6.9733894E+01;  0.0000000E+00; -2.2883266E+01;0;  1.1645319E+00;  3.6309273E+04;  0.0000000E+00;  7.2076516E+00;  4.0000000E+04;  0.0000000E+00;  3.9207102E+04;  1.1755624E+00;  0.0000000E+00; -1.1030456E-02;  2.9176394E+03;
  1.4027537E+00;  9.9999998E-03;  1.1135151E-01;9887;  8.8370240E-01;  0.0000000E+00;  5.2787494E-03;  9.9576202E+02;  1.0562170E-01; -2.9310632E+03;3; -7.3306549E+01;  0.0000000E+00; -1.7470388E+01;0;  5.3716111E-01;  3.6251137E+04;  0.0000000E+00;  1.9383051E+01;  4.0000000E+04;  0.0000000E+00;  3.9226105E+04;  5.9128791E-01;  0.0000000E+00; -5.4126788E-02;  7.6763730E+03;
  1.4026239E+00;  9.9999998E-03;  1.2149699E-01;9888;  8.6527139E-01;  0.0000000E+00;  5.3145611E-03;  9.9560876E+02;  1.0562208E-01; -3.0378708E+03;3; -5.6536282E+01;  0.0000000E+00; -2.4784521E+01;0;  3.2532990E-01;  3.6242523E+04;  0.0000000E+00;  1.9811214E+01;  4.0000000E+04;  0.0000000E+00;  3.9223105E+04;  3.9117134E-01;  0.0000000E+00; -6.5841444E-02;  7.9319727E+03;
  1.4030532E+00;  9.9999998E-03;  8.0897480E-02;9884;  9.4464278E-01;  0.0000000E+00; -7.9703709E-04;  9.9630377E+02;  1.0562194E-01; -2.5548625E+03;3; -7.5618187E+01;  0.0000000E+00; -2.0037479E+01;0;  1.0612659E+00;  3.6299137E+04;  0.0000000E+00;  1.0754461E+01;  4.0000000E+04;  0.0000000E+00;  3.9216922E+04;  1.0851969E+00;  0.0000000E+00; -2.3930911E-02;  4.2818569E+03;
  1.4029673E+00;  9.9999998E-03;  9.1037758E-02;9885;  9.2635220E-01;  0.0000000E+00;  3.9269391E-04;  9.9619482E+02;  1.0562176E-01; -2.6306226E+03;3; -8.0121536E+01;  0.0000000E+00; -1.7355051E+01;0;  9.2163491E-01;  3.6284203E+04;  0.0000000E+00;  1.4431602E+01;  4.0000000E+04;  0.0000000E+00;  3.9224453E+04;  9.5832223E-01;  0.0000000E+00; -3.6687285E-02;  5.6956782E+03;
  1.4028679E+00;  9.9999998E-03;  1.0119202E-01;9886;  9.0534490E-01;  0.0000000E+00;  2.8995846E-03;  9.9599786E+02;  1.0562199E-01; -2.7673550E+03;3; -8.0313087E+01;  0.0000000E+00; -1.5038836E+01;0;  7.4430382E-01;  3.6266699E+04;  0.0000000E+00;  1.7528656E+01;  4.0000000E+04;  0.0000000E+00;  3.9227707E+04;  7.9090285E-01;  0.0000000E+00; -4.6599049E-02;  6.9065757E+03;
  1.4134905E+00;  9.9999998E-03;  7.0910059E-02;9919;  9.5949703E-01;  0.0000000E+00;  9.9562379E-03;  9.9627618E+02;  1.0551874E-01; -2.5193516E+03;3; -7.3884979E+01;  0.0000000E+00; -2.1595753E+01;0;  1.1567488E+00;  3.6435086E+04;  0.0000000E+00;  6.8940725E+00;  4.0000000E+04;  0.0000000E+00;  3.9146457E+04;  1.1261932E+00;  0.0000000E+00;  3.0555598E-02;  2.5274277E+03;
  1.4134310E+00;  9.9999998E-03;  8.1049465E-02;9920;  9.4377208E-01;  0.0000000E+00;  1.1276321E-02;  9.9616791E+02;  1.0551846E-01; -2.5929509E+03;3; -7.8356804E+01;  0.0000000E+00; -2.0146368E+01;0;  1.0430361E+00;  3.6419465E+04;  0.0000000E+00;  9.1383867E+00;  4.0000000E+04;  0.0000000E+00;  3.9154758E+04;  1.0226526E+00;  0.0000000E+00;  2.0383447E-02;  3.3676663E+03;
  1.4133573E+00;  9.9999998E-03;  9.1194578E-02;9921;  9.2458218E-01;  0.0000000E+00;  1.3737325E-02;  9.9601196E+02;  1.0551830E-01; -2.6988787E+03;3; -8.1067802E+01;  0.0000000E+00; -2.0203337E+01;0;  8.8637912E-01;  3.6402070E+04;  0.0000000E+00;  1.0925465E+01;  4.0000000E+04;  0.0000000E+00;  3.9160703E+04;  8.7390524E-01;  0.0000000E+00;  1.2473861E-02;  4.0691086E+03;
  1.4132663E+00;  9.9999998E-03;  1.0134239E-01;9922;  9.0354866E-01;  0.0000000E+00;  1.6182845E-02;  9.9585083E+02;  1.0551828E-01; -2.8084917E+03;3; -7.8587242E+01;  0.0000000E+00; -2.2940704E+01;0;  6.9258809E-01;  3.6387719E+04;  0.0000000E+00;  1.1766646E+01;  4.0000000E+04;  0.0000000E+00;  3.9163664E+04;  6.8632007E-01;  0.0000000E+00;  6.2680226E-03;  4.4645073E+03;
  1.4131557E+00;  9.9999998E-03;  1.1148398E-01;9923;  8.8352424E-01;  0.0000000E+00;  1.6984729E-02;  9.9578857E+02;  1.0551807E-01; -2.8512800E+03;3; -6.8850410E+01;  0.0000000E+00; -2.8223091E+01;0;  4.8163807E-01;  3.6382426E+04;  0.0000000E+00;  1.1437526E+01;  4.0000000E+04;  0.0000000E+00;  3.9164531E+04;  4.8438108E-01;  0.0000000E+00; -2.7430200E-03;  4.4683193E+03;
  1.4130348E+00;  9.9999998E-03;  1.2161747E-01;9924;  8.6726141E-01;  0.0000000E+00;  1.5567348E-02;  9.9578436E+02;  1.0551834E-01; -2.8548767E+03;3; -5.2757484E+01;  0.0000000E+00; -3.3684372E+01;0;  2.8227818E-01;  3.6383277E+04;  0.0000000E+00;  9.5216064E+00;  4.0000000E+04;  0.0000000E+00;  3.9163102E+04;  3.0069494E-01;  0.0000000E+00; -1.8416751E-02;  3.9596389E+03;
  1.4129136E+00;  9.9999998E-03;  1.3173397E-01;9925;  8.5484868E-01;  0.0000000E+00;  1.2633494E-02;  9.9579712E+02;  1.0551947E-01; -2.8469680E+03;3; -3.5946430E+01;  0.0000000E+00; -3.6935802E+01;0;  1.0491637E-01;  3.6384410E+04;  0.0000000E+00;  6.1881866E+00;  4.0000000E+04;  0.0000000E+00;  3.9162863E+04;  1.4461198E-01;  0.0000000E+00; -3.9695613E-02;  3.0477910E+03;
  1.4127893E+00;  9.9999998E-03;  1.4182729E-01;9926;  8.4587133E-01;  0.0000000E+00;  9.3396148E-03;  9.9594427E+02;  1.0552137E-01; -2.7480037E+03;3; -2.0828005E+01;  0.0000000E+00; -3.6511036E+01;0; -4.2059533E-02;  3.6390527E+04;  0.0000000E+00;  2.3484819E+00;  4.0000000E+04;  0.0000000E+00;  3.9167906E+04;  1.8694928E-02;  0.0000000E+00; -6.0754459E-02;  2.1734138E+03;
  1.4126576E+00;  9.9999998E-03;  1.5189674E-01;9927;  8.3924770E-01;  0.0000000E+00;  6.6903164E-03;  9.9631897E+02;  1.0552389E-01; -2.4947930E+03;3; -1.0093556E+01;  0.0000000E+00; -3.3822182E+01;0; -1.5690449E-01;  3.6405766E+04;  0.0000000E+00; -5.6747240E-01;  4.0000000E+04;  0.0000000E+00;  3.9180707E+04; -8.4205486E-02;  0.0000000E+00; -7.2698995E-02;  2.0437910E+03;
  1.4123477E+00;  9.9999998E-03;  1.7198510E-01;9929;  8.3193338E-01;  0.0000000E+00;  3.9938204E-03;  9.9780737E+02;  1.0552540E-01; -1.4870133E+03;3;  8.3854923E+00;  0.0000000E+00; -2.9584885E+01;0; -2.7605692E-01;  3.6476238E+04;  0.0000000E+00;  4.5835791E+00;  4.0000000E+04;  0.0000000E+00;  3.9221215E+04; -2.2571844E-01;  0.0000000E+00; -5.0338469E-02;  2.8195103E+03;
  1.4125131E+00;  9.9999998E-03;  1.6194727E-01;9928;  8.3471686E-01;  0.0000000E+00;  4.9991915E-03;  9.9694440E+02;  1.0552569E-01; -2.0715803E+03;3; -1.3406461E-01;  0.0000000E+00; -3.1453156E+01;0; -2.3426118E-01;  3.6433273E+04;  0.0000000E+00; -6.0876375E-01;  4.0000000E+04;  0.0000000E+00;  3.9199914E+04; -1.6503061E-01;  0.0000000E+00; -6.9230571E-02;  2.4476531E+03;
  1.4238575E+00;  9.9999998E-03;  7.1024932E-02;9953;  9.6170276E-01;  0.0000000E+00;  1.6663721E-02;  9.9640417E+02;  1.0543346E-01; -2.3782512E+03;3; -7.8769905E+01;  0.0000000E+00; -1.4602521E+01;0;  1.1277605E+00;  3.6559727E+04;  0.0000000E+00;  4.3207464E+00;  4.0000000E+04;  0.0000000E+00;  3.9087184E+04;  1.0565820E+00;  0.0000000E+00;  7.1178593E-02;  1.6712469E+03;
  1.4237999E+00;  9.9999998E-03;  8.1174485E-02;9954;  9.4414306E-01;  0.0000000E+00;  2.1202344E-02;  9.9631549E+02;  1.0543323E-01; -2.4372271E+03;3; -8.1017052E+01;  0.0000000E+00; -1.1345226E+01;0;  9.9387974E-01;  3.6547027E+04;  0.0000000E+00;  4.8648791E+00;  4.0000000E+04;  0.0000000E+00;  3.9093711E+04;  9.2399269E-01;  0.0000000E+00;  6.9887027E-02;  2.0000482E+03;
  1.4237286E+00;  9.9999998E-03;  9.1326825E-02;9955;  9.2455775E-01;  0.0000000E+00;  2.5856480E-02;  9.9620007E+02;  1.0543282E-01; -2.5139602E+03;3; -8.2763206E+01;  0.0000000E+00; -1.6405836E+01;0;  8.2933182E-01;  3.6535473E+04;  0.0000000E+00;  4.6177974E+00;  4.0000000E+04;  0.0000000E+00;  3.9097230E+04;  7.5650030E-01;  0.0000000E+00;  7.2831534E-02;  2.1112251E+03;
  1.4236419E+00;  9.9999998E-03;  1.0147403E-01;9956;  9.0446240E-01;  0.0000000E+00;  2.8771380E-02;  9.9612415E+02;  1.0543273E-01; -2.5646975E+03;3; -7.8233101E+01;  0.0000000E+00; -2.5523357E+01;0;  6.3923448E-01;  3.6528746E+04;  0.0000000E+00;  3.5771003E+00;  4.0000000E+04;  0.0000000E+00;  3.9098230E+04;  5.6496370E-01;  0.0000000E+00;  7.4270800E-02;  1.9976063E+03;
  1.4235442E+00;  9.9999998E-03;  1.1160774E-01;9957;  8.8609213E-01;  0.0000000E+00;  2.8962549E-02;  9.9609894E+02;  1.0543324E-01; -2.5819475E+03;3; -6.7822174E+01;  0.0000000E+00; -3.3747871E+01;0;  4.4386548E-01;  3.6525848E+04;  0.0000000E+00;  1.9149696E+00;  4.0000000E+04;  0.0000000E+00;  3.9099129E+04;  3.7602639E-01;  0.0000000E+00;  6.7839079E-02;  1.7655488E+03;
  1.4234375E+00;  9.9999998E-03;  1.2172549E-01;9958;  8.7034982E-01;  0.0000000E+00;  2.7201217E-02;  9.9614325E+02;  1.0543445E-01; -2.5532473E+03;3; -5.3618099E+01;  0.0000000E+00; -3.9740883E+01;0;  2.5862402E-01;  3.6526953E+04;  0.0000000E+00; -3.4452189E-02;  4.0000000E+04;  0.0000000E+00;  3.9101289E+04;  2.0415381E-01;  0.0000000E+00;  5.4470204E-02;  1.5910851E+03;
  1.4233226E+00;  9.9999998E-03;  1.3182062E-01;9959;  8.5758829E-01;  0.0000000E+00;  2.4369005E-02;  9.9632916E+02;  1.0543600E-01; -2.4307612E+03;3; -3.7030228E+01;  0.0000000E+00; -4.3234943E+01;0;  9.5463544E-02;  3.6533344E+04;  0.0000000E+00; -1.4033470E+00;  4.0000000E+04;  0.0000000E+00;  3.9109004E+04;  5.7561159E-02;  0.0000000E+00;  3.7902381E-02;  1.7249906E+03;
  1.4231955E+00;  9.9999998E-03;  1.4189211E-01;9960;  8.4792888E-01;  0.0000000E+00;  2.1394728E-02;  9.9674695E+02;  1.0543765E-01; -2.1547339E+03;3; -2.3553871E+01;  0.0000000E+00; -4.3100498E+01;0; -3.1583872E-02;  3.6549188E+04;  0.0000000E+00; -1.0450479E+00;  4.0000000E+04;  0.0000000E+00;  3.9124824E+04; -5.6000207E-02;  0.0000000E+00;  2.4416335E-02;  2.0677703E+03;
  1.4230522E+00;  9.9999998E-03;  1.5194662E-01;9961;  8.4080553E-01;  0.0000000E+00;  1.9042974E-02;  9.9740332E+02;  1.0543797E-01; -1.7205256E+03;3; -1.2113639E+01;  0.0000000E+00; -4.1716881E+01;0; -1.1935916E-01;  3.6577012E+04;  0.0000000E+00;  2.5048761E+00;  4.0000000E+04;  0.0000000E+00;  3.9146133E+04; -1.4228669E-01;  0.0000000E+00;  2.2927528E-02;  2.4463032E+03;
  1.4228858E+00;  9.9999998E-03;  1.6198790E-01;9962;  8.3556002E-01;  0.0000000E+00;  1.7256251E-02;  9.9831384E+02;  1.0543631E-01; -1.1176420E+03;3; -1.9620245E+00;  0.0000000E+00; -3.9506813E+01;0; -1.7458630E-01;  3.6620203E+04;  0.0000000E+00;  1.0903949E+01;  4.0000000E+04;  0.0000000E+00;  3.9170855E+04; -2.0982675E-01;  0.0000000E+00;  3.5240464E-02;  3.4085400E+03;
  1.4342341E+00;  9.9999998E-03;  7.1136586E-02;9984;  9.6510917E-01;  0.0000000E+00;  2.0207273E-02;  9.9650018E+02;  1.0536139E-01; -2.2600688E+03;3; -8.3693459E+01;  0.0000000E+00; -1.1782795E+01;0;  1.0758214E+00;  3.6674348E+04;  0.0000000E+00; -3.7784178E-03;  4.0000000E+04;  0.0000000E+00;  3.9026289E+04;  9.6801591E-01;  0.0000000E+00;  1.0780549E-01;  1.0327179E+03;
  1.4341749E+00;  9.9999998E-03;  8.1292808E-02;9985;  9.4784272E-01;  0.0000000E+00;  2.5470618E-02;  9.9647650E+02;  1.0536095E-01; -2.2756670E+03;3; -8.2815605E+01;  0.0000000E+00; -7.4066620E+00;0;  9.3886405E-01;  3.6668867E+04;  0.0000000E+00; -6.2137324E-01;  4.0000000E+04;  0.0000000E+00;  3.9030312E+04;  8.2931346E-01;  0.0000000E+00;  1.0955060E-01;  1.1648851E+03;
  1.4341037E+00;  9.9999998E-03;  9.1440849E-02;9986;  9.2976093E-01;  0.0000000E+00;  3.1291950E-02;  9.9646381E+02;  1.0536107E-01; -2.2842498E+03;3; -8.4382065E+01;  0.0000000E+00; -6.6151175E+00;0;  7.9363251E-01;  3.6665285E+04;  0.0000000E+00; -1.4115887E+00;  4.0000000E+04;  0.0000000E+00;  3.9033043E+04;  6.7509454E-01;  0.0000000E+00;  1.1853797E-01;  1.2733862E+03;
  1.4340206E+00;  9.9999998E-03;  1.0157634E-01;9987;  9.1090876E-01;  0.0000000E+00;  3.6256429E-02;  9.9649274E+02;  1.0536166E-01; -2.2660190E+03;3; -8.4132462E+01;  0.0000000E+00; -1.0635919E+01;0;  6.3141972E-01;  3.6664809E+04;  0.0000000E+00; -2.0742462E+00;  4.0000000E+04;  0.0000000E+00;  3.9035973E+04;  4.9950442E-01;  0.0000000E+00;  1.3191530E-01;  1.3846233E+03;
  1.4339267E+00;  9.9999998E-03;  1.1169295E-01;9988;  8.9187473E-01;  0.0000000E+00;  3.9258875E-02;  9.9660297E+02;  1.0536270E-01; -2.1952983E+03;3; -7.6850105E+01;  0.0000000E+00; -2.3331387E+01;0;  4.5136148E-01;  3.6667406E+04;  0.0000000E+00; -2.0645821E+00;  4.0000000E+04;  0.0000000E+00;  3.9041719E+04;  3.0564380E-01;  0.0000000E+00;  1.4571768E-01;  1.5364969E+03;
  1.4338206E+00;  9.9999998E-03;  1.2178866E-01;9989;  8.7449199E-01;  0.0000000E+00;  3.9649833E-02;  9.9685876E+02;  1.0536393E-01; -2.0304829E+03;3; -5.9095116E+01;  0.0000000E+00; -3.8594025E+01;0;  2.7204403E-01;  3.6675711E+04;  0.0000000E+00; -7.2632527E-01;  4.0000000E+04;  0.0000000E+00;  3.9052746E+04;  1.1895704E-01;  0.0000000E+00;  1.5308699E-01;  1.7316479E+03;
  1.4336985E+00;  9.9999998E-03;  1.3186465E-01;9990;  8.6088920E-01;  0.0000000E+00;  3.7860848E-02;  9.9732849E+02;  1.0536402E-01; -1.7273367E+03;3; -4.0332150E+01;  0.0000000E+00; -4.7235363E+01;0;  1.2930274E-01;  3.6693551E+04;  0.0000000E+00;  2.8175204E+00;  4.0000000E+04;  0.0000000E+00;  3.9069992E+04; -2.2628473E-02;  0.0000000E+00;  1.5193121E-01;  2.0653623E+03;
  1.4335574E+00;  9.9999998E-03;  1.4192292E-01;9991;  8.5053569E-01;  0.0000000E+00;  3.5403896E-02;  9.9803485E+02;  1.0536355E-01; -1.2710664E+03;3; -2.5107140E+01;  0.0000000E+00; -4.9429119E+01;0;  2.7375653E-02;  3.6723262E+04;  0.0000000E+00;  9.6486139E+00;  4.0000000E+04;  0.0000000E+00;  3.9093367E+04; -1.2440340E-01;  0.0000000E+00;  1.5177906E-01;  2.9190088E+03;
  1.4445971E+00;  9.9999998E-03;  7.1232058E-02;10011;  9.6865934E-01;  0.0000000E+00;  2.3399197E-02;  9.9679352E+02;  1.0530163E-01; -2.0197654E+03;3; -8.4943245E+01;  0.0000000E+00; -1.0804918E+01;0;  1.0024860E+00;  3.6794949E+04;  0.0000000E+00; -2.2358761E+00;  4.0000000E+04;  0.0000000E+00;  3.8965707E+04;  8.5737365E-01;  0.0000000E+00;  1.4511238E-01;  1.1329133E+03;
  1.4445390E+00;  9.9999998E-03;  8.1382871E-02;10012;  9.5328605E-01;  0.0000000E+00;  2.7875530E-02;  9.9683057E+02;  1.0530208E-01; -1.9966960E+03;3; -8.3341156E+01;  0.0000000E+00; -7.7260027E+00;0;  8.8917840E-01;  3.6793754E+04;  0.0000000E+00; -2.0824192E+00;  4.0000000E+04;  0.0000000E+00;  3.8969480E+04;  7.4399966E-01;  0.0000000E+00;  1.4517871E-01;  1.2281643E+03;
  1.4444666E+00;  9.9999998E-03;  9.1514967E-02;10013;  9.3693870E-01;  0.0000000E+00;  3.3446241E-02;  9.9697119E+02;  1.0530243E-01; -1.9084519E+03;3; -8.3165833E+01;  0.0000000E+00; -6.7061329E+00;0;  7.7177256E-01;  3.6797727E+04;  0.0000000E+00; -1.0943559E+00;  4.0000000E+04;  0.0000000E+00;  3.8976258E+04;  6.1677527E-01;  0.0000000E+00;  1.5499729E-01;  1.3263274E+03;
  1.4443805E+00;  9.9999998E-03;  1.0162757E-01;10014;  9.1943479E-01;  0.0000000E+00;  3.9451387E-02;  9.9723773E+02;  1.0530303E-01; -1.7408636E+03;3; -8.3708267E+01;  0.0000000E+00; -7.5367017E+00;0;  6.4400101E-01;  3.6806559E+04;  0.0000000E+00;  1.0528373E+00;  4.0000000E+04;  0.0000000E+00;  3.8987363E+04;  4.6785995E-01;  0.0000000E+00;  1.7614108E-01;  1.5144581E+03;
  1.4442804E+00;  9.9999998E-03;  1.1172081E-01;10015;  9.0060234E-01;  0.0000000E+00;  4.5539353E-02;  9.9764001E+02;  1.0530306E-01; -1.4877026E+03;3; -8.1879356E+01;  0.0000000E+00; -1.1723248E+01;0;  5.0088155E-01;  3.6820504E+04;  0.0000000E+00;  4.8240571E+00;  4.0000000E+04;  0.0000000E+00;  3.9003883E+04;  2.8901437E-01;  0.0000000E+00;  2.1186718E-01;  1.9541226E+03;
  1.4441661E+00;  9.9999998E-03;  1.2180106E-01;10016;  8.8138568E-01;  0.0000000E+00;  5.0098907E-02;  9.9814288E+02;  1.0530274E-01; -1.1710179E+03;3; -7.0557465E+01;  0.0000000E+00; -2.5153488E+01;0;  3.4530231E-01;  3.6838680E+04;  0.0000000E+00;  1.1027445E+01;  4.0000000E+04;  0.0000000E+00;  3.9023676E+04;  8.9301139E-02;  0.0000000E+00;  2.5600117E-01;  2.8138359E+03;
  1.4549387E+00;  9.9999998E-03;  7.1273163E-02;10033;  9.7475660E-01;  0.0000000E+00;  2.9181192E-02;  9.9747357E+02;  1.0525089E-01; -1.5511592E+03;3; -8.5926514E+01;  0.0000000E+00; -1.5463496E+01;0;  9.7702038E-01;  3.6926348E+04;  0.0000000E+00;  1.7762473E+00;  4.0000000E+04;  0.0000000E+00;  3.8916531E+04;  7.8068095E-01;  0.0000000E+00;  1.9633946E-01;  1.2465697E+03;
  1.4548777E+00;  9.9999998E-03;  8.1406310E-02;10034;  9.5942044E-01;  0.0000000E+00;  3.4388818E-02;  9.9766553E+02;  1.0525091E-01; -1.4335387E+03;3; -8.4766106E+01;  0.0000000E+00; -1.4650363E+01;0;  8.7496114E-01;  3.6931195E+04;  0.0000000E+00;  4.3893018E+00;  4.0000000E+04;  0.0000000E+00;  3.8926348E+04;  6.7035908E-01;  0.0000000E+00;  2.0460209E-01;  1.5548453E+03;
  1.4548032E+00;  9.9999998E-03;  9.1525145E-02;10035;  9.4314408E-01;  0.0000000E+00;  4.0221207E-02;  9.9794727E+02;  1.0525078E-01; -1.2607579E+03;3; -8.2932213E+01;  0.0000000E+00; -1.3776437E+01;0;  7.7167940E-01;  3.6939742E+04;  0.0000000E+00;  8.4813242E+00;  4.0000000E+04;  0.0000000E+00;  3.8939000E+04;  5.4909092E-01;  0.0000000E+00;  2.2258851E-01;  2.0902654E+03;
  1.9961081E-03;  9.9999998E-03;  2.3971772E-01;2501; -2.6533732E-03;  0.0000000E+00;  4.5418208E-03;  9.8038129E+02;  1.0000000E-01; -1.6253713E+04;3;  1.3131656E+02;  0.0000000E+00; -1.9964928E+01;0; -1.4944394E-01;  3.8434504E+04;  0.0000000E+00; -3.4740728E-03;  4.0000000E+04;  0.0000000E+00;  4.0026801E+04; -1.4532012E-01;  0.0000000E+00; -4.1238172E-03;  5.0029521E+03;
  1.6430084E-03;  9.9999998E-03;  2.4968852E-01;2502; -2.4441860E-03;  0.0000000E+00;  4.4390145E-03;  9.8227570E+02;  1.0000000E-01; -1.4684227E+04;3;  1.0695718E+02;  0.0000000E+00; -2.9215418E+01;0; -1.3889553E-01;  3.8593418E+04;  0.0000000E+00;  5.5606216E-02;  4.0000000E+04;  0.0000000E+00;  4.0012164E+04; -1.3012268E-01;  0.0000000E+00; -8.7728444E-03;  3.0025793E+03;
  1.2756292E-03;  9.9999998E-03;  2.5966597E-01;2503; -2.3529553E-03;  0.0000000E+00;  4.1933125E-03;  9.8422333E+02;  1.0000000E-01; -1.3070692E+04;3;  8.0928703E+01;  0.0000000E+00; -3.8747078E+01;0; -1.2806796E-01;  3.8760062E+04;  0.0000000E+00;  9.7158305E-02;  4.0000000E+04;  0.0000000E+00;  3.9994066E+04; -1.1481795E-01;  0.0000000E+00; -1.3250005E-02;  6.2549530E+02;
  9.0696948E-04;  9.9999998E-03;  2.6966020E-01;2504; -2.3529199E-03;  0.0000000E+00;  3.8202447E-03;  9.8618054E+02;  1.0000000E-01; -1.1449157E+04;3;  5.5373524E+01;  0.0000000E+00; -4.8201488E+01;0; -1.1684506E-01;  3.8929770E+04;  0.0000000E+00;  1.1275814E-01;  4.0000000E+04;  0.0000000E+00;  3.9974875E+04; -9.9650800E-02;  0.0000000E+00; -1.7194254E-02;  1.9867944E+03;
  5.6827907E-04;  9.9999998E-03;  2.7967691E-01;2505; -2.4134561E-03;  0.0000000E+00;  3.3410729E-03;  9.8810260E+02;  1.0000000E-01; -9.8567578E+03;3;  3.2463833E+01;  0.0000000E+00; -5.6813053E+01;0; -1.0518025E-01;  3.9097289E+04;  0.0000000E+00;  1.0086565E-01;  4.0000000E+04;  0.0000000E+00;  3.9955965E+04; -8.4901989E-02;  0.0000000E+00; -2.0278260E-02;  4.5074336E+03;
  2.9002872E-04;  9.9999998E-03;  2.8970951E-01;2506; -2.5140406E-03;  0.0000000E+00;  2.7816053E-03;  9.8994714E+02;  1.0000000E-01; -8.3286035E+03;3;  1.4035066E+01;  0.0000000E+00; -6.3309261E+01;0; -9.3100518E-02;  3.9257422E+04;  0.0000000E+00;  6.7098223E-02;  4.0000000E+04;  0.0000000E+00;  3.9939582E+04; -7.0858210E-02;  0.0000000E+00; -2.2242308E-02;  6.7024771E+03;
  1.2127208E-02;  9.9999998E-03;  2.3975651E-01;2561; -4.7376635E-03;  0.0000000E+00;  4.9649864E-03;  9.8069305E+02;  1.0000000E-01; -1.5995449E+04;3;  1.0748348E+02;  0.0000000E+00; -2.2878229E+01;0; -1.6919039E-01;  3.8453969E+04;  0.0000000E+00;  2.6469770E-01;  4.0000000E+04;  0.0000000E+00;  4.0031820E+04; -1.6486320E-01;  0.0000000E+00; -4.3271892E-03;  5.6112812E+03;
  1.1784702E-02;  9.9999998E-03;  2.4971622E-01;2562; -4.2733792E-03;  0.0000000E+00;  4.8582582E-03;  9.8242456E+02;  1.0000000E-01; -1.4560922E+04;3;  8.7007240E+01;  0.0000000E+00; -3.3046352E+01;0; -1.5776989E-01;  3.8601219E+04;  0.0000000E+00;  3.6928114E-01;  4.0000000E+04;  0.0000000E+00;  4.0015906E+04; -1.4803892E-01;  0.0000000E+00; -9.7309705E-03;  3.5311506E+03;
  1.1416974E-02;  9.9999998E-03;  2.5967863E-01;2563; -3.9176391E-03;  0.0000000E+00;  4.6035382E-03;  9.8422119E+02;  1.0000000E-01; -1.3072420E+04;3;  6.4181938E+01;  0.0000000E+00; -4.4027870E+01;0; -1.4592971E-01;  3.8757828E+04;  0.0000000E+00;  4.3216965E-01;  4.0000000E+04;  0.0000000E+00;  3.9996477E+04; -1.3094425E-01;  0.0000000E+00; -1.4985454E-02;  1.0990656E+03;
  1.1030124E-02;  9.9999998E-03;  2.6965526E-01;2564; -3.6531324E-03;  0.0000000E+00;  4.2115715E-03;  9.8604553E+02;  1.0000000E-01; -1.1561007E+04;3;  4.1189148E+01;  0.0000000E+00; -5.5354843E+01;0; -1.3352571E-01;  3.8919625E+04;  0.0000000E+00;  4.3983313E-01;  4.0000000E+04;  0.0000000E+00;  3.9974711E+04; -1.1386374E-01;  0.0000000E+00; -1.9661967E-02;  2.0780435E+03;
  1.0663394E-02;  9.9999998E-03;  2.7964967E-01;2565; -3.4614038E-03;  0.0000000E+00;  3.7007155E-03;  9.8786462E+02;  1.0000000E-01; -1.0053938E+04;3;  2.0247440E+01;  0.0000000E+00; -6.5979546E+01;0; -1.2052219E-01;  3.9081648E+04;  0.0000000E+00;  3.9233133E-01;  4.0000000E+04;  0.0000000E+00;  3.9953387E+04; -9.7156167E-02;  0.0000000E+00; -2.3366027E-02;  4.8640581E+03;
  1.0363441E-02;  9.9999998E-03;  2.8965178E-01;2566; -3.3152897E-03;  0.0000000E+00;  3.1064842E-03;  9.8963458E+02;  1.0000000E-01; -8.5875596E+03;3;  3.3014679E+00;  0.0000000E+00; -7.4368500E+01;0; -1.0698426E-01;  3.9238734E+04;  0.0000000E+00;  3.0346867E-01;  4.0000000E+04;  0.0000000E+00;  3.9934289E+04; -8.1200004E-02;  0.0000000E+00; -2.5784254E-02;  7.3779907E+03;
  1.0148829E-02;  9.9999998E-03;  2.9965243E-01;2567; -3.2232816E-03;  0.0000000E+00;  2.4673615E-03;  9.9132086E+02;  1.0000000E-01; -7.1905127E+03;3; -8.0781603E+00;  0.0000000E+00; -7.8434448E+01;0; -9.3041152E-02;  3.9385625E+04;  0.0000000E+00;  1.9551466E-01;  4.0000000E+04;  0.0000000E+00;  3.9920105E+04; -6.6318020E-02;  0.0000000E+00; -2.6723128E-02;  9.2838721E+03;
  2.2224864E-02;  9.9999998E-03;  2.3982321E-01;2622; -7.0932368E-03;  0.0000000E+00;  5.4092295E-03;  9.8165643E+02;  1.0000000E-01; -1.5197299E+04;3;  7.6109070E+01;  0.0000000E+00; -2.5195478E+01;0; -1.8650335E-01;  3.8523445E+04;  0.0000000E+00;  5.2042192E-01;  4.0000000E+04;  0.0000000E+00;  4.0036094E+04; -1.8220598E-01;  0.0000000E+00; -4.2973794E-03;  6.1300459E+03;
  2.1888534E-02;  9.9999998E-03;  2.4978189E-01;2623; -6.3430378E-03;  0.0000000E+00;  5.3001512E-03;  9.8315533E+02;  1.0000000E-01; -1.3955507E+04;3;  6.0770599E+01;  0.0000000E+00; -3.5418476E+01;0; -1.7448786E-01;  3.8653602E+04;  0.0000000E+00;  6.6907322E-01;  4.0000000E+04;  0.0000000E+00;  4.0019879E+04; -1.6409659E-01;  0.0000000E+00; -1.0391267E-02;  4.0519414E+03;
  2.1521971E-02;  9.9999998E-03;  2.5973937E-01;2624; -5.6995954E-03;  0.0000000E+00;  5.0333808E-03;  9.8472668E+02;  1.0000000E-01; -1.2653667E+04;3;  4.2660053E+01;  0.0000000E+00; -4.7101170E+01;0; -1.6190417E-01;  3.8794375E+04;  0.0000000E+00;  7.5380421E-01;  4.0000000E+04;  0.0000000E+00;  3.9999348E+04; -1.4552963E-01;  0.0000000E+00; -1.6374541E-02;  1.6368611E+03;
  2.1124823E-02;  9.9999998E-03;  2.6970983E-01;2625; -5.1497184E-03;  0.0000000E+00;  4.6162088E-03;  9.8634814E+02;  1.0000000E-01; -1.1310298E+04;3;  2.3729185E+01;  0.0000000E+00; -5.9819794E+01;0; -1.4857708E-01;  3.8942164E+04;  0.0000000E+00;  7.5569350E-01;  4.0000000E+04;  0.0000000E+00;  3.9975852E+04; -1.2682146E-01;  0.0000000E+00; -2.1755617E-02;  2.1767063E+03;
  2.0732366E-02;  9.9999998E-03;  2.7969900E-01;2626; -4.6796585E-03;  0.0000000E+00;  4.0714652E-03;  9.8799213E+02;  1.0000000E-01; -9.9483115E+03;3;  6.1293278E+00;  0.0000000E+00; -7.2366447E+01;0; -1.3445325E-01;  3.9092789E+04;  0.0000000E+00;  6.7502010E-01;  4.0000000E+04;  0.0000000E+00;  3.9952020E+04; -1.0838135E-01;  0.0000000E+00; -2.6071902E-02;  5.0855112E+03;
  2.0403003E-02;  9.9999998E-03;  2.8969082E-01;2627; -4.2778165E-03;  0.0000000E+00;  3.4304191E-03;  9.8962646E+02;  1.0000000E-01; -8.5942754E+03;3; -8.1383495E+00;  0.0000000E+00; -8.2760277E+01;0; -1.1963036E-01;  3.9241145E+04;  0.0000000E+00;  5.3270948E-01;  4.0000000E+04;  0.0000000E+00;  3.9930734E+04; -9.0682350E-02;  0.0000000E+00; -2.8948011E-02;  7.8387983E+03;
  2.0172054E-02;  9.9999998E-03;  2.9966843E-01;2628; -3.9363722E-03;  0.0000000E+00;  2.7376371E-03;  9.9121356E+02;  1.0000000E-01; -7.2793989E+03;3; -1.7462786E+01;  0.0000000E+00; -8.8452843E+01;0; -1.0430107E-01;  3.9382477E+04;  0.0000000E+00;  3.6313486E-01;  4.0000000E+04;  0.0000000E+00;  3.9914512E+04; -7.4145824E-02;  0.0000000E+00; -3.0155240E-02;  9.9860723E+03;
  3.2330230E-02;  9.9999998E-03;  2.3986928E-01;2683; -9.6602272E-03;  0.0000000E+00;  5.8141020E-03;  9.8305615E+02;  1.0000000E-01; -1.4037677E+04;3;  4.4788078E+01;  0.0000000E+00; -2.5854197E+01;0; -2.0102581E-01;  3.8627500E+04;  0.0000000E+00;  7.4254012E-01;  4.0000000E+04;  0.0000000E+00;  4.0040254E+04; -1.9704616E-01;  0.0000000E+00; -3.9796568E-03;  6.5593672E+03;
  3.1999428E-02;  9.9999998E-03;  2.4983104E-01;2684; -8.5948240E-03;  0.0000000E+00;  5.7229125E-03;  9.8427551E+02;  1.0000000E-01; -1.3027434E+04;3;  3.4419464E+01;  0.0000000E+00; -3.5551392E+01;0; -1.8873098E-01;  3.8736441E+04;  0.0000000E+00;  9.2243826E-01;  4.0000000E+04;  0.0000000E+00;  4.0023902E+04; -1.7806977E-01;  0.0000000E+00; -1.0661218E-02;  4.5379731E+03;
  3.1630732E-02;  9.9999998E-03;  2.5979158E-01;2685; -7.6384372E-03;  0.0000000E+00;  5.4535540E-03;  9.8558069E+02;  1.0000000E-01; -1.1946131E+04;3;  2.1084124E+01;  0.0000000E+00; -4.7330482E+01;0; -1.7569344E-01;  3.8857465E+04;  0.0000000E+00;  1.0198078E+00;  4.0000000E+04;  0.0000000E+00;  4.0002484E+04; -1.5840150E-01;  0.0000000E+00; -1.7291939E-02;  2.1409709E+03;
  3.1222027E-02;  9.9999998E-03;  2.6976690E-01;2686; -6.7813350E-03;  0.0000000E+00;  5.0138463E-03;  9.8695367E+02;  1.0000000E-01; -1.0808633E+04;3;  6.4375601E+00;  0.0000000E+00; -6.1017601E+01;0; -1.6171315E-01;  3.8987414E+04;  0.0000000E+00;  1.0114844E+00;  4.0000000E+04;  0.0000000E+00;  3.9977590E+04; -1.3839097E-01;  0.0000000E+00; -2.3322174E-02;  2.2507358E+03;
  3.0805668E-02;  9.9999998E-03;  2.7976230E-01;2687; -6.0141087E-03;  0.0000000E+00;  4.4314368E-03;  9.8838068E+02;  1.0000000E-01; -9.6263945E+03;3; -7.5474348E+00;  0.0000000E+00; -7.5272339E+01;0; -1.4672218E-01;  3.9122660E+04;  0.0000000E+00;  8.9803964E-01;  4.0000000E+04;  0.0000000E+00;  3.9952043E+04; -1.1849974E-01;  0.0000000E+00; -2.8222436E-02;  5.1887515E+03;
  3.0443292E-02;  9.9999998E-03;  2.8975990E-01;2688; -5.3300965E-03;  0.0000000E+00;  3.7408927E-03;  9.8983258E+02;  1.0000000E-01; -8.4235146E+03;3; -1.8917002E+01;  0.0000000E+00; -8.7744324E+01;0; -1.3083145E-01;  3.9259109E+04;  0.0000000E+00;  7.0662141E-01;  4.0000000E+04;  0.0000000E+00;  3.9928812E+04; -9.9279195E-02;  0.0000000E+00; -3.1552263E-02;  8.1245601E+03;
  3.0191118E-02;  9.9999998E-03;  2.9973710E-01;2689; -4.7153127E-03;  0.0000000E+00;  2.9992559E-03;  9.9128448E+02;  1.0000000E-01; -7.2206353E+03;3; -2.6076687E+01;  0.0000000E+00; -9.5337349E+01;0; -1.1429797E-01;  3.9391359E+04;  0.0000000E+00;  4.8281470E-01;  4.0000000E+04;  0.0000000E+00;  3.9910801E+04; -8.1258923E-02;  0.0000000E+00; -3.3039048E-02;  1.0466205E+04;
  4.2439863E-02;  9.9999998E-03;  2.3989196E-01;2744; -1.2357545E-02;  0.0000000E+00;  6.1213989E-03;  9.8467609E+02;  1.0000000E-01; -1.2695592E+04;3;  1.8822504E+01;  0.0000000E+00; -2.4394854E+01;0; -2.1259907E-01;  3.8749398E+04;  0.0000000E+00;  9.3334621E-01;  4.0000000E+04;  0.0000000E+00;  4.0044215E+04; -2.0922264E-01;  0.0000000E+00; -3.3764280E-03;  6.9489058E+03;
  4.2115673E-02;  9.9999998E-03;  2.4985698E-01;2745; -1.0958720E-02;  0.0000000E+00;  6.0863392E-03;  9.8560583E+02;  1.0000000E-01; -1.1925292E+04;3;  1.2320133E+01;  0.0000000E+00; -3.3083385E+01;0; -2.0034564E-01;  3.8835742E+04;  0.0000000E+00;  1.1210544E+00;  4.0000000E+04;  0.0000000E+00;  4.0028125E+04; -1.8983932E-01;  0.0000000E+00; -1.0506311E-02;  5.0119512E+03;
  4.1747931E-02;  9.9999998E-03;  2.5982112E-01;2746; -9.6756080E-03;  0.0000000E+00;  5.8321925E-03;  9.8662366E+02;  1.0000000E-01; -1.1082057E+04;3;  2.8541465E+00;  0.0000000E+00; -4.4568531E+01;0; -1.8716139E-01;  3.8934949E+04;  0.0000000E+00;  1.2110240E+00;  4.0000000E+04;  0.0000000E+00;  4.0006164E+04; -1.6949633E-01;  0.0000000E+00; -1.7665055E-02;  2.6048042E+03;
  4.1334029E-02;  9.9999998E-03;  2.6980060E-01;2747; -8.4978743E-03;  0.0000000E+00;  5.3803069E-03;  9.8772571E+02;  1.0000000E-01; -1.0168996E+04;3; -8.1964331E+00;  0.0000000E+00; -5.8846210E+01;0; -1.7282394E-01;  3.9044992E+04;  0.0000000E+00;  1.1789197E+00;  4.0000000E+04;  0.0000000E+00;  3.9980270E+04; -1.4857098E-01;  0.0000000E+00; -2.4252949E-02;  2.2331008E+03;
  4.0903311E-02;  9.9999998E-03;  2.7980182E-01;2748; -7.4168216E-03;  0.0000000E+00;  4.7663720E-03;  9.8891046E+02;  1.0000000E-01; -9.1874932E+03;3; -1.9147505E+01;  0.0000000E+00; -7.4677437E+01;0; -1.5724622E-01;  3.9163082E+04;  0.0000000E+00;  1.0272108E+00;  4.0000000E+04;  0.0000000E+00;  3.9953238E+04; -1.2756504E-01;  0.0000000E+00; -2.9681174E-02;  5.1437183E+03;
  4.0512767E-02;  9.9999998E-03;  2.8980878E-01;2749; -6.4290930E-03;  0.0000000E+00;  4.0338491E-03;  9.9016290E+02;  1.0000000E-01; -8.1498438E+03;3; -2.8120827E+01;  0.0000000E+00; -8.9260010E+01;0; -1.4053696E-01;  3.9285262E+04;  0.0000000E+00;  7.8904915E-01;  4.0000000E+04;  0.0000000E+00;  3.9928211E+04; -1.0709137E-01;  0.0000000E+00; -3.3445604E-02;  8.2381816E+03;
  4.0227693E-02;  9.9999998E-03;  2.9980493E-01;2750; -5.5191643E-03;  0.0000000E+00;  3.2529198E-03;  9.9145825E+02;  1.0000000E-01; -7.0766890E+03;3; -3.3459301E+01;  0.0000000E+00; -9.9088524E+01;0; -1.2297933E-01;  3.9406789E+04;  0.0000000E+00;  5.1923281E-01;  4.0000000E+04;  0.0000000E+00;  3.9908645E+04; -8.7759458E-02;  0.0000000E+00; -3.5219874E-02;  1.0756812E+04;
  5.2543871E-02;  9.9999998E-03;  2.3990203E-01;2805; -1.5120382E-02;  0.0000000E+00;  6.2655932E-03;  9.8633325E+02;  1.0000000E-01; -1.1322643E+04;3;  4.8011288E-01;  0.0000000E+00; -2.1088802E+01;0; -2.2136354E-01;  3.8874062E+04;  0.0000000E+00;  1.1104308E+00;  4.0000000E+04;  0.0000000E+00;  4.0048215E+04; -2.1882552E-01;  0.0000000E+00; -2.5380328E-03;  7.3700142E+03;
  5.2229062E-02;  9.9999998E-03;  2.4986763E-01;2806; -1.3382176E-02;  0.0000000E+00;  6.3407691E-03;  9.8697198E+02;  1.0000000E-01; -1.0793473E+04;3; -3.6078327E+00;  0.0000000E+00; -2.8481447E+01;0; -2.0944318E-01;  3.8937574E+04;  0.0000000E+00;  1.2757769E+00;  4.0000000E+04;  0.0000000E+00;  4.0032789E+04; -1.9949643E-01;  0.0000000E+00; -9.9467561E-03;  5.5249321E+03;
  5.1866695E-02;  9.9999998E-03;  2.5983346E-01;2807; -1.1761450E-02;  0.0000000E+00;  6.1416584E-03;  9.8770502E+02;  1.0000000E-01; -1.0186181E+04;3; -1.0496599E+01;  0.0000000E+00; -3.9265495E+01;0; -1.9639234E-01;  3.9014898E+04;  0.0000000E+00;  1.3296868E+00;  4.0000000E+04;  0.0000000E+00;  4.0010684E+04; -1.7891218E-01;  0.0000000E+00; -1.7480161E-02;  3.0704241E+03;
  5.1455993E-02;  9.9999998E-03;  2.6981226E-01;2808; -1.0253150E-02;  0.0000000E+00;  5.7035033E-03;  9.8853918E+02;  1.0000000E-01; -9.4950898E+03;3; -1.9125519E+01;  0.0000000E+00; -5.3820278E+01;0; -1.8196958E-01;  3.9104801E+04;  0.0000000E+00;  1.2517548E+00;  4.0000000E+04;  0.0000000E+00;  3.9983969E+04; -1.5747215E-01;  0.0000000E+00; -2.4497433E-02;  2.0937986E+03;
  5.1020291E-02;  9.9999998E-03;  2.7981430E-01;2809; -8.8509787E-03;  0.0000000E+00;  5.0680540E-03;  9.8948016E+02;  1.0000000E-01; -8.7155068E+03;3; -2.8009422E+01;  0.0000000E+00; -7.1025406E+01;0; -1.6606298E-01;  3.9205312E+04;  0.0000000E+00;  1.0499418E+00;  4.0000000E+04;  0.0000000E+00;  3.9955602E+04; -1.3570008E-01;  0.0000000E+00; -3.0362897E-02;  4.9230024E+03;
  5.0609339E-02;  9.9999998E-03;  2.8982911E-01;2810; -7.5450083E-03;  0.0000000E+00;  4.3048221E-03;  9.9052448E+02;  1.0000000E-01; -7.8502964E+03;3; -3.5393795E+01;  0.0000000E+00; -8.7843880E+01;0; -1.4877033E-01;  3.9312906E+04;  0.0000000E+00;  7.6366174E-01;  4.0000000E+04;  0.0000000E+00;  3.9928906E+04; -1.1425351E-01;  0.0000000E+00; -3.4516823E-02;  8.1801865E+03;
  5.0289463E-02;  9.9999998E-03;  2.9984599E-01;2811; -6.3223960E-03;  0.0000000E+00;  3.4972366E-03;  9.9165997E+02;  1.0000000E-01; -6.9095332E+03;3; -3.9519772E+01;  0.0000000E+00; -1.0021159E+02;0; -1.3039005E-01;  3.9423109E+04;  0.0000000E+00;  4.5466611E-01;  4.0000000E+04;  0.0000000E+00;  3.9907590E+04; -9.3814194E-02;  0.0000000E+00; -3.6575854E-02;  1.0885750E+04;
  6.2635824E-02;  9.9999998E-03;  2.3990840E-01;2866; -1.7864864E-02;  0.0000000E+00;  6.2736031E-03;  9.8785992E+02;  1.0000000E-01; -1.0057839E+04;3; -1.0297583E+01;  0.0000000E+00; -1.6508471E+01;0; -2.2774994E-01;  3.8988699E+04;  0.0000000E+00;  1.2931894E+00;  4.0000000E+04;  0.0000000E+00;  4.0053070E+04; -2.2620338E-01;  0.0000000E+00; -1.5465561E-03;  7.8877241E+03;
  6.2332146E-02;  9.9999998E-03;  2.4987228E-01;2867; -1.5818393E-02;  0.0000000E+00;  6.4613805E-03;  9.8823334E+02;  1.0000000E-01; -9.7484648E+03;3; -1.3436267E+01;  0.0000000E+00; -2.2501865E+01;0; -2.1639936E-01;  3.9030699E+04;  0.0000000E+00;  1.4110080E+00;  4.0000000E+04;  0.0000000E+00;  4.0038246E+04; -2.0735274E-01;  0.0000000E+00; -9.0466142E-03;  6.1340337E+03;
  6.1979719E-02;  9.9999998E-03;  2.5983676E-01;2868; -1.3869286E-02;  0.0000000E+00;  6.3525746E-03;  9.8870093E+02;  1.0000000E-01; -9.3610684E+03;3; -1.9118605E+01;  0.0000000E+00; -3.2365307E+01;0; -2.0371357E-01;  3.9087395E+04;  0.0000000E+00;  1.4096240E+00;  4.0000000E+04;  0.0000000E+00;  4.0016254E+04; -1.8694104E-01;  0.0000000E+00; -1.6772527E-02;  3.6177158E+03;
  6.1579764E-02;  9.9999998E-03;  2.6981100E-01;2869; -1.2029466E-02;  0.0000000E+00;  5.9610242E-03;  9.8928076E+02;  1.0000000E-01; -8.8806875E+03;3; -2.6527637E+01;  0.0000000E+00; -4.6919506E+01;0; -1.8942878E-01;  3.9158199E+04;  0.0000000E+00;  1.2761487E+00;  4.0000000E+04;  0.0000000E+00;  3.9988781E+04; -1.6537131E-01;  0.0000000E+00; -2.4057470E-02;  1.9184380E+03;
  6.1146334E-02;  9.9999998E-03;  2.7980807E-01;2870; -1.0296938E-02;  0.0000000E+00;  5.3296820E-03;  9.8998779E+02;  1.0000000E-01; -8.2949258E+03;3; -3.4347054E+01;  0.0000000E+00; -6.5287079E+01;0; -1.7340764E-01;  3.9241840E+04;  0.0000000E+00;  1.0233506E+00;  4.0000000E+04;  0.0000000E+00;  3.9958945E+04; -1.4317352E-01;  0.0000000E+00; -3.0234130E-02;  4.5406875E+03;
  6.0721006E-02;  9.9999998E-03;  2.8982806E-01;2871; -8.6576017E-03;  0.0000000E+00;  4.5525408E-03;  9.9083710E+02;  1.0000000E-01; -7.5912915E+03;3; -4.0982117E+01;  0.0000000E+00; -8.4348106E+01;0; -1.5572627E-01;  3.9335434E+04;  0.0000000E+00;  6.9289786E-01;  4.0000000E+04;  0.0000000E+00;  3.9930621E+04; -1.2102454E-01;  0.0000000E+00; -3.4701731E-02;  7.9715664E+03;
  6.0370337E-02;  9.9999998E-03;  2.9986367E-01;2872; -7.1068164E-03;  0.0000000E+00;  3.7305329E-03;  9.9181500E+02;  1.0000000E-01; -6.7810923E+03;3; -4.4498650E+01;  0.0000000E+00; -9.9511292E+01;0; -1.3669921E-01;  3.9434934E+04;  0.0000000E+00;  3.4911817E-01;  4.0000000E+04;  0.0000000E+00;  3.9907691E+04; -9.9676862E-02;  0.0000000E+00; -3.7022348E-02;  1.0883451E+04;
  7.2714686E-02;  9.9999998E-03;  2.3991568E-01;2927; -2.0551577E-02;  0.0000000E+00;  6.1533735E-03;  9.8914502E+02;  1.0000000E-01; -8.9931279E+03;3; -1.5261170E+01;  0.0000000E+00; -1.1447571E+01;0; -2.3240788E-01;  3.9083699E+04;  0.0000000E+00;  1.5171255E+00;  4.0000000E+04;  0.0000000E+00;  4.0058836E+04; -2.3191150E-01;  0.0000000E+00; -4.9639307E-04;  8.5512559E+03;
  7.2422169E-02;  9.9999998E-03;  2.4987669E-01;2928; -1.8230589E-02;  0.0000000E+00;  6.4673433E-03;  9.8927716E+02;  1.0000000E-01; -8.8836504E+03;3; -1.8492176E+01;  0.0000000E+00; -1.5986702E+01;0; -2.2182432E-01;  3.9106207E+04;  0.0000000E+00;  1.6076165E+00;  4.0000000E+04;  0.0000000E+00;  4.0044664E+04; -2.1393140E-01;  0.0000000E+00; -7.8929141E-03;  6.9083730E+03;
  7.2083957E-02;  9.9999998E-03;  2.5983664E-01;2929; -1.5976513E-02;  0.0000000E+00;  6.4633773E-03;  9.8950476E+02;  1.0000000E-01; -8.6951123E+03;3; -2.4033358E+01;  0.0000000E+00; -2.4824793E+01;0; -2.0969544E-01;  3.9143984E+04;  0.0000000E+00;  1.5851972E+00;  4.0000000E+04;  0.0000000E+00;  4.0022805E+04; -1.9408596E-01;  0.0000000E+00; -1.5609493E-02;  4.3846499E+03;
  7.1699142E-02;  9.9999998E-03;  2.6980346E-01;2930; -1.3811125E-02;  0.0000000E+00;  6.1457762E-03;  9.8985278E+02;  1.0000000E-01; -8.4067744E+03;3; -3.1226179E+01;  0.0000000E+00; -3.9200485E+01;0; -1.9572517E-01;  3.9197434E+04;  0.0000000E+00;  1.4375563E+00;  4.0000000E+04;  0.0000000E+00;  3.9994625E+04; -1.7275207E-01;  0.0000000E+00; -2.2973107E-02;  2.0896470E+03;
  7.1275465E-02;  9.9999998E-03;  2.7979070E-01;2931; -1.1742327E-02;  0.0000000E+00;  5.5535487E-03;  9.9035071E+02;  1.0000000E-01; -7.9942432E+03;3; -3.8878445E+01;  0.0000000E+00; -5.8475685E+01;0; -1.7975353E-01;  3.9265738E+04;  0.0000000E+00;  1.1710445E+00;  4.0000000E+04;  0.0000000E+00;  3.9963531E+04; -1.5045081E-01;  0.0000000E+00; -2.9302716E-02;  4.1140215E+03;
  7.0843369E-02;  9.9999998E-03;  2.8981206E-01;2932; -9.7622061E-03;  0.0000000E+00;  4.7746417E-03;  9.9102148E+02;  1.0000000E-01; -7.4385059E+03;3; -4.5466095E+01;  0.0000000E+00; -7.9744591E+01;0; -1.6182736E-01;  3.9346922E+04;  0.0000000E+00;  8.1790769E-01;  4.0000000E+04;  0.0000000E+00;  3.9933535E+04; -1.2784983E-01;  0.0000000E+00; -3.3977523E-02;  7.6648525E+03;
  7.0465684E-02;  9.9999998E-03;  2.9986322E-01;2933; -7.8626666E-03;  0.0000000E+00;  3.9507621E-03;  9.9186169E+02;  1.0000000E-01; -6.7424268E+03;3; -4.8849735E+01;  0.0000000E+00; -9.7771019E+01;0; -1.4227331E-01;  3.9437203E+04;  0.0000000E+00;  4.3759242E-01;  4.0000000E+04;  0.0000000E+00;  3.9908637E+04; -1.0576017E-01;  0.0000000E+00; -3.6513139E-02;  1.0781059E+04;
  8.2783408E-02;  9.9999998E-03;  2.3992452E-01;2988; -2.3168076E-02;  0.0000000E+00;  5.9231138E-03;  9.9011169E+02;  1.0000000E-01; -8.1922617E+03;3; -1.6575497E+01;  0.0000000E+00; -6.5349088E+00;0; -2.3613766E-01;  3.9152992E+04;  0.0000000E+00;  1.8811857E+00;  4.0000000E+04;  0.0000000E+00;  4.0065309E+04; -2.3665710E-01;  0.0000000E+00;  5.1944517E-04;  9.4110596E+03;
  8.2501419E-02;  9.9999998E-03;  2.4988221E-01;2989; -2.0615073E-02;  0.0000000E+00;  6.3555413E-03;  9.9003070E+02;  1.0000000E-01; -8.2593711E+03;3; -2.0515358E+01;  0.0000000E+00; -9.6867571E+00;0; -2.2649488E-01;  3.9157934E+04;  0.0000000E+00;  2.0523806E+00;  4.0000000E+04;  0.0000000E+00;  4.0052188E+04; -2.1991640E-01;  0.0000000E+00; -6.5784771E-03;  7.9515835E+03;
  8.2180269E-02;  9.9999998E-03;  2.5983489E-01;2990; -1.8087894E-02;  0.0000000E+00;  6.4603477E-03;  9.9004425E+02;  1.0000000E-01; -8.2481621E+03;3; -2.6588680E+01;  0.0000000E+00; -1.7495798E+01;0; -2.1508753E-01;  3.9178793E+04;  0.0000000E+00;  2.1388032E+00;  4.0000000E+04;  0.0000000E+00;  4.0030426E+04; -2.0101389E-01;  0.0000000E+00; -1.4073633E-02;  5.5806558E+03;
  8.1813484E-02;  9.9999998E-03;  2.6979229E-01;2991; -1.5612110E-02;  0.0000000E+00;  6.2309830E-03;  9.9018756E+02;  1.0000000E-01; -8.1293999E+03;3; -3.4210243E+01;  0.0000000E+00; -3.1500538E+01;0; -2.0157355E-01;  3.9216715E+04;  0.0000000E+00;  2.1073780E+00;  4.0000000E+04;  0.0000000E+00;  4.0001703E+04; -1.8026488E-01;  0.0000000E+00; -2.1308670E-02;  3.2170842E+03;
  8.1406616E-02;  9.9999998E-03;  2.7976686E-01;2992; -1.3205258E-02;  0.0000000E+00;  5.7006157E-03;  9.9049951E+02;  1.0000000E-01; -7.8709873E+03;3; -4.2317383E+01;  0.0000000E+00; -5.1507156E+01;0; -1.8576771E-01;  3.9271695E+04;  0.0000000E+00;  1.9323684E+00;  4.0000000E+04;  0.0000000E+00;  3.9969211E+04; -1.5815914E-01;  0.0000000E+00; -2.7608577E-02;  4.1339727E+03;
  8.0975763E-02;  9.9999998E-03;  2.8978387E-01;2993; -1.0859076E-02;  0.0000000E+00;  4.9633170E-03;  9.9101422E+02;  1.0000000E-01; -7.4445303E+03;3; -4.9374691E+01;  0.0000000E+00; -7.4705978E+01;0; -1.6768363E-01;  3.9342582E+04;  0.0000000E+00;  1.6128448E+00;  4.0000000E+04;  0.0000000E+00;  3.9937250E+04; -1.3532902E-01;  0.0000000E+00; -3.2354601E-02;  7.4687090E+03;
  8.0575302E-02;  9.9999998E-03;  2.9984695E-01;2994; -8.5793827E-03;  0.0000000E+00;  4.1618212E-03;  9.9174146E+02;  1.0000000E-01; -6.8420288E+03;3; -5.2967785E+01;  0.0000000E+00; -9.5524773E+01;0; -1.4764886E-01;  3.9425852E+04;  0.0000000E+00;  1.1890129E+00;  4.0000000E+04;  0.0000000E+00;  3.9910406E+04; -1.1261223E-01;  0.0000000E+00; -3.5036623E-02;  1.0677634E+04;
  9.2847392E-02;  9.9999998E-03;  2.3993209E-01;3049; -2.5747128E-02;  0.0000000E+00;  5.5584293E-03;  9.9071985E+02;  1.0000000E-01; -7.6884243E+03;3; -1.6099260E+01;  0.0000000E+00; -2.2087972E+00;0; -2.3978613E-01;  3.9193801E+04;  0.0000000E+00;  2.5552964E+00;  4.0000000E+04;  0.0000000E+00;  4.0072742E+04; -2.4120499E-01;  0.0000000E+00;  1.4188532E-03;  1.0546066E+04;
  9.2574924E-02;  9.9999998E-03;  2.4988613E-01;3050; -2.3003323E-02;  0.0000000E+00;  6.0985130E-03;  9.9045331E+02;  1.0000000E-01; -7.9092578E+03;3; -2.0950006E+01;  0.0000000E+00; -4.0852237E+00;0; -2.3125032E-01;  3.9182992E+04;  0.0000000E+00;  3.0303776E+00;  4.0000000E+04;  0.0000000E+00;  4.0060523E+04; -2.2605921E-01;  0.0000000E+00; -5.1911063E-03;  9.4585332E+03;
  9.2268690E-02;  9.9999998E-03;  2.5983179E-01;3051; -2.0237265E-02;  0.0000000E+00;  6.3071507E-03;  9.9027582E+02;  1.0000000E-01; -8.0563154E+03;3; -2.7822325E+01;  0.0000000E+00; -1.0885345E+01;0; -2.2071615E-01;  3.9188566E+04;  0.0000000E+00;  3.4823375E+00;  4.0000000E+04;  0.0000000E+00;  4.0039020E+04; -2.0846139E-01;  0.0000000E+00; -1.2254758E-02;  7.6041147E+03;
  9.1920085E-02;  9.9999998E-03;  2.6977938E-01;3052; -1.7476350E-02;  0.0000000E+00;  6.1603286E-03;  9.9023749E+02;  1.0000000E-01; -8.0880674E+03;3; -3.6230225E+01;  0.0000000E+00; -2.4590708E+01;0; -2.0778491E-01;  3.9212613E+04;  0.0000000E+00;  3.8210759E+00;  4.0000000E+04;  0.0000000E+00;  4.0009754E+04; -1.8863688E-01;  0.0000000E+00; -1.9148022E-02;  5.8849233E+03;
  9.1535755E-02;  9.9999998E-03;  2.7973998E-01;3053; -1.4727872E-02;  0.0000000E+00;  5.7137320E-03;  9.9038464E+02;  1.0000000E-01; -7.9661450E+03;3; -4.5149883E+01;  0.0000000E+00; -4.5149876E+01;0; -1.9223019E-01;  3.9256125E+04;  0.0000000E+00;  3.9461343E+00;  4.0000000E+04;  0.0000000E+00;  3.9975988E+04; -1.6700990E-01;  0.0000000E+00; -2.5220290E-02;  6.1021821E+03;
  9.1114506E-02;  9.9999998E-03;  2.8974667E-01;3054; -1.1991316E-02;  0.0000000E+00;  5.0530657E-03;  9.9076978E+02;  1.0000000E-01; -7.6470430E+03;3; -5.3004417E+01;  0.0000000E+00; -6.9898056E+01;0; -1.7402358E-01;  3.9318488E+04;  0.0000000E+00;  3.7811453E+00;  4.0000000E+04;  0.0000000E+00;  3.9942102E+04; -1.4414412E-01;  0.0000000E+00; -2.9879471E-02;  8.4569766E+03;
  9.0700530E-02;  9.9999998E-03;  2.9981518E-01;3055; -9.2754941E-03;  0.0000000E+00;  4.3183747E-03;  9.9141223E+02;  1.0000000E-01; -7.1148110E+03;3; -5.7021759E+01;  0.0000000E+00; -9.3227272E+01;0; -1.5347677E-01;  3.9396879E+04;  0.0000000E+00;  3.3184302E+00;  4.0000000E+04;  0.0000000E+00;  3.9912961E+04; -1.2086065E-01;  0.0000000E+00; -3.2616124E-02;  1.1249901E+04;
  1.0291362E-01;  9.9999998E-03;  2.3993543E-01;3110; -2.8342159E-02;  0.0000000E+00;  5.0332537E-03;  9.9097968E+02;  1.0000000E-01; -7.4731714E+03;3; -1.5010642E+01;  0.0000000E+00;  1.3637373E+00;0; -2.4413887E-01;  3.9206637E+04;  0.0000000E+00;  3.7425973E+00;  4.0000000E+04;  0.0000000E+00;  4.0080539E+04; -2.4627656E-01;  0.0000000E+00;  2.1376871E-03;  1.2105559E+04;
  1.0264841E-01;  9.9999998E-03;  2.4988554E-01;3111; -2.5462629E-02;  0.0000000E+00;  5.6411852E-03;  9.9053888E+02;  1.0000000E-01; -7.8383462E+03;3; -2.0634563E+01;  0.0000000E+00;  5.2922291E-01;0; -2.3688723E-01;  3.9181227E+04;  0.0000000E+00;  4.8678999E+00;  4.0000000E+04;  0.0000000E+00;  4.0069520E+04; -2.3307571E-01;  0.0000000E+00; -3.8115177E-03;  1.1813686E+04;
  1.0234973E-01;  9.9999998E-03;  2.5982657E-01;3112; -2.2503987E-02;  0.0000000E+00;  5.9125265E-03;  9.9018524E+02;  1.0000000E-01; -8.1313257E+03;3; -2.8211426E+01;  0.0000000E+00; -5.4743810E+00;0; -2.2739618E-01;  3.9172570E+04;  0.0000000E+00;  6.0864992E+00;  4.0000000E+04;  0.0000000E+00;  4.0048371E+04; -2.1714656E-01;  0.0000000E+00; -1.0249615E-02;  1.1168378E+04;
  1.0201997E-01;  9.9999998E-03;  2.6976335E-01;3113; -1.9479996E-02;  0.0000000E+00;  5.8439705E-03;  9.8997827E+02;  1.0000000E-01; -8.3028271E+03;3; -3.7365364E+01;  0.0000000E+00; -1.8861000E+01;0; -2.1519682E-01;  3.9183707E+04;  0.0000000E+00;  7.2055926E+00;  4.0000000E+04;  0.0000000E+00;  4.0018816E+04; -1.9860360E-01;  0.0000000E+00; -1.6593220E-02;  1.0895636E+04;
  1.0165759E-01;  9.9999998E-03;  2.7971148E-01;3114; -1.6409274E-02;  0.0000000E+00;  5.4648425E-03;  9.8998035E+02;  1.0000000E-01; -8.3010986E+03;3; -4.7177753E+01;  0.0000000E+00; -3.9954353E+01;0; -1.9998568E-01;  3.9216633E+04;  0.0000000E+00;  7.9850869E+00;  4.0000000E+04;  0.0000000E+00;  3.9984070E+04; -1.7774031E-01;  0.0000000E+00; -2.2245372E-02;  1.1593856E+04;
  1.0125709E-01;  9.9999998E-03;  2.8970233E-01;3115; -1.3269051E-02;  0.0000000E+00;  4.8908251E-03;  9.9025330E+02;  1.0000000E-01; -8.0749814E+03;3; -5.5987740E+01;  0.0000000E+00; -6.6008141E+01;0; -1.8167393E-01;  3.9271926E+04;  0.0000000E+00;  8.2094717E+00;  4.0000000E+04;  0.0000000E+00;  3.9948371E+04; -1.5502433E-01;  0.0000000E+00; -2.6649592E-02;  1.3122805E+04;
  1.0084394E-01;  9.9999998E-03;  2.9976684E-01;3116; -1.0059178E-02;  0.0000000E+00;  4.2756796E-03;  9.9083405E+02;  1.0000000E-01; -7.5938101E+03;3; -6.0716541E+01;  0.0000000E+00; -9.1453079E+01;0; -1.6051158E-01;  3.9347508E+04;  0.0000000E+00;  7.7669811E+00;  4.0000000E+04;  0.0000000E+00;  3.9916715E+04; -1.3118528E-01;  0.0000000E+00; -2.9326312E-02;  1.4779251E+04;
  1.1299144E-01;  9.9999998E-03;  2.3993267E-01;3171; -3.1022463E-02;  0.0000000E+00;  4.3071243E-03;  9.9092670E+02;  1.0000000E-01; -7.5170713E+03;3; -1.3763212E+01;  0.0000000E+00;  4.0899892E+00;0; -2.4983422E-01;  3.9194910E+04;  0.0000000E+00;  5.6168871E+00;  4.0000000E+04;  0.0000000E+00;  4.0088289E+04; -2.5246388E-01;  0.0000000E+00;  2.6296582E-03;  1.4330168E+04;
  1.1272746E-01;  9.9999998E-03;  2.4987894E-01;3172; -2.8071396E-02;  0.0000000E+00;  4.9174326E-03;  9.9031921E+02;  1.0000000E-01; -8.0203657E+03;3; -1.9710827E+01;  0.0000000E+00;  4.0843124E+00;0; -2.4408390E-01;  3.9155191E+04;  0.0000000E+00;  7.8488317E+00;  4.0000000E+04;  0.0000000E+00;  4.0078613E+04; -2.4156614E-01;  0.0000000E+00; -2.5177654E-03;  1.5568739E+04;
  1.1243256E-01;  9.9999998E-03;  2.5981551E-01;3173; -2.4970546E-02;  0.0000000E+00;  5.2081104E-03;  9.8979462E+02;  1.0000000E-01; -8.4549707E+03;3; -2.7526958E+01;  0.0000000E+00; -1.2725712E+00;0; -2.3587313E-01;  3.9132312E+04;  0.0000000E+00;  1.0384636E+01;  4.0000000E+04;  0.0000000E+00;  4.0058324E+04; -2.2770947E-01;  0.0000000E+00; -8.1636570E-03;  1.7101320E+04;
  1.1211191E-01;  9.9999998E-03;  2.6974505E-01;3174; -2.1738417E-02;  0.0000000E+00;  5.1546078E-03;  9.8942529E+02;  1.0000000E-01; -8.7609375E+03;3; -3.6955776E+01;  0.0000000E+00; -1.4478535E+01;0; -2.2463159E-01;  3.9130652E+04;  0.0000000E+00;  1.2875591E+01;  4.0000000E+04;  0.0000000E+00;  4.0028824E+04; -2.1084124E-01;  0.0000000E+00; -1.3790358E-02;  1.9178451E+04;
  1.1176626E-01;  9.9999998E-03;  2.7968299E-01;3175; -1.8355150E-02;  0.0000000E+00;  4.8349816E-03;  9.8928375E+02;  1.0000000E-01; -8.8782178E+03;3; -4.7305832E+01;  0.0000000E+00; -3.5971912E+01;0; -2.0992388E-01;  3.9153203E+04;  0.0000000E+00;  1.4863661E+01;  4.0000000E+04;  0.0000000E+00;  3.9993297E+04; -1.9107139E-01;  0.0000000E+00; -1.8852489E-02;  2.1512996E+04;
  1.1139446E-01;  9.9999998E-03;  2.8965545E-01;3176; -1.4827554E-02;  0.0000000E+00;  4.3190895E-03;  9.8944934E+02;  1.0000000E-01; -8.7410371E+03;3; -5.6945938E+01;  0.0000000E+00; -6.3129112E+01;0; -1.9157629E-01;  3.9201340E+04;  0.0000000E+00;  1.5897171E+01;  4.0000000E+04;  0.0000000E+00;  3.9956391E+04; -1.6872533E-01;  0.0000000E+00; -2.2850955E-02;  2.3434275E+04;
  1.1100014E-01;  9.9999998E-03;  2.9970604E-01;3177; -1.1097501E-02;  0.0000000E+00;  3.8383077E-03;  9.8997473E+02;  1.0000000E-01; -8.3057402E+03;3; -6.2766590E+01;  0.0000000E+00; -9.0485870E+01;0; -1.6967233E-01;  3.9274832E+04;  0.0000000E+00;  1.5662960E+01;  4.0000000E+04;  0.0000000E+00;  3.9922527E+04; -1.4433073E-01;  0.0000000E+00; -2.5341602E-02;  2.4280305E+04;
  1.2308464E-01;  9.9999998E-03;  2.3992608E-01;3232; -3.3837650E-02;  0.0000000E+00;  3.3848921E-03;  9.9062390E+02;  1.0000000E-01; -7.7679282E+03;3; -1.2272746E+01;  0.0000000E+00;  6.0446000E+00;0; -2.5730175E-01;  3.9164273E+04;  0.0000000E+00;  8.2560616E+00;  4.0000000E+04;  0.0000000E+00;  4.0095562E+04; -2.6016557E-01;  0.0000000E+00;  2.8638113E-03;  1.7466646E+04;
  1.2282309E-01;  9.9999998E-03;  2.4986616E-01;3233; -3.0893264E-02;  0.0000000E+00;  3.9189090E-03;  9.8984766E+02;  1.0000000E-01; -8.4110215E+03;3; -1.7828945E+01;  0.0000000E+00;  6.6974998E+00;0; -2.5335377E-01;  3.9109723E+04;  0.0000000E+00;  1.2127786E+01;  4.0000000E+04;  0.0000000E+00;  4.0087504E+04; -2.5196287E-01;  0.0000000E+00; -1.3909070E-03;  2.1179393E+04;
  1.2252799E-01;  9.9999998E-03;  2.5979656E-01;3234; -2.7723575E-02;  0.0000000E+00;  4.1521867E-03;  9.8914514E+02;  1.0000000E-01; -8.9930293E+03;3; -2.4980381E+01;  0.0000000E+00;  1.8894730E+00;0; -2.4679111E-01;  3.9071895E+04;  0.0000000E+00;  1.6666782E+01;  4.0000000E+04;  0.0000000E+00;  4.0068414E+04; -2.4065329E-01;  0.0000000E+00; -6.1378125E-03;  2.5978986E+04;
  1.2220655E-01;  9.9999998E-03;  2.6972181E-01;3235; -2.4325471E-02;  0.0000000E+00;  4.0656817E-03;  9.8860590E+02;  1.0000000E-01; -9.4397822E+03;3; -3.3625595E+01;  0.0000000E+00; -1.0962820E+01;0; -2.3688938E-01;  3.9056230E+04;  0.0000000E+00;  2.1321449E+01;  4.0000000E+04;  0.0000000E+00;  4.0039766E+04; -2.2595136E-01;  0.0000000E+00; -1.0938025E-02;  3.1512783E+04;
  1.2187229E-01;  9.9999998E-03;  2.7965087E-01;3236; -2.0702062E-02;  0.0000000E+00;  3.6999281E-03;  9.8831830E+02;  1.0000000E-01; -9.6780469E+03;3; -4.3354362E+01;  0.0000000E+00; -3.2563839E+01;0; -2.2306685E-01;  3.9066902E+04;  0.0000000E+00;  2.5332045E+01;  4.0000000E+04;  0.0000000E+00;  4.0004465E+04; -2.0774761E-01;  0.0000000E+00; -1.5319238E-02;  3.6786145E+04;
  1.2151998E-01;  9.9999998E-03;  2.8961000E-01;3237; -1.6810719E-02;  0.0000000E+00;  3.2007589E-03;  9.8837030E+02;  1.0000000E-01; -9.6349863E+03;3; -5.3128967E+01;  0.0000000E+00; -6.0557487E+01;0; -2.0489529E-01;  3.9107191E+04;  0.0000000E+00;  2.7870026E+01;  4.0000000E+04;  0.0000000E+00;  3.9966676E+04; -1.8607521E-01;  0.0000000E+00; -1.8820077E-02;  4.0515031E+04;
  1.2115674E-01;  9.9999998E-03;  2.9964149E-01;3238; -1.2578441E-02;  0.0000000E+00;  2.8231670E-03;  9.8882758E+02;  1.0000000E-01; -9.2561328E+03;3; -6.0271187E+01;  0.0000000E+00; -8.9799477E+01;0; -1.8221290E-01;  3.9177055E+04;  0.0000000E+00;  2.8267624E+01;  4.0000000E+04;  0.0000000E+00;  3.9931035E+04; -1.6119288E-01;  0.0000000E+00; -2.1020027E-02;  4.1607758E+04;
  1.3320832E-01;  9.9999998E-03;  2.3991863E-01;3293; -3.6815137E-02;  0.0000000E+00;  2.3173941E-03;  9.9015137E+02;  1.0000000E-01; -8.1594233E+03;3; -1.0188926E+01;  0.0000000E+00;  7.5651336E+00;0; -2.6674727E-01;  3.9121555E+04;  0.0000000E+00;  1.1591920E+01;  4.0000000E+04;  0.0000000E+00;  4.0101477E+04; -2.6956853E-01;  0.0000000E+00;  2.8212792E-03;  2.1586701E+04;
  1.3294841E-01;  9.9999998E-03;  2.4985026E-01;3294; -3.3974662E-02;  0.0000000E+00;  2.6672303E-03;  9.8919965E+02;  1.0000000E-01; -8.9478955E+03;3; -1.4367790E+01;  0.0000000E+00;  8.7506628E+00;0; -2.6502988E-01;  3.9051125E+04;  0.0000000E+00;  1.7654501E+01;  4.0000000E+04;  0.0000000E+00;  4.0095863E+04; -2.6449347E-01;  0.0000000E+00; -5.3640828E-04;  2.8721338E+04;
  1.3264786E-01;  9.9999998E-03;  2.5977436E-01;3295; -3.0828973E-02;  0.0000000E+00;  2.7625507E-03;  9.8830847E+02;  1.0000000E-01; -9.6861953E+03;3; -1.9469170E+01;  0.0000000E+00;  4.6682630E+00;0; -2.6067734E-01;  3.8996305E+04;  0.0000000E+00;  2.4975822E+01;  4.0000000E+04;  0.0000000E+00;  4.0079055E+04; -2.5630289E-01;  0.0000000E+00; -4.3744529E-03;  3.7929258E+04;
  1.3232464E-01;  9.9999998E-03;  2.6969334E-01;3296; -2.7346198E-02;  0.0000000E+00;  2.5794024E-03;  9.8757898E+02;  1.0000000E-01; -1.0290573E+04;3; -2.5506769E+01;  0.0000000E+00; -7.4338045E+00;0; -2.5278687E-01;  3.8964453E+04;  0.0000000E+00;  3.2793552E+01;  4.0000000E+04;  0.0000000E+00;  4.0052105E+04; -2.4444960E-01;  0.0000000E+00; -8.3372863E-03;  4.8327309E+04;
  1.3198641E-01;  9.9999998E-03;  2.7961844E-01;3297; -2.3506232E-02;  0.0000000E+00;  2.1374228E-03;  9.8712524E+02;  1.0000000E-01; -1.0666513E+04;3; -3.2556934E+01;  0.0000000E+00; -2.8640738E+01;0; -2.4048971E-01;  3.8961211E+04;  0.0000000E+00;  3.9939751E+01;  4.0000000E+04;  0.0000000E+00;  4.0018016E+04; -2.2844991E-01;  0.0000000E+00; -1.2039791E-02;  5.8205832E+04;
  1.3164906E-01;  9.9999998E-03;  2.8956178E-01;3298; -1.9310812E-02;  0.0000000E+00;  1.5649713E-03;  9.8704193E+02;  1.0000000E-01; -1.0735499E+04;3; -4.0582653E+01;  0.0000000E+00; -5.6957531E+01;0; -2.2309002E-01;  3.8990211E+04;  0.0000000E+00;  4.5059284E+01;  4.0000000E+04;  0.0000000E+00;  3.9980785E+04; -2.0802724E-01;  0.0000000E+00; -1.5062782E-02;  6.5495320E+04;
  1.3131005E-01;  9.9999998E-03;  2.9957652E-01;3299; -1.4637687E-02;  0.0000000E+00;  1.1836605E-03;  9.8740454E+02;  1.0000000E-01; -1.0435112E+04;3; -4.8346680E+01;  0.0000000E+00; -8.7955788E+01;0; -1.9989109E-01;  3.9053723E+04;  0.0000000E+00;  4.6880100E+01;  4.0000000E+04;  0.0000000E+00;  3.9944082E+04; -1.8292423E-01;  0.0000000E+00; -1.6966859E-02;  6.8257195E+04;
  1.4336000E-01;  9.9999998E-03;  2.3991899E-01;3354; -3.9991595E-02;  0.0000000E+00;  1.1683000E-03;  9.8960736E+02;  1.0000000E-01; -8.6101270E+03;3; -7.2364569E+00;  0.0000000E+00;  8.7211304E+00;0; -2.7813116E-01;  3.9074801E+04;  0.0000000E+00;  1.5380945E+01;  4.0000000E+04;  0.0000000E+00;  4.0105621E+04; -2.8061378E-01;  0.0000000E+00;  2.4826154E-03;  2.6438785E+04;
  1.4312178E-01;  9.9999998E-03;  2.4983822E-01;3355; -3.7323214E-02;  0.0000000E+00;  1.3345658E-03;  9.8845990E+02;  1.0000000E-01; -9.5607666E+03;3; -8.9369926E+00;  0.0000000E+00;  1.0635550E+01;0; -2.7919415E-01;  3.8986453E+04;  0.0000000E+00;  2.4111330E+01;  4.0000000E+04;  0.0000000E+00;  4.0103137E+04; -2.7914891E-01;  0.0000000E+00; -4.5229215E-05;  3.7775133E+04;
  1.4282773E-01;  9.9999998E-03;  2.5975093E-01;3356; -3.4310762E-02;  0.0000000E+00;  1.2297803E-03;  9.8734894E+02;  1.0000000E-01; -1.0481185E+04;3; -1.0184225E+01;  0.0000000E+00;  7.5292201E+00;0; -2.7787825E-01;  3.8911684E+04;  0.0000000E+00;  3.5013096E+01;  4.0000000E+04;  0.0000000E+00;  4.0089770E+04; -2.7480042E-01;  0.0000000E+00; -3.0778411E-03;  5.2545254E+04;
  1.4248389E-01;  9.9999998E-03;  2.6966909E-01;3357; -3.0854102E-02;  0.0000000E+00;  8.7109156E-04;  9.8640656E+02;  1.0000000E-01; -1.1261903E+04;3; -1.1008631E+01;  0.0000000E+00; -3.6121440E+00;0; -2.7301750E-01;  3.8860113E+04;  0.0000000E+00;  4.7137459E+01;  4.0000000E+04;  0.0000000E+00;  4.0065918E+04; -2.6667008E-01;  0.0000000E+00; -6.3474136E-03;  6.9451609E+04;
  1.4213228E-01;  9.9999998E-03;  2.7958685E-01;3358; -2.6875759E-02;  0.0000000E+00;  3.2526796E-04;  9.8575543E+02;  1.0000000E-01; -1.1801346E+04;3; -1.2069018E+01;  0.0000000E+00; -2.3954130E+01;0; -2.6335713E-01;  3.8839082E+04;  0.0000000E+00;  5.8851379E+01;  4.0000000E+04;  0.0000000E+00;  4.0034734E+04; -2.5385669E-01;  0.0000000E+00; -9.5004430E-03;  8.6061398E+04;
  1.4178899E-01;  9.9999998E-03;  2.8951874E-01;3359; -2.2324681E-02;  0.0000000E+00; -2.5801756E-04;  9.8551184E+02;  1.0000000E-01; -1.2003167E+04;3; -1.4910586E+01;  0.0000000E+00; -5.1992012E+01;0; -2.4755767E-01;  3.8853766E+04;  0.0000000E+00;  6.8065369E+01;  4.0000000E+04;  0.0000000E+00;  3.9999500E+04; -2.3543513E-01;  0.0000000E+00; -1.2122544E-02;  9.9210867E+04;
  1.4147069E-01;  9.9999998E-03;  2.9951349E-01;3360; -1.7226705E-02;  0.0000000E+00; -6.8116473E-04;  9.8572333E+02;  1.0000000E-01; -1.1827962E+04;3; -2.0873163E+01;  0.0000000E+00; -8.4395790E+01;0; -2.2450723E-01;  3.8905316E+04;  0.0000000E+00;  7.2620331E+01;  4.0000000E+04;  0.0000000E+00;  3.9963266E+04; -2.1069297E-01;  0.0000000E+00; -1.3814262E-02;  1.0568135E+05;
  1.5355906E-01;  9.9999998E-03;  2.3993208E-01;3415; -4.3341927E-02;  0.0000000E+00;  1.4307049E-04;  9.8906488E+02;  1.0000000E-01; -9.0595459E+03;3; -3.4817672E+00;  0.0000000E+00;  9.4442739E+00;0; -2.9112959E-01;  3.9031234E+04;  0.0000000E+00;  1.9208498E+01;  4.0000000E+04;  0.0000000E+00;  4.0106734E+04; -2.9302379E-01;  0.0000000E+00;  1.8942029E-03;  3.1441160E+04;
  1.5335314E-01;  9.9999998E-03;  2.4984212E-01;3416; -4.0934172E-02;  0.0000000E+00;  1.2080307E-04;  9.8770227E+02;  1.0000000E-01; -1.0188452E+04;3; -1.6864605E+00;  0.0000000E+00;  1.1977206E+01;0; -2.9560602E-01;  3.8922887E+04;  0.0000000E+00;  3.0870443E+01;  4.0000000E+04;  0.0000000E+00;  4.0108184E+04; -2.9564595E-01;  0.0000000E+00;  3.9939594E-05;  4.7402820E+04;
  1.5308337E-01;  9.9999998E-03;  2.5974324E-01;3417; -3.8118765E-02;  0.0000000E+00; -1.4087229E-04;  9.8633081E+02;  1.0000000E-01; -1.1324667E+04;3;  2.7996809E+00;  0.0000000E+00;  9.8944159E+00;0; -2.9827741E-01;  3.8823168E+04;  0.0000000E+00;  4.5962002E+01;  4.0000000E+04;  0.0000000E+00;  4.0099555E+04; -2.9592401E-01;  0.0000000E+00; -2.3534063E-03;  6.8631641E+04;
  1.5273710E-01;  9.9999998E-03;  2.6964700E-01;3418; -3.4764234E-02;  0.0000000E+00; -6.4567634E-04;  9.8511908E+02;  1.0000000E-01; -1.2328540E+04;3;  1.0475052E+01;  0.0000000E+00; -2.3729760E-02;0; -2.9776874E-01;  3.8745859E+04;  0.0000000E+00;  6.3521152E+01;  4.0000000E+04;  0.0000000E+00;  4.0081250E+04; -2.9264009E-01;  0.0000000E+00; -5.1286528E-03;  9.3730102E+04;
  1.5233622E-01;  9.9999998E-03;  2.7956235E-01;3419; -3.0737134E-02;  0.0000000E+00; -1.2988070E-03;  9.8425555E+02;  1.0000000E-01; -1.3043977E+04;3;  2.0018202E+01;  0.0000000E+00; -1.9500360E+01;0; -2.9223743E-01;  3.8703734E+04;  0.0000000E+00;  8.1458450E+01;  4.0000000E+04;  0.0000000E+00;  4.0054773E+04; -2.8425556E-01;  0.0000000E+00; -7.9818778E-03;  1.1953016E+05;
  1.5196528E-01;  9.9999998E-03;  2.8948852E-01;3420; -2.5899580E-02;  0.0000000E+00; -1.8909582E-03;  9.8381586E+02;  1.0000000E-01; -1.3408263E+04;3;  2.7846935E+01;  0.0000000E+00; -4.7146915E+01;0; -2.7947709E-01;  3.8699797E+04;  0.0000000E+00;  9.6731560E+01;  4.0000000E+04;  0.0000000E+00;  4.0023586E+04; -2.6907879E-01;  0.0000000E+00; -1.0398309E-02;  1.4146861E+05;
  1.5165220E-01;  9.9999998E-03;  2.9947224E-01;3421; -2.0235958E-02;  0.0000000E+00; -2.2173179E-03;  9.8380597E+02;  1.0000000E-01; -1.3416460E+04;3;  2.8720053E+01;  0.0000000E+00; -8.1649765E+01;0; -2.5720683E-01;  3.8732879E+04;  0.0000000E+00;  1.0582892E+02;  4.0000000E+04;  0.0000000E+00;  3.9988977E+04; -2.4531555E-01;  0.0000000E+00; -1.1891268E-02;  1.5435917E+05;
  1.6380300E-01;  9.9999998E-03;  2.3996620E-01;3476; -4.6837199E-02;  0.0000000E+00; -6.1846664E-04;  9.8858105E+02;  1.0000000E-01; -9.4603740E+03;3;  5.7792699E-01;  0.0000000E+00;  9.5757589E+00;0; -3.0511191E-01;  3.8996938E+04;  0.0000000E+00;  2.2520803E+01;  4.0000000E+04;  0.0000000E+00;  4.0103562E+04; -3.0627623E-01;  0.0000000E+00;  1.1643136E-03;  3.5748094E+04;
  1.6367342E-01;  9.9999998E-03;  2.4987099E-01;3477; -4.4743896E-02;  0.0000000E+00; -7.6564663E-04;  9.8696643E+02;  1.0000000E-01; -1.0798064E+04;3;  6.4551430E+00;  0.0000000E+00;  1.2281288E+01;0; -3.1360069E-01;  3.8865238E+04;  0.0000000E+00;  3.6944580E+01;  4.0000000E+04;  0.0000000E+00;  4.0108809E+04; -3.1341475E-01;  0.0000000E+00; -1.8594763E-04;  5.6111875E+04;
  1.6343740E-01;  9.9999998E-03;  2.5976089E-01;3478; -4.2209830E-02;  0.0000000E+00; -1.1417166E-03;  9.8528674E+02;  1.0000000E-01; -1.2189630E+04;3;  1.8101673E+01;  0.0000000E+00;  1.0684444E+01;0; -3.2123721E-01;  3.8735852E+04;  0.0000000E+00;  5.6301464E+01;  4.0000000E+04;  0.0000000E+00;  4.0106539E+04; -3.1907564E-01;  0.0000000E+00; -2.1615573E-03;  8.3947359E+04;
  1.6309546E-01;  9.9999998E-03;  2.6964530E-01;3479; -3.9027650E-02;  0.0000000E+00; -1.7012613E-03;  9.8374286E+02;  1.0000000E-01; -1.3468754E+04;3;  3.7314487E+01;  0.0000000E+00;  1.6203789E+00;0; -3.2644337E-01;  3.8624992E+04;  0.0000000E+00;  7.9935410E+01;  4.0000000E+04;  0.0000000E+00;  4.0096453E+04; -3.2179829E-01;  0.0000000E+00; -4.6450859E-03;  1.1825755E+05;
  1.6266507E-01;  9.9999998E-03;  2.7955148E-01;3480; -3.4915689E-02;  0.0000000E+00; -2.2634827E-03;  9.8256879E+02;  1.0000000E-01; -1.4441418E+04;3;  6.2886906E+01;  0.0000000E+00; -1.7849922E+01;0; -3.2647166E-01;  3.8551758E+04;  0.0000000E+00;  1.0558330E+02;  4.0000000E+04;  0.0000000E+00;  4.0077555E+04; -3.1925038E-01;  0.0000000E+00; -7.2212927E-03;  1.5552995E+05;
  1.6223130E-01;  9.9999998E-03;  2.8948975E-01;3481; -2.9730972E-02;  0.0000000E+00; -2.6040957E-03;  9.8188135E+02;  1.0000000E-01; -1.5010981E+04;3;  8.8266098E+01;  0.0000000E+00; -4.8677509E+01;0; -3.1780881E-01;  3.8524617E+04;  0.0000000E+00;  1.2901743E+02;  4.0000000E+04;  0.0000000E+00;  4.0050902E+04; -3.0856073E-01;  0.0000000E+00; -9.2480667E-03;  1.8939291E+05;
  1.6189942E-01;  9.9999998E-03;  2.9948699E-01;3482; -2.3123192E-02;  0.0000000E+00; -2.1443211E-03;  9.8153961E+02;  1.0000000E-01; -1.5294085E+04;3;  1.0262413E+02;  0.0000000E+00; -9.0518929E+01;0; -2.9505831E-01;  3.8531457E+04;  0.0000000E+00;  1.4453493E+02;  4.0000000E+04;  0.0000000E+00;  4.0016805E+04; -2.8560171E-01;  0.0000000E+00; -9.4565954E-03;  2.1151084E+05;
  1.7403436E-01;  9.9999998E-03;  2.4003221E-01;3537; -5.0417315E-02;  0.0000000E+00; -1.0572535E-03;  9.8820703E+02;  1.0000000E-01; -9.7702412E+03;3;  4.0046849E+00;  0.0000000E+00;  8.8757582E+00;0; -3.1913504E-01;  3.8977258E+04;  0.0000000E+00;  2.4769142E+01;  4.0000000E+04;  0.0000000E+00;  4.0093738E+04; -3.1960052E-01;  0.0000000E+00;  4.6547200E-04;  3.8475262E+04;
  1.7399730E-01;  9.9999998E-03;  2.4994674E-01;3538; -4.8659541E-02;  0.0000000E+00; -1.2592035E-03;  9.8631744E+02;  1.0000000E-01; -1.1335728E+04;3;  1.3547476E+01;  0.0000000E+00;  1.0600827E+01;0; -3.3195376E-01;  3.8822457E+04;  0.0000000E+00;  4.1176853E+01;  4.0000000E+04;  0.0000000E+00;  4.0101047E+04; -3.3140993E-01;  0.0000000E+00; -5.4384116E-04;  6.2089758E+04;
  1.7384407E-01;  9.9999998E-03;  2.5983021E-01;3539; -4.6420533E-02;  0.0000000E+00; -1.6407629E-03;  9.8425879E+02;  1.0000000E-01; -1.3041310E+04;3;  3.2184589E+01;  0.0000000E+00;  7.8824577E+00;0; -3.4519783E-01;  3.8658449E+04;  0.0000000E+00;  6.3851131E+01;  4.0000000E+04;  0.0000000E+00;  4.0104512E+04; -3.4295604E-01;  0.0000000E+00; -2.2417931E-03;  9.5201922E+04;
  1.7355023E-01;  9.9999998E-03;  2.6970106E-01;3540; -4.3383345E-02;  0.0000000E+00; -2.0792277E-03;  9.8226465E+02;  1.0000000E-01; -1.4693410E+04;3;  6.3813389E+01;  0.0000000E+00; -2.7393827E+00;0; -3.5695690E-01;  3.8504086E+04;  0.0000000E+00;  9.2854485E+01;  4.0000000E+04;  0.0000000E+00;  4.0103918E+04; -3.5254395E-01;  0.0000000E+00; -4.4129416E-03;  1.3782508E+05;
  1.7313001E-01;  9.9999998E-03;  2.7959543E-01;3541; -3.9140098E-02;  0.0000000E+00; -2.2694499E-03;  9.8060754E+02;  1.0000000E-01; -1.6066261E+04;3;  1.0866521E+02;  0.0000000E+00; -2.6060188E+01;0; -3.6325607E-01;  3.8384262E+04;  0.0000000E+00;  1.2629658E+02;  4.0000000E+04;  0.0000000E+00;  4.0095160E+04; -3.5700625E-01;  0.0000000E+00; -6.2498171E-03;  1.8691005E+05;
  1.7266905E-01;  9.9999998E-03;  2.8955251E-01;3542; -3.3180393E-02;  0.0000000E+00; -1.5856309E-03;  9.7940710E+02;  1.0000000E-01; -1.7060801E+04;3;  1.5714812E+02;  0.0000000E+00; -6.6976662E+01;0; -3.5693267E-01;  3.8314074E+04;  0.0000000E+00;  1.5873817E+02;  4.0000000E+04;  0.0000000E+00;  4.0071871E+04; -3.5100943E-01;  0.0000000E+00; -5.9232488E-03;  2.3416448E+05;
  1.7230658E-01;  9.9999998E-03;  2.9960233E-01;3543; -2.4731727E-02;  0.0000000E+00;  9.0715988E-04;  9.7842645E+02;  1.0000000E-01; -1.7873271E+04;3;  1.9024870E+02;  0.0000000E+00; -1.2588034E+02;0; -3.2639068E-01;  3.8278410E+04;  0.0000000E+00;  1.8112965E+02;  4.0000000E+04;  0.0000000E+00;  4.0030734E+04; -3.2559597E-01;  0.0000000E+00; -7.9469662E-04;  2.6634328E+05;
  1.8417980E-01;  9.9999998E-03;  2.4012037E-01;3598; -5.3985931E-02;  0.0000000E+00; -1.2326821E-03;  9.8798950E+02;  1.0000000E-01; -9.9504834E+03;3;  5.7664690E+00;  0.0000000E+00;  7.3966274E+00;0; -3.3213297E-01;  3.8977703E+04;  0.0000000E+00;  2.5662590E+01;  4.0000000E+04;  0.0000000E+00;  4.0076105E+04; -3.3208704E-01;  0.0000000E+00; -4.5934692E-05;  3.9154480E+04;
  1.8420054E-01;  9.9999998E-03;  2.5005975E-01;3599; -5.2516818E-02;  0.0000000E+00; -1.4574238E-03;  9.8587634E+02;  1.0000000E-01; -1.1701199E+04;3;  1.7300602E+01;  0.0000000E+00;  6.7041125E+00;0; -3.4915712E-01;  3.8807430E+04;  0.0000000E+00;  4.2930668E+01;  4.0000000E+04;  0.0000000E+00;  4.0081477E+04; -3.4825909E-01;  0.0000000E+00; -8.9802779E-04;  6.4302707E+04;
  1.8413535E-01;  9.9999998E-03;  2.5995967E-01;3600; -5.0515447E-02;  0.0000000E+00; -1.8196916E-03;  9.8344214E+02;  1.0000000E-01; -1.3717883E+04;3;  4.0179783E+01;  0.0000000E+00; -8.3005965E-02;0; -3.6806959E-01;  3.8613684E+04;  0.0000000E+00;  6.7150833E+01;  4.0000000E+04;  0.0000000E+00;  4.0085988E+04; -3.6552566E-01;  0.0000000E+00; -2.5439360E-03;  1.0005296E+05;
  1.8395267E-01;  9.9999998E-03;  2.6984325E-01;3601; -4.7533780E-02;  0.0000000E+00; -2.0799250E-03;  9.8086664E+02;  1.0000000E-01; -1.5851649E+04;3;  8.0322052E+01;  0.0000000E+00; -1.7671165E+01;0; -3.8649988E-01;  3.8410984E+04;  0.0000000E+00;  9.8873413E+01;  4.0000000E+04;  0.0000000E+00;  4.0089078E+04; -3.8205791E-01;  0.0000000E+00; -4.4419756E-03;  1.4716470E+05;
  1.8365145E-01;  9.9999998E-03;  2.7974853E-01;3602; -4.2902127E-02;  0.0000000E+00; -1.6091025E-03;  9.7836816E+02;  1.0000000E-01; -1.7921566E+04;3;  1.3993402E+02;  0.0000000E+00; -5.3125439E+01;0; -3.9792079E-01;  3.8222156E+04;  0.0000000E+00;  1.3657687E+02;  4.0000000E+04;  0.0000000E+00;  4.0084961E+04; -3.9349678E-01;  0.0000000E+00; -4.4240067E-03;  2.0314928E+05;
  1.8329562E-01;  9.9999998E-03;  2.8973535E-01;3603; -3.5683103E-02;  0.0000000E+00;  6.6607242E-04;  9.7599170E+02;  1.0000000E-01; -1.9890398E+04;3;  2.0741121E+02;  0.0000000E+00; -1.1581914E+02;0; -3.8912627E-01;  3.8064738E+04;  0.0000000E+00;  1.7385309E+02;  4.0000000E+04;  0.0000000E+00;  4.0058688E+04; -3.9094329E-01;  0.0000000E+00;  1.8170238E-03;  2.5820652E+05;
  1.8305895E-01;  9.9999998E-03;  2.9985592E-01;3604; -2.4608159E-02;  0.0000000E+00;  5.4958663E-03;  9.7318915E+02;  1.0000000E-01; -2.2212260E+04;3;  2.5684058E+02;  0.0000000E+00; -2.1169658E+02;0; -3.4049031E-01;  3.7908867E+04;  0.0000000E+00;  1.9693883E+02;  4.0000000E+04;  0.0000000E+00;  3.9996508E+04; -3.5798323E-01;  0.0000000E+00;  1.7492916E-02;  2.9206406E+05;
  1.9423297E-01;  9.9999998E-03;  2.4020022E-01;3659; -5.7469610E-02;  0.0000000E+00; -1.2442949E-03;  9.8796375E+02;  1.0000000E-01; -9.9718164E+03;3;  5.2367506E+00;  0.0000000E+00;  5.9912310E+00;0; -3.4316558E-01;  3.8998762E+04;  0.0000000E+00;  2.5241127E+01;  4.0000000E+04;  0.0000000E+00;  4.0052703E+04; -3.4289482E-01;  0.0000000E+00; -2.7076039E-04;  3.7926805E+04;
  1.9427872E-01;  9.9999998E-03;  2.5016662E-01;3660; -5.6212839E-02;  0.0000000E+00; -1.5195326E-03;  9.8572784E+02;  1.0000000E-01; -1.1824208E+04;3;  1.6350424E+01;  0.0000000E+00;  2.2355101E+00;0; -3.6396152E-01;  3.8824668E+04;  0.0000000E+00;  4.2264694E+01;  4.0000000E+04;  0.0000000E+00;  4.0052105E+04; -3.6270994E-01;  0.0000000E+00; -1.2515718E-03;  6.2905785E+04;
  1.9425316E-01;  9.9999998E-03;  2.6009268E-01;3661; -5.4323487E-02;  0.0000000E+00; -1.9142909E-03;  9.8305847E+02;  1.0000000E-01; -1.4035750E+04;3;  3.9038475E+01;  0.0000000E+00; -1.0165362E+01;0; -3.8803405E-01;  3.8617324E+04;  0.0000000E+00;  6.6401649E+01;  4.0000000E+04;  0.0000000E+00;  4.0051766E+04; -3.8474861E-01;  0.0000000E+00; -3.2854299E-03;  9.8772484E+04;
  1.9413956E-01;  9.9999998E-03;  2.7000913E-01;3662; -5.1222540E-02;  0.0000000E+00; -2.1321618E-03;  9.8004376E+02;  1.0000000E-01; -1.6533357E+04;3;  7.9934959E+01;  0.0000000E+00; -3.8319424E+01;0; -4.1251862E-01;  3.8384957E+04;  0.0000000E+00;  9.8334312E+01;  4.0000000E+04;  0.0000000E+00;  4.0050133E+04; -4.0698779E-01;  0.0000000E+00; -5.5308277E-03;  1.4650439E+05;
  1.9400285E-01;  9.9999998E-03;  2.7996299E-01;3663; -4.6009816E-02;  0.0000000E+00; -1.4637532E-03;  9.7655078E+02;  1.0000000E-01; -1.9427252E+04;3;  1.4115208E+02;  0.0000000E+00; -9.5249908E+01;0; -4.2863840E-01;  3.8129504E+04;  0.0000000E+00;  1.3484621E+02;  4.0000000E+04;  0.0000000E+00;  4.0035883E+04; -4.2393440E-01;  0.0000000E+00; -4.7040014E-03;  2.0125759E+05;
  1.9402914E-01;  9.9999998E-03;  2.9002109E-01;3664; -3.8124118E-02;  0.0000000E+00;  2.0657953E-04;  9.7171729E+02;  1.0000000E-01; -2.3431682E+04;3;  2.0629886E+02;  0.0000000E+00; -2.0300464E+02;0; -4.2498243E-01;  3.7809305E+04;  0.0000000E+00;  1.6268657E+02;  4.0000000E+04;  0.0000000E+00;  3.9983383E+04; -4.2609948E-01;  0.0000000E+00;  1.1170421E-03;  2.4353475E+05;
  1.9433214E-01;  9.9999998E-03;  3.0020502E-01;3665; -2.8495645E-02;  0.0000000E+00;  1.0376421E-03;  9.6440259E+02;  1.0000000E-01; -2.9491756E+04;3;  2.4301198E+02;  0.0000000E+00; -3.6982910E+02;0; -4.0083039E-01;  3.7348418E+04;  0.0000000E+00;  1.6400638E+02;  4.0000000E+04;  0.0000000E+00;  3.9884617E+04; -4.0482366E-01;  0.0000000E+00;  3.9932854E-03;  2.4701805E+05;
  2.0422348E-01;  9.9999998E-03;  2.4023117E-01;3720; -6.0819037E-02;  0.0000000E+00; -1.3026795E-03;  9.8816418E+02;  1.0000000E-01; -9.8057471E+03;3;  2.6434493E+00;  0.0000000E+00;  6.0736418E+00;0; -3.5171729E-01;  3.9036637E+04;  0.0000000E+00;  2.3775095E+01;  4.0000000E+04;  0.0000000E+00;  4.0030227E+04; -3.5132086E-01;  0.0000000E+00; -3.9643049E-04;  3.5360180E+04;
  2.0427991E-01;  9.9999998E-03;  2.5021487E-01;3721; -5.9696093E-02;  0.0000000E+00; -1.7113782E-03;  9.8594080E+02;  1.0000000E-01; -1.1647769E+04;3;  1.1256860E+01;  0.0000000E+00;  4.1239846E-01;0; -3.7580127E-01;  3.8869840E+04;  0.0000000E+00;  3.9702366E+01;  4.0000000E+04;  0.0000000E+00;  4.0023234E+04; -3.7371749E-01;  0.0000000E+00; -2.0837891E-03;  5.8853289E+04;
  2.0426494E-01;  9.9999998E-03;  2.6015896E-01;3722; -5.7858557E-02;  0.0000000E+00; -2.2495035E-03;  9.8325024E+02;  1.0000000E-01; -1.3876841E+04;3;  2.9903435E+01;  0.0000000E+00; -1.5588455E+01;0; -4.0458098E-01;  3.8665422E+04;  0.0000000E+00;  6.2636597E+01;  4.0000000E+04;  0.0000000E+00;  4.0017590E+04; -3.9915213E-01;  0.0000000E+00; -5.4288646E-03;  9.3047727E+04;
  2.0417471E-01;  9.9999998E-03;  2.7009481E-01;3723; -5.4536179E-02;  0.0000000E+00; -2.5456792E-03;  9.8011694E+02;  1.0000000E-01; -1.6472719E+04;3;  6.5037788E+01;  0.0000000E+00; -5.0242596E+01;0; -4.3436164E-01;  3.8427559E+04;  0.0000000E+00;  9.3538551E+01;  4.0000000E+04;  0.0000000E+00;  4.0011938E+04; -4.2521799E-01;  0.0000000E+00; -9.1436617E-03;  1.3929873E+05;
  2.0413071E-01;  9.9999998E-03;  2.8007954E-01;3724; -4.8832130E-02;  0.0000000E+00; -2.2454562E-03;  9.7610242E+02;  1.0000000E-01; -1.9798697E+04;3;  1.1759190E+02;  0.0000000E+00; -1.2173431E+02;0; -4.5640749E-01;  3.8139973E+04;  0.0000000E+00;  1.2711974E+02;  4.0000000E+04;  0.0000000E+00;  3.9988617E+04; -4.4576687E-01;  0.0000000E+00; -1.0640631E-02;  1.8969322E+05;
  2.0447582E-01;  9.9999998E-03;  2.9015270E-01;3725; -4.1450135E-02;  0.0000000E+00; -2.8961592E-03;  9.6945453E+02;  1.0000000E-01; -2.5306344E+04;3;  1.6630878E+02;  0.0000000E+00; -2.5254996E+02;0; -4.7218642E-01;  3.7693602E+04;  0.0000000E+00;  1.4041145E+02;  4.0000000E+04;  0.0000000E+00;  3.9924176E+04; -4.5489806E-01;  0.0000000E+00; -1.7288359E-02;  2.1057030E+05;
  2.0498773E-01;  9.9999998E-03;  3.0019808E-01;3726; -3.4786947E-02;  0.0000000E+00; -4.7290404E-03;  9.6061981E+02;  1.0000000E-01; -3.2625742E+04;3;  1.9953647E+02;  0.0000000E+00; -3.9799438E+02;0; -4.8518598E-01;  3.7077656E+04;  0.0000000E+00;  1.3109767E+02;  4.0000000E+04;  0.0000000E+00;  3.9873051E+04; -4.5385158E-01;  0.0000000E+00; -3.1334408E-02;  1.9780339E+05;
  2.1419315E-01;  9.9999998E-03;  2.4019256E-01;3781; -6.4003795E-02;  0.0000000E+00; -1.3236885E-03;  9.8861517E+02;  1.0000000E-01; -9.4321279E+03;3; -1.2534868E+00;  0.0000000E+00;  8.4852953E+00;0; -3.5716304E-01;  3.9084508E+04;  0.0000000E+00;  2.1531939E+01;  4.0000000E+04;  0.0000000E+00;  4.0017496E+04; -3.5693467E-01;  0.0000000E+00; -2.2838661E-04;  3.1900678E+04;
  2.1425518E-01;  9.9999998E-03;  2.5017557E-01;3782; -6.2975064E-02;  0.0000000E+00; -1.8628341E-03;  9.8658466E+02;  1.0000000E-01; -1.1114352E+04;3;  3.7603924E+00;  0.0000000E+00;  4.0838408E+00;0; -3.8367739E-01;  3.8933695E+04;  0.0000000E+00;  3.5794056E+01;  4.0000000E+04;  0.0000000E+00;  4.0009742E+04; -3.8066846E-01;  0.0000000E+00; -3.0089281E-03;  5.2989840E+04;
  2.1424161E-01;  9.9999998E-03;  2.6012045E-01;3783; -6.1174348E-02;  0.0000000E+00; -2.4775532E-03;  9.8412469E+02;  1.0000000E-01; -1.3152368E+04;3;  1.6447727E+01;  0.0000000E+00; -9.4597826E+00;0; -4.1589645E-01;  3.8744812E+04;  0.0000000E+00;  5.6827568E+01;  4.0000000E+04;  0.0000000E+00;  4.0006586E+04; -4.0789497E-01;  0.0000000E+00; -8.0014672E-03;  8.4335734E+04;
  2.1416004E-01;  9.9999998E-03;  2.7005851E-01;3784; -5.7741165E-02;  0.0000000E+00; -2.7131855E-03;  9.8122443E+02;  1.0000000E-01; -1.5555213E+04;3;  4.2388721E+01;  0.0000000E+00; -4.0170803E+01;0; -4.4915441E-01;  3.8518887E+04;  0.0000000E+00;  8.6020836E+01;  4.0000000E+04;  0.0000000E+00;  4.0006684E+04; -4.3605924E-01;  0.0000000E+00; -1.3095177E-02;  1.2784683E+05;
  2.1417718E-01;  9.9999998E-03;  2.8003898E-01;3785; -5.1801652E-02;  0.0000000E+00; -2.3396218E-03;  9.7726086E+02;  1.0000000E-01; -1.8838922E+04;3;  8.1663010E+01;  0.0000000E+00; -1.0574401E+02;0; -4.7413471E-01;  3.8227375E+04;  0.0000000E+00;  1.1631873E+02;  4.0000000E+04;  0.0000000E+00;  3.9990820E+04; -4.5874012E-01;  0.0000000E+00; -1.5394605E-02;  1.7289883E+05;
  2.1454622E-01;  9.9999998E-03;  2.9007217E-01;3786; -4.4561371E-02;  0.0000000E+00; -3.1627724E-03;  9.7082153E+02;  1.0000000E-01; -2.4173783E+04;3;  1.1718916E+02;  0.0000000E+00; -2.1770532E+02;0; -4.9677134E-01;  3.7777461E+04;  0.0000000E+00;  1.2531731E+02;  4.0000000E+04;  0.0000000E+00;  3.9945141E+04; -4.7111553E-01;  0.0000000E+00; -2.5655793E-02;  1.8651070E+05;
  2.1501929E-01;  9.9999998E-03;  3.0005479E-01;3787; -3.8607858E-02;  0.0000000E+00; -4.6233353E-03;  9.6267041E+02;  1.0000000E-01; -3.0926877E+04;3;  1.4565564E+02;  0.0000000E+00; -3.2747357E+02;0; -5.1758432E-01;  3.7177234E+04;  0.0000000E+00;  1.1490788E+02;  4.0000000E+04;  0.0000000E+00;  3.9930961E+04; -4.7667682E-01;  0.0000000E+00; -4.0907495E-02;  1.7071909E+05;
  2.2417025E-01;  9.9999998E-03;  2.4011423E-01;3842; -6.7068830E-02;  0.0000000E+00; -1.1084828E-03;  9.8923950E+02;  1.0000000E-01; -8.9148584E+03;3; -5.3601437E+00;  0.0000000E+00;  1.1016869E+01;0; -3.5891169E-01;  3.9135012E+04;  0.0000000E+00;  1.8682259E+01;  4.0000000E+04;  0.0000000E+00;  4.0015969E+04; -3.5974327E-01;  0.0000000E+00;  8.3157379E-04;  2.7700553E+04;
  2.2423999E-01;  9.9999998E-03;  2.5009203E-01;3843; -6.6112988E-02;  0.0000000E+00; -1.6428247E-03;  9.8752710E+02;  1.0000000E-01; -1.0333584E+04;3; -4.1827130E+00;  0.0000000E+00;  9.3025808E+00;0; -3.8633290E-01;  3.9005656E+04;  0.0000000E+00;  3.0779604E+01;  4.0000000E+04;  0.0000000E+00;  4.0012191E+04; -3.8364053E-01;  0.0000000E+00; -2.6923788E-03;  4.5574246E+04;
  2.2423550E-01;  9.9999998E-03;  2.6003468E-01;3844; -6.4371414E-02;  0.0000000E+00; -2.0765681E-03;  9.8544867E+02;  1.0000000E-01; -1.2055510E+04;3;  1.9227613E+00;  0.0000000E+00;  1.1241891E+00;0; -4.1933045E-01;  3.8838629E+04;  0.0000000E+00;  4.8981495E+01;  4.0000000E+04;  0.0000000E+00;  4.0017039E+04; -4.1118935E-01;  0.0000000E+00; -8.1410874E-03;  7.2637391E+04;
  2.2416870E-01;  9.9999998E-03;  2.6997691E-01;3845; -6.1008152E-02;  0.0000000E+00; -1.9243665E-03;  9.8294098E+02;  1.0000000E-01; -1.4133081E+04;3;  1.6906137E+01;  0.0000000E+00; -2.0777586E+01;0; -4.5223495E-01;  3.8633957E+04;  0.0000000E+00;  7.4973091E+01;  4.0000000E+04;  0.0000000E+00;  4.0026355E+04; -4.4004065E-01;  0.0000000E+00; -1.2194296E-02;  1.1114423E+05;
  2.2424497E-01;  9.9999998E-03;  2.7995345E-01;3846; -5.5243537E-02;  0.0000000E+00; -9.2248572E-04;  9.7929321E+02;  1.0000000E-01; -1.7155168E+04;3;  3.9741249E+01;  0.0000000E+00; -7.0701805E+01;0; -4.7453934E-01;  3.8354918E+04;  0.0000000E+00;  9.9911171E+01;  4.0000000E+04;  0.0000000E+00;  4.0021844E+04; -4.6422511E-01;  0.0000000E+00; -1.0314235E-02;  1.4782950E+05;
  2.2455905E-01;  9.9999998E-03;  2.8996071E-01;3847; -4.8293542E-02;  0.0000000E+00; -1.0439713E-03;  9.7369812E+02;  1.0000000E-01; -2.1790592E+04;3;  6.1579308E+01;  0.0000000E+00; -1.5477838E+02;0; -4.9546590E-01;  3.7949125E+04;  0.0000000E+00;  1.0759434E+02;  4.0000000E+04;  0.0000000E+00;  3.9996332E+04; -4.7933254E-01;  0.0000000E+00; -1.6133359E-02;  1.5879455E+05;
  2.2496209E-01;  9.9999998E-03;  2.9992467E-01;3848; -4.2816985E-02;  0.0000000E+00; -1.7707960E-03;  9.6669836E+02;  1.0000000E-01; -2.7589785E+04;3;  8.2590477E+01;  0.0000000E+00; -2.3358488E+02;0; -5.1671451E-01;  3.7414121E+04;  0.0000000E+00;  9.7695831E+01;  4.0000000E+04;  0.0000000E+00;  4.0001535E+04; -4.8962450E-01;  0.0000000E+00; -2.7089994E-02;  1.4322797E+05;
  2.3416205E-01;  9.9999998E-03;  2.4002562E-01;3903; -7.0095077E-02;  0.0000000E+00; -6.9222180E-04;  9.8993396E+02;  1.0000000E-01; -8.3395166E+03;3; -8.6109314E+00;  0.0000000E+00;  1.2576785E+01;0; -3.5713235E-01;  3.9183246E+04;  0.0000000E+00;  1.5427966E+01;  4.0000000E+04;  0.0000000E+00;  4.0022508E+04; -3.6003041E-01;  0.0000000E+00;  2.8980551E-03;  2.3053191E+04;
  2.3424311E-01;  9.9999998E-03;  2.4999887E-01;3904; -6.9211788E-02;  0.0000000E+00; -1.0659085E-03;  9.8860529E+02;  1.0000000E-01; -9.4403252E+03;3; -1.0670076E+01;  0.0000000E+00;  1.3647207E+01;0; -3.8373998E-01;  3.9077641E+04;  0.0000000E+00;  2.5011305E+01;  4.0000000E+04;  0.0000000E+00;  4.0025270E+04; -3.8312569E-01;  0.0000000E+00; -6.1428023E-04;  3.7192840E+04;
  2.3426183E-01;  9.9999998E-03;  2.5994447E-01;3905; -6.7640930E-02;  0.0000000E+00; -1.1245613E-03;  9.8695929E+02;  1.0000000E-01; -1.0803990E+04;3; -1.0443005E+01;  0.0000000E+00;  1.0900846E+01;0; -4.1477108E-01;  3.8936273E+04;  0.0000000E+00;  3.9410595E+01;  4.0000000E+04;  0.0000000E+00;  4.0038840E+04; -4.0991220E-01;  0.0000000E+00; -4.8588892E-03;  5.8614918E+04;
  2.3422109E-01;  9.9999998E-03;  2.6989466E-01;3906; -6.4577393E-02;  0.0000000E+00; -2.4396250E-04;  9.8489551E+02;  1.0000000E-01; -1.2513769E+04;3; -5.8702703E+00;  0.0000000E+00; -1.3508337E+00;0; -4.4245061E-01;  3.8757961E+04;  0.0000000E+00;  6.0395386E+01;  4.0000000E+04;  0.0000000E+00;  4.0056426E+04; -4.3846172E-01;  0.0000000E+00; -3.9888863E-03;  8.9610617E+04;
  2.3430286E-01;  9.9999998E-03;  2.7987736E-01;3907; -5.9323203E-02;  0.0000000E+00;  1.5662180E-03;  9.8176410E+02;  1.0000000E-01; -1.5108115E+04;3;  1.9107341E+00;  0.0000000E+00; -3.5337341E+01;0; -4.5724100E-01;  3.8513250E+04;  0.0000000E+00;  8.0155785E+01;  4.0000000E+04;  0.0000000E+00;  4.0057316E+04; -4.6375147E-01;  0.0000000E+00;  6.5104607E-03;  1.1842930E+05;
  2.3454356E-01;  9.9999998E-03;  2.8987783E-01;3908; -5.2936580E-02;  0.0000000E+00;  2.1622935E-03;  9.7714728E+02;  1.0000000E-01; -1.8933043E+04;3;  1.0618161E+01;  0.0000000E+00; -9.4614334E+01;0; -4.7314620E-01;  3.8170902E+04;  0.0000000E+00;  8.7365189E+01;  4.0000000E+04;  0.0000000E+00;  4.0041973E+04; -4.8188913E-01;  0.0000000E+00;  8.7429229E-03;  1.2843666E+05;
  2.3485543E-01;  9.9999998E-03;  2.9984790E-01;3909; -4.7645915E-02;  0.0000000E+00;  1.9819601E-03;  9.7139581E+02;  1.0000000E-01; -2.3698045E+04;3;  2.2679504E+01;  0.0000000E+00; -1.5241844E+02;0; -4.9212244E-01;  3.7724652E+04;  0.0000000E+00;  8.0057442E+01;  4.0000000E+04;  0.0000000E+00;  4.0050016E+04; -4.9537170E-01;  0.0000000E+00;  3.2492620E-03;  1.1681174E+05;
  2.4418281E-01;  9.9999998E-03;  2.3994194E-01;3964; -7.3161930E-02;  0.0000000E+00; -3.5495497E-05;  9.9061438E+02;  1.0000000E-01; -7.7758291E+03;3; -1.0397256E+01;  0.0000000E+00;  1.2710651E+01;0; -3.5201657E-01;  3.9225133E+04;  0.0000000E+00;  1.1965042E+01;  4.0000000E+04;  0.0000000E+00;  4.0034066E+04; -3.5818774E-01;  0.0000000E+00;  6.1711767E-03;  1.8382689E+04;
  2.4427843E-01;  9.9999998E-03;  2.4991360E-01;3965; -7.2375245E-02;  0.0000000E+00; -1.2283426E-04;  9.8967212E+02;  1.0000000E-01; -8.5564482E+03;3; -1.4638147E+01;  0.0000000E+00;  1.5781050E+01;0; -3.7609369E-01;  3.9143949E+04;  0.0000000E+00;  1.8856039E+01;  4.0000000E+04;  0.0000000E+00;  4.0043355E+04; -3.7977701E-01;  0.0000000E+00;  3.6833256E-03;  2.8595936E+04;
  2.4432093E-01;  9.9999998E-03;  2.5986755E-01;3966; -7.1036674E-02;  0.0000000E+00;  3.5876146E-04;  9.8845471E+02;  1.0000000E-01; -9.5650625E+03;3; -1.8661572E+01;  0.0000000E+00;  1.7022482E+01;0; -4.0216061E-01;  3.9030305E+04;  0.0000000E+00;  2.9022169E+01;  4.0000000E+04;  0.0000000E+00;  4.0063312E+04; -4.0495080E-01;  0.0000000E+00;  2.7901747E-03;  4.3871410E+04;
  2.4429823E-01;  9.9999998E-03;  2.6983377E-01;3967; -6.8400167E-02;  0.0000000E+00;  2.0732849E-03;  9.8680310E+02;  1.0000000E-01; -1.0933369E+04;3; -2.2081131E+01;  0.0000000E+00;  1.1654868E+01;0; -4.2042226E-01;  3.8883414E+04;  0.0000000E+00;  4.4287785E+01;  4.0000000E+04;  0.0000000E+00;  4.0081859E+04; -4.3232107E-01;  0.0000000E+00;  1.1898826E-02;  6.6386023E+04;
  2.4434130E-01;  9.9999998E-03;  2.7982837E-01;3968; -6.3984320E-02;  0.0000000E+00;  4.0419386E-03;  9.8425439E+02;  1.0000000E-01; -1.3044914E+04;3; -2.4980139E+01;  0.0000000E+00; -1.0454747E+01;0; -4.3045667E-01;  3.8685012E+04;  0.0000000E+00;  6.0002281E+01;  4.0000000E+04;  0.0000000E+00;  4.0080840E+04; -4.5835990E-01;  0.0000000E+00;  2.7903229E-02;  8.9054180E+04;
  2.4449946E-01;  9.9999998E-03;  2.8982908E-01;3969; -5.8465630E-02;  0.0000000E+00;  4.8713591E-03;  9.8060785E+02;  1.0000000E-01; -1.6066014E+04;3; -2.6251307E+01;  0.0000000E+00; -5.0385220E+01;0; -4.4446105E-01;  3.8412797E+04;  0.0000000E+00;  6.7720604E+01;  4.0000000E+04;  0.0000000E+00;  4.0069500E+04; -4.7961271E-01;  0.0000000E+00;  3.5151668E-02;  9.9764281E+04;
  2.4472024E-01;  9.9999998E-03;  2.9980925E-01;3970; -5.3372737E-02;  0.0000000E+00;  4.9210498E-03;  9.7605182E+02;  1.0000000E-01; -1.9840623E+04;3; -2.2406496E+01;  0.0000000E+00; -9.2620934E+01;0; -4.6331555E-01;  3.8057648E+04;  0.0000000E+00;  6.4382561E+01;  4.0000000E+04;  0.0000000E+00;  4.0074184E+04; -4.9614775E-01;  0.0000000E+00;  3.2832220E-02;  9.4279773E+04;
  2.5422874E-01;  9.9999998E-03;  2.3986866E-01;4025; -7.6311350E-02;  0.0000000E+00;  8.2910538E-04;  9.9122565E+02;  1.0000000E-01; -7.2693740E+03;3; -1.0564528E+01;  0.0000000E+00;  1.1438754E+01;0; -3.4409910E-01;  3.9259754E+04;  0.0000000E+00;  8.6207514E+00;  4.0000000E+04;  0.0000000E+00;  4.0047836E+04; -3.5461420E-01;  0.0000000E+00;  1.0515092E-02;  1.4433710E+04;
  2.5433135E-01;  9.9999998E-03;  2.4984181E-01;4026; -7.5647116E-02;  0.0000000E+00;  1.1289992E-03;  9.9065302E+02;  1.0000000E-01; -7.7437803E+03;3; -1.5807727E+01;  0.0000000E+00;  1.5469067E+01;0; -3.6408618E-01;  3.9202445E+04;  0.0000000E+00;  1.3075608E+01;  4.0000000E+04;  0.0000000E+00;  4.0062484E+04; -3.7422568E-01;  0.0000000E+00;  1.0139481E-02;  2.1226555E+04;
  2.5438988E-01;  9.9999998E-03;  2.5981039E-01;4027; -7.4528061E-02;  0.0000000E+00;  2.2659046E-03;  9.8980450E+02;  1.0000000E-01; -8.4467725E+03;3; -2.2204355E+01;  0.0000000E+00;  1.8629154E+01;0; -3.8236880E-01;  3.9117137E+04;  0.0000000E+00;  1.9392632E+01;  4.0000000E+04;  0.0000000E+00;  4.0083395E+04; -3.9715135E-01;  0.0000000E+00;  1.4782541E-02;  3.0946576E+04;
  2.5437975E-01;  9.9999998E-03;  2.6979703E-01;4028; -7.2454818E-02;  0.0000000E+00;  4.1948208E-03;  9.8849127E+02;  1.0000000E-01; -9.5347422E+03;3; -3.0091440E+01;  0.0000000E+00;  1.6714264E+01;0; -3.9362776E-01;  3.9002926E+04;  0.0000000E+00;  2.9239758E+01;  4.0000000E+04;  0.0000000E+00;  4.0095879E+04; -4.2269444E-01;  0.0000000E+00;  2.9066691E-02;  4.5227051E+04;
  2.5436980E-01;  9.9999998E-03;  2.7980098E-01;4029; -6.9047540E-02;  0.0000000E+00;  5.7792151E-03;  9.8650916E+02;  1.0000000E-01; -1.1176918E+04;3; -3.8872055E+01;  0.0000000E+00;  3.2532170E+00;0; -4.0366298E-01;  3.8852230E+04;  0.0000000E+00;  4.1674770E+01;  4.0000000E+04;  0.0000000E+00;  4.0091086E+04; -4.4868994E-01;  0.0000000E+00;  4.5026954E-02;  6.2713801E+04;
  2.5444451E-01;  9.9999998E-03;  2.8980291E-01;4030; -6.4571917E-02;  0.0000000E+00;  6.5059201E-03;  9.8375470E+02;  1.0000000E-01; -1.3458927E+04;3; -4.6388897E+01;  0.0000000E+00; -2.1960939E+01;0; -4.1928464E-01;  3.8646461E+04;  0.0000000E+00;  5.0240345E+01;  4.0000000E+04;  0.0000000E+00;  4.0081262E+04; -4.7225228E-01;  0.0000000E+00;  5.2967653E-02;  7.4609961E+04;
  2.5457984E-01;  9.9999998E-03;  2.9979008E-01;4031; -5.9955392E-02;  0.0000000E+00;  6.6685034E-03;  9.8028064E+02;  1.0000000E-01; -1.6337117E+04;3; -4.9034866E+01;  0.0000000E+00; -5.1033203E+01;0; -4.3982044E-01;  3.8375270E+04;  0.0000000E+00;  5.1153477E+01;  4.0000000E+04;  0.0000000E+00;  4.0082867E+04; -4.9206781E-01;  0.0000000E+00;  5.2247372E-02;  7.5579414E+04;
  2.6427719E-01;  9.9999998E-03;  2.3981039E-01;4086; -7.9540141E-02;  0.0000000E+00;  1.8349349E-03;  9.9173950E+02;  1.0000000E-01; -6.8436577E+03;3; -9.4013662E+00;  0.0000000E+00;  9.1247234E+00;0; -3.3416733E-01;  3.9287531E+04;  0.0000000E+00;  5.7872167E+00;  4.0000000E+04;  0.0000000E+00;  4.0060887E+04; -3.4969375E-01;  0.0000000E+00;  1.5526416E-02;  1.1968849E+04;
  2.6437452E-01;  9.9999998E-03;  2.4978836E-01;4087; -7.8992993E-02;  0.0000000E+00;  2.5980226E-03;  9.9147534E+02;  1.0000000E-01; -7.0625156E+03;3; -1.4660740E+01;  0.0000000E+00;  1.3116140E+01;0; -3.4880334E-01;  3.9251770E+04;  0.0000000E+00;  8.4081707E+00;  4.0000000E+04;  0.0000000E+00;  4.0078285E+04; -3.6703980E-01;  0.0000000E+00;  1.8236449E-02;  1.6368087E+04;
  2.6444167E-01;  9.9999998E-03;  2.5977463E-01;4088; -7.8104243E-02;  0.0000000E+00;  4.0682550E-03;  9.9091858E+02;  1.0000000E-01; -7.5237866E+03;3; -2.1666077E+01;  0.0000000E+00;  1.6462931E+01;0; -3.6007676E-01;  3.9193695E+04;  0.0000000E+00;  1.1848549E+01;  4.0000000E+04;  0.0000000E+00;  4.0095203E+04; -3.8734651E-01;  0.0000000E+00;  2.7269764E-02;  2.1794340E+04;
  2.6444474E-01;  9.9999998E-03;  2.6977769E-01;4089; -7.6597504E-02;  0.0000000E+00;  5.7345419E-03;  9.8990277E+02;  1.0000000E-01; -8.3653428E+03;3; -3.0877224E+01;  0.0000000E+00;  1.6144032E+01;0; -3.6799622E-01;  3.9111297E+04;  0.0000000E+00;  1.7388796E+01;  4.0000000E+04;  0.0000000E+00;  4.0099309E+04; -4.1041330E-01;  0.0000000E+00;  4.2417072E-02;  2.9172154E+04;
  2.6441574E-01;  9.9999998E-03;  2.7978531E-01;4090; -7.4213915E-02;  0.0000000E+00;  6.8125795E-03;  9.8840601E+02;  1.0000000E-01; -9.6054062E+03;3; -4.1631985E+01;  0.0000000E+00;  9.1038179E+00;0; -3.7998548E-01;  3.9000531E+04;  0.0000000E+00;  2.5725000E+01;  4.0000000E+04;  0.0000000E+00;  4.0092637E+04; -4.3518171E-01;  0.0000000E+00;  5.5196218E-02;  4.0194020E+04;
  2.6441738E-01;  9.9999998E-03;  2.8978753E-01;4091; -7.0911907E-02;  0.0000000E+00;  7.3605673E-03;  9.8640820E+02;  1.0000000E-01; -1.1260569E+04;3; -5.2075146E+01;  0.0000000E+00; -5.1343570E+00;0; -3.9808562E-01;  3.8851508E+04;  0.0000000E+00;  3.4148125E+01;  4.0000000E+04;  0.0000000E+00;  4.0084480E+04; -4.5972222E-01;  0.0000000E+00;  6.1636601E-02;  5.1685523E+04;
  2.6446807E-01;  9.9999998E-03;  2.9977939E-01;4092; -6.7067899E-02;  0.0000000E+00;  7.6266411E-03;  9.8386310E+02;  1.0000000E-01; -1.3369103E+04;3; -5.8983356E+01;  0.0000000E+00; -2.3338476E+01;0; -4.2005560E-01;  3.8653227E+04;  0.0000000E+00;  3.8632881E+01;  4.0000000E+04;  0.0000000E+00;  4.0084152E+04; -4.8222628E-01;  0.0000000E+00;  6.2170696E-02;  5.7904949E+04;
  2.7433646E-01;  9.9999998E-03;  2.3977001E-01;4147; -8.2828999E-02;  0.0000000E+00;  2.9419046E-03;  9.9212634E+02;  1.0000000E-01; -6.5231729E+03;3; -7.4223456E+00;  0.0000000E+00;  6.3277717E+00;0; -3.2293129E-01;  3.9308398E+04;  0.0000000E+00;  3.5747635E+00;  4.0000000E+04;  0.0000000E+00;  4.0070613E+04; -3.4376121E-01;  0.0000000E+00;  2.0829907E-02;  1.0911647E+04;
  2.7440327E-01;  9.9999998E-03;  2.4975444E-01;4148; -8.2393616E-02;  0.0000000E+00;  3.9964649E-03;  9.9209198E+02;  1.0000000E-01; -6.5516660E+03;3; -1.1997624E+01;  0.0000000E+00;  9.6067877E+00;0; -3.3264530E-01;  3.9290707E+04;  0.0000000E+00;  5.0375299E+00;  4.0000000E+04;  0.0000000E+00;  4.0088059E+04; -3.5872975E-01;  0.0000000E+00;  2.6084457E-02;  1.3922910E+04;
  2.7446178E-01;  9.9999998E-03;  2.5975612E-01;4149; -8.1723735E-02;  0.0000000E+00;  5.5090776E-03;  9.9175867E+02;  1.0000000E-01; -6.8278062E+03;3; -1.8368719E+01;  0.0000000E+00;  1.2379798E+01;0; -3.3880782E-01;  3.9256832E+04;  0.0000000E+00;  6.7999539E+00;  4.0000000E+04;  0.0000000E+00;  4.0098426E+04; -3.7622985E-01;  0.0000000E+00;  3.7422027E-02;  1.6582797E+04;
  2.7448347E-01;  9.9999998E-03;  2.6976874E-01;4150; -8.0689028E-02;  0.0000000E+00;  6.7097447E-03;  9.9101929E+02;  1.0000000E-01; -7.4403320E+03;3; -2.6833933E+01;  0.0000000E+00;  1.2847294E+01;0; -3.4602067E-01;  3.9202906E+04;  0.0000000E+00;  9.3856354E+00;  4.0000000E+04;  0.0000000E+00;  4.0095902E+04; -3.9629593E-01;  0.0000000E+00;  5.0275255E-02;  1.9102596E+04;
  2.7447197E-01;  9.9999998E-03;  2.7977750E-01;4151; -7.9144485E-02;  0.0000000E+00;  7.4074450E-03;  9.8992786E+02;  1.0000000E-01; -8.3446025E+03;3; -3.6981602E+01;  0.0000000E+00;  9.7653923E+00;0; -3.5902944E-01;  3.9125215E+04;  0.0000000E+00;  1.3560263E+01;  4.0000000E+04;  0.0000000E+00;  4.0088238E+04; -4.1857353E-01;  0.0000000E+00;  5.9544079E-02;  2.3627441E+04;
  2.7444133E-01;  9.9999998E-03;  2.8977934E-01;4152; -7.6995023E-02;  0.0000000E+00;  7.7942275E-03;  9.8850226E+02;  1.0000000E-01; -9.5256562E+03;3; -4.7618053E+01;  0.0000000E+00;  2.8327453E+00;0; -3.7849525E-01;  3.9019855E+04;  0.0000000E+00;  1.9543070E+01;  4.0000000E+04;  0.0000000E+00;  4.0081602E+04; -4.4225493E-01;  0.0000000E+00;  6.3759692E-02;  3.1205912E+04;
  2.7442616E-01;  9.9999998E-03;  2.9977325E-01;4153; -7.4314974E-02;  0.0000000E+00;  8.0918977E-03;  9.8669922E+02;  1.0000000E-01; -1.1019440E+04;3; -5.6410740E+01;  0.0000000E+00; -6.9387269E+00;0; -4.0176094E-01;  3.8879016E+04;  0.0000000E+00;  2.5014202E+01;  4.0000000E+04;  0.0000000E+00;  4.0081051E+04; -4.6618506E-01;  0.0000000E+00;  6.4424142E-02;  3.8724324E+04;
  2.8441542E-01;  9.9999998E-03;  2.3974419E-01;4208; -8.6139329E-02;  0.0000000E+00;  4.0740557E-03;  9.9240076E+02;  1.0000000E-01; -6.2958213E+03;3; -5.1575418E+00;  0.0000000E+00;  3.5943246E+00;0; -3.1118941E-01;  3.9323547E+04;  0.0000000E+00;  2.0215685E+00;  4.0000000E+04;  0.0000000E+00;  4.0077324E+04; -3.3710924E-01;  0.0000000E+00;  2.5919823E-02;  1.0759966E+04;
  2.8443933E-01;  9.9999998E-03;  2.4973792E-01;4209; -8.5810140E-02;  0.0000000E+00;  5.2085747E-03;  9.9248816E+02;  1.0000000E-01; -6.2234282E+03;3; -8.6927824E+00;  0.0000000E+00;  5.9333806E+00;0; -3.1711447E-01;  3.9318898E+04;  0.0000000E+00;  2.7242804E+00;  4.0000000E+04;  0.0000000E+00;  4.0091344E+04; -3.4971070E-01;  0.0000000E+00;  3.2596231E-02;  1.2766469E+04;
  2.8447092E-01;  9.9999998E-03;  2.5974980E-01;4210; -8.5322194E-02;  0.0000000E+00;  6.5279910E-03;  9.9232129E+02;  1.0000000E-01; -6.3616470E+03;3; -1.3749140E+01;  0.0000000E+00;  7.9559321E+00;0; -3.2046339E-01;  3.9303996E+04;  0.0000000E+00;  3.5931907E+00;  4.0000000E+04;  0.0000000E+00;  4.0095477E+04; -3.6436507E-01;  0.0000000E+00;  4.3901686E-02;  1.3750184E+04;
  2.8449765E-01;  9.9999998E-03;  2.6976651E-01;4211; -8.4628388E-02;  0.0000000E+00;  7.3372219E-03;  9.9183282E+02;  1.0000000E-01; -6.7663267E+03;3; -2.0503880E+01;  0.0000000E+00;  8.7209349E+00;0; -3.2732293E-01;  3.9274164E+04;  0.0000000E+00;  4.6393166E+00;  4.0000000E+04;  0.0000000E+00;  4.0088594E+04; -3.8117453E-01;  0.0000000E+00;  5.3851616E-02;  1.3786536E+04;
  2.8451136E-01;  9.9999998E-03;  2.7977526E-01;4212; -8.3683297E-02;  0.0000000E+00;  7.7473572E-03;  9.9108923E+02;  1.0000000E-01; -7.3824077E+03;3; -2.8697231E+01;  0.0000000E+00;  7.7231970E+00;0; -3.4053254E-01;  3.9225070E+04;  0.0000000E+00;  6.0717988E+00;  4.0000000E+04;  0.0000000E+00;  4.0080105E+04; -4.0013376E-01;  0.0000000E+00;  5.9601214E-02;  1.4302871E+04;
  2.8450382E-01;  9.9999998E-03;  2.8977647E-01;4213; -8.2481742E-02;  0.0000000E+00;  8.0258558E-03;  9.9009430E+02;  1.0000000E-01; -8.2066807E+03;3; -3.7685757E+01;  0.0000000E+00;  4.8560419E+00;0; -3.5938188E-01;  3.9152984E+04;  0.0000000E+00;  8.3120041E+00;  4.0000000E+04;  0.0000000E+00;  4.0074520E+04; -4.2117468E-01;  0.0000000E+00;  6.1792780E-02;  1.6311715E+04;
  2.8448063E-01;  9.9999998E-03;  2.9977098E-01;4214; -8.1062421E-02;  0.0000000E+00;  8.3214408E-03;  9.8881976E+02;  1.0000000E-01; -9.2626016E+03;3; -4.6041641E+01;  0.0000000E+00;  5.6051528E-01;0; -3.8215682E-01;  3.9053754E+04;  0.0000000E+00;  1.1119841E+01;  4.0000000E+04;  0.0000000E+00;  4.0074590E+04; -4.4416994E-01;  0.0000000E+00;  6.2013127E-02;  1.9800750E+04;
  2.9452521E-01;  9.9999998E-03;  2.3973395E-01;4269; -8.9437753E-02;  0.0000000E+00;  5.1037818E-03;  9.9257428E+02;  1.0000000E-01; -6.1520723E+03;3; -3.0564606E+00;  0.0000000E+00;  1.3023961E+00;0; -2.9989961E-01;  3.9334848E+04;  0.0000000E+00;  1.0734918E+00;  4.0000000E+04;  0.0000000E+00;  4.0079930E+04; -3.3001304E-01;  0.0000000E+00;  3.0113416E-02;  1.0756356E+04;
  2.9450145E-01;  9.9999998E-03;  2.4973422E-01;4270; -8.9189433E-02;  0.0000000E+00;  6.2002456E-03;  9.9270953E+02;  1.0000000E-01; -6.0400264E+03;3; -5.4739084E+00;  0.0000000E+00;  2.7682872E+00;0; -3.0305445E-01;  3.9337660E+04;  0.0000000E+00;  1.2712914E+00;  4.0000000E+04;  0.0000000E+00;  4.0090098E+04; -3.4035417E-01;  0.0000000E+00;  3.7299737E-02;  1.2061956E+04;
  2.9448304E-01;  9.9999998E-03;  2.5975174E-01;4271; -8.8842578E-02;  0.0000000E+00;  7.2118361E-03;  9.9264282E+02;  1.0000000E-01; -6.0952842E+03;3; -9.0318708E+00;  0.0000000E+00;  4.1047292E+00;0; -3.0530027E-01;  3.9335578E+04;  0.0000000E+00;  1.6891494E+00;  4.0000000E+04;  0.0000000E+00;  4.0088812E+04; -3.5228327E-01;  0.0000000E+00;  4.6983007E-02;  1.2037804E+04;
  2.9449356E-01;  9.9999998E-03;  2.6976860E-01;4272; -8.8391952E-02;  0.0000000E+00;  7.7318489E-03;  9.9236243E+02;  1.0000000E-01; -6.3275737E+03;3; -1.3827708E+01;  0.0000000E+00;  4.8592753E+00;0; -3.1176803E-01;  3.9324387E+04;  0.0000000E+00;  2.1239793E+00;  4.0000000E+04;  0.0000000E+00;  4.0079703E+04; -3.6587343E-01;  0.0000000E+00;  5.4105405E-02;  1.1144315E+04;
  2.9453143E-01;  9.9999998E-03;  2.7977648E-01;4273; -8.7858200E-02;  0.0000000E+00;  7.9616532E-03;  9.9190778E+02;  1.0000000E-01; -6.7042544E+03;3; -1.9701674E+01;  0.0000000E+00;  4.7919397E+00;0; -3.2414433E-01;  3.9298637E+04;  0.0000000E+00;  2.1611347E+00;  4.0000000E+04;  0.0000000E+00;  4.0070926E+04; -3.8121420E-01;  0.0000000E+00;  5.7069868E-02;  1.0200194E+04;
  2.9456857E-01;  9.9999998E-03;  2.8977737E-01;4274; -8.7281145E-02;  0.0000000E+00;  8.2023237E-03;  9.9126227E+02;  1.0000000E-01; -7.2390542E+03;3; -2.6289137E+01;  0.0000000E+00;  3.8589575E+00;0; -3.4043252E-01;  3.9254391E+04;  0.0000000E+00;  1.7956349E+00;  4.0000000E+04;  0.0000000E+00;  4.0065559E+04; -3.9851567E-01;  0.0000000E+00;  5.8083139E-02;  9.4770400E+03;
  2.9459542E-01;  9.9999998E-03;  2.9977250E-01;4275; -8.6784109E-02;  0.0000000E+00;  8.5049169E-03;  9.9038220E+02;  1.0000000E-01; -7.9681689E+03;3; -3.2796955E+01;  0.0000000E+00;  2.2013860E+00;0; -3.6006552E-01;  3.9186879E+04;  0.0000000E+00;  1.0133933E+00;  4.0000000E+04;  0.0000000E+00;  4.0065402E+04; -4.1818085E-01;  0.0000000E+00;  5.8115318E-02;  9.2480078E+03;
  3.0465621E-01;  9.9999998E-03;  2.3973756E-01;4330; -9.2679523E-02;  0.0000000E+00;  5.9875888E-03;  9.9267944E+02;  1.0000000E-01; -6.0649639E+03;3; -1.3998603E+00;  0.0000000E+00; -3.8177165E-01;0; -2.8954968E-01;  3.9344406E+04;  0.0000000E+00;  6.2638372E-01;  4.0000000E+04;  0.0000000E+00;  4.0078895E+04; -3.2273027E-01;  0.0000000E+00;  3.3180594E-02;  1.0524729E+04;
  3.0458477E-01;  9.9999998E-03;  2.4974076E-01;4331; -9.2488788E-02;  0.0000000E+00;  6.9457302E-03;  9.9280701E+02;  1.0000000E-01; -5.9592383E+03;3; -2.8348012E+00;  0.0000000E+00;  4.1015044E-01;0; -2.9105541E-01;  3.9349707E+04;  0.0000000E+00;  5.4902756E-01;  4.0000000E+04;  0.0000000E+00;  4.0085461E+04; -3.3101898E-01;  0.0000000E+00;  3.9963581E-02;  1.1338486E+04;
  3.0452043E-01;  9.9999998E-03;  2.5975907E-01;4332; -9.2245072E-02;  0.0000000E+00;  7.6716081E-03;  9.9278790E+02;  1.0000000E-01; -5.9750898E+03;3; -5.0297160E+00;  0.0000000E+00;  1.1945955E+00;0; -2.9287693E-01;  3.9354504E+04;  0.0000000E+00;  6.2996095E-01;  4.0000000E+04;  0.0000000E+00;  4.0080844E+04; -3.4044978E-01;  0.0000000E+00;  4.7572844E-02;  1.0776550E+04;
  3.0451071E-01;  9.9999998E-03;  2.6977360E-01;4333; -9.1969118E-02;  0.0000000E+00;  7.9933619E-03;  9.9265002E+02;  1.0000000E-01; -6.0893086E+03;3; -8.0398664E+00;  0.0000000E+00;  1.7724319E+00;0; -2.9878008E-01;  3.9354797E+04;  0.0000000E+00;  6.8330532E-01;  4.0000000E+04;  0.0000000E+00;  4.0071133E+04; -3.5104808E-01;  0.0000000E+00;  5.2268002E-02;  9.5947568E+03;
  3.0455187E-01;  9.9999998E-03;  2.7977997E-01;4334; -9.1693364E-02;  0.0000000E+00;  8.1628067E-03;  9.9241638E+02;  1.0000000E-01; -6.2828838E+03;3; -1.1785880E+01;  0.0000000E+00;  2.0003898E+00;0; -3.0906928E-01;  3.9346617E+04;  0.0000000E+00;  2.8245130E-01;  4.0000000E+04;  0.0000000E+00;  4.0062441E+04; -3.6290294E-01;  0.0000000E+00;  5.3833671E-02;  8.4842480E+03;
  3.0461657E-01;  9.9999998E-03;  2.8978065E-01;4335; -9.1496363E-02;  0.0000000E+00;  8.3383238E-03;  9.9205542E+02;  1.0000000E-01; -6.5819370E+03;3; -1.6071461E+01;  0.0000000E+00;  1.7981648E+00;0; -3.2287967E-01;  3.9325359E+04;  0.0000000E+00; -9.0390182E-01;  4.0000000E+04;  0.0000000E+00;  4.0056727E+04; -3.7624723E-01;  0.0000000E+00;  5.3367563E-02;  7.8228838E+03;
  3.0468965E-01;  9.9999998E-03;  2.9977667E-01;4336; -9.1502972E-02;  0.0000000E+00;  8.6191250E-03;  9.9152020E+02;  1.0000000E-01; -7.0253315E+03;3; -2.0437344E+01;  0.0000000E+00;  1.2725866E+00;0; -3.3873159E-01;  3.9286492E+04;  0.0000000E+00; -3.0707207E+00;  4.0000000E+04;  0.0000000E+00;  4.0055379E+04; -3.9152491E-01;  0.0000000E+00;  5.2793324E-02;  8.6045850E+03;
  3.1480393E-01;  9.9999998E-03;  2.3975019E-01;4391; -9.5840216E-02;  0.0000000E+00;  6.7137578E-03;  9.9275854E+02;  1.0000000E-01; -5.9993853E+03;3; -2.7370030E-01;  0.0000000E+00; -1.4780869E+00;0; -2.8034228E-01;  3.9353793E+04;  0.0000000E+00;  4.9836099E-01;  4.0000000E+04;  0.0000000E+00;  4.0075512E+04; -3.1547597E-01;  0.0000000E+00;  3.5133690E-02;  1.0089224E+04;
  3.1469876E-01;  9.9999998E-03;  2.4975438E-01;4392; -9.5686093E-02;  0.0000000E+00;  7.4826321E-03;  9.9283258E+02;  1.0000000E-01; -5.9380537E+03;3; -9.7575921E-01;  0.0000000E+00; -1.1254845E+00;0; -2.8106698E-01;  3.9357777E+04;  0.0000000E+00;  3.0502295E-01;  4.0000000E+04;  0.0000000E+00;  4.0078969E+04; -3.2198370E-01;  0.0000000E+00;  4.0916707E-02;  1.0496591E+04;
  3.1459883E-01;  9.9999998E-03;  2.5976992E-01;4393; -9.5507272E-02;  0.0000000E+00;  7.9863369E-03;  9.9281940E+02;  1.0000000E-01; -5.9490166E+03;3; -2.1181138E+00;  0.0000000E+00; -7.3977274E-01;0; -2.8269583E-01;  3.9364246E+04;  0.0000000E+00;  1.6595201E-01;  4.0000000E+04;  0.0000000E+00;  4.0072953E+04; -3.2924452E-01;  0.0000000E+00;  4.6548691E-02;  9.7375137E+03;
  3.1456852E-01;  9.9999998E-03;  2.6978076E-01;4394; -9.5341228E-02;  0.0000000E+00;  8.1989020E-03;  9.9276245E+02;  1.0000000E-01; -5.9961758E+03;3; -3.7412035E+00;  0.0000000E+00; -3.9118770E-01;0; -2.8769207E-01;  3.9370324E+04;  0.0000000E+00; -3.3814922E-02;  4.0000000E+04;  0.0000000E+00;  4.0063703E+04; -3.3723670E-01;  0.0000000E+00;  4.9544621E-02;  8.5943203E+03;
  3.1460223E-01;  9.9999998E-03;  2.7978510E-01;4395; -9.5229618E-02;  0.0000000E+00;  8.3042383E-03;  9.9266962E+02;  1.0000000E-01; -6.0730625E+03;3; -5.8191257E+00;  0.0000000E+00; -1.8923770E-01;0; -2.9634330E-01;  3.9372273E+04;  0.0000000E+00; -5.5615300E-01;  4.0000000E+04;  0.0000000E+00;  4.0055773E+04; -3.4601516E-01;  0.0000000E+00;  4.9671870E-02;  7.6222080E+03;
  3.1466809E-01;  9.9999998E-03;  2.8978512E-01;4396; -9.5243327E-02;  0.0000000E+00;  8.4698433E-03;  9.9251447E+02;  1.0000000E-01; -6.2016021E+03;3; -8.2439556E+00;  0.0000000E+00; -1.4462678E-01;0; -3.0711254E-01;  3.9367508E+04;  0.0000000E+00; -1.6561029E+00;  4.0000000E+04;  0.0000000E+00;  4.0050035E+04; -3.5575715E-01;  0.0000000E+00;  4.8644595E-02;  7.2246440E+03;
  3.1474611E-01;  9.9999998E-03;  2.9978186E-01;4397; -9.5495857E-02;  0.0000000E+00;  8.7211598E-03;  9.9226239E+02;  1.0000000E-01; -6.4104849E+03;3; -1.0808241E+01;  0.0000000E+00; -2.9669935E-01;0; -3.1928980E-01;  3.9351891E+04;  0.0000000E+00; -3.4562764E+00;  4.0000000E+04;  0.0000000E+00;  4.0047473E+04; -3.6680323E-01;  0.0000000E+00;  4.7513410E-02;  8.0974985E+03;
  3.2496193E-01;  9.9999998E-03;  2.3976967E-01;4452; -9.8910145E-02;  0.0000000E+00;  7.2586704E-03;  9.9282977E+02;  1.0000000E-01; -5.9403745E+03;3;  3.7651584E-01;  0.0000000E+00; -2.1334312E+00;0; -2.7242023E-01;  3.9364129E+04;  0.0000000E+00;  5.1021343E-01;  4.0000000E+04;  0.0000000E+00;  4.0070660E+04; -3.0841988E-01;  0.0000000E+00;  3.5999667E-02;  9.4841162E+03;
  3.2484895E-01;  9.9999998E-03;  2.4977227E-01;4453; -9.8777205E-02;  0.0000000E+00;  7.8489967E-03;  9.9283160E+02;  1.0000000E-01; -5.9388936E+03;3;  1.3880004E-01;  0.0000000E+00; -2.0306182E+00;0; -2.7285108E-01;  3.9364270E+04;  0.0000000E+00;  3.1821436E-01;  4.0000000E+04;  0.0000000E+00;  4.0072008E+04; -3.1344494E-01;  0.0000000E+00;  4.0593870E-02;  9.6239570E+03;
  3.2472691E-01;  9.9999998E-03;  2.5978309E-01;4454; -9.8633230E-02;  0.0000000E+00;  8.1944307E-03;  9.9279681E+02;  1.0000000E-01; -5.9676826E+03;3; -3.1708422E-01;  0.0000000E+00; -1.8967217E+00;0; -2.7439305E-01;  3.9368805E+04;  0.0000000E+00;  9.7547874E-02;  4.0000000E+04;  0.0000000E+00;  4.0065941E+04; -3.1892359E-01;  0.0000000E+00;  4.4530544E-02;  8.8594629E+03;
  3.2466957E-01;  9.9999998E-03;  2.6978955E-01;4455; -9.8521993E-02;  0.0000000E+00;  8.3449949E-03;  9.9277069E+02;  1.0000000E-01; -5.9893608E+03;3; -1.0190096E+00;  0.0000000E+00; -1.7497802E+00;0; -2.7853507E-01;  3.9375605E+04;  0.0000000E+00; -1.9735573E-01;  4.0000000E+04;  0.0000000E+00;  4.0058141E+04; -3.2480276E-01;  0.0000000E+00;  4.6267692E-02;  7.8927041E+03;
  3.2468784E-01;  9.9999998E-03;  2.7979141E-01;4456; -9.8495081E-02;  0.0000000E+00;  8.4249079E-03;  9.9275220E+02;  1.0000000E-01; -6.0046694E+03;3; -1.9592872E+00;  0.0000000E+00; -1.6291642E+00;0; -2.8555331E-01;  3.9382113E+04;  0.0000000E+00; -6.9839847E-01;  4.0000000E+04;  0.0000000E+00;  4.0051398E+04; -3.3108288E-01;  0.0000000E+00;  4.5529563E-02;  7.0909932E+03;
  3.2473999E-01;  9.9999998E-03;  2.8979036E-01;4457; -9.8606840E-02;  0.0000000E+00;  8.5865082E-03;  9.9271826E+02;  1.0000000E-01; -6.0327671E+03;3; -3.0986235E+00;  0.0000000E+00; -1.5868866E+00;0; -2.9368934E-01;  3.9386152E+04;  0.0000000E+00; -1.5063319E+00;  4.0000000E+04;  0.0000000E+00;  4.0045938E+04; -3.3787715E-01;  0.0000000E+00;  4.4187803E-02;  6.6965103E+03;
  3.2479852E-01;  9.9999998E-03;  2.9978722E-01;4458; -9.8951928E-02;  0.0000000E+00;  8.8279629E-03;  9.9264746E+02;  1.0000000E-01; -6.0914321E+03;3; -4.3421769E+00;  0.0000000E+00; -1.6155995E+00;0; -3.0247203E-01;  3.9385312E+04;  0.0000000E+00; -2.6418800E+00;  4.0000000E+04;  0.0000000E+00;  4.0043039E+04; -3.4540352E-01;  0.0000000E+00;  4.2931501E-02;  7.0225752E+03;
  3.3512458E-01;  9.9999998E-03;  2.3979333E-01;4513; -1.0188947E-01;  0.0000000E+00;  7.6389695E-03;  9.9290192E+02;  1.0000000E-01; -5.8806235E+03;3;  6.9806027E-01;  0.0000000E+00; -2.5181093E+00;0; -2.6567203E-01;  3.9374980E+04;  0.0000000E+00;  5.3189254E-01;  4.0000000E+04;  0.0000000E+00;  4.0065125E+04; -3.0167964E-01;  0.0000000E+00;  3.6007605E-02;  8.7944756E+03;
  3.3501822E-01;  9.9999998E-03;  2.4979232E-01;4514; -1.0176487E-01;  0.0000000E+00;  8.0815768E-03;  9.9283240E+02;  1.0000000E-01; -5.9382021E+03;3;  6.9665611E-01;  0.0000000E+00; -2.5229807E+00;0; -2.6608226E-01;  3.9370211E+04;  0.0000000E+00;  4.0987962E-01;  4.0000000E+04;  0.0000000E+00;  4.0065367E+04; -3.0552685E-01;  0.0000000E+00;  3.9444607E-02;  8.8119990E+03;
  3.3489138E-01;  9.9999998E-03;  2.5979754E-01;4515; -1.0163398E-01;  0.0000000E+00;  8.3257640E-03;  9.9276129E+02;  1.0000000E-01; -5.9971138E+03;3;  6.1298734E-01;  0.0000000E+00; -2.5130761E+00;0; -2.6755789E-01;  3.9370621E+04;  0.0000000E+00;  2.2153062E-01;  4.0000000E+04;  0.0000000E+00;  4.0060270E+04; -3.0961484E-01;  0.0000000E+00;  4.2056955E-02;  8.1661763E+03;
  3.3480731E-01;  9.9999998E-03;  2.6979950E-01;4516; -1.0154128E-01;  0.0000000E+00;  8.4414827E-03;  9.9272961E+02;  1.0000000E-01; -6.0233848E+03;3;  4.2541298E-01;  0.0000000E+00; -2.4886026E+00;0; -2.7103326E-01;  3.9374898E+04;  0.0000000E+00; -4.4602226E-02;  4.0000000E+04;  0.0000000E+00;  4.0054355E+04; -3.1388691E-01;  0.0000000E+00;  4.2853646E-02;  7.4195225E+03;
  3.3479038E-01;  9.9999998E-03;  2.7979866E-01;4517; -1.0153627E-01;  0.0000000E+00;  8.5296091E-03;  9.9273132E+02;  1.0000000E-01; -6.0219526E+03;3;  1.3280351E-01;  0.0000000E+00; -2.4589982E+00;0; -2.7648532E-01;  3.9381398E+04;  0.0000000E+00; -4.2766947E-01;  4.0000000E+04;  0.0000000E+00;  4.0048957E+04; -3.1831163E-01;  0.0000000E+00;  4.1826300E-02;  6.7754570E+03;
  3.3481535E-01;  9.9999998E-03;  2.8979623E-01;4518; -1.0166622E-01;  0.0000000E+00;  8.6872810E-03;  9.9274628E+02;  1.0000000E-01; -6.0095581E+03;3; -2.4860415E-01;  0.0000000E+00; -2.4485524E+00;0; -2.8263640E-01;  3.9388184E+04;  0.0000000E+00; -9.5503718E-01;  4.0000000E+04;  0.0000000E+00;  4.0044492E+04; -3.2292977E-01;  0.0000000E+00;  4.0293351E-02;  6.3351431E+03;
  3.3484733E-01;  9.9999998E-03;  2.9979262E-01;4519; -1.0200212E-01;  0.0000000E+00;  8.9248596E-03;  9.9276190E+02;  1.0000000E-01; -5.9966201E+03;3; -6.8379670E-01;  0.0000000E+00; -2.4645040E+00;0; -2.8876713E-01;  3.9393719E+04;  0.0000000E+00; -1.6046622E+00;  4.0000000E+04;  0.0000000E+00;  4.0041641E+04; -3.2785895E-01;  0.0000000E+00;  3.9091837E-02;  6.2413145E+03;
  3.4526795E-01;  9.9999998E-03;  2.3981802E-01;4574; -1.0478515E-01;  0.0000000E+00;  7.8704115E-03;  9.9296954E+02;  1.0000000E-01; -5.8245757E+03;3;  8.4188604E-01;  0.0000000E+00; -2.7834640E+00;0; -2.5997227E-01;  3.9385117E+04;  0.0000000E+00;  5.0269341E-01;  4.0000000E+04;  0.0000000E+00;  4.0060035E+04; -2.9534879E-01;  0.0000000E+00;  3.5376526E-02;  8.1329551E+03;
  3.4517291E-01;  9.9999998E-03;  2.4981272E-01;4575; -1.0465834E-01;  0.0000000E+00;  8.2049500E-03;  9.9283862E+02;  1.0000000E-01; -5.9330664E+03;3;  9.2533672E-01;  0.0000000E+00; -2.8220203E+00;0; -2.6047218E-01;  3.9375379E+04;  0.0000000E+00;  4.5485905E-01;  4.0000000E+04;  0.0000000E+00;  4.0059910E+04; -2.9829025E-01;  0.0000000E+00;  3.7818085E-02;  8.1294844E+03;
  3.4505102E-01;  9.9999998E-03;  2.5981233E-01;4576; -1.0452940E-01;  0.0000000E+00;  8.3858473E-03;  9.9272791E+02;  1.0000000E-01; -6.0248169E+03;3;  9.9333799E-01;  0.0000000E+00; -2.8534241E+00;0; -2.6193750E-01;  3.9370719E+04;  0.0000000E+00;  3.4199893E-01;  4.0000000E+04;  0.0000000E+00;  4.0056242E+04; -3.0134088E-01;  0.0000000E+00;  3.9403372E-02;  7.6759971E+03;
  3.4495306E-01;  9.9999998E-03;  2.6981005E-01;4577; -1.0443725E-01;  0.0000000E+00;  8.4919855E-03;  9.9266852E+02;  1.0000000E-01; -6.0740005E+03;3;  1.0334251E+00;  0.0000000E+00; -2.8750808E+00;0; -2.6486230E-01;  3.9370734E+04;  0.0000000E+00;  1.5910225E-01;  4.0000000E+04;  0.0000000E+00;  4.0052363E+04; -3.0444697E-01;  0.0000000E+00;  3.9584652E-02;  7.1774863E+03;
  3.4489763E-01;  9.9999998E-03;  2.7980658E-01;4578; -1.0441879E-01;  0.0000000E+00;  8.6015910E-03;  9.9265106E+02;  1.0000000E-01; -6.0884692E+03;3;  1.0422305E+00;  0.0000000E+00; -2.8847241E+00;0; -2.6904225E-01;  3.9373902E+04;  0.0000000E+00; -9.8787963E-02;  4.0000000E+04;  0.0000000E+00;  4.0048613E+04; -3.0757704E-01;  0.0000000E+00;  3.8534801E-02;  6.7154971E+03;
  3.4487808E-01;  9.9999998E-03;  2.8980261E-01;4579; -1.0451464E-01;  0.0000000E+00;  8.7716049E-03;  9.9266461E+02;  1.0000000E-01; -6.0772104E+03;3;  1.0199060E+00;  0.0000000E+00; -2.9050317E+00;0; -2.7357113E-01;  3.9379105E+04;  0.0000000E+00; -4.2841426E-01;  4.0000000E+04;  0.0000000E+00;  4.0045254E+04; -3.1073222E-01;  0.0000000E+00;  3.7161067E-02;  6.3198447E+03;
  3.4487718E-01;  9.9999998E-03;  2.9979810E-01;4580; -1.0477727E-01;  0.0000000E+00;  9.0095056E-03;  9.9269659E+02;  1.0000000E-01; -6.0507422E+03;3;  9.8383373E-01;  0.0000000E+00; -2.9207051E+00;0; -2.7781764E-01;  3.9385000E+04;  0.0000000E+00; -8.0196434E-01;  4.0000000E+04;  0.0000000E+00;  4.0042902E+04; -3.1394941E-01;  0.0000000E+00;  3.6131762E-02;  6.0900938E+03;
  3.5536808E-01;  9.9999998E-03;  2.3984113E-01;4635; -1.0760766E-01;  0.0000000E+00;  7.9734558E-03;  9.9301666E+02;  1.0000000E-01; -5.7855645E+03;3;  9.2799741E-01;  0.0000000E+00; -2.9965708E+00;0; -2.5518918E-01;  3.9392281E+04;  0.0000000E+00;  4.2271104E-01;  4.0000000E+04;  0.0000000E+00;  4.0055777E+04; -2.8950053E-01;  0.0000000E+00;  3.4311339E-02;  7.5930894E+03;
  3.5528478E-01;  9.9999998E-03;  2.4983215E-01;4636; -1.0747646E-01;  0.0000000E+00;  8.2214260E-03;  9.9283490E+02;  1.0000000E-01; -5.9361279E+03;3;  1.0239855E+00;  0.0000000E+00; -3.0315180E+00;0; -2.5590131E-01;  3.9378266E+04;  0.0000000E+00;  4.1646239E-01;  4.0000000E+04;  0.0000000E+00;  4.0055730E+04; -2.9174945E-01;  0.0000000E+00;  3.5848144E-02;  7.6034453E+03;
  3.5517403E-01;  9.9999998E-03;  2.5982648E-01;4637; -1.0734558E-01;  0.0000000E+00;  8.3790943E-03;  9.9268750E+02;  1.0000000E-01; -6.0582480E+03;3;  1.1251082E+00;  0.0000000E+00; -3.0706801E+00;0; -2.5730067E-01;  3.9368816E+04;  0.0000000E+00;  3.5887671E-01;  4.0000000E+04;  0.0000000E+00;  4.0053938E+04; -2.9403713E-01;  0.0000000E+00;  3.6736473E-02;  7.3874893E+03;
  3.5507563E-01;  9.9999998E-03;  2.6982060E-01;4638; -1.0724636E-01;  0.0000000E+00;  8.5049365E-03;  9.9259216E+02;  1.0000000E-01; -6.1372583E+03;3;  1.2294335E+00;  0.0000000E+00; -3.1006744E+00;0; -2.5963199E-01;  3.9363648E+04;  0.0000000E+00;  2.4653809E-01;  4.0000000E+04;  0.0000000E+00;  4.0051910E+04; -2.9631841E-01;  0.0000000E+00;  3.6686428E-02;  7.1371670E+03;
  3.5499802E-01;  9.9999998E-03;  2.7981484E-01;4639; -1.0720576E-01;  0.0000000E+00;  8.6377515E-03;  9.9253760E+02;  1.0000000E-01; -6.1824419E+03;3;  1.3341342E+00;  0.0000000E+00; -3.1234968E+00;0; -2.6284826E-01;  3.9362188E+04;  0.0000000E+00;  8.0736376E-02;  4.0000000E+04;  0.0000000E+00;  4.0049828E+04; -2.9856747E-01;  0.0000000E+00;  3.5719205E-02;  6.8636226E+03;
  3.5493341E-01;  9.9999998E-03;  2.8980935E-01;4640; -1.0724790E-01;  0.0000000E+00;  8.8263638E-03;  9.9251556E+02;  1.0000000E-01; -6.2007129E+03;3;  1.4378685E+00;  0.0000000E+00; -3.1404083E+00;0; -2.6614287E-01;  3.9363293E+04;  0.0000000E+00; -1.3209169E-01;  4.0000000E+04;  0.0000000E+00;  4.0047543E+04; -3.0078387E-01;  0.0000000E+00;  3.4640998E-02;  6.5812505E+03;
  3.5489094E-01;  9.9999998E-03;  2.9980373E-01;4641; -1.0741098E-01;  0.0000000E+00;  9.0757031E-03;  9.9251752E+02;  1.0000000E-01; -6.1990835E+03;3;  1.5426612E+00;  0.0000000E+00; -3.1641474E+00;0; -2.6896736E-01;  3.9366055E+04;  0.0000000E+00; -3.7159094E-01;  4.0000000E+04;  0.0000000E+00;  4.0045777E+04; -3.0296254E-01;  0.0000000E+00;  3.3995189E-02;  6.3878242E+03;
  3.6541975E-01;  9.9999998E-03;  2.3986129E-01;4696; -1.1037333E-01;  0.0000000E+00;  7.9632914E-03;  9.9301691E+02;  1.0000000E-01; -5.7853667E+03;3;  1.0013155E+00;  0.0000000E+00; -3.1977890E+00;0; -2.5122985E-01;  3.9394500E+04;  0.0000000E+00;  3.2484525E-01;  4.0000000E+04;  0.0000000E+00;  4.0052785E+04; -2.8418723E-01;  0.0000000E+00;  3.2957386E-02;  7.2129946E+03;
  3.6534953E-01;  9.9999998E-03;  2.4984935E-01;4697; -1.1024082E-01;  0.0000000E+00;  8.1521086E-03;  9.9280096E+02;  1.0000000E-01; -5.9642754E+03;3;  1.0893334E+00;  0.0000000E+00; -3.2287784E+00;0; -2.5215858E-01;  3.9377281E+04;  0.0000000E+00;  3.2777965E-01;  4.0000000E+04;  0.0000000E+00;  4.0053082E+04; -2.8589857E-01;  0.0000000E+00;  3.3739969E-02;  7.2688511E+03;
  3.6525485E-01;  9.9999998E-03;  2.5983915E-01;4698; -1.1011121E-01;  0.0000000E+00;  8.3178021E-03;  9.9262677E+02;  1.0000000E-01; -6.1085674E+03;3;  1.1862725E+00;  0.0000000E+00; -3.2588542E+00;0; -2.5340182E-01;  3.9363613E+04;  0.0000000E+00;  2.9152384E-01;  4.0000000E+04;  0.0000000E+00;  4.0053203E+04; -2.8761512E-01;  0.0000000E+00;  3.4213316E-02;  7.2952944E+03;
  3.6516553E-01;  9.9999998E-03;  2.6983044E-01;4699; -1.1000837E-01;  0.0000000E+00;  8.4760962E-03;  9.9249573E+02;  1.0000000E-01; -6.2171572E+03;3;  1.2928619E+00;  0.0000000E+00; -3.2801106E+00;0; -2.5516903E-01;  3.9353746E+04;  0.0000000E+00;  2.1450900E-01;  4.0000000E+04;  0.0000000E+00;  4.0052844E+04; -2.8930220E-01;  0.0000000E+00;  3.4133162E-02;  7.2629722E+03;
  3.6508027E-01;  9.9999998E-03;  2.7982295E-01;4700; -1.0994851E-01;  0.0000000E+00;  8.6391037E-03;  9.9239746E+02;  1.0000000E-01; -6.2985376E+03;3;  1.4062126E+00;  0.0000000E+00; -3.2984312E+00;0; -2.5754872E-01;  3.9347234E+04;  0.0000000E+00;  9.9629670E-02;  4.0000000E+04;  0.0000000E+00;  4.0051816E+04; -2.9094464E-01;  0.0000000E+00;  3.3395912E-02;  7.1494751E+03;
  3.6499166E-01;  9.9999998E-03;  2.8981617E-01;4701; -1.0994391E-01;  0.0000000E+00;  8.8519473E-03;  9.9232599E+02;  1.0000000E-01; -6.3577949E+03;3;  1.5273142E+00;  0.0000000E+00; -3.3151956E+00;0; -2.5980988E-01;  3.9343555E+04;  0.0000000E+00; -4.8359986E-02;  4.0000000E+04;  0.0000000E+00;  4.0050730E+04; -2.9254043E-01;  0.0000000E+00;  3.2730550E-02;  6.9836602E+03;
  3.6491030E-01;  9.9999998E-03;  2.9980952E-01;4702; -1.1001525E-01;  0.0000000E+00;  9.1163795E-03;  9.9228290E+02;  1.0000000E-01; -6.3934482E+03;3;  1.6566268E+00;  0.0000000E+00; -3.3272533E+00;0; -2.6157209E-01;  3.9341664E+04;  0.0000000E+00; -2.1964048E-01;  4.0000000E+04;  0.0000000E+00;  4.0049527E+04; -2.9408339E-01;  0.0000000E+00;  3.2511298E-02;  6.8635415E+03;
  3.7544000E-01;  9.9999998E-03;  2.3987734E-01;4757; -1.1310425E-01;  0.0000000E+00;  7.8595504E-03;  9.9295422E+02;  1.0000000E-01; -5.8373159E+03;3;  1.0676956E+00;  0.0000000E+00; -3.3904998E+00;0; -2.4797407E-01;  3.9390215E+04;  0.0000000E+00;  2.3173945E-01;  4.0000000E+04;  0.0000000E+00;  4.0051297E+04; -2.7941653E-01;  0.0000000E+00;  3.1442471E-02;  7.0219136E+03;
  3.7538031E-01;  9.9999998E-03;  2.4986316E-01;4758; -1.1297496E-01;  0.0000000E+00;  8.0158263E-03;  9.9271942E+02;  1.0000000E-01; -6.0318291E+03;3;  1.1469530E+00;  0.0000000E+00; -3.4166150E+00;0; -2.4908894E-01;  3.9370781E+04;  0.0000000E+00;  2.3078331E-01;  4.0000000E+04;  0.0000000E+00;  4.0052148E+04; -2.8071710E-01;  0.0000000E+00;  3.1628158E-02;  7.1538301E+03;
  3.7530452E-01;  9.9999998E-03;  2.5984964E-01;4759; -1.1285272E-01;  0.0000000E+00;  8.2146190E-03;  9.9253168E+02;  1.0000000E-01; -6.1873799E+03;3;  1.2357159E+00;  0.0000000E+00; -3.4351897E+00;0; -2.5007209E-01;  3.9354117E+04;  0.0000000E+00;  1.9812140E-01;  4.0000000E+04;  0.0000000E+00;  4.0054027E+04; -2.8200188E-01;  0.0000000E+00;  3.1929791E-02;  7.3975024E+03;
  3.7522921E-01;  9.9999998E-03;  2.6983908E-01;4760; -1.1275408E-01;  0.0000000E+00;  8.4136995E-03;  9.9237103E+02;  1.0000000E-01; -6.3204629E+03;3;  1.3323351E+00;  0.0000000E+00; -3.4555809E+00;0; -2.5127387E-01;  3.9340375E+04;  0.0000000E+00;  1.3446651E-01;  4.0000000E+04;  0.0000000E+00;  4.0055023E+04; -2.8324890E-01;  0.0000000E+00;  3.1975027E-02;  7.5309355E+03;
  3.7514719E-01;  9.9999998E-03;  2.7983040E-01;4761; -1.1268623E-01;  0.0000000E+00;  8.6053191E-03;  9.9222888E+02;  1.0000000E-01; -6.4382373E+03;3;  1.4381416E+00;  0.0000000E+00; -3.4647567E+00;0; -2.5296503E-01;  3.9329633E+04;  0.0000000E+00;  4.4470787E-02;  4.0000000E+04;  0.0000000E+00;  4.0054859E+04; -2.8445092E-01;  0.0000000E+00;  3.1485889E-02;  7.5319644E+03;
  3.7505227E-01;  9.9999998E-03;  2.8982273E-01;4762; -1.1265290E-01;  0.0000000E+00;  8.8443216E-03;  9.9211304E+02;  1.0000000E-01; -6.5341851E+03;3;  1.5515945E+00;  0.0000000E+00; -3.4665258E+00;0; -2.5434703E-01;  3.9321320E+04;  0.0000000E+00; -6.7815118E-02;  4.0000000E+04;  0.0000000E+00;  4.0054180E+04; -2.8560579E-01;  0.0000000E+00;  3.1258751E-02;  7.4470635E+03;
  3.7495157E-01;  9.9999998E-03;  2.9981521E-01;4763; -1.1266239E-01;  0.0000000E+00;  9.1281198E-03;  9.9202032E+02;  1.0000000E-01; -6.6110225E+03;3;  1.6725761E+00;  0.0000000E+00; -3.4705911E+00;0; -2.5519556E-01;  3.9315156E+04;  0.0000000E+00; -1.9870344E-01;  4.0000000E+04;  0.0000000E+00;  4.0053645E+04; -2.8670976E-01;  0.0000000E+00;  3.1514186E-02;  7.3953105E+03;
  3.8544828E-01;  9.9999998E-03;  2.3988919E-01;4818; -1.1582000E-01;  0.0000000E+00;  7.6782559E-03;  9.9282831E+02;  1.0000000E-01; -5.9416094E+03;3;  1.1282070E+00;  0.0000000E+00; -3.5747519E+00;0; -2.4528001E-01;  3.9379688E+04;  0.0000000E+00;  1.4494294E-01;  4.0000000E+04;  0.0000000E+00;  4.0051004E+04; -2.7513108E-01;  0.0000000E+00;  2.9851058E-02;  6.9926377E+03;
  3.8539621E-01;  9.9999998E-03;  2.4987309E-01;4819; -1.1569872E-01;  0.0000000E+00;  7.8355707E-03;  9.9259210E+02;  1.0000000E-01; -6.1373076E+03;3;  1.1972021E+00;  0.0000000E+00; -3.5924339E+00;0; -2.4648394E-01;  3.9359000E+04;  0.0000000E+00;  1.3791682E-01;  4.0000000E+04;  0.0000000E+00;  4.0052793E+04; -2.7612844E-01;  0.0000000E+00;  2.9644500E-02;  7.2432212E+03;
  3.8533691E-01;  9.9999998E-03;  2.5985751E-01;4820; -1.1559083E-01;  0.0000000E+00;  8.0804601E-03;  9.9239667E+02;  1.0000000E-01; -6.2992290E+03;3;  1.2749234E+00;  0.0000000E+00; -3.6117346E+00;0; -2.4716906E-01;  3.9340363E+04;  0.0000000E+00;  1.0719859E-01;  4.0000000E+04;  0.0000000E+00;  4.0056113E+04; -2.7709904E-01;  0.0000000E+00;  2.9929986E-02;  7.6682905E+03;
  3.8527817E-01;  9.9999998E-03;  2.6984602E-01;4821; -1.1550514E-01;  0.0000000E+00;  8.3236508E-03;  9.9221252E+02;  1.0000000E-01; -6.4517676E+03;3;  1.3626634E+00;  0.0000000E+00; -3.6211321E+00;0; -2.4784306E-01;  3.9323859E+04;  0.0000000E+00;  5.3313922E-02;  4.0000000E+04;  0.0000000E+00;  4.0058000E+04; -2.7802813E-01;  0.0000000E+00;  3.0185074E-02;  7.9129033E+03;
  3.8520727E-01;  9.9999998E-03;  2.7983683E-01;4822; -1.1544187E-01;  0.0000000E+00;  8.5449349E-03;  9.9203748E+02;  1.0000000E-01; -6.5968008E+03;3;  1.4586254E+00;  0.0000000E+00; -3.6199589E+00;0; -2.4892284E-01;  3.9309941E+04;  0.0000000E+00; -1.7842257E-02;  4.0000000E+04;  0.0000000E+00;  4.0058383E+04; -2.7891183E-01;  0.0000000E+00;  2.9988986E-02;  7.9769346E+03;
  3.8511840E-01;  9.9999998E-03;  2.8982860E-01;4823; -1.1540075E-01;  0.0000000E+00;  8.8081853E-03;  9.9188116E+02;  1.0000000E-01; -6.7262783E+03;3;  1.5625266E+00;  0.0000000E+00; -3.6130795E+00;0; -2.4957761E-01;  3.9298078E+04;  0.0000000E+00; -1.0332672E-01;  4.0000000E+04;  0.0000000E+00;  4.0057867E+04; -2.7974728E-01;  0.0000000E+00;  3.0169670E-02;  7.9412056E+03;
  3.8501611E-01;  9.9999998E-03;  2.9982051E-01;4824; -1.1538447E-01;  0.0000000E+00;  9.1114379E-03;  9.9175092E+02;  1.0000000E-01; -6.8342261E+03;3;  1.6732088E+00;  0.0000000E+00; -3.6093059E+00;0; -2.4965937E-01;  3.9288273E+04;  0.0000000E+00; -2.0301618E-01;  4.0000000E+04;  0.0000000E+00;  4.0057621E+04; -2.8053018E-01;  0.0000000E+00;  3.0870806E-02;  7.9251836E+03;
  3.9546299E-01;  9.9999998E-03;  2.3989725E-01;4879; -1.1853352E-01;  0.0000000E+00;  7.4470704E-03;  9.9265576E+02;  1.0000000E-01; -6.0845684E+03;3;  1.1830014E+00;  0.0000000E+00; -3.7444746E+00;0; -2.4292986E-01;  3.9364910E+04;  0.0000000E+00;  6.3475288E-02;  4.0000000E+04;  0.0000000E+00;  4.0051406E+04; -2.7122766E-01;  0.0000000E+00;  2.8297802E-02;  7.0723701E+03;
  3.9541787E-01;  9.9999998E-03;  2.4987917E-01;4880; -1.1842748E-01;  0.0000000E+00;  7.6327943E-03;  9.9243323E+02;  1.0000000E-01; -6.2689087E+03;3;  1.2391444E+00;  0.0000000E+00; -3.7656949E+00;0; -2.4411739E-01;  3.9343863E+04;  0.0000000E+00;  5.1026229E-02;  4.0000000E+04;  0.0000000E+00;  4.0054656E+04; -2.7200484E-01;  0.0000000E+00;  2.7887451E-02;  7.4897520E+03;
  3.9537001E-01;  9.9999998E-03;  2.5986275E-01;4881; -1.1833896E-01;  0.0000000E+00;  7.9323510E-03;  9.9223920E+02;  1.0000000E-01; -6.4296943E+03;3;  1.3067183E+00;  0.0000000E+00; -3.7768126E+00;0; -2.4446662E-01;  3.9324098E+04;  0.0000000E+00;  2.3909310E-02;  4.0000000E+04;  0.0000000E+00;  4.0059129E+04; -2.7275139E-01;  0.0000000E+00;  2.8284775E-02;  8.0507905E+03;
  3.9532578E-01;  9.9999998E-03;  2.6985130E-01;4882; -1.1827285E-01;  0.0000000E+00;  8.2144635E-03;  9.9203876E+02;  1.0000000E-01; -6.5957144E+03;3;  1.3828059E+00;  0.0000000E+00; -3.7778697E+00;0; -2.4470662E-01;  3.9305910E+04;  0.0000000E+00; -1.8412871E-02;  4.0000000E+04;  0.0000000E+00;  4.0061254E+04; -2.7345625E-01;  0.0000000E+00;  2.8749624E-02;  8.3468330E+03;
  3.9527234E-01;  9.9999998E-03;  2.7984211E-01;4883; -1.1822634E-01;  0.0000000E+00;  8.4620100E-03;  9.9184106E+02;  1.0000000E-01; -6.7595122E+03;3;  1.4682288E+00;  0.0000000E+00; -3.7673345E+00;0; -2.4529384E-01;  3.9289746E+04;  0.0000000E+00; -7.1410745E-02;  4.0000000E+04;  0.0000000E+00;  4.0061910E+04; -2.7411571E-01;  0.0000000E+00;  2.8821867E-02;  8.4310225E+03;
  3.9519778E-01;  9.9999998E-03;  2.8983369E-01;4884; -1.1819645E-01;  0.0000000E+00;  8.7457607E-03;  9.9165668E+02;  1.0000000E-01; -6.9122979E+03;3;  1.5612328E+00;  0.0000000E+00; -3.7556159E+00;0; -2.4538249E-01;  3.9275504E+04;  0.0000000E+00; -1.3162833E-01;  4.0000000E+04;  0.0000000E+00;  4.0061488E+04; -2.7472779E-01;  0.0000000E+00;  2.9345296E-02;  8.4122510E+03;
  3.9510608E-01;  9.9999998E-03;  2.9982528E-01;4885; -1.1818735E-01;  0.0000000E+00;  9.0695731E-03;  9.9149701E+02;  1.0000000E-01; -7.0445903E+03;3;  1.6601659E+00;  0.0000000E+00; -3.7354658E+00;0; -2.4481197E-01;  3.9263254E+04;  0.0000000E+00; -2.0175388E-01;  4.0000000E+04;  0.0000000E+00;  4.0061406E+04; -2.7528620E-01;  0.0000000E+00;  3.0474231E-02;  8.4130361E+03;
  4.0549734E-01;  9.9999998E-03;  2.3990245E-01;4940; -1.2125035E-01;  0.0000000E+00;  7.1925460E-03;  9.9247925E+02;  1.0000000E-01; -6.2307861E+03;3;  1.2312115E+00;  0.0000000E+00; -3.9128921E+00;0; -2.4070959E-01;  3.9349270E+04;  0.0000000E+00; -1.2699952E-02;  4.0000000E+04;  0.0000000E+00;  4.0052320E+04; -2.6758468E-01;  0.0000000E+00;  2.6875094E-02;  7.1845020E+03;
  4.0546212E-01;  9.9999998E-03;  2.4988212E-01;4941; -1.2116604E-01;  0.0000000E+00;  7.4294005E-03;  9.9228131E+02;  1.0000000E-01; -6.3947817E+03;3;  1.2756847E+00;  0.0000000E+00; -3.9275274E+00;0; -2.4175793E-01;  3.9328574E+04;  0.0000000E+00; -2.8216964E-02;  4.0000000E+04;  0.0000000E+00;  4.0057145E+04; -2.6819581E-01;  0.0000000E+00;  2.6437879E-02;  7.8069517E+03;
  4.0542510E-01;  9.9999998E-03;  2.5986582E-01;4942; -1.2110186E-01;  0.0000000E+00;  7.7851289E-03;  9.9209296E+02;  1.0000000E-01; -6.5508267E+03;3;  1.3295124E+00;  0.0000000E+00; -3.9328840E+00;0; -2.4174181E-01;  3.9308688E+04;  0.0000000E+00; -4.9941495E-02;  4.0000000E+04;  0.0000000E+00;  4.0062160E+04; -2.6877734E-01;  0.0000000E+00;  2.7035527E-02;  8.4593105E+03;
  4.0539259E-01;  9.9999998E-03;  2.6985520E-01;4943; -1.2106055E-01;  0.0000000E+00;  8.0952449E-03;  9.9188440E+02;  1.0000000E-01; -6.7236118E+03;3;  1.3935914E+00;  0.0000000E+00; -3.9287376E+00;0; -2.4166793E-01;  3.9289887E+04;  0.0000000E+00; -7.9230629E-02;  4.0000000E+04;  0.0000000E+00;  4.0064395E+04; -2.6932016E-01;  0.0000000E+00;  2.7652234E-02;  8.7490791E+03;
  4.0535426E-01;  9.9999998E-03;  2.7984640E-01;4944; -1.2103774E-01;  0.0000000E+00;  8.3616218E-03;  9.9167267E+02;  1.0000000E-01; -6.8990142E+03;3;  1.4672068E+00;  0.0000000E+00; -3.9096241E+00;0; -2.4190779E-01;  3.9272723E+04;  0.0000000E+00; -1.1397786E-01;  4.0000000E+04;  0.0000000E+00;  4.0064836E+04; -2.6982069E-01;  0.0000000E+00;  2.7912905E-02;  8.8263633E+03;
  4.0530089E-01;  9.9999998E-03;  2.8983808E-01;4945; -1.2103449E-01;  0.0000000E+00;  8.6635929E-03;  9.9147333E+02;  1.0000000E-01; -7.0641948E+03;3;  1.5471568E+00;  0.0000000E+00; -3.8816333E+00;0; -2.4154496E-01;  3.9257328E+04;  0.0000000E+00; -1.5170172E-01;  4.0000000E+04;  0.0000000E+00;  4.0064570E+04; -2.7027425E-01;  0.0000000E+00;  2.8729286E-02;  8.8028105E+03;
  4.0523005E-01;  9.9999998E-03;  2.9982957E-01;4946; -1.2105864E-01;  0.0000000E+00;  9.0061035E-03;  9.9129724E+02;  1.0000000E-01; -7.2100674E+03;3;  1.6337354E+00;  0.0000000E+00; -3.8540046E+00;0; -2.4043916E-01;  3.9243715E+04;  0.0000000E+00; -1.9219916E-01;  4.0000000E+04;  0.0000000E+00;  4.0064457E+04; -2.7067503E-01;  0.0000000E+00;  3.0235870E-02;  8.8023320E+03;
  4.1556904E-01;  9.9999998E-03;  2.3990534E-01;5001; -1.2396815E-01;  0.0000000E+00;  6.9431113E-03;  9.9234204E+02;  1.0000000E-01; -6.3444614E+03;3;  1.2758824E+00;  0.0000000E+00; -4.0646729E+00;0; -2.3841228E-01;  3.9337105E+04;  0.0000000E+00; -8.2424298E-02;  4.0000000E+04;  0.0000000E+00;  4.0052871E+04; -2.6408225E-01;  0.0000000E+00;  2.5669975E-02;  7.2764224E+03;
  4.1554755E-01;  9.9999998E-03;  2.4988288E-01;5002; -1.2391124E-01;  0.0000000E+00;  7.2442396E-03;  9.9217725E+02;  1.0000000E-01; -6.4810010E+03;3;  1.3048006E+00;  0.0000000E+00; -4.0811615E+00;0; -2.3920560E-01;  3.9317477E+04;  0.0000000E+00; -9.8751083E-02;  4.0000000E+04;  0.0000000E+00;  4.0059422E+04; -2.6455590E-01;  0.0000000E+00;  2.5350308E-02;  8.1031416E+03;
  4.1552496E-01;  9.9999998E-03;  2.5986761E-01;5003; -1.2387560E-01;  0.0000000E+00;  7.6466836E-03;  9.9200232E+02;  1.0000000E-01; -6.6259351E+03;3;  1.3450918E+00;  0.0000000E+00; -4.0861197E+00;0; -2.3884687E-01;  3.9298379E+04;  0.0000000E+00; -1.1503647E-01;  4.0000000E+04;  0.0000000E+00;  4.0064797E+04; -2.6500210E-01;  0.0000000E+00;  2.6155233E-02;  8.7847393E+03;
  4.1550469E-01;  9.9999998E-03;  2.6985824E-01;5004; -1.2386084E-01;  0.0000000E+00;  7.9667121E-03;  9.9179303E+02;  1.0000000E-01; -6.7993130E+03;3;  1.3961982E+00;  0.0000000E+00; -4.0753131E+00;0; -2.3863682E-01;  3.9280195E+04;  0.0000000E+00; -1.3260359E-01;  4.0000000E+04;  0.0000000E+00;  4.0066547E+04; -2.6541498E-01;  0.0000000E+00;  2.6778167E-02;  9.0317529E+03;
  4.1547877E-01;  9.9999998E-03;  2.7985010E-01;5005; -1.2386559E-01;  0.0000000E+00;  8.2475450E-03;  9.9158179E+02;  1.0000000E-01; -6.9743203E+03;3;  1.4553981E+00;  0.0000000E+00; -4.0419884E+00;0; -2.3861498E-01;  3.9262906E+04;  0.0000000E+00; -1.5087517E-01;  4.0000000E+04;  0.0000000E+00;  4.0066871E+04; -2.6579088E-01;  0.0000000E+00;  2.7175909E-02;  9.0801357E+03;
  4.1543868E-01;  9.9999998E-03;  2.8984207E-01;5006; -1.2389465E-01;  0.0000000E+00;  8.5641788E-03;  9.9137921E+02;  1.0000000E-01; -7.1421675E+03;3;  1.5225662E+00;  0.0000000E+00; -4.0061750E+00;0; -2.3790102E-01;  3.9247320E+04;  0.0000000E+00; -1.6544418E-01;  4.0000000E+04;  0.0000000E+00;  4.0066457E+04; -2.6612502E-01;  0.0000000E+00;  2.8224006E-02;  9.0412070E+03;
  4.1538349E-01;  9.9999998E-03;  2.9983369E-01;5007; -1.2396489E-01;  0.0000000E+00;  8.9237392E-03;  9.9120093E+02;  1.0000000E-01; -7.2898667E+03;3;  1.5952893E+00;  0.0000000E+00; -3.9660163E+00;0; -2.3634988E-01;  3.9233699E+04;  0.0000000E+00; -1.7096536E-01;  4.0000000E+04;  0.0000000E+00;  4.0066047E+04; -2.6641104E-01;  0.0000000E+00;  3.0061161E-02;  9.0281865E+03;
  4.2569062E-01;  9.9999998E-03;  2.3990598E-01;5062; -1.2667942E-01;  0.0000000E+00;  6.7387982E-03;  9.9229999E+02;  1.0000000E-01; -6.3793247E+03;3;  1.3145761E+00;  0.0000000E+00; -4.2059689E+00;0; -2.3580521E-01;  3.9332977E+04;  0.0000000E+00; -1.4274025E-01;  4.0000000E+04;  0.0000000E+00;  4.0053234E+04; -2.6062763E-01;  0.0000000E+00;  2.4822412E-02;  7.3239146E+03;
  4.2568648E-01;  9.9999998E-03;  2.4988261E-01;5063; -1.2665215E-01;  0.0000000E+00;  7.0970571E-03;  9.9217194E+02;  1.0000000E-01; -6.4853960E+03;3;  1.3277229E+00;  0.0000000E+00; -4.2249413E+00;0; -2.3628645E-01;  3.9315188E+04;  0.0000000E+00; -1.5831755E-01;  4.0000000E+04;  0.0000000E+00;  4.0060898E+04; -2.6097089E-01;  0.0000000E+00;  2.4684450E-02;  8.2845283E+03;
  4.2567855E-01;  9.9999998E-03;  2.5986907E-01;5064; -1.2664434E-01;  0.0000000E+00;  7.5202556E-03;  9.9201227E+02;  1.0000000E-01; -6.6176885E+03;3;  1.3527087E+00;  0.0000000E+00; -4.2276840E+00;0; -2.3571374E-01;  3.9297605E+04;  0.0000000E+00; -1.6928652E-01;  4.0000000E+04;  0.0000000E+00;  4.0065812E+04; -2.6129058E-01;  0.0000000E+00;  2.5576847E-02;  8.9307334E+03;
  4.2566523E-01;  9.9999998E-03;  2.6986107E-01;5065; -1.2665367E-01;  0.0000000E+00;  7.8345574E-03;  9.9181128E+02;  1.0000000E-01; -6.7842021E+03;3;  1.3887148E+00;  0.0000000E+00; -4.2088618E+00;0; -2.3550336E-01;  3.9280508E+04;  0.0000000E+00; -1.7513722E-01;  4.0000000E+04;  0.0000000E+00;  4.0067203E+04; -2.6158360E-01;  0.0000000E+00;  2.6080241E-02;  9.1114570E+03;
  4.2564303E-01;  9.9999998E-03;  2.7985358E-01;5066; -1.2668362E-01;  0.0000000E+00;  8.1232889E-03;  9.9161102E+02;  1.0000000E-01; -6.9501235E+03;3;  1.4333607E+00;  0.0000000E+00; -4.1668735E+00;0; -2.3530859E-01;  3.9264398E+04;  0.0000000E+00; -1.7332686E-01;  4.0000000E+04;  0.0000000E+00;  4.0067094E+04; -2.6184735E-01;  0.0000000E+00;  2.6538765E-02;  9.1261025E+03;
  4.2560774E-01;  9.9999998E-03;  2.8984594E-01;5067; -1.2674430E-01;  0.0000000E+00;  8.4499726E-03;  9.9141669E+02;  1.0000000E-01; -7.1111064E+03;3;  1.4859107E+00;  0.0000000E+00; -4.1177530E+00;0; -2.3433910E-01;  3.9249859E+04;  0.0000000E+00; -1.5771094E-01;  4.0000000E+04;  0.0000000E+00;  4.0066637E+04; -2.6207742E-01;  0.0000000E+00;  2.7738322E-02;  9.0684824E+03;
  4.2555684E-01;  9.9999998E-03;  2.9983780E-01;5068; -1.2686147E-01;  0.0000000E+00;  8.8225855E-03;  9.9124786E+02;  1.0000000E-01; -7.2509541E+03;3;  1.5442626E+00;  0.0000000E+00; -4.0663304E+00;0; -2.3244351E-01;  3.9236816E+04;  0.0000000E+00; -1.2013161E-01;  4.0000000E+04;  0.0000000E+00;  4.0066188E+04; -2.6226747E-01;  0.0000000E+00;  2.9823963E-02;  9.0384082E+03;
  4.3584260E-01;  9.9999998E-03;  2.3990384E-01;5123; -1.2936446E-01;  0.0000000E+00;  6.6146255E-03;  9.9239630E+02;  1.0000000E-01; -6.2995244E+03;3;  1.3469039E+00;  0.0000000E+00; -4.3441815E+00;0; -2.3272704E-01;  3.9340102E+04;  0.0000000E+00; -1.8726471E-01;  4.0000000E+04;  0.0000000E+00;  4.0053520E+04; -2.5717750E-01;  0.0000000E+00;  2.4450472E-02;  7.3461353E+03;
  4.3584993E-01;  9.9999998E-03;  2.4988215E-01;5124; -1.2936302E-01;  0.0000000E+00;  6.9999765E-03;  9.9229529E+02;  1.0000000E-01; -6.3832261E+03;3;  1.3440137E+00;  0.0000000E+00; -4.3602333E+00;0; -2.3293066E-01;  3.9324750E+04;  0.0000000E+00; -1.9824183E-01;  4.0000000E+04;  0.0000000E+00;  4.0061016E+04; -2.5738719E-01;  0.0000000E+00;  2.4456527E-02;  8.2963604E+03;
  4.3585140E-01;  9.9999998E-03;  2.5987104E-01;5125; -1.2937757E-01;  0.0000000E+00;  7.4068704E-03;  9.9215448E+02;  1.0000000E-01; -6.4998647E+03;3;  1.3526661E+00;  0.0000000E+00; -4.3581476E+00;0; -2.3234779E-01;  3.9309340E+04;  0.0000000E+00; -2.0059370E-01;  4.0000000E+04;  0.0000000E+00;  4.0065172E+04; -2.5757551E-01;  0.0000000E+00;  2.5227729E-02;  8.8248438E+03;
  4.3584210E-01;  9.9999998E-03;  2.6986423E-01;5126; -1.2940586E-01;  0.0000000E+00;  7.7026146E-03;  9.9197180E+02;  1.0000000E-01; -6.6512183E+03;3;  1.3721830E+00;  0.0000000E+00; -4.3315201E+00;0; -2.3223522E-01;  3.9294242E+04;  0.0000000E+00; -1.9216284E-01;  4.0000000E+04;  0.0000000E+00;  4.0065887E+04; -2.5774354E-01;  0.0000000E+00;  2.5508318E-02;  8.9309053E+03;
  4.3582371E-01;  9.9999998E-03;  2.7985728E-01;5127; -1.2945704E-01;  0.0000000E+00;  7.9911891E-03;  9.9179028E+02;  1.0000000E-01; -6.8015845E+03;3;  1.4011434E+00;  0.0000000E+00; -4.2790456E+00;0; -2.3196051E-01;  3.9279957E+04;  0.0000000E+00; -1.6810335E-01;  4.0000000E+04;  0.0000000E+00;  4.0065605E+04; -2.5788954E-01;  0.0000000E+00;  2.5929032E-02;  8.9193350E+03;
  4.3579295E-01;  9.9999998E-03;  2.8985000E-01;5128; -1.2954491E-01;  0.0000000E+00;  8.3237421E-03;  9.9161682E+02;  1.0000000E-01; -6.9452842E+03;3;  1.4379731E+00;  0.0000000E+00; -4.2176056E+00;0; -2.3079701E-01;  3.9266844E+04;  0.0000000E+00; -1.2007067E-01;  4.0000000E+04;  0.0000000E+00;  4.0064973E+04; -2.5801069E-01;  0.0000000E+00;  2.7213681E-02;  8.8429951E+03;
  4.3574750E-01;  9.9999998E-03;  2.9984215E-01;5129; -1.2970327E-01;  0.0000000E+00;  8.7072784E-03;  9.9146350E+02;  1.0000000E-01; -7.0723423E+03;3;  1.4806961E+00;  0.0000000E+00; -4.1544147E+00;0; -2.2859275E-01;  3.9255129E+04;  0.0000000E+00; -3.8400348E-02;  4.0000000E+04;  0.0000000E+00;  4.0064434E+04; -2.5810352E-01;  0.0000000E+00;  2.9510768E-02;  8.8039102E+03;
  4.4600430E-01;  9.9999998E-03;  2.3990022E-01;5184; -1.3200311E-01;  0.0000000E+00;  6.5718335E-03;  9.9264191E+02;  1.0000000E-01; -6.0960244E+03;3;  1.3733557E+00;  0.0000000E+00; -4.4762092E+00;0; -2.2921161E-01;  3.9359684E+04;  0.0000000E+00; -2.1188574E-01;  4.0000000E+04;  0.0000000E+00;  4.0053223E+04; -2.5373209E-01;  0.0000000E+00;  2.4520468E-02;  7.3017368E+03;
  4.4601882E-01;  9.9999998E-03;  2.4988261E-01;5185; -1.3202037E-01;  0.0000000E+00;  6.9487407E-03;  9.9256140E+02;  1.0000000E-01; -6.1627383E+03;3;  1.3525164E+00;  0.0000000E+00; -4.4863653E+00;0; -2.2921079E-01;  3.9347004E+04;  0.0000000E+00; -2.1574125E-01;  4.0000000E+04;  0.0000000E+00;  4.0059586E+04; -2.5379857E-01;  0.0000000E+00;  2.4587782E-02;  8.0903433E+03;
  4.4602638E-01;  9.9999998E-03;  2.5987405E-01;5186; -1.3204953E-01;  0.0000000E+00;  7.3052188E-03;  9.9243597E+02;  1.0000000E-01; -6.2666367E+03;3;  1.3437330E+00;  0.0000000E+00; -4.4789810E+00;0; -2.2880888E-01;  3.9334293E+04;  0.0000000E+00; -2.0779684E-01;  4.0000000E+04;  0.0000000E+00;  4.0062281E+04; -2.5384465E-01;  0.0000000E+00;  2.5035772E-02;  8.4466943E+03;
  4.4602305E-01;  9.9999998E-03;  2.6986805E-01;5187; -1.3209076E-01;  0.0000000E+00;  7.5702411E-03;  9.9228113E+02;  1.0000000E-01; -6.3949292E+03;3;  1.3471494E+00;  0.0000000E+00; -4.4410424E+00;0; -2.2888722E-01;  3.9321645E+04;  0.0000000E+00; -1.8469433E-01;  4.0000000E+04;  0.0000000E+00;  4.0062594E+04; -2.5387415E-01;  0.0000000E+00;  2.4986940E-02;  8.4818105E+03;
  4.4601244E-01;  9.9999998E-03;  2.7986139E-01;5188; -1.3215652E-01;  0.0000000E+00;  7.8553483E-03;  9.9212604E+02;  1.0000000E-01; -6.5234194E+03;3;  1.3585732E+00;  0.0000000E+00; -4.3782544E+00;0; -2.2855297E-01;  3.9309750E+04;  0.0000000E+00; -1.4011344E-01;  4.0000000E+04;  0.0000000E+00;  4.0062176E+04; -2.5388855E-01;  0.0000000E+00;  2.5335575E-02;  8.4557207E+03;
  4.4598988E-01;  9.9999998E-03;  2.8985438E-01;5189; -1.3226302E-01;  0.0000000E+00;  8.1888055E-03;  9.9197418E+02;  1.0000000E-01; -6.6492432E+03;3;  1.3782282E+00;  0.0000000E+00; -4.3016605E+00;0; -2.2725625E-01;  3.9298613E+04;  0.0000000E+00; -6.4769223E-02;  4.0000000E+04;  0.0000000E+00;  4.0061441E+04; -2.5388882E-01;  0.0000000E+00;  2.6632560E-02;  8.3772852E+03;
  4.4595429E-01;  9.9999998E-03;  2.9984686E-01;5190; -1.3244949E-01;  0.0000000E+00;  8.5799824E-03;  9.9184448E+02;  1.0000000E-01; -6.7566968E+03;3;  1.4044566E+00;  0.0000000E+00; -4.2272668E+00;0; -2.2478229E-01;  3.9288758E+04;  0.0000000E+00;  5.1207416E-02;  4.0000000E+04;  0.0000000E+00;  4.0061121E+04; -2.5387380E-01;  0.0000000E+00;  2.9091511E-02;  8.3331953E+03;
  4.5617029E-01;  9.9999998E-03;  2.3989630E-01;5245; -1.3458216E-01;  0.0000000E+00;  6.5935482E-03;  9.9301001E+02;  1.0000000E-01; -5.7910947E+03;3;  1.3943088E+00;  0.0000000E+00; -4.5903468E+00;0; -2.2540058E-01;  3.9389602E+04;  0.0000000E+00; -2.1758822E-01;  4.0000000E+04;  0.0000000E+00;  4.0052527E+04; -2.5032449E-01;  0.0000000E+00;  2.4923902E-02;  7.1811543E+03;
  4.5618767E-01;  9.9999998E-03;  2.4988449E-01;5246; -1.3460806E-01;  0.0000000E+00;  6.9277752E-03;  9.9293848E+02;  1.0000000E-01; -5.8503521E+03;3;  1.3550735E+00;  0.0000000E+00; -4.5942712E+00;0; -2.2529790E-01;  3.9379883E+04;  0.0000000E+00; -2.1428329E-01;  4.0000000E+04;  0.0000000E+00;  4.0056566E+04; -2.5023827E-01;  0.0000000E+00;  2.4940377E-02;  7.6837646E+03;
  4.5619985E-01;  9.9999998E-03;  2.5987828E-01;5247; -1.3464300E-01;  0.0000000E+00;  7.2086016E-03;  9.9282971E+02;  1.0000000E-01; -5.9404238E+03;3;  1.3280683E+00;  0.0000000E+00; -4.5792947E+00;0; -2.2522889E-01;  3.9370105E+04;  0.0000000E+00; -1.9640908E-01;  4.0000000E+04;  0.0000000E+00;  4.0057621E+04; -2.5013131E-01;  0.0000000E+00;  2.4902420E-02;  7.8357144E+03;
  4.5620599E-01;  9.9999998E-03;  2.6987255E-01;5248; -1.3468976E-01;  0.0000000E+00;  7.4396906E-03;  9.9270624E+02;  1.0000000E-01; -6.0427417E+03;3;  1.3131859E+00;  0.0000000E+00; -4.5358086E+00;0; -2.2550607E-01;  3.9360387E+04;  0.0000000E+00; -1.5977150E-01;  4.0000000E+04;  0.0000000E+00;  4.0057461E+04; -2.5001076E-01;  0.0000000E+00;  2.4504695E-02;  7.8191089E+03;
  4.5620677E-01;  9.9999998E-03;  2.7986589E-01;5249; -1.3476112E-01;  0.0000000E+00;  7.7164047E-03;  9.9258148E+02;  1.0000000E-01; -6.1460967E+03;3;  1.3064020E+00;  0.0000000E+00; -4.4695120E+00;0; -2.2515146E-01;  3.9350887E+04;  0.0000000E+00; -9.8002456E-02;  4.0000000E+04;  0.0000000E+00;  4.0057195E+04; -2.4988131E-01;  0.0000000E+00;  2.4729844E-02;  7.7905640E+03;
  4.5619610E-01;  9.9999998E-03;  2.8985909E-01;5250; -1.3487397E-01;  0.0000000E+00;  8.0474280E-03;  9.9246075E+02;  1.0000000E-01; -6.2461436E+03;3;  1.3072674E+00;  0.0000000E+00; -4.3750505E+00;0; -2.2375377E-01;  3.9341918E+04;  0.0000000E+00; -3.0354541E-03;  4.0000000E+04;  0.0000000E+00;  4.0056473E+04; -2.4974948E-01;  0.0000000E+00;  2.5995715E-02;  7.7132090E+03;
  4.5617333E-01;  9.9999998E-03;  2.9985183E-01;5251; -1.3506964E-01;  0.0000000E+00;  8.4421309E-03;  9.9235577E+02;  1.0000000E-01; -6.3331040E+03;3;  1.3152709E+00;  0.0000000E+00; -4.2827029E+00;0; -2.2106479E-01;  3.9334078E+04;  0.0000000E+00;  1.3394222E-01;  4.0000000E+04;  0.0000000E+00;  4.0055988E+04; -2.4961780E-01;  0.0000000E+00;  2.8553003E-02;  7.6748574E+03;
  4.6632153E-01;  9.9999998E-03;  2.3989439E-01;5306; -1.3709128E-01;  0.0000000E+00;  6.6374466E-03;  9.9344226E+02;  1.0000000E-01; -5.4329810E+03;3;  1.4096586E+00;  0.0000000E+00; -4.6819305E+00;0; -2.2156703E-01;  3.9425582E+04;  0.0000000E+00; -2.0649895E-01;  4.0000000E+04;  0.0000000E+00;  4.0050875E+04; -2.4701288E-01;  0.0000000E+00;  2.5445845E-02;  6.9386865E+03;
  4.6633792E-01;  9.9999998E-03;  2.4988812E-01;5307; -1.3711517E-01;  0.0000000E+00;  6.9095222E-03;  9.9337006E+02;  1.0000000E-01; -5.4927817E+03;3;  1.3499669E+00;  0.0000000E+00; -4.6821527E+00;0; -2.2145411E-01;  3.9418453E+04;  0.0000000E+00; -1.9708444E-01;  4.0000000E+04;  0.0000000E+00;  4.0052340E+04; -2.4677096E-01;  0.0000000E+00;  2.5316844E-02;  7.1198506E+03;
  4.6635008E-01;  9.9999998E-03;  2.5988337E-01;5308; -1.3714610E-01;  0.0000000E+00;  7.1160085E-03;  9.9327881E+02;  1.0000000E-01; -5.5683843E+03;3;  1.3038502E+00;  0.0000000E+00; -4.6646643E+00;0; -2.2169986E-01;  3.9411395E+04;  0.0000000E+00; -1.6986008E-01;  4.0000000E+04;  0.0000000E+00;  4.0052047E+04; -2.4650836E-01;  0.0000000E+00;  2.4808502E-02;  7.0917930E+03;
  4.6635607E-01;  9.9999998E-03;  2.6987734E-01;5309; -1.3718703E-01;  0.0000000E+00;  7.3151854E-03;  9.9318481E+02;  1.0000000E-01; -5.6462588E+03;3;  1.2689317E+00;  0.0000000E+00; -4.6124878E+00;0; -2.2213873E-01;  3.9404316E+04;  0.0000000E+00; -1.2001176E-01;  4.0000000E+04;  0.0000000E+00;  4.0051664E+04; -2.4623626E-01;  0.0000000E+00;  2.4097526E-02;  7.0475786E+03;
  4.6635672E-01;  9.9999998E-03;  2.7987048E-01;5310; -1.3725054E-01;  0.0000000E+00;  7.5791450E-03;  9.9309503E+02;  1.0000000E-01; -5.7206270E+03;3;  1.2429456E+00;  0.0000000E+00; -4.5366998E+00;0; -2.2180511E-01;  3.9397285E+04;  0.0000000E+00; -4.2700272E-02;  4.0000000E+04;  0.0000000E+00;  4.0051355E+04; -2.4596389E-01;  0.0000000E+00;  2.4158770E-02;  7.0216294E+03;
  4.6634915E-01;  9.9999998E-03;  2.8986371E-01;5311; -1.3735281E-01;  0.0000000E+00;  7.9019871E-03;  9.9300305E+02;  1.0000000E-01; -5.7968223E+03;3;  1.2252907E+00;  0.0000000E+00; -4.4335709E+00;0; -2.2037967E-01;  3.9390676E+04;  0.0000000E+00;  6.6713519E-02;  4.0000000E+04;  0.0000000E+00;  4.0050836E+04; -2.4570134E-01;  0.0000000E+00;  2.5321674E-02;  6.9566851E+03;
  4.6633273E-01;  9.9999998E-03;  2.9985666E-01;5312; -1.3753417E-01;  0.0000000E+00;  8.2958592E-03;  9.9292072E+02;  1.0000000E-01; -5.8650674E+03;3;  1.2136921E+00;  0.0000000E+00; -4.3241253E+00;0; -2.1754193E-01;  3.9384453E+04;  0.0000000E+00;  2.1385668E-01;  4.0000000E+04;  0.0000000E+00;  4.0050500E+04; -2.4545459E-01;  0.0000000E+00;  2.7912667E-02;  6.9343765E+03;
  4.7639433E-01;  9.9999998E-03;  2.3989491E-01;5367; -1.3951857E-01;  0.0000000E+00;  6.6682273E-03;  9.9385095E+02;  1.0000000E-01; -5.0943730E+03;3;  1.4189838E+00;  0.0000000E+00; -4.7586994E+00;0; -2.1795481E-01;  3.9460562E+04;  0.0000000E+00; -1.8051794E-01;  4.0000000E+04;  0.0000000E+00;  4.0048703E+04; -2.4386896E-01;  0.0000000E+00;  2.5914149E-02;  6.6228682E+03;
  4.7640219E-01;  9.9999998E-03;  2.4989262E-01;5368; -1.3952930E-01;  0.0000000E+00;  6.8799588E-03;  9.9377838E+02;  1.0000000E-01; -5.1544702E+03;3;  1.3380375E+00;  0.0000000E+00; -4.7501001E+00;0; -2.1785772E-01;  3.9455457E+04;  0.0000000E+00; -1.6698900E-01;  4.0000000E+04;  0.0000000E+00;  4.0047922E+04; -2.4347761E-01;  0.0000000E+00;  2.5619902E-02;  6.5254834E+03;
  4.7640961E-01;  9.9999998E-03;  2.5988835E-01;5369; -1.3954678E-01;  0.0000000E+00;  7.0247920E-03;  9.9370044E+02;  1.0000000E-01; -5.2190610E+03;3;  1.2715609E+00;  0.0000000E+00; -4.7301955E+00;0; -2.1833591E-01;  3.9450539E+04;  0.0000000E+00; -1.3358919E-01;  4.0000000E+04;  0.0000000E+00;  4.0046559E+04; -2.4306540E-01;  0.0000000E+00;  2.4729492E-02;  6.3683774E+03;
  4.7641164E-01;  9.9999998E-03;  2.6988176E-01;5370; -1.3957235E-01;  0.0000000E+00;  7.1931961E-03;  9.9363416E+02;  1.0000000E-01; -5.2739731E+03;3;  1.2157353E+00;  0.0000000E+00; -4.6706576E+00;0; -2.1891996E-01;  3.9445598E+04;  0.0000000E+00; -7.5402617E-02;  4.0000000E+04;  0.0000000E+00;  4.0046055E+04; -2.4264883E-01;  0.0000000E+00;  2.3728864E-02;  6.3081523E+03;
  4.7640511E-01;  9.9999998E-03;  2.7987456E-01;5371; -1.3961622E-01;  0.0000000E+00;  7.4415933E-03;  9.9357202E+02;  1.0000000E-01; -5.3254780E+03;3;  1.1694911E+00;  0.0000000E+00; -4.5836086E+00;0; -2.1864216E-01;  3.9440754E+04;  0.0000000E+00;  1.0035614E-02;  4.0000000E+04;  0.0000000E+00;  4.0045914E+04; -2.4224177E-01;  0.0000000E+00;  2.3599612E-02;  6.2954902E+03;
  4.7639421E-01;  9.9999998E-03;  2.8986770E-01;5372; -1.3969289E-01;  0.0000000E+00;  7.7538076E-03;  9.9350549E+02;  1.0000000E-01; -5.3805874E+03;3;  1.1319659E+00;  0.0000000E+00; -4.4684072E+00;0; -2.1722743E-01;  3.9436035E+04;  0.0000000E+00;  1.2294307E-01;  4.0000000E+04;  0.0000000E+00;  4.0045434E+04; -2.4185631E-01;  0.0000000E+00;  2.4628883E-02;  6.2471191E+03;
  4.7637966E-01;  9.9999998E-03;  2.9986078E-01;5373; -1.3983884E-01;  0.0000000E+00;  8.1426734E-03;  9.9344031E+02;  1.0000000E-01; -5.4345610E+03;3;  1.1018434E+00;  0.0000000E+00; -4.3518968E+00;0; -2.1430203E-01;  3.9431184E+04;  0.0000000E+00;  2.6459503E-01;  4.0000000E+04;  0.0000000E+00;  4.0045312E+04; -2.4150196E-01;  0.0000000E+00;  2.7199917E-02;  6.2459614E+03;
  4.8635077E-01;  9.9999998E-03;  2.9986379E-01;5434; -1.4201663E-01;  0.0000000E+00;  7.9825129E-03;  9.9384094E+02;  1.0000147E-01; -5.1026694E+03;3;  9.7656161E-01;  0.0000000E+00; -4.3488450E+00;0; -2.1137963E-01;  3.9465980E+04;  0.0000000E+00;  2.5582266E-01;  4.0000000E+04;  0.0000000E+00;  4.0041215E+04; -2.3781490E-01;  0.0000000E+00;  2.6435273E-02;  5.7067803E+03;
  4.8636359E-01;  9.9999998E-03;  2.8987065E-01;5433; -1.4192107E-01;  0.0000000E+00;  7.6000565E-03;  9.9388824E+02;  1.0000147E-01; -5.0634604E+03;3;  1.0281861E+00;  0.0000000E+00; -4.4895291E+00;0; -2.1435578E-01;  3.9469758E+04;  0.0000000E+00;  1.3659105E-01;  4.0000000E+04;  0.0000000E+00;  4.0041398E+04; -2.3826696E-01;  0.0000000E+00;  2.3911182E-02;  5.6983594E+03;
  4.8637304E-01;  9.9999998E-03;  2.7987760E-01;5432; -1.4187947E-01;  0.0000000E+00;  7.3033576E-03;  9.9393628E+02;  1.0000148E-01; -5.0236592E+03;3;  1.0857781E+00;  0.0000000E+00; -4.6132622E+00;0; -2.1568729E-01;  3.9473160E+04;  0.0000000E+00;  3.4978326E-02;  4.0000000E+04;  0.0000000E+00;  4.0041691E+04; -2.3876604E-01;  0.0000000E+00;  2.3078753E-02;  5.7330840E+03;
  4.8637828E-01;  9.9999998E-03;  2.3989503E-01;5428; -1.4187257E-01;  0.0000000E+00;  6.6910172E-03;  9.9417749E+02;  1.0000148E-01; -4.8238623E+03;3;  1.4211930E+00;  0.0000000E+00; -4.8194060E+00;0; -2.1457657E-01;  3.9487281E+04;  0.0000000E+00; -1.4553230E-01;  4.0000000E+04;  0.0000000E+00;  4.0047258E+04; -2.4092707E-01;  0.0000000E+00;  2.6350494E-02;  6.4170977E+03;
  4.8637828E-01;  9.9999998E-03;  2.4989603E-01;5429; -1.4186202E-01;  0.0000000E+00;  6.8511916E-03;  9.9409973E+02;  1.0000146E-01; -4.8882559E+03;3;  1.3193200E+00;  0.0000000E+00; -4.8029704E+00;0; -2.1445704E-01;  3.9483414E+04;  0.0000000E+00; -1.3311152E-01;  4.0000000E+04;  0.0000000E+00;  4.0044613E+04; -2.4039678E-01;  0.0000000E+00;  2.5939742E-02;  6.0875176E+03;
  4.8637986E-01;  9.9999998E-03;  2.5989226E-01;5430; -1.4185841E-01;  0.0000000E+00;  6.9381963E-03;  9.9402692E+02;  1.0000145E-01; -4.9485996E+03;3;  1.2310656E+00;  0.0000000E+00; -4.7741823E+00;0; -2.1513554E-01;  3.9479824E+04;  0.0000000E+00; -1.0141294E-01;  4.0000000E+04;  0.0000000E+00;  4.0042359E+04; -2.3984742E-01;  0.0000000E+00;  2.4711879E-02;  5.8103750E+03;
  4.8638001E-01;  9.9999998E-03;  2.6988515E-01;5431; -1.4186189E-01;  0.0000000E+00;  7.0744366E-03;  9.9397888E+02;  1.0000148E-01; -4.9884009E+03;3;  1.1535054E+00;  0.0000000E+00; -4.7074976E+00;0; -2.1586867E-01;  3.9476449E+04;  0.0000000E+00; -4.5496434E-02;  4.0000000E+04;  0.0000000E+00;  4.0041629E+04; -2.3929772E-01;  0.0000000E+00;  2.3429047E-02;  5.7344565E+03;
  4.9632716E-01;  9.9999998E-03;  2.3989375E-01;5489; -1.4418086E-01;  0.0000000E+00;  6.6811037E-03;  9.9434326E+02;  1.0000210E-01; -4.6864829E+03;3;  1.4185567E+00;  0.0000000E+00; -4.8432512E+00;0; -2.1153006E-01;  3.9499852E+04;  0.0000000E+00; -1.0910220E-01;  4.0000000E+04;  0.0000000E+00;  4.0047293E+04; -2.3816970E-01;  0.0000000E+00;  2.6639635E-02;  6.4084009E+03;
  4.9631861E-01;  9.9999998E-03;  2.4989709E-01;5490; -1.4414245E-01;  0.0000000E+00;  6.8085091E-03;  9.9425183E+02;  1.0000207E-01; -4.7622339E+03;3;  1.2935121E+00;  0.0000000E+00; -4.8319769E+00;0; -2.1132281E-01;  3.9496328E+04;  0.0000000E+00; -1.0372678E-01;  4.0000000E+04;  0.0000000E+00;  4.0043395E+04; -2.3751520E-01;  0.0000000E+00;  2.6192375E-02;  5.9306416E+03;
  4.9631181E-01;  9.9999998E-03;  2.5989401E-01;5491; -1.4411175E-01;  0.0000000E+00;  6.8498785E-03;  9.9417621E+02;  1.0000200E-01; -4.8248989E+03;3;  1.1819832E+00;  0.0000000E+00; -4.7941580E+00;0; -2.1212038E-01;  3.9493320E+04;  0.0000000E+00; -8.2523167E-02;  4.0000000E+04;  0.0000000E+00;  4.0040352E+04; -2.3684502E-01;  0.0000000E+00;  2.4724640E-02;  5.5567085E+03;
  4.9630845E-01;  9.9999998E-03;  2.6988667E-01;5492; -1.4408806E-01;  0.0000000E+00;  6.9589545E-03;  9.9413629E+02;  1.0000207E-01; -4.8579844E+03;3;  1.0828040E+00;  0.0000000E+00; -4.7278113E+00;0; -2.1294233E-01;  3.9490723E+04;  0.0000000E+00; -4.0868647E-02;  4.0000000E+04;  0.0000000E+00;  4.0039668E+04; -2.3617953E-01;  0.0000000E+00;  2.3237204E-02;  5.4648525E+03;
  4.9630234E-01;  9.9999998E-03;  2.7987897E-01;5493; -1.4407474E-01;  0.0000000E+00;  7.1675340E-03;  9.9410492E+02;  1.0000204E-01; -4.8839590E+03;3;  9.9203312E-01;  0.0000000E+00; -4.6270399E+00;0; -2.1285626E-01;  3.9488176E+04;  0.0000000E+00;  2.0524047E-02;  4.0000000E+04;  0.0000000E+00;  4.0039633E+04; -2.3553909E-01;  0.0000000E+00;  2.2682823E-02;  5.4634453E+03;
  4.9629492E-01;  9.9999998E-03;  2.8987196E-01;5494; -1.4407602E-01;  0.0000000E+00;  7.4442164E-03;  9.9406677E+02;  1.0000199E-01; -4.9155630E+03;3;  9.1250741E-01;  0.0000000E+00; -4.4869752E+00;0; -2.1167679E-01;  3.9485574E+04;  0.0000000E+00;  9.5850781E-02;  4.0000000E+04;  0.0000000E+00;  4.0039422E+04; -2.3494138E-01;  0.0000000E+00;  2.3264585E-02;  5.4357793E+03;
  4.9628559E-01;  9.9999998E-03;  2.9986516E-01;5495; -1.4411318E-01;  0.0000000E+00;  7.8125000E-03;  9.9402777E+02;  1.0000207E-01; -4.9478584E+03;3;  8.3835423E-01;  0.0000000E+00; -4.3255634E+00;0; -2.0878047E-01;  3.9482566E+04;  0.0000000E+00;  1.7850552E-01;  4.0000000E+04;  0.0000000E+00;  4.0039375E+04; -2.3440196E-01;  0.0000000E+00;  2.5621483E-02;  5.4506289E+03;
  5.0628191E-01;  9.9999998E-03;  2.3989232E-01;5550; -1.4647092E-01;  0.0000000E+00;  6.6064694E-03;  9.9431689E+02;  1.0000383E-01; -4.7083589E+03;3;  1.4100602E+00;  0.0000000E+00; -4.8467927E+00;0; -2.0890792E-01;  3.9495457E+04;  0.0000000E+00; -7.8190491E-02;  4.0000000E+04;  0.0000000E+00;  4.0048512E+04; -2.3554844E-01;  0.0000000E+00;  2.6640521E-02;  6.5548076E+03;
  5.0626713E-01;  9.9999998E-03;  2.4989627E-01;5551; -1.4640187E-01;  0.0000000E+00;  6.7267972E-03;  9.9421484E+02;  1.0000373E-01; -4.7928999E+03;3;  1.2610273E+00;  0.0000000E+00; -4.8348622E+00;0; -2.0855935E-01;  3.9491441E+04;  0.0000000E+00; -8.4340386E-02;  4.0000000E+04;  0.0000000E+00;  4.0044266E+04; -2.3478469E-01;  0.0000000E+00;  2.6225338E-02;  6.0416182E+03;
  5.0625265E-01;  9.9999998E-03;  2.5989348E-01;5552; -1.4634120E-01;  0.0000000E+00;  6.7506498E-03;  9.9413293E+02;  1.0000370E-01; -4.8607495E+03;3;  1.1240339E+00;  0.0000000E+00; -4.7923131E+00;0; -2.0930061E-01;  3.9488004E+04;  0.0000000E+00; -7.9247281E-02;  4.0000000E+04;  0.0000000E+00;  4.0041027E+04; -2.3401061E-01;  0.0000000E+00;  2.4709994E-02;  5.6356255E+03;
  5.0624090E-01;  9.9999998E-03;  2.6988620E-01;5553; -1.4628774E-01;  0.0000000E+00;  6.8436470E-03;  9.9408905E+02;  1.0000364E-01; -4.8970942E+03;3;  1.0017277E+00;  0.0000000E+00; -4.7236915E+00;0; -2.1009672E-01;  3.9485324E+04;  0.0000000E+00; -5.8571834E-02;  4.0000000E+04;  0.0000000E+00;  4.0040133E+04; -2.3324788E-01;  0.0000000E+00;  2.3151157E-02;  5.5341343E+03;
  5.0623322E-01;  9.9999998E-03;  2.7987853E-01;5554; -1.4624186E-01;  0.0000000E+00;  7.0294007E-03;  9.9405804E+02;  1.0000388E-01; -4.9227725E+03;3;  8.8708258E-01;  0.0000000E+00; -4.6127162E+00;0; -2.1013355E-01;  3.9482891E+04;  0.0000000E+00; -2.4325108E-02;  4.0000000E+04;  0.0000000E+00;  4.0040090E+04; -2.3251678E-01;  0.0000000E+00;  2.2383222E-02;  5.5233857E+03;
  5.0622714E-01;  9.9999998E-03;  2.8987160E-01;5555; -1.4620236E-01;  0.0000000E+00;  7.2829374E-03;  9.9402435E+02;  1.0000371E-01; -4.9507222E+03;3;  7.8334421E-01;  0.0000000E+00; -4.4659529E+00;0; -2.0915124E-01;  3.9480527E+04;  0.0000000E+00;  1.7236643E-02;  4.0000000E+04;  0.0000000E+00;  4.0039680E+04; -2.3183560E-01;  0.0000000E+00;  2.2684358E-02;  5.4871621E+03;
  5.0622302E-01;  9.9999998E-03;  2.9986486E-01;5556; -1.4618209E-01;  0.0000000E+00;  7.6302146E-03;  9.9398981E+02;  1.0000388E-01; -4.9793140E+03;3;  6.8587518E-01;  0.0000000E+00; -4.2820911E+00;0; -2.0645492E-01;  3.9477840E+04;  0.0000000E+00;  6.0014453E-02;  4.0000000E+04;  0.0000000E+00;  4.0039773E+04; -2.3121919E-01;  0.0000000E+00;  2.4764268E-02;  5.4996572E+03;
  5.1626378E-01;  9.9999998E-03;  2.3989117E-01;5611; -1.4876643E-01;  0.0000000E+00;  6.4573623E-03;  9.9409705E+02;  1.0000615E-01; -4.8904766E+03;3;  1.3962053E+00;  0.0000000E+00; -4.8282437E+00;0; -2.0667258E-01;  3.9474391E+04;  0.0000000E+00; -5.7954825E-02;  4.0000000E+04;  0.0000000E+00;  4.0050438E+04; -2.3298460E-01;  0.0000000E+00;  2.6312027E-02;  6.8224937E+03;
  5.1624548E-01;  9.9999998E-03;  2.4989377E-01;5612; -1.4866734E-01;  0.0000000E+00;  6.5921657E-03;  9.9398865E+02;  1.0000618E-01; -4.9803013E+03;3;  1.2205914E+00;  0.0000000E+00; -4.8105721E+00;0; -2.0616317E-01;  3.9469227E+04;  0.0000000E+00; -7.7089399E-02;  4.0000000E+04;  0.0000000E+00;  4.0046832E+04; -2.3212400E-01;  0.0000000E+00;  2.5960833E-02;  6.3940571E+03;
  5.1622611E-01;  9.9999998E-03;  2.5989068E-01;5613; -1.4857747E-01;  0.0000000E+00;  6.6328580E-03;  9.9389844E+02;  1.0000620E-01; -5.0550151E+03;3;  1.0577967E+00;  0.0000000E+00; -4.7694712E+00;0; -2.0663385E-01;  3.9464898E+04;  0.0000000E+00; -8.8188022E-02;  4.0000000E+04;  0.0000000E+00;  4.0044074E+04; -2.3125923E-01;  0.0000000E+00;  2.4625380E-02;  6.0399688E+03;
  5.1620579E-01;  9.9999998E-03;  2.6988372E-01;5614; -1.4849547E-01;  0.0000000E+00;  6.7238482E-03;  9.9384766E+02;  1.0000632E-01; -5.0970879E+03;3;  9.0956753E-01;  0.0000000E+00; -4.6890464E+00;0; -2.0726646E-01;  3.9461492E+04;  0.0000000E+00; -8.5810594E-02;  4.0000000E+04;  0.0000000E+00;  4.0043188E+04; -2.3041461E-01;  0.0000000E+00;  2.3148144E-02;  5.9327100E+03;
  5.1619655E-01;  9.9999998E-03;  2.7987644E-01;5615; -1.4841926E-01;  0.0000000E+00;  6.8842745E-03;  9.9381024E+02;  1.0000617E-01; -5.1280996E+03;3;  7.7038312E-01;  0.0000000E+00; -4.5722189E+00;0; -2.0745039E-01;  3.9458633E+04;  0.0000000E+00; -7.3765516E-02;  4.0000000E+04;  0.0000000E+00;  4.0042836E+04; -2.2960705E-01;  0.0000000E+00;  2.2156663E-02;  5.8964141E+03;
  5.1619333E-01;  9.9999998E-03;  2.8986970E-01;5616; -1.4834426E-01;  0.0000000E+00;  7.1144896E-03;  9.9377240E+02;  1.0000617E-01; -5.1594565E+03;3;  6.4137226E-01;  0.0000000E+00; -4.4139414E+00;0; -2.0666638E-01;  3.9456121E+04;  0.0000000E+00; -5.7954960E-02;  4.0000000E+04;  0.0000000E+00;  4.0042352E+04; -2.2885440E-01;  0.0000000E+00;  2.2188026E-02;  5.8452930E+03;
  5.1619518E-01;  9.9999998E-03;  2.9986301E-01;5617; -1.4827572E-01;  0.0000000E+00;  7.4382732E-03;  9.9373895E+02;  1.0000626E-01; -5.1871597E+03;3;  5.2167809E-01;  0.0000000E+00; -4.2215428E+00;0; -2.0420443E-01;  3.9453625E+04;  0.0000000E+00; -4.3569561E-02;  4.0000000E+04;  0.0000000E+00;  4.0042383E+04; -2.2816987E-01;  0.0000000E+00;  2.3965454E-02;  5.8481353E+03;
  5.2628309E-01;  9.9999998E-03;  2.3989131E-01;5672; -1.5108401E-01;  0.0000000E+00;  6.2339767E-03;  9.9373834E+02;  1.0001042E-01; -5.1876528E+03;3;  1.3753742E+00;  0.0000000E+00; -4.7835698E+00;0; -2.0471197E-01;  3.9440379E+04;  0.0000000E+00; -5.0331581E-02;  4.0000000E+04;  0.0000000E+00;  4.0052621E+04; -2.3037253E-01;  0.0000000E+00;  2.5660554E-02;  7.1225596E+03;
  5.2626544E-01;  9.9999998E-03;  2.4989042E-01;5673; -1.5095879E-01;  0.0000000E+00;  6.4005577E-03;  9.9363055E+02;  1.0001062E-01; -5.2769839E+03;3;  1.1721112E+00;  0.0000000E+00; -4.7606936E+00;0; -2.0403664E-01;  3.9433762E+04;  0.0000000E+00; -8.0501102E-02;  4.0000000E+04;  0.0000000E+00;  4.0050637E+04; -2.2942239E-01;  0.0000000E+00;  2.5385752E-02;  6.8885332E+03;
  5.2624357E-01;  9.9999998E-03;  2.5988629E-01;5674; -1.5084329E-01;  0.0000000E+00;  6.4920397E-03;  9.9353839E+02;  1.0001060E-01; -5.3533271E+03;3;  9.8220819E-01;  0.0000000E+00; -4.7170177E+00;0; -2.0402505E-01;  3.9428238E+04;  0.0000000E+00; -1.0205415E-01;  4.0000000E+04;  0.0000000E+00;  4.0048754E+04; -2.2847489E-01;  0.0000000E+00;  2.4449840E-02;  6.6639702E+03;
  5.2621818E-01;  9.9999998E-03;  2.6987976E-01;5675; -1.5073697E-01;  0.0000000E+00;  6.5957182E-03;  9.9347278E+02;  1.0001048E-01; -5.4076963E+03;3;  8.0542690E-01;  0.0000000E+00; -4.6238623E+00;0; -2.0433936E-01;  3.9423781E+04;  0.0000000E+00; -1.0646062E-01;  4.0000000E+04;  0.0000000E+00;  4.0047930E+04; -2.2755614E-01;  0.0000000E+00;  2.3216790E-02;  6.5688076E+03;
  5.2620566E-01;  9.9999998E-03;  2.7987307E-01;5676; -1.5063521E-01;  0.0000000E+00;  6.7306971E-03;  9.9342157E+02;  1.0001054E-01; -5.4501147E+03;3;  6.4016539E-01;  0.0000000E+00; -4.5015607E+00;0; -2.0465760E-01;  3.9420273E+04;  0.0000000E+00; -9.8793432E-02;  4.0000000E+04;  0.0000000E+00;  4.0047340E+04; -2.2668113E-01;  0.0000000E+00;  2.2023525E-02;  6.4971230E+03;
  5.2620703E-01;  9.9999998E-03;  2.8986663E-01;5677; -1.5053380E-01;  0.0000000E+00;  6.9355653E-03;  9.9337811E+02;  1.0001048E-01; -5.4861138E+03;3;  4.8565072E-01;  0.0000000E+00; -4.3341422E+00;0; -2.0409127E-01;  3.9417383E+04;  0.0000000E+00; -8.9392520E-02;  4.0000000E+04;  0.0000000E+00;  4.0046684E+04; -2.2586395E-01;  0.0000000E+00;  2.1772677E-02;  6.4169409E+03;
  5.2621615E-01;  9.9999998E-03;  2.9986012E-01;5678; -1.5043308E-01;  0.0000000E+00;  7.2361929E-03;  9.9334509E+02;  1.0001039E-01; -5.5134707E+03;3;  3.4047556E-01;  0.0000000E+00; -4.1271887E+00;0; -2.0185338E-01;  3.9414887E+04;  0.0000000E+00; -8.3802424E-02;  4.0000000E+04;  0.0000000E+00;  4.0046488E+04; -2.2511522E-01;  0.0000000E+00;  2.3261840E-02;  6.4004141E+03;
  5.3634346E-01;  9.9999998E-03;  2.3989300E-01;5733; -1.5342936E-01;  0.0000000E+00;  5.9516244E-03;  9.9332184E+02;  1.0001750E-01; -5.5327295E+03;3;  1.3492745E+00;  0.0000000E+00; -4.7111464E+00;0; -2.0283206E-01;  3.9400273E+04;  0.0000000E+00; -5.3557195E-02;  4.0000000E+04;  0.0000000E+00;  4.0054266E+04; -2.2759926E-01;  0.0000000E+00;  2.4767211E-02;  7.3697002E+03;
  5.3633058E-01;  9.9999998E-03;  2.4988694E-01;5734; -1.5328449E-01;  0.0000000E+00;  6.1610113E-03;  9.9322272E+02;  1.0001737E-01; -5.6148506E+03;3;  1.1165000E+00;  0.0000000E+00; -4.6853232E+00;0; -2.0198163E-01;  3.9392230E+04;  0.0000000E+00; -8.9667588E-02;  4.0000000E+04;  0.0000000E+00;  4.0054516E+04; -2.2655709E-01;  0.0000000E+00;  2.4575451E-02;  7.4085649E+03;
  5.3630984E-01;  9.9999998E-03;  2.5988108E-01;5735; -1.5314895E-01;  0.0000000E+00;  6.3270470E-03;  9.9313269E+02;  1.0001739E-01; -5.6894165E+03;3;  8.9793867E-01;  0.0000000E+00; -4.6321683E+00;0; -2.0133123E-01;  3.9385543E+04;  0.0000000E+00; -1.1226539E-01;  4.0000000E+04;  0.0000000E+00;  4.0054078E+04; -2.2552641E-01;  0.0000000E+00;  2.4195181E-02;  7.3756792E+03;
  5.3628165E-01;  9.9999998E-03;  2.6987511E-01;5736; -1.5302289E-01;  0.0000000E+00;  6.4535076E-03;  9.9305719E+02;  1.0001741E-01; -5.7519824E+03;3;  6.9101328E-01;  0.0000000E+00; -4.5393357E+00;0; -2.0120817E-01;  3.9379953E+04;  0.0000000E+00; -1.0747470E-01;  4.0000000E+04;  0.0000000E+00;  4.0053473E+04; -2.2453275E-01;  0.0000000E+00;  2.3324586E-02;  7.2947769E+03;
  5.3626710E-01;  9.9999998E-03;  2.7986917E-01;5737; -1.5290266E-01;  0.0000000E+00;  6.5661841E-03;  9.9299249E+02;  1.0001760E-01; -5.8055610E+03;3;  4.9815795E-01;  0.0000000E+00; -4.4086070E+00;0; -2.0159486E-01;  3.9375727E+04;  0.0000000E+00; -8.1716843E-02;  4.0000000E+04;  0.0000000E+00;  4.0052418E+04; -2.2358945E-01;  0.0000000E+00;  2.1994587E-02;  7.1763032E+03;
  5.3627306E-01;  9.9999998E-03;  2.8986314E-01;5738; -1.5278512E-01;  0.0000000E+00;  6.7437575E-03;  9.9294000E+02;  1.0001747E-01; -5.8490659E+03;3;  3.1597599E-01;  0.0000000E+00; -4.2250996E+00;0; -2.0125838E-01;  3.9372469E+04;  0.0000000E+00; -5.7533149E-02;  4.0000000E+04;  0.0000000E+00;  4.0051645E+04; -2.2270557E-01;  0.0000000E+00;  2.1447202E-02;  7.0630835E+03;
  5.3629017E-01;  9.9999998E-03;  2.9985684E-01;5739; -1.5267034E-01;  0.0000000E+00;  7.0177084E-03;  9.9290704E+02;  1.0001730E-01; -5.8763740E+03;3;  1.4353201E-01;  0.0000000E+00; -4.0083756E+00;0; -1.9928995E-01;  3.9370344E+04;  0.0000000E+00; -4.5457520E-02;  4.0000000E+04;  0.0000000E+00;  4.0051141E+04; -2.2188962E-01;  0.0000000E+00;  2.2599662E-02;  7.0202271E+03;
  5.4644740E-01;  9.9999998E-03;  2.3989628E-01;5794; -1.5579815E-01;  0.0000000E+00;  5.6402329E-03;  9.9296277E+02;  1.0002956E-01; -5.8302021E+03;3;  1.3153328E+00;  0.0000000E+00; -4.6136699E+00;0; -2.0077708E-01;  3.9361516E+04;  0.0000000E+00; -6.2909119E-02;  4.0000000E+04;  0.0000000E+00;  4.0054695E+04; -2.2456749E-01;  0.0000000E+00;  2.3790410E-02;  7.4764502E+03;
  5.4644406E-01;  9.9999998E-03;  2.4988419E-01;5795; -1.5564010E-01;  0.0000000E+00;  5.8953655E-03;  9.9288043E+02;  1.0002953E-01; -5.8984468E+03;3;  1.0521083E+00;  0.0000000E+00; -4.5818315E+00;0; -1.9972129E-01;  3.9352680E+04;  0.0000000E+00; -9.8961517E-02;  4.0000000E+04;  0.0000000E+00;  4.0057441E+04; -2.2342208E-01;  0.0000000E+00;  2.3700783E-02;  7.8108638E+03;
  5.4642683E-01;  9.9999998E-03;  2.5987616E-01;5796; -1.5548994E-01;  0.0000000E+00;  6.1434703E-03;  9.9279974E+02;  1.0002952E-01; -5.9652598E+03;3;  8.0123419E-01;  0.0000000E+00; -4.5179176E+00;0; -1.9835261E-01;  3.9345012E+04;  0.0000000E+00; -1.1437168E-01;  4.0000000E+04;  0.0000000E+00;  4.0058652E+04; -2.2229689E-01;  0.0000000E+00;  2.3944294E-02;  7.9908779E+03;
  5.4639965E-01;  9.9999998E-03;  2.6987070E-01;5797; -1.5534878E-01;  0.0000000E+00;  6.2958873E-03;  9.9271497E+02;  1.0002949E-01; -6.0355293E+03;3;  5.6499839E-01;  0.0000000E+00; -4.4277210E+00;0; -1.9772227E-01;  3.9338809E+04;  0.0000000E+00; -8.9851417E-02;  4.0000000E+04;  0.0000000E+00;  4.0058113E+04; -2.2121672E-01;  0.0000000E+00;  2.3494447E-02;  7.9273052E+03;
  5.4638469E-01;  9.9999998E-03;  2.7986559E-01;5798; -1.5521635E-01;  0.0000000E+00;  6.3843331E-03;  9.9264020E+02;  1.0002955E-01; -6.0974536E+03;3;  3.4258285E-01;  0.0000000E+00; -4.2869849E+00;0; -1.9817036E-01;  3.9334027E+04;  0.0000000E+00; -3.3651602E-02;  4.0000000E+04;  0.0000000E+00;  4.0056797E+04; -2.2019303E-01;  0.0000000E+00;  2.2022659E-02;  7.7582017E+03;
  5.4639375E-01;  9.9999998E-03;  2.8986010E-01;5799; -1.5509176E-01;  0.0000000E+00;  6.5317601E-03;  9.9258307E+02;  1.0002948E-01; -6.1447607E+03;3;  1.3197841E-01;  0.0000000E+00; -4.0906792E+00;0; -1.9808038E-01;  3.9330797E+04;  0.0000000E+00;  1.4303504E-02;  4.0000000E+04;  0.0000000E+00;  4.0055504E+04; -2.1923108E-01;  0.0000000E+00;  2.1150712E-02;  7.6057490E+03;
  5.4641670E-01;  9.9999998E-03;  2.9985413E-01;5800; -1.5497917E-01;  0.0000000E+00;  6.7761992E-03;  9.9255328E+02;  1.0002959E-01; -6.1694517E+03;3; -6.9441728E-02;  0.0000000E+00; -3.8683774E+00;0; -1.9640751E-01;  3.9328973E+04;  0.0000000E+00;  3.4365389E-02;  4.0000000E+04;  0.0000000E+00;  4.0054934E+04; -2.1833587E-01;  0.0000000E+00;  2.1928355E-02;  7.5324893E+03;
  5.5659735E-01;  9.9999998E-03;  2.3989952E-01;5855; -1.5817530E-01;  0.0000000E+00;  5.3388276E-03;  9.9275269E+02;  1.0004855E-01; -6.0042695E+03;3;  1.2729455E+00;  0.0000000E+00; -4.4818196E+00;0; -1.9828774E-01;  3.9330125E+04;  0.0000000E+00; -7.2942063E-02;  4.0000000E+04;  0.0000000E+00;  4.0054098E+04; -2.2122854E-01;  0.0000000E+00;  2.2940798E-02;  7.4278965E+03;
  5.5660748E-01;  9.9999998E-03;  2.4988197E-01;5856; -1.5800925E-01;  0.0000000E+00;  5.6330091E-03;  9.9269434E+02;  1.0004877E-01; -6.0526138E+03;3;  9.7838497E-01;  0.0000000E+00; -4.4450383E+00;0; -1.9697025E-01;  3.9321160E+04;  0.0000000E+00; -1.0667802E-01;  4.0000000E+04;  0.0000000E+00;  4.0058688E+04; -2.1995971E-01;  0.0000000E+00;  2.2989446E-02;  8.0169443E+03;
  5.5659753E-01;  9.9999998E-03;  2.5987214E-01;5857; -1.5784845E-01;  0.0000000E+00;  5.9498320E-03;  9.9262891E+02;  1.0004857E-01; -6.1067852E+03;3;  6.9512618E-01;  0.0000000E+00; -4.3742428E+00;0; -1.9490106E-01;  3.9313379E+04;  0.0000000E+00; -1.1694113E-01;  4.0000000E+04;  0.0000000E+00;  4.0061562E+04; -2.1871899E-01;  0.0000000E+00;  2.3817932E-02;  8.3711523E+03;
  5.5657381E-01;  9.9999998E-03;  2.6986730E-01;5858; -1.5769546E-01;  0.0000000E+00;  6.1189178E-03;  9.9254181E+02;  1.0004877E-01; -6.1789805E+03;3;  4.2622951E-01;  0.0000000E+00; -4.2783985E+00;0; -1.9380543E-01;  3.9306902E+04;  0.0000000E+00; -8.0703825E-02;  4.0000000E+04;  0.0000000E+00;  4.0060934E+04; -2.1753103E-01;  0.0000000E+00;  2.3725605E-02;  8.3099717E+03;
  5.5655736E-01;  9.9999998E-03;  2.7986303E-01;5859; -1.5755376E-01;  0.0000000E+00;  6.1824745E-03;  9.9246124E+02;  1.0004848E-01; -6.2456948E+03;3;  1.7457034E-01;  0.0000000E+00; -4.1333218E+00;0; -1.9427724E-01;  3.9302191E+04;  0.0000000E+00; -5.4842168E-03;  4.0000000E+04;  0.0000000E+00;  4.0059230E+04; -2.1640636E-01;  0.0000000E+00;  2.2129117E-02;  8.0965522E+03;
  5.5656797E-01;  9.9999998E-03;  2.8985816E-01;5860; -1.5742882E-01;  0.0000000E+00;  6.2939334E-03;  9.9240442E+02;  1.0004845E-01; -6.2928047E+03;3; -6.5972432E-02;  0.0000000E+00; -3.9277589E+00;0; -1.9449115E-01;  3.9299273E+04;  0.0000000E+00;  4.8577301E-02;  4.0000000E+04;  0.0000000E+00;  4.0057688E+04; -2.1534465E-01;  0.0000000E+00;  2.0853506E-02;  7.9055542E+03;
  5.5659342E-01;  9.9999998E-03;  2.9985264E-01;5861; -1.5733024E-01;  0.0000000E+00;  6.5059043E-03;  9.9237982E+02;  1.0004847E-01; -6.3131494E+03;3; -2.9502261E-01;  0.0000000E+00; -3.6990819E+00;0; -1.9313975E-01;  3.9298262E+04;  0.0000000E+00;  5.7723325E-02;  4.0000000E+04;  0.0000000E+00;  4.0056852E+04; -2.1434902E-01;  0.0000000E+00;  2.1209270E-02;  7.8051348E+03;
  5.6679171E-01;  9.9999998E-03;  2.3990053E-01;5916; -1.6053760E-01;  0.0000000E+00;  5.0824429E-03;  9.9276544E+02;  1.0007975E-01; -5.9937017E+03;3;  1.2250265E+00;  0.0000000E+00; -4.3209381E+00;0; -1.9518501E-01;  3.9307766E+04;  0.0000000E+00; -8.0865882E-02;  4.0000000E+04;  0.0000000E+00;  4.0052500E+04; -2.1760802E-01;  0.0000000E+00;  2.2423014E-02;  7.2501787E+03;
  5.6681991E-01;  9.9999998E-03;  2.4987981E-01;5917; -1.6036649E-01;  0.0000000E+00;  5.4022218E-03;  9.9273242E+02;  1.0007986E-01; -6.0210586E+03;3;  8.9558798E-01;  0.0000000E+00; -4.2739978E+00;0; -1.9351050E-01;  3.9299605E+04;  0.0000000E+00; -1.1976831E-01;  4.0000000E+04;  0.0000000E+00;  4.0058332E+04; -2.1618983E-01;  0.0000000E+00;  2.2679329E-02;  7.9867231E+03;
  5.6682324E-01;  9.9999998E-03;  2.5986934E-01;5918; -1.6019692E-01;  0.0000000E+00;  5.7512918E-03;  9.9268018E+02;  1.0007985E-01; -6.0643169E+03;3;  5.7751006E-01;  0.0000000E+00; -4.1917071E+00;0; -1.9088985E-01;  3.9292328E+04;  0.0000000E+00; -1.4761491E-01;  4.0000000E+04;  0.0000000E+00;  4.0061715E+04; -2.1480617E-01;  0.0000000E+00;  2.3916313E-02;  8.4238320E+03;
  5.6680250E-01;  9.9999998E-03;  2.6986533E-01;5919; -1.6003215E-01;  0.0000000E+00;  5.9145158E-03;  9.9259430E+02;  1.0007992E-01; -6.1354751E+03;3;  2.7768862E-01;  0.0000000E+00; -4.1006680E+00;0; -1.8949027E-01;  3.9286312E+04;  0.0000000E+00; -1.3568847E-01;  4.0000000E+04;  0.0000000E+00;  4.0061020E+04; -2.1348388E-01;  0.0000000E+00;  2.3993606E-02;  8.3428779E+03;
  5.6678182E-01;  9.9999998E-03;  2.7986190E-01;5920; -1.5988161E-01;  0.0000000E+00;  5.9525282E-03;  9.9251562E+02;  1.0007984E-01; -6.2006587E+03;3; -6.2492359E-03;  0.0000000E+00; -3.9501085E+00;0; -1.8995978E-01;  3.9281941E+04;  0.0000000E+00; -8.5424535E-02;  4.0000000E+04;  0.0000000E+00;  4.0058980E+04; -2.1223192E-01;  0.0000000E+00;  2.2272144E-02;  8.0935947E+03;
  5.6678981E-01;  9.9999998E-03;  2.8985780E-01;5921; -1.5975846E-01;  0.0000000E+00;  6.0242820E-03;  9.9246698E+02;  1.0007969E-01; -6.2409536E+03;3; -2.7687329E-01;  0.0000000E+00; -3.7399855E+00;0; -1.9050640E-01;  3.9279961E+04;  0.0000000E+00; -7.1464740E-02;  4.0000000E+04;  0.0000000E+00;  4.0057180E+04; -2.1104448E-01;  0.0000000E+00;  2.0538077E-02;  7.8663687E+03;
  5.6681150E-01;  9.9999998E-03;  2.9985294E-01;5922; -1.5967996E-01;  0.0000000E+00;  6.1976551E-03;  9.9245288E+02;  1.0007991E-01; -6.2526572E+03;3; -5.3569615E-01;  0.0000000E+00; -3.4919240E+00;0; -1.8957178E-01;  3.9280156E+04;  0.0000000E+00; -1.0623609E-01;  4.0000000E+04;  0.0000000E+00;  4.0056148E+04; -2.0992281E-01;  0.0000000E+00;  2.0351019E-02;  7.7406401E+03;
  5.7701361E-01;  9.9999998E-03;  2.3989712E-01;5977; -1.6285662E-01;  0.0000000E+00;  4.8923003E-03;  9.9301587E+02;  1.0013139E-01; -5.7862002E+03;3;  1.1677035E+00;  0.0000000E+00; -4.1210828E+00;0; -1.9144458E-01;  3.9288984E+04;  0.0000000E+00; -8.6661361E-02;  4.0000000E+04;  0.0000000E+00;  4.0050320E+04; -2.1382733E-01;  0.0000000E+00;  2.2382746E-02;  7.0079438E+03;
  5.7705629E-01;  9.9999998E-03;  2.4987711E-01;5978; -1.6267796E-01;  0.0000000E+00;  5.2085309E-03;  9.9299811E+02;  1.0013139E-01; -5.8009160E+03;3;  8.0539668E-01;  0.0000000E+00; -4.0594583E+00;0; -1.8937774E-01;  3.9282137E+04;  0.0000000E+00; -1.4348133E-01;  4.0000000E+04;  0.0000000E+00;  4.0055980E+04; -2.1223994E-01;  0.0000000E+00;  2.2862190E-02;  7.7269824E+03;
  5.7707429E-01;  9.9999998E-03;  2.5986794E-01;5979; -1.6249725E-01;  0.0000000E+00;  5.5355271E-03;  9.9295660E+02;  1.0013117E-01; -5.8353345E+03;3;  4.5254111E-01;  0.0000000E+00; -3.9846122E+00;0; -1.8648902E-01;  3.9276195E+04;  0.0000000E+00; -2.2025740E-01;  4.0000000E+04;  0.0000000E+00;  4.0059137E+04; -2.1068938E-01;  0.0000000E+00;  2.4200361E-02;  8.1104385E+03;
  5.7705814E-01;  9.9999998E-03;  2.6986495E-01;5980; -1.6231902E-01;  0.0000000E+00;  5.6734774E-03;  9.9288092E+02;  1.0013127E-01; -5.8979995E+03;3;  1.2042274E-01;  0.0000000E+00; -3.8901153E+00;0; -1.8494120E-01;  3.9271270E+04;  0.0000000E+00; -2.8387833E-01;  4.0000000E+04;  0.0000000E+00;  4.0058047E+04; -2.0920703E-01;  0.0000000E+00;  2.4265831E-02;  7.9973940E+03;
  5.7703304E-01;  9.9999998E-03;  2.7986237E-01;5981; -1.6215761E-01;  0.0000000E+00;  5.6863977E-03;  9.9281042E+02;  1.0013135E-01; -5.9564175E+03;3; -1.9776444E-01;  0.0000000E+00; -3.7327638E+00;0; -1.8538405E-01;  3.9267953E+04;  0.0000000E+00; -3.2183781E-01;  4.0000000E+04;  0.0000000E+00;  4.0055992E+04; -2.0780158E-01;  0.0000000E+00;  2.2417530E-02;  7.7355938E+03;
  5.7703143E-01;  9.9999998E-03;  2.8985915E-01;5982; -1.6203342E-01;  0.0000000E+00;  5.7182540E-03;  9.9277209E+02;  1.0013096E-01; -5.9881694E+03;3; -4.9964759E-01;  0.0000000E+00; -3.5246949E+00;0; -1.8625236E-01;  3.9267012E+04;  0.0000000E+00; -3.9802665E-01;  4.0000000E+04;  0.0000000E+00;  4.0053902E+04; -2.0646486E-01;  0.0000000E+00;  2.0212496E-02;  7.4959282E+03;
  5.7704186E-01;  9.9999998E-03;  2.9985514E-01;5983; -1.6197363E-01;  0.0000000E+00;  5.8478480E-03;  9.9277191E+02;  1.0013086E-01; -5.9883179E+03;3; -7.9156911E-01;  0.0000000E+00; -3.2584763E+00;0; -1.8581901E-01;  3.9268398E+04;  0.0000000E+00; -5.0992197E-01;  4.0000000E+04;  0.0000000E+00;  4.0052750E+04; -2.0519437E-01;  0.0000000E+00;  1.9375360E-02;  7.3654536E+03;
  5.8722752E-01;  9.9999998E-03;  2.3988964E-01;6038; -1.6510063E-01;  0.0000000E+00;  4.7353865E-03;  9.9343066E+02;  1.0021478E-01; -5.4425557E+03;3;  1.1045835E+00;  0.0000000E+00; -3.8736780E+00;0; -1.8739671E-01;  3.9259113E+04;  0.0000000E+00; -8.6023577E-02;  4.0000000E+04;  0.0000000E+00;  4.0047621E+04; -2.1011291E-01;  0.0000000E+00;  2.2716207E-02;  6.6945640E+03;
  5.8727229E-01;  9.9999998E-03;  2.4987400E-01;6039; -1.6490705E-01;  0.0000000E+00;  5.0133434E-03;  9.9341565E+02;  1.0021477E-01; -5.4549995E+03;3;  7.0674205E-01;  0.0000000E+00; -3.8138700E+00;0; -1.8500657E-01;  3.9253922E+04;  0.0000000E+00; -1.6247462E-01;  4.0000000E+04;  0.0000000E+00;  4.0051914E+04; -2.0835207E-01;  0.0000000E+00;  2.3345497E-02;  7.2457329E+03;
  5.8729345E-01;  9.9999998E-03;  2.5986758E-01;6040; -1.6470844E-01;  0.0000000E+00;  5.2762181E-03;  9.9338251E+02;  1.0021447E-01; -5.4824556E+03;3;  3.2096124E-01;  0.0000000E+00; -3.7390299E+00;0; -1.8213254E-01;  3.9249754E+04;  0.0000000E+00; -2.8862354E-01;  4.0000000E+04;  0.0000000E+00;  4.0053809E+04; -2.0662805E-01;  0.0000000E+00;  2.4495520E-02;  7.4874678E+03;
  5.8728188E-01;  9.9999998E-03;  2.6986563E-01;6041; -1.6451192E-01;  0.0000000E+00;  5.3855502E-03;  9.9332275E+02;  1.0021449E-01; -5.5319849E+03;3; -4.6608839E-02;  0.0000000E+00; -3.6283696E+00;0; -1.8048158E-01;  3.9246371E+04;  0.0000000E+00; -4.4069245E-01;  4.0000000E+04;  0.0000000E+00;  4.0052613E+04; -2.0497197E-01;  0.0000000E+00;  2.4490388E-02;  7.3686567E+03;
  5.8725268E-01;  9.9999998E-03;  2.7986404E-01;6042; -1.6433367E-01;  0.0000000E+00;  5.3791846E-03;  9.9326782E+02;  1.0021434E-01; -5.5774653E+03;3; -3.9827433E-01;  0.0000000E+00; -3.4776211E+00;0; -1.8082155E-01;  3.9244453E+04;  0.0000000E+00; -5.8666325E-01;  4.0000000E+04;  0.0000000E+00;  4.0050641E+04; -2.0339726E-01;  0.0000000E+00;  2.2575708E-02;  7.1315435E+03;
  5.8723795E-01;  9.9999998E-03;  2.8986195E-01;6043; -1.6419998E-01;  0.0000000E+00;  5.3739208E-03;  9.9324432E+02;  1.0021405E-01; -5.5969214E+03;3; -7.3344594E-01;  0.0000000E+00; -3.2793458E+00;0; -1.8197362E-01;  3.9244688E+04;  0.0000000E+00; -7.6328158E-01;  4.0000000E+04;  0.0000000E+00;  4.0048586E+04; -2.0189771E-01;  0.0000000E+00;  1.9924091E-02;  6.9138418E+03;
  5.8723265E-01;  9.9999998E-03;  2.9985902E-01;6044; -1.6414812E-01;  0.0000000E+00;  5.4608788E-03;  9.9325909E+02;  1.0021381E-01; -5.5847241E+03;3; -1.0584462E+00;  0.0000000E+00; -3.0107002E+00;0; -1.8202791E-01;  3.9247293E+04;  0.0000000E+00; -9.5846081E-01;  4.0000000E+04;  0.0000000E+00;  4.0047348E+04; -2.0046614E-01;  0.0000000E+00;  1.8438229E-02;  6.8180513E+03;
  5.9738690E-01;  9.9999998E-03;  2.3988293E-01;6099; -1.6724214E-01;  0.0000000E+00;  4.5216847E-03;  9.9388196E+02;  1.0034949E-01; -5.0686895E+03;3;  1.0353075E+00;  0.0000000E+00; -3.5880313E+00;0; -1.8372034E-01;  3.9194742E+04;  0.0000000E+00; -6.2886305E-02;  4.0000000E+04;  0.0000000E+00;  4.0042566E+04; -2.0677371E-01;  0.0000000E+00;  2.3053372E-02;  6.1504883E+03;
  5.9742433E-01;  9.9999998E-03;  2.4987192E-01;6100; -1.6702457E-01;  0.0000000E+00;  4.7465670E-03;  9.9386890E+02;  1.0034920E-01; -5.0795039E+03;3;  6.0240114E-01;  0.0000000E+00; -3.5321395E+00;0; -1.8113293E-01;  3.9191289E+04;  0.0000000E+00; -1.3821545E-01;  4.0000000E+04;  0.0000000E+00;  4.0045449E+04; -2.0485593E-01;  0.0000000E+00;  2.3723008E-02;  6.5171431E+03;
  5.9743816E-01;  9.9999998E-03;  2.5986773E-01;6101; -1.6679920E-01;  0.0000000E+00;  4.9530743E-03;  9.9384613E+02;  1.0034929E-01; -5.0983672E+03;3;  1.8308179E-01;  0.0000000E+00; -3.4529836E+00;0; -1.7828321E-01;  3.9188621E+04;  0.0000000E+00; -2.7371895E-01;  4.0000000E+04;  0.0000000E+00;  4.0046750E+04; -2.0297278E-01;  0.0000000E+00;  2.4689564E-02;  6.6764609E+03;
  5.9742147E-01;  9.9999998E-03;  2.6986679E-01;6102; -1.6657437E-01;  0.0000000E+00;  5.0529055E-03;  9.9380798E+02;  1.0034879E-01; -5.1299712E+03;3; -2.1922512E-01;  0.0000000E+00; -3.3343582E+00;0; -1.7637549E-01;  3.9186812E+04;  0.0000000E+00; -4.5079544E-01;  4.0000000E+04;  0.0000000E+00;  4.0045875E+04; -2.0115338E-01;  0.0000000E+00;  2.4777889E-02;  6.6004121E+03;
  5.9738779E-01;  9.9999998E-03;  2.7986658E-01;6103; -1.6636813E-01;  0.0000000E+00;  5.0332546E-03;  9.9377570E+02;  1.0034849E-01; -5.1566865E+03;3; -6.0543156E-01;  0.0000000E+00; -3.1886022E+00;0; -1.7655273E-01;  3.9186277E+04;  0.0000000E+00; -6.4103264E-01;  4.0000000E+04;  0.0000000E+00;  4.0044051E+04; -1.9941412E-01;  0.0000000E+00;  2.2861386E-02;  6.3956128E+03;
  5.9736031E-01;  9.9999998E-03;  2.8986585E-01;6104; -1.6620900E-01;  0.0000000E+00;  4.9968609E-03;  9.9376672E+02;  1.0034816E-01; -5.1641431E+03;3; -9.7444355E-01;  0.0000000E+00; -2.9940810E+00;0; -1.7791857E-01;  3.9187887E+04;  0.0000000E+00; -8.5242021E-01;  4.0000000E+04;  0.0000000E+00;  4.0042121E+04; -1.9775672E-01;  0.0000000E+00;  1.9838149E-02;  6.2095317E+03;
  5.9733886E-01;  9.9999998E-03;  2.9986423E-01;6105; -1.6614197E-01;  0.0000000E+00;  5.0447052E-03;  9.9379370E+02;  1.0034749E-01; -5.1417734E+03;3; -1.3312777E+00;  0.0000000E+00; -2.7495689E+00;0; -1.7841715E-01;  3.9191484E+04;  0.0000000E+00; -1.0680532E+00;  4.0000000E+04;  0.0000000E+00;  4.0041078E+04; -1.9617358E-01;  0.0000000E+00;  1.7756425E-02;  6.1500142E+03;
  6.0746604E-01;  9.9999998E-03;  2.3987679E-01;6160; -1.6926527E-01;  0.0000000E+00;  4.2289807E-03;  9.9427057E+02;  1.0056426E-01; -4.7467222E+03;3;  9.5998889E-01;  0.0000000E+00; -3.2763293E+00;0; -1.8082325E-01;  3.9065480E+04;  0.0000000E+00; -2.7770423E-03;  4.0000000E+04;  0.0000000E+00;  4.0036152E+04; -2.0415208E-01;  0.0000000E+00;  2.3328831E-02;  5.4899360E+03;
  6.0749322E-01;  9.9999998E-03;  2.4986948E-01;6161; -1.6901565E-01;  0.0000000E+00;  4.4139051E-03;  9.9426257E+02;  1.0056369E-01; -4.7533394E+03;3;  4.9224415E-01;  0.0000000E+00; -3.2095685E+00;0; -1.7803350E-01;  3.9063195E+04;  0.0000000E+00; -4.2459872E-02;  4.0000000E+04;  0.0000000E+00;  4.0038176E+04; -2.0211732E-01;  0.0000000E+00;  2.4083819E-02;  5.7519932E+03;
  6.0749781E-01;  9.9999998E-03;  2.5986740E-01;6162; -1.6875483E-01;  0.0000000E+00;  4.5903558E-03;  9.9425403E+02;  1.0056348E-01; -4.7604009E+03;3;  3.8984105E-02;  0.0000000E+00; -3.1155729E+00;0; -1.7504266E-01;  3.9062039E+04;  0.0000000E+00; -1.3338445E-01;  4.0000000E+04;  0.0000000E+00;  4.0039348E+04; -2.0011097E-01;  0.0000000E+00;  2.5068309E-02;  5.8941909E+03;
  6.0747695E-01;  9.9999998E-03;  2.6986811E-01;6163; -1.6849034E-01;  0.0000000E+00;  4.6882825E-03;  9.9423889E+02;  1.0056274E-01; -4.7729434E+03;3; -3.9564869E-01;  0.0000000E+00; -3.0168481E+00;0; -1.7278826E-01;  3.9061797E+04;  0.0000000E+00; -2.6619396E-01;  4.0000000E+04;  0.0000000E+00;  4.0039004E+04; -1.9816127E-01;  0.0000000E+00;  2.5373004E-02;  5.8563984E+03;
  6.0744214E-01;  9.9999998E-03;  2.7986977E-01;6164; -1.6824061E-01;  0.0000000E+00;  4.6513937E-03;  9.9422400E+02;  1.0056198E-01; -4.7852886E+03;3; -8.1601971E-01;  0.0000000E+00; -2.8729885E+00;0; -1.7286465E-01;  3.9062828E+04;  0.0000000E+00; -4.2271939E-01;  4.0000000E+04;  0.0000000E+00;  4.0037277E+04; -1.9628793E-01;  0.0000000E+00;  2.3423292E-02;  5.6625698E+03;
  6.0740823E-01;  9.9999998E-03;  2.8987080E-01;6165; -1.6803414E-01;  0.0000000E+00;  4.5873709E-03;  9.9422992E+02;  1.0056148E-01; -4.7803999E+03;3; -1.2191582E+00;  0.0000000E+00; -2.6876445E+00;0; -1.7441528E-01;  3.9065555E+04;  0.0000000E+00; -5.9314275E-01;  4.0000000E+04;  0.0000000E+00;  4.0035473E+04; -1.9450264E-01;  0.0000000E+00;  2.0087363E-02;  5.4793164E+03;
  6.0737717E-01;  9.9999998E-03;  2.9987070E-01;6166; -1.6791838E-01;  0.0000000E+00;  4.6030814E-03;  9.9426361E+02;  1.0056042E-01; -4.7524995E+03;3; -1.6117042E+00;  0.0000000E+00; -2.4510443E+00;0; -1.7530233E-01;  3.9070105E+04;  0.0000000E+00; -7.5333416E-01;  4.0000000E+04;  0.0000000E+00;  4.0034863E+04; -1.9280319E-01;  0.0000000E+00;  1.7500870E-02;  5.4256958E+03;
  6.1749005E-01;  9.9999998E-03;  2.3986319E-01;6221; -1.7117502E-01;  0.0000000E+00;  3.9331317E-03;  9.9459967E+02;  1.0089970E-01; -4.4740376E+03;3;  8.7455434E-01;  0.0000000E+00; -2.9057913E+00;0; -1.7865598E-01;  3.8837473E+04;  0.0000000E+00;  7.9642542E-02;  4.0000000E+04;  0.0000000E+00;  4.0031938E+04; -2.0256530E-01;  0.0000000E+00;  2.3909317E-02;  5.2130913E+03;
  6.1750621E-01;  9.9999998E-03;  2.4986281E-01;6222; -1.7088462E-01;  0.0000000E+00;  4.1082916E-03;  9.9458923E+02;  1.0089895E-01; -4.4827285E+03;3;  3.7641644E-01;  0.0000000E+00; -2.8384755E+00;0; -1.7539167E-01;  3.8836105E+04;  0.0000000E+00;  9.4217010E-02;  4.0000000E+04;  0.0000000E+00;  4.0032996E+04; -2.0048013E-01;  0.0000000E+00;  2.5088454E-02;  5.3575522E+03;
  6.1750573E-01;  9.9999998E-03;  2.5986594E-01;6223; -1.7057985E-01;  0.0000000E+00;  4.2423448E-03;  9.9458154E+02;  1.0089819E-01; -4.4890986E+03;3; -1.0821825E-01;  0.0000000E+00; -2.7593625E+00;0; -1.7220074E-01;  3.8836125E+04;  0.0000000E+00;  7.0041113E-02;  4.0000000E+04;  0.0000000E+00;  4.0033238E+04; -1.9841360E-01;  0.0000000E+00;  2.6212858E-02;  5.3717124E+03;
  6.1748332E-01;  9.9999998E-03;  2.6987010E-01;6224; -1.7026371E-01;  0.0000000E+00;  4.2986707E-03;  9.9457538E+02;  1.0089751E-01; -4.4941851E+03;3; -5.7915193E-01;  0.0000000E+00; -2.6536453E+00;0; -1.6994601E-01;  3.8837164E+04;  0.0000000E+00;  1.0471947E-02;  4.0000000E+04;  0.0000000E+00;  4.0032344E+04; -1.9639458E-01;  0.0000000E+00;  2.6448561E-02;  5.2711572E+03;
  6.1744666E-01;  9.9999998E-03;  2.7987429E-01;6225; -1.6995221E-01;  0.0000000E+00;  4.2282934E-03;  9.9457025E+02;  1.0089610E-01; -4.4984316E+03;3; -1.0311680E+00;  0.0000000E+00; -2.5254209E+00;0; -1.7015055E-01;  3.8839578E+04;  0.0000000E+00; -6.9675714E-02;  4.0000000E+04;  0.0000000E+00;  4.0030637E+04; -1.9444808E-01;  0.0000000E+00;  2.4297541E-02;  5.0590347E+03;
  6.1740893E-01;  9.9999998E-03;  2.8987736E-01;6226; -1.6967265E-01;  0.0000000E+00;  4.1418434E-03;  9.9458337E+02;  1.0089499E-01; -4.4875679E+03;3; -1.4693184E+00;  0.0000000E+00; -2.3380964E+00;0; -1.7187762E-01;  3.8843660E+04;  0.0000000E+00; -1.5791608E-01;  4.0000000E+04;  0.0000000E+00;  4.0029188E+04; -1.9259533E-01;  0.0000000E+00;  2.0717710E-02;  4.8800581E+03;
  6.1737257E-01;  9.9999998E-03;  2.9987901E-01;6227; -1.6946828E-01;  0.0000000E+00;  4.1310382E-03;  9.9462488E+02;  1.0089329E-01; -4.4531987E+03;3; -1.8961629E+00;  0.0000000E+00; -2.1153064E+00;0; -1.7313460E-01;  3.8848797E+04;  0.0000000E+00; -2.1963330E-01;  4.0000000E+04;  0.0000000E+00;  4.0028914E+04; -1.9084491E-01;  0.0000000E+00;  1.7710313E-02;  4.8221421E+03;
  6.2747657E-01;  9.9999998E-03;  2.3984519E-01;6282; -1.7299221E-01;  0.0000000E+00;  3.6227207E-03;  9.9491699E+02;  1.0140960E-01; -4.2111802E+03;3;  7.8522557E-01;  0.0000000E+00; -2.4995332E+00;0; -1.7752410E-01;  3.8476262E+04;  0.0000000E+00;  1.5935647E-01;  4.0000000E+04;  0.0000000E+00;  4.0029645E+04; -2.0227349E-01;  0.0000000E+00;  2.4749387E-02;  5.3325474E+03;
  6.2748188E-01;  9.9999998E-03;  2.4985509E-01;6283; -1.7265210E-01;  0.0000000E+00;  3.8076646E-03;  9.9489325E+02;  1.0140868E-01; -4.2308335E+03;3;  2.5377077E-01;  0.0000000E+00; -2.4296012E+00;0; -1.7361256E-01;  3.8475531E+04;  0.0000000E+00;  2.2149108E-01;  4.0000000E+04;  0.0000000E+00;  4.0029285E+04; -2.0023276E-01;  0.0000000E+00;  2.6620187E-02;  5.2944438E+03;
  6.2747526E-01;  9.9999998E-03;  2.5986624E-01;6284; -1.7229109E-01;  0.0000000E+00;  3.8712421E-03;  9.9486365E+02;  1.0140751E-01; -4.2553760E+03;3; -2.6433596E-01;  0.0000000E+00; -2.3523896E+00;0; -1.7037982E-01;  3.8476137E+04;  0.0000000E+00;  2.5530195E-01;  4.0000000E+04;  0.0000000E+00;  4.0027168E+04; -1.9819993E-01;  0.0000000E+00;  2.7820118E-02;  5.0447871E+03;
  6.2745053E-01;  9.9999998E-03;  2.6987487E-01;6285; -1.7190972E-01;  0.0000000E+00;  3.8567930E-03;  9.9485089E+02;  1.0140579E-01; -4.2659438E+03;3; -7.6355451E-01;  0.0000000E+00; -2.2666450E+00;0; -1.6843660E-01;  3.8478336E+04;  0.0000000E+00;  2.5482166E-01;  4.0000000E+04;  0.0000000E+00;  4.0025391E+04; -1.9620228E-01;  0.0000000E+00;  2.7765673E-02;  4.8140459E+03;
  6.2741095E-01;  9.9999998E-03;  2.7988178E-01;6286; -1.7151916E-01;  0.0000000E+00;  3.7588344E-03;  9.9485132E+02;  1.0140418E-01; -4.2655981E+03;3; -1.2507427E+00;  0.0000000E+00; -2.1393199E+00;0; -1.6876845E-01;  3.8481879E+04;  0.0000000E+00;  2.3515683E-01;  4.0000000E+04;  0.0000000E+00;  4.0023594E+04; -1.9426988E-01;  0.0000000E+00;  2.5501434E-02;  4.5876582E+03;
  6.2736928E-01;  9.9999998E-03;  2.8988695E-01;6287; -1.7114143E-01;  0.0000000E+00;  3.6580348E-03;  9.9486774E+02;  1.0140157E-01; -4.2519688E+03;3; -1.7239805E+00;  0.0000000E+00; -1.9593686E+00;0; -1.7062169E-01;  3.8486562E+04;  0.0000000E+00;  2.1719918E-01;  4.0000000E+04;  0.0000000E+00;  4.0022316E+04; -1.9243568E-01;  0.0000000E+00;  2.1813991E-02;  4.4322612E+03;
  6.2732589E-01;  9.9999998E-03;  2.9989037E-01;6288; -1.7080781E-01;  0.0000000E+00;  3.6262560E-03;  9.9490387E+02;  1.0139902E-01; -4.2220439E+03;3; -2.1872513E+00;  0.0000000E+00; -1.7349879E+00;0; -1.7227791E-01;  3.8492227E+04;  0.0000000E+00;  2.5029251E-01;  4.0000000E+04;  0.0000000E+00;  4.0022328E+04; -1.9072205E-01;  0.0000000E+00;  1.8444130E-02;  4.4138271E+03;
  6.3742381E-01;  9.9999998E-03;  2.3983462E-01;6343; -1.7474721E-01;  0.0000000E+00;  3.2125148E-03;  9.9529242E+02;  1.0215342E-01; -3.9001262E+03;3;  6.8567544E-01;  0.0000000E+00; -2.0610619E+00;0; -1.7798622E-01;  3.7950574E+04;  0.0000000E+00;  2.0726843E-01;  4.0000000E+04;  0.0000000E+00;  4.0025883E+04; -2.0342270E-01;  0.0000000E+00;  2.5436481E-02;  5.4666050E+03;
  6.3741660E-01;  9.9999998E-03;  2.4985403E-01;6344; -1.7434669E-01;  0.0000000E+00;  3.4132625E-03;  9.9524530E+02;  1.0215217E-01; -3.9391868E+03;3;  1.2537688E-01;  0.0000000E+00; -1.9921631E+00;0; -1.7352065E-01;  3.7949984E+04;  0.0000000E+00;  2.8042677E-01;  4.0000000E+04;  0.0000000E+00;  4.0023992E+04; -2.0154724E-01;  0.0000000E+00;  2.8026583E-02;  5.2282852E+03;
  6.3740104E-01;  9.9999998E-03;  2.5987262E-01;6345; -1.7391837E-01;  0.0000000E+00;  3.4139461E-03;  9.9518628E+02;  1.0215039E-01; -3.9880742E+03;3; -4.2083424E-01;  0.0000000E+00; -1.9236330E+00;0; -1.7032143E-01;  3.7951180E+04;  0.0000000E+00;  3.1409726E-01;  4.0000000E+04;  0.0000000E+00;  4.0019555E+04; -1.9966729E-01;  0.0000000E+00;  2.9345863E-02;  4.6883911E+03;
  6.3737208E-01;  9.9999998E-03;  2.6988512E-01;6346; -1.7345962E-01;  0.0000000E+00;  3.3443114E-03;  9.9515826E+02;  1.0214785E-01; -4.0112834E+03;3; -9.5431834E-01;  0.0000000E+00; -1.8347523E+00;0; -1.6866548E-01;  3.7953793E+04;  0.0000000E+00;  2.9307276E-01;  4.0000000E+04;  0.0000000E+00;  4.0016734E+04; -1.9780700E-01;  0.0000000E+00;  2.9141521E-02;  4.3272471E+03;
  6.3733047E-01;  9.9999998E-03;  2.7989432E-01;6347; -1.7297608E-01;  0.0000000E+00;  3.2375637E-03;  9.9515717E+02;  1.0214505E-01; -4.0121721E+03;3; -1.4734936E+00;  0.0000000E+00; -1.7125005E+00;0; -1.6898155E-01;  3.7958051E+04;  0.0000000E+00;  2.2740552E-01;  4.0000000E+04;  0.0000000E+00;  4.0014871E+04; -1.9599879E-01;  0.0000000E+00;  2.7017243E-02;  4.0891824E+03;
  6.3728470E-01;  9.9999998E-03;  2.8990138E-01;6348; -1.7247914E-01;  0.0000000E+00;  3.1328993E-03;  9.9516974E+02;  1.0214166E-01; -4.0017527E+03;3; -1.9818811E+00;  0.0000000E+00; -1.5282036E+00;0; -1.7090067E-01;  3.7963180E+04;  0.0000000E+00;  1.6217539E-01;  4.0000000E+04;  0.0000000E+00;  4.0013801E+04; -1.9428580E-01;  0.0000000E+00;  2.3385122E-02;  3.9513457E+03;
  6.3723224E-01;  9.9999998E-03;  2.9990652E-01;6349; -1.7198171E-01;  0.0000000E+00;  3.0861977E-03;  9.9519635E+02;  1.0213718E-01; -3.9797288E+03;3; -2.4805169E+00;  0.0000000E+00; -1.3019056E+00;0; -1.7296775E-01;  3.7969262E+04;  0.0000000E+00;  1.7733562E-01;  4.0000000E+04;  0.0000000E+00;  4.0014000E+04; -1.9270451E-01;  0.0000000E+00;  1.9736769E-02;  3.9579639E+03;
  6.4734221E-01;  9.9999998E-03;  2.3983958E-01;6404; -1.7648049E-01;  0.0000000E+00;  2.6583050E-03;  9.9579083E+02;  1.0318337E-01; -3.4871995E+03;3;  5.7736760E-01;  0.0000000E+00; -1.5941668E+00;0; -1.8027993E-01;  3.7238492E+04;  0.0000000E+00;  1.7999895E-01;  4.0000000E+04;  0.0000000E+00;  4.0019000E+04; -2.0600949E-01;  0.0000000E+00;  2.5729561E-02;  5.3921826E+03;
  6.4732450E-01;  9.9999998E-03;  2.4986513E-01;6405; -1.7601134E-01;  0.0000000E+00;  2.8728573E-03;  9.9571783E+02;  1.0318148E-01; -3.5476914E+03;3; -1.1916831E-02;  0.0000000E+00; -1.5178204E+00;0; -1.7549720E-01;  3.7237891E+04;  0.0000000E+00;  1.8191148E-01;  4.0000000E+04;  0.0000000E+00;  4.0015293E+04; -2.0443876E-01;  0.0000000E+00;  2.8941553E-02;  4.9484800E+03;
  6.4729935E-01;  9.9999998E-03;  2.5988823E-01;6406; -1.7550606E-01;  0.0000000E+00;  2.8405641E-03;  9.9562860E+02;  1.0317893E-01; -3.6216150E+03;3; -5.8674473E-01;  0.0000000E+00; -1.4483234E+00;0; -1.7233449E-01;  3.7238977E+04;  0.0000000E+00;  8.2636766E-02;  4.0000000E+04;  0.0000000E+00;  4.0009039E+04; -2.0284779E-01;  0.0000000E+00;  3.0513303E-02;  4.1735435E+03;
  6.4726496E-01;  9.9999998E-03;  2.6990312E-01;6407; -1.7496197E-01;  0.0000000E+00;  2.7455811E-03;  9.9558392E+02;  1.0317587E-01; -3.6586016E+03;3; -1.1506386E+00;  0.0000000E+00; -1.3558627E+00;0; -1.7084065E-01;  3.7241941E+04;  0.0000000E+00; -1.4864361E-01;  4.0000000E+04;  0.0000000E+00;  4.0005277E+04; -2.0125660E-01;  0.0000000E+00;  3.0415950E-02;  3.7095430E+03;
  6.4722204E-01;  9.9999998E-03;  2.7991384E-01;6408; -1.7437562E-01;  0.0000000E+00;  2.6495017E-03;  9.9557458E+02;  1.0317223E-01; -3.6663545E+03;3; -1.7026042E+00;  0.0000000E+00; -1.2354505E+00;0; -1.7102356E-01;  3.7246480E+04;  0.0000000E+00; -4.9683043E-01;  4.0000000E+04;  0.0000000E+00;  4.0003426E+04; -1.9969809E-01;  0.0000000E+00;  2.8674524E-02;  3.5424199E+03;
  6.4717340E-01;  9.9999998E-03;  2.8992245E-01;6409; -1.7374320E-01;  0.0000000E+00;  2.5493575E-03;  9.9557703E+02;  1.0316717E-01; -3.6643298E+03;3; -2.2441707E+00;  0.0000000E+00; -1.0499461E+00;0; -1.7299800E-01;  3.7252113E+04;  0.0000000E+00; -8.7644774E-01;  4.0000000E+04;  0.0000000E+00;  4.0002383E+04; -1.9821976E-01;  0.0000000E+00;  2.5221771E-02;  3.5864272E+03;
  6.4711261E-01;  9.9999998E-03;  2.9992911E-01;6410; -1.7305426E-01;  0.0000000E+00;  2.4950411E-03;  9.9558868E+02;  1.0316069E-01; -3.6547004E+03;3; -2.7755661E+00;  0.0000000E+00; -8.2523096E-01;0; -1.7546433E-01;  3.7258852E+04;  0.0000000E+00; -1.1523466E+00;  4.0000000E+04;  0.0000000E+00;  4.0002590E+04; -1.9686633E-01;  0.0000000E+00;  2.1402003E-02;  3.7741702E+03;
  6.5700614E-01;  9.9999998E-03;  2.9995862E-01;6471; -1.7409813E-01;  0.0000000E+00;  1.8489870E-03;  9.9605243E+02;  1.0449880E-01; -3.2704641E+03;3; -3.0745411E+00;  0.0000000E+00; -3.1007671E-01;0; -1.7963490E-01;  3.6353348E+04;  0.0000000E+00; -4.2310519E+00;  4.0000000E+04;  0.0000000E+00;  3.9988379E+04; -2.0309654E-01;  0.0000000E+00;  2.3461634E-02;  7.0618984E+03;
  6.5725321E-01;  9.9999998E-03;  2.3986001E-01;6465; -1.7823909E-01;  0.0000000E+00;  1.9335602E-03;  9.9635181E+02;  1.0452638E-01; -3.0224719E+03;3;  4.5688280E-01;  0.0000000E+00; -1.1043302E+00;0; -1.8441772E-01;  3.6331641E+04;  0.0000000E+00;  3.8395211E-02;  4.0000000E+04;  0.0000000E+00;  4.0009156E+04; -2.0986742E-01;  0.0000000E+00;  2.5449688E-02;  5.2285981E+03;
  6.5722758E-01;  9.9999998E-03;  2.4988803E-01;6466; -1.7769864E-01;  0.0000000E+00;  2.1798818E-03;  9.9625690E+02;  1.0452498E-01; -3.1010867E+03;3; -1.5993068E-01;  0.0000000E+00; -1.0100899E+00;0; -1.7947495E-01;  3.6330914E+04;  0.0000000E+00; -1.5074933E-01;  4.0000000E+04;  0.0000000E+00;  4.0004320E+04; -2.0875172E-01;  0.0000000E+00;  2.9276779E-02;  4.6323438E+03;
  6.5706950E-01;  9.9999998E-03;  2.8995052E-01;6470; -1.7500319E-01;  0.0000000E+00;  1.9053476E-03;  9.9604840E+02;  1.0450749E-01; -3.2738220E+03;3; -2.5100038E+00;  0.0000000E+00; -5.3684366E-01;0; -1.7677344E-01;  3.6345512E+04;  0.0000000E+00; -3.3074017E+00;  4.0000000E+04;  0.0000000E+00;  3.9988438E+04; -2.0412685E-01;  0.0000000E+00;  2.7353406E-02;  5.7807949E+03;
  6.5719420E-01;  9.9999998E-03;  2.5991282E-01;6467; -1.7711355E-01;  0.0000000E+00;  2.1640030E-03;  9.9614392E+02;  1.0452216E-01; -3.1946641E+03;3; -7.6471245E-01;  0.0000000E+00; -9.2829984E-01;0; -1.7618240E-01;  3.6332047E+04;  0.0000000E+00; -5.7448095E-01;  4.0000000E+04;  0.0000000E+00;  3.9996984E+04; -2.0759784E-01;  0.0000000E+00;  3.1415436E-02;  3.8261396E+03;
  6.5715688E-01;  9.9999998E-03;  2.6992899E-01;6468; -1.7648028E-01;  0.0000000E+00;  2.0715564E-03;  9.9608051E+02;  1.0451843E-01; -3.2472056E+03;3; -1.3543601E+00;  0.0000000E+00; -8.4284246E-01;0; -1.7469721E-01;  3.6334945E+04;  0.0000000E+00; -1.2857414E+00;  4.0000000E+04;  0.0000000E+00;  3.9992125E+04; -2.0642096E-01;  0.0000000E+00;  3.1723756E-02;  3.7233821E+03;
  6.5711659E-01;  9.9999998E-03;  2.7994066E-01;6469; -1.7578474E-01;  0.0000000E+00;  1.9948529E-03;  9.9605530E+02;  1.0451345E-01; -3.2680938E+03;3; -1.9369977E+00;  0.0000000E+00; -7.1651179E-01;0; -1.7474246E-01;  3.6339441E+04;  0.0000000E+00; -2.2474637E+00;  4.0000000E+04;  0.0000000E+00;  3.9989941E+04; -2.0524998E-01;  0.0000000E+00;  3.0507520E-02;  4.5063672E+03;
  6.6695219E-01;  9.9999998E-03;  2.9999384E-01;6532; -1.7521049E-01;  0.0000000E+00;  1.1470929E-03;  9.9636969E+02;  1.0614891E-01; -3.0076067E+03;3; -3.3854451E+00;  0.0000000E+00;  2.8662047E-01;0; -1.8513621E-01;  3.5260695E+04;  0.0000000E+00; -8.9963331E+00;  4.0000000E+04;  0.0000000E+00;  3.9973473E+04; -2.1107174E-01;  0.0000000E+00;  2.5935531E-02;  1.4470698E+04;
  6.6718835E-01;  9.9999998E-03;  2.3989113E-01;6526; -1.8008843E-01;  0.0000000E+00;  9.9947467E-04;  9.9672589E+02;  1.0617667E-01; -2.7125051E+03;3;  3.2115605E-01;  0.0000000E+00; -6.0251826E-01;0; -1.9031449E-01;  3.5237551E+04;  0.0000000E+00; -2.3364262E-01;  4.0000000E+04;  0.0000000E+00;  3.9999059E+04; -2.1465667E-01;  0.0000000E+00;  2.4342176E-02;  5.2865698E+03;
  6.6701359E-01;  9.9999998E-03;  2.8998426E-01;6531; -1.7635268E-01;  0.0000000E+00;  1.2035207E-03;  9.9636389E+02;  1.0615923E-01; -3.0124460E+03;3; -2.7911758E+00;  0.0000000E+00;  5.8168404E-02;0; -1.8185298E-01;  3.5250914E+04;  0.0000000E+00; -7.1026115E+00;  4.0000000E+04;  0.0000000E+00;  3.9974586E+04; -2.1168798E-01;  0.0000000E+00;  2.9835002E-02;  1.1556379E+04;
  6.6715604E-01;  9.9999998E-03;  2.4991809E-01;6527; -1.7948084E-01;  0.0000000E+00;  1.3260834E-03;  9.9662415E+02;  1.0617597E-01; -2.7967986E+03;3; -3.2385936E-01;  0.0000000E+00; -4.7037739E-01;0; -1.8524311E-01;  3.5236648E+04;  0.0000000E+00; -7.4542046E-01;  4.0000000E+04;  0.0000000E+00;  3.9994004E+04; -2.1414757E-01;  0.0000000E+00;  2.8904455E-02;  4.8123618E+03;
  6.6708475E-01;  9.9999998E-03;  2.6996040E-01;6529; -1.7809926E-01;  0.0000000E+00;  1.3234048E-03;  9.9642108E+02;  1.0617026E-01; -2.9650400E+03;3; -1.5760543E+00;  0.0000000E+00; -2.7613163E-01;0; -1.7993093E-01;  3.5240297E+04;  0.0000000E+00; -3.1437788E+00;  4.0000000E+04;  0.0000000E+00;  3.9980145E+04; -2.1297166E-01;  0.0000000E+00;  3.3040725E-02;  5.8689878E+03;
  6.6711831E-01;  9.9999998E-03;  2.5994310E-01;6528; -1.7881958E-01;  0.0000000E+00;  1.3844107E-03;  9.9650494E+02;  1.0617402E-01; -2.8955608E+03;3; -9.5506096E-01;  0.0000000E+00; -3.7617937E-01;0; -1.8158257E-01;  3.5237844E+04;  0.0000000E+00; -1.6907089E+00;  4.0000000E+04;  0.0000000E+00;  3.9986000E+04; -2.1358259E-01;  0.0000000E+00;  3.2000013E-02;  4.5929961E+03;
  6.6705632E-01;  9.9999998E-03;  2.7997318E-01;6530; -1.7729354E-01;  0.0000000E+00;  1.2756371E-03;  9.9637921E+02;  1.0616629E-01; -2.9997551E+03;3; -2.1881821E+00;  0.0000000E+00; -1.3281381E-01;0; -1.7979294E-01;  3.5244254E+04;  0.0000000E+00; -5.0186634E+00;  4.0000000E+04;  0.0000000E+00;  3.9976887E+04; -2.1233393E-01;  0.0000000E+00;  3.2540984E-02;  8.4355195E+03;
  6.7718780E-01;  9.9999998E-03;  2.3992649E-01;6587; -1.8210602E-01;  0.0000000E+00; -1.9371875E-04;  9.9662183E+02;  1.0810961E-01; -2.7987227E+03;3;  1.6479556E-01;  0.0000000E+00; -1.2791160E-01;0; -1.9765681E-01;  3.3979176E+04;  0.0000000E+00; -6.1452430E-01;  4.0000000E+04;  0.0000000E+00;  3.9990918E+04; -2.1974441E-01;  0.0000000E+00;  2.2087598E-02;  5.9173936E+03;
  6.7715442E-01;  9.9999998E-03;  2.4995062E-01;6588; -1.8144661E-01;  0.0000000E+00;  2.6184125E-04;  9.9654346E+02;  1.0811058E-01; -2.8636587E+03;3; -5.0688761E-01;  0.0000000E+00;  5.8488093E-02;0; -1.9255164E-01;  3.3978551E+04;  0.0000000E+00; -1.5429957E+00;  4.0000000E+04;  0.0000000E+00;  3.9987004E+04; -2.1995838E-01;  0.0000000E+00;  2.7406735E-02;  5.9615439E+03;
  6.7712647E-01;  9.9999998E-03;  2.5997543E-01;6589; -1.8072549E-01;  0.0000000E+00;  4.7404191E-04;  9.9642816E+02;  1.0811070E-01; -2.9592112E+03;3; -1.1700425E+00;  0.0000000E+00;  2.1475522E-01;0; -1.8816909E-01;  3.3978762E+04;  0.0000000E+00; -3.1215298E+00;  4.0000000E+04;  0.0000000E+00;  3.9979297E+04; -2.2010101E-01;  0.0000000E+00;  3.1931922E-02;  6.8763188E+03;
  6.7711884E-01;  9.9999998E-03;  2.6999447E-01;6590; -1.7993242E-01;  0.0000000E+00;  4.9937505E-04;  9.9632935E+02;  1.0811058E-01; -3.0410356E+03;3; -1.8156936E+00;  0.0000000E+00;  3.4444913E-01;0; -1.8586984E-01;  3.3979152E+04;  0.0000000E+00; -5.4132934E+00;  4.0000000E+04;  0.0000000E+00;  3.9972340E+04; -2.2018015E-01;  0.0000000E+00;  3.4310304E-02;  9.7208770E+03;
  6.7710912E-01;  9.9999998E-03;  2.8000915E-01;6591; -1.7902167E-01;  0.0000000E+00;  4.8739760E-04;  9.9627753E+02;  1.0810944E-01; -3.0839971E+03;3; -2.4529946E+00;  0.0000000E+00;  4.8931670E-01;0; -1.8546584E-01;  3.3981844E+04;  0.0000000E+00; -8.3278828E+00;  4.0000000E+04;  0.0000000E+00;  3.9967344E+04; -2.2018938E-01;  0.0000000E+00;  3.4723535E-02;  1.4125042E+04;
  6.7707551E-01;  9.9999998E-03;  2.9002190E-01;6592; -1.7792477E-01;  0.0000000E+00;  4.4079349E-04;  9.9626270E+02;  1.0810354E-01; -3.0962930E+03;3; -3.0874336E+00;  0.0000000E+00;  7.0012724E-01;0; -1.8744591E-01;  3.3989211E+04;  0.0000000E+00; -1.1555700E+01;  4.0000000E+04;  0.0000000E+00;  3.9963727E+04; -2.2012907E-01;  0.0000000E+00;  3.2683160E-02;  1.9224500E+04;
  6.7702883E-01;  9.9999998E-03;  3.0003321E-01;6593; -1.7654768E-01;  0.0000000E+00;  3.8729087E-04;  9.9627936E+02;  1.0809320E-01; -3.0824663E+03;3; -3.7065244E+00;  0.0000000E+00;  9.2799586E-01;0; -1.9111538E-01;  3.4000699E+04;  0.0000000E+00; -1.4423254E+01;  4.0000000E+04;  0.0000000E+00;  3.9961293E+04; -2.2003128E-01;  0.0000000E+00;  2.8915899E-02;  2.3799223E+04;
  6.8736899E-01;  9.9999998E-03;  2.3996283E-01;6648; -1.8437171E-01;  0.0000000E+00; -1.6900119E-03;  9.9588177E+02;  1.1031401E-01; -3.4118357E+03;3; -1.2153932E-02;  0.0000000E+00;  4.0050152E-01;0; -2.0532167E-01;  3.2584854E+04;  0.0000000E+00; -1.0047426E+00;  4.0000000E+04;  0.0000000E+00;  3.9985676E+04; -2.2370991E-01;  0.0000000E+00;  1.8388245E-02;  7.2081895E+03;
  6.8736583E-01;  9.9999998E-03;  2.4998386E-01;6649; -1.8369459E-01;  0.0000000E+00; -1.0862843E-03;  9.9584515E+02;  1.1032145E-01; -3.4422048E+03;3; -7.2384202E-01;  0.0000000E+00;  6.3961631E-01;0; -2.0043586E-01;  3.2581697E+04;  0.0000000E+00; -2.3084345E+00;  4.0000000E+04;  0.0000000E+00;  3.9983980E+04; -2.2465423E-01;  0.0000000E+00;  2.4218362E-02;  7.9496699E+03;
  6.8740129E-01;  9.9999998E-03;  2.6000807E-01;6650; -1.8295273E-01;  0.0000000E+00; -6.3532597E-04;  9.9575720E+02;  1.1033221E-01; -3.5150420E+03;3; -1.4126737E+00;  0.0000000E+00;  8.1189924E-01;0; -1.9493474E-01;  3.2576162E+04;  0.0000000E+00; -4.3643742E+00;  4.0000000E+04;  0.0000000E+00;  3.9978129E+04; -2.2553122E-01;  0.0000000E+00;  3.0596485E-02;  9.8274365E+03;
  6.8745780E-01;  9.9999998E-03;  2.7003011E-01;6651; -1.8211852E-01;  0.0000000E+00; -4.4820795E-04;  9.9565430E+02;  1.1034390E-01; -3.6003230E+03;3; -2.0885060E+00;  0.0000000E+00;  9.9756461E-01;0; -1.9127798E-01;  3.2570436E+04;  0.0000000E+00; -7.2318926E+00;  4.0000000E+04;  0.0000000E+00;  3.9970242E+04; -2.2633439E-01;  0.0000000E+00;  3.5056420E-02;  1.3628707E+04;
  6.8750799E-01;  9.9999998E-03;  2.8004789E-01;6652; -1.8114156E-01;  0.0000000E+00; -3.8528978E-04;  9.9559106E+02;  1.1035349E-01; -3.6527163E+03;3; -2.7553806E+00;  0.0000000E+00;  1.2029508E+00;0; -1.9003581E-01;  3.2567588E+04;  0.0000000E+00; -1.0749396E+01;  4.0000000E+04;  0.0000000E+00;  3.9963156E+04; -2.2705953E-01;  0.0000000E+00;  3.7023727E-02;  1.9093869E+04;
  6.8755096E-01;  9.9999998E-03;  2.9006317E-01;6653; -1.7994381E-01;  0.0000000E+00; -3.9393123E-04;  9.9556573E+02;  1.1035960E-01; -3.6737034E+03;3; -3.4090266E+00;  0.0000000E+00;  1.4342381E+00;0; -1.9160290E-01;  3.2568730E+04;  0.0000000E+00; -1.4332381E+01;  4.0000000E+04;  0.0000000E+00;  3.9957727E+04; -2.2771101E-01;  0.0000000E+00;  3.6108106E-02;  2.4913705E+04;
  6.8757743E-01;  9.9999998E-03;  3.0007675E-01;6654; -1.7841047E-01;  0.0000000E+00; -4.5395139E-04;  9.9558820E+02;  1.1035955E-01; -3.6550867E+03;3; -4.0493412E+00;  0.0000000E+00;  1.6662098E+00;0; -1.9575956E-01;  3.2575580E+04;  0.0000000E+00; -1.7261551E+01;  4.0000000E+04;  0.0000000E+00;  3.9953531E+04; -2.2829002E-01;  0.0000000E+00;  3.2530457E-02;  2.9709531E+04;
  6.9836730E-01;  9.9999998E-03;  2.4000864E-01;6709; -1.8705493E-01;  0.0000000E+00; -3.5855672E-03;  9.9447742E+02;  1.1289775E-01; -4.5753477E+03;3; -2.2356582E-01;  0.0000000E+00;  9.4227290E-01;0; -2.0970039E-01;  3.1028576E+04;  0.0000000E+00; -1.0216775E+00;  4.0000000E+04;  0.0000000E+00;  3.9979621E+04; -2.2259006E-01;  0.0000000E+00;  1.2889662E-02;  8.5665889E+03;
  6.9846296E-01;  9.9999998E-03;  2.5002113E-01;6710; -1.8642052E-01;  0.0000000E+00; -2.8547426E-03;  9.9452319E+02;  1.1292572E-01; -4.5374229E+03;3; -9.7398233E-01;  0.0000000E+00;  1.2379643E+00;0; -2.0532666E-01;  3.1015365E+04;  0.0000000E+00; -2.3280046E+00;  4.0000000E+04;  0.0000000E+00;  3.9983262E+04; -2.2401287E-01;  0.0000000E+00;  1.8686200E-02;  9.9144561E+03;
  6.9859958E-01;  9.9999998E-03;  2.6004425E-01;6711; -1.8571922E-01;  0.0000000E+00; -2.0627256E-03;  9.9451587E+02;  1.1296040E-01; -4.5434468E+03;3; -1.7059740E+00;  0.0000000E+00;  1.5262288E+00;0; -1.9808437E-01;  3.0999043E+04;  0.0000000E+00; -4.2924294E+00;  4.0000000E+04;  0.0000000E+00;  3.9981137E+04; -2.2539137E-01;  0.0000000E+00;  2.7307009E-02;  1.1844047E+04;
  6.9878793E-01;  9.9999998E-03;  2.7007097E-01;6712; -1.8491568E-01;  0.0000000E+00; -1.6403939E-03;  9.9443658E+02;  1.1300330E-01; -4.6091729E+03;3; -2.4135277E+00;  0.0000000E+00;  1.7347633E+00;0; -1.9219907E-01;  3.0978727E+04;  0.0000000E+00; -6.8313494E+00;  4.0000000E+04;  0.0000000E+00;  3.9972512E+04; -2.2672793E-01;  0.0000000E+00;  3.4528866E-02;  1.4850737E+04;
  6.9899660E-01;  9.9999998E-03;  2.8009361E-01;6713; -1.8396685E-01;  0.0000000E+00; -1.4566372E-03;  9.9437012E+02;  1.1304847E-01; -4.6642329E+03;3; -3.1042614E+00;  0.0000000E+00;  1.9796419E+00;0; -1.8919222E-01;  3.0958428E+04;  0.0000000E+00; -9.6176519E+00;  4.0000000E+04;  0.0000000E+00;  3.9963297E+04; -2.2805262E-01;  0.0000000E+00;  3.8860399E-02;  1.8949648E+04;
  6.9916904E-01;  9.9999998E-03;  2.9011270E-01;6714; -1.8278952E-01;  0.0000000E+00; -1.4246329E-03;  9.9434473E+02;  1.1308467E-01; -4.6852690E+03;3; -3.7775023E+00;  0.0000000E+00;  2.2189984E+00;0; -1.9002844E-01;  3.0945240E+04;  0.0000000E+00; -1.2191275E+01;  4.0000000E+04;  0.0000000E+00;  3.9955312E+04; -2.2939269E-01;  0.0000000E+00;  3.9364252E-02;  2.3081344E+04;
  6.9926506E-01;  9.9999998E-03;  3.0012935E-01;6715; -1.8126726E-01;  0.0000000E+00; -1.4864238E-03;  9.9438849E+02;  1.1310507E-01; -4.6490234E+03;3; -4.4319286E+00;  0.0000000E+00;  2.4823451E+00;0; -1.9455871E-01;  3.0943865E+04;  0.0000000E+00; -1.4203657E+01;  4.0000000E+04;  0.0000000E+00;  3.9948785E+04; -2.3075396E-01;  0.0000000E+00;  3.6195245E-02;  2.6390117E+04;
  7.1070009E-01;  9.9999998E-03;  2.4008128E-01;6770; -1.9030575E-01;  0.0000000E+00; -5.9179822E-03;  9.9278723E+02;  1.1603997E-01; -5.9755874E+03;3; -4.9186617E-01;  0.0000000E+00;  1.5771756E+00;0; -2.0090874E-01;  2.9288832E+04;  0.0000000E+00; -5.6185228E-01;  4.0000000E+04;  0.0000000E+00;  3.9965594E+04; -2.0641835E-01;  0.0000000E+00;  5.5096135E-03;  9.1625342E+03;
  7.1086395E-01;  9.9999998E-03;  2.5007534E-01;6771; -1.8976781E-01;  0.0000000E+00; -5.0461544E-03;  9.9300537E+02;  1.1609199E-01; -5.7948530E+03;3; -1.2852750E+00;  0.0000000E+00;  1.9246736E+00;0; -1.9657084E-01;  2.9267627E+04;  0.0000000E+00; -1.5968214E+00;  4.0000000E+04;  0.0000000E+00;  3.9978391E+04; -2.0753498E-01;  0.0000000E+00;  1.0964134E-02;  1.1295936E+04;
  7.1108657E-01;  9.9999998E-03;  2.6009542E-01;6772; -1.8918297E-01;  0.0000000E+00; -3.9008218E-03;  9.9312732E+02;  1.1615573E-01; -5.6938193E+03;3; -2.0610931E+00;  0.0000000E+00;  2.3269632E+00;0; -1.8712391E-01;  2.9241381E+04;  0.0000000E+00; -3.1106379E+00;  4.0000000E+04;  0.0000000E+00;  3.9981414E+04; -2.0865266E-01;  0.0000000E+00;  2.1528749E-02;  1.2989604E+04;
  7.1134555E-01;  9.9999998E-03;  2.7012655E-01;6773; -1.8847650E-01;  0.0000000E+00; -3.1889018E-03;  9.9312097E+02;  1.1622690E-01; -5.6991030E+03;3; -2.8049943E+00;  0.0000000E+00;  2.5930314E+00;0; -1.7811689E-01;  2.9212568E+04;  0.0000000E+00; -5.0463572E+00;  4.0000000E+04;  0.0000000E+00;  3.9972973E+04; -2.0982766E-01;  0.0000000E+00;  3.1710766E-02;  1.4621646E+04;
  7.1155530E-01;  9.9999998E-03;  2.8015393E-01;6774; -1.8760815E-01;  0.0000000E+00; -2.8533209E-03;  9.9310199E+02;  1.1628659E-01; -5.7148062E+03;3; -3.5143602E+00;  0.0000000E+00;  2.8071396E+00;0; -1.7280304E-01;  2.9191215E+04;  0.0000000E+00; -7.2515731E+00;  4.0000000E+04;  0.0000000E+00;  3.9961551E+04; -2.1128412E-01;  0.0000000E+00;  3.8481075E-02;  1.7244453E+04;
  7.1168721E-01;  9.9999998E-03;  2.9017648E-01;6775; -1.8652886E-01;  0.0000000E+00; -2.7331652E-03;  9.9311206E+02;  1.1632753E-01; -5.7064609E+03;3; -4.2068233E+00;  0.0000000E+00;  3.1018715E+00;0; -1.7225537E-01;  2.9180348E+04;  0.0000000E+00; -9.3937845E+00;  4.0000000E+04;  0.0000000E+00;  3.9950949E+04; -2.1308720E-01;  0.0000000E+00;  4.0831830E-02;  2.0392045E+04;
  7.1171618E-01;  9.9999998E-03;  3.0019540E-01;6776; -1.8514761E-01;  0.0000000E+00; -2.7632145E-03;  9.9316052E+02;  1.1634462E-01; -5.6663145E+03;3; -4.8696380E+00;  0.0000000E+00;  3.3666911E+00;0; -1.7676285E-01;  2.9182484E+04;  0.0000000E+00; -1.1186432E+01;  4.0000000E+04;  0.0000000E+00;  3.9942355E+04; -2.1527632E-01;  0.0000000E+00;  3.8513463E-02;  2.3258844E+04;
  7.2319573E-01;  9.9999998E-03;  2.4016184E-01;6831; -1.9384600E-01;  0.0000000E+00; -8.1035458E-03;  9.9144238E+02;  1.1952853E-01; -7.0897583E+03;3; -8.1282091E-01;  0.0000000E+00;  2.3610616E+00;0; -1.6364628E-01;  2.7549076E+04;  0.0000000E+00; -3.6048272E-01;  4.0000000E+04;  0.0000000E+00;  3.9948961E+04; -1.6251469E-01;  0.0000000E+00; -1.1315937E-03;  9.6612490E+03;
  7.2332472E-01;  9.9999998E-03;  2.5014687E-01;6832; -1.9343239E-01;  0.0000000E+00; -7.2839726E-03;  9.9176166E+02;  1.1958114E-01; -6.8252251E+03;3; -1.6512854E+00;  0.0000000E+00;  2.6872363E+00;0; -1.5942009E-01;  2.7530766E+04;  0.0000000E+00; -1.3520111E+00;  4.0000000E+04;  0.0000000E+00;  3.9966898E+04; -1.6258436E-01;  0.0000000E+00;  3.1642818E-03;  1.2372062E+04;
  7.2347564E-01;  9.9999998E-03;  2.6016313E-01;6833; -1.9297282E-01;  0.0000000E+00; -5.9775906E-03;  9.9198059E+02;  1.1963840E-01; -6.6438491E+03;3; -2.4613886E+00;  0.0000000E+00;  3.0913491E+00;0; -1.4898920E-01;  2.7511518E+04;  0.0000000E+00; -2.8621004E+00;  4.0000000E+04;  0.0000000E+00;  3.9974438E+04; -1.6294301E-01;  0.0000000E+00;  1.3953802E-02;  1.4520813E+04;
  7.2351128E-01;  9.9999998E-03;  2.7019405E-01;6834; -1.9235444E-01;  0.0000000E+00; -4.9691149E-03;  9.9203864E+02;  1.1966586E-01; -6.5958018E+03;3; -3.2208443E+00;  0.0000000E+00;  3.4441237E+00;0; -1.3790408E-01;  2.7507053E+04;  0.0000000E+00; -4.9645605E+00;  4.0000000E+04;  0.0000000E+00;  3.9968055E+04; -1.6431643E-01;  0.0000000E+00;  2.6412360E-02;  1.6416184E+04;
  7.2347772E-01;  9.9999998E-03;  2.8022268E-01;6835; -1.9156627E-01;  0.0000000E+00; -4.4401432E-03;  9.9203210E+02;  1.1967406E-01; -6.6011841E+03;3; -3.9480891E+00;  0.0000000E+00;  3.6407065E+00;0; -1.3105845E-01;  2.7511719E+04;  0.0000000E+00; -7.4416175E+00;  4.0000000E+04;  0.0000000E+00;  3.9956316E+04; -1.6646388E-01;  0.0000000E+00;  3.5405427E-02;  1.9335139E+04;
  7.2338158E-01;  9.9999998E-03;  2.9024595E-01;6836; -1.9060209E-01;  0.0000000E+00; -4.2156270E-03;  9.9201654E+02;  1.1966561E-01; -6.6140728E+03;3; -4.6373043E+00;  0.0000000E+00;  3.8718677E+00;0; -1.3000795E-01;  2.7523449E+04;  0.0000000E+00; -9.8635426E+00;  4.0000000E+04;  0.0000000E+00;  3.9944980E+04; -1.6930845E-01;  0.0000000E+00;  3.9300501E-02;  2.2922707E+04;
  7.2320879E-01;  9.9999998E-03;  3.0026507E-01;6837; -1.8942550E-01;  0.0000000E+00; -4.2232662E-03;  9.9200446E+02;  1.1963852E-01; -6.6240967E+03;3; -5.2951365E+00;  0.0000000E+00;  4.0689101E+00;0; -1.3557753E-01;  2.7542807E+04;  0.0000000E+00; -1.1840563E+01;  4.0000000E+04;  0.0000000E+00;  3.9935980E+04; -1.7287885E-01;  0.0000000E+00;  3.7301317E-02;  2.6152854E+04;
  7.3531109E-01;  9.9999998E-03;  2.4024105E-01;6892; -1.9741651E-01;  0.0000000E+00; -9.9867033E-03;  9.9031921E+02;  1.2313366E-01; -8.0202764E+03;3; -1.1589462E+00;  0.0000000E+00;  3.2351837E+00;0; -8.7848991E-02;  2.5919607E+04;  0.0000000E+00; -3.7159523E-01;  4.0000000E+04;  0.0000000E+00;  3.9930625E+04; -8.2148984E-02;  0.0000000E+00; -5.7000075E-03;  1.0011745E+04;
  7.3524392E-01;  9.9999998E-03;  2.5022537E-01;6893; -1.9712633E-01;  0.0000000E+00; -9.3353400E-03;  9.9062659E+02;  1.2313497E-01; -7.7656201E+03;3; -2.0157433E+00;  0.0000000E+00;  3.4389732E+00;0; -8.4681578E-02;  2.5921547E+04;  0.0000000E+00; -1.2899839E+00;  4.0000000E+04;  0.0000000E+00;  3.9950852E+04; -8.1964858E-02;  0.0000000E+00; -2.7167203E-03;  1.2927618E+04;
  7.3516667E-01;  9.9999998E-03;  2.6023683E-01;6894; -1.9678465E-01;  0.0000000E+00; -8.0844797E-03;  9.9086090E+02;  1.2313334E-01; -7.5715044E+03;3; -2.8547115E+00;  0.0000000E+00;  3.7895029E+00;0; -7.5934336E-02;  2.5925951E+04;  0.0000000E+00; -2.6471729E+00;  4.0000000E+04;  0.0000000E+00;  3.9963133E+04; -8.2639277E-02;  0.0000000E+00;  6.7049395E-03;  1.5434240E+04;
  7.3506659E-01;  9.9999998E-03;  2.7026549E-01;6895; -1.9633637E-01;  0.0000000E+00; -6.9192643E-03;  9.9091577E+02;  1.2312490E-01; -7.5260249E+03;3; -3.6540444E+00;  0.0000000E+00;  4.1896148E+00;0; -6.4427398E-02;  2.5933965E+04;  0.0000000E+00; -4.4058733E+00;  4.0000000E+04;  0.0000000E+00;  3.9960652E+04; -8.4249131E-02;  0.0000000E+00;  1.9821735E-02;  1.7145758E+04;
  7.3494720E-01;  9.9999998E-03;  2.8029430E-01;6896; -1.9575234E-01;  0.0000000E+00; -6.2648808E-03;  9.9086072E+02;  1.2311082E-01; -7.5716523E+03;3; -4.3887734E+00;  0.0000000E+00;  4.3943629E+00;0; -5.6792084E-02;  2.5944299E+04;  0.0000000E+00; -6.3711314E+00;  4.0000000E+04;  0.0000000E+00;  3.9950719E+04; -8.6675055E-02;  0.0000000E+00;  2.9882971E-02;  1.9111910E+04;
  7.3478574E-01;  9.9999998E-03;  2.9031834E-01;6897; -1.9506910E-01;  0.0000000E+00; -5.9920521E-03;  9.9076648E+02;  1.2308552E-01; -7.6497236E+03;3; -5.0828781E+00;  0.0000000E+00;  4.5706749E+00;0; -5.5724632E-02;  2.5957672E+04;  0.0000000E+00; -8.1516113E+00;  4.0000000E+04;  0.0000000E+00;  3.9940031E+04; -9.0014994E-02;  0.0000000E+00;  3.4290362E-02;  2.1349439E+04;
  7.3454958E-01;  9.9999998E-03;  3.0033791E-01;6898; -1.9433868E-01;  0.0000000E+00; -5.9717842E-03;  9.9065216E+02;  1.2304440E-01; -7.7444365E+03;3; -5.7526598E+00;  0.0000000E+00;  4.7644591E+00;0; -6.1799433E-02;  2.5975918E+04;  0.0000000E+00; -9.3698311E+00;  4.0000000E+04;  0.0000000E+00;  3.9931414E+04; -9.4488807E-02;  0.0000000E+00;  3.2689374E-02;  2.3064590E+04;
  7.4748057E-01;  9.9999998E-03;  2.4031855E-01;6953; -2.0094016E-01;  0.0000000E+00; -1.1507220E-02;  9.8954034E+02;  1.2686513E-01; -8.6655156E+03;3; -1.5280201E+00;  0.0000000E+00;  4.1937003E+00;0;  3.8461678E-02;  2.4396514E+04;  0.0000000E+00; -2.6408091E-01;  4.0000000E+04;  0.0000000E+00;  3.9910230E+04;  4.4987872E-02;  0.0000000E+00; -6.5261931E-03;  1.0041559E+04;
  7.4741298E-01;  9.9999998E-03;  2.5031161E-01;6954; -2.0086586E-01;  0.0000000E+00; -1.1143817E-02;  9.8975482E+02;  1.2686956E-01; -8.4878438E+03;3; -2.4287024E+00;  0.0000000E+00;  4.3563719E+00;0;  4.2472061E-02;  2.4392631E+04;  0.0000000E+00; -7.4096304E-01;  4.0000000E+04;  0.0000000E+00;  3.9929582E+04;  4.6922110E-02;  0.0000000E+00; -4.4500479E-03;  1.2592148E+04;
  7.4733478E-01;  9.9999998E-03;  2.6032218E-01;6955; -2.0073819E-01;  0.0000000E+00; -1.0163428E-02;  9.8993011E+02;  1.2687013E-01; -8.3426152E+03;3; -3.3058884E+00;  0.0000000E+00;  4.5992479E+00;0;  5.0535776E-02;  2.4391000E+04;  0.0000000E+00; -1.2869149E+00;  4.0000000E+04;  0.0000000E+00;  3.9944816E+04;  4.7607619E-02;  0.0000000E+00;  2.9281559E-03;  1.4722846E+04;
  7.4725896E-01;  9.9999998E-03;  2.7034855E-01;6956; -2.0055713E-01;  0.0000000E+00; -9.1199512E-03;  9.8993103E+02;  1.2687080E-01; -8.3418252E+03;3; -4.1278920E+00;  0.0000000E+00;  4.8380919E+00;0;  6.1623096E-02;  2.4389699E+04;  0.0000000E+00; -1.7787446E+00;  4.0000000E+04;  0.0000000E+00;  3.9946859E+04;  4.7319759E-02;  0.0000000E+00;  1.4303339E-02;  1.5282669E+04;
  7.4720478E-01;  9.9999998E-03;  2.8037697E-01;6957; -2.0031738E-01;  0.0000000E+00; -8.4816236E-03;  9.8980731E+02;  1.2687717E-01; -8.4443398E+03;3; -4.8814235E+00;  0.0000000E+00;  5.0632739E+00;0;  7.0035011E-02;  2.4385832E+04;  0.0000000E+00; -2.0463109E+00;  4.0000000E+04;  0.0000000E+00;  3.9940074E+04;  4.6503913E-02;  0.0000000E+00;  2.3531102E-02;  1.4728939E+04;
  7.4709129E-01;  9.9999998E-03;  2.9040152E-01;6958; -2.0008948E-01;  0.0000000E+00; -8.2496284E-03;  9.8961688E+02;  1.2687071E-01; -8.6021113E+03;3; -5.5882220E+00;  0.0000000E+00;  5.2451262E+00;0;  7.1086898E-02;  2.4385170E+04;  0.0000000E+00; -1.8509431E+00;  4.0000000E+04;  0.0000000E+00;  3.9931160E+04;  4.4321187E-02;  0.0000000E+00;  2.6765710E-02;  1.3573675E+04;
  7.4690729E-01;  9.9999998E-03;  3.0042198E-01;6959; -2.0005909E-01;  0.0000000E+00; -8.2354173E-03;  9.8939398E+02;  1.2685171E-01; -8.7867461E+03;3; -6.2802410E+00;  0.0000000E+00;  5.4348989E+00;0;  6.5580592E-02;  2.4387373E+04;  0.0000000E+00; -1.0653404E+00;  4.0000000E+04;  0.0000000E+00;  3.9923770E+04;  4.0753160E-02;  0.0000000E+00;  2.4827432E-02;  1.2144741E+04;
  7.6093715E-01;  9.9999998E-03;  2.4042550E-01;7014; -2.0444481E-01;  0.0000000E+00; -1.2699319E-02;  9.9003320E+02;  1.3100815E-01; -8.2571621E+03;3; -1.9653183E+00;  0.0000000E+00;  5.3225398E+00;0;  2.4450918E-01;  2.2922887E+04;  0.0000000E+00; -9.2758752E-02;  4.0000000E+04;  0.0000000E+00;  3.9877426E+04;  2.4516079E-01;  0.0000000E+00; -6.5161765E-04;  8.5676680E+03;
  7.6078451E-01;  9.9999998E-03;  2.5042593E-01;7015; -2.0458822E-01;  0.0000000E+00; -1.2643560E-02;  9.9008545E+02;  1.3098848E-01; -8.2139053E+03;3; -2.9058018E+00;  0.0000000E+00;  5.4284143E+00;0;  2.4980155E-01;  2.2921482E+04;  0.0000000E+00; -2.6069589E-02;  4.0000000E+04;  0.0000000E+00;  3.9893539E+04;  2.4774365E-01;  0.0000000E+00;  2.0578916E-03;  1.0536711E+04;
  7.6052320E-01;  9.9999998E-03;  2.6043344E-01;7016; -2.0466654E-01;  0.0000000E+00; -1.2055277E-02;  9.9009692E+02;  1.3094129E-01; -8.2043750E+03;3; -3.7988167E+00;  0.0000000E+00;  5.5289068E+00;0;  2.5478804E-01;  2.2928619E+04;  0.0000000E+00;  4.2115659E-01;  4.0000000E+04;  0.0000000E+00;  3.9909418E+04;  2.4699637E-01;  0.0000000E+00;  7.7916710E-03;  1.2492466E+04;
  7.6028782E-01;  9.9999998E-03;  2.7045286E-01;7017; -2.0471913E-01;  0.0000000E+00; -1.1297907E-02;  9.8998785E+02;  1.3090265E-01; -8.2947422E+03;3; -4.6355162E+00;  0.0000000E+00;  5.6274133E+00;0;  2.6194441E-01;  2.2933094E+04;  0.0000000E+00;  1.4391509E+00;  4.0000000E+04;  0.0000000E+00;  3.9916172E+04;  2.4549541E-01;  0.0000000E+00;  1.6449012E-02;  1.3640585E+04;
  7.6014161E-01;  9.9999998E-03;  2.8047690E-01;7018; -2.0481503E-01;  0.0000000E+00; -1.0841340E-02;  9.8977417E+02;  1.3088645E-01; -8.4717715E+03;3; -5.4093404E+00;  0.0000000E+00;  5.6843667E+00;0;  2.6743725E-01;  2.2930389E+04;  0.0000000E+00;  3.1043332E+00;  4.0000000E+04;  0.0000000E+00;  3.9914148E+04;  2.4469759E-01;  0.0000000E+00;  2.2739664E-02;  1.4778025E+04;
  7.5997257E-01;  9.9999998E-03;  2.9049948E-01;7019; -2.0503661E-01;  0.0000000E+00; -1.0760762E-02;  9.8949292E+02;  1.3086687E-01; -8.7047988E+03;3; -6.1439447E+00;  0.0000000E+00;  5.7793512E+00;0;  2.6561090E-01;  2.2928215E+04;  0.0000000E+00;  5.5119905E+00;  4.0000000E+04;  0.0000000E+00;  3.9908484E+04;  2.4303989E-01;  0.0000000E+00;  2.2571007E-02;  1.7579682E+04;
  7.5974607E-01;  9.9999998E-03;  3.0051932E-01;7020; -2.0565739E-01;  0.0000000E+00; -1.0844726E-02;  9.8917621E+02;  1.3083731E-01; -8.9671582E+03;3; -6.8663740E+00;  0.0000000E+00;  5.9208612E+00;0;  2.5809780E-01;  2.2928115E+04;  0.0000000E+00;  8.6514053E+00;  4.0000000E+04;  0.0000000E+00;  3.9903129E+04;  2.4020983E-01;  0.0000000E+00;  1.7887954E-02;  2.2870812E+04;
  7.7505440E-01;  9.9999998E-03;  2.4056634E-01;7075; -2.0748436E-01;  0.0000000E+00; -1.3111786E-02;  9.9285559E+02;  1.3535991E-01; -5.9188735E+03;3; -2.4236388E+00;  0.0000000E+00;  6.6110840E+00;0;  5.3754532E-01;  2.1615980E+04;  0.0000000E+00; -1.6856921E-01;  4.0000000E+04;  0.0000000E+00;  3.9832023E+04;  5.2010602E-01;  0.0000000E+00;  1.7439323E-02;  5.4546465E+03;
  7.7487057E-01;  9.9999998E-03;  2.5057676E-01;7076; -2.0785083E-01;  0.0000000E+00; -1.3393849E-02;  9.9270679E+02;  1.3532938E-01; -6.0421768E+03;3; -3.4038024E+00;  0.0000000E+00;  6.6336589E+00;0;  5.4718459E-01;  2.1614238E+04;  0.0000000E+00;  1.2443846E-01;  4.0000000E+04;  0.0000000E+00;  3.9838266E+04;  5.2351171E-01;  0.0000000E+00;  2.3672886E-02;  6.1949790E+03;
  7.7456790E-01;  9.9999998E-03;  2.6058075E-01;7077; -2.0816462E-01;  0.0000000E+00; -1.3388663E-02;  9.9251135E+02;  1.3526881E-01; -6.2040952E+03;3; -4.3259649E+00;  0.0000000E+00;  6.6106153E+00;0;  5.5202329E-01;  2.1618438E+04;  0.0000000E+00;  1.0264723E+00;  4.0000000E+04;  0.0000000E+00;  3.9849047E+04;  5.2273929E-01;  0.0000000E+00;  2.9284025E-02;  8.0266245E+03;
  7.7433753E-01;  9.9999998E-03;  2.7059016E-01;7078; -2.0849030E-01;  0.0000000E+00; -1.3167131E-02;  9.9229456E+02;  1.3522814E-01; -6.3836924E+03;3; -5.1833291E+00;  0.0000000E+00;  6.5330396E+00;0;  5.5742639E-01;  2.1617197E+04;  0.0000000E+00;  2.7608173E+00;  4.0000000E+04;  0.0000000E+00;  3.9857285E+04;  5.2234298E-01;  0.0000000E+00;  3.5083402E-02;  1.1373888E+04;
  7.7428395E-01;  9.9999998E-03;  2.8060687E-01;7079; -2.0892748E-01;  0.0000000E+00; -1.3092709E-02;  9.9207239E+02;  1.3523446E-01; -6.5677329E+03;3; -5.9915800E+00;  0.0000000E+00;  6.4546366E+00;0;  5.6252545E-01;  2.1604578E+04;  0.0000000E+00;  5.2107978E+00;  4.0000000E+04;  0.0000000E+00;  3.9858684E+04;  5.2512795E-01;  0.0000000E+00;  3.7397489E-02;  1.6482809E+04;
  7.7424365E-01;  9.9999998E-03;  2.9062644E-01;7080; -2.0957550E-01;  0.0000000E+00; -1.3368497E-02;  9.9178461E+02;  1.3524684E-01; -6.8061411E+03;3; -6.7709551E+00;  0.0000000E+00;  6.4625821E+00;0;  5.5936599E-01;  2.1589945E+04;  0.0000000E+00;  8.3873034E+00;  4.0000000E+04;  0.0000000E+00;  3.9855594E+04;  5.2815056E-01;  0.0000000E+00;  3.1215401E-02;  2.3690684E+04;
  7.7414870E-01;  9.9999998E-03;  3.0064616E-01;7081; -2.1076621E-01;  0.0000000E+00; -1.3726811E-02;  9.9146722E+02;  1.3525085E-01; -7.0690913E+03;3; -7.5138578E+00;  0.0000000E+00;  6.5257835E+00;0;  5.5096573E-01;  2.1577682E+04;  0.0000000E+00;  1.2266063E+01;  4.0000000E+04;  0.0000000E+00;  3.9851449E+04;  5.3046793E-01;  0.0000000E+00;  2.0497810E-02;  3.2900500E+04;
  7.8997093E-01;  9.9999998E-03;  2.4074115E-01;7136; -2.0982398E-01;  0.0000000E+00; -1.2873190E-02;  9.9791467E+02;  1.3978571E-01; -1.7276113E+03;3; -2.8301816E+00;  0.0000000E+00;  7.9860420E+00;0;  9.1817480E-01;  2.0491729E+04;  0.0000000E+00; -4.0167654E-01;  4.0000000E+04;  0.0000000E+00;  3.9774652E+04;  8.6616927E-01;  0.0000000E+00;  5.2005515E-02;  1.1695251E+03;
  7.8979874E-01;  9.9999998E-03;  2.5075775E-01;7137; -2.1036677E-01;  0.0000000E+00; -1.3478131E-02;  9.9759790E+02;  1.3975938E-01; -1.9900664E+03;3; -3.8637917E+00;  0.0000000E+00;  7.8920326E+00;0;  9.3602532E-01;  2.0488586E+04;  0.0000000E+00; -2.2580226E-01;  4.0000000E+04;  0.0000000E+00;  3.9766723E+04;  8.7043941E-01;  0.0000000E+00;  6.5585904E-02;  4.0597278E+02;
  7.8954935E-01;  9.9999998E-03;  2.6075596E-01;7138; -2.1088089E-01;  0.0000000E+00; -1.4075106E-02;  9.9726605E+02;  1.3971704E-01; -2.2649656E+03;3; -4.8407712E+00;  0.0000000E+00;  7.7534623E+00;0;  9.4607556E-01;  2.0486090E+04;  0.0000000E+00;  4.5080453E-01;  4.0000000E+04;  0.0000000E+00;  3.9767293E+04;  8.7136078E-01;  0.0000000E+00;  7.4714810E-02;  2.4479832E+03;
  7.8941882E-01;  9.9999998E-03;  2.7075374E-01;7139; -2.1144830E-01;  0.0000000E+00; -1.4444194E-02;  9.9701617E+02;  1.3970862E-01; -2.4719670E+03;3; -5.7166100E+00;  0.0000000E+00;  7.5381460E+00;0;  9.5466989E-01;  2.0475070E+04;  0.0000000E+00;  1.8284118E+00;  4.0000000E+04;  0.0000000E+00;  3.9772211E+04;  8.7425596E-01;  0.0000000E+00;  8.0413938E-02;  6.8957896E+03;
  7.8964859E-01;  9.9999998E-03;  2.8076282E-01;7140; -2.1222927E-01;  0.0000000E+00; -1.4840606E-02;  9.9693402E+02;  1.3978963E-01; -2.5400618E+03;3; -6.5245528E+00;  0.0000000E+00;  7.3205152E+00;0;  9.6618599E-01;  2.0446719E+04;  0.0000000E+00;  3.4070215E+00;  4.0000000E+04;  0.0000000E+00;  3.9772859E+04;  8.8567907E-01;  0.0000000E+00;  8.0506943E-02;  1.2118185E+04;
  7.8988117E-01;  9.9999998E-03;  2.9077876E-01;7141; -2.1330835E-01;  0.0000000E+00; -1.5522295E-02;  9.9678040E+02;  1.3987362E-01; -2.6673142E+03;3; -7.3609023E+00;  0.0000000E+00;  7.2183442E+00;0;  9.6635282E-01;  2.0416723E+04;  0.0000000E+00;  5.3972254E+00;  4.0000000E+04;  0.0000000E+00;  3.9770156E+04;  8.9757645E-01;  0.0000000E+00;  6.8776377E-02;  1.8495803E+04;
  7.9004943E-01;  9.9999998E-03;  3.0079812E-01;7142; -2.1522771E-01;  0.0000000E+00; -1.6059803E-02;  9.9657751E+02;  1.3994677E-01; -2.8354036E+03;3; -8.2156801E+00;  0.0000000E+00;  7.1958528E+00;0;  9.6235609E-01;  2.0388514E+04;  0.0000000E+00;  7.9580808E+00;  4.0000000E+04;  0.0000000E+00;  3.9766953E+04;  9.0905112E-01;  0.0000000E+00;  5.3304952E-02;  2.6310926E+04;
  8.0526781E-01;  9.9999998E-03;  2.4094157E-01;7197; -2.1096261E-01;  0.0000000E+00; -1.2572424E-02;  1.0030033E+03;  1.4385892E-01;  2.4880479E+03;3; -3.2036784E+00;  0.0000000E+00;  9.5397081E+00;0;  1.3430568E+00;  1.9559879E+04;  0.0000000E+00; -4.8534444E-01;  4.0000000E+04;  0.0000000E+00;  3.9707766E+04;  1.2397470E+00;  0.0000000E+00;  1.0330974E-01;  5.7832236E+03;
  8.0527794E-01;  9.9999998E-03;  2.5094700E-01;7198; -2.1159795E-01;  0.0000000E+00; -1.3584665E-02;  1.0027017E+03;  1.4387599E-01;  2.2382852E+03;3; -4.2450557E+00;  0.0000000E+00;  9.3359976E+00;0;  1.3744786E+00;  1.9550680E+04;  0.0000000E+00; -4.3791583E-01;  4.0000000E+04;  0.0000000E+00;  3.9687539E+04;  1.2471850E+00;  0.0000000E+00;  1.2729362E-01;  8.2143740E+03;
  8.0520558E-01;  9.9999998E-03;  2.6092726E-01;7199; -2.1227086E-01;  0.0000000E+00; -1.4550103E-02;  1.0024550E+03;  1.4387919E-01;  2.0338534E+03;3; -5.2390742E+00;  0.0000000E+00;  9.0324278E+00;0;  1.3968062E+00;  1.9541424E+04;  0.0000000E+00; -1.2324815E-01;  4.0000000E+04;  0.0000000E+00;  3.9682105E+04;  1.2518351E+00;  0.0000000E+00;  1.4497112E-01;  9.0071172E+03;
  8.0523545E-01;  9.9999998E-03;  2.7090800E-01;7200; -2.1303619E-01;  0.0000000E+00; -1.5077797E-02;  1.0023245E+03;  1.4390618E-01;  1.9258104E+03;3; -6.2010989E+00;  0.0000000E+00;  8.6037312E+00;0;  1.4166403E+00;  1.9525783E+04;  0.0000000E+00;  6.1078465E-01;  4.0000000E+04;  0.0000000E+00;  3.9687098E+04;  1.2585264E+00;  0.0000000E+00;  1.5811381E-01;  9.4422715E+03;
  8.0550700E-01;  9.9999998E-03;  2.8090680E-01;7201; -2.1390048E-01;  0.0000000E+00; -1.5898883E-02;  1.0022297E+03;  1.4398487E-01;  1.8471975E+03;3; -7.0579143E+00;  0.0000000E+00;  8.1630802E+00;0;  1.4282355E+00;  1.9499426E+04;  0.0000000E+00;  1.5517581E+00;  4.0000000E+04;  0.0000000E+00;  3.9688012E+04;  1.2708285E+00;  0.0000000E+00;  1.5740706E-01;  1.1800638E+04;
  8.0570817E-01;  9.9999998E-03;  2.9091507E-01;7202; -2.1503642E-01;  0.0000000E+00; -1.6808068E-02;  1.0020398E+03;  1.4404885E-01;  1.6898734E+03;3; -7.9698825E+00;  0.0000000E+00;  7.9380903E+00;0;  1.4232891E+00;  1.9473639E+04;  0.0000000E+00;  3.0525215E+00;  4.0000000E+04;  0.0000000E+00;  3.9688961E+04;  1.2817807E+00;  0.0000000E+00;  1.4150830E-01;  1.6259298E+04;
  8.0570740E-01;  9.9999998E-03;  3.0092877E-01;7203; -2.1696267E-01;  0.0000000E+00; -1.7299287E-02;  1.0017312E+03;  1.4407282E-01;  1.4341852E+03;3; -9.0492105E+00;  0.0000000E+00;  7.8315415E+00;0;  1.4101706E+00;  1.9454709E+04;  0.0000000E+00;  5.5640531E+00;  4.0000000E+04;  0.0000000E+00;  3.9691914E+04;  1.2888055E+00;  0.0000000E+00;  1.2136510E-01;  2.3567760E+04;
  8.2017601E-01;  9.9999998E-03;  2.4103175E-01;7258; -2.1006319E-01;  0.0000000E+00; -1.2008102E-02;  1.0058246E+03;  1.4696592E-01;  4.8253506E+03;3; -3.5273552E+00;  0.0000000E+00;  1.1250748E+01;0;  1.7227061E+00;  1.8847635E+04;  0.0000000E+00; -1.0323874E-01;  4.0000000E+04;  0.0000000E+00;  3.9678305E+04;  1.5535871E+00;  0.0000000E+00;  1.6911894E-01;  7.7417695E+03;
  8.2021767E-01;  9.9999998E-03;  2.5102949E-01;7259; -2.1065113E-01;  0.0000000E+00; -1.2898581E-02;  1.0056144E+03;  1.4697827E-01;  4.6512393E+03;3; -4.6067462E+00;  0.0000000E+00;  1.0888885E+01;0;  1.7648821E+00;  1.8844191E+04;  0.0000000E+00;  8.0914080E-02;  4.0000000E+04;  0.0000000E+00;  3.9656668E+04;  1.5556492E+00;  0.0000000E+00;  2.0923290E-01;  1.0479405E+04;
  8.2004762E-01;  9.9999998E-03;  2.6100898E-01;7260; -2.1120319E-01;  0.0000000E+00; -1.3993287E-02;  1.0054022E+03;  1.4696142E-01;  4.4754492E+03;3; -5.7358232E+00;  0.0000000E+00;  1.0377059E+01;0;  1.7942266E+00;  1.8843656E+04;  0.0000000E+00;  4.5854941E-01;  4.0000000E+04;  0.0000000E+00;  3.9647691E+04;  1.5546118E+00;  0.0000000E+00;  2.3961480E-01;  1.1865370E+04;
  8.1988192E-01;  9.9999998E-03;  2.7099484E-01;7261; -2.1165073E-01;  0.0000000E+00; -1.5436287E-02;  1.0051898E+03;  1.4694408E-01;  4.2994614E+03;3; -6.6912174E+00;  0.0000000E+00;  9.6586084E+00;0;  1.8063306E+00;  1.8841252E+04;  0.0000000E+00;  1.1540823E+00;  4.0000000E+04;  0.0000000E+00;  3.9644168E+04;  1.5544024E+00;  0.0000000E+00;  2.5192818E-01;  1.3132370E+04;
  8.2001430E-01;  9.9999998E-03;  2.8099060E-01;7262; -2.1202077E-01;  0.0000000E+00; -1.6902518E-02;  1.0050701E+03;  1.4696801E-01;  4.2003076E+03;3; -7.5200305E+00;  0.0000000E+00;  8.9081659E+00;0;  1.8049293E+00;  1.8829947E+04;  0.0000000E+00;  1.8376135E+00;  4.0000000E+04;  0.0000000E+00;  3.9644930E+04;  1.5595472E+00;  0.0000000E+00;  2.4538206E-01;  1.4353931E+04;
  8.2017624E-01;  9.9999998E-03;  2.9099503E-01;7263; -2.1273847E-01;  0.0000000E+00; -1.7789299E-02;  1.0049309E+03;  1.4699824E-01;  4.0849565E+03;3; -8.3586597E+00;  0.0000000E+00;  8.3076630E+00;0;  1.7927599E+00;  1.8814701E+04;  0.0000000E+00;  2.5947180E+00;  4.0000000E+04;  0.0000000E+00;  3.9649734E+04;  1.5651661E+00;  0.0000000E+00;  2.2759384E-01;  1.5669344E+04;
  8.2024735E-01;  9.9999998E-03;  3.0100757E-01;7264; -2.1404588E-01;  0.0000000E+00; -1.8142087E-02;  1.0046751E+03;  1.4702225E-01;  3.8731191E+03;3; -9.5181379E+00;  0.0000000E+00;  8.1157074E+00;0;  1.7728318E+00;  1.8797414E+04;  0.0000000E+00;  3.8911250E+00;  4.0000000E+04;  0.0000000E+00;  3.9656234E+04;  1.5687222E+00;  0.0000000E+00;  2.0410955E-01;  1.8334500E+04;
  8.3364701E-01;  9.9999998E-03;  2.7100360E-01;7322; -1.5827972E-01;  0.0000000E+00; -2.5874864E-02;  1.0054705E+03;  1.4898321E-01;  4.5319971E+03;3; -2.1220753E+01;  0.0000000E+00;  1.1085587E+01;0;  1.9226966E+00;  1.8332568E+04;  0.0000000E+00;  2.0496128E+00;  4.0000000E+04;  0.0000000E+00;  3.9658863E+04;  1.6909745E+00;  0.0000000E+00;  2.3172215E-01;  1.1209114E+04;
  8.3370638E-01;  9.9999998E-03;  2.8100657E-01;7323; -1.4555387E-01;  0.0000000E+00; -2.6368454E-02;  1.0053038E+03;  1.4899580E-01;  4.3939336E+03;3; -2.1724279E+01;  0.0000000E+00;  6.4079061E+00;0;  1.9018070E+00;  1.8323432E+04;  0.0000000E+00;  2.8917353E+00;  4.0000000E+04;  0.0000000E+00;  3.9660520E+04;  1.6850590E+00;  0.0000000E+00;  2.1674803E-01;  1.2820471E+04;
  8.3377939E-01;  9.9999998E-03;  2.6101530E-01;7321; -1.6400662E-01;  0.0000000E+00; -2.5731174E-02;  1.0055240E+03;  1.4898774E-01;  4.5763394E+03;3; -2.0047239E+01;  0.0000000E+00;  1.2293262E+01;0;  1.9255897E+00;  1.8334176E+04;  0.0000000E+00;  1.3911808E+00;  4.0000000E+04;  0.0000000E+00;  3.9655992E+04;  1.6985508E+00;  0.0000000E+00;  2.2703888E-01;  1.0402120E+04;
  8.3385491E-01;  9.9999998E-03;  2.9102045E-01;7324; -1.2868427E-01;  0.0000000E+00; -2.9920727E-02;  1.0050269E+03;  1.4901577E-01;  4.1644199E+03;3; -2.1502823E+01;  0.0000000E+00;  8.5416822E+00;0;  1.8127582E+00;  1.8309441E+04;  0.0000000E+00;  3.9304419E+00;  4.0000000E+04;  0.0000000E+00;  3.9660555E+04;  1.6792830E+00;  0.0000000E+00;  1.3347515E-01;  1.5224778E+04;
  8.3400875E-01;  9.9999998E-03;  3.0103540E-01;7325; -1.1130924E-01;  0.0000000E+00; -3.1044863E-02;  1.0047438E+03;  1.4903899E-01;  3.9299683E+03;3; -2.1289951E+01;  0.0000000E+00;  1.0147315E+01;0;  1.7500426E+00;  1.8291807E+04;  0.0000000E+00;  5.2473073E+00;  4.0000000E+04;  0.0000000E+00;  3.9669293E+04;  1.6723979E+00;  0.0000000E+00;  7.7644654E-02;  1.7911375E+04;
  8.3410144E-01;  9.9999998E-03;  2.4100983E-01;7319; -1.7295730E-01;  0.0000000E+00; -2.3667937E-02;  1.0057781E+03;  1.4900537E-01;  4.7867905E+03;3; -1.7174229E+01;  0.0000000E+00;  1.3128447E+01;0;  1.9060078E+00;  1.8325904E+04;  0.0000000E+00;  5.5373031E-01;  4.0000000E+04;  0.0000000E+00;  3.9686270E+04;  1.7214342E+00;  0.0000000E+00;  1.8457352E-01;  5.8562939E+03;
  8.3398372E-01;  9.9999998E-03;  2.5102055E-01;7320; -1.6741522E-01;  0.0000000E+00; -2.4480831E-02;  1.0056565E+03;  1.4899939E-01;  4.6860581E+03;3; -1.8643694E+01;  0.0000000E+00;  1.2630028E+01;0;  1.9235235E+00;  1.8331041E+04;  0.0000000E+00;  9.0648323E-01;  4.0000000E+04;  0.0000000E+00;  3.9666609E+04;  1.7087430E+00;  0.0000000E+00;  2.1478055E-01;  8.5517158E+03;
  8.4734851E-01;  9.9999998E-03;  2.8100595E-01;7384; -1.9719576E-02;  0.0000000E+00; -2.9539265E-02;  1.0033712E+03;  1.5032338E-01;  2.7928408E+03;3;  1.5872954E+01;  0.0000000E+00;  6.6768541E+00;0;  1.9488765E+00;  1.7936232E+04;  0.0000000E+00;  3.1111410E+00;  4.0000000E+04;  0.0000000E+00;  3.9682152E+04;  1.6695971E+00;  0.0000000E+00;  2.7927932E-01;  1.0483945E+04;
  8.4754425E-01;  9.9999998E-03;  2.9103109E-01;7385; -1.8866004E-02;  0.0000000E+00; -3.7410486E-02;  1.0029617E+03;  1.5034547E-01;  2.4535120E+03;3;  1.5094508E+01;  0.0000000E+00;  8.5868788E+00;0;  1.7734147E+00;  1.7921135E+04;  0.0000000E+00;  4.0318656E+00;  4.0000000E+04;  0.0000000E+00;  3.9676527E+04;  1.6569961E+00;  0.0000000E+00;  1.1641856E-01;  1.3178977E+04;
  8.4771073E-01;  9.9999998E-03;  3.0105460E-01;7386; -2.0744676E-02;  0.0000000E+00; -4.1423708E-02;  1.0025388E+03;  1.5037005E-01;  2.1032217E+03;3;  1.5183666E+01;  0.0000000E+00;  1.2095693E+01;0;  1.6397650E+00;  1.7902424E+04;  0.0000000E+00;  5.3917890E+00;  4.0000000E+04;  0.0000000E+00;  3.9679590E+04;  1.6453404E+00;  0.0000000E+00; -5.5754646E-03;  1.6587080E+04;
  8.4721899E-01;  9.9999998E-03;  2.7097476E-01;7383; -2.0713229E-02;  0.0000000E+00; -2.6378153E-02;  1.0037867E+03;  1.5030782E-01;  3.1370083E+03;3;  1.1567193E+01;  0.0000000E+00;  1.6924503E+01;0;  2.0125051E+00;  1.7946258E+04;  0.0000000E+00;  2.5043104E+00;  4.0000000E+04;  0.0000000E+00;  3.9698254E+04;  1.6838617E+00;  0.0000000E+00;  3.2864341E-01;  8.0224351E+03;
  8.4729081E-01;  9.9999998E-03;  2.6096082E-01;7382; -1.6600475E-02;  0.0000000E+00; -4.1788314E-02;  1.0038914E+03;  1.5030144E-01;  3.2238152E+03;3;  8.3261881E+00;  0.0000000E+00;  2.8806084E+01;0;  1.8731652E+00;  1.7948676E+04;  0.0000000E+00;  2.0505619E+00;  4.0000000E+04;  0.0000000E+00;  3.9700195E+04;  1.7009526E+00;  0.0000000E+00;  1.7221257E-01;  6.6905093E+03;
  8.4741998E-01;  9.9999998E-03;  2.5096291E-01;7381; -1.4691502E-02;  0.0000000E+00; -5.1824987E-02;  1.0038074E+03;  1.5029904E-01;  3.1541914E+03;3;  6.7666945E+00;  0.0000000E+00;  2.0769650E+01;0;  1.8377404E+00;  1.7946406E+04;  0.0000000E+00;  1.6420715E+00;  4.0000000E+04;  0.0000000E+00;  3.9696523E+04;  1.7221614E+00;  0.0000000E+00;  1.1557902E-01;  5.8497900E+03;
  8.4747899E-01;  9.9999998E-03;  2.4094610E-01;7380; -1.5044020E-02;  0.0000000E+00; -5.4212525E-02;  1.0037772E+03;  1.5029393E-01;  3.1291072E+03;3;  5.0839725E+00;  0.0000000E+00;  1.8009010E+01;0;  1.8623592E+00;  1.7941143E+04;  0.0000000E+00;  1.2747453E+00;  4.0000000E+04;  0.0000000E+00;  3.9706156E+04;  1.7488494E+00;  0.0000000E+00;  1.1350979E-01;  4.3287485E+03;
  8.6142451E-01;  9.9999998E-03;  2.4086805E-01;7441; -5.8355727E-03;  0.0000000E+00; -7.8373477E-02;  1.0011301E+03;  1.5112968E-01;  9.3620081E+02;3;  6.5038834E+00;  0.0000000E+00;  1.9423250E+01;0;  1.7261343E+00;  1.7656314E+04;  0.0000000E+00;  1.5597539E+00;  4.0000000E+04;  0.0000000E+00;  3.9730133E+04;  1.6606026E+00;  0.0000000E+00;  6.5531731E-02;  4.5933247E+03;
  8.6130357E-01;  9.9999998E-03;  2.5089914E-01;7442; -8.5280240E-03;  0.0000000E+00; -6.8500988E-02;  1.0012388E+03;  1.5114054E-01;  1.0262657E+03;3;  9.2098026E+00;  0.0000000E+00;  2.2762859E+01;0;  1.6965835E+00;  1.7661539E+04;  0.0000000E+00;  1.7078947E+00;  4.0000000E+04;  0.0000000E+00;  3.9727637E+04;  1.6161628E+00;  0.0000000E+00;  8.0420792E-02;  4.8702363E+03;
  8.6125582E-01;  9.9999998E-03;  2.6091278E-01;7443; -1.2257412E-02;  0.0000000E+00; -4.8548501E-02;  1.0013400E+03;  1.5115783E-01;  1.1100104E+03;3;  1.3033682E+01;  0.0000000E+00;  3.3146210E+01;0;  1.7765110E+00;  1.7660980E+04;  0.0000000E+00;  1.7287828E+00;  4.0000000E+04;  0.0000000E+00;  3.9736520E+04;  1.5792882E+00;  0.0000000E+00;  1.9722265E-01;  5.4741592E+03;
  8.6138833E-01;  9.9999998E-03;  2.7095085E-01;7444; -1.6010106E-02;  0.0000000E+00; -2.8506223E-02;  1.0010657E+03;  1.5117846E-01;  8.8287292E+02;3;  1.8325066E+01;  0.0000000E+00;  1.3394720E+01;0;  1.9490170E+00;  1.7653426E+04;  0.0000000E+00;  1.6939552E+00;  4.0000000E+04;  0.0000000E+00;  3.9728508E+04;  1.5472360E+00;  0.0000000E+00;  4.0178111E-01;  5.1815830E+03;
  8.6159980E-01;  9.9999998E-03;  2.8099701E-01;7445; -1.4553419E-02;  0.0000000E+00; -3.2137070E-02;  1.0005201E+03;  1.5119715E-01;  4.3086954E+02;3;  2.1553410E+01;  0.0000000E+00;  8.6569433E+00;0;  1.8631605E+00;  1.7641361E+04;  0.0000000E+00;  1.9094002E+00;  4.0000000E+04;  0.0000000E+00;  3.9707918E+04;  1.5214080E+00;  0.0000000E+00;  3.4175250E-01;  5.8785630E+03;
  8.6171216E-01;  9.9999998E-03;  2.9102960E-01;7446; -1.3575921E-02;  0.0000000E+00; -3.5317671E-02;  1.0000982E+03;  1.5121518E-01;  8.1374390E+01;3;  2.3522993E+01;  0.0000000E+00;  9.5667391E+00;0;  1.7502419E+00;  1.7628066E+04;  0.0000000E+00;  2.4129026E+00;  4.0000000E+04;  0.0000000E+00;  3.9701781E+04;  1.5014993E+00;  0.0000000E+00;  2.4874261E-01;  7.8452974E+03;
  8.6176461E-01;  9.9999998E-03;  3.0105942E-01;7447; -1.2725439E-02;  0.0000000E+00; -3.6949717E-02;  9.9967920E+02;  1.5123521E-01; -2.6575058E+02;3;  2.4818127E+01;  0.0000000E+00;  1.0161292E+01;0;  1.6508663E+00;  1.7612510E+04;  0.0000000E+00;  3.2462137E+00;  4.0000000E+04;  0.0000000E+00;  3.9702535E+04;  1.4863536E+00;  0.0000000E+00;  1.6451269E-01;  1.0597392E+04;
  8.7670696E-01;  9.9999998E-03;  2.4079007E-01;7502; -7.4312440E-03;  0.0000000E+00; -8.4870555E-02;  9.9874286E+02;  1.5165567E-01; -1.0414048E+03;3;  8.1251173E+00;  0.0000000E+00;  1.3746629E+01;0;  1.5888977E+00;  1.7462035E+04;  0.0000000E+00;  1.2055742E+00;  4.0000000E+04;  0.0000000E+00;  3.9754254E+04;  1.5092944E+00;  0.0000000E+00;  7.9603314E-02;  6.2110146E+03;
  8.7643099E-01;  9.9999998E-03;  2.5084266E-01;7503; -1.0283721E-02;  0.0000000E+00; -7.6413967E-02;  9.9885559E+02;  1.5167406E-01; -9.4803381E+02;3;  1.1920603E+01;  0.0000000E+00;  1.9300871E+01;0;  1.5303997E+00;  1.7466158E+04;  0.0000000E+00;  1.1312195E+00;  4.0000000E+04;  0.0000000E+00;  3.9755281E+04;  1.4476303E+00;  0.0000000E+00;  8.2769424E-02;  6.2224653E+03;
  8.7652683E-01;  9.9999998E-03;  2.6087889E-01;7504; -1.3554416E-02;  0.0000000E+00; -5.1721159E-02;  9.9883423E+02;  1.5170336E-01; -9.6571051E+02;3;  1.5764807E+01;  0.0000000E+00;  2.9422153E+01;0;  1.6282156E+00;  1.7461268E+04;  0.0000000E+00;  8.6283237E-01;  4.0000000E+04;  0.0000000E+00;  3.9763238E+04;  1.3940505E+00;  0.0000000E+00;  2.3416507E-01;  6.9703062E+03;
  8.7688303E-01;  9.9999998E-03;  2.7093700E-01;7505; -1.6070236E-02;  0.0000000E+00; -3.2103479E-02;  9.9838269E+02;  1.5173203E-01; -1.3397882E+03;3;  2.1401510E+01;  0.0000000E+00;  9.5527525E+00;0;  1.7809311E+00;  1.7449711E+04;  0.0000000E+00;  7.2341567E-01;  4.0000000E+04;  0.0000000E+00;  3.9749695E+04;  1.3472968E+00;  0.0000000E+00;  4.3363428E-01;  5.4168267E+03;
  8.7705582E-01;  9.9999998E-03;  2.8098908E-01;7506; -1.4783331E-02;  0.0000000E+00; -3.4458026E-02;  9.9788519E+02;  1.5175235E-01; -1.7519352E+03;3;  2.4345297E+01;  0.0000000E+00;  6.6281695E+00;0;  1.6983614E+00;  1.7438678E+04;  0.0000000E+00;  8.2843202E-01;  4.0000000E+04;  0.0000000E+00;  3.9732492E+04;  1.3119223E+00;  0.0000000E+00;  3.8643906E-01;  3.9560330E+03;
  8.7701821E-01;  9.9999998E-03;  2.9102942E-01;7507; -1.3633759E-02;  0.0000000E+00; -3.6851633E-02;  9.9751300E+02;  1.5176997E-01; -2.0602437E+03;3;  2.6281227E+01;  0.0000000E+00;  6.6458807E+00;0;  1.5879660E+00;  1.7428875E+04;  0.0000000E+00;  9.3226898E-01;  4.0000000E+04;  0.0000000E+00;  3.9724551E+04;  1.2858675E+00;  0.0000000E+00;  3.0209854E-01;  4.0935059E+03;
  8.7686628E-01;  9.9999998E-03;  3.0106482E-01;7508; -1.2329591E-02;  0.0000000E+00; -3.7697807E-02;  9.9720221E+02;  1.5178497E-01; -2.3176943E+03;3;  2.8139833E+01;  0.0000000E+00;  7.0341144E+00;0;  1.4930351E+00;  1.7419172E+04;  0.0000000E+00;  9.0956879E-01;  4.0000000E+04;  0.0000000E+00;  3.9723031E+04;  1.2671385E+00;  0.0000000E+00;  2.2589661E-01;  4.6725850E+03;
  8.9253348E-01;  9.9999998E-03;  2.4074216E-01;7563; -1.0349148E-02;  0.0000000E+00; -8.1576519E-02;  9.9761981E+02;  1.5190899E-01; -1.9717124E+03;3;  9.6025181E+00;  0.0000000E+00;  8.8112783E+00;0;  1.5418963E+00;  1.7376990E+04;  0.0000000E+00;  6.7574549E-01;  4.0000000E+04;  0.0000000E+00;  3.9770371E+04;  1.4405109E+00;  0.0000000E+00;  1.0138552E-01;  8.0599414E+03;
  8.9237654E-01;  9.9999998E-03;  2.5081477E-01;7564; -1.4125700E-02;  0.0000000E+00; -7.1920462E-02;  9.9761182E+02;  1.5193927E-01; -1.9783293E+03;3;  1.3613849E+01;  0.0000000E+00;  1.2186918E+01;0;  1.4866651E+00;  1.7375926E+04;  0.0000000E+00;  5.4527247E-01;  4.0000000E+04;  0.0000000E+00;  3.9772438E+04;  1.3609887E+00;  0.0000000E+00;  1.2567644E-01;  8.2652910E+03;
  8.9267242E-01;  9.9999998E-03;  2.6087281E-01;7565; -1.7299931E-02;  0.0000000E+00; -4.7427379E-02;  9.9745154E+02;  1.5197574E-01; -2.1110991E+03;3;  1.7085058E+01;  0.0000000E+00;  2.0482100E+01;0;  1.5890992E+00;  1.7368250E+04;  0.0000000E+00;  3.8488084E-01;  4.0000000E+04;  0.0000000E+00;  3.9775598E+04;  1.2959400E+00;  0.0000000E+00;  2.9315913E-01;  8.6929072E+03;
  8.9300585E-01;  9.9999998E-03;  2.7094153E-01;7566; -1.7972186E-02;  0.0000000E+00; -3.5430033E-02;  9.9701355E+02;  1.5200382E-01; -2.4739087E+03;3;  2.3247488E+01;  0.0000000E+00;  5.9287786E+00;0;  1.6610857E+00;  1.7358686E+04;  0.0000000E+00;  4.1318968E-01;  4.0000000E+04;  0.0000000E+00;  3.9760125E+04;  1.2428544E+00;  0.0000000E+00;  4.1823134E-01;  6.8486572E+03;
  8.9320838E-01;  9.9999998E-03;  2.8099447E-01;7567; -1.6723666E-02;  0.0000000E+00; -3.6103323E-02;  9.9661682E+02;  1.5202858E-01; -2.8025508E+03;3;  2.6389509E+01;  0.0000000E+00;  4.3908935E+00;0;  1.5919738E+00;  1.7349293E+04;  0.0000000E+00;  6.7293352E-01;  4.0000000E+04;  0.0000000E+00;  3.9748188E+04;  1.1998340E+00;  0.0000000E+00;  3.9213973E-01;  5.5965972E+03;
  8.9316630E-01;  9.9999998E-03;  2.9103985E-01;7568; -1.5509742E-02;  0.0000000E+00; -3.7798189E-02;  9.9629291E+02;  1.5204988E-01; -3.0709067E+03;3;  2.8591681E+01;  0.0000000E+00;  4.4035540E+00;0;  1.4860387E+00;  1.7341682E+04;  0.0000000E+00;  8.6493999E-01;  4.0000000E+04;  0.0000000E+00;  3.9738855E+04;  1.1648674E+00;  0.0000000E+00;  3.2117128E-01;  4.9285522E+03;
  8.9295322E-01;  9.9999998E-03;  3.0107924E-01;7569; -1.4217439E-02;  0.0000000E+00; -3.8270559E-02;  9.9607233E+02;  1.5206768E-01; -3.2535972E+03;3;  3.0713594E+01;  0.0000000E+00;  4.4179420E+00;0;  1.3902838E+00;  1.7335938E+04;  0.0000000E+00;  7.2234261E-01;  4.0000000E+04;  0.0000000E+00;  3.9735078E+04;  1.1366231E+00;  0.0000000E+00;  2.5366068E-01;  4.5295488E+03;
  9.0876502E-01;  9.9999998E-03;  2.4077117E-01;7624; -1.3420440E-02;  0.0000000E+00; -7.5469203E-02;  9.9769238E+02;  1.5192835E-01; -1.9115112E+03;3;  1.0738516E+01;  0.0000000E+00;  1.4584250E+00;0;  1.6832982E+00;  1.7387219E+04;  0.0000000E+00;  2.6689133E-01;  4.0000000E+04;  0.0000000E+00;  3.9764246E+04;  1.5936428E+00;  0.0000000E+00;  8.9655347E-02;  7.3932246E+03;
  9.0867680E-01;  9.9999998E-03;  2.5084218E-01;7625; -1.7602894E-02;  0.0000000E+00; -6.6236228E-02;  9.9762634E+02;  1.5196320E-01; -1.9662178E+03;3;  1.4471342E+01;  0.0000000E+00;  4.8264980E+00;0;  1.6238519E+00;  1.7383053E+04;  0.0000000E+00;  2.9215971E-01;  4.0000000E+04;  0.0000000E+00;  3.9768625E+04;  1.5023241E+00;  0.0000000E+00;  1.2152782E-01;  7.9818833E+03;
  9.0890682E-01;  9.9999998E-03;  2.6090151E-01;7626; -2.1226464E-02;  0.0000000E+00; -4.5353841E-02;  9.9749097E+02;  1.5199552E-01; -2.0783943E+03;3;  1.9222733E+01;  0.0000000E+00;  1.0467685E+01;0;  1.7031591E+00;  1.7376240E+04;  0.0000000E+00;  3.7188292E-01;  4.0000000E+04;  0.0000000E+00;  3.9772648E+04;  1.4322346E+00;  0.0000000E+00;  2.7092445E-01;  8.5533135E+03;
  9.0921235E-01;  9.9999998E-03;  2.7096325E-01;7627; -2.0338412E-02;  0.0000000E+00; -3.6469620E-02;  9.9719067E+02;  1.5202099E-01; -2.3271384E+03;3;  2.4514776E+01;  0.0000000E+00;  3.0187399E+00;0;  1.7419229E+00;  1.7368605E+04;  0.0000000E+00;  5.6704473E-01;  4.0000000E+04;  0.0000000E+00;  3.9764984E+04;  1.3762183E+00;  0.0000000E+00;  3.6570451E-01;  7.7694360E+03;
  9.0943611E-01;  9.9999998E-03;  2.8101835E-01;7628; -1.8980499E-02;  0.0000000E+00; -3.6000248E-02;  9.9684570E+02;  1.5204494E-01; -2.6128638E+03;3;  2.7484104E+01;  0.0000000E+00;  1.6277419E+00;0;  1.6889778E+00;  1.7361199E+04;  0.0000000E+00;  9.0457743E-01;  4.0000000E+04;  0.0000000E+00;  3.9753211E+04;  1.3292094E+00;  0.0000000E+00;  3.5976839E-01;  6.6796221E+03;
  9.0943444E-01;  9.9999998E-03;  2.9106537E-01;7629; -1.7710896E-02;  0.0000000E+00; -3.7381668E-02;  9.9655585E+02;  1.5206750E-01; -2.8529688E+03;3;  3.0397032E+01;  0.0000000E+00;  1.4737333E+00;0;  1.5903622E+00;  1.7355285E+04;  0.0000000E+00;  1.2851686E+00;  4.0000000E+04;  0.0000000E+00;  3.9743027E+04;  1.2869064E+00;  0.0000000E+00;  3.0345580E-01;  6.2025776E+03;
  9.0926653E-01;  9.9999998E-03;  3.0110580E-01;7630; -1.6478922E-02;  0.0000000E+00; -3.7786361E-02;  9.9638751E+02;  1.5208581E-01; -2.9924016E+03;3;  3.3002998E+01;  0.0000000E+00;  1.3021742E+00;0;  1.4962645E+00;  1.7351793E+04;  0.0000000E+00;  1.5857291E+00;  4.0000000E+04;  0.0000000E+00;  3.9738141E+04;  1.2487385E+00;  0.0000000E+00;  2.4752592E-01;  6.3685532E+03;
  9.2526394E-01;  9.9999998E-03;  2.4087675E-01;7685; -1.6312111E-02;  0.0000000E+00; -6.8077184E-02;  9.9848547E+02;  1.5172416E-01; -1.2545385E+03;3;  1.1711091E+01;  0.0000000E+00; -6.1991544E+00;0;  2.1013031E+00;  1.7470455E+04;  0.0000000E+00;  1.9369486E-01;  4.0000000E+04;  0.0000000E+00;  3.9736875E+04;  2.0665905E+00;  0.0000000E+00;  3.4712490E-02;  4.0839980E+03;
  9.2517781E-01;  9.9999998E-03;  2.5092936E-01;7686; -2.0578828E-02;  0.0000000E+00; -6.2915109E-02;  9.9839966E+02;  1.5175539E-01; -1.3255848E+03;3;  1.5843218E+01;  0.0000000E+00; -4.1416001E+00;0;  2.0130513E+00;  1.7465150E+04;  0.0000000E+00;  3.8022754E-01;  4.0000000E+04;  0.0000000E+00;  3.9742230E+04;  1.9685028E+00;  0.0000000E+00;  4.4548444E-02;  4.8971074E+03;
  9.2538643E-01;  9.9999998E-03;  2.6096368E-01;7687; -2.3593005E-02;  0.0000000E+00; -5.0691359E-02;  9.9840149E+02;  1.5177974E-01; -1.3241028E+03;3;  2.0532028E+01;  0.0000000E+00;  1.2057058E+00;0;  2.0143108E+00;  1.7459129E+04;  0.0000000E+00;  6.2581867E-01;  4.0000000E+04;  0.0000000E+00;  3.9755668E+04;  1.8973231E+00;  0.0000000E+00;  1.1698760E-01;  6.8124561E+03;
  9.2569911E-01;  9.9999998E-03;  2.7100819E-01;7688; -2.3017490E-02;  0.0000000E+00; -3.9801221E-02;  9.9827502E+02;  1.5179919E-01; -1.4288192E+03;3;  2.5761799E+01;  0.0000000E+00;  1.0609905E+00;0;  2.0603597E+00;  1.7452980E+04;  0.0000000E+00;  9.0058374E-01;  4.0000000E+04;  0.0000000E+00;  3.9759316E+04;  1.8423101E+00;  0.0000000E+00;  2.1804956E-01;  7.6911382E+03;
  9.2597425E-01;  9.9999998E-03;  2.8105798E-01;7689; -2.1428809E-02;  0.0000000E+00; -3.5724599E-02;  9.9800574E+02;  1.5181763E-01; -1.6518796E+03;3;  2.9290985E+01;  0.0000000E+00; -4.9139753E-01;0;  2.0577664E+00;  1.7446969E+04;  0.0000000E+00;  1.1986513E+00;  4.0000000E+04;  0.0000000E+00;  3.9751070E+04;  1.7964387E+00;  0.0000000E+00;  2.6132765E-01;  7.4397827E+03;
  9.2610639E-01;  9.9999998E-03;  2.9110339E-01;7690; -1.9954581E-02;  0.0000000E+00; -3.5848264E-02;  9.9773077E+02;  1.5183626E-01; -1.8796307E+03;3;  3.2237278E+01;  0.0000000E+00; -2.0442109E+00;0;  1.9926616E+00;  1.7441641E+04;  0.0000000E+00;  1.5986488E+00;  4.0000000E+04;  0.0000000E+00;  3.9741133E+04;  1.7543126E+00;  0.0000000E+00;  2.3834895E-01;  7.4897490E+03;
  9.2610937E-01;  9.9999998E-03;  3.0114293E-01;7691; -1.8738957E-02;  0.0000000E+00; -3.6625721E-02;  9.9755603E+02;  1.5185273E-01; -2.0243885E+03;3;  3.5182579E+01;  0.0000000E+00; -2.3246121E+00;0;  1.9077107E+00;  1.7438254E+04;  0.0000000E+00;  2.1665788E+00;  4.0000000E+04;  0.0000000E+00;  3.9735688E+04;  1.7150490E+00;  0.0000000E+00;  1.9266167E-01;  8.4941592E+03;
  9.4168061E-01;  9.9999998E-03;  2.4101341E-01;7746; -1.8913019E-02;  0.0000000E+00; -5.8647424E-02;  9.9940692E+02;  1.5129168E-01; -4.9122348E+02;3;  1.2717711E+01;  0.0000000E+00; -1.3434653E+01;0;  2.8250999E+00;  1.7603516E+04;  0.0000000E+00;  3.9387530E-01;  4.0000000E+04;  0.0000000E+00;  3.9703312E+04;  2.8766079E+00;  0.0000000E+00; -5.1507849E-02;  1.7470941E+03;
  9.4169575E-01;  9.9999998E-03;  2.5104117E-01;7747; -2.3482943E-02;  0.0000000E+00; -5.7003204E-02;  9.9933112E+02;  1.5131235E-01; -5.5402106E+02;3;  1.6691874E+01;  0.0000000E+00; -1.1987986E+01;0;  2.7221766E+00;  1.7598754E+04;  0.0000000E+00;  6.7242283E-01;  4.0000000E+04;  0.0000000E+00;  3.9708227E+04;  2.7866728E+00;  0.0000000E+00; -6.4496227E-02;  2.7917161E+03;
  9.4191790E-01;  9.9999998E-03;  2.6105464E-01;7748; -2.5837503E-02;  0.0000000E+00; -5.3450644E-02;  9.9935962E+02;  1.5132420E-01; -5.3042212E+02;3;  2.1424723E+01;  0.0000000E+00; -9.5891228E+00;0;  2.6526346E+00;  1.7593557E+04;  0.0000000E+00;  8.5728890E-01;  4.0000000E+04;  0.0000000E+00;  3.9723527E+04;  2.7219520E+00;  0.0000000E+00; -6.9317281E-02;  4.3323110E+03;
  9.4222796E-01;  9.9999998E-03;  2.7107620E-01;7749; -2.5560416E-02;  0.0000000E+00; -4.7946345E-02;  9.9935480E+02;  1.5133256E-01; -5.3442041E+02;3;  2.6484554E+01;  0.0000000E+00; -5.0178881E+00;0;  2.6265092E+00;  1.7588092E+04;  0.0000000E+00;  8.6700338E-01;  4.0000000E+04;  0.0000000E+00;  3.9737047E+04;  2.6732645E+00;  0.0000000E+00; -4.6755273E-02;  5.7741470E+03;
  9.4249696E-01;  9.9999998E-03;  2.8110862E-01;7750; -2.4068542E-02;  0.0000000E+00; -4.1890100E-02;  9.9920911E+02;  1.5134075E-01; -6.5507788E+02;3;  3.0731817E+01;  0.0000000E+00; -2.3889256E+00;0;  2.6383379E+00;  1.7582088E+04;  0.0000000E+00;  6.7274129E-01;  4.0000000E+04;  0.0000000E+00;  3.9740512E+04;  2.6319673E+00;  0.0000000E+00;  6.3705775E-03;  6.0537383E+03;
  9.4271916E-01;  9.9999998E-03;  2.9114518E-01;7751; -2.2536585E-02;  0.0000000E+00; -3.8126659E-02;  9.9896082E+02;  1.5135103E-01; -8.6074860E+02;3;  3.4043003E+01;  0.0000000E+00; -2.0762923E+00;0;  2.6436708E+00;  1.7575840E+04;  0.0000000E+00;  3.4215960E-01;  4.0000000E+04;  0.0000000E+00;  3.9736793E+04;  2.5973427E+00;  0.0000000E+00;  4.6328083E-02;  5.3675825E+03;
  9.4283265E-01;  9.9999998E-03;  3.0118161E-01;7752; -2.1229638E-02;  0.0000000E+00; -3.7918977E-02;  9.9869537E+02;  1.5136053E-01; -1.0805883E+03;3;  3.7173626E+01;  0.0000000E+00; -2.9419587E+00;0;  2.5992146E+00;  1.7569494E+04;  0.0000000E+00;  1.1740590E-01;  4.0000000E+04;  0.0000000E+00;  3.9731543E+04;  2.5649946E+00;  0.0000000E+00;  3.4219887E-02;  4.6331533E+03;
  9.5681918E-01;  9.9999998E-03;  2.4114953E-01;7807; -2.1202927E-02;  0.0000000E+00; -4.9205836E-02;  9.9931024E+02;  1.5061446E-01; -5.7126453E+02;3;  1.2467451E+01;  0.0000000E+00; -1.8837208E+01;0;  3.7073526E+00;  1.7756883E+04;  0.0000000E+00;  1.3100155E-01;  4.0000000E+04;  0.0000000E+00;  3.9670469E+04;  3.8596573E+00;  0.0000000E+00; -1.5230472E-01;  4.5472627E+03;
  9.5695031E-01;  9.9999998E-03;  2.5115606E-01;7808; -2.5524989E-02;  0.0000000E+00; -5.0429184E-02;  9.9912866E+02;  1.5061885E-01; -7.2168268E+02;3;  1.6928865E+01;  0.0000000E+00; -1.7768961E+01;0;  3.6053584E+00;  1.7751230E+04;  0.0000000E+00;  5.2395314E-01;  4.0000000E+04;  0.0000000E+00;  3.9671043E+04;  3.7939742E+00;  0.0000000E+00; -1.8861589E-01;  5.0365288E+03;
  9.5718306E-01;  9.9999998E-03;  2.6116100E-01;7809; -2.7780794E-02;  0.0000000E+00; -5.1790994E-02;  9.9895990E+02;  1.5061583E-01; -8.6143707E+02;3;  2.1607815E+01;  0.0000000E+00; -1.7325869E+01;0;  3.5039167E+00;  1.7744691E+04;  0.0000000E+00;  8.5597253E-01;  4.0000000E+04;  0.0000000E+00;  3.9676102E+04;  3.7443123E+00;  0.0000000E+00; -2.4039553E-01;  5.3229272E+03;
  9.5748574E-01;  9.9999998E-03;  2.7117029E-01;7810; -2.7860917E-02;  0.0000000E+00; -5.3459033E-02;  9.9878931E+02;  1.5061131E-01; -1.0027211E+03;3;  2.6452677E+01;  0.0000000E+00; -1.6537619E+01;0;  3.3992598E+00;  1.7737561E+04;  0.0000000E+00;  1.1187730E+00;  4.0000000E+04;  0.0000000E+00;  3.9683684E+04;  3.7075531E+00;  0.0000000E+00; -3.0829343E-01;  5.7737144E+03;
  9.5774078E-01;  9.9999998E-03;  2.8117853E-01;7811; -2.6270621E-02;  0.0000000E+00; -5.3406909E-02;  9.9868402E+02;  1.5060832E-01; -1.0899001E+03;3;  3.1367762E+01;  0.0000000E+00; -1.3466311E+01;0;  3.3178363E+00;  1.7729002E+04;  0.0000000E+00;  1.2852311E+00;  4.0000000E+04;  0.0000000E+00;  3.9699246E+04;  3.6747386E+00;  0.0000000E+00; -3.5690245E-01;  6.2849893E+03;
  9.5799726E-01;  9.9999998E-03;  2.9119316E-01;7812; -2.4031321E-02;  0.0000000E+00; -5.1592756E-02;  9.9853442E+02;  1.5060741E-01; -1.2138071E+03;3;  3.5763725E+01;  0.0000000E+00; -9.9007549E+00;0;  3.2861090E+00;  1.7718938E+04;  0.0000000E+00;  1.3133430E+00;  4.0000000E+04;  0.0000000E+00;  3.9714363E+04;  3.6496527E+00;  0.0000000E+00; -3.6354378E-01;  7.1598906E+03;
  9.5815969E-01;  9.9999998E-03;  3.0121610E-01;7813; -2.1912724E-02;  0.0000000E+00; -5.0056804E-02;  9.9823724E+02;  1.5061125E-01; -1.4599441E+03;3;  3.9508404E+01;  0.0000000E+00; -7.6471496E+00;0;  3.2758219E+00;  1.7706682E+04;  0.0000000E+00;  1.4063711E+00;  4.0000000E+04;  0.0000000E+00;  3.9722391E+04;  3.6256487E+00;  0.0000000E+00; -3.4982687E-01;  8.3435371E+03;
  9.7139037E-01;  9.9999998E-03;  2.4121612E-01;7868; -1.9007556E-02;  0.0000000E+00; -3.5284296E-02;  9.9828644E+02;  1.4967769E-01; -1.4191193E+03;3;  9.6044884E+00;  0.0000000E+00; -2.7593098E+01;0;  4.6299386E+00;  1.7933695E+04;  0.0000000E+00; -4.6050131E-02;  4.0000000E+04;  0.0000000E+00;  3.9661457E+04;  4.8654013E+00;  0.0000000E+00; -2.3546271E-01;  5.5921792E+03;
  9.7151971E-01;  9.9999998E-03;  2.5122863E-01;7869; -2.4015563E-02;  0.0000000E+00; -4.0911831E-02;  9.9783215E+02;  1.4966664E-01; -1.7953087E+03;3;  1.5203081E+01;  0.0000000E+00; -2.6332378E+01;0;  4.5284753E+00;  1.7924008E+04;  0.0000000E+00;  3.6302766E-01;  4.0000000E+04;  0.0000000E+00;  3.9652223E+04;  4.8265662E+00;  0.0000000E+00; -2.9809099E-01;  6.9974009E+03;
  9.7168678E-01;  9.9999998E-03;  2.6123658E-01;7870; -2.6739102E-02;  0.0000000E+00; -4.7208600E-02;  9.9735339E+02;  1.4965348E-01; -2.1918345E+03;3;  2.0402487E+01;  0.0000000E+00; -2.4558020E+01;0;  4.3992267E+00;  1.7913527E+04;  0.0000000E+00;  8.1721342E-01;  4.0000000E+04;  0.0000000E+00;  3.9644840E+04;  4.7933598E+00;  0.0000000E+00; -3.9413321E-01;  8.3479170E+03;
  9.7189218E-01;  9.9999998E-03;  2.7122527E-01;7871; -2.7537765E-02;  0.0000000E+00; -5.1414631E-02;  9.9710620E+02;  1.4963819E-01; -2.3965371E+03;3;  2.4729891E+01;  0.0000000E+00; -2.1978542E+01;0;  4.2699471E+00;  1.7902314E+04;  0.0000000E+00;  1.3515245E+00;  4.0000000E+04;  0.0000000E+00;  3.9658664E+04;  4.7661028E+00;  0.0000000E+00; -4.9615592E-01;  7.9384663E+03;
  9.7211874E-01;  9.9999998E-03;  2.8121403E-01;7872; -2.7315140E-02;  0.0000000E+00; -5.2862268E-02;  9.9701361E+02;  1.4962536E-01; -2.4731934E+03;3;  2.9234310E+01;  0.0000000E+00; -1.9209066E+01;0;  4.1754160E+00;  1.7889645E+04;  0.0000000E+00;  1.8975149E+00;  4.0000000E+04;  0.0000000E+00;  3.9687129E+04;  4.7438159E+00;  0.0000000E+00; -5.6839967E-01;  7.7234170E+03;
  9.7237694E-01;  9.9999998E-03;  2.9121521E-01;7873; -2.6439767E-02;  0.0000000E+00; -5.2123297E-02;  9.9685010E+02;  1.4961591E-01; -2.6086392E+03;3;  3.3875553E+01;  0.0000000E+00; -1.5700356E+01;0;  4.1395025E+00;  1.7874990E+04;  0.0000000E+00;  2.3076136E+00;  4.0000000E+04;  0.0000000E+00;  3.9714332E+04;  4.7275176E+00;  0.0000000E+00; -5.8801520E-01;  9.1682979E+03;
  9.7253430E-01;  9.9999998E-03;  3.0122897E-01;7874; -2.5576575E-02;  0.0000000E+00; -5.0789230E-02;  9.9647968E+02;  1.4961407E-01; -2.9153728E+03;3;  3.8097015E+01;  0.0000000E+00; -1.1965716E+01;0;  4.1431923E+00;  1.7857002E+04;  0.0000000E+00;  2.7493241E+00;  4.0000000E+04;  0.0000000E+00;  3.9731617E+04;  4.7081738E+00;  0.0000000E+00; -5.6498158E-01;  1.1421104E+04;
  9.8537207E-01;  9.9999998E-03;  2.4120826E-01;7929;  9.3597606E-02;  0.0000000E+00; -1.0082438E-02;  9.9672144E+02;  1.4848420E-01; -2.7149353E+03;3; -3.0731024E+01;  0.0000000E+00; -3.1002089E+01;0;  5.4272013E+00;  1.8155127E+04;  0.0000000E+00;  3.6691299E-01;  4.0000000E+04;  0.0000000E+00;  3.9673863E+04;  5.6846714E+00;  0.0000000E+00; -2.5746998E-01;  4.7606113E+03;
  9.8547262E-01;  9.9999998E-03;  2.5123596E-01;7930;  7.5015366E-02;  0.0000000E+00; -1.7681280E-02;  9.9601868E+02;  1.4846691E-01; -3.2969131E+03;3; -2.7596701E+01;  0.0000000E+00; -2.9904192E+01;0;  5.3643413E+00;  1.8139197E+04;  0.0000000E+00;  6.8304729E-01;  4.0000000E+04;  0.0000000E+00;  3.9659852E+04;  5.6736765E+00;  0.0000000E+00; -3.0933514E-01;  6.4999214E+03;
  9.8557514E-01;  9.9999998E-03;  2.6124090E-01;7931;  6.1429434E-02;  0.0000000E+00; -2.7305953E-02;  9.9540076E+02;  1.4845096E-01; -3.8085547E+03;3; -2.4093403E+01;  0.0000000E+00; -2.7521305E+01;0;  5.2549696E+00;  1.8122826E+04;  0.0000000E+00;  1.0488989E+00;  4.0000000E+04;  0.0000000E+00;  3.9654859E+04;  5.6598768E+00;  0.0000000E+00; -4.0490738E-01;  7.3843765E+03;
  9.8567367E-01;  9.9999998E-03;  2.7121878E-01;7932;  4.9181465E-02;  0.0000000E+00; -3.3602044E-02;  9.9513397E+02;  1.4843446E-01; -4.0294780E+03;3; -2.1387547E+01;  0.0000000E+00; -2.4280474E+01;0;  5.1443176E+00;  1.8105939E+04;  0.0000000E+00;  1.4749290E+00;  4.0000000E+04;  0.0000000E+00;  3.9679215E+04;  5.6440129E+00;  0.0000000E+00; -4.9969530E-01;  5.9181392E+03;
  9.8581737E-01;  9.9999998E-03;  2.8120339E-01;7933;  3.8807455E-02;  0.0000000E+00; -3.5716701E-02;  9.9497797E+02;  1.4841935E-01; -4.1586924E+03;3; -1.9635307E+01;  0.0000000E+00; -2.1013063E+01;0;  5.0797615E+00;  1.8087994E+04;  0.0000000E+00;  1.9025297E+00;  4.0000000E+04;  0.0000000E+00;  3.9714633E+04;  5.6294136E+00;  0.0000000E+00; -5.4965222E-01;  6.1659404E+03;
  9.8597658E-01;  9.9999998E-03;  2.9120392E-01;7934;  2.6438866E-02;  0.0000000E+00; -3.5764337E-02;  9.9470740E+02;  1.4840791E-01; -4.3827227E+03;3; -1.8078260E+01;  0.0000000E+00; -1.7694992E+01;0;  5.0640049E+00;  1.8068445E+04;  0.0000000E+00;  2.2489250E+00;  4.0000000E+04;  0.0000000E+00;  3.9744160E+04;  5.6144404E+00;  0.0000000E+00; -5.5043560E-01;  8.4769912E+03;
  9.8607999E-01;  9.9999998E-03;  3.0121559E-01;7935;  1.1398588E-02;  0.0000000E+00; -3.5819042E-02;  9.9425806E+02;  1.4840426E-01; -4.7548271E+03;3; -1.6601040E+01;  0.0000000E+00; -1.5299859E+01;0;  5.0693207E+00;  1.8046141E+04;  0.0000000E+00;  2.5397272E+00;  4.0000000E+04;  0.0000000E+00;  3.9764480E+04;  5.5948400E+00;  0.0000000E+00; -5.2551937E-01;  1.0678538E+04;
  9.9887133E-01;  9.9999998E-03;  2.4117151E-01;7990;  2.8238434E-01;  0.0000000E+00;  1.2283513E-02;  9.9523328E+02;  1.4709070E-01; -3.9468376E+03;3; -4.6817078E+01;  0.0000000E+00; -2.7682535E+01;0;  5.9480543E+00;  1.8441971E+04;  0.0000000E+00;  9.9033850E-01;  4.0000000E+04;  0.0000000E+00;  3.9688453E+04;  6.2213492E+00;  0.0000000E+00; -2.7329484E-01;  4.5278291E+03;
  9.9884868E-01;  9.9999998E-03;  2.5120297E-01;7991;  2.7461892E-01;  0.0000000E+00;  3.3831203E-03;  9.9436285E+02;  1.4707541E-01; -4.6675859E+03;3; -4.5259819E+01;  0.0000000E+00; -2.7077831E+01;0;  5.9188361E+00;  1.8416910E+04;  0.0000000E+00;  1.0981902E+00;  4.0000000E+04;  0.0000000E+00;  3.9678691E+04;  6.2360916E+00;  0.0000000E+00; -3.1725556E-01;  5.1964292E+03;
  9.9894911E-01;  9.9999998E-03;  2.6121143E-01;7992;  2.7017576E-01;  0.0000000E+00; -6.4054285E-03;  9.9359216E+02;  1.4705965E-01; -5.3057124E+03;3; -4.4217110E+01;  0.0000000E+00; -2.5403458E+01;0;  5.8524208E+00;  1.8392764E+04;  0.0000000E+00;  1.2031051E+00;  4.0000000E+04;  0.0000000E+00;  3.9677949E+04;  6.2462573E+00;  0.0000000E+00; -3.9383674E-01;  5.1799438E+03;
  9.9912667E-01;  9.9999998E-03;  2.7119380E-01;7993;  2.6498741E-01;  0.0000000E+00; -1.2606221E-02;  9.9316101E+02;  1.4704128E-01; -5.6626714E+03;3; -4.4178696E+01;  0.0000000E+00; -2.3135515E+01;0;  5.7907515E+00;  1.8369025E+04;  0.0000000E+00;  1.2954195E+00;  4.0000000E+04;  0.0000000E+00;  3.9704684E+04;  6.2522988E+00;  0.0000000E+00; -4.6154732E-01;  3.8632825E+03;
  9.9931508E-01;  9.9999998E-03;  2.8118488E-01;7994;  2.5942135E-01;  0.0000000E+00; -1.5677044E-02;  9.9281708E+02;  1.4702341E-01; -5.9474268E+03;3; -4.4635113E+01;  0.0000000E+00; -2.0901209E+01;0;  5.7588243E+00;  1.8345094E+04;  0.0000000E+00;  1.3649764E+00;  4.0000000E+04;  0.0000000E+00;  3.9738297E+04;  6.2536516E+00;  0.0000000E+00; -4.9482745E-01;  5.6223003E+03;
  9.9944985E-01;  9.9999998E-03;  2.9118964E-01;7995;  2.5138593E-01;  0.0000000E+00; -1.7297799E-02;  9.9239911E+02;  1.4701185E-01; -6.2935288E+03;3; -4.5096256E+01;  0.0000000E+00; -1.8682800E+01;0;  5.7549233E+00;  1.8320932E+04;  0.0000000E+00;  1.3830563E+00;  4.0000000E+04;  0.0000000E+00;  3.9765492E+04;  6.2479320E+00;  0.0000000E+00; -4.9300849E-01;  8.3938105E+03;
  9.9952239E-01;  9.9999998E-03;  3.0120313E-01;7996;  2.4096973E-01;  0.0000000E+00; -1.8975412E-02;  9.9186829E+02;  1.4700840E-01; -6.7330581E+03;3; -4.5420429E+01;  0.0000000E+00; -1.7045673E+01;0;  5.7588396E+00;  1.8295801E+04;  0.0000000E+00;  1.3209751E+00;  4.0000000E+04;  0.0000000E+00;  3.9784621E+04;  6.2342296E+00;  0.0000000E+00; -4.7538981E-01;  1.0526298E+04;
  1.0130566E+00;  9.9999998E-03;  2.5115544E-01;8052;  4.5989197E-01;  0.0000000E+00;  2.3932593E-02;  9.9339661E+02;  1.4547499E-01; -5.4668926E+03;3; -6.5914116E+01;  0.0000000E+00; -2.2902210E+01;0;  6.1486001E+00;  1.8790264E+04;  0.0000000E+00;  8.9389277E-01;  4.0000000E+04;  0.0000000E+00;  3.9694973E+04;  6.4642630E+00;  0.0000000E+00; -3.1566304E-01;  3.1160242E+03;
  1.0131432E+00;  9.9999998E-03;  2.4111527E-01;8051;  4.6184182E-01;  0.0000000E+00;  3.2272171E-02;  9.9447418E+02;  1.4548279E-01; -4.5747627E+03;3; -6.3727310E+01;  0.0000000E+00; -2.3127041E+01;0;  6.1387053E+00;  1.8826309E+04;  0.0000000E+00;  1.0873030E+00;  4.0000000E+04;  0.0000000E+00;  3.9701879E+04;  6.4200311E+00;  0.0000000E+00; -2.8132576E-01;  3.4371086E+03;
  1.0130979E+00;  9.9999998E-03;  2.6117495E-01;8053;  4.5443538E-01;  0.0000000E+00;  1.4199409E-02;  9.9241321E+02;  1.4546375E-01; -6.2810000E+03;3; -6.8312889E+01;  0.0000000E+00; -2.1945410E+01;0;  6.1155581E+00;  1.8756756E+04;  0.0000000E+00;  6.8524134E-01;  4.0000000E+04;  0.0000000E+00;  3.9694355E+04;  6.4946814E+00;  0.0000000E+00; -3.7912342E-01;  2.5258098E+03;
  1.0132143E+00;  9.9999998E-03;  2.7116472E-01;8054;  4.4790784E-01;  0.0000000E+00;  7.5096926E-03;  9.9180670E+02;  1.4544848E-01; -6.7831362E+03;3; -7.0974136E+01;  0.0000000E+00; -2.0482775E+01;0;  6.0803256E+00;  1.8725340E+04;  0.0000000E+00;  5.0939989E-01;  4.0000000E+04;  0.0000000E+00;  3.9721562E+04;  6.5149055E+00;  0.0000000E+00; -4.3457985E-01;  2.4314299E+03;
  1.0134145E+00;  9.9999998E-03;  2.8116146E-01;8055;  4.4294038E-01;  0.0000000E+00;  3.6046368E-03;  9.9130615E+02;  1.4543240E-01; -7.1975269E+03;3; -7.3931313E+01;  0.0000000E+00; -1.8828581E+01;0;  6.0667715E+00;  1.8695602E+04;  0.0000000E+00;  4.5151711E-01;  4.0000000E+04;  0.0000000E+00;  3.9754449E+04;  6.5280876E+00;  0.0000000E+00; -4.6131632E-01;  6.1964917E+03;
  1.0135770E+00;  9.9999998E-03;  2.9116985E-01;8056;  4.3757245E-01;  0.0000000E+00;  1.1285205E-03;  9.9078961E+02;  1.4542042E-01; -7.6251445E+03;3; -7.6860336E+01;  0.0000000E+00; -1.7324049E+01;0;  6.0774479E+00;  1.8667713E+04;  0.0000000E+00;  5.2937877E-01;  4.0000000E+04;  0.0000000E+00;  3.9781281E+04;  6.5347919E+00;  0.0000000E+00; -4.5734394E-01;  9.5811367E+03;
  1.0136890E+00;  9.9999998E-03;  3.0118603E-01;8057;  4.3304858E-01;  0.0000000E+00; -1.4110943E-03;  9.9021979E+02;  1.4541353E-01; -8.0968789E+03;3; -7.9597679E+01;  0.0000000E+00; -1.6226538E+01;0;  6.0932517E+00;  1.8641494E+04;  0.0000000E+00;  6.6432637E-01;  4.0000000E+04;  0.0000000E+00;  3.9799617E+04;  6.5360136E+00;  0.0000000E+00; -4.4276181E-01;  1.1987078E+04;
  1.0284042E+00;  9.9999998E-03;  2.4105534E-01;8112;  6.0997510E-01;  0.0000000E+00;  4.9714491E-02;  9.9516559E+02;  1.4362665E-01; -4.0016130E+03;3; -8.1343742E+01;  0.0000000E+00; -1.9363678E+01;0;  5.9256244E+00;  1.9352953E+04;  0.0000000E+00;  3.3634484E-01;  4.0000000E+04;  0.0000000E+00;  3.9707898E+04;  6.1983275E+00;  0.0000000E+00; -2.7270299E-01;  8.2531030E+02;
  1.0283701E+00;  9.9999998E-03;  2.5110942E-01;8113;  6.0530865E-01;  0.0000000E+00;  4.2482398E-02;  9.9389008E+02;  1.4362796E-01; -5.0574238E+03;3; -8.6386490E+01;  0.0000000E+00; -1.9263605E+01;0;  5.9588923E+00;  1.9307877E+04;  0.0000000E+00; -1.6119771E-01;  4.0000000E+04;  0.0000000E+00;  3.9699582E+04;  6.2632742E+00;  0.0000000E+00; -3.0438197E-01;  1.5455013E+03;
  1.0284238E+00;  9.9999998E-03;  2.6114181E-01;8114;  5.9055316E-01;  0.0000000E+00;  3.2524012E-02;  9.9271527E+02;  1.4362019E-01; -6.0297998E+03;3; -9.1143051E+01;  0.0000000E+00; -1.8324682E+01;0;  5.9383583E+00;  1.9268129E+04;  0.0000000E+00; -5.3128523E-01;  4.0000000E+04;  0.0000000E+00;  3.9696066E+04;  6.3090606E+00;  0.0000000E+00; -3.7070251E-01;  2.2593499E+03;
  1.0284792E+00;  9.9999998E-03;  2.7114016E-01;8115;  5.7672888E-01;  0.0000000E+00;  2.5239838E-02;  9.9195905E+02;  1.4360748E-01; -6.6557803E+03;3; -9.6281128E+01;  0.0000000E+00; -1.7151499E+01;0;  5.9111071E+00;  1.9231174E+04;  0.0000000E+00; -6.8485087E-01;  4.0000000E+04;  0.0000000E+00;  3.9720461E+04;  6.3428669E+00;  0.0000000E+00; -4.3175986E-01;  2.0483445E+03;
  1.0286144E+00;  9.9999998E-03;  2.8114292E-01;8116;  5.6598556E-01;  0.0000000E+00;  2.0510549E-02;  9.9135950E+02;  1.4359526E-01; -7.1520464E+03;3; -1.0136536E+02;  0.0000000E+00; -1.5572467E+01;0;  5.8980637E+00;  1.9197494E+04;  0.0000000E+00; -5.3105581E-01;  4.0000000E+04;  0.0000000E+00;  3.9751070E+04;  6.3664131E+00;  0.0000000E+00; -4.6834940E-01;  5.2345195E+03;
  1.0287802E+00;  9.9999998E-03;  2.9115525E-01;8117;  5.5895692E-01;  0.0000000E+00;  1.7318837E-02;  9.9080127E+02;  1.4358386E-01; -7.6140674E+03;3; -1.0643366E+02;  0.0000000E+00; -1.4221105E+01;0;  5.9085660E+00;  1.9167869E+04;  0.0000000E+00;  4.9022576E-03;  4.0000000E+04;  0.0000000E+00;  3.9777016E+04;  6.3838477E+00;  0.0000000E+00; -4.7528180E-01;  8.5263887E+03;
  1.0289154E+00;  9.9999998E-03;  3.0117476E-01;8118;  5.5425847E-01;  0.0000000E+00;  1.4115807E-02;  9.9025732E+02;  1.4357579E-01; -8.0642979E+03;3; -1.1131238E+02;  0.0000000E+00; -1.3102015E+01;0;  5.9274216E+00;  1.9142490E+04;  0.0000000E+00;  8.0962932E-01;  4.0000000E+04;  0.0000000E+00;  3.9794395E+04;  6.3986678E+00;  0.0000000E+00; -4.7124648E-01;  1.1372501E+04;
  1.0442675E+00;  9.9999998E-03;  2.4101102E-01;8173;  7.0846629E-01;  0.0000000E+00;  6.8121575E-02;  9.9776410E+02;  1.4147152E-01; -1.8502766E+03;3; -9.2337296E+01;  0.0000000E+00; -1.5378720E+01;0;  5.3746042E+00;  2.0065191E+04;  0.0000000E+00; -5.0692540E-01;  4.0000000E+04;  0.0000000E+00;  3.9700562E+04;  5.5968719E+00;  0.0000000E+00; -2.2226767E-01;  2.6576379E+03;
  1.0445482E+00;  9.9999998E-03;  2.5107750E-01;8174;  6.9144362E-01;  0.0000000E+00;  6.2268451E-02;  9.9651617E+02;  1.4145820E-01; -2.8829785E+03;3; -9.9028954E+01;  0.0000000E+00; -1.5250660E+01;0;  5.4172130E+00;  2.0028434E+04;  0.0000000E+00; -1.0811740E+00;  4.0000000E+04;  0.0000000E+00;  3.9686676E+04;  5.6664762E+00;  0.0000000E+00; -2.4926351E-01;  4.7208721E+03;
  1.0449723E+00;  9.9999998E-03;  2.6112092E-01;8175;  6.7031866E-01;  0.0000000E+00;  5.3710710E-02;  9.9537421E+02;  1.4142817E-01; -3.8279624E+03;3; -1.0571406E+02;  0.0000000E+00; -1.4623581E+01;0;  5.4084101E+00;  1.9999674E+04;  0.0000000E+00; -1.4614420E+00;  4.0000000E+04;  0.0000000E+00;  3.9675891E+04;  5.7151012E+00;  0.0000000E+00; -3.0669138E-01;  6.1713472E+03;
  1.0452133E+00;  9.9999998E-03;  2.7112952E-01;8176;  6.5083027E-01;  0.0000000E+00;  4.6437837E-02;  9.9458728E+02;  1.4140546E-01; -4.4791230E+03;3; -1.1239942E+02;  0.0000000E+00; -1.3644825E+01;0;  5.3909836E+00;  1.9968826E+04;  0.0000000E+00; -1.4754550E+00;  4.0000000E+04;  0.0000000E+00;  3.9691289E+04;  5.7599926E+00;  0.0000000E+00; -3.6900878E-01;  4.5264775E+03;
  1.0453569E+00;  9.9999998E-03;  2.8113794E-01;8177;  6.3482034E-01;  0.0000000E+00;  4.1412249E-02;  9.9397632E+02;  1.4139171E-01; -4.9847324E+03;3; -1.1879183E+02;  0.0000000E+00; -1.2154900E+01;0;  5.3892779E+00;  1.9937701E+04;  0.0000000E+00; -1.1074435E+00;  4.0000000E+04;  0.0000000E+00;  3.9716246E+04;  5.8000336E+00;  0.0000000E+00; -4.1075546E-01;  2.0964001E+03;
  1.0455775E+00;  9.9999998E-03;  2.9115391E-01;8178;  6.2375623E-01;  0.0000000E+00;  3.7946019E-02;  9.9348151E+02;  1.4137460E-01; -5.3941504E+03;3; -1.2493710E+02;  0.0000000E+00; -1.1067380E+01;0;  5.4051638E+00;  1.9913148E+04;  0.0000000E+00; -3.3656454E-01;  4.0000000E+04;  0.0000000E+00;  3.9739387E+04;  5.8305988E+00;  0.0000000E+00; -4.2543519E-01;  2.9633884E+03;
  1.0458268E+00;  9.9999998E-03;  3.0117661E-01;8179;  6.1541897E-01;  0.0000000E+00;  3.4626581E-02;  9.9306055E+02;  1.4135346E-01; -5.7424990E+03;3; -1.3084532E+02;  0.0000000E+00; -1.0284033E+01;0;  5.4276738E+00;  1.9895783E+04;  0.0000000E+00;  7.6980251E-01;  4.0000000E+04;  0.0000000E+00;  3.9755477E+04;  5.8566723E+00;  0.0000000E+00; -4.2899862E-01;  5.9845586E+03;
  1.0596339E+00;  9.9999998E-03;  2.4095979E-01;8234;  7.6935589E-01;  0.0000000E+00;  9.0569220E-02;  1.0016602E+03;  1.3910368E-01;  1.3733918E+03;3; -8.9993454E+01;  0.0000000E+00; -8.9709034E+00;0;  4.6818366E+00;  2.0922564E+04;  0.0000000E+00; -7.7974820E-01;  4.0000000E+04;  0.0000000E+00;  3.9693465E+04;  4.7980514E+00;  0.0000000E+00; -1.1621468E-01;  4.3294902E+03;
  1.0601977E+00;  9.9999998E-03;  2.5104371E-01;8235;  7.5312132E-01;  0.0000000E+00;  8.6408436E-02;  1.0006801E+03;  1.3906458E-01;  5.6262421E+02;3; -9.8948509E+01;  0.0000000E+00; -9.1217861E+00;0;  4.7479801E+00;  2.0908594E+04;  0.0000000E+00; -1.1844366E+00;  4.0000000E+04;  0.0000000E+00;  3.9671359E+04;  4.8700461E+00;  0.0000000E+00; -1.2206608E-01;  7.0947925E+03;
  1.0608827E+00;  9.9999998E-03;  2.6109493E-01;8236;  7.3442245E-01;  0.0000000E+00;  7.9944640E-02;  9.9982336E+02;  1.3900496E-01; -1.4610258E+02;3; -1.0703660E+02;  0.0000000E+00; -8.9048567E+00;0;  4.7769370E+00;  2.0903174E+04;  0.0000000E+00; -1.5718716E+00;  4.0000000E+04;  0.0000000E+00;  3.9654133E+04;  4.9235296E+00;  0.0000000E+00; -1.4659266E-01;  9.2885693E+03;
  1.0612799E+00;  9.9999998E-03;  2.7111652E-01;8237;  7.1515077E-01;  0.0000000E+00;  7.3527955E-02;  9.9917395E+02;  1.3896412E-01; -6.8336761E+02;3; -1.1405589E+02;  0.0000000E+00; -9.0178452E+00;0;  4.8008180E+00;  2.0889262E+04;  0.0000000E+00; -1.8803961E+00;  4.0000000E+04;  0.0000000E+00;  3.9657309E+04;  4.9820151E+00;  0.0000000E+00; -1.8119709E-01;  9.1629092E+03;
  1.0615730E+00;  9.9999998E-03;  2.8113458E-01;8238;  6.9948196E-01;  0.0000000E+00;  6.8258844E-02;  9.9867114E+02;  1.3893487E-01; -1.0993276E+03;3; -1.2108110E+02;  0.0000000E+00; -8.8330708E+00;0;  4.8244958E+00;  2.0872205E+04;  0.0000000E+00; -2.1252782E+00;  4.0000000E+04;  0.0000000E+00;  3.9670586E+04;  5.0359645E+00;  0.0000000E+00; -2.1146847E-01;  8.0245391E+03;
  1.0618979E+00;  9.9999998E-03;  2.9115692E-01;8239;  6.8718290E-01;  0.0000000E+00;  6.3720912E-02;  9.9827094E+02;  1.3890389E-01; -1.4303730E+03;3; -1.2852348E+02;  0.0000000E+00; -8.9219179E+00;0;  4.8436232E+00;  2.0859371E+04;  0.0000000E+00; -2.2399149E+00;  4.0000000E+04;  0.0000000E+00;  3.9685566E+04;  5.0801878E+00;  0.0000000E+00; -2.3656483E-01;  6.8737368E+03;
  1.0622336E+00;  9.9999998E-03;  3.0118403E-01;8240;  6.7671889E-01;  0.0000000E+00;  5.9672754E-02;  9.9793671E+02;  1.3886970E-01; -1.7068296E+03;3; -1.3535339E+02;  0.0000000E+00; -8.7335844E+00;0;  4.8622165E+00;  2.0851279E+04;  0.0000000E+00; -2.0994985E+00;  4.0000000E+04;  0.0000000E+00;  3.9697906E+04;  5.1179652E+00;  0.0000000E+00; -2.5574884E-01;  5.8407944E+03;
  1.0738457E+00;  9.9999998E-03;  2.4092005E-01;8295;  8.2288653E-01;  0.0000000E+00;  1.0915012E-01;  1.0052772E+03;  1.3666792E-01;  4.3642534E+03;3; -7.5534798E+01;  0.0000000E+00; -1.4048221E+00;0;  3.9614398E+00;  2.1832439E+04;  0.0000000E+00; -9.0297699E-01;  4.0000000E+04;  0.0000000E+00;  3.9684203E+04;  3.9641907E+00;  0.0000000E+00; -2.7508889E-03;  6.1609146E+03;
  1.0744373E+00;  9.9999998E-03;  2.5100890E-01;8296;  8.0958587E-01;  0.0000000E+00;  1.0613213E-01;  1.0046365E+03;  1.3661771E-01;  3.8343857E+03;3; -8.5129036E+01;  0.0000000E+00; -1.8083614E+00;0;  4.0572639E+00;  2.1838635E+04;  0.0000000E+00; -1.1865124E+00;  4.0000000E+04;  0.0000000E+00;  3.9658383E+04;  4.0475206E+00;  0.0000000E+00;  9.7432919E-03;  9.3106768E+03;
  1.0751081E+00;  9.9999998E-03;  2.6106095E-01;8297;  7.9574686E-01;  0.0000000E+00;  1.0167696E-01;  1.0041040E+03;  1.3654891E-01;  3.3939429E+03;3; -9.3649223E+01;  0.0000000E+00; -2.5754733E+00;0;  4.1332908E+00;  2.1850596E+04;  0.0000000E+00; -1.7363484E+00;  4.0000000E+04;  0.0000000E+00;  3.9639883E+04;  4.1152005E+00;  0.0000000E+00;  1.8090267E-02;  1.1764773E+04;
  1.0755720E+00;  9.9999998E-03;  2.7109620E-01;8298;  7.7989972E-01;  0.0000000E+00;  9.5700227E-02;  1.0036146E+03;  1.3649692E-01;  2.9892185E+03;3; -1.0178657E+02;  0.0000000E+00; -3.9210875E+00;0;  4.1924801E+00;  2.1853664E+04;  0.0000000E+00; -2.5305517E+00;  4.0000000E+04;  0.0000000E+00;  3.9630656E+04;  4.1855083E+00;  0.0000000E+00;  6.9717355E-03;  1.3412531E+04;
  1.0759356E+00;  9.9999998E-03;  2.8112245E-01;8299;  7.6667142E-01;  0.0000000E+00;  9.0055361E-02;  1.0032482E+03;  1.3645628E-01;  2.6861492E+03;3; -1.0925876E+02;  0.0000000E+00; -4.6775556E+00;0;  4.2367878E+00;  2.1850797E+04;  0.0000000E+00; -3.4623361E+00;  4.0000000E+04;  0.0000000E+00;  3.9633844E+04;  4.2509432E+00;  0.0000000E+00; -1.4155547E-02;  1.4069559E+04;
  1.0763260E+00;  9.9999998E-03;  2.9115045E-01;8300;  7.5555784E-01;  0.0000000E+00;  8.4863372E-02;  1.0029297E+03;  1.3641134E-01;  2.4228120E+03;3; -1.1643134E+02;  0.0000000E+00; -5.4964166E+00;0;  4.2612166E+00;  2.1849436E+04;  0.0000000E+00; -4.2681284E+00;  4.0000000E+04;  0.0000000E+00;  3.9641387E+04;  4.3051929E+00;  0.0000000E+00; -4.3976478E-02;  1.4573654E+04;
  1.0767337E+00;  9.9999998E-03;  3.0118152E-01;8301;  7.4562001E-01;  0.0000000E+00;  8.0380723E-02;  1.0026170E+03;  1.3636325E-01;  2.1641123E+03;3; -1.2304559E+02;  0.0000000E+00; -6.2085233E+00;0;  4.2754936E+00;  2.1849131E+04;  0.0000000E+00; -4.4941640E+00;  4.0000000E+04;  0.0000000E+00;  3.9649852E+04;  4.3497252E+00;  0.0000000E+00; -7.4231751E-02;  1.4480897E+04;
  1.0869635E+00;  9.9999998E-03;  2.4088104E-01;8356;  8.6975789E-01;  0.0000000E+00;  1.2286357E-01;  1.0076520E+03;  1.3425486E-01;  6.3258657E+03;3; -5.1115208E+01;  0.0000000E+00;  3.1164534E+00;0;  3.2794840E+00;  2.2727125E+04;  0.0000000E+00; -1.4727681E+00;  4.0000000E+04;  0.0000000E+00;  3.9678906E+04;  3.1762083E+00;  0.0000000E+00;  1.0327574E-01;  7.6876997E+03;
  1.0874764E+00;  9.9999998E-03;  2.5096336E-01;8357;  8.6238682E-01;  0.0000000E+00;  1.2062482E-01;  1.0073690E+03;  1.3420519E-01;  6.0918081E+03;3; -6.0258026E+01;  0.0000000E+00;  2.7010555E+00;0;  3.3992190E+00;  2.2747723E+04;  0.0000000E+00; -1.8181115E+00;  4.0000000E+04;  0.0000000E+00;  3.9655172E+04;  3.2692080E+00;  0.0000000E+00;  1.3001105E-01;  1.0626346E+04;
  1.0880638E+00;  9.9999998E-03;  2.6102021E-01;8358;  8.5533869E-01;  0.0000000E+00;  1.1651274E-01;  1.0070712E+03;  1.3413973E-01;  5.8455244E+03;3; -6.8061394E+01;  0.0000000E+00;  1.7012197E+00;0;  3.5008218E+00;  2.2771418E+04;  0.0000000E+00; -2.5723550E+00;  4.0000000E+04;  0.0000000E+00;  3.9634000E+04;  3.3477557E+00;  0.0000000E+00;  1.5306611E-01;  1.3546202E+04;
  1.0885361E+00;  9.9999998E-03;  2.7106473E-01;8359;  8.4569126E-01;  0.0000000E+00;  1.1000207E-01;  1.0067388E+03;  1.3408263E-01;  5.5705938E+03;3; -7.5449600E+01;  0.0000000E+00;  5.6567788E-01;0;  3.5707905E+00;  2.2787684E+04;  0.0000000E+00; -3.5605800E+00;  4.0000000E+04;  0.0000000E+00;  3.9616859E+04;  3.4242120E+00;  0.0000000E+00;  1.4657852E-01;  1.6252160E+04;
  1.0888464E+00;  9.9999998E-03;  2.8109783E-01;8360;  8.3624691E-01;  0.0000000E+00;  1.0425746E-01;  1.0064622E+03;  1.3404541E-01;  5.3419175E+03;3; -8.2357140E+01;  0.0000000E+00; -8.7135452E-01;0;  3.6300242E+00;  2.2791824E+04;  0.0000000E+00; -4.3324618E+00;  4.0000000E+04;  0.0000000E+00;  3.9612914E+04;  3.4999812E+00;  0.0000000E+00;  1.3004296E-01;  1.7486549E+04;
  1.0890727E+00;  9.9999998E-03;  2.9113039E-01;8361;  8.2844424E-01;  0.0000000E+00;  9.8880470E-02;  1.0061588E+03;  1.3401943E-01;  5.0910864E+03;3; -8.8978096E+01;  0.0000000E+00; -1.9729041E+00;0;  3.6680195E+00;  2.2788000E+04;  0.0000000E+00; -4.3712106E+00;  4.0000000E+04;  0.0000000E+00;  3.9615742E+04;  3.5697155E+00;  0.0000000E+00;  9.8304011E-02;  1.7370168E+04;
  1.0892876E+00;  9.9999998E-03;  3.0116439E-01;8362;  8.2244003E-01;  0.0000000E+00;  9.4137967E-02;  1.0057969E+03;  1.3399442E-01;  4.7918779E+03;3; -9.4671394E+01;  0.0000000E+00; -2.9884305E+00;0;  3.6884694E+00;  2.2779631E+04;  0.0000000E+00; -3.2265890E+00;  4.0000000E+04;  0.0000000E+00;  3.9622598E+04;  3.6289597E+00;  0.0000000E+00;  5.9509709E-02;  1.5695680E+04;
  1.0993050E+00;  9.9999998E-03;  2.4084465E-01;8417;  9.0638459E-01;  0.0000000E+00;  1.2856570E-01;  1.0084995E+03;  1.3191003E-01;  7.0233711E+03;3; -1.9906347E+01;  0.0000000E+00;  8.0100183E+00;0;  2.6514180E+00;  2.3575307E+04;  0.0000000E+00; -2.5683997E+00;  4.0000000E+04;  0.0000000E+00;  3.9676773E+04;  2.4700370E+00;  0.0000000E+00;  1.8138091E-01;  9.1200859E+03;
  1.0996931E+00;  9.9999998E-03;  2.5091124E-01;8418;  9.0587866E-01;  0.0000000E+00;  1.2750106E-01;  1.0085580E+03;  1.3186906E-01;  7.0716304E+03;3; -2.7492580E+01;  0.0000000E+00;  7.0173898E+00;0;  2.7838159E+00;  2.3604840E+04;  0.0000000E+00; -3.0857480E+00;  4.0000000E+04;  0.0000000E+00;  3.9659379E+04;  2.5680182E+00;  0.0000000E+00;  2.1579760E-01;  1.1427817E+04;
  1.1000661E+00;  9.9999998E-03;  2.6096994E-01;8419;  9.0535367E-01;  0.0000000E+00;  1.2434034E-01;  1.0084792E+03;  1.3183074E-01;  7.0064160E+03;3; -3.4138031E+01;  0.0000000E+00;  5.1888480E+00;0;  2.9071789E+00;  2.3629100E+04;  0.0000000E+00; -3.8337116E+00;  4.0000000E+04;  0.0000000E+00;  3.9638699E+04;  2.6586134E+00;  0.0000000E+00;  2.4856536E-01;  1.4298947E+04;
  1.1003861E+00;  9.9999998E-03;  2.7102399E-01;8420;  9.0371042E-01;  0.0000000E+00;  1.1692078E-01;  1.0082473E+03;  1.3179544E-01;  6.8146431E+03;3; -4.0395733E+01;  0.0000000E+00;  2.4218512E+00;0;  2.9770980E+00;  2.3646559E+04;  0.0000000E+00; -4.4789715E+00;  4.0000000E+04;  0.0000000E+00;  3.9615676E+04;  2.7437274E+00;  0.0000000E+00;  2.3337057E-01;  1.7363779E+04;
  1.1006184E+00;  9.9999998E-03;  2.8106430E-01;8421;  9.0008563E-01;  0.0000000E+00;  1.1049757E-01;  1.0080379E+03;  1.3176923E-01;  6.6416138E+03;3; -4.5868706E+01;  0.0000000E+00;  2.3604417E+00;0;  3.0273025E+00;  2.3654395E+04;  0.0000000E+00; -4.3505812E+00;  4.0000000E+04;  0.0000000E+00;  3.9605043E+04;  2.8248031E+00;  0.0000000E+00;  2.0249939E-01;  1.8418652E+04;
  1.1008130E+00;  9.9999998E-03;  2.9109964E-01;8422;  8.9843303E-01;  0.0000000E+00;  1.0564217E-01;  1.0078113E+03;  1.3174632E-01;  6.4543135E+03;3; -5.0798088E+01;  0.0000000E+00;  1.0566225E+00;0;  3.0682793E+00;  2.3654541E+04;  0.0000000E+00; -2.8375244E+00;  4.0000000E+04;  0.0000000E+00;  3.9605902E+04;  2.8974812E+00;  0.0000000E+00;  1.7079803E-01;  1.7350404E+04;
  1.1010213E+00;  9.9999998E-03;  3.0113533E-01;8423;  8.9863086E-01;  0.0000000E+00;  1.0165340E-01;  1.0074883E+03;  1.3172248E-01;  6.1873267E+03;3; -5.4604851E+01;  0.0000000E+00; -7.0583713E-01;0;  3.0944467E+00;  2.3648465E+04;  0.0000000E+00;  4.3942520E-01;  4.0000000E+04;  0.0000000E+00;  3.9612086E+04;  2.9585235E+00;  0.0000000E+00;  1.3592324E-01;  1.5990014E+04;
  1.1112224E+00;  9.9999998E-03;  2.4080595E-01;8478;  9.2572474E-01;  0.0000000E+00;  1.2576938E-01;  1.0080617E+03;  1.2966654E-01;  6.6581812E+03;3;  9.8450003E+00;  0.0000000E+00;  1.2740242E+01;0;  2.0859208E+00;  2.4368572E+04;  0.0000000E+00; -3.5920193E+00;  4.0000000E+04;  0.0000000E+00;  3.9679039E+04;  1.8591290E+00;  0.0000000E+00;  2.2679198E-01;  1.0074979E+04;
  1.1113564E+00;  9.9999998E-03;  2.5085849E-01;8479;  9.3086344E-01;  0.0000000E+00;  1.2591045E-01;  1.0084127E+03;  1.2965202E-01;  6.9480908E+03;3;  5.8951883E+00;  0.0000000E+00;  1.0002306E+01;0;  2.2204819E+00;  2.4398756E+04;  0.0000000E+00; -4.1273098E+00;  4.0000000E+04;  0.0000000E+00;  3.9667664E+04;  1.9628676E+00;  0.0000000E+00;  2.5761431E-01;  1.1717680E+04;
  1.1116364E+00;  9.9999998E-03;  2.6091203E-01;8480;  9.3625391E-01;  0.0000000E+00;  1.2439436E-01;  1.0085717E+03;  1.2962057E-01;  7.0792397E+03;3;  2.0195339E+00;  0.0000000E+00;  7.6495967E+00;0;  2.3463767E+00;  2.4428527E+04;  0.0000000E+00; -4.7711859E+00;  4.0000000E+04;  0.0000000E+00;  3.9652586E+04;  2.0537040E+00;  0.0000000E+00;  2.9267257E-01;  1.3830551E+04;
  1.1119516E+00;  9.9999998E-03;  2.7097121E-01;8481;  9.4160694E-01;  0.0000000E+00;  1.1844806E-01;  1.0084617E+03;  1.2958612E-01;  6.9883618E+03;3; -1.6880250E+00;  0.0000000E+00;  5.3275599E+00;0;  2.4189506E+00;  2.4452555E+04;  0.0000000E+00; -5.1025782E+00;  4.0000000E+04;  0.0000000E+00;  3.9628348E+04;  2.1361518E+00;  0.0000000E+00;  2.8279868E-01;  1.6532451E+04;
  1.1122270E+00;  9.9999998E-03;  2.8101969E-01;8482;  9.4501084E-01;  0.0000000E+00;  1.1137860E-01;  1.0082880E+03;  1.2955683E-01;  6.8448276E+03;3; -5.5810227E+00;  0.0000000E+00;  4.4122972E+00;0;  2.4448905E+00;  2.4467586E+04;  0.0000000E+00; -4.3182211E+00;  4.0000000E+04;  0.0000000E+00;  3.9611938E+04;  2.2130623E+00;  0.0000000E+00;  2.3182821E-01;  1.7609574E+04;
  1.1124953E+00;  9.9999998E-03;  2.9105830E-01;8483;  9.4894350E-01;  0.0000000E+00;  1.0711332E-01;  1.0081124E+03;  1.2952663E-01;  6.6997236E+03;3; -8.5790625E+00;  0.0000000E+00;  3.6510956E+00;0;  2.4775393E+00;  2.4474652E+04;  0.0000000E+00; -1.7296718E+00;  4.0000000E+04;  0.0000000E+00;  3.9610434E+04;  2.2819879E+00;  0.0000000E+00;  1.9555135E-01;  1.6562074E+04;
  1.1128057E+00;  9.9999998E-03;  3.0109572E-01;8484;  9.5375866E-01;  0.0000000E+00;  1.0412025E-01;  1.0078172E+03;  1.2949230E-01;  6.4557676E+03;3; -1.0510310E+01;  0.0000000E+00;  2.5899065E+00;0;  2.5055575E+00;  2.4474930E+04;  0.0000000E+00;  3.1355543E+00;  4.0000000E+04;  0.0000000E+00;  3.9615891E+04;  2.3401523E+00;  0.0000000E+00;  1.6540520E-01;  1.7303711E+04;
  1.1233239E+00;  9.9999998E-03;  2.4076056E-01;8539;  9.3146801E-01;  0.0000000E+00;  1.1690491E-01;  1.0067490E+03;  1.2750897E-01;  5.5706528E+03;3;  1.9631287E+01;  0.0000000E+00;  1.5936095E+01;0;  1.5806768E+00;  2.5124162E+04;  0.0000000E+00; -3.9263864E+00;  4.0000000E+04;  0.0000000E+00;  3.9686188E+04;  1.3305203E+00;  0.0000000E+00;  2.5015658E-01;  9.7211436E+03;
  1.1234429E+00;  9.9999998E-03;  2.5079948E-01;8540;  9.3858236E-01;  0.0000000E+00;  1.1843503E-01;  1.0072935E+03;  1.2748863E-01;  6.0199844E+03;3;  1.9889587E+01;  0.0000000E+00;  1.3438519E+01;0;  1.6957368E+00;  2.5161980E+04;  0.0000000E+00; -4.7097611E+00;  4.0000000E+04;  0.0000000E+00;  3.9681645E+04;  1.4230021E+00;  0.0000000E+00;  2.7273461E-01;  1.0954551E+04;
  1.1236589E+00;  9.9999998E-03;  2.6084718E-01;8541;  9.4635350E-01;  0.0000000E+00;  1.1894328E-01;  1.0076372E+03;  1.2746243E-01;  6.3036782E+03;3;  1.9840454E+01;  0.0000000E+00;  1.0771078E+01;0;  1.8134794E+00;  2.5195061E+04;  0.0000000E+00; -5.5650916E+00;  4.0000000E+04;  0.0000000E+00;  3.9673898E+04;  1.5081189E+00;  0.0000000E+00;  3.0536050E-01;  1.2558511E+04;
  1.1239225E+00;  9.9999998E-03;  2.7091146E-01;8542;  9.5456338E-01;  0.0000000E+00;  1.1488087E-01;  1.0076083E+03;  1.2743400E-01;  6.2796768E+03;3;  1.8208645E+01;  0.0000000E+00;  7.8433347E+00;0;  1.8843986E+00;  2.5220938E+04;  0.0000000E+00; -6.0525928E+00;  4.0000000E+04;  0.0000000E+00;  3.9650316E+04;  1.5870327E+00;  0.0000000E+00;  2.9736590E-01;  1.5118110E+04;
  1.1242114E+00;  9.9999998E-03;  2.8096679E-01;8543;  9.6107155E-01;  0.0000000E+00;  1.0913818E-01;  1.0074429E+03;  1.2740475E-01;  6.1431069E+03;3;  1.5393035E+01;  0.0000000E+00;  7.6414223E+00;0;  1.9065833E+00;  2.5238984E+04;  0.0000000E+00; -5.4256215E+00;  4.0000000E+04;  0.0000000E+00;  3.9630379E+04;  1.6593509E+00;  0.0000000E+00;  2.4723245E-01;  1.6379611E+04;
  1.1245595E+00;  9.9999998E-03;  2.9100895E-01;8544;  9.6795231E-01;  0.0000000E+00;  1.0583127E-01;  1.0072591E+03;  1.2736806E-01;  5.9912715E+03;3;  1.3818787E+01;  0.0000000E+00;  7.2217278E+00;0;  1.9350753E+00;  2.5250010E+04;  0.0000000E+00; -2.8698871E+00;  4.0000000E+04;  0.0000000E+00;  3.9627109E+04;  1.7234296E+00;  0.0000000E+00;  2.1164572E-01;  1.5024233E+04;
  1.1249774E+00;  9.9999998E-03;  3.0104831E-01;8545;  9.7574210E-01;  0.0000000E+00;  1.0380497E-01;  1.0069310E+03;  1.2732485E-01;  5.7203701E+03;3;  1.1893972E+01;  0.0000000E+00;  6.4328527E+00;0;  1.9651988E+00;  2.5253428E+04;  0.0000000E+00;  2.7226129E+00;  4.0000000E+04;  0.0000000E+00;  3.9631715E+04;  1.7790662E+00;  0.0000000E+00;  1.8613261E-01;  1.5087361E+04;
  1.1355515E+00;  9.9999998E-03;  2.4074133E-01;8600;  9.3330181E-01;  0.0000000E+00;  1.0307424E-01;  1.0048840E+03;  1.2549677E-01;  4.0282554E+03;3;  2.1625092E+01;  0.0000000E+00;  2.2790989E+01;0;  1.1492887E+00;  2.5839668E+04;  0.0000000E+00; -3.1553280E+00;  4.0000000E+04;  0.0000000E+00;  3.9684457E+04;  8.9770794E-01;  0.0000000E+00;  2.5158072E-01;  8.9035781E+03;
  1.1356595E+00;  9.9999998E-03;  2.5076205E-01;8601;  9.4054300E-01;  0.0000000E+00;  1.0696291E-01;  1.0055229E+03;  1.2547572E-01;  4.5551309E+03;3;  2.2494665E+01;  0.0000000E+00;  1.5213166E+01;0;  1.2443440E+00;  2.5879746E+04;  0.0000000E+00; -3.9154418E+00;  4.0000000E+04;  0.0000000E+00;  3.9685500E+04;  9.7587663E-01;  0.0000000E+00;  2.6846740E-01;  9.4925215E+03;
  1.1358422E+00;  9.9999998E-03;  2.6080117E-01;8602;  9.4860017E-01;  0.0000000E+00;  1.0813497E-01;  1.0059645E+03;  1.2545292E-01;  4.9193511E+03;3;  2.2687815E+01;  0.0000000E+00;  1.3175782E+01;0;  1.3329453E+00;  2.5912805E+04;  0.0000000E+00; -4.7991767E+00;  4.0000000E+04;  0.0000000E+00;  3.9683238E+04;  1.0502129E+00;  0.0000000E+00;  2.8273249E-01;  1.0609520E+04;
  1.1361437E+00;  9.9999998E-03;  2.7085409E-01;8603;  9.5716023E-01;  0.0000000E+00;  1.0718821E-01;  1.0060827E+03;  1.2542528E-01;  5.0166851E+03;3;  2.2215588E+01;  0.0000000E+00;  1.1537945E+01;0;  1.4019198E+00;  2.5938492E+04;  0.0000000E+00; -5.6865168E+00;  4.0000000E+04;  0.0000000E+00;  3.9671922E+04;  1.1183579E+00;  0.0000000E+00;  2.8356197E-01;  1.2602512E+04;
  1.1365337E+00;  9.9999998E-03;  2.8090999E-01;8604;  9.6553504E-01;  0.0000000E+00;  1.0347111E-01;  1.0059072E+03;  1.2539175E-01;  4.8718330E+03;3;  2.0942577E+01;  0.0000000E+00;  1.0931695E+01;0;  1.4220177E+00;  2.5955570E+04;  0.0000000E+00; -5.7682061E+00;  4.0000000E+04;  0.0000000E+00;  3.9655570E+04;  1.1804745E+00;  0.0000000E+00;  2.4154314E-01;  1.4210885E+04;
  1.1370108E+00;  9.9999998E-03;  2.9095575E-01;8605;  9.7402316E-01;  0.0000000E+00;  1.0064827E-01;  1.0056093E+03;  1.2535021E-01;  4.6259922E+03;3;  1.9893818E+01;  0.0000000E+00;  1.0970949E+01;0;  1.4342047E+00;  2.5964334E+04;  0.0000000E+00; -3.5195451E+00;  4.0000000E+04;  0.0000000E+00;  3.9650879E+04;  1.2364962E+00;  0.0000000E+00;  1.9770853E-01;  1.2754242E+04;
  1.1375259E+00;  9.9999998E-03;  3.0099621E-01;8606;  9.8368388E-01;  0.0000000E+00;  9.9453539E-02;  1.0051680E+03;  1.2530431E-01;  4.2619883E+03;3;  1.8707985E+01;  0.0000000E+00;  1.0665231E+01;0;  1.4631660E+00;  2.5963639E+04;  0.0000000E+00;  3.4454954E+00;  4.0000000E+04;  0.0000000E+00;  3.9655684E+04;  1.2892830E+00;  0.0000000E+00;  1.7388295E-01;  1.2635395E+04;
  1.1480753E+00;  9.9999998E-03;  2.4067706E-01;8661;  9.3259901E-01;  0.0000000E+00;  9.2874683E-02;  1.0031458E+03;  1.2357367E-01;  2.5921465E+03;3;  2.3205450E+01;  0.0000000E+00;  2.4243198E+01;0;  8.2246137E-01;  2.6548723E+04;  0.0000000E+00; -2.2939801E+00;  4.0000000E+04;  0.0000000E+00;  3.9699910E+04;  5.5341685E-01;  0.0000000E+00;  2.6904452E-01;  6.4247407E+03;
  1.1481425E+00;  9.9999998E-03;  2.5070393E-01;8662;  9.4017279E-01;  0.0000000E+00;  9.6676260E-02;  1.0037379E+03;  1.2355623E-01;  3.0800483E+03;3;  2.4224901E+01;  0.0000000E+00;  1.6027445E+01;0;  8.9296180E-01;  2.6584402E+04;  0.0000000E+00; -3.2618973E+00;  4.0000000E+04;  0.0000000E+00;  3.9701973E+04;  6.1724085E-01;  0.0000000E+00;  2.7572095E-01;  7.2220010E+03;
  1.1483138E+00;  9.9999998E-03;  2.6074904E-01;8663;  9.4846004E-01;  0.0000000E+00;  9.7571820E-02;  1.0041140E+03;  1.2353492E-01;  3.3900200E+03;3;  2.4255613E+01;  0.0000000E+00;  1.4693845E+01;0;  9.5052588E-01;  2.6613674E+04;  0.0000000E+00; -4.6408658E+00;  4.0000000E+04;  0.0000000E+00;  3.9699691E+04;  6.7851961E-01;  0.0000000E+00;  2.7200627E-01;  9.1645381E+03;
  1.1486459E+00;  9.9999998E-03;  2.7080283E-01;8664;  9.5714456E-01;  0.0000000E+00;  9.7021595E-02;  1.0041705E+03;  1.2350592E-01;  3.4364895E+03;3;  2.3854622E+01;  0.0000000E+00;  1.3726843E+01;0;  9.9182630E-01;  2.6634859E+04;  0.0000000E+00; -6.4880962E+00;  4.0000000E+04;  0.0000000E+00;  3.9691379E+04;  7.3498499E-01;  0.0000000E+00;  2.5684133E-01;  1.2397013E+04;
  1.1490870E+00;  9.9999998E-03;  2.8085765E-01;8665;  9.6594620E-01;  0.0000000E+00;  9.4670713E-02;  1.0039140E+03;  1.2346843E-01;  3.2249883E+03;3;  2.3268967E+01;  0.0000000E+00;  1.3457688E+01;0;  1.0005875E+00;  2.6646787E+04;  0.0000000E+00; -7.4327421E+00;  4.0000000E+04;  0.0000000E+00;  3.9680160E+04;  7.8752720E-01;  0.0000000E+00;  2.1306027E-01;  1.4570425E+04;
  1.1496243E+00;  9.9999998E-03;  2.9090443E-01;8666;  9.7529179E-01;  0.0000000E+00;  9.2667662E-02;  1.0034373E+03;  1.2342203E-01;  2.8320662E+03;3;  2.2810734E+01;  0.0000000E+00;  1.3715356E+01;0;  1.0028301E+00;  2.6647346E+04;  0.0000000E+00; -4.6095424E+00;  4.0000000E+04;  0.0000000E+00;  3.9677617E+04;  8.3700824E-01;  0.0000000E+00;  1.6582195E-01;  1.1130940E+04;
  1.1501662E+00;  9.9999998E-03;  3.0094457E-01;8667;  9.8587179E-01;  0.0000000E+00;  9.2168376E-02;  1.0027864E+03;  1.2337501E-01;  2.2956843E+03;3;  2.2365286E+01;  0.0000000E+00;  1.3684127E+01;0;  1.0291064E+00;  2.6635447E+04;  0.0000000E+00;  6.1098886E+00;  4.0000000E+04;  0.0000000E+00;  3.9684777E+04;  8.8757557E-01;  0.0000000E+00;  1.4153087E-01;  1.2770746E+04;
  1.1605614E+00;  9.9999998E-03;  2.4061154E-01;8722;  9.3093324E-01;  0.0000000E+00;  8.4859483E-02;  1.0017991E+03;  1.2173095E-01;  1.4808896E+03;3;  2.4727850E+01;  0.0000000E+00;  2.1517324E+01;0;  5.8771205E-01;  2.7276275E+04;  0.0000000E+00; -1.6251062E+00;  4.0000000E+04;  0.0000000E+00;  3.9717102E+04;  2.9470104E-01;  0.0000000E+00;  2.9301104E-01;  3.9109966E+03;
  1.1606336E+00;  9.9999998E-03;  2.5065282E-01;8723;  9.3886548E-01;  0.0000000E+00;  8.6549200E-02;  1.0022183E+03;  1.2171523E-01;  1.8258815E+03;3;  2.5225304E+01;  0.0000000E+00;  1.6571589E+01;0;  6.2686634E-01;  2.7303959E+04;  0.0000000E+00; -3.4407847E+00;  4.0000000E+04;  0.0000000E+00;  3.9716953E+04;  3.4368250E-01;  0.0000000E+00;  2.8318384E-01;  6.2341230E+03;
  1.1608394E+00;  9.9999998E-03;  2.6070473E-01;8724;  9.4724160E-01;  0.0000000E+00;  8.6866550E-02;  1.0024212E+03;  1.2169292E-01;  1.9929459E+03;3;  2.5030340E+01;  0.0000000E+00;  1.5799170E+01;0;  6.5475607E-01;  2.7325705E+04;  0.0000000E+00; -6.3320570E+00;  4.0000000E+04;  0.0000000E+00;  3.9713949E+04;  3.9108756E-01;  0.0000000E+00;  2.6366848E-01;  1.0989914E+04;
  1.1611973E+00;  9.9999998E-03;  2.7076080E-01;8725;  9.5579082E-01;  0.0000000E+00;  8.6218618E-02;  1.0023115E+03;  1.2166136E-01;  1.9025100E+03;3;  2.4748560E+01;  0.0000000E+00;  1.5295519E+01;0;  6.6739535E-01;  2.7339100E+04;  0.0000000E+00; -1.0034051E+01;  4.0000000E+04;  0.0000000E+00;  3.9706785E+04;  4.3594912E-01;  0.0000000E+00;  2.3144624E-01;  1.7381297E+04;
  1.1616877E+00;  9.9999998E-03;  2.8081390E-01;8726;  9.6460551E-01;  0.0000000E+00;  8.4683739E-02;  1.0018652E+03;  1.2161920E-01;  1.5350824E+03;3;  2.4369949E+01;  0.0000000E+00;  1.5267402E+01;0;  6.6052288E-01;  2.7340445E+04;  0.0000000E+00; -1.2134796E+01;  4.0000000E+04;  0.0000000E+00;  3.9700797E+04;  4.7866192E-01;  0.0000000E+00;  1.8186097E-01;  2.1030008E+04;
  1.1623241E+00;  9.9999998E-03;  2.9085895E-01;8727;  9.7402936E-01;  0.0000000E+00;  8.3178431E-02;  1.0010344E+03;  1.2156801E-01;  8.5127679E+02;3;  2.4211243E+01;  0.0000000E+00;  1.5288789E+01;0;  6.4872175E-01;  2.7322479E+04;  0.0000000E+00; -7.5034184E+00;  4.0000000E+04;  0.0000000E+00;  3.9703281E+04;  5.1980603E-01;  0.0000000E+00;  1.2891574E-01;  1.3469446E+04;
  1.1628623E+00;  9.9999998E-03;  3.0089751E-01;8728;  9.8438513E-01;  0.0000000E+00;  8.2771242E-02;  1.0000373E+03;  1.2152351E-01;  3.0705935E+01;3;  2.4574760E+01;  0.0000000E+00;  1.5772511E+01;0;  6.6108161E-01;  2.7289158E+04;  0.0000000E+00;  1.1008670E+01;  4.0000000E+04;  0.0000000E+00;  3.9714418E+04;  5.6632966E-01;  0.0000000E+00;  9.4751969E-02;  1.8600182E+04;
  1.1730595E+00;  9.9999998E-03;  2.5060743E-01;8784;  9.3727630E-01;  0.0000000E+00;  7.6950476E-02;  1.0011571E+03;  1.1996126E-01;  9.5113519E+02;3;  2.5966581E+01;  0.0000000E+00;  1.6995066E+01;0;  4.3016827E-01;  2.8041588E+04;  0.0000000E+00; -5.0614438E+00;  4.0000000E+04;  0.0000000E+00;  3.9732793E+04;  1.3892817E-01;  0.0000000E+00;  2.9124010E-01;  7.6541284E+03;
  1.1730859E+00;  9.9999998E-03;  2.4054763E-01;8783;  9.2914313E-01;  0.0000000E+00;  7.6370336E-02;  1.0009367E+03;  1.1996925E-01;  7.7003888E+02;3;  2.5834175E+01;  0.0000000E+00;  1.8159075E+01;0;  4.1248888E-01;  2.8025391E+04;  0.0000000E+00; -1.9990647E+00;  4.0000000E+04;  0.0000000E+00;  3.9736020E+04;  1.0193179E-01;  0.0000000E+00;  3.1055710E-01;  2.5276504E+03;
  1.1731880E+00;  9.9999998E-03;  2.6067039E-01;8785;  9.4557393E-01;  0.0000000E+00;  7.7011250E-02;  1.0011785E+03;  1.1994503E-01;  9.6875977E+02;3;  2.5774265E+01;  0.0000000E+00;  1.6512543E+01;0;  4.3777227E-01;  2.8053689E+04;  0.0000000E+00; -9.7380323E+00;  4.0000000E+04;  0.0000000E+00;  3.9726410E+04;  1.7554830E-01;  0.0000000E+00;  2.6222399E-01;  1.5614331E+04;
  1.1735123E+00;  9.9999998E-03;  2.7073029E-01;8786;  9.5391119E-01;  0.0000000E+00;  7.6250687E-02;  1.0008804E+03;  1.1991560E-01;  7.2374976E+02;3;  2.5439611E+01;  0.0000000E+00;  1.6248940E+01;0;  4.2854291E-01;  2.8056408E+04;  0.0000000E+00; -1.5615715E+01;  4.0000000E+04;  0.0000000E+00;  3.9719234E+04;  2.1074304E-01;  0.0000000E+00;  2.1779986E-01;  2.5473814E+04;
  1.1740205E+00;  9.9999998E-03;  2.8078389E-01;8787;  9.6249175E-01;  0.0000000E+00;  7.4823357E-02;  1.0001576E+03;  1.1987444E-01;  1.2953430E+02;3;  2.5256453E+01;  0.0000000E+00;  1.6284269E+01;0;  4.0239763E-01;  2.8042090E+04;  0.0000000E+00; -1.8849186E+01;  4.0000000E+04;  0.0000000E+00;  3.9715379E+04;  2.4493653E-01;  0.0000000E+00;  1.5746109E-01;  3.0791170E+04;
  1.1747488E+00;  9.9999998E-03;  2.9082656E-01;8788;  9.7171575E-01;  0.0000000E+00;  7.3508039E-02;  9.9881415E+02;  1.1981975E-01; -9.7460785E+02;3;  2.5276392E+01;  0.0000000E+00;  1.6338747E+01;0;  3.7591901E-01;  2.7995605E+04;  0.0000000E+00; -1.1119377E+01;  4.0000000E+04;  0.0000000E+00;  3.9723211E+04;  2.7879983E-01;  0.0000000E+00;  9.7119190E-02;  1.8227008E+04;
  1.1751121E+00;  9.9999998E-03;  3.0086446E-01;8789;  9.8135066E-01;  0.0000000E+00;  7.3196061E-02;  9.9763623E+02;  1.1978957E-01; -1.9426167E+03;3;  2.5117949E+01;  0.0000000E+00;  1.6362175E+01;0;  3.7730914E-01;  2.7944369E+04;  0.0000000E+00;  1.8040138E+01;  4.0000000E+04;  0.0000000E+00;  3.9736535E+04;  3.2319638E-01;  0.0000000E+00;  5.4112758E-02;  2.8688295E+04;
  1.1853287E+00;  9.9999998E-03;  2.5057542E-01;8845;  9.3547690E-01;  0.0000000E+00;  6.8074420E-02;  1.0004435E+03;  1.1831884E-01;  3.6407108E+02;3;  2.6628500E+01;  0.0000000E+00;  1.7333838E+01;0;  2.8801247E-01;  2.8778779E+04;  0.0000000E+00; -8.3903246E+00;  4.0000000E+04;  0.0000000E+00;  3.9746703E+04; -1.2117400E-02;  0.0000000E+00;  3.0012986E-01;  1.1812231E+04;
  1.1853449E+00;  9.9999998E-03;  2.4049778E-01;8844;  9.2735034E-01;  0.0000000E+00;  6.7738153E-02;  1.0005156E+03;  1.1832487E-01;  4.2316687E+02;3;  2.6632410E+01;  0.0000000E+00;  1.7988993E+01;0;  2.8416318E-01;  2.8775699E+04;  0.0000000E+00; -3.1158628E+00;  4.0000000E+04;  0.0000000E+00;  3.9753934E+04; -3.7256915E-02;  0.0000000E+00;  3.2142010E-01;  3.6579424E+03;
  1.1853858E+00;  9.9999998E-03;  2.6064873E-01;8846;  9.4359726E-01;  0.0000000E+00;  6.7792028E-02;  1.0002388E+03;  1.1830691E-01;  1.9597653E+02;3;  2.6542433E+01;  0.0000000E+00;  1.6940819E+01;0;  2.7843469E-01;  2.8779961E+04;  0.0000000E+00; -1.5239867E+01;  4.0000000E+04;  0.0000000E+00;  3.9736570E+04;  1.4737908E-02;  0.0000000E+00;  2.6369679E-01;  2.2825713E+04;
  1.1856025E+00;  9.9999998E-03;  2.7071241E-01;8847;  9.5169514E-01;  0.0000000E+00;  6.6963680E-02;  9.9979913E+02;  1.1828459E-01; -1.6485796E+02;3;  2.6358818E+01;  0.0000000E+00;  1.6796085E+01;0;  2.5261194E-01;  2.8773182E+04;  0.0000000E+00; -2.2490034E+01;  4.0000000E+04;  0.0000000E+00;  3.9728242E+04;  4.2335428E-02;  0.0000000E+00;  2.1027650E-01;  3.4413652E+04;
  1.1860706E+00;  9.9999998E-03;  2.8076658E-01;8848;  9.6001470E-01;  0.0000000E+00;  6.5584436E-02;  9.9880499E+02;  1.1824638E-01; -9.8071863E+02;3;  2.6165087E+01;  0.0000000E+00;  1.6900131E+01;0;  2.1147361E-01;  2.8742254E+04;  0.0000000E+00; -2.5646378E+01;  4.0000000E+04;  0.0000000E+00;  3.9725785E+04;  7.0184939E-02;  0.0000000E+00;  1.4128867E-01;  3.9438137E+04;
  1.1867998E+00;  9.9999998E-03;  2.9080778E-01;8849;  9.6889728E-01;  0.0000000E+00;  6.4284161E-02;  9.9695325E+02;  1.1819669E-01; -2.5001382E+03;3;  2.6115747E+01;  0.0000000E+00;  1.7052843E+01;0;  1.7239825E-01;  2.8664500E+04;  0.0000000E+00; -1.2460976E+01;  4.0000000E+04;  0.0000000E+00;  3.9736949E+04;  9.9676877E-02;  0.0000000E+00;  7.2721377E-02;  1.9278549E+04;
  1.1868206E+00;  9.9999998E-03;  3.0084810E-01;8850;  9.7784233E-01;  0.0000000E+00;  6.4258359E-02;  9.9605347E+02;  1.1818904E-01; -3.2384897E+03;3;  2.6165068E+01;  0.0000000E+00;  1.6955334E+01;0;  1.6764659E-01;  2.8618373E+04;  0.0000000E+00;  2.7833445E+01;  4.0000000E+04;  0.0000000E+00;  3.9747496E+04;  1.4340740E-01;  0.0000000E+00;  2.4239179E-02;  4.2085070E+04;
  1.1970410E+00;  9.9999998E-03;  2.4048951E-01;8905;  9.2549574E-01;  0.0000000E+00;  5.9523642E-02;  1.0003420E+03;  1.1682014E-01;  2.8021365E+02;3;  2.7436037E+01;  0.0000000E+00;  1.8146366E+01;0;  1.9271202E-01;  2.9510344E+04;  0.0000000E+00; -2.8568835E+00;  4.0000000E+04;  0.0000000E+00;  3.9758938E+04; -1.3539223E-01;  0.0000000E+00;  3.2810426E-01;  2.8584563E+03;
  1.1969558E+00;  9.9999998E-03;  2.5057486E-01;8906;  9.3364000E-01;  0.0000000E+00;  5.9756454E-02;  1.0001301E+03;  1.1681970E-01;  1.0655887E+02;3;  2.7385969E+01;  0.0000000E+00;  1.7319496E+01;0;  1.8687402E-01;  2.9505498E+04;  0.0000000E+00; -8.7453604E+00;  4.0000000E+04;  0.0000000E+00;  3.9748207E+04; -1.1877508E-01;  0.0000000E+00;  3.0564910E-01;  1.0636915E+04;
  1.1969514E+00;  9.9999998E-03;  2.6065016E-01;8907;  9.4163561E-01;  0.0000000E+00;  5.9324700E-02;  9.9985400E+02;  1.1681245E-01; -1.1959801E+02;3;  2.7247490E+01;  0.0000000E+00;  1.7083084E+01;0;  1.6476949E-01;  2.9502457E+04;  0.0000000E+00; -1.6357164E+01;  4.0000000E+04;  0.0000000E+00;  3.9736273E+04; -9.9545434E-02;  0.0000000E+00;  2.6431492E-01;  2.2143820E+04;
  1.1970879E+00;  9.9999998E-03;  2.7071431E-01;8908;  9.4954538E-01;  0.0000000E+00;  5.8470059E-02;  9.9938867E+02;  1.1679354E-01; -5.0084512E+02;3;  2.7163836E+01;  0.0000000E+00;  1.6997486E+01;0;  1.2624630E-01;  2.9494176E+04;  0.0000000E+00; -2.3811632E+01;  4.0000000E+04;  0.0000000E+00;  3.9727250E+04; -7.7972122E-02;  0.0000000E+00;  2.0421843E-01;  3.3452625E+04;
  1.1975172E+00;  9.9999998E-03;  2.8076720E-01;8909;  9.5760709E-01;  0.0000000E+00;  5.7222567E-02;  9.9825073E+02;  1.1675886E-01; -1.4330891E+03;3;  2.7126553E+01;  0.0000000E+00;  1.7181852E+01;0;  7.5444326E-02;  2.9453803E+04;  0.0000000E+00; -2.6295483E+01;  4.0000000E+04;  0.0000000E+00;  3.9726062E+04; -5.4542456E-02;  0.0000000E+00;  1.2998678E-01;  3.7450789E+04;
  1.1977260E+00;  9.9999998E-03;  3.0085602E-01;8911;  9.7457618E-01;  0.0000000E+00;  5.6371860E-02;  9.9633240E+02;  1.1673704E-01; -3.0045588E+03;3;  2.6966814E+01;  0.0000000E+00;  1.7197651E+01;0;  2.1658517E-02;  2.9364172E+04;  0.0000000E+00;  3.5859528E+01;  4.0000000E+04;  0.0000000E+00;  3.9736691E+04;  1.7068377E-02;  0.0000000E+00;  4.5901407E-03;  5.0816289E+04;
  1.1981752E+00;  9.9999998E-03;  2.9080740E-01;8910;  9.6610868E-01;  0.0000000E+00;  5.6039199E-02;  9.9613574E+02;  1.1671779E-01; -3.1654099E+03;3;  2.7109823E+01;  0.0000000E+00;  1.7341164E+01;0;  2.9604549E-02;  2.9356264E+04;  0.0000000E+00; -7.6793041E+00;  4.0000000E+04;  0.0000000E+00;  3.9738695E+04; -2.6942162E-02;  0.0000000E+00;  5.6546710E-02;  1.1083148E+04;
  1.2080626E+00;  9.9999998E-03;  2.5060260E-01;8966;  9.3186146E-01;  0.0000000E+00;  5.1869690E-02;  1.0001036E+03;  1.1545736E-01;  8.4708450E+01;3;  2.8201620E+01;  0.0000000E+00;  1.7386822E+01;0;  1.1284280E-01;  3.0215502E+04;  0.0000000E+00; -3.9010134E+00;  4.0000000E+04;  0.0000000E+00;  3.9737023E+04; -1.9459197E-01;  0.0000000E+00;  3.0743477E-01;  1.4449547E+03;
  1.2079858E+00;  9.9999998E-03;  2.6067370E-01;8967;  9.3987286E-01;  0.0000000E+00;  5.1554874E-02;  9.9997290E+02;  1.1545514E-01; -2.2176592E+01;3;  2.8011456E+01;  0.0000000E+00;  1.6867380E+01;0;  8.3319426E-02;  3.0218975E+04;  0.0000000E+00; -1.0231966E+01;  4.0000000E+04;  0.0000000E+00;  3.9724688E+04; -1.8035993E-01;  0.0000000E+00;  2.6367936E-01;  1.0516419E+04;
  1.2082490E+00;  9.9999998E-03;  2.4052210E-01;8965;  9.2345947E-01;  0.0000000E+00;  5.1146340E-02;  1.0002374E+03;  1.1545048E-01;  1.9407190E+02;3;  2.8574823E+01;  0.0000000E+00;  1.9919697E+01;0;  1.2237300E-01;  3.0218076E+04;  0.0000000E+00;  4.0769678E-01;  4.0000000E+04;  0.0000000E+00;  3.9748980E+04; -2.0541556E-01;  0.0000000E+00;  3.2778856E-01;  4.8656558E+03;
  1.2081110E+00;  9.9999998E-03;  2.7073538E-01;8968;  9.4763207E-01;  0.0000000E+00;  5.0686222E-02;  9.9956091E+02;  1.1543725E-01; -3.5905719E+02;3;  2.8027264E+01;  0.0000000E+00;  1.6929369E+01;0;  3.5419032E-02;  3.0214461E+04;  0.0000000E+00; -1.7868238E+01;  4.0000000E+04;  0.0000000E+00;  3.9715195E+04; -1.6293940E-01;  0.0000000E+00;  1.9835843E-01;  2.1626600E+04;
  1.2085727E+00;  9.9999998E-03;  2.8078461E-01;8969;  9.5538354E-01;  0.0000000E+00;  4.9565885E-02;  9.9825916E+02;  1.1540358E-01; -1.4233809E+03;3;  2.8099077E+01;  0.0000000E+00;  1.7038275E+01;0; -2.1252796E-02;  3.0163973E+04;  0.0000000E+00; -2.0636404E+01;  4.0000000E+04;  0.0000000E+00;  3.9716754E+04; -1.4223491E-01;  0.0000000E+00;  1.2098211E-01;  2.6354686E+04;
  1.2090726E+00;  9.9999998E-03;  2.9082471E-01;8970;  9.6347511E-01;  0.0000000E+00;  4.8672382E-02;  9.9629578E+02;  1.1537623E-01; -3.0283923E+03;3;  2.8215456E+01;  0.0000000E+00;  1.7101669E+01;0; -6.8082795E-02;  3.0068105E+04;  0.0000000E+00;  2.4327192E+00;  4.0000000E+04;  0.0000000E+00;  3.9727918E+04; -1.1443161E-01;  0.0000000E+00;  4.6348821E-02;  3.5716062E+03;
  1.2189420E+00;  9.9999998E-03;  2.5064683E-01;9025;  9.2993176E-01;  0.0000000E+00;  4.4084027E-02;  1.0001335E+03;  1.1422193E-01;  1.0892827E+02;3;  2.9359470E+01;  0.0000000E+00;  1.8664013E+01;0;  5.4294646E-02;  3.0888418E+04;  0.0000000E+00;  4.9089174E+00;  4.0000000E+04;  0.0000000E+00;  3.9720121E+04; -2.4956232E-01;  0.0000000E+00;  3.0385697E-01;  1.2539134E+04;
  1.2188419E+00;  9.9999998E-03;  2.6071098E-01;9026;  9.3818182E-01;  0.0000000E+00;  4.4577669E-02;  1.0002030E+03;  1.1422008E-01;  1.6563306E+02;3;  2.8890821E+01;  0.0000000E+00;  1.6572983E+01;0;  2.7451366E-02;  3.0904332E+04;  0.0000000E+00; -2.2347911E-01;  4.0000000E+04;  0.0000000E+00;  3.9708398E+04; -2.3786351E-01;  0.0000000E+00;  2.6531488E-01;  5.9308735E+03;
  1.2191596E+00;  9.9999998E-03;  2.4057828E-01;9024;  9.2106539E-01;  0.0000000E+00;  4.2198729E-02;  1.0000953E+03;  1.1421395E-01;  7.7704842E+01;3;  2.9938993E+01;  0.0000000E+00;  2.1785694E+01;0;  6.1450899E-02;  3.0882271E+04;  0.0000000E+00;  7.1267958E+00;  4.0000000E+04;  0.0000000E+00;  3.9730645E+04; -2.5679183E-01;  0.0000000E+00;  3.1824273E-01;  1.5196436E+04;
  1.2189578E+00;  9.9999998E-03;  2.7076942E-01;9027;  9.4581789E-01;  0.0000000E+00;  4.3850373E-02;  9.9990942E+02;  1.1420330E-01; -7.3915344E+01;3;  2.8903452E+01;  0.0000000E+00;  1.6139097E+01;0; -2.3944184E-02;  3.0908553E+04;  0.0000000E+00; -8.2403584E+00;  4.0000000E+04;  0.0000000E+00;  3.9698312E+04; -2.2212376E-01;  0.0000000E+00;  1.9817957E-01;  6.4435898E+03;
  1.2193965E+00;  9.9999998E-03;  2.8081667E-01;9028;  9.5327610E-01;  0.0000000E+00;  4.2764038E-02;  9.9859314E+02;  1.1417570E-01; -1.1476653E+03;3;  2.9123657E+01;  0.0000000E+00;  1.6388033E+01;0; -8.4291302E-02;  3.0854988E+04;  0.0000000E+00; -1.1090167E+01;  4.0000000E+04;  0.0000000E+00;  3.9699512E+04; -2.0152786E-01;  0.0000000E+00;  1.1723656E-01;  1.1650796E+04;
  1.2195860E+00;  9.9999998E-03;  2.9086095E-01;9029;  9.6112424E-01;  0.0000000E+00;  4.2203542E-02;  9.9750452E+02;  1.1416696E-01; -2.0356410E+03;3;  2.9347868E+01;  0.0000000E+00;  1.6492414E+01;0; -1.2900567E-01;  3.0804781E+04;  0.0000000E+00;  1.3232149E+01;  4.0000000E+04;  0.0000000E+00;  3.9702191E+04; -1.7127188E-01;  0.0000000E+00;  4.2266209E-02;  1.6892506E+04;
  1.2298346E+00;  9.9999998E-03;  2.5068992E-01;9084;  9.2784822E-01;  0.0000000E+00;  3.7457380E-02;  9.9998969E+02;  1.1310428E-01; -8.3904858E+00;3;  3.0617666E+01;  0.0000000E+00;  1.9374865E+01;0;  1.6088992E-02;  3.1500051E+04;  0.0000000E+00;  1.4059798E+01;  4.0000000E+04;  0.0000000E+00;  3.9709852E+04; -2.8983319E-01;  0.0000000E+00;  3.0592218E-01;  2.5152943E+04;
  1.2297175E+00;  9.9999998E-03;  2.6075196E-01;9085;  9.3639719E-01;  0.0000000E+00;  3.9028794E-02;  1.0002410E+03;  1.1310127E-01;  1.9604266E+02;3;  2.9883575E+01;  0.0000000E+00;  1.6029310E+01;0;  4.1773915E-04;  3.1530135E+04;  0.0000000E+00;  9.1991129E+00;  4.0000000E+04;  0.0000000E+00;  3.9696758E+04; -2.7813253E-01;  0.0000000E+00;  2.7855027E-01;  1.8945627E+04;
  1.2300478E+00;  9.9999998E-03;  2.4063216E-01;9083;  9.1855145E-01;  0.0000000E+00;  3.4026984E-02;  9.9976575E+02;  1.1309706E-01; -1.9059396E+02;3;  3.1188416E+01;  0.0000000E+00;  2.3104189E+01;0;  1.2873590E-02;  3.1484391E+04;  0.0000000E+00;  1.5068925E+01;  4.0000000E+04;  0.0000000E+00;  3.9716996E+04; -2.9572606E-01;  0.0000000E+00;  3.0859965E-01;  2.6181359E+04;
  1.2297782E+00;  9.9999998E-03;  2.7081195E-01;9086;  9.4393706E-01;  0.0000000E+00;  3.8257599E-02;  1.0001421E+03;  1.1308625E-01;  1.1562550E+02;3;  2.9773609E+01;  0.0000000E+00;  1.4995665E+01;0; -5.2499354E-02;  3.1551189E+04;  0.0000000E+00;  9.8952293E-01;  4.0000000E+04;  0.0000000E+00;  3.9681645E+04; -2.6175857E-01;  0.0000000E+00;  2.0925921E-01;  8.4566475E+03;
  1.2300656E+00;  9.9999998E-03;  2.8086099E-01;9087;  9.5117182E-01;  0.0000000E+00;  3.7002269E-02;  9.9919397E+02;  1.1306811E-01; -6.5582446E+02;3;  3.0084232E+01;  0.0000000E+00;  1.5186934E+01;0; -1.1657885E-01;  3.1519793E+04;  0.0000000E+00; -9.2431819E-01;  4.0000000E+04;  0.0000000E+00;  3.9676859E+04; -2.3906763E-01;  0.0000000E+00;  1.2248877E-01;  4.6176221E+03;
  1.2298486E+00;  9.9999998E-03;  2.9091546E-01;9088;  9.5944422E-01;  0.0000000E+00;  3.6545459E-02;  9.9973254E+02;  1.1307495E-01; -2.1761830E+02;3;  3.0396177E+01;  0.0000000E+00;  1.5516754E+01;0; -1.5880677E-01;  3.1569697E+04;  0.0000000E+00;  1.7482792E+01;  4.0000000E+04;  0.0000000E+00;  3.9661215E+04; -2.0280993E-01;  0.0000000E+00;  4.4003163E-02;  1.9923879E+04;
  1.2408873E+00;  9.9999998E-03;  2.5073129E-01;9143;  9.2528081E-01;  0.0000000E+00;  3.1711429E-02;  9.9928387E+02;  1.1209513E-01; -5.8089746E+02;3;  3.1977863E+01;  0.0000000E+00;  1.9648565E+01;0; -7.7403188E-03;  3.2023703E+04;  0.0000000E+00;  1.8656914E+01;  4.0000000E+04;  0.0000000E+00;  3.9708043E+04; -3.2007673E-01;  0.0000000E+00;  3.1233642E-01;  2.9964844E+04;
  1.2410635E+00;  9.9999998E-03;  2.4068062E-01;9142;  9.1575050E-01;  0.0000000E+00;  2.6807809E-02;  9.9899835E+02;  1.1209065E-01; -8.1243878E+02;3;  3.2371292E+01;  0.0000000E+00;  2.3835255E+01;0; -2.5726050E-02;  3.2005564E+04;  0.0000000E+00;  2.0943119E+01;  4.0000000E+04;  0.0000000E+00;  3.9710926E+04; -3.2641888E-01;  0.0000000E+00;  3.0069283E-01;  3.2849629E+04;
  1.2407434E+00;  9.9999998E-03;  2.6079258E-01;9144;  9.3410730E-01;  0.0000000E+00;  3.4615677E-02;  9.9968243E+02;  1.1209047E-01; -2.5760785E+02;3;  3.0900877E+01;  0.0000000E+00;  1.4953839E+01;0; -4.3098032E-03;  3.2065893E+04;  0.0000000E+00;  1.2910187E+01;  4.0000000E+04;  0.0000000E+00;  3.9693730E+04; -3.0616567E-01;  0.0000000E+00;  3.0185586E-01;  2.2693262E+04;
  1.2406932E+00;  9.9999998E-03;  2.7085689E-01;9145;  9.4170386E-01;  0.0000000E+00;  3.3885665E-02;  9.9988220E+02;  1.1207911E-01; -9.5540710E+01;3;  3.0635340E+01;  0.0000000E+00;  1.3310811E+01;0; -5.4034084E-02;  3.2112027E+04;  0.0000000E+00;  5.5829458E+00;  4.0000000E+04;  0.0000000E+00;  3.9671102E+04; -2.8694949E-01;  0.0000000E+00;  2.3291540E-01;  1.3072861E+04;
  1.2402655E+00;  9.9999998E-03;  2.9097566E-01;9147;  9.5846832E-01;  0.0000000E+00;  3.1791039E-02;  1.0016426E+03;  1.1208480E-01;  1.3326189E+03;3;  3.1373062E+01;  0.0000000E+00;  1.4260954E+01;0; -1.5590161E-01;  3.2274115E+04;  0.0000000E+00;  1.2515090E+01;  4.0000000E+04;  0.0000000E+00;  3.9621066E+04; -2.1262951E-01;  0.0000000E+00;  5.6727894E-02;  1.3005788E+04;
  1.2407478E+00;  9.9999998E-03;  2.8091192E-01;9146;  9.4897974E-01;  0.0000000E+00;  3.2245755E-02;  9.9966235E+02;  1.1207066E-01; -2.7390134E+02;3;  3.0984118E+01;  0.0000000E+00;  1.3736240E+01;0; -1.2238204E-01;  3.2129838E+04;  0.0000000E+00;  5.5854626E+00;  4.0000000E+04;  0.0000000E+00;  3.9655031E+04; -2.6006362E-01;  0.0000000E+00;  1.3768157E-01;  9.8114033E+03;
  1.2521695E+00;  9.9999998E-03;  2.4072264E-01;9200;  9.1254294E-01;  0.0000000E+00;  2.0974621E-02;  9.9781903E+02;  1.1118680E-01; -1.7624620E+03;3;  3.3592461E+01;  0.0000000E+00;  2.3910446E+01;0; -5.3283602E-02;  3.2445014E+04;  0.0000000E+00;  2.3062883E+01;  4.0000000E+04;  0.0000000E+00;  3.9715336E+04; -3.5140902E-01;  0.0000000E+00;  2.9812542E-01;  3.3689172E+04;
  1.2520134E+00;  9.9999998E-03;  2.5077307E-01;9201;  9.2204112E-01;  0.0000000E+00;  2.6756661E-02;  9.9808099E+02;  1.1118715E-01; -1.5508568E+03;3;  3.3312359E+01;  0.0000000E+00;  1.9375937E+01;0; -2.1616638E-02;  3.2463236E+04;  0.0000000E+00;  1.8062872E+01;  4.0000000E+04;  0.0000000E+00;  3.9714000E+04; -3.4337285E-01;  0.0000000E+00;  3.2175621E-01;  2.7473568E+04;
  1.2518350E+00;  9.9999998E-03;  2.6083633E-01;9202;  9.3105620E-01;  0.0000000E+00;  3.0659737E-02;  9.9857697E+02;  1.1118238E-01; -1.1501141E+03;3;  3.2156273E+01;  0.0000000E+00;  1.4170544E+01;0;  2.1511316E-04;  3.2515520E+04;  0.0000000E+00;  1.1226554E+01;  4.0000000E+04;  0.0000000E+00;  3.9696707E+04; -3.2565457E-01;  0.0000000E+00;  3.2586968E-01;  1.8900506E+04;
  1.2517098E+00;  9.9999998E-03;  2.7090296E-01;9203;  9.3875790E-01;  0.0000000E+00;  3.0082552E-02;  9.9896582E+02;  1.1117485E-01; -8.3587537E+02;3;  3.1537256E+01;  0.0000000E+00;  1.1709382E+01;0; -4.2770833E-02;  3.2577764E+04;  0.0000000E+00;  5.1351261E+00;  4.0000000E+04;  0.0000000E+00;  3.9668523E+04; -3.0212602E-01;  0.0000000E+00;  2.5935519E-01;  1.0415442E+04;
  1.2515568E+00;  9.9999998E-03;  2.8096280E-01;9204;  9.4637626E-01;  0.0000000E+00;  2.8248820E-02;  9.9951501E+02;  1.1117406E-01; -3.9201715E+02;3;  3.1897997E+01;  0.0000000E+00;  1.2311121E+01;0; -1.0928097E-01;  3.2646193E+04;  0.0000000E+00;  7.6207371E+00;  4.0000000E+04;  0.0000000E+00;  3.9641789E+04; -2.6887429E-01;  0.0000000E+00;  1.5959331E-01;  9.3010293E+03;
  1.2632102E+00;  9.9999998E-03;  2.4077530E-01;9257;  9.0881467E-01;  0.0000000E+00;  1.5689738E-02;  9.9648401E+02;  1.1037483E-01; -2.8291389E+03;3;  3.4782875E+01;  0.0000000E+00;  2.3530790E+01;0; -7.8928828E-02;  3.2830414E+04;  0.0000000E+00;  2.2964413E+01;  4.0000000E+04;  0.0000000E+00;  3.9719742E+04; -3.7226242E-01;  0.0000000E+00;  2.9333359E-01;  3.1709273E+04;
  1.2630482E+00;  9.9999998E-03;  2.5082606E-01;9258;  9.1817588E-01;  0.0000000E+00;  2.2100162E-02;  9.9679620E+02;  1.1037341E-01; -2.5780967E+03;3;  3.4732079E+01;  0.0000000E+00;  1.9473230E+01;0; -3.4458637E-02;  3.2853578E+04;  0.0000000E+00;  1.5497041E+01;  4.0000000E+04;  0.0000000E+00;  3.9718309E+04; -3.6151099E-01;  0.0000000E+00;  3.2705235E-01;  2.2945773E+04;
  1.2628579E+00;  9.9999998E-03;  2.6088813E-01;9259;  9.2723370E-01;  0.0000000E+00;  2.6802082E-02;  9.9735028E+02;  1.1036928E-01; -2.1323953E+03;3;  3.3670368E+01;  0.0000000E+00;  1.4148580E+01;0;  4.5754910E-03;  3.2912105E+04;  0.0000000E+00;  7.6774435E+00;  4.0000000E+04;  0.0000000E+00;  3.9699973E+04; -3.3919108E-01;  0.0000000E+00;  3.4376657E-01;  1.3305715E+04;
  1.2627013E+00;  9.9999998E-03;  2.7095339E-01;9260;  9.3508369E-01;  0.0000000E+00;  2.6628580E-02;  9.9778668E+02;  1.1036545E-01; -1.7812935E+03;3;  3.2743370E+01;  0.0000000E+00;  1.0788342E+01;0; -2.6662201E-02;  3.2977984E+04;  0.0000000E+00;  3.6312001E+00;  4.0000000E+04;  0.0000000E+00;  3.9669496E+04; -3.1020233E-01;  0.0000000E+00;  2.8354013E-01;  6.1881274E+03;
  1.2624401E+00;  9.9999998E-03;  2.8101212E-01;9261;  9.4291753E-01;  0.0000000E+00;  2.4869340E-02;  9.9880585E+02;  1.1036909E-01; -9.6119568E+02;3;  3.2984699E+01;  0.0000000E+00;  1.1337489E+01;0; -8.5386664E-02;  3.3072188E+04;  0.0000000E+00;  8.6137295E+00;  4.0000000E+04;  0.0000000E+00;  3.9638262E+04; -2.7045184E-01;  0.0000000E+00;  1.8506518E-01;  7.1021152E+03;
  1.2741786E+00;  9.9999998E-03;  2.4084066E-01;9314;  9.0446460E-01;  0.0000000E+00;  1.0745923E-02;  9.9514575E+02;  1.0964955E-01; -3.8866541E+03;3;  3.5949989E+01;  0.0000000E+00;  2.3264330E+01;0; -1.0672957E-01;  3.3174613E+04;  0.0000000E+00;  2.0237200E+01;  4.0000000E+04;  0.0000000E+00;  3.9721391E+04; -3.8994616E-01;  0.0000000E+00;  2.8321660E-01;  2.7188975E+04;
  1.2739877E+00;  9.9999998E-03;  2.5089172E-01;9315;  9.1356802E-01;  0.0000000E+00;  1.7274730E-02;  9.9560052E+02;  1.0964777E-01; -3.5228494E+03;3;  3.6161957E+01;  0.0000000E+00;  1.9605593E+01;0; -5.4755211E-02;  3.3210113E+04;  0.0000000E+00;  1.1388245E+01;  4.0000000E+04;  0.0000000E+00;  3.9718230E+04; -3.7611809E-01;  0.0000000E+00;  3.2136288E-01;  1.7514193E+04;
  1.2737871E+00;  9.9999998E-03;  2.6095042E-01;9316;  9.2255247E-01;  0.0000000E+00;  2.2214919E-02;  9.9622662E+02;  1.0964549E-01; -3.0218079E+03;3;  3.5268242E+01;  0.0000000E+00;  1.4687756E+01;0; -6.7367852E-03;  3.3274465E+04;  0.0000000E+00;  3.9558620E+00;  4.0000000E+04;  0.0000000E+00;  3.9699535E+04; -3.4900963E-01;  0.0000000E+00;  3.4227285E-01;  8.4503320E+03;
  1.2732687E+00;  9.9999998E-03;  2.8106388E-01;9318;  9.3832433E-01;  0.0000000E+00;  2.1274153E-02;  9.9815070E+02;  1.0964928E-01; -1.4813215E+03;3;  3.4359947E+01;  0.0000000E+00;  1.1416550E+01;0; -7.0711717E-02;  3.3455535E+04;  0.0000000E+00;  1.0798871E+01;  4.0000000E+04;  0.0000000E+00;  3.9638754E+04; -2.6973301E-01;  0.0000000E+00;  1.9902129E-01;  6.3858457E+03;
  1.2735842E+00;  9.9999998E-03;  2.7101082E-01;9317;  9.3060982E-01;  0.0000000E+00;  2.2909492E-02;  9.9684473E+02;  1.0964546E-01; -2.5270681E+03;3;  3.4324280E+01;  0.0000000E+00;  1.1075793E+01;0; -1.9292295E-02;  3.3348730E+04;  0.0000000E+00;  3.8517172E+00;  4.0000000E+04;  0.0000000E+00;  3.9669668E+04; -3.1387150E-01;  0.0000000E+00;  2.9457921E-01;  4.0099712E+03;
  1.2850230E+00;  9.9999998E-03;  2.4091788E-01;9370;  8.9970917E-01;  0.0000000E+00;  6.6481563E-03;  9.9417206E+02;  1.0900656E-01; -4.6398877E+03;3;  3.7040955E+01;  0.0000000E+00;  2.2490067E+01;0; -1.3128895E-01;  3.3504031E+04;  0.0000000E+00;  1.6688850E+01;  4.0000000E+04;  0.0000000E+00;  3.9719355E+04; -4.0365627E-01;  0.0000000E+00;  2.7236733E-01;  2.2531744E+04;
  1.2848023E+00;  9.9999998E-03;  2.5096914E-01;9371;  9.0843284E-01;  0.0000000E+00;  1.2530430E-02;  9.9483386E+02;  1.0900532E-01; -4.1134702E+03;3;  3.7546413E+01;  0.0000000E+00;  1.9702497E+01;0; -8.0751657E-02;  3.3557789E+04;  0.0000000E+00;  7.5621805E+00;  4.0000000E+04;  0.0000000E+00;  3.9712629E+04; -3.8682705E-01;  0.0000000E+00;  3.0607539E-01;  1.3259824E+04;
  1.2845933E+00;  9.9999998E-03;  2.6102385E-01;9372;  9.1717547E-01;  0.0000000E+00;  1.6845867E-02;  9.9551971E+02;  1.0900511E-01; -3.5678159E+03;3;  3.6997902E+01;  0.0000000E+00;  1.6072203E+01;0; -3.7220567E-02;  3.3627527E+04;  0.0000000E+00;  2.0026124E+00;  4.0000000E+04;  0.0000000E+00;  3.9692777E+04; -3.5562417E-01;  0.0000000E+00;  3.1840360E-01;  6.2011294E+03;
  1.2843260E+00;  9.9999998E-03;  2.7107826E-01;9373;  9.2544895E-01;  0.0000000E+00;  1.8008461E-02;  9.9651154E+02;  1.0900756E-01; -2.7784089E+03;3;  3.6274429E+01;  0.0000000E+00;  1.3089753E+01;0; -3.7367463E-02;  3.3721297E+04;  0.0000000E+00;  5.8223042E+00;  4.0000000E+04;  0.0000000E+00;  3.9662621E+04; -3.1423536E-01;  0.0000000E+00;  2.7686790E-01;  3.7772527E+03;
  1.2957230E+00;  9.9999998E-03;  2.4101244E-01;9425;  8.9461261E-01;  0.0000000E+00;  2.4975394E-03;  9.9382800E+02;  1.0843998E-01; -4.8822109E+03;3;  3.8068398E+01;  0.0000000E+00;  2.1482929E+01;0; -1.6213578E-01;  3.3845277E+04;  0.0000000E+00;  1.3767173E+01;  4.0000000E+04;  0.0000000E+00;  3.9706238E+04; -4.1292775E-01;  0.0000000E+00;  2.5079197E-01;  1.8822771E+04;
  1.2954972E+00;  9.9999998E-03;  2.5106090E-01;9426;  9.0293717E-01;  0.0000000E+00;  7.3003052E-03;  9.9464575E+02;  1.0844054E-01; -4.2359458E+03;3;  3.8850616E+01;  0.0000000E+00;  1.9806087E+01;0; -1.2023017E-01;  3.3913332E+04;  0.0000000E+00;  4.7267237E+00;  4.0000000E+04;  0.0000000E+00;  3.9696199E+04; -3.9306164E-01;  0.0000000E+00;  2.7283147E-01;  1.0169073E+04;
  1.2952586E+00;  9.9999998E-03;  2.6111045E-01;9427;  9.1141838E-01;  0.0000000E+00;  1.0770202E-02;  9.9555701E+02;  1.0844256E-01; -3.5155691E+03;3;  3.8759750E+01;  0.0000000E+00;  1.7520971E+01;0; -8.5610896E-02;  3.3997848E+04;  0.0000000E+00;  2.3267236E+00;  4.0000000E+04;  0.0000000E+00;  3.9674633E+04; -3.5821950E-01;  0.0000000E+00;  2.7260861E-01;  5.2856265E+03;
  1.2949162E+00;  9.9999998E-03;  2.7116069E-01;9428;  9.2009890E-01;  0.0000000E+00;  1.2037029E-02;  9.9708026E+02;  1.0844323E-01; -2.3107808E+03;3;  3.8099831E+01;  0.0000000E+00;  1.4910296E+01;0; -7.6148227E-02;  3.4126875E+04;  0.0000000E+00;  6.8121581E+00;  4.0000000E+04;  0.0000000E+00;  3.9640547E+04; -3.0897707E-01;  0.0000000E+00;  2.3282884E-01;  2.2935139E+03;
  1.3063027E+00;  9.9999998E-03;  2.4112253E-01;9479;  8.8940054E-01;  0.0000000E+00; -1.7819467E-03;  9.9424329E+02;  1.0794387E-01; -4.5205449E+03;3;  3.9042175E+01;  0.0000000E+00;  2.0683664E+01;0; -1.9973966E-01;  3.4211551E+04;  0.0000000E+00;  1.1281363E+01;  4.0000000E+04;  0.0000000E+00;  3.9679746E+04; -4.1650143E-01;  0.0000000E+00;  2.1676177E-01;  1.5282069E+04;
  1.3060670E+00;  9.9999998E-03;  2.5116789E-01;9480;  8.9742392E-01;  0.0000000E+00;  1.7235820E-03;  9.9525708E+02;  1.0794659E-01; -3.7250813E+03;3;  4.0079082E+01;  0.0000000E+00;  1.9666349E+01;0; -1.6994810E-01;  3.4297367E+04;  0.0000000E+00;  3.2541625E+00;  4.0000000E+04;  0.0000000E+00;  3.9664840E+04; -3.9305192E-01;  0.0000000E+00;  2.2310382E-01;  7.3778340E+03;
  1.3057808E+00;  9.9999998E-03;  2.6121283E-01;9481;  9.0608239E-01;  0.0000000E+00;  4.4392748E-03;  9.9655737E+02;  1.0794792E-01; -2.7044165E+03;3;  4.0254303E+01;  0.0000000E+00;  1.8047209E+01;0; -1.3873264E-01;  3.4409590E+04;  0.0000000E+00;  2.8148336E+00;  4.0000000E+04;  0.0000000E+00;  3.9638922E+04; -3.5133711E-01;  0.0000000E+00;  2.1260446E-01;  3.4807478E+03;
  1.3167893E+00;  9.9999998E-03;  2.4124627E-01;9532;  8.8433933E-01;  0.0000000E+00; -6.2868651E-03;  9.9543353E+02;  1.0751253E-01; -3.5563386E+03;3;  3.9921497E+01;  0.0000000E+00;  1.9219326E+01;0; -2.4328613E-01;  3.4609062E+04;  0.0000000E+00;  8.3602514E+00;  4.0000000E+04;  0.0000000E+00;  3.9638258E+04; -4.1261637E-01;  0.0000000E+00;  1.6933024E-01;  1.0803471E+04;
  1.3165361E+00;  9.9999998E-03;  2.5128752E-01;9533;  8.9246178E-01;  0.0000000E+00; -3.6238858E-03;  9.9668146E+02;  1.0751501E-01; -2.5850029E+03;3;  4.1204971E+01;  0.0000000E+00;  1.8734806E+01;0; -2.1603380E-01;  3.4715008E+04;  0.0000000E+00;  1.6587677E+00;  4.0000000E+04;  0.0000000E+00;  3.9618156E+04; -3.8238603E-01;  0.0000000E+00;  1.6635223E-01;  3.8742085E+03;
  1.3162112E+00;  9.9999998E-03;  2.6132664E-01;9534;  9.0192610E-01;  0.0000000E+00; -8.0886926E-04;  9.9835999E+02;  1.0751300E-01; -1.2778522E+03;3;  4.1664448E+01;  0.0000000E+00;  1.7107353E+01;0; -1.6567163E-01;  3.4854160E+04;  0.0000000E+00;  2.4306251E-01;  4.0000000E+04;  0.0000000E+00;  3.9588730E+04; -3.2693216E-01;  0.0000000E+00;  1.6126053E-01;  4.5949653E+03;
  1.3272177E+00;  9.9999998E-03;  2.4137691E-01;9584;  8.8001549E-01;  0.0000000E+00; -1.0041217E-02;  9.9726788E+02;  1.0713784E-01; -2.1079309E+03;3;  4.0723209E+01;  0.0000000E+00;  1.7181099E+01;0; -2.7338105E-01;  3.5029129E+04;  0.0000000E+00;  3.8804369E+00;  4.0000000E+04;  0.0000000E+00;  3.9585695E+04; -3.9612833E-01;  0.0000000E+00;  1.2274726E-01;  4.8387148E+03;
  1.3269424E+00;  9.9999998E-03;  2.5141269E-01;9585;  8.8887423E-01;  0.0000000E+00; -7.2426014E-03;  9.9875543E+02;  1.0713664E-01; -9.6047144E+02;3;  4.2258087E+01;  0.0000000E+00;  1.6576651E+01;0; -2.2460462E-01;  3.5154047E+04;  0.0000000E+00; -1.9457699E+00;  4.0000000E+04;  0.0000000E+00;  3.9561543E+04; -3.5201037E-01;  0.0000000E+00;  1.2740575E-01;  4.4897544E+03;
  1.3376272E+00;  9.9999998E-03;  2.4150608E-01;9634;  8.7695217E-01;  0.0000000E+00; -1.2031940E-02;  9.9940588E+02;  1.0681055E-01; -4.5359219E+02;3;  4.1576855E+01;  0.0000000E+00;  1.4329000E+01;0; -2.6601923E-01;  3.5445441E+04;  0.0000000E+00; -2.1142886E+00;  4.0000000E+04;  0.0000000E+00;  3.9528523E+04; -3.6036879E-01;  0.0000000E+00;  9.4349556E-02;  3.1392090E+03;
