TimeStep;Np;Nbound;Nfixed;Nmoving;Nfloat;Nfluid
0;10047;2448;2448;0;0;7599

Part;Time;Count;Pos_Xmin;Pos_Xmax;Pos_Xmean;Pos_Ymin;Pos_Ymax;Pos_Ymean;Pos_Zmin;Pos_Zmax;Pos_Zmean;Idp_min;Idp_max;Idp_mean;Vel_min;Vel_max;Vel_mean;Vel_Xmin;Vel_Xmax;Vel_Xmean;Vel_Ymin;Vel_Ymax;Vel_Ymean;Vel_Zmin;Vel_Zmax;Vel_Zmean;Rhop_min;Rhop_max;Rhop_mean;Mass_min;Mass_max;Mass_mean;Press_min;Press_max;Press_mean;Type_min;Type_max;Type_mean;Acec_min;Acec_max;Acec_mean;Acec_Xmin;Acec_Xmax;Acec_Xmean;Acec_Ymin;Acec_Ymax;Acec_Ymean;Acec_Zmin;Acec_Zmax;Acec_Zmean;CellOffSpring_min;CellOffSpring_max;CellOffSpring_mean;GradVel_min;GradVel_max;GradVel_mean;Qfxx_min;Qfxx_max;Qfxx_mean;Qfxy_min;Qfxy_max;Qfxy_mean;Qfxz_min;Qfxz_max;Qfxz_mean;Qfyy_min;Qfyy_max;Qfyy_mean;Qfyz_min;Qfyz_max;Qfyz_mean;Qfzz_min;Qfzz_max;Qfzz_mean;StrainDot_min;StrainDot_max;StrainDot_mean;StrainDot_Xmin;StrainDot_Xmax;StrainDot_Xmean;StrainDot_Ymin;StrainDot_Ymax;StrainDot_Ymean;StrainDot_Zmin;StrainDot_Zmax;StrainDot_Zmean;VonMises3D_min;VonMises3D_max;VonMises3D_mean;
0;  0.000000000000E+00;10047; -2.000000029802E-01;  1.299999952316E+00;  4.561909022329E-01;  9.999999776483E-03;  9.999999776483E-03;  9.999999776483E-03; -4.499999880791E-01;  4.499999880791E-01;  0.000000000000E+00;  0.000000000000E+00;  1.004600000000E+04;  5.023000000000E+03;  0.000000000000E+00;  0.000000000000E+00;  0.000000000000E+00;  0.000000000000E+00;  0.000000000000E+00;  0.000000000000E+00;  0.000000000000E+00;  0.000000000000E+00;  0.000000000000E+00;  0.000000000000E+00;  0.000000000000E+00;  0.000000000000E+00;  1.000000000000E+03;  1.000000000000E+03;  1.000000000000E+03;  1.000000014901E-01;  1.000000014901E-01;  1.000000014901E-01;  0.000000000000E+00;  0.000000000000E+00;  0.000000000000E+00;  0.000000000000E+00;  3.000000000000E+00;  2.269035532995E+00;  0.000000000000E+00;  0.000000000000E+00;  0.000000000000E+00;  0.000000000000E+00;  0.000000000000E+00;  0.000000000000E+00;  0.000000000000E+00;  0.000000000000E+00;  0.000000000000E+00;  0.000000000000E+00;  0.000000000000E+00;  0.000000000000E+00;  0.000000000000E+00;  0.000000000000E+00;  0.000000000000E+00;  0.000000000000E+00;  0.000000000000E+00;  0.000000000000E+00;  4.000000000000E+04;  4.000000000000E+04;  4.000000000000E+04;  0.000000000000E+00;  0.000000000000E+00;  0.000000000000E+00;  0.000000000000E+00;  0.000000000000E+00;  0.000000000000E+00;  4.000000000000E+04;  4.000000000000E+04;  4.000000000000E+04;  0.000000000000E+00;  0.000000000000E+00;  0.000000000000E+00;  4.000000000000E+04;  4.000000000000E+04;  4.000000000000E+04;  0.000000000000E+00;  0.000000000000E+00;  0.000000000000E+00;  0.000000000000E+00;  0.000000000000E+00;  0.000000000000E+00;  0.000000000000E+00;  0.000000000000E+00;  0.000000000000E+00;  0.000000000000E+00;  0.000000000000E+00;  0.000000000000E+00;  0.000000000000E+00;  0.000000000000E+00;  0.000000000000E+00;
1;  6.004412576529E-02;10047; -2.000000029802E-01;  1.381879210472E+00;  4.759800234599E-01;  9.999999776483E-03;  9.999999776483E-03;  9.999999776483E-03; -4.499999880791E-01;  4.499999880791E-01; -4.295821860427E-10;  0.000000000000E+00;  1.004600000000E+04;  5.023000000000E+03;  0.000000000000E+00;  1.927795362608E+00;  5.276438777891E-01;  0.000000000000E+00;  1.927489638329E+00;  5.272008732978E-01;  0.000000000000E+00;  0.000000000000E+00;  0.000000000000E+00; -9.374072402716E-02;  9.374064207077E-02; -1.642688837752E-08;  9.763755493164E+02;  1.007511779785E+03;  9.976610789883E+02;  1.000000014901E-01;  1.232433095574E-01;  1.047280558025E-01; -1.957243359375E+04;  6.223051269531E+03; -1.933895797700E+03;  0.000000000000E+00;  3.000000000000E+00;  2.269035532995E+00;  0.000000000000E+00;  3.521274185147E+02;  2.973281992090E+01; -1.597508392334E+02;  3.061666870117E+02; -6.308295464237E-01;  0.000000000000E+00;  0.000000000000E+00;  0.000000000000E+00; -2.988933105469E+02;  2.988941955566E+02;  1.123142684741E-06;  0.000000000000E+00;  0.000000000000E+00;  0.000000000000E+00; -1.799255609512E-01;  7.357509613037E+00;  9.978905392276E-01;  2.555905664062E+04;  4.002202734375E+04;  3.685486716223E+04;  0.000000000000E+00;  0.000000000000E+00;  0.000000000000E+00; -2.477023124695E+01;  1.221189270020E+02; -1.566136335587E-01;  4.000000000000E+04;  4.000000000000E+04;  4.000000000000E+04;  0.000000000000E+00;  0.000000000000E+00;  0.000000000000E+00;  3.944348046875E+04;  4.010503125000E+04;  3.994463735405E+04;  0.000000000000E+00;  7.394920089947E+00;  1.042416225136E+00; -3.013643324375E-01;  7.394825935364E+00;  9.928572571473E-01;  0.000000000000E+00;  0.000000000000E+00;  0.000000000000E+00; -3.707156777382E-01;  3.658430874348E-01;  5.033281806237E-03;  0.000000000000E+00;  2.942977812500E+05;  6.061049421260E+03;
2;  1.200112366018E-01;10047; -2.000000029802E-01;  1.465426087379E+00;  4.944234026204E-01;  9.999999776483E-03;  9.999999776483E-03;  9.999999776483E-03; -4.499999880791E-01;  4.499999880791E-01; -1.627475252072E-09;  0.000000000000E+00;  1.004600000000E+04;  5.023000000000E+03;  0.000000000000E+00;  1.036958575249E+00;  2.460692259733E-01; -2.169626951218E-01;  1.036958575249E+00;  1.284259135678E-01;  0.000000000000E+00;  0.000000000000E+00;  0.000000000000E+00; -1.286228895187E-01;  1.286229640245E-01; -1.394299738542E-08;  9.606198120117E+02;  1.008571655273E+03;  9.960030888637E+02;  1.000000014901E-01;  1.520858108997E-01;  1.094396386358E-01; -3.262574218750E+04;  7.079239746094E+03; -3.285411859787E+03;  0.000000000000E+00;  3.000000000000E+00;  2.269035532995E+00;  0.000000000000E+00;  4.452126823988E+02;  1.938017944463E+01; -1.436882324219E+02;  2.568405761719E+02;  7.321403067562E-01;  0.000000000000E+00;  0.000000000000E+00;  0.000000000000E+00; -3.979943847656E+02;  3.979944458008E+02;  1.160323474310E-06;  0.000000000000E+00;  0.000000000000E+00;  0.000000000000E+00; -5.175848603249E-01;  6.157484531403E+00;  3.729719489190E-01;  1.703710156250E+04;  4.000000000000E+04;  3.486006324163E+04;  0.000000000000E+00;  0.000000000000E+00;  0.000000000000E+00; -2.629580879211E+01;  1.969390106201E+02;  2.182925383405E+00;  4.000000000000E+04;  4.000000000000E+04;  4.000000000000E+04;  0.000000000000E+00;  0.000000000000E+00;  0.000000000000E+00;  3.885775390625E+04;  4.010880859375E+04;  3.990454070012E+04;  0.000000000000E+00;  6.550996976773E+00;  6.379238939920E-01; -4.961477518082E-01;  6.536017417908E+00;  3.488852952110E-01;  0.000000000000E+00;  0.000000000000E+00;  0.000000000000E+00; -5.880151987076E-01;  7.192545533180E-01;  2.408665377538E-02;  0.000000000000E+00;  5.766127500000E+05;  9.465826537216E+03;
3;  1.800296994069E-01;10047; -2.000000029802E-01;  1.536307692528E+00;  5.049938479489E-01;  9.999999776483E-03;  9.999999776483E-03;  9.999999776483E-03; -4.499999880791E-01;  4.499999880791E-01; -1.622561756055E-09;  0.000000000000E+00;  1.004600000000E+04;  5.023000000000E+03;  0.000000000000E+00;  1.414849807818E+00;  2.442069587975E-01; -1.013180837035E-01;  1.413752198219E+00;  2.296200109050E-01;  0.000000000000E+00;  0.000000000000E+00;  0.000000000000E+00; -1.397898942232E-01;  1.397900730371E-01;  2.209258078872E-08;  9.823010253906E+02;  1.013656005859E+03;  1.000137852253E+03;  1.000000014901E-01;  1.864335089922E-01;  1.141431379340E-01; -1.466328906250E+04;  1.131375390625E+04;  1.185594839179E+02;  0.000000000000E+00;  3.000000000000E+00;  2.269035532995E+00;  0.000000000000E+00;  1.775530090332E+02;  2.100952755994E+01; -1.775530090332E+02;  1.063130722046E+02; -3.568556668492E-01;  0.000000000000E+00;  0.000000000000E+00;  0.000000000000E+00; -8.695426177979E+01;  8.695422363281E+01;  1.234650611326E-06;  0.000000000000E+00;  0.000000000000E+00;  0.000000000000E+00; -2.145726382732E-01;  6.361567020416E+00;  5.238849738121E-01;  1.173754785156E+04;  4.058118359375E+04;  3.395877427108E+04;  0.000000000000E+00;  0.000000000000E+00;  0.000000000000E+00; -4.210547256470E+01;  6.063966369629E+01;  7.861089463565E-01;  4.000000000000E+04;  4.000000000000E+04;  4.000000000000E+04;  0.000000000000E+00;  0.000000000000E+00;  0.000000000000E+00;  3.836306640625E+04;  4.012487890625E+04;  3.983227285936E+04;  0.000000000000E+00;  6.863631406565E+00;  5.833919643434E-01; -2.677341401577E-01;  6.845179080963E+00;  5.107774769565E-01;  0.000000000000E+00;  0.000000000000E+00;  0.000000000000E+00; -6.640005707741E-01;  6.709901690483E-01;  1.310749678161E-02;  0.000000000000E+00;  1.969219843750E+05;  5.101427190944E+03;
4;  2.400560356398E-01;10047; -2.000000029802E-01;  1.617817282677E+00;  5.196021653403E-01;  9.999999776483E-03;  9.999999776483E-03;  9.999999776483E-03; -4.499999880791E-01;  4.499999880791E-01;  1.203215888977E-09;  0.000000000000E+00;  1.004600000000E+04;  5.023000000000E+03;  0.000000000000E+00;  1.531316496530E+00;  2.386760684434E-01; -6.219773739576E-02;  1.530281782150E+00;  2.322257462299E-01;  0.000000000000E+00;  0.000000000000E+00;  0.000000000000E+00; -1.705041825771E-01;  1.705046445131E-01;  7.419084538119E-08;  9.840445556641E+02;  1.013511047363E+03;  9.985504130282E+02;  1.000000014901E-01;  2.266638278961E-01;  1.188440315623E-01; -1.321878710938E+04;  1.119365917969E+04; -1.183453092310E+03;  0.000000000000E+00;  3.000000000000E+00;  2.269035532995E+00;  0.000000000000E+00;  2.281494687748E+02;  2.218387099337E+01; -2.214051818848E+02;  1.077350692749E+02; -1.738210592411E+00;  0.000000000000E+00;  0.000000000000E+00;  0.000000000000E+00; -1.025486450195E+02;  1.025489120483E+02;  8.215186168157E-07;  0.000000000000E+00;  0.000000000000E+00;  0.000000000000E+00; -3.074270188808E-01;  6.882654190063E+00;  4.923867593922E-01;  7.703206542969E+03;  4.026503906250E+04;  3.297921581696E+04;  0.000000000000E+00;  0.000000000000E+00;  0.000000000000E+00; -2.854884719849E+01;  5.370288467407E+01;  1.015795986369E+00;  4.000000000000E+04;  4.000000000000E+04;  4.000000000000E+04;  0.000000000000E+00;  0.000000000000E+00;  0.000000000000E+00;  3.784745703125E+04;  4.007899218750E+04;  3.980400156569E+04;  0.000000000000E+00;  7.383172157176E+00;  5.616655854902E-01; -5.900720953941E-01;  7.349236965179E+00;  4.861680295598E-01;  0.000000000000E+00;  0.000000000000E+00;  0.000000000000E+00; -7.701739072800E-01;  8.024337887764E-01;  6.218730035944E-03;  0.000000000000E+00;  1.894925937500E+05;  5.603021338030E+03;
5;  3.000338009692E-01;10047; -2.000000029802E-01;  1.695670485497E+00;  5.318821311908E-01;  9.999999776483E-03;  9.999999776483E-03;  9.999999776483E-03; -4.499999880791E-01;  4.499999880791E-01;  6.982803706987E-09;  0.000000000000E+00;  1.004600000000E+04;  5.023000000000E+03;  0.000000000000E+00;  1.235802876120E+00;  2.062631944959E-01; -5.596879497170E-02;  1.230454683304E+00;  1.816780900602E-01;  0.000000000000E+00;  0.000000000000E+00;  0.000000000000E+00; -1.359239667654E-01;  1.359249800444E-01;  1.157885485143E-07;  9.842792968750E+02;  1.013344116211E+03;  9.991411511951E+02;  1.000000014901E-01;  2.717038094997E-01;  1.235459219341E-01; -1.302432324219E+04;  1.105539062500E+04; -6.737428783716E+02;  0.000000000000E+00;  3.000000000000E+00;  2.269035532995E+00;  0.000000000000E+00;  2.234727468533E+02;  1.630796627654E+01; -2.170018005371E+02;  8.796767425537E+01;  8.860269923657E-01;  0.000000000000E+00;  0.000000000000E+00;  0.000000000000E+00; -7.764881134033E+01;  7.764890289307E+01;  1.233188448007E-07;  0.000000000000E+00;  0.000000000000E+00;  0.000000000000E+00; -4.777934551239E-01;  7.473755836487E+00;  2.669551681428E-01;  5.388451660156E+03;  4.029655859375E+04;  3.238083556537E+04;  0.000000000000E+00;  0.000000000000E+00;  0.000000000000E+00; -2.340023040771E+01;  6.904928588867E+01;  1.545608007532E+00;  4.000000000000E+04;  4.000000000000E+04;  4.000000000000E+04;  0.000000000000E+00;  0.000000000000E+00;  0.000000000000E+00;  3.720301171875E+04;  4.007982421875E+04;  3.975654694965E+04;  0.000000000000E+00;  8.303881595327E+00;  3.787063962972E-01; -5.401381254196E-01;  8.264995574951E+00;  2.499032858558E-01;  0.000000000000E+00;  0.000000000000E+00;  0.000000000000E+00; -1.021808743477E+00;  6.402469873428E-01;  1.705188208952E-02;  0.000000000000E+00;  1.831575312500E+05;  5.573786290924E+03;
6;  3.600131226220E-01;10047; -2.000000029802E-01;  1.772046327591E+00;  5.432259429606E-01;  9.999999776483E-03;  9.999999776483E-03;  9.999999776483E-03; -4.499999880791E-01;  4.499999880791E-01;  1.499843387909E-08;  0.000000000000E+00;  1.004600000000E+04;  5.023000000000E+03;  0.000000000000E+00;  1.418507164545E+00;  2.018170618028E-01; -6.471662223339E-02;  1.416653871536E+00;  1.987508786822E-01;  0.000000000000E+00;  0.000000000000E+00;  0.000000000000E+00; -1.684867739677E-01;  1.684878617525E-01;  1.411892741414E-07;  9.850473632812E+02;  1.014862609863E+03;  9.999629128472E+02;  1.000000014901E-01;  3.215980231762E-01;  1.282339310525E-01; -1.238269238281E+04;  1.231342968750E+04; -2.113981907524E+01;  0.000000000000E+00;  3.000000000000E+00;  2.269035532995E+00;  0.000000000000E+00;  2.108730468750E+02;  1.579846098133E+01; -2.108730468750E+02;  1.144294128418E+02;  1.160360010840E+00;  0.000000000000E+00;  0.000000000000E+00;  0.000000000000E+00; -6.115862274170E+01;  6.115857696533E+01;  9.079456833838E-07;  0.000000000000E+00;  0.000000000000E+00;  0.000000000000E+00; -2.665145397186E-01;  7.456696510315E+00;  3.647726926984E-01;  3.971071044922E+03;  4.042817968750E+04;  3.195010495238E+04;  0.000000000000E+00;  0.000000000000E+00;  0.000000000000E+00; -2.857313156128E+01;  6.923081970215E+01;  1.304320177039E+00;  4.000000000000E+04;  4.000000000000E+04;  4.000000000000E+04;  0.000000000000E+00;  0.000000000000E+00;  0.000000000000E+00;  3.676205468750E+04;  4.007378125000E+04;  3.971423157449E+04;  0.000000000000E+00;  8.041165788017E+00;  4.071752611526E-01; -2.895290553570E-01;  8.021318435669E+00;  3.569675343789E-01;  0.000000000000E+00;  0.000000000000E+00;  0.000000000000E+00; -8.803189992905E-01;  8.114770650864E-01;  7.805158130108E-03;  0.000000000000E+00;  1.324444062500E+05;  5.139015730717E+03;
7;  4.200046304646E-01;10047; -2.000000029802E-01;  1.851668477058E+00;  5.550354038760E-01;  9.999999776483E-03;  9.999999776483E-03;  9.999999776483E-03; -4.499999880791E-01;  4.499999880791E-01;  2.348744521454E-08;  0.000000000000E+00;  1.004600000000E+04;  5.023000000000E+03;  0.000000000000E+00;  1.513863382007E+00;  1.971489697087E-01; -5.069785937667E-02;  1.513117194176E+00;  1.945882441780E-01;  0.000000000000E+00;  0.000000000000E+00;  0.000000000000E+00; -1.743544489145E-01;  1.743556410074E-01;  1.350800685463E-07;  9.843214111328E+02;  1.013712280273E+03;  9.991462731607E+02;  1.000000014901E-01;  3.770415484905E-01;  1.329369566637E-01; -1.292864843750E+04;  1.136037011719E+04; -7.027517244030E+02;  0.000000000000E+00;  3.000000000000E+00;  2.269035532995E+00;  0.000000000000E+00;  1.809793774660E+02;  1.707962619464E+01; -1.809411926270E+02;  1.225873413086E+02; -1.558054390341E+00;  0.000000000000E+00;  0.000000000000E+00;  0.000000000000E+00; -7.065150451660E+01;  7.065299224854E+01; -9.198816789374E-08;  0.000000000000E+00;  0.000000000000E+00;  0.000000000000E+00; -2.565509080887E-01;  6.434651851654E+00;  3.908400326846E-01;  2.835470947266E+03;  4.030550781250E+04;  3.150258783748E+04;  0.000000000000E+00;  0.000000000000E+00;  0.000000000000E+00; -2.550815963745E+01;  6.472559356689E+01;  1.145220850620E+00;  4.000000000000E+04;  4.000000000000E+04;  4.000000000000E+04;  0.000000000000E+00;  0.000000000000E+00;  0.000000000000E+00;  3.629405859375E+04;  4.007360156250E+04;  3.968771509958E+04;  0.000000000000E+00;  6.970745162389E+00;  4.404162216945E-01; -4.229037165642E-01;  6.951553821564E+00;  3.982713938137E-01;  0.000000000000E+00;  0.000000000000E+00;  0.000000000000E+00; -7.049245834351E-01;  8.441870808601E-01; -7.431361102840E-03;  0.000000000000E+00;  1.664201250000E+05;  5.493049963528E+03;
8;  4.800516177439E-01;10047; -2.000000029802E-01;  1.930791378021E+00;  5.657317824099E-01;  9.999999776483E-03;  9.999999776483E-03;  9.999999776483E-03; -4.499999880791E-01;  4.499999880791E-01;  3.078494508700E-08;  0.000000000000E+00;  1.004600000000E+04;  5.023000000000E+03;  0.000000000000E+00;  1.392402887345E+00;  1.748850331820E-01; -6.818240880966E-02;  1.392402887344E+00;  1.599408530041E-01;  0.000000000000E+00;  0.000000000000E+00;  0.000000000000E+00; -1.539473682642E-01;  1.539482176304E-01;  1.025507018180E-07;  9.840863647461E+02;  1.013289001465E+03;  9.989348957847E+02;  1.000000014901E-01;  4.343064129353E-01;  1.376795917727E-01; -1.261098144531E+04;  1.100966406250E+04; -8.446070643714E+02;  0.000000000000E+00;  3.000000000000E+00;  2.269035532995E+00;  0.000000000000E+00;  1.990763727410E+02;  1.527504500226E+01; -1.968646392822E+02;  9.450698852539E+01; -2.248028844359E-01;  0.000000000000E+00;  0.000000000000E+00;  0.000000000000E+00; -8.157498931885E+01;  8.157533264160E+01; -7.441779563706E-07;  0.000000000000E+00;  0.000000000000E+00;  0.000000000000E+00; -5.772486925125E-01;  7.634315013885E+00;  2.401588971264E-01;  2.167357666016E+03;  4.028627343750E+04;  3.115895697035E+04;  0.000000000000E+00;  0.000000000000E+00;  0.000000000000E+00; -1.799986076355E+01;  7.316969299316E+01;  1.518263331347E+00;  4.000000000000E+04;  4.000000000000E+04;  4.000000000000E+04;  0.000000000000E+00;  0.000000000000E+00;  0.000000000000E+00;  3.564612109375E+04;  4.007667968750E+04;  3.965402380180E+04;  0.000000000000E+00;  8.053057125735E+00;  3.073394849814E-01; -6.058164834976E-01;  8.015369415283E+00;  2.199752120060E-01;  0.000000000000E+00;  0.000000000000E+00;  0.000000000000E+00; -1.093666434288E+00;  6.048523187637E-01;  2.018368486668E-02;  0.000000000000E+00;  1.822592968750E+05;  6.160634638761E+03;
9;  5.400422806231E-01;10047; -2.000000029802E-01;  2.007436752319E+00;  5.754600995864E-01;  9.999999776483E-03;  9.999999776483E-03;  9.999999776483E-03; -4.499999880791E-01;  4.499999880791E-01;  3.587963176195E-08;  0.000000000000E+00;  1.004600000000E+04;  5.023000000000E+03;  0.000000000000E+00;  1.345042472009E+00;  1.673961166223E-01; -2.982340194285E-02;  1.340784549713E+00;  1.613786091637E-01;  0.000000000000E+00;  0.000000000000E+00;  0.000000000000E+00; -1.548850983381E-01;  1.548857688904E-01;  4.565676668698E-08;  9.847161254883E+02;  1.013912658691E+03;  9.996483515757E+02;  1.000000014901E-01;  4.920851290226E-01;  1.424313792923E-01; -1.265594433594E+04;  1.152638964844E+04; -2.715556720213E+02;  0.000000000000E+00;  3.000000000000E+00;  2.269035532995E+00;  0.000000000000E+00;  2.076257163016E+02;  1.192190449536E+01; -2.019816284180E+02;  9.959445190430E+01;  2.010615339797E+00;  0.000000000000E+00;  0.000000000000E+00;  0.000000000000E+00; -5.824089813232E+01;  5.824067306519E+01; -3.530717879851E-07;  0.000000000000E+00;  0.000000000000E+00;  0.000000000000E+00; -3.562443554401E-01;  7.968181133270E+00;  2.279432853352E-01;  1.702818969727E+03;  4.035589843750E+04;  3.092764690024E+04;  0.000000000000E+00;  0.000000000000E+00;  0.000000000000E+00; -2.135494422913E+01;  7.558583068848E+01;  1.531417056668E+00;  4.000000000000E+04;  4.000000000000E+04;  4.000000000000E+04;  0.000000000000E+00;  0.000000000000E+00;  0.000000000000E+00;  3.517952734375E+04;  4.007607031250E+04;  3.961755632861E+04;  0.000000000000E+00;  8.334017426759E+00;  2.882769196855E-01; -4.073563218117E-01;  8.326318740845E+00;  2.140047495033E-01;  0.000000000000E+00;  0.000000000000E+00;  0.000000000000E+00; -9.585126638412E-01;  7.054393887520E-01;  1.393853569768E-02;  0.000000000000E+00;  1.605198750000E+05;  5.935145518781E+03;
10;  6.000330652923E-01;10047; -2.000000029802E-01;  2.085669755936E+00;  5.852553582121E-01;  9.999999776483E-03;  9.999999776483E-03;  9.999999776483E-03; -4.499999880791E-01;  4.499999880791E-01;  3.767945914546E-08;  0.000000000000E+00;  1.004600000000E+04;  5.023000000000E+03;  0.000000000000E+00;  1.468064720713E+00;  1.690492388905E-01; -6.358421593904E-02;  1.467736005783E+00;  1.678107668364E-01;  0.000000000000E+00;  0.000000000000E+00;  0.000000000000E+00; -1.672877073288E-01;  1.672873198986E-01; -4.728583683133E-09;  9.787405395508E+02;  1.013657958984E+03;  9.994276722707E+02;  1.000000014901E-01;  5.555523037910E-01;  1.471838861455E-01; -1.757605078125E+04;  1.131533398438E+04; -4.699980740471E+02;  0.000000000000E+00;  3.000000000000E+00;  2.269035532995E+00;  0.000000000000E+00;  1.779717399112E+02;  1.261180274706E+01; -1.775982513428E+02;  1.065884170532E+02;  5.923967045495E-01;  0.000000000000E+00;  0.000000000000E+00;  0.000000000000E+00; -7.508133697510E+01;  7.508162689209E+01;  3.385095590397E-07;  0.000000000000E+00;  0.000000000000E+00;  0.000000000000E+00; -2.100048959255E-01;  6.392269134521E+00;  3.031455884271E-01;  1.331602050781E+03;  4.032040625000E+04;  3.068739166316E+04;  0.000000000000E+00;  0.000000000000E+00;  0.000000000000E+00; -1.950973510742E+01;  8.653067016602E+01;  1.334684568873E+00;  4.000000000000E+04;  4.000000000000E+04;  4.000000000000E+04;  0.000000000000E+00;  0.000000000000E+00;  0.000000000000E+00;  3.475324218750E+04;  4.007442187500E+04;  3.959035855114E+04;  0.000000000000E+00;  7.097652742147E+00;  3.307809898101E-01; -2.581401765347E-01;  7.065638542175E+00;  3.107421788939E-01;  0.000000000000E+00;  0.000000000000E+00;  0.000000000000E+00; -7.212169170380E-01;  6.971089839935E-01; -7.596590453262E-03;  0.000000000000E+00;  1.690965312500E+05;  5.945282881234E+03;
11;  6.600294985989E-01;10047; -2.000000029802E-01;  2.164971828461E+00;  5.947311951955E-01;  9.999999776483E-03;  9.999999776483E-03;  9.999999776483E-03; -4.499999880791E-01;  4.499999880791E-01;  3.593450982540E-08;  0.000000000000E+00;  1.004600000000E+04;  5.023000000000E+03;  0.000000000000E+00;  1.494667675698E+00;  1.545252153238E-01; -7.701038569212E-02;  1.493521451950E+00;  1.507997216383E-01;  0.000000000000E+00;  0.000000000000E+00;  0.000000000000E+00; -1.534950137138E-01;  1.534945666790E-01; -6.170868087697E-08;  9.777337646484E+02;  1.013328613281E+03;  9.988767801040E+02;  1.000000014901E-01;  6.230515837669E-01;  1.519442248878E-01; -1.799525585938E+04;  1.104255175781E+04; -9.128864980401E+02;  0.000000000000E+00;  3.000000000000E+00;  2.269035532995E+00;  0.000000000000E+00;  1.653070832812E+02;  1.380325618837E+01; -1.648308715820E+02;  1.097320098877E+02; -1.074454042034E+00;  0.000000000000E+00;  0.000000000000E+00;  0.000000000000E+00; -9.684047698975E+01;  9.684040832520E+01; -9.581766086136E-07;  0.000000000000E+00;  0.000000000000E+00;  0.000000000000E+00; -3.058550953865E-01;  7.056012153625E+00;  2.783320274218E-01;  1.052171630859E+03;  4.027111328125E+04;  3.045398496405E+04;  0.000000000000E+00;  0.000000000000E+00;  0.000000000000E+00; -2.522349929810E+01;  1.045638351440E+02;  1.267582639839E+00;  4.000000000000E+04;  4.000000000000E+04;  4.000000000000E+04;  0.000000000000E+00;  0.000000000000E+00;  0.000000000000E+00;  3.422682031250E+04;  4.007773437500E+04;  3.956877341728E+04;  0.000000000000E+00;  7.530718648042E+00;  3.083236354183E-01; -5.597411394119E-01;  7.516619205475E+00;  2.727462342994E-01;  0.000000000000E+00;  0.000000000000E+00;  0.000000000000E+00; -6.882979869843E-01;  7.935113906860E-01;  5.585792722617E-03;  0.000000000000E+00;  1.931565781250E+05;  6.711946155598E+03;
12;  7.200203917942E-01;10047; -2.000000029802E-01;  2.243313789368E+00;  6.034487865895E-01;  9.999999776483E-03;  9.999999776483E-03;  9.999999776483E-03; -4.499999880791E-01;  4.499999880791E-01;  3.096183888710E-08;  0.000000000000E+00;  1.004600000000E+04;  5.023000000000E+03;  0.000000000000E+00;  1.275078025268E+00;  1.411913789164E-01; -2.428515627980E-02;  1.269905567169E+00;  1.366312187293E-01;  0.000000000000E+00;  0.000000000000E+00;  0.000000000000E+00; -1.301477998495E-01;  1.301461756229E-01; -1.128019448243E-07;  9.807656250000E+02;  1.013445861816E+03;  9.990550064720E+02;  1.000000014901E-01;  6.912280917168E-01;  1.567199931566E-01; -1.592669531250E+04;  1.113963574219E+04; -7.506027972811E+02;  0.000000000000E+00;  3.000000000000E+00;  2.269035532995E+00;  0.000000000000E+00;  2.162162258062E+02;  9.788732499355E+00; -2.105090942383E+02;  1.007641372681E+02;  1.565196557958E+00;  0.000000000000E+00;  0.000000000000E+00;  0.000000000000E+00; -9.720012664795E+01;  9.719985961914E+01; -1.028717817327E-06;  0.000000000000E+00;  0.000000000000E+00;  0.000000000000E+00; -4.534365236759E-01;  7.425766468048E+00;  1.384803015230E-01;  8.710032958984E+02;  4.027725390625E+04;  3.028220043443E+04;  0.000000000000E+00;  0.000000000000E+00;  0.000000000000E+00; -2.368474197388E+01;  1.079134292603E+02;  1.442967810730E+00;  4.000000000000E+04;  4.000000000000E+04;  4.000000000000E+04;  0.000000000000E+00;  0.000000000000E+00;  0.000000000000E+00;  3.364742968750E+04;  4.007834765625E+04;  3.953914882708E+04;  0.000000000000E+00;  8.209480758123E+00;  2.006565544466E-01; -5.208579897881E-01;  8.173009872437E+00;  1.245588753869E-01;  0.000000000000E+00;  0.000000000000E+00;  0.000000000000E+00; -9.875460863113E-01;  6.400648951530E-01;  1.392142576543E-02;  0.000000000000E+00;  1.957724531250E+05;  6.830626601565E+03;
13;  7.800119944884E-01;10047; -2.000000029802E-01;  2.320262432098E+00;  6.117833246975E-01;  9.999999776483E-03;  9.999999776483E-03;  9.999999776483E-03; -4.499999880791E-01;  4.499999880791E-01;  2.284377177092E-08;  0.000000000000E+00;  1.004600000000E+04;  5.023000000000E+03;  0.000000000000E+00;  1.399433730116E+00;  1.414668528401E-01; -9.382709115744E-02;  1.398506641388E+00;  1.407598286003E-01;  0.000000000000E+00;  0.000000000000E+00;  0.000000000000E+00; -1.604232043028E-01;  1.604215949774E-01; -1.329573369024E-07;  9.777565307617E+02;  1.013584960938E+03;  9.993072123884E+02;  1.000000014901E-01;  7.617682218552E-01;  1.615152568451E-01; -1.839891992188E+04;  1.125489160156E+04; -5.652623848908E+02;  0.000000000000E+00;  3.000000000000E+00;  2.269035532995E+00;  0.000000000000E+00;  1.780072174073E+02;  1.045852718700E+01; -1.780072174072E+02;  9.951687622070E+01;  1.844266845738E+00;  0.000000000000E+00;  0.000000000000E+00;  0.000000000000E+00; -9.360417175293E+01;  9.360327911377E+01; -1.057531957653E-07;  0.000000000000E+00;  0.000000000000E+00;  0.000000000000E+00; -2.444331347942E-01;  6.656711578369E+00;  2.185428185948E-01;  7.159304199219E+02;  4.029068750000E+04;  3.014481565113E+04;  0.000000000000E+00;  0.000000000000E+00;  0.000000000000E+00; -2.816554832458E+01;  1.172858657837E+02;  1.296337208727E+00;  4.000000000000E+04;  4.000000000000E+04;  4.000000000000E+04;  0.000000000000E+00;  0.000000000000E+00;  0.000000000000E+00;  3.325923828125E+04;  4.007834765625E+04;  3.951133174509E+04;  0.000000000000E+00;  7.198029255540E+00;  2.403191082760E-01; -2.551295459270E-01;  7.179051876068E+00;  2.147450551460E-01;  0.000000000000E+00;  0.000000000000E+00;  0.000000000000E+00; -6.423217654228E-01;  7.646713256836E-01;  3.797763448733E-03;  0.000000000000E+00;  1.928841718750E+05;  6.699676761846E+03;
14;  8.400532568660E-01;10309; -2.000000029802E-01;  2.399073362350E+00;  6.615963758799E-01;  9.999999776483E-03;  9.999999776483E-03;  9.999999776483E-03; -4.499999880791E-01;  4.499999880791E-01;  1.857502529703E-08;  0.000000000000E+00;  1.030800000000E+04;  5.154000000000E+03;  0.000000000000E+00;  1.479614121383E+00;  1.662093382973E-01; -5.907085165381E-02;  1.478453993797E+00;  1.646981569968E-01;  0.000000000000E+00;  0.000000000000E+00;  0.000000000000E+00; -1.547372341156E-01;  1.547369956970E-01;  6.495441540789E-08;  9.756951293945E+02;  1.013387878418E+03;  9.988195412096E+02;  7.555161416531E-02;  8.404423594475E-01;  1.621032157859E-01; -1.977384375000E+04;  1.109163671875E+04; -9.608168132417E+02;  0.000000000000E+00;  3.000000000000E+00;  2.287612765545E+00;  0.000000000000E+00;  1.638101243383E+02;  1.300630904485E+01; -1.591625366211E+02;  1.091984634399E+02; -2.074903322593E+00;  0.000000000000E+00;  0.000000000000E+00;  0.000000000000E+00; -1.039046783447E+02;  1.039034881592E+02;  1.001845155860E-05;  0.000000000000E+00;  1.000000000000E+00;  5.082937239305E-02; -2.532733380795E-01;  6.924790859222E+00;  2.887778409215E-01;  5.891475219727E+02;  7.789432031250E+04;  3.225594171064E+04; -1.555601193104E-04;  1.689639793767E-05; -2.921824094636E-07; -1.863795623779E+02;  1.365729370117E+02; -3.294098934369E-01;  3.999999609375E+04;  4.000000000000E+04;  3.999999997423E+04; -7.461661100388E-02;  6.599447876215E-02; -1.238638426552E-04;  3.280283203125E+04;  4.007882031250E+04;  3.941989695556E+04;  0.000000000000E+00;  7.173833096940E+00;  3.120503932358E-01; -4.782003164291E-01;  7.144958496094E+00;  2.920793260954E-01;  0.000000000000E+00;  0.000000000000E+00;  0.000000000000E+00; -6.430003046989E-01;  8.930338025093E-01; -3.301484916727E-03;  0.000000000000E+00;  2.038694062500E+05;  7.822888102223E+03;
15;  9.000316662216E-01;10583; -2.000000029802E-01;  2.478244781494E+00;  7.120838783112E-01;  9.999999776483E-03;  9.999999776483E-03;  9.999999776483E-03; -4.499999880791E-01;  4.499999880791E-01;  3.098276101182E-08;  0.000000000000E+00;  1.058200000000E+04;  5.291000000000E+03;  0.000000000000E+00;  1.293101480368E+00;  1.761867927386E-01; -1.084374636412E-02;  1.289280772209E+00;  1.751212832700E-01;  0.000000000000E+00;  0.000000000000E+00;  0.000000000000E+00; -1.437718272209E-01;  1.437711417675E-01;  2.308233533627E-07;  9.799621582031E+02;  1.013070129395E+03;  9.985327374630E+02;  7.594428956509E-02;  9.164827466011E-01;  1.624822403338E-01; -1.658816406250E+04;  1.082833593750E+04; -1.171510343784E+03;  0.000000000000E+00;  3.000000000000E+00;  2.306056883681E+00;  0.000000000000E+00;  2.528854909511E+02;  1.053268726043E+01; -1.933164062500E+02;  1.116795425415E+02;  2.658780789517E+00;  0.000000000000E+00;  0.000000000000E+00;  0.000000000000E+00; -1.921644744873E+02;  1.921632995605E+02; -3.020243292764E-06;  0.000000000000E+00;  1.000000000000E+00;  1.012945289615E-01; -4.446765184402E-01;  7.387607574463E+00;  1.374563267056E-01;  5.058013610840E+02;  7.848959375000E+04;  3.309356330095E+04; -1.273608941119E-04;  5.686006261385E-05; -3.482258343913E-07; -2.696830444336E+02;  1.893362579346E+02;  6.423989103062E-01;  3.999999609375E+04;  4.000000000000E+04;  3.999999994980E+04; -1.047011762857E-01;  1.035017073154E-01; -4.047850636355E-04;  3.223461132812E+04;  4.008130859375E+04;  3.933007530835E+04;  0.000000000000E+00;  8.186380421707E+00;  2.052089916503E-01; -5.047646164894E-01;  8.135107994080E+00;  1.231022866732E-01;  0.000000000000E+00;  0.000000000000E+00;  0.000000000000E+00; -9.777355194092E-01;  7.069754600525E-01;  1.435404007032E-02;  0.000000000000E+00;  2.239458281250E+05;  9.249625852377E+03;
16;  9.600574829963E-01;11008; -2.000000029802E-01;  2.555637121201E+00;  7.814026280807E-01;  9.999999776483E-03;  9.999999776483E-03;  9.999999776483E-03; -4.499999880791E-01;  4.499999880791E-01;  3.779145562896E-08;  0.000000000000E+00;  1.100700000000E+04;  5.503500000000E+03;  0.000000000000E+00;  1.420278228441E+00;  2.152421756296E-01; -6.018236652017E-02;  1.419716119766E+00;  2.116243729823E-01;  0.000000000000E+00;  0.000000000000E+00;  0.000000000000E+00; -1.630523800850E-01;  1.630516648293E-01; -4.108267946441E-07;  9.776124267578E+02;  1.013741638184E+03;  9.986365611387E+02;  7.732846587896E-02;  9.828014969826E-01;  1.606108697509E-01; -1.848444140625E+04;  1.135596972656E+04; -1.116753395145E+03;  0.000000000000E+00;  3.000000000000E+00;  2.332848837209E+00;  0.000000000000E+00;  1.923405074291E+02;  1.381546188551E+01; -1.889332122803E+02;  1.192421340942E+02;  1.695644933047E+00;  0.000000000000E+00;  0.000000000000E+00;  0.000000000000E+00; -1.316996459961E+02;  1.316985778809E+02; -1.431691112322E-05;  0.000000000000E+00;  1.000000000000E+00;  1.746002906977E-01; -2.040048241615E-01;  6.767934799194E+00;  3.287196167211E-01;  4.362858886719E+02;  7.811396093750E+04;  3.291219881416E+04; -1.283769961447E-04;  5.937919559074E-05; -3.681346787476E-07; -2.304800415039E+02;  1.663358154297E+02; -7.587463336008E-02;  3.999999609375E+04;  4.000000000000E+04;  3.999999992477E+04; -1.047726795077E-01;  1.036807894707E-01; -9.469280589973E-04;  3.186748828125E+04;  4.008306640625E+04;  3.922587083169E+04;  0.000000000000E+00;  7.414350453009E+00;  3.619345155475E-01; -2.319023162127E-01;  7.388347625732E+00;  3.304712928390E-01;  0.000000000000E+00;  0.000000000000E+00;  0.000000000000E+00; -7.040153741837E-01;  7.030228376389E-01; -1.751675954190E-03;  0.000000000000E+00;  2.390363281250E+05;  9.743171037383E+03;
17;  1.020035389493E+00;11047; -2.000000029802E-01;  2.633414745331E+00;  7.994789339974E-01;  9.999999776483E-03;  9.999999776483E-03;  9.999999776483E-03; -4.499999880791E-01;  4.499999880791E-01; -8.094247130151E-09;  0.000000000000E+00;  1.104600000000E+04;  5.523000000000E+03;  0.000000000000E+00;  1.463380244621E+00;  2.014905718617E-01; -1.167390197515E-01;  1.462085843086E+00;  1.946269267742E-01;  0.000000000000E+00;  0.000000000000E+00;  0.000000000000E+00; -1.517269164324E-01;  1.517195701599E-01; -1.117765712491E-06;  9.738106079102E+02;  1.013021789551E+03;  9.982784734778E+02;  7.876308262348E-02;  1.043577194214E+00;  1.644094747167E-01; -2.128032617188E+04;  1.078833691406E+04; -1.397817964462E+03;  0.000000000000E+00;  3.000000000000E+00;  2.335204127818E+00;  0.000000000000E+00;  1.650796678555E+02;  1.674075430791E+01; -1.591998596191E+02;  1.176677627563E+02; -1.495563447188E+00;  0.000000000000E+00;  0.000000000000E+00;  0.000000000000E+00; -1.280719299316E+02;  1.280724334717E+02;  4.278003968875E-06;  0.000000000000E+00;  1.000000000000E+00;  1.810446275007E-01; -2.783173024654E-01;  6.986066341400E+00;  3.397338824621E-01;  3.753373107910E+02;  7.725571093750E+04;  3.251766370517E+04; -1.421976048732E-04;  1.015828966047E-04; -3.410144114823E-07; -4.801847839355E+02;  1.549864044189E+02; -2.096925928319E-01;  3.999999609375E+04;  4.000000000000E+04;  3.999999992221E+04; -1.044413149357E-01;  1.031251326203E-01; -9.629808142383E-04;  3.139576757812E+04;  4.008336718750E+04;  3.918200721084E+04;  0.000000000000E+00;  7.449719574093E+00;  3.735567569414E-01; -4.839871525764E-01;  7.424528121948E+00;  3.378962297191E-01;  0.000000000000E+00;  0.000000000000E+00;  0.000000000000E+00; -6.310002207756E-01;  8.747980594635E-01;  1.837652646191E-03;  0.000000000000E+00;  2.372588437500E+05;  9.876673412032E+03;
18;  1.080006633044E+00;11061; -2.000000029802E-01;  2.710040330887E+00;  8.133234104866E-01;  9.999999776483E-03;  9.999999776483E-03;  9.999999776483E-03; -4.499999880791E-01;  4.499999880791E-01; -9.502469842931E-08;  0.000000000000E+00;  1.106000000000E+04;  5.530000000000E+03;  0.000000000000E+00;  1.309756081828E+00;  1.977170370950E-01; -1.914427429438E-02;  1.306314826012E+00;  1.906335277271E-01;  0.000000000000E+00;  0.000000000000E+00;  0.000000000000E+00; -1.440534293652E-01;  1.440388262272E-01; -1.764674701707E-06;  9.797995605469E+02;  1.014113769531E+03;  9.989966962439E+02;  8.027265220881E-02;  1.092685818672E+00;  1.685298859680E-01; -1.672638085938E+04;  1.163882226562E+04; -8.016713239265E+02;  0.000000000000E+00;  3.000000000000E+00;  2.336045565500E+00;  0.000000000000E+00;  1.976008300782E+02;  1.102085545246E+01; -1.976008300781E+02;  1.112726058960E+02;  2.931679840452E+00;  0.000000000000E+00;  0.000000000000E+00;  0.000000000000E+00; -1.045849151611E+02;  1.045854873657E+02; -5.192400208651E-06;  0.000000000000E+00;  1.000000000000E+00;  1.833468944942E-01; -3.650376498699E-01;  8.060902595520E+00;  1.971302738679E-01;  3.434647521973E+02;  7.613928125000E+04;  3.210350094955E+04; -1.547688589199E-04;  1.207959139720E-04; -3.330254573056E-07; -5.011088867188E+02;  1.838505401611E+02;  2.791637363787E-01;  3.999999609375E+04;  4.000000000000E+04;  3.999999992160E+04; -1.043061465025E-01;  1.033382192254E-01; -9.538321594586E-04;  3.089162695312E+04;  4.008336718750E+04;  3.913457844761E+04;  0.000000000000E+00;  8.404034140088E+00;  2.725807111816E-01; -4.497918486595E-01;  8.397298812866E+00;  1.747082551035E-01;  0.000000000000E+00;  0.000000000000E+00;  0.000000000000E+00; -8.373348116875E-01;  8.550159931183E-01;  2.242201833455E-02;  0.000000000000E+00;  2.184749531250E+05;  9.452114810141E+03;
19;  1.140050919216E+00;11076; -2.000000029802E-01;  2.788115262985E+00;  8.276390996253E-01;  9.999999776483E-03;  9.999999776483E-03;  9.999999776483E-03; -4.499999880791E-01;  4.499999880791E-01; -2.219193717294E-07;  0.000000000000E+00;  1.107500000000E+04;  5.537500000000E+03;  0.000000000000E+00;  1.463487763805E+00;  2.071384643150E-01; -8.373846113682E-02;  1.463181257248E+00;  2.061136605409E-01;  0.000000000000E+00;  0.000000000000E+00;  0.000000000000E+00; -1.603524386883E-01;  1.603377163410E-01; -2.367309266076E-06;  9.734939575195E+02;  1.014048156738E+03;  9.988838036325E+02;  8.240514248610E-02;  1.095055937767E+00;  1.727009204459E-01; -2.183039648438E+04;  1.116965917969E+04; -9.189055201357E+02;  0.000000000000E+00;  3.000000000000E+00;  2.336944745395E+00;  0.000000000000E+00;  1.745721700877E+02;  1.335036495415E+01; -1.738281097412E+02;  1.194470291138E+02;  2.194700964212E-01;  0.000000000000E+00;  0.000000000000E+00;  0.000000000000E+00; -1.029802017212E+02;  1.029742431641E+02;  5.530725462724E-06;  0.000000000000E+00;  1.000000000000E+00;  1.858071505959E-01; -2.296292185783E-01;  6.436467170715E+00;  3.501925937258E-01;  3.444842529297E+02;  7.337231250000E+04;  3.172508335566E+04; -1.609789615031E-04;  1.285643957090E-04; -2.876991202795E-07; -4.618988037109E+02;  1.766705780029E+02;  1.027623652218E-01;  3.999999609375E+04;  4.000000000000E+04;  3.999999992030E+04; -1.041412875056E-01;  1.027907058597E-01; -9.510199500348E-04;  3.052590234375E+04;  4.008225000000E+04;  3.909333634713E+04;  0.000000000000E+00;  6.457767847355E+00;  3.744904784962E-01; -2.585059702396E-01;  6.444120407104E+00;  3.586637382832E-01;  0.000000000000E+00;  0.000000000000E+00;  0.000000000000E+00; -6.874673962593E-01;  8.064181804657E-01; -8.471144732366E-03;  0.000000000000E+00;  2.130033437500E+05;  9.449326535569E+03;
20;  1.200037315616E+00;11101; -2.000000029802E-01;  2.868133544922E+00;  8.440062925542E-01;  9.999999776483E-03;  9.999999776483E-03;  9.999999776483E-03; -4.499999880791E-01;  4.499999880791E-01; -3.660547728758E-07;  0.000000000000E+00;  1.110000000000E+04;  5.550000000000E+03;  0.000000000000E+00;  1.457956195077E+00;  1.901126756037E-01; -6.159045919776E-02;  1.457956194878E+00;  1.885575022349E-01;  0.000000000000E+00;  0.000000000000E+00;  0.000000000000E+00; -1.480982452631E-01;  1.480765640736E-01; -2.370829093734E-06;  9.756983642578E+02;  1.013596252441E+03;  9.980361740598E+02;  8.395206928253E-02;  1.095099806786E+00;  1.767043651215E-01; -1.971643359375E+04;  1.124953222656E+04; -1.585627674509E+03;  0.000000000000E+00;  3.000000000000E+00;  2.338437978560E+00;  0.000000000000E+00;  1.964201125118E+02;  1.467433278512E+01; -1.832203979492E+02;  1.376928253174E+02;  7.140946893697E-01;  0.000000000000E+00;  0.000000000000E+00;  0.000000000000E+00; -1.536139984131E+02;  1.536092834473E+02; -6.621786686389E-06;  0.000000000000E+00;  1.000000000000E+00;  1.898928024502E-01; -4.656680524349E-01;  7.683838844299E+00;  2.436663907779E-01;  3.442297973633E+02;  7.245585156250E+04;  3.136696918827E+04; -1.989314332604E-04;  1.756398560246E-04; -2.781676331908E-07; -5.534954833984E+02;  2.038159942627E+02;  1.143882358995E+00;  3.999999609375E+04;  4.000000000000E+04;  3.999999991766E+04; -1.039607897401E-01;  1.028642654419E-01; -9.284072617936E-04;  2.999735546875E+04;  4.008675000000E+04;  3.905202307260E+04;  0.000000000000E+00;  8.030481818716E+00;  2.785898042170E-01; -5.450962781906E-01;  8.016324996948E+00;  2.317773909628E-01;  0.000000000000E+00;  0.000000000000E+00;  0.000000000000E+00; -9.526204466820E-01;  6.865977644920E-01;  1.188899985089E-02;  0.000000000000E+00;  2.622012500000E+05;  1.079482288951E+04;
21;  1.260029610636E+00;11101; -2.000000029802E-01;  2.946567058563E+00;  8.553518155914E-01;  9.999999776483E-03;  9.999999776483E-03;  9.999999776483E-03; -4.499999880791E-01;  4.499999880791E-01; -5.145279895229E-07;  0.000000000000E+00;  1.110000000000E+04;  5.550000000000E+03;  0.000000000000E+00;  1.370187593476E+00;  1.872587547387E-01; -3.578584268689E-02;  1.367660164833E+00;  1.866539794258E-01;  0.000000000000E+00;  0.000000000000E+00;  0.000000000000E+00; -1.583073735237E-01;  1.582864522934E-01; -2.589018095983E-06;  9.761921997070E+02;  1.016662414551E+03;  9.982402472627E+02;  8.615436404943E-02;  1.095099806786E+00;  1.811017806469E-01; -1.970761718750E+04;  1.369213378906E+04; -1.439929243122E+03;  0.000000000000E+00;  3.000000000000E+00;  2.338437978560E+00;  0.000000000000E+00;  2.208487764833E+02;  1.169288924465E+01; -2.102225036621E+02;  1.535321960449E+02;  3.800755531225E+00;  0.000000000000E+00;  0.000000000000E+00;  0.000000000000E+00; -1.726411132812E+02;  1.726346130371E+02; -4.384979378693E-06;  0.000000000000E+00;  1.000000000000E+00;  1.898928024502E-01; -3.045636117458E-01;  7.672368049622E+00;  2.257018241596E-01;  3.436538696289E+02;  6.972268750000E+04;  3.094709065925E+04; -2.056805969914E-04;  1.737516431604E-04; -2.531194353422E-07; -5.455053710938E+02;  2.139779510498E+02;  1.552018348280E+00;  3.999999609375E+04;  4.000000000000E+04;  3.999999991766E+04; -1.037663891912E-01;  1.028285175562E-01; -9.265129724829E-04;  2.960758593750E+04;  4.008960546875E+04;  3.901858913383E+04;  0.000000000000E+00;  8.239477792267E+00;  2.660700453837E-01; -3.451282382011E-01;  8.221179962158E+00;  2.092267554435E-01;  0.000000000000E+00;  0.000000000000E+00;  0.000000000000E+00; -8.545044660568E-01;  7.831592559814E-01;  1.647506879646E-02;  0.000000000000E+00;  2.849873125000E+05;  1.116366188533E+04;
22;  1.320025004727E+00;11120; -2.000000029802E-01;  3.024303913116E+00;  8.696180596412E-01;  9.999999776483E-03;  9.999999776483E-03;  9.999999776483E-03; -4.499999880791E-01;  4.499999880791E-01; -6.660555675189E-07;  0.000000000000E+00;  1.111900000000E+04;  5.559500000000E+03;  0.000000000000E+00;  1.465115093008E+00;  1.811917734356E-01; -8.006249368191E-02;  1.464274883270E+00;  1.732987371672E-01;  0.000000000000E+00;  0.000000000000E+00;  0.000000000000E+00; -1.651971042156E-01;  1.651722490788E-01; -2.202083531655E-06;  9.705839233398E+02;  1.014441101074E+03;  9.980333290100E+02;  8.783471584320E-02;  1.095099806786E+00;  1.851717490247E-01; -2.409613867188E+04;  1.020376074219E+04; -1.624125522181E+03;  0.000000000000E+00;  3.000000000000E+00;  2.339568345324E+00;  0.000000000000E+00;  2.226471212745E+02;  1.381062997651E+01; -1.660532684326E+02;  1.518501129150E+02; -2.510634938342E-01;  0.000000000000E+00;  0.000000000000E+00;  0.000000000000E+00; -1.732650756836E+02;  1.732579650879E+02;  3.131966508543E-05;  0.000000000000E+00;  1.000000000000E+00;  1.929856115108E-01; -2.624067068100E-01;  6.292794704437E+00;  3.103289034372E-01;  3.445276184082E+02;  6.966710937500E+04;  3.069523813664E+04; -2.217887085862E-04;  1.933986204676E-04; -2.352406638781E-07; -5.063370361328E+02;  1.897714385986E+02;  7.715934632157E-01;  3.999999609375E+04;  4.000000000000E+04;  3.999999991569E+04; -1.036711409688E-01;  1.027437001467E-01; -9.284841915150E-04;  2.923248046875E+04;  4.009433203125E+04;  3.897681355578E+04;  0.000000000000E+00;  6.851121343429E+00;  3.414606019642E-01; -3.583402633667E-01;  6.824158668518E+00;  3.151205860637E-01;  0.000000000000E+00;  0.000000000000E+00;  0.000000000000E+00; -6.072463393211E-01;  8.667350411415E-01; -4.791682916814E-03;  0.000000000000E+00;  2.927320000000E+05;  1.107842863685E+04;
23;  1.380016162793E+00;11120; -2.000000029802E-01;  3.102009773254E+00;  8.795893206923E-01;  9.999999776483E-03;  9.999999776483E-03;  9.999999776483E-03; -4.499999880791E-01;  4.499999880791E-01; -7.764909942542E-07;  0.000000000000E+00;  1.111900000000E+04;  5.559500000000E+03;  0.000000000000E+00;  1.252058480574E+00;  1.654420857864E-01; -4.293147101998E-02;  1.247139930725E+00;  1.584191880521E-01;  0.000000000000E+00;  0.000000000000E+00;  0.000000000000E+00; -1.463103741407E-01;  1.462964117527E-01; -1.486409284803E-06;  9.766775512695E+02;  1.016974243164E+03;  9.982532397208E+02;  9.010847657919E-02;  1.095099806786E+00;  1.895575279055E-01; -1.931749414062E+04;  1.401624023438E+04; -1.408447674732E+03;  0.000000000000E+00;  3.000000000000E+00;  2.339568345324E+00;  0.000000000000E+00;  2.268947296316E+02;  1.137710998113E+01; -2.250806274414E+02;  1.357993316650E+02;  2.680538338930E+00;  0.000000000000E+00;  0.000000000000E+00;  0.000000000000E+00; -1.524306182861E+02;  1.524210510254E+02; -9.527129329052E-07;  0.000000000000E+00;  1.000000000000E+00;  1.929856115108E-01; -4.563031196594E-01;  7.396216869354E+00;  1.321435634547E-01;  3.447254638672E+02;  6.645023437500E+04;  3.030397823930E+04; -2.542811853345E-04;  2.196466375608E-04; -2.121411822611E-07; -5.004864196777E+02;  2.339627075195E+02;  1.731926513087E+00;  3.999999609375E+04;  4.000000000000E+04;  3.999999991569E+04; -1.036325022578E-01;  1.027968525887E-01; -9.271046372881E-04;  2.870766015625E+04;  4.009643750000E+04;  3.894641641925E+04;  0.000000000000E+00;  8.005214012393E+00;  1.929914791749E-01; -5.125094056129E-01;  7.975465774536E+00;  1.171728108082E-01;  0.000000000000E+00;  0.000000000000E+00;  0.000000000000E+00; -9.512557983398E-01;  8.172951340675E-01;  1.497075261259E-02;  0.000000000000E+00;  2.758534375000E+05;  1.112759451638E+04;
24;  1.440011232057E+00;11131; -2.000000029802E-01;  3.182680130005E+00;  8.916990774940E-01;  9.999999776483E-03;  9.999999776483E-03;  9.999999776483E-03; -4.499999880791E-01;  4.499999880791E-01; -8.487627066425E-07;  0.000000000000E+00;  1.113000000000E+04;  5.565000000000E+03;  0.000000000000E+00;  1.409274031525E+00;  1.718105354334E-01; -7.026612758636E-02;  1.408822655678E+00;  1.706596747651E-01;  0.000000000000E+00;  0.000000000000E+00;  0.000000000000E+00; -1.521646082401E-01;  1.521604210138E-01; -8.195031161356E-07;  9.713555297852E+02;  1.016989440918E+03;  9.986302262292E+02;  9.183044731617E-02;  1.095099806786E+00;  1.937686982820E-01; -2.367697070312E+04;  1.358290234375E+04; -1.131125442391E+03;  0.000000000000E+00;  3.000000000000E+00;  2.340221004402E+00;  0.000000000000E+00;  1.906311859275E+02;  1.140759976919E+01; -1.827835693359E+02;  1.316173248291E+02;  2.097295809838E+00;  0.000000000000E+00;  0.000000000000E+00;  0.000000000000E+00; -1.424555053711E+02;  1.424443054199E+02;  1.049077087149E-05;  0.000000000000E+00;  1.000000000000E+00;  1.947713592669E-01; -2.176127582788E-01;  6.635746002197E+00;  2.489289699477E-01;  3.447113037109E+02;  6.668722656250E+04;  3.008885121386E+04; -2.509035111871E-04;  2.118261763826E-04; -2.262834328044E-07; -4.772548828125E+02;  2.221448211670E+02;  1.120724224446E+00;  3.999999609375E+04;  4.000000000000E+04;  3.999999991367E+04; -1.036067828536E-01;  1.027909368277E-01; -9.365199891295E-04;  2.838207617188E+04;  4.009808984375E+04;  3.890539889143E+04;  0.000000000000E+00;  7.233440792462E+00;  2.716079023747E-01; -2.853246927261E-01;  7.210565090179E+00;  2.478895272786E-01;  0.000000000000E+00;  0.000000000000E+00;  0.000000000000E+00; -6.827824115753E-01;  8.543681502342E-01;  1.039442568868E-03;  0.000000000000E+00;  2.663148437500E+05;  1.091081350088E+04;
25;  1.500001912914E+00;11131; -2.000000029802E-01;  3.261570453644E+00;  9.016026134286E-01;  9.999999776483E-03;  9.999999776483E-03;  9.999999776483E-03; -4.499999880791E-01;  4.499999880791E-01; -8.881584119300E-07;  0.000000000000E+00;  1.113000000000E+04;  5.565000000000E+03;  0.000000000000E+00;  1.468677792193E+00;  1.622468659847E-01; -8.553355932236E-02;  1.468207836151E+00;  1.599952940722E-01;  0.000000000000E+00;  0.000000000000E+00;  0.000000000000E+00; -1.521313339472E-01;  1.521281450987E-01; -5.130156870641E-07;  9.718239135742E+02;  1.017391967773E+03;  9.980795739530E+02;  9.417948126793E-02;  1.095099806786E+00;  1.981670329105E-01; -2.299077343750E+04;  1.439523437500E+04; -1.568187860672E+03;  0.000000000000E+00;  3.000000000000E+00;  2.340221004402E+00;  0.000000000000E+00;  2.131151353242E+02;  1.331414960839E+01; -2.007512054443E+02;  1.462767181396E+02;  7.128009484330E-02;  0.000000000000E+00;  0.000000000000E+00;  0.000000000000E+00; -1.648918304443E+02;  1.648806610107E+02;  7.269951788676E-07;  0.000000000000E+00;  1.000000000000E+00;  1.947713592669E-01; -3.243414163589E-01;  6.704487800598E+00;  2.472474201509E-01;  3.448516235352E+02;  6.450803515625E+04;  2.972048560621E+04; -2.831754973158E-04;  2.477097732481E-04; -2.009107849925E-07; -4.478791503906E+02;  2.303477478027E+02;  1.456949603478E+00;  3.999999609375E+04;  4.000000000000E+04;  3.999999991367E+04; -1.036281809211E-01;  1.027923449874E-01; -9.356113780745E-04;  2.794228710938E+04;  4.009808984375E+04;  3.888473433499E+04;  0.000000000000E+00;  7.196090903528E+00;  2.697070949328E-01; -4.819943010807E-01;  7.154242038727E+00;  2.401886956041E-01;  0.000000000000E+00;  0.000000000000E+00;  0.000000000000E+00; -8.101520538330E-01;  6.915371417999E-01;  7.058724685260E-03;  0.000000000000E+00;  2.811114062500E+05;  1.152474236394E+04;
26;  1.560054988791E+00;11131; -2.000000029802E-01;  3.339896440506E+00;  9.111908793244E-01;  9.999999776483E-03;  9.999999776483E-03;  9.999999776483E-03; -4.499999880791E-01;  4.499999880791E-01; -9.251945393731E-07;  0.000000000000E+00;  1.113000000000E+04;  5.565000000000E+03;  0.000000000000E+00;  1.347584597041E+00;  1.577296209225E-01; -1.627276092768E-02;  1.344852566719E+00;  1.572954548428E-01;  0.000000000000E+00;  0.000000000000E+00;  0.000000000000E+00; -1.629690527916E-01;  1.629679501057E-01; -8.738020168113E-07;  9.712825927734E+02;  1.019279174805E+03;  9.982813367082E+02;  9.659177809954E-02;  1.095099806786E+00;  2.025619072165E-01; -2.376613281250E+04;  1.589255566406E+04; -1.409366495002E+03;  0.000000000000E+00;  3.000000000000E+00;  2.340221004402E+00;  0.000000000000E+00;  2.316268610204E+02;  1.004999126031E+01; -1.980012207031E+02;  1.587063598633E+02;  3.871445621046E+00;  0.000000000000E+00;  0.000000000000E+00;  0.000000000000E+00; -1.790589294434E+02;  1.790461730957E+02; -5.700083855414E-06;  0.000000000000E+00;  1.000000000000E+00;  1.947713592669E-01; -3.103410601616E-01;  7.118356227875E+00;  1.722710619472E-01;  3.449135131836E+02;  6.181572656250E+04;  2.943340401127E+04; -2.862411784008E-04;  2.386754495092E-04; -1.880380592700E-07; -4.438270874023E+02;  2.418454437256E+02;  1.868575333257E+00;  3.999999609375E+04;  4.000000000000E+04;  3.999999991367E+04; -1.036291122437E-01;  1.027997061610E-01; -9.344731126285E-04;  2.755414453125E+04;  4.010187500000E+04;  3.885741997838E+04;  0.000000000000E+00;  7.665554173898E+00;  2.108636849863E-01; -3.508903980255E-01;  7.646245002747E+00;  1.579777199242E-01;  0.000000000000E+00;  0.000000000000E+00;  0.000000000000E+00; -9.329461455345E-01;  6.749086380005E-01;  1.429334182384E-02;  0.000000000000E+00;  2.983190625000E+05;  1.182510413474E+04;
27;  1.620049214898E+00;11133; -2.000000029802E-01;  3.418059825897E+00;  9.207451808602E-01;  9.999999776483E-03;  9.999999776483E-03;  9.999999776483E-03; -4.499999880791E-01;  4.499999880791E-01; -9.894839967852E-07;  0.000000000000E+00;  1.113200000000E+04;  5.566000000000E+03;  0.000000000000E+00;  1.465658494015E+00;  1.531565315868E-01; -7.475528120995E-02;  1.464720368385E+00;  1.514423455307E-01;  0.000000000000E+00;  0.000000000000E+00;  0.000000000000E+00; -1.538292318583E-01;  1.538093239069E-01; -1.299153527068E-06;  9.686942749023E+02;  1.017919433594E+03;  9.980185110534E+02;  9.906195849180E-02;  1.095099806786E+00;  2.069084177821E-01; -2.562116406250E+04;  1.330606152344E+04; -1.640068523878E+03;  0.000000000000E+00;  3.000000000000E+00;  2.340339531124E+00;  0.000000000000E+00;  2.431630908703E+02;  1.217805448298E+01; -1.624375457764E+02;  1.662210540771E+02;  2.601337747758E-01;  0.000000000000E+00;  0.000000000000E+00;  0.000000000000E+00; -1.877237548828E+02;  1.877109069824E+02;  8.812414911247E-06;  0.000000000000E+00;  2.000000000000E+00;  1.952753076439E-01; -2.413022667170E-01;  6.382744789124E+00;  2.611549020754E-01;  3.448002319336E+02;  5.997543750000E+04;  2.915659801180E+04; -2.978486882057E-04;  2.523008442950E-04; -1.734980672976E-07; -4.126101684570E+02;  2.234788360596E+02;  1.578980790813E+00;  3.999999609375E+04;  4.000000000000E+04;  3.999999991298E+04; -1.036397814751E-01;  1.028042584658E-01; -9.227148782963E-04;  2.721158984375E+04;  4.010550781250E+04;  3.883571711547E+04;  0.000000000000E+00;  6.562646195064E+00;  2.796818643723E-01; -2.758139371872E-01;  6.543992996216E+00;  2.631646548847E-01;  0.000000000000E+00;  0.000000000000E+00;  0.000000000000E+00; -6.039184927940E-01;  7.477729320526E-01; -2.009752995278E-03;  0.000000000000E+00;  3.094273125000E+05;  1.200556673613E+04;
28;  1.680036212578E+00;11159; -2.000000029802E-01;  3.496225118637E+00;  9.343100454675E-01;  9.999999776483E-03;  9.999999776483E-03;  9.999999776483E-03; -4.499999880791E-01;  4.499999880791E-01; -1.120111315562E-06;  0.000000000000E+00;  1.115800000000E+04;  5.579000000000E+03;  0.000000000000E+00;  1.275261340994E+00;  1.416594264501E-01; -1.651072688401E-02;  1.272105336189E+00;  1.377791066680E-01;  0.000000000000E+00;  0.000000000000E+00;  0.000000000000E+00; -1.365167349577E-01;  1.364397555590E-01; -2.790873233370E-06;  9.706090087891E+02;  1.019934204102E+03;  9.980700776467E+02;  1.000000014901E-01;  1.095099806786E+00;  2.107908461339E-01; -2.433890234375E+04;  1.646258007812E+04; -1.573943796217E+03;  0.000000000000E+00;  3.000000000000E+00;  2.341876512232E+00;  0.000000000000E+00;  2.416056876121E+02;  8.922908328715E+00; -2.061161193848E+02;  1.643350982666E+02;  3.492077643477E+00; -3.646453095030E-08;  1.840610863724E-08;  8.209000105074E-14; -1.866193237305E+02;  1.866032867432E+02; -6.543596199962E-05;  0.000000000000E+00;  2.000000000000E+00;  2.018101980464E-01; -3.801540136337E-01;  7.253051280975E+00;  1.216756869558E-01;  3.450185852051E+02;  5.731560156250E+04;  2.884849025140E+04; -3.161138156429E-04;  2.593185054138E-04; -1.640778748335E-07; -4.058850708008E+02;  2.451887207031E+02;  2.075189189210E+00;  3.999999218750E+04;  4.000000000000E+04;  3.999999990759E+04; -1.283733844757E-01;  1.028029844165E-01; -8.970148182383E-04;  2.674117578125E+04;  4.010949609375E+04;  3.880594643127E+04;  0.000000000000E+00;  7.830041575417E+00;  1.811089982137E-01; -4.674733877182E-01;  7.779542446136E+00;  1.095444611607E-01;  0.000000000000E+00;  0.000000000000E+00;  0.000000000000E+00; -8.917298913002E-01;  6.585144996643E-01;  1.213122588306E-02;  0.000000000000E+00;  3.113210937500E+05;  1.224868418253E+04;
29;  1.740023237300E+00;11179; -2.000000029802E-01;  3.573113203049E+00;  9.465842070454E-01;  9.999999776483E-03;  9.999999776483E-03;  9.999999776483E-03; -4.499999880791E-01;  4.499999880791E-01; -1.337015751887E-06;  0.000000000000E+00;  1.117800000000E+04;  5.589000000000E+03;  0.000000000000E+00;  1.425900110581E+00;  1.462705123281E-01; -9.975655376911E-02;  1.425556778908E+00;  1.434128841086E-01;  0.000000000000E+00;  0.000000000000E+00;  0.000000000000E+00; -2.140690535307E-01;  2.139703780413E-01; -4.089265361910E-06;  9.678826293945E+02;  1.020452697754E+03;  9.982690967151E+02;  1.000000014901E-01;  1.098011493683E+00;  2.147775155022E-01; -2.651061132812E+04;  1.465411132812E+04; -1.436338336145E+03;  0.000000000000E+00;  3.000000000000E+00;  2.343053940424E+00;  0.000000000000E+00;  2.338771801540E+02;  1.062279276267E+01; -1.674236755371E+02;  1.588252410889E+02;  1.513211425012E+00; -5.335468600265E-08;  2.982210034475E-08; -6.612289368381E-13; -1.794219818115E+02;  1.794008178711E+02;  1.611704426483E-05;  0.000000000000E+00;  2.000000000000E+00;  2.068163520887E-01; -2.075772732496E-01;  6.360620975494E+00;  2.347895598745E-01;  3.451322326660E+02;  5.567221484375E+04;  2.860939634870E+04; -3.129767428618E-04;  2.544369199313E-04; -1.574713372281E-07; -3.816097717285E+02;  2.288360595703E+02;  1.752729735896E+00;  3.999999218750E+04;  4.000000000000E+04;  3.999999990600E+04; -1.280668675900E-01;  1.028073355556E-01; -8.972103941010E-04;  2.644262304688E+04;  4.011304296875E+04;  3.877732610898E+04;  0.000000000000E+00;  6.519466316161E+00;  2.522704607616E-01; -2.516025900841E-01;  6.517576694489E+00;  2.362478006476E-01;  0.000000000000E+00;  0.000000000000E+00;  0.000000000000E+00; -6.213834285736E-01;  1.003259658813E+00; -1.458241172451E-03;  0.000000000000E+00;  3.057267187500E+05;  1.205596731133E+04;
30;  1.800014123931E+00;11242; -2.000000029802E-01;  3.651366949081E+00;  9.673152655337E-01;  9.999999776483E-03;  9.999999776483E-03;  9.999999776483E-03; -4.499999880791E-01;  4.499999880791E-01; -1.602627042144E-06;  0.000000000000E+00;  1.124100000000E+04;  5.620500000000E+03;  0.000000000000E+00;  1.322331428602E+00;  1.365525024504E-01; -5.281791836023E-02;  1.322331428528E+00;  1.328903141336E-01;  0.000000000000E+00;  0.000000000000E+00;  0.000000000000E+00; -1.851746886969E-01;  1.851553171873E-01; -3.957620456360E-06;  9.723093872070E+02;  1.021994506836E+03;  9.981062021600E+02;  1.000000014901E-01;  1.104238271713E+00;  2.179092701986E-01; -2.293392578125E+04;  1.819199804688E+04; -1.541548283882E+03;  0.000000000000E+00;  3.000000000000E+00;  2.346735456324E+00;  0.000000000000E+00;  2.324224682804E+02;  1.142996929506E+01; -1.819852447510E+02;  1.581350555420E+02;  1.062242272268E+00; -5.479742171133E-08;  5.581651052466E-08;  7.734878760790E-13; -1.773934783936E+02;  1.773707885742E+02; -3.169544899370E-05;  0.000000000000E+00;  2.000000000000E+00;  2.224693115104E-01; -4.524777829647E-01;  7.162000179291E+00;  1.679559762374E-01;  3.452427062988E+02;  5.349459375000E+04;  2.826351679845E+04; -3.384700976312E-04;  2.835340565071E-04; -1.524680831679E-07; -3.694701232910E+02;  2.437067413330E+02;  2.095139087628E+00;  3.999998828125E+04;  4.000000000000E+04;  3.999999989576E+04; -1.280184984207E-01;  1.028089001775E-01; -9.941783868038E-04;  2.598029101562E+04;  4.011304296875E+04;  3.874024125767E+04;  0.000000000000E+00;  7.930976966177E+00;  2.030493531715E-01; -5.068367123604E-01;  7.877380371094E+00;  1.602185235466E-01;  0.000000000000E+00;  0.000000000000E+00;  0.000000000000E+00; -9.635730385780E-01;  6.228153705597E-01;  7.737452669834E-03;  0.000000000000E+00;  3.038828125000E+05;  1.251978486543E+04;
31;  1.860053645483E+00;11348; -2.000000029802E-01;  3.728198528290E+00;  9.971344493083E-01;  9.999999776483E-03;  9.999999776483E-03;  9.999999776483E-03; -4.499999880791E-01;  4.499999880791E-01; -1.879296048565E-06;  0.000000000000E+00;  1.134700000000E+04;  5.673500000000E+03;  0.000000000000E+00;  1.399300595793E+00;  1.418515565265E-01; -7.131297886372E-02;  1.398814916611E+00;  1.408601736837E-01;  0.000000000000E+00;  0.000000000000E+00;  0.000000000000E+00; -1.860076785088E-01;  1.860660165548E-01; -3.440789017081E-06;  9.680268554688E+02;  1.021634277344E+03;  9.982902573648E+02;  1.000000014901E-01;  1.104367613792E+00;  2.201612068430E-01; -2.641130078125E+04;  1.560297167969E+04; -1.416510169899E+03;  0.000000000000E+00;  3.000000000000E+00;  2.352837504406E+00;  0.000000000000E+00;  2.338523314676E+02;  1.086649486092E+01; -1.689202117920E+02;  1.589322509766E+02;  3.003710005859E+00; -4.785867346868E-08;  4.032439449020E-08; -8.966469914018E-13; -1.792066497803E+02;  1.791865386963E+02; -2.261993087968E-05;  0.000000000000E+00;  2.000000000000E+00;  2.484138174128E-01; -1.950654983521E-01;  6.472092628479E+00;  2.268559757909E-01;  3.453942565918E+02;  5.167859375000E+04;  2.792450603886E+04; -3.314821515232E-04;  2.757726178970E-04; -1.448908612947E-07; -3.491282043457E+02;  2.337343597412E+02;  1.802190908748E+00;  3.999998437500E+04;  4.000000000000E+04;  3.999999987195E+04; -1.279452741146E-01;  1.028103977442E-01; -1.129374697221E-03;  2.567783593750E+04;  4.011304296875E+04;  3.868789461335E+04;  0.000000000000E+00;  7.123326475330E+00;  2.442613494130E-01; -2.721566557884E-01;  7.095954895020E+00;  2.250280530604E-01;  0.000000000000E+00;  0.000000000000E+00;  0.000000000000E+00; -6.896135807037E-01;  8.302785754204E-01;  1.827922625353E-03;  0.000000000000E+00;  3.045721875000E+05;  1.266768971629E+04;
32;  1.920045381085E+00;11448; -2.000000029802E-01;  3.806516647339E+00;  1.026463731354E+00;  9.999999776483E-03;  9.999999776483E-03;  9.999999776483E-03; -4.499999880791E-01;  4.499999880791E-01; -2.110411375907E-06;  0.000000000000E+00;  1.144700000000E+04;  5.723500000000E+03;  0.000000000000E+00;  1.439564228351E+00;  1.413544238163E-01; -6.638149917126E-02;  1.439564228058E+00;  1.396440457732E-01;  0.000000000000E+00;  0.000000000000E+00;  0.000000000000E+00; -1.386789679527E-01;  1.386626511812E-01; -2.546962237134E-06;  9.712646484375E+02;  1.020270935059E+03;  9.981138438952E+02;  1.000000014901E-01;  1.104367613792E+00;  2.224726799725E-01; -2.380646093750E+04;  1.676240625000E+04; -1.544383397555E+03;  0.000000000000E+00;  3.000000000000E+00;  2.358490566038E+00;  0.000000000000E+00;  2.410110179888E+02;  1.211767013028E+01; -1.755254364014E+02;  1.637523803711E+02;  8.604297148073E-01; -3.600205289445E-08;  4.352731153290E-08;  3.973056024545E-13; -1.849788970947E+02;  1.849624023438E+02;  2.274882797758E-06;  0.000000000000E+00;  2.000000000000E+00;  2.724493361286E-01; -3.218361139297E-01;  7.201821327209E+00;  2.492304780085E-01;  3.454211120605E+02;  4.994580859375E+04;  2.760681787431E+04; -3.527801018208E-04;  2.998197451234E-04; -1.771843972591E-07; -3.254768371582E+02;  2.355109405518E+02;  1.868630356455E+00;  3.999998437500E+04;  4.000000000000E+04;  3.999999985532E+04; -1.278926432133E-01;  1.031077429652E-01; -1.208670897140E-03;  2.525575585938E+04;  4.011304296875E+04;  3.863729821530E+04;  0.000000000000E+00;  7.838577292299E+00;  2.637062830163E-01; -4.363931715488E-01;  7.814589500427E+00;  2.382734301361E-01;  0.000000000000E+00;  0.000000000000E+00;  0.000000000000E+00; -7.763828635216E-01;  6.288091540337E-01;  1.095704788947E-02;  0.000000000000E+00;  3.104469687500E+05;  1.335119025131E+04;
33;  1.980037964260E+00;11550; -2.000000029802E-01;  3.884115219116E+00;  1.056908187048E+00;  9.999999776483E-03;  9.999999776483E-03;  9.999999776483E-03; -4.499999880791E-01;  4.499999880791E-01; -2.262054754165E-06;  0.000000000000E+00;  1.154900000000E+04;  5.774500000000E+03;  0.000000000000E+00;  1.386058956761E+00;  1.436464945100E-01; -5.331965535879E-02;  1.385317564011E+00;  1.427716438830E-01;  0.000000000000E+00;  0.000000000000E+00;  0.000000000000E+00; -1.420793384314E-01;  1.422080844641E-01; -6.980571283177E-07;  9.678201293945E+02;  1.022580932617E+03;  9.982440406119E+02;  1.000000014901E-01;  1.106491208076E+00;  2.247039715430E-01; -2.661942187500E+04;  1.638931054688E+04; -1.453613052522E+03;  0.000000000000E+00;  3.000000000000E+00;  2.364155844156E+00;  0.000000000000E+00;  2.493169369035E+02;  1.121822922670E+01; -1.865250091553E+02;  1.694206848145E+02;  1.729852378522E+00; -3.965760697611E-08;  2.941933452405E-08; -9.709910458920E-14; -1.912462005615E+02;  1.912304229736E+02; -4.479193594937E-07;  0.000000000000E+00;  2.000000000000E+00;  2.965367965368E-01; -2.022233605385E-01;  6.697366714478E+00;  2.645282722243E-01;  3.438049011230E+02;  4.803137109375E+04;  2.739587264614E+04; -3.458071732894E-04;  2.922242274508E-04; -1.744769571402E-07; -3.158188476562E+02;  2.325242004395E+02;  1.764393608991E+00;  3.999998437500E+04;  4.000000390625E+04;  3.999999984071E+04; -1.279166042805E-01;  1.028182208538E-01; -1.366758975664E-03;  2.493431640625E+04;  4.011521875000E+04;  3.858132307545E+04;  0.000000000000E+00;  7.233774461249E+00;  2.836770627913E-01; -2.391678094864E-01;  7.214980602264E+00;  2.619239278105E-01;  0.000000000000E+00;  0.000000000000E+00;  0.000000000000E+00; -7.380810379982E-01;  6.657436490059E-01;  2.604344700907E-03;  0.000000000000E+00;  3.182453125000E+05;  1.371944680480E+04;
34;  2.040033235528E+00;11622; -2.000000029802E-01;  3.962812185287E+00;  1.081349897382E+00;  9.999999776483E-03;  9.999999776483E-03;  9.999999776483E-03; -4.499999880791E-01;  4.499999880791E-01; -2.206043675137E-06;  0.000000000000E+00;  1.162100000000E+04;  5.810500000000E+03;  0.000000000000E+00;  1.432662647053E+00;  1.447213077584E-01; -5.568486824632E-02;  1.432519674301E+00;  1.432370341547E-01;  0.000000000000E+00;  0.000000000000E+00;  0.000000000000E+00; -1.360130757093E-01;  1.360748112202E-01;  3.963698429991E-06;  9.693508300781E+02;  1.022665283203E+03;  9.979520679291E+02;  1.000000014901E-01;  1.108298182487E+00;  2.275073556869E-01; -2.538641796875E+04;  1.876289062500E+04; -1.680216665078E+03;  0.000000000000E+00;  3.000000000000E+00;  2.368094992256E+00;  0.000000000000E+00;  2.563118016541E+02;  1.243908904514E+01; -1.745117034912E+02;  1.743059387207E+02;  1.828267239743E+00; -1.417865718167E-07;  1.373645091007E-07;  7.005346444427E-13; -1.966222229004E+02;  1.966130371094E+02;  9.584710861919E-05;  0.000000000000E+00;  2.000000000000E+00;  3.132851488556E-01; -3.034842908382E-01;  7.018443107605E+00;  2.321737870075E-01;  3.453110046387E+02;  4.643363281250E+04;  2.720226532455E+04; -3.644046955742E-04;  3.130042459816E-04; -1.980832578459E-07; -2.910462036133E+02;  2.248949584961E+02;  1.688964891332E+00;  3.999998437500E+04;  4.000000390625E+04;  3.999999982489E+04; -1.279011964798E-01;  1.028243377805E-01; -1.458752808848E-03;  2.453243945312E+04;  4.011583593750E+04;  3.853734199669E+04;  0.000000000000E+00;  7.537583176108E+00;  2.492736414074E-01; -4.310669600964E-01;  7.504638195038E+00;  2.202991953766E-01;  0.000000000000E+00;  0.000000000000E+00;  0.000000000000E+00; -9.329321980476E-01;  6.126221418381E-01;  1.187459156484E-02;  0.000000000000E+00;  3.240581250000E+05;  1.441421273531E+04;
35;  2.100027201169E+00;11726; -2.000000029802E-01;  4.040412425995E+00;  1.113494788423E+00;  9.999999776483E-03;  9.999999776483E-03;  9.999999776483E-03; -4.499999880791E-01;  4.499999880791E-01; -1.821976358972E-06;  0.000000000000E+00;  1.172500000000E+04;  5.862500000000E+03;  0.000000000000E+00;  1.373153144849E+00;  1.459733207686E-01; -4.344222322106E-02;  1.372340798378E+00;  1.448984643326E-01;  0.000000000000E+00;  0.000000000000E+00;  0.000000000000E+00; -1.239393353462E-01;  1.240144446492E-01;  9.485562225201E-06;  9.681183471680E+02;  1.023360778809E+03;  9.980148776342E+02;  1.000000014901E-01;  1.108332037926E+00;  2.296388985600E-01; -2.637623242188E+04;  1.706247460938E+04; -1.643658540601E+03;  0.000000000000E+00;  3.000000000000E+00;  2.373699471260E+00;  0.000000000000E+00;  2.858772591654E+02;  1.090611967540E+01; -1.830992736816E+02;  1.933531494141E+02;  2.018080502388E+00; -2.180849918432E-07;  2.013212707652E-07; -2.751190993142E-12; -2.189014129639E+02;  2.188898468018E+02;  5.157413674976E-05;  0.000000000000E+00;  2.000000000000E+00;  3.371141054068E-01; -2.158232480288E-01;  6.540299415588E+00;  2.621707394661E-01;  3.453724365234E+02;  4.669810156250E+04;  2.717521058294E+04; -3.557409218047E-04;  3.061432798859E-04; -1.884160212710E-07; -2.841053161621E+02;  2.243817291260E+02;  1.595078685051E+00;  3.999998046875E+04;  4.000000390625E+04;  3.999999981378E+04; -1.279116123915E-01;  1.028259024024E-01; -1.494389048166E-03;  2.421859960938E+04;  4.011873046875E+04;  3.847403875219E+04;  0.000000000000E+00;  7.070402728471E+00;  2.793269437238E-01; -2.120794802904E-01;  7.051871299744E+00;  2.570626462277E-01;  0.000000000000E+00;  0.000000000000E+00;  0.000000000000E+00; -7.468445301056E-01;  7.278175354004E-01;  5.108093134874E-03;  0.000000000000E+00;  3.510003750000E+05;  1.521725986997E+04;
36;  2.160024059975E+00;11854; -2.000000029802E-01;  4.119472026825E+00;  1.151736032868E+00;  9.999999776483E-03;  9.999999776483E-03;  9.999999776483E-03; -4.499999880791E-01;  4.499999880791E-01; -9.638460790069E-07;  0.000000000000E+00;  1.185300000000E+04;  5.926500000000E+03;  0.000000000000E+00;  1.434009639030E+00;  1.469823961526E-01; -5.391212180257E-02;  1.433963418007E+00;  1.453305929974E-01;  0.000000000000E+00;  0.000000000000E+00;  0.000000000000E+00; -1.385428309441E-01;  1.387292742729E-01;  1.838287050046E-05;  9.721069335938E+02;  1.020901977539E+03;  9.976864445768E+02;  8.528161048889E-02;  1.108332037926E+00;  2.312473170862E-01; -2.303360937500E+04;  1.729227539062E+04; -1.900542677738E+03;  0.000000000000E+00;  3.000000000000E+00;  2.380462291210E+00;  0.000000000000E+00;  2.833486089853E+02;  1.277518247628E+01; -1.745793762207E+02;  1.909395599365E+02;  2.797227665425E+00; -4.649884033370E-07;  4.731148806059E-07; -1.009251037197E-13; -2.170005645752E+02;  2.169919281006E+02;  9.800615414586E-05;  0.000000000000E+00;  2.000000000000E+00;  3.658680614139E-01; -2.830934822559E-01;  7.180614948273E+00;  2.115699584913E-01;  3.451923217773E+02;  6.735019531250E+04;  2.739134339693E+04; -4.910474526696E-04;  3.232698945794E-04; -4.546075839457E-07; -2.619966735840E+02;  2.142220458984E+02;  7.420859095953E-01;  3.999998046875E+04;  4.000000390625E+04;  3.999999979899E+04; -1.279146522284E-01;  1.123418584466E-01; -1.475125164679E-03;  2.383594921875E+04;  4.012079296875E+04;  3.839908379836E+04;  0.000000000000E+00;  7.864844462777E+00;  2.310580449233E-01; -4.170633554459E-01;  7.823627471924E+00;  2.015395766906E-01;  0.000000000000E+00;  0.000000000000E+00;  0.000000000000E+00; -8.042685985565E-01;  5.953292846680E-01;  1.003038167812E-02;  0.000000000000E+00;  3.503240000000E+05;  1.593552236948E+04;
37;  2.220020771634E+00;12034; -2.000000029802E-01;  4.196627616882E+00;  1.203081677405E+00;  9.999999776483E-03;  9.999999776483E-03;  9.999999776483E-03; -4.499999880791E-01;  4.499999880791E-01;  6.056250447479E-07;  0.000000000000E+00;  1.203300000000E+04;  6.016500000000E+03;  0.000000000000E+00;  1.364179069977E+00;  1.625857725424E-01; -4.106031358242E-02;  1.363312363625E+00;  1.620020779563E-01;  0.000000000000E+00;  0.000000000000E+00;  0.000000000000E+00; -1.419862359762E-01;  1.422064304352E-01;  2.682722179338E-05;  9.674766235352E+02;  1.024118286133E+03;  9.979261427339E+02;  7.738179713488E-02;  1.108332037926E+00;  2.318036425038E-01; -2.689502929688E+04;  1.772345117188E+04; -1.716866099032E+03;  0.000000000000E+00;  3.000000000000E+00;  2.389729100881E+00;  0.000000000000E+00;  2.992210725511E+02;  1.106125489785E+01; -1.895828552246E+02;  2.016226043701E+02;  2.637679312258E+00; -7.261464816111E-07;  7.237313752739E-07; -2.773022955853E-12; -2.290683898926E+02;  2.290750122070E+02;  6.317953751019E-05;  0.000000000000E+00;  2.000000000000E+00;  4.052684061825E-01; -2.134228944778E-01;  6.540316581726E+00;  2.527937903262E-01;  3.452108154297E+02;  8.741875000000E+04;  2.834354319457E+04; -2.354042371735E-03;  2.232257043943E-03; -1.375584674510E-06; -6.661071166992E+02;  2.120778961182E+02; -1.589179796629E+00;  3.999998046875E+04;  4.000000390625E+04;  3.999999976337E+04; -1.279147565365E-01;  1.119863539934E-01; -1.355761813193E-03;  2.353012695312E+04;  4.012079296875E+04;  3.827467807456E+04;  0.000000000000E+00;  7.014327861615E+00;  2.678058573943E-01; -2.075438648462E-01;  6.999295234680E+00;  2.442522582748E-01;  0.000000000000E+00;  0.000000000000E+00;  0.000000000000E+00; -7.177442312241E-01;  6.728768348694E-01;  8.541532270038E-03;  0.000000000000E+00;  3.644419687500E+05;  1.664030799838E+04;
38;  2.280024985146E+00;12144; -2.000000029802E-01;  4.274976253510E+00;  1.238696500325E+00;  9.999999776483E-03;  9.999999776483E-03;  9.999999776483E-03; -4.499999880791E-01;  4.499999880791E-01;  2.665690324608E-06;  0.000000000000E+00;  1.214300000000E+04;  6.071500000000E+03;  0.000000000000E+00;  1.431436440369E+00;  1.586352712861E-01; -6.234937906265E-02;  1.431273341179E+00;  1.541080106560E-01;  0.000000000000E+00;  0.000000000000E+00;  0.000000000000E+00; -1.259304583073E-01;  1.262521147728E-01;  3.484006021874E-05;  9.715230712891E+02;  1.019484558105E+03;  9.975657536754E+02;  7.570105046034E-02;  1.108332037926E+00;  2.336495022531E-01; -2.358897070312E+04;  1.611797460938E+04; -1.998045655157E+03;  0.000000000000E+00;  3.000000000000E+00;  2.395256916996E+00;  0.000000000000E+00;  3.048933510090E+02;  1.281313233471E+01; -1.904152374268E+02;  2.054096527100E+02;  2.265627625359E+00; -1.424155357199E-06;  1.437534251636E-06; -1.891305739339E-12; -2.333214111328E+02;  2.333222808838E+02;  5.587142437184E-05;  0.000000000000E+00;  2.000000000000E+00;  4.287714097497E-01; -2.657952010632E-01;  6.964248180389E+00;  2.171167131569E-01;  3.452585754395E+02;  9.446181250000E+04;  2.888884296612E+04; -4.009259864688E-03;  3.700526896864E-03; -1.676539078286E-06; -1.230129516602E+03;  3.151159667969E+02; -4.476420798788E+00;  3.999998046875E+04;  4.000000390625E+04;  3.999999974589E+04; -1.279170364141E-01;  1.119468659163E-01; -1.360357433345E-03;  2.315983007812E+04;  4.012460156250E+04;  3.818428875113E+04;  0.000000000000E+00;  7.327330189889E+00;  2.416646667484E-01; -3.825854659081E-01;  7.318569660187E+00;  2.115319585595E-01;  0.000000000000E+00;  0.000000000000E+00;  0.000000000000E+00; -7.289678454399E-01;  5.462464690208E-01;  5.584754712342E-03;  0.000000000000E+00;  3.727445000000E+05;  1.702182518119E+04;
39;  2.340019319718E+00;12203; -2.000000029802E-01;  4.352434158325E+00;  1.262500966694E+00;  9.999999776483E-03;  9.999999776483E-03;  9.999999776483E-03; -4.499999880791E-01;  4.499999880791E-01;  5.153986396297E-06;  0.000000000000E+00;  1.220200000000E+04;  6.101000000000E+03;  0.000000000000E+00;  1.363900826960E+00;  1.644169255915E-01; -5.557129159570E-02;  1.363330960274E+00;  1.622289944291E-01;  0.000000000000E+00;  0.000000000000E+00;  0.000000000000E+00; -1.364388167858E-01;  1.367766559124E-01;  4.085040477774E-05;  9.680065917969E+02;  1.024738891602E+03;  9.980022614418E+02;  7.513487339020E-02;  1.108332037926E+00;  2.364331898791E-01; -2.650542382812E+04;  1.829445898438E+04; -1.654250322581E+03;  0.000000000000E+00;  3.000000000000E+00;  2.398180775219E+00;  0.000000000000E+00;  2.969590871629E+02;  1.075900094490E+01; -1.728527832031E+02;  1.998740081787E+02;  2.494917303975E+00; -7.562894666080E-07;  7.922418490125E-07; -3.706520947847E-12; -2.265442352295E+02;  2.265489349365E+02; -8.745807732079E-05;  0.000000000000E+00;  2.000000000000E+00;  4.412029828731E-01; -1.915090382099E-01;  6.223224639893E+00;  2.408158103873E-01;  3.452824401855E+02;  9.990838281250E+04;  2.911705413058E+04; -3.904526587576E-03;  3.600592957810E-03; -1.829626235867E-06; -2.680538085938E+03;  9.740700073242E+02; -1.186750554272E+01;  3.999998046875E+04;  4.000000390625E+04;  3.999999974264E+04; -1.279190182686E-01;  1.116972714663E-01; -1.362855746667E-03;  2.286432031250E+04;  4.012614843750E+04;  3.811332535352E+04;  0.000000000000E+00;  6.727398525886E+00;  2.576400972207E-01; -2.124270647764E-01;  6.709499359131E+00;  2.335998869210E-01;  0.000000000000E+00;  0.000000000000E+00;  0.000000000000E+00; -7.086986303329E-01;  7.729707360268E-01;  7.215923166620E-03;  0.000000000000E+00;  3.675124062500E+05;  1.697677174275E+04;
40;  2.400001355187E+00;12261; -2.000000029802E-01;  4.430450439453E+00;  1.286316221039E+00;  9.999999776483E-03;  1.000000070781E-02;  9.999999776710E-03; -4.499999880791E-01;  4.499999880791E-01;  7.865642477573E-06;  0.000000000000E+00;  1.226000000000E+04;  6.130000000000E+03;  0.000000000000E+00;  1.390654485584E+00;  1.549774777593E-01; -4.888570308685E-02;  1.390654444695E+00;  1.530072896207E-01;  0.000000000000E+00;  0.000000000000E+00;  0.000000000000E+00; -1.212169080973E-01;  1.216543614864E-01;  4.097143501943E-05;  9.672021484375E+02;  1.021951538086E+03;  9.976666082051E+02;  7.521785795689E-02;  1.108332037926E+00;  2.391995858912E-01; -2.716665820312E+04;  1.622625878906E+04; -1.909715858540E+03;  0.000000000000E+00;  3.000000000000E+00;  2.401027648642E+00;  0.000000000000E+00;  3.009523633495E+02;  1.235295647496E+01; -1.848847198486E+02;  2.030879058838E+02;  2.520245896457E+00; -1.134229137278E-06;  1.125629410126E-06; -6.161526398220E-12; -2.293043212891E+02;  2.293441162109E+02; -7.750066771854E-05;  0.000000000000E+00;  2.000000000000E+00;  4.533072343202E-01; -3.449872732162E-01;  7.170328617096E+00;  1.796357905842E-01;  3.453430786133E+02;  1.027504375000E+05;  2.925725615531E+04; -3.726676339284E-03;  1.314390450716E-02;  3.977275473453E-06; -5.068300781250E+03;  3.557233154297E+03; -2.027888400259E+01;  3.999998046875E+04;  4.000000390625E+04;  3.999999973684E+04; -1.279156506062E-01;  1.114992052317E-01; -1.326570690836E-03;  2.248987890625E+04;  4.012614843750E+04;  3.804736270444E+04;  0.000000000000E+00;  7.905402029922E+00;  2.036017810113E-01; -4.098569154739E-01;  7.863829612732E+00;  1.701400412517E-01;  0.000000000000E+00;  0.000000000000E+00;  0.000000000000E+00; -8.883293271065E-01;  5.362699627876E-01;  9.495749445693E-03;  0.000000000000E+00;  3.695567500000E+05;  1.726566283160E+04;
41;  2.460053124254E+00;12290; -2.000000029802E-01;  4.507200241089E+00;  1.302983439607E+00;  9.999999776483E-03;  1.000000070781E-02;  9.999999776710E-03; -4.499999880791E-01;  4.499999880791E-01;  1.044623293559E-05;  0.000000000000E+00;  1.228900000000E+04;  6.144500000000E+03;  0.000000000000E+00;  1.372183962283E+00;  1.635357157531E-01; -5.627643689513E-02;  1.371919035912E+00;  1.583610184002E-01;  0.000000000000E+00;  0.000000000000E+00;  0.000000000000E+00; -1.430944204330E-01;  1.434276849031E-01;  3.860463639835E-05;  9.681743164062E+02;  1.028263427734E+03;  9.980969486743E+02;  7.572037726641E-02;  1.108332037926E+00;  2.424723081309E-01; -2.632014648438E+04;  2.095006640625E+04; -1.579368099020E+03;  0.000000000000E+00;  3.000000000000E+00;  2.402441008950E+00;  0.000000000000E+00;  3.004999065575E+02;  1.024231017150E+01; -1.469886932373E+02;  2.027370452881E+02;  2.361898247698E+00; -9.852506082098E-07;  9.898690223054E-07; -1.930736233441E-12; -2.296093597412E+02;  2.296530609131E+02; -1.096353297813E-04;  0.000000000000E+00;  2.000000000000E+00;  4.593165174939E-01; -1.573543250561E-01;  5.759402751923E+00;  2.319672151311E-01;  3.455077209473E+02;  1.022311328125E+05;  2.915231798078E+04; -3.631165251136E-03;  1.285950187594E-02;  3.825659397920E-06; -3.517614453125E+04;  3.909236718750E+04; -1.833534089082E+01;  3.999998046875E+04;  4.000000390625E+04;  3.999999973365E+04; -1.279119402170E-01;  1.114448159933E-01; -1.329620149171E-03;  2.222352929688E+04;  8.298087500000E+04;  3.803232967065E+04;  0.000000000000E+00;  6.230983189419E+00;  2.482827272060E-01; -1.692292094231E-01;  6.214352130890E+00;  2.293248549791E-01;  0.000000000000E+00;  0.000000000000E+00;  0.000000000000E+00; -6.724284887314E-01;  6.492564082146E-01;  2.642360422321E-03;  0.000000000000E+00;  3.729485937500E+05;  1.727986917648E+04;
42;  2.520049462920E+00;12323; -2.000000029802E-01;  4.585836410522E+00;  1.320661373249E+00;  9.999993257225E-03;  1.000000629574E-02;  9.999999776709E-03; -4.499999880791E-01;  4.499999880791E-01;  1.313415818549E-05;  0.000000000000E+00;  1.232200000000E+04;  6.161000000000E+03;  0.000000000000E+00;  1.287180852809E+00;  1.531676511645E-01; -1.079761236906E-02;  1.287180781364E+00;  1.490603195912E-01;  0.000000000000E+00;  0.000000000000E+00;  0.000000000000E+00; -1.088798120618E-01;  1.091605201364E-01;  4.558621663446E-05;  9.719885253906E+02;  1.025001098633E+03;  9.979991024816E+02;  7.676788419485E-02;  1.108332037926E+00;  2.456345107226E-01; -2.320698632812E+04;  1.861014062500E+04; -1.636041886424E+03;  0.000000000000E+00;  3.000000000000E+00;  2.404041223728E+00;  0.000000000000E+00;  2.849330072512E+02;  1.027325390630E+01; -1.800753784180E+02;  1.921095733643E+02;  3.038914506563E+00; -1.394336322846E-05;  1.644134317758E-05;  8.847396179885E-11; -2.167585601807E+02;  2.167996978760E+02;  9.159135039998E-05;  0.000000000000E+00;  2.000000000000E+00;  4.661202629230E-01; -3.731721043587E-01;  7.107923507690E+00;  1.294848752950E-01;  3.455690917969E+02;  9.668043750000E+04;  2.865136143500E+04; -3.465699264780E-03;  3.731985762715E-02;  1.556040440410E-05; -3.404695312500E+04;  3.780594921875E+04; -5.357360486527E+01;  3.999998046875E+04;  4.000000390625E+04;  3.999999972866E+04; -1.279127597809E-01;  1.268016844988E-01; -1.372660843305E-03;  2.184504687500E+04;  1.046223203125E+05;  3.838652779689E+04;  0.000000000000E+00;  7.527791656148E+00;  1.643799690169E-01; -4.253515005112E-01;  7.516685485840E+00;  1.177966716945E-01;  0.000000000000E+00;  0.000000000000E+00;  0.000000000000E+00; -9.847949147224E-01;  5.888287425041E-01;  1.168820365918E-02;  0.000000000000E+00;  3.628201562500E+05;  1.726526862491E+04;
43;  2.580039582921E+00;12346; -2.000000029802E-01;  4.662845611572E+00;  1.335858920694E+00;  9.999993257225E-03;  1.000000629574E-02;  9.999999776860E-03; -4.499999880791E-01;  4.499999880791E-01;  1.622166112062E-05;  0.000000000000E+00;  1.234500000000E+04;  6.172500000000E+03;  0.000000000000E+00;  1.411637582772E+00;  1.580599701704E-01; -7.069617509842E-02;  1.411347389221E+00;  1.562715465884E-01;  0.000000000000E+00;  0.000000000000E+00;  0.000000000000E+00; -1.376911252737E-01;  1.382199823856E-01;  4.791234891403E-05;  9.693848266602E+02;  1.029285156250E+03;  9.981645625176E+02;  7.771554589272E-02;  1.108332037926E+00;  2.489900465939E-01; -2.527617382812E+04;  2.184922460938E+04; -1.526901761569E+03;  0.000000000000E+00;  3.000000000000E+00;  2.405151466062E+00;  0.000000000000E+00;  2.886295211739E+02;  1.042666110938E+01; -1.482571563721E+02;  1.965357208252E+02;  1.114893951163E+00; -1.219160367327E-05;  1.213830091729E-05; -1.910258350916E-11; -2.185012817383E+02;  2.185706481934E+02; -2.018018483808E-04;  0.000000000000E+00;  2.000000000000E+00;  4.708407581403E-01; -2.172940969467E-01;  5.359222412109E+00;  2.479169128372E-01;  3.456486206055E+02;  9.287639843750E+04;  2.826463794250E+04; -3.366896649823E-03;  3.662542626262E-02;  1.656523298077E-05; -3.325046875000E+04;  3.688889843750E+04; -5.057889428943E+01;  3.999998046875E+04;  4.000000390625E+04;  3.999999972663E+04; -1.279110461473E-01;  1.263122558594E-01; -1.371587729379E-03;  2.160199804688E+04;  1.036873203125E+05;  3.861373234151E+04;  0.000000000000E+00;  5.624696853165E+00;  2.650937746437E-01; -1.969494968653E-01;  5.592500209808E+00;  2.516990911087E-01;  0.000000000000E+00;  0.000000000000E+00;  0.000000000000E+00; -6.073750853539E-01;  7.254408597946E-01; -3.782178233746E-03;  0.000000000000E+00;  3.619663750000E+05;  1.742415193081E+04;
44;  2.640027620217E+00;12375; -2.000000029802E-01;  4.741068363190E+00;  1.352424629747E+00;  9.999992325902E-03;  1.000000722706E-02;  9.999999777009E-03; -4.499999880791E-01;  4.499999880791E-01;  1.948420768911E-05;  0.000000000000E+00;  1.237400000000E+04;  6.187000000000E+03;  0.000000000000E+00;  1.268597204841E+00;  1.480959053346E-01; -4.771532956511E-03;  1.266411185265E+00;  1.464321530388E-01;  0.000000000000E+00;  0.000000000000E+00;  0.000000000000E+00; -1.363659799099E-01;  1.369531899691E-01;  5.199697568114E-05;  9.712690429688E+02;  1.027027465820E+03;  9.981027286735E+02;  7.866454869509E-02;  1.108332037926E+00;  2.521903112188E-01; -2.379438085938E+04;  2.026416210938E+04; -1.556013476660E+03;  0.000000000000E+00;  3.000000000000E+00;  2.406545454545E+00;  0.000000000000E+00;  2.955242809562E+02;  8.191079066878E+00; -1.908223876953E+02;  1.999445343018E+02;  3.496317183210E+00; -2.185114135500E-05;  2.185214725614E-05; -2.132370928128E-12; -2.250886535645E+02;  2.251547241211E+02;  4.601254876801E-05;  0.000000000000E+00;  3.000000000000E+00;  4.772525252525E-01; -3.715202212334E-01;  7.249367237091E+00;  1.161677486714E-01;  3.457236938477E+02;  8.761038281250E+04;  2.782510473214E+04; -3.214763943106E-03;  3.561503440142E-02;  1.704323108976E-05; -3.217170312500E+04;  3.570980078125E+04; -5.057496940491E+01;  3.999998046875E+04;  4.000000390625E+04;  3.999999972064E+04; -1.525119245052E-01;  1.257104575634E-01; -1.460113329568E-03;  2.123207617188E+04;  1.029113437500E+05;  3.882775915625E+04;  0.000000000000E+00;  7.645935911660E+00;  1.631978153204E-01; -3.803255856037E-01;  7.629984855652E+00;  1.048956099755E-01;  0.000000000000E+00;  0.000000000000E+00;  0.000000000000E+00; -8.588705062866E-01;  4.959357976913E-01;  1.127213861934E-02;  0.000000000000E+00;  3.679221562500E+05;  1.789667852002E+04;
45;  2.700025854540E+00;12406; -2.000000029802E-01;  4.819040775299E+00;  1.369468121954E+00;  9.999992325902E-03;  1.000000722706E-02;  9.999999777158E-03; -4.499999880791E-01;  4.499999880791E-01;  2.286138870270E-05;  0.000000000000E+00;  1.240500000000E+04;  6.202500000000E+03;  0.000000000000E+00;  1.450007419111E+00;  1.537403403479E-01; -5.082584917545E-02;  1.449438214302E+00;  1.525660654221E-01;  0.000000000000E+00;  0.000000000000E+00;  0.000000000000E+00; -1.327469795942E-01;  1.332360357046E-01;  4.786898009787E-05;  9.707687988281E+02;  1.028560424805E+03;  9.981474051862E+02;  8.077325671911E-02;  1.108332037926E+00;  2.553082524802E-01; -2.391416406250E+04;  2.145139062500E+04; -1.541275379428E+03;  0.000000000000E+00;  3.000000000000E+00;  2.408028373368E+00;  0.000000000000E+00;  2.944826857023E+02;  1.032144537108E+01; -1.450063781738E+02;  1.993694610596E+02;  6.779544653919E-01; -1.017360682454E-05;  1.025603160087E-05; -5.814863293965E-12; -2.239924011230E+02;  2.240658111572E+02; -4.043068998282E-04;  0.000000000000E+00;  3.000000000000E+00;  4.845236176044E-01; -2.196854054928E-01;  6.228638172150E+00;  2.440637063372E-01;  3.457531127930E+02;  8.417734375000E+04;  2.746402809644E+04; -3.104921197519E-03;  3.491769358516E-02;  1.715334045701E-05; -3.139194921875E+04;  3.476061328125E+04; -5.079672849812E+01;  3.999998046875E+04;  4.000000390625E+04;  3.999999971567E+04; -1.518184095621E-01;  1.252086162567E-01; -1.520185196700E-03;  2.098884570312E+04;  1.019564062500E+05;  3.898504833221E+04;  0.000000000000E+00;  6.825699460001E+00;  2.585350665596E-01; -2.055192291737E-01;  6.800073623657E+00;  2.475891638766E-01;  0.000000000000E+00;  0.000000000000E+00;  0.000000000000E+00; -6.553763747215E-01;  7.578714489937E-01; -3.525457308977E-03;  0.000000000000E+00;  3.667925000000E+05;  1.791297993242E+04;
46;  2.760021862455E+00;12428; -2.000000029802E-01;  4.897828102112E+00;  1.384147372043E+00;  9.999992325902E-03;  1.000000722706E-02;  9.999999777382E-03; -4.499999880791E-01;  4.499999880791E-01;  2.579986546059E-05;  0.000000000000E+00;  1.242700000000E+04;  6.213500000000E+03;  0.000000000000E+00;  1.319332540418E+00;  1.493627122013E-01; -1.542631071061E-02;  1.317478656769E+00;  1.491241048164E-01;  0.000000000000E+00;  0.000000000000E+00;  0.000000000000E+00; -1.017804294825E-01;  1.021188423038E-01;  4.094608239041E-05;  9.700807495117E+02;  1.028673095703E+03;  9.981748360203E+02;  8.210794627666E-02;  1.108332037926E+00;  2.586207917937E-01; -2.476500781250E+04;  2.163271875000E+04; -1.506846499363E+03;  0.000000000000E+00;  3.000000000000E+00;  2.409076279369E+00;  0.000000000000E+00;  2.981381044545E+02;  8.563371239479E+00; -1.886724395752E+02;  2.017929382324E+02;  3.504544367636E+00; -2.354600837862E-05;  2.369140747760E-05;  1.283299804139E-11; -2.266724395752E+02;  2.267721710205E+02; -2.984500399916E-04;  0.000000000000E+00;  3.000000000000E+00;  4.899420663019E-01; -2.766880095005E-01;  6.779670238495E+00;  1.513021002006E-01;  3.455974731445E+02;  7.951256250000E+04;  2.710390989619E+04; -2.979636192322E-03;  3.399567678571E-02;  1.704335855449E-05; -3.043017578125E+04;  3.370772656250E+04; -4.665380107130E+01;  3.999998046875E+04;  4.000000390625E+04;  3.999999971083E+04; -1.510259062052E-01;  1.246665790677E-01; -1.521186820163E-03;  2.064947656250E+04;  1.012293125000E+05;  3.904386499911E+04;  0.000000000000E+00;  7.071914961733E+00;  1.807195398944E-01; -2.960897088051E-01;  7.066111564636E+00;  1.379722918085E-01;  0.000000000000E+00;  0.000000000000E+00;  0.000000000000E+00; -6.973582506180E-01;  5.402091741562E-01;  1.332980873506E-02;  0.000000000000E+00;  3.698855937500E+05;  1.824871789048E+04;
47;  2.820007419728E+00;12451; -2.000000029802E-01;  4.976595878601E+00;  1.399271930378E+00;  9.999992325902E-03;  1.000000722706E-02;  9.999999777455E-03; -4.499999880791E-01;  4.499999880791E-01;  2.798882661430E-05;  0.000000000000E+00;  1.245000000000E+04;  6.225000000000E+03;  0.000000000000E+00;  1.446142615138E+00;  1.464565037310E-01; -4.779877886176E-02;  1.445082306862E+00;  1.457356535228E-01;  0.000000000000E+00;  0.000000000000E+00;  0.000000000000E+00; -1.323560327291E-01;  1.325915753841E-01;  3.083444511094E-05;  9.712636108398E+02;  1.028084838867E+03;  9.977414996131E+02;  8.336652070284E-02;  1.108332037926E+00;  2.619242839112E-01; -2.337328320312E+04;  1.986680468750E+04; -1.869392154440E+03;  0.000000000000E+00;  3.000000000000E+00;  2.410167858003E+00;  0.000000000000E+00;  3.343952651939E+02;  1.128266649721E+01; -1.709557800293E+02;  2.266658477783E+02;  6.685433165447E-01; -8.558269655623E-06;  5.927683105256E-06; -2.579645692083E-11; -2.547849884033E+02;  2.548985900879E+02;  1.518155470573E-04;  0.000000000000E+00;  3.000000000000E+00;  4.953818970364E-01; -2.164853513241E-01;  6.538680076599E+00;  2.342954611618E-01;  3.456331787109E+02;  7.606953906250E+04;  2.674640936949E+04; -2.844977891073E-03;  3.319416195154E-02;  1.651637007915E-05; -2.955013671875E+04;  3.268535742188E+04; -4.539988609627E+01;  3.999998046875E+04;  4.000000390625E+04;  3.999999970604E+04; -1.502322107553E-01;  1.240893751383E-01; -1.515970002965E-03;  2.037037109375E+04;  1.003812968750E+05;  3.912965550160E+04;  0.000000000000E+00;  7.102597122862E+00;  2.447229123843E-01; -2.976783812046E-01;  7.076478004456E+00;  2.324884291436E-01;  0.000000000000E+00;  0.000000000000E+00;  0.000000000000E+00; -7.033522129059E-01;  6.726593375206E-01;  1.807031628588E-03;  0.000000000000E+00;  4.008956250000E+05;  1.904736721646E+04;
48;  2.880058458221E+00;12480; -2.000000029802E-01;  5.055377483368E+00;  1.415820279117E+00;  9.999992325902E-03;  1.000000722706E-02;  9.999999777527E-03; -4.499999880791E-01;  4.499999880791E-01;  3.075922082869E-05;  0.000000000000E+00;  1.247900000000E+04;  6.239500000000E+03;  0.000000000000E+00;  1.359165392471E+00;  1.459863250129E-01; -2.815791964531E-02;  1.358318448067E+00;  1.456116389479E-01;  0.000000000000E+00;  0.000000000000E+00;  0.000000000000E+00; -1.232858225703E-01;  1.235167235136E-01;  4.457968512984E-05;  9.718087158203E+02;  1.031086425781E+03;  9.978895082963E+02;  8.553414791822E-02;  1.108332037926E+00;  2.650854668413E-01; -2.335593164062E+04;  2.316397851562E+04; -1.751663208521E+03;  0.000000000000E+00;  3.000000000000E+00;  2.411538461538E+00;  0.000000000000E+00;  3.397573184702E+02;  9.214928311447E+00; -1.659129486084E+02;  2.292393188477E+02;  3.520909706609E+00; -1.703464840830E-05;  1.704427995719E-05;  2.625579640295E-12; -2.586968994141E+02;  2.588299255371E+02; -9.307525672955E-05;  0.000000000000E+00;  3.000000000000E+00;  5.023237179487E-01; -2.114310860634E-01;  6.109322547913E+00;  1.728411275917E-01;  3.454380187988E+02;  7.204812500000E+04;  2.645283360029E+04; -2.750208368525E-03;  3.239477798343E-02;  1.608226681770E-05; -2.870754687500E+04;  3.179658203125E+04; -4.423114713747E+01;  3.999998046875E+04;  4.000000390625E+04;  3.999999970234E+04; -1.495412737131E-01;  1.236160919070E-01; -1.521228212648E-03;  2.008566601562E+04;  9.959882812500E+04;  3.922210526827E+04;  0.000000000000E+00;  6.640733309094E+00;  1.872273933389E-01; -2.001834511757E-01;  6.620418071747E+00;  1.630018267016E-01;  0.000000000000E+00;  0.000000000000E+00;  0.000000000000E+00; -8.386477231979E-01;  8.368507027626E-01;  9.839300781885E-03;  0.000000000000E+00;  4.078432500000E+05;  1.946788319487E+04;
49;  2.940052486200E+00;12531; -2.000000029802E-01;  5.134788036346E+00;  1.437551670662E+00;  9.999992325902E-03;  1.000000722706E-02;  9.999999777597E-03; -4.499999880791E-01;  4.499999880791E-01;  3.375681609079E-05;  0.000000000000E+00;  1.253000000000E+04;  6.265000000000E+03;  0.000000000000E+00;  1.415326388574E+00;  1.381870455316E-01; -2.349310182035E-02;  1.415326356888E+00;  1.378305222870E-01;  0.000000000000E+00;  0.000000000000E+00;  0.000000000000E+00; -1.226873919368E-01;  1.233505010605E-01;  3.830493937640E-05;  9.713905029297E+02;  1.027621948242E+03;  9.975068210915E+02;  8.708345144987E-02;  1.108332037926E+00;  2.677442625982E-01; -2.370244140625E+04;  1.977448046875E+04; -2.050344608094E+03;  0.000000000000E+00;  3.000000000000E+00;  2.413933445056E+00;  0.000000000000E+00;  3.523154059994E+02;  1.154530629998E+01; -1.737644195557E+02;  2.375103149414E+02;  1.496694655828E+00; -1.822317972255E-05;  1.817239899538E-05;  3.154843903676E-11; -2.682028198242E+02;  2.683547058105E+02;  8.328798729239E-04;  0.000000000000E+00;  3.000000000000E+00;  5.163993296624E-01; -2.880674898624E-01;  7.066795825958E+00;  1.870763931203E-01;  3.454056396484E+02;  6.828838281250E+04;  2.608555539380E+04; -2.608368638903E-03;  3.148894011974E-02;  1.572543112012E-05; -2.777952929688E+04;  3.070829296875E+04; -4.212286623746E+01;  3.999998046875E+04;  4.000000390625E+04;  3.999999969046E+04; -1.487075835466E-01;  1.230397820473E-01; -1.470095025808E-03;  1.976377734375E+04;  9.884281250000E+04;  3.917873236093E+04;  0.000000000000E+00;  7.616916421080E+00;  2.020067738052E-01; -3.868716955185E-01;  7.581183910370E+00;  1.812603394346E-01;  0.000000000000E+00;  0.000000000000E+00;  0.000000000000E+00; -1.006609082222E+00;  6.235736012459E-01;  5.816053701354E-03;  0.000000000000E+00;  4.200753437500E+05;  1.996000978751E+04;
50;  3.000047423056E+00;12589; -2.000000029802E-01;  5.213081836700E+00;  1.461573302758E+00;  9.999992325902E-03;  1.000000722706E-02;  9.999999777740E-03; -4.499999880791E-01;  4.499999880791E-01;  3.693102172262E-05;  0.000000000000E+00;  1.258800000000E+04;  6.294000000000E+03;  0.000000000000E+00;  1.392832676599E+00;  1.448847368703E-01; -5.270540341735E-02;  1.392612814903E+00;  1.444996240001E-01;  0.000000000000E+00;  0.000000000000E+00;  0.000000000000E+00; -1.351044625044E-01;  1.350964456797E-01;  4.243281154723E-05;  9.709232788086E+02;  1.032907470703E+03;  9.976455248300E+02;  8.892320841551E-02;  1.108332037926E+00;  2.702399230839E-01; -2.394683984375E+04;  2.399499804688E+04; -1.960363265203E+03;  0.000000000000E+00;  3.000000000000E+00;  2.416633568989E+00;  0.000000000000E+00;  3.642292168648E+02;  9.758998844018E+00; -1.455342559814E+02;  2.458195343018E+02;  3.125975529159E+00; -1.266500294150E-05;  1.231066744367E-05;  5.871337458113E-11; -2.770542907715E+02;  2.772274780273E+02; -4.047663251266E-04;  0.000000000000E+00;  3.000000000000E+00;  5.317340535388E-01; -1.830516457558E-01;  5.551450729370E+00;  2.054764396148E-01;  3.452562866211E+02;  6.520061718750E+04;  2.580024483940E+04; -2.526008058339E-03;  3.085998818278E-02;  1.543333848782E-05; -2.710683203125E+04;  2.994670703125E+04; -4.045834039689E+01;  3.999998046875E+04;  4.000000390625E+04;  3.999999968102E+04; -1.480974704027E-01;  1.226112693548E-01; -1.425892736951E-03;  1.953270507812E+04;  9.802737500000E+04;  3.918939223618E+04;  0.000000000000E+00;  5.811909608023E+00;  2.158528484308E-01; -1.842187643051E-01;  5.797076225281E+00;  2.042424328148E-01;  0.000000000000E+00;  0.000000000000E+00;  0.000000000000E+00; -5.380268692970E-01;  7.205290794373E-01;  1.234006904451E-03;  0.000000000000E+00;  4.319130000000E+05;  2.034275665371E+04;
51;  3.060033726504E+00;12661; -2.000000029802E-01;  5.293038368225E+00;  1.489363150898E+00;  9.999992325902E-03;  1.000000722706E-02;  9.999999777807E-03; -4.499999880791E-01;  4.499999880791E-01;  4.092759458620E-05;  0.000000000000E+00;  1.266000000000E+04;  6.330000000000E+03;  0.000000000000E+00;  1.290244118171E+00;  1.376130182544E-01;  0.000000000000E+00;  1.288101077080E+00;  1.374240044374E-01;  0.000000000000E+00;  0.000000000000E+00;  0.000000000000E+00; -1.084728613496E-01;  1.092165037990E-01;  6.220120803991E-05;  9.697934570312E+02;  1.030430297852E+03;  9.972965889239E+02;  9.085536748171E-02;  1.108332037926E+00;  2.724119421519E-01; -2.501472265625E+04;  2.172454492188E+04; -2.226558088932E+03;  0.000000000000E+00;  3.000000000000E+00;  2.419951030724E+00;  0.000000000000E+00;  3.888679929406E+02;  9.260832832705E+00; -1.910737915039E+02;  2.627999267578E+02;  3.357812597203E+00; -1.948371391336E-05;  1.963039539987E-05;  3.674431498139E-11; -2.958665771484E+02;  2.960556335449E+02;  1.432499538569E-03;  0.000000000000E+00;  3.000000000000E+00;  5.509833346497E-01; -3.197107613087E-01;  7.104714393616E+00;  1.532065658824E-01;  3.451259155273E+02;  6.140752343750E+04;  2.545249659230E+04; -2.396375173703E-03;  2.995415404439E-02;  1.479713346449E-05; -2.618998046875E+04;  2.894182031250E+04; -3.854699926627E+01;  3.999997656250E+04;  4.000000390625E+04;  3.999999966556E+04; -1.472928076982E-01;  1.220781356096E-01; -1.342115799081E-03;  1.920430664062E+04;  9.738985937500E+04;  3.916248103536E+04;  0.000000000000E+00;  7.381153863380E+00;  1.910769949421E-01; -3.790666460991E-01;  7.347775459290E+00;  1.464480366859E-01;  0.000000000000E+00;  0.000000000000E+00;  0.000000000000E+00; -8.485627174377E-01;  7.549612522125E-01;  6.758529245264E-03;  0.000000000000E+00;  4.547906250000E+05;  2.128162725631E+04;
52;  3.120017544600E+00;12724; -2.000000029802E-01;  5.371611595154E+00;  1.514804598858E+00;  9.999992325902E-03;  1.000000722706E-02;  9.999999777800E-03; -4.499999880791E-01;  4.499999880791E-01;  4.606035715661E-05;  0.000000000000E+00;  1.272300000000E+04;  6.361500000000E+03;  0.000000000000E+00;  1.438676979035E+00;  1.387832509876E-01; -4.235019162297E-02;  1.438138365746E+00;  1.379945166029E-01;  0.000000000000E+00;  0.000000000000E+00;  0.000000000000E+00; -1.343899518251E-01;  1.351815462112E-01;  7.546266487323E-05;  9.687373046875E+02;  1.033306762695E+03;  9.972590912115E+02;  9.299587458372E-02;  1.110631704330E+00;  2.747477380151E-01; -2.563518945312E+04;  2.340251171875E+04; -2.280476962080E+03;  0.000000000000E+00;  3.000000000000E+00;  2.422823011632E+00;  0.000000000000E+00;  4.101288652148E+02;  1.095657204871E+01; -1.465887451172E+02;  2.768612060547E+02;  2.475604567281E+00; -7.987074241100E-06;  7.592796009703E-06;  5.972260257467E-11; -3.115239257812E+02;  3.117059326172E+02;  1.395250798572E-03;  0.000000000000E+00;  3.000000000000E+00;  5.676674001886E-01; -1.995034217834E-01;  5.961009502411E+00;  2.337939436648E-01;  3.449823913574E+02;  5.888527343750E+04;  2.516932296361E+04; -2.292491029948E-03;  2.930974587798E-02;  1.445378110031E-05; -2.550159765625E+04;  2.813537304688E+04; -3.724927726306E+01;  3.999997656250E+04;  4.000000390625E+04;  3.999999965463E+04; -1.466286033392E-01;  1.215934753418E-01; -1.345995809217E-03;  2.430762500000E+04;  9.656539843750E+04;  3.913107051773E+04;  0.000000000000E+00;  6.196501912944E+00;  2.419903199408E-01; -1.631285697222E-01;  6.172595500946E+00;  2.306083914377E-01;  0.000000000000E+00;  0.000000000000E+00;  0.000000000000E+00; -7.246669530869E-01;  6.453562378883E-01;  3.185552128233E-03;  0.000000000000E+00;  4.756597500000E+05;  2.180185213862E+04;
53;  3.180015678758E+00;12804; -2.000000029802E-01;  5.450254917145E+00;  1.544762354011E+00;  9.999992325902E-03;  1.000000722706E-02;  9.999999777792E-03; -4.499999880791E-01;  4.499999880791E-01;  5.295139440644E-05;  0.000000000000E+00;  1.280300000000E+04;  6.401500000000E+03;  0.000000000000E+00;  1.319917141559E+00;  1.319423348416E-01; -2.235086075962E-02;  1.318500757217E+00;  1.315209720540E-01;  0.000000000000E+00;  0.000000000000E+00;  0.000000000000E+00; -1.154789105058E-01;  1.165060997009E-01;  9.513650697158E-05;  9.695920410156E+02;  1.033562133789E+03;  9.972224326070E+02;  9.536314755678E-02;  1.116543173790E+00;  2.766748708887E-01; -2.519242382812E+04;  2.369111328125E+04; -2.300648504223E+03;  0.000000000000E+00;  3.000000000000E+00;  2.426429240862E+00;  0.000000000000E+00;  4.209296852091E+02;  1.008672137464E+01; -1.673389892578E+02;  2.836048278809E+02;  3.610985438178E+00; -1.895880086522E-05;  1.888484803203E-05;  4.307097659437E-11; -3.191270751953E+02;  3.193460388184E+02; -4.585729684320E-04;  0.000000000000E+00;  3.000000000000E+00;  5.891127772571E-01; -2.555508613586E-01;  6.726624488831E+00;  1.891818291373E-01;  3.449024047852E+02;  5.552073046875E+04;  2.489272266492E+04; -2.194472122937E-03;  2.849300578237E-02;  1.401888039543E-05; -2.469975976562E+04;  2.725035351562E+04; -3.550209777283E+01;  3.999997656250E+04;  4.000000390625E+04;  3.999999964092E+04; -1.459183543921E-01;  1.211236342788E-01; -1.314773898528E-03;  2.413757421875E+04;  9.593099218750E+04;  3.904512526710E+04;  0.000000000000E+00;  7.207383787782E+00;  2.144434120238E-01; -2.752730548382E-01;  7.192322731018E+00;  1.820109315806E-01;  0.000000000000E+00;  0.000000000000E+00;  0.000000000000E+00; -8.382322788239E-01;  6.593292951584E-01;  7.170897614059E-03;  0.000000000000E+00;  4.866796562500E+05;  2.238256556640E+04;
54;  3.240012590425E+00;12874; -2.000000029802E-01;  5.528719902039E+00;  1.572118661954E+00;  9.999992325902E-03;  1.000000722706E-02;  9.999999777785E-03; -4.499999880791E-01;  4.499999880791E-01;  5.987565216678E-05;  0.000000000000E+00;  1.287300000000E+04;  6.436500000000E+03;  0.000000000000E+00;  1.423728884734E+00;  1.312066264687E-01; -5.040555447340E-02;  1.423366546631E+00;  1.276036557371E-01;  0.000000000000E+00;  0.000000000000E+00;  0.000000000000E+00; -1.191853880882E-01;  1.202595159411E-01;  8.118406882965E-05;  9.692820434570E+02;  1.031396118164E+03;  9.971095905147E+02;  9.778943657875E-02;  1.119031310081E+00;  2.788113244682E-01; -2.544925585938E+04;  2.221575781250E+04; -2.390453140579E+03;  0.000000000000E+00;  3.000000000000E+00;  2.429547926053E+00;  0.000000000000E+00;  4.259128415341E+02;  1.184735920382E+01; -1.646151733398E+02;  2.865848388672E+02;  2.194342343032E+00; -1.471140421927E-05;  1.468820664741E-05;  1.394154115896E-11; -3.217498168945E+02;  3.219448852539E+02; -6.587131657134E-04;  0.000000000000E+00;  3.000000000000E+00;  6.076588472891E-01; -1.788691431284E-01;  6.768097400665E+00;  2.253147843621E-01;  3.449770202637E+02;  5.281648828125E+04;  2.466059682641E+04; -2.070408081636E-03;  2.771943621337E-02;  1.364960700243E-05; -2.392409765625E+04;  2.631681640625E+04; -3.403492644139E+01;  3.999997656250E+04;  4.000000390625E+04;  3.999999962467E+04; -1.451472193003E-01;  1.205834373832E-01; -1.316716558518E-03;  2.393556250000E+04;  9.528142187500E+04;  3.896481385083E+04;  0.000000000000E+00;  7.273238851042E+00;  2.361603393839E-01; -3.076426386833E-01;  7.250041961670E+00;  2.178615400447E-01;  0.000000000000E+00;  0.000000000000E+00;  0.000000000000E+00; -8.415369391441E-01;  5.976454019547E-01;  7.453244118240E-03;  0.000000000000E+00;  4.930355312500E+05;  2.284694540363E+04;
55;  3.300006867470E+00;12917; -2.000000029802E-01;  5.606119632721E+00;  1.591816110651E+00;  9.999992325902E-03;  1.000000722706E-02;  9.999999777780E-03; -4.499999880791E-01;  4.499999880791E-01;  6.543718884360E-05;  0.000000000000E+00;  1.291600000000E+04;  6.458000000000E+03;  0.000000000000E+00;  1.343511307440E+00;  1.266847369149E-01; -7.891732454300E-02;  1.343288660049E+00;  1.244358158821E-01;  0.000000000000E+00;  0.000000000000E+00;  0.000000000000E+00; -1.105143204331E-01;  1.109433546662E-01;  6.796513438493E-05;  9.690426635742E+02;  1.035808959961E+03;  9.973145596967E+02;  1.000000014901E-01;  1.119080543518E+00;  2.815173113319E-01; -2.559696679688E+04;  2.544567382812E+04; -2.232932636590E+03;  0.000000000000E+00;  3.000000000000E+00;  2.431446930402E+00;  0.000000000000E+00;  4.202798047506E+02;  1.002153564248E+01; -1.514931488037E+02;  2.824260253906E+02;  3.258893944484E+00; -1.237512879015E-05;  1.207800141856E-05;  2.424732746391E-11; -3.166545410156E+02;  3.168356933594E+02; -8.622875916580E-04;  0.000000000000E+00;  3.000000000000E+00;  6.189517689866E-01; -1.672839075327E-01;  5.301074028015E+00;  2.077827075268E-01;  3.449484252930E+02;  5.011478906250E+04;  2.445669731719E+04; -1.993974670768E-03;  2.707399055362E-02;  1.334391821611E-05; -2.326984765625E+04;  2.561143359375E+04; -3.277543160530E+01;  3.999997656250E+04;  4.000000390625E+04;  3.999999961563E+04; -1.445569396019E-01;  1.201849132776E-01; -1.304288156511E-03;  2.378738671875E+04;  9.455329687500E+04;  3.890366397525E+04;  0.000000000000E+00;  5.826666198999E+00;  2.217369387101E-01; -2.036517411470E-01;  5.804847240448E+00;  2.066326291834E-01;  0.000000000000E+00;  0.000000000000E+00;  0.000000000000E+00; -6.579006314278E-01;  6.783411502838E-01;  1.150078178123E-03;  0.000000000000E+00;  4.894898437500E+05;  2.305768038771E+04;
56;  3.360050135308E+00;12982; -2.000000029802E-01;  5.684672355652E+00;  1.617933976661E+00;  9.999992325902E-03;  1.000000722706E-02;  9.999999777917E-03; -4.499999880791E-01;  4.499999880791E-01;  7.081779369319E-05;  0.000000000000E+00;  1.298100000000E+04;  6.490500000000E+03;  0.000000000000E+00;  1.253368685697E+00;  1.247821460762E-01; -8.800825104117E-03;  1.251297950745E+00;  1.217744663362E-01;  0.000000000000E+00;  0.000000000000E+00;  0.000000000000E+00; -1.132988706231E-01;  1.146581023932E-01;  7.368001648184E-05;  9.693399658203E+02;  1.033257202148E+03;  9.972640305776E+02;  1.000000014901E-01;  1.119080543518E+00;  2.837251712287E-01; -2.540125781250E+04;  2.374611132812E+04; -2.255836383668E+03;  0.000000000000E+00;  3.000000000000E+00;  2.434293637344E+00;  0.000000000000E+00;  4.236555671960E+02;  9.960268515723E+00; -1.744908752441E+02;  2.856249389648E+02;  3.165882034942E+00; -1.900732786453E-05;  1.873836845334E-05;  1.288613233314E-10; -3.187852172852E+02;  3.190035095215E+02; -4.058747395866E-04;  0.000000000000E+00;  3.000000000000E+00;  6.358804498536E-01; -3.111239969730E-01;  7.155019760132E+00;  1.590474819837E-01;  3.451080322266E+02;  4.717245312500E+04;  2.427615264777E+04; -1.878787064925E-03;  2.624809928238E-02;  1.297057591036E-05; -2.247431250000E+04;  2.471097460938E+04; -3.100255025956E+01;  3.999997656250E+04;  4.000000390625E+04;  3.999999960673E+04; -1.438022106886E-01;  1.196956261992E-01; -1.288189542788E-03;  2.361377148438E+04;  9.400281250000E+04;  3.882445074580E+04;  0.000000000000E+00;  7.500839712437E+00;  1.844925736658E-01; -3.662543594837E-01;  7.452826499939E+00;  1.502773736466E-01;  0.000000000000E+00;  0.000000000000E+00;  0.000000000000E+00; -8.591318130493E-01;  7.002949118614E-01;  8.770108306224E-03;  0.000000000000E+00;  4.937727812500E+05;  2.373192016713E+04;
57;  3.420048629460E+00;13056; -2.000000029802E-01;  5.762208938599E+00;  1.646896343328E+00;  9.999992325902E-03;  1.000000722706E-02;  9.999999778052E-03; -4.499999880791E-01;  4.499999880791E-01;  7.710611574361E-05;  0.000000000000E+00;  1.305500000000E+04;  6.527500000000E+03;  0.000000000000E+00;  1.423450921186E+00;  1.272937888953E-01; -5.374898388982E-02;  1.422881960869E+00;  1.242563426389E-01;  0.000000000000E+00;  0.000000000000E+00;  0.000000000000E+00; -1.318198144436E-01;  1.331089138985E-01;  7.403069074125E-05;  9.673973999023E+02;  1.036204711914E+03;  9.973273251244E+02;  1.000000014901E-01;  1.119080543518E+00;  2.856978401644E-01; -2.688136718750E+04;  2.590925390625E+04; -2.222980812673E+03;  0.000000000000E+00;  3.000000000000E+00;  2.437500000000E+00;  0.000000000000E+00;  4.138877998285E+02;  1.058685403055E+01; -1.360222930908E+02;  2.786968078613E+02;  2.944019244133E+00; -8.215429261327E-06;  7.251554507093E-06;  7.407712981126E-11; -3.106406250000E+02;  3.108341979980E+02; -6.658873353655E-04;  0.000000000000E+00;  3.000000000000E+00;  6.549479166667E-01; -1.943869441748E-01;  5.819758415222E+00;  2.194368754115E-01;  3.450768127441E+02;  4.517105859375E+04;  2.417347788921E+04; -1.778076402843E-03;  2.564354613423E-02;  1.274254989748E-05; -2.185753515625E+04;  2.398304296875E+04; -2.965442434946E+01;  3.999997656250E+04;  4.000000390625E+04;  3.999999959759E+04; -1.431724876165E-01;  1.192401573062E-01; -1.258632439917E-03;  2.344080468750E+04;  9.326253906250E+04;  3.874029076356E+04;  0.000000000000E+00;  5.945553939386E+00;  2.300747784139E-01; -1.207015290856E-01;  5.914721012115E+00;  2.159367877152E-01;  0.000000000000E+00;  0.000000000000E+00;  0.000000000000E+00; -6.084731221199E-01;  6.771769523621E-01;  3.500087803846E-03;  0.000000000000E+00;  4.883426250000E+05;  2.410698272684E+04;
58;  3.480045570482E+00;13116; -2.000000029802E-01;  5.840561389923E+00;  1.672163822294E+00;  9.999992325902E-03;  1.000000722706E-02;  9.999999778116E-03; -4.499999880791E-01;  4.499999880791E-01;  8.311289031959E-05;  0.000000000000E+00;  1.311500000000E+04;  6.557500000000E+03;  0.000000000000E+00;  1.311880024033E+00;  1.280202356282E-01; -2.302720956504E-02;  1.310853242874E+00;  1.277159042316E-01;  0.000000000000E+00;  0.000000000000E+00;  0.000000000000E+00; -1.109094470739E-01;  1.112838163972E-01;  5.634916771789E-05;  9.692842407227E+02;  1.036275512695E+03;  9.974105937710E+02;  1.000000014901E-01;  1.119080543518E+00;  2.879345411660E-01; -2.544742773438E+04;  2.607121484375E+04; -2.147428756809E+03;  0.000000000000E+00;  3.000000000000E+00;  2.440073193047E+00;  0.000000000000E+00;  4.237948683784E+02;  9.625068001924E+00; -1.676445922852E+02;  2.866450195312E+02;  2.986242954345E+00; -1.538416108815E-05;  1.546175553813E-05;  3.112838152058E-11; -3.196135864258E+02;  3.199262695312E+02; -7.317856511301E-04;  0.000000000000E+00;  3.000000000000E+00;  6.702500762428E-01; -2.242315858603E-01;  6.293257713318E+00;  1.968684258104E-01;  3.451277770996E+02;  4.253983984375E+04;  2.407578004653E+04; -1.695278682746E-03;  2.489291876554E-02;  1.250880757403E-05; -2.115137500000E+04;  2.318996875000E+04; -2.835145830676E+01;  3.999997656250E+04;  4.000000390625E+04;  3.999999958930E+04; -1.425275057554E-01;  1.188193708658E-01; -1.307962739551E-03;  2.329243164062E+04;  9.268689843750E+04;  3.866350376806E+04;  0.000000000000E+00;  6.807598446229E+00;  2.157327603885E-01; -2.378776371479E-01;  6.789488315582E+00;  1.914315665385E-01;  0.000000000000E+00;  0.000000000000E+00;  0.000000000000E+00; -8.657251000404E-01;  7.822006344795E-01;  5.436859138214E-03;  0.000000000000E+00;  4.954983750000E+05;  2.463545338504E+04;
59;  3.540037297104E+00;13194; -2.000000029802E-01;  5.919283866882E+00;  1.703075939845E+00;  9.999992325902E-03;  1.000000722706E-02;  9.999999778247E-03; -4.499999880791E-01;  4.499999880791E-01;  8.742295163234E-05;  0.000000000000E+00;  1.319300000000E+04;  6.596500000000E+03;  0.000000000000E+00;  1.420861513848E+00;  1.259638025209E-01; -3.054062463343E-02;  1.420751452446E+00;  1.254190888919E-01;  0.000000000000E+00;  0.000000000000E+00;  0.000000000000E+00; -1.042824983597E-01;  1.043538898230E-01;  1.587530433163E-05;  9.688805541992E+02;  1.033036743164E+03;  9.971964937528E+02;  1.000000014901E-01;  1.119080543518E+00;  2.897721966674E-01; -2.578188867188E+04;  2.382503125000E+04; -2.315094953126E+03;  0.000000000000E+00;  3.000000000000E+00;  2.443383356071E+00;  0.000000000000E+00;  4.313300306495E+02;  1.108749399762E+01; -1.722190856934E+02;  2.916896972656E+02;  3.172855780716E+00; -1.826992047427E-05;  1.818909004214E-05;  5.957364002597E-11; -3.252431335449E+02;  3.255801696777E+02; -6.086386566602E-04;  0.000000000000E+00;  3.000000000000E+00;  6.899348188571E-01; -2.051227539778E-01;  7.090689659119E+00;  1.817084776912E-01;  3.450587158203E+02;  5.390337109375E+04;  2.408525853256E+04; -1.583586214110E-03;  2.413004636765E-02;  1.193409129979E-05; -2.042283984375E+04;  2.233199218750E+04; -2.637322341761E+01;  3.999997656250E+04;  4.000000390625E+04;  3.999999957278E+04; -1.417973935604E-01;  1.183187738061E-01; -1.318824603985E-03;  2.311169726562E+04;  9.217628906250E+04;  3.857130613761E+04;  0.000000000000E+00;  7.636357996491E+00;  1.931235427389E-01; -3.406451344490E-01;  7.597572803497E+00;  1.729692785030E-01;  0.000000000000E+00;  0.000000000000E+00;  0.000000000000E+00; -8.580355048180E-01;  5.560822486877E-01;  8.739199283971E-03;  0.000000000000E+00;  5.033462187500E+05;  2.514055324182E+04;
60;  3.600022712705E+00;13270; -2.000000029802E-01;  5.997077465057E+00;  1.733671362360E+00;  9.999992325902E-03;  1.000000722706E-02;  9.999999778378E-03; -4.499999880791E-01;  4.499999880791E-01;  8.966174128345E-05;  0.000000000000E+00;  1.326900000000E+04;  6.634500000000E+03;  0.000000000000E+00;  1.389169531125E+00;  1.280278235508E-01; -5.085627734661E-02;  1.388904929161E+00;  1.267427670945E-01;  0.000000000000E+00;  0.000000000000E+00;  0.000000000000E+00; -1.259112805128E-01;  1.239287555218E-01; -1.374535633360E-05;  9.678856811523E+02;  1.038352661133E+03;  9.972711085511E+02;  9.584837406874E-02;  1.119080543518E+00;  2.916353221188E-01; -2.654587304688E+04;  2.775494335938E+04; -2.270352890564E+03;  0.000000000000E+00;  3.000000000000E+00;  2.446571213263E+00;  0.000000000000E+00;  4.390579258280E+02;  1.031982929596E+01; -1.320474700928E+02;  2.966571350098E+02;  2.211383997796E+00; -9.420053174836E-06;  8.341983630089E-06;  3.881917452516E-11; -3.308656311035E+02;  3.312439880371E+02; -5.494788485582E-04;  0.000000000000E+00;  3.000000000000E+00;  7.088922381311E-01; -1.672424972057E-01;  5.677729129791E+00;  2.324340605401E-01;  3.450226135254E+02;  6.520356250000E+04;  2.418942693013E+04; -1.682664500549E-03;  2.357624098659E-02;  1.233129279706E-05; -1.987005664062E+04;  2.171029101562E+04; -2.391892591440E+01;  3.999997656250E+04;  4.000000390625E+04;  3.999999956022E+04; -1.412439197302E-01;  1.179328784347E-01; -1.339667542738E-03;  2.296744335938E+04;  9.148748437500E+04;  3.847801010032E+04;  0.000000000000E+00;  5.861471294960E+00;  2.464788447207E-01; -1.702263951302E-01;  5.847943305969E+00;  2.350156826065E-01;  0.000000000000E+00;  0.000000000000E+00;  0.000000000000E+00; -6.378605961800E-01;  6.709771156311E-01; -2.581621935110E-03;  0.000000000000E+00;  5.109451250000E+05;  2.564483499151E+04;
61;  3.660015759908E+00;13336; -2.000000029802E-01;  6.075711727142E+00;  1.761473864989E+00;  9.999992325902E-03;  1.000000722706E-02;  9.999999778508E-03; -4.499999880791E-01;  4.499999880791E-01;  9.005428037560E-05;  0.000000000000E+00;  1.333500000000E+04;  6.667500000000E+03;  0.000000000000E+00;  1.273163952416E+00;  1.285746366729E-01; -1.853129640222E-02;  1.272011756897E+00;  1.266927663289E-01;  0.000000000000E+00;  0.000000000000E+00;  0.000000000000E+00; -1.154710277915E-01;  1.150047704577E-01; -3.918287546081E-05;  9.680503540039E+02;  1.036863403320E+03;  9.973120016774E+02;  8.966260403395E-02;  1.119080543518E+00;  2.937018724882E-01; -2.646967187500E+04;  2.680614453125E+04; -2.224612676258E+03;  0.000000000000E+00;  3.000000000000E+00;  2.449310137972E+00;  0.000000000000E+00;  4.453986476105E+02;  8.794706613485E+00; -1.897660827637E+02;  3.006320800781E+02;  3.480473942693E+00; -1.440144933440E-05;  1.495803735452E-05;  5.013091889809E-11; -3.352972717285E+02;  3.356673889160E+02; -1.222362500494E-03;  0.000000000000E+00;  3.000000000000E+00;  7.251799640072E-01; -2.534173130989E-01;  6.573029518127E+00;  1.564327301293E-01;  3.451041870117E+02;  7.600887500000E+04;  2.431535239049E+04; -4.517511464655E-03;  2.282470837235E-02;  1.118277297167E-05; -1.917523046875E+04;  2.092054101562E+04; -1.513587843430E+01;  3.999997656250E+04;  4.000000390625E+04;  3.999999955478E+04; -1.405845880508E-01;  1.175211295485E-01; -1.329034802957E-03;  2.282659570312E+04;  9.103093750000E+04;  3.839108288010E+04;  0.000000000000E+00;  7.041509392340E+00;  1.830915158929E-01; -2.763961851597E-01;  7.025777816772E+00;  1.478058948626E-01;  0.000000000000E+00;  0.000000000000E+00;  0.000000000000E+00; -8.194081783295E-01;  4.432253837585E-01;  8.626835273187E-03;  0.000000000000E+00;  5.180470625000E+05;  2.633433145232E+04;
62;  3.720015550824E+00;13450; -2.000000029802E-01;  6.154145240784E+00;  1.804451130077E+00;  9.999992325902E-03;  1.000000722706E-02;  9.999999778768E-03; -4.499999880791E-01;  4.499999880791E-01;  8.914081151711E-05;  0.000000000000E+00;  1.344900000000E+04;  6.724500000000E+03;  0.000000000000E+00;  1.435145957738E+00;  1.301730100025E-01; -4.051155969501E-02;  1.434779882431E+00;  1.291222919005E-01;  0.000000000000E+00;  0.000000000000E+00;  0.000000000000E+00; -1.139928549528E-01;  1.131843551993E-01; -8.977234478982E-05;  9.682580566406E+02;  1.035168334961E+03;  9.971360886721E+02;  7.975991815329E-02;  1.119080543518E+00;  2.946692315536E-01; -2.629757812500E+04;  2.564901367188E+04; -2.369350923150E+03;  0.000000000000E+00;  3.000000000000E+00;  2.453977695167E+00;  0.000000000000E+00;  4.412746018649E+02;  1.154942057214E+01; -1.558564758301E+02;  2.973284912109E+02;  2.895146290839E+00; -2.018518352997E-05;  1.944974974322E-05; -6.570264305602E-11; -3.314547424316E+02;  3.318224182129E+02; -9.057425569314E-04;  0.000000000000E+00;  3.000000000000E+00;  7.529368029740E-01; -1.810187101364E-01;  6.726957321167E+00;  2.024339411988E-01;  3.449689636230E+02;  9.451510937500E+04;  2.477042911909E+04; -6.301388144493E-03;  3.105084039271E-02;  2.641208159141E-05; -2.607592578125E+04;  2.013640039062E+04; -4.103975354722E+01;  3.999997656250E+04;  4.000000390625E+04;  3.999999954316E+04; -1.398958712816E-01;  1.170433983207E-01; -1.378070714894E-03;  2.265443359375E+04;  9.763332812500E+04;  3.840144920452E+04;  0.000000000000E+00;  7.247794473540E+00;  2.131028355088E-01; -2.921074330807E-01;  7.227093219757E+00;  1.984951430948E-01;  0.000000000000E+00;  0.000000000000E+00;  0.000000000000E+00; -6.897731423378E-01;  6.710054874420E-01;  3.938797793100E-03;  0.000000000000E+00;  5.154140937500E+05;  2.676956404036E+04;
63;  3.780009561783E+00;13544; -2.000000029802E-01;  6.232142925262E+00;  1.841807185855E+00;  9.999992325902E-03;  1.000000722706E-02;  9.999999778889E-03; -4.499999880791E-01;  4.499999880791E-01;  8.682280488672E-05;  0.000000000000E+00;  1.354300000000E+04;  6.771500000000E+03;  0.000000000000E+00;  1.365390912553E+00;  1.383449524028E-01; -4.139293730259E-02;  1.365183115005E+00;  1.377371015826E-01;  0.000000000000E+00;  0.000000000000E+00;  0.000000000000E+00; -1.007898673415E-01;  1.007161214948E-01; -6.602954954131E-05;  9.671606445312E+02;  1.039485961914E+03;  9.972875252829E+02;  7.759378105402E-02;  1.119080543518E+00;  2.960428515079E-01; -2.720678515625E+04;  2.889932812500E+04; -2.255828399542E+03;  0.000000000000E+00;  3.000000000000E+00;  2.457767277023E+00;  0.000000000000E+00;  4.607768516450E+02;  1.026476606047E+01; -1.337471923828E+02;  3.114477539062E+02;  2.598378097204E+00; -1.142321798397E-05;  1.239548146259E-05;  1.990547195047E-11; -3.466936340332E+02;  3.470869445801E+02; -2.587060189061E-04;  0.000000000000E+00;  3.000000000000E+00;  7.754725339634E-01; -1.353102177382E-01;  5.117434978485E+00;  2.194747882239E-01;  3.450530700684E+02;  9.037239062500E+04;  2.475859875600E+04; -9.396272152662E-02;  4.516252875328E-02; -1.627139589549E-05; -2.516168164062E+04;  3.290503125000E+04;  1.283888104122E+02;  3.999997656250E+04;  4.000000390625E+04;  3.999999953191E+04; -1.393647193909E-01;  1.166859790683E-01; -1.487509766453E-03;  2.252530273438E+04;  9.713053125000E+04;  3.882803837911E+04;  0.000000000000E+00;  5.558823787117E+00;  2.309267015953E-01; -1.510503888130E-01;  5.542544841766E+00;  2.198733812342E-01;  0.000000000000E+00;  0.000000000000E+00;  0.000000000000E+00; -5.810036063194E-01;  6.608622074127E-01; -3.985932965731E-04;  0.000000000000E+00;  5.328565625000E+05;  2.733667133943E+04;
64;  3.840004388591E+00;13605; -2.000000029802E-01;  6.310479164124E+00;  1.868995701774E+00;  9.999992325902E-03;  1.000000722706E-02;  9.999999778878E-03; -4.499999880791E-01;  4.499999880791E-01;  7.011530116297E-05;  0.000000000000E+00;  1.360400000000E+04;  6.802000000000E+03;  0.000000000000E+00;  1.246194707626E+00;  1.326430314831E-01; -7.363317068666E-03;  1.244954943657E+00;  1.317905270207E-01;  0.000000000000E+00;  0.000000000000E+00;  0.000000000000E+00; -1.001004353166E-01;  9.877160936594E-02; -1.088700823071E-04;  9.654436035156E+02;  1.037131225586E+03;  9.972375085373E+02;  7.626441866159E-02;  1.119080543518E+00;  2.981099573923E-01; -2.861894531250E+04;  2.730079492188E+04; -2.281461036987E+03;  0.000000000000E+00;  3.000000000000E+00;  2.460198456450E+00;  0.000000000000E+00;  4.619000028810E+02;  8.131790672382E+00; -1.803731994629E+02;  3.112904052734E+02;  3.979477364450E+00; -1.902149051602E-05;  2.098781260429E-05; -7.155920511172E-10; -3.470902404785E+02;  3.474843750000E+02; -1.963443688064E-03;  0.000000000000E+00;  3.000000000000E+00;  7.899301727306E-01; -2.723046541214E-01;  6.611064434052E+00;  1.202052121223E-01;  3.449173889160E+02;  8.611679687500E+04;  2.451348961993E+04; -8.987518399954E-02;  4.330884292722E-02; -4.527885516657E-06; -2.407459179688E+04;  3.146932421875E+04;  1.147695222956E+02;  3.999997656250E+04;  4.000000390625E+04;  3.999999952424E+04; -1.387275755405E-01;  1.162896752357E-01; -1.497039687075E-03;  2.400530664062E+04;  9.681997656250E+04;  3.913176113834E+04;  0.000000000000E+00;  7.046746155250E+00;  1.536322361884E-01; -3.028865754604E-01;  7.033117771149E+00;  1.103261919571E-01;  0.000000000000E+00;  0.000000000000E+00;  0.000000000000E+00; -9.185777902603E-01;  5.762598514557E-01;  9.879020390522E-03;  0.000000000000E+00;  5.353928125000E+05;  2.774866538392E+04;
65;  3.900003767259E+00;13670; -2.000000029802E-01;  6.388123989105E+00;  1.897647355890E+00;  9.999992325902E-03;  1.000000722706E-02;  9.999999779548E-03; -4.499999880791E-01;  4.499999880791E-01;  7.719417611321E-05;  0.000000000000E+00;  1.366900000000E+04;  6.834500000000E+03;  0.000000000000E+00;  1.420302069192E+00;  1.347159177501E-01; -4.977246373892E-02;  1.419445753098E+00;  1.298104573135E-01;  0.000000000000E+00;  0.000000000000E+00;  0.000000000000E+00; -1.061653941870E-01;  1.052051335573E-01; -1.598879451216E-04;  9.666197509766E+02;  1.037055175781E+03;  9.971287129422E+02;  7.526059448719E-02;  1.119080543518E+00;  3.000463180931E-01; -2.765492187500E+04;  2.732115234375E+04; -2.379816753093E+03;  0.000000000000E+00;  3.000000000000E+00;  2.462765179225E+00;  0.000000000000E+00;  4.699315413518E+02;  1.138872851331E+01; -1.717643127441E+02;  3.167841491699E+02;  1.777014970827E+00; -4.406268271850E-05;  3.462857057457E-05; -8.633546474123E-11; -3.526781311035E+02;  3.530631713867E+02; -1.665255344487E-03;  0.000000000000E+00;  3.000000000000E+00;  8.051938551573E-01; -1.617037355900E-01;  6.468328952789E+00;  2.230887245495E-01;  3.450551452637E+02;  7.877260156250E+04;  2.430119348069E+04; -8.609756082296E-02;  4.168007895350E-02; -2.554926601149E-07; -2.312109960938E+04;  3.009214062500E+04;  9.767672814728E+01;  3.999997656250E+04;  4.000000390625E+04;  3.999999951450E+04; -1.380945891142E-01;  1.207225695252E-01; -1.522376138023E-03;  2.391693164062E+04;  9.623224218750E+04;  3.931012688069E+04;  0.000000000000E+00;  6.985932283022E+00;  2.333916448109E-01; -2.091828435659E-01;  6.968037128448E+00;  2.228549309678E-01;  0.000000000000E+00;  0.000000000000E+00;  0.000000000000E+00; -5.521771907806E-01;  6.164948940277E-01;  2.337935673109E-04;  0.000000000000E+00;  5.433501875000E+05;  2.824978832078E+04;
66;  3.960004842652E+00;13714; -2.000000029802E-01;  6.465762138367E+00;  1.919635105105E+00;  9.999992325902E-03;  1.000000722706E-02;  9.999999779606E-03; -4.499999880791E-01;  4.499999880791E-01;  6.705431564508E-05;  0.000000000000E+00;  1.371300000000E+04;  6.856500000000E+03;  0.000000000000E+00;  1.335719955674E+00;  1.388498294050E-01; -4.882154241204E-02;  1.335479378700E+00;  1.316665061197E-01;  0.000000000000E+00;  0.000000000000E+00;  0.000000000000E+00; -9.996926784515E-02;  9.763170778751E-02; -2.126040928080E-04;  9.670783081055E+02;  1.039727905273E+03;  9.974576935041E+02;  7.527063786983E-02;  1.119080543518E+00;  3.024311406671E-01; -2.727498242188E+04;  2.941250781250E+04; -2.113599064257E+03;  0.000000000000E+00;  3.000000000000E+00;  2.464488843518E+00;  0.000000000000E+00;  4.548649142009E+02;  8.978199985874E+00; -1.252640151978E+02;  3.051291809082E+02;  2.927078135263E+00; -1.356124630547E-05;  1.081964364857E-05;  9.339063343114E-11; -3.406926879883E+02;  3.409899902344E+02; -8.793411310102E-04;  0.000000000000E+00;  3.000000000000E+00;  8.154440717515E-01; -1.394859999418E-01;  5.281693935394E+00;  1.890480261988E-01;  3.452245483398E+02;  7.330403906250E+04;  2.410844206500E+04; -8.298580348492E-02;  4.023474454880E-02;  2.787891705559E-07; -2.221667187500E+04;  2.895677148438E+04;  9.331641189494E+01;  3.999997656250E+04;  4.000000390625E+04;  3.999999950638E+04; -1.375645995140E-01;  1.203719675541E-01; -1.507538329516E-03;  2.378148828125E+04;  9.576148437500E+04;  3.941420424484E+04;  0.000000000000E+00;  5.655727778679E+00;  2.041999003734E-01; -1.411543041468E-01;  5.644104480743E+00;  1.858943980253E-01;  0.000000000000E+00;  0.000000000000E+00;  0.000000000000E+00; -6.045744419098E-01;  7.605179548264E-01;  3.153628216470E-03;  0.000000000000E+00;  5.365610625000E+05;  2.849958386789E+04;
67;  4.020000427808E+00;13744; -2.000000029802E-01;  6.543730735779E+00;  1.937085537457E+00;  9.999992325902E-03;  1.000000722706E-02;  9.999999779667E-03; -4.499999880791E-01;  4.499999880791E-01;  5.414808543333E-05;  0.000000000000E+00;  1.374300000000E+04;  6.871500000000E+03;  0.000000000000E+00;  1.246137032765E+00;  1.300522633755E-01; -4.783998057246E-02;  1.245070815086E+00;  1.274774720269E-01;  0.000000000000E+00;  0.000000000000E+00;  0.000000000000E+00; -9.170527756214E-02;  8.982873708010E-02; -2.465847033200E-04;  9.677612304688E+02;  1.038041992188E+03;  9.974967771137E+02;  7.503675669432E-02;  1.119080543518E+00;  3.050853671968E-01; -2.670922070312E+04;  2.829377343750E+04; -2.068325211008E+03;  0.000000000000E+00;  3.000000000000E+00;  2.465657741560E+00;  0.000000000000E+00;  4.430089191392E+02;  7.775260541751E+00; -1.711196746826E+02;  2.986240844727E+02;  3.426977668857E+00; -1.712475386739E-05;  1.828399399528E-05;  1.133215890118E-10; -3.290859680176E+02;  3.292835083008E+02; -2.085136793531E-03;  0.000000000000E+00;  4.000000000000E+00;  8.225407450524E-01; -2.606440782547E-01;  6.016196250916E+00;  1.186795414040E-01;  3.451825561523E+02;  6.669740625000E+04;  2.386380812216E+04; -7.914271950722E-02;  3.849184140563E-02;  5.371532607256E-07; -2.120556445312E+04;  2.761039843750E+04;  8.783013527426E+01;  3.999997656250E+04;  4.000000390625E+04;  3.999999949893E+04; -1.369738280773E-01;  1.200198754668E-01; -1.509266218396E-03;  2.368959960938E+04;  9.547882812500E+04;  3.946185792110E+04;  0.000000000000E+00;  6.371967679000E+00;  1.453444839535E-01; -2.756652534008E-01;  6.362107276917E+00;  1.077562566459E-01;  0.000000000000E+00;  0.000000000000E+00;  0.000000000000E+00; -7.897425293922E-01;  6.071238517761E-01;  1.092328467788E-02;  0.000000000000E+00;  5.262768125000E+05;  2.875092162921E+04;
68;  4.080007150597E+00;13784; -2.000000029802E-01;  6.621215820312E+00;  1.958020847004E+00;  9.999992325902E-03;  1.000000722706E-02;  9.999999779726E-03; -4.499999880791E-01;  4.499999880791E-01;  3.880992529418E-05;  0.000000000000E+00;  1.378300000000E+04;  6.891500000000E+03;  0.000000000000E+00;  1.402704120614E+00;  1.295163335226E-01; -3.497607260942E-02;  1.402548193932E+00;  1.253450401778E-01;  0.000000000000E+00;  0.000000000000E+00;  0.000000000000E+00; -1.035213470459E-01;  1.009798273444E-01; -2.829579656954E-04;  9.672921142578E+02;  1.041880493164E+03;  9.973076967891E+02;  7.593210041523E-02;  1.119080543518E+00;  3.074700952120E-01; -2.709785156250E+04;  3.103045507812E+04; -2.220966025790E+03;  0.000000000000E+00;  3.000000000000E+00;  2.467208357516E+00;  0.000000000000E+00;  4.569384327987E+02;  1.057781883912E+01; -1.684656677246E+02;  3.091659851074E+02;  2.294760520366E+00; -3.014929461642E-05;  2.924287218775E-05;  2.205303989787E-10; -3.428753051758E+02;  3.431569213867E+02; -1.902322374637E-03;  0.000000000000E+00;  4.000000000000E+00;  8.319065583285E-01; -1.339648067951E-01;  6.525465488434E+00;  1.615274259430E-01;  3.453396911621E+02;  6.023112890625E+04;  2.365549383091E+04; -7.530953735113E-02;  3.677242249250E-02;  1.306426656780E-06; -2.021033398438E+04;  2.625326953125E+04;  8.217511268673E+01;  3.999997656250E+04;  4.000000390625E+04;  3.999999948480E+04; -1.466181576252E-01;  1.196109205484E-01; -1.556895132059E-03;  2.364604101562E+04;  9.502078125000E+04;  3.952901582692E+04;  0.000000000000E+00;  7.161099530775E+00;  1.746324668838E-01; -2.780183255672E-01;  7.094050884247E+00;  1.582889498268E-01;  0.000000000000E+00;  0.000000000000E+00;  0.000000000000E+00; -9.776443839073E-01;  5.587754249573E-01;  3.238476141283E-03;  0.000000000000E+00;  5.349227500000E+05;  2.899368883128E+04;
69;  4.140014295112E+00;13812; -2.000000029802E-01;  6.698311328888E+00;  1.974740564835E+00;  9.999992325902E-03;  1.000000722706E-02;  9.999999779989E-03; -4.499999880791E-01;  4.499999880791E-01;  2.255413362209E-05;  0.000000000000E+00;  1.381100000000E+04;  6.905500000000E+03;  0.000000000000E+00;  1.402989077022E+00;  1.345540961534E-01; -8.392760157585E-02;  1.402551651001E+00;  1.260960114357E-01;  0.000000000000E+00;  0.000000000000E+00;  0.000000000000E+00; -1.233561784029E-01;  1.220050975680E-01; -2.957307100212E-04;  9.675818481445E+02;  1.046292114258E+03;  9.975501981548E+02;  7.655503600836E-02;  1.119080543518E+00;  3.101156412311E-01; -2.685780859375E+04;  3.439603515625E+04; -2.038361851142E+03;  0.000000000000E+00;  3.000000000000E+00;  2.468288444831E+00;  0.000000000000E+00;  4.455612431324E+02;  9.414976680265E+00; -1.373840637207E+02;  3.001582946777E+02;  1.601597825542E+00; -3.353814827278E-05;  2.477611633367E-05; -4.491079488179E-11; -3.344236755371E+02;  3.346736755371E+02; -3.254254356103E-03;  0.000000000000E+00;  4.000000000000E+00;  8.389081957718E-01; -2.408800721169E-01;  6.052276134491E+00;  2.116373109932E-01;  3.454772338867E+02;  5.496805078125E+04;  2.345918543309E+04; -7.221257686615E-02;  3.541407361627E-02;  1.946668810989E-06; -1.939130468750E+04;  2.512077734375E+04;  7.760081793594E+01;  3.999997656250E+04;  4.000000390625E+04;  3.999999947651E+04; -1.460775732994E-01;  1.192438006401E-01; -1.566849411301E-03;  2.350984179688E+04;  9.446868750000E+04;  3.953234376867E+04;  0.000000000000E+00;  6.330093200611E+00;  2.284265657851E-01; -2.081383764744E-01;  6.282210826874E+00;  2.132560122806E-01;  0.000000000000E+00;  0.000000000000E+00;  0.000000000000E+00; -7.932013273239E-01;  6.620459556580E-01; -1.618701441332E-03;  0.000000000000E+00;  5.308998750000E+05;  2.902481463443E+04;
70;  4.200011083871E+00;13840; -2.000000029802E-01;  6.775620460510E+00;  1.991423263826E+00;  9.999992325902E-03;  1.000000722706E-02;  9.999999780049E-03; -4.499999880791E-01;  4.499999880791E-01;  2.691302579827E-06;  0.000000000000E+00;  1.383900000000E+04;  6.919500000000E+03;  0.000000000000E+00;  1.295367458933E+00;  1.293513527120E-01; -5.067234858871E-02;  1.294623732567E+00;  1.241294874554E-01;  0.000000000000E+00;  0.000000000000E+00;  0.000000000000E+00; -1.008998900652E-01;  9.621804952621E-02; -3.575761542813E-04;  9.682990722656E+02;  1.046076171875E+03;  9.977906636806E+02;  7.788677513599E-02;  1.119080543518E+00;  3.127350692050E-01; -2.626360351562E+04;  3.438858593750E+04; -1.832441813578E+03;  0.000000000000E+00;  3.000000000000E+00;  2.469364161850E+00;  0.000000000000E+00;  4.314561794242E+02;  8.158883876675E+00; -1.428300476074E+02;  2.913922119141E+02;  3.461298507687E+00; -1.411314315192E-05;  1.480108494434E-05;  3.812770603906E-10; -3.215292053223E+02;  3.217908630371E+02; -1.585842643692E-04;  0.000000000000E+00;  4.000000000000E+00;  8.457369942197E-01; -1.806960403919E-01;  6.021294593811E+00;  1.425395560730E-01;  3.455387878418E+02;  5.008343359375E+04;  2.328333014899E+04; -6.893084943295E-02;  3.387764096260E-02;  2.214747229109E-06; -1.847597265625E+04;  2.396850976562E+04;  7.336991443836E+01;  3.999997656250E+04;  4.000000390625E+04;  3.999999946769E+04; -1.455354690552E-01;  1.189229488373E-01; -1.567136904567E-03;  2.341198437500E+04;  9.413427343750E+04;  3.954226018264E+04;  0.000000000000E+00;  6.408916802133E+00;  1.591893570450E-01; -2.030600011349E-01;  6.397845268250E+00;  1.317755049190E-01;  0.000000000000E+00;  0.000000000000E+00;  0.000000000000E+00; -7.064607143402E-01;  8.618139624596E-01;  1.076405118243E-02;  0.000000000000E+00;  5.197981875000E+05;  2.916434602059E+04;
71;  4.260010104448E+00;13870; -2.000000029802E-01;  6.854078769684E+00;  2.008842951769E+00;  9.999992325902E-03;  1.000000722706E-02;  9.999999780176E-03; -4.499999880791E-01;  4.499999880791E-01; -2.079874025352E-05;  0.000000000000E+00;  1.386900000000E+04;  6.934500000000E+03;  0.000000000000E+00;  1.344589530985E+00;  1.245185513479E-01; -1.654765196145E-02;  1.344414591789E+00;  1.205406424790E-01;  0.000000000000E+00;  0.000000000000E+00;  0.000000000000E+00; -8.846994489431E-02;  8.374056965113E-02; -4.426565567606E-04;  9.685122680664E+02;  1.043621826172E+03;  9.976218781860E+02;  7.775219529867E-02;  1.119080543518E+00;  3.152500506584E-01; -2.608696679688E+04;  3.269852734375E+04; -1.958546441088E+03;  0.000000000000E+00;  3.000000000000E+00;  2.470511896179E+00;  0.000000000000E+00;  4.309722555009E+02;  9.094536362202E+00; -2.110336914062E+02;  2.926686706543E+02;  2.784625589672E+00; -2.284489346494E-05;  2.269686956424E-05; -2.385169949850E-10; -3.210297851562E+02;  3.212737731934E+02; -2.918015612245E-03;  0.000000000000E+00;  4.000000000000E+00;  8.532804614275E-01; -2.346329689026E-01;  6.757515907288E+00;  1.196885005923E-01;  3.456367187500E+02;  4.466355468750E+04;  2.309230946201E+04; -6.518986076117E-02;  3.217675909400E-02;  2.697782970465E-06; -1.750463867188E+04;  2.267132617188E+04;  6.852901375541E+01;  3.999997656250E+04;  4.000000390625E+04;  3.999999946039E+04; -1.449429988861E-01;  1.185711771250E-01; -1.554796537374E-03;  2.335600195312E+04;  9.385946875000E+04;  3.954176001304E+04;  0.000000000000E+00;  7.291487951372E+00;  1.342330827124E-01; -3.059091567993E-01;  7.259704113007E+00;  1.129603771256E-01;  0.000000000000E+00;  0.000000000000E+00;  0.000000000000E+00; -9.889467358589E-01;  5.163426399231E-01;  6.728123391040E-03;  0.000000000000E+00;  5.176204375000E+05;  2.953733082455E+04;
72;  4.320007814709E+00;13900; -2.000000029802E-01;  6.932018280029E+00;  2.026315821328E+00;  9.999992325902E-03;  1.000000722706E-02;  9.999999780302E-03; -4.499999880791E-01;  4.499999880791E-01; -4.932384159468E-05;  0.000000000000E+00;  1.389900000000E+04;  6.949500000000E+03;  0.000000000000E+00;  1.414310531561E+00;  1.272232309905E-01; -4.286273196340E-02;  1.413636207581E+00;  1.231186102181E-01;  0.000000000000E+00;  0.000000000000E+00;  0.000000000000E+00; -1.113297939301E-01;  1.047193631530E-01; -5.106735428788E-04;  9.685827636719E+02;  1.045812133789E+03;  9.977217674596E+02;  7.981528341770E-02;  1.119080543518E+00;  3.177628341574E-01; -2.602826953125E+04;  3.442776171875E+04; -1.893397976551E+03;  0.000000000000E+00;  3.000000000000E+00;  2.471654676259E+00;  0.000000000000E+00;  4.261563718772E+02;  9.273974834213E+00; -1.726962280273E+02;  2.889785156250E+02;  1.201725327357E+00; -5.029702515458E-05;  3.858519994537E-05; -1.382621613238E-10; -3.189261169434E+02;  3.190757141113E+02; -1.786777129583E-03;  0.000000000000E+00;  4.000000000000E+00;  8.609352517986E-01; -1.571477353573E-01;  5.750800609589E+00;  1.995607410903E-01;  3.457819519043E+02;  4.027629296875E+04;  2.293184675853E+04; -6.181063130498E-02;  3.070131689310E-02;  3.204198127407E-06; -1.665133398438E+04;  2.146197070312E+04;  6.377707943876E+01;  3.999997656250E+04;  4.000000390625E+04;  3.999999945060E+04; -1.443721652031E-01;  1.181814745069E-01; -1.548901106551E-03;  2.327972460938E+04;  9.332099218750E+04;  3.952729003695E+04;  0.000000000000E+00;  6.026593597865E+00;  2.098977761974E-01; -1.395065933466E-01;  6.010778427124E+00;  1.991039033513E-01;  0.000000000000E+00;  0.000000000000E+00;  0.000000000000E+00; -7.173952460289E-01;  6.256603002548E-01;  4.568376818021E-04;  0.000000000000E+00;  5.153403437500E+05;  2.968927229335E+04;
73;  4.380052452602E+00;13948; -2.000000029802E-01;  7.010231494904E+00;  2.049520955977E+00;  9.999992325902E-03;  1.000000722706E-02;  9.999999780355E-03; -4.499999880791E-01;  4.499999880791E-01; -8.362166334899E-05;  0.000000000000E+00;  1.394700000000E+04;  6.973500000000E+03;  0.000000000000E+00;  1.340804645477E+00;  1.277553585779E-01; -5.063477158546E-02;  1.340672850609E+00;  1.266994463200E-01;  0.000000000000E+00;  0.000000000000E+00;  0.000000000000E+00; -9.745590388775E-02;  9.378550201654E-02; -5.929449311946E-04;  9.691412353516E+02;  1.047888793945E+03;  9.978831707337E+02;  8.194088190794E-02;  1.119080543518E+00;  3.198688945183E-01; -2.556589453125E+04;  3.613812109375E+04; -1.761511839738E+03;  0.000000000000E+00;  3.000000000000E+00;  2.473472899340E+00;  0.000000000000E+00;  4.177977548395E+02;  8.114244436648E+00; -1.193658218384E+02;  2.840556335449E+02;  2.918174526570E+00; -1.859665280790E-05;  1.453513777960E-05; -6.463548165073E-10; -3.117901916504E+02;  3.117913513184E+02; -1.702351283310E-04;  0.000000000000E+00;  4.000000000000E+00;  8.743188987668E-01; -1.592770218849E-01;  5.534389972687E+00;  1.639660328888E-01;  3.456686096191E+02;  4.029819531250E+04;  2.275621344004E+04; -5.888118594885E-02;  2.935074456036E-02;  3.457643255279E-06; -1.583818261719E+04;  2.042358203125E+04;  5.994134615125E+01;  3.999997656250E+04;  4.000000390625E+04;  3.999999943456E+04; -1.438738852739E-01;  1.178675964475E-01; -1.548063481156E-03;  2.315445507812E+04;  9.288678125000E+04;  3.947887562649E+04;  0.000000000000E+00;  5.784573130169E+00;  1.739123294125E-01; -1.504615992308E-01;  5.750000476837E+00;  1.604705458691E-01;  0.000000000000E+00;  0.000000000000E+00;  0.000000000000E+00; -6.368923783302E-01;  7.782004475594E-01;  3.495487085744E-03;  0.000000000000E+00;  5.086035000000E+05;  2.999152688398E+04;
74;  4.440043154249E+00;14004; -2.000000029802E-01;  7.088798046112E+00;  2.075476959919E+00;  9.999992325902E-03;  1.000000722706E-02;  9.999999780406E-03; -4.499999880791E-01;  4.499999880791E-01; -1.169910078832E-04;  0.000000000000E+00;  1.400300000000E+04;  7.001500000000E+03;  0.000000000000E+00;  1.294780121996E+00;  1.268920440180E-01; -1.959798671305E-02;  1.293698906898E+00;  1.266714037928E-01;  0.000000000000E+00;  0.000000000000E+00;  0.000000000000E+00; -9.414298832417E-02;  8.812847733498E-02; -6.032989829585E-04;  9.680877685547E+02;  1.046073974609E+03;  9.976723977606E+02;  8.405198901892E-02;  1.119080543518E+00;  3.217605908386E-01; -2.643866015625E+04;  3.490363281250E+04; -1.926621206136E+03;  0.000000000000E+00;  3.000000000000E+00;  2.475578406170E+00;  0.000000000000E+00;  4.417230316959E+02;  7.969751612618E+00; -1.628745880127E+02;  2.998526611328E+02;  3.470859237191E+00; -1.665981289989E-05;  2.093224065902E-05; -2.114629167397E-10; -3.329778137207E+02;  3.331480712891E+02; -1.824092693489E-03;  0.000000000000E+00;  4.000000000000E+00;  8.903884604399E-01; -2.253663241863E-01;  6.064901351929E+00;  1.376596245374E-01;  3.455653686523E+02;  4.025210546875E+04;  2.253604353071E+04; -5.551852658391E-02;  2.779645845294E-02;  3.746508680307E-06; -1.494029589844E+04;  1.925630078125E+04;  5.554531775537E+01;  3.999997656250E+04;  4.000000390625E+04;  3.999999942260E+04; -1.433747708797E-01;  1.175919771194E-01; -1.566205773552E-03;  2.308391601562E+04;  9.267489843750E+04;  3.941087417406E+04;  0.000000000000E+00;  6.444130018317E+00;  1.600115505841E-01; -2.592032253742E-01;  6.433497905731E+00;  1.290246292732E-01;  0.000000000000E+00;  0.000000000000E+00;  0.000000000000E+00; -8.535093069077E-01;  5.637017488480E-01;  8.634995291373E-03;  0.000000000000E+00;  5.238294062500E+05;  3.040791101807E+04;
75;  4.500046506128E+00;14064; -2.000000029802E-01;  7.167924880981E+00;  2.103071599670E+00;  9.999992325902E-03;  1.000000722706E-02;  9.999999780522E-03; -4.499999880791E-01;  4.499999880791E-01; -1.590679906242E-04;  0.000000000000E+00;  1.406300000000E+04;  7.031500000000E+03;  0.000000000000E+00;  1.335483581615E+00;  1.219278517354E-01; -2.858491207007E-04;  1.335378885269E+00;  1.218187736137E-01;  0.000000000000E+00;  0.000000000000E+00;  0.000000000000E+00; -9.992752969265E-02;  9.420096129179E-02; -6.206908248486E-04;  9.666409301758E+02;  1.044186157227E+03;  9.973946159285E+02;  8.503371477127E-02;  1.119080543518E+00;  3.235519931035E-01; -2.763734179688E+04;  3.357908203125E+04; -2.148700190066E+03;  0.000000000000E+00;  3.000000000000E+00;  2.477815699659E+00;  0.000000000000E+00;  4.687652180607E+02;  9.536061117117E+00; -1.720864715576E+02;  3.170014953613E+02;  2.320741084274E+00; -2.264978138555E-05;  2.255257822981E-05; -6.352324101170E-11; -3.534533691406E+02;  3.535813598633E+02; -2.157591652002E-03;  0.000000000000E+00;  4.000000000000E+00;  9.072098976109E-01; -2.082267999649E-01;  6.624387264252E+00;  1.498511262087E-01;  3.454909057617E+02;  4.019872656250E+04;  2.233965087206E+04; -5.210449546576E-02;  2.623201906681E-02;  3.969069141380E-06; -1.404577734375E+04;  1.807783203125E+04;  5.094163528600E+01;  3.999997656250E+04;  4.000000390625E+04;  3.999999941395E+04; -1.428488641977E-01;  1.172733679414E-01; -1.574361706781E-03;  2.302271679688E+04;  9.236013281250E+04;  3.934437010761E+04;  0.000000000000E+00;  7.025072546814E+00;  1.633968587444E-01; -2.931261956692E-01;  7.014199733734E+00;  1.459902163257E-01;  0.000000000000E+00;  0.000000000000E+00;  0.000000000000E+00; -8.980843424797E-01;  4.768424630165E-01;  3.860909535414E-03;  0.000000000000E+00;  5.477816250000E+05;  3.086239189913E+04;
76;  4.560039724345E+00;14138; -2.000000029802E-01;  7.246641159058E+00;  2.135262937263E+00;  9.999992325902E-03;  1.000000722706E-02;  9.999999780633E-03; -4.499999880791E-01;  4.499999880791E-01; -1.910923072716E-04;  0.000000000000E+00;  1.413700000000E+04;  7.068500000000E+03;  0.000000000000E+00;  1.427003256093E+00;  1.226900932194E-01; -1.870097033679E-02;  1.426356673241E+00;  1.216649667938E-01;  0.000000000000E+00;  0.000000000000E+00;  0.000000000000E+00; -1.104615777731E-01;  1.041376888752E-01; -6.562781280189E-04;  9.667159423828E+02;  1.043492919922E+03;  9.974130054797E+02;  8.687201887369E-02;  1.119080543518E+00;  3.250573202377E-01; -2.757522070312E+04;  3.313708203125E+04; -2.144439915921E+03;  0.000000000000E+00;  3.000000000000E+00;  2.480548875371E+00;  0.000000000000E+00;  4.671116969016E+02;  1.012981938744E+01; -1.793514099121E+02;  3.144768371582E+02;  1.506596493353E+00; -4.041595821036E-05;  3.396523970878E-05; -1.009659456754E-10; -3.510805664062E+02;  3.510885620117E+02;  1.997293001254E-03;  0.000000000000E+00;  4.000000000000E+00;  9.279247418305E-01; -1.434351950884E-01;  6.280912399292E+00;  2.108433496937E-01;  3.453003540039E+02;  4.021428515625E+04;  2.217814089294E+04; -4.875104129314E-02;  2.471190690994E-02;  4.264514654959E-06; -1.317656250000E+04;  1.691551171875E+04;  4.634543883857E+01;  3.999997656250E+04;  4.000000390625E+04;  3.999999940431E+04; -1.422954350710E-01;  1.169105842710E-01; -1.569019199997E-03;  2.299415820312E+04;  9.192033593750E+04;  3.925910676443E+04;  0.000000000000E+00;  6.806375042050E+00;  2.176615510801E-01; -2.082542926073E-01;  6.752586364746E+00;  2.081547135945E-01;  0.000000000000E+00;  0.000000000000E+00;  0.000000000000E+00; -8.653421401978E-01;  5.946801900864E-01;  2.688635952140E-03;  0.000000000000E+00;  5.477724375000E+05;  3.114843960633E+04;
77;  4.620032033777E+00;14200; -2.000000029802E-01;  7.324810028076E+00;  2.163327816928E+00;  9.999992325902E-03;  1.000000722706E-02;  9.999999780811E-03; -4.499999880791E-01;  4.499999880791E-01; -2.371216791600E-04;  0.000000000000E+00;  1.419900000000E+04;  7.099500000000E+03;  0.000000000000E+00;  1.377415788645E+00;  1.232085653524E-01; -7.122019678354E-02;  1.376109719276E+00;  1.216584027545E-01;  0.000000000000E+00;  0.000000000000E+00;  0.000000000000E+00; -1.191368103027E-01;  1.120723113418E-01; -6.717223975207E-04;  9.661790771484E+02;  1.047838623047E+03;  9.974323943146E+02;  8.695387840271E-02;  1.119080543518E+00;  3.268591966029E-01; -2.801999804688E+04;  3.657421484375E+04; -2.138788205982E+03;  0.000000000000E+00;  3.000000000000E+00;  2.482816901408E+00;  0.000000000000E+00;  4.761425755309E+02;  9.286119600719E+00; -1.261864471436E+02;  3.209255371094E+02;  3.131297900905E+00; -3.570275657694E-05;  2.436934119032E-05;  1.088446160751E-09; -3.574329223633E+02;  3.574156188965E+02;  2.021156193223E-03;  0.000000000000E+00;  4.000000000000E+00;  9.454929577465E-01; -2.478611171246E-01;  5.871044158936E+00;  1.904589602319E-01;  3.452936706543E+02;  4.020333984375E+04;  2.200761289689E+04; -4.581674933434E-02;  2.340827323496E-02;  4.639268718345E-06; -1.241559179688E+04;  1.588172558594E+04;  4.231564044590E+01;  3.999997656250E+04;  4.000000390625E+04;  3.999999939481E+04; -1.418294459581E-01;  1.166006699204E-01; -1.528072594284E-03;  2.286719921875E+04;  9.143647656250E+04;  3.916969136870E+04;  0.000000000000E+00;  6.120649800504E+00;  2.003422784220E-01; -2.095193117857E-01;  6.077400207520E+00;  1.883573723672E-01;  0.000000000000E+00;  0.000000000000E+00;  0.000000000000E+00; -7.266826033592E-01;  7.615759968758E-01;  2.101587639879E-03;  0.000000000000E+00;  5.560339375000E+05;  3.170105758283E+04;
78;  4.680023426879E+00;14277; -2.000000029802E-01;  7.402658939362E+00;  2.196707246941E+00;  9.999992325902E-03;  1.000000722706E-02;  9.999999780657E-03; -4.499999880791E-01;  4.499999880791E-01; -2.888771643658E-04;  0.000000000000E+00;  1.427600000000E+04;  7.138000000000E+03;  0.000000000000E+00;  1.301666354484E+00;  1.170078165875E-01; -3.738218545914E-02;  1.301164150238E+00;  1.165836682202E-01;  0.000000000000E+00;  0.000000000000E+00;  0.000000000000E+00; -1.105591729283E-01;  1.090492531657E-01; -6.776475299573E-04;  9.656320800781E+02;  1.046199462891E+03;  9.974231900154E+02;  8.909526467323E-02;  1.119080543518E+00;  3.282830724239E-01; -2.847316992188E+04;  3.544958593750E+04; -2.142679389088E+03;  0.000000000000E+00;  3.000000000000E+00;  2.485606219794E+00;  0.000000000000E+00;  4.861849039862E+02;  9.069537963828E+00; -1.408692779541E+02;  3.278905334473E+02;  3.318438733693E+00; -1.942800008692E-05;  2.381158810749E-05;  1.401768761562E-10; -3.646432495117E+02;  3.645304870605E+02; -7.158399461074E-04;  0.000000000000E+00;  4.000000000000E+00;  9.665896196680E-01; -1.953507065773E-01;  5.980266094208E+00;  1.720452305754E-01;  3.451753845215E+02;  4.019061718750E+04;  2.188433048220E+04; -4.288223758340E-02;  2.201928012073E-02;  4.524597733130E-06; -1.160823535156E+04;  1.487230664062E+04;  3.783611383914E+01;  3.999997656250E+04;  4.000000390625E+04;  3.999999938275E+04; -1.413771957159E-01;  1.163491532207E-01; -1.512362170973E-03;  2.276443750000E+04;  9.116285156250E+04;  3.908389503714E+04;  0.000000000000E+00;  6.466629583240E+00;  1.878115402623E-01; -2.172064930201E-01;  6.449389457703E+00;  1.647313981969E-01;  0.000000000000E+00;  0.000000000000E+00;  0.000000000000E+00; -7.790889143944E-01;  7.117285728455E-01;  7.313832420726E-03;  0.000000000000E+00;  5.659303750000E+05;  3.226029233243E+04;
79;  4.740020993494E+00;14317; -2.000000029802E-01;  7.486772060394E+00;  2.217555361096E+00;  9.999992325902E-03;  1.000000722706E-02;  9.999999780906E-03; -4.499999880791E-01;  4.499999880791E-01; -3.339633898651E-04;  0.000000000000E+00;  1.431600000000E+04;  7.158000000000E+03;  0.000000000000E+00;  1.306846023752E+00;  1.118370001386E-01; -4.532937891781E-03;  1.306846022606E+00;  1.110915947625E-01;  0.000000000000E+00;  0.000000000000E+00;  0.000000000000E+00; -9.348108619452E-02;  8.378798514605E-02; -7.390015499464E-04;  9.649934082031E+02;  1.043470092773E+03;  9.972724428746E+02;  9.130930900574E-02;  1.119080543518E+00;  3.305126776726E-01; -2.900229101562E+04;  3.335022656250E+04; -2.255982824632E+03;  0.000000000000E+00;  3.000000000000E+00;  2.487043375009E+00;  0.000000000000E+00;  4.972185698062E+02;  9.919321339315E+00; -1.693713073730E+02;  3.351520385742E+02;  2.434677149452E+00; -2.504258372937E-05;  2.461067560944E-05;  1.692146808879E-10; -3.726995849609E+02;  3.724850463867E+02; -9.599067692827E-04;  0.000000000000E+00;  4.000000000000E+00;  9.771600195572E-01; -2.491775006056E-01;  6.711565494537E+00;  1.510796152918E-01;  3.451943359375E+02;  4.017859375000E+04;  2.173783929151E+04; -3.951403498650E-02;  2.045998722315E-02;  4.810641838888E-06; -1.073018945312E+04;  1.372443554688E+04;  3.342112153916E+01;  3.999997656250E+04;  4.000000390625E+04;  3.999999937820E+04; -1.409102231264E-01;  1.160966902971E-01; -1.516092259843E-03;  2.271018554688E+04;  9.101425000000E+04;  3.903483417905E+04;  0.000000000000E+00;  7.221489675125E+00;  1.659777783797E-01; -3.269470930099E-01;  7.175509929657E+00;  1.457122226388E-01;  0.000000000000E+00;  0.000000000000E+00;  0.000000000000E+00; -9.527232646942E-01;  6.047164201736E-01;  5.367392725494E-03;  0.000000000000E+00;  5.764620000000E+05;  3.269039247943E+04;
80;  4.800018007773E+00;14372; -2.000000029802E-01;  7.564502716064E+00;  2.243112539645E+00;  9.999992325902E-03;  1.000000722706E-02;  9.999999781278E-03; -4.499999880791E-01;  4.499999880791E-01; -3.753442475974E-04;  0.000000000000E+00;  1.437100000000E+04;  7.185500000000E+03;  0.000000000000E+00;  1.408649296626E+00;  1.139686166570E-01; -4.789992049336E-02;  1.408102869987E+00;  1.089503574733E-01;  0.000000000000E+00;  0.000000000000E+00;  0.000000000000E+00; -1.081771180034E-01;  1.016931086779E-01; -7.849034354485E-04;  9.650988769531E+02;  1.048185180664E+03;  9.973627758881E+02;  9.357777982950E-02;  1.119080543518E+00;  3.323955366478E-01; -2.891493554688E+04;  3.329128515625E+04; -2.195841299027E+03;  0.000000000000E+00;  3.000000000000E+00;  2.489006401336E+00;  0.000000000000E+00;  4.932518836910E+02;  9.906880868726E+00; -1.866223602295E+02;  3.316896667480E+02;  2.195241965833E+00; -4.480644929572E-05;  3.996929808636E-05; -3.131740327713E-10; -3.688718566895E+02;  3.683858947754E+02; -3.697860480252E-03;  0.000000000000E+00;  4.000000000000E+00;  9.925549679933E-01; -1.548478752375E-01;  6.091523647308E+00;  1.992526361128E-01;  3.452330017090E+02;  4.019825781250E+04;  2.160720856701E+04; -3.615589439869E-02;  1.893262192607E-02;  4.686798293311E-06; -9.864214843750E+03;  1.257473339844E+04;  2.882221384501E+01;  3.999997656250E+04;  4.000000390625E+04;  3.999999937270E+04; -1.403832584620E-01;  1.157396063209E-01; -1.518568290761E-03;  2.270841796875E+04;  9.061293750000E+04;  3.894771512519E+04;  0.000000000000E+00;  6.444443832385E+00;  2.071428508449E-01; -1.828255802393E-01;  6.406676769257E+00;  1.946896619034E-01;  0.000000000000E+00;  0.000000000000E+00;  0.000000000000E+00; -6.977243423462E-01;  6.140384078026E-01;  4.562974059297E-03;  0.000000000000E+00;  5.754563750000E+05;  3.297541432252E+04;
81;  4.860011321365E+00;14433; -2.000000029802E-01;  7.641723155975E+00;  2.270721162849E+00;  9.999989531934E-03;  1.000000908971E-02;  9.999999781322E-03; -4.499999880791E-01;  4.499999880791E-01; -4.204100052855E-04;  0.000000000000E+00;  1.443200000000E+04;  7.216000000000E+03;  0.000000000000E+00;  1.342977008437E+00;  1.110923841094E-01; -6.365700066090E-02;  1.342860937119E+00;  1.063751056387E-01;  0.000000000000E+00;  0.000000000000E+00;  0.000000000000E+00; -1.068972796202E-01;  9.864865243435E-02; -7.711052951230E-04;  9.653457641602E+02;  1.050683105469E+03;  9.974701136894E+02;  9.590502828360E-02;  1.119080543518E+00;  3.341461887025E-01; -2.871039843750E+04;  3.685661718750E+04; -2.112221509227E+03;  0.000000000000E+00;  3.000000000000E+00;  2.491166077739E+00;  0.000000000000E+00;  4.895185474085E+02;  8.841179139311E+00; -1.232805938721E+02;  3.297081909180E+02;  3.099443138048E+00; -6.575063162018E-05;  5.900972973905E-05;  8.179237243385E-10; -3.648121643066E+02;  3.642457580566E+02;  3.064567340900E-03;  0.000000000000E+00;  4.000000000000E+00;  1.009492136077E+00; -1.841176450253E-01;  5.511181831360E+00;  1.814755029794E-01;  3.452578125000E+02;  4.021956250000E+04;  2.149743262266E+04; -3.319272771478E-02;  1.761481724679E-02;  1.488824999300E-06; -9.099118164062E+03;  1.154364648438E+04;  2.648857077676E+01;  3.999997656250E+04;  4.000000390625E+04;  3.999999936587E+04; -1.399594992399E-01;  1.154554113746E-01; -1.529860899242E-03;  2.260395117188E+04;  9.013057031250E+04;  3.886021175621E+04;  0.000000000000E+00;  5.848848216572E+00;  1.919784318146E-01; -1.488366127014E-01;  5.814918994904E+00;  1.789575889430E-01;  0.000000000000E+00;  0.000000000000E+00;  0.000000000000E+00; -6.744667887688E-01;  7.423057556152E-01;  2.517913809530E-03;  0.000000000000E+00;  5.720271250000E+05;  3.339197635159E+04;
82;  4.920014691190E+00;14489; -2.000000029802E-01;  7.718886375427E+00;  2.296657181174E+00;  9.999989531934E-03;  1.000001188368E-02;  9.999999781818E-03; -4.499999880791E-01;  4.499999880791E-01; -4.853117955411E-04;  0.000000000000E+00;  1.448800000000E+04;  7.244000000000E+03;  0.000000000000E+00;  1.285929664137E+00;  1.084488898937E-01; -4.963309690356E-02;  1.285187482834E+00;  1.036970858570E-01;  0.000000000000E+00;  0.000000000000E+00;  0.000000000000E+00; -9.371876716614E-02;  8.413066715002E-02; -7.054761462442E-04;  9.654521484375E+02;  1.051124877930E+03;  9.975642420695E+02;  9.829117357731E-02;  1.119080543518E+00;  3.359867836114E-01; -2.862225195312E+04;  3.620470312500E+04; -2.028408079159E+03;  0.000000000000E+00;  3.000000000000E+00;  2.493132721375E+00;  0.000000000000E+00;  4.861766698599E+02;  8.985761059305E+00; -1.745458831787E+02;  3.277614440918E+02;  2.620190821047E+00; -2.567772753537E-05;  2.826837408065E-05;  2.778723623832E-10; -3.622613525391E+02;  3.616671447754E+02; -1.820979682939E-03;  0.000000000000E+00;  4.000000000000E+00;  1.024915453102E+00; -1.905435174704E-01;  5.738109588623E+00;  1.736548165981E-01;  3.453429260254E+02;  4.126199609375E+04;  2.139365955301E+04; -2.499889954925E-02;  3.749436885118E-02;  4.483681985738E-06; -8.327275390625E+03;  1.057938183594E+04;  2.794029719094E+01;  3.999997656250E+04;  4.000000390625E+04;  3.999999935565E+04; -1.395600140095E-01;  1.798254251480E-01; -1.505055096893E-03;  2.246433593750E+04;  8.985725781250E+04;  3.879308786447E+04;  0.000000000000E+00;  6.062897068793E+00;  1.893485606440E-01; -2.114456444979E-01;  6.054629325867E+00;  1.674865779664E-01;  0.000000000000E+00;  0.000000000000E+00;  0.000000000000E+00; -7.843437790871E-01;  8.285956978798E-01;  6.168238616100E-03;  0.000000000000E+00;  5.710401250000E+05;  3.364396271140E+04;
83;  4.980017577397E+00;14547; -2.000000029802E-01;  7.796687126160E+00;  2.323447091923E+00;  9.999989531934E-03;  1.000001188368E-02;  9.999999781860E-03; -4.499999880791E-01;  4.499999880791E-01; -5.337963628224E-04;  0.000000000000E+00;  1.454600000000E+04;  7.273000000000E+03;  0.000000000000E+00;  1.240264969399E+00;  1.077180465583E-01; -1.232137717307E-02;  1.239265441895E+00;  1.036076117929E-01;  0.000000000000E+00;  0.000000000000E+00;  0.000000000000E+00; -9.192699193954E-02;  8.450651913881E-02; -7.749751545285E-04;  9.656613159180E+02;  1.051269042969E+03;  9.976003631951E+02;  1.000000014901E-01;  1.119080543518E+00;  3.377591137545E-01; -2.844897265625E+04;  3.467535937500E+04; -1.990850844660E+03;  0.000000000000E+00;  3.000000000000E+00;  2.495153639926E+00;  0.000000000000E+00;  4.821281676660E+02;  7.580963537027E+00; -1.620610504150E+02;  3.256553955078E+02;  2.797767509030E+00; -3.483923501335E-05;  3.288401785539E-05; -1.319759572567E-09; -3.586058959961E+02;  3.578297424316E+02; -3.411751791049E-03;  0.000000000000E+00;  4.000000000000E+00;  1.040764418781E+00; -2.864984869957E-01;  6.684162139893E+00;  1.439634739999E-01;  3.453824768066E+02;  4.024839062500E+04;  2.125649257675E+04; -2.264316566288E-02;  1.257475763559E-01;  4.432401482531E-05; -7.114262207031E+03;  9.606348632812E+03;  3.313294730748E+01;  3.999997656250E+04;  4.000000390625E+04;  3.999999934882E+04; -1.391625553370E-01;  5.862190723419E-01; -1.342294380400E-03;  2.240987109375E+04;  8.972388281250E+04;  3.879939317492E+04;  0.000000000000E+00;  7.151129545742E+00;  1.686364357970E-01; -3.023144900799E-01;  7.092673301697E+00;  1.384408349529E-01;  0.000000000000E+00;  0.000000000000E+00;  0.000000000000E+00; -9.124906659126E-01;  6.344112753868E-01;  5.522638862950E-03;  0.000000000000E+00;  5.681869375000E+05;  3.380812327658E+04;
84;  5.040001205441E+00;14603; -2.000000029802E-01;  7.873852252960E+00;  2.349634281772E+00;  9.999989531934E-03;  1.000001188368E-02;  9.999999782733E-03; -4.499999880791E-01;  4.499999880791E-01; -5.970066518794E-04;  0.000000000000E+00;  1.460200000000E+04;  7.301000000000E+03;  0.000000000000E+00;  1.392923878750E+00;  1.070729162805E-01; -1.911527477205E-02;  1.392908215523E+00;  1.020150246499E-01;  0.000000000000E+00;  0.000000000000E+00;  0.000000000000E+00; -9.002014249563E-02;  7.612789422274E-02; -1.053863475850E-03;  9.658592529297E+02;  1.053612792969E+03;  9.976047674538E+02;  1.000000014901E-01;  1.119080543518E+00;  3.395888706991E-01; -2.828497851562E+04;  3.364790625000E+04; -1.988918973243E+03;  0.000000000000E+00;  3.000000000000E+00;  2.497089639115E+00;  0.000000000000E+00;  4.767629288300E+02;  9.510577872733E+00; -1.401923828125E+02;  3.222489013672E+02;  2.391796872895E+00; -3.106015719823E-05;  2.738807052083E-05; -9.794850151699E-10; -3.547890319824E+02;  3.539278564453E+02; -3.381876260761E-03;  0.000000000000E+00;  4.000000000000E+00;  1.055947408067E+00; -8.790322393179E-02;  6.995082855225E+00;  1.731861430084E-01;  3.454754943848E+02;  4.026283203125E+04;  2.108315646038E+04; -2.028910629451E-02;  1.111606955528E-01;  3.991294258558E-05; -6.587229980469E+03;  8.747729492188E+03;  3.822967673555E+01;  3.999997656250E+04;  4.000000390625E+04;  3.999999934062E+04; -1.386878788471E-01;  5.856485962868E-01; -1.361189154603E-03;  2.235909570312E+04;  8.950821875000E+04;  3.892358247422E+04;  0.000000000000E+00;  7.650774472105E+00;  1.828953410605E-01; -2.623582780361E-01;  7.596547126770E+00;  1.681212863443E-01;  0.000000000000E+00;  0.000000000000E+00;  0.000000000000E+00; -9.989365935326E-01;  6.098611950874E-01;  5.064856589549E-03;  0.000000000000E+00;  5.655874375000E+05;  3.397524487163E+04;
85;  5.100047085261E+00;14668; -2.000000029802E-01;  7.950614452362E+00;  2.379182459992E+00;  9.999989531934E-03;  1.000001188368E-02;  9.999999783022E-03; -4.499999880791E-01;  4.499999880791E-01; -6.551730180579E-04;  0.000000000000E+00;  1.466700000000E+04;  7.333500000000E+03;  0.000000000000E+00;  1.388528880186E+00;  1.077771753006E-01; -7.762864977121E-02;  1.388211607933E+00;  1.012409651410E-01;  0.000000000000E+00;  0.000000000000E+00;  0.000000000000E+00; -1.162135377526E-01;  9.972032159567E-02; -1.372378788025E-03;  9.661386108398E+02;  1.057753295898E+03;  9.976980360253E+02;  1.000000014901E-01;  1.119080543518E+00;  3.412175354501E-01; -2.805352734375E+04;  3.631469921875E+04; -1.922848900815E+03;  0.000000000000E+00;  3.000000000000E+00;  2.499318243796E+00;  0.000000000000E+00;  4.713966361528E+02;  9.025472916450E+00; -1.549842376709E+02;  3.193607177734E+02;  2.436244694178E+00; -6.887769995956E-05;  5.886984581593E-05;  2.745856435524E-10; -3.502011108398E+02;  3.493144226074E+02; -8.457549069410E-03;  0.000000000000E+00;  4.000000000000E+00;  1.073425143169E+00; -1.972692012787E-01;  6.344542503357E+00;  1.906894843107E-01;  3.454795227051E+02;  4.027925390625E+04;  2.095042691358E+04; -1.798017881811E-02;  9.682334959507E-02;  3.718943654656E-05; -6.070558593750E+03;  8.191189941406E+03;  3.677230398409E+01;  3.999997656250E+04;  4.000000781250E+04;  3.999999933715E+04; -1.382468044758E-01;  5.853965878487E-01; -1.398805459540E-03;  2.233037890625E+04;  8.916169531250E+04;  3.906387311292E+04;  0.000000000000E+00;  6.613330414654E+00;  2.017032479911E-01; -1.807207614183E-01;  6.608077526093E+00;  1.888488077255E-01;  0.000000000000E+00;  0.000000000000E+00;  0.000000000000E+00; -1.006251931190E+00;  7.126365303993E-01;  1.840676545566E-03;  0.000000000000E+00;  5.615065625000E+05;  3.418454587921E+04;
86;  5.160043099639E+00;14735; -2.000000029802E-01;  8.027751922607E+00;  2.409651264027E+00;  9.999989531934E-03;  1.000001188368E-02;  9.999999783372E-03; -4.499999880791E-01;  4.499999880791E-01; -7.419250771538E-04;  0.000000000000E+00;  1.473400000000E+04;  7.367000000000E+03;  0.000000000000E+00;  1.329420129602E+00;  1.085460164810E-01; -6.753321737051E-02;  1.329407453537E+00;  1.030232712819E-01;  0.000000000000E+00;  0.000000000000E+00;  0.000000000000E+00; -1.118507832289E-01;  8.718795329332E-02; -1.760453421019E-03;  9.662021484375E+02;  1.059666259766E+03;  9.978152942711E+02;  9.655045717955E-02;  1.119080543518E+00;  3.427879399138E-01; -2.800088671875E+04;  3.778734375000E+04; -1.825718336362E+03;  0.000000000000E+00;  3.000000000000E+00;  2.501594842212E+00;  0.000000000000E+00;  4.714148905006E+02;  8.758273228869E+00; -1.200996398926E+02;  3.196083679199E+02;  2.137122699559E+00; -1.005446538329E-04;  8.389630238526E-05;  1.666178569331E-09; -3.512779541016E+02;  3.503766174316E+02; -1.424321321301E-02;  0.000000000000E+00;  4.000000000000E+00;  1.091279267051E+00; -1.985723078251E-01;  5.058236598969E+00;  1.889159672265E-01;  3.455892333984E+02;  4.028264062500E+04;  2.085649159883E+04; -1.589338295162E-02;  8.353614807129E-02;  3.435492079107E-05; -4.859353515625E+03;  6.152903808594E+03;  3.063313968800E+01;  3.999997656250E+04;  4.000000781250E+04;  3.999999933433E+04; -1.378707140684E-01;  5.842434167862E-01; -1.399356988217E-03;  2.230033007812E+04;  8.866601562500E+04;  3.917070189043E+04;  0.000000000000E+00;  5.400038676423E+00;  2.033716021487E-01; -1.816886961460E-01;  5.388504981995E+00;  1.891665655743E-01;  0.000000000000E+00;  0.000000000000E+00;  0.000000000000E+00; -6.091473698616E-01;  7.094333171844E-01; -2.505984775164E-04;  0.000000000000E+00;  5.613421875000E+05;  3.452292419447E+04;
87;  5.220026339886E+00;14798; -2.000000029802E-01;  8.105283737183E+00;  2.438881276891E+00;  9.999989531934E-03;  1.000001188368E-02;  9.999999783406E-03; -4.499999880791E-01;  4.499999880791E-01; -8.830101583342E-04;  0.000000000000E+00;  1.479700000000E+04;  7.398500000000E+03;  0.000000000000E+00;  1.256183920553E+00;  1.074022967568E-01; -3.394221886992E-02;  1.255886554718E+00;  1.029604676520E-01;  0.000000000000E+00;  0.000000000000E+00;  0.000000000000E+00; -1.102107986808E-01;  7.833313941956E-02; -2.149953720678E-03;  9.665910644531E+02;  1.059477539062E+03;  9.979222454551E+02;  9.213905781507E-02;  1.119080543518E+00;  3.444013858723E-01; -2.767867382812E+04;  3.756949218750E+04; -1.729767033578E+03;  0.000000000000E+00;  3.000000000000E+00;  2.503716718475E+00;  0.000000000000E+00;  4.610230853889E+02;  7.249748675449E+00; -1.800563049316E+02;  3.123897399902E+02;  2.694218357218E+00; -8.863725088304E-05;  8.346445974894E-05; -1.561740054351E-09; -3.432125244141E+02;  3.422838745117E+02;  8.621724326357E-04;  0.000000000000E+00;  4.000000000000E+00;  1.107919989188E+00; -2.389109730721E-01;  6.507929325104E+00;  1.364071892193E-01;  3.456546325684E+02;  4.030386328125E+04;  2.078217565131E+04; -1.399028766900E-02;  7.192189246416E-02;  3.324098948711E-05; -4.288867187500E+03;  5.636196289062E+03;  2.183253107555E+01;  3.999997656250E+04;  4.000000781250E+04;  3.999999932529E+04; -1.375220865011E-01;  5.825134515762E-01; -1.457044406219E-03;  2.213113281250E+04;  8.840500781250E+04;  3.930192173061E+04;  0.000000000000E+00;  6.980859714762E+00;  1.566534845786E-01; -2.679255008698E-01;  6.965734958649E+00;  1.279611281985E-01;  0.000000000000E+00;  0.000000000000E+00;  0.000000000000E+00; -8.082344532013E-01;  6.306526064873E-01;  8.446061352128E-03;  0.000000000000E+00;  5.554610000000E+05;  3.475890829153E+04;
88;  5.280032962293E+00;14905; -2.000000029802E-01;  8.183099746704E+00;  2.484553769374E+00;  9.999989531934E-03;  1.000001188368E-02;  9.999999783606E-03; -4.499999880791E-01;  4.499999880791E-01; -1.062323111377E-03;  0.000000000000E+00;  1.490400000000E+04;  7.452000000000E+03;  0.000000000000E+00;  1.406183161785E+00;  1.095793536826E-01; -3.902906924486E-02;  1.405827522278E+00;  1.043437277915E-01;  0.000000000000E+00;  0.000000000000E+00;  0.000000000000E+00; -1.004373878241E-01;  6.424878537655E-02; -2.303804258657E-03;  9.668868408203E+02;  1.060059448242E+03;  9.978195038139E+02;  8.355490863323E-02;  1.119080543518E+00;  3.449335679877E-01; -2.743364453125E+04;  3.800682421875E+04; -1.810873283076E+03;  0.000000000000E+00;  3.000000000000E+00;  2.507279436431E+00;  0.000000000000E+00;  4.571984081731E+02;  9.113069442005E+00; -1.788229980469E+02;  3.109120178223E+02;  2.483352780151E+00; -3.974776700488E-05;  3.492708856356E-05;  9.000706397530E-10; -3.396511535645E+02;  3.385152587891E+02;  4.898428794889E-03;  0.000000000000E+00;  4.000000000000E+00;  1.135860449514E+00; -1.014443486929E-01;  6.797086715698E+00;  1.507886696536E-01;  3.456352233887E+02;  4.031641796875E+04;  2.077440605014E+04; -1.201727148145E-02;  6.074412539601E-02;  2.968605201047E-05; -3.697282714844E+03;  5.204364746094E+03;  1.537873949758E+01;  3.999997656250E+04;  4.000000781250E+04;  3.999999930392E+04; -1.370785683393E-01;  5.806496143341E-01; -1.451582053886E-03;  2.200636132812E+04;  8.831456250000E+04;  3.954670024963E+04;  0.000000000000E+00;  7.198843129772E+00;  1.602686025455E-01; -2.465468198061E-01;  7.165037155151E+00;  1.462658956221E-01;  0.000000000000E+00;  0.000000000000E+00;  0.000000000000E+00; -7.942261099815E-01;  5.579984188080E-01;  4.522774104898E-03;  0.000000000000E+00;  5.512984375000E+05;  3.528219781903E+04;
89;  5.340029209233E+00;14972; -2.000000029802E-01;  8.260386466980E+00;  2.515831545115E+00;  9.999989531934E-03;  1.000001188368E-02;  9.999999784196E-03; -4.499999880791E-01;  4.499999880791E-01; -1.169351235765E-03;  0.000000000000E+00;  1.497100000000E+04;  7.485500000000E+03;  0.000000000000E+00;  1.369855271089E+00;  1.133095208441E-01; -6.232104822993E-02;  1.369754314423E+00;  1.054040890835E-01;  0.000000000000E+00;  0.000000000000E+00;  0.000000000000E+00; -1.144515201449E-01;  8.021876215935E-02; -2.135324568043E-03;  9.666965942383E+02;  1.063764770508E+03;  9.979172195610E+02;  7.750251144171E-02;  1.119080543518E+00;  3.463619316996E-01; -2.759121875000E+04;  4.047248046875E+04; -1.741551267023E+03;  0.000000000000E+00;  3.000000000000E+00;  2.509484370826E+00;  0.000000000000E+00;  4.646067780644E+02;  8.842760514715E+00; -1.240271148682E+02;  3.155405273438E+02;  1.403467962993E+00; -5.287766907713E-05;  3.815006857621E-05; -3.840638455855E-10; -3.477294311523E+02;  3.464573669434E+02; -5.090725381363E-03;  0.000000000000E+00;  4.000000000000E+00;  1.153152551429E+00; -1.626992821693E-01;  5.685853481293E+00;  1.979880663501E-01;  3.457304382324E+02;  4.030419140625E+04;  2.079139662390E+04; -1.008223649114E-02;  5.001301690936E-02;  2.622191466854E-05; -3.125005615234E+03;  4.811345214844E+03;  1.145044403916E+01;  3.999997656250E+04;  4.000000781250E+04;  3.999999928852E+04; -1.366581916809E-01;  5.800398588181E-01; -1.439077472402E-03;  2.194113671875E+04;  8.803314843750E+04;  3.966120614052E+04;  0.000000000000E+00;  6.006163205957E+00;  2.088495646987E-01; -1.161524504423E-01;  5.971749782562E+00;  1.980686093131E-01;  0.000000000000E+00;  0.000000000000E+00;  0.000000000000E+00; -7.478446960449E-01;  6.575296521187E-01; -8.054329633000E-05;  0.000000000000E+00;  5.550843125000E+05;  3.569627500301E+04;
90;  5.400038063708E+00;15035; -2.000000029802E-01;  8.337587356567E+00;  2.545556972740E+00;  9.999989531934E-03;  1.000001188368E-02;  9.999999784845E-03; -4.499999880791E-01;  4.499999880791E-01; -1.382309652248E-03;  0.000000000000E+00;  1.503400000000E+04;  7.517000000000E+03;  0.000000000000E+00;  1.307391541441E+00;  1.161594863724E-01; -8.637776225805E-02;  1.307386279106E+00;  1.055716728857E-01;  0.000000000000E+00;  0.000000000000E+00;  0.000000000000E+00; -1.199432015419E-01;  8.333810418844E-02; -1.905869731676E-03;  9.670715942383E+02;  1.064272949219E+03;  9.981320096248E+02;  7.720849663019E-02;  1.119080543518E+00;  3.478569827857E-01; -2.728056250000E+04;  4.092291406250E+04; -1.561359567286E+03;  0.000000000000E+00;  3.000000000000E+00;  2.511539740605E+00;  0.000000000000E+00;  4.517472572479E+02;  8.081583127631E+00; -1.381249084473E+02;  3.056808166504E+02;  2.150604381059E+00; -6.681947706966E-05;  5.545175008592E-05;  2.514292823969E-10; -3.377644653320E+02;  3.361119995117E+02; -3.104494318597E-03;  0.000000000000E+00;  4.000000000000E+00;  1.169271699368E+00; -1.543590426445E-01;  5.490808486938E+00;  1.673460392760E-01;  3.458629455566E+02;  4.032596875000E+04;  2.079516206069E+04; -8.314283564687E-03;  4.038456827402E-02;  2.306905661159E-05; -2.606817382812E+03;  4.458145019531E+03;  8.606737599877E+00;  3.999997656250E+04;  4.000000781250E+04;  3.999999927643E+04; -1.357529461384E-01;  5.799887776375E-01; -1.465006868466E-03;  2.188465039062E+04;  8.756077343750E+04;  3.975323638256E+04;  0.000000000000E+00;  5.902680814075E+00;  1.813992648959E-01; -2.021851092577E-01;  5.889219760895E+00;  1.632142361361E-01;  0.000000000000E+00;  0.000000000000E+00;  0.000000000000E+00; -6.819898486137E-01;  7.428662776947E-01;  4.131803496986E-03;  0.000000000000E+00;  5.490741875000E+05;  3.618357597961E+04;
91;  5.460054943898E+00;15110; -2.000000029802E-01;  8.414817810059E+00;  2.579982807924E+00;  9.999989531934E-03;  1.000001188368E-02;  9.999999784372E-03; -4.499999880791E-01;  4.499999880791E-01; -1.526170418788E-03;  0.000000000000E+00;  1.510900000000E+04;  7.554500000000E+03;  0.000000000000E+00;  1.236148795719E+00;  1.154938261788E-01; -4.761725291610E-02;  1.235750555992E+00;  1.039680804727E-01;  0.000000000000E+00;  0.000000000000E+00;  0.000000000000E+00; -1.086132153869E-01;  7.661576569080E-02; -1.545724536404E-03;  9.678066406250E+02;  1.063492309570E+03;  9.982192313456E+02;  7.624372839928E-02;  1.119080543518E+00;  3.490377609725E-01; -2.667159179688E+04;  4.054244921875E+04; -1.479783092489E+03;  0.000000000000E+00;  3.000000000000E+00;  2.513964262078E+00;  0.000000000000E+00;  4.353321840231E+02;  6.740874630188E+00; -1.517999877930E+02;  2.952093505859E+02;  2.717023153468E+00; -9.506517380942E-05;  7.143618131522E-05;  2.100759265008E-09; -3.236112365723E+02;  3.216550598145E+02;  8.157511022601E-03;  0.000000000000E+00;  4.000000000000E+00;  1.188285903375E+00; -2.646082937717E-01;  6.745568275452E+00;  1.114071045629E-01;  3.460103454590E+02;  4.255829687500E+04;  2.087957379753E+04; -6.818287540227E-03;  3.267710655928E-02;  2.031663585773E-05; -2.228038818359E+03;  4.075281738281E+03;  6.311817634321E+00;  3.999997656250E+04;  4.000000781250E+04;  3.999999925753E+04; -1.354648917913E-01;  5.790805220604E-01; -1.514115398306E-03;  2.180657226562E+04;  8.717236718750E+04;  3.985194687500E+04;  0.000000000000E+00;  7.172100619960E+00;  1.392435426321E-01; -2.894532680511E-01;  7.160110473633E+00;  1.010940141688E-01;  0.000000000000E+00;  0.000000000000E+00;  0.000000000000E+00; -8.176122903824E-01;  6.232884526253E-01;  1.031309036156E-02;  0.000000000000E+00;  5.373846875000E+05;  3.642732039747E+04;
92;  5.520003698150E+00;15162; -2.000000029802E-01;  8.491512298584E+00;  2.605915848161E+00;  9.999989531934E-03;  1.000001188368E-02;  9.999999784591E-03; -4.499999880791E-01;  4.499999880791E-01; -1.634521417172E-03;  0.000000000000E+00;  1.516100000000E+04;  7.580500000000E+03;  0.000000000000E+00;  1.361493554072E+00;  1.135811148139E-01; -3.094848059118E-02;  1.361162662506E+00;  1.015784711300E-01;  0.000000000000E+00;  0.000000000000E+00;  0.000000000000E+00; -9.006144851446E-02;  6.570614874363E-02; -1.158371043787E-03;  9.684139404297E+02;  1.064388305664E+03;  9.982238273907E+02;  7.531701028347E-02;  1.119080543518E+00;  3.507103310973E-01; -2.616844531250E+04;  4.118197265625E+04; -1.472370899068E+03;  0.000000000000E+00;  3.000000000000E+00;  2.515631183221E+00;  0.000000000000E+00;  4.248872104986E+02;  8.677411672570E+00; -1.367036590576E+02;  2.897536010742E+02;  2.143791865180E+00; -7.262355211424E-05;  8.331275603268E-05;  2.966725820676E-09; -3.143893432617E+02;  3.121929931641E+02; -4.632458099997E-03;  0.000000000000E+00;  4.000000000000E+00;  1.201358659807E+00; -1.166129261255E-01;  6.741332530975E+00;  1.320549866490E-01;  3.461506958008E+02;  4.612864843750E+04;  2.091217422784E+04; -5.703727714717E-03;  2.664211392403E-02;  1.797836002702E-05; -1.945402465820E+03;  3.684925537109E+03;  4.527186142685E+00;  3.999997656250E+04;  4.000000781250E+04;  3.999999924075E+04; -1.351175159216E-01;  5.778005719185E-01; -1.502890046232E-03;  2.178478515625E+04;  8.696410937500E+04;  3.989868698190E+04;  0.000000000000E+00;  7.310816203566E+00;  1.449141818757E-01; -2.673852443695E-01;  7.266251564026E+00;  1.270477864816E-01;  0.000000000000E+00;  0.000000000000E+00;  0.000000000000E+00; -8.059911727905E-01;  5.620468258858E-01;  5.007200193942E-03;  0.000000000000E+00;  5.284902500000E+05;  3.665107368079E+04;
93;  5.580019866767E+00;15204; -2.000000029802E-01;  8.568062782288E+00;  2.628230320753E+00;  9.999989531934E-03;  1.000001188368E-02;  9.999999784813E-03; -4.499999880791E-01;  4.499999880791E-01; -1.747230562439E-03;  0.000000000000E+00;  1.520300000000E+04;  7.601500000000E+03;  0.000000000000E+00;  1.392564996083E+00;  1.164400847920E-01; -4.835395887494E-02;  1.391601085663E+00;  1.041922037757E-01;  0.000000000000E+00;  0.000000000000E+00;  0.000000000000E+00; -1.113436371088E-01;  8.196821063757E-02; -9.907296466751E-04;  9.689619140625E+02;  1.068578002930E+03;  9.984014207880E+02;  7.502639293671E-02;  1.119080543518E+00;  3.526008646088E-01; -2.571448242188E+04;  4.391621093750E+04; -1.335707678257E+03;  0.000000000000E+00;  3.000000000000E+00;  2.516969218627E+00;  0.000000000000E+00;  4.141945323272E+02;  8.496621910792E+00; -1.192921371460E+02;  2.832972106934E+02;  6.074843546980E-01; -6.634998135269E-05;  6.205763929756E-05;  2.651447903997E-09; -3.068015441895E+02;  3.044164733887E+02;  4.298835354810E-03;  0.000000000000E+00;  4.000000000000E+00;  1.211852144173E+00; -1.310965567827E-01;  6.177862644196E+00;  1.857869587161E-01;  2.816832580566E+02;  5.036037109375E+04;  2.093679232798E+04; -4.851169884205E-03;  2.543098106980E-02;  1.651924857017E-05; -1.788379638672E+03;  3.305527832031E+03;  3.299916229477E+00;  3.999997656250E+04;  4.000000781250E+04;  3.999999922898E+04; -1.347272396088E-01;  5.779135823250E-01; -1.489266910077E-03;  2.170676953125E+04;  8.681307031250E+04;  3.991831553348E+04;  0.000000000000E+00;  6.598214450481E+00;  1.953734641593E-01; -9.924716502428E-02;  6.564280033112E+00;  1.846256236981E-01;  0.000000000000E+00;  0.000000000000E+00;  0.000000000000E+00; -6.683274507523E-01;  5.961025357246E-01;  1.161335088302E-03;  0.000000000000E+00;  5.206042812500E+05;  3.682218025531E+04;
94;  5.640019749961E+00;15236; -2.000000029802E-01;  8.645120620728E+00;  2.646875103875E+00;  9.999989531934E-03;  1.000001188368E-02;  9.999999785163E-03; -4.499999880791E-01;  4.499999880791E-01; -1.818309193702E-03;  0.000000000000E+00;  1.523500000000E+04;  7.617500000000E+03;  0.000000000000E+00;  1.350101450278E+00;  1.173173674985E-01; -6.020673736930E-02;  1.350056290627E+00;  1.075088527783E-01;  0.000000000000E+00;  0.000000000000E+00;  0.000000000000E+00; -1.119622290134E-01;  9.419306367636E-02; -4.431815031378E-04;  9.692695922852E+02;  1.070653808594E+03;  9.986117382936E+02;  7.524472475052E-02;  1.119080543518E+00;  3.547287935625E-01; -2.545957617188E+04;  4.534871093750E+04; -1.165731359830E+03;  0.000000000000E+00;  3.000000000000E+00;  2.517983722762E+00;  0.000000000000E+00;  4.005983317969E+02;  7.242035957473E+00; -1.068324432373E+02;  2.748611145020E+02;  1.014620611251E+00; -5.985013194731E-05;  5.523398431251E-05;  1.379405538587E-09; -2.964632873535E+02;  2.941049194336E+02;  1.761378164943E-03;  0.000000000000E+00;  4.000000000000E+00;  1.219808348648E+00; -1.762622445822E-01;  5.618987083435E+00;  1.731005041986E-01;  2.300494537354E+02;  5.242185937500E+04;  2.094351658998E+04; -4.800260532647E-03;  2.550322376192E-02;  1.545462668636E-05; -1.663451416016E+03;  2.947198242188E+03;  2.806930020190E+00;  3.999997656250E+04;  4.000000781250E+04;  3.999999922290E+04; -1.343923360109E-01;  5.775201916695E-01; -1.495285534914E-03;  2.166712109375E+04;  8.656232031250E+04;  3.991576608354E+04;  0.000000000000E+00;  5.749661781383E+00;  1.861948333325E-01; -1.363407373428E-01;  5.734608650208E+00;  1.735811757517E-01;  0.000000000000E+00;  0.000000000000E+00;  0.000000000000E+00; -6.511865854263E-01;  7.020881175995E-01; -4.806714195444E-04;  0.000000000000E+00;  5.103800625000E+05;  3.700240303956E+04;
95;  5.700013264758E+00;15273; -2.000000029802E-01;  8.722471237183E+00;  2.667650947760E+00;  9.999989531934E-03;  1.000001188368E-02;  9.999999785081E-03; -4.499999880791E-01;  4.499999880791E-01; -1.835917215965E-03;  0.000000000000E+00;  1.527200000000E+04;  7.636000000000E+03;  0.000000000000E+00;  1.319086631486E+00;  1.141824347377E-01; -5.334633961320E-02;  1.318706274033E+00;  1.100781267292E-01;  0.000000000000E+00;  0.000000000000E+00;  0.000000000000E+00; -9.129435569048E-02;  8.892423659563E-02;  5.722037517463E-04;  9.691027832031E+02;  1.071432983398E+03;  9.987561192729E+02;  7.555449008942E-02;  1.119080543518E+00;  3.567425822601E-01; -2.559774609375E+04;  4.603616406250E+04; -1.043665372188E+03;  0.000000000000E+00;  3.000000000000E+00;  2.519151443724E+00;  0.000000000000E+00;  3.917271482596E+02;  7.161111895065E+00; -1.427118530273E+02;  2.698627319336E+02;  1.988207500252E+00; -5.637392678182E-05;  5.912170308875E-05;  7.009058636891E-10; -2.900291137695E+02;  2.881608276367E+02;  9.779792767083E-03;  0.000000000000E+00;  4.000000000000E+00;  1.228966149414E+00; -1.472732275724E-01;  5.511206150055E+00;  1.374081371150E-01;  2.246227569580E+02;  5.403848046875E+04;  2.096748310596E+04; -4.797583445907E-03;  2.550111524761E-02;  1.443960074185E-05; -1.538541748047E+03;  2.619250244141E+03;  2.704470721986E+00;  3.999997656250E+04;  4.000000781250E+04;  3.999999921507E+04; -1.341054886580E-01;  5.776355862617E-01; -1.466464177654E-03;  2.165141992188E+04;  8.624195312500E+04;  3.991611765311E+04;  0.000000000000E+00;  5.860411950964E+00;  1.478330577653E-01; -1.785940229893E-01;  5.850577354431E+00;  1.310156875741E-01;  0.000000000000E+00;  0.000000000000E+00;  0.000000000000E+00; -7.350919246674E-01;  7.185119986534E-01;  6.392449587178E-03;  0.000000000000E+00;  5.113544687500E+05;  3.735610231118E+04;
96;  5.760009971827E+00;15300; -2.000000029802E-01;  8.800996780396E+00;  2.684617957591E+00;  9.999989531934E-03;  1.000001188368E-02;  9.999999784822E-03; -4.499999880791E-01;  4.499999880791E-01; -1.802218962368E-03;  0.000000000000E+00;  1.529900000000E+04;  7.649500000000E+03;  0.000000000000E+00;  1.258491689942E+00;  1.110139562103E-01; -7.376836147159E-03;  1.257788062096E+00;  1.102042992686E-01;  0.000000000000E+00;  0.000000000000E+00;  0.000000000000E+00; -1.124859154224E-01;  9.735251218081E-02;  1.111619845673E-03;  9.689723510742E+02;  1.071140136719E+03;  9.986691621070E+02;  7.670856267214E-02;  1.119080543518E+00;  3.589826028273E-01; -2.570584179688E+04;  4.583366406250E+04; -1.107777139882E+03;  0.000000000000E+00;  3.000000000000E+00;  2.520000000000E+00;  0.000000000000E+00;  3.941236877998E+02;  6.189709524000E+00; -1.723820800781E+02;  2.719839477539E+02;  2.238234748636E+00; -6.894918624312E-05;  6.468986248365E-05;  3.158040231010E-09; -2.940790405273E+02;  2.931506652832E+02;  1.047210192571E-02;  0.000000000000E+00;  5.000000000000E+00;  1.236209150327E+00; -2.407801151276E-01;  6.576765537262E+00;  1.027508371243E-01;  1.971142120361E+02;  5.392396875000E+04;  2.089059093566E+04; -4.797104280442E-03;  2.550372108817E-02;  1.334228258826E-05; -1.412354248047E+03;  2.297585205078E+03;  3.310194390470E+00;  3.999997656250E+04;  4.000000781250E+04;  3.999999921160E+04; -1.338635385036E-01;  5.775887370110E-01; -1.470136944919E-03;  2.166578906250E+04;  8.598778125000E+04;  3.992384450061E+04;  0.000000000000E+00;  7.075592157466E+00;  1.244369771385E-01; -2.801713943481E-01;  7.059011459351E+00;  9.379868000696E-02;  0.000000000000E+00;  0.000000000000E+00;  0.000000000000E+00; -7.456760406494E-01;  6.772283911705E-01;  8.952157088036E-03;  0.000000000000E+00;  5.175390937500E+05;  3.755946295289E+04;
97;  5.820007864482E+00;15330; -2.000000029802E-01;  8.879467010498E+00;  2.702905597971E+00;  9.999989531934E-03;  1.000001188368E-02;  9.999999785474E-03; -4.499999880791E-01;  4.499999880791E-01; -1.731484164252E-03;  0.000000000000E+00;  1.532900000000E+04;  7.664500000000E+03;  0.000000000000E+00;  1.379932169139E+00;  1.101468596207E-01; -6.296481587924E-04;  1.379864692688E+00;  1.096949893195E-01;  0.000000000000E+00;  0.000000000000E+00;  0.000000000000E+00; -7.954984158278E-02;  7.381839305162E-02;  1.031629594514E-03;  9.687886352539E+02;  1.071622070312E+03;  9.984815062123E+02;  7.704878598452E-02;  1.119080543518E+00;  3.611405466649E-01; -2.585803320312E+04;  4.610553515625E+04; -1.257625880461E+03;  0.000000000000E+00;  3.000000000000E+00;  2.520939334638E+00;  0.000000000000E+00;  4.063208107605E+02;  8.199016947481E+00; -1.416946258545E+02;  2.787317199707E+02;  1.605256035751E+00; -7.094463944668E-05;  6.280320667429E-05;  1.471826751358E-09; -3.061155395508E+02;  3.049913940430E+02; -5.493200474503E-03;  0.000000000000E+00;  5.000000000000E+00;  1.244357469015E+00; -1.547402292490E-01;  6.960065841675E+00;  1.248672824307E-01;  1.786248016357E+02;  5.685986328125E+04;  2.081774562028E+04; -4.797075409442E-03;  2.553164586425E-02;  1.266090130931E-05; -1.289234619141E+03;  1.976375976562E+03;  3.960544740540E+00;  3.999997656250E+04;  4.000000781250E+04;  3.999999920346E+04; -1.335763633251E-01;  5.775451660156E-01; -1.453839479728E-03;  2.165925585938E+04;  8.582464843750E+04;  3.993242299247E+04;  0.000000000000E+00;  7.656449420571E+00;  1.340818092524E-01; -2.590907812119E-01;  7.612972259521E+00;  1.208189484353E-01;  0.000000000000E+00;  0.000000000000E+00;  0.000000000000E+00; -8.745731115341E-01;  6.562184691429E-01;  4.048333990146E-03;  0.000000000000E+00;  5.221308750000E+05;  3.771644350294E+04;
98;  5.880011507833E+00;15355; -2.000000029802E-01;  8.958191871643E+00;  2.719356642497E+00;  9.999989531934E-03;  1.000001188368E-02;  9.999999785580E-03; -4.499999880791E-01;  4.499999880791E-01; -1.668693261620E-03;  0.000000000000E+00;  1.535400000000E+04;  7.677000000000E+03;  0.000000000000E+00;  1.437649757145E+00;  1.130071608092E-01; -2.266623266041E-02;  1.437379360199E+00;  1.124599988952E-01;  0.000000000000E+00;  0.000000000000E+00;  0.000000000000E+00; -1.017391309142E-01;  8.339259773493E-02;  3.464368032121E-04;  9.687431030273E+02;  1.075738159180E+03;  9.984418558352E+02;  7.863077521324E-02;  1.119080543518E+00;  3.633981226487E-01; -2.589576171875E+04;  4.884523046875E+04; -1.301980765509E+03;  0.000000000000E+00;  3.000000000000E+00;  2.521719309671E+00;  0.000000000000E+00;  4.166354579751E+02;  8.057198852876E+00; -1.486179809570E+02;  2.846418762207E+02;  6.751041003308E-01; -6.148991815280E-05;  6.089985981816E-05;  2.902274925489E-09; -3.131235656738E+02;  3.119032897949E+02; -1.619851461429E-02;  0.000000000000E+00;  5.000000000000E+00;  1.251318788668E+00; -1.375403255224E-01;  6.298197746277E+00;  1.788508778199E-01;  1.567251739502E+02;  5.697953515625E+04;  2.073541064677E+04; -4.795139189810E-03;  2.553827315569E-02;  1.183450843854E-05; -1.185626586914E+03;  1.666927246094E+03;  4.615873623736E+00;  3.999997656250E+04;  4.000000781250E+04;  3.999999920171E+04; -1.332138329744E-01;  5.775282979012E-01; -1.442743584481E-03;  2.165707226562E+04;  8.585597656250E+04;  3.993652894746E+04;  0.000000000000E+00;  6.588321252379E+00;  1.838353740008E-01; -1.628777235746E-01;  6.554027080536E+00;  1.774928698867E-01;  0.000000000000E+00;  0.000000000000E+00;  0.000000000000E+00; -7.998498678207E-01;  7.206349968910E-01;  1.358007893514E-03;  0.000000000000E+00;  5.287626875000E+05;  3.790398988532E+04;
99;  5.940051237520E+00;15395; -2.000000029802E-01;  9.037533760071E+00;  2.741661834977E+00;  9.999989531934E-03;  1.000001188368E-02;  9.999999785073E-03; -4.499999880791E-01;  4.499999880791E-01; -1.726054395530E-03;  0.000000000000E+00;  1.539400000000E+04;  7.697000000000E+03;  0.000000000000E+00;  1.385673265200E+00;  1.163273337992E-01; -2.823711745441E-02;  1.385068893433E+00;  1.155821546842E-01;  0.000000000000E+00;  0.000000000000E+00;  0.000000000000E+00; -1.222742348909E-01;  6.871513277292E-02; -9.613881907573E-04;  9.684930419922E+02;  1.077897949219E+03;  9.983714925421E+02;  7.986781001091E-02;  1.119080543518E+00;  3.652988806173E-01; -2.610291601562E+04;  5.036753515625E+04; -1.366069464570E+03;  0.000000000000E+00;  3.000000000000E+00;  2.522962000650E+00;  0.000000000000E+00;  4.348854264521E+02;  7.018910649488E+00; -1.208096160889E+02;  2.968430175781E+02;  1.634275468577E+00; -6.051660966477E-05;  6.129137182143E-05;  4.104161238889E-09; -3.271254272461E+02;  3.257376403809E+02; -1.378150059680E-02;  0.000000000000E+00;  5.000000000000E+00;  1.262682689185E+00; -1.804080307484E-01;  5.499572753906E+00;  1.640655599369E-01;  1.519097900391E+02;  5.680972656250E+04;  2.065406031683E+04; -4.793280269951E-03;  2.552893757820E-02;  1.121713062482E-05; -1.186213989258E+03;  1.450466796875E+03;  4.864634357810E+00;  3.999997656250E+04;  4.000000781250E+04;  3.999999919693E+04; -1.328967362642E-01;  5.775904655457E-01; -1.480478098827E-03;  2.166155859375E+04;  8.582421093750E+04;  3.996423534642E+04;  0.000000000000E+00;  5.752026248319E+00;  1.729418483028E-01; -1.471472829580E-01;  5.713686943054E+00;  1.644236554538E-01;  0.000000000000E+00;  0.000000000000E+00;  0.000000000000E+00; -7.112632989883E-01;  7.666656374931E-01; -3.580955048794E-04;  0.000000000000E+00;  5.289331250000E+05;  3.829687516601E+04;
100;  6.000031822552E+00;15454; -2.000000029802E-01;  9.116876602173E+00;  2.771177469633E+00;  9.999989531934E-03;  1.000001188368E-02;  9.999999786065E-03; -4.499999880791E-01;  4.499999880791E-01; -1.803966297576E-03;  0.000000000000E+00;  1.545300000000E+04;  7.726500000000E+03;  0.000000000000E+00;  1.332102278382E+00;  1.120862494458E-01; -8.154652081430E-03;  1.332094907761E+00;  1.115830494060E-01;  0.000000000000E+00;  0.000000000000E+00;  0.000000000000E+00; -1.286071687937E-01;  8.461003750563E-02; -1.515803782611E-03;  9.676201782227E+02;  1.078648437500E+03;  9.982384219697E+02;  8.123791217804E-02;  1.119080543518E+00;  3.667337216376E-01; -2.682605664062E+04;  5.098803906250E+04; -1.470935207443E+03;  0.000000000000E+00;  3.000000000000E+00;  2.524783227643E+00;  0.000000000000E+00;  4.508061948114E+02;  7.136201538252E+00; -1.441234893799E+02;  3.067517089844E+02;  2.777130022981E+00; -6.890125223435E-05;  6.176070746733E-05;  3.698055409009E-09; -3.383227233887E+02;  3.366178894043E+02; -2.421766841411E-02;  0.000000000000E+00;  5.000000000000E+00;  1.279992235020E+00; -1.745021492243E-01;  6.054676532745E+00;  1.305697142083E-01;  1.524415130615E+02;  5.575392578125E+04;  2.053280928826E+04; -4.791408777237E-03;  2.555070444942E-02;  1.100475187569E-05; -1.188992309570E+03;  1.450158203125E+03;  5.154237099406E+00;  3.999997656250E+04;  4.000000781250E+04;  3.999999918483E+04; -1.326623558998E-01;  5.775825381279E-01; -1.447928293662E-03;  2.165886328125E+04;  8.582560156250E+04;  4.004322332646E+04;  0.000000000000E+00;  6.456878951189E+00;  1.417676906953E-01; -2.047292888165E-01;  6.445066452026E+00;  1.240830531495E-01;  0.000000000000E+00;  0.000000000000E+00;  0.000000000000E+00; -7.043632864952E-01;  6.646649241447E-01;  6.486661014301E-03;  0.000000000000E+00;  5.426221250000E+05;  3.874436567889E+04;
